     Program PWSCF v.5.0.2 (svn rev. 9656) starts on 30Apr2014 at  6:21:13

     Current dimensions of program PWSCF are:
     Max number of different atomic species (ntypx) = 10
     Max number of k-points (npk) =  40000
     Max angular momentum in pseudopotentials (lmaxx) =  3
     Reading input from pwscf.in
Warning: card &CELL ignored
Warning: card / ignored

     Subspace diagonalization in iterative solution of the eigenvalue problem:
     a serial algorithm will be used

     bravais-lattice index     =            0
     lattice parameter (alat)  =      11.7541  a.u.
     unit-cell volume          =    7139.8207 (a.u.)^3
     number of atoms/cell      =           32
     number of atomic types    =            3
     number of electrons       =       239.00
     number of Kohn-Sham states=          358
     kinetic-energy cutoff     =      40.0000  Ry
     charge density cutoff     =     500.0000  Ry
     convergence threshold     =      1.0E-06
     mixing beta               =       0.7000
     number of iterations used =            8  plain     mixing
     Exchange-correlation      = SLA  PW   PBE  PBE ( 1 4 3 4 0)
     EXX-fraction              =        0.00
     nstep                     =           50

     celldm(1)=  11.754097  celldm(2)=   0.000000  celldm(3)=   0.000000
     celldm(4)=   0.000000  celldm(5)=   0.000000  celldm(6)=   0.000000

     crystal axes: (cart. coord. in units of alat)
               a(1) = (   1.000000   0.000000   0.000000 )
               a(2) = (   0.000000   1.034513   0.000000 )
               a(3) = (   0.000000   0.000000   4.249947 )

     reciprocal axes: (cart. coord. in units 2 pi/alat)
               b(1) = (  1.000000  0.000000  0.000000 )
               b(2) = (  0.000000  0.966638  0.000000 )
               b(3) = (  0.000000  0.000000  0.235297 )

     PseudoPot. # 1 for O  read from file:
     /home/camp/zhonxu/pseudo/o_pbe_v1.01.uspp.F.UPF
     MD5 check sum: 2bcb18d16ea4b960afae9ec6d52f22d2
     Pseudo is Ultrasoft + core correction, Zval =  6.0
     Generated by new atomic code, or converted to UPF format
     Using radial grid of  737 points,  5 beta functions with:
                l(1) =   0
                l(2) =   0
                l(3) =   1
                l(4) =   1
                l(5) =   2
     Q(r) pseudized with  8 coefficients,  rinner =    0.900   0.900   0.900
                                                       0.900   0.900

     PseudoPot. # 2 for Rh read from file:
     /home/camp/zhonxu/pseudo/rh_pbe_v1.uspp.F.UPF
     MD5 check sum: 37b626987ad0dd8ec6bf4cc9ef289918
     Pseudo is Ultrasoft + core correction, Zval = 15.0
     Generated by new atomic code, or converted to UPF format
     Using radial grid of  969 points,  7 beta functions with:
                l(1) =   0
                l(2) =   0
                l(3) =   1
                l(4) =   1
                l(5) =   2
                l(6) =   2
                l(7) =   2
     Q(r) pseudized with  6 coefficients,  rinner =    1.050   1.050   1.050
                                                       1.050   1.050

     PseudoPot. # 3 for H  read from file:
     /home/camp/zhonxu/pseudo/h_pbe_v1.uspp.F.UPF
     MD5 check sum: 3408e3ff4ec8b0a4e358431e7e038a48
     Pseudo is Ultrasoft, Zval =  1.0
     Generated by new atomic code, or converted to UPF format
     Using radial grid of  615 points,  2 beta functions with:
                l(1) =   0
                l(2) =   0
     Q(r) pseudized with  8 coefficients,  rinner =    0.700

     atomic species   valence    mass     pseudopotential
        O0             6.00    15.99940     O ( 1.00)
        Rh1           15.00   102.90550     Rh( 1.00)
        H2             1.00     1.00794     H ( 1.00)

     Simplified LDA+U calculation (l_max = 2) with parameters (eV):
     atomic species    L          U    alpha       J0     beta
        Rh1            2     2.5000   0.0000   0.0000   0.0000

     No symmetry found

   Cartesian axes

     site n.     atom                  positions (alat units)
         1           O0  tau(   1) = (   0.0000000   0.0000000   1.6077125  )
         2           O0  tau(   2) = (   0.0000000   0.5172566   1.7060138  )
         3           Rh1 tau(   3) = (   0.2500000   0.5172566   1.9233561  )
         4           Rh1 tau(   4) = (   0.0000000   0.0000000   1.9242061  )
         5           O0  tau(   5) = (   0.2500000   0.8379556   1.9221236  )
         6           O0  tau(   6) = (   0.2500000   0.1965575   1.9218261  )
         7           O0  tau(   7) = (   0.0000000   0.5172566   2.1180887  )
         8           O0  tau(   8) = (   0.0000000   0.0000000   2.2452046  )
         9           Rh1 tau(   9) = (   0.2500000   0.0000000   2.4467796  )
        10           Rh1 tau(  10) = (   0.0000000   0.5172566   2.4248074  )
        11           O0  tau(  11) = (   0.2500000   0.7138141   2.4490746  )
        12           O0  tau(  12) = (   0.2500000   0.3206991   2.4494996  )
        13           O0  tau(  13) = (   0.0000000   0.0000000   2.6392597  )
        14           O0  tau(  14) = (   0.5000000   0.0000000   1.6071175  )
        15           O0  tau(  15) = (   0.5000000   0.5172566   1.7046963  )
        16           Rh1 tau(  16) = (   0.7500000   0.5172566   1.9233561  )
        17           Rh1 tau(  17) = (   0.5000000   0.0000000   1.9236961  )
        18           O0  tau(  18) = (   0.7500000   0.8379556   1.9222086  )
        19           O0  tau(  19) = (   0.7500000   0.1965575   1.9219111  )
        20           O0  tau(  20) = (   0.5000000   0.5172566   2.1234861  )
        21           O0  tau(  21) = (   0.5000000   0.0000000   2.2446521  )
        22           Rh1 tau(  22) = (   0.7500000   0.0000000   2.4466946  )
        23           Rh1 tau(  23) = (   0.5000000   0.5172566   2.4467371  )
        24           O0  tau(  24) = (   0.7500000   0.7138141   2.4449521  )
        25           O0  tau(  25) = (   0.7500000   0.3206991   2.4452921  )
        26           O0  tau(  26) = (   0.5000000   0.0000000   2.6379847  )
        27           H2  tau(  27) = (  -0.0000100   0.6596573   1.6332972  )
        28           H2  tau(  28) = (   0.4999400   0.6612505   1.6349547  )
        29           H2  tau(  29) = (   0.1484100   0.0351631   1.5627056  )
        30           H2  tau(  30) = (   0.6482100   0.0356700   1.5619406  )
        31           O0  tau(  31) = (   0.5154200   0.5168841   2.7565583  )
        32           H2  tau(  32) = (   0.3686900   0.5167083   2.8162275  )

     number of k points=    10  Methfessel-Paxton smearing, width (Ry)=  0.0100
                       cart. coord. in units 2pi/alat
        k(    1) = (   0.0000000   0.0000000   0.0000000), wk =   0.1250000
        k(    2) = (   0.0000000   0.2416596   0.0000000), wk =   0.2500000
        k(    3) = (   0.0000000  -0.4833191   0.0000000), wk =   0.1250000
        k(    4) = (   0.2500000   0.0000000   0.0000000), wk =   0.2500000
        k(    5) = (   0.2500000   0.2416596   0.0000000), wk =   0.2500000
        k(    6) = (   0.2500000  -0.4833191   0.0000000), wk =   0.2500000
        k(    7) = (  -0.5000000   0.0000000   0.0000000), wk =   0.1250000
        k(    8) = (  -0.5000000   0.2416596   0.0000000), wk =   0.2500000
        k(    9) = (  -0.5000000  -0.4833191   0.0000000), wk =   0.1250000
        k(   10) = (  -0.2500000   0.2416596   0.0000000), wk =   0.2500000

     Largest allocated arrays     est. size (Mb)     dimensions
     Largest temporary arrays     est. size (Mb)     dimensions

     Check: negative/imaginary core charge=   -0.000003    0.000000

     Initial potential from superposition of free atoms
     Check: negative starting charge=   -0.644969

     starting charge  234.99914, renormalised to  239.00000

     negative rho (up, down):  0.656E+00 0.000E+00
     Number of +U iterations with fixed ns =  0
     Starting occupations:
 --- enter write_ns ---
 LDA+U parameters:
U( 2)     =  2.50000000
alpha( 2) =  0.00000000
atom    3   Tr[ns(na)] =   7.00000
    eigenvalues:
  0.700  0.700  0.700  0.700  0.700
    eigenvectors:
  1.000  0.000  0.000  0.000  0.000
  0.000  1.000  0.000  0.000  0.000
  0.000  0.000  1.000  0.000  0.000
  0.000  0.000  0.000  1.000  0.000
  0.000  0.000  0.000  0.000  1.000
    occupations:
  0.700  0.000  0.000  0.000  0.000
  0.000  0.700  0.000  0.000  0.000
  0.000  0.000  0.700  0.000  0.000
  0.000  0.000  0.000  0.700  0.000
  0.000  0.000  0.000  0.000  0.700
atom    4   Tr[ns(na)] =   7.00000
    eigenvalues:
  0.700  0.700  0.700  0.700  0.700
    eigenvectors:
  1.000  0.000  0.000  0.000  0.000
  0.000  1.000  0.000  0.000  0.000
  0.000  0.000  1.000  0.000  0.000
  0.000  0.000  0.000  1.000  0.000
  0.000  0.000  0.000  0.000  1.000
    occupations:
  0.700  0.000  0.000  0.000  0.000
  0.000  0.700  0.000  0.000  0.000
  0.000  0.000  0.700  0.000  0.000
  0.000  0.000  0.000  0.700  0.000
  0.000  0.000  0.000  0.000  0.700
atom    9   Tr[ns(na)] =   7.00000
    eigenvalues:
  0.700  0.700  0.700  0.700  0.700
    eigenvectors:
  1.000  0.000  0.000  0.000  0.000
  0.000  1.000  0.000  0.000  0.000
  0.000  0.000  1.000  0.000  0.000
  0.000  0.000  0.000  1.000  0.000
  0.000  0.000  0.000  0.000  1.000
    occupations:
  0.700  0.000  0.000  0.000  0.000
  0.000  0.700  0.000  0.000  0.000
  0.000  0.000  0.700  0.000  0.000
  0.000  0.000  0.000  0.700  0.000
  0.000  0.000  0.000  0.000  0.700
atom   10   Tr[ns(na)] =   7.00000
    eigenvalues:
  0.700  0.700  0.700  0.700  0.700
    eigenvectors:
  1.000  0.000  0.000  0.000  0.000
  0.000  1.000  0.000  0.000  0.000
  0.000  0.000  1.000  0.000  0.000
  0.000  0.000  0.000  1.000  0.000
  0.000  0.000  0.000  0.000  1.000
    occupations:
  0.700  0.000  0.000  0.000  0.000
  0.000  0.700  0.000  0.000  0.000
  0.000  0.000  0.700  0.000  0.000
  0.000  0.000  0.000  0.700  0.000
  0.000  0.000  0.000  0.000  0.700
atom   16   Tr[ns(na)] =   7.00000
    eigenvalues:
  0.700  0.700  0.700  0.700  0.700
    eigenvectors:
  1.000  0.000  0.000  0.000  0.000
  0.000  1.000  0.000  0.000  0.000
  0.000  0.000  1.000  0.000  0.000
  0.000  0.000  0.000  1.000  0.000
  0.000  0.000  0.000  0.000  1.000
    occupations:
  0.700  0.000  0.000  0.000  0.000
  0.000  0.700  0.000  0.000  0.000
  0.000  0.000  0.700  0.000  0.000
  0.000  0.000  0.000  0.700  0.000
  0.000  0.000  0.000  0.000  0.700
atom   17   Tr[ns(na)] =   7.00000
    eigenvalues:
  0.700  0.700  0.700  0.700  0.700
    eigenvectors:
  1.000  0.000  0.000  0.000  0.000
  0.000  1.000  0.000  0.000  0.000
  0.000  0.000  1.000  0.000  0.000
  0.000  0.000  0.000  1.000  0.000
  0.000  0.000  0.000  0.000  1.000
    occupations:
  0.700  0.000  0.000  0.000  0.000
  0.000  0.700  0.000  0.000  0.000
  0.000  0.000  0.700  0.000  0.000
  0.000  0.000  0.000  0.700  0.000
  0.000  0.000  0.000  0.000  0.700
atom   22   Tr[ns(na)] =   7.00000
    eigenvalues:
  0.700  0.700  0.700  0.700  0.700
    eigenvectors:
  1.000  0.000  0.000  0.000  0.000
  0.000  1.000  0.000  0.000  0.000
  0.000  0.000  1.000  0.000  0.000
  0.000  0.000  0.000  1.000  0.000
[...]
  0.028  0.001 -0.001  0.973  0.000
  0.001 -0.001  0.001  0.000  0.602
atom    9   Tr[ns(na)] =   8.00476
    eigenvalues:
  0.638  0.647  0.852  0.889  0.976
    eigenvectors:
  0.002  0.151  0.000  0.000  0.848
  0.989  0.011  0.000  0.000  0.000
  0.000  0.000  0.994  0.006  0.000
  0.010  0.838  0.000  0.000  0.152
  0.000  0.000  0.006  0.994  0.000
    occupations:
  0.926  0.000 -0.000 -0.118 -0.000
  0.000  0.638  0.000  0.001 -0.000
 -0.000  0.000  0.853 -0.000 -0.003
 -0.118  0.001 -0.000  0.697  0.001
 -0.000 -0.000 -0.003  0.001  0.889
atom   10   Tr[ns(na)] =   8.01174
    eigenvalues:
  0.595  0.606  0.913  0.915  0.977
    eigenvectors:
  0.000  0.992  0.000  0.000  0.008
  0.000  0.000  1.000  0.000  0.000
  0.000  0.000  0.000  1.000  0.000
  0.000  0.008  0.000  0.000  0.992
  1.000  0.000  0.000  0.000  0.000
    occupations:
  0.609 -0.003  0.001  0.033 -0.000
 -0.003  0.913  0.000  0.000 -0.000
  0.001  0.000  0.915  0.000  0.003
  0.033  0.000  0.000  0.974  0.000
 -0.000 -0.000  0.003  0.000  0.595
atom   16   Tr[ns(na)] =   8.02064
    eigenvalues:
  0.586  0.608  0.887  0.956  0.973
    eigenvectors:
  0.008  0.193  0.003  0.001  0.796
  0.971  0.028  0.000  0.000  0.000
  0.000  0.000  0.973  0.025  0.002
  0.021  0.778  0.000  0.000  0.200
  0.000  0.000  0.024  0.974  0.001
    occupations:
  0.899  0.006  0.003 -0.147  0.002
  0.006  0.587  0.001  0.001 -0.006
  0.003  0.001  0.889 -0.004 -0.010
 -0.147  0.001 -0.004  0.681  0.000
  0.002 -0.006 -0.010  0.000  0.954
atom   17   Tr[ns(na)] =   8.01266
    eigenvalues:
  0.601  0.649  0.868  0.913  0.976
    eigenvectors:
  0.001  0.992  0.000  0.000  0.007
  0.000  0.000  0.072  0.928  0.000
  0.000  0.000  0.928  0.072  0.000
  0.000  0.007  0.000  0.000  0.993
  0.999  0.001  0.000  0.000  0.000
    occupations:
  0.651 -0.004 -0.001  0.028  0.001
 -0.004  0.910  0.012  0.001 -0.001
 -0.001  0.012  0.871 -0.001  0.001
  0.028  0.001 -0.001  0.973  0.000
  0.001 -0.001  0.001  0.000  0.601
atom   22   Tr[ns(na)] =   8.00114
    eigenvalues:
  0.638  0.648  0.845  0.893  0.976
    eigenvectors:
  0.000  0.151  0.000  0.000  0.849
  0.999  0.001  0.000  0.000  0.000
  0.000  0.000  0.996  0.004  0.000
  0.001  0.849  0.000  0.000  0.151
  0.000  0.000  0.004  0.996  0.000
    occupations:
  0.927  0.001 -0.000 -0.117 -0.000
  0.001  0.638  0.000 -0.001 -0.000
 -0.000  0.000  0.845 -0.000  0.003
 -0.117 -0.001 -0.000  0.698  0.001
 -0.000 -0.000  0.003  0.001  0.892
atom   23   Tr[ns(na)] =   8.00315
    eigenvalues:
  0.606  0.652  0.847  0.922  0.974
    eigenvectors:
  0.000  0.991  0.000  0.000  0.008
  0.000  0.000  0.000  1.000  0.000
  0.000  0.000  1.000  0.000  0.000
  0.000  0.008  0.000  0.000  0.992
  1.000  0.000  0.000  0.000  0.000
    occupations:
  0.655  0.006 -0.000  0.029 -0.000
  0.006  0.922 -0.000 -0.000 -0.000
 -0.000 -0.000  0.847  0.000 -0.002
  0.029 -0.000  0.000  0.972  0.000
 -0.000 -0.000 -0.002  0.000  0.606
N of occupied +U levels =  64.0877690
 --- exit write_ns ---

     Threshold (ethr) on eigenvalues was too large:
     Diagonalizing with lowered threshold

     Davidson diagonalization with overlap
     ethr =  4.98E-09,  avg # of iterations =  4.0

[...]

     total energy              =   -1980.61343721 Ry
     Harris-Foulkes estimate   =   -1980.61343722 Ry
     estimated scf accuracy    <       0.00000018 Ry

     iteration # 15     ecut=    40.00 Ry     beta=0.70
     Davidson diagonalization with overlap
     ethr =  1.68E-11,  avg # of iterations =  1.0

     negative rho (up, down):  0.693E+00 0.000E+00

     End of self-consistent calculation
 --- enter write_ns ---
 LDA+U parameters:
U( 2)     =  2.50000000
alpha( 2) =  0.00000000
atom    3   Tr[ns(na)] =   8.02144
    eigenvalues:
  0.586  0.608  0.888  0.956  0.973
    eigenvectors:
  0.007  0.194  0.003  0.001  0.796
  0.974  0.025  0.000  0.000  0.000
  0.000  0.000  0.967  0.031  0.002
  0.019  0.780  0.000  0.000  0.201
  0.000  0.000  0.030  0.968  0.001
    occupations:
  0.899 -0.006  0.003 -0.147 -0.002
 -0.006  0.586 -0.002 -0.001 -0.006
  0.003 -0.002  0.890 -0.004  0.012
 -0.147 -0.001 -0.004  0.681 -0.000
 -0.002 -0.006  0.012 -0.000  0.954
atom    4   Tr[ns(na)] =   8.01210
    eigenvalues:
  0.602  0.650  0.865  0.915  0.975
    eigenvectors:
  0.001  0.992  0.000  0.000  0.007
  0.000  0.000  0.048  0.951  0.000
  0.000  0.000  0.952  0.048  0.000
  0.000  0.007  0.000  0.000  0.993
  0.999  0.001  0.000  0.000  0.000
    occupations:
  0.652 -0.004 -0.001  0.028  0.001
 -0.004  0.912  0.011  0.001 -0.001
 -0.001  0.011  0.867 -0.001  0.001
  0.028  0.001 -0.001  0.973  0.000
  0.001 -0.001  0.001  0.000  0.602
atom    9   Tr[ns(na)] =   8.00525
    eigenvalues:
  0.638  0.647  0.852  0.889  0.976
    eigenvectors:
  0.002  0.151  0.000  0.000  0.848
  0.989  0.011  0.000  0.000  0.000
  0.000  0.000  0.994  0.006  0.000
  0.009  0.838  0.000  0.000  0.152
  0.000  0.000  0.006  0.994  0.000
    occupations:
  0.926  0.000 -0.000 -0.118 -0.000
  0.000  0.638  0.000  0.001 -0.000
 -0.000  0.000  0.853 -0.000 -0.003
 -0.118  0.001 -0.000  0.697  0.001
 -0.000 -0.000 -0.003  0.001  0.889
atom   10   Tr[ns(na)] =   8.01171
    eigenvalues:
  0.595  0.606  0.913  0.915  0.977
    eigenvectors:
  0.000  0.992  0.000  0.000  0.008
  0.000  0.000  1.000  0.000  0.000
  0.000  0.000  0.000  1.000  0.000
  0.000  0.008  0.000  0.000  0.992
  1.000  0.000  0.000  0.000  0.000
    occupations:
  0.609 -0.003  0.001  0.033 -0.000
 -0.003  0.913  0.000  0.000 -0.000
  0.001  0.000  0.915  0.000  0.003
  0.033  0.000  0.000  0.974  0.000
 -0.000 -0.000  0.003  0.000  0.595
atom   16   Tr[ns(na)] =   8.02118
    eigenvalues:
  0.586  0.608  0.888  0.956  0.973
    eigenvectors:
  0.008  0.193  0.003  0.001  0.796
  0.971  0.028  0.000  0.000  0.000
  0.000  0.000  0.973  0.025  0.002
  0.021  0.778  0.000  0.000  0.200
  0.000  0.000  0.024  0.974  0.001
    occupations:
  0.899  0.006  0.003 -0.147  0.002
  0.006  0.587  0.001  0.001 -0.006
  0.003  0.001  0.889 -0.004 -0.010
 -0.147  0.001 -0.004  0.681  0.000
  0.002 -0.006 -0.010  0.000  0.954
atom   17   Tr[ns(na)] =   8.01178
    eigenvalues:
  0.601  0.649  0.867  0.913  0.976
    eigenvectors:
  0.001  0.992  0.000  0.000  0.007
  0.000  0.000  0.071  0.928  0.000
  0.000  0.000  0.929  0.071  0.000
  0.000  0.007  0.000  0.000  0.993
  0.999  0.001  0.000  0.000  0.000
    occupations:
  0.651 -0.004 -0.001  0.028  0.001
 -0.004  0.910  0.012  0.001 -0.001
 -0.001  0.012  0.871 -0.001  0.001
  0.028  0.001 -0.001  0.973  0.000
  0.001 -0.001  0.001  0.000  0.601
atom   22   Tr[ns(na)] =   8.00180
    eigenvalues:
  0.638  0.648  0.845  0.893  0.976
    eigenvectors:
  0.000  0.151  0.000  0.000  0.849
  0.999  0.001  0.000  0.000  0.000
  0.000  0.000  0.996  0.004  0.000
  0.000  0.849  0.000  0.000  0.151
  0.000  0.000  0.004  0.996  0.000
    occupations:
  0.927  0.001 -0.000 -0.117 -0.000
  0.001  0.638  0.000 -0.001 -0.000
 -0.000  0.000  0.845 -0.000  0.003
 -0.117 -0.001 -0.000  0.698  0.001
 -0.000 -0.000  0.003  0.001  0.892
atom   23   Tr[ns(na)] =   8.00261
    eigenvalues:
  0.606  0.652  0.847  0.922  0.974
    eigenvectors:
  0.000  0.991  0.000  0.000  0.008
  0.000  0.000  0.000  1.000  0.000
  0.000  0.000  1.000  0.000  0.000
  0.000  0.008  0.000  0.000  0.992
  1.000  0.000  0.000  0.000  0.000
    occupations:
  0.655  0.006 -0.000  0.029 -0.000
  0.006  0.922 -0.000 -0.000 -0.000
 -0.000 -0.000  0.847  0.000 -0.002
  0.029 -0.000  0.000  0.972  0.000
 -0.000 -0.000 -0.002  0.000  0.606
N of occupied +U levels =  64.0878644
 --- exit write_ns ---

[...]

          k = 0.2500-0.4833 0.0000 ( 30510 PWs)   bands (ev):

[...]

          k =-0.2500 0.2417 0.0000 ( 30481 PWs)   bands (ev):

   -49.1491 -49.1000 -49.0832 -49.0690 -49.0343 -49.0146 -48.9907 -48.9900
   -48.9756 -48.9513 -48.9509 -48.9459 -48.8649 -48.8594 -48.8365 -48.7473
   -48.7415 -48.7070 -48.6794 -48.6616 -48.6483 -48.6458 -48.6422 -48.6153
   -21.3639 -21.0805 -20.9395 -20.8137 -20.5654 -20.4177 -20.3545 -20.3295
   -20.2264 -20.1482 -20.0849 -20.0371 -19.9936 -19.9810 -19.8365 -19.8086
   -19.7406 -19.0076 -18.8801  -9.7120  -9.6007  -9.5092  -9.2613  -8.9274
    -8.8715  -8.8512  -8.7392  -8.6294  -8.5925  -8.5474  -8.4676  -8.4320
    -8.3363  -8.1471  -8.0691  -7.8978  -7.8751  -7.6370  -7.4424  -7.3669
    -7.2820  -7.2171  -7.0671  -6.8780  -6.7931  -6.7219  -6.5630  -6.3590
    -6.3374  -6.2875  -6.2488  -6.1524  -6.0734  -5.9940  -5.9536  -5.8857
    -5.7865  -5.7295  -5.6230  -5.4694  -5.3510  -5.2904  -5.1058  -4.9658
    -4.9123  -4.7902  -4.6946  -4.5724  -4.4798  -4.4533  -4.2488  -4.0915
    -4.0156  -3.8592  -3.7964  -3.7150  -3.6335  -3.5629  -3.4691  -3.4037
    -3.3309  -3.2571  -3.1921  -3.1612  -3.1015  -3.0742  -3.0037  -2.9378
    -2.8869  -2.7752  -2.4630  -2.2786  -2.1318  -1.9839  -1.8514  -1.8213
    -1.7833  -1.6083  -1.5110  -1.4160  -0.8657  -0.3176  -0.2479   0.0515
     0.3736   0.5741   0.8657   1.0300   1.3465   1.4063   1.5672   1.6050
     1.7318   1.8553   1.9187   2.2602   3.6848   3.9049   4.5964   4.9859
     5.3656   5.5020   5.5705   5.8765   6.1428   6.3673   6.4673   6.4879
     6.5384   6.7837   6.8945   7.0941   7.2649   7.4565   7.5539   7.7065
     7.8918   7.9473   8.0722   8.1748   8.2130   8.3457   8.4480   8.5580
     8.7377   8.8386   8.9234   8.9684   9.0962   9.2496   9.4598   9.5610
     9.6254   9.7327   9.8018   9.9126   9.9228  10.0025  10.1939  10.2210
    10.3424  10.3674  10.4216  10.5860  10.7026  10.7382  10.8395  10.9431
    11.0218  11.0759  11.2013  11.2120  11.3298  11.3900  11.4918  11.5550
    11.5854  11.6984  11.7871  11.7997  11.8925  12.0284  12.1422  12.1927
    12.2396  12.2815  12.3411  12.4298  12.4991  12.5386  12.6371  12.6959
    12.7809  12.8304  12.9168  12.9904  13.1121  13.1669  13.2465  13.2793
    13.3634  13.4218  13.5091  13.5479  13.7211  13.7880  13.8435  13.9384
    13.9771  14.0271  14.1505  14.2009  14.2756  14.3173  14.4059  14.4580
    14.5885  14.6408  14.7024  14.7987  14.9763  15.0595  15.2000  15.3188
    15.3589  15.3956  15.4859  15.5362  15.5824  15.5940  15.6982  15.7794
    15.8062  15.8519  15.9224  16.0336  16.0876  16.1341  16.1908  16.3033
    16.3600  16.4104  16.4404  16.4838  16.5198  16.5790  16.6300  16.7289
    16.7655  16.8602  16.9432  17.0170  17.0877  17.1943  17.2265  17.2574
    17.3579  17.4015  17.4801  17.5190  17.5799  17.6497  17.7442  17.8370
    17.8834  17.9569  18.0283  18.0867  18.1061  18.2380  18.2803  18.3200
    18.4426  18.5219  18.6003  18.6749  18.7533  18.8131  18.8492  18.9311
    18.9805  19.0285  19.1217  19.1379  19.2438  19.2781  19.3249  19.4617
    19.5314  19.5980  19.6380  19.7309  19.7813  19.8805  19.9505  20.0482
    20.1493  20.2084  20.2847  20.3720  20.4876  20.5609  20.5883  20.6571
    20.7259  20.7845  20.8434  20.9098  20.9663  21.0636  21.1672  21.1843
    21.2362  21.2888  21.3178  21.3858  21.4291  21.4746  21.5357  21.6677
    21.7230  21.7942  21.8284  21.8626  21.9350  21.9838  22.0656  22.1201
    22.2108  22.2540  22.3655  22.4184  22.4923  22.5581

     the Fermi energy is    -1.8482 ev

!    total energy              =   -1980.61343721 Ry
     Harris-Foulkes estimate   =   -1980.61343722 Ry
     estimated scf accuracy    <          4.3E-09 Ry

     The total energy is the sum of the following terms:

     one-electron contribution =  -23347.40571294 Ry
     hartree contribution      =   11722.59289021 Ry
     xc contribution           =    -372.90914525 Ry
     ewald contribution        =   10016.11088416 Ry
     Hubbard energy            =       0.99912969 Ry
     smearing contrib. (-TS)   =      -0.00148308 Ry

     convergence has been achieved in  15 iterations

     Forces acting on atoms (Ry/au):

     negative rho (up, down):  0.693E+00 0.000E+00
     atom    1 type  1   force =    -0.00691852   -0.01299766   -0.00016947
     atom    2 type  1   force =     0.00041824    0.00455721   -0.00006812
     atom    3 type  2   force =     0.03097573    0.00720689   -0.00048132
     atom    4 type  2   force =     0.00833067    0.00912209   -0.00015936
     atom    5 type  1   force =    -0.00260670   -0.02969646    0.00022422
     atom    6 type  1   force =     0.00218345    0.02617714    0.00030774
     atom    7 type  1   force =     0.00199771   -0.00134901    0.00031540
     atom    8 type  1   force =    -0.00147715   -0.00093760   -0.00011131
     atom    9 type  2   force =     0.00443538   -0.00015629   -0.00021843
     atom   10 type  2   force =    -0.00622101   -0.00153855   -0.00078994
     atom   11 type  1   force =    -0.01051814    0.01140074    0.00027694
     atom   12 type  1   force =    -0.01071950   -0.01122322    0.00027360
     atom   13 type  1   force =    -0.00111999   -0.00000211   -0.00004941
     atom   14 type  1   force =    -0.00667181   -0.01316663    0.00017269
     atom   15 type  1   force =     0.00025402    0.00487143   -0.00016683
     atom   16 type  2   force =    -0.03217145    0.00606845   -0.00049735
     atom   17 type  2   force =     0.00847459    0.00922280   -0.00039797
     atom   18 type  1   force =    -0.00084200   -0.02955326    0.00022714
     atom   19 type  1   force =     0.00341675    0.02689680    0.00030504
     atom   20 type  1   force =    -0.00155595   -0.00478256    0.00051356
     atom   21 type  1   force =    -0.00419695   -0.00058210   -0.00013198
     atom   22 type  2   force =    -0.00102386    0.00051241   -0.00033707
     atom   23 type  2   force =     0.00265454    0.00014631    0.00009709
     atom   24 type  1   force =     0.01104102    0.01640721    0.00012151
     atom   25 type  1   force =     0.01188255   -0.01660460    0.00011615
     atom   26 type  1   force =    -0.00091465   -0.00016739   -0.00019240
     atom   27 type  3   force =    -0.00000905   -0.00001694    0.00040401
     atom   28 type  3   force =     0.00000746    0.00004158    0.00047370
     atom   29 type  3   force =     0.00001401    0.00011160    0.00007906
     atom   30 type  3   force =    -0.00025530    0.00014778   -0.00002236
     atom   31 type  1   force =     0.00022648   -0.00005995    0.00015234
     atom   32 type  3   force =     0.00090944   -0.00005610   -0.00026685

     Total force =     0.001981     Total SCF correction =     0.000226
     SCF correction compared to forces is large: reduce conv_thr to get better values

     bfgs converged in   8 scf cycles and   7 bfgs steps
     (criteria: energy < 0.10E-03, force < 0.10E-02)

     End of BFGS Geometry Optimization

     Final energy   =   -1980.6134372108 Ry
Begin final coordinates

ATOMIC_POSITIONS (crystal)
O0       0.000000000   0.000000000   0.378422282    0   0   1
O0       0.000000000   0.500000000   0.401893585    0   0   1
Rh1      0.250000000   0.500000000   0.452734800    0   0   1
Rh1      0.000000000   0.000000000   0.452756875    0   0   1
O0       0.250000000   0.810000000   0.452334190    0   0   1
O0       0.250000000   0.190000000   0.452178591    0   0   1
O0       0.000000000   0.500000000   0.498918822    0   0   1
O0       0.000000000   0.000000000   0.528231331    0   0   1
Rh1      0.250000000   0.000000000   0.575593414    0   0   1
Rh1      0.000000000   0.500000000   0.570679427    0   0   1
O0       0.250000000   0.690000000   0.576050676    0   0   1
O0       0.250000000   0.310000000   0.576129966    0   0   1
O0       0.000000000   0.000000000   0.620920743    0   0   1
O0       0.500000000   0.000000000   0.378160421    0   0   1
O0       0.500000000   0.500000000   0.401496573    0   0   1
Rh1      0.750000000   0.500000000   0.452733270    0   0   1
Rh1      0.500000000   0.000000000   0.452503178    0   0   1
O0       0.750000000   0.810000000   0.452342166    0   0   1
O0       0.750000000   0.190000000   0.452191356    0   0   1
O0       0.500000000   0.500000000   0.499913540    0   0   1
O0       0.500000000   0.000000000   0.528106520    0   0   1
Rh1      0.750000000   0.000000000   0.575533683    0   0   1
Rh1      0.500000000   0.500000000   0.575401723    0   0   1
O0       0.750000000   0.690000000   0.574947074    0   0   1
O0       0.750000000   0.310000000   0.575011115    0   0   1
O0       0.500000000   0.000000000   0.620706457    0   0   1
H2      -0.000092709   0.636707525   0.384451325
H2       0.499884622   0.638525948   0.384872823
H2       0.148174148   0.034229680   0.367684471
H2       0.648086447   0.034945764   0.367486886
O0       0.516407451   0.499528449   0.648199712
H2       0.370139263   0.499384112   0.662533004
End final coordinates

     General routines

     Parallel routines
     Hubbard U routines

   This run was terminated on:  16: 6:45  30Apr2014

   JOB DONE.