     Program PWSCF v.5.0.2 (svn rev. 9656) starts on 11Aug2014 at  8:48:58

     Current dimensions of program PWSCF are:
     Max number of different atomic species (ntypx) = 10
     Max number of k-points (npk) =  40000
     Max angular momentum in pseudopotentials (lmaxx) =  3
     Reading input from pwscf.in
Warning: card &CELL ignored
Warning: card / ignored

     Subspace diagonalization in iterative solution of the eigenvalue problem:
     a serial algorithm will be used

     bravais-lattice index     =            0
     lattice parameter (alat)  =      11.7919  a.u.
     unit-cell volume          =    7123.6633 (a.u.)^3
     number of atoms/cell      =           33
     number of atomic types    =            3
     number of electrons       =       253.00
     number of Kohn-Sham states=          379
     kinetic-energy cutoff     =      40.0000  Ry
     charge density cutoff     =     500.0000  Ry
     convergence threshold     =      1.0E-06
     mixing beta               =       0.7000
     number of iterations used =            8  plain     mixing
     Exchange-correlation      = SLA  PW   PBE  PBE ( 1 4 3 4 0)
     EXX-fraction              =        0.00
     nstep                     =           50

     celldm(1)=  11.791891  celldm(2)=   0.000000  celldm(3)=   0.000000
     celldm(4)=   0.000000  celldm(5)=   0.000000  celldm(6)=   0.000000

     crystal axes: (cart. coord. in units of alat)
               a(1) = (   1.000000   0.000000   0.000000 )
               a(2) = (   0.000000   1.026665   0.000000 )
               a(3) = (   0.000000   0.000000   4.231793 )

     reciprocal axes: (cart. coord. in units 2 pi/alat)
               b(1) = (  1.000000  0.000000  0.000000 )
               b(2) = (  0.000000  0.974028  0.000000 )
               b(3) = (  0.000000  0.000000  0.236306 )

     PseudoPot. # 1 for O  read from file:
     /home-research/zhongnanxu/gbrv_espresso_pseudo_v1.01/o_pbe_v1.01.uspp.F.UPF
     MD5 check sum: 2bcb18d16ea4b960afae9ec6d52f22d2
     Pseudo is Ultrasoft + core correction, Zval =  6.0
     Generated by new atomic code, or converted to UPF format
     Using radial grid of  737 points,  5 beta functions with:
                l(1) =   0
                l(2) =   0
                l(3) =   1
                l(4) =   1
                l(5) =   2
     Q(r) pseudized with  8 coefficients,  rinner =    0.900   0.900   0.900
                                                       0.900   0.900

     PseudoPot. # 2 for Ru read from file:
     /home-research/zhongnanxu/gbrv_espresso_pseudo_v1.01/ru_pbe_v1.uspp.F.UPF
     MD5 check sum: df00be1c11b23341d9806d8f1dfa10cf
     Pseudo is Ultrasoft + core correction, Zval = 16.0
     Generated by new atomic code, or converted to UPF format
     Using radial grid of  967 points,  6 beta functions with:
                l(1) =   0
                l(2) =   0
                l(3) =   1
                l(4) =   1
                l(5) =   2
                l(6) =   2
     Q(r) pseudized with  8 coefficients,  rinner =    1.300   1.300   1.300
                                                       1.300   1.300

     PseudoPot. # 3 for H  read from file:
     /home-research/zhongnanxu/gbrv_espresso_pseudo_v1.01/h_pbe_v1.uspp.F.UPF
     MD5 check sum: 3408e3ff4ec8b0a4e358431e7e038a48
     Pseudo is Ultrasoft, Zval =  1.0
     Generated by new atomic code, or converted to UPF format
     Using radial grid of  615 points,  2 beta functions with:
                l(1) =   0
                l(2) =   0
     Q(r) pseudized with  8 coefficients,  rinner =    0.700

     atomic species   valence    mass     pseudopotential
        O0             6.00    15.99940     O ( 1.00)
        Ru1           16.00   101.07000     Ru( 1.00)
        H2             1.00     1.00794     H ( 1.00)

     Simplified LDA+U calculation (l_max = 2) with parameters (eV):
     atomic species    L          U    alpha       J0     beta
        Ru1            2     5.0000   0.0000   0.0000   0.0000

     No symmetry found

   Cartesian axes

     site n.     atom                  positions (alat units)
         1           O0  tau(   1) = (   0.0000000   0.0000000   1.6084198  )
         2           O0  tau(   2) = (   0.0000000   0.5133323   1.7126066  )
         3           Ru1 tau(   3) = (   0.2500000   0.5133323   1.9197528  )
         4           Ru1 tau(   4) = (   0.0000000   0.0000000   1.9192027  )
         5           O0  tau(   5) = (   0.2500000   0.8315984   1.9176369  )
         6           O0  tau(   6) = (   0.2500000   0.1950663   1.9169598  )
         7           O0  tau(   7) = (   0.0000000   0.5133323   2.1164466  )
         8           O0  tau(   8) = (   0.0000000   0.0000000   2.2268540  )
         9           Ru1 tau(   9) = (   0.2500000   0.0000000   2.4343812  )
        10           Ru1 tau(  10) = (   0.0000000   0.5133323   2.4092866  )
        11           O0  tau(  11) = (   0.2500000   0.7083986   2.4290914  )
        12           O0  tau(  12) = (   0.2500000   0.3182660   2.4391208  )
        13           O0  tau(  13) = (   0.0000000   0.0000000   2.6174062  )
        14           O0  tau(  14) = (   0.5000000   0.0000000   1.6069810  )
        15           O0  tau(  15) = (   0.5000000   0.5133323   1.7034236  )
        16           Ru1 tau(  16) = (   0.7500000   0.5133323   1.9199221  )
        17           Ru1 tau(  17) = (   0.5000000   0.0000000   1.9181871  )
        18           O0  tau(  18) = (   0.7500000   0.8315984   1.9171291  )
        19           O0  tau(  19) = (   0.7500000   0.1950663   1.9171714  )
        20           O0  tau(  20) = (   0.5000000   0.5133323   2.1186471  )
        21           O0  tau(  21) = (   0.5000000   0.0000000   2.2263462  )
        22           Ru1 tau(  22) = (   0.7500000   0.0000000   2.4483884  )
        23           Ru1 tau(  23) = (   0.5000000   0.5133323   2.4434372  )
        24           O0  tau(  24) = (   0.7500000   0.7083986   2.4339580  )
        25           O0  tau(  25) = (   0.7500000   0.3182660   2.4436911  )
        26           O0  tau(  26) = (   0.5000000   0.0000000   2.6073769  )
        27           H2  tau(  27) = (  -0.0008300   0.6193560   1.5959784  )
        28           H2  tau(  28) = (   0.4994700   0.6453922   1.6164179  )
        29           H2  tau(  29) = (   0.1467500   0.0247221   1.5541682  )
        30           H2  tau(  30) = (   0.6466300   0.0271142   1.5537027  )
        31           O0  tau(  31) = (   0.5000700   0.5441220   2.7471530  )
        32           O0  tau(  32) = (   0.4999900   0.3483987   2.8708906  )
        33           H2  tau(  33) = (   0.4999600   0.4102757   3.0165066  )

     number of k points=    10  Methfessel-Paxton smearing, width (Ry)=  0.0100
                       cart. coord. in units 2pi/alat
        k(    1) = (   0.0000000   0.0000000   0.0000000), wk =   0.1250000
        k(    2) = (   0.0000000   0.2435070   0.0000000), wk =   0.2500000
        k(    3) = (   0.0000000  -0.4870139   0.0000000), wk =   0.1250000
        k(    4) = (   0.2500000   0.0000000   0.0000000), wk =   0.2500000
        k(    5) = (   0.2500000   0.2435070   0.0000000), wk =   0.2500000
        k(    6) = (   0.2500000  -0.4870139   0.0000000), wk =   0.2500000
        k(    7) = (  -0.5000000   0.0000000   0.0000000), wk =   0.1250000
        k(    8) = (  -0.5000000   0.2435070   0.0000000), wk =   0.2500000
        k(    9) = (  -0.5000000  -0.4870139   0.0000000), wk =   0.1250000
        k(   10) = (  -0.2500000   0.2435070   0.0000000), wk =   0.2500000

     Largest allocated arrays     est. size (Mb)     dimensions
     Largest temporary arrays     est. size (Mb)     dimensions

     Check: negative/imaginary core charge=   -0.000003    0.000000

     Initial potential from superposition of free atoms
     Check: negative starting charge=   -0.520481

     starting charge  244.99980, renormalised to  253.00000

     negative rho (up, down):  0.537E+00 0.000E+00
     Number of +U iterations with fixed ns =  0
     Starting occupations:
 --- enter write_ns ---
 LDA+U parameters:
U( 2)     =  5.00000000
alpha( 2) =  0.00000000
atom    3   Tr[ns(na)] =   6.00000
    eigenvalues:
  0.600  0.600  0.600  0.600  0.600
    eigenvectors:
  1.000  0.000  0.000  0.000  0.000
  0.000  1.000  0.000  0.000  0.000
  0.000  0.000  1.000  0.000  0.000
  0.000  0.000  0.000  1.000  0.000
  0.000  0.000  0.000  0.000  1.000
    occupations:
  0.600  0.000  0.000  0.000  0.000
  0.000  0.600  0.000  0.000  0.000
  0.000  0.000  0.600  0.000  0.000
  0.000  0.000  0.000  0.600  0.000
  0.000  0.000  0.000  0.000  0.600
atom    4   Tr[ns(na)] =   6.00000
    eigenvalues:
  0.600  0.600  0.600  0.600  0.600
    eigenvectors:
  1.000  0.000  0.000  0.000  0.000
  0.000  1.000  0.000  0.000  0.000
  0.000  0.000  1.000  0.000  0.000
  0.000  0.000  0.000  1.000  0.000
  0.000  0.000  0.000  0.000  1.000
    occupations:
  0.600  0.000  0.000  0.000  0.000
  0.000  0.600  0.000  0.000  0.000
  0.000  0.000  0.600  0.000  0.000
  0.000  0.000  0.000  0.600  0.000
  0.000  0.000  0.000  0.000  0.600
atom    9   Tr[ns(na)] =   6.00000
    eigenvalues:
  0.600  0.600  0.600  0.600  0.600
    eigenvectors:
  1.000  0.000  0.000  0.000  0.000
  0.000  1.000  0.000  0.000  0.000
  0.000  0.000  1.000  0.000  0.000
  0.000  0.000  0.000  1.000  0.000
  0.000  0.000  0.000  0.000  1.000
    occupations:
  0.600  0.000  0.000  0.000  0.000
  0.000  0.600  0.000  0.000  0.000
  0.000  0.000  0.600  0.000  0.000
  0.000  0.000  0.000  0.600  0.000
  0.000  0.000  0.000  0.000  0.600
atom   10   Tr[ns(na)] =   6.00000
    eigenvalues:
  0.600  0.600  0.600  0.600  0.600
    eigenvectors:
  1.000  0.000  0.000  0.000  0.000
  0.000  1.000  0.000  0.000  0.000
  0.000  0.000  1.000  0.000  0.000
  0.000  0.000  0.000  1.000  0.000
  0.000  0.000  0.000  0.000  1.000
    occupations:
  0.600  0.000  0.000  0.000  0.000
  0.000  0.600  0.000  0.000  0.000
  0.000  0.000  0.600  0.000  0.000
  0.000  0.000  0.000  0.600  0.000
  0.000  0.000  0.000  0.000  0.600
atom   16   Tr[ns(na)] =   6.00000
    eigenvalues:
  0.600  0.600  0.600  0.600  0.600
    eigenvectors:
  1.000  0.000  0.000  0.000  0.000
  0.000  1.000  0.000  0.000  0.000
  0.000  0.000  1.000  0.000  0.000
  0.000  0.000  0.000  1.000  0.000
  0.000  0.000  0.000  0.000  1.000
    occupations:
  0.600  0.000  0.000  0.000  0.000
  0.000  0.600  0.000  0.000  0.000
  0.000  0.000  0.600  0.000  0.000
  0.000  0.000  0.000  0.600  0.000
  0.000  0.000  0.000  0.000  0.600
atom   17   Tr[ns(na)] =   6.00000
    eigenvalues:
  0.600  0.600  0.600  0.600  0.600
    eigenvectors:
  1.000  0.000  0.000  0.000  0.000
  0.000  1.000  0.000  0.000  0.000
  0.000  0.000  1.000  0.000  0.000
  0.000  0.000  0.000  1.000  0.000
  0.000  0.000  0.000  0.000  1.000
    occupations:
  0.600  0.000  0.000  0.000  0.000
  0.000  0.600  0.000  0.000  0.000
  0.000  0.000  0.600  0.000  0.000
  0.000  0.000  0.000  0.600  0.000
  0.000  0.000  0.000  0.000  0.600
atom   22   Tr[ns(na)] =   6.00000
    eigenvalues:
  0.600  0.600  0.600  0.600  0.600
    eigenvectors:
[...]
  0.000  0.001  0.995  0.004  0.001
  0.000  0.837  0.002  0.000  0.162
  0.000  0.000  0.004  0.996  0.000
    occupations:
  0.870 -0.005 -0.007 -0.129  0.000
 -0.005  0.551  0.001  0.002  0.001
 -0.007  0.001  0.727 -0.003  0.008
 -0.129  0.002 -0.003  0.634 -0.001
  0.000  0.001  0.008 -0.001  0.859
atom   10   Tr[ns(na)] =   7.26623
    eigenvalues:
  0.526  0.533  0.715  0.880  0.979
    eigenvectors:
  0.981  0.003  0.000  0.000  0.015
  0.000  0.001  0.000  0.996  0.003
  0.000  0.000  1.000  0.000  0.000
  0.015  0.000  0.000  0.003  0.982
  0.003  0.996  0.000  0.001  0.000
    occupations:
  0.533  0.001  0.002  0.056  0.000
  0.001  0.880  0.001 -0.006 -0.008
  0.002  0.001  0.715 -0.001 -0.003
  0.056 -0.006 -0.001  0.972  0.000
  0.000 -0.008 -0.003  0.000  0.534
atom   16   Tr[ns(na)] =   7.24046
    eigenvalues:
  0.507  0.558  0.682  0.893  0.981
    eigenvectors:
  0.004  0.175  0.006  0.000  0.815
  0.985  0.014  0.000  0.000  0.000
  0.000  0.002  0.907  0.080  0.011
  0.010  0.808  0.008  0.000  0.174
  0.000  0.000  0.079  0.920  0.000
    occupations:
  0.903  0.009  0.030 -0.160  0.008
  0.009  0.508  0.005  0.002 -0.003
  0.030  0.005  0.701 -0.007 -0.056
 -0.160  0.002 -0.007  0.632 -0.002
  0.008 -0.003 -0.056 -0.002  0.876
atom   17   Tr[ns(na)] =   7.24235
    eigenvalues:
  0.551  0.605  0.645  0.836  0.984
    eigenvectors:
  0.001  0.985  0.000  0.000  0.014
  0.000  0.000  0.014  0.985  0.000
  0.000  0.000  0.985  0.015  0.000
  0.000  0.014  0.000  0.000  0.986
  0.999  0.001  0.000  0.000  0.000
    occupations:
  0.610  0.000  0.000  0.044  0.002
  0.000  0.833  0.023 -0.001 -0.001
  0.000  0.023  0.648  0.002  0.001
  0.044 -0.001  0.002  0.979  0.000
  0.002 -0.001  0.001  0.000  0.551
atom   22   Tr[ns(na)] =   7.22741
    eigenvalues:
  0.586  0.599  0.718  0.845  0.866
    eigenvectors:
  0.000  0.243  0.757  0.000  0.000
  0.997  0.002  0.002  0.000  0.000
  0.000  0.000  0.000  0.106  0.894
  0.003  0.755  0.241  0.000  0.000
  0.000  0.000  0.000  0.894  0.105
    occupations:
  0.689  0.004 -0.002 -0.051  0.002
  0.004  0.586  0.001 -0.003  0.000
 -0.002  0.001  0.864 -0.004  0.007
 -0.051 -0.003 -0.004  0.628 -0.001
  0.002  0.000  0.007 -0.001  0.847
atom   23   Tr[ns(na)] =   7.28328
    eigenvalues:
  0.539  0.579  0.686  0.873  0.965
    eigenvectors:
  0.000  0.997  0.000  0.001  0.002
  0.002  0.000  0.997  0.001  0.000
  0.000  0.001  0.001  0.998  0.001
  0.000  0.002  0.000  0.001  0.997
  0.998  0.000  0.002  0.000  0.000
    occupations:
  0.580  0.002  0.007  0.017  0.000
  0.002  0.686  0.005  0.005 -0.006
  0.007  0.005  0.873 -0.003  0.006
  0.017  0.005 -0.003  0.964  0.000
  0.000 -0.006  0.006  0.000  0.540
N of occupied +U levels =  58.0302388
 --- exit write_ns ---

     Threshold (ethr) on eigenvalues was too large:
     Diagonalizing with lowered threshold

     Davidson diagonalization with overlap
     ethr =  1.77E-08,  avg # of iterations =  2.0

[...]

     total energy              =   -2194.10409896 Ry
     Harris-Foulkes estimate   =   -2194.10409896 Ry
     estimated scf accuracy    <       0.00000003 Ry

     iteration # 24     ecut=    40.00 Ry     beta=0.70
     Davidson diagonalization with overlap
     ethr =  5.54E-12,  avg # of iterations =  1.0

     negative rho (up, down):  0.571E+00 0.000E+00

     End of self-consistent calculation
 --- enter write_ns ---
 LDA+U parameters:
U( 2)     =  5.00000000
alpha( 2) =  0.00000000
atom    3   Tr[ns(na)] =   7.24491
    eigenvalues:
  0.506  0.555  0.689  0.892  0.980
    eigenvectors:
  0.003  0.175  0.005  0.000  0.817
  0.991  0.009  0.000  0.000  0.000
  0.000  0.002  0.945  0.043  0.010
  0.006  0.814  0.007  0.000  0.173
  0.000  0.000  0.043  0.957  0.000
    occupations:
  0.903 -0.009  0.028 -0.161 -0.006
 -0.009  0.507 -0.003 -0.001 -0.003
  0.028 -0.003  0.700 -0.007  0.041
 -0.161 -0.001 -0.007  0.629  0.001
 -0.006 -0.003  0.041  0.001  0.883
atom    4   Tr[ns(na)] =   7.24442
    eigenvalues:
  0.551  0.604  0.641  0.842  0.984
    eigenvectors:
  0.001  0.983  0.001  0.000  0.014
  0.000  0.000  0.015  0.985  0.000
  0.000  0.001  0.984  0.015  0.000
  0.000  0.014  0.000  0.000  0.985
  0.999  0.001  0.000  0.000  0.000
    occupations:
  0.610 -0.003  0.001  0.045  0.002
 -0.003  0.839  0.025  0.001 -0.001
  0.001  0.025  0.644  0.001  0.000
  0.045  0.001  0.001  0.978  0.000
  0.002 -0.001  0.000  0.000  0.551
atom    9   Tr[ns(na)] =   7.28074
    eigenvalues:
  0.551  0.577  0.726  0.859  0.927
    eigenvectors:
  0.000  0.162  0.000  0.000  0.838
  1.000  0.000  0.000  0.000  0.000
  0.000  0.001  0.994  0.004  0.001
  0.000  0.837  0.002  0.000  0.162
  0.000  0.000  0.004  0.996  0.000
    occupations:
  0.870 -0.005 -0.007 -0.129  0.000
 -0.005  0.551  0.001  0.002  0.001
 -0.007  0.001  0.726 -0.003  0.008
 -0.129  0.002 -0.003  0.634 -0.001
  0.000  0.001  0.008 -0.001  0.859
atom   10   Tr[ns(na)] =   7.26484
    eigenvalues:
  0.525  0.533  0.714  0.880  0.979
    eigenvectors:
  0.982  0.003  0.000  0.000  0.015
  0.000  0.001  0.000  0.996  0.003
  0.000  0.000  1.000  0.000  0.000
  0.015  0.000  0.000  0.003  0.982
  0.003  0.996  0.000  0.001  0.000
    occupations:
  0.533  0.001  0.002  0.056  0.000
  0.001  0.880  0.002 -0.006 -0.008
  0.002  0.002  0.714 -0.001 -0.003
  0.056 -0.006 -0.001  0.972  0.000
  0.000 -0.008 -0.003  0.000  0.534
atom   16   Tr[ns(na)] =   7.24127
    eigenvalues:
  0.507  0.558  0.682  0.893  0.981
    eigenvectors:
  0.004  0.175  0.005  0.000  0.815
  0.985  0.014  0.000  0.000  0.000
  0.000  0.003  0.907  0.080  0.011
  0.010  0.808  0.008  0.000  0.174
  0.000  0.000  0.080  0.920  0.000
    occupations:
  0.903  0.009  0.030 -0.160  0.008
  0.009  0.508  0.005  0.002 -0.003
  0.030  0.005  0.702 -0.007 -0.057
 -0.160  0.002 -0.007  0.632 -0.002
  0.008 -0.003 -0.057 -0.002  0.876
atom   17   Tr[ns(na)] =   7.24213
    eigenvalues:
  0.551  0.605  0.645  0.836  0.984
    eigenvectors:
  0.001  0.985  0.000  0.000  0.014
  0.000  0.000  0.014  0.985  0.000
  0.000  0.000  0.985  0.014  0.000
  0.000  0.014  0.000  0.000  0.986
  0.999  0.001  0.000  0.000  0.000
    occupations:
  0.610  0.000  0.000  0.044  0.002
  0.000  0.833  0.023 -0.001 -0.001
  0.000  0.023  0.648  0.002  0.001
  0.044 -0.001  0.002  0.979  0.000
  0.002 -0.001  0.001  0.000  0.551
atom   22   Tr[ns(na)] =   7.23002
    eigenvalues:
  0.586  0.599  0.718  0.845  0.867
    eigenvectors:
  0.000  0.243  0.756  0.000  0.000
  0.997  0.002  0.002  0.000  0.000
  0.000  0.000  0.000  0.104  0.895
  0.003  0.755  0.241  0.000  0.000
  0.000  0.000  0.000  0.895  0.104
    occupations:
  0.689  0.004 -0.002 -0.051  0.002
  0.004  0.586  0.001 -0.003  0.000
 -0.002  0.001  0.865 -0.004  0.007
 -0.051 -0.003 -0.004  0.628 -0.001
  0.002  0.000  0.007 -0.001  0.847
atom   23   Tr[ns(na)] =   7.28292
    eigenvalues:
  0.539  0.579  0.685  0.873  0.965
    eigenvectors:
  0.000  0.997  0.000  0.001  0.002
  0.002  0.000  0.997  0.001  0.000
  0.000  0.001  0.001  0.998  0.001
  0.000  0.002  0.000  0.001  0.997
  0.998  0.000  0.002  0.000  0.000
    occupations:
  0.580  0.002  0.007  0.017  0.000
  0.002  0.685  0.005  0.005 -0.006
  0.007  0.005  0.873 -0.003  0.006
  0.017  0.005 -0.003  0.964  0.000
  0.000 -0.006  0.006  0.000  0.540
N of occupied +U levels =  58.0312477
 --- exit write_ns ---

[...]

          k = 0.2500-0.4870 0.0000 ( 30468 PWs)   bands (ev):

[...]

          k =-0.2500 0.2435 0.0000 ( 30434 PWs)   bands (ev):

   -73.7543 -73.3132 -73.3060 -73.1661 -73.0745 -73.0557 -72.9411 -72.9059
   -44.0304 -43.7728 -43.6381 -43.6295 -43.4936 -43.4818 -43.3715 -43.3221
   -43.2782 -43.2465 -43.2331 -43.1690 -43.1541 -43.1405 -43.1306 -43.0770
   -43.0376 -42.9682 -42.9150 -42.9074 -42.8966 -42.7605 -42.6613 -42.6339
   -23.3921 -20.3163 -19.9585 -19.8341 -19.6842 -19.5582 -19.4164 -19.3533
   -19.2498 -19.1339 -19.1111 -18.8977 -18.8656 -18.8254 -18.7840 -18.7357
   -18.5926 -18.5447 -18.4975 -17.0970  -8.9859  -8.7140  -8.4398  -8.4222
    -8.2031  -8.1811  -8.0530  -7.8412  -7.6851  -7.4241  -7.3420  -7.2549
    -7.2211  -7.1212  -7.0673  -6.9949  -6.9449  -6.9116  -6.8183  -6.6099
    -6.4521  -6.2972  -6.0533  -5.9447  -5.8843  -5.7949  -5.6449  -5.5188
    -5.4842  -5.3028  -5.2332  -5.1461  -5.0402  -4.9721  -4.9164  -4.8231
    -4.6953  -4.6362  -4.5717  -4.4667  -4.4233  -4.3801  -4.3321  -4.1617
    -4.0471  -3.8111  -3.7237  -3.6248  -3.5877  -3.5030  -3.4168  -3.3867
    -3.1782  -3.1019  -3.0290  -2.7568  -2.6615  -2.4158  -2.3414  -2.2077
    -2.0381  -1.9905  -1.9480  -1.8827  -1.7502  -1.7068  -1.6335  -1.5573
    -1.5019  -1.4240  -1.3124  -1.1779  -1.0439  -0.7520  -0.6976  -0.4168
    -0.3253  -0.1570   0.0360   0.1451   0.2359   0.3433   0.5878   1.6265
     2.1433   2.3572   2.4634   2.5148   3.0506   3.2555   3.3671   3.5497
     3.7900   3.8377   3.9709   4.0473   4.1199   4.1932   4.2752   4.3396
     4.4356   4.6180   4.8314   5.1774   5.6208   5.7628   5.9969   6.0895
     6.1400   6.4701   6.5090   6.6677   6.9230   7.0473   7.1313   7.4446
     7.6023   7.6991   7.9146   8.0986   8.1614   8.3481   8.4102   8.5570
     8.6863   8.8063   8.9707   9.0778   9.0946   9.2885   9.4345   9.4515
     9.6208   9.7035   9.7983   9.8768  10.0600  10.0812  10.1757  10.3007
    10.3216  10.4098  10.5017  10.6318  10.6807  10.7387  10.8724  10.9711
    11.0400  11.1820  11.2595  11.3679  11.4313  11.5676  11.6499  11.7366
    11.8319  11.8757  11.9629  12.0378  12.0959  12.1659  12.2246  12.2714
    12.3836  12.4808  12.5090  12.6423  12.7613  12.7887  12.8561  12.9083
    12.9948  13.0235  13.1582  13.2631  13.3285  13.3891  13.4568  13.5025
    13.5943  13.7085  13.8250  13.8892  13.9335  14.0030  14.0650  14.2001
    14.2831  14.3615  14.4644  14.5172  14.6076  14.6981  14.7782  14.8561
    14.9319  15.0087  15.0997  15.1931  15.2676  15.3040  15.3691  15.4239
    15.4962  15.5434  15.6070  15.6816  15.7230  15.8250  15.8710  15.9219
    15.9492  16.0336  16.1081  16.1430  16.1844  16.2500  16.2731  16.2957
    16.4046  16.4797  16.5858  16.6145  16.6929  16.7645  16.7980  16.9208
    16.9614  17.0134  17.0807  17.1696  17.2697  17.3334  17.4063  17.4544
    17.5096  17.5637  17.6182  17.7063  17.7690  17.8090  17.8618  17.9110
    17.9720  18.0414  18.0623  18.1339  18.2084  18.3029  18.3468  18.4057
    18.4567  18.5221  18.6246  18.7155  18.7785  18.8567  18.9042  18.9780
    19.0453  19.1286  19.2037  19.2704  19.3236  19.4034  19.5146  19.6137
    19.6655  19.7411  19.8180  19.8768  19.9056  19.9890  20.0419  20.1833
    20.2583  20.3137  20.4133  20.4933  20.5636  20.6230  20.6864  20.7494
    20.8836  20.9437  20.9702  21.0560  21.0831  21.1451  21.2079  21.2928
    21.3157  21.3588  21.4422  21.5040  21.5535  21.5687  21.6024  21.6927
    21.7830  21.8514  21.9123  21.9445  21.9755  22.0569  22.1179  22.1758
    22.2409  22.3360  22.3771  22.4468  22.4819  22.5362  22.6439  22.7153
    22.7909  22.8195  22.8928  22.9415  22.9825  23.0434  23.0851  23.1451
    23.2047  23.2690  23.3484

     the Fermi energy is    -0.6711 ev

!    total energy              =   -2194.10409896 Ry
     Harris-Foulkes estimate   =   -2194.10409896 Ry
     estimated scf accuracy    <          2.2E-09 Ry

     The total energy is the sum of the following terms:

     one-electron contribution =  -25646.24309511 Ry
     hartree contribution      =   12855.11451008 Ry
     xc contribution           =    -345.74272254 Ry
     ewald contribution        =   10940.24005317 Ry
     Hubbard energy            =       2.52813450 Ry
     smearing contrib. (-TS)   =      -0.00097905 Ry

     convergence has been achieved in  24 iterations

     Forces acting on atoms (Ry/au):

     negative rho (up, down):  0.571E+00 0.000E+00
     atom    1 type  1   force =    -0.00368256   -0.00632222   -0.00059921
     atom    2 type  1   force =    -0.00254021    0.00263041   -0.00014274
     atom    3 type  2   force =     0.04042825    0.00326705    0.00012549
     atom    4 type  2   force =     0.00129418    0.00404334   -0.00029382
     atom    5 type  1   force =    -0.00038227   -0.03754707    0.00022489
     atom    6 type  1   force =     0.00460425    0.03867704    0.00031007
     atom    7 type  1   force =     0.00196158   -0.00671570   -0.00034493
     atom    8 type  1   force =    -0.02122667    0.00085955   -0.00053277
     atom    9 type  2   force =    -0.00141060   -0.00054641   -0.00004849
     atom   10 type  2   force =    -0.00624915    0.00234282   -0.00044858
     atom   11 type  1   force =    -0.01096325    0.02745315    0.00036376
     atom   12 type  1   force =    -0.00557239   -0.02489726    0.00034076
     atom   13 type  1   force =    -0.02816042   -0.00156999    0.00014295
     atom   14 type  1   force =    -0.00560798   -0.00839647   -0.00052373
     atom   15 type  1   force =    -0.00070429    0.00323341   -0.00014526
     atom   16 type  2   force =    -0.04501070    0.00406924    0.00010073
     atom   17 type  2   force =     0.00398058    0.00455692   -0.00031724
     atom   18 type  1   force =    -0.00024075   -0.03897371    0.00027851
     atom   19 type  1   force =     0.00315618    0.03961857    0.00016879
     atom   20 type  1   force =     0.00548268   -0.00472627    0.00050727
     atom   21 type  1   force =     0.01962295    0.00154832   -0.00065520
     atom   22 type  2   force =     0.02527319   -0.00060316    0.00009655
     atom   23 type  2   force =     0.00469525    0.00012783    0.00062510
     atom   24 type  1   force =     0.01130854    0.01489319    0.00004199
     atom   25 type  1   force =     0.00291441   -0.00990184    0.00007295
     atom   26 type  1   force =     0.01163362   -0.00719232    0.00029855
     atom   27 type  3   force =    -0.00000253   -0.00039791    0.00013702
     atom   28 type  3   force =    -0.00000063    0.00022726    0.00020055
     atom   29 type  3   force =     0.00007051   -0.00000141   -0.00038062
     atom   30 type  3   force =     0.00006583   -0.00008721   -0.00040009
     atom   31 type  1   force =    -0.00325337    0.00011272    0.00044721
     atom   32 type  1   force =    -0.00235253    0.00004759    0.00049967
     atom   33 type  3   force =     0.00086826    0.00017053   -0.00015010

     Total force =     0.002075     Total SCF correction =     0.000192

     bfgs converged in  12 scf cycles and  11 bfgs steps
     (criteria: energy < 0.10E-03, force < 0.10E-02)

     End of BFGS Geometry Optimization

     Final energy   =   -2194.1040989611 Ry
Begin final coordinates

ATOMIC_POSITIONS (crystal)
O0       0.000000000   0.000000000   0.379810116    0   0   1
O0       0.000000000   0.500000000   0.405040249    0   0   1
Ru1      0.250000000   0.500000000   0.453898882    0   0   1
Ru1      0.000000000   0.000000000   0.453192839    0   0   1
O0       0.250000000   0.810000000   0.453107400    0   0   1
O0       0.250000000   0.190000000   0.452950979    0   0   1
O0       0.000000000   0.500000000   0.500148358    0   0   1
O0       0.000000000   0.000000000   0.525880990    0   0   1
Ru1      0.250000000   0.000000000   0.573859653    0   0   1
Ru1      0.000000000   0.500000000   0.569280788    0   0   1
O0       0.250000000   0.690000000   0.573334441    0   0   1
O0       0.250000000   0.310000000   0.575495718    0   0   1
O0       0.000000000   0.000000000   0.617973898    0   0   1
O0       0.500000000   0.000000000   0.379425432    0   0   1
O0       0.500000000   0.500000000   0.402856140    0   0   1
Ru1      0.750000000   0.500000000   0.453945229    0   0   1
Ru1      0.500000000   0.000000000   0.452902446    0   0   1
O0       0.750000000   0.810000000   0.453002800    0   0   1
O0       0.750000000   0.190000000   0.452966888    0   0   1
O0       0.500000000   0.500000000   0.500835183    0   0   1
O0       0.500000000   0.000000000   0.525634297    0   0   1
Ru1      0.750000000   0.000000000   0.579276059    0   0   1
Ru1      0.500000000   0.500000000   0.577805772    0   0   1
O0       0.750000000   0.690000000   0.575950716    0   0   1
O0       0.750000000   0.310000000   0.578247547    0   0   1
O0       0.500000000   0.000000000   0.615945107    0   0   1
H2      -0.001149378   0.602186905   0.377257875
H2       0.499436964   0.628863062   0.382401845
H2       0.147530195   0.024342471   0.367519837
H2       0.647180399   0.026318616   0.367201732
O0       0.500070000   0.529888078   0.649446072    0   1   1
O0       0.499990000   0.339333061   0.678847743    0   1   1
H2       0.499960000   0.400318618   0.713196969    0   1   1
End final coordinates

     General routines

     Parallel routines
     Hubbard U routines

   This run was terminated on:   9:47: 2  12Aug2014

   JOB DONE.