     Program PWSCF v.5.0.2 (svn rev. 9656) starts on 16Apr2014 at 14:48:17

     Current dimensions of program PWSCF are:
     Max number of different atomic species (ntypx) = 10
     Max number of k-points (npk) =  40000
     Max angular momentum in pseudopotentials (lmaxx) =  3
     Reading input from pwscf.in
Warning: card &CELL ignored
Warning: card / ignored

     Subspace diagonalization in iterative solution of the eigenvalue problem:
     a serial algorithm will be used

     bravais-lattice index     =            0
     lattice parameter (alat)  =      11.7919  a.u.
     unit-cell volume          =    7123.6633 (a.u.)^3
     number of atoms/cell      =           31
     number of atomic types    =            3
     number of electrons       =       246.00
     number of Kohn-Sham states=          357
     kinetic-energy cutoff     =      40.0000  Ry
     charge density cutoff     =     500.0000  Ry
     convergence threshold     =      1.0E-06
     mixing beta               =       0.3000
     number of iterations used =            8  plain     mixing
     Exchange-correlation      = SLA  PW   PBE  PBE ( 1 4 3 4 0)
     EXX-fraction              =        0.00
     nstep                     =           50

     celldm(1)=  11.791891  celldm(2)=   0.000000  celldm(3)=   0.000000
     celldm(4)=   0.000000  celldm(5)=   0.000000  celldm(6)=   0.000000

     crystal axes: (cart. coord. in units of alat)
               a(1) = (   1.000000   0.000000   0.000000 )
               a(2) = (   0.000000   1.026665   0.000000 )
               a(3) = (   0.000000   0.000000   4.231793 )

     reciprocal axes: (cart. coord. in units 2 pi/alat)
               b(1) = (  1.000000  0.000000  0.000000 )
               b(2) = (  0.000000  0.974028  0.000000 )
               b(3) = (  0.000000  0.000000  0.236306 )

     PseudoPot. # 1 for O  read from file:
     /home/camp/zhonxu/pseudo/o_pbe_v1.01.uspp.F.UPF
     MD5 check sum: 2bcb18d16ea4b960afae9ec6d52f22d2
     Pseudo is Ultrasoft + core correction, Zval =  6.0
     Generated by new atomic code, or converted to UPF format
     Using radial grid of  737 points,  5 beta functions with:
                l(1) =   0
                l(2) =   0
                l(3) =   1
                l(4) =   1
                l(5) =   2
     Q(r) pseudized with  8 coefficients,  rinner =    0.900   0.900   0.900
                                                       0.900   0.900

     PseudoPot. # 2 for Ru read from file:
     /home/camp/zhonxu/pseudo/ru_pbe_v1.uspp.F.UPF
     MD5 check sum: df00be1c11b23341d9806d8f1dfa10cf
     Pseudo is Ultrasoft + core correction, Zval = 16.0
     Generated by new atomic code, or converted to UPF format
     Using radial grid of  967 points,  6 beta functions with:
                l(1) =   0
                l(2) =   0
                l(3) =   1
                l(4) =   1
                l(5) =   2
                l(6) =   2
     Q(r) pseudized with  8 coefficients,  rinner =    1.300   1.300   1.300
                                                       1.300   1.300

     PseudoPot. # 3 for H  read from file:
     /home/camp/zhonxu/pseudo/h_pbe_v1.uspp.F.UPF
     MD5 check sum: 3408e3ff4ec8b0a4e358431e7e038a48
     Pseudo is Ultrasoft, Zval =  1.0
     Generated by new atomic code, or converted to UPF format
     Using radial grid of  615 points,  2 beta functions with:
                l(1) =   0
                l(2) =   0
     Q(r) pseudized with  8 coefficients,  rinner =    0.700

     atomic species   valence    mass     pseudopotential
        O0             6.00    15.99940     O ( 1.00)
        Ru1           16.00   101.07000     Ru( 1.00)
        H2             1.00     1.00794     H ( 1.00)

     No symmetry found

   Cartesian axes

     site n.     atom                  positions (alat units)
         1           O0  tau(   1) = (   0.0000000   0.0000000   1.6017336  )
         2           O0  tau(   2) = (   0.0000000   0.5133323   1.7065974  )
         3           Ru1 tau(   3) = (   0.2500000   0.5133323   1.9230536  )
         4           Ru1 tau(   4) = (   0.0000000   0.0000000   1.9149286  )
         5           O0  tau(   5) = (   0.2500000   0.8315984   1.9153941  )
         6           O0  tau(   6) = (   0.2500000   0.1950663   1.9149709  )
         7           O0  tau(   7) = (   0.0000000   0.5133323   2.1075598  )
         8           O0  tau(   8) = (   0.0000000   0.0000000   2.2269810  )
         9           Ru1 tau(   9) = (   0.2500000   0.0000000   2.4384014  )
        10           Ru1 tau(  10) = (   0.0000000   0.5133323   2.4075093  )
        11           O0  tau(  11) = (   0.2500000   0.7083986   2.4350582  )
        12           O0  tau(  12) = (   0.2500000   0.3182660   2.4334925  )
        13           O0  tau(  13) = (   0.0000000   0.0000000   2.6168984  )
        14           O0  tau(  14) = (   0.5000000   0.0000000   1.6021991  )
        15           O0  tau(  15) = (   0.5000000   0.5133323   1.7089249  )
        16           Ru1 tau(  16) = (   0.7500000   0.5133323   1.9230536  )
        17           Ru1 tau(  17) = (   0.5000000   0.0000000   1.9145477  )
        18           O0  tau(  18) = (   0.7500000   0.8315984   1.9153518  )
        19           O0  tau(  19) = (   0.7500000   0.1950663   1.9150132  )
        20           O0  tau(  20) = (   0.5000000   0.5133323   2.1264336  )
        21           O0  tau(  21) = (   0.5000000   0.0000000   2.2265578  )
        22           Ru1 tau(  22) = (   0.7500000   0.0000000   2.4385283  )
        23           Ru1 tau(  23) = (   0.5000000   0.5133323   2.4683625  )
        24           O0  tau(  24) = (   0.7500000   0.7083986   2.4352698  )
        25           O0  tau(  25) = (   0.7500000   0.3182660   2.4333232  )
        26           O0  tau(  26) = (   0.5000000   0.0000000   2.6064882  )
        27           H2  tau(  27) = (  -0.0003700   0.6429590   1.6154023  )
        28           H2  tau(  28) = (   0.4994900   0.6382877   1.6115937  )
        29           H2  tau(  29) = (   0.1462300   0.0331305   1.5511214  )
        30           H2  tau(  30) = (   0.6470700   0.0303995   1.5520100  )
        31           O0  tau(  31) = (   0.5001200   0.5106630   2.7421595  )

     number of k points=    10  Methfessel-Paxton smearing, width (Ry)=  0.0100
                       cart. coord. in units 2pi/alat
        k(    1) = (   0.0000000   0.0000000   0.0000000), wk =   0.1250000
        k(    2) = (   0.0000000   0.2435070   0.0000000), wk =   0.2500000
        k(    3) = (   0.0000000  -0.4870139   0.0000000), wk =   0.1250000
        k(    4) = (   0.2500000   0.0000000   0.0000000), wk =   0.2500000
        k(    5) = (   0.2500000   0.2435070   0.0000000), wk =   0.2500000
        k(    6) = (   0.2500000  -0.4870139   0.0000000), wk =   0.2500000
        k(    7) = (  -0.5000000   0.0000000   0.0000000), wk =   0.1250000
        k(    8) = (  -0.5000000   0.2435070   0.0000000), wk =   0.2500000
        k(    9) = (  -0.5000000  -0.4870139   0.0000000), wk =   0.1250000
        k(   10) = (  -0.2500000   0.2435070   0.0000000), wk =   0.2500000

     Largest allocated arrays     est. size (Mb)     dimensions
     Largest temporary arrays     est. size (Mb)     dimensions

     Check: negative/imaginary core charge=   -0.000003    0.000000

     Initial potential from superposition of free atoms
     Check: negative starting charge=   -0.520073

     starting charge  237.99981, renormalised to  246.00000

     negative rho (up, down):  0.538E+00 0.000E+00
     Starting wfc are  184 randomized atomic wfcs

     Self-consistent Calculation

     iteration #  1     ecut=    40.00 Ry     beta=0.30
     Davidson diagonalization with overlap
     ethr =  1.00E-02,  avg # of iterations =  6.4

     negative rho (up, down):  0.575E+00 0.000E+00

     total energy              =   -2137.85433625 Ry
     Harris-Foulkes estimate   =   -2167.73952756 Ry
     estimated scf accuracy    <      60.56321610 Ry

[...]

     End of self-consistent calculation

          k = 0.0000 0.0000 0.0000 ( 30363 PWs)   bands (ev):

   -75.5393 -75.0731 -75.0623 -74.7596 -74.6995 -74.4839 -74.4252 -74.4153
   -46.0135 -45.3385 -45.2491 -45.1893 -45.0611 -45.0189 -45.0097 -44.9798
   -44.9471 -44.9197 -44.9081 -44.7398 -44.7351 -44.6333 -44.6041 -44.5659
   -44.5349 -44.4835 -44.4583 -44.4149 -44.3065 -44.2907 -44.2743 -44.1852
   -21.3221 -20.8360 -20.7235 -20.6066 -20.5097 -20.2431 -19.9205 -19.9010
   -19.8501 -19.8190 -19.8109 -19.7766 -19.4991 -19.4246 -19.3794 -19.3252
   -19.2589 -19.0360 -18.8970  -9.3876  -9.3374  -9.3156  -8.6144  -8.4926
    -8.4185  -8.3658  -8.1085  -8.0272  -7.9877  -7.9615  -7.9569  -7.8533
    -7.8095  -7.7590  -7.5545  -7.4961  -7.3198  -7.2851  -7.0672  -6.9759
    -6.9144  -6.6775  -6.4293  -6.3869  -5.9628  -5.8477  -5.8227  -5.6337
    -5.4802  -5.4217  -5.3625  -5.3041  -5.1827  -5.1347  -5.0828  -4.9821
    -4.9067  -4.8463  -4.7724  -4.6890  -4.5854  -4.5292  -4.3850  -4.3088
    -4.2085  -4.0702  -4.0081  -3.9090  -3.8876  -3.8213  -3.7842  -3.6020
    -3.4577  -3.4320  -3.2284  -2.8513  -2.7370  -2.6798  -2.4038  -2.2607
    -2.2283  -1.9779  -1.9192  -1.8130  -1.7567  -1.6561  -1.6293  -1.4982
    -1.3790  -1.3581  -1.3184  -1.2176  -1.1292  -0.6862  -0.6468  -0.4265
    -0.3338  -0.2673  -0.0466   0.1927   0.2739   1.0504   1.2729   1.5189
     1.7122   1.9272   2.0607   2.0822   2.2815   2.8182   3.0744   3.2132
     3.2535   3.2868   3.3594   3.5071   3.9048   4.2322   4.3241   4.8538
     5.2217   6.0039   6.2013   6.2882   6.4609   6.9252   7.1284   7.2687
     7.5491   7.7466   7.9160   7.9790   7.9889   8.0688   8.0764   8.2065
     8.2371   8.3153   8.4174   8.4423   8.5075   8.6278   8.7207   8.7362
     8.7548   9.0239   9.1454   9.2022   9.2730   9.3105   9.3553   9.4401
     9.6113   9.6741   9.8121   9.9257   9.9357  10.0285  10.1427  10.2849
    10.6241  10.7009  10.7529  11.0041  11.0695  11.0804  11.1837  11.2103
    11.3003  11.3288  11.3760  11.4893  11.5474  11.6006  11.6824  11.7879
    11.8333  11.8513  11.9298  11.9525  12.0133  12.1446  12.1496  12.2206
    12.2730  12.2946  12.3772  12.4063  12.4491  12.5042  12.5467  12.7230
    12.7967  12.8189  12.8682  12.9256  13.0047  13.0833  13.1026  13.2061
    13.2391  13.3244  13.3780  13.5502  13.7220  13.7998  13.8465  13.9393
    14.0169  14.1600  14.2284  14.2993  14.3527  14.3763  14.5178  14.5428
    14.5779  14.8350  14.8887  14.9925  15.0651  15.1630  15.3312  15.4639
    15.5018  15.5637  15.6818  15.7704  15.8287  15.8611  15.8926  16.0272
    16.1778  16.2171  16.2421  16.4194  16.5010  16.5900  16.8481  16.8772
    17.0571  17.1162  17.2098  17.2654  17.3044  17.3601  17.4154  17.4774
    17.5062  17.8214  17.8874  17.9168  17.9732  18.1019  18.1959  18.2336
    18.3649  18.4541  18.5187  18.5655  18.5919  18.6588  18.7103  18.7282
    18.8053  18.8308  18.9244  18.9895  19.0347  19.0687  19.1875  19.2094
    19.2767  19.2943  19.3524  19.4520  19.6243  19.6313  19.6666  19.7240
    19.7868  19.8143  19.8839  19.9464  20.0474  20.1382  20.1821  20.1888
    20.1945  20.2188  20.3093  20.3692  20.4110  20.5400  20.5595  20.6620
[...]
     atom   15 type  1   force =    -0.00022497    0.00581086    0.00260968
     atom   16 type  2   force =    -0.04323121    0.00144574    0.00113018
     atom   17 type  2   force =     0.00185361    0.00533127   -0.00086355
     atom   18 type  1   force =    -0.00039187   -0.03235888    0.00025695
     atom   19 type  1   force =    -0.00029201    0.03285798    0.00026986
     atom   20 type  1   force =     0.00014565   -0.00138603   -0.00118498
     atom   21 type  1   force =     0.00009943   -0.00152828   -0.00202545
     atom   22 type  2   force =     0.01188290    0.00198244    0.00088659
     atom   23 type  2   force =     0.00002723    0.00124173    0.00086945
     atom   24 type  1   force =     0.00904706    0.00136890   -0.00085232
     atom   25 type  1   force =     0.01003462   -0.00215729    0.00009184
     atom   26 type  1   force =    -0.00166389   -0.00056159    0.00409163
     atom   27 type  3   force =     0.00005603   -0.00062021    0.00183593
     atom   28 type  3   force =     0.00005058   -0.00047088    0.00193156
     atom   29 type  3   force =    -0.00091208   -0.00004967   -0.00190760
     atom   30 type  3   force =    -0.00057962   -0.00005426   -0.00233169
     atom   31 type  1   force =    -0.00006749   -0.00025745   -0.00172551

     Total force =     0.009146     Total SCF correction =     0.001776
     SCF correction compared to forces is large: reduce conv_thr to get better values

     BFGS Geometry Optimization

     number of scf cycles    =   1
     number of bfgs steps    =   0

     energy   new            =   -2163.4616851985 Ry

     new trust radius        =       0.0040916267 bohr
     new conv_thr            =       0.0000010000 Ry

ATOMIC_POSITIONS (crystal)
O0       0.000000000   0.000000000   0.378503383    0   0   1
O0       0.000000000   0.500000000   0.403323752    0   0   1
Ru1      0.250000000   0.500000000   0.454455076    0   0   1
Ru1      0.000000000   0.000000000   0.452494028    0   0   1
O0       0.250000000   0.810000000   0.452627030    0   0   1
O0       0.250000000   0.190000000   0.452526420    0   0   1
O0       0.000000000   0.500000000   0.498008867    0   0   1
O0       0.000000000   0.000000000   0.526180879    0   0   1
Ru1      0.250000000   0.000000000   0.576231711    0   0   1
Ru1      0.000000000   0.500000000   0.568862353    0   0   1
O0       0.250000000   0.690000000   0.575404254    0   0   1
O0       0.250000000   0.310000000   0.575051948    0   0   1
O0       0.000000000   0.000000000   0.618406368    0   0   1
O0       0.500000000   0.000000000   0.378592158    0   0   1
O0       0.500000000   0.500000000   0.403882297    0   0   1
Ru1      0.750000000   0.500000000   0.454452648    0   0   1
Ru1      0.500000000   0.000000000   0.452402695    0   0   1
O0       0.750000000   0.810000000   0.452615149    0   0   1
O0       0.750000000   0.190000000   0.452535408    0   0   1
O0       0.500000000   0.500000000   0.502466253    0   0   1
O0       0.500000000   0.000000000   0.526109410    0   0   1
Ru1      0.750000000   0.000000000   0.576257767    0   0   1
Ru1      0.500000000   0.500000000   0.583307423    0   0   1
O0       0.750000000   0.690000000   0.575452920    0   0   1
O0       0.750000000   0.310000000   0.575011840    0   0   1
O0       0.500000000   0.000000000   0.616011995    0   0   1
H2      -0.000365248   0.626208770   0.381766792
H2       0.499494289   0.621671104   0.380868708
H2       0.146152652   0.032265897   0.366501772
H2       0.647020846   0.029605518   0.366703273
O0       0.500114276   0.497378734   0.647955421

     Check: negative starting charge=   -0.520073
     NEW-OLD atomic charge density approx. for the potential

     Check: negative/imaginary core charge=   -0.000003    0.000000
     Check: negative starting charge=   -0.520087

[...]

     Threshold (ethr) on eigenvalues was too large:
     Diagonalizing with lowered threshold

     Davidson diagonalization with overlap
     ethr =  9.70E-08,  avg # of iterations =  1.6

[...]

     energy   old            =   -2163.4616851985 Ry
     energy   new            =   -2163.4617563595 Ry

     CASE: energy  _new < energy  _old

[...]

     Total force =     0.005043     Total SCF correction =     0.000206

[...]

     Total force =     0.002758     Total SCF correction =     0.000448
     SCF correction compared to forces is large: reduce conv_thr to get better values

[...]

     number of scf cycles    =  11
     number of bfgs steps    =  10

     energy   old            =   -2163.4620443600 Ry
     energy   new            =   -2163.4620591274 Ry

     CASE: energy  _new < energy  _old

     new trust radius        =       0.0067916015 bohr
     new conv_thr            =       0.0000000100 Ry

ATOMIC_POSITIONS (crystal)
O0       0.000000000   0.000000000   0.378244495    0   0   1
O0       0.000000000   0.500000000   0.403858731    0   0   1
Ru1      0.250000000   0.500000000   0.454882947    0   0   1
Ru1      0.000000000   0.000000000   0.452260461    0   0   1
O0       0.250000000   0.810000000   0.452570352    0   0   1
O0       0.250000000   0.190000000   0.452479614    0   0   1
O0       0.000000000   0.500000000   0.498278542    0   0   1
O0       0.000000000   0.000000000   0.525938451    0   0   1
Ru1      0.250000000   0.000000000   0.576157356    0   0   1
Ru1      0.000000000   0.500000000   0.569041810    0   0   1
O0       0.250000000   0.690000000   0.575273418    0   0   1
O0       0.250000000   0.310000000   0.575086612    0   0   1
O0       0.000000000   0.000000000   0.618125624    0   0   1
O0       0.500000000   0.000000000   0.378214713    0   0   1
O0       0.500000000   0.500000000   0.404465974    0   0   1
Ru1      0.750000000   0.500000000   0.454874931    0   0   1
Ru1      0.500000000   0.000000000   0.452074966    0   0   1
O0       0.750000000   0.810000000   0.452545340    0   0   1
O0       0.750000000   0.190000000   0.452492251    0   0   1
O0       0.500000000   0.500000000   0.502847181    0   0   1
O0       0.500000000   0.000000000   0.525884037    0   0   1
Ru1      0.750000000   0.000000000   0.576167939    0   0   1
Ru1      0.500000000   0.500000000   0.583155489    0   0   1
O0       0.750000000   0.690000000   0.575307187    0   0   1
O0       0.750000000   0.310000000   0.575045476    0   0   1
O0       0.500000000   0.000000000   0.616262681    0   0   1
H2      -0.000256859   0.627150656   0.382642760
H2       0.499578936   0.622702175   0.381799632
H2       0.145081512   0.032325390   0.365581448
H2       0.645956217   0.029352977   0.365603014
O0       0.500051256   0.497388194   0.647806566

     Check: negative starting charge=   -0.520898
     NEW-OLD atomic charge density approx. for the potential

     Check: negative/imaginary core charge=   -0.000003    0.000000
     Check: negative starting charge=   -0.520938

[...]

     Self-consistent Calculation

[...]

     Threshold (ethr) on eigenvalues was too large:
     Diagonalizing with lowered threshold

     Davidson diagonalization with overlap
     ethr =  1.91E-08,  avg # of iterations =  2.7

[...]

     total energy              =   -2163.46207069 Ry
     Harris-Foulkes estimate   =   -2163.46207069 Ry
     estimated scf accuracy    <       0.00000002 Ry

     iteration # 17     ecut=    40.00 Ry     beta=0.30
     Davidson diagonalization with overlap
     ethr =  8.13E-12,  avg # of iterations =  1.0

     negative rho (up, down):  0.580E+00 0.000E+00

     End of self-consistent calculation

[...]

          k = 0.2500-0.4870 0.0000 ( 30468 PWs)   bands (ev):

[...]

          k =-0.2500 0.2435 0.0000 ( 30434 PWs)   bands (ev):

   -75.5348 -75.0632 -75.0556 -74.7573 -74.7052 -74.4792 -74.4183 -74.4112
   -46.0132 -45.3316 -45.2092 -45.1800 -45.0759 -45.0115 -45.0037 -44.9744
   -44.9383 -44.9188 -44.9110 -44.7388 -44.7132 -44.6158 -44.5974 -44.5885
   -44.5414 -44.4904 -44.4578 -44.3955 -44.3149 -44.2856 -44.2599 -44.1998
   -21.2278 -20.6993 -20.6583 -20.6049 -20.4156 -20.1375 -20.0827 -19.9977
   -19.8837 -19.7723 -19.7247 -19.6651 -19.5330 -19.4921 -19.4682 -19.4385
   -19.4108 -19.1214 -18.9030  -9.2534  -8.8200  -8.7667  -8.7345  -8.4680
    -8.3915  -8.2685  -8.2012  -8.0645  -7.9663  -7.9073  -7.8460  -7.7638
    -7.6894  -7.6484  -7.5225  -7.3931  -7.2441  -7.0286  -6.9929  -6.8988
    -6.8383  -6.6756  -6.3516  -6.2407  -6.2033  -6.0687  -5.8595  -5.8104
    -5.7465  -5.6967  -5.6396  -5.5132  -5.4652  -5.4071  -5.3557  -5.2248
    -5.1581  -5.0535  -4.9234  -4.8864  -4.7139  -4.6459  -4.5812  -4.4325
    -4.3203  -4.2464  -4.1974  -4.0848  -3.9850  -3.9036  -3.8184  -3.7045
    -3.4549  -3.3487  -3.2470  -2.9794  -2.2994  -2.1736  -2.0611  -1.9595
    -1.9080  -1.8266  -1.7273  -1.6548  -1.6093  -1.5763  -1.5273  -1.4510
    -1.3503  -1.2367  -1.1987  -1.0442  -0.9395  -0.7104  -0.5596  -0.5260
    -0.3718  -0.3335  -0.2171  -0.0362   0.5103   0.9707   1.2631   1.3191
     1.5900   1.9603   2.2256   2.4492   2.6838   2.7788   2.8574   2.9569
     3.0586   3.1405   3.3589   3.7146   3.8657   4.7211   4.8107   5.3030
     5.5879   5.6308   5.7812   6.3585   6.6133   6.6592   6.7218   6.7467
     6.8206   6.9986   7.1436   7.3620   7.5780   7.7891   7.8781   8.0084
     8.1998   8.3031   8.3641   8.4130   8.5261   8.5760   8.7010   8.7426
     8.9923   9.1524   9.1815   9.2691   9.4942   9.6499   9.7805   9.8232
     9.9325  10.0316  10.1178  10.1560  10.2796  10.3139  10.3752  10.5100
    10.6014  10.6466  10.6877  10.8830  10.9693  11.0959  11.1550  11.2590
    11.3685  11.4417  11.4774  11.5509  11.6818  11.7159  11.7707  11.8257
    11.9308  11.9704  12.0987  12.1265  12.1888  12.3075  12.4416  12.4830
    12.5348  12.5536  12.6280  12.7137  12.7773  12.8657  12.9222  13.0114
    13.0778  13.1284  13.2682  13.3418  13.3664  13.4727  13.4934  13.5753
    13.7388  13.8062  13.8946  13.9712  14.0336  14.1325  14.1723  14.2301
    14.3928  14.4285  14.4886  14.5455  14.5697  14.6882  14.7815  14.8396
    14.9322  14.9815  15.0486  15.1311  15.2943  15.4134  15.5442  15.5750
    15.6169  15.6811  15.7789  15.8065  15.8493  15.9042  15.9733  16.0558
    16.1111  16.1767  16.3075  16.3310  16.3794  16.4604  16.5490  16.6070
    16.6592  16.7245  16.7530  16.8012  16.8364  16.9036  16.9672  17.0114
    17.0914  17.1774  17.2401  17.3470  17.4191  17.4653  17.5015  17.5884
    17.6874  17.7681  17.7834  17.8354  17.9115  17.9641  18.0600  18.1064
    18.2286  18.2460  18.3043  18.3338  18.4336  18.4515  18.5683  18.6226
    18.7170  18.8096  18.8876  18.9648  19.0621  19.1089  19.1580  19.1820
    19.2560  19.3007  19.4290  19.4707  19.5200  19.5405  19.6304  19.7409
    19.8095  19.8563  19.9111  19.9928  20.0609  20.1692  20.2644  20.3129
    20.4372  20.5121  20.5460  20.6210  20.7519  20.8111  20.8599  20.8861
    20.9666  20.9884  21.0902  21.1246  21.1854  21.2579  21.3196  21.3811
    21.4664  21.5286  21.5634  21.5862  21.6458  21.7285  21.8515  21.9302
    21.9845  22.0401  22.0598  22.0991  22.1525

     the Fermi energy is    -1.0951 ev

!    total energy              =   -2163.46207069 Ry
     Harris-Foulkes estimate   =   -2163.46207069 Ry
     estimated scf accuracy    <          5.7E-09 Ry

     The total energy is the sum of the following terms:

     one-electron contribution =  -25066.07452873 Ry
     hartree contribution      =   12552.29044602 Ry
     xc contribution           =    -337.54780285 Ry
     ewald contribution        =   10687.87011923 Ry
     smearing contrib. (-TS)   =      -0.00030435 Ry

     convergence has been achieved in  17 iterations

     Forces acting on atoms (Ry/au):

     negative rho (up, down):  0.580E+00 0.000E+00
     atom    1 type  1   force =    -0.00575254   -0.01101734   -0.00028869
     atom    2 type  1   force =     0.00001533    0.00777345    0.00061049
     atom    3 type  2   force =     0.04273084   -0.00025386   -0.00018328
     atom    4 type  2   force =     0.00377353    0.00575465   -0.00023160
     atom    5 type  1   force =     0.00372153   -0.03176998   -0.00021089
     atom    6 type  1   force =     0.00184321    0.03351456   -0.00025888
     atom    7 type  1   force =     0.00026826   -0.00430698   -0.00051084
     atom    8 type  1   force =    -0.00003544   -0.00162885   -0.00016945
     atom    9 type  2   force =    -0.00489717    0.00208256   -0.00013354
     atom   10 type  2   force =    -0.00003772   -0.00068835   -0.00052914
     atom   11 type  1   force =    -0.00900305    0.00223767    0.00014761
     atom   12 type  1   force =    -0.01045098   -0.00319832    0.00013217
     atom   13 type  1   force =    -0.00150922   -0.00044868   -0.00014101
     atom   14 type  1   force =    -0.00441299   -0.01012116   -0.00039721
     atom   15 type  1   force =    -0.00021096    0.00585933    0.00051143
     atom   16 type  2   force =    -0.04310715    0.00075593   -0.00016250
     atom   17 type  2   force =     0.00317577    0.00584909   -0.00015477
     atom   18 type  1   force =    -0.00065161   -0.03236892   -0.00023715
     atom   19 type  1   force =    -0.00039928    0.03299335   -0.00028763
     atom   20 type  1   force =     0.00012665   -0.00148400   -0.00080798
     atom   21 type  1   force =     0.00001112   -0.00143582    0.00004341
     atom   22 type  2   force =     0.00645877    0.00202232   -0.00014850
     atom   23 type  2   force =     0.00001681    0.00153788    0.00071580
     atom   24 type  1   force =     0.00906527    0.00230458    0.00016371
     atom   25 type  1   force =     0.01044411   -0.00313917    0.00013355
     atom   26 type  1   force =    -0.00166463   -0.00070499   -0.00018398
     atom   27 type  3   force =    -0.00000960   -0.00016011    0.00058302
     atom   28 type  3   force =    -0.00001375   -0.00006847    0.00053170
     atom   29 type  3   force =     0.00020679    0.00005199    0.00027222
     atom   30 type  3   force =     0.00029205    0.00003928    0.00030772
     atom   31 type  1   force =     0.00000604    0.00001837    0.00088422

     Total force =     0.002217     Total SCF correction =     0.000170

     bfgs converged in  12 scf cycles and  11 bfgs steps
     (criteria: energy < 0.10E-03, force < 0.10E-02)

     End of BFGS Geometry Optimization

     Final energy   =   -2163.4620706869 Ry
Begin final coordinates

ATOMIC_POSITIONS (crystal)
O0       0.000000000   0.000000000   0.378244495    0   0   1
O0       0.000000000   0.500000000   0.403858731    0   0   1
Ru1      0.250000000   0.500000000   0.454882947    0   0   1
Ru1      0.000000000   0.000000000   0.452260461    0   0   1
O0       0.250000000   0.810000000   0.452570352    0   0   1
O0       0.250000000   0.190000000   0.452479614    0   0   1
O0       0.000000000   0.500000000   0.498278542    0   0   1
O0       0.000000000   0.000000000   0.525938451    0   0   1
Ru1      0.250000000   0.000000000   0.576157356    0   0   1
Ru1      0.000000000   0.500000000   0.569041810    0   0   1
O0       0.250000000   0.690000000   0.575273418    0   0   1
O0       0.250000000   0.310000000   0.575086612    0   0   1
O0       0.000000000   0.000000000   0.618125624    0   0   1
O0       0.500000000   0.000000000   0.378214713    0   0   1
O0       0.500000000   0.500000000   0.404465974    0   0   1
Ru1      0.750000000   0.500000000   0.454874931    0   0   1
Ru1      0.500000000   0.000000000   0.452074966    0   0   1
O0       0.750000000   0.810000000   0.452545340    0   0   1
O0       0.750000000   0.190000000   0.452492251    0   0   1
O0       0.500000000   0.500000000   0.502847181    0   0   1
O0       0.500000000   0.000000000   0.525884037    0   0   1
Ru1      0.750000000   0.000000000   0.576167939    0   0   1
Ru1      0.500000000   0.500000000   0.583155489    0   0   1
O0       0.750000000   0.690000000   0.575307187    0   0   1
O0       0.750000000   0.310000000   0.575045476    0   0   1
O0       0.500000000   0.000000000   0.616262681    0   0   1
H2      -0.000256859   0.627150656   0.382642760
H2       0.499578936   0.622702175   0.381799632
H2       0.145081512   0.032325390   0.365581448
H2       0.645956217   0.029352977   0.365603014
O0       0.500051256   0.497388194   0.647806566
End final coordinates

     General routines

     Parallel routines

   This run was terminated on:   2:51:31  17Apr2014

   JOB DONE.
Running PBS batch system epilogue script
Job id: 334997.audhumbla.fysik.dtu.dk
Username: zhonxu
Groupname: campgst
Jobname: RuO2/Eads-2-layers/O-relax-surf
Sessionid: 13495
Queuename: verylong
Accounting:
This job has allocated the following 16 nodes:
d044 d044 d044 d044 d044 d044 d044 d044 d040 d040 d040 d040 d040 d040 d040 d040
Finished epilogue job 334997.audhumbla.fysik.dtu.dk for zhonxu