     Program PWSCF v.5.0.2 (svn rev. 9656) starts on  5May2014 at  1:44:37

     Current dimensions of program PWSCF are:
     Max number of different atomic species (ntypx) = 10
     Max number of k-points (npk) =  40000
     Max angular momentum in pseudopotentials (lmaxx) =  3
     Reading input from pwscf.in
Warning: card &CELL ignored
Warning: card / ignored

     Subspace diagonalization in iterative solution of the eigenvalue problem:
     a serial algorithm will be used

     bravais-lattice index     =            0
     lattice parameter (alat)  =      10.9604  a.u.
     unit-cell volume          =    6350.6732 (a.u.)^3
     number of atoms/cell      =           32
     number of atomic types    =            3
     number of electrons       =       231.00 (up: 123.00, down: 108.00)
     number of Kohn-Sham states=          334
     kinetic-energy cutoff     =      40.0000  Ry
     charge density cutoff     =     500.0000  Ry
     convergence threshold     =      1.0E-06
     mixing beta               =       0.7000
     number of iterations used =            8  plain     mixing
     Exchange-correlation      = SLA  PW   PBE  PBE ( 1 4 3 4 0)
     EXX-fraction              =        0.00
     nstep                     =           50

     celldm(1)=  10.960412  celldm(2)=   0.000000  celldm(3)=   0.000000
     celldm(4)=   0.000000  celldm(5)=   0.000000  celldm(6)=   0.000000

     crystal axes: (cart. coord. in units of alat)
               a(1) = (   1.000000   0.000000   0.000000 )
               a(2) = (   0.000000   1.067975   0.000000 )
               a(3) = (   0.000000   0.000000   4.516251 )

     reciprocal axes: (cart. coord. in units 2 pi/alat)
               b(1) = (  1.000000  0.000000  0.000000 )
               b(2) = (  0.000000  0.936351  0.000000 )
               b(3) = (  0.000000  0.000000  0.221423 )

     PseudoPot. # 1 for O  read from file:
     /home/camp/zhonxu/pseudo/o_pbe_v1.01.uspp.F.UPF
     MD5 check sum: 2bcb18d16ea4b960afae9ec6d52f22d2
     Pseudo is Ultrasoft + core correction, Zval =  6.0
     Generated by new atomic code, or converted to UPF format
     Using radial grid of  737 points,  5 beta functions with:
                l(1) =   0
                l(2) =   0
                l(3) =   1
                l(4) =   1
                l(5) =   2
     Q(r) pseudized with  8 coefficients,  rinner =    0.900   0.900   0.900
                                                       0.900   0.900

     PseudoPot. # 2 for Cr read from file:
     /home/camp/zhonxu/pseudo/cr_pbe_v1.uspp.F.UPF
     MD5 check sum: 68b6f918d1762dccfb11451fe85b0e0e
     Pseudo is Ultrasoft + core correction, Zval = 14.0
     Generated by new atomic code, or converted to UPF format
     Using radial grid of  857 points,  6 beta functions with:
                l(1) =   0
                l(2) =   0
                l(3) =   1
                l(4) =   1
                l(5) =   2
                l(6) =   2
     Q(r) pseudized with  6 coefficients,  rinner =    1.000   1.000   1.000
                                                       1.000   1.000

     PseudoPot. # 3 for H  read from file:
     /home/camp/zhonxu/pseudo/h_pbe_v1.uspp.F.UPF
     MD5 check sum: 3408e3ff4ec8b0a4e358431e7e038a48
     Pseudo is Ultrasoft, Zval =  1.0
     Generated by new atomic code, or converted to UPF format
     Using radial grid of  615 points,  2 beta functions with:
                l(1) =   0
                l(2) =   0
     Q(r) pseudized with  8 coefficients,  rinner =    0.700

     atomic species   valence    mass     pseudopotential
        O0             6.00    15.99940     O ( 1.00)
        Cr1           14.00    51.99600     Cr( 1.00)
        H2             1.00     1.00794     H ( 1.00)

     Starting magnetic structure
     atomic species   magnetization
        O0           0.000
        Cr1          0.600
        H2           0.000

     Simplified LDA+U calculation (l_max = 2) with parameters (eV):
     atomic species    L          U    alpha       J0     beta
        Cr1            2     5.5000   0.0000   0.0000   0.0000

     No symmetry found

   Cartesian axes

     site n.     atom                  positions (alat units)
         1           O0  tau(   1) = (   0.0000000   0.0000000   1.7072332  )
         2           O0  tau(   2) = (   0.0000000   0.5339875   1.8068165  )
         3           Cr1 tau(   3) = (   0.2500000   0.5339875   2.0386808  )
         4           Cr1 tau(   4) = (   0.0000000   0.0000000   2.0275709  )
         5           O0  tau(   5) = (   0.2500000   0.8543801   2.0319968  )
         6           O0  tau(   6) = (   0.2500000   0.2135950   2.0327194  )
         7           O0  tau(   7) = (   0.0000000   0.5339875   2.2464284  )
         8           O0  tau(   8) = (   0.0000000   0.0000000   2.3629476  )
         9           Cr1 tau(   9) = (   0.2500000   0.0000000   2.5576884  )
        10           Cr1 tau(  10) = (   0.0000000   0.5339875   2.5509140  )
        11           O0  tau(  11) = (   0.2500000   0.7475825   2.5906119  )
        12           O0  tau(  12) = (   0.2500000   0.3203925   2.5906119  )
        13           O0  tau(  13) = (   0.0000000   0.0000000   2.7911334  )
        14           O0  tau(  14) = (   0.5000000   0.0000000   1.7073235  )
        15           O0  tau(  15) = (   0.5000000   0.5339875   1.8079456  )
        16           Cr1 tau(  16) = (   0.7500000   0.5339875   2.0392228  )
        17           Cr1 tau(  17) = (   0.5000000   0.0000000   2.0278870  )
        18           O0  tau(  18) = (   0.7500000   0.8543801   2.0322226  )
        19           O0  tau(  19) = (   0.7500000   0.2135950   2.0329904  )
        20           O0  tau(  20) = (   0.5000000   0.5339875   2.2544673  )
        21           O0  tau(  21) = (   0.5000000   0.0000000   2.3630380  )
        22           Cr1 tau(  22) = (   0.7500000   0.0000000   2.6360002  )
        23           Cr1 tau(  23) = (   0.5000000   0.5339875   2.6018573  )
        24           O0  tau(  24) = (   0.7500000   0.7475825   2.5939087  )
        25           O0  tau(  25) = (   0.7500000   0.3203925   2.5936377  )
        26           O0  tau(  26) = (   0.5000000   0.0000000   2.7879720  )
        27           H2  tau(  27) = (  -0.0006000   0.6814001   1.7205110  )
        28           H2  tau(  28) = (   0.4996600   0.6814535   1.7215045  )
        29           H2  tau(  29) = (   0.1566500   0.0338121   1.6478896  )
        30           H2  tau(  30) = (   0.6567200   0.0335237   1.6481606  )
        31           O0  tau(  31) = (   0.5143900   0.5336458   2.9144271  )
        32           H2  tau(  32) = (   0.3645400   0.5319370   2.9931001  )

     number of k points=    20  Methfessel-Paxton smearing, width (Ry)=  0.0100
                       cart. coord. in units 2pi/alat
        k(    1) = (   0.0000000   0.0000000   0.0000000), wk =   0.0625000
        k(    2) = (   0.0000000   0.2340879   0.0000000), wk =   0.1250000
        k(    3) = (   0.0000000  -0.4681757   0.0000000), wk =   0.0625000
        k(    4) = (   0.2500000   0.0000000   0.0000000), wk =   0.1250000
        k(    5) = (   0.2500000   0.2340879   0.0000000), wk =   0.1250000
        k(    6) = (   0.2500000  -0.4681757   0.0000000), wk =   0.1250000
        k(    7) = (  -0.5000000   0.0000000   0.0000000), wk =   0.0625000
        k(    8) = (  -0.5000000   0.2340879   0.0000000), wk =   0.1250000
        k(    9) = (  -0.5000000  -0.4681757   0.0000000), wk =   0.0625000
        k(   10) = (  -0.2500000   0.2340879   0.0000000), wk =   0.1250000
        k(   11) = (   0.0000000   0.0000000   0.0000000), wk =   0.0625000
        k(   12) = (   0.0000000   0.2340879   0.0000000), wk =   0.1250000
        k(   13) = (   0.0000000  -0.4681757   0.0000000), wk =   0.0625000
        k(   14) = (   0.2500000   0.0000000   0.0000000), wk =   0.1250000
        k(   15) = (   0.2500000   0.2340879   0.0000000), wk =   0.1250000
        k(   16) = (   0.2500000  -0.4681757   0.0000000), wk =   0.1250000
        k(   17) = (  -0.5000000   0.0000000   0.0000000), wk =   0.0625000
        k(   18) = (  -0.5000000   0.2340879   0.0000000), wk =   0.1250000
        k(   19) = (  -0.5000000  -0.4681757   0.0000000), wk =   0.0625000
        k(   20) = (  -0.2500000   0.2340879   0.0000000), wk =   0.1250000

     Largest allocated arrays     est. size (Mb)     dimensions
     Largest temporary arrays     est. size (Mb)     dimensions

     Check: negative/imaginary core charge=   -0.000012    0.000000

     Initial potential from superposition of free atoms
     Check: negative starting charge=(component1):   -0.001476
     Check: negative starting charge=(component2):   -0.000504

     starting charge  222.99983, renormalised to  231.00000

     negative rho (up, down):  0.153E-02 0.522E-03
     Number of +U iterations with fixed ns =  0
     Starting occupations:
 --- enter write_ns ---
 LDA+U parameters:
U( 2)     =  5.50000000
alpha( 2) =  0.00000000
atom    3   Tr[ns(na)] (up, down, total) =   5.00000  0.00000  5.00000
   spin  1
    eigenvalues:
  1.000  1.000  1.000  1.000  1.000
    eigenvectors:
  1.000  0.000  0.000  0.000  0.000
  0.000  1.000  0.000  0.000  0.000
  0.000  0.000  1.000  0.000  0.000
  0.000  0.000  0.000  1.000  0.000
  0.000  0.000  0.000  0.000  1.000
    occupations:
  1.000  0.000  0.000  0.000  0.000
  0.000  1.000  0.000  0.000  0.000
  0.000  0.000  1.000  0.000  0.000
  0.000  0.000  0.000  1.000  0.000
  0.000  0.000  0.000  0.000  1.000
   spin  2
    eigenvalues:
  0.000  0.000  0.000  0.000  0.000
    eigenvectors:
  1.000  0.000  0.000  0.000  0.000
  0.000  1.000  0.000  0.000  0.000
  0.000  0.000  1.000  0.000  0.000
  0.000  0.000  0.000  1.000  0.000
  0.000  0.000  0.000  0.000  1.000
    occupations:
  0.000  0.000  0.000  0.000  0.000
  0.000  0.000  0.000  0.000  0.000
  0.000  0.000  0.000  0.000  0.000
  0.000  0.000  0.000  0.000  0.000
  0.000  0.000  0.000  0.000  0.000
atomic mag. moment =     5.000000
atom    4   Tr[ns(na)] (up, down, total) =   5.00000  0.00000  5.00000
   spin  1
    eigenvalues:
  1.000  1.000  1.000  1.000  1.000
    eigenvectors:
  1.000  0.000  0.000  0.000  0.000
  0.000  1.000  0.000  0.000  0.000
  0.000  0.000  1.000  0.000  0.000
  0.000  0.000  0.000  1.000  0.000
  0.000  0.000  0.000  0.000  1.000
    occupations:
  1.000  0.000  0.000  0.000  0.000
  0.000  1.000  0.000  0.000  0.000
  0.000  0.000  1.000  0.000  0.000
  0.000  0.000  0.000  1.000  0.000
  0.000  0.000  0.000  0.000  1.000
   spin  2
    eigenvalues:
  0.000  0.000  0.000  0.000  0.000
    eigenvectors:
  1.000  0.000  0.000  0.000  0.000
  0.000  1.000  0.000  0.000  0.000
  0.000  0.000  1.000  0.000  0.000
  0.000  0.000  0.000  1.000  0.000
  0.000  0.000  0.000  0.000  1.000
    occupations:
  0.000  0.000  0.000  0.000  0.000
  0.000  0.000  0.000  0.000  0.000
  0.000  0.000  0.000  0.000  0.000
  0.000  0.000  0.000  0.000  0.000
  0.000  0.000  0.000  0.000  0.000
atomic mag. moment =     5.000000
atom    9   Tr[ns(na)] (up, down, total) =   5.00000  0.00000  5.00000
   spin  1
    eigenvalues:
  1.000  1.000  1.000  1.000  1.000
[...]
 -0.000  0.009  0.001  0.000  0.086
atomic mag. moment =     2.810472
atom    4   Tr[ns(na)] (up, down, total) =   3.66259  0.93195  4.59455
   spin  1
    eigenvalues:
  0.486  0.536  0.721  0.929  0.991
    eigenvectors:
  0.001  0.993  0.000  0.001  0.004
  0.000  0.001  0.011  0.988  0.000
  0.000  0.000  0.989  0.011  0.000
  0.000  0.004  0.000  0.000  0.996
  0.998  0.002  0.000  0.000  0.000
    occupations:
  0.538 -0.014 -0.001  0.030  0.002
 -0.014  0.926  0.022  0.002 -0.000
 -0.001  0.022  0.723  0.001  0.001
  0.030  0.002  0.001  0.989 -0.000
  0.002 -0.000  0.001 -0.000  0.487
   spin  2
    eigenvalues:
  0.079  0.089  0.098  0.331  0.335
    eigenvectors:
  0.005  0.001  0.000  0.033  0.961
  0.006  0.867  0.126  0.000  0.001
  0.001  0.125  0.874  0.000  0.000
  0.988  0.007  0.000  0.000  0.005
  0.000  0.000  0.000  0.967  0.033
    occupations:
  0.333  0.009  0.002 -0.018  0.001
  0.009  0.091 -0.003  0.000 -0.000
  0.002 -0.003  0.097  0.000  0.000
 -0.018  0.000  0.000  0.080  0.000
  0.001 -0.000  0.000  0.000  0.331
atomic mag. moment =     2.730642
atom    9   Tr[ns(na)] (up, down, total) =   3.67169  0.95664  4.62833
   spin  1
    eigenvalues:
  0.522  0.536  0.725  0.897  0.992
    eigenvectors:
  0.004  0.192  0.000  0.000  0.804
  0.983  0.017  0.000  0.000  0.000
  0.000  0.000  0.943  0.057  0.000
  0.013  0.791  0.000  0.000  0.196
  0.000  0.000  0.057  0.942  0.000
    occupations:
  0.903  0.004  0.000 -0.181 -0.001
  0.004  0.522  0.001  0.000 -0.000
  0.000  0.001  0.735 -0.001 -0.040
 -0.181  0.000 -0.001  0.625  0.001
 -0.001 -0.000 -0.040  0.001  0.887
   spin  2
    eigenvalues:
  0.087  0.096  0.099  0.325  0.349
    eigenvectors:
  0.810  0.000  0.000  0.001  0.188
  0.000  0.000  0.000  0.994  0.006
  0.000  0.223  0.777  0.000  0.000
  0.190  0.000  0.000  0.004  0.806
  0.000  0.777  0.223  0.000  0.000
    occupations:
  0.137  0.000  0.000  0.103 -0.000
  0.000  0.325 -0.000  0.002  0.000
  0.000 -0.000  0.098  0.000  0.002
  0.103  0.002  0.000  0.299 -0.000
 -0.000  0.000  0.002 -0.000  0.096
atomic mag. moment =     2.715052
atom   10   Tr[ns(na)] (up, down, total) =   3.75545  0.81230  4.56774
   spin  1
    eigenvalues:
  0.484  0.503  0.848  0.929  0.991
    eigenvectors:
  0.000  0.996  0.000  0.000  0.004
  0.000  0.000  0.000  1.000  0.000
  0.000  0.000  1.000  0.000  0.000
  0.000  0.004  0.000  0.000  0.996
  1.000  0.000  0.000  0.000  0.000
    occupations:
  0.505 -0.003 -0.002  0.031  0.000
 -0.003  0.929 -0.001  0.000  0.000
 -0.002 -0.001  0.848  0.000  0.005
  0.031  0.000  0.000  0.989 -0.000
  0.000  0.000  0.005 -0.000  0.484
   spin  2
    eigenvalues:
  0.072  0.094  0.098  0.235  0.313
    eigenvectors:
  0.010  0.000  0.000  0.990  0.000
  0.000  0.000  1.000  0.000  0.000
  0.000  1.000  0.000  0.000  0.000
  0.990  0.000  0.000  0.010  0.000
  0.000  0.000  0.000  0.000  1.000
    occupations:
  0.233  0.000 -0.000 -0.017 -0.000
  0.000  0.098 -0.000 -0.000  0.000
 -0.000 -0.000  0.094 -0.000 -0.002
 -0.017 -0.000 -0.000  0.074  0.000
 -0.000  0.000 -0.002  0.000  0.313
atomic mag. moment =     2.943146
atom   16   Tr[ns(na)] (up, down, total) =   3.69611  0.88565  4.58176
   spin  1
    eigenvalues:
  0.458  0.503  0.791  0.952  0.991
    eigenvectors:
  0.001  0.237  0.001  0.000  0.761
  0.996  0.003  0.000  0.000  0.000
  0.000  0.000  0.998  0.001  0.002
  0.003  0.759  0.000  0.000  0.238
  0.000  0.000  0.001  0.999  0.000
    occupations:
  0.875 -0.001  0.007 -0.208 -0.000
 -0.001  0.459 -0.000  0.004 -0.008
  0.007 -0.000  0.791 -0.005  0.005
 -0.208  0.004 -0.005  0.619  0.000
 -0.000 -0.008  0.005  0.000  0.952
   spin  2
    eigenvalues:
  0.070  0.085  0.095  0.299  0.337
    eigenvectors:
  0.742  0.002  0.030  0.002  0.224
  0.000  0.002  0.000  0.993  0.005
  0.037  0.022  0.940  0.000  0.000
  0.221  0.000  0.005  0.003  0.771
  0.000  0.974  0.024  0.002  0.000
    occupations:
  0.131  0.002 -0.002  0.111  0.000
  0.002  0.299  0.000 -0.004  0.009
 -0.002  0.000  0.094  0.006 -0.001
  0.111 -0.004  0.006  0.276 -0.000
  0.000  0.009 -0.001 -0.000  0.086
atomic mag. moment =     2.810463
atom   17   Tr[ns(na)] (up, down, total) =   3.67478  0.91798  4.59275
   spin  1
    eigenvalues:
  0.482  0.531  0.745  0.926  0.991
    eigenvectors:
  0.001  0.994  0.000  0.001  0.004
  0.000  0.001  0.010  0.988  0.000
  0.000  0.000  0.990  0.010  0.000
  0.000  0.004  0.000  0.000  0.996
  0.999  0.001  0.000  0.000  0.000
    occupations:
  0.533 -0.013 -0.002  0.029  0.002
 -0.013  0.923  0.018  0.001 -0.000
 -0.002  0.018  0.747  0.000  0.001
  0.029  0.001  0.000  0.989 -0.000
  0.002 -0.000  0.001 -0.000  0.482
   spin  2
    eigenvalues:
  0.078  0.088  0.095  0.328  0.329
    eigenvectors:
  0.006  0.001  0.000  0.350  0.643
  0.007  0.835  0.156  0.001  0.001
  0.001  0.155  0.843  0.000  0.000
  0.987  0.008  0.000  0.002  0.003
  0.000  0.000  0.000  0.647  0.353
    occupations:
  0.327  0.009  0.002 -0.018  0.001
  0.009  0.089 -0.003  0.000 -0.000
  0.002 -0.003  0.094  0.000  0.000
 -0.018  0.000  0.000  0.079  0.000
  0.001 -0.000  0.000  0.000  0.328
atomic mag. moment =     2.756799
atom   22   Tr[ns(na)] (up, down, total) =   3.66944  0.95842  4.62787
   spin  1
    eigenvalues:
  0.522  0.537  0.723  0.895  0.992
    eigenvectors:
  0.001  0.194  0.000  0.000  0.805
  0.998  0.002  0.000  0.000  0.000
  0.000  0.000  0.946  0.054  0.000
  0.001  0.804  0.000  0.000  0.195
  0.000  0.000  0.054  0.946  0.000
    occupations:
  0.903 -0.003 -0.001 -0.180 -0.001
 -0.003  0.522  0.001  0.001  0.000
 -0.001  0.001  0.733  0.000  0.039
 -0.180  0.001  0.000  0.626  0.001
 -0.001  0.000  0.039  0.001  0.886
   spin  2
    eigenvalues:
  0.088  0.096  0.100  0.325  0.349
    eigenvectors:
  0.811  0.000  0.000  0.001  0.187
  0.000  0.000  0.000  0.993  0.007
  0.000  0.188  0.812  0.000  0.000
  0.189  0.000  0.000  0.005  0.806
  0.000  0.812  0.188  0.000  0.000
    occupations:
  0.137 -0.000 -0.000  0.102 -0.000
 -0.000  0.326 -0.000 -0.002  0.000
 -0.000 -0.000  0.099 -0.000 -0.001
  0.102 -0.002 -0.000  0.300 -0.000
 -0.000  0.000 -0.001 -0.000  0.097
atomic mag. moment =     2.711021
atom   23   Tr[ns(na)] (up, down, total) =   3.67780  0.90455  4.58235
   spin  1
    eigenvalues:
  0.480  0.522  0.736  0.951  0.988
    eigenvectors:
  0.000  0.995  0.000  0.000  0.005
  0.000  0.000  0.000  0.999  0.001
  0.000  0.000  1.000  0.000  0.000
  0.000  0.005  0.000  0.001  0.995
  1.000  0.000  0.000  0.000  0.000
    occupations:
  0.524  0.003 -0.001  0.032  0.000
  0.003  0.951  0.002  0.001 -0.000
 -0.001  0.002  0.736  0.000 -0.005
  0.032  0.001  0.000  0.986 -0.000
  0.000 -0.000 -0.005 -0.000  0.481
   spin  2
    eigenvalues:
  0.077  0.086  0.095  0.319  0.327
    eigenvectors:
  0.005  0.000  0.000  0.995  0.000
  0.000  0.999  0.001  0.000  0.000
  0.000  0.001  0.999  0.000  0.000
  0.995  0.000  0.000  0.005  0.000
  0.000  0.000  0.000  0.000  1.000
    occupations:
  0.318  0.002  0.000 -0.017  0.000
  0.002  0.086 -0.000  0.000  0.000
  0.000 -0.000  0.095 -0.000  0.002
 -0.017  0.000 -0.000  0.078  0.000
  0.000  0.000  0.002  0.000  0.327
atomic mag. moment =     2.773250
N of occupied +U levels =  36.7572855
 --- exit write_ns ---

 ------ SPIN UP ------------

[...]

 ------ SPIN DOWN ----------

[...]

          k = 0.2500-0.4682 0.0000 ( 27150 PWs)   bands (ev):

[...]

          k =-0.2500 0.2341 0.0000 ( 27132 PWs)   bands (ev):

   -72.3750 -72.3123 -72.2924 -72.2676 -72.2363 -72.2150 -72.1595 -72.1484
   -43.9269 -43.9058 -43.8671 -43.8453 -43.8146 -43.7925 -43.7705 -43.7585
   -43.7288 -43.7056 -43.6894 -43.6066 -43.5904 -43.5785 -43.5698 -43.5539
   -43.5525 -43.5133 -43.4481 -43.4459 -43.3887 -43.3757 -43.2785 -43.2479
   -21.2510 -20.9230 -20.6473 -20.6119 -20.4927 -20.3311 -20.2635 -20.2035
   -20.1713 -20.0438 -19.9774 -19.9212 -19.8490 -19.8365 -19.6547 -19.6109
   -19.5413 -19.4586 -19.3648  -8.5447  -8.3953  -8.1153  -8.0049  -7.8414
    -7.8112  -7.5229  -7.4028  -7.2847  -7.1939  -7.1160  -6.9315  -6.8828
    -6.8525  -6.7905  -6.7584  -6.5851  -6.5338  -6.3161  -6.2747  -6.1407
    -6.0431  -5.9211  -5.8281  -5.7458  -5.6914  -5.6095  -5.5573  -5.4037
    -5.3907  -5.3532  -5.2867  -5.1816  -5.1588  -5.0869  -5.0012  -4.9695
    -4.8415  -4.5564  -4.5275  -4.4034  -4.3519  -4.2916  -4.2460  -4.2160
    -4.1603  -4.0847  -4.0428  -3.9970  -3.9637  -3.8740  -3.8061  -3.7878
    -3.5949  -3.5145  -3.4599  -3.3076   1.6660   1.9003   1.9743   2.0176
     2.0649   2.1003   2.1453   2.1797   2.2045   2.2584   2.3174   2.3319
     2.4161   2.4483   2.5370   2.5695   2.6092   2.6731   2.6914   2.7858
     2.8280   2.8725   2.9799   3.0213   3.0403   3.0858   3.1619   3.1902
     3.2345   3.3178   3.3472   3.5013   3.5166   3.6881   3.7546   3.7798
     3.8114   3.9311   3.9623   4.0947   4.1459   4.3283   4.4091   4.8581
     5.3758   5.6980   5.8070   5.9917   6.2419   6.3407   6.4938   6.6190
     6.7947   6.9098   7.0362   7.3195   7.4720   7.7113   7.8798   7.9525
     8.1171   8.3257   8.4321   8.5746   8.6695   8.8452   8.9278   9.0633
     9.2090   9.2471   9.3558   9.4807   9.5614   9.7201   9.8121  10.0255
    10.1490  10.2032  10.2494  10.3581  10.4394  10.6650  10.6897  10.8105
    10.8615  11.0109  11.0700  11.1580  11.2956  11.3524  11.4536  11.6000
    11.6162  11.7513  11.7991  11.9204  12.0006  12.0882  12.1587  12.2415
    12.3282  12.3897  12.5146  12.6026  12.7232  12.7838  12.8497  12.8909
    12.9304  12.9803  13.0497  13.1302  13.1730  13.2505  13.3213  13.3764
    13.5140  13.5924  13.6568  13.6902  13.8054  13.8646  13.8880  14.0055
    14.1482  14.1744  14.2630  14.3671  14.4357  14.5824  14.6072  14.6749
    14.7239  14.8089  14.8657  14.9516  15.0005  15.1467  15.2349  15.3094
    15.3859  15.4282  15.5445  15.5999  15.6791  15.7553  15.8584  15.9972
    16.0105  16.0923  16.1598  16.2254  16.2964  16.3301  16.4197  16.4601
    16.5213  16.6881  16.7099  16.8091  16.8618  16.9320  17.0191  17.0688
    17.1660  17.1882  17.2756  17.3490  17.4092  17.5055  17.5444  17.6132
    17.7148  17.7652  17.8042  17.8493  17.9193  17.9984  18.0875  18.1582
    18.2394  18.2858  18.3511  18.4006  18.4366  18.6142  18.7156  18.7504
    18.8349  18.8877  18.9485  18.9995  19.0531  19.2003  19.2190  19.3262
    19.3846  19.4285  19.5466  19.6341  19.6829  19.6984  19.7750  19.8948
    19.9188  19.9742  20.1229  20.1672  20.2612  20.3047  20.4005  20.4996
    20.5663  20.6477  20.6867  20.8467  20.8986  20.9429  21.0549  21.0946
    21.1651  21.2469  21.3200  21.3924  21.4312  21.5049

     the spin up/dw Fermi energies are    -2.2157   -2.2809 ev

!    total energy              =   -2024.39252308 Ry
     Harris-Foulkes estimate   =   -2024.39252308 Ry
     estimated scf accuracy    <          9.8E-09 Ry

     The total energy is the sum of the following terms:

     one-electron contribution =  -23866.63653930 Ry
     hartree contribution      =   11953.69496144 Ry
     xc contribution           =    -323.29510693 Ry
     ewald contribution        =   10209.53233145 Ry
     Hubbard energy            =       2.31080621 Ry
     smearing contrib. (-TS)   =       0.00102406 Ry

     total magnetization       =    15.00 Bohr mag/cell
     absolute magnetization    =    29.38 Bohr mag/cell

     convergence has been achieved in  16 iterations

     Forces acting on atoms (Ry/au):

     negative rho (up, down):  0.555E-02 0.182E-02
     atom    1 type  1   force =    -0.00384668   -0.01025455    0.00021430
     atom    2 type  1   force =     0.00004276    0.00363111    0.00017392
     atom    3 type  2   force =     0.02532354    0.00193163    0.00049247
     atom    4 type  2   force =     0.00425269    0.00527928   -0.00036941
     atom    5 type  1   force =     0.00027687    0.00830868   -0.00029470
     atom    6 type  1   force =     0.00122434   -0.00662341   -0.00023233
     atom    7 type  1   force =     0.00151608   -0.00250262    0.00038447
     atom    8 type  1   force =    -0.00011407   -0.00000477   -0.00026057
     atom    9 type  2   force =     0.00701661    0.00088704    0.00042241
     atom   10 type  2   force =    -0.00258607   -0.00012247   -0.00000661
     atom   11 type  1   force =    -0.02409141   -0.03574232   -0.00011606
     atom   12 type  1   force =    -0.02365310    0.03553649   -0.00011663
     atom   13 type  1   force =    -0.00080084   -0.00014038    0.00040974
     atom   14 type  1   force =    -0.00544543   -0.01110277    0.00021091
     atom   15 type  1   force =     0.00018439    0.00430092   -0.00023692
     atom   16 type  2   force =    -0.02509847    0.00280634    0.00046249
     atom   17 type  2   force =     0.00469255    0.00543018   -0.00025215
     atom   18 type  1   force =     0.00014153    0.00808149   -0.00024335
     atom   19 type  1   force =     0.00101747   -0.00689906   -0.00021121
     atom   20 type  1   force =    -0.00106006   -0.00346044    0.00076579
     atom   21 type  1   force =    -0.00272706   -0.00012590   -0.00037667
     atom   22 type  2   force =    -0.00370707   -0.00036569    0.00016323
     atom   23 type  2   force =    -0.00048363    0.00067744    0.00027462
     atom   24 type  1   force =     0.02310887   -0.02909937   -0.00060297
     atom   25 type  1   force =     0.02367834    0.02929639   -0.00059130
     atom   26 type  1   force =    -0.00015485    0.00004033   -0.00035404
     atom   27 type  3   force =    -0.00000763    0.00007857    0.00024925
     atom   28 type  3   force =     0.00000178    0.00032647    0.00014962
     atom   29 type  3   force =    -0.00012822   -0.00005895   -0.00005380
     atom   30 type  3   force =    -0.00017511   -0.00006068   -0.00012971
     atom   31 type  1   force =     0.00093484    0.00000906    0.00001395
     atom   32 type  3   force =     0.00066703   -0.00005805    0.00006127

     Total force =     0.002221     Total SCF correction =     0.000259
     SCF correction compared to forces is large: reduce conv_thr to get better values

     bfgs converged in  21 scf cycles and  20 bfgs steps
     (criteria: energy < 0.10E-03, force < 0.10E-02)

     End of BFGS Geometry Optimization

     Final energy   =   -2024.3925230782 Ry
Begin final coordinates

ATOMIC_POSITIONS (crystal)
O0       0.000000000   0.000000000   0.375748252    0   0   1
O0       0.000000000   0.500000000   0.396321217    0   0   1
Cr1      0.250000000   0.500000000   0.448742495    0   0   1
Cr1      0.000000000   0.000000000   0.449311544    0   0   1
O0       0.250000000   0.800000000   0.449022345    0   0   1
O0       0.250000000   0.200000000   0.449021299    0   0   1
O0       0.000000000   0.500000000   0.496624802    0   0   1
O0       0.000000000   0.000000000   0.524090648    0   0   1
Cr1      0.250000000   0.000000000   0.575671642    0   0   1
Cr1      0.000000000   0.500000000   0.566189590    0   0   1
O0       0.250000000   0.700000000   0.575866217    0   0   1
O0       0.250000000   0.300000000   0.575989398    0   0   1
O0       0.000000000   0.000000000   0.622689539    0   0   1
O0       0.500000000   0.000000000   0.375723967    0   0   1
O0       0.500000000   0.500000000   0.396642678    0   0   1
Cr1      0.750000000   0.500000000   0.448759549    0   0   1
Cr1      0.500000000   0.000000000   0.449570394    0   0   1
O0       0.750000000   0.800000000   0.449031833    0   0   1
O0       0.750000000   0.200000000   0.449005855    0   0   1
O0       0.500000000   0.500000000   0.499850362    0   0   1
O0       0.500000000   0.000000000   0.524613324    0   0   1
Cr1      0.750000000   0.000000000   0.575898976    0   0   1
Cr1      0.500000000   0.500000000   0.578169730    0   0   1
O0       0.750000000   0.700000000   0.574701028    0   0   1
O0       0.750000000   0.300000000   0.574682242    0   0   1
O0       0.500000000   0.000000000   0.623119931    0   0   1
H2      -0.000773568   0.636876417   0.376939423
H2       0.499428934   0.637267441   0.377378959
H2       0.158798887   0.028060013   0.363247983
H2       0.658412159   0.028784190   0.363183158
O0       0.518877343   0.499914973   0.649753545
H2       0.368652289   0.497689661   0.667168075
End final coordinates

     General routines

     Parallel routines
     Hubbard U routines

   This run was terminated on:  13: 0: 6   6May2014

   JOB DONE.
Running PBS batch system epilogue script
Job id: 340733.audhumbla.fysik.dtu.dk
Username: zhonxu
Groupname: campgst
Jobname: CrO2/Eads-2-layers/OH-U-5.5
Sessionid: 5947
Queuename: verylong
Accounting:
This job has allocated the following 16 nodes:
a108 a108 a108 a108 a108 a108 a108 a108 a052 a052 a052 a052 a052 a052 a052 a052
Finished epilogue job 340733.audhumbla.fysik.dtu.dk for zhonxu