     Program PWSCF v.5.0.2 (svn rev. 9656) starts on 27Apr2014 at  6:32:51

     Current dimensions of program PWSCF are:
     Max number of different atomic species (ntypx) = 10
     Max number of k-points (npk) =  40000
     Max angular momentum in pseudopotentials (lmaxx) =  3
     Reading input from pwscf.in
Warning: card &CELL ignored
Warning: card / ignored

     Subspace diagonalization in iterative solution of the eigenvalue problem:
     a serial algorithm will be used

     bravais-lattice index     =            0
     lattice parameter (alat)  =      11.7919  a.u.
     unit-cell volume          =    7123.6633 (a.u.)^3
     number of atoms/cell      =           32
     number of atomic types    =            3
     number of electrons       =       247.00
     number of Kohn-Sham states=          358
     kinetic-energy cutoff     =      40.0000  Ry
     charge density cutoff     =     500.0000  Ry
     convergence threshold     =      1.0E-06
     mixing beta               =       0.7000
     number of iterations used =            8  plain     mixing
     Exchange-correlation      = SLA  PW   PBE  PBE ( 1 4 3 4 0)
     EXX-fraction              =        0.00
     nstep                     =           50

     celldm(1)=  11.791891  celldm(2)=   0.000000  celldm(3)=   0.000000
     celldm(4)=   0.000000  celldm(5)=   0.000000  celldm(6)=   0.000000

     crystal axes: (cart. coord. in units of alat)
               a(1) = (   1.000000   0.000000   0.000000 )
               a(2) = (   0.000000   1.026665   0.000000 )
               a(3) = (   0.000000   0.000000   4.231793 )

     reciprocal axes: (cart. coord. in units 2 pi/alat)
               b(1) = (  1.000000  0.000000  0.000000 )
               b(2) = (  0.000000  0.974028  0.000000 )
               b(3) = (  0.000000  0.000000  0.236306 )

     PseudoPot. # 1 for O  read from file:
     /home/camp/zhonxu/pseudo/o_pbe_v1.01.uspp.F.UPF
     MD5 check sum: 2bcb18d16ea4b960afae9ec6d52f22d2
     Pseudo is Ultrasoft + core correction, Zval =  6.0
     Generated by new atomic code, or converted to UPF format
     Using radial grid of  737 points,  5 beta functions with:
                l(1) =   0
                l(2) =   0
                l(3) =   1
                l(4) =   1
                l(5) =   2
     Q(r) pseudized with  8 coefficients,  rinner =    0.900   0.900   0.900
                                                       0.900   0.900

     PseudoPot. # 2 for Ru read from file:
     /home/camp/zhonxu/pseudo/ru_pbe_v1.uspp.F.UPF
     MD5 check sum: df00be1c11b23341d9806d8f1dfa10cf
     Pseudo is Ultrasoft + core correction, Zval = 16.0
     Generated by new atomic code, or converted to UPF format
     Using radial grid of  967 points,  6 beta functions with:
                l(1) =   0
                l(2) =   0
                l(3) =   1
                l(4) =   1
                l(5) =   2
                l(6) =   2
     Q(r) pseudized with  8 coefficients,  rinner =    1.300   1.300   1.300
                                                       1.300   1.300

     PseudoPot. # 3 for H  read from file:
     /home/camp/zhonxu/pseudo/h_pbe_v1.uspp.F.UPF
     MD5 check sum: 3408e3ff4ec8b0a4e358431e7e038a48
     Pseudo is Ultrasoft, Zval =  1.0
     Generated by new atomic code, or converted to UPF format
     Using radial grid of  615 points,  2 beta functions with:
                l(1) =   0
                l(2) =   0
     Q(r) pseudized with  8 coefficients,  rinner =    0.700

     atomic species   valence    mass     pseudopotential
        O0             6.00    15.99940     O ( 1.00)
        Ru1           16.00   101.07000     Ru( 1.00)
        H2             1.00     1.00794     H ( 1.00)

     Simplified LDA+U calculation (l_max = 2) with parameters (eV):
     atomic species    L          U    alpha       J0     beta
        Ru1            2     2.5000   0.0000   0.0000   0.0000

     No symmetry found

   Cartesian axes

     site n.     atom                  positions (alat units)
         1           O0  tau(   1) = (   0.0000000   0.0000000   1.6035109  )
         2           O0  tau(   2) = (   0.0000000   0.5133323   1.7058780  )
         3           Ru1 tau(   3) = (   0.2500000   0.5133323   1.9200491  )
         4           Ru1 tau(   4) = (   0.0000000   0.0000000   1.9171714  )
         5           O0  tau(   5) = (   0.2500000   0.8315984   1.9169175  )
         6           O0  tau(   6) = (   0.2500000   0.1950663   1.9164520  )
         7           O0  tau(   7) = (   0.0000000   0.5133323   2.1053593  )
         8           O0  tau(   8) = (   0.0000000   0.0000000   2.2310435  )
         9           Ru1 tau(   9) = (   0.2500000   0.0000000   2.4441566  )
        10           Ru1 tau(  10) = (   0.0000000   0.5133323   2.4052664  )
        11           O0  tau(  11) = (   0.2500000   0.7083986   2.4364547  )
        12           O0  tau(  12) = (   0.2500000   0.3182660   2.4361585  )
        13           O0  tau(  13) = (   0.0000000   0.0000000   2.6233307  )
        14           O0  tau(  14) = (   0.5000000   0.0000000   1.6045689  )
        15           O0  tau(  15) = (   0.5000000   0.5133323   1.7057934  )
        16           Ru1 tau(  16) = (   0.7500000   0.5133323   1.9200914  )
        17           Ru1 tau(  17) = (   0.5000000   0.0000000   1.9176369  )
        18           O0  tau(  18) = (   0.7500000   0.8315984   1.9167059  )
        19           O0  tau(  19) = (   0.7500000   0.1950663   1.9164520  )
        20           O0  tau(  20) = (   0.5000000   0.5133323   2.1229635  )
        21           O0  tau(  21) = (   0.5000000   0.0000000   2.2303664  )
        22           Ru1 tau(  22) = (   0.7500000   0.0000000   2.4441143  )
        23           Ru1 tau(  23) = (   0.5000000   0.5133323   2.4370472  )
        24           O0  tau(  24) = (   0.7500000   0.7083986   2.4343812  )
        25           O0  tau(  25) = (   0.7500000   0.3182660   2.4338310  )
        26           O0  tau(  26) = (   0.5000000   0.0000000   2.6134283  )
        27           H2  tau(  27) = (  -0.0002400   0.6455975   1.6183222  )
        28           H2  tau(  28) = (   0.4995500   0.6408954   1.6119322  )
        29           H2  tau(  29) = (   0.1457200   0.0328533   1.5514599  )
        30           H2  tau(  30) = (   0.6465200   0.0301223   1.5527294  )
        31           O0  tau(  31) = (   0.5138700   0.5107965   2.7447408  )
        32           H2  tau(  32) = (   0.3716000   0.5093694   2.8125765  )

     number of k points=    10  Methfessel-Paxton smearing, width (Ry)=  0.0100
                       cart. coord. in units 2pi/alat
        k(    1) = (   0.0000000   0.0000000   0.0000000), wk =   0.1250000
        k(    2) = (   0.0000000   0.2435070   0.0000000), wk =   0.2500000
        k(    3) = (   0.0000000  -0.4870139   0.0000000), wk =   0.1250000
        k(    4) = (   0.2500000   0.0000000   0.0000000), wk =   0.2500000
        k(    5) = (   0.2500000   0.2435070   0.0000000), wk =   0.2500000
        k(    6) = (   0.2500000  -0.4870139   0.0000000), wk =   0.2500000
        k(    7) = (  -0.5000000   0.0000000   0.0000000), wk =   0.1250000
        k(    8) = (  -0.5000000   0.2435070   0.0000000), wk =   0.2500000
        k(    9) = (  -0.5000000  -0.4870139   0.0000000), wk =   0.1250000
        k(   10) = (  -0.2500000   0.2435070   0.0000000), wk =   0.2500000

     Largest allocated arrays     est. size (Mb)     dimensions
     Largest temporary arrays     est. size (Mb)     dimensions

     Check: negative/imaginary core charge=   -0.000003    0.000000

     Initial potential from superposition of free atoms
     Check: negative starting charge=   -0.522051

     starting charge  238.99980, renormalised to  247.00000

     negative rho (up, down):  0.540E+00 0.000E+00
     Number of +U iterations with fixed ns =  0
     Starting occupations:
 --- enter write_ns ---
 LDA+U parameters:
U( 2)     =  2.50000000
alpha( 2) =  0.00000000
atom    3   Tr[ns(na)] =   6.00000
    eigenvalues:
  0.600  0.600  0.600  0.600  0.600
    eigenvectors:
  1.000  0.000  0.000  0.000  0.000
  0.000  1.000  0.000  0.000  0.000
  0.000  0.000  1.000  0.000  0.000
  0.000  0.000  0.000  1.000  0.000
  0.000  0.000  0.000  0.000  1.000
    occupations:
  0.600  0.000  0.000  0.000  0.000
  0.000  0.600  0.000  0.000  0.000
  0.000  0.000  0.600  0.000  0.000
  0.000  0.000  0.000  0.600  0.000
  0.000  0.000  0.000  0.000  0.600
atom    4   Tr[ns(na)] =   6.00000
    eigenvalues:
  0.600  0.600  0.600  0.600  0.600
    eigenvectors:
  1.000  0.000  0.000  0.000  0.000
  0.000  1.000  0.000  0.000  0.000
  0.000  0.000  1.000  0.000  0.000
  0.000  0.000  0.000  1.000  0.000
  0.000  0.000  0.000  0.000  1.000
    occupations:
  0.600  0.000  0.000  0.000  0.000
  0.000  0.600  0.000  0.000  0.000
  0.000  0.000  0.600  0.000  0.000
  0.000  0.000  0.000  0.600  0.000
  0.000  0.000  0.000  0.000  0.600
atom    9   Tr[ns(na)] =   6.00000
    eigenvalues:
  0.600  0.600  0.600  0.600  0.600
    eigenvectors:
  1.000  0.000  0.000  0.000  0.000
  0.000  1.000  0.000  0.000  0.000
  0.000  0.000  1.000  0.000  0.000
  0.000  0.000  0.000  1.000  0.000
  0.000  0.000  0.000  0.000  1.000
    occupations:
  0.600  0.000  0.000  0.000  0.000
  0.000  0.600  0.000  0.000  0.000
  0.000  0.000  0.600  0.000  0.000
  0.000  0.000  0.000  0.600  0.000
  0.000  0.000  0.000  0.000  0.600
atom   10   Tr[ns(na)] =   6.00000
    eigenvalues:
  0.600  0.600  0.600  0.600  0.600
    eigenvectors:
  1.000  0.000  0.000  0.000  0.000
  0.000  1.000  0.000  0.000  0.000
  0.000  0.000  1.000  0.000  0.000
  0.000  0.000  0.000  1.000  0.000
  0.000  0.000  0.000  0.000  1.000
    occupations:
  0.600  0.000  0.000  0.000  0.000
  0.000  0.600  0.000  0.000  0.000
  0.000  0.000  0.600  0.000  0.000
  0.000  0.000  0.000  0.600  0.000
  0.000  0.000  0.000  0.000  0.600
atom   16   Tr[ns(na)] =   6.00000
    eigenvalues:
  0.600  0.600  0.600  0.600  0.600
    eigenvectors:
  1.000  0.000  0.000  0.000  0.000
  0.000  1.000  0.000  0.000  0.000
  0.000  0.000  1.000  0.000  0.000
  0.000  0.000  0.000  1.000  0.000
  0.000  0.000  0.000  0.000  1.000
    occupations:
  0.600  0.000  0.000  0.000  0.000
  0.000  0.600  0.000  0.000  0.000
  0.000  0.000  0.600  0.000  0.000
  0.000  0.000  0.000  0.600  0.000
  0.000  0.000  0.000  0.000  0.600
atom   17   Tr[ns(na)] =   6.00000
    eigenvalues:
  0.600  0.600  0.600  0.600  0.600
    eigenvectors:
  1.000  0.000  0.000  0.000  0.000
  0.000  1.000  0.000  0.000  0.000
  0.000  0.000  1.000  0.000  0.000
  0.000  0.000  0.000  1.000  0.000
  0.000  0.000  0.000  0.000  1.000
    occupations:
  0.600  0.000  0.000  0.000  0.000
  0.000  0.600  0.000  0.000  0.000
  0.000  0.000  0.600  0.000  0.000
  0.000  0.000  0.000  0.600  0.000
  0.000  0.000  0.000  0.000  0.600
atom   22   Tr[ns(na)] =   6.00000
    eigenvalues:
  0.600  0.600  0.600  0.600  0.600
    eigenvectors:
  1.000  0.000  0.000  0.000  0.000
  0.000  1.000  0.000  0.000  0.000
  0.000  0.000  1.000  0.000  0.000
  0.000  0.000  0.000  1.000  0.000
  0.000  0.000  0.000  0.000  1.000
[...]
  0.039 -0.001  0.001  0.973  0.000
  0.001 -0.001  0.000  0.000  0.554
atom    9   Tr[ns(na)] =   7.18442
    eigenvalues:
  0.579  0.599  0.762  0.823  0.830
    eigenvectors:
  0.000  0.150  0.001  0.157  0.693
  0.994  0.006  0.000  0.000  0.000
  0.000  0.000  0.999  0.001  0.000
  0.006  0.845  0.000  0.028  0.122
  0.000  0.000  0.000  0.815  0.185
    occupations:
  0.794 -0.004 -0.002 -0.082  0.003
 -0.004  0.579  0.001  0.003  0.000
 -0.002  0.001  0.762  0.001  0.001
 -0.082  0.003  0.001  0.633 -0.001
  0.003  0.000  0.001 -0.001  0.824
atom   10   Tr[ns(na)] =   7.22078
    eigenvalues:
  0.537  0.545  0.745  0.811  0.973
    eigenvectors:
  0.000  0.988  0.000  0.000  0.011
  0.000  0.000  0.000  1.000  0.000
  0.000  0.000  1.000  0.000  0.000
  0.000  0.011  0.000  0.000  0.989
  1.000  0.000  0.000  0.000  0.000
    occupations:
  0.550 -0.003 -0.001  0.046  0.000
 -0.003  0.811  0.000  0.000  0.000
 -0.001  0.000  0.745 -0.000  0.001
  0.046  0.000 -0.000  0.968  0.000
  0.000  0.000  0.001  0.000  0.537
atom   16   Tr[ns(na)] =   7.20884
    eigenvalues:
  0.520  0.562  0.706  0.853  0.964
    eigenvectors:
  0.000  0.185  0.008  0.002  0.804
  0.999  0.001  0.000  0.000  0.000
  0.000  0.001  0.969  0.015  0.015
  0.001  0.813  0.006  0.000  0.180
  0.000  0.000  0.017  0.981  0.001
    occupations:
  0.887 -0.003  0.029 -0.154  0.001
 -0.003  0.520 -0.002  0.002 -0.004
  0.029 -0.002  0.712 -0.009  0.019
 -0.154  0.002 -0.009  0.635 -0.002
  0.001 -0.004  0.019 -0.002  0.851
atom   17   Tr[ns(na)] =   7.19268
    eigenvalues:
  0.555  0.606  0.667  0.789  0.979
    eigenvectors:
  0.001  0.988  0.000  0.000  0.011
  0.000  0.000  0.015  0.985  0.000
  0.000  0.000  0.985  0.015  0.000
  0.000  0.011  0.000  0.000  0.989
  0.999  0.001  0.000  0.000  0.000
    occupations:
  0.610 -0.001  0.000  0.039  0.001
 -0.001  0.787  0.015 -0.001 -0.002
  0.000  0.015  0.669  0.001  0.000
  0.039 -0.001  0.001  0.975  0.000
  0.001 -0.002  0.000  0.000  0.555
atom   22   Tr[ns(na)] =   7.18086
    eigenvalues:
  0.577  0.598  0.755  0.825  0.835
    eigenvectors:
  0.000  0.150  0.000  0.011  0.839
  0.998  0.001  0.000  0.000  0.000
  0.000  0.000  1.000  0.000  0.000
  0.002  0.849  0.000  0.002  0.147
  0.000  0.000  0.000  0.986  0.013
    occupations:
  0.800  0.005 -0.000 -0.084  0.001
  0.005  0.577  0.001 -0.003  0.000
 -0.000  0.001  0.755  0.000 -0.001
 -0.084 -0.003  0.000  0.634 -0.001
  0.001  0.000 -0.001 -0.001  0.825
atom   23   Tr[ns(na)] =   7.18872
    eigenvalues:
  0.553  0.608  0.655  0.817  0.961
    eigenvectors:
  0.000  0.986  0.001  0.000  0.012
  0.000  0.000  0.000  0.999  0.000
  0.000  0.001  0.999  0.000  0.000
  0.000  0.012  0.000  0.000  0.988
  1.000  0.000  0.000  0.000  0.000
    occupations:
  0.613  0.004 -0.001  0.039  0.000
  0.004  0.817  0.001  0.000  0.001
 -0.001  0.001  0.655  0.001 -0.001
  0.039  0.000  0.001  0.957 -0.000
  0.000  0.001 -0.001 -0.000  0.554
N of occupied +U levels =  57.5863376
 --- exit write_ns ---

     Threshold (ethr) on eigenvalues was too large:
     Diagonalizing with lowered threshold

     Davidson diagonalization with overlap
     ethr =  3.83E-08,  avg # of iterations =  2.0

[...]

     total energy              =   -2163.38293176 Ry
     Harris-Foulkes estimate   =   -2163.38293177 Ry
     estimated scf accuracy    <       0.00000002 Ry

     iteration # 16     ecut=    40.00 Ry     beta=0.70
     Davidson diagonalization with overlap
     ethr =  7.99E-12,  avg # of iterations =  1.0

     negative rho (up, down):  0.577E+00 0.000E+00

     End of self-consistent calculation
 --- enter write_ns ---
 LDA+U parameters:
U( 2)     =  2.50000000
alpha( 2) =  0.00000000
atom    3   Tr[ns(na)] =   7.20728
    eigenvalues:
  0.520  0.562  0.706  0.852  0.963
    eigenvectors:
  0.000  0.185  0.008  0.003  0.803
  0.999  0.000  0.000  0.000  0.000
  0.000  0.001  0.971  0.013  0.015
  0.000  0.813  0.006  0.000  0.180
  0.000  0.000  0.014  0.984  0.002
    occupations:
  0.886  0.003  0.029 -0.154 -0.002
  0.003  0.520  0.002 -0.002 -0.004
  0.029  0.002  0.712 -0.009 -0.018
 -0.154 -0.002 -0.009  0.635  0.002
 -0.002 -0.004 -0.018  0.002  0.850
atom    4   Tr[ns(na)] =   7.19811
    eigenvalues:
  0.554  0.602  0.680  0.786  0.977
    eigenvectors:
  0.001  0.988  0.000  0.000  0.011
  0.000  0.000  0.030  0.970  0.000
  0.000  0.000  0.970  0.030  0.000
  0.000  0.011  0.000  0.000  0.989
  0.999  0.001  0.000  0.000  0.000
    occupations:
  0.606 -0.000 -0.000  0.039  0.001
 -0.000  0.783  0.018 -0.001 -0.001
 -0.000  0.018  0.683  0.001  0.000
  0.039 -0.001  0.001  0.973  0.000
  0.001 -0.001  0.000  0.000  0.554
atom    9   Tr[ns(na)] =   7.18571
    eigenvalues:
  0.579  0.599  0.762  0.823  0.831
    eigenvectors:
  0.000  0.149  0.001  0.153  0.696
  0.994  0.006  0.000  0.000  0.000
  0.000  0.000  0.999  0.001  0.000
  0.006  0.845  0.000  0.027  0.122
  0.000  0.000  0.000  0.819  0.181
    occupations:
  0.795 -0.004 -0.002 -0.082  0.003
 -0.004  0.579  0.001  0.003  0.000
 -0.002  0.001  0.762  0.001  0.001
 -0.082  0.003  0.001  0.633 -0.001
  0.003  0.000  0.001 -0.001  0.825
atom   10   Tr[ns(na)] =   7.22336
    eigenvalues:
  0.537  0.545  0.745  0.812  0.973
    eigenvectors:
  0.000  0.988  0.000  0.000  0.011
  0.000  0.000  0.000  1.000  0.000
  0.000  0.000  1.000  0.000  0.000
  0.000  0.011  0.000  0.000  0.989
  1.000  0.000  0.000  0.000  0.000
    occupations:
  0.550 -0.003 -0.001  0.046  0.000
 -0.003  0.812  0.000  0.000  0.000
 -0.001  0.000  0.745 -0.000  0.001
  0.046  0.000 -0.000  0.968  0.000
  0.000  0.000  0.001  0.000  0.537
atom   16   Tr[ns(na)] =   7.20762
    eigenvalues:
  0.520  0.562  0.706  0.853  0.963
    eigenvectors:
  0.000  0.185  0.008  0.002  0.804
  0.999  0.001  0.000  0.000  0.000
  0.000  0.001  0.969  0.015  0.015
  0.001  0.813  0.006  0.000  0.180
  0.000  0.000  0.017  0.982  0.001
    occupations:
  0.887 -0.003  0.029 -0.154  0.001
 -0.003  0.520 -0.002  0.002 -0.004
  0.029 -0.002  0.712 -0.009  0.019
 -0.154  0.002 -0.009  0.635 -0.002
  0.001 -0.004  0.019 -0.002  0.850
atom   17   Tr[ns(na)] =   7.19085
    eigenvalues:
  0.555  0.605  0.667  0.789  0.979
    eigenvectors:
  0.001  0.988  0.000  0.000  0.011
  0.000  0.000  0.015  0.985  0.000
  0.000  0.000  0.985  0.015  0.000
  0.000  0.011  0.000  0.000  0.989
  0.999  0.001  0.000  0.000  0.000
    occupations:
  0.610 -0.001  0.000  0.039  0.001
 -0.001  0.787  0.015 -0.001 -0.002
  0.000  0.015  0.669  0.001  0.000
  0.039 -0.001  0.001  0.975  0.000
  0.001 -0.002  0.000  0.000  0.555
atom   22   Tr[ns(na)] =   7.18319
    eigenvalues:
  0.577  0.599  0.755  0.825  0.836
    eigenvectors:
  0.000  0.149  0.000  0.011  0.840
  0.998  0.001  0.000  0.000  0.000
  0.000  0.000  1.000  0.000  0.000
  0.002  0.849  0.000  0.002  0.147
  0.000  0.000  0.000  0.987  0.013
    occupations:
  0.800  0.005 -0.000 -0.084  0.001
  0.005  0.577  0.001 -0.003  0.000
 -0.000  0.001  0.755  0.000 -0.001
 -0.084 -0.003  0.000  0.634 -0.001
  0.001  0.000 -0.001 -0.001  0.825
atom   23   Tr[ns(na)] =   7.18956
    eigenvalues:
  0.554  0.608  0.655  0.817  0.961
    eigenvectors:
  0.000  0.986  0.001  0.000  0.012
  0.000  0.000  0.000  0.999  0.000
  0.000  0.001  0.999  0.000  0.000
  0.000  0.012  0.000  0.000  0.988
  1.000  0.000  0.000  0.000  0.000
    occupations:
  0.613  0.004 -0.001  0.039  0.000
  0.004  0.817  0.001  0.000  0.001
 -0.001  0.001  0.655  0.001 -0.001
  0.039  0.000  0.001  0.957 -0.000
  0.000  0.001 -0.001 -0.000  0.554
N of occupied +U levels =  57.5856795
 --- exit write_ns ---

[...]

          k = 0.2500-0.4870 0.0000 ( 30468 PWs)   bands (ev):

[...]

          k =-0.2500 0.2435 0.0000 ( 30434 PWs)   bands (ev):

   -74.4015 -74.3845 -74.2232 -74.1634 -74.1031 -73.9300 -73.7544 -73.7455
   -44.5311 -44.4837 -44.4705 -44.4026 -44.3946 -44.3896 -44.3814 -44.3267
   -44.3012 -44.2740 -44.1093 -44.0815 -44.0653 -43.9934 -43.9630 -43.9540
   -43.9287 -43.8738 -43.8637 -43.7534 -43.6952 -43.6789 -43.6100 -43.5250
   -20.9442 -20.4431 -20.4052 -20.3536 -20.1794 -19.9596 -19.8529 -19.7896
   -19.7324 -19.6674 -19.6205 -19.4585 -19.4260 -19.3695 -19.3072 -19.2555
   -19.2071 -19.1536 -18.8560  -9.1960  -8.7392  -8.6749  -8.5943  -8.3662
    -8.3351  -8.2348  -8.0721  -7.9497  -7.8358  -7.7300  -7.6993  -7.5930
    -7.5497  -7.5023  -7.4368  -7.3480  -7.2618  -6.9479  -6.8585  -6.7673
    -6.5480  -6.5047  -6.3745  -6.1056  -6.0210  -5.9580  -5.8153  -5.6394
    -5.5570  -5.5144  -5.4682  -5.4004  -5.2871  -5.1670  -5.0759  -5.0443
    -5.0027  -4.9286  -4.8333  -4.7854  -4.5899  -4.4794  -4.3577  -4.2194
    -4.1527  -4.1193  -4.0263  -3.9241  -3.8368  -3.6580  -3.5659  -3.4803
    -3.1861  -3.1635  -3.0610  -2.8179  -2.3381  -2.2499  -2.1722  -2.0174
    -1.9739  -1.9501  -1.8820  -1.8408  -1.8158  -1.6982  -1.6239  -1.5890
    -1.5109  -1.4358  -1.2169  -1.0871  -0.8692  -0.6105  -0.4860  -0.4191
    -0.3441  -0.2496  -0.1085   0.1255   0.8194   1.5215   1.7059   1.7295
     1.9069   2.3438   2.6324   2.8117   3.1121   3.1862   3.2939   3.3675
     3.4287   3.4929   3.7455   3.9295   4.0481   4.3547   4.7430   5.1701
     5.6122   5.7524   5.8253   6.0896   6.3816   6.5260   6.6360   6.6896
     6.8208   7.0006   7.0584   7.2885   7.5412   7.7160   7.8659   7.9531
     8.0902   8.2948   8.3811   8.4811   8.5471   8.6023   8.7310   8.7978
     8.9435   9.1186   9.2040   9.3378   9.4191   9.5251   9.6698   9.8564
     9.9325  10.0233  10.1253  10.1578  10.2121  10.3580  10.3738  10.4518
    10.5609  10.6475  10.7453  10.8697  10.9053  10.9828  11.1060  11.2959
    11.3697  11.4119  11.5516  11.5870  11.6525  11.7805  11.8344  11.8547
    11.9517  12.0328  12.1204  12.1693  12.2549  12.3603  12.4229  12.5118
    12.5279  12.6204  12.7153  12.7361  12.7636  12.8642  12.9225  13.0102
    13.0769  13.1525  13.2065  13.3276  13.3952  13.4962  13.5970  13.6375
    13.7267  13.8201  13.9288  14.0202  14.0910  14.1982  14.2206  14.3031
    14.3787  14.5243  14.5785  14.6051  14.6616  14.7441  14.8571  14.9033
    14.9364  15.0930  15.1211  15.2023  15.2951  15.3723  15.5459  15.5580
    15.6272  15.6947  15.7816  15.8285  15.8599  15.8819  15.9527  16.0439
    16.0737  16.1473  16.2036  16.2999  16.3175  16.3534  16.4634  16.5346
    16.6229  16.7115  16.7629  16.8082  16.8685  16.8932  16.9709  17.0466
    17.1568  17.2042  17.2772  17.3453  17.4500  17.4811  17.5058  17.5502
    17.6096  17.6769  17.7333  17.8016  17.8560  17.9221  17.9965  18.0641
    18.1294  18.1970  18.2271  18.3055  18.3404  18.4349  18.5580  18.6028
    18.6818  18.7885  18.8357  18.8976  18.9641  19.0383  19.1160  19.1907
    19.2066  19.3082  19.4019  19.4588  19.4971  19.6055  19.6928  19.7466
    19.7837  19.8521  19.9421  19.9845  20.0978  20.2269  20.2781  20.3619
    20.4076  20.5200  20.6378  20.6968  20.7471  20.8005  20.8741  20.9522
    20.9626  21.0375  21.1139  21.1812  21.2446  21.3199  21.3369  21.4032
    21.4539  21.4825  21.5435  21.5896  21.6360  21.7353  21.8217  21.8643
    21.9582  21.9741  22.0053  22.0506  22.1377  22.2432

     the Fermi energy is    -1.0304 ev

!    total energy              =   -2163.38293176 Ry
     Harris-Foulkes estimate   =   -2163.38293176 Ry
     estimated scf accuracy    <          8.2E-09 Ry

     The total energy is the sum of the following terms:

     one-electron contribution =  -25252.97240876 Ry
     hartree contribution      =   12650.05701511 Ry
     xc contribution           =    -338.56402886 Ry
     ewald contribution        =   10776.77492419 Ry
     Hubbard energy            =       1.32028824 Ry
     smearing contrib. (-TS)   =       0.00127832 Ry

     convergence has been achieved in  16 iterations

     Forces acting on atoms (Ry/au):

     negative rho (up, down):  0.577E+00 0.000E+00
     atom    1 type  1   force =    -0.00603430   -0.01035316   -0.00013716
     atom    2 type  1   force =     0.00048401    0.00792762    0.00032220
     atom    3 type  2   force =     0.02682137   -0.00068597   -0.00022666
     atom    4 type  2   force =     0.00313590    0.00580592    0.00013439
     atom    5 type  1   force =     0.00177733   -0.03428982   -0.00003209
     atom    6 type  1   force =     0.00139534    0.03565138    0.00002580
     atom    7 type  1   force =     0.00218365   -0.00322925   -0.00013916
     atom    8 type  1   force =     0.00088007   -0.00215275   -0.00045721
     atom    9 type  2   force =    -0.02036818    0.00287319    0.00020558
     atom   10 type  2   force =    -0.00749413   -0.00061195   -0.00016373
     atom   11 type  1   force =    -0.00925367    0.00966179    0.00003144
     atom   12 type  1   force =    -0.01090315   -0.01029237    0.00008169
     atom   13 type  1   force =    -0.00070062   -0.00108765    0.00049944
     atom   14 type  1   force =    -0.00437317   -0.00894158   -0.00005522
     atom   15 type  1   force =    -0.00002137    0.00605479   -0.00041288
     atom   16 type  2   force =    -0.02840154    0.00062443   -0.00031315
     atom   17 type  2   force =     0.00233663    0.00546722    0.00006689
     atom   18 type  1   force =     0.00087445   -0.03496026   -0.00005038
     atom   19 type  1   force =     0.00242001    0.03490750    0.00006979
     atom   20 type  1   force =    -0.00149364   -0.00162303    0.00052453
     atom   21 type  1   force =    -0.00084678   -0.00121223   -0.00051062
     atom   22 type  2   force =     0.02030902    0.00243058    0.00033948
     atom   23 type  2   force =     0.00328129    0.00115384    0.00001241
     atom   24 type  1   force =     0.01138663    0.01154347   -0.00001388
     atom   25 type  1   force =     0.01265584   -0.01199588   -0.00000238
     atom   26 type  1   force =    -0.00135009   -0.00124892    0.00074676
     atom   27 type  3   force =    -0.00002080   -0.00043798   -0.00010161
     atom   28 type  3   force =    -0.00001759   -0.00049354   -0.00082730
     atom   29 type  3   force =     0.00032955   -0.00005516    0.00047077
     atom   30 type  3   force =     0.00028743   -0.00025759    0.00038343
     atom   31 type  1   force =     0.00024637    0.00003098   -0.00002348
     atom   32 type  3   force =     0.00047413   -0.00020363   -0.00044769

     Total force =     0.002128     Total SCF correction =     0.000290
     SCF correction compared to forces is large: reduce conv_thr to get better values

     bfgs converged in   9 scf cycles and   8 bfgs steps
     (criteria: energy < 0.10E-03, force < 0.10E-02)

     End of BFGS Geometry Optimization

     Final energy   =   -2163.3829317567 Ry
Begin final coordinates

ATOMIC_POSITIONS (crystal)
O0       0.000000000   0.000000000   0.379603989    0   0   1
O0       0.000000000   0.500000000   0.403082389    0   0   1
Ru1      0.250000000   0.500000000   0.453753009    0   0   1
Ru1      0.000000000   0.000000000   0.453425222    0   0   1
O0       0.250000000   0.810000000   0.453306650    0   0   1
O0       0.250000000   0.190000000   0.453099301    0   0   1
O0       0.000000000   0.500000000   0.498237224    0   0   1
O0       0.000000000   0.000000000   0.526753453    0   0   1
Ru1      0.250000000   0.000000000   0.577361277    0   0   1
Ru1      0.000000000   0.500000000   0.568310099    0   0   1
O0       0.250000000   0.690000000   0.575337433    0   0   1
O0       0.250000000   0.310000000   0.575305813    0   0   1
O0       0.000000000   0.000000000   0.619688276    0   0   1
O0       0.500000000   0.000000000   0.379745724    0   0   1
O0       0.500000000   0.500000000   0.403878508    0   0   1
Ru1      0.750000000   0.500000000   0.453745079    0   0   1
Ru1      0.500000000   0.000000000   0.453432544    0   0   1
O0       0.750000000   0.810000000   0.453270850    0   0   1
O0       0.750000000   0.190000000   0.453108878    0   0   1
O0       0.500000000   0.500000000   0.501916169    0   0   1
O0       0.500000000   0.000000000   0.526686555    0   0   1
Ru1      0.750000000   0.000000000   0.577139179    0   0   1
Ru1      0.500000000   0.500000000   0.575679468    0   0   1
O0       0.750000000   0.690000000   0.574718612    0   0   1
O0       0.750000000   0.310000000   0.574582230    0   0   1
O0       0.500000000   0.000000000   0.617112848    0   0   1
H2      -0.000347389   0.627688124   0.382103518
H2       0.499482606   0.621300222   0.380851717
H2       0.145190623   0.031635496   0.366895205
H2       0.646129840   0.028624449   0.367117960
O0       0.514014726   0.497731391   0.648083367
H2       0.372544733   0.495752331   0.664487456
End final coordinates

     General routines

     Parallel routines
     Hubbard U routines

   This run was terminated on:  16:36:52  27Apr2014

   JOB DONE.