     Program PWSCF v.5.0.2 (svn rev. 9656) starts on 21Apr2014 at 21:34:23

     Current dimensions of program PWSCF are:
     Max number of different atomic species (ntypx) = 10
     Max number of k-points (npk) =  40000
     Max angular momentum in pseudopotentials (lmaxx) =  3
     Reading input from pwscf.in
Warning: card &CELL ignored
Warning: card / ignored

     Subspace diagonalization in iterative solution of the eigenvalue problem:
     a serial algorithm will be used

     bravais-lattice index     =            0
     lattice parameter (alat)  =      10.1289  a.u.
     unit-cell volume          =    6836.7721 (a.u.)^3
     number of atoms/cell      =           33
     number of atomic types    =            3
     number of electrons       =       245.00
     number of Kohn-Sham states=          367
     kinetic-energy cutoff     =      40.0000  Ry
     charge density cutoff     =     500.0000  Ry
     convergence threshold     =      1.0E-06
     mixing beta               =       0.3000
     number of iterations used =            8  plain     mixing
     Exchange-correlation      = SLA  PW   PBE  PBE ( 1 4 3 4 0)
     EXX-fraction              =        0.00
     nstep                     =           50

     celldm(1)=  10.128932  celldm(2)=   0.000000  celldm(3)=   0.000000
     celldm(4)=   0.000000  celldm(5)=   0.000000  celldm(6)=   0.000000

     crystal axes: (cart. coord. in units of alat)
               a(1) = (   1.000000   0.000000   0.000000 )
               a(2) = (   0.000000   1.306037   0.000000 )
               a(3) = (   0.000000   0.000000   5.037380 )

     reciprocal axes: (cart. coord. in units 2 pi/alat)
               b(1) = (  1.000000  0.000000  0.000000 )
               b(2) = (  0.000000  0.765675  0.000000 )
               b(3) = (  0.000000  0.000000  0.198516 )

     PseudoPot. # 1 for O  read from file:
     /home/camp/zhonxu/pseudo/o_pbe_v1.01.uspp.F.UPF
     MD5 check sum: 2bcb18d16ea4b960afae9ec6d52f22d2
     Pseudo is Ultrasoft + core correction, Zval =  6.0
     Generated by new atomic code, or converted to UPF format
     Using radial grid of  737 points,  5 beta functions with:
                l(1) =   0
                l(2) =   0
                l(3) =   1
                l(4) =   1
                l(5) =   2
     Q(r) pseudized with  8 coefficients,  rinner =    0.900   0.900   0.900
                                                       0.900   0.900

     PseudoPot. # 2 for Re read from file:
     /home/camp/zhonxu/pseudo/re_pbe_v1.uspp.F.UPF
     MD5 check sum: 6f5a5dcaf9c96c20d0ffdde0de57afc6
     Pseudo is Ultrasoft + core correction, Zval = 15.0
     Generated by new atomic code, or converted to UPF format
     Using radial grid of  981 points,  8 beta functions with:
                l(1) =   0
                l(2) =   0
                l(3) =   1
                l(4) =   1
                l(5) =   2
                l(6) =   2
                l(7) =   3
                l(8) =   3
     Q(r) pseudized with  8 coefficients,  rinner =    1.000   1.000   1.000
                                                       1.000   1.000   1.000
                                                       1.000

     PseudoPot. # 3 for H  read from file:
     /home/camp/zhonxu/pseudo/h_pbe_v1.uspp.F.UPF
     MD5 check sum: 3408e3ff4ec8b0a4e358431e7e038a48
     Pseudo is Ultrasoft, Zval =  1.0
     Generated by new atomic code, or converted to UPF format
     Using radial grid of  615 points,  2 beta functions with:
                l(1) =   0
                l(2) =   0
     Q(r) pseudized with  8 coefficients,  rinner =    0.700

     atomic species   valence    mass     pseudopotential
        O0             6.00    15.99940     O ( 1.00)
        Re1           15.00   186.20700     Re( 1.00)
        H2             1.00     1.00794     H ( 1.00)

     No symmetry found

   Cartesian axes

     site n.     atom                  positions (alat units)
         1           O0  tau(   1) = (   0.0000000   0.0000000   1.8688176  )
         2           O0  tau(   2) = (   0.0000000   0.6530184   1.9243296  )
         3           Re1 tau(   3) = (   0.2500000   0.6530184   2.2228951  )
         4           Re1 tau(   4) = (   0.0000000   0.0000000   2.2352367  )
         5           O0  tau(   5) = (   0.2500000   1.0187087   2.2249100  )
         6           O0  tau(   6) = (   0.2500000   0.2873281   2.2250611  )
         7           O0  tau(   7) = (   0.0000000   0.6530184   2.5071041  )
         8           O0  tau(   8) = (   0.0000000   0.0000000   2.5966183  )
         9           Re1 tau(   9) = (   0.2500000   0.0000000   2.8989619  )
        10           Re1 tau(  10) = (   0.0000000   0.6530184   2.8608793  )
        11           O0  tau(  11) = (   0.2500000   0.9403465   2.8908013  )
        12           O0  tau(  12) = (   0.2500000   0.3656903   2.8907005  )
        13           O0  tau(  13) = (   0.0000000   0.0000000   3.1620138  )
        14           O0  tau(  14) = (   0.5000000   0.0000000   1.8688176  )
        15           O0  tau(  15) = (   0.5000000   0.6530184   1.9243296  )
        16           Re1 tau(  16) = (   0.7500000   0.6530184   2.2228951  )
        17           Re1 tau(  17) = (   0.5000000   0.0000000   2.2352367  )
        18           O0  tau(  18) = (   0.7500000   1.0187087   2.2249604  )
        19           O0  tau(  19) = (   0.7500000   0.2873281   2.2250611  )
        20           O0  tau(  20) = (   0.5000000   0.6530184   2.5071041  )
        21           O0  tau(  21) = (   0.5000000   0.0000000   2.5966183  )
        22           Re1 tau(  22) = (   0.7500000   0.0000000   2.8989619  )
        23           Re1 tau(  23) = (   0.5000000   0.6530184   2.8609296  )
        24           O0  tau(  24) = (   0.7500000   0.9403465   2.8908013  )
        25           O0  tau(  25) = (   0.7500000   0.3656903   2.8907005  )
        26           O0  tau(  26) = (   0.5000000   0.0000000   3.1620138  )
        27           H2  tau(  27) = (  -0.0003800   0.8172395   1.8403061  )
        28           H2  tau(  28) = (   0.4996200   0.8172395   1.8403061  )
        29           H2  tau(  29) = (   0.1698700   0.0284977   1.7974380  )
        30           H2  tau(  30) = (   0.6698800   0.0284977   1.7974380  )
        31           O0  tau(  31) = (   0.5000000   0.6530184   3.2340484  )
        32           O0  tau(  32) = (   0.5000000   0.4356677   3.3620482  )
        33           H2  tau(  33) = (   0.5000000   0.4909131   3.5387091  )

     number of k points=    10  Methfessel-Paxton smearing, width (Ry)=  0.0100
                       cart. coord. in units 2pi/alat
        k(    1) = (   0.0000000   0.0000000   0.0000000), wk =   0.1250000
        k(    2) = (   0.0000000   0.1914188   0.0000000), wk =   0.2500000
        k(    3) = (   0.0000000  -0.3828376   0.0000000), wk =   0.1250000
        k(    4) = (   0.2500000   0.0000000   0.0000000), wk =   0.2500000
        k(    5) = (   0.2500000   0.1914188   0.0000000), wk =   0.2500000
        k(    6) = (   0.2500000  -0.3828376   0.0000000), wk =   0.2500000
        k(    7) = (  -0.5000000   0.0000000   0.0000000), wk =   0.1250000
        k(    8) = (  -0.5000000   0.1914188   0.0000000), wk =   0.2500000
        k(    9) = (  -0.5000000  -0.3828376   0.0000000), wk =   0.1250000
        k(   10) = (  -0.2500000   0.1914188   0.0000000), wk =   0.2500000

     Largest allocated arrays     est. size (Mb)     dimensions
     Largest temporary arrays     est. size (Mb)     dimensions

     Check: negative/imaginary core charge=   -0.000003    0.000000

     Initial potential from superposition of free atoms
     Check: negative starting charge=   -0.236760

     starting charge  240.99957, renormalised to  245.00000

     negative rho (up, down):  0.241E+00 0.000E+00
     Starting wfc are  189 randomized atomic wfcs

     Self-consistent Calculation

     iteration #  1     ecut=    40.00 Ry     beta=0.30
     Davidson diagonalization with overlap
     ethr =  1.00E-02,  avg # of iterations =  5.9

     negative rho (up, down):  0.258E+00 0.000E+00

     total energy              =   -2207.01714794 Ry
     Harris-Foulkes estimate   =   -2210.06876453 Ry
     estimated scf accuracy    <       6.88565513 Ry

[...]

     End of self-consistent calculation

          k = 0.0000 0.0000 0.0000 ( 29221 PWs)   bands (ev):

   -81.0704 -81.0142 -80.9022 -80.8218 -80.7656 -80.6410 -80.5855 -80.5520
   -43.2860 -43.1026 -43.0948 -42.9730 -42.9650 -42.8855 -42.8769 -42.8308
   -42.8285 -42.8113 -42.7148 -42.6662 -42.6461 -42.6440 -42.5163 -42.5062
   -42.4968 -42.4952 -42.4371 -42.4319 -42.4174 -42.2047 -42.1231 -42.0103
   -23.7063 -20.6731 -20.1344 -20.0391 -20.0084 -19.6817 -19.3703 -19.3041
   -19.0971 -19.0537 -19.0005 -18.9395 -18.8504 -18.8014 -18.7759 -18.7147
   -18.3207 -17.8037 -17.4683 -15.8637  -9.0788  -8.9573  -8.8115  -8.3828
    -8.2714  -8.1266  -7.7759  -7.7510  -7.5665  -7.4489  -7.3107  -7.1480
    -7.1103  -6.9236  -6.8271  -6.7260  -6.7207  -6.5537  -6.4855  -6.4646
    -6.3580  -6.1292  -6.0209  -5.8598  -5.5236  -5.1915  -5.1850  -5.1371
    -5.0298  -4.9774  -4.9102  -4.8146  -4.6163  -4.5948  -4.5029  -4.2788
    -4.2634  -4.0677  -4.0520  -3.9973  -3.9173  -3.7151  -3.6305  -3.6021
    -3.5373  -3.2125  -3.0925  -2.9977  -2.9948  -2.8742  -2.8400  -2.7843
    -2.7006  -2.6784  -2.6346  -2.5237  -2.3734  -2.3156  -2.1551  -1.9886
    -1.6996  -0.6987  -0.6048  -0.3771   0.0108   0.2340   0.3821   0.5242
     0.8029   0.9703   0.9978   1.1076   1.1343   1.5586   1.5768   1.5948
     1.6970   2.0131   2.3457   3.1170   3.4804   3.5362   3.6189   3.7904
     3.8454   3.9567   4.0362   4.3544   4.5140   4.5571   4.6540   4.8455
     5.0140   5.0244   5.0930   5.2523   5.3349   5.3780   5.4067   5.5238
     5.5798   5.8311   5.8335   6.2151   6.6795   6.7581   6.8746   7.2472
     7.4135   7.6335   7.7897   7.8922   8.0061   8.0306   8.1920   8.2060
     8.4852   8.6166   8.6600   8.9231   9.0693   9.0904   9.2560   9.2725
     9.2814   9.4095   9.4965   9.5636   9.6298   9.6978   9.8011   9.9385
    10.0085  10.0930  10.1717  10.2191  10.2373  10.3425  10.5220  10.6249
    10.7008  10.7791  10.9734  11.0171  11.2076  11.3454  11.4520  11.5182
    11.6592  11.7111  11.8129  11.9588  12.1016  12.1508  12.1961  12.2635
    12.3146  12.4987  12.5014  12.5368  12.6939  12.8548  12.9416  13.0463
    13.0774  13.1111  13.1379  13.1876  13.2208  13.2427  13.2821  13.3056
    13.3108  13.4751  13.6031  13.6221  13.7269  13.7834  13.8562  13.9299
    13.9375  14.0723  14.1434  14.1485  14.2107  14.2615  14.3211  14.3280
    14.4136  14.4523  14.6471  14.6681  14.7758  14.9349  15.0590  15.0732
    15.1409  15.2015  15.3402  15.3625  15.4355  15.4608  15.5603  15.7905
    15.8564  15.8944  15.9471  16.1107  16.1425  16.1568  16.2344  16.3207
    16.4677  16.4979  16.5908  16.6072  16.6979  16.7505  16.8623  17.0220
    17.0418  17.0542  17.1316  17.1691  17.2168  17.3702  17.4144  17.4280
    17.4780  17.5413  17.7386  17.8399  17.9931  18.0726  18.2703  18.3373
    18.3502  18.4066  18.4859  18.6268  18.6516  18.8108  18.8619  18.8855
[...]
     atom   23 type  2   force =     0.00006056   -0.01459538    0.12799885
     atom   24 type  1   force =     0.01004796   -0.02637362   -0.01136048
     atom   25 type  1   force =     0.00876473    0.02454639   -0.01120361
     atom   26 type  1   force =    -0.00046713   -0.01397732   -0.01659148
     atom   27 type  3   force =     0.00000454   -0.00118376    0.00088133
     atom   28 type  3   force =     0.00001060   -0.00153508   -0.00031574
     atom   29 type  3   force =     0.00028872    0.00031199    0.00068650
     atom   30 type  3   force =    -0.00004220    0.00024568    0.00077915
     atom   31 type  1   force =    -0.00012289    0.11722401   -0.07252953
     atom   32 type  1   force =     0.00006525   -0.09357479    0.06279767
     atom   33 type  3   force =    -0.00000085    0.00100161   -0.00924302

     Total force =     0.096382     Total SCF correction =     0.000131

     BFGS Geometry Optimization

     number of scf cycles    =   1
     number of bfgs steps    =   0

     energy   new            =   -2208.5468111646 Ry

     new trust radius        =       0.0725296317 bohr
     new conv_thr            =       0.0000010000 Ry

ATOMIC_POSITIONS (crystal)
O0       0.000000000   0.000000000   0.370990000    0   0   0
O0       0.000000000   0.500000000   0.382010000    0   0   0
Re1      0.250000000   0.500000000   0.441280000    0   0   0
Re1      0.000000000   0.000000000   0.443730000    0   0   0
O0       0.250000000   0.780000000   0.441680000    0   0   0
O0       0.250000000   0.220000000   0.441710000    0   0   0
O0       0.000000000   0.500000000   0.497700000    0   0   0
O0       0.000000000   0.000000000   0.515470000    0   0   0
Re1      0.250000000   0.000000000   0.575490000    0   0   0
Re1      0.000000000   0.500000000   0.567930000    0   0   0
O0       0.250000000   0.720000000   0.573870000    0   0   0
O0       0.250000000   0.280000000   0.573850000    0   0   0
O0       0.000000000   0.000000000   0.627710000    0   0   0
O0       0.500000000   0.000000000   0.370990000    0   0   0
O0       0.500000000   0.500000000   0.382010000    0   0   0
Re1      0.750000000   0.500000000   0.441280000    0   0   0
Re1      0.500000000   0.000000000   0.443730000    0   0   0
O0       0.750000000   0.780000000   0.441690000    0   0   0
O0       0.750000000   0.220000000   0.441710000    0   0   0
O0       0.500000000   0.500000000   0.497700000    0   0   0
O0       0.500000000   0.000000000   0.515470000    0   0   0
Re1      0.750000000   0.000000000   0.575490000    0   0   0
Re1      0.500000000   0.500000000   0.567940000    0   0   0
O0       0.750000000   0.720000000   0.573870000    0   0   0
O0       0.750000000   0.280000000   0.573850000    0   0   0
O0       0.500000000   0.000000000   0.627710000    0   0   0
H2      -0.000380000   0.625740000   0.365330000    0   0   0
H2       0.499620000   0.625740000   0.365330000    0   0   0
H2       0.169870000   0.021820000   0.356820000    0   0   0
H2       0.669880000   0.021820000   0.356820000    0   0   0
O0       0.499987867   0.500000000   0.640588501    1   0   1
O0       0.500006442   0.333580000   0.668650765    1   0   1
H2       0.499999916   0.375880000   0.702308847    1   0   1

     Check: negative starting charge=   -0.236760
     NEW-OLD atomic charge density approx. for the potential

     Check: negative/imaginary core charge=   -0.000003    0.000000
     Check: negative starting charge=   -0.236752

[...]

     energy   old            =   -2208.5468111646 Ry
     energy   new            =   -2208.5505895700 Ry

     CASE: energy  _new < energy  _old

[...]

     Threshold (ethr) on eigenvalues was too large:
     Diagonalizing with lowered threshold

     Davidson diagonalization with overlap
     ethr =  2.00E-08,  avg # of iterations =  1.0

[...]

     number of scf cycles    =   8
     number of bfgs steps    =   7

     energy   old            =   -2208.5524418729 Ry
     energy   new            =   -2208.5524501815 Ry

     CASE: energy  _new < energy  _old

     new trust radius        =       0.0014338136 bohr
     new conv_thr            =       0.0000000100 Ry

ATOMIC_POSITIONS (crystal)
O0       0.000000000   0.000000000   0.370990000    0   0   0
O0       0.000000000   0.500000000   0.382010000    0   0   0
Re1      0.250000000   0.500000000   0.441280000    0   0   0
Re1      0.000000000   0.000000000   0.443730000    0   0   0
O0       0.250000000   0.780000000   0.441680000    0   0   0
O0       0.250000000   0.220000000   0.441710000    0   0   0
O0       0.000000000   0.500000000   0.497700000    0   0   0
O0       0.000000000   0.000000000   0.515470000    0   0   0
Re1      0.250000000   0.000000000   0.575490000    0   0   0
Re1      0.000000000   0.500000000   0.567930000    0   0   0
O0       0.250000000   0.720000000   0.573870000    0   0   0
O0       0.250000000   0.280000000   0.573850000    0   0   0
O0       0.000000000   0.000000000   0.627710000    0   0   0
O0       0.500000000   0.000000000   0.370990000    0   0   0
O0       0.500000000   0.500000000   0.382010000    0   0   0
Re1      0.750000000   0.500000000   0.441280000    0   0   0
Re1      0.500000000   0.000000000   0.443730000    0   0   0
O0       0.750000000   0.780000000   0.441690000    0   0   0
O0       0.750000000   0.220000000   0.441710000    0   0   0
O0       0.500000000   0.500000000   0.497700000    0   0   0
O0       0.500000000   0.000000000   0.515470000    0   0   0
Re1      0.750000000   0.000000000   0.575490000    0   0   0
Re1      0.500000000   0.500000000   0.567940000    0   0   0
O0       0.750000000   0.720000000   0.573870000    0   0   0
O0       0.750000000   0.280000000   0.573850000    0   0   0
O0       0.500000000   0.000000000   0.627710000    0   0   0
H2      -0.000380000   0.625740000   0.365330000    0   0   0
H2       0.499620000   0.625740000   0.365330000    0   0   0
H2       0.169870000   0.021820000   0.356820000    0   0   0
H2       0.669880000   0.021820000   0.356820000    0   0   0
O0       0.499625292   0.500000000   0.640302128    1   0   1
O0       0.500287048   0.333580000   0.669281122    1   0   1
H2       0.499947630   0.375880000   0.703997491    1   0   1

     Check: negative starting charge=   -0.236736
     NEW-OLD atomic charge density approx. for the potential

     Check: negative/imaginary core charge=   -0.000003    0.000000
     Check: negative starting charge=   -0.236736

[...]

     Self-consistent Calculation

[...]

     Threshold (ethr) on eigenvalues was too large:
     Diagonalizing with lowered threshold

     Davidson diagonalization with overlap
     ethr =  4.75E-10,  avg # of iterations =  2.0

[...]

     total energy              =   -2208.55245168 Ry
     Harris-Foulkes estimate   =   -2208.55245168 Ry
     estimated scf accuracy    <       0.00000001 Ry

     iteration #  9     ecut=    40.00 Ry     beta=0.30
     Davidson diagonalization with overlap
     ethr =  4.27E-12,  avg # of iterations =  1.0

     negative rho (up, down):  0.246E+00 0.000E+00

     End of self-consistent calculation

[...]

          k = 0.2500-0.3828 0.0000 ( 29202 PWs)   bands (ev):

[...]

          k =-0.2500 0.1914 0.0000 ( 29229 PWs)   bands (ev):

   -81.0805 -81.0399 -80.9489 -80.8325 -80.7928 -80.6516 -80.6124 -80.5759
   -43.1831 -43.0454 -42.9896 -42.9717 -42.9673 -42.9069 -42.9024 -42.8676
   -42.8121 -42.7792 -42.7463 -42.6943 -42.6464 -42.6424 -42.5696 -42.5481
   -42.5377 -42.5235 -42.5182 -42.4724 -42.4629 -42.3589 -42.2663 -42.1627
   -22.9233 -20.5039 -20.0638 -19.9443 -19.7709 -19.6457 -19.5216 -19.3127
   -19.2877 -19.2775 -19.0223 -19.0138 -18.9642 -18.8646 -18.6955 -18.6497
   -18.4317 -17.8168 -17.6016 -16.2147  -8.6936  -8.3838  -8.2671  -8.2313
    -8.1509  -7.9882  -7.8803  -7.8518  -7.6260  -7.4719  -7.4021  -7.3193
    -7.1831  -6.9817  -6.8912  -6.7377  -6.5222  -6.3644  -6.2962  -6.1778
    -6.0970  -5.9917  -5.9570  -5.7272  -5.5205  -5.3634  -5.3347  -5.1801
    -5.1490  -5.0626  -4.9957  -4.8019  -4.6992  -4.5828  -4.5229  -4.4143
    -4.3147  -4.2611  -4.1718  -4.1536  -4.0317  -3.9306  -3.9038  -3.8126
    -3.5417  -3.5070  -3.4418  -3.2872  -3.1487  -3.1171  -2.9382  -2.8752
    -2.7435  -2.6519  -2.4539  -2.3205  -2.1778  -1.9191  -1.6399  -1.5200
    -1.4608  -1.0908  -0.5703  -0.4121  -0.3536  -0.0347   0.2861   0.4571
     0.8950   0.9832   1.0417   1.2361   1.3309   1.3795   1.5781   1.6571
     1.7440   1.9275   2.0628   2.1132   2.3343   2.4190   2.5060   2.7934
     3.9668   4.0238   4.0594   4.0926   4.3091   4.3751   4.6023   4.6776
     4.8062   4.9607   5.1084   5.2025   5.3380   5.3680   5.5348   5.8605
     6.0264   6.1403   6.3876   6.5220   6.6396   6.7831   6.8637   6.9294
     7.0868   7.3476   7.4211   7.5418   7.6994   7.9060   8.0424   8.1998
     8.3787   8.5500   8.6757   8.7110   8.8139   8.8912   9.0911   9.1939
     9.3260   9.4358   9.5170   9.6121   9.7731   9.7921   9.9200  10.0029
    10.0772  10.1133  10.2161  10.3108  10.4306  10.4949  10.6091  10.6330
    10.6954  10.8010  10.9684  11.0558  11.1621  11.2545  11.3921  11.5275
    11.5644  11.6898  11.7891  11.8706  12.0780  12.1132  12.2590  12.4204
    12.4765  12.6049  12.6391  12.7009  12.7577  12.8085  12.9187  12.9698
    13.1093  13.1616  13.2429  13.3095  13.3923  13.5828  13.6430  13.7509
    13.7922  13.8710  13.9164  14.0304  14.0960  14.1393  14.1970  14.2737
    14.3435  14.4144  14.4567  14.5475  14.5836  14.6322  14.6710  14.7731
    14.8107  14.8653  14.9478  14.9923  15.0627  15.0838  15.1444  15.1928
    15.2556  15.4036  15.4391  15.4947  15.6700  15.7324  15.7950  15.8996
    15.9950  16.0912  16.1459  16.2636  16.3340  16.3966  16.4116  16.5421
    16.6092  16.7377  16.7891  16.8302  16.9399  17.0370  17.0581  17.1824
    17.2566  17.3253  17.3711  17.4225  17.4792  17.5444  17.6407  17.6942
    17.7584  17.8135  17.8903  18.0122  18.0733  18.1073  18.2511  18.3649
    18.4179  18.4512  18.4944  18.5723  18.6764  18.7232  18.7704  18.8439
    18.8896  18.9393  19.1086  19.1507  19.2356  19.2935  19.4125  19.4466
    19.4943  19.6315  19.6779  19.7792  19.8406  19.9640  20.0219  20.1432
    20.2830  20.3157  20.3684  20.4727  20.5221  20.5861  20.6245  20.6969
    20.7732  20.8462  20.8804  20.9357  20.9781  21.0162  21.0985  21.1705
    21.2341  21.2932  21.3520  21.4336  21.5266  21.5766  21.6568  21.6940
    21.7381  21.8110  21.8584  21.9298  21.9767  22.0824  22.1168  22.2133
    22.2630  22.3202  22.3496  22.4123  22.4298  22.4976  22.5967  22.6308
    22.6766  22.7219  22.7502  22.8001  22.8640  22.8968  22.9683  23.0218
    23.0869  23.1167  23.1764  23.2492  23.3066  23.3462  23.3708

     the Fermi energy is     0.9791 ev

!    total energy              =   -2208.55245168 Ry
     Harris-Foulkes estimate   =   -2208.55245168 Ry
     estimated scf accuracy    <          2.5E-09 Ry

     The total energy is the sum of the following terms:

     one-electron contribution =  -24733.52665794 Ry
     hartree contribution      =   12389.50050236 Ry
     xc contribution           =    -602.05499606 Ry
     ewald contribution        =   10737.53083870 Ry
     smearing contrib. (-TS)   =      -0.00213874 Ry

     convergence has been achieved in   9 iterations

     Forces acting on atoms (Ry/au):

     negative rho (up, down):  0.246E+00 0.000E+00
     atom    1 type  1   force =    -0.00433946   -0.00738344   -0.00126629
     atom    2 type  1   force =     0.00002372    0.00921784    0.00288756
     atom    3 type  2   force =     0.01365737   -0.00741229   -0.00267287
     atom    4 type  2   force =     0.00164304    0.00856544    0.00118588
     atom    5 type  1   force =     0.00209950    0.01546847   -0.00027024
     atom    6 type  1   force =     0.00017793   -0.01698876   -0.00095742
     atom    7 type  1   force =    -0.00025526   -0.00036693   -0.00223552
     atom    8 type  1   force =     0.00278998   -0.00146163    0.00008341
     atom    9 type  2   force =    -0.00091417    0.00077339    0.00766596
     atom   10 type  2   force =     0.00001168    0.00352520   -0.02079219
     atom   11 type  1   force =    -0.01108832   -0.02572508   -0.01189682
     atom   12 type  1   force =    -0.01061405    0.02395063   -0.01292011
     atom   13 type  1   force =    -0.00047175    0.00023296   -0.00400703
     atom   14 type  1   force =    -0.00437015   -0.00777484   -0.00174744
     atom   15 type  1   force =     0.00004940    0.00889587   -0.00574865
     atom   16 type  2   force =    -0.01376076   -0.00747468   -0.00261208
     atom   17 type  2   force =     0.00186746    0.00843142    0.00056046
     atom   18 type  1   force =     0.00160792    0.01544420   -0.00032647
     atom   19 type  1   force =     0.00022296   -0.01687164   -0.00095957
     atom   20 type  1   force =    -0.00025661    0.00698427   -0.03184955
     atom   21 type  1   force =     0.00271371   -0.00168635    0.00328115
     atom   22 type  2   force =    -0.00226605    0.00135446    0.00755445
     atom   23 type  2   force =     0.00031297   -0.02417353    0.11683496
     atom   24 type  1   force =     0.01115259   -0.02597473   -0.01204864
     atom   25 type  1   force =     0.01030083    0.02365476   -0.01280579
     atom   26 type  1   force =    -0.00048265   -0.01297712   -0.01663549
     atom   27 type  3   force =     0.00000350   -0.00117021    0.00087343
     atom   28 type  3   force =     0.00000337   -0.00152508   -0.00032947
     atom   29 type  3   force =     0.00029544    0.00031488    0.00066363
     atom   30 type  3   force =    -0.00003470    0.00024300    0.00075825
     atom   31 type  1   force =    -0.00041560    0.07298892   -0.00013662
     atom   32 type  1   force =     0.00045463   -0.06654448   -0.00024228
     atom   33 type  3   force =    -0.00011848    0.02546508    0.00011138

     Total force =     0.000695     Total SCF correction =     0.000041

     bfgs converged in   9 scf cycles and   8 bfgs steps
     (criteria: energy < 0.10E-03, force < 0.10E-02)

     End of BFGS Geometry Optimization

     Final energy   =   -2208.5524516805 Ry
Begin final coordinates

ATOMIC_POSITIONS (crystal)
O0       0.000000000   0.000000000   0.370990000    0   0   0
O0       0.000000000   0.500000000   0.382010000    0   0   0
Re1      0.250000000   0.500000000   0.441280000    0   0   0
Re1      0.000000000   0.000000000   0.443730000    0   0   0
O0       0.250000000   0.780000000   0.441680000    0   0   0
O0       0.250000000   0.220000000   0.441710000    0   0   0
O0       0.000000000   0.500000000   0.497700000    0   0   0
O0       0.000000000   0.000000000   0.515470000    0   0   0
Re1      0.250000000   0.000000000   0.575490000    0   0   0
Re1      0.000000000   0.500000000   0.567930000    0   0   0
O0       0.250000000   0.720000000   0.573870000    0   0   0
O0       0.250000000   0.280000000   0.573850000    0   0   0
O0       0.000000000   0.000000000   0.627710000    0   0   0
O0       0.500000000   0.000000000   0.370990000    0   0   0
O0       0.500000000   0.500000000   0.382010000    0   0   0
Re1      0.750000000   0.500000000   0.441280000    0   0   0
Re1      0.500000000   0.000000000   0.443730000    0   0   0
O0       0.750000000   0.780000000   0.441690000    0   0   0
O0       0.750000000   0.220000000   0.441710000    0   0   0
O0       0.500000000   0.500000000   0.497700000    0   0   0
O0       0.500000000   0.000000000   0.515470000    0   0   0
Re1      0.750000000   0.000000000   0.575490000    0   0   0
Re1      0.500000000   0.500000000   0.567940000    0   0   0
O0       0.750000000   0.720000000   0.573870000    0   0   0
O0       0.750000000   0.280000000   0.573850000    0   0   0
O0       0.500000000   0.000000000   0.627710000    0   0   0
H2      -0.000380000   0.625740000   0.365330000    0   0   0
H2       0.499620000   0.625740000   0.365330000    0   0   0
H2       0.169870000   0.021820000   0.356820000    0   0   0
H2       0.669880000   0.021820000   0.356820000    0   0   0
O0       0.499625292   0.500000000   0.640302128    1   0   1
O0       0.500287048   0.333580000   0.669281122    1   0   1
H2       0.499947630   0.375880000   0.703997491    1   0   1
End final coordinates

     General routines

     Parallel routines

   This run was terminated on:   5:55:24  22Apr2014

   JOB DONE.
Running PBS batch system epilogue script
Job id: 338449.audhumbla.fysik.dtu.dk
Username: zhonxu
Groupname: campgst
Jobname: ReO2/Eads-2-layers/OOH
Sessionid: 27971
Queuename: verylong
Accounting:
This job has allocated the following 16 nodes:
b022 b022 b022 b022 b022 b022 b022 b022 b010 b010 b010 b010 b010 b010 b010 b010
Finished epilogue job 338449.audhumbla.fysik.dtu.dk for zhonxu