     Program PWSCF v.5.0.2 (svn rev. 9656) starts on 24Jan2014 at 16:10:23

     Current dimensions of program PWSCF are:
     Max number of different atomic species (ntypx) = 10
     Max number of k-points (npk) =  40000
     Max angular momentum in pseudopotentials (lmaxx) =  3
     Reading input from PtO2-v-0.95.in

     Subspace diagonalization in iterative solution of the eigenvalue problem:
     a serial algorithm will be used

     bravais-lattice index     =            0
     lattice parameter (alat)  =       8.7809  a.u.
     unit-cell volume          =     436.3207 (a.u.)^3
     number of atoms/cell      =            6
     number of atomic types    =            2
     number of electrons       =        56.00
     number of Kohn-Sham states=           84
     kinetic-energy cutoff     =      40.0000  Ry
     charge density cutoff     =     500.0000  Ry
     convergence threshold     =      1.0E-06
     mixing beta               =       0.3000
     number of iterations used =            8  plain     mixing
     Exchange-correlation      = SLA  PW   PBE  PBE ( 1 4 3 4 0)
     EXX-fraction              =        0.00
     nstep                     =           50

     celldm(1)=   8.780922  celldm(2)=   0.000000  celldm(3)=   0.000000
     celldm(4)=   0.000000  celldm(5)=   0.000000  celldm(6)=   0.000000

     crystal axes: (cart. coord. in units of alat)
               a(1) = (   1.000000   0.000000   0.000000 )
               a(2) = (   0.000000   1.000000   0.000000 )
               a(3) = (   0.000000   0.000000   0.644444 )

     reciprocal axes: (cart. coord. in units 2 pi/alat)
               b(1) = (  1.000000  0.000000  0.000000 )
               b(2) = (  0.000000  1.000000  0.000000 )
               b(3) = (  0.000000  0.000000  1.551724 )

     PseudoPot. # 1 for Pt read from file:
     /home/camp/zhonxu/pseudo/pt_pbe_v1.uspp.F.UPF
     MD5 check sum: 4c71d6ad5ef119f1eb26a4d0b7884226
     Pseudo is Ultrasoft + core correction, Zval = 16.0
     Generated by new atomic code, or converted to UPF format
     Using radial grid of  985 points,  6 beta functions with:
                l(1) =   0
                l(2) =   0
                l(3) =   1
                l(4) =   1
                l(5) =   2
                l(6) =   2
     Q(r) pseudized with  8 coefficients,  rinner =    1.300   1.300   1.300
                                                       1.300   1.300

     PseudoPot. # 2 for O  read from file:
     /home/camp/zhonxu/pseudo/o_pbe_v1.01.uspp.F.UPF
     MD5 check sum: 2bcb18d16ea4b960afae9ec6d52f22d2
     Pseudo is Ultrasoft + core correction, Zval =  6.0
     Generated by new atomic code, or converted to UPF format
     Using radial grid of  737 points,  5 beta functions with:
                l(1) =   0
                l(2) =   0
                l(3) =   1
                l(4) =   1
                l(5) =   2
     Q(r) pseudized with  8 coefficients,  rinner =    0.900   0.900   0.900
                                                       0.900   0.900

     atomic species   valence    mass     pseudopotential
        Pt0           16.00   195.08000     Pt( 1.00)
        O1             6.00    15.99940     O ( 1.00)

     Starting magnetic structure
     atomic species   magnetization
        Pt0          0.000
        O1           0.000

      8 Sym. Ops., with inversion, found
          (note:  8 additional sym.ops. were found but ignored
           their fractional translations are incommensurate with FFT grid)

   Cartesian axes

     site n.     atom                  positions (alat units)
         1           Pt0 tau(   1) = (   0.0000000   0.0000000   0.0000000  )
         2           Pt0 tau(   2) = (   0.5000000   0.5000000   0.3222222  )
         3           O1  tau(   3) = (   0.3050000   0.3050000   0.0000000  )
         4           O1  tau(   4) = (  -0.3050000  -0.3050000   0.0000000  )
         5           O1  tau(   5) = (   0.8050000   0.1950000   0.3222222  )
         6           O1  tau(   6) = (   0.1950000   0.8050000   0.3222222  )

     number of k points=    54  Methfessel-Paxton smearing, width (Ry)=  0.0100
                       cart. coord. in units 2pi/alat
        k(    1) = (   0.0000000   0.0000000   0.0000000), wk =   0.0080000
        k(    2) = (   0.0000000   0.0000000   0.3103448), wk =   0.0160000
        k(    3) = (   0.0000000   0.0000000   0.6206897), wk =   0.0160000
        k(    4) = (   0.0000000   0.2000000   0.0000000), wk =   0.0320000
        k(    5) = (   0.0000000   0.2000000   0.3103448), wk =   0.0640000
        k(    6) = (   0.0000000   0.2000000   0.6206897), wk =   0.0640000
        k(    7) = (   0.0000000   0.4000000   0.0000000), wk =   0.0320000
        k(    8) = (   0.0000000   0.4000000   0.3103448), wk =   0.0640000
        k(    9) = (   0.0000000   0.4000000   0.6206897), wk =   0.0640000
        k(   10) = (   0.2000000   0.2000000   0.0000000), wk =   0.0160000
        k(   11) = (   0.2000000   0.2000000   0.3103448), wk =   0.0320000
        k(   12) = (   0.2000000   0.2000000   0.6206897), wk =   0.0320000
        k(   13) = (   0.2000000   0.4000000   0.0000000), wk =   0.0320000
        k(   14) = (   0.2000000   0.4000000   0.3103448), wk =   0.0640000
        k(   15) = (   0.2000000   0.4000000   0.6206897), wk =   0.0640000
        k(   16) = (   0.4000000   0.4000000   0.0000000), wk =   0.0160000
        k(   17) = (   0.4000000   0.4000000   0.3103448), wk =   0.0320000
        k(   18) = (   0.4000000   0.4000000   0.6206897), wk =   0.0320000
        k(   19) = (  -0.2000000   0.2000000   0.0000000), wk =   0.0160000
        k(   20) = (  -0.2000000   0.2000000  -0.3103448), wk =   0.0320000
        k(   21) = (  -0.2000000   0.2000000  -0.6206897), wk =   0.0320000
        k(   22) = (  -0.2000000   0.4000000   0.0000000), wk =   0.0320000
        k(   23) = (  -0.2000000   0.4000000  -0.3103448), wk =   0.0640000
        k(   24) = (  -0.2000000   0.4000000  -0.6206897), wk =   0.0640000
        k(   25) = (  -0.4000000   0.4000000   0.0000000), wk =   0.0160000
        k(   26) = (  -0.4000000   0.4000000  -0.3103448), wk =   0.0320000
        k(   27) = (  -0.4000000   0.4000000  -0.6206897), wk =   0.0320000
        k(   28) = (   0.0000000   0.0000000   0.0000000), wk =   0.0080000
        k(   29) = (   0.0000000   0.0000000   0.3103448), wk =   0.0160000
        k(   30) = (   0.0000000   0.0000000   0.6206897), wk =   0.0160000
        k(   31) = (   0.0000000   0.2000000   0.0000000), wk =   0.0320000
        k(   32) = (   0.0000000   0.2000000   0.3103448), wk =   0.0640000
        k(   33) = (   0.0000000   0.2000000   0.6206897), wk =   0.0640000
        k(   34) = (   0.0000000   0.4000000   0.0000000), wk =   0.0320000
        k(   35) = (   0.0000000   0.4000000   0.3103448), wk =   0.0640000
        k(   36) = (   0.0000000   0.4000000   0.6206897), wk =   0.0640000
        k(   37) = (   0.2000000   0.2000000   0.0000000), wk =   0.0160000
        k(   38) = (   0.2000000   0.2000000   0.3103448), wk =   0.0320000
        k(   39) = (   0.2000000   0.2000000   0.6206897), wk =   0.0320000
        k(   40) = (   0.2000000   0.4000000   0.0000000), wk =   0.0320000
        k(   41) = (   0.2000000   0.4000000   0.3103448), wk =   0.0640000
        k(   42) = (   0.2000000   0.4000000   0.6206897), wk =   0.0640000
        k(   43) = (   0.4000000   0.4000000   0.0000000), wk =   0.0160000
        k(   44) = (   0.4000000   0.4000000   0.3103448), wk =   0.0320000
        k(   45) = (   0.4000000   0.4000000   0.6206897), wk =   0.0320000
        k(   46) = (  -0.2000000   0.2000000   0.0000000), wk =   0.0160000
        k(   47) = (  -0.2000000   0.2000000  -0.3103448), wk =   0.0320000
        k(   48) = (  -0.2000000   0.2000000  -0.6206897), wk =   0.0320000
        k(   49) = (  -0.2000000   0.4000000   0.0000000), wk =   0.0320000
        k(   50) = (  -0.2000000   0.4000000  -0.3103448), wk =   0.0640000
        k(   51) = (  -0.2000000   0.4000000  -0.6206897), wk =   0.0640000
        k(   52) = (  -0.4000000   0.4000000   0.0000000), wk =   0.0160000
        k(   53) = (  -0.4000000   0.4000000  -0.3103448), wk =   0.0320000
        k(   54) = (  -0.4000000   0.4000000  -0.6206897), wk =   0.0320000

     Largest allocated arrays     est. size (Mb)     dimensions
     Largest temporary arrays     est. size (Mb)     dimensions

     Check: negative/imaginary core charge=   -0.000005    0.000000

     Initial potential from superposition of free atoms
     Check: negative starting charge=(component1):   -0.191238
     Check: negative starting charge=(component2):   -0.191238

     starting charge   54.99997, renormalised to   56.00000

     negative rho (up, down):  0.195E+00 0.195E+00
     Starting wfc are   40 randomized atomic wfcs

     Self-consistent Calculation

     iteration #  1     ecut=    40.00 Ry     beta=0.30
     Davidson diagonalization with overlap
     ethr =  1.00E-02,  avg # of iterations =  6.4

     negative rho (up, down):  0.192E+00 0.192E+00

     total energy              =    -544.05128990 Ry
     Harris-Foulkes estimate   =    -546.27365764 Ry
     estimated scf accuracy    <       4.83562428 Ry

     total magnetization       =    -0.00 Bohr mag/cell
     absolute magnetization    =     0.00 Bohr mag/cell

[...]

     End of self-consistent calculation

 ------ SPIN UP ------------

          k = 0.0000 0.0000 0.0000 (  1875 PWs)   bands (ev):

   -40.9822 -40.9744 -40.8829 -40.8829 -40.8095 -40.8095  -7.2285  -6.0234
    -5.0587  -5.0586   3.6873   3.8732   5.5031   5.5031   5.8750   8.7153
     8.7153   9.1385   9.5836   9.9947  10.0475  10.2191  10.2191  10.4432
    11.0940  11.0940  12.1608  12.9677  14.1291  16.8834  16.8834  17.5557
    18.3697  22.5675  22.5675  24.9913  26.0355  26.7102  28.8544  29.7031
    29.7031  30.8377  30.8441  31.3547  31.3746  33.7065  34.4686  34.4686
    35.8046  35.8046  37.4011  39.4280  39.5859  39.7237  39.7237  41.2164
    41.5782  42.1652  42.5161  44.0353  44.2249  44.2249  44.4682  44.4682
    45.3022  45.3022  45.6938  47.8352  49.1928  50.9448  50.9448  50.9594
    52.1267  52.1679  52.1679  53.2845  53.3592  53.3592  53.5597  53.8071
    54.6264  54.6406  54.8313  59.5017

[...]

          k =-0.2000 0.2000 0.0000 (  1865 PWs)   bands (ev):

[...]

 ------ SPIN DOWN ----------

[...]

     the Fermi energy is    13.7521 ev

!    total energy              =    -544.90595573 Ry
     Harris-Foulkes estimate   =    -544.90594482 Ry
     estimated scf accuracy    <       0.00000014 Ry

     The total energy is the sum of the following terms:

     one-electron contribution =    -132.52034261 Ry
     hartree contribution      =     104.99781769 Ry
     xc contribution           =    -137.50820966 Ry
     ewald contribution        =    -379.87532203 Ry
     smearing contrib. (-TS)   =       0.00010088 Ry

[...]

     convergence has been achieved in   8 iterations

     Forces acting on atoms (Ry/au):

     negative rho (up, down):  0.197E+00 0.197E+00
     atom    1 type  1   force =     0.00000000    0.00000000    0.00000000
[...]
        k(   10) = (   0.2063961   0.2063961   0.0000000), wk =   0.0160000
        k(   11) = (   0.2063961   0.2063961   0.2914083), wk =   0.0320000
        k(   12) = (   0.2063961   0.2063961   0.5828166), wk =   0.0320000
        k(   13) = (   0.2063963   0.4127921   0.0000000), wk =   0.0320000
        k(   14) = (   0.2063963   0.4127921   0.2914083), wk =   0.0640000
        k(   15) = (   0.2063963   0.4127921   0.5828166), wk =   0.0640000
        k(   16) = (   0.4127923   0.4127923   0.0000000), wk =   0.0160000
        k(   17) = (   0.4127923   0.4127923   0.2914083), wk =   0.0320000
        k(   18) = (   0.4127923   0.4127923   0.5828166), wk =   0.0320000
        k(   19) = (  -0.2063959   0.2063959   0.0000000), wk =   0.0160000
        k(   20) = (  -0.2063959   0.2063959  -0.2914083), wk =   0.0320000
        k(   21) = (  -0.2063959   0.2063959  -0.5828166), wk =   0.0320000
        k(   22) = (  -0.2063957   0.4127919   0.0000000), wk =   0.0320000
        k(   23) = (  -0.2063957   0.4127919  -0.2914083), wk =   0.0640000
        k(   24) = (  -0.2063957   0.4127919  -0.5828166), wk =   0.0640000
        k(   25) = (  -0.4127918   0.4127918   0.0000000), wk =   0.0160000
        k(   26) = (  -0.4127918   0.4127918  -0.2914083), wk =   0.0320000
        k(   27) = (  -0.4127918   0.4127918  -0.5828166), wk =   0.0320000
        k(   28) = (   0.0000000   0.0000000   0.0000000), wk =   0.0080000
        k(   29) = (   0.0000000   0.0000000   0.2914083), wk =   0.0160000
        k(   30) = (   0.0000000   0.0000000   0.5828166), wk =   0.0160000
        k(   31) = (   0.0000001   0.2063960   0.0000000), wk =   0.0320000
        k(   32) = (   0.0000001   0.2063960   0.2914083), wk =   0.0640000
        k(   33) = (   0.0000001   0.2063960   0.5828166), wk =   0.0640000
        k(   34) = (   0.0000003   0.4127920   0.0000000), wk =   0.0320000
        k(   35) = (   0.0000003   0.4127920   0.2914083), wk =   0.0640000
        k(   36) = (   0.0000003   0.4127920   0.5828166), wk =   0.0640000
        k(   37) = (   0.2063961   0.2063961   0.0000000), wk =   0.0160000
        k(   38) = (   0.2063961   0.2063961   0.2914083), wk =   0.0320000
        k(   39) = (   0.2063961   0.2063961   0.5828166), wk =   0.0320000
        k(   40) = (   0.2063963   0.4127921   0.0000000), wk =   0.0320000
        k(   41) = (   0.2063963   0.4127921   0.2914083), wk =   0.0640000
        k(   42) = (   0.2063963   0.4127921   0.5828166), wk =   0.0640000
        k(   43) = (   0.4127923   0.4127923   0.0000000), wk =   0.0160000
        k(   44) = (   0.4127923   0.4127923   0.2914083), wk =   0.0320000
        k(   45) = (   0.4127923   0.4127923   0.5828166), wk =   0.0320000
        k(   46) = (  -0.2063959   0.2063959   0.0000000), wk =   0.0160000
        k(   47) = (  -0.2063959   0.2063959  -0.2914083), wk =   0.0320000
        k(   48) = (  -0.2063959   0.2063959  -0.5828166), wk =   0.0320000
        k(   49) = (  -0.2063957   0.4127919   0.0000000), wk =   0.0320000
        k(   50) = (  -0.2063957   0.4127919  -0.2914083), wk =   0.0640000
        k(   51) = (  -0.2063957   0.4127919  -0.5828166), wk =   0.0640000
        k(   52) = (  -0.4127918   0.4127918   0.0000000), wk =   0.0160000
        k(   53) = (  -0.4127918   0.4127918  -0.2914083), wk =   0.0320000
        k(   54) = (  -0.4127918   0.4127918  -0.5828166), wk =   0.0320000

     Check: negative/imaginary core charge=   -0.000005    0.000000
     Check: negative starting charge=(component1):   -0.381513

[...]

     Threshold (ethr) on eigenvalues was too large:
     Diagonalizing with lowered threshold

     Davidson diagonalization with overlap
     ethr =  3.18E-09,  avg # of iterations =  2.0

[...]

     Total force =     0.000042     Total SCF correction =     0.000098
     SCF correction compared to forces is large: reduce conv_thr to get better values

[...]

     Volume is kept fixed: isostatic pressure set to zero

     bfgs converged in   6 scf cycles and   5 bfgs steps
     (criteria: energy < 0.10E-03, force < 0.10E-02, cell < 0.50E+00)

     End of BFGS Geometry Optimization

     Final enthalpy =    -544.9288884187 Ry
Begin final coordinates
     new unit-cell volume =    436.32066 a.u.^3 (    64.65605 Ang^3 )

CELL_PARAMETERS (alat=  8.78092155)
   0.969010988  -0.000000613   0.000000000
  -0.000000613   0.969010988   0.000000000
   0.000000000   0.000000000   0.686322253

ATOMIC_POSITIONS (crystal)
Pt0      0.000000000   0.000000000   0.000000000    0   0   0
Pt0      0.500000000   0.500000000   0.500000000    0   0   0
O1       0.309159236   0.309159236   0.000000000    1   1   0
O1      -0.309159236  -0.309159236   0.000000000    1   1   0
O1       0.809159972   0.190840028   0.500000000    1   1   0
O1       0.190840028   0.809159972   0.500000000    1   1   0
End final coordinates

     A final scf calculation at the relaxed structure.
     The G-vectors are recalculated for the final unit cell
     Results may differ from those at the preceding step.

     bravais-lattice index     =            0
     lattice parameter (alat)  =       8.7809  a.u.
     unit-cell volume          =     436.3207 (a.u.)^3
     number of atoms/cell      =            6
     number of atomic types    =            2
     number of electrons       =        56.00
     number of Kohn-Sham states=           84
     kinetic-energy cutoff     =      40.0000  Ry
     charge density cutoff     =     500.0000  Ry
     convergence threshold     =      1.0E-08
     mixing beta               =       0.3000
     number of iterations used =            8  plain     mixing
     Exchange-correlation      = SLA  PW   PBE  PBE ( 1 4 3 4 0)
     EXX-fraction              =        0.00

     celldm(1)=   8.780922  celldm(2)=   0.000000  celldm(3)=   0.000000
     celldm(4)=   0.000000  celldm(5)=   0.000000  celldm(6)=   0.000000

     crystal axes: (cart. coord. in units of alat)
               a(1) = (   0.969011  -0.000001   0.000000 )
               a(2) = (  -0.000001   0.969011   0.000000 )
               a(3) = (   0.000000   0.000000   0.686322 )

     reciprocal axes: (cart. coord. in units 2 pi/alat)
               b(1) = (  1.031980  0.000001 -0.000000 )
               b(2) = (  0.000001  1.031980 -0.000000 )
               b(3) = ( -0.000000 -0.000000  1.457041 )

     PseudoPot. # 1 for Pt read from file:
     /home/camp/zhonxu/pseudo/pt_pbe_v1.uspp.F.UPF
     MD5 check sum: 4c71d6ad5ef119f1eb26a4d0b7884226
     Pseudo is Ultrasoft + core correction, Zval = 16.0
     Generated by new atomic code, or converted to UPF format
     Using radial grid of  985 points,  6 beta functions with:
                l(1) =   0
                l(2) =   0
                l(3) =   1
                l(4) =   1
                l(5) =   2
                l(6) =   2
     Q(r) pseudized with  8 coefficients,  rinner =    1.300   1.300   1.300
                                                       1.300   1.300

     PseudoPot. # 2 for O  read from file:
     /home/camp/zhonxu/pseudo/o_pbe_v1.01.uspp.F.UPF
     MD5 check sum: 2bcb18d16ea4b960afae9ec6d52f22d2
     Pseudo is Ultrasoft + core correction, Zval =  6.0
     Generated by new atomic code, or converted to UPF format
     Using radial grid of  737 points,  5 beta functions with:
                l(1) =   0
                l(2) =   0
                l(3) =   1
                l(4) =   1
                l(5) =   2
     Q(r) pseudized with  8 coefficients,  rinner =    0.900   0.900   0.900
                                                       0.900   0.900

     atomic species   valence    mass     pseudopotential
        Pt0           16.00   195.08000     Pt( 1.00)
        O1             6.00    15.99940     O ( 1.00)

     Starting magnetic structure
     atomic species   magnetization
        Pt0          0.000
        O1           0.000

      8 Sym. Ops., with inversion, found
          (note:  8 additional sym.ops. were found but ignored
           their fractional translations are incommensurate with FFT grid)

   Cartesian axes

     site n.     atom                  positions (alat units)
         1           Pt0 tau(   1) = (   0.0000000   0.0000000   0.0000000  )
         2           Pt0 tau(   2) = (   0.4845052   0.4845052   0.3431611  )
         3           O1  tau(   3) = (   0.2995785   0.2995785   0.0000000  )
         4           O1  tau(   4) = (  -0.2995785  -0.2995785   0.0000000  )
         5           O1  tau(   5) = (   0.7840848   0.1849256   0.3431611  )
         6           O1  tau(   6) = (   0.1849256   0.7840848   0.3431611  )

     number of k points=    54  Methfessel-Paxton smearing, width (Ry)=  0.0100
                       cart. coord. in units 2pi/alat
        k(    1) = (   0.0000000   0.0000000   0.0000000), wk =   0.0080000
        k(    2) = (   0.0000000   0.0000000   0.2914083), wk =   0.0160000
        k(    3) = (   0.0000000   0.0000000   0.5828166), wk =   0.0160000
        k(    4) = (   0.0000001   0.2063960   0.0000000), wk =   0.0320000
        k(    5) = (   0.0000001   0.2063960   0.2914083), wk =   0.0640000
        k(    6) = (   0.0000001   0.2063960   0.5828166), wk =   0.0640000
        k(    7) = (   0.0000003   0.4127920   0.0000000), wk =   0.0320000
        k(    8) = (   0.0000003   0.4127920   0.2914083), wk =   0.0640000
        k(    9) = (   0.0000003   0.4127920   0.5828166), wk =   0.0640000
        k(   10) = (   0.2063961   0.2063961   0.0000000), wk =   0.0160000
        k(   11) = (   0.2063961   0.2063961   0.2914083), wk =   0.0320000
        k(   12) = (   0.2063961   0.2063961   0.5828166), wk =   0.0320000
        k(   13) = (   0.2063963   0.4127921   0.0000000), wk =   0.0320000
        k(   14) = (   0.2063963   0.4127921   0.2914083), wk =   0.0640000
        k(   15) = (   0.2063963   0.4127921   0.5828166), wk =   0.0640000
        k(   16) = (   0.4127923   0.4127923   0.0000000), wk =   0.0160000
        k(   17) = (   0.4127923   0.4127923   0.2914083), wk =   0.0320000
        k(   18) = (   0.4127923   0.4127923   0.5828166), wk =   0.0320000
        k(   19) = (  -0.2063959   0.2063959   0.0000000), wk =   0.0160000
        k(   20) = (  -0.2063959   0.2063959  -0.2914083), wk =   0.0320000
        k(   21) = (  -0.2063959   0.2063959  -0.5828166), wk =   0.0320000
        k(   22) = (  -0.2063957   0.4127919   0.0000000), wk =   0.0320000
        k(   23) = (  -0.2063957   0.4127919  -0.2914083), wk =   0.0640000
        k(   24) = (  -0.2063957   0.4127919  -0.5828166), wk =   0.0640000
        k(   25) = (  -0.4127918   0.4127918   0.0000000), wk =   0.0160000
        k(   26) = (  -0.4127918   0.4127918  -0.2914083), wk =   0.0320000
        k(   27) = (  -0.4127918   0.4127918  -0.5828166), wk =   0.0320000
        k(   28) = (   0.0000000   0.0000000   0.0000000), wk =   0.0080000
        k(   29) = (   0.0000000   0.0000000   0.2914083), wk =   0.0160000
        k(   30) = (   0.0000000   0.0000000   0.5828166), wk =   0.0160000
        k(   31) = (   0.0000001   0.2063960   0.0000000), wk =   0.0320000
        k(   32) = (   0.0000001   0.2063960   0.2914083), wk =   0.0640000
        k(   33) = (   0.0000001   0.2063960   0.5828166), wk =   0.0640000
        k(   34) = (   0.0000003   0.4127920   0.0000000), wk =   0.0320000
        k(   35) = (   0.0000003   0.4127920   0.2914083), wk =   0.0640000
        k(   36) = (   0.0000003   0.4127920   0.5828166), wk =   0.0640000
        k(   37) = (   0.2063961   0.2063961   0.0000000), wk =   0.0160000
        k(   38) = (   0.2063961   0.2063961   0.2914083), wk =   0.0320000
        k(   39) = (   0.2063961   0.2063961   0.5828166), wk =   0.0320000
        k(   40) = (   0.2063963   0.4127921   0.0000000), wk =   0.0320000
        k(   41) = (   0.2063963   0.4127921   0.2914083), wk =   0.0640000
        k(   42) = (   0.2063963   0.4127921   0.5828166), wk =   0.0640000
        k(   43) = (   0.4127923   0.4127923   0.0000000), wk =   0.0160000
        k(   44) = (   0.4127923   0.4127923   0.2914083), wk =   0.0320000
        k(   45) = (   0.4127923   0.4127923   0.5828166), wk =   0.0320000
        k(   46) = (  -0.2063959   0.2063959   0.0000000), wk =   0.0160000
        k(   47) = (  -0.2063959   0.2063959  -0.2914083), wk =   0.0320000
        k(   48) = (  -0.2063959   0.2063959  -0.5828166), wk =   0.0320000
        k(   49) = (  -0.2063957   0.4127919   0.0000000), wk =   0.0320000
        k(   50) = (  -0.2063957   0.4127919  -0.2914083), wk =   0.0640000
        k(   51) = (  -0.2063957   0.4127919  -0.5828166), wk =   0.0640000
        k(   52) = (  -0.4127918   0.4127918   0.0000000), wk =   0.0160000
        k(   53) = (  -0.4127918   0.4127918  -0.2914083), wk =   0.0320000
        k(   54) = (  -0.4127918   0.4127918  -0.5828166), wk =   0.0320000

     Largest allocated arrays     est. size (Mb)     dimensions
     Largest temporary arrays     est. size (Mb)     dimensions

     Check: negative/imaginary core charge=   -0.000005    0.000000

     Initial potential from superposition of free atoms
     Check: negative starting charge=(component1):   -0.190756
     Check: negative starting charge=(component2):   -0.190756

     starting charge   54.99997, renormalised to   56.00000

     negative rho (up, down):  0.194E+00 0.194E+00
     Starting wfc are   40 randomized atomic wfcs

     Self-consistent Calculation

[...]

     total energy              =    -544.92961412 Ry
     Harris-Foulkes estimate   =    -544.92961276 Ry
     estimated scf accuracy    <       0.00000001 Ry

[...]

     iteration # 11     ecut=    40.00 Ry     beta=0.30
     Davidson diagonalization with overlap
     ethr =  2.38E-11,  avg # of iterations =  2.0

     negative rho (up, down):  0.196E+00 0.196E+00

     End of self-consistent calculation

 ------ SPIN UP ------------

[...]

 ------ SPIN DOWN ----------

[...]

          k = 0.4128 0.4128 0.5828 (  1860 PWs)   bands (ev):

[...]

          k =-0.4128 0.4128-0.5828 (  1860 PWs)   bands (ev):

   -41.0075 -41.0072 -40.7857 -40.7856 -40.6700 -40.6700  -5.7966  -5.7474
    -5.4651  -5.4628   5.2139   5.2603   5.7430   5.8783   6.3329   6.7404
     7.9719   8.0731   8.9157   9.1183  10.0901  10.5656  10.5689  10.7171
    11.5993  12.3849  12.4510  13.0804  14.3062  14.9204  15.9189  16.4952
    22.6580  23.0515  23.5785  23.6395  25.2365  25.6924  26.8303  27.4160
    30.4012  30.4541  31.4097  31.4218  32.4843  33.0170  33.9679  34.9586
    35.3974  35.7017  35.8313  37.1940  39.4523  39.8839  40.5122  40.6256
    41.6572  42.3156  43.8457  44.9848  45.1525  45.4044  45.9542  46.3615
    46.9982  47.0965  48.0791  48.4639  48.9654  49.8453  50.0232  50.4714
    51.0057  51.4873  51.7234  52.5198  53.1745  53.8043  53.9861  54.2999
    55.8794  56.0045  56.7002  57.2069

     the Fermi energy is    13.6365 ev

!    total energy              =    -544.92961543 Ry
     Harris-Foulkes estimate   =    -544.92961412 Ry
     estimated scf accuracy    <          1.2E-09 Ry

     The total energy is the sum of the following terms:

     one-electron contribution =    -126.27911654 Ry
     hartree contribution      =     101.95620434 Ry
     xc contribution           =    -137.40984436 Ry
     ewald contribution        =    -383.19671668 Ry
     smearing contrib. (-TS)   =      -0.00014219 Ry

     total magnetization       =     0.00 Bohr mag/cell
     absolute magnetization    =     0.00 Bohr mag/cell

     convergence has been achieved in  11 iterations

     Forces acting on atoms (Ry/au):

     negative rho (up, down):  0.196E+00 0.196E+00
     atom    1 type  1   force =     0.00000000    0.00000000    0.00000000
     atom    2 type  1   force =     0.00000000    0.00000000    0.00000000
     atom    3 type  2   force =    -0.00000998   -0.00000998   -0.00000000
     atom    4 type  2   force =     0.00000998    0.00000998   -0.00000000
     atom    5 type  2   force =    -0.00001411    0.00001411    0.00000000
     atom    6 type  2   force =     0.00001411   -0.00001411    0.00000000

     Total force =     0.000035     Total SCF correction =     0.000012
     SCF correction compared to forces is large: reduce conv_thr to get better values

     entering subroutine stress ...

     negative rho (up, down):  0.196E+00 0.196E+00
          total   stress  (Ry/bohr**3)                   (kbar)     P=   93.79
   0.00062223   0.00000009   0.00000000         91.53      0.01      0.00
   0.00000009   0.00062223   0.00000000          0.01     91.53      0.00
   0.00000000   0.00000000   0.00066827          0.00      0.00     98.31

     General routines

     Parallel routines

   This run was terminated on:  16:46: 3  24Jan2014

   JOB DONE.