     Program PWSCF v.5.0.2 (svn rev. 9656) starts on  9May2014 at 11:48:37

     Current dimensions of program PWSCF are:
     Max number of different atomic species (ntypx) = 10
     Max number of k-points (npk) =  40000
     Max angular momentum in pseudopotentials (lmaxx) =  3
     Reading input from pwscf.in
Warning: card &CELL ignored
Warning: card / ignored

     Subspace diagonalization in iterative solution of the eigenvalue problem:
     a serial algorithm will be used

     Found symmetry operation: I + ( -0.5000  0.0000  0.0000)
     This is a supercell, fractional translations are disabled

     bravais-lattice index     =            0
     lattice parameter (alat)  =      10.7336  a.u.
     unit-cell volume          =    6184.1966 (a.u.)^3
     number of atoms/cell      =           30
     number of atomic types    =            3
     number of electrons       =       232.00 (up: 128.00, down: 104.00)
     number of Kohn-Sham states=          336
     kinetic-energy cutoff     =      40.0000  Ry
     charge density cutoff     =     500.0000  Ry
     convergence threshold     =      1.0E-06
     mixing beta               =       0.7000
     number of iterations used =            8  plain     mixing
     Exchange-correlation      = SLA  PW   PBE  PBE ( 1 4 3 4 0)
     EXX-fraction              =        0.00
     nstep                     =           50

     celldm(1)=  10.733644  celldm(2)=   0.000000  celldm(3)=   0.000000
     celldm(4)=   0.000000  celldm(5)=   0.000000  celldm(6)=   0.000000

     crystal axes: (cart. coord. in units of alat)
               a(1) = (   1.000000   0.000000   0.000000 )
               a(2) = (   0.000000   1.085558   0.000000 )
               a(3) = (   0.000000   0.000000   4.606685 )

     reciprocal axes: (cart. coord. in units 2 pi/alat)
               b(1) = (  1.000000  0.000000  0.000000 )
               b(2) = (  0.000000  0.921185  0.000000 )
               b(3) = (  0.000000  0.000000  0.217076 )

     PseudoPot. # 1 for O  read from file:
     /home/camp/zhonxu/pseudo/o_pbe_v1.01.uspp.F.UPF
     MD5 check sum: 2bcb18d16ea4b960afae9ec6d52f22d2
     Pseudo is Ultrasoft + core correction, Zval =  6.0
     Generated by new atomic code, or converted to UPF format
     Using radial grid of  737 points,  5 beta functions with:
                l(1) =   0
                l(2) =   0
                l(3) =   1
                l(4) =   1
                l(5) =   2
     Q(r) pseudized with  8 coefficients,  rinner =    0.900   0.900   0.900
                                                       0.900   0.900

     PseudoPot. # 2 for Mn read from file:
     /home/camp/zhonxu/pseudo/mn_pbe_v1.uspp.F.UPF
     MD5 check sum: 5fd7c7b5c956fd19902447332617373a
     Pseudo is Ultrasoft + core correction, Zval = 15.0
     Generated by new atomic code, or converted to UPF format
     Using radial grid of  859 points,  6 beta functions with:
                l(1) =   0
                l(2) =   0
                l(3) =   1
                l(4) =   1
                l(5) =   2
                l(6) =   2
     Q(r) pseudized with  6 coefficients,  rinner =    1.150   1.150   1.150
                                                       1.150   1.150

     PseudoPot. # 3 for H  read from file:
     /home/camp/zhonxu/pseudo/h_pbe_v1.uspp.F.UPF
     MD5 check sum: 3408e3ff4ec8b0a4e358431e7e038a48
     Pseudo is Ultrasoft, Zval =  1.0
     Generated by new atomic code, or converted to UPF format
     Using radial grid of  615 points,  2 beta functions with:
                l(1) =   0
                l(2) =   0
     Q(r) pseudized with  8 coefficients,  rinner =    0.700

     atomic species   valence    mass     pseudopotential
        O0             6.00    15.99940     O ( 1.00)
        Mn1           15.00    54.93800     Mn( 1.00)
        H2             1.00     1.00794     H ( 1.00)

     Starting magnetic structure
     atomic species   magnetization
        O0           0.000
        Mn1          0.600
        H2           0.000

     Simplified LDA+U calculation (l_max = 2) with parameters (eV):
     atomic species    L          U    alpha       J0     beta
        Mn1            2     4.5000   0.0000   0.0000   0.0000

     No symmetry found

   Cartesian axes

     site n.     atom                  positions (alat units)
         1           O0  tau(   1) = (   0.0000000   0.0000000   1.7440910  )
         2           O0  tau(   2) = (   0.0000000   0.5427791   1.8348887  )
         3           Mn1 tau(   3) = (   0.2500000   0.5427791   2.0695072  )
         4           Mn1 tau(   4) = (   0.0000000   0.0000000   2.0719487  )
         5           O0  tau(   5) = (   0.2500000   0.8684466   2.0695533  )
         6           O0  tau(   6) = (   0.2500000   0.2171117   2.0770161  )
         7           O0  tau(   7) = (   0.0000000   0.5427791   2.2881405  )
         8           O0  tau(   8) = (   0.0000000   0.0000000   2.4167130  )
         9           Mn1 tau(   9) = (   0.2500000   0.0000000   2.6452046  )
        10           Mn1 tau(  10) = (   0.0000000   0.5427791   2.6189465  )
        11           O0  tau(  11) = (   0.2500000   0.7598908   2.6694358  )
        12           O0  tau(  12) = (   0.2500000   0.3256675   2.6696661  )
        13           O0  tau(  13) = (   0.0000000   0.0000000   2.8462864  )
        14           O0  tau(  14) = (   0.5000000   0.0000000   1.7440910  )
        15           O0  tau(  15) = (   0.5000000   0.5427791   1.8348887  )
        16           Mn1 tau(  16) = (   0.7500000   0.5427791   2.0695072  )
        17           Mn1 tau(  17) = (   0.5000000   0.0000000   2.0719487  )
        18           O0  tau(  18) = (   0.7500000   0.8684466   2.0695533  )
        19           O0  tau(  19) = (   0.7500000   0.2171117   2.0770161  )
        20           O0  tau(  20) = (   0.5000000   0.5427791   2.2881405  )
        21           O0  tau(  21) = (   0.5000000   0.0000000   2.4167130  )
        22           Mn1 tau(  22) = (   0.7500000   0.0000000   2.6452046  )
        23           Mn1 tau(  23) = (   0.5000000   0.5427791   2.6189465  )
        24           O0  tau(  24) = (   0.7500000   0.7598908   2.6694358  )
        25           O0  tau(  25) = (   0.7500000   0.3256675   2.6696661  )
        26           O0  tau(  26) = (   0.5000000   0.0000000   2.8462864  )
        27           H2  tau(  27) = (  -0.0000900   0.7018026   1.7591088  )
        28           H2  tau(  28) = (   0.4999100   0.7018026   1.7591088  )
        29           H2  tau(  29) = (   0.1616900   0.0388738   1.6898703  )
        30           H2  tau(  30) = (   0.6616900   0.0388738   1.6898703  )

     number of k points=    20  Methfessel-Paxton smearing, width (Ry)=  0.0100
                       cart. coord. in units 2pi/alat
        k(    1) = (   0.0000000   0.0000000   0.0000000), wk =   0.0625000
        k(    2) = (   0.0000000   0.2302962   0.0000000), wk =   0.1250000
        k(    3) = (   0.0000000  -0.4605925   0.0000000), wk =   0.0625000
        k(    4) = (   0.2500000   0.0000000   0.0000000), wk =   0.1250000
        k(    5) = (   0.2500000   0.2302962   0.0000000), wk =   0.1250000
        k(    6) = (   0.2500000  -0.4605925   0.0000000), wk =   0.1250000
        k(    7) = (  -0.5000000   0.0000000   0.0000000), wk =   0.0625000
        k(    8) = (  -0.5000000   0.2302962   0.0000000), wk =   0.1250000
        k(    9) = (  -0.5000000  -0.4605925   0.0000000), wk =   0.0625000
        k(   10) = (  -0.2500000   0.2302962   0.0000000), wk =   0.1250000
        k(   11) = (   0.0000000   0.0000000   0.0000000), wk =   0.0625000
        k(   12) = (   0.0000000   0.2302962   0.0000000), wk =   0.1250000
        k(   13) = (   0.0000000  -0.4605925   0.0000000), wk =   0.0625000
        k(   14) = (   0.2500000   0.0000000   0.0000000), wk =   0.1250000
        k(   15) = (   0.2500000   0.2302962   0.0000000), wk =   0.1250000
        k(   16) = (   0.2500000  -0.4605925   0.0000000), wk =   0.1250000
        k(   17) = (  -0.5000000   0.0000000   0.0000000), wk =   0.0625000
        k(   18) = (  -0.5000000   0.2302962   0.0000000), wk =   0.1250000
        k(   19) = (  -0.5000000  -0.4605925   0.0000000), wk =   0.0625000
        k(   20) = (  -0.2500000   0.2302962   0.0000000), wk =   0.1250000

     Largest allocated arrays     est. size (Mb)     dimensions
     Largest temporary arrays     est. size (Mb)     dimensions

     Check: negative/imaginary core charge=   -0.000022    0.000000

     Initial potential from superposition of free atoms
     Check: negative starting charge=(component1):   -0.000776
     Check: negative starting charge=(component2):   -0.000381

     starting charge  223.99987, renormalised to  232.00000

     negative rho (up, down):  0.804E-03 0.395E-03
     Number of +U iterations with fixed ns =  0
     Starting occupations:
 --- enter write_ns ---
 LDA+U parameters:
U( 2)     =  4.50000000
alpha( 2) =  0.00000000
atom    3   Tr[ns(na)] (up, down, total) =   5.00000  0.00000  5.00000
   spin  1
    eigenvalues:
  1.000  1.000  1.000  1.000  1.000
    eigenvectors:
  1.000  0.000  0.000  0.000  0.000
  0.000  1.000  0.000  0.000  0.000
  0.000  0.000  1.000  0.000  0.000
  0.000  0.000  0.000  1.000  0.000
  0.000  0.000  0.000  0.000  1.000
    occupations:
  1.000  0.000  0.000  0.000  0.000
  0.000  1.000  0.000  0.000  0.000
  0.000  0.000  1.000  0.000  0.000
  0.000  0.000  0.000  1.000  0.000
  0.000  0.000  0.000  0.000  1.000
   spin  2
    eigenvalues:
  0.000  0.000  0.000  0.000  0.000
    eigenvectors:
  1.000  0.000  0.000  0.000  0.000
  0.000  1.000  0.000  0.000  0.000
  0.000  0.000  1.000  0.000  0.000
  0.000  0.000  0.000  1.000  0.000
  0.000  0.000  0.000  0.000  1.000
    occupations:
  0.000  0.000  0.000  0.000  0.000
  0.000  0.000  0.000  0.000  0.000
  0.000  0.000  0.000  0.000  0.000
  0.000  0.000  0.000  0.000  0.000
  0.000  0.000  0.000  0.000  0.000
atomic mag. moment =     5.000000
atom    4   Tr[ns(na)] (up, down, total) =   5.00000  0.00000  5.00000
   spin  1
    eigenvalues:
  1.000  1.000  1.000  1.000  1.000
    eigenvectors:
  1.000  0.000  0.000  0.000  0.000
  0.000  1.000  0.000  0.000  0.000
  0.000  0.000  1.000  0.000  0.000
  0.000  0.000  0.000  1.000  0.000
  0.000  0.000  0.000  0.000  1.000
    occupations:
  1.000  0.000  0.000  0.000  0.000
  0.000  1.000  0.000  0.000  0.000
  0.000  0.000  1.000  0.000  0.000
  0.000  0.000  0.000  1.000  0.000
  0.000  0.000  0.000  0.000  1.000
   spin  2
    eigenvalues:
  0.000  0.000  0.000  0.000  0.000
    eigenvectors:
  1.000  0.000  0.000  0.000  0.000
  0.000  1.000  0.000  0.000  0.000
  0.000  0.000  1.000  0.000  0.000
  0.000  0.000  0.000  1.000  0.000
  0.000  0.000  0.000  0.000  1.000
    occupations:
  0.000  0.000  0.000  0.000  0.000
  0.000  0.000  0.000  0.000  0.000
  0.000  0.000  0.000  0.000  0.000
  0.000  0.000  0.000  0.000  0.000
  0.000  0.000  0.000  0.000  0.000
atomic mag. moment =     5.000000
atom    9   Tr[ns(na)] (up, down, total) =   5.00000  0.00000  5.00000
   spin  1
    eigenvalues:
  1.000  1.000  1.000  1.000  1.000
    eigenvectors:
[...]
    occupations:
  0.917  0.000 -0.004 -0.144  0.000
  0.000  0.697 -0.000  0.000 -0.008
 -0.004 -0.000  1.003 -0.004  0.000
 -0.144  0.000 -0.004  0.746  0.000
  0.000 -0.008  0.000  0.000  0.998
   spin  2
    eigenvalues:
  0.089  0.114  0.131  0.347  0.363
    eigenvectors:
  0.776  0.000  0.004  0.000  0.220
  0.000  0.002  0.000  0.998  0.000
  0.005  0.000  0.995  0.000  0.000
  0.219  0.000  0.001  0.000  0.780
  0.000  0.998  0.000  0.002  0.000
    occupations:
  0.149 -0.000 -0.002  0.113 -0.000
 -0.000  0.346  0.000 -0.000  0.010
 -0.002  0.000  0.130  0.002 -0.000
  0.113 -0.000  0.002  0.302 -0.000
 -0.000  0.010 -0.000 -0.000  0.115
atomic mag. moment =     3.317823
atom    4   Tr[ns(na)] (up, down, total) =   4.34091  1.05451  5.39543
   spin  1
    eigenvalues:
  0.638  0.698  0.996  1.004  1.005
    eigenvectors:
  0.000  0.998  0.001  0.001  0.000
  0.000  0.001  0.000  0.957  0.042
  0.000  0.000  0.000  0.042  0.958
  0.000  0.001  0.999  0.000  0.000
  1.000  0.000  0.000  0.000  0.000
    occupations:
  0.698 -0.010 -0.005  0.007 -0.001
 -0.010  1.004 -0.000  0.000  0.000
 -0.005 -0.000  1.004  0.000  0.000
  0.007  0.000  0.000  0.996  0.000
 -0.001  0.000  0.000  0.000  0.638
   spin  2
    eigenvalues:
  0.090  0.115  0.129  0.349  0.371
    eigenvectors:
  0.004  0.003  0.000  0.993  0.000
  0.002  0.808  0.188  0.003  0.000
  0.001  0.186  0.812  0.001  0.000
  0.993  0.003  0.000  0.003  0.000
  0.000  0.000  0.000  0.000  1.000
    occupations:
  0.348  0.012  0.006 -0.015  0.000
  0.012  0.118 -0.005  0.000 -0.005
  0.006 -0.005  0.127  0.001  0.000
 -0.015  0.000  0.001  0.091 -0.000
  0.000 -0.005  0.000 -0.000  0.371
atomic mag. moment =     3.286400
atom    9   Tr[ns(na)] (up, down, total) =   4.32844  1.10021  5.42865
   spin  1
    eigenvalues:
  0.683  0.687  0.974  0.985  0.999
    eigenvectors:
  0.218  0.002  0.000  0.000  0.780
  0.009  0.991  0.000  0.000  0.000
  0.000  0.000  0.000  1.000  0.000
  0.773  0.007  0.000  0.000  0.220
  0.000  0.000  1.000  0.000  0.000
    occupations:
  0.929  0.000  0.000 -0.131  0.000
  0.000  0.687  0.000  0.000  0.000
  0.000  0.000  0.985  0.000 -0.000
 -0.131  0.000  0.000  0.752  0.000
  0.000  0.000 -0.000  0.000  0.974
   spin  2
    eigenvalues:
  0.106  0.121  0.124  0.367  0.383
    eigenvectors:
  0.814  0.000  0.000  0.186  0.000
  0.000  0.000  0.000  0.000  1.000
  0.000  0.000  1.000  0.000  0.000
  0.186  0.000  0.000  0.814  0.000
  0.000  1.000  0.000  0.000  0.000
    occupations:
  0.154 -0.000  0.000  0.102 -0.000
 -0.000  0.383 -0.000 -0.000 -0.000
  0.000 -0.000  0.124 -0.000 -0.000
  0.102 -0.000 -0.000  0.318 -0.000
 -0.000 -0.000 -0.000 -0.000  0.121
atomic mag. moment =     3.228227
atom   10   Tr[ns(na)] (up, down, total) =   4.58995  0.72861  5.31855
   spin  1
    eigenvalues:
  0.660  0.936  0.997  0.998  0.999
    eigenvectors:
  0.000  0.961  0.000  0.039  0.000
  0.000  0.000  1.000  0.000  0.000
  0.000  0.000  0.000  0.000  0.999
  0.000  0.039  0.000  0.960  0.000
  1.000  0.000  0.000  0.000  0.000
    occupations:
  0.938 -0.000  0.000  0.012  0.000
 -0.000  0.997  0.000  0.000 -0.000
  0.000  0.000  0.999 -0.000 -0.000
  0.012  0.000 -0.000  0.996 -0.000
  0.000 -0.000 -0.000 -0.000  0.660
   spin  2
    eigenvalues:
  0.075  0.085  0.092  0.155  0.321
    eigenvectors:
  0.035  0.000  0.000  0.965  0.000
  0.000  0.000  1.000  0.000  0.000
  0.000  1.000  0.000  0.000  0.000
  0.965  0.000  0.000  0.035  0.000
  0.000  0.000  0.000  0.000  1.000
    occupations:
  0.152  0.000 -0.000 -0.015  0.000
  0.000  0.092 -0.000 -0.000  0.000
 -0.000 -0.000  0.085 -0.000  0.000
 -0.015 -0.000 -0.000  0.078 -0.000
  0.000  0.000  0.000 -0.000  0.321
atomic mag. moment =     3.861337
atom   16   Tr[ns(na)] (up, down, total) =   4.36028  1.04246  5.40274
   spin  1
    eigenvalues:
  0.664  0.697  0.998  0.998  1.004
    eigenvectors:
  0.245  0.000  0.000  0.715  0.041
  0.000  0.999  0.001  0.000  0.000
  0.000  0.000  0.000  0.050  0.950
  0.755  0.000  0.000  0.236  0.009
  0.000  0.001  0.999  0.000  0.000
    occupations:
  0.917  0.000 -0.004 -0.144  0.000
  0.000  0.697 -0.000  0.000 -0.008
 -0.004 -0.000  1.003 -0.004  0.000
 -0.144  0.000 -0.004  0.746  0.000
  0.000 -0.008  0.000  0.000  0.998
   spin  2
    eigenvalues:
  0.089  0.114  0.131  0.347  0.363
    eigenvectors:
  0.776  0.000  0.004  0.000  0.220
  0.000  0.002  0.000  0.998  0.000
  0.005  0.000  0.995  0.000  0.000
  0.219  0.000  0.001  0.000  0.780
  0.000  0.998  0.000  0.002  0.000
    occupations:
  0.149 -0.000 -0.002  0.113 -0.000
 -0.000  0.346  0.000 -0.000  0.010
 -0.002  0.000  0.130  0.002 -0.000
  0.113 -0.000  0.002  0.302 -0.000
 -0.000  0.010 -0.000 -0.000  0.115
atomic mag. moment =     3.317823
atom   17   Tr[ns(na)] (up, down, total) =   4.34091  1.05452  5.39543
   spin  1
    eigenvalues:
  0.638  0.698  0.996  1.004  1.005
    eigenvectors:
  0.000  0.998  0.001  0.001  0.000
  0.000  0.001  0.000  0.957  0.042
  0.000  0.000  0.000  0.042  0.958
  0.000  0.001  0.999  0.000  0.000
  1.000  0.000  0.000  0.000  0.000
    occupations:
  0.698 -0.010 -0.005  0.007 -0.001
 -0.010  1.004 -0.000  0.000  0.000
 -0.005 -0.000  1.004  0.000  0.000
  0.007  0.000  0.000  0.996  0.000
 -0.001  0.000  0.000  0.000  0.638
   spin  2
    eigenvalues:
  0.090  0.115  0.129  0.349  0.371
    eigenvectors:
  0.004  0.003  0.000  0.993  0.000
  0.002  0.808  0.188  0.003  0.000
  0.001  0.186  0.812  0.001  0.000
  0.993  0.003  0.000  0.003  0.000
  0.000  0.000  0.000  0.000  1.000
    occupations:
  0.348  0.012  0.006 -0.015  0.000
  0.012  0.118 -0.005  0.000 -0.005
  0.006 -0.005  0.127  0.001  0.000
 -0.015  0.000  0.001  0.091 -0.000
  0.000 -0.005  0.000 -0.000  0.371
atomic mag. moment =     3.286392
atom   22   Tr[ns(na)] (up, down, total) =   4.32844  1.10021  5.42865
   spin  1
    eigenvalues:
  0.683  0.687  0.974  0.985  0.999
    eigenvectors:
  0.218  0.002  0.000  0.000  0.780
  0.009  0.991  0.000  0.000  0.000
  0.000  0.000  0.000  1.000  0.000
  0.773  0.007  0.000  0.000  0.220
  0.000  0.000  1.000  0.000  0.000
    occupations:
  0.929  0.000  0.000 -0.131  0.000
  0.000  0.687  0.000  0.000  0.000
  0.000  0.000  0.985  0.000 -0.000
 -0.131  0.000  0.000  0.752  0.000
  0.000  0.000 -0.000  0.000  0.974
   spin  2
    eigenvalues:
  0.106  0.121  0.124  0.367  0.383
    eigenvectors:
  0.814  0.000  0.000  0.186  0.000
  0.000  0.000  0.000  0.000  1.000
  0.000  0.000  1.000  0.000  0.000
  0.186  0.000  0.000  0.814  0.000
  0.000  1.000  0.000  0.000  0.000
    occupations:
  0.154 -0.000  0.000  0.102 -0.000
 -0.000  0.383 -0.000 -0.000 -0.000
  0.000 -0.000  0.124 -0.000 -0.000
  0.102 -0.000 -0.000  0.318 -0.000
 -0.000 -0.000 -0.000 -0.000  0.121
atomic mag. moment =     3.228227
atom   23   Tr[ns(na)] (up, down, total) =   4.58994  0.72861  5.31855
   spin  1
    eigenvalues:
  0.660  0.936  0.997  0.998  0.999
    eigenvectors:
  0.000  0.961  0.000  0.039  0.000
  0.000  0.000  1.000  0.000  0.000
  0.000  0.000  0.000  0.000  0.999
  0.000  0.039  0.000  0.960  0.000
  1.000  0.000  0.000  0.000  0.000
    occupations:
  0.938 -0.000  0.000  0.012  0.000
 -0.000  0.997  0.000  0.000 -0.000
  0.000  0.000  0.999 -0.000 -0.000
  0.012  0.000 -0.000  0.996 -0.000
  0.000 -0.000 -0.000 -0.000  0.660
   spin  2
    eigenvalues:
  0.075  0.085  0.092  0.155  0.321
    eigenvectors:
  0.035  0.000  0.000  0.965  0.000
  0.000  0.000  1.000  0.000  0.000
  0.000  1.000  0.000  0.000  0.000
  0.965  0.000  0.000  0.035  0.000
  0.000  0.000  0.000  0.000  1.000
    occupations:
  0.152  0.000 -0.000 -0.015  0.000
  0.000  0.092 -0.000 -0.000  0.000
 -0.000 -0.000  0.085 -0.000  0.000
 -0.015 -0.000 -0.000  0.078 -0.000
  0.000  0.000  0.000 -0.000  0.321
atomic mag. moment =     3.861336
N of occupied +U levels =  43.0907445
 --- exit write_ns ---

 ------ SPIN UP ------------

[...]

 ------ SPIN DOWN ----------

[...]

          k = 0.2500-0.4606 0.0000 ( 26462 PWs)   bands (ev):

[...]

          k =-0.2500 0.2303 0.0000 ( 26396 PWs)   bands (ev):

   -80.4524 -80.4445 -80.3852 -80.3768 -80.3628 -80.3547 -79.4252 -79.4168
   -49.3648 -49.3316 -49.3026 -49.2912 -49.2591 -49.2587 -49.2349 -49.2123
   -49.1979 -49.1957 -49.1901 -49.1633 -49.1580 -49.1470 -49.0481 -49.0299
   -48.9982 -48.9909 -48.5775 -48.4728 -48.3850 -48.3670 -47.8477 -47.8390
   -21.7523 -21.3114 -21.1379 -20.9273 -20.4604 -20.4061 -20.3576 -20.2959
   -20.0992 -20.0839 -19.9898 -19.9054 -19.8001 -19.7684 -19.7673 -19.7158
   -19.5649 -19.5610  -9.1266  -8.9020  -8.4779  -8.4166  -8.2476  -8.0265
    -7.7902  -7.6678  -7.5236  -7.4612  -7.2707  -7.2378  -7.1041  -7.0846
    -6.9283  -6.9154  -6.8047  -6.7305  -6.6599  -6.4744  -6.4383  -6.3769
    -6.2686  -6.1545  -6.1138  -5.8523  -5.7928  -5.7419  -5.6505  -5.5081
    -5.4442  -5.3915  -5.2346  -5.1755  -5.1203  -5.0406  -4.9793  -4.7900
    -4.7739  -4.6495  -4.5469  -4.5137  -4.4017  -4.2505  -4.1975  -4.1090
    -3.9774  -3.8703  -3.7114  -3.6865  -3.6043  -3.2994  -3.2767  -2.9343
     0.4792   0.5026   0.5097   0.5992   0.6335   0.7629   0.7738   0.8061
     0.8316   0.8340   0.9179   0.9789   1.0937   1.1495   1.2402   1.2676
     1.3392   1.3399   1.4398   1.4664   1.5786   1.6015   1.6799   1.7081
     1.7182   1.7875   1.9014   1.9533   2.1246   2.1916   2.2273   2.2924
     2.3635   2.3838   2.4751   2.6417   2.7395   2.8363   2.9100   3.0366
     3.6843   4.1670   4.3574   4.8371   5.3251   5.6081   5.7413   6.0585
     6.2162   6.3981   6.4293   6.5548   6.5709   6.8549   6.9262   7.2673
     7.3351   7.5931   7.7194   7.8746   8.1441   8.2790   8.4187   8.4394
     8.4701   8.5712   8.7661   8.8565   9.1131   9.2017   9.3031   9.4572
     9.5411   9.6433   9.8965   9.9692  10.0536  10.0680  10.1527  10.3412
    10.4358  10.6155  10.6366  10.6908  10.8438  11.0232  11.0370  11.1012
    11.2382  11.3305  11.3929  11.5106  11.5655  11.6621  11.7122  11.7422
    11.8945  11.9904  12.1821  12.2096  12.2257  12.3239  12.4383  12.4714
    12.6138  12.7932  12.8198  12.8435  12.9222  12.9969  13.1174  13.1187
    13.2042  13.2727  13.3464  13.4434  13.5236  13.5689  13.6067  13.6465
    13.7854  13.8222  13.8808  13.8872  14.0703  14.1436  14.2164  14.2787
    14.3270  14.3382  14.3971  14.6197  14.6340  14.6806  14.7129  14.8267
    14.9792  15.0108  15.1045  15.1787  15.2966  15.4375  15.4960  15.6253
    15.6515  15.8034  15.8399  15.9464  15.9948  16.1284  16.2001  16.2768
    16.3522  16.4648  16.5290  16.5339  16.6084  16.7588  16.8042  16.9000
    17.0064  17.0525  17.1399  17.1416  17.2027  17.3102  17.3303  17.4724
    17.4976  17.5881  17.6668  17.7197  17.9060  17.9097  17.9564  18.1061
    18.1878  18.2018  18.2357  18.3260  18.3332  18.4356  18.5098  18.5939
    18.6685  18.7749  18.8123  18.8185  18.9645  19.0777  19.1541  19.1962
    19.2907  19.3015  19.3941  19.4832  19.6154  19.6840  19.7900  19.8687
    19.8923  20.0042  20.0471  20.0889  20.1079  20.1623  20.2866  20.2882
    20.3403  20.4299  20.4381  20.5759  20.6067  20.7632  20.9120  20.9324
    21.1011  21.1025  21.1942  21.2428  21.2971  21.3534  21.4506  21.5249
    21.5769  21.6679  21.7240  21.8068  21.8987  21.9134  22.0621  22.1148

     the spin up/dw Fermi energies are    -2.4107   -0.1856 ev

!    total energy              =   -2287.20893879 Ry
     Harris-Foulkes estimate   =   -2287.20893879 Ry
     estimated scf accuracy    <          3.6E-09 Ry

     The total energy is the sum of the following terms:

     one-electron contribution =  -25412.16761193 Ry
     hartree contribution      =   12722.01736995 Ry
     xc contribution           =    -341.71966863 Ry
     ewald contribution        =   10743.17244344 Ry
     Hubbard energy            =       1.48862964 Ry
     smearing contrib. (-TS)   =      -0.00010126 Ry

     total magnetization       =    24.00 Bohr mag/cell
     absolute magnetization    =    32.36 Bohr mag/cell

     convergence has been achieved in  15 iterations

     Forces acting on atoms (Ry/au):

     negative rho (up, down):  0.194E-02 0.139E-02
     atom    1 type  1   force =    -0.00575371   -0.01495571   -0.00074719
     atom    2 type  1   force =     0.00035405    0.00994190    0.00014676
     atom    3 type  2   force =    -0.00068216   -0.00056096    0.00049610
     atom    4 type  2   force =     0.00720198    0.01098440    0.00004630
     atom    5 type  1   force =     0.00182819    0.01605075   -0.00019182
     atom    6 type  1   force =    -0.00207868   -0.02086138    0.00020866
     atom    7 type  1   force =     0.00002521    0.00142258    0.00068251
     atom    8 type  1   force =    -0.00141349   -0.00229681    0.00068831
     atom    9 type  2   force =     0.00075542    0.00038131   -0.00097171
     atom   10 type  2   force =    -0.00004817   -0.00065525   -0.00051896
     atom   11 type  1   force =     0.00006047   -0.03005813    0.00013364
     atom   12 type  1   force =     0.00001554    0.03024829    0.00014231
     atom   13 type  1   force =    -0.00042254   -0.00014626   -0.00017310
     atom   14 type  1   force =    -0.00575339   -0.01495548   -0.00074893
     atom   15 type  1   force =     0.00035408    0.00994201    0.00014815
     atom   16 type  2   force =    -0.00068789   -0.00056093    0.00049610
     atom   17 type  2   force =     0.00720124    0.01098464    0.00005963
     atom   18 type  1   force =     0.00182470    0.01605070   -0.00019182
     atom   19 type  1   force =    -0.00208234   -0.02086141    0.00020866
     atom   20 type  1   force =     0.00002517    0.00142247    0.00068348
     atom   21 type  1   force =    -0.00141349   -0.00229678    0.00069419
     atom   22 type  2   force =     0.00074017    0.00038132   -0.00097164
     atom   23 type  2   force =    -0.00004827   -0.00065504   -0.00052173
     atom   24 type  1   force =     0.00005749   -0.03005813    0.00013367
     atom   25 type  1   force =     0.00001266    0.03024829    0.00014231
     atom   26 type  1   force =    -0.00042252   -0.00014625   -0.00017329
     atom   27 type  3   force =    -0.00000095   -0.00007579   -0.00004431
     atom   28 type  3   force =    -0.00000097   -0.00007518   -0.00004520
     atom   29 type  3   force =     0.00017619    0.00058055    0.00009483
     atom   30 type  3   force =     0.00017600    0.00058025    0.00009408

     Total force =     0.002654     Total SCF correction =     0.000322
     SCF correction compared to forces is large: reduce conv_thr to get better values

     bfgs converged in  15 scf cycles and  14 bfgs steps
     (criteria: energy < 0.10E-03, force < 0.10E-02)

     End of BFGS Geometry Optimization

     Final energy   =   -2287.2089387923 Ry
Begin final coordinates

ATOMIC_POSITIONS (crystal)
O0       0.000000000   0.000000000   0.375397759    0   0   1
O0       0.000000000   0.500000000   0.394772691    0   0   1
Mn1      0.250000000   0.500000000   0.447224997    0   0   1
Mn1      0.000000000   0.000000000   0.447796467    0   0   1
O0       0.250000000   0.800000000   0.447378686    0   0   1
O0       0.250000000   0.200000000   0.449867328    0   0   1
O0       0.000000000   0.500000000   0.495008542    0   0   1
O0       0.000000000   0.000000000   0.525906898    0   0   1
Mn1      0.250000000   0.000000000   0.574841296    0   0   1
Mn1      0.000000000   0.500000000   0.572338227    0   0   1
O0       0.250000000   0.700000000   0.584384969    0   0   1
O0       0.250000000   0.300000000   0.584457462    0   0   1
O0       0.000000000   0.000000000   0.622643071    0   0   1
O0       0.500000000   0.000000000   0.375397786    0   0   1
O0       0.500000000   0.500000000   0.394772696    0   0   1
Mn1      0.750000000   0.500000000   0.447225000    0   0   1
Mn1      0.500000000   0.000000000   0.447796195    0   0   1
O0       0.750000000   0.800000000   0.447378702    0   0   1
O0       0.750000000   0.200000000   0.449867291    0   0   1
O0       0.500000000   0.500000000   0.495008475    0   0   1
O0       0.500000000   0.000000000   0.525906617    0   0   1
Mn1      0.750000000   0.000000000   0.574841292    0   0   1
Mn1      0.500000000   0.500000000   0.572338024    0   0   1
O0       0.750000000   0.700000000   0.584384967    0   0   1
O0       0.750000000   0.300000000   0.584457462    0   0   1
O0       0.500000000   0.000000000   0.622642933    0   0   1
H2       0.000345541   0.647677662   0.379090302
H2       0.500345598   0.647677879   0.379090468
H2       0.161820439   0.039913569   0.364501611
H2       0.661820545   0.039913978   0.364501785
End final coordinates

     General routines

     Parallel routines
     Hubbard U routines

   This run was terminated on:   7: 9:23  10May2014

   JOB DONE.