     Program PWSCF v.5.0.2 (svn rev. 9656) starts on 30Apr2014 at 20:27:27

     Current dimensions of program PWSCF are:
     Max number of different atomic species (ntypx) = 10
     Max number of k-points (npk) =  40000
     Max angular momentum in pseudopotentials (lmaxx) =  3
     Reading input from pwscf.in
Warning: card &CELL ignored
Warning: card / ignored

     Subspace diagonalization in iterative solution of the eigenvalue problem:
     a serial algorithm will be used

     bravais-lattice index     =            0
     lattice parameter (alat)  =      11.7541  a.u.
     unit-cell volume          =    7139.8207 (a.u.)^3
     number of atoms/cell      =           32
     number of atomic types    =            3
     number of electrons       =       239.00
     number of Kohn-Sham states=          358
     kinetic-energy cutoff     =      40.0000  Ry
     charge density cutoff     =     500.0000  Ry
     convergence threshold     =      1.0E-06
     mixing beta               =       0.7000
     number of iterations used =            8  plain     mixing
     Exchange-correlation      = SLA  PW   PBE  PBE ( 1 4 3 4 0)
     EXX-fraction              =        0.00
     nstep                     =           50

     celldm(1)=  11.754097  celldm(2)=   0.000000  celldm(3)=   0.000000
     celldm(4)=   0.000000  celldm(5)=   0.000000  celldm(6)=   0.000000

     crystal axes: (cart. coord. in units of alat)
               a(1) = (   1.000000   0.000000   0.000000 )
               a(2) = (   0.000000   1.034513   0.000000 )
               a(3) = (   0.000000   0.000000   4.249947 )

     reciprocal axes: (cart. coord. in units 2 pi/alat)
               b(1) = (  1.000000  0.000000  0.000000 )
               b(2) = (  0.000000  0.966638  0.000000 )
               b(3) = (  0.000000  0.000000  0.235297 )

     PseudoPot. # 1 for O  read from file:
     /home/camp/zhonxu/pseudo/o_pbe_v1.01.uspp.F.UPF
     MD5 check sum: 2bcb18d16ea4b960afae9ec6d52f22d2
     Pseudo is Ultrasoft + core correction, Zval =  6.0
     Generated by new atomic code, or converted to UPF format
     Using radial grid of  737 points,  5 beta functions with:
                l(1) =   0
                l(2) =   0
                l(3) =   1
                l(4) =   1
                l(5) =   2
     Q(r) pseudized with  8 coefficients,  rinner =    0.900   0.900   0.900
                                                       0.900   0.900

     PseudoPot. # 2 for Rh read from file:
     /home/camp/zhonxu/pseudo/rh_pbe_v1.uspp.F.UPF
     MD5 check sum: 37b626987ad0dd8ec6bf4cc9ef289918
     Pseudo is Ultrasoft + core correction, Zval = 15.0
     Generated by new atomic code, or converted to UPF format
     Using radial grid of  969 points,  7 beta functions with:
                l(1) =   0
                l(2) =   0
                l(3) =   1
                l(4) =   1
                l(5) =   2
                l(6) =   2
                l(7) =   2
     Q(r) pseudized with  6 coefficients,  rinner =    1.050   1.050   1.050
                                                       1.050   1.050

     PseudoPot. # 3 for H  read from file:
     /home/camp/zhonxu/pseudo/h_pbe_v1.uspp.F.UPF
     MD5 check sum: 3408e3ff4ec8b0a4e358431e7e038a48
     Pseudo is Ultrasoft, Zval =  1.0
     Generated by new atomic code, or converted to UPF format
     Using radial grid of  615 points,  2 beta functions with:
                l(1) =   0
                l(2) =   0
     Q(r) pseudized with  8 coefficients,  rinner =    0.700

     atomic species   valence    mass     pseudopotential
        O0             6.00    15.99940     O ( 1.00)
        Rh1           15.00   102.90550     Rh( 1.00)
        H2             1.00     1.00794     H ( 1.00)

     Simplified LDA+U calculation (l_max = 2) with parameters (eV):
     atomic species    L          U    alpha       J0     beta
        Rh1            2     4.5000   0.0000   0.0000   0.0000

     No symmetry found

   Cartesian axes

     site n.     atom                  positions (alat units)
         1           O0  tau(   1) = (   0.0000000   0.0000000   1.6077125  )
         2           O0  tau(   2) = (   0.0000000   0.5172566   1.7060138  )
         3           Rh1 tau(   3) = (   0.2500000   0.5172566   1.9233561  )
         4           Rh1 tau(   4) = (   0.0000000   0.0000000   1.9242061  )
         5           O0  tau(   5) = (   0.2500000   0.8379556   1.9221236  )
         6           O0  tau(   6) = (   0.2500000   0.1965575   1.9218261  )
         7           O0  tau(   7) = (   0.0000000   0.5172566   2.1180887  )
         8           O0  tau(   8) = (   0.0000000   0.0000000   2.2452046  )
         9           Rh1 tau(   9) = (   0.2500000   0.0000000   2.4467796  )
        10           Rh1 tau(  10) = (   0.0000000   0.5172566   2.4248074  )
        11           O0  tau(  11) = (   0.2500000   0.7138141   2.4490746  )
        12           O0  tau(  12) = (   0.2500000   0.3206991   2.4494996  )
        13           O0  tau(  13) = (   0.0000000   0.0000000   2.6392597  )
        14           O0  tau(  14) = (   0.5000000   0.0000000   1.6071175  )
        15           O0  tau(  15) = (   0.5000000   0.5172566   1.7046963  )
        16           Rh1 tau(  16) = (   0.7500000   0.5172566   1.9233561  )
        17           Rh1 tau(  17) = (   0.5000000   0.0000000   1.9236961  )
        18           O0  tau(  18) = (   0.7500000   0.8379556   1.9222086  )
        19           O0  tau(  19) = (   0.7500000   0.1965575   1.9219111  )
        20           O0  tau(  20) = (   0.5000000   0.5172566   2.1234861  )
        21           O0  tau(  21) = (   0.5000000   0.0000000   2.2446521  )
        22           Rh1 tau(  22) = (   0.7500000   0.0000000   2.4466946  )
        23           Rh1 tau(  23) = (   0.5000000   0.5172566   2.4467371  )
        24           O0  tau(  24) = (   0.7500000   0.7138141   2.4449521  )
        25           O0  tau(  25) = (   0.7500000   0.3206991   2.4452921  )
        26           O0  tau(  26) = (   0.5000000   0.0000000   2.6379847  )
        27           H2  tau(  27) = (  -0.0000100   0.6596573   1.6332972  )
        28           H2  tau(  28) = (   0.4999400   0.6612505   1.6349547  )
        29           H2  tau(  29) = (   0.1484100   0.0351631   1.5627056  )
        30           H2  tau(  30) = (   0.6482100   0.0356700   1.5619406  )
        31           O0  tau(  31) = (   0.5154200   0.5168841   2.7565583  )
        32           H2  tau(  32) = (   0.3686900   0.5167083   2.8162275  )

     number of k points=    10  Methfessel-Paxton smearing, width (Ry)=  0.0100
                       cart. coord. in units 2pi/alat
        k(    1) = (   0.0000000   0.0000000   0.0000000), wk =   0.1250000
        k(    2) = (   0.0000000   0.2416596   0.0000000), wk =   0.2500000
        k(    3) = (   0.0000000  -0.4833191   0.0000000), wk =   0.1250000
        k(    4) = (   0.2500000   0.0000000   0.0000000), wk =   0.2500000
        k(    5) = (   0.2500000   0.2416596   0.0000000), wk =   0.2500000
        k(    6) = (   0.2500000  -0.4833191   0.0000000), wk =   0.2500000
        k(    7) = (  -0.5000000   0.0000000   0.0000000), wk =   0.1250000
        k(    8) = (  -0.5000000   0.2416596   0.0000000), wk =   0.2500000
        k(    9) = (  -0.5000000  -0.4833191   0.0000000), wk =   0.1250000
        k(   10) = (  -0.2500000   0.2416596   0.0000000), wk =   0.2500000

     Largest allocated arrays     est. size (Mb)     dimensions
     Largest temporary arrays     est. size (Mb)     dimensions

     Check: negative/imaginary core charge=   -0.000003    0.000000

     Initial potential from superposition of free atoms
     Check: negative starting charge=   -0.644969

     starting charge  234.99914, renormalised to  239.00000

     negative rho (up, down):  0.656E+00 0.000E+00
     Number of +U iterations with fixed ns =  0
     Starting occupations:
 --- enter write_ns ---
 LDA+U parameters:
U( 2)     =  4.50000000
alpha( 2) =  0.00000000
atom    3   Tr[ns(na)] =   7.00000
    eigenvalues:
  0.700  0.700  0.700  0.700  0.700
    eigenvectors:
  1.000  0.000  0.000  0.000  0.000
  0.000  1.000  0.000  0.000  0.000
  0.000  0.000  1.000  0.000  0.000
  0.000  0.000  0.000  1.000  0.000
  0.000  0.000  0.000  0.000  1.000
    occupations:
  0.700  0.000  0.000  0.000  0.000
  0.000  0.700  0.000  0.000  0.000
  0.000  0.000  0.700  0.000  0.000
  0.000  0.000  0.000  0.700  0.000
  0.000  0.000  0.000  0.000  0.700
atom    4   Tr[ns(na)] =   7.00000
    eigenvalues:
  0.700  0.700  0.700  0.700  0.700
    eigenvectors:
  1.000  0.000  0.000  0.000  0.000
  0.000  1.000  0.000  0.000  0.000
  0.000  0.000  1.000  0.000  0.000
  0.000  0.000  0.000  1.000  0.000
  0.000  0.000  0.000  0.000  1.000
    occupations:
  0.700  0.000  0.000  0.000  0.000
  0.000  0.700  0.000  0.000  0.000
  0.000  0.000  0.700  0.000  0.000
  0.000  0.000  0.000  0.700  0.000
  0.000  0.000  0.000  0.000  0.700
atom    9   Tr[ns(na)] =   7.00000
    eigenvalues:
  0.700  0.700  0.700  0.700  0.700
    eigenvectors:
  1.000  0.000  0.000  0.000  0.000
  0.000  1.000  0.000  0.000  0.000
  0.000  0.000  1.000  0.000  0.000
  0.000  0.000  0.000  1.000  0.000
  0.000  0.000  0.000  0.000  1.000
    occupations:
  0.700  0.000  0.000  0.000  0.000
  0.000  0.700  0.000  0.000  0.000
  0.000  0.000  0.700  0.000  0.000
  0.000  0.000  0.000  0.700  0.000
  0.000  0.000  0.000  0.000  0.700
atom   10   Tr[ns(na)] =   7.00000
    eigenvalues:
  0.700  0.700  0.700  0.700  0.700
    eigenvectors:
  1.000  0.000  0.000  0.000  0.000
  0.000  1.000  0.000  0.000  0.000
  0.000  0.000  1.000  0.000  0.000
  0.000  0.000  0.000  1.000  0.000
  0.000  0.000  0.000  0.000  1.000
    occupations:
  0.700  0.000  0.000  0.000  0.000
  0.000  0.700  0.000  0.000  0.000
  0.000  0.000  0.700  0.000  0.000
  0.000  0.000  0.000  0.700  0.000
  0.000  0.000  0.000  0.000  0.700
atom   16   Tr[ns(na)] =   7.00000
    eigenvalues:
  0.700  0.700  0.700  0.700  0.700
    eigenvectors:
  1.000  0.000  0.000  0.000  0.000
  0.000  1.000  0.000  0.000  0.000
  0.000  0.000  1.000  0.000  0.000
  0.000  0.000  0.000  1.000  0.000
  0.000  0.000  0.000  0.000  1.000
    occupations:
  0.700  0.000  0.000  0.000  0.000
  0.000  0.700  0.000  0.000  0.000
  0.000  0.000  0.700  0.000  0.000
  0.000  0.000  0.000  0.700  0.000
  0.000  0.000  0.000  0.000  0.700
atom   17   Tr[ns(na)] =   7.00000
    eigenvalues:
  0.700  0.700  0.700  0.700  0.700
    eigenvectors:
  1.000  0.000  0.000  0.000  0.000
  0.000  1.000  0.000  0.000  0.000
  0.000  0.000  1.000  0.000  0.000
  0.000  0.000  0.000  1.000  0.000
  0.000  0.000  0.000  0.000  1.000
    occupations:
  0.700  0.000  0.000  0.000  0.000
  0.000  0.700  0.000  0.000  0.000
  0.000  0.000  0.700  0.000  0.000
  0.000  0.000  0.000  0.700  0.000
  0.000  0.000  0.000  0.000  0.700
atom   22   Tr[ns(na)] =   7.00000
    eigenvalues:
  0.700  0.700  0.700  0.700  0.700
    eigenvectors:
  1.000  0.000  0.000  0.000  0.000
  0.000  1.000  0.000  0.000  0.000
  0.000  0.000  1.000  0.000  0.000
  0.000  0.000  0.000  1.000  0.000
[...]
  0.029  0.001 -0.000  0.976  0.000
  0.001 -0.001  0.001  0.000  0.599
atom    9   Tr[ns(na)] =   8.05873
    eigenvalues:
  0.636  0.644  0.867  0.903  0.979
    eigenvectors:
  0.003  0.150  0.000  0.000  0.848
  0.982  0.018  0.000  0.000  0.000
  0.000  0.000  0.994  0.006  0.000
  0.016  0.832  0.000  0.000  0.152
  0.000  0.000  0.006  0.994  0.000
    occupations:
  0.928  0.000 -0.000 -0.121 -0.000
  0.000  0.636  0.001  0.001 -0.000
 -0.000  0.001  0.868 -0.000 -0.003
 -0.121  0.001 -0.000  0.695  0.001
 -0.000 -0.000 -0.003  0.001  0.902
atom   10   Tr[ns(na)] =   8.05142
    eigenvalues:
  0.593  0.597  0.926  0.930  0.979
    eigenvectors:
  0.000  0.992  0.000  0.000  0.008
  0.000  0.000  1.000  0.000  0.000
  0.000  0.000  0.000  1.000  0.000
  0.000  0.008  0.000  0.000  0.992
  1.000  0.000  0.000  0.000  0.000
    occupations:
  0.600 -0.003  0.001  0.034 -0.000
 -0.003  0.926  0.000  0.000 -0.000
  0.001  0.000  0.930  0.000  0.003
  0.034  0.000  0.000  0.976  0.000
 -0.000 -0.000  0.003  0.000  0.593
atom   16   Tr[ns(na)] =   8.06162
    eigenvalues:
  0.582  0.604  0.904  0.964  0.978
    eigenvectors:
  0.008  0.193  0.003  0.001  0.796
  0.971  0.029  0.000  0.000  0.000
  0.000  0.000  0.971  0.027  0.002
  0.021  0.778  0.000  0.000  0.200
  0.000  0.000  0.026  0.972  0.001
    occupations:
  0.902  0.006  0.002 -0.150  0.001
  0.006  0.583  0.001  0.001 -0.006
  0.002  0.001  0.905 -0.004 -0.009
 -0.150  0.001 -0.004  0.678  0.000
  0.001 -0.006 -0.009  0.000  0.962
atom   17   Tr[ns(na)] =   8.06181
    eigenvalues:
  0.598  0.648  0.880  0.925  0.979
    eigenvectors:
  0.001  0.991  0.000  0.000  0.008
  0.000  0.000  0.083  0.917  0.000
  0.000  0.000  0.917  0.083  0.000
  0.000  0.008  0.000  0.000  0.992
  0.999  0.001  0.000  0.000  0.000
    occupations:
  0.651 -0.004 -0.001  0.029  0.001
 -0.004  0.922  0.012  0.001 -0.001
 -0.001  0.012  0.884 -0.000  0.001
  0.029  0.001 -0.000  0.976  0.000
  0.001 -0.001  0.001  0.000  0.598
atom   22   Tr[ns(na)] =   8.05543
    eigenvalues:
  0.637  0.645  0.860  0.906  0.980
    eigenvectors:
  0.000  0.151  0.000  0.000  0.849
  0.999  0.001  0.000  0.000  0.000
  0.000  0.000  0.995  0.005  0.000
  0.001  0.848  0.000  0.000  0.151
  0.000  0.000  0.005  0.995  0.000
    occupations:
  0.929  0.001 -0.000 -0.120 -0.000
  0.001  0.637  0.001 -0.001 -0.000
 -0.000  0.001  0.860 -0.000  0.003
 -0.120 -0.001 -0.000  0.696  0.001
 -0.000 -0.000  0.003  0.001  0.906
atom   23   Tr[ns(na)] =   8.05057
    eigenvalues:
  0.604  0.652  0.857  0.933  0.978
    eigenvectors:
  0.000  0.991  0.000  0.000  0.008
  0.000  0.000  0.000  0.999  0.000
  0.000  0.000  1.000  0.000  0.000
  0.000  0.008  0.000  0.000  0.991
  1.000  0.000  0.000  0.000  0.000
    occupations:
  0.655  0.006 -0.000  0.030 -0.000
  0.006  0.933 -0.000 -0.000 -0.000
 -0.000 -0.000  0.857  0.000 -0.002
  0.030 -0.000  0.000  0.975  0.000
 -0.000 -0.000 -0.002  0.000  0.604
N of occupied +U levels =  64.4631170
 --- exit write_ns ---

     Threshold (ethr) on eigenvalues was too large:
     Diagonalizing with lowered threshold

     Davidson diagonalization with overlap
     ethr =  2.62E-08,  avg # of iterations =  3.0

[...]

     total energy              =   -1979.82754076 Ry
     Harris-Foulkes estimate   =   -1979.82754079 Ry
     estimated scf accuracy    <       0.00000026 Ry

     iteration # 15     ecut=    40.00 Ry     beta=0.70
     Davidson diagonalization with overlap
     ethr =  3.61E-11,  avg # of iterations =  1.0

     negative rho (up, down):  0.691E+00 0.000E+00

     End of self-consistent calculation
 --- enter write_ns ---
 LDA+U parameters:
U( 2)     =  4.50000000
alpha( 2) =  0.00000000
atom    3   Tr[ns(na)] =   8.06085
    eigenvalues:
  0.582  0.603  0.904  0.964  0.978
    eigenvectors:
  0.007  0.194  0.003  0.001  0.796
  0.974  0.026  0.000  0.000  0.000
  0.000  0.000  0.966  0.032  0.002
  0.019  0.781  0.000  0.000  0.200
  0.000  0.000  0.032  0.967  0.001
    occupations:
  0.902 -0.006  0.002 -0.150 -0.002
 -0.006  0.582 -0.002 -0.001 -0.006
  0.002 -0.002  0.906 -0.004  0.010
 -0.150 -0.001 -0.004  0.678 -0.001
 -0.002 -0.006  0.010 -0.001  0.962
atom    4   Tr[ns(na)] =   8.06110
    eigenvalues:
  0.599  0.649  0.877  0.926  0.979
    eigenvectors:
  0.001  0.991  0.000  0.000  0.008
  0.000  0.000  0.055  0.944  0.000
  0.000  0.000  0.945  0.055  0.000
  0.000  0.008  0.000  0.000  0.992
  0.999  0.001  0.000  0.000  0.000
    occupations:
  0.652 -0.004 -0.001  0.029  0.001
 -0.004  0.924  0.011  0.001 -0.001
 -0.001  0.011  0.880 -0.000  0.001
  0.029  0.001 -0.000  0.976  0.000
  0.001 -0.001  0.001  0.000  0.599
atom    9   Tr[ns(na)] =   8.05903
    eigenvalues:
  0.636  0.644  0.868  0.903  0.979
    eigenvectors:
  0.003  0.150  0.000  0.000  0.848
  0.982  0.018  0.000  0.000  0.000
  0.000  0.000  0.994  0.006  0.000
  0.015  0.832  0.000  0.000  0.152
  0.000  0.000  0.006  0.994  0.000
    occupations:
  0.928  0.000 -0.000 -0.121 -0.000
  0.000  0.636  0.001  0.001 -0.000
 -0.000  0.001  0.868 -0.000 -0.003
 -0.121  0.001 -0.000  0.695  0.001
 -0.000 -0.000 -0.003  0.001  0.903
atom   10   Tr[ns(na)] =   8.05203
    eigenvalues:
  0.593  0.597  0.926  0.930  0.979
    eigenvectors:
  0.000  0.992  0.000  0.000  0.008
  0.000  0.000  1.000  0.000  0.000
  0.000  0.000  0.000  1.000  0.000
  0.000  0.008  0.000  0.000  0.992
  1.000  0.000  0.000  0.000  0.000
    occupations:
  0.600 -0.003  0.001  0.034 -0.000
 -0.003  0.926  0.000  0.000 -0.000
  0.001  0.000  0.930  0.000  0.003
  0.034  0.000  0.000  0.976  0.000
 -0.000 -0.000  0.003  0.000  0.593
atom   16   Tr[ns(na)] =   8.06073
    eigenvalues:
  0.582  0.604  0.904  0.963  0.978
    eigenvectors:
  0.008  0.193  0.003  0.001  0.796
  0.971  0.029  0.000  0.000  0.000
  0.000  0.000  0.972  0.026  0.002
  0.021  0.778  0.000  0.000  0.200
  0.000  0.000  0.026  0.973  0.001
    occupations:
  0.902  0.006  0.002 -0.150  0.001
  0.006  0.583  0.001  0.001 -0.006
  0.002  0.001  0.905 -0.004 -0.009
 -0.150  0.001 -0.004  0.678  0.000
  0.001 -0.006 -0.009  0.000  0.962
atom   17   Tr[ns(na)] =   8.06114
    eigenvalues:
  0.598  0.648  0.880  0.925  0.979
    eigenvectors:
  0.001  0.991  0.000  0.000  0.008
  0.000  0.000  0.083  0.917  0.000
  0.000  0.000  0.917  0.083  0.000
  0.000  0.008  0.000  0.000  0.992
  0.999  0.001  0.000  0.000  0.000
    occupations:
  0.651 -0.004 -0.001  0.029  0.001
 -0.004  0.921  0.012  0.001 -0.001
 -0.001  0.012  0.884 -0.000  0.001
  0.029  0.001 -0.000  0.976  0.000
  0.001 -0.001  0.001  0.000  0.598
atom   22   Tr[ns(na)] =   8.05565
    eigenvalues:
  0.637  0.645  0.860  0.906  0.980
    eigenvectors:
  0.000  0.151  0.000  0.000  0.849
  0.999  0.001  0.000  0.000  0.000
  0.000  0.000  0.995  0.005  0.000
  0.001  0.848  0.000  0.000  0.151
  0.000  0.000  0.005  0.995  0.000
    occupations:
  0.929  0.001 -0.000 -0.120 -0.000
  0.001  0.637  0.001 -0.001 -0.000
 -0.000  0.001  0.860 -0.000  0.003
 -0.120 -0.001 -0.000  0.696  0.001
 -0.000 -0.000  0.003  0.001  0.906
atom   23   Tr[ns(na)] =   8.05237
    eigenvalues:
  0.604  0.652  0.858  0.933  0.978
    eigenvectors:
  0.000  0.991  0.000  0.000  0.008
  0.000  0.000  0.000  0.999  0.000
  0.000  0.000  1.000  0.000  0.000
  0.000  0.008  0.000  0.000  0.991
  1.000  0.000  0.000  0.000  0.000
    occupations:
  0.655  0.006 -0.000  0.030 -0.000
  0.006  0.933 -0.000 -0.000 -0.000
 -0.000 -0.000  0.858  0.000 -0.002
  0.030 -0.000  0.000  0.975  0.000
 -0.000 -0.000 -0.002  0.000  0.604
N of occupied +U levels =  64.4628924
 --- exit write_ns ---

[...]

          k = 0.2500-0.4833 0.0000 ( 30510 PWs)   bands (ev):

[...]

          k =-0.2500 0.2417 0.0000 ( 30481 PWs)   bands (ev):

   -48.8661 -48.8146 -48.7837 -48.7573 -48.7492 -48.7405 -48.7374 -48.7017
   -48.6893 -48.6723 -48.6616 -48.6523 -48.5706 -48.5661 -48.5400 -48.4387
   -48.4326 -48.4174 -48.4048 -48.3802 -48.3485 -48.3403 -48.3380 -48.3168
   -21.3171 -21.0369 -20.9439 -20.8266 -20.5336 -20.4354 -20.3930 -20.3584
   -20.2936 -20.1791 -20.0966 -20.0647 -20.0271 -20.0152 -19.8429 -19.8101
   -19.7876 -19.0687 -18.9313  -9.9604  -9.9071  -9.7667  -9.5281  -9.2963
    -9.1824  -9.1554  -9.0802  -8.7775  -8.7072  -8.6899  -8.5803  -8.5201
    -8.4913  -8.3211  -8.1861  -8.0361  -8.0184  -7.7658  -7.6099  -7.4656
    -7.4038  -7.3277  -7.1567  -7.1255  -7.0144  -6.9495  -6.7935  -6.5754
    -6.5541  -6.5006  -6.4596  -6.3587  -6.2976  -6.2409  -6.1221  -6.0583
    -5.9844  -5.9308  -5.8546  -5.7589  -5.6426  -5.4734  -5.2839  -5.1051
    -5.0399  -4.9248  -4.8071  -4.6920  -4.6656  -4.5426  -4.3411  -4.2979
    -4.1755  -4.1389  -4.0444  -3.9791  -3.8231  -3.7282  -3.6204  -3.5734
    -3.5118  -3.4120  -3.3569  -3.3108  -3.2795  -3.2478  -3.1419  -3.0820
    -3.0383  -2.9152  -2.5943  -2.3993  -2.2997  -2.1243  -1.9903  -1.9546
    -1.9269  -1.7449  -1.6447  -1.5489  -0.8004  -0.2458  -0.1691   0.1273
     0.4148   0.6594   0.9308   1.1336   1.4166   1.4822   1.6428   1.6881
     1.8016   1.9035   1.9812   2.3256   3.6917   3.8857   4.5755   4.9653
     5.3571   5.5106   5.5649   5.8655   6.1303   6.3449   6.4585   6.4763
     6.5295   6.7709   6.8726   7.0763   7.2612   7.4466   7.5547   7.7071
     7.8839   7.9766   8.0752   8.1780   8.2521   8.3292   8.4508   8.5581
     8.7291   8.8522   8.9425   8.9899   9.1029   9.2451   9.4573   9.5795
     9.6409   9.7377   9.8183   9.9125   9.9504  10.0038  10.1916  10.2246
    10.3427  10.3664  10.4379  10.5954  10.6997  10.7393  10.8436  10.9551
    11.0455  11.0965  11.2169  11.2426  11.3515  11.4257  11.4998  11.5492
    11.5929  11.6988  11.7948  11.8462  11.9001  12.0277  12.1686  12.1978
    12.2498  12.2893  12.3816  12.4584  12.5014  12.5408  12.6429  12.6996
    12.7844  12.8332  12.9260  12.9997  13.1371  13.1831  13.2601  13.2906
    13.3995  13.4713  13.5362  13.5724  13.7477  13.7940  13.8649  13.9500
    14.0360  14.0592  14.1730  14.2441  14.2947  14.3321  14.4162  14.4744
    14.6015  14.6773  14.7201  14.8175  14.9907  15.0694  15.2139  15.3357
    15.3686  15.4048  15.4932  15.5411  15.5881  15.6078  15.7008  15.7841
    15.8141  15.8594  15.9137  16.0334  16.0921  16.1456  16.1880  16.3145
    16.3793  16.4200  16.4692  16.5010  16.5406  16.5847  16.6409  16.7373
    16.7921  16.8830  16.9511  17.0308  17.0890  17.1963  17.2298  17.2552
    17.3574  17.3995  17.4682  17.5217  17.5857  17.6544  17.7418  17.8315
    17.8867  17.9569  18.0241  18.0785  18.1007  18.2293  18.2895  18.3256
    18.4468  18.5237  18.5987  18.6678  18.7461  18.8195  18.8667  18.9306
    18.9779  19.0355  19.1357  19.1558  19.2577  19.2850  19.3500  19.4690
    19.5343  19.6219  19.6580  19.7596  19.7933  19.9044  19.9579  20.0514
    20.1685  20.2188  20.3121  20.3875  20.4936  20.5490  20.6096  20.6627
    20.7396  20.7901  20.8535  20.9220  20.9645  21.0779  21.1652  21.1888
    21.2386  21.2863  21.3348  21.3956  21.4529  21.4889  21.5536  21.6647
    21.7189  21.7877  21.8215  21.8601  21.9525  21.9891  22.0750  22.1259
    22.2306  22.2694  22.3715  22.4140  22.5012  22.5792

     the Fermi energy is    -1.9870 ev

!    total energy              =   -1979.82754077 Ry
     Harris-Foulkes estimate   =   -1979.82754078 Ry
     estimated scf accuracy    <          1.0E-08 Ry

     The total energy is the sum of the following terms:

     one-electron contribution =  -23365.80138452 Ry
     hartree contribution      =   11732.95411147 Ry
     xc contribution           =    -373.00843950 Ry
     ewald contribution        =   10024.29087268 Ry
     Hubbard energy            =       1.73897868 Ry
     smearing contrib. (-TS)   =      -0.00167959 Ry

     convergence has been achieved in  15 iterations

     Forces acting on atoms (Ry/au):

     negative rho (up, down):  0.691E+00 0.000E+00
     atom    1 type  1   force =    -0.00677094   -0.01237281    0.00013547
     atom    2 type  1   force =     0.00032759    0.00327215   -0.00050417
     atom    3 type  2   force =     0.03029986    0.00796365    0.00026545
     atom    4 type  2   force =     0.00817933    0.00885523    0.00000071
     atom    5 type  1   force =    -0.00351309   -0.02860461   -0.00009874
     atom    6 type  1   force =     0.00291518    0.02501876    0.00000199
     atom    7 type  1   force =     0.00200087   -0.00172218   -0.00020083
     atom    8 type  1   force =    -0.00155350   -0.00094236   -0.00027319
     atom    9 type  2   force =     0.00382845   -0.00012996   -0.00004054
     atom   10 type  2   force =    -0.00622649   -0.00144976    0.00006829
     atom   11 type  1   force =    -0.00904588    0.01405597    0.00015275
     atom   12 type  1   force =    -0.00927173   -0.01394720    0.00013184
     atom   13 type  1   force =    -0.00118624   -0.00002820   -0.00015777
     atom   14 type  1   force =    -0.00672693   -0.01262021    0.00013276
     atom   15 type  1   force =     0.00025691    0.00353620   -0.00038713
     atom   16 type  2   force =    -0.03133528    0.00655165    0.00026254
     atom   17 type  2   force =     0.00828653    0.00898238    0.00013520
     atom   18 type  1   force =    -0.00151336   -0.02836838   -0.00008185
     atom   19 type  1   force =     0.00443443    0.02588357    0.00000337
     atom   20 type  1   force =    -0.00169202   -0.00508794    0.00047318
     atom   21 type  1   force =    -0.00403128   -0.00058366   -0.00027466
     atom   22 type  2   force =    -0.00061662    0.00061360   -0.00010336
     atom   23 type  2   force =     0.00274557    0.00039608    0.00024679
     atom   24 type  1   force =     0.00966563    0.01913626   -0.00008085
     atom   25 type  1   force =     0.01067476   -0.01942059   -0.00009932
     atom   26 type  1   force =    -0.00076812   -0.00017409    0.00017184
     atom   27 type  3   force =    -0.00000138    0.00049116    0.00010293
     atom   28 type  3   force =     0.00001250    0.00050177    0.00024943
     atom   29 type  3   force =    -0.00006119    0.00011792    0.00004090
     atom   30 type  3   force =    -0.00012689    0.00024752   -0.00007120
     atom   31 type  1   force =     0.00065492   -0.00009435   -0.00030084
     atom   32 type  3   force =     0.00015841   -0.00007755    0.00009902

     Total force =     0.001567     Total SCF correction =     0.000278
     SCF correction compared to forces is large: reduce conv_thr to get better values

     bfgs converged in  10 scf cycles and   9 bfgs steps
     (criteria: energy < 0.10E-03, force < 0.10E-02)

     End of BFGS Geometry Optimization

     Final energy   =   -1979.8275407674 Ry
Begin final coordinates

ATOMIC_POSITIONS (crystal)
O0       0.000000000   0.000000000   0.378487856    0   0   1
O0       0.000000000   0.500000000   0.402111672    0   0   1
Rh1      0.250000000   0.500000000   0.452776872    0   0   1
Rh1      0.000000000   0.000000000   0.452758000    0   0   1
O0       0.250000000   0.810000000   0.452436496    0   0   1
O0       0.250000000   0.190000000   0.452233860    0   0   1
O0       0.000000000   0.500000000   0.499198087    0   0   1
O0       0.000000000   0.000000000   0.528148208    0   0   1
Rh1      0.250000000   0.000000000   0.575443673    0   0   1
Rh1      0.000000000   0.500000000   0.570770378    0   0   1
O0       0.250000000   0.690000000   0.575860555    0   0   1
O0       0.250000000   0.310000000   0.575929532    0   0   1
O0       0.000000000   0.000000000   0.620818640    0   0   1
O0       0.500000000   0.000000000   0.378204448    0   0   1
O0       0.500000000   0.500000000   0.401655608    0   0   1
Rh1      0.750000000   0.500000000   0.452772877    0   0   1
Rh1      0.500000000   0.000000000   0.452451516    0   0   1
O0       0.750000000   0.810000000   0.452440896    0   0   1
O0       0.750000000   0.190000000   0.452242704    0   0   1
O0       0.500000000   0.500000000   0.500097346    0   0   1
O0       0.500000000   0.000000000   0.528029026    0   0   1
Rh1      0.750000000   0.000000000   0.575379148    0   0   1
Rh1      0.500000000   0.500000000   0.575245207    0   0   1
O0       0.750000000   0.690000000   0.574810992    0   0   1
O0       0.750000000   0.310000000   0.574872705    0   0   1
O0       0.500000000   0.000000000   0.620630186    0   0   1
H2      -0.000161461   0.636209060   0.384535842
H2       0.499824940   0.638254384   0.385000991
H2       0.148181052   0.034426813   0.367775774
H2       0.648009689   0.035302199   0.367540067
O0       0.516667404   0.499338678   0.648036640
H2       0.370546719   0.499327778   0.662424197
End final coordinates

     General routines

     Parallel routines
     Hubbard U routines

   This run was terminated on:   8:20: 1   1May2014

   JOB DONE.