     Program PWSCF v.5.0.2 (svn rev. 9656) starts on 23Jan2014 at 20:46:31

     Current dimensions of program PWSCF are:
     Max number of different atomic species (ntypx) = 10
     Max number of k-points (npk) =  40000
     Max angular momentum in pseudopotentials (lmaxx) =  3
     Reading input from CrO2-v-0.8.in

     Subspace diagonalization in iterative solution of the eigenvalue problem:
     a serial algorithm will be used

     bravais-lattice index     =            0
     lattice parameter (alat)  =       8.0383  a.u.
     unit-cell volume          =     334.7174 (a.u.)^3
     number of atoms/cell      =            6
     number of atomic types    =            2
     number of electrons       =        52.00
     number of Kohn-Sham states=           75
     kinetic-energy cutoff     =      40.0000  Ry
     charge density cutoff     =     500.0000  Ry
     convergence threshold     =      1.0E-06
     mixing beta               =       0.7000
     number of iterations used =            8  plain     mixing
     Exchange-correlation      = SLA  PW   PBE  PBE ( 1 4 3 4 0)
     EXX-fraction              =        0.00
     nstep                     =           50

     celldm(1)=   8.038301  celldm(2)=   0.000000  celldm(3)=   0.000000
     celldm(4)=   0.000000  celldm(5)=   0.000000  celldm(6)=   0.000000

     crystal axes: (cart. coord. in units of alat)
               a(1) = (   1.000000   0.000000   0.000000 )
               a(2) = (   0.000000   1.000000   0.000000 )
               a(3) = (   0.000000   0.000000   0.644444 )

     reciprocal axes: (cart. coord. in units 2 pi/alat)
               b(1) = (  1.000000  0.000000  0.000000 )
               b(2) = (  0.000000  1.000000  0.000000 )
               b(3) = (  0.000000  0.000000  1.551724 )

     PseudoPot. # 1 for Cr read from file:
     /home/camp/zhonxu/pseudo/cr_pbe_v1.uspp.F.UPF
     MD5 check sum: 68b6f918d1762dccfb11451fe85b0e0e
     Pseudo is Ultrasoft + core correction, Zval = 14.0
     Generated by new atomic code, or converted to UPF format
     Using radial grid of  857 points,  6 beta functions with:
                l(1) =   0
                l(2) =   0
                l(3) =   1
                l(4) =   1
                l(5) =   2
                l(6) =   2
     Q(r) pseudized with  6 coefficients,  rinner =    1.000   1.000   1.000
                                                       1.000   1.000

     PseudoPot. # 2 for O  read from file:
     /home/camp/zhonxu/pseudo/o_pbe_v1.01.uspp.F.UPF
     MD5 check sum: 2bcb18d16ea4b960afae9ec6d52f22d2
     Pseudo is Ultrasoft + core correction, Zval =  6.0
     Generated by new atomic code, or converted to UPF format
     Using radial grid of  737 points,  5 beta functions with:
                l(1) =   0
                l(2) =   0
                l(3) =   1
                l(4) =   1
                l(5) =   2
     Q(r) pseudized with  8 coefficients,  rinner =    0.900   0.900   0.900
                                                       0.900   0.900

     atomic species   valence    mass     pseudopotential
        Cr0           14.00    51.99600     Cr( 1.00)
        O1             6.00    15.99940     O ( 1.00)

     Starting magnetic structure
     atomic species   magnetization
        Cr0          0.600
        O1           0.000

     16 Sym. Ops., with inversion, found ( 8 have fractional translation)

   Cartesian axes

     site n.     atom                  positions (alat units)
         1           Cr0 tau(   1) = (   0.0000000   0.0000000   0.0000000  )
         2           Cr0 tau(   2) = (   0.5000000   0.5000000   0.3222222  )
         3           O1  tau(   3) = (   0.3050000   0.3050000   0.0000000  )
         4           O1  tau(   4) = (  -0.3050000  -0.3050000   0.0000000  )
         5           O1  tau(   5) = (   0.8050000   0.1950000   0.3222222  )
         6           O1  tau(   6) = (   0.1950000   0.8050000   0.3222222  )

     number of k points=    36  Methfessel-Paxton smearing, width (Ry)=  0.0100
                       cart. coord. in units 2pi/alat
        k(    1) = (   0.0000000   0.0000000   0.0000000), wk =   0.0080000
        k(    2) = (   0.0000000   0.0000000   0.3103448), wk =   0.0160000
        k(    3) = (   0.0000000   0.0000000   0.6206897), wk =   0.0160000
        k(    4) = (   0.0000000   0.2000000   0.0000000), wk =   0.0320000
        k(    5) = (   0.0000000   0.2000000   0.3103448), wk =   0.0640000
        k(    6) = (   0.0000000   0.2000000   0.6206897), wk =   0.0640000
        k(    7) = (   0.0000000   0.4000000   0.0000000), wk =   0.0320000
        k(    8) = (   0.0000000   0.4000000   0.3103448), wk =   0.0640000
        k(    9) = (   0.0000000   0.4000000   0.6206897), wk =   0.0640000
        k(   10) = (   0.2000000   0.2000000   0.0000000), wk =   0.0320000
        k(   11) = (   0.2000000   0.2000000   0.3103448), wk =   0.0640000
        k(   12) = (   0.2000000   0.2000000   0.6206897), wk =   0.0640000
        k(   13) = (   0.2000000   0.4000000   0.0000000), wk =   0.0640000
        k(   14) = (   0.2000000   0.4000000   0.3103448), wk =   0.1280000
        k(   15) = (   0.2000000   0.4000000   0.6206897), wk =   0.1280000
        k(   16) = (   0.4000000   0.4000000   0.0000000), wk =   0.0320000
        k(   17) = (   0.4000000   0.4000000   0.3103448), wk =   0.0640000
        k(   18) = (   0.4000000   0.4000000   0.6206897), wk =   0.0640000
        k(   19) = (   0.0000000   0.0000000   0.0000000), wk =   0.0080000
        k(   20) = (   0.0000000   0.0000000   0.3103448), wk =   0.0160000
        k(   21) = (   0.0000000   0.0000000   0.6206897), wk =   0.0160000
        k(   22) = (   0.0000000   0.2000000   0.0000000), wk =   0.0320000
        k(   23) = (   0.0000000   0.2000000   0.3103448), wk =   0.0640000
        k(   24) = (   0.0000000   0.2000000   0.6206897), wk =   0.0640000
        k(   25) = (   0.0000000   0.4000000   0.0000000), wk =   0.0320000
        k(   26) = (   0.0000000   0.4000000   0.3103448), wk =   0.0640000
        k(   27) = (   0.0000000   0.4000000   0.6206897), wk =   0.0640000
        k(   28) = (   0.2000000   0.2000000   0.0000000), wk =   0.0320000
        k(   29) = (   0.2000000   0.2000000   0.3103448), wk =   0.0640000
        k(   30) = (   0.2000000   0.2000000   0.6206897), wk =   0.0640000
        k(   31) = (   0.2000000   0.4000000   0.0000000), wk =   0.0640000
        k(   32) = (   0.2000000   0.4000000   0.3103448), wk =   0.1280000
        k(   33) = (   0.2000000   0.4000000   0.6206897), wk =   0.1280000
        k(   34) = (   0.4000000   0.4000000   0.0000000), wk =   0.0320000
        k(   35) = (   0.4000000   0.4000000   0.3103448), wk =   0.0640000
        k(   36) = (   0.4000000   0.4000000   0.6206897), wk =   0.0640000

     Largest allocated arrays     est. size (Mb)     dimensions
     Largest temporary arrays     est. size (Mb)     dimensions

     Check: negative/imaginary core charge=   -0.000035    0.000000

     Initial potential from superposition of free atoms

     starting charge   49.99997, renormalised to   52.00000
     Starting wfc are   36 randomized atomic wfcs

     Self-consistent Calculation

     iteration #  1     ecut=    40.00 Ry     beta=0.70
     Davidson diagonalization with overlap
     ethr =  1.00E-02,  avg # of iterations =  5.1

     total energy              =    -480.08938470 Ry
     Harris-Foulkes estimate   =    -480.10557114 Ry
     estimated scf accuracy    <       3.02165765 Ry

     total magnetization       =     4.00 Bohr mag/cell
     absolute magnetization    =     5.62 Bohr mag/cell

[...]

     End of self-consistent calculation

 ------ SPIN UP ------------

          k = 0.0000 0.0000 0.0000 (  1447 PWs)   bands (ev):

   -60.0306 -60.0197 -31.4654 -31.4654 -31.3402 -31.3402 -31.2588 -31.2297
    -7.5796  -5.5693  -4.7968  -4.7968   4.6492   5.2243   5.5958   7.1086
     7.1086   8.7869   8.7869   9.5924  11.4705  11.7917  11.8039  11.8368
    11.8368  12.3861  12.3861  12.3991  12.8687  15.1112  15.1964  18.2031
    18.2031  19.1442  21.9772  25.1276  25.1276  28.3950  28.7570  30.1012
    33.2700  33.5460  33.8985  33.8985  34.7802  38.4467  38.8397  38.8397
    39.2919  40.6896  40.6896  41.0660  41.0660  41.1795  41.3965  43.6747
    46.7258  46.8612  49.0882  49.0882  49.3285  49.9460  49.9460  50.1972
    52.8391  54.2366  54.4697  54.4697  56.3314  56.9542  56.9542  58.2667
    59.5904  59.6589  61.4334

[...]

 ------ SPIN DOWN ----------

[...]

     the Fermi energy is    13.6674 ev

!    total energy              =    -481.07651401 Ry
     Harris-Foulkes estimate   =    -481.07651386 Ry
     estimated scf accuracy    <       0.00000059 Ry

     The total energy is the sum of the following terms:

     one-electron contribution =    -182.09848889 Ry
     hartree contribution      =     122.18448363 Ry
     xc contribution           =     -75.12155462 Ry
     ewald contribution        =    -346.04049841 Ry
     smearing contrib. (-TS)   =      -0.00045571 Ry

[...]

     convergence has been achieved in   8 iterations

     Forces acting on atoms (Ry/au):

     atom    1 type  1   force =     0.00000000    0.00000000    0.00000000
     atom    2 type  1   force =     0.00000000    0.00000000   -0.00000000
     atom    3 type  2   force =    -0.03183995   -0.03183995    0.00000000
     atom    4 type  2   force =     0.03183995    0.03183995   -0.00000000
     atom    5 type  2   force =    -0.03183995    0.03183995    0.00000000
     atom    6 type  2   force =     0.03183995   -0.03183995   -0.00000000

     Total force =     0.090057     Total SCF correction =     0.000112

     entering subroutine stress ...

          total   stress  (Ry/bohr**3)                   (kbar)     P=  533.38
   0.00317631   0.00000000   0.00000000        467.25      0.00      0.00
   0.00000000   0.00317631   0.00000000          0.00    467.25      0.00
   0.00000000   0.00000000   0.00452491          0.00      0.00    665.64

     Volume is kept fixed: isostatic pressure set to zero

     BFGS Geometry Optimization

     number of scf cycles    =   1
     number of bfgs steps    =   0

     enthalpy new            =    -481.0765140070 Ry

     new trust radius        =       0.0822434130 bohr
     new conv_thr            =       0.0000010000 Ry

     new unit-cell volume =    334.71740 a.u.^3 (    49.60000 Ang^3 )

CELL_PARAMETERS (alat=  8.03830103)
   0.988885641   0.000000000   0.000000000
   0.000000000   0.988885641   0.000000000
   0.000000000   0.000000000   0.659012030

ATOMIC_POSITIONS (crystal)
Cr0      0.000000000   0.000000000   0.000000000    0   0   0
Cr0      0.500000000   0.500000000   0.500000000    0   0   0
O1       0.301038970   0.301038970   0.000000000    1   1   0
O1      -0.301038970  -0.301038970   0.000000000    1   1   0
O1       0.801038970   0.198961030   0.500000000    1   1   0
O1       0.198961030   0.801038970   0.500000000    1   1   0

     NEW-OLD atomic charge density approx. for the potential
     NEW k-points:
        k(    1) = (   0.0000000   0.0000000   0.0000000), wk =   0.0080000
[...]
        k(   18) = (   0.4044957   0.4044957   0.6069692), wk =   0.0640000
        k(   19) = (   0.0000000   0.0000000   0.0000000), wk =   0.0080000
        k(   20) = (   0.0000000   0.0000000   0.3034846), wk =   0.0160000
        k(   21) = (   0.0000000   0.0000000   0.6069692), wk =   0.0160000
        k(   22) = (   0.0000000   0.2022479   0.0000000), wk =   0.0320000
        k(   23) = (   0.0000000   0.2022479   0.3034846), wk =   0.0640000
        k(   24) = (   0.0000000   0.2022479   0.6069692), wk =   0.0640000
        k(   25) = (   0.0000000   0.4044957   0.0000000), wk =   0.0320000
        k(   26) = (   0.0000000   0.4044957   0.3034846), wk =   0.0640000
        k(   27) = (   0.0000000   0.4044957   0.6069692), wk =   0.0640000
        k(   28) = (   0.2022479   0.2022479   0.0000000), wk =   0.0320000
        k(   29) = (   0.2022479   0.2022479   0.3034846), wk =   0.0640000
        k(   30) = (   0.2022479   0.2022479   0.6069692), wk =   0.0640000
        k(   31) = (   0.2022479   0.4044957   0.0000000), wk =   0.0640000
        k(   32) = (   0.2022479   0.4044957   0.3034846), wk =   0.1280000
        k(   33) = (   0.2022479   0.4044957   0.6069692), wk =   0.1280000
        k(   34) = (   0.4044957   0.4044957   0.0000000), wk =   0.0320000
        k(   35) = (   0.4044957   0.4044957   0.3034846), wk =   0.0640000
        k(   36) = (   0.4044957   0.4044957   0.6069692), wk =   0.0640000

[...]

     enthalpy old            =    -481.0765140070 Ry
     enthalpy new            =    -481.0860102435 Ry

     CASE: enthalpy_new < enthalpy_old

[...]

     Threshold (ethr) on eigenvalues was too large:
     Diagonalizing with lowered threshold

     Davidson diagonalization with overlap
     ethr =  8.83E-09,  avg # of iterations =  1.6

[...]

     number of scf cycles    =   3
     number of bfgs steps    =   2

     enthalpy old            =    -481.0860102435 Ry
     enthalpy new            =    -481.0860728705 Ry

     CASE: enthalpy_new < enthalpy_old

     new trust radius        =       0.0068884241 bohr
     new conv_thr            =       0.0000000100 Ry

     new unit-cell volume =    334.71740 a.u.^3 (    49.60000 Ang^3 )

[...]

ATOMIC_POSITIONS (crystal)
Cr0      0.000000000   0.000000000   0.000000000    0   0   0
Cr0      0.500000000   0.500000000   0.500000000    0   0   0
O1       0.301377670   0.301377670   0.000000000    1   1   0
O1      -0.301377670  -0.301377670   0.000000000    1   1   0
O1       0.801377670   0.198622330   0.500000000    1   1   0
O1       0.198622330   0.801377670   0.500000000    1   1   0

     NEW-OLD atomic charge density approx. for the potential
     NEW k-points:
        k(    1) = (   0.0000000   0.0000000   0.0000000), wk =   0.0080000
        k(    2) = (   0.0000000   0.0000000   0.3022786), wk =   0.0160000
        k(    3) = (   0.0000000   0.0000000   0.6045571), wk =   0.0160000
        k(    4) = (   0.0000000   0.2026509   0.0000000), wk =   0.0320000
        k(    5) = (   0.0000000   0.2026509   0.3022786), wk =   0.0640000
        k(    6) = (   0.0000000   0.2026509   0.6045571), wk =   0.0640000
        k(    7) = (   0.0000000   0.4053018   0.0000000), wk =   0.0320000
        k(    8) = (   0.0000000   0.4053018   0.3022786), wk =   0.0640000
        k(    9) = (   0.0000000   0.4053018   0.6045571), wk =   0.0640000
        k(   10) = (   0.2026509   0.2026509   0.0000000), wk =   0.0320000
        k(   11) = (   0.2026509   0.2026509   0.3022786), wk =   0.0640000
        k(   12) = (   0.2026509   0.2026509   0.6045571), wk =   0.0640000
        k(   13) = (   0.2026509   0.4053018   0.0000000), wk =   0.0640000
        k(   14) = (   0.2026509   0.4053018   0.3022786), wk =   0.1280000
        k(   15) = (   0.2026509   0.4053018   0.6045571), wk =   0.1280000
        k(   16) = (   0.4053018   0.4053018   0.0000000), wk =   0.0320000
        k(   17) = (   0.4053018   0.4053018   0.3022786), wk =   0.0640000
        k(   18) = (   0.4053018   0.4053018   0.6045571), wk =   0.0640000
        k(   19) = (   0.0000000   0.0000000   0.0000000), wk =   0.0080000
        k(   20) = (   0.0000000   0.0000000   0.3022786), wk =   0.0160000
        k(   21) = (   0.0000000   0.0000000   0.6045571), wk =   0.0160000
        k(   22) = (   0.0000000   0.2026509   0.0000000), wk =   0.0320000
        k(   23) = (   0.0000000   0.2026509   0.3022786), wk =   0.0640000
        k(   24) = (   0.0000000   0.2026509   0.6045571), wk =   0.0640000
        k(   25) = (   0.0000000   0.4053018   0.0000000), wk =   0.0320000
        k(   26) = (   0.0000000   0.4053018   0.3022786), wk =   0.0640000
        k(   27) = (   0.0000000   0.4053018   0.6045571), wk =   0.0640000
        k(   28) = (   0.2026509   0.2026509   0.0000000), wk =   0.0320000
        k(   29) = (   0.2026509   0.2026509   0.3022786), wk =   0.0640000
        k(   30) = (   0.2026509   0.2026509   0.6045571), wk =   0.0640000
        k(   31) = (   0.2026509   0.4053018   0.0000000), wk =   0.0640000
        k(   32) = (   0.2026509   0.4053018   0.3022786), wk =   0.1280000
        k(   33) = (   0.2026509   0.4053018   0.6045571), wk =   0.1280000
        k(   34) = (   0.4053018   0.4053018   0.0000000), wk =   0.0320000
        k(   35) = (   0.4053018   0.4053018   0.3022786), wk =   0.0640000
        k(   36) = (   0.4053018   0.4053018   0.6045571), wk =   0.0640000

[...]

     Threshold (ethr) on eigenvalues was too large:
     Diagonalizing with lowered threshold

     Davidson diagonalization with overlap
     ethr =  4.80E-09,  avg # of iterations =  2.0

[...]

     Volume is kept fixed: isostatic pressure set to zero

     bfgs converged in   4 scf cycles and   3 bfgs steps
     (criteria: energy < 0.10E-03, force < 0.10E-02, cell < 0.50E+00)

     End of BFGS Geometry Optimization

     Final enthalpy =    -481.0861012399 Ry
Begin final coordinates
     new unit-cell volume =    334.71740 a.u.^3 (    49.60000 Ang^3 )

CELL_PARAMETERS (alat=  8.03830103)
   0.986918781   0.000000000   0.000000000
   0.000000000   0.986918781   0.000000000
   0.000000000   0.000000000   0.661641377

ATOMIC_POSITIONS (crystal)
Cr0      0.000000000   0.000000000   0.000000000    0   0   0
Cr0      0.500000000   0.500000000   0.500000000    0   0   0
O1       0.301377670   0.301377670   0.000000000    1   1   0
O1      -0.301377670  -0.301377670   0.000000000    1   1   0
O1       0.801377670   0.198622330   0.500000000    1   1   0
O1       0.198622330   0.801377670   0.500000000    1   1   0
End final coordinates

     A final scf calculation at the relaxed structure.
     The G-vectors are recalculated for the final unit cell
     Results may differ from those at the preceding step.

     bravais-lattice index     =            0
     lattice parameter (alat)  =       8.0383  a.u.
     unit-cell volume          =     334.7174 (a.u.)^3
     number of atoms/cell      =            6
     number of atomic types    =            2
     number of electrons       =        52.00
     number of Kohn-Sham states=           75
     kinetic-energy cutoff     =      40.0000  Ry
     charge density cutoff     =     500.0000  Ry
     convergence threshold     =      1.0E-08
     mixing beta               =       0.7000
     number of iterations used =            8  plain     mixing
     Exchange-correlation      = SLA  PW   PBE  PBE ( 1 4 3 4 0)
     EXX-fraction              =        0.00

     celldm(1)=   8.038301  celldm(2)=   0.000000  celldm(3)=   0.000000
     celldm(4)=   0.000000  celldm(5)=   0.000000  celldm(6)=   0.000000

     crystal axes: (cart. coord. in units of alat)
               a(1) = (   0.986919   0.000000   0.000000 )
               a(2) = (   0.000000   0.986919   0.000000 )
               a(3) = (   0.000000   0.000000   0.661641 )

     reciprocal axes: (cart. coord. in units 2 pi/alat)
               b(1) = (  1.013255  0.000000  0.000000 )
               b(2) = (  0.000000  1.013255  0.000000 )
               b(3) = (  0.000000  0.000000  1.511393 )

     PseudoPot. # 1 for Cr read from file:
     /home/camp/zhonxu/pseudo/cr_pbe_v1.uspp.F.UPF
     MD5 check sum: 68b6f918d1762dccfb11451fe85b0e0e
     Pseudo is Ultrasoft + core correction, Zval = 14.0
     Generated by new atomic code, or converted to UPF format
     Using radial grid of  857 points,  6 beta functions with:
                l(1) =   0
                l(2) =   0
                l(3) =   1
                l(4) =   1
                l(5) =   2
                l(6) =   2
     Q(r) pseudized with  6 coefficients,  rinner =    1.000   1.000   1.000
                                                       1.000   1.000

     PseudoPot. # 2 for O  read from file:
     /home/camp/zhonxu/pseudo/o_pbe_v1.01.uspp.F.UPF
     MD5 check sum: 2bcb18d16ea4b960afae9ec6d52f22d2
     Pseudo is Ultrasoft + core correction, Zval =  6.0
     Generated by new atomic code, or converted to UPF format
     Using radial grid of  737 points,  5 beta functions with:
                l(1) =   0
                l(2) =   0
                l(3) =   1
                l(4) =   1
                l(5) =   2
     Q(r) pseudized with  8 coefficients,  rinner =    0.900   0.900   0.900
                                                       0.900   0.900

     atomic species   valence    mass     pseudopotential
        Cr0           14.00    51.99600     Cr( 1.00)
        O1             6.00    15.99940     O ( 1.00)

     Starting magnetic structure
     atomic species   magnetization
        Cr0          0.600
        O1           0.000

     16 Sym. Ops., with inversion, found ( 8 have fractional translation)

   Cartesian axes

     site n.     atom                  positions (alat units)
         1           Cr0 tau(   1) = (   0.0000000   0.0000000   0.0000000  )
         2           Cr0 tau(   2) = (   0.4934594   0.4934594   0.3308207  )
         3           O1  tau(   3) = (   0.2974353   0.2974353   0.0000000  )
         4           O1  tau(   4) = (  -0.2974353  -0.2974353   0.0000000  )
         5           O1  tau(   5) = (   0.7908947   0.1960241   0.3308207  )
         6           O1  tau(   6) = (   0.1960241   0.7908947   0.3308207  )

     number of k points=    36  Methfessel-Paxton smearing, width (Ry)=  0.0100
                       cart. coord. in units 2pi/alat
        k(    1) = (   0.0000000   0.0000000   0.0000000), wk =   0.0080000
        k(    2) = (   0.0000000   0.0000000   0.3022786), wk =   0.0160000
        k(    3) = (   0.0000000   0.0000000   0.6045571), wk =   0.0160000
        k(    4) = (   0.0000000   0.2026509   0.0000000), wk =   0.0320000
        k(    5) = (   0.0000000   0.2026509   0.3022786), wk =   0.0640000
        k(    6) = (   0.0000000   0.2026509   0.6045571), wk =   0.0640000
        k(    7) = (   0.0000000   0.4053018   0.0000000), wk =   0.0320000
        k(    8) = (   0.0000000   0.4053018   0.3022786), wk =   0.0640000
        k(    9) = (   0.0000000   0.4053018   0.6045571), wk =   0.0640000
        k(   10) = (   0.2026509   0.2026509   0.0000000), wk =   0.0320000
        k(   11) = (   0.2026509   0.2026509   0.3022786), wk =   0.0640000
        k(   12) = (   0.2026509   0.2026509   0.6045571), wk =   0.0640000
        k(   13) = (   0.2026509   0.4053018   0.0000000), wk =   0.0640000
        k(   14) = (   0.2026509   0.4053018   0.3022786), wk =   0.1280000
        k(   15) = (   0.2026509   0.4053018   0.6045571), wk =   0.1280000
        k(   16) = (   0.4053018   0.4053018   0.0000000), wk =   0.0320000
        k(   17) = (   0.4053018   0.4053018   0.3022786), wk =   0.0640000
        k(   18) = (   0.4053018   0.4053018   0.6045571), wk =   0.0640000
        k(   19) = (   0.0000000   0.0000000   0.0000000), wk =   0.0080000
        k(   20) = (   0.0000000   0.0000000   0.3022786), wk =   0.0160000
        k(   21) = (   0.0000000   0.0000000   0.6045571), wk =   0.0160000
        k(   22) = (   0.0000000   0.2026509   0.0000000), wk =   0.0320000
        k(   23) = (   0.0000000   0.2026509   0.3022786), wk =   0.0640000
        k(   24) = (   0.0000000   0.2026509   0.6045571), wk =   0.0640000
        k(   25) = (   0.0000000   0.4053018   0.0000000), wk =   0.0320000
        k(   26) = (   0.0000000   0.4053018   0.3022786), wk =   0.0640000
        k(   27) = (   0.0000000   0.4053018   0.6045571), wk =   0.0640000
        k(   28) = (   0.2026509   0.2026509   0.0000000), wk =   0.0320000
        k(   29) = (   0.2026509   0.2026509   0.3022786), wk =   0.0640000
        k(   30) = (   0.2026509   0.2026509   0.6045571), wk =   0.0640000
        k(   31) = (   0.2026509   0.4053018   0.0000000), wk =   0.0640000
        k(   32) = (   0.2026509   0.4053018   0.3022786), wk =   0.1280000
        k(   33) = (   0.2026509   0.4053018   0.6045571), wk =   0.1280000
        k(   34) = (   0.4053018   0.4053018   0.0000000), wk =   0.0320000
        k(   35) = (   0.4053018   0.4053018   0.3022786), wk =   0.0640000
        k(   36) = (   0.4053018   0.4053018   0.6045571), wk =   0.0640000

     Largest allocated arrays     est. size (Mb)     dimensions
     Largest temporary arrays     est. size (Mb)     dimensions

     Check: negative/imaginary core charge=   -0.000036    0.000000

     Initial potential from superposition of free atoms

     starting charge   49.99997, renormalised to   52.00000
     Starting wfc are   36 randomized atomic wfcs

     Self-consistent Calculation

[...]

     total energy              =    -481.08620105 Ry
     Harris-Foulkes estimate   =    -481.08620107 Ry
     estimated scf accuracy    <       0.00000006 Ry

[...]

     iteration # 11     ecut=    40.00 Ry     beta=0.70
     Davidson diagonalization with overlap
     ethr =  1.21E-10,  avg # of iterations =  1.0

     End of self-consistent calculation

 ------ SPIN UP ------------

[...]

 ------ SPIN DOWN ----------

[...]

          k = 0.4053 0.4053 0.6046 (  1435 PWs)   bands (ev):

   -57.7964 -57.7960 -29.5410 -29.5398 -29.1658 -29.1613 -29.1063 -29.1039
    -5.5232  -5.3940  -5.2438  -5.1591   6.0692   6.2197   6.4361   6.5449
     7.9271   8.1826   9.2326   9.2869  10.1417  10.3752  11.2863  11.4272
    14.5149  14.9970  15.3806  15.5683  15.6006  15.8777  17.6363  18.1507
    18.5923  19.0705  25.3994  25.6931  28.2779  29.1987  29.3101  30.1302
    31.6438  31.9171  32.4276  33.0493  33.8443  34.4133  38.4297  39.7013
    40.3749  40.4774  41.4509  41.9465  45.5559  45.6418  46.1189  47.0526
    48.9139  48.9983  49.4487  50.0286  51.5537  51.6855  52.5141  52.8037
    53.3878  54.5677  56.0126  57.0899  57.2214  57.3596  57.9579  58.6088
    58.8856  59.9366  59.9994

     the Fermi energy is    13.6270 ev

!    total energy              =    -481.08620106 Ry
     Harris-Foulkes estimate   =    -481.08620107 Ry
     estimated scf accuracy    <          2.6E-09 Ry

     The total energy is the sum of the following terms:

     one-electron contribution =    -178.58627833 Ry
     hartree contribution      =     120.44758619 Ry
     xc contribution           =     -75.08239796 Ry
     ewald contribution        =    -347.86491807 Ry
     smearing contrib. (-TS)   =      -0.00019289 Ry

     total magnetization       =     4.00 Bohr mag/cell
     absolute magnetization    =     4.28 Bohr mag/cell

     convergence has been achieved in  11 iterations

     Forces acting on atoms (Ry/au):

     atom    1 type  1   force =     0.00000000    0.00000000    0.00000000
     atom    2 type  1   force =     0.00000000    0.00000000    0.00000000
     atom    3 type  2   force =     0.00057980    0.00057980    0.00000000
     atom    4 type  2   force =    -0.00057980   -0.00057980   -0.00000000
     atom    5 type  2   force =     0.00057980   -0.00057980    0.00000000
     atom    6 type  2   force =    -0.00057980    0.00057980    0.00000000

     Total force =     0.001640     Total SCF correction =     0.000012

     entering subroutine stress ...

          total   stress  (Ry/bohr**3)                   (kbar)     P=  499.39
   0.00339468   0.00000000   0.00000000        499.37      0.00      0.00
   0.00000000   0.00339468   0.00000000          0.00    499.37      0.00
   0.00000000   0.00000000   0.00339508          0.00      0.00    499.43

     General routines

     Parallel routines

   This run was terminated on:  20:58:53  23Jan2014

   JOB DONE.
Running PBS batch system epilogue script
Job id: 251231.audhumbla.fysik.dtu.dk
Username: zhonxu
Groupname: campgst
Jobname: CrO2/coarse-EOS/CrO2-v-0.8
Sessionid: 22590
Queuename: verylong
Accounting:
This job has allocated the following 4 nodes:
q094 q094 q094 q094
Finished epilogue job 251231.audhumbla.fysik.dtu.dk for zhonxu