     Program PWSCF v.5.0.2 (svn rev. 9656) starts on 29Apr2014 at  9:36:32

     Current dimensions of program PWSCF are:
     Max number of different atomic species (ntypx) = 10
     Max number of k-points (npk) =  40000
     Max angular momentum in pseudopotentials (lmaxx) =  3
     Reading input from pwscf.in
Warning: card &CELL ignored
Warning: card / ignored

     Subspace diagonalization in iterative solution of the eigenvalue problem:
     a serial algorithm will be used

     bravais-lattice index     =            0
     lattice parameter (alat)  =      11.2250  a.u.
     unit-cell volume          =    7005.5484 (a.u.)^3
     number of atoms/cell      =           32
     number of atomic types    =            3
     number of electrons       =       215.00
     number of Kohn-Sham states=          310
     kinetic-energy cutoff     =      40.0000  Ry
     charge density cutoff     =     500.0000  Ry
     convergence threshold     =      1.0E-06
     mixing beta               =       0.7000
     number of iterations used =            8  plain     mixing
     Exchange-correlation      = SLA  PW   PBE  PBE ( 1 4 3 4 0)
     EXX-fraction              =        0.00
     nstep                     =           50

     celldm(1)=  11.224973  celldm(2)=   0.000000  celldm(3)=   0.000000
     celldm(4)=   0.000000  celldm(5)=   0.000000  celldm(6)=   0.000000

     crystal axes: (cart. coord. in units of alat)
               a(1) = (   1.000000   0.000000   0.000000 )
               a(2) = (   0.000000   1.107086   0.000000 )
               a(3) = (   0.000000   0.000000   4.474090 )

     reciprocal axes: (cart. coord. in units 2 pi/alat)
               b(1) = (  1.000000  0.000000  0.000000 )
               b(2) = (  0.000000  0.903272  0.000000 )
               b(3) = (  0.000000  0.000000  0.223509 )

     PseudoPot. # 1 for O  read from file:
     /home/camp/zhonxu/pseudo/o_pbe_v1.01.uspp.F.UPF
     MD5 check sum: 2bcb18d16ea4b960afae9ec6d52f22d2
     Pseudo is Ultrasoft + core correction, Zval =  6.0
     Generated by new atomic code, or converted to UPF format
     Using radial grid of  737 points,  5 beta functions with:
                l(1) =   0
                l(2) =   0
                l(3) =   1
                l(4) =   1
                l(5) =   2
     Q(r) pseudized with  8 coefficients,  rinner =    0.900   0.900   0.900
                                                       0.900   0.900

     PseudoPot. # 2 for Ti read from file:
     /home/camp/zhonxu/pseudo/ti_pbe_v1.uspp.F.UPF
     MD5 check sum: bcc8f6961b3b91f0cac3ca967d22d0fb
     Pseudo is Ultrasoft + core correction, Zval = 12.0
     Generated by new atomic code, or converted to UPF format
     Using radial grid of  851 points,  6 beta functions with:
                l(1) =   0
                l(2) =   0
                l(3) =   1
                l(4) =   1
                l(5) =   2
                l(6) =   2
     Q(r) pseudized with  6 coefficients,  rinner =    1.000   1.000   1.000
                                                       1.000   1.000

     PseudoPot. # 3 for H  read from file:
     /home/camp/zhonxu/pseudo/h_pbe_v1.uspp.F.UPF
     MD5 check sum: 3408e3ff4ec8b0a4e358431e7e038a48
     Pseudo is Ultrasoft, Zval =  1.0
     Generated by new atomic code, or converted to UPF format
     Using radial grid of  615 points,  2 beta functions with:
                l(1) =   0
                l(2) =   0
     Q(r) pseudized with  8 coefficients,  rinner =    0.700

     atomic species   valence    mass     pseudopotential
        O0             6.00    15.99940     O ( 1.00)
        Ti1           12.00    47.88000     Ti( 1.00)
        H2             1.00     1.00794     H ( 1.00)

     Simplified LDA+U calculation (l_max = 2) with parameters (eV):
     atomic species    L          U    alpha       J0     beta
        Ti1            2     1.0000   0.0000   0.0000   0.0000

     No symmetry found

   Cartesian axes

     site n.     atom                  positions (alat units)
         1           O0  tau(   1) = (   0.0000000   0.0000000   1.6864186  )
         2           O0  tau(   2) = (   0.0000000   0.5535432   1.7740213  )
         3           Ti1 tau(   3) = (   0.2500000   0.5535432   2.0074793  )
         4           Ti1 tau(   4) = (   0.0000000   0.0000000   2.0324447  )
         5           O0  tau(   5) = (   0.2500000   0.8967400   2.0044817  )
         6           O0  tau(   6) = (   0.2500000   0.2103464   2.0092242  )
         7           O0  tau(   7) = (   0.0000000   0.5535432   2.2196854  )
         8           O0  tau(   8) = (   0.0000000   0.0000000   2.3507315  )
         9           Ti1 tau(   9) = (   0.2500000   0.0000000   2.6021753  )
        10           Ti1 tau(  10) = (   0.0000000   0.5535432   2.5345718  )
        11           O0  tau(  11) = (   0.2500000   0.7638896   2.5931377  )
        12           O0  tau(  12) = (   0.2500000   0.3431968   2.5930482  )
        13           O0  tau(  13) = (   0.0000000   0.0000000   2.7844945  )
        14           O0  tau(  14) = (   0.5000000   0.0000000   1.6873582  )
        15           O0  tau(  15) = (   0.5000000   0.5535432   1.7709789  )
        16           Ti1 tau(  16) = (   0.7500000   0.5535432   2.0079715  )
        17           Ti1 tau(  17) = (   0.5000000   0.0000000   2.0352187  )
        18           O0  tau(  18) = (   0.7500000   0.8967400   2.0040790  )
        19           O0  tau(  19) = (   0.7500000   0.2103464   2.0094479  )
        20           O0  tau(  20) = (   0.5000000   0.5535432   2.1971360  )
        21           O0  tau(  21) = (   0.5000000   0.0000000   2.3514026  )
        22           Ti1 tau(  22) = (   0.7500000   0.0000000   2.6024885  )
        23           Ti1 tau(  23) = (   0.5000000   0.5535432   2.6568935  )
        24           O0  tau(  24) = (   0.7500000   0.7638896   2.5904532  )
        25           O0  tau(  25) = (   0.7500000   0.3431968   2.5901848  )
        26           O0  tau(  26) = (   0.5000000   0.0000000   2.7844945  )
        27           H2  tau(  27) = (  -0.0007700   0.6889399   1.6773810  )
        28           H2  tau(  28) = (   0.4993300   0.6850208   1.6695513  )
        29           H2  tau(  29) = (   0.1496500   0.0435638   1.6275396  )
        30           H2  tau(  30) = (   0.6495100   0.0435638   1.6281213  )
        31           O0  tau(  31) = (   0.5047900   0.5534214   2.9586261  )
        32           H2  tau(  32) = (   0.3766100   0.5530007   3.0621118  )

     number of k points=    10  Methfessel-Paxton smearing, width (Ry)=  0.0100
                       cart. coord. in units 2pi/alat
        k(    1) = (   0.0000000   0.0000000   0.0000000), wk =   0.1250000
        k(    2) = (   0.0000000   0.2258180   0.0000000), wk =   0.2500000
        k(    3) = (   0.0000000  -0.4516359   0.0000000), wk =   0.1250000
        k(    4) = (   0.2500000   0.0000000   0.0000000), wk =   0.2500000
        k(    5) = (   0.2500000   0.2258180   0.0000000), wk =   0.2500000
        k(    6) = (   0.2500000  -0.4516359   0.0000000), wk =   0.2500000
        k(    7) = (  -0.5000000   0.0000000   0.0000000), wk =   0.1250000
        k(    8) = (  -0.5000000   0.2258180   0.0000000), wk =   0.2500000
        k(    9) = (  -0.5000000  -0.4516359   0.0000000), wk =   0.1250000
        k(   10) = (  -0.2500000   0.2258180   0.0000000), wk =   0.2500000

     Largest allocated arrays     est. size (Mb)     dimensions
     Largest temporary arrays     est. size (Mb)     dimensions

     Check: negative/imaginary core charge=   -0.000006    0.000000

     Initial potential from superposition of free atoms
     Check: negative starting charge=   -0.102331

     starting charge  206.99957, renormalised to  215.00000

     negative rho (up, down):  0.106E+00 0.000E+00
     Number of +U iterations with fixed ns =  0
     Starting occupations:
 --- enter write_ns ---
 LDA+U parameters:
U( 2)     =  1.00000000
alpha( 2) =  0.00000000
atom    3   Tr[ns(na)] =   2.00000
    eigenvalues:
  0.200  0.200  0.200  0.200  0.200
    eigenvectors:
  1.000  0.000  0.000  0.000  0.000
  0.000  1.000  0.000  0.000  0.000
  0.000  0.000  1.000  0.000  0.000
  0.000  0.000  0.000  1.000  0.000
  0.000  0.000  0.000  0.000  1.000
    occupations:
  0.200  0.000  0.000  0.000  0.000
  0.000  0.200  0.000  0.000  0.000
  0.000  0.000  0.200  0.000  0.000
  0.000  0.000  0.000  0.200  0.000
  0.000  0.000  0.000  0.000  0.200
atom    4   Tr[ns(na)] =   2.00000
    eigenvalues:
  0.200  0.200  0.200  0.200  0.200
    eigenvectors:
  1.000  0.000  0.000  0.000  0.000
  0.000  1.000  0.000  0.000  0.000
  0.000  0.000  1.000  0.000  0.000
  0.000  0.000  0.000  1.000  0.000
  0.000  0.000  0.000  0.000  1.000
    occupations:
  0.200  0.000  0.000  0.000  0.000
  0.000  0.200  0.000  0.000  0.000
  0.000  0.000  0.200  0.000  0.000
  0.000  0.000  0.000  0.200  0.000
  0.000  0.000  0.000  0.000  0.200
atom    9   Tr[ns(na)] =   2.00000
    eigenvalues:
  0.200  0.200  0.200  0.200  0.200
    eigenvectors:
  1.000  0.000  0.000  0.000  0.000
  0.000  1.000  0.000  0.000  0.000
  0.000  0.000  1.000  0.000  0.000
  0.000  0.000  0.000  1.000  0.000
  0.000  0.000  0.000  0.000  1.000
    occupations:
  0.200  0.000  0.000  0.000  0.000
  0.000  0.200  0.000  0.000  0.000
  0.000  0.000  0.200  0.000  0.000
  0.000  0.000  0.000  0.200  0.000
  0.000  0.000  0.000  0.000  0.200
atom   10   Tr[ns(na)] =   2.00000
    eigenvalues:
  0.200  0.200  0.200  0.200  0.200
    eigenvectors:
  1.000  0.000  0.000  0.000  0.000
  0.000  1.000  0.000  0.000  0.000
  0.000  0.000  1.000  0.000  0.000
  0.000  0.000  0.000  1.000  0.000
  0.000  0.000  0.000  0.000  1.000
    occupations:
  0.200  0.000  0.000  0.000  0.000
  0.000  0.200  0.000  0.000  0.000
  0.000  0.000  0.200  0.000  0.000
  0.000  0.000  0.000  0.200  0.000
  0.000  0.000  0.000  0.000  0.200
atom   16   Tr[ns(na)] =   2.00000
    eigenvalues:
  0.200  0.200  0.200  0.200  0.200
    eigenvectors:
  1.000  0.000  0.000  0.000  0.000
  0.000  1.000  0.000  0.000  0.000
  0.000  0.000  1.000  0.000  0.000
  0.000  0.000  0.000  1.000  0.000
  0.000  0.000  0.000  0.000  1.000
    occupations:
  0.200  0.000  0.000  0.000  0.000
  0.000  0.200  0.000  0.000  0.000
  0.000  0.000  0.200  0.000  0.000
  0.000  0.000  0.000  0.200  0.000
  0.000  0.000  0.000  0.000  0.200
atom   17   Tr[ns(na)] =   2.00000
    eigenvalues:
  0.200  0.200  0.200  0.200  0.200
    eigenvectors:
  1.000  0.000  0.000  0.000  0.000
  0.000  1.000  0.000  0.000  0.000
  0.000  0.000  1.000  0.000  0.000
  0.000  0.000  0.000  1.000  0.000
  0.000  0.000  0.000  0.000  1.000
    occupations:
  0.200  0.000  0.000  0.000  0.000
  0.000  0.200  0.000  0.000  0.000
  0.000  0.000  0.200  0.000  0.000
  0.000  0.000  0.000  0.200  0.000
  0.000  0.000  0.000  0.000  0.200
atom   22   Tr[ns(na)] =   2.00000
    eigenvalues:
  0.200  0.200  0.200  0.200  0.200
    eigenvectors:
  1.000  0.000  0.000  0.000  0.000
  0.000  1.000  0.000  0.000  0.000
  0.000  0.000  1.000  0.000  0.000
  0.000  0.000  0.000  1.000  0.000
  0.000  0.000  0.000  0.000  1.000
[...]
  0.000  0.000  0.000  1.000  0.000
    occupations:
  0.423  0.009  0.004 -0.019 -0.000
  0.009  0.219 -0.004 -0.000 -0.002
  0.004 -0.004  0.231  0.000 -0.000
 -0.019 -0.000  0.000  0.179 -0.000
 -0.000 -0.002 -0.000 -0.000  0.414
atom    9   Tr[ns(na)] =   2.91603
    eigenvalues:
  0.185  0.225  0.243  0.380  0.425
    eigenvectors:
  0.000  0.000  0.925  0.075  0.000
  0.000  0.000  0.000  0.000  1.000
  0.998  0.002  0.000  0.000  0.000
  0.000  0.000  0.075  0.925  0.000
  0.002  0.997  0.000  0.000  0.000
    occupations:
  0.254 -0.000 -0.000  0.036  0.000
 -0.000  0.425  0.000  0.000 -0.000
 -0.000  0.000  0.185  0.000  0.002
  0.036  0.000  0.000  0.369 -0.000
  0.000 -0.000  0.002 -0.000  0.225
atom   10   Tr[ns(na)] =   2.84653
    eigenvalues:
  0.181  0.240  0.243  0.334  0.425
    eigenvectors:
  0.017  0.000  0.000  0.983  0.000
  0.000  0.001  0.999  0.000  0.000
  0.000  0.999  0.001  0.000  0.000
  0.983  0.000  0.000  0.017  0.000
  0.000  0.000  0.000  0.000  1.000
    occupations:
  0.332  0.001 -0.000 -0.020 -0.000
  0.001  0.243 -0.000  0.000 -0.000
 -0.000 -0.000  0.240 -0.000 -0.000
 -0.020  0.000 -0.000  0.184  0.000
 -0.000 -0.000 -0.000  0.000  0.425
atom   16   Tr[ns(na)] =   2.84391
    eigenvalues:
  0.189  0.201  0.223  0.385  0.424
    eigenvectors:
  0.080  0.683  0.056  0.169  0.012
  0.004  0.003  0.003  0.174  0.817
  0.560  0.006  0.433  0.001  0.000
  0.023  0.143  0.009  0.656  0.169
  0.334  0.165  0.499  0.001  0.002
    occupations:
  0.235 -0.010 -0.004  0.071 -0.002
 -0.010  0.415 -0.003  0.021  0.011
 -0.004 -0.003  0.204  0.006  0.015
  0.071  0.021  0.006  0.359  0.001
 -0.002  0.011  0.015  0.001  0.209
atom   17   Tr[ns(na)] =   2.92606
    eigenvalues:
  0.177  0.217  0.233  0.411  0.426
    eigenvectors:
  0.006  0.002  0.000  0.000  0.992
  0.000  0.907  0.090  0.000  0.002
  0.000  0.090  0.910  0.000  0.000
  0.994  0.001  0.000  0.000  0.006
  0.000  0.000  0.000  1.000  0.000
    occupations:
  0.424  0.009  0.004 -0.019 -0.000
  0.009  0.219 -0.004 -0.000 -0.002
  0.004 -0.004  0.231  0.000 -0.000
 -0.019 -0.000  0.000  0.178 -0.000
 -0.000 -0.002 -0.000 -0.000  0.411
atom   22   Tr[ns(na)] =   2.91567
    eigenvalues:
  0.185  0.225  0.243  0.380  0.425
    eigenvectors:
  0.000  0.000  0.925  0.075  0.000
  0.000  0.000  0.000  0.000  1.000
  0.998  0.002  0.000  0.000  0.000
  0.000  0.000  0.075  0.925  0.000
  0.002  0.998  0.000  0.000  0.000
    occupations:
  0.254 -0.000 -0.000  0.036  0.000
 -0.000  0.425  0.000 -0.000 -0.000
 -0.000  0.000  0.185 -0.000 -0.002
  0.036 -0.000 -0.000  0.370 -0.000
  0.000 -0.000 -0.002 -0.000  0.225
atom   23   Tr[ns(na)] =   2.87855
    eigenvalues:
  0.162  0.233  0.265  0.377  0.402
    eigenvectors:
  0.011  0.038  0.000  0.951  0.000
  0.001  0.959  0.000  0.039  0.000
  0.000  0.000  1.000  0.000  0.000
  0.987  0.003  0.000  0.009  0.000
  0.000  0.000  0.000  0.000  1.000
    occupations:
  0.369  0.028  0.000 -0.021 -0.000
  0.028  0.239 -0.000 -0.000 -0.000
  0.000 -0.000  0.265 -0.000 -0.000
 -0.021 -0.000 -0.000  0.164 -0.000
 -0.000 -0.000 -0.000 -0.000  0.402
N of occupied +U levels =  23.1025508
 --- exit write_ns ---

     Threshold (ethr) on eigenvalues was too large:
     Diagonalizing with lowered threshold

     Davidson diagonalization with overlap
     ethr =  2.26E-08,  avg # of iterations =  2.0

[...]

     total energy              =   -1567.74723267 Ry
     Harris-Foulkes estimate   =   -1567.74723267 Ry
     estimated scf accuracy    <       0.00000001 Ry

     iteration # 11     ecut=    40.00 Ry     beta=0.70
     Davidson diagonalization with overlap
     ethr =  6.91E-12,  avg # of iterations =  1.0

     negative rho (up, down):  0.103E+00 0.000E+00

     End of self-consistent calculation
 --- enter write_ns ---
 LDA+U parameters:
U( 2)     =  1.00000000
alpha( 2) =  0.00000000
atom    3   Tr[ns(na)] =   2.84318
    eigenvalues:
  0.189  0.201  0.223  0.385  0.424
    eigenvectors:
  0.088  0.674  0.056  0.170  0.012
  0.004  0.003  0.003  0.171  0.820
  0.552  0.008  0.439  0.001  0.000
  0.025  0.143  0.009  0.658  0.166
  0.331  0.172  0.494  0.000  0.002
    occupations:
  0.235  0.010 -0.004  0.072  0.002
  0.010  0.415  0.003 -0.021  0.011
 -0.004  0.003  0.204  0.007 -0.015
  0.072 -0.021  0.007  0.359 -0.001
  0.002  0.011 -0.015 -0.001  0.208
atom    4   Tr[ns(na)] =   2.93304
    eigenvalues:
  0.178  0.218  0.233  0.414  0.425
    eigenvectors:
  0.006  0.002  0.000  0.000  0.992
  0.000  0.900  0.097  0.000  0.002
  0.000  0.097  0.903  0.000  0.000
  0.994  0.001  0.000  0.000  0.006
  0.000  0.000  0.000  1.000  0.000
    occupations:
  0.423  0.009  0.004 -0.019 -0.000
  0.009  0.219 -0.004 -0.000 -0.002
  0.004 -0.004  0.231  0.000 -0.000
 -0.019 -0.000  0.000  0.179 -0.000
 -0.000 -0.002 -0.000 -0.000  0.414
atom    9   Tr[ns(na)] =   2.91398
    eigenvalues:
  0.184  0.225  0.243  0.380  0.425
    eigenvectors:
  0.000  0.000  0.924  0.076  0.000
  0.000  0.000  0.000  0.000  1.000
  0.997  0.003  0.000  0.000  0.000
  0.000  0.000  0.076  0.924  0.000
  0.003  0.997  0.000  0.000  0.000
    occupations:
  0.254 -0.000 -0.000  0.036  0.000
 -0.000  0.425  0.000  0.000 -0.000
 -0.000  0.000  0.185  0.000  0.002
  0.036  0.000  0.000  0.369 -0.000
  0.000 -0.000  0.002 -0.000  0.224
atom   10   Tr[ns(na)] =   2.84628
    eigenvalues:
  0.181  0.240  0.243  0.334  0.425
    eigenvectors:
  0.017  0.000  0.000  0.983  0.000
  0.000  0.001  0.999  0.000  0.000
  0.000  0.999  0.001  0.000  0.000
  0.983  0.000  0.000  0.017  0.000
  0.000  0.000  0.000  0.000  1.000
    occupations:
  0.332  0.001 -0.000 -0.020 -0.000
  0.001  0.243 -0.000  0.000 -0.000
 -0.000 -0.000  0.240 -0.000 -0.000
 -0.020  0.000 -0.000  0.184  0.000
 -0.000 -0.000 -0.000  0.000  0.425
atom   16   Tr[ns(na)] =   2.84409
    eigenvalues:
  0.189  0.201  0.223  0.385  0.424
    eigenvectors:
  0.079  0.684  0.056  0.169  0.012
  0.004  0.003  0.003  0.174  0.817
  0.560  0.006  0.433  0.001  0.000
  0.023  0.143  0.009  0.656  0.169
  0.334  0.164  0.499  0.001  0.002
    occupations:
  0.235 -0.010 -0.004  0.071 -0.002
 -0.010  0.415 -0.003  0.021  0.011
 -0.004 -0.003  0.204  0.006  0.015
  0.071  0.021  0.006  0.359  0.001
 -0.002  0.011  0.015  0.001  0.209
atom   17   Tr[ns(na)] =   2.92635
    eigenvalues:
  0.177  0.217  0.233  0.411  0.426
    eigenvectors:
  0.006  0.002  0.000  0.000  0.992
  0.000  0.908  0.090  0.000  0.002
  0.000  0.090  0.910  0.000  0.000
  0.994  0.001  0.000  0.000  0.006
  0.000  0.000  0.000  1.000  0.000
    occupations:
  0.424  0.009  0.004 -0.019 -0.000
  0.009  0.219 -0.004 -0.000 -0.002
  0.004 -0.004  0.231  0.000 -0.000
 -0.019 -0.000  0.000  0.178 -0.000
 -0.000 -0.002 -0.000 -0.000  0.411
atom   22   Tr[ns(na)] =   2.91350
    eigenvalues:
  0.185  0.225  0.243  0.380  0.425
    eigenvectors:
  0.000  0.000  0.925  0.075  0.000
  0.000  0.000  0.000  0.000  1.000
  0.998  0.002  0.000  0.000  0.000
  0.000  0.000  0.075  0.925  0.000
  0.002  0.998  0.000  0.000  0.000
    occupations:
  0.253 -0.000 -0.000  0.036  0.000
 -0.000  0.425  0.000 -0.000 -0.000
 -0.000  0.000  0.185 -0.000 -0.002
  0.036 -0.000 -0.000  0.369 -0.000
  0.000 -0.000 -0.002 -0.000  0.225
atom   23   Tr[ns(na)] =   2.87848
    eigenvalues:
  0.162  0.233  0.265  0.376  0.402
    eigenvectors:
  0.011  0.037  0.000  0.951  0.000
  0.001  0.959  0.000  0.039  0.000
  0.000  0.000  1.000  0.000  0.000
  0.987  0.003  0.000  0.009  0.000
  0.000  0.000  0.000  0.000  1.000
    occupations:
  0.369  0.028  0.000 -0.021 -0.000
  0.028  0.239 -0.000 -0.000 -0.000
  0.000 -0.000  0.265 -0.000 -0.000
 -0.021 -0.000 -0.000  0.165 -0.000
 -0.000 -0.000 -0.000 -0.000  0.402
N of occupied +U levels =  23.0989079
 --- exit write_ns ---

[...]

          k = 0.2500-0.4516 0.0000 ( 29882 PWs)   bands (ev):

[...]

          k =-0.2500 0.2258 0.0000 ( 29912 PWs)   bands (ev):

   -60.1604 -60.1326 -59.9234 -59.5328 -59.2208 -59.1923 -58.8677 -58.8363
   -36.6429 -36.4162 -36.3665 -36.3231 -36.3014 -36.2988 -36.2725 -36.1843
   -36.0943 -35.8479 -35.7768 -35.7763 -35.7276 -35.5417 -35.4673 -35.4589
   -35.3487 -35.3330 -35.2965 -35.1591 -35.1313 -35.1209 -35.0463 -34.9700
   -21.3937 -21.1537 -20.4916 -20.4370 -20.1176 -19.7505 -19.6077 -19.5575
   -19.4947 -19.3666 -19.2835 -19.1871 -19.1086 -19.0793 -19.0465 -18.7151
   -18.4673 -18.1609 -18.1326  -9.1919  -8.9151  -8.3497  -7.8008  -7.6434
    -7.4618  -7.2607  -7.1949  -7.0676  -6.8841  -6.7398  -6.6980  -6.6784
    -6.6225  -6.4703  -6.4291  -6.3436  -6.2464  -6.1405  -6.0884  -5.9729
    -5.9400  -5.7415  -5.6057  -5.4332  -5.3501  -5.2782  -5.1783  -5.0840
    -5.0290  -5.0045  -4.8626  -4.8275  -4.7419  -4.7045  -4.6181  -4.5873
    -4.4934  -4.4286  -4.3374  -4.2573  -4.2086  -4.1273  -4.0343  -3.8883
    -3.7791  -3.6898  -3.5559  -3.4958  -3.4461  -3.3183  -3.2453  -3.1946
    -3.0684  -2.9572  -2.8381  -2.6976  -0.4991  -0.4105  -0.3652  -0.1983
     0.0237   0.0674   0.1949   0.3011   0.3327   0.4483   0.5412   0.6239
     0.7546   0.8509   0.8852   0.9471   1.0790   1.1941   1.2453   1.3371
     1.4397   1.5889   1.6050   1.7238   1.9004   2.1340   2.2300   2.4045
     2.4380   2.6823   2.7655   3.1920   3.2323   3.3415   3.5670   3.6147
     3.7701   3.8150   3.8933   4.0762   4.1257   4.4236   4.4639   4.6029
     5.0193   5.2595   5.2764   5.5479   5.8118   5.8515   6.0721   6.1854
     6.3015   6.4384   6.5316   6.8447   6.9508   7.2755   7.3560   7.4625
     7.6286   7.8110   7.8883   7.9939   8.0797   8.1343   8.2086   8.3778
     8.5140   8.5790   8.7651   8.8381   8.9432   9.1131   9.2441   9.3038
     9.4149   9.5428   9.5739   9.6127   9.7874   9.8985  10.0270  10.0637
    10.1629  10.2560  10.3827  10.4818  10.5959  10.6527  10.7570  10.8033
    10.9614  10.9877  11.0392  11.1331  11.2870  11.3130  11.4051  11.4768
    11.4896  11.5757  11.6605  11.7512  11.8422  11.9677  11.9896  12.0535
    12.1428  12.1929  12.2243  12.3497  12.4044  12.4543  12.5234  12.6062
    12.7318  12.8288  12.8742  12.8967  12.9894  13.0125  13.0675  13.1501
    13.3550  13.3930  13.5152  13.6181  13.6490  13.7064  13.8414  13.8710
    13.9232  13.9752  14.1393  14.1913  14.2191  14.2911  14.4550  14.4964
    14.5373  14.5821  14.6536  14.6857  14.7554  14.8830  14.9797  14.9892
    15.0698  15.2118  15.2726  15.3161  15.3561  15.4192  15.5073  15.5746
    15.6424  15.6640  15.7867  15.8490  15.8804  15.9585  16.0429  16.0871
    16.2258  16.2694  16.3510  16.3883  16.4384  16.4898  16.6188  16.6977
    16.7505  16.7861  16.8201  16.8495  16.9637  17.0363  17.0619  17.1289
    17.2027  17.3127  17.3469  17.3790  17.4749  17.5085  17.6263  17.7428
    17.8005  17.8752  17.9306  17.9504  18.0865  18.1060  18.2330  18.2825
    18.3926  18.4330  18.4742  18.5478  18.6096  18.6987

     the Fermi energy is    -2.7171 ev

!    total energy              =   -1567.74723267 Ry
     Harris-Foulkes estimate   =   -1567.74723267 Ry
     estimated scf accuracy    <          3.7E-09 Ry

     The total energy is the sum of the following terms:

     one-electron contribution =  -18640.24042864 Ry
     hartree contribution      =    9339.64074116 Ry
     xc contribution           =    -277.56849499 Ry
     ewald contribution        =    8009.84406801 Ry
     Hubbard energy            =       0.57635096 Ry
     smearing contrib. (-TS)   =       0.00053084 Ry

     convergence has been achieved in  11 iterations

     Forces acting on atoms (Ry/au):

     negative rho (up, down):  0.103E+00 0.000E+00
     atom    1 type  1   force =    -0.00073959   -0.01072575    0.00034285
     atom    2 type  1   force =     0.00005232    0.01658702    0.00035106
     atom    3 type  2   force =     0.06138152   -0.01031084    0.00038829
     atom    4 type  2   force =    -0.00351249    0.00477476   -0.00029829
     atom    5 type  1   force =    -0.00286148   -0.07020348   -0.00078700
     atom    6 type  1   force =    -0.00502063    0.07198079   -0.00040580
     atom    7 type  1   force =     0.00128168    0.00079075   -0.00005159
     atom    8 type  1   force =     0.00255401   -0.00099155    0.00069871
     atom    9 type  2   force =     0.00012646   -0.00004940   -0.00014337
     atom   10 type  2   force =    -0.00444376    0.00023293    0.00019199
     atom   11 type  1   force =    -0.01687791   -0.02380642    0.00004430
     atom   12 type  1   force =    -0.01711762    0.02370156    0.00004292
     atom   13 type  1   force =     0.00148368    0.00012699   -0.00006846
     atom   14 type  1   force =    -0.00157586   -0.01028330   -0.00013117
     atom   15 type  1   force =     0.00011900    0.01309410    0.00026194
     atom   16 type  2   force =    -0.06134076   -0.01040435    0.00040234
     atom   17 type  2   force =    -0.00323730    0.00413611   -0.00009291
     atom   18 type  1   force =     0.00715324   -0.06970693   -0.00076090
     atom   19 type  1   force =     0.00561856    0.07217671   -0.00045187
     atom   20 type  1   force =    -0.00068557    0.00001904    0.00023981
     atom   21 type  1   force =     0.00153932   -0.00075804    0.00073057
     atom   22 type  2   force =    -0.00092684   -0.00004141   -0.00019511
     atom   23 type  2   force =    -0.00129238    0.00011611   -0.00010695
     atom   24 type  1   force =     0.01943500   -0.02212463   -0.00020605
     atom   25 type  1   force =     0.01900347    0.02206101   -0.00020293
     atom   26 type  1   force =    -0.00092180    0.00007023   -0.00007993
     atom   27 type  3   force =     0.00001710    0.00008803    0.00039379
     atom   28 type  3   force =     0.00002718    0.00032972    0.00047684
     atom   29 type  3   force =    -0.00005425   -0.00049601   -0.00003263
     atom   30 type  3   force =     0.00008355   -0.00034168   -0.00021829
     atom   31 type  1   force =     0.00049502    0.00000851   -0.00082600
     atom   32 type  3   force =     0.00023716   -0.00005060    0.00049383

     Total force =     0.002396     Total SCF correction =     0.000111

     bfgs converged in  10 scf cycles and   9 bfgs steps
     (criteria: energy < 0.10E-03, force < 0.10E-02)

     End of BFGS Geometry Optimization

     Final energy   =   -1567.7472326688 Ry
Begin final coordinates

ATOMIC_POSITIONS (crystal)
O0       0.000000000   0.000000000   0.377537643    0   0   1
O0       0.000000000   0.500000000   0.396397382    0   0   1
Ti1      0.250000000   0.500000000   0.448622806    0   0   1
Ti1      0.000000000   0.000000000   0.452739458    0   0   1
O0       0.250000000   0.810000000   0.448739369    0   0   1
O0       0.250000000   0.190000000   0.449495345    0   0   1
O0       0.000000000   0.500000000   0.496158263    0   0   1
O0       0.000000000   0.000000000   0.525370577    0   0   1
Ti1      0.250000000   0.000000000   0.581247034    0   0   1
Ti1      0.000000000   0.500000000   0.566550558    0   0   1
O0       0.250000000   0.690000000   0.579364501    0   0   1
O0       0.250000000   0.310000000   0.579357391    0   0   1
O0       0.000000000   0.000000000   0.622352716    0   0   1
O0       0.500000000   0.000000000   0.377825527    0   0   1
O0       0.500000000   0.500000000   0.395773560    0   0   1
Ti1      0.750000000   0.500000000   0.448730176    0   0   1
Ti1      0.500000000   0.000000000   0.453092506    0   0   1
O0       0.750000000   0.810000000   0.448707919    0   0   1
O0       0.750000000   0.190000000   0.449513504    0   0   1
O0       0.500000000   0.500000000   0.491319924    0   0   1
O0       0.500000000   0.000000000   0.525462411    0   0   1
Ti1      0.750000000   0.000000000   0.581344757    0   0   1
Ti1      0.500000000   0.500000000   0.593744329    0   0   1
O0       0.750000000   0.690000000   0.578937065    0   0   1
O0       0.750000000   0.310000000   0.578842007    0   0   1
O0       0.500000000   0.000000000   0.622356194    0   0   1
H2      -0.000686088   0.623612091   0.375180837
H2       0.499534299   0.620356117   0.373532373
H2       0.149019538   0.038432031   0.363940500
H2       0.648523285   0.038793738   0.364075582
O0       0.506041406   0.499929292   0.661399170
H2       0.377945422   0.499424439   0.684538614
End final coordinates

     General routines

     Parallel routines
     Hubbard U routines

   This run was terminated on:  15:55:58  29Apr2014

   JOB DONE.
Running PBS batch system epilogue script
Job id: 340520.audhumbla.fysik.dtu.dk
Username: zhonxu
Groupname: campgst
Jobname: TiO2/Eads-2-layers/OH-U-1.0
Sessionid: 414
Queuename: verylong
Accounting:
This job has allocated the following 16 nodes:
c028 c028 c028 c028 c028 c028 c028 c028 c023 c023 c023 c023 c023 c023 c023 c023
Finished epilogue job 340520.audhumbla.fysik.dtu.dk for zhonxu