     Program PWSCF v.5.0.2 (svn rev. 9656) starts on 28Apr2014 at 20:44:45

     Current dimensions of program PWSCF are:
     Max number of different atomic species (ntypx) = 10
     Max number of k-points (npk) =  40000
     Max angular momentum in pseudopotentials (lmaxx) =  3
     Reading input from pwscf.in
Warning: card &CELL ignored
Warning: card / ignored

     Subspace diagonalization in iterative solution of the eigenvalue problem:
     a serial algorithm will be used

     bravais-lattice index     =            0
     lattice parameter (alat)  =      10.3179  a.u.
     unit-cell volume          =    6964.3238 (a.u.)^3
     number of atoms/cell      =           31
     number of atomic types    =            3
     number of electrons       =       230.00
     number of Kohn-Sham states=          345
     kinetic-energy cutoff     =      40.0000  Ry
     charge density cutoff     =     500.0000  Ry
     convergence threshold     =      1.0E-06
     mixing beta               =       0.7000
     number of iterations used =            8  plain     mixing
     Exchange-correlation      = SLA  PW   PBE  PBE ( 1 4 3 4 0)
     EXX-fraction              =        0.00
     nstep                     =           50

     celldm(1)=  10.317905  celldm(2)=   0.000000  celldm(3)=   0.000000
     celldm(4)=   0.000000  celldm(5)=   0.000000  celldm(6)=   0.000000

     crystal axes: (cart. coord. in units of alat)
               a(1) = (   1.000000   0.000000   0.000000 )
               a(2) = (   0.000000   1.282117   0.000000 )
               a(3) = (   0.000000   0.000000   4.945120 )

     reciprocal axes: (cart. coord. in units 2 pi/alat)
               b(1) = (  1.000000  0.000000  0.000000 )
               b(2) = (  0.000000  0.779960  0.000000 )
               b(3) = (  0.000000  0.000000  0.202220 )

     PseudoPot. # 1 for O  read from file:
     /home/camp/zhonxu/pseudo/o_pbe_v1.01.uspp.F.UPF
     MD5 check sum: 2bcb18d16ea4b960afae9ec6d52f22d2
     Pseudo is Ultrasoft + core correction, Zval =  6.0
     Generated by new atomic code, or converted to UPF format
     Using radial grid of  737 points,  5 beta functions with:
                l(1) =   0
                l(2) =   0
                l(3) =   1
                l(4) =   1
                l(5) =   2
     Q(r) pseudized with  8 coefficients,  rinner =    0.900   0.900   0.900
                                                       0.900   0.900

     PseudoPot. # 2 for Mo read from file:
     /home/camp/zhonxu/pseudo/mo_pbe_v1.uspp.F.UPF
     MD5 check sum: 30c4dcd161f5d35cd49bb5239c51a633
     Pseudo is Ultrasoft + core correction, Zval = 14.0
     Generated by new atomic code, or converted to UPF format
     Using radial grid of  889 points,  6 beta functions with:
                l(1) =   0
                l(2) =   0
                l(3) =   1
                l(4) =   1
                l(5) =   2
                l(6) =   2
     Q(r) pseudized with  6 coefficients,  rinner =    1.000   1.000   1.000
                                                       1.000   1.000

     PseudoPot. # 3 for H  read from file:
     /home/camp/zhonxu/pseudo/h_pbe_v1.uspp.F.UPF
     MD5 check sum: 3408e3ff4ec8b0a4e358431e7e038a48
     Pseudo is Ultrasoft, Zval =  1.0
     Generated by new atomic code, or converted to UPF format
     Using radial grid of  615 points,  2 beta functions with:
                l(1) =   0
                l(2) =   0
     Q(r) pseudized with  8 coefficients,  rinner =    0.700

     atomic species   valence    mass     pseudopotential
        O0             6.00    15.99940     O ( 1.00)
        Mo1           14.00    95.94000     Mo( 1.00)
        H2             1.00     1.00794     H ( 1.00)

     Simplified LDA+U calculation (l_max = 2) with parameters (eV):
     atomic species    L          U    alpha       J0     beta
        Mo1            2     6.0000   0.0000   0.0000   0.0000

     No symmetry found

   Cartesian axes

     site n.     atom                  positions (alat units)
         1           O0  tau(   1) = (   0.0000000   0.0000000   1.8298429  )
         2           O0  tau(   2) = (   0.0000000   0.6410583   1.8994207  )
         3           Mo1 tau(   3) = (   0.2500000   0.6410583   2.1871278  )
         4           Mo1 tau(   4) = (   0.0000000   0.0000000   2.1851992  )
         5           O0  tau(   5) = (   0.2500000   1.0000510   2.1890070  )
         6           O0  tau(   6) = (   0.2500000   0.2820657   2.1893531  )
         7           O0  tau(   7) = (   0.0000000   0.6410583   2.4671700  )
         8           O0  tau(   8) = (   0.0000000   0.0000000   2.5523250  )
         9           Mo1 tau(   9) = (   0.2500000   0.0000000   2.8391419  )
        10           Mo1 tau(  10) = (   0.0000000   0.6410583   2.8013612  )
        11           O0  tau(  11) = (   0.2500000   0.9231240   2.8197571  )
        12           O0  tau(  12) = (   0.2500000   0.3589927   2.8195593  )
        13           O0  tau(  13) = (   0.0000000   0.0000000   3.0891672  )
        14           O0  tau(  14) = (   0.5000000   0.0000000   1.8327111  )
        15           O0  tau(  15) = (   0.5000000   0.6410583   1.8997669  )
        16           Mo1 tau(  16) = (   0.7500000   0.6410583   2.1871773  )
        17           Mo1 tau(  17) = (   0.5000000   0.0000000   2.1922708  )
        18           O0  tau(  18) = (   0.7500000   1.0000510   2.1898476  )
        19           O0  tau(  19) = (   0.7500000   0.2820657   2.1889575  )
        20           O0  tau(  20) = (   0.5000000   0.6410583   2.4516918  )
        21           O0  tau(  21) = (   0.5000000   0.0000000   2.5499019  )
        22           Mo1 tau(  22) = (   0.7500000   0.0000000   2.8391419  )
        23           Mo1 tau(  23) = (   0.5000000   0.6410583   2.8716808  )
        24           O0  tau(  24) = (   0.7500000   0.9231240   2.8197571  )
        25           O0  tau(  25) = (   0.7500000   0.3589927   2.8196582  )
        26           O0  tau(  26) = (   0.5000000   0.0000000   3.0881782  )
        27           H2  tau(  27) = (  -0.0006600   0.7686802   1.7727267  )
        28           H2  tau(  28) = (   0.4996400   0.7964252   1.8076887  )
        29           H2  tau(  29) = (   0.1674000   0.0210652   1.7585342  )
        30           H2  tau(  30) = (   0.6637700   0.0258988   1.7570507  )
        31           O0  tau(  31) = (   0.5000200   0.6407506   3.1806520  )

     number of k points=    10  Methfessel-Paxton smearing, width (Ry)=  0.0100
                       cart. coord. in units 2pi/alat
        k(    1) = (   0.0000000   0.0000000   0.0000000), wk =   0.1250000
        k(    2) = (   0.0000000   0.1949901   0.0000000), wk =   0.2500000
        k(    3) = (   0.0000000  -0.3899801   0.0000000), wk =   0.1250000
        k(    4) = (   0.2500000   0.0000000   0.0000000), wk =   0.2500000
        k(    5) = (   0.2500000   0.1949901   0.0000000), wk =   0.2500000
        k(    6) = (   0.2500000  -0.3899801   0.0000000), wk =   0.2500000
        k(    7) = (  -0.5000000   0.0000000   0.0000000), wk =   0.1250000
        k(    8) = (  -0.5000000   0.1949901   0.0000000), wk =   0.2500000
        k(    9) = (  -0.5000000  -0.3899801   0.0000000), wk =   0.1250000
        k(   10) = (  -0.2500000   0.1949901   0.0000000), wk =   0.2500000

     Largest allocated arrays     est. size (Mb)     dimensions
     Largest temporary arrays     est. size (Mb)     dimensions

     Check: negative/imaginary core charge=   -0.000003    0.000000

     Initial potential from superposition of free atoms
     Check: negative starting charge=   -0.002499

     starting charge  229.99143, renormalised to  230.00000

     negative rho (up, down):  0.250E-02 0.000E+00
     Number of +U iterations with fixed ns =  0
     Starting occupations:
 --- enter write_ns ---
 LDA+U parameters:
U( 2)     =  6.00000000
alpha( 2) =  0.00000000
atom    3   Tr[ns(na)] =   5.00000
    eigenvalues:
  0.500  0.500  0.500  0.500  0.500
    eigenvectors:
  1.000  0.000  0.000  0.000  0.000
  0.000  1.000  0.000  0.000  0.000
  0.000  0.000  1.000  0.000  0.000
  0.000  0.000  0.000  1.000  0.000
  0.000  0.000  0.000  0.000  1.000
    occupations:
  0.500  0.000  0.000  0.000  0.000
  0.000  0.500  0.000  0.000  0.000
  0.000  0.000  0.500  0.000  0.000
  0.000  0.000  0.000  0.500  0.000
  0.000  0.000  0.000  0.000  0.500
atom    4   Tr[ns(na)] =   5.00000
    eigenvalues:
  0.500  0.500  0.500  0.500  0.500
    eigenvectors:
  1.000  0.000  0.000  0.000  0.000
  0.000  1.000  0.000  0.000  0.000
  0.000  0.000  1.000  0.000  0.000
  0.000  0.000  0.000  1.000  0.000
  0.000  0.000  0.000  0.000  1.000
    occupations:
  0.500  0.000  0.000  0.000  0.000
  0.000  0.500  0.000  0.000  0.000
  0.000  0.000  0.500  0.000  0.000
  0.000  0.000  0.000  0.500  0.000
  0.000  0.000  0.000  0.000  0.500
atom    9   Tr[ns(na)] =   5.00000
    eigenvalues:
  0.500  0.500  0.500  0.500  0.500
    eigenvectors:
  1.000  0.000  0.000  0.000  0.000
  0.000  1.000  0.000  0.000  0.000
  0.000  0.000  1.000  0.000  0.000
  0.000  0.000  0.000  1.000  0.000
  0.000  0.000  0.000  0.000  1.000
    occupations:
  0.500  0.000  0.000  0.000  0.000
  0.000  0.500  0.000  0.000  0.000
  0.000  0.000  0.500  0.000  0.000
  0.000  0.000  0.000  0.500  0.000
  0.000  0.000  0.000  0.000  0.500
atom   10   Tr[ns(na)] =   5.00000
    eigenvalues:
  0.500  0.500  0.500  0.500  0.500
    eigenvectors:
  1.000  0.000  0.000  0.000  0.000
  0.000  1.000  0.000  0.000  0.000
  0.000  0.000  1.000  0.000  0.000
  0.000  0.000  0.000  1.000  0.000
  0.000  0.000  0.000  0.000  1.000
    occupations:
  0.500  0.000  0.000  0.000  0.000
  0.000  0.500  0.000  0.000  0.000
  0.000  0.000  0.500  0.000  0.000
  0.000  0.000  0.000  0.500  0.000
  0.000  0.000  0.000  0.000  0.500
atom   16   Tr[ns(na)] =   5.00000
    eigenvalues:
  0.500  0.500  0.500  0.500  0.500
    eigenvectors:
  1.000  0.000  0.000  0.000  0.000
  0.000  1.000  0.000  0.000  0.000
  0.000  0.000  1.000  0.000  0.000
  0.000  0.000  0.000  1.000  0.000
  0.000  0.000  0.000  0.000  1.000
    occupations:
  0.500  0.000  0.000  0.000  0.000
  0.000  0.500  0.000  0.000  0.000
  0.000  0.000  0.500  0.000  0.000
  0.000  0.000  0.000  0.500  0.000
  0.000  0.000  0.000  0.000  0.500
atom   17   Tr[ns(na)] =   5.00000
    eigenvalues:
  0.500  0.500  0.500  0.500  0.500
    eigenvectors:
  1.000  0.000  0.000  0.000  0.000
  0.000  1.000  0.000  0.000  0.000
  0.000  0.000  1.000  0.000  0.000
  0.000  0.000  0.000  1.000  0.000
  0.000  0.000  0.000  0.000  1.000
    occupations:
  0.500  0.000  0.000  0.000  0.000
  0.000  0.500  0.000  0.000  0.000
  0.000  0.000  0.500  0.000  0.000
  0.000  0.000  0.000  0.500  0.000
  0.000  0.000  0.000  0.000  0.500
atom   22   Tr[ns(na)] =   5.00000
    eigenvalues:
  0.500  0.500  0.500  0.500  0.500
    eigenvectors:
  1.000  0.000  0.000  0.000  0.000
  0.000  1.000  0.000  0.000  0.000
  0.000  0.000  1.000  0.000  0.000
  0.000  0.000  0.000  1.000  0.000
  0.000  0.000  0.000  0.000  1.000
    occupations:
  0.500  0.000  0.000  0.000  0.000
  0.000  0.500  0.000  0.000  0.000
[...]
  0.381  0.521  0.580  0.639  0.782
    eigenvectors:
  0.000  0.000  0.887  0.113  0.000
  0.000  0.000  0.111  0.876  0.012
  1.000  0.000  0.000  0.000  0.000
  0.000  0.000  0.002  0.011  0.988
  0.000  1.000  0.000  0.000  0.000
    occupations:
  0.587  0.018  0.002  0.003  0.000
  0.018  0.635  0.002 -0.017 -0.001
  0.002  0.002  0.381  0.000  0.002
  0.003 -0.017  0.000  0.780  0.000
  0.000 -0.001  0.002  0.000  0.521
atom    9   Tr[ns(na)] =   5.86329
    eigenvalues:
  0.506  0.526  0.613  0.633  0.654
    eigenvectors:
  0.000  0.000  0.118  0.000  0.882
  0.000  0.000  0.004  0.996  0.000
  0.207  0.793  0.000  0.000  0.000
  0.000  0.000  0.878  0.004  0.118
  0.793  0.207  0.000  0.000  0.000
    occupations:
  0.649 -0.001 -0.002 -0.013 -0.001
 -0.001  0.633 -0.000 -0.001  0.000
 -0.002 -0.000  0.522  0.001  0.008
 -0.013 -0.001  0.001  0.618  0.000
 -0.001  0.000  0.008  0.000  0.510
atom   10   Tr[ns(na)] =   5.76440
    eigenvalues:
  0.358  0.468  0.509  0.729  0.818
    eigenvectors:
  0.000  0.988  0.000  0.011  0.000
  0.000  0.000  0.000  0.025  0.974
  0.996  0.000  0.003  0.000  0.000
  0.000  0.012  0.000  0.963  0.025
  0.003  0.000  0.997  0.000  0.000
    occupations:
  0.471  0.001 -0.002  0.028  0.001
  0.001  0.816  0.008  0.014  0.000
 -0.002  0.008  0.359  0.000 -0.008
  0.028  0.014  0.000  0.728 -0.000
  0.001  0.000 -0.008 -0.000  0.509
atom   16   Tr[ns(na)] =   5.82889
    eigenvalues:
  0.398  0.532  0.581  0.640  0.764
    eigenvectors:
  0.010  0.016  0.263  0.000  0.711
  0.000  0.945  0.051  0.004  0.000
  0.919  0.000  0.000  0.069  0.011
  0.001  0.036  0.684  0.003  0.277
  0.070  0.003  0.003  0.924  0.000
    occupations:
  0.709  0.007  0.033 -0.082  0.004
  0.007  0.535  0.004  0.008 -0.006
  0.033  0.004  0.419 -0.015 -0.062
 -0.082  0.008 -0.015  0.630 -0.002
  0.004 -0.006 -0.062 -0.002  0.623
atom   17   Tr[ns(na)] =   5.81921
    eigenvalues:
  0.382  0.523  0.597  0.611  0.798
    eigenvectors:
  0.000  0.000  0.999  0.001  0.000
  0.000  0.000  0.001  0.993  0.006
  1.000  0.000  0.000  0.000  0.000
  0.000  0.000  0.000  0.006  0.993
  0.000  1.000  0.000  0.000  0.000
    occupations:
  0.597 -0.000  0.002 -0.004  0.000
 -0.000  0.612  0.001 -0.015 -0.001
  0.002  0.001  0.382 -0.000  0.001
 -0.004 -0.015 -0.000  0.796  0.000
  0.000 -0.001  0.001  0.000  0.523
atom   22   Tr[ns(na)] =   5.80473
    eigenvalues:
  0.425  0.456  0.581  0.602  0.838
    eigenvectors:
  0.000  0.000  0.003  0.262  0.736
  0.000  0.000  0.988  0.012  0.000
  0.028  0.972  0.000  0.000  0.000
  0.000  0.000  0.009  0.727  0.264
  0.972  0.028  0.000  0.000  0.000
    occupations:
  0.776  0.001 -0.001 -0.104 -0.002
  0.001  0.581 -0.001  0.002 -0.000
 -0.001 -0.001  0.455  0.001 -0.005
 -0.104  0.002  0.001  0.664  0.001
 -0.002 -0.000 -0.005  0.001  0.426
atom   23   Tr[ns(na)] =   5.92511
    eigenvalues:
  0.504  0.508  0.519  0.635  0.797
    eigenvectors:
  0.000  0.000  0.000  0.991  0.008
  0.000  0.001  0.999  0.000  0.000
  0.485  0.515  0.000  0.000  0.000
  0.000  0.000  0.000  0.008  0.992
  0.515  0.484  0.001  0.000  0.000
    occupations:
  0.636 -0.001 -0.000 -0.015 -0.000
 -0.001  0.519  0.000  0.001  0.000
 -0.000  0.000  0.506  0.000  0.002
 -0.015  0.001  0.000  0.795  0.000
 -0.000  0.000  0.002  0.000  0.506
N of occupied +U levels =  46.6419027
 --- exit write_ns ---

     Threshold (ethr) on eigenvalues was too large:
     Diagonalizing with lowered threshold

     Davidson diagonalization with overlap
     ethr =  3.90E-09,  avg # of iterations =  3.0

[...]

     total energy              =   -1728.39676971 Ry
     Harris-Foulkes estimate   =   -1728.39676971 Ry
     estimated scf accuracy    <       0.00000002 Ry

     iteration # 14     ecut=    40.00 Ry     beta=0.70
     Davidson diagonalization with overlap
     ethr =  9.37E-12,  avg # of iterations =  1.0

     negative rho (up, down):  0.362E-02 0.000E+00

     End of self-consistent calculation
 --- enter write_ns ---
 LDA+U parameters:
U( 2)     =  6.00000000
alpha( 2) =  0.00000000
atom    3   Tr[ns(na)] =   5.82931
    eigenvalues:
  0.420  0.532  0.581  0.612  0.769
    eigenvectors:
  0.011  0.018  0.276  0.001  0.694
  0.001  0.938  0.051  0.010  0.000
  0.830  0.000  0.001  0.157  0.012
  0.001  0.037  0.657  0.010  0.294
  0.157  0.006  0.016  0.821  0.000
    occupations:
  0.709 -0.007  0.032 -0.085 -0.009
 -0.007  0.535 -0.006 -0.009 -0.005
  0.032 -0.006  0.454 -0.015  0.069
 -0.085 -0.009 -0.015  0.635  0.007
 -0.009 -0.005  0.069  0.007  0.581
atom    4   Tr[ns(na)] =   5.80702
    eigenvalues:
  0.381  0.521  0.580  0.639  0.782
    eigenvectors:
  0.000  0.000  0.886  0.113  0.000
  0.000  0.000  0.112  0.876  0.012
  1.000  0.000  0.000  0.000  0.000
  0.000  0.000  0.002  0.011  0.988
  0.000  1.000  0.000  0.000  0.000
    occupations:
  0.587  0.018  0.002  0.003  0.000
  0.018  0.634  0.002 -0.017 -0.001
  0.002  0.002  0.381  0.000  0.002
  0.003 -0.017  0.000  0.780  0.000
  0.000 -0.001  0.002  0.000  0.521
atom    9   Tr[ns(na)] =   5.86372
    eigenvalues:
  0.506  0.527  0.613  0.633  0.654
    eigenvectors:
  0.000  0.000  0.118  0.000  0.882
  0.000  0.000  0.004  0.996  0.000
  0.207  0.793  0.000  0.000  0.000
  0.000  0.000  0.878  0.004  0.118
  0.793  0.207  0.000  0.000  0.000
    occupations:
  0.649 -0.001 -0.002 -0.013 -0.001
 -0.001  0.633 -0.000 -0.001  0.000
 -0.002 -0.000  0.522  0.001  0.009
 -0.013 -0.001  0.001  0.618  0.000
 -0.001  0.000  0.009  0.000  0.510
atom   10   Tr[ns(na)] =   5.76586
    eigenvalues:
  0.359  0.469  0.509  0.729  0.817
    eigenvectors:
  0.000  0.988  0.000  0.011  0.000
  0.000  0.000  0.000  0.027  0.973
  0.996  0.000  0.003  0.000  0.000
  0.000  0.011  0.000  0.962  0.027
  0.003  0.000  0.997  0.000  0.000
    occupations:
  0.472  0.000 -0.002  0.028  0.001
  0.000  0.815  0.008  0.014  0.000
 -0.002  0.008  0.359  0.000 -0.008
  0.028  0.014  0.000  0.728 -0.000
  0.001  0.000 -0.008 -0.000  0.509
atom   16   Tr[ns(na)] =   5.82849
    eigenvalues:
  0.397  0.532  0.581  0.640  0.764
    eigenvectors:
  0.010  0.016  0.263  0.000  0.711
  0.000  0.945  0.051  0.004  0.000
  0.919  0.000  0.000  0.070  0.011
  0.001  0.036  0.684  0.003  0.277
  0.071  0.003  0.003  0.923  0.000
    occupations:
  0.709  0.007  0.033 -0.082  0.004
  0.007  0.535  0.004  0.008 -0.006
  0.033  0.004  0.419 -0.015 -0.062
 -0.082  0.008 -0.015  0.630 -0.002
  0.004 -0.006 -0.062 -0.002  0.623
atom   17   Tr[ns(na)] =   5.81935
    eigenvalues:
  0.382  0.523  0.597  0.611  0.798
    eigenvectors:
  0.000  0.000  0.999  0.001  0.000
  0.000  0.000  0.001  0.993  0.006
  1.000  0.000  0.000  0.000  0.000
  0.000  0.000  0.000  0.006  0.993
  0.000  1.000  0.000  0.000  0.000
    occupations:
  0.597 -0.000  0.002 -0.004  0.000
 -0.000  0.612  0.001 -0.015 -0.001
  0.002  0.001  0.382 -0.000  0.001
 -0.004 -0.015 -0.000  0.796  0.000
  0.000 -0.001  0.001  0.000  0.523
atom   22   Tr[ns(na)] =   5.80472
    eigenvalues:
  0.425  0.456  0.581  0.602  0.838
    eigenvectors:
  0.000  0.000  0.003  0.262  0.735
  0.000  0.000  0.988  0.012  0.000
  0.028  0.972  0.000  0.000  0.000
  0.000  0.000  0.009  0.727  0.264
  0.972  0.028  0.000  0.000  0.000
    occupations:
  0.776  0.001 -0.001 -0.104 -0.002
  0.001  0.581 -0.001  0.002 -0.000
 -0.001 -0.001  0.455  0.001 -0.005
 -0.104  0.002  0.001  0.664  0.001
 -0.002 -0.000 -0.005  0.001  0.426
atom   23   Tr[ns(na)] =   5.92405
    eigenvalues:
  0.504  0.508  0.519  0.635  0.796
    eigenvectors:
  0.000  0.000  0.000  0.991  0.008
  0.000  0.001  0.999  0.000  0.000
  0.497  0.503  0.000  0.000  0.000
  0.000  0.000  0.000  0.008  0.992
  0.503  0.496  0.001  0.000  0.000
    occupations:
  0.636 -0.001 -0.000 -0.015 -0.000
 -0.001  0.519  0.000  0.001  0.000
 -0.000  0.000  0.506  0.000  0.002
 -0.015  0.001  0.000  0.795  0.000
 -0.000  0.000  0.002  0.000  0.506
N of occupied +U levels =  46.6425213
 --- exit write_ns ---

[...]

          k = 0.2500-0.3900 0.0000 ( 29726 PWs)   bands (ev):

[...]

          k =-0.2500 0.1950 0.0000 ( 29746 PWs)   bands (ev):

   -62.9629 -62.5426 -62.4481 -62.3715 -62.2805 -62.2462 -62.1575 -61.9200
   -37.4811 -37.2217 -37.2043 -37.1245 -36.8930 -36.7574 -36.6589 -36.6418
   -36.6146 -36.5955 -36.5792 -36.5394 -36.4917 -36.4869 -36.3780 -36.3682
   -36.3616 -36.3100 -36.2755 -36.2073 -36.2052 -35.8776 -35.7901 -35.6082
   -20.6700 -20.4305 -20.1248 -19.8946 -19.8163 -19.6846 -19.5812 -19.5667
   -19.4853 -19.3706 -19.2591 -19.0767 -19.0280 -18.8816 -18.8306 -18.8091
   -18.6890 -18.4675 -18.1943  -8.8561  -8.6507  -8.6216  -8.2591  -8.1901
    -8.0006  -7.8967  -7.8352  -7.6741  -7.5125  -7.4633  -7.2441  -7.1256
    -6.9483  -6.8414  -6.7239  -6.5844  -6.4664  -6.4476  -6.3385  -6.1823
    -6.0577  -5.9068  -5.7959  -5.6054  -5.5033  -5.3481  -5.2224  -5.1484
    -5.1116  -5.0329  -4.9254  -4.7758  -4.7468  -4.7094  -4.5926  -4.5536
    -4.5040  -4.4243  -4.3282  -4.2708  -4.1206  -4.0035  -3.9422  -3.8768
    -3.8142  -3.7607  -3.6644  -3.6062  -3.5490  -3.4830  -3.3402  -3.2591
    -3.1511  -3.0544  -3.0133  -2.6760  -2.2397  -2.1731  -1.9612  -1.1915
    -0.9392  -0.7145  -0.6568   0.0913   0.4038   0.4350   0.5841   0.6169
     0.9246   1.0507   1.1088   1.1797   1.2905   1.3848   1.4965   1.5827
     1.6979   1.8431   1.9802   2.2810   2.4691   3.2358   3.4012   3.5038
     3.6597   3.7779   3.9832   4.1195   4.1541   4.2369   4.3793   4.5262
     4.6730   4.9504   5.2491   5.3020   5.5373   5.6194   5.7617   5.8291
     5.9700   6.0400   6.3203   6.4880   6.7787   6.9122   7.1472   7.2123
     7.2261   7.5771   7.5969   7.7984   8.0353   8.0886   8.2747   8.3603
     8.5306   8.6098   8.6969   8.8232   9.0136   9.1393   9.1893   9.3643
     9.4835   9.5303   9.6288   9.6608   9.6797   9.7459   9.9157  10.1026
    10.1412  10.2731  10.3185  10.3927  10.5387  10.5972  10.7105  10.7966
    10.9171  10.9992  11.0907  11.2344  11.4086  11.5328  11.6135  11.6883
    11.7840  11.8713  11.9262  11.9834  12.0512  12.2735  12.3276  12.3988
    12.4376  12.4810  12.5472  12.6670  12.7709  12.8467  12.9088  12.9803
    13.0399  13.1906  13.2583  13.3001  13.3425  13.4263  13.4863  13.5434
    13.6027  13.6858  13.7320  13.7955  13.8881  13.9623  14.0617  14.1082
    14.1803  14.2207  14.3148  14.4188  14.4560  14.5519  14.5930  14.6425
    14.6977  14.7877  14.8650  14.9362  14.9722  15.0319  15.2181  15.2374
    15.3479  15.4329  15.4941  15.5585  15.6255  15.6979  15.8102  15.9079
    15.9664  16.0081  16.1064  16.1423  16.1885  16.2419  16.3382  16.4028
    16.4443  16.4711  16.5953  16.6453  16.7701  16.8498  16.8958  16.9769
    17.0530  17.1471  17.2149  17.2786  17.3211  17.3767  17.4834  17.5545
    17.6340  17.6921  17.7375  17.7911  17.9405  17.9598  18.0754  18.1064
    18.1653  18.2374  18.2999  18.3940  18.4467  18.4947  18.6083  18.6629
    18.7895  18.8797  18.9665  18.9766  19.0762  19.1513  19.1639  19.2704
    19.4258  19.4957  19.5827  19.7052  19.7273  19.8577  19.8970  19.9489
    19.9964  20.0326  20.1519  20.2070  20.2685  20.3021  20.3607  20.4381
    20.4677  20.5075  20.5952  20.6415  20.6736  20.7009  20.8262  20.9049
    20.9342  21.0248  21.0742  21.1572  21.1914  21.2635  21.3495  21.3936
    21.4833  21.5353  21.6100  21.6982  21.7466  21.7684  21.8291  21.8598
    21.8838

     the Fermi energy is    -0.4342 ev

!    total energy              =   -1728.39676971 Ry
     Harris-Foulkes estimate   =   -1728.39676971 Ry
     estimated scf accuracy    <          9.2E-09 Ry

     The total energy is the sum of the following terms:

     one-electron contribution =  -22054.34352638 Ry
     hartree contribution      =   11050.10367124 Ry
     xc contribution           =    -293.80623103 Ry
     ewald contribution        =    9565.64714164 Ry
     Hubbard energy            =       4.00176918 Ry
     smearing contrib. (-TS)   =       0.00040565 Ry

     convergence has been achieved in  14 iterations

     Forces acting on atoms (Ry/au):

     negative rho (up, down):  0.362E-02 0.000E+00
     atom    1 type  1   force =    -0.00407260   -0.00398521    0.00066178
     atom    2 type  1   force =     0.00007329    0.00559789   -0.00058629
     atom    3 type  2   force =    -0.02043179   -0.00951171    0.00010960
     atom    4 type  2   force =     0.01656192    0.00583018    0.00052126
     atom    5 type  1   force =    -0.00504322   -0.01188756   -0.00061404
     atom    6 type  1   force =    -0.00767503    0.01068182   -0.00052900
     atom    7 type  1   force =    -0.00055802    0.00201454   -0.00032146
     atom    8 type  1   force =     0.00699796   -0.00034654    0.00009622
     atom    9 type  2   force =    -0.01305240   -0.00089287   -0.00051570
     atom   10 type  2   force =     0.00096933   -0.00042813    0.00052054
     atom   11 type  1   force =    -0.00870593   -0.00143991    0.00004660
     atom   12 type  1   force =    -0.01008898    0.00293656    0.00005475
     atom   13 type  1   force =     0.01359642   -0.00018528   -0.00046268
     atom   14 type  1   force =     0.00415597   -0.00517572    0.00058634
     atom   15 type  1   force =     0.00020752    0.00850773   -0.00031297
     atom   16 type  2   force =     0.02018008   -0.00745273    0.00029573
     atom   17 type  2   force =    -0.02376837    0.00363238    0.00018400
     atom   18 type  1   force =     0.00878788   -0.00852740   -0.00055452
     atom   19 type  1   force =     0.00720861    0.00612412   -0.00052837
     atom   20 type  1   force =    -0.00055783    0.00300930    0.00070608
     atom   21 type  1   force =     0.00461571    0.00075482    0.00020056
     atom   22 type  2   force =     0.00837956    0.00122153    0.00010266
     atom   23 type  2   force =     0.00333229    0.00043138   -0.00020818
     atom   24 type  1   force =     0.00808253    0.00257109    0.00008130
     atom   25 type  1   force =     0.00769623   -0.00442579    0.00009465
     atom   26 type  1   force =    -0.01709863    0.00061456   -0.00019083
     atom   27 type  3   force =     0.00010758    0.00006796   -0.00008510
     atom   28 type  3   force =     0.00000870    0.00066245    0.00041087
     atom   29 type  3   force =    -0.00013494   -0.00043767    0.00042296
     atom   30 type  3   force =    -0.00057233    0.00009661   -0.00000720
     atom   31 type  1   force =     0.00079847   -0.00005839   -0.00017957

     Total force =     0.002533     Total SCF correction =     0.000211

     bfgs converged in  26 scf cycles and  24 bfgs steps
     (criteria: energy < 0.10E-03, force < 0.10E-02)

     End of BFGS Geometry Optimization

     Final energy   =   -1728.3967697056 Ry
Begin final coordinates

ATOMIC_POSITIONS (crystal)
O0       0.000000000   0.000000000   0.368958280    0   0   1
O0       0.000000000   0.500000000   0.384578230    0   0   1
Mo1      0.250000000   0.500000000   0.442757475    0   0   1
Mo1      0.000000000   0.000000000   0.440493338    0   0   1
O0       0.250000000   0.780000000   0.442403450    0   0   1
O0       0.250000000   0.220000000   0.442401346    0   0   1
O0       0.000000000   0.500000000   0.499670685    0   0   1
O0       0.000000000   0.000000000   0.515193442    0   0   1
Mo1      0.250000000   0.000000000   0.578741703    0   0   1
Mo1      0.000000000   0.500000000   0.568173300    0   0   1
O0       0.250000000   0.720000000   0.572058926    0   0   1
O0       0.250000000   0.280000000   0.572033079    0   0   1
O0       0.000000000   0.000000000   0.624257243    0   0   1
O0       0.500000000   0.000000000   0.370233977    0   0   1
O0       0.500000000   0.500000000   0.384387548    0   0   1
Mo1      0.750000000   0.500000000   0.442704390    0   0   1
Mo1      0.500000000   0.000000000   0.442179984    0   0   1
O0       0.750000000   0.780000000   0.442467046    0   0   1
O0       0.750000000   0.220000000   0.442375250    0   0   1
O0       0.500000000   0.500000000   0.497235799    0   0   1
O0       0.500000000   0.000000000   0.514710246    0   0   1
Mo1      0.750000000   0.000000000   0.568664390    0   0   1
Mo1      0.500000000   0.500000000   0.580807925    0   0   1
O0       0.750000000   0.720000000   0.570723693    0   0   1
O0       0.750000000   0.280000000   0.570716130    0   0   1
O0       0.500000000   0.000000000   0.624011051    0   0   1
H2       0.000142785   0.602153362   0.359707763
H2       0.499759730   0.619361968   0.365113259
H2       0.166758193   0.019531432   0.354535519
H2       0.662572791   0.020211271   0.354279881
O0       0.502316464   0.499623637   0.643005653
End final coordinates

     General routines

     Parallel routines
     Hubbard U routines

   This run was terminated on:  22:52: 6  29Apr2014

   JOB DONE.