     Program PWSCF v.5.0.2 (svn rev. 9656) starts on 24Jan2014 at 14:51:51

     Current dimensions of program PWSCF are:
     Max number of different atomic species (ntypx) = 10
     Max number of k-points (npk) =  40000
     Max angular momentum in pseudopotentials (lmaxx) =  3
     Reading input from ReO2-v-1.00.in

     Subspace diagonalization in iterative solution of the eigenvalue problem:
     a serial algorithm will be used

     bravais-lattice index     =            0
     lattice parameter (alat)  =       8.7792  a.u.
     unit-cell volume          =     436.0571 (a.u.)^3
     number of atoms/cell      =            6
     number of atomic types    =            2
     number of electrons       =        54.00
     number of Kohn-Sham states=           81
     kinetic-energy cutoff     =      40.0000  Ry
     charge density cutoff     =     500.0000  Ry
     convergence threshold     =      1.0E-06
     mixing beta               =       0.3000
     number of iterations used =            8  plain     mixing
     Exchange-correlation      = SLA  PW   PBE  PBE ( 1 4 3 4 0)
     EXX-fraction              =        0.00
     nstep                     =           50

     celldm(1)=   8.779153  celldm(2)=   0.000000  celldm(3)=   0.000000
     celldm(4)=   0.000000  celldm(5)=   0.000000  celldm(6)=   0.000000

     crystal axes: (cart. coord. in units of alat)
               a(1) = (   1.000000   0.000000   0.000000 )
               a(2) = (   0.000000   1.000000   0.000000 )
               a(3) = (   0.000000   0.000000   0.644444 )

     reciprocal axes: (cart. coord. in units 2 pi/alat)
               b(1) = (  1.000000  0.000000  0.000000 )
               b(2) = (  0.000000  1.000000  0.000000 )
               b(3) = (  0.000000  0.000000  1.551724 )

     PseudoPot. # 1 for Re read from file:
     /home/camp/zhonxu/pseudo/re_pbe_v1.uspp.F.UPF
     MD5 check sum: 6f5a5dcaf9c96c20d0ffdde0de57afc6
     Pseudo is Ultrasoft + core correction, Zval = 15.0
     Generated by new atomic code, or converted to UPF format
     Using radial grid of  981 points,  8 beta functions with:
                l(1) =   0
                l(2) =   0
                l(3) =   1
                l(4) =   1
                l(5) =   2
                l(6) =   2
                l(7) =   3
                l(8) =   3
     Q(r) pseudized with  8 coefficients,  rinner =    1.000   1.000   1.000
                                                       1.000   1.000   1.000
                                                       1.000

     PseudoPot. # 2 for O  read from file:
     /home/camp/zhonxu/pseudo/o_pbe_v1.01.uspp.F.UPF
     MD5 check sum: 2bcb18d16ea4b960afae9ec6d52f22d2
     Pseudo is Ultrasoft + core correction, Zval =  6.0
     Generated by new atomic code, or converted to UPF format
     Using radial grid of  737 points,  5 beta functions with:
                l(1) =   0
                l(2) =   0
                l(3) =   1
                l(4) =   1
                l(5) =   2
     Q(r) pseudized with  8 coefficients,  rinner =    0.900   0.900   0.900
                                                       0.900   0.900

     atomic species   valence    mass     pseudopotential
        Re0           15.00   186.20700     Re( 1.00)
        O1             6.00    15.99940     O ( 1.00)

     Starting magnetic structure
     atomic species   magnetization
        Re0          0.000
        O1           0.000

      8 Sym. Ops., with inversion, found
          (note:  8 additional sym.ops. were found but ignored
           their fractional translations are incommensurate with FFT grid)

   Cartesian axes

     site n.     atom                  positions (alat units)
         1           Re0 tau(   1) = (   0.0000000   0.0000000   0.0000000  )
         2           Re0 tau(   2) = (   0.5000000   0.5000000   0.3222222  )
         3           O1  tau(   3) = (   0.3050000   0.3050000   0.0000000  )
         4           O1  tau(   4) = (  -0.3050000  -0.3050000   0.0000000  )
         5           O1  tau(   5) = (   0.8050000   0.1950000   0.3222222  )
         6           O1  tau(   6) = (   0.1950000   0.8050000   0.3222222  )

     number of k points=    54  Methfessel-Paxton smearing, width (Ry)=  0.0100
                       cart. coord. in units 2pi/alat
        k(    1) = (   0.0000000   0.0000000   0.0000000), wk =   0.0080000
        k(    2) = (   0.0000000   0.0000000   0.3103448), wk =   0.0160000
        k(    3) = (   0.0000000   0.0000000   0.6206897), wk =   0.0160000
        k(    4) = (   0.0000000   0.2000000   0.0000000), wk =   0.0320000
        k(    5) = (   0.0000000   0.2000000   0.3103448), wk =   0.0640000
        k(    6) = (   0.0000000   0.2000000   0.6206897), wk =   0.0640000
        k(    7) = (   0.0000000   0.4000000   0.0000000), wk =   0.0320000
        k(    8) = (   0.0000000   0.4000000   0.3103448), wk =   0.0640000
        k(    9) = (   0.0000000   0.4000000   0.6206897), wk =   0.0640000
        k(   10) = (   0.2000000   0.2000000   0.0000000), wk =   0.0160000
        k(   11) = (   0.2000000   0.2000000   0.3103448), wk =   0.0320000
        k(   12) = (   0.2000000   0.2000000   0.6206897), wk =   0.0320000
        k(   13) = (   0.2000000   0.4000000   0.0000000), wk =   0.0320000
        k(   14) = (   0.2000000   0.4000000   0.3103448), wk =   0.0640000
        k(   15) = (   0.2000000   0.4000000   0.6206897), wk =   0.0640000
        k(   16) = (   0.4000000   0.4000000   0.0000000), wk =   0.0160000
        k(   17) = (   0.4000000   0.4000000   0.3103448), wk =   0.0320000
        k(   18) = (   0.4000000   0.4000000   0.6206897), wk =   0.0320000
        k(   19) = (  -0.2000000   0.2000000   0.0000000), wk =   0.0160000
        k(   20) = (  -0.2000000   0.2000000  -0.3103448), wk =   0.0320000
        k(   21) = (  -0.2000000   0.2000000  -0.6206897), wk =   0.0320000
        k(   22) = (  -0.2000000   0.4000000   0.0000000), wk =   0.0320000
        k(   23) = (  -0.2000000   0.4000000  -0.3103448), wk =   0.0640000
        k(   24) = (  -0.2000000   0.4000000  -0.6206897), wk =   0.0640000
        k(   25) = (  -0.4000000   0.4000000   0.0000000), wk =   0.0160000
        k(   26) = (  -0.4000000   0.4000000  -0.3103448), wk =   0.0320000
        k(   27) = (  -0.4000000   0.4000000  -0.6206897), wk =   0.0320000
        k(   28) = (   0.0000000   0.0000000   0.0000000), wk =   0.0080000
        k(   29) = (   0.0000000   0.0000000   0.3103448), wk =   0.0160000
        k(   30) = (   0.0000000   0.0000000   0.6206897), wk =   0.0160000
        k(   31) = (   0.0000000   0.2000000   0.0000000), wk =   0.0320000
        k(   32) = (   0.0000000   0.2000000   0.3103448), wk =   0.0640000
        k(   33) = (   0.0000000   0.2000000   0.6206897), wk =   0.0640000
        k(   34) = (   0.0000000   0.4000000   0.0000000), wk =   0.0320000
        k(   35) = (   0.0000000   0.4000000   0.3103448), wk =   0.0640000
        k(   36) = (   0.0000000   0.4000000   0.6206897), wk =   0.0640000
        k(   37) = (   0.2000000   0.2000000   0.0000000), wk =   0.0160000
        k(   38) = (   0.2000000   0.2000000   0.3103448), wk =   0.0320000
        k(   39) = (   0.2000000   0.2000000   0.6206897), wk =   0.0320000
        k(   40) = (   0.2000000   0.4000000   0.0000000), wk =   0.0320000
        k(   41) = (   0.2000000   0.4000000   0.3103448), wk =   0.0640000
        k(   42) = (   0.2000000   0.4000000   0.6206897), wk =   0.0640000
        k(   43) = (   0.4000000   0.4000000   0.0000000), wk =   0.0160000
        k(   44) = (   0.4000000   0.4000000   0.3103448), wk =   0.0320000
        k(   45) = (   0.4000000   0.4000000   0.6206897), wk =   0.0320000
        k(   46) = (  -0.2000000   0.2000000   0.0000000), wk =   0.0160000
        k(   47) = (  -0.2000000   0.2000000  -0.3103448), wk =   0.0320000
        k(   48) = (  -0.2000000   0.2000000  -0.6206897), wk =   0.0320000
        k(   49) = (  -0.2000000   0.4000000   0.0000000), wk =   0.0320000
        k(   50) = (  -0.2000000   0.4000000  -0.3103448), wk =   0.0640000
        k(   51) = (  -0.2000000   0.4000000  -0.6206897), wk =   0.0640000
        k(   52) = (  -0.4000000   0.4000000   0.0000000), wk =   0.0160000
        k(   53) = (  -0.4000000   0.4000000  -0.3103448), wk =   0.0320000
        k(   54) = (  -0.4000000   0.4000000  -0.6206897), wk =   0.0320000

     Largest allocated arrays     est. size (Mb)     dimensions
     Largest temporary arrays     est. size (Mb)     dimensions

     Check: negative/imaginary core charge=   -0.000004    0.000000

     Initial potential from superposition of free atoms
     Check: negative starting charge=(component1):   -0.029318
     Check: negative starting charge=(component2):   -0.029318

     starting charge   52.99990, renormalised to   54.00000

     negative rho (up, down):  0.299E-01 0.299E-01
     Starting wfc are   42 randomized atomic wfcs

     Self-consistent Calculation

     iteration #  1     ecut=    40.00 Ry     beta=0.30
     Davidson diagonalization with overlap
     ethr =  1.00E-02,  avg # of iterations =  5.1

     negative rho (up, down):  0.317E-01 0.317E-01

     total energy              =    -518.23064970 Ry
     Harris-Foulkes estimate   =    -518.73879024 Ry
     estimated scf accuracy    <       1.14314931 Ry

     total magnetization       =     0.00 Bohr mag/cell
     absolute magnetization    =     0.00 Bohr mag/cell

[...]

     End of self-consistent calculation

 ------ SPIN UP ------------

          k = 0.0000 0.0000 0.0000 (  1875 PWs)   bands (ev):

   -66.1464 -66.1429 -28.0725 -28.0725 -28.0447 -28.0165 -27.9619 -27.9619
    -6.7526  -5.6699  -4.4890  -4.4887   4.8767   5.2722   6.6079   7.1256
     7.1258   9.3314   9.3314   9.8643  10.9675  11.2028  11.2028  11.8066
    13.5516  13.5645  14.4164  14.5556  14.5556  17.7365  17.8763  18.7589
    20.9964  20.9965  22.4829  23.1934  23.1934  27.0793  27.5280  27.6340
    30.2800  30.6112  30.9327  30.9328  33.1807  34.1102  34.8521  34.8521
    35.9367  35.9367  37.0900  40.7193  41.1137  41.1137  41.5689  42.3417
    43.4458  44.4781  44.4781  44.5675  44.7848  45.2143  45.2143  45.8923
    46.2506  46.9056  46.9057  47.6348  50.0239  52.0539  52.0540  52.5348
    52.9863  53.0479  53.0479  53.7448  54.3901  54.3901  54.4114  54.4529
    55.3741

[...]

          k =-0.2000 0.2000 0.0000 (  1865 PWs)   bands (ev):

[...]

 ------ SPIN DOWN ----------

[...]

     the Fermi energy is    15.2915 ev

!    total energy              =    -518.45880850 Ry
     Harris-Foulkes estimate   =    -518.45880018 Ry
     estimated scf accuracy    <       0.00000048 Ry

     The total energy is the sum of the following terms:

     one-electron contribution =    -118.93740737 Ry
     hartree contribution      =      90.67910261 Ry
     xc contribution           =    -142.75013059 Ry
     ewald contribution        =    -347.44991926 Ry
     smearing contrib. (-TS)   =      -0.00045389 Ry

[...]

     convergence has been achieved in   8 iterations

     Forces acting on atoms (Ry/au):

     negative rho (up, down):  0.294E-01 0.294E-01
[...]
        k(    9) = (   0.0000001   0.3774065   0.6972295), wk =   0.0640000
        k(   10) = (   0.1887033   0.1887033   0.0000000), wk =   0.0160000
        k(   11) = (   0.1887033   0.1887033   0.3486148), wk =   0.0320000
        k(   12) = (   0.1887033   0.1887033   0.6972295), wk =   0.0320000
        k(   13) = (   0.1887033   0.3774065   0.0000000), wk =   0.0320000
        k(   14) = (   0.1887033   0.3774065   0.3486148), wk =   0.0640000
        k(   15) = (   0.1887033   0.3774065   0.6972295), wk =   0.0640000
        k(   16) = (   0.3774066   0.3774066   0.0000000), wk =   0.0160000
        k(   17) = (   0.3774066   0.3774066   0.3486148), wk =   0.0320000
        k(   18) = (   0.3774066   0.3774066   0.6972295), wk =   0.0320000
        k(   19) = (  -0.1887032   0.1887032   0.0000000), wk =   0.0160000
        k(   20) = (  -0.1887032   0.1887032  -0.3486148), wk =   0.0320000
        k(   21) = (  -0.1887032   0.1887032  -0.6972295), wk =   0.0320000
        k(   22) = (  -0.1887032   0.3774065   0.0000000), wk =   0.0320000
        k(   23) = (  -0.1887032   0.3774065  -0.3486148), wk =   0.0640000
        k(   24) = (  -0.1887032   0.3774065  -0.6972295), wk =   0.0640000
        k(   25) = (  -0.3774064   0.3774064   0.0000000), wk =   0.0160000
        k(   26) = (  -0.3774064   0.3774064  -0.3486148), wk =   0.0320000
        k(   27) = (  -0.3774064   0.3774064  -0.6972295), wk =   0.0320000
        k(   28) = (   0.0000000   0.0000000   0.0000000), wk =   0.0080000
        k(   29) = (   0.0000000   0.0000000   0.3486148), wk =   0.0160000
        k(   30) = (   0.0000000   0.0000000   0.6972295), wk =   0.0160000
        k(   31) = (   0.0000000   0.1887032   0.0000000), wk =   0.0320000
        k(   32) = (   0.0000000   0.1887032   0.3486148), wk =   0.0640000
        k(   33) = (   0.0000000   0.1887032   0.6972295), wk =   0.0640000
        k(   34) = (   0.0000001   0.3774065   0.0000000), wk =   0.0320000
        k(   35) = (   0.0000001   0.3774065   0.3486148), wk =   0.0640000
        k(   36) = (   0.0000001   0.3774065   0.6972295), wk =   0.0640000
        k(   37) = (   0.1887033   0.1887033   0.0000000), wk =   0.0160000
        k(   38) = (   0.1887033   0.1887033   0.3486148), wk =   0.0320000
        k(   39) = (   0.1887033   0.1887033   0.6972295), wk =   0.0320000
        k(   40) = (   0.1887033   0.3774065   0.0000000), wk =   0.0320000
        k(   41) = (   0.1887033   0.3774065   0.3486148), wk =   0.0640000
        k(   42) = (   0.1887033   0.3774065   0.6972295), wk =   0.0640000
        k(   43) = (   0.3774066   0.3774066   0.0000000), wk =   0.0160000
        k(   44) = (   0.3774066   0.3774066   0.3486148), wk =   0.0320000
        k(   45) = (   0.3774066   0.3774066   0.6972295), wk =   0.0320000
        k(   46) = (  -0.1887032   0.1887032   0.0000000), wk =   0.0160000
        k(   47) = (  -0.1887032   0.1887032  -0.3486148), wk =   0.0320000
        k(   48) = (  -0.1887032   0.1887032  -0.6972295), wk =   0.0320000
        k(   49) = (  -0.1887032   0.3774065   0.0000000), wk =   0.0320000
        k(   50) = (  -0.1887032   0.3774065  -0.3486148), wk =   0.0640000
        k(   51) = (  -0.1887032   0.3774065  -0.6972295), wk =   0.0640000
        k(   52) = (  -0.3774064   0.3774064   0.0000000), wk =   0.0160000
        k(   53) = (  -0.3774064   0.3774064  -0.3486148), wk =   0.0320000
        k(   54) = (  -0.3774064   0.3774064  -0.6972295), wk =   0.0320000

     Check: negative/imaginary core charge=   -0.000003    0.000000
     Check: negative starting charge=(component1):   -0.057254

[...]

     Threshold (ethr) on eigenvalues was too large:
     Diagonalizing with lowered threshold

     Davidson diagonalization with overlap
     ethr =  1.06E-09,  avg # of iterations =  1.9

[...]

     Volume is kept fixed: isostatic pressure set to zero

     bfgs converged in   9 scf cycles and   8 bfgs steps
     (criteria: energy < 0.10E-03, force < 0.10E-02, cell < 0.50E+00)

     End of BFGS Geometry Optimization

     Final enthalpy =    -518.5483028035 Ry
Begin final coordinates
     new unit-cell volume =    436.05714 a.u.^3 (    64.61700 Ang^3 )

CELL_PARAMETERS (alat=  8.77915341)
   1.059865185  -0.000000173   0.000000000
  -0.000000173   1.059865185   0.000000000
   0.000000000   0.000000000   0.573699183

ATOMIC_POSITIONS (crystal)
Re0      0.000000000   0.000000000   0.000000000    0   0   0
Re0      0.500000000   0.500000000   0.500000000    0   0   0
O1       0.280955205   0.280955205   0.000000000    1   1   0
O1      -0.280955205  -0.280955205   0.000000000    1   1   0
O1       0.780954410   0.219045590   0.500000000    1   1   0
O1       0.219045590   0.780954410   0.500000000    1   1   0
End final coordinates

     A final scf calculation at the relaxed structure.
     The G-vectors are recalculated for the final unit cell
     Results may differ from those at the preceding step.

     bravais-lattice index     =            0
     lattice parameter (alat)  =       8.7792  a.u.
     unit-cell volume          =     436.0571 (a.u.)^3
     number of atoms/cell      =            6
     number of atomic types    =            2
     number of electrons       =        54.00
     number of Kohn-Sham states=           81
     kinetic-energy cutoff     =      40.0000  Ry
     charge density cutoff     =     500.0000  Ry
     convergence threshold     =      1.0E-08
     mixing beta               =       0.3000
     number of iterations used =            8  plain     mixing
     Exchange-correlation      = SLA  PW   PBE  PBE ( 1 4 3 4 0)
     EXX-fraction              =        0.00

     celldm(1)=   8.779153  celldm(2)=   0.000000  celldm(3)=   0.000000
     celldm(4)=   0.000000  celldm(5)=   0.000000  celldm(6)=   0.000000

     crystal axes: (cart. coord. in units of alat)
               a(1) = (   1.059865  -0.000000   0.000000 )
               a(2) = (  -0.000000   1.059865   0.000000 )
               a(3) = (   0.000000   0.000000   0.573699 )

     reciprocal axes: (cart. coord. in units 2 pi/alat)
               b(1) = (  0.943516  0.000000 -0.000000 )
               b(2) = (  0.000000  0.943516 -0.000000 )
               b(3) = ( -0.000000 -0.000000  1.743074 )

     PseudoPot. # 1 for Re read from file:
     /home/camp/zhonxu/pseudo/re_pbe_v1.uspp.F.UPF
     MD5 check sum: 6f5a5dcaf9c96c20d0ffdde0de57afc6
     Pseudo is Ultrasoft + core correction, Zval = 15.0
     Generated by new atomic code, or converted to UPF format
     Using radial grid of  981 points,  8 beta functions with:
                l(1) =   0
                l(2) =   0
                l(3) =   1
                l(4) =   1
                l(5) =   2
                l(6) =   2
                l(7) =   3
                l(8) =   3
     Q(r) pseudized with  8 coefficients,  rinner =    1.000   1.000   1.000
                                                       1.000   1.000   1.000
                                                       1.000

     PseudoPot. # 2 for O  read from file:
     /home/camp/zhonxu/pseudo/o_pbe_v1.01.uspp.F.UPF
     MD5 check sum: 2bcb18d16ea4b960afae9ec6d52f22d2
     Pseudo is Ultrasoft + core correction, Zval =  6.0
     Generated by new atomic code, or converted to UPF format
     Using radial grid of  737 points,  5 beta functions with:
                l(1) =   0
                l(2) =   0
                l(3) =   1
                l(4) =   1
                l(5) =   2
     Q(r) pseudized with  8 coefficients,  rinner =    0.900   0.900   0.900
                                                       0.900   0.900

     atomic species   valence    mass     pseudopotential
        Re0           15.00   186.20700     Re( 1.00)
        O1             6.00    15.99940     O ( 1.00)

     Starting magnetic structure
     atomic species   magnetization
        Re0          0.000
        O1           0.000

      8 Sym. Ops., with inversion, found
          (note:  8 additional sym.ops. were found but ignored
           their fractional translations are incommensurate with FFT grid)

   Cartesian axes

     site n.     atom                  positions (alat units)
         1           Re0 tau(   1) = (   0.0000000   0.0000000   0.0000000  )
         2           Re0 tau(   2) = (   0.5299325   0.5299325   0.2868496  )
         3           O1  tau(   3) = (   0.2977746   0.2977746   0.0000000  )
         4           O1  tau(   4) = (  -0.2977746  -0.2977746   0.0000000  )
         5           O1  tau(   5) = (   0.8277064   0.2321587   0.2868496  )
         6           O1  tau(   6) = (   0.2321587   0.8277064   0.2868496  )

     number of k points=    54  Methfessel-Paxton smearing, width (Ry)=  0.0100
                       cart. coord. in units 2pi/alat
        k(    1) = (   0.0000000   0.0000000   0.0000000), wk =   0.0080000
        k(    2) = (   0.0000000   0.0000000   0.3486148), wk =   0.0160000
        k(    3) = (   0.0000000   0.0000000   0.6972295), wk =   0.0160000
        k(    4) = (   0.0000000   0.1887032   0.0000000), wk =   0.0320000
        k(    5) = (   0.0000000   0.1887032   0.3486148), wk =   0.0640000
        k(    6) = (   0.0000000   0.1887032   0.6972295), wk =   0.0640000
        k(    7) = (   0.0000001   0.3774065   0.0000000), wk =   0.0320000
        k(    8) = (   0.0000001   0.3774065   0.3486148), wk =   0.0640000
        k(    9) = (   0.0000001   0.3774065   0.6972295), wk =   0.0640000
        k(   10) = (   0.1887033   0.1887033   0.0000000), wk =   0.0160000
        k(   11) = (   0.1887033   0.1887033   0.3486148), wk =   0.0320000
        k(   12) = (   0.1887033   0.1887033   0.6972295), wk =   0.0320000
        k(   13) = (   0.1887033   0.3774065   0.0000000), wk =   0.0320000
        k(   14) = (   0.1887033   0.3774065   0.3486148), wk =   0.0640000
        k(   15) = (   0.1887033   0.3774065   0.6972295), wk =   0.0640000
        k(   16) = (   0.3774066   0.3774066   0.0000000), wk =   0.0160000
        k(   17) = (   0.3774066   0.3774066   0.3486148), wk =   0.0320000
        k(   18) = (   0.3774066   0.3774066   0.6972295), wk =   0.0320000
        k(   19) = (  -0.1887032   0.1887032   0.0000000), wk =   0.0160000
        k(   20) = (  -0.1887032   0.1887032  -0.3486148), wk =   0.0320000
        k(   21) = (  -0.1887032   0.1887032  -0.6972295), wk =   0.0320000
        k(   22) = (  -0.1887032   0.3774065   0.0000000), wk =   0.0320000
        k(   23) = (  -0.1887032   0.3774065  -0.3486148), wk =   0.0640000
        k(   24) = (  -0.1887032   0.3774065  -0.6972295), wk =   0.0640000
        k(   25) = (  -0.3774064   0.3774064   0.0000000), wk =   0.0160000
        k(   26) = (  -0.3774064   0.3774064  -0.3486148), wk =   0.0320000
        k(   27) = (  -0.3774064   0.3774064  -0.6972295), wk =   0.0320000
        k(   28) = (   0.0000000   0.0000000   0.0000000), wk =   0.0080000
        k(   29) = (   0.0000000   0.0000000   0.3486148), wk =   0.0160000
        k(   30) = (   0.0000000   0.0000000   0.6972295), wk =   0.0160000
        k(   31) = (   0.0000000   0.1887032   0.0000000), wk =   0.0320000
        k(   32) = (   0.0000000   0.1887032   0.3486148), wk =   0.0640000
        k(   33) = (   0.0000000   0.1887032   0.6972295), wk =   0.0640000
        k(   34) = (   0.0000001   0.3774065   0.0000000), wk =   0.0320000
        k(   35) = (   0.0000001   0.3774065   0.3486148), wk =   0.0640000
        k(   36) = (   0.0000001   0.3774065   0.6972295), wk =   0.0640000
        k(   37) = (   0.1887033   0.1887033   0.0000000), wk =   0.0160000
        k(   38) = (   0.1887033   0.1887033   0.3486148), wk =   0.0320000
        k(   39) = (   0.1887033   0.1887033   0.6972295), wk =   0.0320000
        k(   40) = (   0.1887033   0.3774065   0.0000000), wk =   0.0320000
        k(   41) = (   0.1887033   0.3774065   0.3486148), wk =   0.0640000
        k(   42) = (   0.1887033   0.3774065   0.6972295), wk =   0.0640000
        k(   43) = (   0.3774066   0.3774066   0.0000000), wk =   0.0160000
        k(   44) = (   0.3774066   0.3774066   0.3486148), wk =   0.0320000
        k(   45) = (   0.3774066   0.3774066   0.6972295), wk =   0.0320000
        k(   46) = (  -0.1887032   0.1887032   0.0000000), wk =   0.0160000
        k(   47) = (  -0.1887032   0.1887032  -0.3486148), wk =   0.0320000
        k(   48) = (  -0.1887032   0.1887032  -0.6972295), wk =   0.0320000
        k(   49) = (  -0.1887032   0.3774065   0.0000000), wk =   0.0320000
        k(   50) = (  -0.1887032   0.3774065  -0.3486148), wk =   0.0640000
        k(   51) = (  -0.1887032   0.3774065  -0.6972295), wk =   0.0640000
        k(   52) = (  -0.3774064   0.3774064   0.0000000), wk =   0.0160000
        k(   53) = (  -0.3774064   0.3774064  -0.3486148), wk =   0.0320000
        k(   54) = (  -0.3774064   0.3774064  -0.6972295), wk =   0.0320000

     Largest allocated arrays     est. size (Mb)     dimensions
     Largest temporary arrays     est. size (Mb)     dimensions

     Check: negative/imaginary core charge=   -0.000004    0.000000

     Initial potential from superposition of free atoms
     Check: negative starting charge=(component1):   -0.029630
     Check: negative starting charge=(component2):   -0.029630

     starting charge   52.99990, renormalised to   54.00000

     negative rho (up, down):  0.302E-01 0.302E-01
     Starting wfc are   42 randomized atomic wfcs

     Self-consistent Calculation

[...]

     total energy              =    -518.54982541 Ry
     Harris-Foulkes estimate   =    -518.54982336 Ry
     estimated scf accuracy    <       0.00000010 Ry

[...]

     iteration # 10     ecut=    40.00 Ry     beta=0.30
     Davidson diagonalization with overlap
     ethr =  1.88E-10,  avg # of iterations =  1.0

     negative rho (up, down):  0.309E-01 0.309E-01

     End of self-consistent calculation

 ------ SPIN UP ------------

[...]

 ------ SPIN DOWN ----------

[...]

          k = 0.3774 0.3774 0.6972 (  1877 PWs)   bands (ev):

[...]

          k =-0.3774 0.3774-0.6972 (  1877 PWs)   bands (ev):

   -66.6714 -66.6713 -28.9087 -28.9082 -28.5758 -28.5735 -28.5438 -28.5423
    -5.2841  -5.0627  -4.8963  -4.6468   6.1538   6.5510   6.7051   7.0256
     7.1083   7.8384   7.9440   8.7015   9.9042  10.0933  10.9470  11.1662
    13.7536  14.0392  14.9304  15.3333  16.7503  16.8492  18.6656  19.6620
    19.9658  20.7699  23.5939  24.0853  24.3250  24.4868  28.1972  28.2417
    29.0932  29.2580  30.8739  31.1878  32.4547  33.1128  33.6236  34.2875
    36.7051  37.0061  37.9137  38.0564  40.4420  40.8264  41.9386  42.3814
    42.6101  42.8743  44.4326  45.2536  45.4858  45.8837  46.2981  46.8137
    47.2608  47.5380  47.7738  48.4628  49.2244  49.2796  49.8932  50.0795
    51.4973  52.4895  54.8937  55.7063  55.9503  56.2872  57.1042  57.1911
    58.5600

     the Fermi energy is    15.1203 ev

!    total energy              =    -518.54982741 Ry
     Harris-Foulkes estimate   =    -518.54982544 Ry
     estimated scf accuracy    <          1.0E-08 Ry

     The total energy is the sum of the following terms:

     one-electron contribution =    -123.78994696 Ry
     hartree contribution      =      92.61404303 Ry
     xc contribution           =    -142.65181226 Ry
     ewald contribution        =    -344.72166475 Ry
     smearing contrib. (-TS)   =      -0.00044646 Ry

     total magnetization       =    -0.00 Bohr mag/cell
     absolute magnetization    =     0.00 Bohr mag/cell

     convergence has been achieved in  10 iterations

     Forces acting on atoms (Ry/au):

     negative rho (up, down):  0.309E-01 0.309E-01
     atom    1 type  1   force =     0.00000000    0.00000000    0.00000000
     atom    2 type  1   force =     0.00000000    0.00000000    0.00000000
     atom    3 type  2   force =     0.00003731    0.00003731    0.00000000
     atom    4 type  2   force =    -0.00003731   -0.00003731    0.00000000
     atom    5 type  2   force =     0.00004001   -0.00004001    0.00000000
     atom    6 type  2   force =    -0.00004001    0.00004001    0.00000000

     Total force =     0.000109     Total SCF correction =     0.000043
     SCF correction compared to forces is large: reduce conv_thr to get better values

     entering subroutine stress ...

     negative rho (up, down):  0.309E-01 0.309E-01
          total   stress  (Ry/bohr**3)                   (kbar)     P=   29.22
   0.00022047   0.00000006   0.00000000         32.43      0.01      0.00
   0.00000006   0.00022047   0.00000000          0.01     32.43      0.00
   0.00000000   0.00000000   0.00015490          0.00      0.00     22.79

     General routines

     Parallel routines

   This run was terminated on:  15:47:24  24Jan2014

   JOB DONE.