     Program PWSCF v.5.0.2 (svn rev. 9656) starts on 29Apr2014 at  0:43:41

     Current dimensions of program PWSCF are:
     Max number of different atomic species (ntypx) = 10
     Max number of k-points (npk) =  40000
     Max angular momentum in pseudopotentials (lmaxx) =  3
     Reading input from pwscf.in
Warning: card &CELL ignored
Warning: card / ignored

     Subspace diagonalization in iterative solution of the eigenvalue problem:
     a serial algorithm will be used

     bravais-lattice index     =            0
     lattice parameter (alat)  =      10.3179  a.u.
     unit-cell volume          =    6964.3238 (a.u.)^3
     number of atoms/cell      =           32
     number of atomic types    =            3
     number of electrons       =       231.00
     number of Kohn-Sham states=          346
     kinetic-energy cutoff     =      40.0000  Ry
     charge density cutoff     =     500.0000  Ry
     convergence threshold     =      1.0E-06
     mixing beta               =       0.7000
     number of iterations used =            8  plain     mixing
     Exchange-correlation      = SLA  PW   PBE  PBE ( 1 4 3 4 0)
     EXX-fraction              =        0.00
     nstep                     =           50

     celldm(1)=  10.317905  celldm(2)=   0.000000  celldm(3)=   0.000000
     celldm(4)=   0.000000  celldm(5)=   0.000000  celldm(6)=   0.000000

     crystal axes: (cart. coord. in units of alat)
               a(1) = (   1.000000   0.000000   0.000000 )
               a(2) = (   0.000000   1.282117   0.000000 )
               a(3) = (   0.000000   0.000000   4.945120 )

     reciprocal axes: (cart. coord. in units 2 pi/alat)
               b(1) = (  1.000000  0.000000  0.000000 )
               b(2) = (  0.000000  0.779960  0.000000 )
               b(3) = (  0.000000  0.000000  0.202220 )

     PseudoPot. # 1 for O  read from file:
     /home/camp/zhonxu/pseudo/o_pbe_v1.01.uspp.F.UPF
     MD5 check sum: 2bcb18d16ea4b960afae9ec6d52f22d2
     Pseudo is Ultrasoft + core correction, Zval =  6.0
     Generated by new atomic code, or converted to UPF format
     Using radial grid of  737 points,  5 beta functions with:
                l(1) =   0
                l(2) =   0
                l(3) =   1
                l(4) =   1
                l(5) =   2
     Q(r) pseudized with  8 coefficients,  rinner =    0.900   0.900   0.900
                                                       0.900   0.900

     PseudoPot. # 2 for Mo read from file:
     /home/camp/zhonxu/pseudo/mo_pbe_v1.uspp.F.UPF
     MD5 check sum: 30c4dcd161f5d35cd49bb5239c51a633
     Pseudo is Ultrasoft + core correction, Zval = 14.0
     Generated by new atomic code, or converted to UPF format
     Using radial grid of  889 points,  6 beta functions with:
                l(1) =   0
                l(2) =   0
                l(3) =   1
                l(4) =   1
                l(5) =   2
                l(6) =   2
     Q(r) pseudized with  6 coefficients,  rinner =    1.000   1.000   1.000
                                                       1.000   1.000

     PseudoPot. # 3 for H  read from file:
     /home/camp/zhonxu/pseudo/h_pbe_v1.uspp.F.UPF
     MD5 check sum: 3408e3ff4ec8b0a4e358431e7e038a48
     Pseudo is Ultrasoft, Zval =  1.0
     Generated by new atomic code, or converted to UPF format
     Using radial grid of  615 points,  2 beta functions with:
                l(1) =   0
                l(2) =   0
     Q(r) pseudized with  8 coefficients,  rinner =    0.700

     atomic species   valence    mass     pseudopotential
        O0             6.00    15.99940     O ( 1.00)
        Mo1           14.00    95.94000     Mo( 1.00)
        H2             1.00     1.00794     H ( 1.00)

     Simplified LDA+U calculation (l_max = 2) with parameters (eV):
     atomic species    L          U    alpha       J0     beta
        Mo1            2     4.5000   0.0000   0.0000   0.0000

     No symmetry found

   Cartesian axes

     site n.     atom                  positions (alat units)
         1           O0  tau(   1) = (   0.0000000   0.0000000   1.8362221  )
         2           O0  tau(   2) = (   0.0000000   0.6410583   1.8932888  )
         3           Mo1 tau(   3) = (   0.2500000   0.6410583   2.1787211  )
         4           Mo1 tau(   4) = (   0.0000000   0.0000000   2.1942488  )
         5           O0  tau(   5) = (   0.2500000   1.0000510   2.1917762  )
         6           O0  tau(   6) = (   0.2500000   0.2820657   2.1916279  )
         7           O0  tau(   7) = (   0.0000000   0.6410583   2.4619282  )
         8           O0  tau(   8) = (   0.0000000   0.0000000   2.5552920  )
         9           Mo1 tau(   9) = (   0.2500000   0.0000000   2.8451750  )
        10           Mo1 tau(  10) = (   0.0000000   0.6410583   2.7951798  )
        11           O0  tau(  11) = (   0.2500000   0.9231240   2.8229220  )
        12           O0  tau(  12) = (   0.2500000   0.3589927   2.8238121  )
        13           O0  tau(  13) = (   0.0000000   0.0000000   3.0959420  )
        14           O0  tau(  14) = (   0.5000000   0.0000000   1.8365188  )
        15           O0  tau(  15) = (   0.5000000   0.6410583   1.8939316  )
        16           Mo1 tau(  16) = (   0.7500000   0.6410583   2.1784244  )
        17           Mo1 tau(  17) = (   0.5000000   0.0000000   2.1964741  )
        18           O0  tau(  18) = (   0.7500000   1.0000510   2.1920730  )
        19           O0  tau(  19) = (   0.7500000   0.2820657   2.1913806  )
        20           O0  tau(  20) = (   0.5000000   0.6410583   2.4641535  )
        21           O0  tau(  21) = (   0.5000000   0.0000000   2.5544514  )
        22           Mo1 tau(  22) = (   0.7500000   0.0000000   2.8455212  )
        23           Mo1 tau(  23) = (   0.5000000   0.6410583   2.8262846  )
        24           O0  tau(  24) = (   0.7500000   0.9231240   2.8210923  )
        25           O0  tau(  25) = (   0.7500000   0.3589927   2.8208450  )
        26           O0  tau(  26) = (   0.5000000   0.0000000   3.0950519  )
        27           H2  tau(  27) = (  -0.0007600   0.7828861   1.7821225  )
        28           H2  tau(  28) = (   0.4995000   0.7914763   1.7941391  )
        29           H2  tau(  29) = (   0.1669200   0.0220268   1.7647651  )
        30           H2  tau(  30) = (   0.6653100   0.0245269   1.7632816  )
        31           O0  tau(  31) = (   0.5147600   0.6413532   3.1767948  )
        32           H2  tau(  32) = (   0.3891500   0.6353401   3.3044778  )

     number of k points=    10  Methfessel-Paxton smearing, width (Ry)=  0.0100
                       cart. coord. in units 2pi/alat
        k(    1) = (   0.0000000   0.0000000   0.0000000), wk =   0.1250000
        k(    2) = (   0.0000000   0.1949901   0.0000000), wk =   0.2500000
        k(    3) = (   0.0000000  -0.3899801   0.0000000), wk =   0.1250000
        k(    4) = (   0.2500000   0.0000000   0.0000000), wk =   0.2500000
        k(    5) = (   0.2500000   0.1949901   0.0000000), wk =   0.2500000
        k(    6) = (   0.2500000  -0.3899801   0.0000000), wk =   0.2500000
        k(    7) = (  -0.5000000   0.0000000   0.0000000), wk =   0.1250000
        k(    8) = (  -0.5000000   0.1949901   0.0000000), wk =   0.2500000
        k(    9) = (  -0.5000000  -0.3899801   0.0000000), wk =   0.1250000
        k(   10) = (  -0.2500000   0.1949901   0.0000000), wk =   0.2500000

     Largest allocated arrays     est. size (Mb)     dimensions
     Largest temporary arrays     est. size (Mb)     dimensions

     Check: negative/imaginary core charge=   -0.000003    0.000000

     Initial potential from superposition of free atoms
     Check: negative starting charge=   -0.002345

     starting charge  230.99142, renormalised to  231.00000

     negative rho (up, down):  0.235E-02 0.000E+00
     Number of +U iterations with fixed ns =  0
     Starting occupations:
 --- enter write_ns ---
 LDA+U parameters:
U( 2)     =  4.50000000
alpha( 2) =  0.00000000
atom    3   Tr[ns(na)] =   5.00000
    eigenvalues:
  0.500  0.500  0.500  0.500  0.500
    eigenvectors:
  1.000  0.000  0.000  0.000  0.000
  0.000  1.000  0.000  0.000  0.000
  0.000  0.000  1.000  0.000  0.000
  0.000  0.000  0.000  1.000  0.000
  0.000  0.000  0.000  0.000  1.000
    occupations:
  0.500  0.000  0.000  0.000  0.000
  0.000  0.500  0.000  0.000  0.000
  0.000  0.000  0.500  0.000  0.000
  0.000  0.000  0.000  0.500  0.000
  0.000  0.000  0.000  0.000  0.500
atom    4   Tr[ns(na)] =   5.00000
    eigenvalues:
  0.500  0.500  0.500  0.500  0.500
    eigenvectors:
  1.000  0.000  0.000  0.000  0.000
  0.000  1.000  0.000  0.000  0.000
  0.000  0.000  1.000  0.000  0.000
  0.000  0.000  0.000  1.000  0.000
  0.000  0.000  0.000  0.000  1.000
    occupations:
  0.500  0.000  0.000  0.000  0.000
  0.000  0.500  0.000  0.000  0.000
  0.000  0.000  0.500  0.000  0.000
  0.000  0.000  0.000  0.500  0.000
  0.000  0.000  0.000  0.000  0.500
atom    9   Tr[ns(na)] =   5.00000
    eigenvalues:
  0.500  0.500  0.500  0.500  0.500
    eigenvectors:
  1.000  0.000  0.000  0.000  0.000
  0.000  1.000  0.000  0.000  0.000
  0.000  0.000  1.000  0.000  0.000
  0.000  0.000  0.000  1.000  0.000
  0.000  0.000  0.000  0.000  1.000
    occupations:
  0.500  0.000  0.000  0.000  0.000
  0.000  0.500  0.000  0.000  0.000
  0.000  0.000  0.500  0.000  0.000
  0.000  0.000  0.000  0.500  0.000
  0.000  0.000  0.000  0.000  0.500
atom   10   Tr[ns(na)] =   5.00000
    eigenvalues:
  0.500  0.500  0.500  0.500  0.500
    eigenvectors:
  1.000  0.000  0.000  0.000  0.000
  0.000  1.000  0.000  0.000  0.000
  0.000  0.000  1.000  0.000  0.000
  0.000  0.000  0.000  1.000  0.000
  0.000  0.000  0.000  0.000  1.000
    occupations:
  0.500  0.000  0.000  0.000  0.000
  0.000  0.500  0.000  0.000  0.000
  0.000  0.000  0.500  0.000  0.000
  0.000  0.000  0.000  0.500  0.000
  0.000  0.000  0.000  0.000  0.500
atom   16   Tr[ns(na)] =   5.00000
    eigenvalues:
  0.500  0.500  0.500  0.500  0.500
    eigenvectors:
  1.000  0.000  0.000  0.000  0.000
  0.000  1.000  0.000  0.000  0.000
  0.000  0.000  1.000  0.000  0.000
  0.000  0.000  0.000  1.000  0.000
  0.000  0.000  0.000  0.000  1.000
    occupations:
  0.500  0.000  0.000  0.000  0.000
  0.000  0.500  0.000  0.000  0.000
  0.000  0.000  0.500  0.000  0.000
  0.000  0.000  0.000  0.500  0.000
  0.000  0.000  0.000  0.000  0.500
atom   17   Tr[ns(na)] =   5.00000
    eigenvalues:
  0.500  0.500  0.500  0.500  0.500
    eigenvectors:
  1.000  0.000  0.000  0.000  0.000
  0.000  1.000  0.000  0.000  0.000
  0.000  0.000  1.000  0.000  0.000
  0.000  0.000  0.000  1.000  0.000
  0.000  0.000  0.000  0.000  1.000
    occupations:
  0.500  0.000  0.000  0.000  0.000
  0.000  0.500  0.000  0.000  0.000
  0.000  0.000  0.500  0.000  0.000
  0.000  0.000  0.000  0.500  0.000
  0.000  0.000  0.000  0.000  0.500
atom   22   Tr[ns(na)] =   5.00000
    eigenvalues:
  0.500  0.500  0.500  0.500  0.500
    eigenvectors:
  1.000  0.000  0.000  0.000  0.000
  0.000  1.000  0.000  0.000  0.000
  0.000  0.000  1.000  0.000  0.000
  0.000  0.000  0.000  1.000  0.000
  0.000  0.000  0.000  0.000  1.000
[...]
  0.000  0.000  0.728  0.058  0.214
  0.902  0.098  0.000  0.000  0.000
    occupations:
  0.702 -0.001  0.000 -0.054 -0.000
 -0.001  0.602 -0.001 -0.001 -0.000
  0.000 -0.001  0.512 -0.000  0.014
 -0.054 -0.001 -0.000  0.626 -0.000
 -0.000 -0.000  0.014 -0.000  0.476
atom   10   Tr[ns(na)] =   5.78578
    eigenvalues:
  0.419  0.479  0.512  0.724  0.759
    eigenvectors:
  0.003  0.995  0.000  0.002  0.000
  0.000  0.000  0.000  0.000  1.000
  0.997  0.003  0.000  0.000  0.000
  0.000  0.002  0.000  0.998  0.000
  0.000  0.000  1.000  0.000  0.000
    occupations:
  0.479 -0.002 -0.003  0.010 -0.000
 -0.002  0.759 -0.002  0.000 -0.000
 -0.003 -0.002  0.419 -0.000 -0.000
  0.010  0.000 -0.000  0.723 -0.000
 -0.000 -0.000 -0.000 -0.000  0.512
atom   16   Tr[ns(na)] =   5.82624
    eigenvalues:
  0.438  0.504  0.568  0.632  0.771
    eigenvectors:
  0.011  0.000  0.313  0.001  0.674
  0.000  0.996  0.001  0.002  0.000
  0.985  0.000  0.002  0.003  0.010
  0.000  0.001  0.683  0.000  0.315
  0.003  0.002  0.000  0.994  0.000
    occupations:
  0.703 -0.002  0.030 -0.093 -0.000
 -0.002  0.504  0.001 -0.001 -0.006
  0.030  0.001  0.442 -0.014 -0.011
 -0.093 -0.001 -0.014  0.632  0.002
 -0.000 -0.006 -0.011  0.002  0.631
atom   17   Tr[ns(na)] =   5.83039
    eigenvalues:
  0.407  0.521  0.587  0.638  0.763
    eigenvectors:
  0.000  0.000  0.993  0.007  0.000
  0.000  0.000  0.007  0.992  0.000
  1.000  0.000  0.000  0.000  0.000
  0.000  0.000  0.000  0.000  1.000
  0.000  1.000  0.000  0.000  0.000
    occupations:
  0.587  0.004  0.001 -0.001  0.000
  0.004  0.637  0.004 -0.002 -0.001
  0.001  0.004  0.407 -0.003  0.001
 -0.001 -0.002 -0.003  0.763  0.000
  0.000 -0.001  0.001  0.000  0.521
atom   22   Tr[ns(na)] =   5.83507
    eigenvalues:
  0.463  0.518  0.597  0.600  0.739
    eigenvectors:
  0.000  0.000  0.159  0.063  0.778
  0.000  0.000  0.290  0.710  0.000
  0.090  0.910  0.000  0.000  0.000
  0.000  0.000  0.551  0.227  0.222
  0.909  0.090  0.000  0.000  0.000
    occupations:
  0.708  0.001  0.000 -0.059 -0.003
  0.001  0.599  0.000  0.001 -0.000
  0.000  0.000  0.513 -0.000 -0.016
 -0.059  0.001 -0.000  0.629  0.002
 -0.003 -0.000 -0.016  0.002  0.468
atom   23   Tr[ns(na)] =   5.85778
    eigenvalues:
  0.492  0.507  0.527  0.600  0.803
    eigenvectors:
  0.000  0.018  0.000  0.972  0.010
  0.001  0.980  0.001  0.018  0.000
  0.999  0.001  0.001  0.000  0.000
  0.000  0.000  0.000  0.010  0.990
  0.000  0.001  0.998  0.000  0.000
    occupations:
  0.600  0.012  0.000 -0.020  0.000
  0.012  0.508 -0.000 -0.000  0.001
  0.000 -0.000  0.492 -0.000 -0.001
 -0.020 -0.000 -0.000  0.801  0.000
  0.000  0.001 -0.001  0.000  0.527
N of occupied +U levels =  46.6247866
 --- exit write_ns ---

     Threshold (ethr) on eigenvalues was too large:
     Diagonalizing with lowered threshold

     Davidson diagonalization with overlap
     ethr =  3.67E-09,  avg # of iterations =  3.0

[...]

     total energy              =   -1730.59195251 Ry
     Harris-Foulkes estimate   =   -1730.59195251 Ry
     estimated scf accuracy    <       0.00000001 Ry

     iteration # 13     ecut=    40.00 Ry     beta=0.70
     Davidson diagonalization with overlap
     ethr =  4.44E-12,  avg # of iterations =  1.0

     negative rho (up, down):  0.341E-02 0.000E+00

     End of self-consistent calculation
 --- enter write_ns ---
 LDA+U parameters:
U( 2)     =  4.50000000
alpha( 2) =  0.00000000
atom    3   Tr[ns(na)] =   5.82891
    eigenvalues:
  0.439  0.506  0.568  0.636  0.765
    eigenvectors:
  0.011  0.000  0.310  0.001  0.678
  0.000  0.996  0.001  0.002  0.000
  0.986  0.000  0.002  0.003  0.009
  0.000  0.001  0.687  0.000  0.312
  0.003  0.002  0.000  0.994  0.001
    occupations:
  0.700  0.002  0.029 -0.090  0.001
  0.002  0.506 -0.001  0.002 -0.006
  0.029 -0.001  0.443 -0.013  0.011
 -0.090  0.002 -0.013  0.630 -0.002
  0.001 -0.006  0.011 -0.002  0.635
atom    4   Tr[ns(na)] =   5.82311
    eigenvalues:
  0.395  0.521  0.583  0.654  0.758
    eigenvectors:
  0.000  0.000  0.995  0.005  0.000
  0.000  0.000  0.005  0.995  0.000
  1.000  0.000  0.000  0.000  0.000
  0.000  0.000  0.000  0.000  1.000
  0.000  1.000  0.000  0.000  0.000
    occupations:
  0.584  0.005  0.001  0.001  0.000
  0.005  0.654  0.004 -0.002 -0.000
  0.001  0.004  0.395  0.001  0.000
  0.001 -0.002  0.001  0.757 -0.000
  0.000 -0.000  0.000 -0.000  0.521
atom    9   Tr[ns(na)] =   5.83761
    eigenvalues:
  0.471  0.517  0.598  0.603  0.730
    eigenvectors:
  0.000  0.000  0.199  0.015  0.786
  0.000  0.000  0.073  0.926  0.000
  0.099  0.901  0.000  0.000  0.000
  0.000  0.000  0.728  0.058  0.214
  0.901  0.099  0.000  0.000  0.000
    occupations:
  0.702 -0.001  0.000 -0.054 -0.000
 -0.001  0.602 -0.001 -0.001 -0.000
  0.000 -0.001  0.512 -0.000  0.014
 -0.054 -0.001 -0.000  0.626 -0.000
 -0.000 -0.000  0.014 -0.000  0.476
atom   10   Tr[ns(na)] =   5.78562
    eigenvalues:
  0.419  0.479  0.512  0.724  0.759
    eigenvectors:
  0.003  0.995  0.000  0.002  0.000
  0.000  0.000  0.000  0.000  1.000
  0.997  0.003  0.000  0.000  0.000
  0.000  0.002  0.000  0.998  0.000
  0.000  0.000  1.000  0.000  0.000
    occupations:
  0.479 -0.002 -0.003  0.010 -0.000
 -0.002  0.759 -0.002 -0.000 -0.000
 -0.003 -0.002  0.419 -0.000 -0.000
  0.010 -0.000 -0.000  0.723 -0.000
 -0.000 -0.000 -0.000 -0.000  0.512
atom   16   Tr[ns(na)] =   5.82674
    eigenvalues:
  0.438  0.504  0.568  0.632  0.771
    eigenvectors:
  0.011  0.000  0.313  0.001  0.674
  0.000  0.996  0.001  0.002  0.000
  0.985  0.000  0.002  0.003  0.010
  0.000  0.001  0.683  0.000  0.315
  0.003  0.002  0.000  0.994  0.000
    occupations:
  0.704 -0.002  0.030 -0.093 -0.000
 -0.002  0.504  0.001 -0.001 -0.006
  0.030  0.001  0.442 -0.014 -0.011
 -0.093 -0.001 -0.014  0.632  0.002
 -0.000 -0.006 -0.011  0.002  0.631
atom   17   Tr[ns(na)] =   5.83024
    eigenvalues:
  0.407  0.521  0.587  0.637  0.763
    eigenvectors:
  0.000  0.000  0.992  0.007  0.000
  0.000  0.000  0.008  0.992  0.000
  1.000  0.000  0.000  0.000  0.000
  0.000  0.000  0.000  0.000  1.000
  0.000  1.000  0.000  0.000  0.000
    occupations:
  0.587  0.004  0.001 -0.001  0.000
  0.004  0.637  0.004 -0.002 -0.001
  0.001  0.004  0.407 -0.003  0.001
 -0.001 -0.002 -0.003  0.763  0.000
  0.000 -0.001  0.001  0.000  0.521
atom   22   Tr[ns(na)] =   5.83485
    eigenvalues:
  0.463  0.518  0.597  0.600  0.739
    eigenvectors:
  0.000  0.000  0.159  0.064  0.778
  0.000  0.000  0.291  0.709  0.000
  0.091  0.909  0.000  0.000  0.000
  0.000  0.000  0.550  0.228  0.222
  0.909  0.091  0.000  0.000  0.000
    occupations:
  0.708  0.001  0.000 -0.059 -0.003
  0.001  0.599  0.000  0.001 -0.000
  0.000  0.000  0.513 -0.000 -0.016
 -0.059  0.001 -0.000  0.629  0.002
 -0.003 -0.000 -0.016  0.002  0.468
atom   23   Tr[ns(na)] =   5.85769
    eigenvalues:
  0.492  0.507  0.527  0.600  0.803
    eigenvectors:
  0.000  0.018  0.000  0.972  0.010
  0.001  0.980  0.001  0.018  0.000
  0.999  0.001  0.001  0.000  0.000
  0.000  0.000  0.000  0.010  0.990
  0.000  0.001  0.998  0.000  0.000
    occupations:
  0.600  0.012  0.000 -0.020  0.000
  0.012  0.508 -0.000 -0.000  0.001
  0.000 -0.000  0.492 -0.000 -0.001
 -0.020 -0.000 -0.000  0.801  0.000
  0.000  0.001 -0.001  0.000  0.527
N of occupied +U levels =  46.6247507
 --- exit write_ns ---

[...]

          k = 0.2500-0.3900 0.0000 ( 29726 PWs)   bands (ev):

[...]

          k =-0.2500 0.1950 0.0000 ( 29746 PWs)   bands (ev):

   -62.3030 -62.2864 -62.1932 -61.8865 -61.8635 -61.8048 -61.7822 -61.7344
   -36.8552 -36.7931 -36.7116 -36.6332 -36.4454 -36.2432 -36.2299 -36.2195
   -36.1826 -36.1755 -36.1404 -36.1243 -36.1231 -36.1080 -36.0676 -36.0590
   -36.0172 -35.9616 -35.9569 -35.9262 -35.8904 -35.4567 -35.4186 -35.4016
   -20.4487 -20.1570 -19.7377 -19.6419 -19.5053 -19.3735 -19.2689 -19.2427
   -19.1595 -19.0944 -18.8866 -18.7737 -18.7272 -18.7113 -18.5927 -18.5180
   -18.3763 -18.0819 -17.9134  -8.6187  -8.3412  -8.1855  -8.1080  -7.7592
    -7.6049  -7.5316  -7.3956  -7.3193  -7.2291  -7.1098  -6.9895  -6.8230
    -6.6855  -6.5519  -6.3473  -6.2450  -6.2258  -6.0884  -5.9132  -5.8061
    -5.7043  -5.6262  -5.5010  -5.3973  -5.1659  -5.1096  -5.0089  -4.8518
    -4.7793  -4.6226  -4.5509  -4.4022  -4.3511  -4.2777  -4.2251  -4.1783
    -4.1479  -4.0989  -3.9963  -3.9350  -3.7661  -3.6694  -3.5923  -3.4922
    -3.4279  -3.3187  -3.2598  -3.1557  -3.1201  -2.9930  -2.9656  -2.8059
    -2.6936  -2.6256  -2.5639  -2.2859  -1.8623  -1.7081  -1.5826  -0.5846
    -0.5177  -0.4136  -0.2269   0.4356   0.5447   0.7877   0.8890   1.0103
     1.1175   1.2832   1.3686   1.5337   1.6496   1.7361   1.8030   1.8481
     1.9174   1.9870   2.1070   2.4712   2.7153   3.5227   3.6920   3.8021
     3.9667   4.1040   4.1844   4.3171   4.5615   4.6347   4.7135   4.8646
     4.9169   5.0345   5.0968   5.3492   5.7095   5.9082   5.9673   6.0836
     6.2271   6.3104   6.4332   6.4990   6.5951   6.8242   7.1214   7.1706
     7.2628   7.3627   7.6198   7.6986   8.0076   8.1230   8.3076   8.3762
     8.5315   8.6403   8.7573   8.8820   8.9651   9.0868   9.1611   9.2970
     9.4339   9.4946   9.5840   9.6501   9.7274   9.8155   9.8586   9.9798
    10.1131  10.3535  10.3901  10.4697  10.5303  10.7112  10.7674  10.8634
    10.9388  11.0463  11.1597  11.2230  11.4004  11.5268  11.6515  11.6738
    11.8115  11.8893  11.9252  12.0485  12.0831  12.2087  12.2932  12.3532
    12.4150  12.4516  12.5122  12.6569  12.7670  12.8613  12.9911  13.0538
    13.1034  13.2027  13.2634  13.3496  13.3798  13.4805  13.5208  13.5731
    13.6608  13.7552  13.8363  13.8996  13.9605  14.0318  14.0429  14.1236
    14.1982  14.2351  14.2863  14.3622  14.3908  14.5019  14.5408  14.6366
    14.7063  14.7692  14.8594  14.9470  15.0197  15.1338  15.1523  15.2686
    15.3597  15.4487  15.5368  15.5954  15.6255  15.7500  15.8035  15.9703
    15.9921  16.0369  16.1057  16.1447  16.2383  16.3366  16.4107  16.4455
    16.4841  16.5149  16.5786  16.6662  16.7888  16.8303  16.8576  16.9858
    17.0748  17.1314  17.2114  17.2625  17.2819  17.3510  17.4252  17.4921
    17.5308  17.6063  17.7031  17.8266  17.9116  17.9905  18.0659  18.1217
    18.2176  18.2725  18.3288  18.3425  18.4364  18.5708  18.6060  18.7313
    18.7828  18.8658  18.9685  18.9992  19.0558  19.1408  19.2476  19.2858
    19.3789  19.4439  19.5478  19.6110  19.8102  19.8273  19.9403  19.9792
    20.0117  20.1087  20.1337  20.1741  20.2484  20.2745  20.3515  20.3616
    20.4012  20.4862  20.5273  20.6134  20.6505  20.7494  20.7961  20.8351
    20.9058  21.0270  21.0440  21.1465  21.2452  21.2848  21.3429  21.3858
    21.4454  21.4968  21.5332  21.6030  21.6405  21.7142  21.7484  21.7908
    21.8293  21.8857

     the Fermi energy is     0.2047 ev

!    total energy              =   -1730.59195250 Ry
     Harris-Foulkes estimate   =   -1730.59195251 Ry
     estimated scf accuracy    <          4.9E-09 Ry

     The total energy is the sum of the following terms:

     one-electron contribution =  -22258.88502514 Ry
     hartree contribution      =   11155.60578244 Ry
     xc contribution           =    -294.58702085 Ry
     ewald contribution        =    9664.22792109 Ry
     Hubbard energy            =       3.04627315 Ry
     smearing contrib. (-TS)   =       0.00011681 Ry

     convergence has been achieved in  13 iterations

     Forces acting on atoms (Ry/au):

     negative rho (up, down):  0.341E-02 0.000E+00
     atom    1 type  1   force =    -0.00143242   -0.00502247    0.00042403
     atom    2 type  1   force =    -0.00004776    0.00579640    0.00000069
     atom    3 type  2   force =     0.02081055   -0.00578243   -0.00008137
     atom    4 type  2   force =     0.00212963    0.00393264    0.00048784
     atom    5 type  1   force =     0.00065754   -0.01669829   -0.00030495
     atom    6 type  1   force =    -0.00057980    0.01435760   -0.00036021
     atom    7 type  1   force =    -0.00043639    0.00231025    0.00060105
     atom    8 type  1   force =     0.00348280   -0.00017867   -0.00015420
     atom    9 type  2   force =    -0.00143908    0.00024312   -0.00041359
     atom   10 type  2   force =    -0.00530723    0.00110879    0.00011493
     atom   11 type  1   force =    -0.01664929   -0.00769169    0.00018033
     atom   12 type  1   force =    -0.01626424    0.00595755    0.00033762
     atom   13 type  1   force =     0.00165746    0.00038790   -0.00022680
     atom   14 type  1   force =    -0.00152617   -0.00528882    0.00029560
     atom   15 type  1   force =    -0.00069437    0.00969697    0.00021076
     atom   16 type  2   force =    -0.01573806   -0.00753372   -0.00003592
     atom   17 type  2   force =    -0.00312825    0.00414822    0.00045655
     atom   18 type  1   force =     0.00190584   -0.01720898   -0.00030335
     atom   19 type  1   force =     0.00033040    0.01528556   -0.00021810
     atom   20 type  1   force =    -0.00906353   -0.00009798   -0.00037452
     atom   21 type  1   force =     0.00356082    0.00144232   -0.00005701
     atom   22 type  2   force =    -0.00306836   -0.00020775    0.00000139
     atom   23 type  2   force =     0.01070485    0.00275955    0.00013896
     atom   24 type  1   force =     0.01548884   -0.00685312    0.00006870
     atom   25 type  1   force =     0.01607940    0.00542098   -0.00001837
     atom   26 type  1   force =    -0.00167957    0.00010856   -0.00067574
     atom   27 type  3   force =     0.00002010    0.00056458    0.00036667
     atom   28 type  3   force =    -0.00002270   -0.00000750   -0.00008825
     atom   29 type  3   force =    -0.00022787   -0.00008077    0.00001569
     atom   30 type  3   force =    -0.00032406   -0.00013181   -0.00025592
     atom   31 type  1   force =     0.00058367    0.00005744   -0.00023675
     atom   32 type  3   force =     0.00021725   -0.00079443    0.00010424

     Total force =     0.002078     Total SCF correction =     0.000288
     SCF correction compared to forces is large: reduce conv_thr to get better values

     bfgs converged in  14 scf cycles and  13 bfgs steps
     (criteria: energy < 0.10E-03, force < 0.10E-02)

     End of BFGS Geometry Optimization

     Final energy   =   -1730.5919525047 Ry
Begin final coordinates

ATOMIC_POSITIONS (crystal)
O0       0.000000000   0.000000000   0.371044715    0   0   1
O0       0.000000000   0.500000000   0.383374772    0   0   1
Mo1      0.250000000   0.500000000   0.440979851    0   0   1
Mo1      0.000000000   0.000000000   0.443022611    0   0   1
O0       0.250000000   0.780000000   0.443358736    0   0   1
O0       0.250000000   0.220000000   0.443311191    0   0   1
O0       0.000000000   0.500000000   0.497763213    0   0   1
O0       0.000000000   0.000000000   0.516699071    0   0   1
Mo1      0.250000000   0.000000000   0.575100300    0   0   1
Mo1      0.000000000   0.500000000   0.566145571    0   0   1
O0       0.250000000   0.720000000   0.571119138    0   0   1
O0       0.250000000   0.280000000   0.571291544    0   0   1
O0       0.000000000   0.000000000   0.625359917    0   0   1
O0       0.500000000   0.000000000   0.371360770    0   0   1
O0       0.500000000   0.500000000   0.382668507    0   0   1
Mo1      0.750000000   0.500000000   0.440732812    0   0   1
Mo1      0.500000000   0.000000000   0.443472385    0   0   1
O0       0.750000000   0.780000000   0.443423278    0   0   1
O0       0.750000000   0.220000000   0.443196376    0   0   1
O0       0.500000000   0.500000000   0.500005777    0   0   1
O0       0.500000000   0.000000000   0.516225950    0   0   1
Mo1      0.750000000   0.000000000   0.574527551    0   0   1
Mo1      0.500000000   0.500000000   0.570932724    0   0   1
O0       0.750000000   0.720000000   0.571205954    0   0   1
O0       0.750000000   0.280000000   0.571196290    0   0   1
O0       0.500000000   0.000000000   0.625301250    0   0   1
H2      -0.000957723   0.610702413   0.360956893
H2       0.499535031   0.614240868   0.361450146
H2       0.166715040   0.017626412   0.356474252
H2       0.665667332   0.018863386   0.356504362
O0       0.503654958   0.500448087   0.641361155
H2       0.393629992   0.493017811   0.669782938
End final coordinates

     General routines

     Parallel routines
     Hubbard U routines

   This run was terminated on:  13:23:57  29Apr2014

   JOB DONE.
Running PBS batch system epilogue script
Job id: 340391.audhumbla.fysik.dtu.dk
Username: zhonxu
Groupname: campgst
Jobname: MoO2/Eads-2-layers/OH-U-4.5
Sessionid: 1465
Queuename: verylong
Accounting:
This job has allocated the following 16 nodes:
b090 b090 b090 b090 b090 b090 b090 b090 b069 b069 b069 b069 b069 b069 b069 b069
Finished epilogue job 340391.audhumbla.fysik.dtu.dk for zhonxu