     Program PWSCF v.5.0.2 (svn rev. 9656) starts on 23Jan2014 at 20:29:13

     Current dimensions of program PWSCF are:
     Max number of different atomic species (ntypx) = 10
     Max number of k-points (npk) =  40000
     Max angular momentum in pseudopotentials (lmaxx) =  3
     Reading input from MnO2-v-1.0.in

     Subspace diagonalization in iterative solution of the eigenvalue problem:
     a serial algorithm will be used

     bravais-lattice index     =            0
     lattice parameter (alat)  =       8.6590  a.u.
     unit-cell volume          =     418.3967 (a.u.)^3
     number of atoms/cell      =            6
     number of atomic types    =            2
     number of electrons       =        54.00
     number of Kohn-Sham states=           78
     kinetic-energy cutoff     =      40.0000  Ry
     charge density cutoff     =     500.0000  Ry
     convergence threshold     =      1.0E-06
     mixing beta               =       0.7000
     number of iterations used =            8  plain     mixing
     Exchange-correlation      = SLA  PW   PBE  PBE ( 1 4 3 4 0)
     EXX-fraction              =        0.00
     nstep                     =           50

     celldm(1)=   8.658997  celldm(2)=   0.000000  celldm(3)=   0.000000
     celldm(4)=   0.000000  celldm(5)=   0.000000  celldm(6)=   0.000000

     crystal axes: (cart. coord. in units of alat)
               a(1) = (   1.000000   0.000000   0.000000 )
               a(2) = (   0.000000   1.000000   0.000000 )
               a(3) = (   0.000000   0.000000   0.644444 )

     reciprocal axes: (cart. coord. in units 2 pi/alat)
               b(1) = (  1.000000  0.000000  0.000000 )
               b(2) = (  0.000000  1.000000  0.000000 )
               b(3) = (  0.000000  0.000000  1.551724 )

     PseudoPot. # 1 for Mn read from file:
     /home/camp/zhonxu/pseudo/mn_pbe_v1.uspp.F.UPF
     MD5 check sum: 5fd7c7b5c956fd19902447332617373a
     Pseudo is Ultrasoft + core correction, Zval = 15.0
     Generated by new atomic code, or converted to UPF format
     Using radial grid of  859 points,  6 beta functions with:
                l(1) =   0
                l(2) =   0
                l(3) =   1
                l(4) =   1
                l(5) =   2
                l(6) =   2
     Q(r) pseudized with  6 coefficients,  rinner =    1.150   1.150   1.150
                                                       1.150   1.150

     PseudoPot. # 2 for O  read from file:
     /home/camp/zhonxu/pseudo/o_pbe_v1.01.uspp.F.UPF
     MD5 check sum: 2bcb18d16ea4b960afae9ec6d52f22d2
     Pseudo is Ultrasoft + core correction, Zval =  6.0
     Generated by new atomic code, or converted to UPF format
     Using radial grid of  737 points,  5 beta functions with:
                l(1) =   0
                l(2) =   0
                l(3) =   1
                l(4) =   1
                l(5) =   2
     Q(r) pseudized with  8 coefficients,  rinner =    0.900   0.900   0.900
                                                       0.900   0.900

     atomic species   valence    mass     pseudopotential
        Mn0           15.00    54.93800     Mn( 1.00)
        O1             6.00    15.99940     O ( 1.00)

     Starting magnetic structure
     atomic species   magnetization
        Mn0          0.600
        O1           0.000

     16 Sym. Ops., with inversion, found ( 8 have fractional translation)

   Cartesian axes

     site n.     atom                  positions (alat units)
         1           Mn0 tau(   1) = (   0.0000000   0.0000000   0.0000000  )
         2           Mn0 tau(   2) = (   0.5000000   0.5000000   0.3222222  )
         3           O1  tau(   3) = (   0.3050000   0.3050000   0.0000000  )
         4           O1  tau(   4) = (  -0.3050000  -0.3050000   0.0000000  )
         5           O1  tau(   5) = (   0.8050000   0.1950000   0.3222222  )
         6           O1  tau(   6) = (   0.1950000   0.8050000   0.3222222  )

     number of k points=    36  Methfessel-Paxton smearing, width (Ry)=  0.0100
                       cart. coord. in units 2pi/alat
        k(    1) = (   0.0000000   0.0000000   0.0000000), wk =   0.0080000
        k(    2) = (   0.0000000   0.0000000   0.3103448), wk =   0.0160000
        k(    3) = (   0.0000000   0.0000000   0.6206897), wk =   0.0160000
        k(    4) = (   0.0000000   0.2000000   0.0000000), wk =   0.0320000
        k(    5) = (   0.0000000   0.2000000   0.3103448), wk =   0.0640000
        k(    6) = (   0.0000000   0.2000000   0.6206897), wk =   0.0640000
        k(    7) = (   0.0000000   0.4000000   0.0000000), wk =   0.0320000
        k(    8) = (   0.0000000   0.4000000   0.3103448), wk =   0.0640000
        k(    9) = (   0.0000000   0.4000000   0.6206897), wk =   0.0640000
        k(   10) = (   0.2000000   0.2000000   0.0000000), wk =   0.0320000
        k(   11) = (   0.2000000   0.2000000   0.3103448), wk =   0.0640000
        k(   12) = (   0.2000000   0.2000000   0.6206897), wk =   0.0640000
        k(   13) = (   0.2000000   0.4000000   0.0000000), wk =   0.0640000
        k(   14) = (   0.2000000   0.4000000   0.3103448), wk =   0.1280000
        k(   15) = (   0.2000000   0.4000000   0.6206897), wk =   0.1280000
        k(   16) = (   0.4000000   0.4000000   0.0000000), wk =   0.0320000
        k(   17) = (   0.4000000   0.4000000   0.3103448), wk =   0.0640000
        k(   18) = (   0.4000000   0.4000000   0.6206897), wk =   0.0640000
        k(   19) = (   0.0000000   0.0000000   0.0000000), wk =   0.0080000
        k(   20) = (   0.0000000   0.0000000   0.3103448), wk =   0.0160000
        k(   21) = (   0.0000000   0.0000000   0.6206897), wk =   0.0160000
        k(   22) = (   0.0000000   0.2000000   0.0000000), wk =   0.0320000
        k(   23) = (   0.0000000   0.2000000   0.3103448), wk =   0.0640000
        k(   24) = (   0.0000000   0.2000000   0.6206897), wk =   0.0640000
        k(   25) = (   0.0000000   0.4000000   0.0000000), wk =   0.0320000
        k(   26) = (   0.0000000   0.4000000   0.3103448), wk =   0.0640000
        k(   27) = (   0.0000000   0.4000000   0.6206897), wk =   0.0640000
        k(   28) = (   0.2000000   0.2000000   0.0000000), wk =   0.0320000
        k(   29) = (   0.2000000   0.2000000   0.3103448), wk =   0.0640000
        k(   30) = (   0.2000000   0.2000000   0.6206897), wk =   0.0640000
        k(   31) = (   0.2000000   0.4000000   0.0000000), wk =   0.0640000
        k(   32) = (   0.2000000   0.4000000   0.3103448), wk =   0.1280000
        k(   33) = (   0.2000000   0.4000000   0.6206897), wk =   0.1280000
        k(   34) = (   0.4000000   0.4000000   0.0000000), wk =   0.0320000
        k(   35) = (   0.4000000   0.4000000   0.3103448), wk =   0.0640000
        k(   36) = (   0.4000000   0.4000000   0.6206897), wk =   0.0640000

     Largest allocated arrays     est. size (Mb)     dimensions
     Largest temporary arrays     est. size (Mb)     dimensions

     Check: negative/imaginary core charge=   -0.000059    0.000000

     Initial potential from superposition of free atoms

     starting charge   51.99998, renormalised to   54.00000
     Starting wfc are   42 randomized atomic wfcs

     Self-consistent Calculation

     iteration #  1     ecut=    40.00 Ry     beta=0.70
     Davidson diagonalization with overlap
     ethr =  1.00E-02,  avg # of iterations =  5.0

     total energy              =    -553.37863231 Ry
     Harris-Foulkes estimate   =    -554.31816782 Ry
     estimated scf accuracy    <       4.03094331 Ry

     total magnetization       =     6.00 Bohr mag/cell
     absolute magnetization    =     7.49 Bohr mag/cell

[...]

     End of self-consistent calculation

 ------ SPIN UP ------------

          k = 0.0000 0.0000 0.0000 (  1819 PWs)   bands (ev):

   -73.1883 -73.1869 -41.8732 -41.8685 -41.8289 -41.8289 -41.7554 -41.7554
   -10.2655  -8.7044  -8.4313  -8.4313   1.6283   2.2641   3.0112   3.5934
     3.5934   5.2724   5.2724   5.8689   6.1497   6.2709   6.4033   6.4033
     6.5416   7.4536   7.8719   7.8719   8.2409   8.4165   8.6030  11.1590
    11.1590  11.7042  15.6868  19.4252  19.4252  21.8006  22.9282  23.1189
    24.9358  26.0847  26.0847  26.6491  28.6114  30.8071  31.9087  32.5130
    32.5130  33.1507  33.1507  33.2732  34.3049  34.3049  34.9134  35.4868
    36.4022  37.3143  40.2851  40.2851  40.5257  40.7992  40.7992  42.9889
    43.7776  44.9396  44.9396  46.3468  47.1797  47.2624  47.2624  47.4276
    48.3414  49.6589  50.0257  50.0257  51.7763  52.4190

[...]

 ------ SPIN DOWN ----------

[...]

     the Fermi energy is     8.7526 ev

!    total energy              =    -554.95244855 Ry
     Harris-Foulkes estimate   =    -554.95244833 Ry
     estimated scf accuracy    <       0.00000019 Ry

     The total energy is the sum of the following terms:

     one-electron contribution =    -292.61177811 Ry
     hartree contribution      =     170.59892155 Ry
     xc contribution           =     -80.66836895 Ry
     ewald contribution        =    -352.27128932 Ry
     smearing contrib. (-TS)   =       0.00006629 Ry

[...]

     convergence has been achieved in   9 iterations

     Forces acting on atoms (Ry/au):

     atom    1 type  1   force =     0.00000000    0.00000000   -0.00000000
     atom    2 type  1   force =     0.00000000    0.00000000    0.00000000
     atom    3 type  2   force =     0.01032593    0.01032593   -0.00000000
     atom    4 type  2   force =    -0.01032593   -0.01032593    0.00000000
     atom    5 type  2   force =     0.01032593   -0.01032593   -0.00000000
     atom    6 type  2   force =    -0.01032593    0.01032593    0.00000000

     Total force =     0.029206     Total SCF correction =     0.000112

     entering subroutine stress ...

          total   stress  (Ry/bohr**3)                   (kbar)     P= -179.74
  -0.00116298   0.00000000   0.00000000       -171.08      0.00      0.00
   0.00000000  -0.00116298   0.00000000          0.00   -171.08      0.00
   0.00000000   0.00000000  -0.00133968          0.00      0.00   -197.07

     Volume is kept fixed: isostatic pressure set to zero

     BFGS Geometry Optimization

     number of scf cycles    =   1
     number of bfgs steps    =   0

     enthalpy new            =    -554.9524485452 Ry

     new trust radius        =       0.0146030769 bohr
     new conv_thr            =       0.0000010000 Ry

     new unit-cell volume =    418.39674 a.u.^3 (    62.00000 Ang^3 )

CELL_PARAMETERS (alat=  8.65899730)
   1.001474634   0.000000000   0.000000000
   0.000000000   1.001474634   0.000000000
   0.000000000   0.000000000   0.642548000

ATOMIC_POSITIONS (crystal)
Mn0      0.000000000   0.000000000   0.000000000    0   0   0
Mn0      0.500000000   0.500000000   0.500000000    0   0   0
O1       0.306192509   0.306192509   0.000000000    1   1   0
O1      -0.306192509  -0.306192509   0.000000000    1   1   0
O1       0.806192509   0.193807491   0.500000000    1   1   0
O1       0.193807491   0.806192509   0.500000000    1   1   0

     NEW-OLD atomic charge density approx. for the potential
     NEW k-points:
        k(    1) = (   0.0000000   0.0000000   0.0000000), wk =   0.0080000
[...]
        k(   16) = (   0.3994110   0.3994110   0.0000000), wk =   0.0320000
        k(   17) = (   0.3994110   0.3994110   0.3112608), wk =   0.0640000
        k(   18) = (   0.3994110   0.3994110   0.6225216), wk =   0.0640000
        k(   19) = (   0.0000000   0.0000000   0.0000000), wk =   0.0080000
        k(   20) = (   0.0000000   0.0000000   0.3112608), wk =   0.0160000
        k(   21) = (   0.0000000   0.0000000   0.6225216), wk =   0.0160000
        k(   22) = (   0.0000000   0.1997055   0.0000000), wk =   0.0320000
        k(   23) = (   0.0000000   0.1997055   0.3112608), wk =   0.0640000
        k(   24) = (   0.0000000   0.1997055   0.6225216), wk =   0.0640000
        k(   25) = (   0.0000000   0.3994110   0.0000000), wk =   0.0320000
        k(   26) = (   0.0000000   0.3994110   0.3112608), wk =   0.0640000
        k(   27) = (   0.0000000   0.3994110   0.6225216), wk =   0.0640000
        k(   28) = (   0.1997055   0.1997055   0.0000000), wk =   0.0320000
        k(   29) = (   0.1997055   0.1997055   0.3112608), wk =   0.0640000
        k(   30) = (   0.1997055   0.1997055   0.6225216), wk =   0.0640000
        k(   31) = (   0.1997055   0.3994110   0.0000000), wk =   0.0640000
        k(   32) = (   0.1997055   0.3994110   0.3112608), wk =   0.1280000
        k(   33) = (   0.1997055   0.3994110   0.6225216), wk =   0.1280000
        k(   34) = (   0.3994110   0.3994110   0.0000000), wk =   0.0320000
        k(   35) = (   0.3994110   0.3994110   0.3112608), wk =   0.0640000
        k(   36) = (   0.3994110   0.3994110   0.6225216), wk =   0.0640000

[...]

     enthalpy old            =    -554.9524485452 Ry
     enthalpy new            =    -554.9533371808 Ry

     CASE: enthalpy_new < enthalpy_old

[...]

     number of scf cycles    =   4
     number of bfgs steps    =   3

     enthalpy old            =    -554.9538800286 Ry
     enthalpy new            =    -554.9539812950 Ry

     CASE: enthalpy_new < enthalpy_old

     new trust radius        =       0.0008295265 bohr
     new conv_thr            =       0.0000000100 Ry

     new unit-cell volume =    418.39674 a.u.^3 (    62.00000 Ang^3 )

[...]

ATOMIC_POSITIONS (crystal)
Mn0      0.000000000   0.000000000   0.000000000    0   0   0
Mn0      0.500000000   0.500000000   0.500000000    0   0   0
O1       0.308383574   0.308383574   0.000000000    1   1   0
O1      -0.308383574  -0.308383574   0.000000000    1   1   0
O1       0.808383574   0.191616426   0.500000000    1   1   0
O1       0.191616426   0.808383574   0.500000000    1   1   0

     NEW-OLD atomic charge density approx. for the potential
     NEW k-points:
        k(    1) = (   0.0000000   0.0000000   0.0000000), wk =   0.0080000
        k(    2) = (   0.0000000   0.0000000   0.3127953), wk =   0.0160000
        k(    3) = (   0.0000000   0.0000000   0.6255906), wk =   0.0160000
        k(    4) = (   0.0000000   0.1992151   0.0000000), wk =   0.0320000
        k(    5) = (   0.0000000   0.1992151   0.3127953), wk =   0.0640000
        k(    6) = (   0.0000000   0.1992151   0.6255906), wk =   0.0640000
        k(    7) = (   0.0000000   0.3984301   0.0000000), wk =   0.0320000
        k(    8) = (   0.0000000   0.3984301   0.3127953), wk =   0.0640000
        k(    9) = (   0.0000000   0.3984301   0.6255906), wk =   0.0640000
        k(   10) = (   0.1992151   0.1992151   0.0000000), wk =   0.0320000
        k(   11) = (   0.1992151   0.1992151   0.3127953), wk =   0.0640000
        k(   12) = (   0.1992151   0.1992151   0.6255906), wk =   0.0640000
        k(   13) = (   0.1992151   0.3984301   0.0000000), wk =   0.0640000
        k(   14) = (   0.1992151   0.3984301   0.3127953), wk =   0.1280000
        k(   15) = (   0.1992151   0.3984301   0.6255906), wk =   0.1280000
        k(   16) = (   0.3984301   0.3984301   0.0000000), wk =   0.0320000
        k(   17) = (   0.3984301   0.3984301   0.3127953), wk =   0.0640000
        k(   18) = (   0.3984301   0.3984301   0.6255906), wk =   0.0640000
        k(   19) = (   0.0000000   0.0000000   0.0000000), wk =   0.0080000
        k(   20) = (   0.0000000   0.0000000   0.3127953), wk =   0.0160000
        k(   21) = (   0.0000000   0.0000000   0.6255906), wk =   0.0160000
        k(   22) = (   0.0000000   0.1992151   0.0000000), wk =   0.0320000
        k(   23) = (   0.0000000   0.1992151   0.3127953), wk =   0.0640000
        k(   24) = (   0.0000000   0.1992151   0.6255906), wk =   0.0640000
        k(   25) = (   0.0000000   0.3984301   0.0000000), wk =   0.0320000
        k(   26) = (   0.0000000   0.3984301   0.3127953), wk =   0.0640000
        k(   27) = (   0.0000000   0.3984301   0.6255906), wk =   0.0640000
        k(   28) = (   0.1992151   0.1992151   0.0000000), wk =   0.0320000
        k(   29) = (   0.1992151   0.1992151   0.3127953), wk =   0.0640000
        k(   30) = (   0.1992151   0.1992151   0.6255906), wk =   0.0640000
        k(   31) = (   0.1992151   0.3984301   0.0000000), wk =   0.0640000
        k(   32) = (   0.1992151   0.3984301   0.3127953), wk =   0.1280000
        k(   33) = (   0.1992151   0.3984301   0.6255906), wk =   0.1280000
        k(   34) = (   0.3984301   0.3984301   0.0000000), wk =   0.0320000
        k(   35) = (   0.3984301   0.3984301   0.3127953), wk =   0.0640000
        k(   36) = (   0.3984301   0.3984301   0.6255906), wk =   0.0640000

[...]

     Threshold (ethr) on eigenvalues was too large:
     Diagonalizing with lowered threshold

     Davidson diagonalization with overlap
     ethr =  3.49E-10,  avg # of iterations =  2.0

[...]

     Volume is kept fixed: isostatic pressure set to zero

     bfgs converged in   5 scf cycles and   4 bfgs steps
     (criteria: energy < 0.10E-03, force < 0.10E-02, cell < 0.50E+00)

     End of BFGS Geometry Optimization

     Final enthalpy =    -554.9539818343 Ry
Begin final coordinates
     new unit-cell volume =    418.39674 a.u.^3 (    62.00000 Ang^3 )

CELL_PARAMETERS (alat=  8.65899730)
   1.003940198   0.000000000   0.000000000
   0.000000000   1.003940198   0.000000000
   0.000000000   0.000000000   0.639395826

ATOMIC_POSITIONS (crystal)
Mn0      0.000000000   0.000000000   0.000000000    0   0   0
Mn0      0.500000000   0.500000000   0.500000000    0   0   0
O1       0.308383574   0.308383574   0.000000000    1   1   0
O1      -0.308383574  -0.308383574   0.000000000    1   1   0
O1       0.808383574   0.191616426   0.500000000    1   1   0
O1       0.191616426   0.808383574   0.500000000    1   1   0
End final coordinates

     A final scf calculation at the relaxed structure.
     The G-vectors are recalculated for the final unit cell
     Results may differ from those at the preceding step.

     bravais-lattice index     =            0
     lattice parameter (alat)  =       8.6590  a.u.
     unit-cell volume          =     418.3967 (a.u.)^3
     number of atoms/cell      =            6
     number of atomic types    =            2
     number of electrons       =        54.00
     number of Kohn-Sham states=           78
     kinetic-energy cutoff     =      40.0000  Ry
     charge density cutoff     =     500.0000  Ry
     convergence threshold     =      1.0E-08
     mixing beta               =       0.7000
     number of iterations used =            8  plain     mixing
     Exchange-correlation      = SLA  PW   PBE  PBE ( 1 4 3 4 0)
     EXX-fraction              =        0.00

     celldm(1)=   8.658997  celldm(2)=   0.000000  celldm(3)=   0.000000
     celldm(4)=   0.000000  celldm(5)=   0.000000  celldm(6)=   0.000000

     crystal axes: (cart. coord. in units of alat)
               a(1) = (   1.003940   0.000000   0.000000 )
               a(2) = (   0.000000   1.003940   0.000000 )
               a(3) = (   0.000000   0.000000   0.639396 )

     reciprocal axes: (cart. coord. in units 2 pi/alat)
               b(1) = (  0.996075  0.000000  0.000000 )
               b(2) = (  0.000000  0.996075  0.000000 )
               b(3) = (  0.000000  0.000000  1.563976 )

     PseudoPot. # 1 for Mn read from file:
     /home/camp/zhonxu/pseudo/mn_pbe_v1.uspp.F.UPF
     MD5 check sum: 5fd7c7b5c956fd19902447332617373a
     Pseudo is Ultrasoft + core correction, Zval = 15.0
     Generated by new atomic code, or converted to UPF format
     Using radial grid of  859 points,  6 beta functions with:
                l(1) =   0
                l(2) =   0
                l(3) =   1
                l(4) =   1
                l(5) =   2
                l(6) =   2
     Q(r) pseudized with  6 coefficients,  rinner =    1.150   1.150   1.150
                                                       1.150   1.150

     PseudoPot. # 2 for O  read from file:
     /home/camp/zhonxu/pseudo/o_pbe_v1.01.uspp.F.UPF
     MD5 check sum: 2bcb18d16ea4b960afae9ec6d52f22d2
     Pseudo is Ultrasoft + core correction, Zval =  6.0
     Generated by new atomic code, or converted to UPF format
     Using radial grid of  737 points,  5 beta functions with:
                l(1) =   0
                l(2) =   0
                l(3) =   1
                l(4) =   1
                l(5) =   2
     Q(r) pseudized with  8 coefficients,  rinner =    0.900   0.900   0.900
                                                       0.900   0.900

     atomic species   valence    mass     pseudopotential
        Mn0           15.00    54.93800     Mn( 1.00)
        O1             6.00    15.99940     O ( 1.00)

     Starting magnetic structure
     atomic species   magnetization
        Mn0          0.600
        O1           0.000

     16 Sym. Ops., with inversion, found ( 8 have fractional translation)

   Cartesian axes

     site n.     atom                  positions (alat units)
         1           Mn0 tau(   1) = (   0.0000000   0.0000000   0.0000000  )
         2           Mn0 tau(   2) = (   0.5019701   0.5019701   0.3196979  )
         3           O1  tau(   3) = (   0.3095987   0.3095987   0.0000000  )
         4           O1  tau(   4) = (  -0.3095987  -0.3095987   0.0000000  )
         5           O1  tau(   5) = (   0.8115688   0.1923714   0.3196979  )
         6           O1  tau(   6) = (   0.1923714   0.8115688   0.3196979  )

     number of k points=    36  Methfessel-Paxton smearing, width (Ry)=  0.0100
                       cart. coord. in units 2pi/alat
        k(    1) = (   0.0000000   0.0000000   0.0000000), wk =   0.0080000
        k(    2) = (   0.0000000   0.0000000   0.3127953), wk =   0.0160000
        k(    3) = (   0.0000000   0.0000000   0.6255906), wk =   0.0160000
        k(    4) = (   0.0000000   0.1992151   0.0000000), wk =   0.0320000
        k(    5) = (   0.0000000   0.1992151   0.3127953), wk =   0.0640000
        k(    6) = (   0.0000000   0.1992151   0.6255906), wk =   0.0640000
        k(    7) = (   0.0000000   0.3984301   0.0000000), wk =   0.0320000
        k(    8) = (   0.0000000   0.3984301   0.3127953), wk =   0.0640000
        k(    9) = (   0.0000000   0.3984301   0.6255906), wk =   0.0640000
        k(   10) = (   0.1992151   0.1992151   0.0000000), wk =   0.0320000
        k(   11) = (   0.1992151   0.1992151   0.3127953), wk =   0.0640000
        k(   12) = (   0.1992151   0.1992151   0.6255906), wk =   0.0640000
        k(   13) = (   0.1992151   0.3984301   0.0000000), wk =   0.0640000
        k(   14) = (   0.1992151   0.3984301   0.3127953), wk =   0.1280000
        k(   15) = (   0.1992151   0.3984301   0.6255906), wk =   0.1280000
        k(   16) = (   0.3984301   0.3984301   0.0000000), wk =   0.0320000
        k(   17) = (   0.3984301   0.3984301   0.3127953), wk =   0.0640000
        k(   18) = (   0.3984301   0.3984301   0.6255906), wk =   0.0640000
        k(   19) = (   0.0000000   0.0000000   0.0000000), wk =   0.0080000
        k(   20) = (   0.0000000   0.0000000   0.3127953), wk =   0.0160000
        k(   21) = (   0.0000000   0.0000000   0.6255906), wk =   0.0160000
        k(   22) = (   0.0000000   0.1992151   0.0000000), wk =   0.0320000
        k(   23) = (   0.0000000   0.1992151   0.3127953), wk =   0.0640000
        k(   24) = (   0.0000000   0.1992151   0.6255906), wk =   0.0640000
        k(   25) = (   0.0000000   0.3984301   0.0000000), wk =   0.0320000
        k(   26) = (   0.0000000   0.3984301   0.3127953), wk =   0.0640000
        k(   27) = (   0.0000000   0.3984301   0.6255906), wk =   0.0640000
        k(   28) = (   0.1992151   0.1992151   0.0000000), wk =   0.0320000
        k(   29) = (   0.1992151   0.1992151   0.3127953), wk =   0.0640000
        k(   30) = (   0.1992151   0.1992151   0.6255906), wk =   0.0640000
        k(   31) = (   0.1992151   0.3984301   0.0000000), wk =   0.0640000
        k(   32) = (   0.1992151   0.3984301   0.3127953), wk =   0.1280000
        k(   33) = (   0.1992151   0.3984301   0.6255906), wk =   0.1280000
        k(   34) = (   0.3984301   0.3984301   0.0000000), wk =   0.0320000
        k(   35) = (   0.3984301   0.3984301   0.3127953), wk =   0.0640000
        k(   36) = (   0.3984301   0.3984301   0.6255906), wk =   0.0640000

     Largest allocated arrays     est. size (Mb)     dimensions
     Largest temporary arrays     est. size (Mb)     dimensions

     Check: negative/imaginary core charge=   -0.000059    0.000000

     Initial potential from superposition of free atoms

     starting charge   51.99998, renormalised to   54.00000
     Starting wfc are   42 randomized atomic wfcs

     Self-consistent Calculation

[...]

     total energy              =    -554.95393354 Ry
     Harris-Foulkes estimate   =    -554.95393353 Ry
     estimated scf accuracy    <       0.00000005 Ry

[...]

     iteration # 11     ecut=    40.00 Ry     beta=0.70
     Davidson diagonalization with overlap
     ethr =  8.73E-11,  avg # of iterations =  1.0

     End of self-consistent calculation

 ------ SPIN UP ------------

[...]

 ------ SPIN DOWN ----------

[...]

          k = 0.3984 0.3984 0.6256 (  1780 PWs)   bands (ev):

   -69.7217 -69.7216 -38.6254 -38.6253 -38.4739 -38.4738 -38.3680 -38.3680
    -8.7987  -8.7291  -8.5592  -8.5551   3.0749   3.2029   3.6076   3.6261
     4.5553   4.6731   5.3435   5.4084   6.9883   7.2012   7.2106   7.6238
     9.8421  10.1309  10.1703  10.1754  10.5272  10.7891  11.4190  11.9691
    12.0404  12.5940  20.3502  20.7771  21.6763  22.0921  23.5109  23.6134
    24.3661  24.5433  26.0927  26.1978  27.5574  27.9650  30.0146  31.5373
    32.3037  32.7628  32.9759  33.9100  37.3317  37.5115  37.9252  38.6724
    40.4786  40.8289  41.8704  42.5956  42.8622  43.1243  43.6053  44.2607
    44.3308  45.2767  46.6090  47.1145  47.2836  48.2525  48.9995  49.6834
    50.1036  50.1270  50.4220  50.8442  52.5800  52.9101

     the Fermi energy is     8.7816 ev

!    total energy              =    -554.95393355 Ry
     Harris-Foulkes estimate   =    -554.95393355 Ry
     estimated scf accuracy    <          1.1E-09 Ry

     The total energy is the sum of the following terms:

     one-electron contribution =    -294.75980713 Ry
     hartree contribution      =     171.66789672 Ry
     xc contribution           =     -80.69002342 Ry
     ewald contribution        =    -351.17216223 Ry
     smearing contrib. (-TS)   =       0.00016252 Ry

     total magnetization       =     6.00 Bohr mag/cell
     absolute magnetization    =     6.40 Bohr mag/cell

     convergence has been achieved in  11 iterations

     Forces acting on atoms (Ry/au):

     atom    1 type  1   force =     0.00000000    0.00000000    0.00000000
     atom    2 type  1   force =     0.00000000    0.00000000    0.00000000
     atom    3 type  2   force =     0.00005738    0.00005738   -0.00000000
     atom    4 type  2   force =    -0.00005738   -0.00005738   -0.00000000
     atom    5 type  2   force =     0.00005738   -0.00005738   -0.00000000
     atom    6 type  2   force =    -0.00005738    0.00005738   -0.00000000

     Total force =     0.000162     Total SCF correction =     0.000008

     entering subroutine stress ...

          total   stress  (Ry/bohr**3)                   (kbar)     P= -166.39
  -0.00112957   0.00000000   0.00000000       -166.17      0.00      0.00
   0.00000000  -0.00112957   0.00000000          0.00   -166.17      0.00
   0.00000000   0.00000000  -0.00113406          0.00      0.00   -166.83

     General routines

     Parallel routines

   This run was terminated on:  20:46:28  23Jan2014

   JOB DONE.
Running PBS batch system epilogue script
Job id: 251228.audhumbla.fysik.dtu.dk
Username: zhonxu
Groupname: campgst
Jobname: MnO2/coarse-EOS/MnO2-v-1.0
Sessionid: 22480
Queuename: verylong
Accounting:
This job has allocated the following 4 nodes:
q094 q094 q094 q094
Finished epilogue job 251228.audhumbla.fysik.dtu.dk for zhonxu