     Program PWSCF v.5.0.2 (svn rev. 9656) starts on  6May2014 at 10: 8:24

     Current dimensions of program PWSCF are:
     Max number of different atomic species (ntypx) = 10
     Max number of k-points (npk) =  40000
     Max angular momentum in pseudopotentials (lmaxx) =  3
     Reading input from pwscf.in
Warning: card &CELL ignored
Warning: card / ignored

     Subspace diagonalization in iterative solution of the eigenvalue problem:
     a serial algorithm will be used

     Found symmetry operation: I + ( -0.5000  0.0000  0.0000)
     This is a supercell, fractional translations are disabled

     bravais-lattice index     =            0
     lattice parameter (alat)  =      12.2076  a.u.
     unit-cell volume          =    7496.5096 (a.u.)^3
     number of atoms/cell      =           30
     number of atomic types    =            3
     number of electrons       =       240.00
     number of Kohn-Sham states=          360
     kinetic-energy cutoff     =      40.0000  Ry
     charge density cutoff     =     500.0000  Ry
     convergence threshold     =      1.0E-06
     mixing beta               =       0.7000
     number of iterations used =            8  plain     mixing
     Exchange-correlation      = SLA  PW   PBE  PBE ( 1 4 3 4 0)
     EXX-fraction              =        0.00
     nstep                     =           50

     celldm(1)=  12.207631  celldm(2)=   0.000000  celldm(3)=   0.000000
     celldm(4)=   0.000000  celldm(5)=   0.000000  celldm(6)=   0.000000

     crystal axes: (cart. coord. in units of alat)
               a(1) = (   1.000000   0.000000   0.000000 )
               a(2) = (   0.000000   1.004836   0.000000 )
               a(3) = (   0.000000   0.000000   4.100811 )

     reciprocal axes: (cart. coord. in units 2 pi/alat)
               b(1) = (  1.000000  0.000000  0.000000 )
               b(2) = (  0.000000  0.995187  0.000000 )
               b(3) = (  0.000000  0.000000  0.243854 )

     PseudoPot. # 1 for O  read from file:
     /home/camp/zhonxu/pseudo/o_pbe_v1.01.uspp.F.UPF
     MD5 check sum: 2bcb18d16ea4b960afae9ec6d52f22d2
     Pseudo is Ultrasoft + core correction, Zval =  6.0
     Generated by new atomic code, or converted to UPF format
     Using radial grid of  737 points,  5 beta functions with:
                l(1) =   0
                l(2) =   0
                l(3) =   1
                l(4) =   1
                l(5) =   2
     Q(r) pseudized with  8 coefficients,  rinner =    0.900   0.900   0.900
                                                       0.900   0.900

     PseudoPot. # 2 for Pt read from file:
     /home/camp/zhonxu/pseudo/pt_pbe_v1.uspp.F.UPF
     MD5 check sum: 4c71d6ad5ef119f1eb26a4d0b7884226
     Pseudo is Ultrasoft + core correction, Zval = 16.0
     Generated by new atomic code, or converted to UPF format
     Using radial grid of  985 points,  6 beta functions with:
                l(1) =   0
                l(2) =   0
                l(3) =   1
                l(4) =   1
                l(5) =   2
                l(6) =   2
     Q(r) pseudized with  8 coefficients,  rinner =    1.300   1.300   1.300
                                                       1.300   1.300

     PseudoPot. # 3 for H  read from file:
     /home/camp/zhonxu/pseudo/h_pbe_v1.uspp.F.UPF
     MD5 check sum: 3408e3ff4ec8b0a4e358431e7e038a48
     Pseudo is Ultrasoft, Zval =  1.0
     Generated by new atomic code, or converted to UPF format
     Using radial grid of  615 points,  2 beta functions with:
                l(1) =   0
                l(2) =   0
     Q(r) pseudized with  8 coefficients,  rinner =    0.700

     atomic species   valence    mass     pseudopotential
        O0             6.00    15.99940     O ( 1.00)
        Pt1           16.00   195.08000     Pt( 1.00)
        H2             1.00     1.00794     H ( 1.00)

     Simplified LDA+U calculation (l_max = 2) with parameters (eV):
     atomic species    L          U    alpha       J0     beta
        Pt1            2     5.0000   0.0000   0.0000   0.0000

     No symmetry found

   Cartesian axes

     site n.     atom                  positions (alat units)
         1           O0  tau(   1) = (   0.0000000   0.0000000   1.5457188  )
         2           O0  tau(   2) = (   0.0000000   0.5024180   1.6369208  )
         3           Pt1 tau(   3) = (   0.2500000   0.5024180   1.8413872  )
         4           Pt1 tau(   4) = (   0.0000000   0.0000000   1.8534436  )
         5           O0  tau(   5) = (   0.2500000   0.8139171   1.8157162  )
         6           O0  tau(   6) = (   0.2500000   0.1909188   1.8824364  )
         7           O0  tau(   7) = (   0.0000000   0.5024180   2.0315829  )
         8           O0  tau(   8) = (   0.0000000   0.0000000   2.1708464  )
         9           Pt1 tau(   9) = (   0.2500000   0.0000000   2.3625593  )
        10           Pt1 tau(  10) = (   0.0000000   0.5024180   2.3549318  )
        11           O0  tau(  11) = (   0.2500000   0.6933368   2.3911010  )
        12           O0  tau(  12) = (   0.2500000   0.3114991   2.3934384  )
        13           O0  tau(  13) = (   0.0000000   0.0000000   2.5491052  )
        14           O0  tau(  14) = (   0.5000000   0.0000000   1.5457188  )
        15           O0  tau(  15) = (   0.5000000   0.5024180   1.6369208  )
        16           Pt1 tau(  16) = (   0.7500000   0.5024180   1.8413872  )
        17           Pt1 tau(  17) = (   0.5000000   0.0000000   1.8534436  )
        18           O0  tau(  18) = (   0.7500000   0.8139171   1.8157162  )
        19           O0  tau(  19) = (   0.7500000   0.1909188   1.8824364  )
        20           O0  tau(  20) = (   0.5000000   0.5024180   2.0315829  )
        21           O0  tau(  21) = (   0.5000000   0.0000000   2.1708464  )
        22           Pt1 tau(  22) = (   0.7500000   0.0000000   2.3625593  )
        23           Pt1 tau(  23) = (   0.5000000   0.5024180   2.3549318  )
        24           O0  tau(  24) = (   0.7500000   0.6933368   2.3911010  )
        25           O0  tau(  25) = (   0.7500000   0.3114991   2.3934384  )
        26           O0  tau(  26) = (   0.5000000   0.0000000   2.5491052  )
        27           H2  tau(  27) = (  -0.0000500   0.6431553   1.5728661  )
        28           H2  tau(  28) = (   0.4999500   0.6431553   1.5728661  )
        29           H2  tau(  29) = (   0.1440700   0.0315318   1.5048747  )
        30           H2  tau(  30) = (   0.6440700   0.0315318   1.5048747  )

     number of k points=    10  Methfessel-Paxton smearing, width (Ry)=  0.0100
                       cart. coord. in units 2pi/alat
        k(    1) = (   0.0000000   0.0000000   0.0000000), wk =   0.1250000
        k(    2) = (   0.0000000   0.2487968   0.0000000), wk =   0.2500000
        k(    3) = (   0.0000000  -0.4975937   0.0000000), wk =   0.1250000
        k(    4) = (   0.2500000   0.0000000   0.0000000), wk =   0.2500000
        k(    5) = (   0.2500000   0.2487968   0.0000000), wk =   0.2500000
        k(    6) = (   0.2500000  -0.4975937   0.0000000), wk =   0.2500000
        k(    7) = (  -0.5000000   0.0000000   0.0000000), wk =   0.1250000
        k(    8) = (  -0.5000000   0.2487968   0.0000000), wk =   0.2500000
        k(    9) = (  -0.5000000  -0.4975937   0.0000000), wk =   0.1250000
        k(   10) = (  -0.2500000   0.2487968   0.0000000), wk =   0.2500000

     Largest allocated arrays     est. size (Mb)     dimensions
     Largest temporary arrays     est. size (Mb)     dimensions

     Check: negative/imaginary core charge=   -0.000003    0.000000

     Initial potential from superposition of free atoms
     Check: negative starting charge=   -1.537272

     starting charge  235.99985, renormalised to  240.00000

     negative rho (up, down):  0.156E+01 0.000E+00
     Number of +U iterations with fixed ns =  0
     Starting occupations:
 --- enter write_ns ---
 LDA+U parameters:
U( 2)     =  5.00000000
alpha( 2) =  0.00000000
atom    3   Tr[ns(na)] =   8.00000
    eigenvalues:
  0.800  0.800  0.800  0.800  0.800
    eigenvectors:
  1.000  0.000  0.000  0.000  0.000
  0.000  1.000  0.000  0.000  0.000
  0.000  0.000  1.000  0.000  0.000
  0.000  0.000  0.000  1.000  0.000
  0.000  0.000  0.000  0.000  1.000
    occupations:
  0.800  0.000  0.000  0.000  0.000
  0.000  0.800  0.000  0.000  0.000
  0.000  0.000  0.800  0.000  0.000
  0.000  0.000  0.000  0.800  0.000
  0.000  0.000  0.000  0.000  0.800
atom    4   Tr[ns(na)] =   8.00000
    eigenvalues:
  0.800  0.800  0.800  0.800  0.800
    eigenvectors:
  1.000  0.000  0.000  0.000  0.000
  0.000  1.000  0.000  0.000  0.000
  0.000  0.000  1.000  0.000  0.000
  0.000  0.000  0.000  1.000  0.000
  0.000  0.000  0.000  0.000  1.000
    occupations:
  0.800  0.000  0.000  0.000  0.000
  0.000  0.800  0.000  0.000  0.000
  0.000  0.000  0.800  0.000  0.000
  0.000  0.000  0.000  0.800  0.000
  0.000  0.000  0.000  0.000  0.800
atom    9   Tr[ns(na)] =   8.00000
    eigenvalues:
  0.800  0.800  0.800  0.800  0.800
    eigenvectors:
  1.000  0.000  0.000  0.000  0.000
  0.000  1.000  0.000  0.000  0.000
  0.000  0.000  1.000  0.000  0.000
  0.000  0.000  0.000  1.000  0.000
  0.000  0.000  0.000  0.000  1.000
    occupations:
  0.800  0.000  0.000  0.000  0.000
  0.000  0.800  0.000  0.000  0.000
  0.000  0.000  0.800  0.000  0.000
  0.000  0.000  0.000  0.800  0.000
  0.000  0.000  0.000  0.000  0.800
atom   10   Tr[ns(na)] =   8.00000
    eigenvalues:
  0.800  0.800  0.800  0.800  0.800
    eigenvectors:
  1.000  0.000  0.000  0.000  0.000
  0.000  1.000  0.000  0.000  0.000
  0.000  0.000  1.000  0.000  0.000
  0.000  0.000  0.000  1.000  0.000
  0.000  0.000  0.000  0.000  1.000
    occupations:
  0.800  0.000  0.000  0.000  0.000
  0.000  0.800  0.000  0.000  0.000
  0.000  0.000  0.800  0.000  0.000
  0.000  0.000  0.000  0.800  0.000
  0.000  0.000  0.000  0.000  0.800
atom   16   Tr[ns(na)] =   8.00000
    eigenvalues:
  0.800  0.800  0.800  0.800  0.800
    eigenvectors:
  1.000  0.000  0.000  0.000  0.000
  0.000  1.000  0.000  0.000  0.000
  0.000  0.000  1.000  0.000  0.000
  0.000  0.000  0.000  1.000  0.000
  0.000  0.000  0.000  0.000  1.000
    occupations:
  0.800  0.000  0.000  0.000  0.000
  0.000  0.800  0.000  0.000  0.000
  0.000  0.000  0.800  0.000  0.000
  0.000  0.000  0.000  0.800  0.000
  0.000  0.000  0.000  0.000  0.800
atom   17   Tr[ns(na)] =   8.00000
    eigenvalues:
  0.800  0.800  0.800  0.800  0.800
    eigenvectors:
  1.000  0.000  0.000  0.000  0.000
  0.000  1.000  0.000  0.000  0.000
  0.000  0.000  1.000  0.000  0.000
  0.000  0.000  0.000  1.000  0.000
  0.000  0.000  0.000  0.000  1.000
    occupations:
  0.800  0.000  0.000  0.000  0.000
  0.000  0.800  0.000  0.000  0.000
  0.000  0.000  0.800  0.000  0.000
  0.000  0.000  0.000  0.800  0.000
  0.000  0.000  0.000  0.000  0.800
atom   22   Tr[ns(na)] =   8.00000
    eigenvalues:
  0.800  0.800  0.800  0.800  0.800
    eigenvectors:
  1.000  0.000  0.000  0.000  0.000
  0.000  1.000  0.000  0.000  0.000
  0.000  0.000  1.000  0.000  0.000
  0.000  0.000  0.000  1.000  0.000
  0.000  0.000  0.000  0.000  1.000
    occupations:
[...]
    eigenvectors:
  0.000  0.986  0.011  0.002  0.002
  0.011  0.000  0.027  0.931  0.031
  0.000  0.005  0.729  0.002  0.264
  0.000  0.009  0.234  0.055  0.702
  0.989  0.000  0.000  0.010  0.000
    occupations:
  0.722 -0.005 -0.018  0.026 -0.001
 -0.005  0.984  0.000  0.000  0.031
 -0.018  0.000  0.984  0.004  0.000
  0.026  0.000  0.004  0.985  0.000
 -0.001  0.031  0.000  0.000  0.698
atom    9   Tr[ns(na)] =   8.72945
    eigenvalues:
  0.720  0.727  0.962  0.968  0.988
    eigenvectors:
  0.001  0.142  0.000  0.000  0.858
  0.996  0.004  0.000  0.000  0.000
  0.000  0.000  0.000  1.000  0.000
  0.003  0.855  0.000  0.000  0.142
  0.000  0.000  1.000  0.000  0.000
    occupations:
  0.951  0.000 -0.000 -0.091  0.000
  0.000  0.720  0.000  0.000 -0.000
 -0.000  0.000  0.968 -0.001 -0.000
 -0.091  0.000 -0.001  0.764  0.000
  0.000 -0.000 -0.000  0.000  0.962
atom   10   Tr[ns(na)] =   8.80324
    eigenvalues:
  0.664  0.790  0.973  0.987  0.988
    eigenvectors:
  0.000  0.979  0.000  0.021  0.000
  0.000  0.000  1.000  0.000  0.000
  0.000  0.000  0.000  0.008  0.992
  0.000  0.021  0.000  0.971  0.007
  1.000  0.000  0.000  0.000  0.000
    occupations:
  0.794  0.000  0.001  0.029  0.000
  0.000  0.973 -0.000  0.000 -0.001
  0.001 -0.000  0.988 -0.000 -0.000
  0.029  0.000 -0.000  0.983 -0.000
  0.000 -0.001 -0.000 -0.000  0.664
atom   16   Tr[ns(na)] =   8.76789
    eigenvalues:
  0.704  0.715  0.985  0.988  0.991
    eigenvectors:
  0.175  0.000  0.789  0.000  0.036
  0.000  1.000  0.000  0.000  0.000
  0.004  0.000  0.055  0.000  0.941
  0.821  0.000  0.156  0.000  0.024
  0.000  0.000  0.000  1.000  0.000
    occupations:
  0.936 -0.000  0.006 -0.107  0.000
 -0.000  0.715  0.000  0.000 -0.001
  0.006  0.000  0.990  0.017 -0.000
 -0.107  0.000  0.017  0.755  0.000
  0.000 -0.001 -0.000  0.000  0.988
atom   17   Tr[ns(na)] =   8.74519
    eigenvalues:
  0.695  0.718  0.984  0.987  0.988
    eigenvectors:
  0.000  0.986  0.011  0.002  0.002
  0.011  0.000  0.027  0.931  0.031
  0.000  0.005  0.729  0.002  0.264
  0.000  0.009  0.234  0.055  0.702
  0.989  0.000  0.000  0.010  0.000
    occupations:
  0.722 -0.005 -0.018  0.026 -0.001
 -0.005  0.984  0.000  0.000  0.031
 -0.018  0.000  0.984  0.004  0.000
  0.026  0.000  0.004  0.985  0.000
 -0.001  0.031  0.000  0.000  0.698
atom   22   Tr[ns(na)] =   8.72945
    eigenvalues:
  0.720  0.727  0.962  0.968  0.988
    eigenvectors:
  0.001  0.142  0.000  0.000  0.858
  0.996  0.004  0.000  0.000  0.000
  0.000  0.000  0.000  1.000  0.000
  0.003  0.855  0.000  0.000  0.142
  0.000  0.000  1.000  0.000  0.000
    occupations:
  0.951  0.000 -0.000 -0.091  0.000
  0.000  0.720  0.000  0.000 -0.000
 -0.000  0.000  0.968 -0.001 -0.000
 -0.091  0.000 -0.001  0.764  0.000
  0.000 -0.000 -0.000  0.000  0.962
atom   23   Tr[ns(na)] =   8.80311
    eigenvalues:
  0.664  0.790  0.973  0.987  0.988
    eigenvectors:
  0.000  0.979  0.000  0.021  0.000
  0.000  0.000  1.000  0.000  0.000
  0.000  0.000  0.000  0.008  0.992
  0.000  0.021  0.000  0.971  0.008
  1.000  0.000  0.000  0.000  0.000
    occupations:
  0.794  0.000  0.001  0.029  0.000
  0.000  0.973 -0.000  0.000 -0.001
  0.001 -0.000  0.988 -0.000 -0.000
  0.029  0.000 -0.000  0.983 -0.000
  0.000 -0.001 -0.000 -0.000  0.664
N of occupied +U levels =  70.0914230
 --- exit write_ns ---

     Threshold (ethr) on eigenvalues was too large:
     Diagonalizing with lowered threshold

     Davidson diagonalization with overlap
     ethr =  7.00E-09,  avg # of iterations =  2.0

[...]

     total energy              =   -2247.41449986 Ry
     Harris-Foulkes estimate   =   -2247.41449986 Ry
     estimated scf accuracy    <       0.00000003 Ry

     iteration # 12     ecut=    40.00 Ry     beta=0.70
     Davidson diagonalization with overlap
     ethr =  4.86E-12,  avg # of iterations =  1.3

     negative rho (up, down):  0.158E+01 0.000E+00

     End of self-consistent calculation
 --- enter write_ns ---
 LDA+U parameters:
U( 2)     =  5.00000000
alpha( 2) =  0.00000000
atom    3   Tr[ns(na)] =   8.76746
    eigenvalues:
  0.704  0.715  0.985  0.988  0.991
    eigenvectors:
  0.175  0.000  0.789  0.000  0.035
  0.000  1.000  0.000  0.000  0.000
  0.004  0.000  0.055  0.000  0.941
  0.821  0.000  0.156  0.000  0.024
  0.000  0.000  0.000  1.000  0.000
    occupations:
  0.936 -0.000  0.006 -0.107  0.000
 -0.000  0.715  0.000  0.000 -0.001
  0.006  0.000  0.990  0.017 -0.000
 -0.107  0.000  0.017  0.755  0.000
  0.000 -0.001 -0.000  0.000  0.988
atom    4   Tr[ns(na)] =   8.74480
    eigenvalues:
  0.695  0.718  0.984  0.987  0.988
    eigenvectors:
  0.000  0.986  0.011  0.002  0.002
  0.011  0.000  0.027  0.930  0.032
  0.000  0.005  0.726  0.002  0.267
  0.000  0.009  0.236  0.055  0.699
  0.989  0.000  0.000  0.011  0.000
    occupations:
  0.722 -0.005 -0.018  0.026 -0.001
 -0.005  0.984  0.000  0.000  0.031
 -0.018  0.000  0.984  0.004  0.000
  0.026  0.000  0.004  0.985  0.000
 -0.001  0.031  0.000  0.000  0.698
atom    9   Tr[ns(na)] =   8.72978
    eigenvalues:
  0.720  0.727  0.962  0.968  0.988
    eigenvectors:
  0.001  0.142  0.000  0.000  0.858
  0.996  0.004  0.000  0.000  0.000
  0.000  0.000  0.000  1.000  0.000
  0.003  0.855  0.000  0.000  0.142
  0.000  0.000  1.000  0.000  0.000
    occupations:
  0.951  0.000 -0.000 -0.091  0.000
  0.000  0.720  0.000  0.000 -0.000
 -0.000  0.000  0.968 -0.001 -0.000
 -0.091  0.000 -0.001  0.764  0.000
  0.000 -0.000 -0.000  0.000  0.962
atom   10   Tr[ns(na)] =   8.80331
    eigenvalues:
  0.664  0.790  0.973  0.987  0.988
    eigenvectors:
  0.000  0.979  0.000  0.021  0.000
  0.000  0.000  1.000  0.000  0.000
  0.000  0.000  0.000  0.008  0.992
  0.000  0.021  0.000  0.971  0.008
  1.000  0.000  0.000  0.000  0.000
    occupations:
  0.794  0.000  0.001  0.029  0.000
  0.000  0.973 -0.000  0.000 -0.001
  0.001 -0.000  0.988 -0.000 -0.000
  0.029  0.000 -0.000  0.983 -0.000
  0.000 -0.001 -0.000 -0.000  0.664
atom   16   Tr[ns(na)] =   8.76746
    eigenvalues:
  0.704  0.715  0.985  0.988  0.991
    eigenvectors:
  0.175  0.000  0.789  0.000  0.035
  0.000  1.000  0.000  0.000  0.000
  0.004  0.000  0.055  0.000  0.941
  0.821  0.000  0.156  0.000  0.024
  0.000  0.000  0.000  1.000  0.000
    occupations:
  0.936 -0.000  0.006 -0.107  0.000
 -0.000  0.715  0.000  0.000 -0.001
  0.006  0.000  0.990  0.017 -0.000
 -0.107  0.000  0.017  0.755  0.000
  0.000 -0.001 -0.000  0.000  0.988
atom   17   Tr[ns(na)] =   8.74479
    eigenvalues:
  0.695  0.718  0.984  0.987  0.988
    eigenvectors:
  0.000  0.986  0.011  0.002  0.002
  0.011  0.000  0.027  0.930  0.032
  0.000  0.005  0.726  0.002  0.267
  0.000  0.009  0.236  0.055  0.699
  0.989  0.000  0.000  0.011  0.000
    occupations:
  0.722 -0.005 -0.018  0.026 -0.001
 -0.005  0.984  0.000  0.000  0.031
 -0.018  0.000  0.984  0.004  0.000
  0.026  0.000  0.004  0.985  0.000
 -0.001  0.031  0.000  0.000  0.698
atom   22   Tr[ns(na)] =   8.72978
    eigenvalues:
  0.720  0.727  0.962  0.968  0.988
    eigenvectors:
  0.001  0.142  0.000  0.000  0.858
  0.996  0.004  0.000  0.000  0.000
  0.000  0.000  0.000  1.000  0.000
  0.003  0.855  0.000  0.000  0.142
  0.000  0.000  1.000  0.000  0.000
    occupations:
  0.951  0.000 -0.000 -0.091  0.000
  0.000  0.720  0.000  0.000 -0.000
 -0.000  0.000  0.968 -0.001 -0.000
 -0.091  0.000 -0.001  0.764  0.000
  0.000 -0.000 -0.000  0.000  0.962
atom   23   Tr[ns(na)] =   8.80326
    eigenvalues:
  0.664  0.790  0.973  0.987  0.988
    eigenvectors:
  0.000  0.979  0.000  0.021  0.000
  0.000  0.000  1.000  0.000  0.000
  0.000  0.000  0.000  0.008  0.992
  0.000  0.021  0.000  0.971  0.008
  1.000  0.000  0.000  0.000  0.000
    occupations:
  0.794  0.000  0.001  0.029  0.000
  0.000  0.973 -0.000  0.000 -0.001
  0.001 -0.000  0.988 -0.000 -0.000
  0.029  0.000 -0.000  0.983 -0.000
  0.000 -0.001 -0.000 -0.000  0.664
N of occupied +U levels =  70.0906445
 --- exit write_ns ---

[...]

          k = 0.2500-0.4976 0.0000 ( 32026 PWs)   bands (ev):

[...]

          k =-0.2500 0.2488 0.0000 ( 32025 PWs)   bands (ev):

   -55.2778 -55.2573 -55.2373 -55.2245 -55.2178 -55.1852 -55.1399 -55.1373
   -55.1121 -55.1087 -55.0028 -54.9988 -54.9310 -54.9260 -54.8949 -54.8913
   -54.8780 -54.8733 -54.6515 -54.6114 -54.3073 -54.3022 -54.0492 -54.0465
   -22.1487 -21.9691 -21.2605 -21.1508 -20.8530 -20.7018 -20.6993 -20.5645
   -20.5579 -20.4985 -20.3617 -20.2872 -20.2710 -20.0986 -20.0440 -20.0007
   -19.2415 -19.0285 -10.9473 -10.7792 -10.6384 -10.5591 -10.1082 -10.0737
    -9.9760  -9.6430  -9.5895  -9.5776  -9.5132  -9.3241  -9.2321  -9.1338
    -9.1309  -8.9859  -8.8776  -8.6995  -8.5621  -8.4188  -8.2463  -8.2031
    -7.9675  -7.9439  -7.7983  -7.7732  -7.6979  -7.5011  -7.4643  -7.3816
    -7.3514  -7.2831  -7.0145  -6.9608  -6.9466  -6.9134  -6.8027  -6.7192
    -6.5728  -6.4328  -6.3564  -6.1861  -6.0378  -5.9427  -5.7079  -5.5390
    -5.5162  -5.4807  -5.3418  -5.1453  -5.0635  -5.0143  -4.8287  -4.6768
    -4.5018  -4.4871  -4.3775  -4.3303  -4.0962  -4.0491  -3.9438  -3.7983
    -3.6819  -3.6424  -3.6103  -3.5075  -3.2457  -3.2119  -2.9105  -2.7696
    -2.7696  -2.6894  -2.5500  -2.5053  -2.4720  -2.3755  -1.9929  -1.9002
    -1.8441  -1.4775  -1.1444  -0.7092  -0.4120  -0.3449  -0.1757   0.2539
     0.4920   0.6706   0.8144   0.9452   1.1952   1.2175   1.3560   1.5759
     3.0696   3.6870   4.5456   4.9694   5.0497   5.0817   5.1810   5.5016
     5.7033   5.9384   6.0535   6.2180   6.3933   6.4851   6.5789   6.6369
     6.7590   6.8138   7.0186   7.0792   7.2579   7.3980   7.4307   7.5081
     7.6109   7.7352   7.8095   7.9813   8.1093   8.1688   8.2597   8.3185
     8.3676   8.4882   8.5346   8.6427   8.7687   8.8728   9.0281   9.1198
     9.3068   9.3372   9.4452   9.5658   9.6389   9.7700   9.8961   9.9473
    10.0892  10.1355  10.2049  10.2174  10.4196  10.5141  10.5274  10.6343
    10.6574  10.8263  10.8406  10.9784  11.1457  11.2461  11.3453  11.3940
    11.4203  11.5532  11.6589  11.7254  11.8018  11.8051  11.8959  11.9337
    11.9961  12.1603  12.2133  12.2200  12.3206  12.3609  12.4377  12.5201
    12.5824  12.6191  12.7268  12.8013  12.8923  12.9138  13.0441  13.1007
    13.1634  13.2514  13.4113  13.5108  13.6212  13.6386  13.7078  13.8197
    13.8262  13.8946  14.0286  14.0381  14.1234  14.2951  14.3641  14.4247
    14.4692  14.6191  14.6814  14.7372  14.8380  14.9191  15.0604  15.1560
    15.2208  15.2277  15.3506  15.3513  15.4422  15.5131  15.5646  15.6267
    15.6276  15.6729  15.7603  15.8180  15.8666  15.9420  16.0228  16.0377
    16.1738  16.1777  16.2330  16.3292  16.3962  16.4958  16.6097  16.7210
    16.7796  16.8705  16.8905  17.0153  17.0506  17.0692  17.0749  17.1211
    17.1261  17.1555  17.1655  17.2016  17.2017  17.2350  17.2666  17.3047
    17.3530  17.4080  17.4520  17.4575  17.4999  17.6199  17.6924  17.7703
    17.7755  17.8909  17.9720  17.9954  18.0547  18.1120  18.1328  18.1938
    18.2111  18.3633  18.3970  18.4038  18.5330  18.5989  18.7019  18.7109
    18.7380  18.8966  18.9358  19.0095  19.0284  19.1066  19.1536  19.2863
    19.3349  19.3952  19.4073  19.5664  19.6173  19.7785  19.8255  19.8398
    19.9025  19.9466  19.9838  20.0514  20.0783  20.0964  20.2507  20.2744
    20.3176  20.3378  20.5128  20.5185  20.6574  20.6940  20.7690  20.8017
    20.8123  20.9311  20.9382  21.0017  21.0427  21.2131  21.2468  21.2612
    21.3569  21.4391  21.4409  21.5300  21.5825  21.6250  21.6577  21.7778

     the Fermi energy is    -1.8292 ev

!    total energy              =   -2247.41449986 Ry
     Harris-Foulkes estimate   =   -2247.41449986 Ry
     estimated scf accuracy    <          4.9E-09 Ry

     The total energy is the sum of the following terms:

     one-electron contribution =  -22795.35238808 Ry
     hartree contribution      =   11438.97815156 Ry
     xc contribution           =    -565.17318399 Ry
     ewald contribution        =    9672.79536678 Ry
     Hubbard energy            =       1.33852249 Ry
     smearing contrib. (-TS)   =      -0.00096862 Ry

     convergence has been achieved in  12 iterations

     Forces acting on atoms (Ry/au):

     negative rho (up, down):  0.158E+01 0.000E+00
     atom    1 type  1   force =    -0.00751004   -0.00418523   -0.00030538
     atom    2 type  1   force =     0.00009400    0.00428273    0.00006268
     atom    3 type  2   force =    -0.00046707    0.00217925   -0.00034100
     atom    4 type  2   force =     0.00993434    0.00201027    0.00010908
     atom    5 type  1   force =     0.00114982   -0.00186958    0.00011875
     atom    6 type  1   force =     0.00012750    0.00060299   -0.00006810
     atom    7 type  1   force =     0.00002743    0.00465522    0.00088964
     atom    8 type  1   force =    -0.00394133   -0.00789635    0.00088153
     atom    9 type  2   force =     0.00176936    0.00095583   -0.00063490
     atom   10 type  2   force =    -0.00002897   -0.00171112   -0.00000281
     atom   11 type  1   force =     0.00000165   -0.00637078   -0.00020529
     atom   12 type  1   force =     0.00008532    0.00726229   -0.00013339
     atom   13 type  1   force =    -0.00106877   -0.00024397    0.00004950
     atom   14 type  1   force =    -0.00750941   -0.00418469   -0.00030825
     atom   15 type  1   force =     0.00009401    0.00428238    0.00006333
     atom   16 type  2   force =    -0.00047607    0.00217935   -0.00034125
     atom   17 type  2   force =     0.00993435    0.00201010    0.00011551
     atom   18 type  1   force =     0.00114263   -0.00186966    0.00011884
     atom   19 type  1   force =     0.00011895    0.00060301   -0.00006798
     atom   20 type  1   force =     0.00002740    0.00465471    0.00090712
     atom   21 type  1   force =    -0.00394142   -0.00789634    0.00088573
     atom   22 type  2   force =     0.00175734    0.00095595   -0.00063483
     atom   23 type  2   force =    -0.00002889   -0.00171176   -0.00001023
     atom   24 type  1   force =    -0.00001995   -0.00637079   -0.00020532
     atom   25 type  1   force =     0.00006350    0.00726228   -0.00013343
     atom   26 type  1   force =    -0.00106865   -0.00024389    0.00005776
     atom   27 type  3   force =     0.00001414    0.00008733    0.00014215
     atom   28 type  3   force =     0.00001415    0.00008749    0.00014237
     atom   29 type  3   force =    -0.00014801    0.00024138   -0.00057579
     atom   30 type  3   force =    -0.00014732    0.00024157   -0.00057604

     Total force =     0.002341     Total SCF correction =     0.000093

     bfgs converged in   9 scf cycles and   8 bfgs steps
     (criteria: energy < 0.10E-03, force < 0.10E-02)

     End of BFGS Geometry Optimization

     Final energy   =   -2247.4144998559 Ry
Begin final coordinates

ATOMIC_POSITIONS (crystal)
O0       0.000000000   0.000000000   0.376778643    0   0   1
O0       0.000000000   0.500000000   0.399536011    0   0   1
Pt1      0.250000000   0.500000000   0.449013400    0   0   1
Pt1      0.000000000   0.000000000   0.451842921    0   0   1
O0       0.250000000   0.810000000   0.441734921    0   0   1
O0       0.250000000   0.190000000   0.459724274    0   0   1
O0       0.000000000   0.500000000   0.495405575    0   0   1
O0       0.000000000   0.000000000   0.529294586    0   0   1
Pt1      0.250000000   0.000000000   0.575797789    0   0   1
Pt1      0.000000000   0.500000000   0.573726959    0   0   1
O0       0.250000000   0.690000000   0.583366042    0   0   1
O0       0.250000000   0.310000000   0.583820431    0   0   1
O0       0.000000000   0.000000000   0.621359208    0   0   1
O0       0.500000000   0.000000000   0.376779016    0   0   1
O0       0.500000000   0.500000000   0.399536259    0   0   1
Pt1      0.750000000   0.500000000   0.449013407    0   0   1
Pt1      0.500000000   0.000000000   0.451843020    0   0   1
O0       0.750000000   0.810000000   0.441734914    0   0   1
O0       0.750000000   0.190000000   0.459724259    0   0   1
O0       0.500000000   0.500000000   0.495405851    0   0   1
O0       0.500000000   0.000000000   0.529294352    0   0   1
Pt1      0.750000000   0.000000000   0.575797788    0   0   1
Pt1      0.500000000   0.500000000   0.573727011    0   0   1
O0       0.750000000   0.690000000   0.583366049    0   0   1
O0       0.750000000   0.310000000   0.583820438    0   0   1
O0       0.500000000   0.000000000   0.621358287    0   0   1
H2      -0.000024942   0.640938029   0.384371184
H2       0.499975040   0.640937645   0.384371271
H2       0.144207776   0.032414312   0.367157964
H2       0.644207527   0.032414278   0.367158172
End final coordinates

     General routines

     Parallel routines
     Hubbard U routines

   This run was terminated on:  18: 4:55   6May2014

   JOB DONE.