     Program PWSCF v.5.0.2 (svn rev. 9656) starts on 30Apr2014 at 21:57:49

     Current dimensions of program PWSCF are:
     Max number of different atomic species (ntypx) = 10
     Max number of k-points (npk) =  40000
     Max angular momentum in pseudopotentials (lmaxx) =  3
     Reading input from pwscf.in
Warning: card &CELL ignored
Warning: card / ignored

     Subspace diagonalization in iterative solution of the eigenvalue problem:
     a serial algorithm will be used

     bravais-lattice index     =            0
     lattice parameter (alat)  =      11.1872  a.u.
     unit-cell volume          =    7531.8600 (a.u.)^3
     number of atoms/cell      =           31
     number of atomic types    =            3
     number of electrons       =       222.00
     number of Kohn-Sham states=          333
     kinetic-energy cutoff     =      40.0000  Ry
     charge density cutoff     =     500.0000  Ry
     convergence threshold     =      1.0E-06
     mixing beta               =       0.7000
     number of iterations used =            8  plain     mixing
     Exchange-correlation      = SLA  PW   PBE  PBE ( 1 4 3 4 0)
     EXX-fraction              =        0.00
     nstep                     =           50

     celldm(1)=  11.187179  celldm(2)=   0.000000  celldm(3)=   0.000000
     celldm(4)=   0.000000  celldm(5)=   0.000000  celldm(6)=   0.000000

     crystal axes: (cart. coord. in units of alat)
               a(1) = (   1.000000   0.000000   0.000000 )
               a(2) = (   0.000000   1.180104   0.000000 )
               a(3) = (   0.000000   0.000000   4.558482 )

     reciprocal axes: (cart. coord. in units 2 pi/alat)
               b(1) = (  1.000000  0.000000  0.000000 )
               b(2) = (  0.000000  0.847383  0.000000 )
               b(3) = (  0.000000  0.000000  0.219371 )

     PseudoPot. # 1 for O  read from file:
     /home/camp/zhonxu/pseudo/o_pbe_v1.01.uspp.F.UPF
     MD5 check sum: 2bcb18d16ea4b960afae9ec6d52f22d2
     Pseudo is Ultrasoft + core correction, Zval =  6.0
     Generated by new atomic code, or converted to UPF format
     Using radial grid of  737 points,  5 beta functions with:
                l(1) =   0
                l(2) =   0
                l(3) =   1
                l(4) =   1
                l(5) =   2
     Q(r) pseudized with  8 coefficients,  rinner =    0.900   0.900   0.900
                                                       0.900   0.900

     PseudoPot. # 2 for Nb read from file:
     /home/camp/zhonxu/pseudo/nb_pbe_v1.uspp.F.UPF
     MD5 check sum: 573aab8a2fa660278ed4a62cd769473f
     Pseudo is Ultrasoft + core correction, Zval = 13.0
     Generated by new atomic code, or converted to UPF format
     Using radial grid of  887 points,  6 beta functions with:
                l(1) =   0
                l(2) =   0
                l(3) =   1
                l(4) =   1
                l(5) =   2
                l(6) =   2
     Q(r) pseudized with  6 coefficients,  rinner =    1.000   1.000   1.000
                                                       1.000   1.000

     PseudoPot. # 3 for H  read from file:
     /home/camp/zhonxu/pseudo/h_pbe_v1.uspp.F.UPF
     MD5 check sum: 3408e3ff4ec8b0a4e358431e7e038a48
     Pseudo is Ultrasoft, Zval =  1.0
     Generated by new atomic code, or converted to UPF format
     Using radial grid of  615 points,  2 beta functions with:
                l(1) =   0
                l(2) =   0
     Q(r) pseudized with  8 coefficients,  rinner =    0.700

     atomic species   valence    mass     pseudopotential
        O0             6.00    15.99940     O ( 1.00)
        Nb1           13.00    92.90640     Nb( 1.00)
        H2             1.00     1.00794     H ( 1.00)

     Simplified LDA+U calculation (l_max = 2) with parameters (eV):
     atomic species    L          U    alpha       J0     beta
        Nb1            2     7.5000   0.0000   0.0000   0.0000

     No symmetry found

   Cartesian axes

     site n.     atom                  positions (alat units)
         1           O0  tau(   1) = (   0.0000000   0.0000000   1.6934306  )
         2           O0  tau(   2) = (   0.0000000   0.5900519   1.7719732  )
         3           Nb1 tau(   3) = (   0.2500000   0.5900519   2.0266100  )
         4           Nb1 tau(   4) = (   0.0000000   0.0000000   2.0234647  )
         5           O0  tau(   5) = (   0.2500000   0.9322821   2.0339492  )
         6           O0  tau(   6) = (   0.2500000   0.2478218   2.0339492  )
         7           O0  tau(   7) = (   0.0000000   0.5900519   2.2822497  )
         8           O0  tau(   8) = (   0.0000000   0.0000000   2.3837671  )
         9           Nb1 tau(   9) = (   0.2500000   0.0000000   2.6303810  )
        10           Nb1 tau(  10) = (   0.0000000   0.5900519   2.5986084  )
        11           O0  tau(  11) = (   0.2500000   0.8378738   2.6271901  )
        12           O0  tau(  12) = (   0.2500000   0.3422301   2.6272357  )
        13           O0  tau(  13) = (   0.0000000   0.0000000   2.8322306  )
        14           O0  tau(  14) = (   0.5000000   0.0000000   1.6959377  )
        15           O0  tau(  15) = (   0.5000000   0.5900519   1.7815005  )
        16           Nb1 tau(  16) = (   0.7500000   0.5900519   2.0269291  )
        17           Nb1 tau(  17) = (   0.5000000   0.0000000   2.0281143  )
        18           O0  tau(  18) = (   0.7500000   0.9322821   2.0339492  )
        19           O0  tau(  19) = (   0.7500000   0.2478218   2.0339492  )
        20           O0  tau(  20) = (   0.5000000   0.5900519   2.2572692  )
        21           O0  tau(  21) = (   0.5000000   0.0000000   2.3822628  )
        22           Nb1 tau(  22) = (   0.7500000   0.0000000   2.6309736  )
        23           Nb1 tau(  23) = (   0.5000000   0.5900519   2.6831227  )
        24           O0  tau(  24) = (   0.7500000   0.8378738   2.6265975  )
        25           O0  tau(  25) = (   0.7500000   0.3422301   2.6265975  )
        26           O0  tau(  26) = (   0.5000000   0.0000000   2.8320027  )
        27           H2  tau(  27) = (  -0.0004900   0.5918693   1.6065459  )
        28           H2  tau(  28) = (   0.4994900   0.5917631   1.6163466  )
        29           H2  tau(  29) = (   0.1504600   0.0004366   1.6207228  )
        30           H2  tau(  30) = (   0.6496400   0.0004366   1.6219536  )
        31           O0  tau(  31) = (   0.5000300   0.5900519   2.9731333  )

     number of k points=    10  Methfessel-Paxton smearing, width (Ry)=  0.0100
                       cart. coord. in units 2pi/alat
        k(    1) = (   0.0000000   0.0000000   0.0000000), wk =   0.1250000
        k(    2) = (   0.0000000   0.2118458   0.0000000), wk =   0.2500000
        k(    3) = (   0.0000000  -0.4236915   0.0000000), wk =   0.1250000
        k(    4) = (   0.2500000   0.0000000   0.0000000), wk =   0.2500000
        k(    5) = (   0.2500000   0.2118458   0.0000000), wk =   0.2500000
        k(    6) = (   0.2500000  -0.4236915   0.0000000), wk =   0.2500000
        k(    7) = (  -0.5000000   0.0000000   0.0000000), wk =   0.1250000
        k(    8) = (  -0.5000000   0.2118458   0.0000000), wk =   0.2500000
        k(    9) = (  -0.5000000  -0.4236915   0.0000000), wk =   0.1250000
        k(   10) = (  -0.2500000   0.2118458   0.0000000), wk =   0.2500000

     Largest allocated arrays     est. size (Mb)     dimensions
     Largest temporary arrays     est. size (Mb)     dimensions

     Check: negative/imaginary core charge=   -0.000003    0.000000

     Initial potential from superposition of free atoms
     Check: negative starting charge=   -0.003810

     starting charge  221.97807, renormalised to  222.00000

     negative rho (up, down):  0.381E-02 0.000E+00
     Number of +U iterations with fixed ns =  0
     Starting occupations:
 --- enter write_ns ---
 LDA+U parameters:
U( 2)     =  7.50000000
alpha( 2) =  0.00000000
atom    3   Tr[ns(na)] =   3.00000
    eigenvalues:
  0.300  0.300  0.300  0.300  0.300
    eigenvectors:
  1.000  0.000  0.000  0.000  0.000
  0.000  1.000  0.000  0.000  0.000
  0.000  0.000  1.000  0.000  0.000
  0.000  0.000  0.000  1.000  0.000
  0.000  0.000  0.000  0.000  1.000
    occupations:
  0.300  0.000  0.000  0.000  0.000
  0.000  0.300  0.000  0.000  0.000
  0.000  0.000  0.300  0.000  0.000
  0.000  0.000  0.000  0.300  0.000
  0.000  0.000  0.000  0.000  0.300
atom    4   Tr[ns(na)] =   3.00000
    eigenvalues:
  0.300  0.300  0.300  0.300  0.300
    eigenvectors:
  1.000  0.000  0.000  0.000  0.000
  0.000  1.000  0.000  0.000  0.000
  0.000  0.000  1.000  0.000  0.000
  0.000  0.000  0.000  1.000  0.000
  0.000  0.000  0.000  0.000  1.000
    occupations:
  0.300  0.000  0.000  0.000  0.000
  0.000  0.300  0.000  0.000  0.000
  0.000  0.000  0.300  0.000  0.000
  0.000  0.000  0.000  0.300  0.000
  0.000  0.000  0.000  0.000  0.300
atom    9   Tr[ns(na)] =   3.00000
    eigenvalues:
  0.300  0.300  0.300  0.300  0.300
    eigenvectors:
  1.000  0.000  0.000  0.000  0.000
  0.000  1.000  0.000  0.000  0.000
  0.000  0.000  1.000  0.000  0.000
  0.000  0.000  0.000  1.000  0.000
  0.000  0.000  0.000  0.000  1.000
    occupations:
  0.300  0.000  0.000  0.000  0.000
  0.000  0.300  0.000  0.000  0.000
  0.000  0.000  0.300  0.000  0.000
  0.000  0.000  0.000  0.300  0.000
  0.000  0.000  0.000  0.000  0.300
atom   10   Tr[ns(na)] =   3.00000
    eigenvalues:
  0.300  0.300  0.300  0.300  0.300
    eigenvectors:
  1.000  0.000  0.000  0.000  0.000
  0.000  1.000  0.000  0.000  0.000
  0.000  0.000  1.000  0.000  0.000
  0.000  0.000  0.000  1.000  0.000
  0.000  0.000  0.000  0.000  1.000
    occupations:
  0.300  0.000  0.000  0.000  0.000
  0.000  0.300  0.000  0.000  0.000
  0.000  0.000  0.300  0.000  0.000
  0.000  0.000  0.000  0.300  0.000
  0.000  0.000  0.000  0.000  0.300
atom   16   Tr[ns(na)] =   3.00000
    eigenvalues:
  0.300  0.300  0.300  0.300  0.300
    eigenvectors:
  1.000  0.000  0.000  0.000  0.000
  0.000  1.000  0.000  0.000  0.000
  0.000  0.000  1.000  0.000  0.000
  0.000  0.000  0.000  1.000  0.000
  0.000  0.000  0.000  0.000  1.000
    occupations:
  0.300  0.000  0.000  0.000  0.000
  0.000  0.300  0.000  0.000  0.000
  0.000  0.000  0.300  0.000  0.000
  0.000  0.000  0.000  0.300  0.000
  0.000  0.000  0.000  0.000  0.300
atom   17   Tr[ns(na)] =   3.00000
    eigenvalues:
  0.300  0.300  0.300  0.300  0.300
    eigenvectors:
  1.000  0.000  0.000  0.000  0.000
  0.000  1.000  0.000  0.000  0.000
  0.000  0.000  1.000  0.000  0.000
  0.000  0.000  0.000  1.000  0.000
  0.000  0.000  0.000  0.000  1.000
    occupations:
  0.300  0.000  0.000  0.000  0.000
  0.000  0.300  0.000  0.000  0.000
  0.000  0.000  0.300  0.000  0.000
  0.000  0.000  0.000  0.300  0.000
  0.000  0.000  0.000  0.000  0.300
atom   22   Tr[ns(na)] =   3.00000
    eigenvalues:
  0.300  0.300  0.300  0.300  0.300
    eigenvectors:
  1.000  0.000  0.000  0.000  0.000
  0.000  1.000  0.000  0.000  0.000
  0.000  0.000  1.000  0.000  0.000
  0.000  0.000  0.000  1.000  0.000
  0.000  0.000  0.000  0.000  1.000
    occupations:
  0.300  0.000  0.000  0.000  0.000
  0.000  0.300  0.000  0.000  0.000
[...]
 -0.000  0.000  0.001  0.000  0.566
atom    9   Tr[ns(na)] =   5.21791
    eigenvalues:
  0.402  0.451  0.475  0.639  0.641
    eigenvectors:
  0.000  0.868  0.000  0.000  0.132
  0.000  0.000  0.000  1.000  0.000
  0.997  0.000  0.003  0.000  0.000
  0.000  0.132  0.000  0.000  0.868
  0.003  0.000  0.997  0.000  0.000
    occupations:
  0.476  0.000 -0.000  0.064 -0.000
  0.000  0.639 -0.000 -0.000  0.000
 -0.000 -0.000  0.402  0.000  0.004
  0.064 -0.000  0.000  0.616 -0.000
 -0.000  0.000  0.004 -0.000  0.475
atom   10   Tr[ns(na)] =   4.94343
    eigenvalues:
  0.275  0.293  0.497  0.543  0.863
    eigenvectors:
  0.000  0.000  1.000  0.000  0.000
  0.000  0.999  0.000  0.000  0.001
  1.000  0.000  0.000  0.000  0.000
  0.000  0.001  0.000  0.000  0.999
  0.000  0.000  0.000  1.000  0.000
    occupations:
  0.497  0.000  0.000  0.001  0.000
  0.000  0.294  0.000  0.014  0.000
  0.000  0.000  0.275 -0.000 -0.002
  0.001  0.014 -0.000  0.862 -0.000
  0.000  0.000 -0.002 -0.000  0.543
atom   16   Tr[ns(na)] =   5.11751
    eigenvalues:
  0.308  0.351  0.545  0.610  0.744
    eigenvectors:
  0.000  0.000  0.013  0.334  0.653
  0.000  0.000  0.979  0.020  0.001
  0.720  0.280  0.000  0.000  0.000
  0.000  0.000  0.008  0.647  0.345
  0.280  0.720  0.000  0.000  0.000
    occupations:
  0.697  0.011  0.000 -0.064  0.000
  0.011  0.547  0.000  0.003  0.000
  0.000  0.000  0.320 -0.000  0.019
 -0.064  0.003 -0.000  0.656 -0.000
  0.000  0.000  0.019 -0.000  0.339
atom   17   Tr[ns(na)] =   5.10781
    eigenvalues:
  0.313  0.342  0.562  0.597  0.739
    eigenvectors:
  0.003  0.000  0.000  0.997  0.000
  0.996  0.000  0.000  0.003  0.001
  0.000  1.000  0.000  0.000  0.000
  0.001  0.000  0.000  0.000  0.999
  0.000  0.000  1.000  0.000  0.000
    occupations:
  0.597  0.015  0.000  0.002 -0.000
  0.015  0.315 -0.000 -0.012  0.000
  0.000 -0.000  0.342  0.000  0.001
  0.002 -0.012  0.000  0.739  0.000
 -0.000  0.000  0.001  0.000  0.562
atom   22   Tr[ns(na)] =   5.21974
    eigenvalues:
  0.401  0.453  0.476  0.639  0.642
    eigenvectors:
  0.000  0.870  0.000  0.000  0.130
  0.000  0.000  0.000  1.000  0.000
  0.998  0.000  0.002  0.000  0.000
  0.000  0.130  0.000  0.000  0.870
  0.002  0.000  0.998  0.000  0.000
    occupations:
  0.477 -0.000 -0.000  0.064 -0.000
 -0.000  0.639 -0.000  0.000  0.000
 -0.000 -0.000  0.401  0.000 -0.003
  0.064  0.000  0.000  0.617  0.000
 -0.000  0.000 -0.003  0.000  0.476
atom   23   Tr[ns(na)] =   5.33904
    eigenvalues:
  0.458  0.495  0.532  0.547  0.638
    eigenvectors:
  0.001  0.000  0.000  0.000  0.999
  0.001  0.000  0.999  0.000  0.000
  0.000  1.000  0.000  0.000  0.000
  0.998  0.000  0.001  0.000  0.001
  0.000  0.000  0.000  1.000  0.000
    occupations:
  0.637 -0.000 -0.000  0.006  0.000
 -0.000  0.532  0.000 -0.002 -0.000
 -0.000  0.000  0.495 -0.000  0.001
  0.006 -0.002 -0.000  0.458  0.000
  0.000 -0.000  0.001  0.000  0.547
N of occupied +U levels =  41.1807780
 --- exit write_ns ---

     Threshold (ethr) on eigenvalues was too large:
     Diagonalizing with lowered threshold

     Davidson diagonalization with overlap
     ethr =  4.38E-08,  avg # of iterations =  1.8

[...]

     total energy              =   -1557.29485902 Ry
     Harris-Foulkes estimate   =   -1557.29485902 Ry
     estimated scf accuracy    <       0.00000002 Ry

     iteration # 20     ecut=    40.00 Ry     beta=0.70
     Davidson diagonalization with overlap
     ethr =  5.43E-12,  avg # of iterations =  2.0

     negative rho (up, down):  0.362E-02 0.000E+00

     End of self-consistent calculation
 --- enter write_ns ---
 LDA+U parameters:
U( 2)     =  7.50000000
alpha( 2) =  0.00000000
atom    3   Tr[ns(na)] =   5.11502
    eigenvalues:
  0.309  0.350  0.545  0.610  0.744
    eigenvectors:
  0.000  0.000  0.013  0.332  0.655
  0.000  0.000  0.978  0.021  0.002
  0.726  0.274  0.000  0.000  0.000
  0.000  0.000  0.009  0.648  0.344
  0.274  0.726  0.000  0.000  0.000
    occupations:
  0.697 -0.012  0.000 -0.065 -0.000
 -0.012  0.546 -0.000 -0.003  0.000
  0.000 -0.000  0.320 -0.000 -0.018
 -0.065 -0.003 -0.000  0.655  0.000
 -0.000  0.000 -0.018  0.000  0.339
atom    4   Tr[ns(na)] =   5.12062
    eigenvalues:
  0.319  0.350  0.566  0.600  0.726
    eigenvectors:
  0.003  0.000  0.000  0.996  0.001
  0.996  0.000  0.000  0.003  0.001
  0.000  1.000  0.000  0.000  0.000
  0.001  0.000  0.000  0.000  0.999
  0.000  0.000  1.000  0.000  0.000
    occupations:
  0.599  0.015  0.000  0.003 -0.000
  0.015  0.320 -0.000 -0.011  0.000
  0.000 -0.000  0.350  0.000  0.001
  0.003 -0.011  0.000  0.725  0.000
 -0.000  0.000  0.001  0.000  0.566
atom    9   Tr[ns(na)] =   5.21810
    eigenvalues:
  0.402  0.451  0.475  0.639  0.641
    eigenvectors:
  0.000  0.868  0.000  0.000  0.132
  0.000  0.000  0.000  1.000  0.000
  0.996  0.000  0.004  0.000  0.000
  0.000  0.132  0.000  0.000  0.868
  0.004  0.000  0.996  0.000  0.000
    occupations:
  0.476  0.000 -0.000  0.064 -0.000
  0.000  0.639 -0.000 -0.000  0.000
 -0.000 -0.000  0.402  0.000  0.004
  0.064 -0.000  0.000  0.616 -0.000
 -0.000  0.000  0.004 -0.000  0.475
atom   10   Tr[ns(na)] =   4.94478
    eigenvalues:
  0.276  0.294  0.498  0.543  0.862
    eigenvectors:
  0.000  0.000  1.000  0.000  0.000
  0.000  0.999  0.000  0.000  0.001
  1.000  0.000  0.000  0.000  0.000
  0.000  0.001  0.000  0.000  0.999
  0.000  0.000  0.000  1.000  0.000
    occupations:
  0.498  0.000 -0.000  0.001  0.000
  0.000  0.294  0.000  0.016  0.000
 -0.000  0.000  0.276 -0.000 -0.002
  0.001  0.016 -0.000  0.862 -0.000
  0.000  0.000 -0.002 -0.000  0.543
atom   16   Tr[ns(na)] =   5.11477
    eigenvalues:
  0.308  0.351  0.545  0.610  0.744
    eigenvectors:
  0.000  0.000  0.013  0.333  0.654
  0.000  0.000  0.978  0.020  0.002
  0.718  0.282  0.000  0.000  0.000
  0.000  0.000  0.008  0.647  0.345
  0.282  0.718  0.000  0.000  0.000
    occupations:
  0.696  0.012  0.000 -0.064  0.000
  0.012  0.547  0.000  0.003  0.000
  0.000  0.000  0.320 -0.000  0.019
 -0.064  0.003 -0.000  0.655 -0.000
  0.000  0.000  0.019 -0.000  0.339
atom   17   Tr[ns(na)] =   5.11197
    eigenvalues:
  0.314  0.342  0.562  0.598  0.740
    eigenvectors:
  0.003  0.000  0.000  0.997  0.000
  0.996  0.000  0.000  0.003  0.001
  0.000  1.000  0.000  0.000  0.000
  0.001  0.000  0.000  0.000  0.999
  0.000  0.000  1.000  0.000  0.000
    occupations:
  0.597  0.015  0.000  0.001 -0.000
  0.015  0.315 -0.000 -0.012  0.000
  0.000 -0.000  0.342  0.000  0.001
  0.001 -0.012  0.000  0.740  0.000
 -0.000  0.000  0.001  0.000  0.562
atom   22   Tr[ns(na)] =   5.21955
    eigenvalues:
  0.401  0.453  0.476  0.639  0.642
    eigenvectors:
  0.000  0.870  0.000  0.000  0.130
  0.000  0.000  0.000  1.000  0.000
  0.998  0.000  0.002  0.000  0.000
  0.000  0.130  0.000  0.000  0.870
  0.002  0.000  0.998  0.000  0.000
    occupations:
  0.477 -0.000 -0.000  0.064 -0.000
 -0.000  0.639 -0.000  0.000  0.000
 -0.000 -0.000  0.401  0.000 -0.003
  0.064  0.000  0.000  0.617  0.000
 -0.000  0.000 -0.003  0.000  0.476
atom   23   Tr[ns(na)] =   5.33788
    eigenvalues:
  0.458  0.495  0.532  0.547  0.638
    eigenvectors:
  0.001  0.000  0.000  0.000  0.999
  0.001  0.000  0.999  0.000  0.000
  0.000  1.000  0.000  0.000  0.000
  0.998  0.000  0.001  0.000  0.001
  0.000  0.000  0.000  1.000  0.000
    occupations:
  0.637 -0.000 -0.000  0.006  0.000
 -0.000  0.532  0.000 -0.002 -0.000
 -0.000  0.000  0.495 -0.000  0.001
  0.006 -0.002 -0.000  0.458  0.000
  0.000 -0.000  0.001  0.000  0.547
N of occupied +U levels =  41.1826955
 --- exit write_ns ---

[...]

          k = 0.2500-0.4237 0.0000 ( 32188 PWs)   bands (ev):

[...]

          k =-0.2500 0.2118 0.0000 ( 32165 PWs)   bands (ev):

   -57.0579 -56.9865 -56.4894 -56.4719 -56.4167 -56.3941 -55.9351 -55.8049
   -33.7626 -33.2981 -33.1237 -33.1020 -33.0633 -33.0175 -32.9367 -32.9129
   -32.9015 -32.8605 -32.8386 -32.7966 -32.7587 -32.3648 -32.3331 -32.3060
   -32.2730 -32.2412 -32.2361 -32.1746 -32.1514 -31.8773 -31.6696 -31.6493
   -20.8119 -20.5559 -19.9125 -19.8888 -19.5218 -19.4822 -19.4552 -19.4026
   -19.2692 -19.1928 -19.1367 -18.5759 -18.5338 -18.4846 -18.3477 -18.3122
   -18.2707 -18.2205 -17.0510  -9.5159  -8.9105  -7.9462  -7.9028  -7.7703
    -7.5270  -7.1268  -7.0506  -6.8612  -6.7965  -6.7094  -6.6962  -6.4509
    -6.4293  -6.3678  -6.1214  -5.9688  -5.9477  -5.8828  -5.5437  -5.4265
    -5.3613  -5.1646  -5.0774  -4.9570  -4.8439  -4.7041  -4.6428  -4.6063
    -4.5560  -4.5394  -4.4449  -4.4148  -4.3571  -4.2613  -4.2460  -4.2253
    -4.0677  -3.9523  -3.8922  -3.8534  -3.8214  -3.7207  -3.6227  -3.5646
    -3.4512  -3.3991  -3.3388  -3.2277  -3.1832  -3.0835  -2.9870  -2.9233
    -2.8706  -2.6775  -2.6038  -2.3372  -1.1914  -0.8811  -0.3928   1.0898
     1.1512   1.2806   1.3141   1.3708   1.4327   1.6745   1.7272   2.0074
     2.0524   2.1185   2.1919   2.2988   2.3715   2.5372   2.6125   2.7183
     2.7325   2.7951   3.0114   3.1819   3.1959   3.7252   4.0526   4.1076
     4.2263   4.3514   4.4912   4.5718   4.6813   4.7967   4.9308   4.9997
     5.1345   5.2305   5.4012   5.5019   5.5728   5.6908   5.8927   5.9378
     6.0002   6.1643   6.4452   6.5406   6.5623   6.5827   6.8003   6.8313
     6.8490   7.0848   7.2209   7.3015   7.4676   7.4987   7.8402   7.9105
     8.0473   8.0679   8.1822   8.2020   8.2490   8.5398   8.5835   8.7136
     8.8283   8.9314   9.0233   9.1064   9.1887   9.2883   9.3405   9.5161
     9.5465   9.6140   9.7633   9.8551   9.9021  10.0317  10.0812  10.1797
    10.2669  10.3878  10.6038  10.7292  10.7681  10.9214  10.9733  11.0412
    11.1352  11.1597  11.2327  11.2715  11.3930  11.4593  11.5300  11.5504
    11.6628  11.7613  11.8933  11.9390  11.9859  12.1199  12.1413  12.2190
    12.2700  12.3643  12.4077  12.4751  12.6092  12.6662  12.6871  12.7468
    12.7972  12.8702  12.9532  12.9858  13.0665  13.1122  13.2466  13.3102
    13.3685  13.4056  13.5135  13.6560  13.7187  13.7673  13.7913  13.8832
    13.9232  13.9678  14.0178  14.1303  14.1674  14.2929  14.3331  14.4125
    14.4488  14.6069  14.6682  14.7833  14.9015  14.9262  15.0733  15.1050
    15.2311  15.2634  15.3034  15.3498  15.4012  15.4622  15.5363  15.5757
    15.6644  15.7000  15.8006  15.8570  15.9105  15.9684  16.0509  16.0936
    16.1978  16.2770  16.3759  16.4081  16.4622  16.4883  16.5811  16.6731
    16.7352  16.7667  16.8675  16.9748  17.0458  17.1196  17.1657  17.2318
    17.2714  17.3505  17.3737  17.4365  17.4821  17.5794  17.6392  17.7153
    17.7583  17.8696  17.9597  17.9945  18.1054  18.1466  18.2197  18.3612
    18.3836  18.4237  18.4782  18.5551  18.6238  18.6782  18.7215  18.7977
    18.8708  18.9169  18.9716  19.0845  19.1590  19.1969  19.2451  19.3476
    19.3831  19.4094  19.4915  19.5140  19.5800  19.6355  19.6568  19.6770
    19.7703  19.8809  19.9053  20.0164  20.0584

     the Fermi energy is     0.1327 ev

!    total energy              =   -1557.29485902 Ry
     Harris-Foulkes estimate   =   -1557.29485902 Ry
     estimated scf accuracy    <          6.9E-09 Ry

     The total energy is the sum of the following terms:

     one-electron contribution =  -18821.82846286 Ry
     hartree contribution      =    9436.87497230 Ry
     xc contribution           =    -287.00022366 Ry
     ewald contribution        =    8109.62730466 Ry
     Hubbard energy            =       5.03230012 Ry
     smearing contrib. (-TS)   =      -0.00074958 Ry

     convergence has been achieved in  20 iterations

     Forces acting on atoms (Ry/au):

     negative rho (up, down):  0.362E-02 0.000E+00
     atom    1 type  1   force =    -0.00004855   -0.00008370   -0.00004498
     atom    2 type  1   force =    -0.00021539    0.00012342    0.00020780
     atom    3 type  2   force =    -0.02739573   -0.00008425   -0.00011918
     atom    4 type  2   force =    -0.00100596    0.00004262    0.00008859
     atom    5 type  1   force =    -0.00620408   -0.00235028    0.00046191
     atom    6 type  1   force =    -0.00621569    0.00235971    0.00046069
     atom    7 type  1   force =    -0.00044724    0.00000972   -0.00039120
     atom    8 type  1   force =     0.00126449    0.00000069   -0.00052778
     atom    9 type  2   force =     0.00428745    0.00000194   -0.00025595
     atom   10 type  2   force =    -0.00022218   -0.00000759   -0.00072584
     atom   11 type  1   force =     0.00997713    0.01535246    0.00030670
     atom   12 type  1   force =     0.00997888   -0.01535037    0.00030795
     atom   13 type  1   force =     0.00021386   -0.00000142    0.00005870
     atom   14 type  1   force =    -0.00029432   -0.00009182   -0.00003138
     atom   15 type  1   force =    -0.00000895   -0.00001827    0.00019228
     atom   16 type  2   force =     0.02793606   -0.00008392   -0.00014160
     atom   17 type  2   force =    -0.00121935    0.00004433    0.00039098
     atom   18 type  1   force =     0.00667329   -0.00231201    0.00041647
     atom   19 type  1   force =     0.00667673    0.00232204    0.00041623
     atom   20 type  1   force =    -0.00030927    0.00001946   -0.00025855
     atom   21 type  1   force =    -0.00007424   -0.00000183    0.00050569
     atom   22 type  2   force =    -0.00363365    0.00000136    0.00018006
     atom   23 type  2   force =     0.00218761   -0.00000371   -0.00020125
     atom   24 type  1   force =    -0.01103146    0.01603735   -0.00070338
     atom   25 type  1   force =    -0.01103253   -0.01603511   -0.00070368
     atom   26 type  1   force =    -0.00014134   -0.00000025    0.00040265
     atom   27 type  3   force =     0.00000929   -0.00000348    0.00006648
     atom   28 type  3   force =     0.00001316    0.00006798   -0.00058082
     atom   29 type  3   force =     0.00005045    0.00002306    0.00035081
     atom   30 type  3   force =    -0.00002464    0.00002317    0.00014245
     atom   31 type  1   force =     0.00025617   -0.00000128   -0.00027087

     Total force =     0.002109     Total SCF correction =     0.000254
     SCF correction compared to forces is large: reduce conv_thr to get better values

     bfgs converged in  12 scf cycles and  11 bfgs steps
     (criteria: energy < 0.10E-03, force < 0.10E-02)

     End of BFGS Geometry Optimization

     Final energy   =   -1557.2948590212 Ry
Begin final coordinates

ATOMIC_POSITIONS (crystal)
O0       0.000000000   0.000000000   0.370826616    0   0   1
O0       0.000000000   0.500000000   0.388033057    0   0   1
Nb1      0.250000000   0.500000000   0.444654263    0   0   1
Nb1      0.000000000   0.000000000   0.443751054    0   0   1
O0       0.250000000   0.790000000   0.446222432    0   0   1
O0       0.250000000   0.210000000   0.446223572    0   0   1
O0       0.000000000   0.500000000   0.500080793    0   0   1
O0       0.000000000   0.000000000   0.523855596    0   0   1
Nb1      0.250000000   0.000000000   0.577185314    0   0   1
Nb1      0.000000000   0.500000000   0.570740172    0   0   1
O0       0.250000000   0.710000000   0.578295573    0   0   1
O0       0.250000000   0.290000000   0.578296092    0   0   1
O0       0.000000000   0.000000000   0.621517874    0   0   1
O0       0.500000000   0.000000000   0.370809317    0   0   1
O0       0.500000000   0.500000000   0.389871757    0   0   1
Nb1      0.750000000   0.500000000   0.444682909    0   0   1
Nb1      0.500000000   0.000000000   0.443877476    0   0   1
O0       0.750000000   0.790000000   0.446165859    0   0   1
O0       0.750000000   0.210000000   0.446167281    0   0   1
O0       0.500000000   0.500000000   0.496936173    0   0   1
O0       0.500000000   0.000000000   0.524009345    0   0   1
Nb1      0.750000000   0.000000000   0.577428210    0   0   1
Nb1      0.500000000   0.500000000   0.585638974    0   0   1
O0       0.750000000   0.710000000   0.577799022    0   0   1
O0       0.750000000   0.290000000   0.577799863    0   0   1
O0       0.500000000   0.000000000   0.621348107    0   0   1
H2      -0.000440754   0.501561894   0.351877610
H2       0.499532092   0.501629174   0.353748988
H2       0.151498886   0.000428334   0.355597509
H2       0.651726134   0.000427938   0.355700985
O0       0.500391446   0.500003205   0.649148206
End final coordinates

     General routines

     Parallel routines
     Hubbard U routines

   This run was terminated on:  10:28:55   1May2014

   JOB DONE.
Running PBS batch system epilogue script
Job id: 340584.audhumbla.fysik.dtu.dk
Username: zhonxu
Groupname: campgst
Jobname: NbO2/Eads-2-layers/O-U-7.5
Sessionid: 25486
Queuename: verylong
Accounting:
This job has allocated the following 16 nodes:
c064 c064 c064 c064 c064 c064 c064 c064 c063 c063 c063 c063 c063 c063 c063 c063
Finished epilogue job 340584.audhumbla.fysik.dtu.dk for zhonxu