     Program PWSCF v.5.0.2 (svn rev. 9656) starts on 28Mar2014 at  7:29:31

     Current dimensions of program PWSCF are:
     Max number of different atomic species (ntypx) = 10
     Max number of k-points (npk) =  40000
     Max angular momentum in pseudopotentials (lmaxx) =  3
     Reading input from pwscf.in
Warning: card &CELL ignored
Warning: card / ignored

     Subspace diagonalization in iterative solution of the eigenvalue problem:
     a serial algorithm will be used

     bravais-lattice index     =            0
     lattice parameter (alat)  =      10.1289  a.u.
     unit-cell volume          =    9515.8234 (a.u.)^3
     number of atoms/cell      =           49
     number of atomic types    =            2
     number of electrons       =       438.00
     number of Kohn-Sham states=          657
     kinetic-energy cutoff     =      40.0000  Ry
     charge density cutoff     =     500.0000  Ry
     convergence threshold     =      1.0E-06
     mixing beta               =       0.3000
     number of iterations used =            8  plain     mixing
     Exchange-correlation      = SLA  PW   PBE  PBE ( 1 4 3 4 0)
     EXX-fraction              =        0.00
     nstep                     =           50

     celldm(1)=  10.128932  celldm(2)=   0.000000  celldm(3)=   0.000000
     celldm(4)=   0.000000  celldm(5)=   0.000000  celldm(6)=   0.000000

     crystal axes: (cart. coord. in units of alat)
               a(1) = (   1.000000   0.000000   0.000000 )
               a(2) = (   0.000000   1.306037   0.000000 )
               a(3) = (   0.000000   0.000000   7.011323 )

     reciprocal axes: (cart. coord. in units 2 pi/alat)
               b(1) = (  1.000000  0.000000  0.000000 )
               b(2) = (  0.000000  0.765675  0.000000 )
               b(3) = (  0.000000  0.000000  0.142626 )

     PseudoPot. # 1 for O  read from file:
     /home/camp/zhonxu/pseudo/o_pbe_v1.01.uspp.F.UPF
     MD5 check sum: 2bcb18d16ea4b960afae9ec6d52f22d2
     Pseudo is Ultrasoft + core correction, Zval =  6.0
     Generated by new atomic code, or converted to UPF format
     Using radial grid of  737 points,  5 beta functions with:
                l(1) =   0
                l(2) =   0
                l(3) =   1
                l(4) =   1
                l(5) =   2
     Q(r) pseudized with  8 coefficients,  rinner =    0.900   0.900   0.900
                                                       0.900   0.900

     PseudoPot. # 2 for Re read from file:
     /home/camp/zhonxu/pseudo/re_pbe_v1.uspp.F.UPF
     MD5 check sum: 6f5a5dcaf9c96c20d0ffdde0de57afc6
     Pseudo is Ultrasoft + core correction, Zval = 15.0
     Generated by new atomic code, or converted to UPF format
     Using radial grid of  981 points,  8 beta functions with:
                l(1) =   0
                l(2) =   0
                l(3) =   1
                l(4) =   1
                l(5) =   2
                l(6) =   2
                l(7) =   3
                l(8) =   3
     Q(r) pseudized with  8 coefficients,  rinner =    1.000   1.000   1.000
                                                       1.000   1.000   1.000
                                                       1.000

     atomic species   valence    mass     pseudopotential
        O0             6.00    15.99940     O ( 1.00)
        Re1           15.00   186.20700     Re( 1.00)

      4 Sym. Ops. (no inversion) found

   Cartesian axes

     site n.     atom                  positions (alat units)
         1           O0  tau(   1) = (   0.0000000   0.6530184   2.2387856  )
         2           Re1 tau(   2) = (   0.2500000   0.6530184   2.5261097  )
         3           Re1 tau(   3) = (   0.0000000   0.0000000   2.5261097  )
         4           O0  tau(   4) = (   0.2500000   1.0187087   2.5261097  )
         5           O0  tau(   5) = (   0.2500000   0.2873281   2.5261097  )
         6           O0  tau(   6) = (   0.0000000   0.6530184   2.8134337  )
         7           O0  tau(   7) = (   0.0000000   0.0000000   2.8918203  )
         8           Re1 tau(   8) = (   0.2500000   0.0000000   3.1791443  )
         9           Re1 tau(   9) = (   0.0000000   0.6530184   3.1791443  )
        10           O0  tau(  10) = (   0.2500000   0.9403465   3.1791443  )
        11           O0  tau(  11) = (   0.2500000   0.3656903   3.1791443  )
        12           O0  tau(  12) = (   0.0000000   0.0000000   3.4664683  )
        13           O0  tau(  13) = (   0.0000000   0.6530184   3.5433125  )
        14           Re1 tau(  14) = (   0.2453800   0.6530184   3.8274814  )
        15           Re1 tau(  15) = (   0.0000000   0.0000000   3.8418546  )
        16           O0  tau(  16) = (   0.2488800   1.0202106   3.8338617  )
        17           O0  tau(  17) = (   0.2488800   0.2858261   3.8338617  )
        18           O0  tau(  18) = (   0.0000000   0.6530184   4.1169088  )
        19           O0  tau(  19) = (   0.0000000   0.0000000   4.2175213  )
        20           Re1 tau(  20) = (   0.2749000   0.0000000   4.4985351  )
        21           Re1 tau(  21) = (   0.0000000   0.6530184   4.4714714  )
        22           O0  tau(  22) = (   0.2537500   0.9362978   4.4940479  )
        23           O0  tau(  23) = (   0.2537500   0.3697390   4.4940479  )
        24           O0  tau(  24) = (   0.0000000   0.0000000   4.7327133  )
        25           O0  tau(  25) = (   0.5000000   0.6530184   2.2387856  )
        26           Re1 tau(  26) = (   0.7500000   0.6530184   2.5261097  )
        27           Re1 tau(  27) = (   0.5000000   0.0000000   2.5261097  )
        28           O0  tau(  28) = (   0.7500000   1.0187087   2.5261097  )
        29           O0  tau(  29) = (   0.7500000   0.2873281   2.5261097  )
        30           O0  tau(  30) = (   0.5000000   0.6530184   2.8134337  )
        31           O0  tau(  31) = (   0.5000000   0.0000000   2.8918203  )
        32           Re1 tau(  32) = (   0.7500000   0.0000000   3.1791443  )
        33           Re1 tau(  33) = (   0.5000000   0.6530184   3.1791443  )
        34           O0  tau(  34) = (   0.7500000   0.9403465   3.1791443  )
        35           O0  tau(  35) = (   0.7500000   0.3656903   3.1791443  )
        36           O0  tau(  36) = (   0.5000000   0.0000000   3.4664683  )
        37           O0  tau(  37) = (   0.5000000   0.6530184   3.5484307  )
        38           Re1 tau(  38) = (   0.7546200   0.6530184   3.8274814  )
        39           Re1 tau(  39) = (   0.5000000   0.0000000   3.8339318  )
        40           O0  tau(  40) = (   0.7511200   1.0202106   3.8338617  )
        41           O0  tau(  41) = (   0.7511200   0.2858261   3.8338617  )
        42           O0  tau(  42) = (   0.5000000   0.6530184   4.1084251  )
        43           O0  tau(  43) = (   0.5000000   0.0000000   4.1966276  )
        44           Re1 tau(  44) = (   0.7251000   0.0000000   4.4985351  )
        45           Re1 tau(  45) = (   0.5000000   0.6530184   4.4603234  )
        46           O0  tau(  46) = (   0.7462500   0.9362978   4.4940479  )
        47           O0  tau(  47) = (   0.7462500   0.3697390   4.4940479  )
        48           O0  tau(  48) = (   0.5000000   0.0000000   4.7844569  )
        49           O0  tau(  49) = (   0.5000000   0.6530184   4.7470865  )

     number of k points=     9  Methfessel-Paxton smearing, width (Ry)=  0.0100
                       cart. coord. in units 2pi/alat
        k(    1) = (   0.0000000   0.0000000   0.0000000), wk =   0.1250000
        k(    2) = (   0.0000000   0.1914188   0.0000000), wk =   0.2500000
        k(    3) = (   0.0000000  -0.3828376   0.0000000), wk =   0.1250000
        k(    4) = (   0.2500000   0.0000000   0.0000000), wk =   0.2500000
        k(    5) = (   0.2500000   0.1914188   0.0000000), wk =   0.5000000
        k(    6) = (   0.2500000  -0.3828376   0.0000000), wk =   0.2500000
        k(    7) = (  -0.5000000   0.0000000   0.0000000), wk =   0.1250000
        k(    8) = (  -0.5000000   0.1914188   0.0000000), wk =   0.2500000
        k(    9) = (  -0.5000000  -0.3828376   0.0000000), wk =   0.1250000

     Largest allocated arrays     est. size (Mb)     dimensions
     Largest temporary arrays     est. size (Mb)     dimensions

     Check: negative/imaginary core charge=   -0.000003    0.000000

     Initial potential from superposition of free atoms
     Check: negative starting charge=   -0.473851

     starting charge  429.99923, renormalised to  438.00000

     negative rho (up, down):  0.483E+00 0.000E+00
     Starting wfc are  340 randomized atomic wfcs

     Self-consistent Calculation

     iteration #  1     ecut=    40.00 Ry     beta=0.30
     Davidson diagonalization with overlap
     ethr =  1.00E-02,  avg # of iterations =  6.1

     negative rho (up, down):  0.519E+00 0.000E+00

     total energy              =   -4160.49322751 Ry
     Harris-Foulkes estimate   =   -4183.09264025 Ry
     estimated scf accuracy    <      45.95189285 Ry

[...]

     End of self-consistent calculation

          k = 0.0000 0.0000 0.0000 ( 40685 PWs)   bands (ev):

   -80.8593 -80.0822 -79.9898 -79.9769 -79.9707 -79.9404 -79.9344 -79.9320
   -79.8994 -79.8897 -79.8772 -79.8572 -79.8419 -79.7092 -79.5614 -79.5029
   -43.7749 -42.7975 -42.5636 -42.5367 -42.2177 -42.1912 -42.1845 -42.1354
   -42.1170 -42.0441 -41.9658 -41.9344 -41.9179 -41.9152 -41.9129 -41.9089
   -41.8941 -41.8739 -41.8504 -41.8474 -41.8458 -41.8326 -41.8193 -41.7768
   -41.7751 -41.7663 -41.7444 -41.7296 -41.7202 -41.7113 -41.7057 -41.6951
   -41.6877 -41.6712 -41.6253 -41.5595 -41.4697 -41.4688 -41.3817 -41.3735
   -41.3441 -41.3252 -41.3167 -41.2840 -41.2787 -41.2589 -41.2554 -40.9665
   -19.7511 -19.4450 -19.1938 -19.1496 -19.0721 -18.9557 -18.7780 -18.5738
   -18.5044 -18.4049 -18.3443 -18.2239 -18.1967 -18.1921 -18.1545 -18.0807
   -18.0655 -17.9417 -17.9124 -17.8786 -17.8775 -17.8693 -17.8482 -17.8433
   -17.8409 -17.8239 -17.7477 -17.5840 -17.3719 -16.8227 -16.5088 -16.0329
   -15.6256  -8.2294  -8.1854  -8.0664  -7.9722  -7.8716  -7.5956  -7.4089
    -7.2024  -6.9342  -6.9109  -6.7871  -6.7785  -6.6775  -6.6031  -6.5463
    -6.4673  -6.4100  -6.3786  -6.3012  -6.2702  -6.2633  -6.2593  -6.1108
    -5.9830  -5.9261  -5.9196  -5.8363  -5.7485  -5.7426  -5.7310  -5.6316
    -5.6151  -5.5987  -5.5504  -5.4825  -5.3299  -5.3282  -5.1367  -4.9874
    -4.7596  -4.6169  -4.5730  -4.4654  -4.4077  -4.3747  -4.2823  -4.2682
    -4.2285  -4.2069  -4.1818  -4.1640  -4.1437  -4.0950  -4.0338  -3.8247
    -3.6193  -3.6170  -3.5536  -3.5058  -3.4284  -3.3407  -3.3130  -3.2744
    -3.2066  -3.1926  -3.1837  -3.1722  -3.1472  -3.0425  -2.9208  -2.9136
    -2.8843  -2.8111  -2.7918  -2.7189  -2.6605  -2.6436  -2.6012  -2.4868
    -2.3354  -2.3009  -2.2380  -2.2304  -2.1427  -2.1219  -2.0549  -1.9942
    -1.9726  -1.9155  -1.8051  -1.7583  -1.7426  -1.7380  -1.6953  -1.6781
    -1.6143  -1.5520  -1.5238  -1.3708  -1.2836  -1.2316  -1.1726  -0.9871
    -0.8043  -0.5300   0.0082   0.2941   0.4750   0.6519   0.7379   0.7788
     0.8853   1.1248   1.1704   1.4404   1.5098   1.5641   1.5897   1.6294
[...]
Re1      0.245380000   0.500000000   0.545900000    0   0   0
Re1      0.000000000   0.000000000   0.547950000    0   0   0
O0       0.248880000   0.781150000   0.546810000    0   0   0
O0       0.248880000   0.218850000   0.546810000    0   0   0
O0       0.000000000   0.500000000   0.587180000    0   0   0
O0       0.000000000   0.000000000   0.601530000    0   0   0
Re1      0.274900000   0.000000000   0.641610000    0   0   0
Re1      0.000000000   0.500000000   0.637750000    0   0   0
O0       0.253750000   0.716900000   0.640970000    0   0   0
O0       0.253750000   0.283100000   0.640970000    0   0   0
O0       0.000000000   0.000000000   0.675010000    0   0   0
O0       0.500000000   0.500000000   0.319310000    0   0   0
Re1      0.750000000   0.500000000   0.360290000    0   0   0
Re1      0.500000000   0.000000000   0.360290000    0   0   0
O0       0.750000000   0.780000000   0.360290000    0   0   0
O0       0.750000000   0.220000000   0.360290000    0   0   0
O0       0.500000000   0.500000000   0.401270000    0   0   0
O0       0.500000000   0.000000000   0.412450000    0   0   0
Re1      0.750000000   0.000000000   0.453430000    0   0   0
Re1      0.500000000   0.500000000   0.453430000    0   0   0
O0       0.750000000   0.720000000   0.453430000    0   0   0
O0       0.750000000   0.280000000   0.453430000    0   0   0
O0       0.500000000   0.000000000   0.494410000    0   0   0
O0       0.500000000   0.500000000   0.506100000    0   0   0
Re1      0.754620000   0.500000000   0.545900000    0   0   0
Re1      0.500000000   0.000000000   0.546820000    0   0   0
O0       0.751120000   0.781150000   0.546810000    0   0   0
O0       0.751120000   0.218850000   0.546810000    0   0   0
O0       0.500000000   0.500000000   0.585970000    0   0   0
O0       0.500000000   0.000000000   0.598550000    0   0   0
Re1      0.725100000   0.000000000   0.641610000    0   0   0
Re1      0.500000000   0.500000000   0.636160000    0   0   0
O0       0.746250000   0.716900000   0.640970000    0   0   0
O0       0.746250000   0.283100000   0.640970000    0   0   0
O0       0.500000000   0.000000000   0.682390000    0   0   0
O0       0.500000000   0.500000000   0.682822146

     Check: negative starting charge=   -0.474067
     NEW-OLD atomic charge density approx. for the potential

     Check: negative/imaginary core charge=   -0.000003    0.000000
     Check: negative starting charge=   -0.474069

[...]

     Self-consistent Calculation

[...]

     Threshold (ethr) on eigenvalues was too large:
     Diagonalizing with lowered threshold

     Davidson diagonalization with overlap
     ethr =  9.84E-09,  avg # of iterations =  1.0

[...]

     total energy              =   -4180.01616842 Ry
     Harris-Foulkes estimate   =   -4180.01616842 Ry
     estimated scf accuracy    <       0.00000008 Ry

     iteration # 16     ecut=    40.00 Ry     beta=0.30
     Davidson diagonalization with overlap
     ethr =  1.46E-11,  avg # of iterations =  1.0

     negative rho (up, down):  0.492E+00 0.000E+00

     End of self-consistent calculation

[...]

          k = 0.2500-0.3828 0.0000 ( 40642 PWs)   bands (ev):

[...]

          k =-0.5000-0.3828 0.0000 ( 40640 PWs)   bands (ev):

   -80.7114 -80.2653 -80.1768 -80.1645 -80.1645 -80.1497 -80.1314 -80.1077
   -80.1077 -80.0883 -80.0797 -80.0763 -80.0633 -79.9529 -79.7427 -79.7265
   -42.8181 -42.5608 -42.5423 -42.4905 -42.2192 -42.1145 -42.0994 -42.0964
   -42.0918 -42.0917 -42.0706 -42.0705 -42.0390 -42.0352 -42.0334 -42.0282
   -42.0278 -42.0252 -42.0144 -42.0122 -41.9952 -41.9925 -41.9781 -41.9769
   -41.9726 -41.9694 -41.9552 -41.9419 -41.9323 -41.9260 -41.9251 -41.9141
   -41.9026 -41.9014 -41.8914 -41.8901 -41.8819 -41.8775 -41.8296 -41.8286
   -41.7570 -41.6811 -41.6364 -41.6230 -41.6201 -41.6196 -41.6136 -41.5878
   -19.1738 -19.1319 -18.9384 -18.9251 -18.8624 -18.8324 -18.7777 -18.6472
   -18.6469 -18.6097 -18.5716 -18.5613 -18.5415 -18.5376 -18.5076 -18.4556
   -18.2763 -18.2648 -18.2612 -18.2424 -18.2155 -18.1812 -18.1781 -18.1736
   -18.1651 -18.1474 -18.1448 -17.7373 -16.9765 -16.9026 -16.3263 -16.1015
   -16.0982  -7.4472  -7.3474  -7.2416  -7.2375  -7.1884  -7.1799  -7.1484
    -7.1343  -7.0766  -7.0698  -7.0435  -7.0083  -6.9672  -6.7858  -6.6849
    -6.6054  -6.1724  -6.1019  -6.0971  -5.9176  -5.9009  -5.8569  -5.8540
    -5.8409  -5.7643  -5.7385  -5.7143  -5.6661  -5.5904  -5.5630  -5.4784
    -5.4541  -5.4524  -5.4408  -5.3981  -5.3744  -5.3702  -5.3143  -5.2346
    -5.2046  -5.1544  -5.1287  -5.0742  -5.0478  -4.8118  -4.7531  -4.6607
    -4.6255  -4.5724  -4.5613  -4.5547  -4.5459  -4.3332  -4.2025  -4.1146
    -4.0999  -4.0780  -4.0717  -3.9924  -3.9830  -3.8938  -3.8688  -3.8613
    -3.8154  -3.7627  -3.7588  -3.7113  -3.6644  -3.6292  -3.6243  -3.5480
    -3.5427  -3.3676  -3.1673  -3.0864  -3.0778  -2.7615  -2.7333  -2.6867
    -2.6535  -2.5821  -2.4185  -2.3998  -2.3845  -2.3835  -2.2021  -2.1265
    -2.0804  -2.0742  -2.0454  -1.9966  -1.8453  -1.5559  -1.3837  -1.3754
    -1.2922  -1.2841  -0.9777  -0.8250  -0.3098   0.0372   0.0906   0.1998
     0.2652   0.2782   0.3293   0.3621   0.3887   0.4288   0.4337   0.4403
     0.4941   0.5974   0.6752   0.8534   0.9038   1.0758   1.1115   1.1203
     1.3928   1.4477   1.5254   1.5430   1.5961   1.6713   1.7181   1.7377
     1.7678   1.9153   1.9412   1.9861   2.0063   2.2010   2.2570   2.2583
     2.3172   2.5118   2.5545   2.5577   2.6429   2.6634   2.6753   2.6772
     2.9268   2.9683   2.9983   3.0262   3.0748   3.4148   3.5064   3.8063
     4.0425   4.0449   4.0679   4.1885   4.2219   4.2700   4.2766   4.8165
     4.9830   5.0351   5.0902   5.7696   5.8435   5.9326   6.1121   6.3731
     6.4162   6.5206   6.6276   7.0063   7.0424   7.0513   7.1532   7.3685
     7.4166   7.4302   7.4502   7.4632   7.5433   7.5918   7.8997   8.9602
     8.9720   9.0060   9.0374   9.0967   9.1465   9.1565   9.1834   9.3152
     9.4059   9.4164   9.4329   9.4445   9.4629   9.5207   9.5482   9.6642
     9.8500   9.8567   9.8733   9.9416   9.9547   9.9616  10.0654  10.1940
    10.4195  10.4507  10.4846  10.6123  10.6848  10.6935  10.7439  10.8673
    11.1533  11.1726  11.2215  11.3605  11.4134  11.5074  11.5197  11.6429
    11.9587  11.9722  11.9785  12.1392  12.2070  12.2285  12.2472  12.2624
    12.2805  12.2811  12.3049  12.3988  12.4322  12.6762  12.7021  12.7579
    13.0129  13.0283  13.3191  13.3491  13.6519  13.6799  13.6979  13.8096
    13.9658  13.9855  14.0880  14.2877  14.3227  14.4113  14.4562  14.6041
    14.6907  14.7197  14.7687  14.7752  14.7975  14.8457  15.0461  15.0622
    15.1107  15.1145  15.1704  15.2419  15.2775  15.3356  15.3496  15.3594
    15.4685  15.4763  15.5167  15.5234  15.5475  15.5891  15.6006  15.6340
    15.6876  15.6927  15.7344  15.7532  15.7566  15.7665  15.7710  15.8130
    15.8526  15.8693  15.8872  15.9175  15.9405  15.9466  15.9669  15.9975
    16.0264  16.0464  16.2936  16.3710  16.4452  16.4473  16.4632  16.5449
    16.6026  16.6203  16.6279  16.6844  16.7080  16.7104  16.7314  16.7789
    16.8243  16.8309  17.0275  17.1378  17.1588  17.2717  17.3121  17.3506
    17.4572  17.4638  17.4684  17.6240  17.6358  17.6648  17.6844  17.7571
    17.7617  17.8255  17.8809  18.1381  18.1586  18.1588  18.2472  18.3418
    18.3759  18.3980  18.4624  18.5316  18.6370  18.7150  18.7274  19.0078
    19.0214  19.0384  19.0409  19.0564  19.0914  19.1338  19.1348  19.1594
    19.2067  19.3437  19.3926  19.4042  19.4218  19.5800  19.5830  19.6082
    19.6099  19.6177  19.7513  19.7743  19.7802  19.7838  19.8256  19.8501
    19.8981  19.9295  20.0189  20.0274  20.0372  20.0655  20.0739  20.1569
    20.2122  20.2138  20.2534  20.3186  20.3730  20.4246  20.4278  20.5146
[...]
    23.9385  23.9692  24.0195  24.0693  24.1086  24.1955  24.2000  24.2013
    24.2036  24.2258  24.2352  24.2539  24.3341  24.3361  24.6006  24.6052
    24.6772  24.6994  24.7972  24.8404  24.9241  25.0255  25.0592  25.1919
    25.2495  25.2841  25.3204  25.3312  25.3479  25.3654  25.4367  25.5004
    25.5071  25.5294  25.5516  25.6231  25.6375  25.6430  25.7615  25.8116
    25.8338  25.9071  25.9158  25.9215  25.9720  25.9836  26.0176  26.0670
    26.1141  26.1143  26.1223  26.1531  26.1652  26.2301  26.3004  26.3106
    26.3829  26.4293  26.4807  26.5699  26.5849  26.6074  26.6104  26.6256
    26.6360  26.6636  26.6686  26.6749  26.7084  26.7566  26.7624  26.7829
    26.8895  26.8998  26.9318  26.9406  27.0654  27.0982  27.1388  27.1616
    27.2510  27.2589  27.2684  27.2898  27.3246  27.3338  27.3424  27.4149
    27.4658  27.4692  27.5987  27.6220  27.6248  27.6288  27.7249  27.7313
    27.7464  27.7859  27.8229  27.8253  27.9240  27.9242  27.9475  27.9493
    27.9964  28.0156  28.0243  28.1036  28.1421  28.1576  28.1607  28.1888
    28.2075

     the Fermi energy is     1.6869 ev

!    total energy              =   -4180.01616841 Ry
     Harris-Foulkes estimate   =   -4180.01616842 Ry
     estimated scf accuracy    <          7.9E-09 Ry

     The total energy is the sum of the following terms:

     one-electron contribution =  -84734.15104787 Ry
     hartree contribution      =   42405.23872508 Ry
     xc contribution           =   -1146.83516365 Ry
     ewald contribution        =   39295.73239016 Ry
     smearing contrib. (-TS)   =      -0.00107214 Ry

     convergence has been achieved in  16 iterations

     Forces acting on atoms (Ry/au):

     negative rho (up, down):  0.492E+00 0.000E+00
     atom    1 type  1   force =     0.00000000    0.00000000    0.10486567
     atom    2 type  2   force =    -0.01602781    0.00000000   -0.14672993
     atom    3 type  2   force =     0.00000000    0.00000000    0.05832360
     atom    4 type  1   force =    -0.00040767    0.00521234   -0.01336358
     atom    5 type  1   force =    -0.00040767   -0.00521234   -0.01336358
     atom    6 type  1   force =     0.00000000    0.00000000    0.04918662
     atom    7 type  1   force =     0.00000000    0.00000000   -0.01210416
     atom    8 type  2   force =     0.00027979    0.00000000    0.00689957
     atom    9 type  2   force =     0.00000000    0.00000000   -0.03641709
     atom   10 type  1   force =     0.00014884   -0.00708719    0.00298772
     atom   11 type  1   force =     0.00014884    0.00708719    0.00298772
     atom   12 type  1   force =     0.00000000    0.00000000    0.00261099
     atom   13 type  1   force =     0.00000000    0.00000000   -0.00602734
     atom   14 type  2   force =    -0.00153259    0.00000000   -0.01182721
     atom   15 type  2   force =     0.00000000    0.00000000    0.00012668
     atom   16 type  1   force =     0.00152574    0.00107599    0.00040114
     atom   17 type  1   force =     0.00152574   -0.00107599    0.00040114
     atom   18 type  1   force =     0.00000000    0.00000000   -0.00289928
     atom   19 type  1   force =     0.00000000    0.00000000    0.00825289
     atom   20 type  2   force =     0.00244553    0.00000000    0.01385027
     atom   21 type  2   force =     0.00000000    0.00000000   -0.02242416
     atom   22 type  1   force =    -0.02851787    0.00815980   -0.03413585
     atom   23 type  1   force =    -0.02851787   -0.00815980   -0.03413585
     atom   24 type  1   force =     0.00000000    0.00000000   -0.00721267
     atom   25 type  1   force =     0.00000000    0.00000000    0.10951398
     atom   26 type  2   force =     0.01602781    0.00000000   -0.14672993
     atom   27 type  2   force =     0.00000000    0.00000000    0.05980043
     atom   28 type  1   force =     0.00040767    0.00521234   -0.01336358
     atom   29 type  1   force =     0.00040767   -0.00521234   -0.01336358
     atom   30 type  1   force =     0.00000000    0.00000000    0.03472023
     atom   31 type  1   force =     0.00000000    0.00000000   -0.01006646
     atom   32 type  2   force =    -0.00027979    0.00000000    0.00689957
     atom   33 type  2   force =     0.00000000    0.00000000   -0.02503455
     atom   34 type  1   force =    -0.00014884   -0.00708719    0.00298772
     atom   35 type  1   force =    -0.00014884    0.00708719    0.00298772
     atom   36 type  1   force =     0.00000000    0.00000000   -0.01027762
     atom   37 type  1   force =     0.00000000    0.00000000    0.00129338
     atom   38 type  2   force =     0.00153259    0.00000000   -0.01182721
     atom   39 type  2   force =     0.00000000    0.00000000   -0.00501306
     atom   40 type  1   force =    -0.00152574    0.00107599    0.00040114
     atom   41 type  1   force =    -0.00152574   -0.00107599    0.00040114
     atom   42 type  1   force =     0.00000000    0.00000000   -0.03965282
     atom   43 type  1   force =     0.00000000    0.00000000    0.00072479
     atom   44 type  2   force =    -0.00244553    0.00000000    0.01385027
     atom   45 type  2   force =     0.00000000    0.00000000    0.21800650
     atom   46 type  1   force =     0.02851787    0.00815980   -0.03413585
     atom   47 type  1   force =     0.02851787   -0.00815980   -0.03413585
     atom   48 type  1   force =     0.00000000    0.00000000   -0.01789139
     atom   49 type  1   force =     0.00000000    0.00000000   -0.00034827

     Total force =     0.000348     Total SCF correction =     0.000063
     SCF correction compared to forces is large: reduce conv_thr to get better values

     bfgs converged in   5 scf cycles and   4 bfgs steps
     (criteria: energy < 0.10E-03, force < 0.10E-02)

     End of BFGS Geometry Optimization

     Final energy   =   -4180.0161684148 Ry
Begin final coordinates

ATOMIC_POSITIONS (crystal)
O0       0.000000000   0.500000000   0.319310000    0   0   0
Re1      0.250000000   0.500000000   0.360290000    0   0   0
Re1      0.000000000   0.000000000   0.360290000    0   0   0
O0       0.250000000   0.780000000   0.360290000    0   0   0
O0       0.250000000   0.220000000   0.360290000    0   0   0
O0       0.000000000   0.500000000   0.401270000    0   0   0
O0       0.000000000   0.000000000   0.412450000    0   0   0
Re1      0.250000000   0.000000000   0.453430000    0   0   0
Re1      0.000000000   0.500000000   0.453430000    0   0   0
O0       0.250000000   0.720000000   0.453430000    0   0   0
O0       0.250000000   0.280000000   0.453430000    0   0   0
O0       0.000000000   0.000000000   0.494410000    0   0   0
O0       0.000000000   0.500000000   0.505370000    0   0   0
Re1      0.245380000   0.500000000   0.545900000    0   0   0
Re1      0.000000000   0.000000000   0.547950000    0   0   0
O0       0.248880000   0.781150000   0.546810000    0   0   0
O0       0.248880000   0.218850000   0.546810000    0   0   0
O0       0.000000000   0.500000000   0.587180000    0   0   0
O0       0.000000000   0.000000000   0.601530000    0   0   0
Re1      0.274900000   0.000000000   0.641610000    0   0   0
Re1      0.000000000   0.500000000   0.637750000    0   0   0
O0       0.253750000   0.716900000   0.640970000    0   0   0
O0       0.253750000   0.283100000   0.640970000    0   0   0
O0       0.000000000   0.000000000   0.675010000    0   0   0
O0       0.500000000   0.500000000   0.319310000    0   0   0
Re1      0.750000000   0.500000000   0.360290000    0   0   0
Re1      0.500000000   0.000000000   0.360290000    0   0   0
O0       0.750000000   0.780000000   0.360290000    0   0   0
O0       0.750000000   0.220000000   0.360290000    0   0   0
O0       0.500000000   0.500000000   0.401270000    0   0   0
O0       0.500000000   0.000000000   0.412450000    0   0   0
Re1      0.750000000   0.000000000   0.453430000    0   0   0
Re1      0.500000000   0.500000000   0.453430000    0   0   0
O0       0.750000000   0.720000000   0.453430000    0   0   0
O0       0.750000000   0.280000000   0.453430000    0   0   0
O0       0.500000000   0.000000000   0.494410000    0   0   0
O0       0.500000000   0.500000000   0.506100000    0   0   0
Re1      0.754620000   0.500000000   0.545900000    0   0   0
Re1      0.500000000   0.000000000   0.546820000    0   0   0
O0       0.751120000   0.781150000   0.546810000    0   0   0
O0       0.751120000   0.218850000   0.546810000    0   0   0
O0       0.500000000   0.500000000   0.585970000    0   0   0
O0       0.500000000   0.000000000   0.598550000    0   0   0
Re1      0.725100000   0.000000000   0.641610000    0   0   0
Re1      0.500000000   0.500000000   0.636160000    0   0   0
O0       0.746250000   0.716900000   0.640970000    0   0   0
O0       0.746250000   0.283100000   0.640970000    0   0   0
O0       0.500000000   0.000000000   0.682390000    0   0   0
O0       0.500000000   0.500000000   0.682822146
End final coordinates

     General routines

     Parallel routines

   This run was terminated on:  18:43:12  28Mar2014

   JOB DONE.