     Program PWSCF v.5.0.2 (svn rev. 9656) starts on 23Jan2014 at 19:18:23

     Current dimensions of program PWSCF are:
     Max number of different atomic species (ntypx) = 10
     Max number of k-points (npk) =  40000
     Max angular momentum in pseudopotentials (lmaxx) =  3
     Reading input from NbO2-v-1.2.in

     Subspace diagonalization in iterative solution of the eigenvalue problem:
     a serial algorithm will be used

     bravais-lattice index     =            0
     lattice parameter (alat)  =       9.2016  a.u.
     unit-cell volume          =     502.0761 (a.u.)^3
     number of atoms/cell      =            6
     number of atomic types    =            2
     number of electrons       =        50.00
     number of Kohn-Sham states=           75
     kinetic-energy cutoff     =      40.0000  Ry
     charge density cutoff     =     500.0000  Ry
     convergence threshold     =      1.0E-06
     mixing beta               =       0.7000
     number of iterations used =            8  plain     mixing
     Exchange-correlation      = SLA  PW   PBE  PBE ( 1 4 3 4 0)
     EXX-fraction              =        0.00
     nstep                     =           50

     celldm(1)=   9.201558  celldm(2)=   0.000000  celldm(3)=   0.000000
     celldm(4)=   0.000000  celldm(5)=   0.000000  celldm(6)=   0.000000

     crystal axes: (cart. coord. in units of alat)
               a(1) = (   1.000000   0.000000   0.000000 )
               a(2) = (   0.000000   1.000000   0.000000 )
               a(3) = (   0.000000   0.000000   0.644444 )

     reciprocal axes: (cart. coord. in units 2 pi/alat)
               b(1) = (  1.000000  0.000000  0.000000 )
               b(2) = (  0.000000  1.000000  0.000000 )
               b(3) = (  0.000000  0.000000  1.551724 )

     PseudoPot. # 1 for Nb read from file:
     /home/camp/zhonxu/pseudo/nb_pbe_v1.uspp.F.UPF
     MD5 check sum: 573aab8a2fa660278ed4a62cd769473f
     Pseudo is Ultrasoft + core correction, Zval = 13.0
     Generated by new atomic code, or converted to UPF format
     Using radial grid of  887 points,  6 beta functions with:
                l(1) =   0
                l(2) =   0
                l(3) =   1
                l(4) =   1
                l(5) =   2
                l(6) =   2
     Q(r) pseudized with  6 coefficients,  rinner =    1.000   1.000   1.000
                                                       1.000   1.000

     PseudoPot. # 2 for O  read from file:
     /home/camp/zhonxu/pseudo/o_pbe_v1.01.uspp.F.UPF
     MD5 check sum: 2bcb18d16ea4b960afae9ec6d52f22d2
     Pseudo is Ultrasoft + core correction, Zval =  6.0
     Generated by new atomic code, or converted to UPF format
     Using radial grid of  737 points,  5 beta functions with:
                l(1) =   0
                l(2) =   0
                l(3) =   1
                l(4) =   1
                l(5) =   2
     Q(r) pseudized with  8 coefficients,  rinner =    0.900   0.900   0.900
                                                       0.900   0.900

     atomic species   valence    mass     pseudopotential
        Nb0           13.00    92.90640     Nb( 1.00)
        O1             6.00    15.99940     O ( 1.00)

     Starting magnetic structure
     atomic species   magnetization
        Nb0          0.600
        O1           0.000

      8 Sym. Ops., with inversion, found
          (note:  8 additional sym.ops. were found but ignored
           their fractional translations are incommensurate with FFT grid)

   Cartesian axes

     site n.     atom                  positions (alat units)
         1           Nb0 tau(   1) = (   0.0000000   0.0000000   0.0000000  )
         2           Nb0 tau(   2) = (   0.5000000   0.5000000   0.3222222  )
         3           O1  tau(   3) = (   0.3050000   0.3050000   0.0000000  )
         4           O1  tau(   4) = (  -0.3050000  -0.3050000   0.0000000  )
         5           O1  tau(   5) = (   0.8050000   0.1950000   0.3222222  )
         6           O1  tau(   6) = (   0.1950000   0.8050000   0.3222222  )

     number of k points=    54  Methfessel-Paxton smearing, width (Ry)=  0.0100
                       cart. coord. in units 2pi/alat
        k(    1) = (   0.0000000   0.0000000   0.0000000), wk =   0.0080000
        k(    2) = (   0.0000000   0.0000000   0.3103448), wk =   0.0160000
        k(    3) = (   0.0000000   0.0000000   0.6206897), wk =   0.0160000
        k(    4) = (   0.0000000   0.2000000   0.0000000), wk =   0.0320000
        k(    5) = (   0.0000000   0.2000000   0.3103448), wk =   0.0640000
        k(    6) = (   0.0000000   0.2000000   0.6206897), wk =   0.0640000
        k(    7) = (   0.0000000   0.4000000   0.0000000), wk =   0.0320000
        k(    8) = (   0.0000000   0.4000000   0.3103448), wk =   0.0640000
        k(    9) = (   0.0000000   0.4000000   0.6206897), wk =   0.0640000
        k(   10) = (   0.2000000   0.2000000   0.0000000), wk =   0.0160000
        k(   11) = (   0.2000000   0.2000000   0.3103448), wk =   0.0320000
        k(   12) = (   0.2000000   0.2000000   0.6206897), wk =   0.0320000
        k(   13) = (   0.2000000   0.4000000   0.0000000), wk =   0.0320000
        k(   14) = (   0.2000000   0.4000000   0.3103448), wk =   0.0640000
        k(   15) = (   0.2000000   0.4000000   0.6206897), wk =   0.0640000
        k(   16) = (   0.4000000   0.4000000   0.0000000), wk =   0.0160000
        k(   17) = (   0.4000000   0.4000000   0.3103448), wk =   0.0320000
        k(   18) = (   0.4000000   0.4000000   0.6206897), wk =   0.0320000
        k(   19) = (  -0.2000000   0.2000000   0.0000000), wk =   0.0160000
        k(   20) = (  -0.2000000   0.2000000  -0.3103448), wk =   0.0320000
        k(   21) = (  -0.2000000   0.2000000  -0.6206897), wk =   0.0320000
        k(   22) = (  -0.2000000   0.4000000   0.0000000), wk =   0.0320000
        k(   23) = (  -0.2000000   0.4000000  -0.3103448), wk =   0.0640000
        k(   24) = (  -0.2000000   0.4000000  -0.6206897), wk =   0.0640000
        k(   25) = (  -0.4000000   0.4000000   0.0000000), wk =   0.0160000
        k(   26) = (  -0.4000000   0.4000000  -0.3103448), wk =   0.0320000
        k(   27) = (  -0.4000000   0.4000000  -0.6206897), wk =   0.0320000
        k(   28) = (   0.0000000   0.0000000   0.0000000), wk =   0.0080000
        k(   29) = (   0.0000000   0.0000000   0.3103448), wk =   0.0160000
        k(   30) = (   0.0000000   0.0000000   0.6206897), wk =   0.0160000
        k(   31) = (   0.0000000   0.2000000   0.0000000), wk =   0.0320000
        k(   32) = (   0.0000000   0.2000000   0.3103448), wk =   0.0640000
        k(   33) = (   0.0000000   0.2000000   0.6206897), wk =   0.0640000
        k(   34) = (   0.0000000   0.4000000   0.0000000), wk =   0.0320000
        k(   35) = (   0.0000000   0.4000000   0.3103448), wk =   0.0640000
        k(   36) = (   0.0000000   0.4000000   0.6206897), wk =   0.0640000
        k(   37) = (   0.2000000   0.2000000   0.0000000), wk =   0.0160000
        k(   38) = (   0.2000000   0.2000000   0.3103448), wk =   0.0320000
        k(   39) = (   0.2000000   0.2000000   0.6206897), wk =   0.0320000
        k(   40) = (   0.2000000   0.4000000   0.0000000), wk =   0.0320000
        k(   41) = (   0.2000000   0.4000000   0.3103448), wk =   0.0640000
        k(   42) = (   0.2000000   0.4000000   0.6206897), wk =   0.0640000
        k(   43) = (   0.4000000   0.4000000   0.0000000), wk =   0.0160000
        k(   44) = (   0.4000000   0.4000000   0.3103448), wk =   0.0320000
        k(   45) = (   0.4000000   0.4000000   0.6206897), wk =   0.0320000
        k(   46) = (  -0.2000000   0.2000000   0.0000000), wk =   0.0160000
        k(   47) = (  -0.2000000   0.2000000  -0.3103448), wk =   0.0320000
        k(   48) = (  -0.2000000   0.2000000  -0.6206897), wk =   0.0320000
        k(   49) = (  -0.2000000   0.4000000   0.0000000), wk =   0.0320000
        k(   50) = (  -0.2000000   0.4000000  -0.3103448), wk =   0.0640000
        k(   51) = (  -0.2000000   0.4000000  -0.6206897), wk =   0.0640000
        k(   52) = (  -0.4000000   0.4000000   0.0000000), wk =   0.0160000
        k(   53) = (  -0.4000000   0.4000000  -0.3103448), wk =   0.0320000
        k(   54) = (  -0.4000000   0.4000000  -0.6206897), wk =   0.0320000

     Largest allocated arrays     est. size (Mb)     dimensions
     Largest temporary arrays     est. size (Mb)     dimensions

     Check: negative/imaginary core charge=   -0.000007    0.000000

     Initial potential from superposition of free atoms

     starting charge   49.99453, renormalised to   50.00000
     Starting wfc are   42 randomized atomic wfcs

     Self-consistent Calculation

     iteration #  1     ecut=    40.00 Ry     beta=0.70
     Davidson diagonalization with overlap
     ethr =  1.00E-02,  avg # of iterations =  5.3

     total energy              =    -363.58927834 Ry
     Harris-Foulkes estimate   =    -364.97684858 Ry
     estimated scf accuracy    <       3.77045182 Ry

     total magnetization       =     2.00 Bohr mag/cell
     absolute magnetization    =     2.85 Bohr mag/cell

[...]

     End of self-consistent calculation

 ------ SPIN UP ------------

          k = 0.0000 0.0000 0.0000 (  2127 PWs)   bands (ev):

   -44.6708 -44.6540 -20.8707 -20.8707 -20.6720 -20.6527 -20.6526 -20.6271
    -8.1381  -7.5484  -6.5056  -6.5053   3.8958   3.9333   4.9085   5.5105
     5.5108   7.2920   7.2921   7.7248   8.5254   8.6647   8.6647   9.2564
    11.6779  11.8120  12.3661  12.6056  12.6056  15.0382  15.0953  15.7837
    17.8505  17.8507  18.9828  19.8601  19.8602  23.1560  25.0802  25.1157
    26.1053  26.6493  26.9797  26.9798  29.6048  29.7297  30.5274  30.5274
    31.2478  31.2478  32.5276  35.9804  35.9804  36.2284  36.6525  36.7158
    38.1760  39.0491  39.0491  39.3044  39.3044  39.6232  39.7919  39.8424
    40.7304  41.4161  41.4162  42.2429  43.0579  44.9900  44.9901  45.6009
    45.9374  46.4873  46.4873

[...]

          k =-0.2000 0.2000 0.0000 (  2131 PWs)   bands (ev):

[...]

 ------ SPIN DOWN ----------

[...]

     the Fermi energy is    12.4962 ev

!    total energy              =    -365.27865806 Ry
     Harris-Foulkes estimate   =    -365.27865744 Ry
     estimated scf accuracy    <       0.00000081 Ry

     The total energy is the sum of the following terms:

     one-electron contribution =    -101.75281620 Ry
     hartree contribution      =      76.91132663 Ry
     xc contribution           =     -65.54486414 Ry
     ewald contribution        =    -274.89259449 Ry
     smearing contrib. (-TS)   =       0.00029014 Ry

[...]

     convergence has been achieved in  13 iterations

     Forces acting on atoms (Ry/au):

     atom    1 type  1   force =     0.00000000    0.00000000    0.00000000
     atom    2 type  1   force =     0.00000000    0.00000000    0.00000000
     atom    3 type  2   force =    -0.01622329   -0.01622329    0.00000000
     atom    4 type  2   force =     0.01622329    0.01622329   -0.00000000
     atom    5 type  2   force =    -0.01620899    0.01620899   -0.00000000
     atom    6 type  2   force =     0.01620899   -0.01620899   -0.00000000

[...]
     NEW k-points:
        k(    1) = (   0.0000000   0.0000000   0.0000000), wk =   0.0080000
        k(    2) = (   0.0000000   0.0000000   0.3252533), wk =   0.0160000
        k(    3) = (   0.0000000   0.0000000   0.6505066), wk =   0.0160000
        k(    4) = (  -0.0000001   0.1953626   0.0000000), wk =   0.0320000
        k(    5) = (  -0.0000001   0.1953626   0.3252533), wk =   0.0640000
        k(    6) = (  -0.0000001   0.1953626   0.6505066), wk =   0.0640000
        k(    7) = (  -0.0000001   0.3907252   0.0000000), wk =   0.0320000
        k(    8) = (  -0.0000001   0.3907252   0.3252533), wk =   0.0640000
        k(    9) = (  -0.0000001   0.3907252   0.6505066), wk =   0.0640000
        k(   10) = (   0.1953625   0.1953625   0.0000000), wk =   0.0160000
        k(   11) = (   0.1953625   0.1953625   0.3252533), wk =   0.0320000
        k(   12) = (   0.1953625   0.1953625   0.6505066), wk =   0.0320000
        k(   13) = (   0.1953625   0.3907251   0.0000000), wk =   0.0320000
        k(   14) = (   0.1953625   0.3907251   0.3252533), wk =   0.0640000
        k(   15) = (   0.1953625   0.3907251   0.6505066), wk =   0.0640000
        k(   16) = (   0.3907250   0.3907250   0.0000000), wk =   0.0160000
        k(   17) = (   0.3907250   0.3907250   0.3252533), wk =   0.0320000
        k(   18) = (   0.3907250   0.3907250   0.6505066), wk =   0.0320000
        k(   19) = (  -0.1953626   0.1953626   0.0000000), wk =   0.0160000
        k(   20) = (  -0.1953626   0.1953626  -0.3252533), wk =   0.0320000
        k(   21) = (  -0.1953626   0.1953626  -0.6505066), wk =   0.0320000
        k(   22) = (  -0.1953627   0.3907252   0.0000000), wk =   0.0320000
        k(   23) = (  -0.1953627   0.3907252  -0.3252533), wk =   0.0640000
        k(   24) = (  -0.1953627   0.3907252  -0.6505066), wk =   0.0640000
        k(   25) = (  -0.3907253   0.3907253   0.0000000), wk =   0.0160000
        k(   26) = (  -0.3907253   0.3907253  -0.3252533), wk =   0.0320000
        k(   27) = (  -0.3907253   0.3907253  -0.6505066), wk =   0.0320000
        k(   28) = (   0.0000000   0.0000000   0.0000000), wk =   0.0080000
        k(   29) = (   0.0000000   0.0000000   0.3252533), wk =   0.0160000
        k(   30) = (   0.0000000   0.0000000   0.6505066), wk =   0.0160000
        k(   31) = (  -0.0000001   0.1953626   0.0000000), wk =   0.0320000
        k(   32) = (  -0.0000001   0.1953626   0.3252533), wk =   0.0640000
        k(   33) = (  -0.0000001   0.1953626   0.6505066), wk =   0.0640000
        k(   34) = (  -0.0000001   0.3907252   0.0000000), wk =   0.0320000
        k(   35) = (  -0.0000001   0.3907252   0.3252533), wk =   0.0640000
        k(   36) = (  -0.0000001   0.3907252   0.6505066), wk =   0.0640000
        k(   37) = (   0.1953625   0.1953625   0.0000000), wk =   0.0160000
        k(   38) = (   0.1953625   0.1953625   0.3252533), wk =   0.0320000
        k(   39) = (   0.1953625   0.1953625   0.6505066), wk =   0.0320000
        k(   40) = (   0.1953625   0.3907251   0.0000000), wk =   0.0320000
        k(   41) = (   0.1953625   0.3907251   0.3252533), wk =   0.0640000
        k(   42) = (   0.1953625   0.3907251   0.6505066), wk =   0.0640000
        k(   43) = (   0.3907250   0.3907250   0.0000000), wk =   0.0160000
        k(   44) = (   0.3907250   0.3907250   0.3252533), wk =   0.0320000
        k(   45) = (   0.3907250   0.3907250   0.6505066), wk =   0.0320000
        k(   46) = (  -0.1953626   0.1953626   0.0000000), wk =   0.0160000
        k(   47) = (  -0.1953626   0.1953626  -0.3252533), wk =   0.0320000
        k(   48) = (  -0.1953626   0.1953626  -0.6505066), wk =   0.0320000
        k(   49) = (  -0.1953627   0.3907252   0.0000000), wk =   0.0320000
        k(   50) = (  -0.1953627   0.3907252  -0.3252533), wk =   0.0640000
        k(   51) = (  -0.1953627   0.3907252  -0.6505066), wk =   0.0640000
        k(   52) = (  -0.3907253   0.3907253   0.0000000), wk =   0.0160000
        k(   53) = (  -0.3907253   0.3907253  -0.3252533), wk =   0.0320000
        k(   54) = (  -0.3907253   0.3907253  -0.6505066), wk =   0.0320000

[...]

     Threshold (ethr) on eigenvalues was too large:
     Diagonalizing with lowered threshold

     Davidson diagonalization with overlap
     ethr =  2.13E-09,  avg # of iterations =  1.4

[...]

     Volume is kept fixed: isostatic pressure set to zero

     bfgs converged in   8 scf cycles and   7 bfgs steps
     (criteria: energy < 0.10E-03, force < 0.10E-02, cell < 0.50E+00)

     End of BFGS Geometry Optimization

     Final enthalpy =    -365.2910808174 Ry
Begin final coordinates
     new unit-cell volume =    502.07609 a.u.^3 (    74.40000 Ang^3 )

CELL_PARAMETERS (alat=  9.20155768)
   1.023737506   0.000000317   0.000000000
   0.000000317   1.023737506   0.000000000
   0.000000000   0.000000000   0.614905326

ATOMIC_POSITIONS (crystal)
Nb0      0.000000000   0.000000000   0.000000000    0   0   0
Nb0      0.500000000   0.500000000   0.500000000    0   0   0
O1       0.293985215   0.293985215   0.000000000    1   1   0
O1      -0.293985215  -0.293985215   0.000000000    1   1   0
O1       0.793984296   0.206015704   0.500000000    1   1   0
O1       0.206015704   0.793984296   0.500000000    1   1   0
End final coordinates

     A final scf calculation at the relaxed structure.
     The G-vectors are recalculated for the final unit cell
     Results may differ from those at the preceding step.

     bravais-lattice index     =            0
     lattice parameter (alat)  =       9.2016  a.u.
     unit-cell volume          =     502.0761 (a.u.)^3
     number of atoms/cell      =            6
     number of atomic types    =            2
     number of electrons       =        50.00
     number of Kohn-Sham states=           75
     kinetic-energy cutoff     =      40.0000  Ry
     charge density cutoff     =     500.0000  Ry
     convergence threshold     =      1.0E-08
     mixing beta               =       0.7000
     number of iterations used =            8  plain     mixing
     Exchange-correlation      = SLA  PW   PBE  PBE ( 1 4 3 4 0)
     EXX-fraction              =        0.00

     celldm(1)=   9.201558  celldm(2)=   0.000000  celldm(3)=   0.000000
     celldm(4)=   0.000000  celldm(5)=   0.000000  celldm(6)=   0.000000

     crystal axes: (cart. coord. in units of alat)
               a(1) = (   1.023738   0.000000   0.000000 )
               a(2) = (   0.000000   1.023738   0.000000 )
               a(3) = (   0.000000   0.000000   0.614905 )

     reciprocal axes: (cart. coord. in units 2 pi/alat)
               b(1) = (  0.976813 -0.000000  0.000000 )
               b(2) = ( -0.000000  0.976813  0.000000 )
               b(3) = (  0.000000  0.000000  1.626267 )

     PseudoPot. # 1 for Nb read from file:
     /home/camp/zhonxu/pseudo/nb_pbe_v1.uspp.F.UPF
     MD5 check sum: 573aab8a2fa660278ed4a62cd769473f
     Pseudo is Ultrasoft + core correction, Zval = 13.0
     Generated by new atomic code, or converted to UPF format
     Using radial grid of  887 points,  6 beta functions with:
                l(1) =   0
                l(2) =   0
                l(3) =   1
                l(4) =   1
                l(5) =   2
                l(6) =   2
     Q(r) pseudized with  6 coefficients,  rinner =    1.000   1.000   1.000
                                                       1.000   1.000

     PseudoPot. # 2 for O  read from file:
     /home/camp/zhonxu/pseudo/o_pbe_v1.01.uspp.F.UPF
     MD5 check sum: 2bcb18d16ea4b960afae9ec6d52f22d2
     Pseudo is Ultrasoft + core correction, Zval =  6.0
     Generated by new atomic code, or converted to UPF format
     Using radial grid of  737 points,  5 beta functions with:
                l(1) =   0
                l(2) =   0
                l(3) =   1
                l(4) =   1
                l(5) =   2
     Q(r) pseudized with  8 coefficients,  rinner =    0.900   0.900   0.900
                                                       0.900   0.900

     atomic species   valence    mass     pseudopotential
        Nb0           13.00    92.90640     Nb( 1.00)
        O1             6.00    15.99940     O ( 1.00)

     Starting magnetic structure
     atomic species   magnetization
        Nb0          0.600
        O1           0.000

      8 Sym. Ops., with inversion, found
          (note:  8 additional sym.ops. were found but ignored
           their fractional translations are incommensurate with FFT grid)

   Cartesian axes

     site n.     atom                  positions (alat units)
         1           Nb0 tau(   1) = (   0.0000000   0.0000000   0.0000000  )
         2           Nb0 tau(   2) = (   0.5118689   0.5118689   0.3074527  )
         3           O1  tau(   3) = (   0.3009638   0.3009638   0.0000000  )
         4           O1  tau(   4) = (  -0.3009638  -0.3009638   0.0000000  )
         5           O1  tau(   5) = (   0.8128316   0.2109063   0.3074527  )
         6           O1  tau(   6) = (   0.2109063   0.8128316   0.3074527  )

     number of k points=    54  Methfessel-Paxton smearing, width (Ry)=  0.0100
                       cart. coord. in units 2pi/alat
        k(    1) = (   0.0000000   0.0000000   0.0000000), wk =   0.0080000
        k(    2) = (   0.0000000   0.0000000   0.3252533), wk =   0.0160000
        k(    3) = (   0.0000000   0.0000000   0.6505066), wk =   0.0160000
        k(    4) = (  -0.0000001   0.1953626   0.0000000), wk =   0.0320000
        k(    5) = (  -0.0000001   0.1953626   0.3252533), wk =   0.0640000
        k(    6) = (  -0.0000001   0.1953626   0.6505066), wk =   0.0640000
        k(    7) = (  -0.0000001   0.3907252   0.0000000), wk =   0.0320000
        k(    8) = (  -0.0000001   0.3907252   0.3252533), wk =   0.0640000
        k(    9) = (  -0.0000001   0.3907252   0.6505066), wk =   0.0640000
        k(   10) = (   0.1953625   0.1953625   0.0000000), wk =   0.0160000
        k(   11) = (   0.1953625   0.1953625   0.3252533), wk =   0.0320000
        k(   12) = (   0.1953625   0.1953625   0.6505066), wk =   0.0320000
        k(   13) = (   0.1953625   0.3907251   0.0000000), wk =   0.0320000
        k(   14) = (   0.1953625   0.3907251   0.3252533), wk =   0.0640000
        k(   15) = (   0.1953625   0.3907251   0.6505066), wk =   0.0640000
        k(   16) = (   0.3907250   0.3907250   0.0000000), wk =   0.0160000
        k(   17) = (   0.3907250   0.3907250   0.3252533), wk =   0.0320000
        k(   18) = (   0.3907250   0.3907250   0.6505066), wk =   0.0320000
        k(   19) = (  -0.1953626   0.1953626   0.0000000), wk =   0.0160000
        k(   20) = (  -0.1953626   0.1953626  -0.3252533), wk =   0.0320000
        k(   21) = (  -0.1953626   0.1953626  -0.6505066), wk =   0.0320000
        k(   22) = (  -0.1953627   0.3907252   0.0000000), wk =   0.0320000
        k(   23) = (  -0.1953627   0.3907252  -0.3252533), wk =   0.0640000
        k(   24) = (  -0.1953627   0.3907252  -0.6505066), wk =   0.0640000
        k(   25) = (  -0.3907253   0.3907253   0.0000000), wk =   0.0160000
        k(   26) = (  -0.3907253   0.3907253  -0.3252533), wk =   0.0320000
        k(   27) = (  -0.3907253   0.3907253  -0.6505066), wk =   0.0320000
        k(   28) = (   0.0000000   0.0000000   0.0000000), wk =   0.0080000
        k(   29) = (   0.0000000   0.0000000   0.3252533), wk =   0.0160000
        k(   30) = (   0.0000000   0.0000000   0.6505066), wk =   0.0160000
        k(   31) = (  -0.0000001   0.1953626   0.0000000), wk =   0.0320000
        k(   32) = (  -0.0000001   0.1953626   0.3252533), wk =   0.0640000
        k(   33) = (  -0.0000001   0.1953626   0.6505066), wk =   0.0640000
        k(   34) = (  -0.0000001   0.3907252   0.0000000), wk =   0.0320000
        k(   35) = (  -0.0000001   0.3907252   0.3252533), wk =   0.0640000
        k(   36) = (  -0.0000001   0.3907252   0.6505066), wk =   0.0640000
        k(   37) = (   0.1953625   0.1953625   0.0000000), wk =   0.0160000
        k(   38) = (   0.1953625   0.1953625   0.3252533), wk =   0.0320000
        k(   39) = (   0.1953625   0.1953625   0.6505066), wk =   0.0320000
        k(   40) = (   0.1953625   0.3907251   0.0000000), wk =   0.0320000
        k(   41) = (   0.1953625   0.3907251   0.3252533), wk =   0.0640000
        k(   42) = (   0.1953625   0.3907251   0.6505066), wk =   0.0640000
        k(   43) = (   0.3907250   0.3907250   0.0000000), wk =   0.0160000
        k(   44) = (   0.3907250   0.3907250   0.3252533), wk =   0.0320000
        k(   45) = (   0.3907250   0.3907250   0.6505066), wk =   0.0320000
        k(   46) = (  -0.1953626   0.1953626   0.0000000), wk =   0.0160000
        k(   47) = (  -0.1953626   0.1953626  -0.3252533), wk =   0.0320000
        k(   48) = (  -0.1953626   0.1953626  -0.6505066), wk =   0.0320000
        k(   49) = (  -0.1953627   0.3907252   0.0000000), wk =   0.0320000
        k(   50) = (  -0.1953627   0.3907252  -0.3252533), wk =   0.0640000
        k(   51) = (  -0.1953627   0.3907252  -0.6505066), wk =   0.0640000
        k(   52) = (  -0.3907253   0.3907253   0.0000000), wk =   0.0160000
        k(   53) = (  -0.3907253   0.3907253  -0.3252533), wk =   0.0320000
        k(   54) = (  -0.3907253   0.3907253  -0.6505066), wk =   0.0320000

     Largest allocated arrays     est. size (Mb)     dimensions
     Largest temporary arrays     est. size (Mb)     dimensions

     Check: negative/imaginary core charge=   -0.000007    0.000000

     Initial potential from superposition of free atoms

     starting charge   49.99453, renormalised to   50.00000
     Starting wfc are   42 randomized atomic wfcs

     Self-consistent Calculation

[...]

     total energy              =    -365.29110731 Ry
     Harris-Foulkes estimate   =    -365.29110735 Ry
     estimated scf accuracy    <       0.00000007 Ry

[...]

     iteration # 19     ecut=    40.00 Ry     beta=0.70
     Davidson diagonalization with overlap
     ethr =  7.84E-11,  avg # of iterations =  2.0

     End of self-consistent calculation

 ------ SPIN UP ------------

[...]

 ------ SPIN DOWN ----------

[...]

          k = 0.3907 0.3907 0.6505 (  2134 PWs)   bands (ev):

[...]

          k =-0.3907 0.3907-0.6505 (  2134 PWs)   bands (ev):

   -44.5091 -44.5086 -21.0698 -21.0650 -20.6919 -20.6844 -20.4269 -20.4256
    -7.3803  -7.2188  -6.9292  -6.7519   4.9561   5.2345   5.3736   5.5918
     5.7239   6.1786   6.5333   6.9400   7.8162   7.9741   8.5256   8.6425
    12.3895  12.8645  13.0357  13.5667  14.2154  14.2885  16.4546  17.2539
    17.2679  17.9681  20.3551  20.6966  21.5512  21.8168  23.5409  23.7723
    25.6539  25.7937  27.6696  27.9214  28.1156  28.7528  29.5241  29.9843
    32.8529  33.3048  33.5312  33.7093  35.8624  36.1191  37.6404  38.1744
    38.3471  38.7605  39.1594  39.7815  40.1930  40.3787  40.7040  41.3168
    41.4422  41.8752  42.1884  42.2644  42.5127  42.7150  43.3865  44.2592
    45.3199  46.5737  47.0831

     the Fermi energy is    12.1539 ev

!    total energy              =    -365.29110738 Ry
     Harris-Foulkes estimate   =    -365.29110738 Ry
     estimated scf accuracy    <          5.1E-09 Ry

     The total energy is the sum of the following terms:

     one-electron contribution =    -102.71694715 Ry
     hartree contribution      =      77.27114182 Ry
     xc contribution           =     -65.52037458 Ry
     ewald contribution        =    -274.32459676 Ry
     smearing contrib. (-TS)   =      -0.00033072 Ry

     total magnetization       =     0.57 Bohr mag/cell
     absolute magnetization    =     0.59 Bohr mag/cell

     convergence has been achieved in  19 iterations

     Forces acting on atoms (Ry/au):

     atom    1 type  1   force =     0.00000000    0.00000000    0.00000000
     atom    2 type  1   force =     0.00000000    0.00000000    0.00000000
     atom    3 type  2   force =    -0.00009350   -0.00009350    0.00000000
     atom    4 type  2   force =     0.00009350    0.00009350    0.00000000
     atom    5 type  2   force =    -0.00009340    0.00009340    0.00000000
     atom    6 type  2   force =     0.00009340   -0.00009340    0.00000000

     Total force =     0.000264     Total SCF correction =     0.000062
     SCF correction compared to forces is large: reduce conv_thr to get better values

     entering subroutine stress ...

          total   stress  (Ry/bohr**3)                   (kbar)     P=  -75.52
  -0.00051301  -0.00000001   0.00000000        -75.47     -0.00      0.00
  -0.00000001  -0.00051301   0.00000000         -0.00    -75.47      0.00
   0.00000000   0.00000000  -0.00051405          0.00      0.00    -75.62

     General routines

     Parallel routines

   This run was terminated on:  20:29: 3  23Jan2014

   JOB DONE.