     Program PWSCF v.5.0.2 (svn rev. 9656) starts on  8May2014 at 23:53:21

     Current dimensions of program PWSCF are:
     Max number of different atomic species (ntypx) = 10
     Max number of k-points (npk) =  40000
     Max angular momentum in pseudopotentials (lmaxx) =  3
     Reading input from pwscf.in
Warning: card &CELL ignored
Warning: card / ignored

     Subspace diagonalization in iterative solution of the eigenvalue problem:
     a serial algorithm will be used

     bravais-lattice index     =            0
     lattice parameter (alat)  =      11.1872  a.u.
     unit-cell volume          =    7531.8600 (a.u.)^3
     number of atoms/cell      =           30
     number of atomic types    =            3
     number of electrons       =       216.00
     number of Kohn-Sham states=          324
     kinetic-energy cutoff     =      40.0000  Ry
     charge density cutoff     =     500.0000  Ry
     convergence threshold     =      1.0E-06
     mixing beta               =       0.7000
     number of iterations used =            8  plain     mixing
     Exchange-correlation      = SLA  PW   PBE  PBE ( 1 4 3 4 0)
     EXX-fraction              =        0.00
     nstep                     =           50

     celldm(1)=  11.187179  celldm(2)=   0.000000  celldm(3)=   0.000000
     celldm(4)=   0.000000  celldm(5)=   0.000000  celldm(6)=   0.000000

     crystal axes: (cart. coord. in units of alat)
               a(1) = (   1.000000   0.000000   0.000000 )
               a(2) = (   0.000000   1.180104   0.000000 )
               a(3) = (   0.000000   0.000000   4.558482 )

     reciprocal axes: (cart. coord. in units 2 pi/alat)
               b(1) = (  1.000000  0.000000  0.000000 )
               b(2) = (  0.000000  0.847383  0.000000 )
               b(3) = (  0.000000  0.000000  0.219371 )

     PseudoPot. # 1 for O  read from file:
     /home/camp/zhonxu/pseudo/o_pbe_v1.01.uspp.F.UPF
     MD5 check sum: 2bcb18d16ea4b960afae9ec6d52f22d2
     Pseudo is Ultrasoft + core correction, Zval =  6.0
     Generated by new atomic code, or converted to UPF format
     Using radial grid of  737 points,  5 beta functions with:
                l(1) =   0
                l(2) =   0
                l(3) =   1
                l(4) =   1
                l(5) =   2
     Q(r) pseudized with  8 coefficients,  rinner =    0.900   0.900   0.900
                                                       0.900   0.900

     PseudoPot. # 2 for Nb read from file:
     /home/camp/zhonxu/pseudo/nb_pbe_v1.uspp.F.UPF
     MD5 check sum: 573aab8a2fa660278ed4a62cd769473f
     Pseudo is Ultrasoft + core correction, Zval = 13.0
     Generated by new atomic code, or converted to UPF format
     Using radial grid of  887 points,  6 beta functions with:
                l(1) =   0
                l(2) =   0
                l(3) =   1
                l(4) =   1
                l(5) =   2
                l(6) =   2
     Q(r) pseudized with  6 coefficients,  rinner =    1.000   1.000   1.000
                                                       1.000   1.000

     PseudoPot. # 3 for H  read from file:
     /home/camp/zhonxu/pseudo/h_pbe_v1.uspp.F.UPF
     MD5 check sum: 3408e3ff4ec8b0a4e358431e7e038a48
     Pseudo is Ultrasoft, Zval =  1.0
     Generated by new atomic code, or converted to UPF format
     Using radial grid of  615 points,  2 beta functions with:
                l(1) =   0
                l(2) =   0
     Q(r) pseudized with  8 coefficients,  rinner =    0.700

     atomic species   valence    mass     pseudopotential
        O0             6.00    15.99940     O ( 1.00)
        Nb1           13.00    92.90640     Nb( 1.00)
        H2             1.00     1.00794     H ( 1.00)

     Simplified LDA+U calculation (l_max = 2) with parameters (eV):
     atomic species    L          U    alpha       J0     beta
        Nb1            2     3.0000   0.0000   0.0000   0.0000

     No symmetry found

   Cartesian axes

     site n.     atom                  positions (alat units)
         1           O0  tau(   1) = (   0.0000000   0.0000000   1.7080633  )
         2           O0  tau(   2) = (   0.0000000   0.5900519   1.7583889  )
         3           Nb1 tau(   3) = (   0.2500000   0.5900519   2.0066439  )
         4           Nb1 tau(   4) = (   0.0000000   0.0000000   2.0401487  )
         5           O0  tau(   5) = (   0.2500000   0.9322821   2.0429294  )
         6           O0  tau(   6) = (   0.2500000   0.2478218   2.0431118  )
         7           O0  tau(   7) = (   0.0000000   0.5900519   2.2709903  )
         8           O0  tau(   8) = (   0.0000000   0.0000000   2.3999042  )
         9           Nb1 tau(   9) = (   0.2500000   0.0000000   2.6489340  )
        10           Nb1 tau(  10) = (   0.0000000   0.5900519   2.5868019  )
        11           O0  tau(  11) = (   0.2500000   0.8378738   2.6444667  )
        12           O0  tau(  12) = (   0.2500000   0.3422301   2.6445123  )
        13           O0  tau(  13) = (   0.0000000   0.0000000   2.8518777  )
        14           O0  tau(  14) = (   0.5000000   0.0000000   1.7080633  )
        15           O0  tau(  15) = (   0.5000000   0.5900519   1.7583889  )
        16           Nb1 tau(  16) = (   0.7500000   0.5900519   2.0066439  )
        17           Nb1 tau(  17) = (   0.5000000   0.0000000   2.0401487  )
        18           O0  tau(  18) = (   0.7500000   0.9322821   2.0429294  )
        19           O0  tau(  19) = (   0.7500000   0.2478218   2.0431118  )
        20           O0  tau(  20) = (   0.5000000   0.5900519   2.2709903  )
        21           O0  tau(  21) = (   0.5000000   0.0000000   2.3999497  )
        22           Nb1 tau(  22) = (   0.7500000   0.0000000   2.6489340  )
        23           Nb1 tau(  23) = (   0.5000000   0.5900519   2.5867563  )
        24           O0  tau(  24) = (   0.7500000   0.8378738   2.6444667  )
        25           O0  tau(  25) = (   0.7500000   0.3422301   2.6445123  )
        26           O0  tau(  26) = (   0.5000000   0.0000000   2.8518777  )
        27           H2  tau(  27) = (  -0.0004200   0.5934860   1.5928705  )
        28           H2  tau(  28) = (   0.4995800   0.5932146   1.5928249  )
        29           H2  tau(  29) = (   0.1513000  -0.0014397   1.6372701  )
        30           H2  tau(  30) = (   0.6512900  -0.0014397   1.6372701  )

     number of k points=    10  Methfessel-Paxton smearing, width (Ry)=  0.0100
                       cart. coord. in units 2pi/alat
        k(    1) = (   0.0000000   0.0000000   0.0000000), wk =   0.1250000
        k(    2) = (   0.0000000   0.2118458   0.0000000), wk =   0.2500000
        k(    3) = (   0.0000000  -0.4236915   0.0000000), wk =   0.1250000
        k(    4) = (   0.2500000   0.0000000   0.0000000), wk =   0.2500000
        k(    5) = (   0.2500000   0.2118458   0.0000000), wk =   0.2500000
        k(    6) = (   0.2500000  -0.4236915   0.0000000), wk =   0.2500000
        k(    7) = (  -0.5000000   0.0000000   0.0000000), wk =   0.1250000
        k(    8) = (  -0.5000000   0.2118458   0.0000000), wk =   0.2500000
        k(    9) = (  -0.5000000  -0.4236915   0.0000000), wk =   0.1250000
        k(   10) = (  -0.2500000   0.2118458   0.0000000), wk =   0.2500000

     Largest allocated arrays     est. size (Mb)     dimensions
     Largest temporary arrays     est. size (Mb)     dimensions

     Check: negative/imaginary core charge=   -0.000003    0.000000

     Initial potential from superposition of free atoms
     Check: negative starting charge=   -0.003843

     starting charge  215.97807, renormalised to  216.00000

     negative rho (up, down):  0.384E-02 0.000E+00
     Number of +U iterations with fixed ns =  0
     Starting occupations:
 --- enter write_ns ---
 LDA+U parameters:
U( 2)     =  3.00000000
alpha( 2) =  0.00000000
atom    3   Tr[ns(na)] =   3.00000
    eigenvalues:
  0.300  0.300  0.300  0.300  0.300
    eigenvectors:
  1.000  0.000  0.000  0.000  0.000
  0.000  1.000  0.000  0.000  0.000
  0.000  0.000  1.000  0.000  0.000
  0.000  0.000  0.000  1.000  0.000
  0.000  0.000  0.000  0.000  1.000
    occupations:
  0.300  0.000  0.000  0.000  0.000
  0.000  0.300  0.000  0.000  0.000
  0.000  0.000  0.300  0.000  0.000
  0.000  0.000  0.000  0.300  0.000
  0.000  0.000  0.000  0.000  0.300
atom    4   Tr[ns(na)] =   3.00000
    eigenvalues:
  0.300  0.300  0.300  0.300  0.300
    eigenvectors:
  1.000  0.000  0.000  0.000  0.000
  0.000  1.000  0.000  0.000  0.000
  0.000  0.000  1.000  0.000  0.000
  0.000  0.000  0.000  1.000  0.000
  0.000  0.000  0.000  0.000  1.000
    occupations:
  0.300  0.000  0.000  0.000  0.000
  0.000  0.300  0.000  0.000  0.000
  0.000  0.000  0.300  0.000  0.000
  0.000  0.000  0.000  0.300  0.000
  0.000  0.000  0.000  0.000  0.300
atom    9   Tr[ns(na)] =   3.00000
    eigenvalues:
  0.300  0.300  0.300  0.300  0.300
    eigenvectors:
  1.000  0.000  0.000  0.000  0.000
  0.000  1.000  0.000  0.000  0.000
  0.000  0.000  1.000  0.000  0.000
  0.000  0.000  0.000  1.000  0.000
  0.000  0.000  0.000  0.000  1.000
    occupations:
  0.300  0.000  0.000  0.000  0.000
  0.000  0.300  0.000  0.000  0.000
  0.000  0.000  0.300  0.000  0.000
  0.000  0.000  0.000  0.300  0.000
  0.000  0.000  0.000  0.000  0.300
atom   10   Tr[ns(na)] =   3.00000
    eigenvalues:
  0.300  0.300  0.300  0.300  0.300
    eigenvectors:
  1.000  0.000  0.000  0.000  0.000
  0.000  1.000  0.000  0.000  0.000
  0.000  0.000  1.000  0.000  0.000
  0.000  0.000  0.000  1.000  0.000
  0.000  0.000  0.000  0.000  1.000
    occupations:
  0.300  0.000  0.000  0.000  0.000
  0.000  0.300  0.000  0.000  0.000
  0.000  0.000  0.300  0.000  0.000
  0.000  0.000  0.000  0.300  0.000
  0.000  0.000  0.000  0.000  0.300
atom   16   Tr[ns(na)] =   3.00000
    eigenvalues:
  0.300  0.300  0.300  0.300  0.300
    eigenvectors:
  1.000  0.000  0.000  0.000  0.000
  0.000  1.000  0.000  0.000  0.000
  0.000  0.000  1.000  0.000  0.000
  0.000  0.000  0.000  1.000  0.000
  0.000  0.000  0.000  0.000  1.000
    occupations:
  0.300  0.000  0.000  0.000  0.000
  0.000  0.300  0.000  0.000  0.000
  0.000  0.000  0.300  0.000  0.000
  0.000  0.000  0.000  0.300  0.000
  0.000  0.000  0.000  0.000  0.300
atom   17   Tr[ns(na)] =   3.00000
    eigenvalues:
  0.300  0.300  0.300  0.300  0.300
    eigenvectors:
  1.000  0.000  0.000  0.000  0.000
  0.000  1.000  0.000  0.000  0.000
  0.000  0.000  1.000  0.000  0.000
  0.000  0.000  0.000  1.000  0.000
  0.000  0.000  0.000  0.000  1.000
    occupations:
  0.300  0.000  0.000  0.000  0.000
  0.000  0.300  0.000  0.000  0.000
  0.000  0.000  0.300  0.000  0.000
  0.000  0.000  0.000  0.300  0.000
  0.000  0.000  0.000  0.000  0.300
atom   22   Tr[ns(na)] =   3.00000
    eigenvalues:
  0.300  0.300  0.300  0.300  0.300
    eigenvectors:
  1.000  0.000  0.000  0.000  0.000
  0.000  1.000  0.000  0.000  0.000
  0.000  0.000  1.000  0.000  0.000
  0.000  0.000  0.000  1.000  0.000
  0.000  0.000  0.000  0.000  1.000
    occupations:
  0.300  0.000  0.000  0.000  0.000
  0.000  0.300  0.000  0.000  0.000
  0.000  0.000  0.300  0.000  0.000
  0.000  0.000  0.000  0.300  0.000
[...]
  0.000  0.994  0.000  0.004  0.001
  1.000  0.000  0.000  0.000  0.000
  0.000  0.001  0.000  0.000  0.999
  0.000  0.000  1.000  0.000  0.000
    occupations:
  0.582  0.009 -0.000  0.001 -0.000
  0.009  0.441  0.000 -0.007 -0.000
 -0.000  0.000  0.404  0.000  0.001
  0.001 -0.007  0.000  0.642  0.000
 -0.000 -0.000  0.001  0.000  0.550
atom    9   Tr[ns(na)] =   5.28530
    eigenvalues:
  0.451  0.464  0.510  0.607  0.610
    eigenvectors:
  0.885  0.000  0.000  0.115  0.000
  0.000  0.000  0.000  0.000  1.000
  0.000  0.000  1.000  0.000  0.000
  0.115  0.000  0.000  0.885  0.000
  0.000  1.000  0.000  0.000  0.000
    occupations:
  0.469 -0.000 -0.000  0.050  0.000
 -0.000  0.610  0.000 -0.000  0.000
 -0.000  0.000  0.510  0.000  0.000
  0.050 -0.000  0.000  0.589 -0.000
  0.000  0.000  0.000 -0.000  0.464
atom   10   Tr[ns(na)] =   5.12834
    eigenvalues:
  0.367  0.491  0.505  0.514  0.688
    eigenvectors:
  0.000  0.995  0.000  0.000  0.005
  0.000  0.000  1.000  0.000  0.000
  1.000  0.000  0.000  0.000  0.000
  0.000  0.005  0.000  0.000  0.995
  0.000  0.000  0.000  1.000  0.000
    occupations:
  0.492  0.000  0.000 -0.014 -0.000
  0.000  0.505 -0.000 -0.000 -0.000
  0.000 -0.000  0.367 -0.000  0.000
 -0.014 -0.000 -0.000  0.687 -0.000
 -0.000 -0.000  0.000 -0.000  0.514
atom   16   Tr[ns(na)] =   5.18784
    eigenvalues:
  0.359  0.417  0.506  0.568  0.744
    eigenvectors:
  0.000  0.000  0.000  0.409  0.591
  0.000  0.000  1.000  0.000  0.000
  0.007  0.993  0.000  0.000  0.000
  0.000  0.000  0.000  0.591  0.409
  0.993  0.007  0.000  0.000  0.000
    occupations:
  0.672  0.000  0.001 -0.087  0.000
  0.000  0.506  0.000  0.000  0.000
  0.001  0.000  0.417 -0.000 -0.005
 -0.087  0.000 -0.000  0.640 -0.000
  0.000  0.000 -0.005 -0.000  0.359
atom   17   Tr[ns(na)] =   5.23863
    eigenvalues:
  0.404  0.440  0.550  0.583  0.642
    eigenvectors:
  0.000  0.004  0.000  0.996  0.000
  0.000  0.994  0.000  0.004  0.001
  1.000  0.000  0.000  0.000  0.000
  0.000  0.001  0.000  0.000  0.999
  0.000  0.000  1.000  0.000  0.000
    occupations:
  0.582  0.009 -0.000  0.001 -0.000
  0.009  0.441  0.000 -0.007 -0.000
 -0.000  0.000  0.404  0.000  0.001
  0.001 -0.007  0.000  0.642  0.000
 -0.000 -0.000  0.001  0.000  0.550
atom   22   Tr[ns(na)] =   5.28530
    eigenvalues:
  0.451  0.464  0.510  0.607  0.610
    eigenvectors:
  0.885  0.000  0.000  0.115  0.000
  0.000  0.000  0.000  0.001  0.999
  0.000  0.000  1.000  0.000  0.000
  0.115  0.000  0.000  0.885  0.000
  0.000  1.000  0.000  0.000  0.000
    occupations:
  0.469 -0.000 -0.000  0.050  0.000
 -0.000  0.610  0.000 -0.000  0.000
 -0.000  0.000  0.510  0.000  0.000
  0.050 -0.000  0.000  0.589 -0.000
  0.000  0.000  0.000 -0.000  0.464
atom   23   Tr[ns(na)] =   5.12855
    eigenvalues:
  0.367  0.491  0.505  0.514  0.688
    eigenvectors:
  0.000  0.995  0.000  0.000  0.005
  0.000  0.000  1.000  0.000  0.000
  1.000  0.000  0.000  0.000  0.000
  0.000  0.005  0.000  0.000  0.995
  0.000  0.000  0.000  1.000  0.000
    occupations:
  0.492  0.000 -0.000 -0.014 -0.000
  0.000  0.505 -0.000 -0.000  0.000
 -0.000 -0.000  0.367 -0.000  0.000
 -0.014 -0.000 -0.000  0.687 -0.000
 -0.000  0.000  0.000 -0.000  0.514
N of occupied +U levels =  41.6807673
 --- exit write_ns ---

     Threshold (ethr) on eigenvalues was too large:
     Diagonalizing with lowered threshold

     Davidson diagonalization with overlap
     ethr =  1.33E-08,  avg # of iterations =  2.7

[...]

     total energy              =   -1528.08162943 Ry
     Harris-Foulkes estimate   =   -1528.08162943 Ry
     estimated scf accuracy    <       0.00000002 Ry

     iteration # 11     ecut=    40.00 Ry     beta=0.70
     Davidson diagonalization with overlap
     ethr =  8.43E-12,  avg # of iterations =  1.0

     negative rho (up, down):  0.360E-02 0.000E+00

     End of self-consistent calculation
 --- enter write_ns ---
 LDA+U parameters:
U( 2)     =  3.00000000
alpha( 2) =  0.00000000
atom    3   Tr[ns(na)] =   5.18896
    eigenvalues:
  0.359  0.417  0.506  0.568  0.744
    eigenvectors:
  0.000  0.000  0.000  0.409  0.591
  0.000  0.000  1.000  0.000  0.000
  0.007  0.993  0.000  0.000  0.000
  0.000  0.000  0.000  0.591  0.409
  0.993  0.007  0.000  0.000  0.000
    occupations:
  0.672  0.000  0.001 -0.087 -0.000
  0.000  0.506 -0.000  0.000  0.000
  0.001 -0.000  0.417 -0.000 -0.005
 -0.087  0.000 -0.000  0.640  0.000
 -0.000  0.000 -0.005  0.000  0.359
atom    4   Tr[ns(na)] =   5.24061
    eigenvalues:
  0.404  0.441  0.550  0.583  0.643
    eigenvectors:
  0.000  0.004  0.000  0.996  0.000
  0.000  0.994  0.000  0.004  0.001
  1.000  0.000  0.000  0.000  0.000
  0.000  0.001  0.000  0.000  0.999
  0.000  0.000  1.000  0.000  0.000
    occupations:
  0.582  0.009 -0.000  0.001 -0.000
  0.009  0.441  0.000 -0.007 -0.000
 -0.000  0.000  0.404  0.000  0.001
  0.001 -0.007  0.000  0.643  0.000
 -0.000 -0.000  0.001  0.000  0.550
atom    9   Tr[ns(na)] =   5.28467
    eigenvalues:
  0.451  0.464  0.509  0.607  0.610
    eigenvectors:
  0.885  0.000  0.000  0.115  0.000
  0.000  0.000  0.000  0.000  1.000
  0.000  0.000  1.000  0.000  0.000
  0.115  0.000  0.000  0.885  0.000
  0.000  1.000  0.000  0.000  0.000
    occupations:
  0.469 -0.000 -0.000  0.050  0.000
 -0.000  0.610  0.000 -0.000  0.000
 -0.000  0.000  0.509  0.000  0.000
  0.050 -0.000  0.000  0.589 -0.000
  0.000  0.000  0.000 -0.000  0.464
atom   10   Tr[ns(na)] =   5.12687
    eigenvalues:
  0.367  0.490  0.504  0.514  0.688
    eigenvectors:
  0.000  0.995  0.000  0.000  0.005
  0.000  0.000  1.000  0.000  0.000
  1.000  0.000  0.000  0.000  0.000
  0.000  0.005  0.000  0.000  0.995
  0.000  0.000  0.000  1.000  0.000
    occupations:
  0.491  0.000  0.000 -0.014 -0.000
  0.000  0.504 -0.000 -0.000 -0.000
  0.000 -0.000  0.367 -0.000  0.000
 -0.014 -0.000 -0.000  0.687 -0.000
 -0.000 -0.000  0.000 -0.000  0.514
atom   16   Tr[ns(na)] =   5.18896
    eigenvalues:
  0.359  0.417  0.506  0.568  0.744
    eigenvectors:
  0.000  0.000  0.000  0.409  0.591
  0.000  0.000  1.000  0.000  0.000
  0.007  0.993  0.000  0.000  0.000
  0.000  0.000  0.000  0.591  0.409
  0.993  0.007  0.000  0.000  0.000
    occupations:
  0.672  0.000  0.001 -0.087  0.000
  0.000  0.506  0.000  0.000  0.000
  0.001  0.000  0.417 -0.000 -0.005
 -0.087  0.000 -0.000  0.640 -0.000
  0.000  0.000 -0.005 -0.000  0.359
atom   17   Tr[ns(na)] =   5.24054
    eigenvalues:
  0.404  0.441  0.550  0.583  0.643
    eigenvectors:
  0.000  0.004  0.000  0.996  0.000
  0.000  0.994  0.000  0.004  0.001
  1.000  0.000  0.000  0.000  0.000
  0.000  0.001  0.000  0.000  0.999
  0.000  0.000  1.000  0.000  0.000
    occupations:
  0.582  0.009 -0.000  0.001 -0.000
  0.009  0.441  0.000 -0.007 -0.000
 -0.000  0.000  0.404  0.000  0.001
  0.001 -0.007  0.000  0.643  0.000
 -0.000 -0.000  0.001  0.000  0.550
atom   22   Tr[ns(na)] =   5.28467
    eigenvalues:
  0.451  0.464  0.509  0.607  0.610
    eigenvectors:
  0.885  0.000  0.000  0.115  0.000
  0.000  0.000  0.000  0.001  0.999
  0.000  0.000  1.000  0.000  0.000
  0.115  0.000  0.000  0.885  0.000
  0.000  1.000  0.000  0.000  0.000
    occupations:
  0.469 -0.000 -0.000  0.050  0.000
 -0.000  0.610  0.000 -0.000  0.000
 -0.000  0.000  0.509  0.000  0.000
  0.050 -0.000  0.000  0.589 -0.000
  0.000  0.000  0.000 -0.000  0.464
atom   23   Tr[ns(na)] =   5.12688
    eigenvalues:
  0.367  0.490  0.504  0.514  0.688
    eigenvectors:
  0.000  0.995  0.000  0.000  0.005
  0.000  0.000  1.000  0.000  0.000
  1.000  0.000  0.000  0.000  0.000
  0.000  0.005  0.000  0.000  0.995
  0.000  0.000  0.000  1.000  0.000
    occupations:
  0.491  0.000 -0.000 -0.014 -0.000
  0.000  0.504 -0.000 -0.000  0.000
 -0.000 -0.000  0.367 -0.000  0.000
 -0.014 -0.000 -0.000  0.687 -0.000
 -0.000  0.000  0.000 -0.000  0.514
N of occupied +U levels =  41.6821641
 --- exit write_ns ---

[...]

          k = 0.2500-0.4237 0.0000 ( 32188 PWs)   bands (ev):

[...]

          k =-0.2500 0.2118 0.0000 ( 32165 PWs)   bands (ev):

   -56.2057 -56.1403 -55.8280 -55.7711 -55.7688 -55.7132 -55.5334 -55.4780
   -33.0303 -32.4087 -32.2935 -32.2769 -32.2728 -32.2322 -32.2141 -32.1962
   -32.1615 -32.1397 -32.1291 -32.1151 -32.0811 -32.0353 -31.8503 -31.7351
   -31.7142 -31.7132 -31.6421 -31.5783 -31.5770 -31.5427 -31.4501 -31.1590
   -20.4360 -20.3114 -19.2894 -19.0326 -18.9472 -18.8373 -18.8360 -18.7474
   -18.7137 -18.6305 -18.6171 -18.5819 -18.1534 -18.0576 -18.0326 -17.9475
   -17.9138 -17.7562  -8.9428  -8.6209  -7.4976  -7.0027  -6.8519  -6.6313
    -6.4830  -6.4595  -6.3621  -6.1974  -6.1892  -6.1257  -6.1090  -5.8993
    -5.8556  -5.8271  -5.8113  -5.5680  -5.5348  -5.3824  -5.0879  -5.0787
    -5.0222  -4.9344  -4.8053  -4.6382  -4.4694  -4.3832  -4.2916  -4.2849
    -4.2656  -4.1836  -4.0020  -3.9695  -3.9433  -3.8913  -3.8414  -3.8386
    -3.5814  -3.5504  -3.5204  -3.4692  -3.3979  -3.3117  -3.1598  -3.1481
    -3.0430  -2.9810  -2.8616  -2.7488  -2.6557  -2.5631  -2.4944  -2.1931
    -0.6860   0.2132   0.2877   1.0131   1.0643   1.3805   1.6176   1.7434
     1.7640   1.9052   2.0384   2.1846   2.2991   2.3125   2.4377   2.4502
     2.6044   2.6824   2.6865   2.8352   2.8804   2.9479   2.9897   3.0403
     3.2830   3.3274   3.6564   4.2373   4.4813   4.5616   4.6838   4.8079
     4.9478   5.0285   5.0577   5.1739   5.2999   5.3762   5.4667   5.6059
     5.7568   5.8608   5.9266   6.0046   6.2210   6.2937   6.4075   6.4971
     6.5369   6.5515   6.6456   6.8049   6.9371   6.9897   7.1956   7.2487
     7.3364   7.5233   7.7244   7.8020   7.9294   7.9505   8.1500   8.1531
     8.2463   8.3240   8.4406   8.6523   8.7077   8.8575   9.0129   9.0790
     9.0793   9.2239   9.3247   9.4383   9.5566   9.5919   9.6508   9.7743
     9.8523   9.9737   9.9991  10.1726  10.2021  10.3887  10.4241  10.6149
    10.6905  10.7610  10.9361  10.9651  11.0226  11.0678  11.1624  11.2150
    11.2678  11.3906  11.4591  11.4622  11.5315  11.5612  11.7524  11.8746
    11.9191  12.0619  12.0949  12.1741  12.2337  12.2999  12.4490  12.4830
    12.6456  12.6683  12.7211  12.7750  12.8664  12.8716  12.9318  12.9566
    13.0377  13.0838  13.1821  13.2611  13.3087  13.4222  13.4902  13.5009
    13.6301  13.7075  13.7671  13.9003  13.9360  13.9453  13.9829  14.0770
    14.1135  14.2771  14.3245  14.4039  14.4843  14.6034  14.6244  14.8605
    14.8954  14.9092  15.0354  15.1418  15.1991  15.2533  15.2575  15.3728
    15.4004  15.4011  15.5078  15.5238  15.5955  15.7284  15.7701  15.8093
    15.8205  15.9009  16.0349  16.0368  16.0695  16.2660  16.2664  16.3956
    16.4515  16.5942  16.6098  16.6526  16.7377  16.7391  16.7834  16.8803
    16.9718  17.0043  17.0430  17.2337  17.2830  17.2857  17.3942  17.4378
    17.4855  17.5588  17.6333  17.6907  17.7328  17.8472  17.8720  18.0000
    18.0366  18.0538  18.1024  18.2557  18.3334  18.4369  18.5069  18.6013
    18.6299  18.7203  18.7359  18.7999  18.8726  18.9182  18.9355  19.0456
    19.1658  19.1925  19.2827  19.3005  19.3572  19.3761  19.4072  19.5307
    19.5466  19.6033  19.6451  19.7178

     the Fermi energy is     1.0226 ev

!    total energy              =   -1528.08162943 Ry
     Harris-Foulkes estimate   =   -1528.08162943 Ry
     estimated scf accuracy    <          3.3E-09 Ry

     The total energy is the sum of the following terms:

     one-electron contribution =  -18280.15230366 Ry
     hartree contribution      =    9166.66130221 Ry
     xc contribution           =    -279.68733768 Ry
     ewald contribution        =    7862.98692766 Ry
     Hubbard energy            =       2.11051011 Ry
     smearing contrib. (-TS)   =      -0.00072806 Ry

     convergence has been achieved in  11 iterations

     Forces acting on atoms (Ry/au):

     negative rho (up, down):  0.360E-02 0.000E+00
     atom    1 type  1   force =     0.00042693   -0.00033464    0.00007246
     atom    2 type  1   force =    -0.00076668    0.00053123    0.00074352
     atom    3 type  2   force =     0.00105913   -0.00033469    0.00037029
     atom    4 type  2   force =    -0.00376770    0.00022697   -0.00049932
     atom    5 type  1   force =     0.00046385   -0.02522474   -0.00001409
     atom    6 type  1   force =     0.00055265    0.02507989    0.00002599
     atom    7 type  1   force =     0.00006782    0.00008217   -0.00072033
     atom    8 type  1   force =     0.00161929   -0.00000441    0.00027497
     atom    9 type  2   force =    -0.00022664    0.00001016    0.00031641
     atom   10 type  2   force =     0.00009152   -0.00000623    0.00021917
     atom   11 type  1   force =     0.00000090   -0.04183072   -0.00014719
     atom   12 type  1   force =     0.00000576    0.04182199   -0.00014089
     atom   13 type  1   force =     0.00033527    0.00000008    0.00035779
     atom   14 type  1   force =     0.00043223   -0.00032309    0.00007539
     atom   15 type  1   force =    -0.00077199    0.00051746   -0.00085856
     atom   16 type  2   force =     0.00120633   -0.00033720    0.00037012
     atom   17 type  2   force =    -0.00376534    0.00022495   -0.00048672
     atom   18 type  1   force =     0.00046364   -0.02522417   -0.00001447
     atom   19 type  1   force =     0.00052603    0.02508086    0.00002618
     atom   20 type  1   force =     0.00006784    0.00007416   -0.00077118
     atom   21 type  1   force =     0.00161861   -0.00000528    0.00020673
     atom   22 type  2   force =    -0.00024330    0.00001028    0.00031637
     atom   23 type  2   force =     0.00009134   -0.00000843    0.00026042
     atom   24 type  1   force =     0.00000047   -0.04183068   -0.00014719
     atom   25 type  1   force =     0.00000259    0.04182210   -0.00014091
     atom   26 type  1   force =     0.00033535    0.00000012    0.00035733
     atom   27 type  3   force =    -0.00001055   -0.00021079   -0.00063511
     atom   28 type  3   force =    -0.00000614   -0.00023172    0.00079220
     atom   29 type  3   force =     0.00009710    0.00021324   -0.00010738
     atom   30 type  3   force =     0.00009369    0.00021113   -0.00010201

     Total force =     0.002282     Total SCF correction =     0.000197

     bfgs converged in  10 scf cycles and   9 bfgs steps
     (criteria: energy < 0.10E-03, force < 0.10E-02)

     End of BFGS Geometry Optimization

     Final energy   =   -1528.0816294261 Ry
Begin final coordinates

ATOMIC_POSITIONS (crystal)
O0       0.000000000   0.000000000   0.374781375    0   0   1
O0       0.000000000   0.500000000   0.385281151    0   0   1
Nb1      0.250000000   0.500000000   0.440151553    0   0   1
Nb1      0.000000000   0.000000000   0.447645378    0   0   1
O0       0.250000000   0.790000000   0.447564102    0   0   1
O0       0.250000000   0.210000000   0.447551806    0   0   1
O0       0.000000000   0.500000000   0.497564986    0   0   1
O0       0.000000000   0.000000000   0.526359569    0   0   1
Nb1      0.250000000   0.000000000   0.581203687    0   0   1
Nb1      0.000000000   0.500000000   0.567283152    0   0   1
O0       0.250000000   0.710000000   0.581493733    0   0   1
O0       0.250000000   0.290000000   0.581492980    0   0   1
O0       0.000000000   0.000000000   0.625487444    0   0   1
O0       0.500000000   0.000000000   0.374780932    0   0   1
O0       0.500000000   0.500000000   0.385296937    0   0   1
Nb1      0.750000000   0.500000000   0.440151555    0   0   1
Nb1      0.500000000   0.000000000   0.447644640    0   0   1
O0       0.750000000   0.790000000   0.447563921    0   0   1
O0       0.750000000   0.210000000   0.447552019    0   0   1
O0       0.500000000   0.500000000   0.497565733    0   0   1
O0       0.500000000   0.000000000   0.526363913    0   0   1
Nb1      0.750000000   0.000000000   0.581203694    0   0   1
Nb1      0.500000000   0.500000000   0.567282342    0   0   1
O0       0.750000000   0.710000000   0.581493708    0   0   1
O0       0.750000000   0.290000000   0.581492991    0   0   1
O0       0.500000000   0.000000000   0.625487656    0   0   1
H2      -0.000495913   0.502301602   0.349010174
H2       0.499503995   0.502073633   0.348997192
H2       0.151455533  -0.000463870   0.359371103
H2       0.651456145  -0.000472079   0.359370574
End final coordinates

     General routines

     Parallel routines
     Hubbard U routines

   This run was terminated on:   7:12:32   9May2014

   JOB DONE.
Running PBS batch system epilogue script
Job id: 340848.audhumbla.fysik.dtu.dk
Username: zhonxu
Groupname: campgst
Jobname: NbO2/Eads-2-layers/bare-U-3.0
Sessionid: 10435
Queuename: verylong
Accounting:
This job has allocated the following 16 nodes:
c139 c139 c139 c139 c139 c139 c139 c139 c035 c035 c035 c035 c035 c035 c035 c035
Finished epilogue job 340848.audhumbla.fysik.dtu.dk for zhonxu