     Program PWSCF v.5.0.2 (svn rev. 9656) starts on 29Apr2014 at  5:51:48

     Current dimensions of program PWSCF are:
     Max number of different atomic species (ntypx) = 10
     Max number of k-points (npk) =  40000
     Max angular momentum in pseudopotentials (lmaxx) =  3
     Reading input from pwscf.in
Warning: card &CELL ignored
Warning: card / ignored

     Subspace diagonalization in iterative solution of the eigenvalue problem:
     a serial algorithm will be used

     bravais-lattice index     =            0
     lattice parameter (alat)  =      12.0187  a.u.
     unit-cell volume          =    7280.5819 (a.u.)^3
     number of atoms/cell      =           32
     number of atomic types    =            3
     number of electrons       =       239.00
     number of Kohn-Sham states=          358
     kinetic-energy cutoff     =      40.0000  Ry
     charge density cutoff     =     500.0000  Ry
     convergence threshold     =      1.0E-06
     mixing beta               =       0.7000
     number of iterations used =            8  plain     mixing
     Exchange-correlation      = SLA  PW   PBE  PBE ( 1 4 3 4 0)
     EXX-fraction              =        0.00
     nstep                     =           50

     celldm(1)=  12.018658  celldm(2)=   0.000000  celldm(3)=   0.000000
     celldm(4)=   0.000000  celldm(5)=   0.000000  celldm(6)=   0.000000

     crystal axes: (cart. coord. in units of alat)
               a(1) = (   1.000000   0.000000   0.000000 )
               a(2) = (   0.000000   1.009517   0.000000 )
               a(3) = (   0.000000   0.000000   4.154171 )

     reciprocal axes: (cart. coord. in units 2 pi/alat)
               b(1) = (  1.000000  0.000000  0.000000 )
               b(2) = (  0.000000  0.990572  0.000000 )
               b(3) = (  0.000000  0.000000  0.240722 )

     PseudoPot. # 1 for O  read from file:
     /home/camp/zhonxu/pseudo/o_pbe_v1.01.uspp.F.UPF
     MD5 check sum: 2bcb18d16ea4b960afae9ec6d52f22d2
     Pseudo is Ultrasoft + core correction, Zval =  6.0
     Generated by new atomic code, or converted to UPF format
     Using radial grid of  737 points,  5 beta functions with:
                l(1) =   0
                l(2) =   0
                l(3) =   1
                l(4) =   1
                l(5) =   2
     Q(r) pseudized with  8 coefficients,  rinner =    0.900   0.900   0.900
                                                       0.900   0.900

     PseudoPot. # 2 for Ir read from file:
     /home/camp/zhonxu/pseudo/ir_pbe_v1.uspp.F.UPF
     MD5 check sum: abf987a9674477536ede83817f8f8b70
     Pseudo is Ultrasoft + core correction, Zval = 15.0
     Generated by new atomic code, or converted to UPF format
     Using radial grid of  983 points,  7 beta functions with:
                l(1) =   0
                l(2) =   0
                l(3) =   1
                l(4) =   1
                l(5) =   1
                l(6) =   2
                l(7) =   2
     Q(r) pseudized with  8 coefficients,  rinner =    1.350   1.350   1.350
                                                       1.350   1.350

     PseudoPot. # 3 for H  read from file:
     /home/camp/zhonxu/pseudo/h_pbe_v1.uspp.F.UPF
     MD5 check sum: 3408e3ff4ec8b0a4e358431e7e038a48
     Pseudo is Ultrasoft, Zval =  1.0
     Generated by new atomic code, or converted to UPF format
     Using radial grid of  615 points,  2 beta functions with:
                l(1) =   0
                l(2) =   0
     Q(r) pseudized with  8 coefficients,  rinner =    0.700

     atomic species   valence    mass     pseudopotential
        O0             6.00    15.99940     O ( 1.00)
        Ir1           15.00   192.22000     Ir( 1.00)
        H2             1.00     1.00794     H ( 1.00)

     Simplified LDA+U calculation (l_max = 2) with parameters (eV):
     atomic species    L          U    alpha       J0     beta
        Ir1            2     4.0000   0.0000   0.0000   0.0000

     No symmetry found

   Cartesian axes

     site n.     atom                  positions (alat units)
         1           O0  tau(   1) = (   0.0000000   0.0000000   1.5715230  )
         2           O0  tau(   2) = (   0.0000000   0.5047586   1.6723863  )
         3           Ir1 tau(   3) = (   0.2500000   0.5047586   1.8804272  )
         4           Ir1 tau(   4) = (   0.0000000   0.0000000   1.8823796  )
         5           O0  tau(   5) = (   0.2500000   0.8177090   1.8809672  )
         6           O0  tau(   6) = (   0.2500000   0.1918083   1.8797625  )
         7           O0  tau(   7) = (   0.0000000   0.5047586   2.0697743  )
         8           O0  tau(   8) = (   0.0000000   0.0000000   2.1967673  )
         9           Ir1 tau(   9) = (   0.2500000   0.0000000   2.3926365  )
        10           Ir1 tau(  10) = (   0.0000000   0.5047586   2.3747736  )
        11           O0  tau(  11) = (   0.2500000   0.6965669   2.3923873  )
        12           O0  tau(  12) = (   0.2500000   0.3129503   2.3927196  )
        13           O0  tau(  13) = (   0.0000000   0.0000000   2.5779541  )
        14           O0  tau(  14) = (   0.5000000   0.0000000   1.5704845  )
        15           O0  tau(  15) = (   0.5000000   0.5047586   1.6698107  )
        16           Ir1 tau(  16) = (   0.7500000   0.5047586   1.8805103  )
        17           Ir1 tau(  17) = (   0.5000000   0.0000000   1.8817565  )
        18           O0  tau(  18) = (   0.7500000   0.8177090   1.8810503  )
        19           O0  tau(  19) = (   0.7500000   0.1918083   1.8797625  )
        20           O0  tau(  20) = (   0.5000000   0.5047586   2.0748424  )
        21           O0  tau(  21) = (   0.5000000   0.0000000   2.1964350  )
        22           Ir1 tau(  22) = (   0.7500000   0.0000000   2.3925119  )
        23           Ir1 tau(  23) = (   0.5000000   0.5047586   2.3910995  )
        24           O0  tau(  24) = (   0.7500000   0.6965669   2.3896040  )
        25           O0  tau(  25) = (   0.7500000   0.3129503   2.3900194  )
        26           O0  tau(  26) = (   0.5000000   0.0000000   2.5760847  )
        27           H2  tau(  27) = (  -0.0000400   0.6399431   1.5942048  )
        28           H2  tau(  28) = (   0.5000100   0.6429817   1.5968219  )
        29           H2  tau(  29) = (   0.1437000   0.0339904   1.5235839  )
        30           H2  tau(  30) = (   0.6431700   0.0357369   1.5224622  )
        31           O0  tau(  31) = (   0.5156900   0.5047586   2.6944786  )
        32           H2  tau(  32) = (   0.3744100   0.5050918   2.7575805  )

     number of k points=    10  Methfessel-Paxton smearing, width (Ry)=  0.0100
                       cart. coord. in units 2pi/alat
        k(    1) = (   0.0000000   0.0000000   0.0000000), wk =   0.1250000
        k(    2) = (   0.0000000   0.2476431   0.0000000), wk =   0.2500000
        k(    3) = (   0.0000000  -0.4952862   0.0000000), wk =   0.1250000
        k(    4) = (   0.2500000   0.0000000   0.0000000), wk =   0.2500000
        k(    5) = (   0.2500000   0.2476431   0.0000000), wk =   0.2500000
        k(    6) = (   0.2500000  -0.4952862   0.0000000), wk =   0.2500000
        k(    7) = (  -0.5000000   0.0000000   0.0000000), wk =   0.1250000
        k(    8) = (  -0.5000000   0.2476431   0.0000000), wk =   0.2500000
        k(    9) = (  -0.5000000  -0.4952862   0.0000000), wk =   0.1250000
        k(   10) = (  -0.2500000   0.2476431   0.0000000), wk =   0.2500000

     Largest allocated arrays     est. size (Mb)     dimensions
     Largest temporary arrays     est. size (Mb)     dimensions

     Check: negative/imaginary core charge=   -0.000003    0.000000

     Initial potential from superposition of free atoms
     Check: negative starting charge=   -3.334647

     starting charge  234.99967, renormalised to  239.00000

     negative rho (up, down):  0.339E+01 0.000E+00
     Number of +U iterations with fixed ns =  0
     Starting occupations:
 --- enter write_ns ---
 LDA+U parameters:
U( 2)     =  4.00000000
alpha( 2) =  0.00000000
atom    3   Tr[ns(na)] =   7.00000
    eigenvalues:
  0.700  0.700  0.700  0.700  0.700
    eigenvectors:
  1.000  0.000  0.000  0.000  0.000
  0.000  1.000  0.000  0.000  0.000
  0.000  0.000  1.000  0.000  0.000
  0.000  0.000  0.000  1.000  0.000
  0.000  0.000  0.000  0.000  1.000
    occupations:
  0.700  0.000  0.000  0.000  0.000
  0.000  0.700  0.000  0.000  0.000
  0.000  0.000  0.700  0.000  0.000
  0.000  0.000  0.000  0.700  0.000
  0.000  0.000  0.000  0.000  0.700
atom    4   Tr[ns(na)] =   7.00000
    eigenvalues:
  0.700  0.700  0.700  0.700  0.700
    eigenvectors:
  1.000  0.000  0.000  0.000  0.000
  0.000  1.000  0.000  0.000  0.000
  0.000  0.000  1.000  0.000  0.000
  0.000  0.000  0.000  1.000  0.000
  0.000  0.000  0.000  0.000  1.000
    occupations:
  0.700  0.000  0.000  0.000  0.000
  0.000  0.700  0.000  0.000  0.000
  0.000  0.000  0.700  0.000  0.000
  0.000  0.000  0.000  0.700  0.000
  0.000  0.000  0.000  0.000  0.700
atom    9   Tr[ns(na)] =   7.00000
    eigenvalues:
  0.700  0.700  0.700  0.700  0.700
    eigenvectors:
  1.000  0.000  0.000  0.000  0.000
  0.000  1.000  0.000  0.000  0.000
  0.000  0.000  1.000  0.000  0.000
  0.000  0.000  0.000  1.000  0.000
  0.000  0.000  0.000  0.000  1.000
    occupations:
  0.700  0.000  0.000  0.000  0.000
  0.000  0.700  0.000  0.000  0.000
  0.000  0.000  0.700  0.000  0.000
  0.000  0.000  0.000  0.700  0.000
  0.000  0.000  0.000  0.000  0.700
atom   10   Tr[ns(na)] =   7.00000
    eigenvalues:
  0.700  0.700  0.700  0.700  0.700
    eigenvectors:
  1.000  0.000  0.000  0.000  0.000
  0.000  1.000  0.000  0.000  0.000
  0.000  0.000  1.000  0.000  0.000
  0.000  0.000  0.000  1.000  0.000
  0.000  0.000  0.000  0.000  1.000
    occupations:
  0.700  0.000  0.000  0.000  0.000
  0.000  0.700  0.000  0.000  0.000
  0.000  0.000  0.700  0.000  0.000
  0.000  0.000  0.000  0.700  0.000
  0.000  0.000  0.000  0.000  0.700
atom   16   Tr[ns(na)] =   7.00000
    eigenvalues:
  0.700  0.700  0.700  0.700  0.700
    eigenvectors:
  1.000  0.000  0.000  0.000  0.000
  0.000  1.000  0.000  0.000  0.000
  0.000  0.000  1.000  0.000  0.000
  0.000  0.000  0.000  1.000  0.000
  0.000  0.000  0.000  0.000  1.000
    occupations:
  0.700  0.000  0.000  0.000  0.000
  0.000  0.700  0.000  0.000  0.000
  0.000  0.000  0.700  0.000  0.000
  0.000  0.000  0.000  0.700  0.000
  0.000  0.000  0.000  0.000  0.700
atom   17   Tr[ns(na)] =   7.00000
    eigenvalues:
  0.700  0.700  0.700  0.700  0.700
    eigenvectors:
  1.000  0.000  0.000  0.000  0.000
  0.000  1.000  0.000  0.000  0.000
  0.000  0.000  1.000  0.000  0.000
  0.000  0.000  0.000  1.000  0.000
  0.000  0.000  0.000  0.000  1.000
    occupations:
  0.700  0.000  0.000  0.000  0.000
  0.000  0.700  0.000  0.000  0.000
  0.000  0.000  0.700  0.000  0.000
  0.000  0.000  0.000  0.700  0.000
  0.000  0.000  0.000  0.000  0.700
atom   22   Tr[ns(na)] =   7.00000
    eigenvalues:
  0.700  0.700  0.700  0.700  0.700
    eigenvectors:
  1.000  0.000  0.000  0.000  0.000
  0.000  1.000  0.000  0.000  0.000
  0.000  0.000  1.000  0.000  0.000
  0.000  0.000  0.000  1.000  0.000
[...]
  0.671 -0.003 -0.000  0.032  0.001
 -0.003  0.926  0.011  0.000 -0.002
 -0.000  0.011  0.875 -0.000  0.001
  0.032  0.000 -0.000  0.980  0.000
  0.001 -0.002  0.001  0.000  0.620
atom    9   Tr[ns(na)] =   8.12985
    eigenvalues:
  0.653  0.667  0.860  0.903  0.983
    eigenvectors:
  0.000  0.141  0.000  0.000  0.859
  0.999  0.001  0.000  0.000  0.000
  0.000  0.000  0.999  0.001  0.000
  0.001  0.859  0.000  0.000  0.141
  0.000  0.000  0.001  0.999  0.000
    occupations:
  0.938 -0.000  0.000 -0.110 -0.000
 -0.000  0.653  0.000  0.000 -0.000
  0.000  0.000  0.860 -0.000 -0.001
 -0.110  0.000 -0.000  0.711  0.001
 -0.000 -0.000 -0.001  0.001  0.903
atom   10   Tr[ns(na)] =   8.11452
    eigenvalues:
  0.588  0.610  0.931  0.945  0.984
    eigenvectors:
  0.992  0.000  0.000  0.000  0.008
  0.000  0.000  1.000  0.000  0.000
  0.000  0.000  0.000  1.000  0.000
  0.008  0.000  0.000  0.000  0.992
  0.000  1.000  0.000  0.000  0.000
    occupations:
  0.591 -0.004  0.001  0.036 -0.000
 -0.004  0.931 -0.000  0.000 -0.000
  0.001 -0.000  0.945 -0.000  0.002
  0.036  0.000 -0.000  0.981 -0.000
 -0.000 -0.000  0.002 -0.000  0.610
atom   16   Tr[ns(na)] =   8.15806
    eigenvalues:
  0.604  0.632  0.896  0.966  0.981
    eigenvectors:
  0.002  0.182  0.003  0.001  0.812
  0.992  0.007  0.000  0.000  0.000
  0.000  0.000  0.977  0.020  0.003
  0.005  0.811  0.000  0.000  0.183
  0.000  0.000  0.020  0.978  0.002
    occupations:
  0.916  0.006  0.004 -0.135  0.001
  0.006  0.604  0.001 -0.000 -0.005
  0.004  0.001  0.897 -0.004 -0.010
 -0.135 -0.000 -0.004  0.696  0.000
  0.001 -0.005 -0.010  0.000  0.965
atom   17   Tr[ns(na)] =   8.14416
    eigenvalues:
  0.618  0.667  0.880  0.924  0.984
    eigenvectors:
  0.000  0.989  0.000  0.000  0.010
  0.000  0.000  0.087  0.913  0.000
  0.000  0.000  0.913  0.087  0.000
  0.000  0.010  0.000  0.000  0.990
  1.000  0.000  0.000  0.000  0.000
    occupations:
  0.670 -0.003 -0.001  0.032  0.001
 -0.003  0.920  0.012  0.000 -0.002
 -0.001  0.012  0.883 -0.000  0.000
  0.032  0.000 -0.000  0.981  0.000
  0.001 -0.002  0.000  0.000  0.618
atom   22   Tr[ns(na)] =   8.12489
    eigenvalues:
  0.653  0.668  0.854  0.905  0.983
    eigenvectors:
  0.000  0.140  0.000  0.000  0.860
  1.000  0.000  0.000  0.000  0.000
  0.000  0.000  1.000  0.000  0.000
  0.000  0.860  0.000  0.000  0.140
  0.000  0.000  0.000  1.000  0.000
    occupations:
  0.939  0.001 -0.000 -0.109 -0.000
  0.001  0.653  0.000 -0.000 -0.000
 -0.000  0.000  0.854 -0.000  0.001
 -0.109 -0.000 -0.000  0.712  0.001
 -0.000 -0.000  0.001  0.001  0.905
atom   23   Tr[ns(na)] =   8.12613
    eigenvalues:
  0.623  0.673  0.851  0.932  0.984
    eigenvectors:
  0.000  0.989  0.000  0.000  0.011
  0.000  0.000  0.000  0.999  0.000
  0.000  0.000  1.000  0.000  0.000
  0.000  0.011  0.000  0.000  0.989
  1.000  0.000  0.000  0.000  0.000
    occupations:
  0.676  0.006 -0.000  0.032 -0.000
  0.006  0.932 -0.001 -0.000 -0.000
 -0.000 -0.001  0.851  0.000 -0.001
  0.032 -0.000  0.000  0.980 -0.000
 -0.000 -0.000 -0.001 -0.000  0.623
N of occupied +U levels =  65.0994781
 --- exit write_ns ---

     Threshold (ethr) on eigenvalues was too large:
     Diagonalizing with lowered threshold

     Davidson diagonalization with overlap
     ethr =  1.88E-09,  avg # of iterations =  2.0

[...]

     total energy              =   -2105.88179193 Ry
     Harris-Foulkes estimate   =   -2105.88179194 Ry
     estimated scf accuracy    <       0.00000007 Ry

     iteration # 10     ecut=    40.00 Ry     beta=0.70
     Davidson diagonalization with overlap
     ethr =  3.03E-11,  avg # of iterations =  1.0

     negative rho (up, down):  0.313E+01 0.000E+00

     End of self-consistent calculation
 --- enter write_ns ---
 LDA+U parameters:
U( 2)     =  4.00000000
alpha( 2) =  0.00000000
atom    3   Tr[ns(na)] =   8.15816
    eigenvalues:
  0.604  0.631  0.896  0.967  0.981
    eigenvectors:
  0.002  0.182  0.003  0.000  0.813
  0.993  0.006  0.000  0.000  0.000
  0.000  0.000  0.973  0.024  0.003
  0.004  0.812  0.000  0.000  0.183
  0.000  0.000  0.024  0.975  0.001
    occupations:
  0.917 -0.006  0.003 -0.135 -0.001
 -0.006  0.604 -0.001  0.000 -0.005
  0.003 -0.001  0.898 -0.004  0.011
 -0.135  0.000 -0.004  0.696 -0.000
 -0.001 -0.005  0.011 -0.000  0.965
atom    4   Tr[ns(na)] =   8.14330
    eigenvalues:
  0.620  0.668  0.872  0.928  0.984
    eigenvectors:
  0.000  0.989  0.000  0.000  0.011
  0.000  0.000  0.041  0.959  0.000
  0.000  0.000  0.959  0.041  0.000
  0.000  0.011  0.000  0.000  0.989
  1.000  0.000  0.000  0.000  0.000
    occupations:
  0.671 -0.003 -0.000  0.032  0.001
 -0.003  0.926  0.011  0.000 -0.002
 -0.000  0.011  0.874 -0.000  0.001
  0.032  0.000 -0.000  0.980  0.000
  0.001 -0.002  0.001  0.000  0.620
atom    9   Tr[ns(na)] =   8.12965
    eigenvalues:
  0.653  0.667  0.860  0.903  0.983
    eigenvectors:
  0.000  0.141  0.000  0.000  0.859
  0.999  0.001  0.000  0.000  0.000
  0.000  0.000  0.999  0.001  0.000
  0.001  0.859  0.000  0.000  0.141
  0.000  0.000  0.001  0.999  0.000
    occupations:
  0.938 -0.000  0.000 -0.110 -0.000
 -0.000  0.653  0.000  0.000 -0.000
  0.000  0.000  0.860 -0.000 -0.001
 -0.110  0.000 -0.000  0.711  0.001
 -0.000 -0.000 -0.001  0.001  0.902
atom   10   Tr[ns(na)] =   8.11468
    eigenvalues:
  0.588  0.610  0.931  0.945  0.984
    eigenvectors:
  0.992  0.000  0.000  0.000  0.008
  0.000  0.000  1.000  0.000  0.000
  0.000  0.000  0.000  1.000  0.000
  0.008  0.000  0.000  0.000  0.992
  0.000  1.000  0.000  0.000  0.000
    occupations:
  0.591 -0.004  0.001  0.036 -0.000
 -0.004  0.931 -0.000  0.000 -0.000
  0.001 -0.000  0.945 -0.000  0.002
  0.036  0.000 -0.000  0.981 -0.000
 -0.000 -0.000  0.002 -0.000  0.610
atom   16   Tr[ns(na)] =   8.15790
    eigenvalues:
  0.604  0.632  0.896  0.966  0.981
    eigenvectors:
  0.002  0.182  0.003  0.001  0.812
  0.992  0.007  0.000  0.000  0.000
  0.000  0.000  0.977  0.020  0.003
  0.005  0.811  0.000  0.000  0.183
  0.000  0.000  0.019  0.979  0.002
    occupations:
  0.916  0.006  0.004 -0.135  0.001
  0.006  0.604  0.001 -0.000 -0.005
  0.004  0.001  0.897 -0.004 -0.010
 -0.135 -0.000 -0.004  0.696  0.000
  0.001 -0.005 -0.010  0.000  0.965
atom   17   Tr[ns(na)] =   8.14418
    eigenvalues:
  0.618  0.667  0.880  0.924  0.984
    eigenvectors:
  0.000  0.989  0.000  0.000  0.010
  0.000  0.000  0.087  0.913  0.000
  0.000  0.000  0.913  0.087  0.000
  0.000  0.010  0.000  0.000  0.990
  1.000  0.000  0.000  0.000  0.000
    occupations:
  0.670 -0.003 -0.001  0.032  0.001
 -0.003  0.920  0.012  0.000 -0.002
 -0.001  0.012  0.883 -0.000  0.000
  0.032  0.000 -0.000  0.981  0.000
  0.001 -0.002  0.000  0.000  0.618
atom   22   Tr[ns(na)] =   8.12456
    eigenvalues:
  0.653  0.668  0.854  0.905  0.983
    eigenvectors:
  0.000  0.140  0.000  0.000  0.860
  1.000  0.000  0.000  0.000  0.000
  0.000  0.000  1.000  0.000  0.000
  0.000  0.860  0.000  0.000  0.140
  0.000  0.000  0.000  1.000  0.000
    occupations:
  0.939  0.001 -0.000 -0.109 -0.000
  0.001  0.653  0.000 -0.000 -0.000
 -0.000  0.000  0.854 -0.000  0.001
 -0.109 -0.000 -0.000  0.712  0.001
 -0.000 -0.000  0.001  0.001  0.905
atom   23   Tr[ns(na)] =   8.12695
    eigenvalues:
  0.623  0.673  0.851  0.932  0.984
    eigenvectors:
  0.000  0.989  0.000  0.000  0.011
  0.000  0.000  0.000  0.999  0.000
  0.000  0.000  1.000  0.000  0.000
  0.000  0.011  0.000  0.000  0.989
  1.000  0.000  0.000  0.000  0.000
    occupations:
  0.676  0.006 -0.000  0.032 -0.000
  0.006  0.932 -0.001 -0.000 -0.000
 -0.000 -0.001  0.851  0.000 -0.001
  0.032 -0.000  0.000  0.980 -0.000
 -0.000 -0.000 -0.001 -0.000  0.623
N of occupied +U levels =  65.0993838
 --- exit write_ns ---

[...]

          k = 0.2500-0.4953 0.0000 ( 31088 PWs)   bands (ev):

[...]

          k =-0.2500 0.2476 0.0000 ( 31099 PWs)   bands (ev):

   -50.7365 -50.6775 -50.6683 -50.6500 -50.5774 -50.5765 -50.5306 -50.5221
   -50.5022 -50.4755 -50.4615 -50.4526 -50.4488 -50.3717 -50.3140 -50.2784
   -50.2715 -50.2702 -50.2054 -50.2034 -50.1716 -50.1507 -50.1359 -50.0741
   -21.4300 -21.1254 -21.0547 -21.0111 -20.6489 -20.5693 -20.4843 -20.4330
   -20.3521 -20.2336 -20.1479 -20.0849 -19.9304 -19.9177 -19.8601 -19.7840
   -19.5923 -18.8263 -18.6963 -10.2546 -10.1475  -9.9799  -9.7101  -9.3300
    -9.2857  -9.2377  -9.1366  -8.8640  -8.7838  -8.7802  -8.7583  -8.6246
    -8.5775  -8.3519  -8.2594  -8.1216  -7.9766  -7.7190  -7.5914  -7.4759
    -7.3908  -7.2911  -7.2106  -7.0053  -6.9212  -6.8215  -6.6317  -6.5068
    -6.3779  -6.3419  -6.2944  -6.1694  -6.0584  -6.0237  -5.9442  -5.9094
    -5.7634  -5.6656  -5.5577  -5.3867  -5.2211  -5.1796  -4.9692  -4.8607
    -4.7403  -4.6332  -4.5632  -4.3515  -4.2749  -4.2163  -3.9722  -3.7774
    -3.7135  -3.5267  -3.3901  -3.3696  -3.2836  -3.2274  -3.1183  -3.0531
    -2.9818  -2.9143  -2.7995  -2.7701  -2.7249  -2.6591  -2.5493  -2.4028
    -2.3675  -2.2623  -1.8762  -1.6789  -1.4991  -1.2932  -1.0772  -1.0608
    -0.9980  -0.7765  -0.6500  -0.4272   0.0129   1.0133   1.0468   1.3544
     1.6647   1.8072   2.2209   2.3743   2.7277   2.7723   2.8999   2.9877
     3.1858   3.3331   3.3982   3.7291   3.8531   4.3042   4.8291   5.2486
     5.4709   5.6323   5.7122   6.0025   6.2795   6.5418   6.6390   6.6606
     6.7333   6.9230   7.1228   7.2060   7.3780   7.4686   7.5908   7.6998
     7.9222   8.0365   8.1058   8.1613   8.2649   8.4737   8.5098   8.5786
     8.8105   8.8654   8.9135   8.9774   9.0993   9.1909   9.2206   9.2831
     9.3914   9.4119   9.4236   9.4323   9.4352   9.4810   9.5765   9.6008
     9.6072   9.6160   9.7370   9.7776   9.8369  10.0212  10.0917  10.1529
    10.2260  10.3428  10.3721  10.4584  10.5282  10.5612  10.6216  10.8122
    10.8354  10.9798  11.0025  11.1384  11.1714  11.2436  11.4042  11.5225
    11.5602  11.6661  11.7227  11.7874  11.8264  11.9646  12.1660  12.2010
    12.2458  12.3538  12.3838  12.4256  12.5555  12.6347  12.6576  12.7297
    12.7860  12.8395  12.9346  13.0030  13.0528  13.1756  13.2192  13.2629
    13.3157  13.4082  13.5182  13.6630  13.7154  13.8106  13.9046  13.9293
    14.0083  14.0698  14.1556  14.2341  14.3224  14.4003  14.4843  14.5292
    14.7024  14.7640  14.7816  14.9412  15.0574  15.1880  15.2408  15.3245
    15.4325  15.4753  15.5158  15.5981  15.6388  15.7554  15.7936  15.8686
    15.9168  15.9357  15.9902  16.0714  16.1389  16.1916  16.2368  16.3116
    16.3751  16.4058  16.4339  16.5271  16.5555  16.6613  16.7183  16.7554
    16.8091  16.8857  17.0852  17.1336  17.1645  17.2981  17.3372  17.4250
    17.4610  17.5355  17.5545  17.6107  17.6875  17.7066  17.7455  17.8426
    17.9209  17.9473  17.9857  18.1175  18.2126  18.2509  18.3025  18.3771
    18.4706  18.5993  18.6507  18.6915  18.7819  18.8571  18.8935  18.9733
    19.0330  19.0960  19.1556  19.2242  19.2920  19.3312  19.3943  19.5632
    19.5963  19.6377  19.7162  19.7654  19.8542  19.9580  20.0475  20.0788
    20.1268  20.2324  20.3830  20.3931  20.4829  20.6030  20.6473  20.7083
    20.7671  20.7893  20.9067  20.9311  20.9561  21.0177  21.0736  21.1580
    21.2000  21.3028  21.3176  21.3748  21.4359  21.4643  21.5101  21.6033
    21.7002  21.7459  21.8241  21.8489  21.8785  21.9766

     the Fermi energy is    -1.0745 ev

!    total energy              =   -2105.88179193 Ry
     Harris-Foulkes estimate   =   -2105.88179193 Ry
     estimated scf accuracy    <          5.7E-09 Ry

     The total energy is the sum of the following terms:

     one-electron contribution =  -22781.05026480 Ry
     hartree contribution      =   11435.61302369 Ry
     xc contribution           =    -577.20700409 Ry
     ewald contribution        =    9815.24697443 Ry
     Hubbard energy            =       1.51616188 Ry
     smearing contrib. (-TS)   =      -0.00068303 Ry

     convergence has been achieved in  10 iterations

     Forces acting on atoms (Ry/au):

     negative rho (up, down):  0.313E+01 0.000E+00
     atom    1 type  1   force =    -0.00691983   -0.01266718    0.00003639
     atom    2 type  1   force =     0.00032225    0.00333706   -0.00030568
     atom    3 type  2   force =     0.03160035    0.00780010    0.00011017
     atom    4 type  2   force =     0.00900999    0.00798527   -0.00000385
     atom    5 type  1   force =    -0.00411276   -0.01570116   -0.00017612
     atom    6 type  1   force =     0.00572612    0.01322797   -0.00007673
     atom    7 type  1   force =     0.00168387   -0.00214985   -0.00024296
     atom    8 type  1   force =    -0.00250823   -0.00066350   -0.00011880
     atom    9 type  2   force =     0.00749330    0.00023289    0.00004271
     atom   10 type  2   force =    -0.00778702   -0.00121919   -0.00037564
     atom   11 type  1   force =    -0.00312997    0.01400377    0.00011623
     atom   12 type  1   force =    -0.00290054   -0.01391415    0.00009425
     atom   13 type  1   force =    -0.00124028   -0.00013652   -0.00000495
     atom   14 type  1   force =    -0.00789909   -0.01374443   -0.00003394
     atom   15 type  1   force =     0.00031637    0.00426397   -0.00030743
     atom   16 type  2   force =    -0.03242819    0.00685036    0.00006655
     atom   17 type  2   force =     0.00936406    0.00833530   -0.00000239
     atom   18 type  1   force =    -0.00379460   -0.01524813   -0.00015900
     atom   19 type  1   force =     0.00489655    0.01424384   -0.00007517
     atom   20 type  1   force =    -0.00144026   -0.00540071    0.00084685
     atom   21 type  1   force =    -0.00403757   -0.00059149   -0.00003923
     atom   22 type  2   force =    -0.00480657    0.00054845   -0.00001120
     atom   23 type  2   force =     0.00291126   -0.00018047    0.00024935
     atom   24 type  1   force =     0.00452196    0.01788353   -0.00004624
     atom   25 type  1   force =     0.00534170   -0.01801493   -0.00004827
     atom   26 type  1   force =    -0.00084409   -0.00022291    0.00017415
     atom   27 type  3   force =    -0.00000560    0.00028759    0.00020498
     atom   28 type  3   force =     0.00002167    0.00044198    0.00044676
     atom   29 type  3   force =     0.00001178    0.00002203    0.00019280
     atom   30 type  3   force =    -0.00012839    0.00040708    0.00009623
     atom   31 type  1   force =     0.00041443   -0.00005174   -0.00029104
     atom   32 type  3   force =     0.00034732    0.00003518   -0.00035875

     Total force =     0.001609     Total SCF correction =     0.000103

     bfgs converged in   9 scf cycles and   8 bfgs steps
     (criteria: energy < 0.10E-03, force < 0.10E-02)

     End of BFGS Geometry Optimization

     Final energy   =   -2105.8817919275 Ry
Begin final coordinates

ATOMIC_POSITIONS (crystal)
O0       0.000000000   0.000000000   0.378663430    0   0   1
O0       0.000000000   0.500000000   0.403208508    0   0   1
Ir1      0.250000000   0.500000000   0.452931009    0   0   1
Ir1      0.000000000   0.000000000   0.453210757    0   0   1
O0       0.250000000   0.810000000   0.453042270    0   0   1
O0       0.250000000   0.190000000   0.452641089    0   0   1
O0       0.000000000   0.500000000   0.499019470    0   0   1
O0       0.000000000   0.000000000   0.528625540    0   0   1
Ir1      0.250000000   0.000000000   0.575507404    0   0   1
Ir1      0.000000000   0.500000000   0.571830578    0   0   1
O0       0.250000000   0.690000000   0.575423364    0   0   1
O0       0.250000000   0.310000000   0.575484165    0   0   1
O0       0.000000000   0.000000000   0.620115250    0   0   1
O0       0.500000000   0.000000000   0.378311185    0   0   1
O0       0.500000000   0.500000000   0.402437753    0   0   1
Ir1      0.750000000   0.500000000   0.452937975    0   0   1
Ir1      0.500000000   0.000000000   0.452967445    0   0   1
O0       0.750000000   0.810000000   0.453059472    0   0   1
O0       0.750000000   0.190000000   0.452624115    0   0   1
O0       0.500000000   0.500000000   0.499777887    0   0   1
O0       0.500000000   0.000000000   0.528598724    0   0   1
Ir1      0.750000000   0.000000000   0.575453259    0   0   1
Ir1      0.500000000   0.500000000   0.575028901    0   0   1
O0       0.750000000   0.690000000   0.574700789    0   0   1
O0       0.750000000   0.310000000   0.574793005    0   0   1
O0       0.500000000   0.000000000   0.619773159    0   0   1
H2      -0.000170661   0.632767370   0.384054327
H2       0.499925308   0.636368086   0.384794582
H2       0.143627643   0.033807141   0.367062189
H2       0.642881600   0.036359877   0.366723054
O0       0.516331205   0.499841141   0.647939301
H2       0.375784146   0.500384572   0.663540043
End final coordinates

     General routines

     Parallel routines
     Hubbard U routines

   This run was terminated on:  15: 0: 7  29Apr2014

   JOB DONE.