     Program PWSCF v.5.0.2 (svn rev. 9656) starts on  9Aug2014 at 11:21:40

     Current dimensions of program PWSCF are:
     Max number of different atomic species (ntypx) = 10
     Max number of k-points (npk) =  40000
     Max angular momentum in pseudopotentials (lmaxx) =  3
     Reading input from pwscf.in
Warning: card &CELL ignored
Warning: card / ignored

     Subspace diagonalization in iterative solution of the eigenvalue problem:
     a serial algorithm will be used

     bravais-lattice index     =            0
     lattice parameter (alat)  =      10.3179  a.u.
     unit-cell volume          =    6964.3238 (a.u.)^3
     number of atoms/cell      =           32
     number of atomic types    =            3
     number of electrons       =       231.00
     number of Kohn-Sham states=          346
     kinetic-energy cutoff     =      40.0000  Ry
     charge density cutoff     =     500.0000  Ry
     convergence threshold     =      1.0E-06
     mixing beta               =       0.7000
     number of iterations used =            8  plain     mixing
     Exchange-correlation      = SLA  PW   PBE  PBE ( 1 4 3 4 0)
     EXX-fraction              =        0.00
     nstep                     =           50

     celldm(1)=  10.317905  celldm(2)=   0.000000  celldm(3)=   0.000000
     celldm(4)=   0.000000  celldm(5)=   0.000000  celldm(6)=   0.000000

     crystal axes: (cart. coord. in units of alat)
               a(1) = (   1.000000   0.000000   0.000000 )
               a(2) = (   0.000000   1.282117   0.000000 )
               a(3) = (   0.000000   0.000000   4.945120 )

     reciprocal axes: (cart. coord. in units 2 pi/alat)
               b(1) = (  1.000000  0.000000  0.000000 )
               b(2) = (  0.000000  0.779960  0.000000 )
               b(3) = (  0.000000  0.000000  0.202220 )

     PseudoPot. # 1 for O  read from file:
     /home-research/zhongnanxu/gbrv_espresso_pseudo_v1.01/o_pbe_v1.01.uspp.F.UPF
     MD5 check sum: 2bcb18d16ea4b960afae9ec6d52f22d2
     Pseudo is Ultrasoft + core correction, Zval =  6.0
     Generated by new atomic code, or converted to UPF format
     Using radial grid of  737 points,  5 beta functions with:
                l(1) =   0
                l(2) =   0
                l(3) =   1
                l(4) =   1
                l(5) =   2
     Q(r) pseudized with  8 coefficients,  rinner =    0.900   0.900   0.900
                                                       0.900   0.900

     PseudoPot. # 2 for Mo read from file:
     /home-research/zhongnanxu/gbrv_espresso_pseudo_v1.01/mo_pbe_v1.uspp.F.UPF
     MD5 check sum: 30c4dcd161f5d35cd49bb5239c51a633
     Pseudo is Ultrasoft + core correction, Zval = 14.0
     Generated by new atomic code, or converted to UPF format
     Using radial grid of  889 points,  6 beta functions with:
                l(1) =   0
                l(2) =   0
                l(3) =   1
                l(4) =   1
                l(5) =   2
                l(6) =   2
     Q(r) pseudized with  6 coefficients,  rinner =    1.000   1.000   1.000
                                                       1.000   1.000

     PseudoPot. # 3 for H  read from file:
     /home-research/zhongnanxu/gbrv_espresso_pseudo_v1.01/h_pbe_v1.uspp.F.UPF
     MD5 check sum: 3408e3ff4ec8b0a4e358431e7e038a48
     Pseudo is Ultrasoft, Zval =  1.0
     Generated by new atomic code, or converted to UPF format
     Using radial grid of  615 points,  2 beta functions with:
                l(1) =   0
                l(2) =   0
     Q(r) pseudized with  8 coefficients,  rinner =    0.700

     atomic species   valence    mass     pseudopotential
        O0             6.00    15.99940     O ( 1.00)
        Mo1           14.00    95.94000     Mo( 1.00)
        H2             1.00     1.00794     H ( 1.00)

     Simplified LDA+U calculation (l_max = 2) with parameters (eV):
     atomic species    L          U    alpha       J0     beta
        Mo1            2     6.5000   0.0000   0.0000   0.0000

     No symmetry found

   Cartesian axes

     site n.     atom                  positions (alat units)
         1           O0  tau(   1) = (   0.0000000   0.0000000   1.8362221  )
         2           O0  tau(   2) = (   0.0000000   0.6410583   1.8932888  )
         3           Mo1 tau(   3) = (   0.2500000   0.6410583   2.1787211  )
         4           Mo1 tau(   4) = (   0.0000000   0.0000000   2.1942488  )
         5           O0  tau(   5) = (   0.2500000   1.0000510   2.1917762  )
         6           O0  tau(   6) = (   0.2500000   0.2820657   2.1916279  )
         7           O0  tau(   7) = (   0.0000000   0.6410583   2.4619282  )
         8           O0  tau(   8) = (   0.0000000   0.0000000   2.5552920  )
         9           Mo1 tau(   9) = (   0.2500000   0.0000000   2.8451750  )
        10           Mo1 tau(  10) = (   0.0000000   0.6410583   2.7951798  )
        11           O0  tau(  11) = (   0.2500000   0.9231240   2.8229220  )
        12           O0  tau(  12) = (   0.2500000   0.3589927   2.8238121  )
        13           O0  tau(  13) = (   0.0000000   0.0000000   3.0959420  )
        14           O0  tau(  14) = (   0.5000000   0.0000000   1.8365188  )
        15           O0  tau(  15) = (   0.5000000   0.6410583   1.8939316  )
        16           Mo1 tau(  16) = (   0.7500000   0.6410583   2.1784244  )
        17           Mo1 tau(  17) = (   0.5000000   0.0000000   2.1964741  )
        18           O0  tau(  18) = (   0.7500000   1.0000510   2.1920730  )
        19           O0  tau(  19) = (   0.7500000   0.2820657   2.1913806  )
        20           O0  tau(  20) = (   0.5000000   0.6410583   2.4641535  )
        21           O0  tau(  21) = (   0.5000000   0.0000000   2.5544514  )
        22           Mo1 tau(  22) = (   0.7500000   0.0000000   2.8455212  )
        23           Mo1 tau(  23) = (   0.5000000   0.6410583   2.8262846  )
        24           O0  tau(  24) = (   0.7500000   0.9231240   2.8210923  )
        25           O0  tau(  25) = (   0.7500000   0.3589927   2.8208450  )
        26           O0  tau(  26) = (   0.5000000   0.0000000   3.0950519  )
        27           H2  tau(  27) = (  -0.0007600   0.7828861   1.7821225  )
        28           H2  tau(  28) = (   0.4995000   0.7914763   1.7941391  )
        29           H2  tau(  29) = (   0.1669200   0.0220268   1.7647651  )
        30           H2  tau(  30) = (   0.6653100   0.0245269   1.7632816  )
        31           O0  tau(  31) = (   0.5147600   0.6413532   3.1767948  )
        32           H2  tau(  32) = (   0.3891500   0.6353401   3.3044778  )

     number of k points=    10  Methfessel-Paxton smearing, width (Ry)=  0.0100
                       cart. coord. in units 2pi/alat
        k(    1) = (   0.0000000   0.0000000   0.0000000), wk =   0.1250000
        k(    2) = (   0.0000000   0.1949901   0.0000000), wk =   0.2500000
        k(    3) = (   0.0000000  -0.3899801   0.0000000), wk =   0.1250000
        k(    4) = (   0.2500000   0.0000000   0.0000000), wk =   0.2500000
        k(    5) = (   0.2500000   0.1949901   0.0000000), wk =   0.2500000
        k(    6) = (   0.2500000  -0.3899801   0.0000000), wk =   0.2500000
        k(    7) = (  -0.5000000   0.0000000   0.0000000), wk =   0.1250000
        k(    8) = (  -0.5000000   0.1949901   0.0000000), wk =   0.2500000
        k(    9) = (  -0.5000000  -0.3899801   0.0000000), wk =   0.1250000
        k(   10) = (  -0.2500000   0.1949901   0.0000000), wk =   0.2500000

     Largest allocated arrays     est. size (Mb)     dimensions
     Largest temporary arrays     est. size (Mb)     dimensions

     Check: negative/imaginary core charge=   -0.000003    0.000000

     Initial potential from superposition of free atoms
     Check: negative starting charge=   -0.002345

     starting charge  230.99142, renormalised to  231.00000

     negative rho (up, down):  0.235E-02 0.000E+00
     Number of +U iterations with fixed ns =  0
     Starting occupations:
 --- enter write_ns ---
 LDA+U parameters:
U( 2)     =  6.50000000
alpha( 2) =  0.00000000
atom    3   Tr[ns(na)] =   5.00000
    eigenvalues:
  0.500  0.500  0.500  0.500  0.500
    eigenvectors:
  1.000  0.000  0.000  0.000  0.000
  0.000  1.000  0.000  0.000  0.000
  0.000  0.000  1.000  0.000  0.000
  0.000  0.000  0.000  1.000  0.000
  0.000  0.000  0.000  0.000  1.000
    occupations:
  0.500  0.000  0.000  0.000  0.000
  0.000  0.500  0.000  0.000  0.000
  0.000  0.000  0.500  0.000  0.000
  0.000  0.000  0.000  0.500  0.000
  0.000  0.000  0.000  0.000  0.500
atom    4   Tr[ns(na)] =   5.00000
    eigenvalues:
  0.500  0.500  0.500  0.500  0.500
    eigenvectors:
  1.000  0.000  0.000  0.000  0.000
  0.000  1.000  0.000  0.000  0.000
  0.000  0.000  1.000  0.000  0.000
  0.000  0.000  0.000  1.000  0.000
  0.000  0.000  0.000  0.000  1.000
    occupations:
  0.500  0.000  0.000  0.000  0.000
  0.000  0.500  0.000  0.000  0.000
  0.000  0.000  0.500  0.000  0.000
  0.000  0.000  0.000  0.500  0.000
  0.000  0.000  0.000  0.000  0.500
atom    9   Tr[ns(na)] =   5.00000
    eigenvalues:
  0.500  0.500  0.500  0.500  0.500
    eigenvectors:
  1.000  0.000  0.000  0.000  0.000
  0.000  1.000  0.000  0.000  0.000
  0.000  0.000  1.000  0.000  0.000
  0.000  0.000  0.000  1.000  0.000
  0.000  0.000  0.000  0.000  1.000
    occupations:
  0.500  0.000  0.000  0.000  0.000
  0.000  0.500  0.000  0.000  0.000
  0.000  0.000  0.500  0.000  0.000
  0.000  0.000  0.000  0.500  0.000
  0.000  0.000  0.000  0.000  0.500
atom   10   Tr[ns(na)] =   5.00000
    eigenvalues:
  0.500  0.500  0.500  0.500  0.500
    eigenvectors:
  1.000  0.000  0.000  0.000  0.000
  0.000  1.000  0.000  0.000  0.000
  0.000  0.000  1.000  0.000  0.000
  0.000  0.000  0.000  1.000  0.000
  0.000  0.000  0.000  0.000  1.000
    occupations:
  0.500  0.000  0.000  0.000  0.000
  0.000  0.500  0.000  0.000  0.000
  0.000  0.000  0.500  0.000  0.000
  0.000  0.000  0.000  0.500  0.000
  0.000  0.000  0.000  0.000  0.500
atom   16   Tr[ns(na)] =   5.00000
    eigenvalues:
  0.500  0.500  0.500  0.500  0.500
    eigenvectors:
  1.000  0.000  0.000  0.000  0.000
  0.000  1.000  0.000  0.000  0.000
  0.000  0.000  1.000  0.000  0.000
  0.000  0.000  0.000  1.000  0.000
  0.000  0.000  0.000  0.000  1.000
    occupations:
  0.500  0.000  0.000  0.000  0.000
  0.000  0.500  0.000  0.000  0.000
  0.000  0.000  0.500  0.000  0.000
  0.000  0.000  0.000  0.500  0.000
  0.000  0.000  0.000  0.000  0.500
atom   17   Tr[ns(na)] =   5.00000
    eigenvalues:
  0.500  0.500  0.500  0.500  0.500
    eigenvectors:
  1.000  0.000  0.000  0.000  0.000
  0.000  1.000  0.000  0.000  0.000
  0.000  0.000  1.000  0.000  0.000
  0.000  0.000  0.000  1.000  0.000
  0.000  0.000  0.000  0.000  1.000
    occupations:
  0.500  0.000  0.000  0.000  0.000
  0.000  0.500  0.000  0.000  0.000
  0.000  0.000  0.500  0.000  0.000
  0.000  0.000  0.000  0.500  0.000
  0.000  0.000  0.000  0.000  0.500
atom   22   Tr[ns(na)] =   5.00000
    eigenvalues:
  0.500  0.500  0.500  0.500  0.500
    eigenvectors:
  1.000  0.000  0.000  0.000  0.000
  0.000  1.000  0.000  0.000  0.000
[...]
  0.591  0.004  0.002  0.001  0.000
  0.004  0.646  0.001 -0.016 -0.001
  0.002  0.001  0.353  0.000  0.000
  0.001 -0.016  0.000  0.794  0.000
  0.000 -0.001  0.000  0.000  0.522
atom    9   Tr[ns(na)] =   5.80344
    eigenvalues:
  0.414  0.458  0.592  0.607  0.831
    eigenvectors:
  0.000  0.000  0.000  0.252  0.748
  0.000  0.000  1.000  0.000  0.000
  0.166  0.834  0.000  0.000  0.000
  0.000  0.000  0.000  0.748  0.252
  0.834  0.166  0.000  0.000  0.000
    occupations:
  0.775 -0.001  0.000 -0.097 -0.001
 -0.001  0.592 -0.001  0.000  0.000
  0.000 -0.001  0.450  0.000  0.016
 -0.097  0.000  0.000  0.664  0.000
 -0.001  0.000  0.016  0.000  0.421
atom   10   Tr[ns(na)] =   5.68341
    eigenvalues:
  0.273  0.433  0.510  0.715  0.910
    eigenvectors:
  0.000  0.979  0.000  0.021  0.000
  0.000  0.000  0.000  0.001  0.999
  0.999  0.000  0.001  0.000  0.000
  0.000  0.021  0.000  0.978  0.001
  0.001  0.000  0.999  0.000  0.000
    occupations:
  0.439 -0.003 -0.002  0.040  0.000
 -0.003  0.910 -0.002 -0.004 -0.001
 -0.002 -0.002  0.273 -0.003  0.006
  0.040 -0.004 -0.003  0.709  0.000
  0.000 -0.001  0.006  0.000  0.510
atom   16   Tr[ns(na)] =   5.80124
    eigenvalues:
  0.407  0.509  0.581  0.604  0.799
    eigenvectors:
  0.008  0.021  0.302  0.001  0.668
  0.000  0.958  0.037  0.003  0.002
  0.832  0.000  0.001  0.157  0.011
  0.000  0.020  0.636  0.024  0.319
  0.160  0.000  0.023  0.816  0.001
    occupations:
  0.724 -0.018  0.033 -0.102 -0.002
 -0.018  0.513 -0.003 -0.005 -0.002
  0.033 -0.003  0.442 -0.015  0.072
 -0.102 -0.005 -0.015  0.649  0.002
 -0.002 -0.002  0.072  0.002  0.572
atom   17   Tr[ns(na)] =   5.80885
    eigenvalues:
  0.360  0.517  0.581  0.672  0.775
    eigenvectors:
  0.000  0.000  0.964  0.035  0.001
  0.000  0.000  0.031  0.921  0.047
  0.999  0.001  0.000  0.000  0.000
  0.000  0.000  0.004  0.044  0.952
  0.001  0.999  0.000  0.000  0.000
    occupations:
  0.584  0.015  0.002  0.009  0.000
  0.015  0.674  0.004 -0.023 -0.002
  0.002  0.004  0.360 -0.002  0.005
  0.009 -0.023 -0.002  0.769  0.000
  0.000 -0.002  0.005  0.000  0.517
atom   22   Tr[ns(na)] =   5.85765
    eigenvalues:
  0.488  0.511  0.614  0.629  0.688
    eigenvectors:
  0.000  0.000  0.134  0.001  0.865
  0.000  0.000  0.003  0.997  0.000
  0.278  0.722  0.000  0.000  0.000
  0.000  0.000  0.863  0.003  0.135
  0.722  0.278  0.000  0.000  0.000
    occupations:
  0.678  0.000 -0.001 -0.025 -0.003
  0.000  0.629  0.000  0.001  0.000
 -0.001  0.000  0.505  0.001 -0.011
 -0.025  0.001  0.001  0.624  0.001
 -0.003  0.000 -0.011  0.001  0.494
atom   23   Tr[ns(na)] =   5.85463
    eigenvalues:
  0.438  0.505  0.532  0.613  0.840
    eigenvectors:
  0.012  0.000  0.000  0.977  0.012
  0.988  0.000  0.000  0.012  0.000
  0.000  0.962  0.038  0.000  0.000
  0.000  0.000  0.000  0.012  0.988
  0.000  0.038  0.962  0.000  0.000
    occupations:
  0.613  0.019  0.000 -0.024  0.000
  0.019  0.440 -0.001 -0.002  0.000
  0.000 -0.001  0.506  0.000 -0.005
 -0.024 -0.002  0.000  0.837  0.000
  0.000  0.000 -0.005  0.000  0.531
N of occupied +U levels =  46.4444497
 --- exit write_ns ---

     Threshold (ethr) on eigenvalues was too large:
     Diagonalizing with lowered threshold

     Davidson diagonalization with overlap
     ethr =  4.25E-09,  avg # of iterations =  2.8

[...]

     total energy              =   -1729.26244417 Ry
     Harris-Foulkes estimate   =   -1729.26244417 Ry
     estimated scf accuracy    <       0.00000003 Ry

     iteration # 16     ecut=    40.00 Ry     beta=0.70
     Davidson diagonalization with overlap
     ethr =  1.02E-11,  avg # of iterations =  1.0

     negative rho (up, down):  0.352E-02 0.000E+00

     End of self-consistent calculation
 --- enter write_ns ---
 LDA+U parameters:
U( 2)     =  6.50000000
alpha( 2) =  0.00000000
atom    3   Tr[ns(na)] =   5.82276
    eigenvalues:
  0.361  0.505  0.574  0.702  0.769
    eigenvectors:
  0.009  0.019  0.263  0.001  0.708
  0.000  0.959  0.037  0.002  0.002
  0.944  0.000  0.000  0.044  0.011
  0.001  0.020  0.699  0.002  0.278
  0.045  0.001  0.001  0.952  0.001
    occupations:
  0.709  0.017  0.036 -0.087  0.005
  0.017  0.509  0.003  0.005 -0.008
  0.036  0.003  0.380 -0.016 -0.071
 -0.087  0.005 -0.016  0.627 -0.003
  0.005 -0.008 -0.071 -0.003  0.686
atom    4   Tr[ns(na)] =   5.81193
    eigenvalues:
  0.353  0.522  0.591  0.644  0.796
    eigenvectors:
  0.000  0.000  0.995  0.005  0.000
  0.000  0.000  0.005  0.983  0.012
  1.000  0.000  0.000  0.000  0.000
  0.000  0.000  0.000  0.012  0.988
  0.000  1.000  0.000  0.000  0.000
    occupations:
  0.591  0.004  0.002  0.001  0.000
  0.004  0.646  0.001 -0.017 -0.001
  0.002  0.001  0.353  0.000  0.000
  0.001 -0.017  0.000  0.794  0.000
  0.000 -0.001  0.000  0.000  0.522
atom    9   Tr[ns(na)] =   5.80291
    eigenvalues:
  0.413  0.458  0.592  0.607  0.831
    eigenvectors:
  0.000  0.000  0.000  0.252  0.748
  0.000  0.000  1.000  0.000  0.000
  0.167  0.833  0.000  0.000  0.000
  0.000  0.000  0.000  0.748  0.252
  0.833  0.167  0.000  0.000  0.000
    occupations:
  0.775 -0.001  0.000 -0.097 -0.001
 -0.001  0.592 -0.001  0.000  0.000
  0.000 -0.001  0.450  0.000  0.017
 -0.097  0.000  0.000  0.664  0.000
 -0.001  0.000  0.017  0.000  0.421
atom   10   Tr[ns(na)] =   5.68314
    eigenvalues:
  0.273  0.434  0.510  0.715  0.910
    eigenvectors:
  0.000  0.979  0.000  0.021  0.000
  0.000  0.000  0.000  0.001  0.999
  0.999  0.000  0.001  0.000  0.000
  0.000  0.021  0.000  0.979  0.001
  0.001  0.000  0.999  0.000  0.000
    occupations:
  0.439 -0.003 -0.002  0.040  0.000
 -0.003  0.910 -0.002 -0.004 -0.001
 -0.002 -0.002  0.273 -0.003  0.006
  0.040 -0.004 -0.003  0.709  0.000
  0.000 -0.001  0.006  0.000  0.510
atom   16   Tr[ns(na)] =   5.80083
    eigenvalues:
  0.407  0.509  0.581  0.604  0.799
    eigenvectors:
  0.008  0.021  0.302  0.001  0.668
  0.000  0.958  0.037  0.003  0.002
  0.831  0.000  0.001  0.157  0.011
  0.000  0.020  0.636  0.024  0.320
  0.161  0.000  0.024  0.815  0.001
    occupations:
  0.724 -0.018  0.033 -0.102 -0.002
 -0.018  0.513 -0.003 -0.005 -0.002
  0.033 -0.003  0.442 -0.015  0.072
 -0.102 -0.005 -0.015  0.650  0.002
 -0.002 -0.002  0.072  0.002  0.572
atom   17   Tr[ns(na)] =   5.80908
    eigenvalues:
  0.360  0.517  0.581  0.672  0.775
    eigenvectors:
  0.000  0.000  0.964  0.035  0.001
  0.000  0.000  0.031  0.920  0.049
  0.999  0.001  0.000  0.000  0.000
  0.000  0.000  0.005  0.045  0.950
  0.001  0.999  0.000  0.000  0.000
    occupations:
  0.584  0.015  0.002  0.009  0.000
  0.015  0.675  0.004 -0.023 -0.002
  0.002  0.004  0.360 -0.002  0.005
  0.009 -0.023 -0.002  0.769  0.000
  0.000 -0.002  0.005  0.000  0.517
atom   22   Tr[ns(na)] =   5.85931
    eigenvalues:
  0.488  0.512  0.614  0.629  0.687
    eigenvectors:
  0.000  0.000  0.133  0.001  0.866
  0.000  0.000  0.003  0.997  0.000
  0.278  0.722  0.000  0.000  0.000
  0.000  0.000  0.864  0.003  0.134
  0.722  0.278  0.000  0.000  0.000
    occupations:
  0.678  0.000 -0.001 -0.025 -0.003
  0.000  0.629  0.000  0.001  0.000
 -0.001  0.000  0.505  0.001 -0.011
 -0.025  0.001  0.001  0.624  0.001
 -0.003  0.000 -0.011  0.001  0.495
atom   23   Tr[ns(na)] =   5.85401
    eigenvalues:
  0.438  0.505  0.532  0.613  0.840
    eigenvectors:
  0.012  0.000  0.000  0.977  0.012
  0.988  0.000  0.000  0.012  0.000
  0.000  0.962  0.038  0.000  0.000
  0.000  0.000  0.000  0.012  0.988
  0.000  0.038  0.962  0.000  0.000
    occupations:
  0.613  0.019  0.000 -0.024  0.000
  0.019  0.440 -0.001 -0.002  0.000
  0.000 -0.001  0.506  0.000 -0.005
 -0.024 -0.002  0.000  0.837  0.000
  0.000  0.000 -0.005  0.000  0.531
N of occupied +U levels =  46.4439767
 --- exit write_ns ---

[...]

          k = 0.2500-0.3900 0.0000 ( 29726 PWs)   bands (ev):

[...]

          k =-0.2500 0.1950 0.0000 ( 29746 PWs)   bands (ev):

   -62.4786 -62.3235 -62.1642 -61.8463 -61.7779 -61.6797 -61.6083 -61.4572
   -36.9805 -36.9262 -36.8143 -36.7365 -36.4265 -36.3619 -36.2637 -36.1662
   -36.1485 -36.1141 -36.0830 -36.0237 -35.9983 -35.9659 -35.9308 -35.9057
   -35.9020 -35.8511 -35.8225 -35.7960 -35.7247 -35.2567 -35.2251 -35.0890
   -20.2465 -19.9796 -19.8396 -19.5877 -19.4789 -19.3148 -19.2232 -19.1702
   -19.0541 -18.9700 -18.9220 -18.7743 -18.7177 -18.6527 -18.5193 -18.4404
   -18.2992 -18.2053 -17.9875  -8.6606  -8.3529  -8.1434  -8.1349  -7.8589
    -7.6906  -7.5881  -7.5501  -7.4407  -7.2731  -7.1708  -7.0039  -6.8012
    -6.6846  -6.4729  -6.3576  -6.2615  -6.1649  -6.0702  -5.9305  -5.8397
    -5.7468  -5.6094  -5.3580  -5.3340  -5.1524  -5.0229  -4.9195  -4.7419
    -4.6406  -4.5401  -4.4547  -4.3770  -4.3265  -4.2388  -4.1922  -4.1701
    -4.1150  -4.0802  -3.9988  -3.7776  -3.6989  -3.5547  -3.5119  -3.4732
    -3.4275  -3.3295  -3.2507  -3.1625  -3.1171  -3.0007  -2.8923  -2.7710
    -2.6949  -2.5673  -2.5174  -2.2431  -1.9766  -1.8622  -1.7494  -0.8648
    -0.8032  -0.4730  -0.3059   0.5060   0.7505   0.8005   0.9168   1.0158
     1.2572   1.3335   1.4926   1.5747   1.6118   1.6992   1.7850   1.8848
     2.0994   2.2550   2.4440   2.5489   2.9676   3.5869   3.7257   3.7833
     4.0120   4.1532   4.2204   4.4126   4.5618   4.6041   4.6899   4.8342
     4.8904   4.9695   5.1058   5.3424   5.7201   5.9289   5.9542   6.1230
     6.2155   6.3703   6.4198   6.5283   6.5619   6.8344   7.0868   7.1143
     7.2585   7.3876   7.6224   7.6958   8.0103   8.1416   8.3088   8.3857
     8.5095   8.6438   8.7686   8.8939   8.9644   9.0759   9.1089   9.3024
     9.4420   9.4835   9.5735   9.6528   9.7257   9.8675   9.9236   9.9798
    10.1578  10.3653  10.4120  10.4906  10.5634  10.7290  10.7959  10.8883
    10.9445  11.0404  11.2031  11.2581  11.4124  11.5576  11.6852  11.7102
    11.8180  11.9013  11.9393  12.0490  12.0993  12.1965  12.2838  12.3467
    12.4142  12.4851  12.5155  12.6609  12.7671  12.8953  12.9876  13.0480
    13.1278  13.2037  13.2913  13.3653  13.3891  13.4628  13.5202  13.5545
    13.7018  13.8168  13.8554  13.9271  13.9845  14.0150  14.0757  14.1360
    14.2211  14.2437  14.2803  14.3470  14.4200  14.4928  14.5558  14.6380
    14.7396  14.7829  14.8652  14.9482  15.0171  15.1202  15.1828  15.3080
    15.3703  15.4563  15.5379  15.6007  15.6481  15.7450  15.8023  15.9544
    15.9839  16.0769  16.1026  16.1690  16.2386  16.3490  16.4285  16.4550
    16.4963  16.5557  16.6066  16.6713  16.7942  16.8507  16.8960  16.9810
    17.0632  17.1095  17.1947  17.2557  17.3100  17.3782  17.4532  17.4905
    17.5441  17.6066  17.6857  17.8329  17.9411  17.9562  18.0781  18.1216
    18.2033  18.2736  18.3497  18.3807  18.4534  18.5696  18.6142  18.7289
    18.8176  18.8947  18.9834  19.0304  19.0761  19.1463  19.2852  19.3049
    19.3905  19.4509  19.5430  19.6155  19.7864  19.8185  19.9544  20.0012
    20.0495  20.1075  20.1452  20.1850  20.2200  20.2738  20.3298  20.3758
    20.4083  20.4953  20.5173  20.5947  20.6443  20.7614  20.7982  20.8436
    20.9259  21.0220  21.0785  21.1427  21.2357  21.3079  21.3636  21.3858
    21.4816  21.5052  21.5253  21.6062  21.6402  21.6914  21.7340  21.7782
    21.8284  21.9112

     the Fermi energy is     0.0748 ev

!    total energy              =   -1729.26244417 Ry
     Harris-Foulkes estimate   =   -1729.26244418 Ry
     estimated scf accuracy    <          7.1E-09 Ry

     The total energy is the sum of the following terms:

     one-electron contribution =  -22209.37090822 Ry
     hartree contribution      =   11131.60273345 Ry
     xc contribution           =    -294.66909595 Ry
     ewald contribution        =    9638.93786086 Ry
     Hubbard energy            =       4.23691359 Ry
     smearing contrib. (-TS)   =       0.00005210 Ry

     convergence has been achieved in  16 iterations

     Forces acting on atoms (Ry/au):

     negative rho (up, down):  0.352E-02 0.000E+00
     atom    1 type  1   force =     0.00256354   -0.00545662    0.00029814
     atom    2 type  1   force =    -0.00097131    0.00891385    0.00004246
     atom    3 type  2   force =     0.02431926   -0.00442131   -0.00017385
     atom    4 type  2   force =    -0.01559678    0.00410041   -0.00015361
     atom    5 type  1   force =     0.00556144   -0.00806206   -0.00050474
     atom    6 type  1   force =     0.00477833    0.00493286   -0.00055173
     atom    7 type  1   force =    -0.00036109    0.00312745   -0.00050593
     atom    8 type  1   force =    -0.00191071    0.00013456    0.00004611
     atom    9 type  2   force =     0.00736523   -0.00015888   -0.00016865
     atom   10 type  2   force =    -0.00479780   -0.00005408    0.00063313
     atom   11 type  1   force =    -0.00996247    0.01607726    0.00042157
     atom   12 type  1   force =    -0.00965093   -0.01614525    0.00040673
     atom   13 type  1   force =    -0.01282845    0.00008438   -0.00024729
     atom   14 type  1   force =    -0.00390230   -0.00483838    0.00054574
     atom   15 type  1   force =    -0.00006587    0.00663429    0.00004368
     atom   16 type  2   force =    -0.01959455   -0.00879932   -0.00040768
     atom   17 type  2   force =     0.01185073    0.00520663   -0.00002157
     atom   18 type  1   force =    -0.00272316   -0.03117828   -0.00052856
     atom   19 type  1   force =    -0.00533545    0.03045923   -0.00053270
     atom   20 type  1   force =    -0.00635354   -0.00084016   -0.00070191
     atom   21 type  1   force =     0.00796884    0.00047001    0.00038687
     atom   22 type  2   force =    -0.01429180   -0.00017956   -0.00002406
     atom   23 type  2   force =     0.00909900    0.00132288    0.00030509
     atom   24 type  1   force =     0.00940844    0.01164703    0.00045160
     atom   25 type  1   force =     0.00954732   -0.01175421    0.00044633
     atom   26 type  1   force =     0.01609837    0.00012958   -0.00020053
     atom   27 type  3   force =    -0.00001980   -0.00022520   -0.00025912
     atom   28 type  3   force =     0.00009978   -0.00013688    0.00023577
     atom   29 type  3   force =    -0.00025096   -0.00028040   -0.00019703
     atom   30 type  3   force =    -0.00035624   -0.00020058   -0.00011014
     atom   31 type  1   force =     0.00075752    0.00021610    0.00035601
     atom   32 type  3   force =    -0.00044460   -0.00072539    0.00066988

     Total force =     0.002432     Total SCF correction =     0.000269
     SCF correction compared to forces is large: reduce conv_thr to get better values

     bfgs converged in  25 scf cycles and  24 bfgs steps
     (criteria: energy < 0.10E-03, force < 0.10E-02)

     End of BFGS Geometry Optimization

     Final energy   =   -1729.2624441729 Ry
Begin final coordinates

ATOMIC_POSITIONS (crystal)
O0       0.000000000   0.000000000   0.370492426    0   0   1
O0       0.000000000   0.500000000   0.383513517    0   0   1
Mo1      0.250000000   0.500000000   0.441819174    0   0   1
Mo1      0.000000000   0.000000000   0.442392790    0   0   1
O0       0.250000000   0.780000000   0.442955622    0   0   1
O0       0.250000000   0.220000000   0.442935414    0   0   1
O0       0.000000000   0.500000000   0.496825565    0   0   1
O0       0.000000000   0.000000000   0.515965678    0   0   1
Mo1      0.250000000   0.000000000   0.570007712    0   0   1
Mo1      0.000000000   0.500000000   0.568293031    0   0   1
O0       0.250000000   0.720000000   0.571119105    0   0   1
O0       0.250000000   0.280000000   0.571192802    0   0   1
O0       0.000000000   0.000000000   0.624745849    0   0   1
O0       0.500000000   0.000000000   0.369458440    0   0   1
O0       0.500000000   0.500000000   0.383519061    0   0   1
Mo1      0.750000000   0.500000000   0.441704785    0   0   1
Mo1      0.500000000   0.000000000   0.441250166    0   0   1
O0       0.750000000   0.780000000   0.442719321    0   0   1
O0       0.750000000   0.220000000   0.442582394    0   0   1
O0       0.500000000   0.500000000   0.502033517    0   0   1
O0       0.500000000   0.000000000   0.515943792    0   0   1
Mo1      0.750000000   0.000000000   0.578121081    0   0   1
Mo1      0.500000000   0.500000000   0.571614285    0   0   1
O0       0.750000000   0.720000000   0.572356947    0   0   1
O0       0.750000000   0.280000000   0.572351819    0   0   1
O0       0.500000000   0.000000000   0.624658456    0   0   1
H2      -0.001753466   0.619555327   0.364272558
H2       0.500743498   0.608381974   0.360427591
H2       0.163790332   0.021166366   0.355050049
H2       0.667181025   0.019754274   0.355209842
O0       0.497071254   0.500230000   0.641739255    1   0   1
H2       0.400759126   0.495540000   0.672077955    1   0   1
End final coordinates

     General routines

     Parallel routines
     Hubbard U routines

   This run was terminated on:   2: 4:12  11Aug2014

   JOB DONE.