     Program PWSCF v.5.0.2 (svn rev. 9656) starts on  5May2014 at  9:30:12

     Current dimensions of program PWSCF are:
     Max number of different atomic species (ntypx) = 10
     Max number of k-points (npk) =  40000
     Max angular momentum in pseudopotentials (lmaxx) =  3
     Reading input from pwscf.in
Warning: card &CELL ignored
Warning: card / ignored

     Subspace diagonalization in iterative solution of the eigenvalue problem:
     a serial algorithm will be used

     Found symmetry operation: I + ( -0.5000  0.0000  0.0000)
     This is a supercell, fractional translations are disabled

     bravais-lattice index     =            0
     lattice parameter (alat)  =      10.3179  a.u.
     unit-cell volume          =    6964.3238 (a.u.)^3
     number of atoms/cell      =           30
     number of atomic types    =            3
     number of electrons       =       224.00
     number of Kohn-Sham states=          336
     kinetic-energy cutoff     =      40.0000  Ry
     charge density cutoff     =     500.0000  Ry
     convergence threshold     =      1.0E-06
     mixing beta               =       0.7000
     number of iterations used =            8  plain     mixing
     Exchange-correlation      = SLA  PW   PBE  PBE ( 1 4 3 4 0)
     EXX-fraction              =        0.00
     nstep                     =           50

     celldm(1)=  10.317905  celldm(2)=   0.000000  celldm(3)=   0.000000
     celldm(4)=   0.000000  celldm(5)=   0.000000  celldm(6)=   0.000000

     crystal axes: (cart. coord. in units of alat)
               a(1) = (   1.000000   0.000000   0.000000 )
               a(2) = (   0.000000   1.282117   0.000000 )
               a(3) = (   0.000000   0.000000   4.945120 )

     reciprocal axes: (cart. coord. in units 2 pi/alat)
               b(1) = (  1.000000  0.000000  0.000000 )
               b(2) = (  0.000000  0.779960  0.000000 )
               b(3) = (  0.000000  0.000000  0.202220 )

     PseudoPot. # 1 for O  read from file:
     /home/camp/zhonxu/pseudo/o_pbe_v1.01.uspp.F.UPF
     MD5 check sum: 2bcb18d16ea4b960afae9ec6d52f22d2
     Pseudo is Ultrasoft + core correction, Zval =  6.0
     Generated by new atomic code, or converted to UPF format
     Using radial grid of  737 points,  5 beta functions with:
                l(1) =   0
                l(2) =   0
                l(3) =   1
                l(4) =   1
                l(5) =   2
     Q(r) pseudized with  8 coefficients,  rinner =    0.900   0.900   0.900
                                                       0.900   0.900

     PseudoPot. # 2 for Mo read from file:
     /home/camp/zhonxu/pseudo/mo_pbe_v1.uspp.F.UPF
     MD5 check sum: 30c4dcd161f5d35cd49bb5239c51a633
     Pseudo is Ultrasoft + core correction, Zval = 14.0
     Generated by new atomic code, or converted to UPF format
     Using radial grid of  889 points,  6 beta functions with:
                l(1) =   0
                l(2) =   0
                l(3) =   1
                l(4) =   1
                l(5) =   2
                l(6) =   2
     Q(r) pseudized with  6 coefficients,  rinner =    1.000   1.000   1.000
                                                       1.000   1.000

     PseudoPot. # 3 for H  read from file:
     /home/camp/zhonxu/pseudo/h_pbe_v1.uspp.F.UPF
     MD5 check sum: 3408e3ff4ec8b0a4e358431e7e038a48
     Pseudo is Ultrasoft, Zval =  1.0
     Generated by new atomic code, or converted to UPF format
     Using radial grid of  615 points,  2 beta functions with:
                l(1) =   0
                l(2) =   0
     Q(r) pseudized with  8 coefficients,  rinner =    0.700

     atomic species   valence    mass     pseudopotential
        O0             6.00    15.99940     O ( 1.00)
        Mo1           14.00    95.94000     Mo( 1.00)
        H2             1.00     1.00794     H ( 1.00)

     Simplified LDA+U calculation (l_max = 2) with parameters (eV):
     atomic species    L          U    alpha       J0     beta
        Mo1            2     1.0000   0.0000   0.0000   0.0000

     No symmetry found

   Cartesian axes

     site n.     atom                  positions (alat units)
         1           O0  tau(   1) = (   0.0000000   0.0000000   1.8465574  )
         2           O0  tau(   2) = (   0.0000000   0.6410583   1.8808271  )
         3           Mo1 tau(   3) = (   0.2500000   0.6410583   2.1650231  )
         4           Mo1 tau(   4) = (   0.0000000   0.0000000   2.2064633  )
         5           O0  tau(   5) = (   0.2500000   1.0000510   2.1927158  )
         6           O0  tau(   6) = (   0.2500000   0.2820657   2.1921224  )
         7           O0  tau(   7) = (   0.0000000   0.6410583   2.4520379  )
         8           O0  tau(   8) = (   0.0000000   0.0000000   2.5658746  )
         9           Mo1 tau(   9) = (   0.2500000   0.0000000   2.8596642  )
        10           Mo1 tau(  10) = (   0.0000000   0.6410583   2.7884050  )
        11           O0  tau(  11) = (   0.2500000   0.9231240   2.8369661  )
        12           O0  tau(  12) = (   0.2500000   0.3589927   2.8372628  )
        13           O0  tau(  13) = (   0.0000000   0.0000000   3.1104807  )
        14           O0  tau(  14) = (   0.5000000   0.0000000   1.8465574  )
        15           O0  tau(  15) = (   0.5000000   0.6410583   1.8808271  )
        16           Mo1 tau(  16) = (   0.7500000   0.6410583   2.1650231  )
        17           Mo1 tau(  17) = (   0.5000000   0.0000000   2.2064633  )
        18           O0  tau(  18) = (   0.7500000   1.0000510   2.1927158  )
        19           O0  tau(  19) = (   0.7500000   0.2820657   2.1921224  )
        20           O0  tau(  20) = (   0.5000000   0.6410583   2.4520379  )
        21           O0  tau(  21) = (   0.5000000   0.0000000   2.5658746  )
        22           Mo1 tau(  22) = (   0.7500000   0.0000000   2.8596642  )
        23           Mo1 tau(  23) = (   0.5000000   0.6410583   2.7884050  )
        24           O0  tau(  24) = (   0.7500000   0.9231240   2.8369661  )
        25           O0  tau(  25) = (   0.7500000   0.3589927   2.8372628  )
        26           O0  tau(  26) = (   0.5000000   0.0000000   3.1104807  )
        27           H2  tau(  27) = (  -0.0004900   0.7868222   1.7746059  )
        28           H2  tau(  28) = (   0.4995100   0.7868222   1.7746059  )
        29           H2  tau(  29) = (   0.1657500   0.0265270   1.7749026  )
        30           H2  tau(  30) = (   0.6657500   0.0265270   1.7749026  )

     number of k points=    10  Methfessel-Paxton smearing, width (Ry)=  0.0100
                       cart. coord. in units 2pi/alat
        k(    1) = (   0.0000000   0.0000000   0.0000000), wk =   0.1250000
        k(    2) = (   0.0000000   0.1949901   0.0000000), wk =   0.2500000
        k(    3) = (   0.0000000  -0.3899801   0.0000000), wk =   0.1250000
        k(    4) = (   0.2500000   0.0000000   0.0000000), wk =   0.2500000
        k(    5) = (   0.2500000   0.1949901   0.0000000), wk =   0.2500000
        k(    6) = (   0.2500000  -0.3899801   0.0000000), wk =   0.2500000
        k(    7) = (  -0.5000000   0.0000000   0.0000000), wk =   0.1250000
        k(    8) = (  -0.5000000   0.1949901   0.0000000), wk =   0.2500000
        k(    9) = (  -0.5000000  -0.3899801   0.0000000), wk =   0.1250000
        k(   10) = (  -0.2500000   0.1949901   0.0000000), wk =   0.2500000

     Largest allocated arrays     est. size (Mb)     dimensions
     Largest temporary arrays     est. size (Mb)     dimensions

     Check: negative/imaginary core charge=   -0.000003    0.000000

     Initial potential from superposition of free atoms
     Check: negative starting charge=   -0.002478

     starting charge  223.99143, renormalised to  224.00000

     negative rho (up, down):  0.248E-02 0.000E+00
     Number of +U iterations with fixed ns =  0
     Starting occupations:
 --- enter write_ns ---
 LDA+U parameters:
U( 2)     =  1.00000000
alpha( 2) =  0.00000000
atom    3   Tr[ns(na)] =   5.00000
    eigenvalues:
  0.500  0.500  0.500  0.500  0.500
    eigenvectors:
  1.000  0.000  0.000  0.000  0.000
  0.000  1.000  0.000  0.000  0.000
  0.000  0.000  1.000  0.000  0.000
  0.000  0.000  0.000  1.000  0.000
  0.000  0.000  0.000  0.000  1.000
    occupations:
  0.500  0.000  0.000  0.000  0.000
  0.000  0.500  0.000  0.000  0.000
  0.000  0.000  0.500  0.000  0.000
  0.000  0.000  0.000  0.500  0.000
  0.000  0.000  0.000  0.000  0.500
atom    4   Tr[ns(na)] =   5.00000
    eigenvalues:
  0.500  0.500  0.500  0.500  0.500
    eigenvectors:
  1.000  0.000  0.000  0.000  0.000
  0.000  1.000  0.000  0.000  0.000
  0.000  0.000  1.000  0.000  0.000
  0.000  0.000  0.000  1.000  0.000
  0.000  0.000  0.000  0.000  1.000
    occupations:
  0.500  0.000  0.000  0.000  0.000
  0.000  0.500  0.000  0.000  0.000
  0.000  0.000  0.500  0.000  0.000
  0.000  0.000  0.000  0.500  0.000
  0.000  0.000  0.000  0.000  0.500
atom    9   Tr[ns(na)] =   5.00000
    eigenvalues:
  0.500  0.500  0.500  0.500  0.500
    eigenvectors:
  1.000  0.000  0.000  0.000  0.000
  0.000  1.000  0.000  0.000  0.000
  0.000  0.000  1.000  0.000  0.000
  0.000  0.000  0.000  1.000  0.000
  0.000  0.000  0.000  0.000  1.000
    occupations:
  0.500  0.000  0.000  0.000  0.000
  0.000  0.500  0.000  0.000  0.000
  0.000  0.000  0.500  0.000  0.000
  0.000  0.000  0.000  0.500  0.000
  0.000  0.000  0.000  0.000  0.500
atom   10   Tr[ns(na)] =   5.00000
    eigenvalues:
  0.500  0.500  0.500  0.500  0.500
    eigenvectors:
  1.000  0.000  0.000  0.000  0.000
  0.000  1.000  0.000  0.000  0.000
  0.000  0.000  1.000  0.000  0.000
  0.000  0.000  0.000  1.000  0.000
  0.000  0.000  0.000  0.000  1.000
    occupations:
  0.500  0.000  0.000  0.000  0.000
  0.000  0.500  0.000  0.000  0.000
  0.000  0.000  0.500  0.000  0.000
  0.000  0.000  0.000  0.500  0.000
  0.000  0.000  0.000  0.000  0.500
atom   16   Tr[ns(na)] =   5.00000
    eigenvalues:
  0.500  0.500  0.500  0.500  0.500
    eigenvectors:
  1.000  0.000  0.000  0.000  0.000
  0.000  1.000  0.000  0.000  0.000
  0.000  0.000  1.000  0.000  0.000
  0.000  0.000  0.000  1.000  0.000
  0.000  0.000  0.000  0.000  1.000
    occupations:
  0.500  0.000  0.000  0.000  0.000
  0.000  0.500  0.000  0.000  0.000
  0.000  0.000  0.500  0.000  0.000
  0.000  0.000  0.000  0.500  0.000
  0.000  0.000  0.000  0.000  0.500
atom   17   Tr[ns(na)] =   5.00000
    eigenvalues:
  0.500  0.500  0.500  0.500  0.500
    eigenvectors:
  1.000  0.000  0.000  0.000  0.000
  0.000  1.000  0.000  0.000  0.000
  0.000  0.000  1.000  0.000  0.000
  0.000  0.000  0.000  1.000  0.000
  0.000  0.000  0.000  0.000  1.000
    occupations:
  0.500  0.000  0.000  0.000  0.000
  0.000  0.500  0.000  0.000  0.000
  0.000  0.000  0.500  0.000  0.000
  0.000  0.000  0.000  0.500  0.000
  0.000  0.000  0.000  0.000  0.500
atom   22   Tr[ns(na)] =   5.00000
    eigenvalues:
  0.500  0.500  0.500  0.500  0.500
    eigenvectors:
  1.000  0.000  0.000  0.000  0.000
  0.000  1.000  0.000  0.000  0.000
  0.000  0.000  1.000  0.000  0.000
  0.000  0.000  0.000  1.000  0.000
  0.000  0.000  0.000  0.000  1.000
    occupations:
[...]
  0.004  0.605  0.004 -0.001 -0.000
  0.001  0.004  0.481 -0.002  0.000
 -0.006 -0.001 -0.002  0.718  0.000
  0.000 -0.000  0.000  0.000  0.523
atom    9   Tr[ns(na)] =   5.82295
    eigenvalues:
  0.528  0.534  0.579  0.586  0.685
    eigenvectors:
  0.000  0.000  0.245  0.000  0.755
  0.000  0.000  0.000  1.000  0.000
  0.000  1.000  0.000  0.000  0.000
  0.000  0.000  0.755  0.000  0.245
  0.999  0.000  0.000  0.000  0.000
    occupations:
  0.659 -0.000  0.001 -0.046 -0.001
 -0.000  0.586 -0.000  0.000 -0.001
  0.001 -0.000  0.534 -0.001  0.000
 -0.046  0.000 -0.001  0.605  0.000
 -0.001 -0.001  0.000  0.000  0.528
atom   10   Tr[ns(na)] =   5.77062
    eigenvalues:
  0.500  0.507  0.512  0.627  0.739
    eigenvectors:
  0.967  0.000  0.025  0.000  0.008
  0.000  0.000  0.000  1.000  0.000
  0.025  0.000  0.975  0.000  0.000
  0.008  0.000  0.000  0.000  0.992
  0.000  1.000  0.000  0.000  0.000
    occupations:
  0.502  0.000 -0.002 -0.022 -0.000
  0.000  0.627 -0.000  0.000 -0.000
 -0.002 -0.000  0.512 -0.000 -0.000
 -0.022  0.000 -0.000  0.737  0.000
 -0.000 -0.000 -0.000  0.000  0.507
atom   16   Tr[ns(na)] =   5.83464
    eigenvalues:
  0.500  0.512  0.557  0.610  0.738
    eigenvectors:
  0.000  0.015  0.360  0.000  0.624
  1.000  0.000  0.000  0.000  0.000
  0.000  0.984  0.008  0.000  0.008
  0.000  0.000  0.632  0.000  0.368
  0.000  0.000  0.000  1.000  0.000
    occupations:
  0.669 -0.000  0.018 -0.087  0.000
 -0.000  0.500 -0.000 -0.000 -0.002
  0.018 -0.000  0.514 -0.009 -0.000
 -0.087 -0.000 -0.009  0.624  0.000
  0.000 -0.002 -0.000  0.000  0.610
atom   17   Tr[ns(na)] =   5.81458
    eigenvalues:
  0.481  0.523  0.579  0.606  0.718
    eigenvectors:
  0.000  0.000  0.971  0.027  0.002
  0.001  0.000  0.027  0.972  0.000
  0.999  0.000  0.000  0.001  0.000
  0.000  0.000  0.002  0.000  0.998
  0.000  1.000  0.000  0.000  0.000
    occupations:
  0.580  0.004  0.001 -0.006  0.000
  0.004  0.605  0.004 -0.001 -0.000
  0.001  0.004  0.481 -0.002  0.000
 -0.006 -0.001 -0.002  0.718  0.000
  0.000 -0.000  0.000  0.000  0.523
atom   22   Tr[ns(na)] =   5.81847
    eigenvalues:
  0.527  0.533  0.579  0.586  0.684
    eigenvectors:
  0.000  0.000  0.244  0.000  0.755
  0.000  0.000  0.000  1.000  0.000
  0.001  0.999  0.000  0.000  0.000
  0.000  0.000  0.756  0.000  0.244
  0.999  0.001  0.000  0.000  0.000
    occupations:
  0.659 -0.000  0.001 -0.046 -0.001
 -0.000  0.586 -0.000  0.000 -0.001
  0.001 -0.000  0.534 -0.001  0.000
 -0.046  0.000 -0.001  0.604  0.000
 -0.001 -0.001  0.000  0.000  0.527
atom   23   Tr[ns(na)] =   5.78598
    eigenvalues:
  0.500  0.508  0.514  0.630  0.741
    eigenvectors:
  0.971  0.000  0.020  0.000  0.008
  0.000  0.000  0.000  1.000  0.000
  0.021  0.000  0.979  0.000  0.000
  0.008  0.000  0.000  0.000  0.992
  0.000  1.000  0.000  0.000  0.000
    occupations:
  0.503  0.000 -0.002 -0.022 -0.000
  0.000  0.630 -0.000  0.000 -0.000
 -0.002 -0.000  0.514 -0.000 -0.000
 -0.022  0.000 -0.000  0.739  0.000
 -0.000 -0.000 -0.000  0.000  0.508
N of occupied +U levels =  46.4862679
 --- exit write_ns ---

     Threshold (ethr) on eigenvalues was too large:
     Diagonalizing with lowered threshold

     Davidson diagonalization with overlap
     ethr =  4.30E-08,  avg # of iterations =  1.0

[...]

     total energy              =   -1699.53102661 Ry
     Harris-Foulkes estimate   =   -1699.53102661 Ry
     estimated scf accuracy    <       0.00000002 Ry

     iteration # 12     ecut=    40.00 Ry     beta=0.70
     Davidson diagonalization with overlap
     ethr =  7.11E-12,  avg # of iterations =  1.0

     negative rho (up, down):  0.351E-02 0.000E+00

     End of self-consistent calculation
 --- enter write_ns ---
 LDA+U parameters:
U( 2)     =  1.00000000
alpha( 2) =  0.00000000
atom    3   Tr[ns(na)] =   5.82986
    eigenvalues:
  0.500  0.512  0.557  0.609  0.738
    eigenvectors:
  0.000  0.015  0.360  0.000  0.624
  1.000  0.000  0.000  0.000  0.000
  0.000  0.984  0.007  0.000  0.008
  0.000  0.000  0.632  0.000  0.368
  0.000  0.000  0.000  1.000  0.000
    occupations:
  0.669  0.000  0.018 -0.087  0.000
  0.000  0.500 -0.000 -0.000 -0.002
  0.018 -0.000  0.514 -0.009 -0.000
 -0.087 -0.000 -0.009  0.623  0.000
  0.000 -0.002 -0.000  0.000  0.609
atom    4   Tr[ns(na)] =   5.81476
    eigenvalues:
  0.481  0.523  0.579  0.606  0.718
    eigenvectors:
  0.000  0.000  0.972  0.026  0.002
  0.001  0.000  0.027  0.972  0.000
  0.999  0.000  0.000  0.001  0.000
  0.000  0.000  0.002  0.000  0.998
  0.000  1.000  0.000  0.000  0.000
    occupations:
  0.580  0.004  0.001 -0.006  0.000
  0.004  0.605  0.004 -0.001 -0.000
  0.001  0.004  0.481 -0.002  0.000
 -0.006 -0.001 -0.002  0.718  0.000
  0.000 -0.000  0.000  0.000  0.523
atom    9   Tr[ns(na)] =   5.82055
    eigenvalues:
  0.527  0.534  0.579  0.586  0.685
    eigenvectors:
  0.000  0.000  0.244  0.000  0.756
  0.000  0.000  0.000  1.000  0.000
  0.000  0.999  0.000  0.000  0.000
  0.000  0.000  0.756  0.000  0.244
  0.999  0.000  0.000  0.000  0.000
    occupations:
  0.659 -0.000  0.001 -0.046 -0.001
 -0.000  0.586 -0.000  0.000 -0.001
  0.001 -0.000  0.534 -0.001  0.000
 -0.046  0.000 -0.001  0.605  0.000
 -0.001 -0.001  0.000  0.000  0.527
atom   10   Tr[ns(na)] =   5.77787
    eigenvalues:
  0.500  0.507  0.513  0.628  0.740
    eigenvectors:
  0.969  0.000  0.023  0.000  0.008
  0.000  0.000  0.000  1.000  0.000
  0.023  0.000  0.977  0.000  0.000
  0.008  0.000  0.000  0.000  0.992
  0.000  1.000  0.000  0.000  0.000
    occupations:
  0.502  0.000 -0.002 -0.022 -0.000
  0.000  0.628 -0.000  0.000 -0.000
 -0.002 -0.000  0.513 -0.000 -0.000
 -0.022  0.000 -0.000  0.738  0.000
 -0.000 -0.000 -0.000  0.000  0.507
atom   16   Tr[ns(na)] =   5.82984
    eigenvalues:
  0.500  0.512  0.557  0.609  0.738
    eigenvectors:
  0.000  0.015  0.361  0.000  0.624
  1.000  0.000  0.000  0.000  0.000
  0.000  0.984  0.007  0.000  0.008
  0.000  0.000  0.632  0.000  0.368
  0.000  0.000  0.000  1.000  0.000
    occupations:
  0.669 -0.000  0.018 -0.087  0.000
 -0.000  0.500 -0.000 -0.000 -0.002
  0.018 -0.000  0.514 -0.009 -0.000
 -0.087 -0.000 -0.009  0.623  0.000
  0.000 -0.002 -0.000  0.000  0.609
atom   17   Tr[ns(na)] =   5.81475
    eigenvalues:
  0.481  0.523  0.579  0.606  0.718
    eigenvectors:
  0.000  0.000  0.972  0.026  0.002
  0.001  0.000  0.027  0.972  0.000
  0.999  0.000  0.000  0.001  0.000
  0.000  0.000  0.002  0.000  0.998
  0.000  1.000  0.000  0.000  0.000
    occupations:
  0.580  0.004  0.001 -0.006  0.000
  0.004  0.605  0.004 -0.001 -0.000
  0.001  0.004  0.481 -0.002  0.000
 -0.006 -0.001 -0.002  0.718  0.000
  0.000 -0.000  0.000  0.000  0.523
atom   22   Tr[ns(na)] =   5.82057
    eigenvalues:
  0.527  0.534  0.579  0.586  0.685
    eigenvectors:
  0.000  0.000  0.244  0.000  0.756
  0.000  0.000  0.000  1.000  0.000
  0.000  0.999  0.000  0.000  0.000
  0.000  0.000  0.756  0.000  0.244
  0.999  0.000  0.000  0.000  0.000
    occupations:
  0.659 -0.000  0.001 -0.046 -0.001
 -0.000  0.586 -0.000  0.000 -0.001
  0.001 -0.000  0.534 -0.001  0.000
 -0.046  0.000 -0.001  0.605  0.000
 -0.001 -0.001  0.000  0.000  0.527
atom   23   Tr[ns(na)] =   5.77794
    eigenvalues:
  0.500  0.507  0.513  0.628  0.740
    eigenvectors:
  0.969  0.000  0.023  0.000  0.008
  0.000  0.000  0.000  1.000  0.000
  0.023  0.000  0.977  0.000  0.000
  0.008  0.000  0.000  0.000  0.992
  0.000  1.000  0.000  0.000  0.000
    occupations:
  0.502  0.000 -0.002 -0.022 -0.000
  0.000  0.628 -0.000  0.000 -0.000
 -0.002 -0.000  0.513 -0.000 -0.000
 -0.022  0.000 -0.000  0.738  0.000
 -0.000 -0.000 -0.000  0.000  0.507
N of occupied +U levels =  46.4861371
 --- exit write_ns ---

[...]

          k = 0.2500-0.3900 0.0000 ( 29726 PWs)   bands (ev):

[...]

          k =-0.2500 0.1950 0.0000 ( 29746 PWs)   bands (ev):

   -62.3509 -62.2917 -62.2647 -62.2210 -62.2102 -62.1388 -62.1361 -62.0538
   -36.9145 -36.7850 -36.7083 -36.7079 -36.6402 -36.6021 -36.5660 -36.5057
   -36.4678 -36.4463 -36.3855 -36.3779 -36.3385 -36.3272 -36.2945 -36.2934
   -36.2437 -36.2025 -36.1567 -36.1367 -36.1293 -35.8657 -35.8543 -35.7777
   -20.7625 -20.5175 -19.9046 -19.6891 -19.6471 -19.5992 -19.4280 -19.3541
   -19.2631 -19.0850 -19.0419 -18.8656 -18.8146 -18.7960 -18.6433 -18.5873
   -18.0905 -17.9403  -8.7611  -8.6311  -8.0068  -7.7479  -7.6280  -7.6147
    -7.5236  -7.3716  -7.3280  -7.2447  -7.1531  -7.0703  -6.9081  -6.8719
    -6.6360  -6.2830  -6.2126  -6.1080  -6.0822  -5.9385  -5.8395  -5.8299
    -5.6814  -5.5684  -5.4276  -5.3382  -5.2573  -5.2298  -5.0194  -4.8976
    -4.7367  -4.6186  -4.5978  -4.4781  -4.3865  -4.3215  -4.3088  -4.1948
    -4.1720  -4.1092  -4.0569  -3.8776  -3.8005  -3.6908  -3.4937  -3.3560
    -3.3253  -3.2587  -3.1916  -3.0473  -2.9938  -2.7566  -2.6525  -2.4583
    -1.7346  -1.5745  -1.4069  -0.6777  -0.5530  -0.3331  -0.3008   0.1180
     0.1920   0.5556   0.7792   0.8089   0.9905   1.0493   1.1777   1.4046
     1.4558   1.4775   1.6332   1.6456   1.8899   1.9476   1.9876   2.0722
     2.3649   2.4671   3.3382   3.4734   3.6973   3.7060   3.9042   4.0440
     4.3272   4.3671   4.5651   4.6120   4.7182   4.8585   4.9553   5.1862
     5.5403   5.6794   5.7643   5.9008   5.9256   6.0889   6.3011   6.4140
     6.5628   6.6658   6.9652   6.9962   7.1113   7.2780   7.5184   7.6070
     7.9288   7.9381   8.1808   8.2791   8.2885   8.4764   8.6442   8.6497
     8.9129   8.9928   9.0664   9.2894   9.3971   9.4265   9.5073   9.5447
     9.5730   9.6071   9.8351   9.9753  10.0324  10.1807  10.2257  10.2759
    10.4792  10.4856  10.6209  10.7166  10.7342  10.9290  11.0571  11.0835
    11.0860  11.2433  11.5269  11.6040  11.6116  11.7385  11.8018  11.9171
    11.9532  12.0809  12.2671  12.3139  12.3410  12.3690  12.4521  12.5896
    12.6815  12.7410  12.8509  12.8921  12.9687  13.0615  13.1093  13.1894
    13.3214  13.4222  13.4328  13.4947  13.5127  13.6278  13.6671  13.7220
    13.8541  13.8829  13.9636  13.9922  14.1250  14.1552  14.2492  14.3469
    14.3930  14.4499  14.5068  14.5695  14.6092  14.7336  14.8393  14.8493
    14.9496  15.0432  15.0463  15.2069  15.2909  15.3925  15.4941  15.5397
    15.6391  15.6576  15.7509  15.8175  15.8868  15.9500  16.0375  16.0949
    16.1864  16.2685  16.2895  16.3365  16.3718  16.4452  16.5812  16.6925
    16.7121  16.7712  16.7730  16.8871  17.0085  17.0905  17.1814  17.1848
    17.2198  17.3092  17.3437  17.4027  17.4978  17.6805  17.6919  17.7917
    17.8995  17.9139  18.0899  18.0981  18.1825  18.2259  18.3257  18.3528
    18.4170  18.4336  18.5235  18.5520  18.6101  18.7840  18.8653  18.9998
    19.0628  19.1158  19.1411  19.2491  19.2951  19.4970  19.5604  19.6001
    19.7013  19.7707  19.7971  19.9012  19.9658  20.0538  20.1403  20.1427
    20.2023  20.2601  20.3327  20.3668  20.4093  20.4246  20.5034  20.5157
    20.6495  20.6942  20.7353  20.8154  20.9267  20.9673  21.0231  21.0627
    21.1108  21.1942  21.2081  21.2958  21.4272  21.4756  21.5557  21.6435

     the Fermi energy is     0.1148 ev

!    total energy              =   -1699.53102661 Ry
     Harris-Foulkes estimate   =   -1699.53102661 Ry
     estimated scf accuracy    <          3.1E-09 Ry

     The total energy is the sum of the following terms:

     one-electron contribution =  -21423.36868182 Ry
     hartree contribution      =   10733.18081470 Ry
     xc contribution           =    -286.60977993 Ry
     ewald contribution        =    9276.57132350 Ry
     Hubbard energy            =       0.69652256 Ry
     smearing contrib. (-TS)   =      -0.00122561 Ry

     convergence has been achieved in  12 iterations

     Forces acting on atoms (Ry/au):

     negative rho (up, down):  0.351E-02 0.000E+00
     atom    1 type  1   force =    -0.00225229   -0.00529002   -0.00035597
     atom    2 type  1   force =    -0.00005952    0.01013584    0.00036371
     atom    3 type  2   force =    -0.00029092   -0.00572963    0.00025546
     atom    4 type  2   force =    -0.00067354    0.00327157    0.00007977
     atom    5 type  1   force =     0.00168450    0.00053149    0.00007873
     atom    6 type  1   force =     0.00000299   -0.00297331    0.00007966
     atom    7 type  1   force =     0.00023159    0.00054112   -0.00027790
     atom    8 type  1   force =     0.00309880    0.00072811   -0.00098070
     atom    9 type  2   force =    -0.00197856   -0.00048101   -0.00014883
     atom   10 type  2   force =     0.00001655    0.00079719    0.00068884
     atom   11 type  1   force =    -0.00021998   -0.04850525   -0.00016120
     atom   12 type  1   force =     0.00028698    0.04769935   -0.00017558
     atom   13 type  1   force =    -0.00006112    0.00021874    0.00043531
     atom   14 type  1   force =    -0.00224617   -0.00528999   -0.00035921
     atom   15 type  1   force =    -0.00005820    0.01013908    0.00034367
     atom   16 type  2   force =    -0.00033041   -0.00573011    0.00025864
     atom   17 type  2   force =    -0.00067708    0.00327281    0.00007816
     atom   18 type  1   force =     0.00168492    0.00052886    0.00008070
     atom   19 type  1   force =     0.00000108   -0.00297143    0.00008182
     atom   20 type  1   force =     0.00023418    0.00053853   -0.00045986
     atom   21 type  1   force =     0.00309590    0.00072912   -0.00097890
     atom   22 type  2   force =    -0.00197127   -0.00048100   -0.00015138
     atom   23 type  2   force =     0.00001677    0.00079714    0.00085652
     atom   24 type  1   force =    -0.00021329   -0.04850693   -0.00016079
     atom   25 type  1   force =     0.00029511    0.04770040   -0.00017516
     atom   26 type  1   force =    -0.00006865    0.00021812    0.00045281
     atom   27 type  3   force =    -0.00000365   -0.00057034   -0.00042161
     atom   28 type  3   force =    -0.00000387   -0.00057366   -0.00042357
     atom   29 type  3   force =     0.00023154   -0.00037211    0.00054788
     atom   30 type  3   force =     0.00022763   -0.00037269    0.00054899

     Total force =     0.002577     Total SCF correction =     0.000280
     SCF correction compared to forces is large: reduce conv_thr to get better values

     bfgs converged in   3 scf cycles and   2 bfgs steps
     (criteria: energy < 0.10E-03, force < 0.10E-02)

     End of BFGS Geometry Optimization

     Final energy   =   -1699.5310266089 Ry
Begin final coordinates

ATOMIC_POSITIONS (crystal)
O0       0.000000000   0.000000000   0.373426363    0   0   1
O0       0.000000000   0.500000000   0.380366654    0   0   1
Mo1      0.250000000   0.500000000   0.437796422    0   0   1
Mo1      0.000000000   0.000000000   0.446157583    0   0   1
O0       0.250000000   0.780000000   0.443417428    0   0   1
O0       0.250000000   0.220000000   0.443297718    0   0   1
O0       0.000000000   0.500000000   0.495934170    0   0   1
O0       0.000000000   0.000000000   0.518770056    0   0   1
Mo1      0.250000000   0.000000000   0.578321029    0   0   1
Mo1      0.000000000   0.500000000   0.563817723    0   0   1
O0       0.250000000   0.720000000   0.573685576    0   0   1
O0       0.250000000   0.280000000   0.573744367    0   0   1
O0       0.000000000   0.000000000   0.629014629    0   0   1
O0       0.500000000   0.000000000   0.373427110    0   0   1
O0       0.500000000   0.500000000   0.380366186    0   0   1
Mo1      0.750000000   0.500000000   0.437796213    0   0   1
Mo1      0.500000000   0.000000000   0.446157709    0   0   1
O0       0.750000000   0.780000000   0.443417138    0   0   1
O0       0.750000000   0.220000000   0.443297366    0   0   1
O0       0.500000000   0.500000000   0.495939389    0   0   1
O0       0.500000000   0.000000000   0.518769833    0   0   1
Mo1      0.750000000   0.000000000   0.578320279    0   0   1
Mo1      0.500000000   0.500000000   0.563815284    0   0   1
O0       0.750000000   0.720000000   0.573685213    0   0   1
O0       0.750000000   0.280000000   0.573743929    0   0   1
O0       0.500000000   0.000000000   0.629014759    0   0   1
H2      -0.000490588   0.613544244   0.358844643
H2       0.499509459   0.613545137   0.358844447
H2       0.165896289   0.020631120   0.358945374
H2       0.665895286   0.020631041   0.358945411
End final coordinates

     General routines

     Parallel routines
     Hubbard U routines

   This run was terminated on:  12: 1:55   5May2014

   JOB DONE.
Running PBS batch system epilogue script
Job id: 340742.audhumbla.fysik.dtu.dk
Username: zhonxu
Groupname: campgst
Jobname: MoO2/Eads-2-layers/bare-U-1.0
Sessionid: 27566
Queuename: verylong
Accounting:
This job has allocated the following 16 nodes:
a112 a112 a112 a112 a112 a112 a112 a112 a005 a005 a005 a005 a005 a005 a005 a005
Finished epilogue job 340742.audhumbla.fysik.dtu.dk for zhonxu