     Program PWSCF v.5.0.2 (svn rev. 9656) starts on 24Jan2014 at 13:54:36

     Current dimensions of program PWSCF are:
     Max number of different atomic species (ntypx) = 10
     Max number of k-points (npk) =  40000
     Max angular momentum in pseudopotentials (lmaxx) =  3
     Reading input from PtO2-v-1.05.in

     Subspace diagonalization in iterative solution of the eigenvalue problem:
     a serial algorithm will be used

     bravais-lattice index     =            0
     lattice parameter (alat)  =       9.0788  a.u.
     unit-cell volume          =     482.2491 (a.u.)^3
     number of atoms/cell      =            6
     number of atomic types    =            2
     number of electrons       =        56.00
     number of Kohn-Sham states=           84
     kinetic-energy cutoff     =      40.0000  Ry
     charge density cutoff     =     500.0000  Ry
     convergence threshold     =      1.0E-06
     mixing beta               =       0.3000
     number of iterations used =            8  plain     mixing
     Exchange-correlation      = SLA  PW   PBE  PBE ( 1 4 3 4 0)
     EXX-fraction              =        0.00
     nstep                     =           50

     celldm(1)=   9.078804  celldm(2)=   0.000000  celldm(3)=   0.000000
     celldm(4)=   0.000000  celldm(5)=   0.000000  celldm(6)=   0.000000

     crystal axes: (cart. coord. in units of alat)
               a(1) = (   1.000000   0.000000   0.000000 )
               a(2) = (   0.000000   1.000000   0.000000 )
               a(3) = (   0.000000   0.000000   0.644444 )

     reciprocal axes: (cart. coord. in units 2 pi/alat)
               b(1) = (  1.000000  0.000000  0.000000 )
               b(2) = (  0.000000  1.000000  0.000000 )
               b(3) = (  0.000000  0.000000  1.551724 )

     PseudoPot. # 1 for Pt read from file:
     /home/camp/zhonxu/pseudo/pt_pbe_v1.uspp.F.UPF
     MD5 check sum: 4c71d6ad5ef119f1eb26a4d0b7884226
     Pseudo is Ultrasoft + core correction, Zval = 16.0
     Generated by new atomic code, or converted to UPF format
     Using radial grid of  985 points,  6 beta functions with:
                l(1) =   0
                l(2) =   0
                l(3) =   1
                l(4) =   1
                l(5) =   2
                l(6) =   2
     Q(r) pseudized with  8 coefficients,  rinner =    1.300   1.300   1.300
                                                       1.300   1.300

     PseudoPot. # 2 for O  read from file:
     /home/camp/zhonxu/pseudo/o_pbe_v1.01.uspp.F.UPF
     MD5 check sum: 2bcb18d16ea4b960afae9ec6d52f22d2
     Pseudo is Ultrasoft + core correction, Zval =  6.0
     Generated by new atomic code, or converted to UPF format
     Using radial grid of  737 points,  5 beta functions with:
                l(1) =   0
                l(2) =   0
                l(3) =   1
                l(4) =   1
                l(5) =   2
     Q(r) pseudized with  8 coefficients,  rinner =    0.900   0.900   0.900
                                                       0.900   0.900

     atomic species   valence    mass     pseudopotential
        Pt0           16.00   195.08000     Pt( 1.00)
        O1             6.00    15.99940     O ( 1.00)

     Starting magnetic structure
     atomic species   magnetization
        Pt0          0.000
        O1           0.000

      8 Sym. Ops., with inversion, found
          (note:  8 additional sym.ops. were found but ignored
           their fractional translations are incommensurate with FFT grid)

   Cartesian axes

     site n.     atom                  positions (alat units)
         1           Pt0 tau(   1) = (   0.0000000   0.0000000   0.0000000  )
         2           Pt0 tau(   2) = (   0.5000000   0.5000000   0.3222222  )
         3           O1  tau(   3) = (   0.3050000   0.3050000   0.0000000  )
         4           O1  tau(   4) = (  -0.3050000  -0.3050000   0.0000000  )
         5           O1  tau(   5) = (   0.8050000   0.1950000   0.3222222  )
         6           O1  tau(   6) = (   0.1950000   0.8050000   0.3222222  )

     number of k points=    54  Methfessel-Paxton smearing, width (Ry)=  0.0100
                       cart. coord. in units 2pi/alat
        k(    1) = (   0.0000000   0.0000000   0.0000000), wk =   0.0080000
        k(    2) = (   0.0000000   0.0000000   0.3103448), wk =   0.0160000
        k(    3) = (   0.0000000   0.0000000   0.6206897), wk =   0.0160000
        k(    4) = (   0.0000000   0.2000000   0.0000000), wk =   0.0320000
        k(    5) = (   0.0000000   0.2000000   0.3103448), wk =   0.0640000
        k(    6) = (   0.0000000   0.2000000   0.6206897), wk =   0.0640000
        k(    7) = (   0.0000000   0.4000000   0.0000000), wk =   0.0320000
        k(    8) = (   0.0000000   0.4000000   0.3103448), wk =   0.0640000
        k(    9) = (   0.0000000   0.4000000   0.6206897), wk =   0.0640000
        k(   10) = (   0.2000000   0.2000000   0.0000000), wk =   0.0160000
        k(   11) = (   0.2000000   0.2000000   0.3103448), wk =   0.0320000
        k(   12) = (   0.2000000   0.2000000   0.6206897), wk =   0.0320000
        k(   13) = (   0.2000000   0.4000000   0.0000000), wk =   0.0320000
        k(   14) = (   0.2000000   0.4000000   0.3103448), wk =   0.0640000
        k(   15) = (   0.2000000   0.4000000   0.6206897), wk =   0.0640000
        k(   16) = (   0.4000000   0.4000000   0.0000000), wk =   0.0160000
        k(   17) = (   0.4000000   0.4000000   0.3103448), wk =   0.0320000
        k(   18) = (   0.4000000   0.4000000   0.6206897), wk =   0.0320000
        k(   19) = (  -0.2000000   0.2000000   0.0000000), wk =   0.0160000
        k(   20) = (  -0.2000000   0.2000000  -0.3103448), wk =   0.0320000
        k(   21) = (  -0.2000000   0.2000000  -0.6206897), wk =   0.0320000
        k(   22) = (  -0.2000000   0.4000000   0.0000000), wk =   0.0320000
        k(   23) = (  -0.2000000   0.4000000  -0.3103448), wk =   0.0640000
        k(   24) = (  -0.2000000   0.4000000  -0.6206897), wk =   0.0640000
        k(   25) = (  -0.4000000   0.4000000   0.0000000), wk =   0.0160000
        k(   26) = (  -0.4000000   0.4000000  -0.3103448), wk =   0.0320000
        k(   27) = (  -0.4000000   0.4000000  -0.6206897), wk =   0.0320000
        k(   28) = (   0.0000000   0.0000000   0.0000000), wk =   0.0080000
        k(   29) = (   0.0000000   0.0000000   0.3103448), wk =   0.0160000
        k(   30) = (   0.0000000   0.0000000   0.6206897), wk =   0.0160000
        k(   31) = (   0.0000000   0.2000000   0.0000000), wk =   0.0320000
        k(   32) = (   0.0000000   0.2000000   0.3103448), wk =   0.0640000
        k(   33) = (   0.0000000   0.2000000   0.6206897), wk =   0.0640000
        k(   34) = (   0.0000000   0.4000000   0.0000000), wk =   0.0320000
        k(   35) = (   0.0000000   0.4000000   0.3103448), wk =   0.0640000
        k(   36) = (   0.0000000   0.4000000   0.6206897), wk =   0.0640000
        k(   37) = (   0.2000000   0.2000000   0.0000000), wk =   0.0160000
        k(   38) = (   0.2000000   0.2000000   0.3103448), wk =   0.0320000
        k(   39) = (   0.2000000   0.2000000   0.6206897), wk =   0.0320000
        k(   40) = (   0.2000000   0.4000000   0.0000000), wk =   0.0320000
        k(   41) = (   0.2000000   0.4000000   0.3103448), wk =   0.0640000
        k(   42) = (   0.2000000   0.4000000   0.6206897), wk =   0.0640000
        k(   43) = (   0.4000000   0.4000000   0.0000000), wk =   0.0160000
        k(   44) = (   0.4000000   0.4000000   0.3103448), wk =   0.0320000
        k(   45) = (   0.4000000   0.4000000   0.6206897), wk =   0.0320000
        k(   46) = (  -0.2000000   0.2000000   0.0000000), wk =   0.0160000
        k(   47) = (  -0.2000000   0.2000000  -0.3103448), wk =   0.0320000
        k(   48) = (  -0.2000000   0.2000000  -0.6206897), wk =   0.0320000
        k(   49) = (  -0.2000000   0.4000000   0.0000000), wk =   0.0320000
        k(   50) = (  -0.2000000   0.4000000  -0.3103448), wk =   0.0640000
        k(   51) = (  -0.2000000   0.4000000  -0.6206897), wk =   0.0640000
        k(   52) = (  -0.4000000   0.4000000   0.0000000), wk =   0.0160000
        k(   53) = (  -0.4000000   0.4000000  -0.3103448), wk =   0.0320000
        k(   54) = (  -0.4000000   0.4000000  -0.6206897), wk =   0.0320000

     Largest allocated arrays     est. size (Mb)     dimensions
     Largest temporary arrays     est. size (Mb)     dimensions

     Check: negative/imaginary core charge=   -0.000005    0.000000

     Initial potential from superposition of free atoms
     Check: negative starting charge=(component1):   -0.192216
     Check: negative starting charge=(component2):   -0.192216

     starting charge   54.99997, renormalised to   56.00000

     negative rho (up, down):  0.196E+00 0.196E+00
     Starting wfc are   40 randomized atomic wfcs

     Self-consistent Calculation

     iteration #  1     ecut=    40.00 Ry     beta=0.30
     Davidson diagonalization with overlap
     ethr =  1.00E-02,  avg # of iterations =  6.4

     negative rho (up, down):  0.193E+00 0.193E+00

     total energy              =    -543.91027709 Ry
     Harris-Foulkes estimate   =    -546.35307283 Ry
     estimated scf accuracy    <       5.29609171 Ry

     total magnetization       =    -0.00 Bohr mag/cell
     absolute magnetization    =     0.00 Bohr mag/cell

[...]

     End of self-consistent calculation

 ------ SPIN UP ------------

          k = 0.0000 0.0000 0.0000 (  2031 PWs)   bands (ev):

   -42.6844 -42.6797 -42.5961 -42.5960 -42.5757 -42.5756  -8.3904  -7.3441
    -6.6491  -6.6491   2.6158   2.8593   4.3083   4.3083   4.7538   7.1672
     7.1672   7.5355   7.9252   8.2564   8.2994   8.4441   8.4442   8.7159
     9.3577   9.3577  10.2669  10.5674  11.8601  14.2895  14.2895  14.7594
    15.5957  20.2674  20.2674  21.7101  23.5410  24.1842  26.2960  26.6591
    26.6591  27.8586  28.6480  29.4492  29.4648  30.6434  31.9293  31.9293
    33.0819  33.0819  34.6586  36.2298  36.2642  36.4641  36.4641  37.3539
    37.7760  39.0683  39.3460  40.2711  40.7014  40.7014  40.7955  40.7955
    41.6624  41.6624  42.5888  44.4176  45.0533  46.6552  46.6552  47.3357
    48.4318  48.4318  48.6062  48.9977  49.3389  49.3389  49.5423  49.7928
    49.8420  50.4747  50.8974  55.0945

[...]

          k =-0.2000 0.2000 0.0000 (  2051 PWs)   bands (ev):

[...]

 ------ SPIN DOWN ----------

[...]

     the Fermi energy is    11.4129 ev

!    total energy              =    -544.91749931 Ry
     Harris-Foulkes estimate   =    -544.91749789 Ry
     estimated scf accuracy    <       0.00000002 Ry

     The total energy is the sum of the following terms:

     one-electron contribution =    -151.24238909 Ry
     hartree contribution      =     110.74690477 Ry
     xc contribution           =    -137.01028332 Ry
     ewald contribution        =    -367.41130630 Ry
     smearing contrib. (-TS)   =      -0.00042538 Ry

[...]

     convergence has been achieved in  11 iterations

     Forces acting on atoms (Ry/au):

     negative rho (up, down):  0.197E+00 0.197E+00
     atom    1 type  1   force =     0.00000000    0.00000000    0.00000000
[...]
        k(    8) = (   0.0000021   0.4108040   0.2942356), wk =   0.0640000
        k(    9) = (   0.0000021   0.4108040   0.5884712), wk =   0.0640000
        k(   10) = (   0.2054030   0.2054030   0.0000000), wk =   0.0160000
        k(   11) = (   0.2054030   0.2054030   0.2942356), wk =   0.0320000
        k(   12) = (   0.2054030   0.2054030   0.5884712), wk =   0.0320000
        k(   13) = (   0.2054040   0.4108050   0.0000000), wk =   0.0320000
        k(   14) = (   0.2054040   0.4108050   0.2942356), wk =   0.0640000
        k(   15) = (   0.2054040   0.4108050   0.5884712), wk =   0.0640000
        k(   16) = (   0.4108060   0.4108060   0.0000000), wk =   0.0160000
        k(   17) = (   0.4108060   0.4108060   0.2942356), wk =   0.0320000
        k(   18) = (   0.4108060   0.4108060   0.5884712), wk =   0.0320000
        k(   19) = (  -0.2054009   0.2054009   0.0000000), wk =   0.0160000
        k(   20) = (  -0.2054009   0.2054009  -0.2942356), wk =   0.0320000
        k(   21) = (  -0.2054009   0.2054009  -0.5884712), wk =   0.0320000
        k(   22) = (  -0.2053999   0.4108029   0.0000000), wk =   0.0320000
        k(   23) = (  -0.2053999   0.4108029  -0.2942356), wk =   0.0640000
        k(   24) = (  -0.2053999   0.4108029  -0.5884712), wk =   0.0640000
        k(   25) = (  -0.4108019   0.4108019   0.0000000), wk =   0.0160000
        k(   26) = (  -0.4108019   0.4108019  -0.2942356), wk =   0.0320000
        k(   27) = (  -0.4108019   0.4108019  -0.5884712), wk =   0.0320000
        k(   28) = (   0.0000000   0.0000000   0.0000000), wk =   0.0080000
        k(   29) = (   0.0000000   0.0000000   0.2942356), wk =   0.0160000
        k(   30) = (   0.0000000   0.0000000   0.5884712), wk =   0.0160000
        k(   31) = (   0.0000010   0.2054020   0.0000000), wk =   0.0320000
        k(   32) = (   0.0000010   0.2054020   0.2942356), wk =   0.0640000
        k(   33) = (   0.0000010   0.2054020   0.5884712), wk =   0.0640000
        k(   34) = (   0.0000021   0.4108040   0.0000000), wk =   0.0320000
        k(   35) = (   0.0000021   0.4108040   0.2942356), wk =   0.0640000
        k(   36) = (   0.0000021   0.4108040   0.5884712), wk =   0.0640000
        k(   37) = (   0.2054030   0.2054030   0.0000000), wk =   0.0160000
        k(   38) = (   0.2054030   0.2054030   0.2942356), wk =   0.0320000
        k(   39) = (   0.2054030   0.2054030   0.5884712), wk =   0.0320000
        k(   40) = (   0.2054040   0.4108050   0.0000000), wk =   0.0320000
        k(   41) = (   0.2054040   0.4108050   0.2942356), wk =   0.0640000
        k(   42) = (   0.2054040   0.4108050   0.5884712), wk =   0.0640000
        k(   43) = (   0.4108060   0.4108060   0.0000000), wk =   0.0160000
        k(   44) = (   0.4108060   0.4108060   0.2942356), wk =   0.0320000
        k(   45) = (   0.4108060   0.4108060   0.5884712), wk =   0.0320000
        k(   46) = (  -0.2054009   0.2054009   0.0000000), wk =   0.0160000
        k(   47) = (  -0.2054009   0.2054009  -0.2942356), wk =   0.0320000
        k(   48) = (  -0.2054009   0.2054009  -0.5884712), wk =   0.0320000
        k(   49) = (  -0.2053999   0.4108029   0.0000000), wk =   0.0320000
        k(   50) = (  -0.2053999   0.4108029  -0.2942356), wk =   0.0640000
        k(   51) = (  -0.2053999   0.4108029  -0.5884712), wk =   0.0640000
        k(   52) = (  -0.4108019   0.4108019   0.0000000), wk =   0.0160000
        k(   53) = (  -0.4108019   0.4108019  -0.2942356), wk =   0.0320000
        k(   54) = (  -0.4108019   0.4108019  -0.5884712), wk =   0.0320000

     Check: negative/imaginary core charge=   -0.000005    0.000000
     Check: negative starting charge=(component1):   -0.385568

[...]

     Threshold (ethr) on eigenvalues was too large:
     Diagonalizing with lowered threshold

     Davidson diagonalization with overlap
     ethr =  3.16E-09,  avg # of iterations =  2.0

[...]

     Volume is kept fixed: isostatic pressure set to zero

     bfgs converged in   7 scf cycles and   6 bfgs steps
     (criteria: energy < 0.10E-03, force < 0.10E-02, cell < 0.50E+00)

     End of BFGS Geometry Optimization

     Final enthalpy =    -544.9308528632 Ry
Begin final coordinates
     new unit-cell volume =    482.24915 a.u.^3 (    71.46195 Ang^3 )

CELL_PARAMETERS (alat=  9.07880445)
   0.973700448  -0.000004905   0.000000000
  -0.000004905   0.973700448   0.000000000
   0.000000000   0.000000000   0.679727350

ATOMIC_POSITIONS (crystal)
Pt0      0.000000000   0.000000000   0.000000000    0   0   0
Pt0      0.500000000   0.500000000   0.500000000    0   0   0
O1       0.308543844   0.308543844   0.000000000    1   1   0
O1      -0.308543844  -0.308543844   0.000000000    1   1   0
O1       0.808548542   0.191451458   0.500000000    1   1   0
O1       0.191451458   0.808548542   0.500000000    1   1   0
End final coordinates

     A final scf calculation at the relaxed structure.
     The G-vectors are recalculated for the final unit cell
     Results may differ from those at the preceding step.

     bravais-lattice index     =            0
     lattice parameter (alat)  =       9.0788  a.u.
     unit-cell volume          =     482.2491 (a.u.)^3
     number of atoms/cell      =            6
     number of atomic types    =            2
     number of electrons       =        56.00
     number of Kohn-Sham states=           84
     kinetic-energy cutoff     =      40.0000  Ry
     charge density cutoff     =     500.0000  Ry
     convergence threshold     =      1.0E-08
     mixing beta               =       0.3000
     number of iterations used =            8  plain     mixing
     Exchange-correlation      = SLA  PW   PBE  PBE ( 1 4 3 4 0)
     EXX-fraction              =        0.00

     celldm(1)=   9.078804  celldm(2)=   0.000000  celldm(3)=   0.000000
     celldm(4)=   0.000000  celldm(5)=   0.000000  celldm(6)=   0.000000

     crystal axes: (cart. coord. in units of alat)
               a(1) = (   0.973700  -0.000005   0.000000 )
               a(2) = (  -0.000005   0.973700   0.000000 )
               a(3) = (   0.000000   0.000000   0.679727 )

     reciprocal axes: (cart. coord. in units 2 pi/alat)
               b(1) = (  1.027010  0.000005 -0.000000 )
               b(2) = (  0.000005  1.027010 -0.000000 )
               b(3) = ( -0.000000 -0.000000  1.471178 )

     PseudoPot. # 1 for Pt read from file:
     /home/camp/zhonxu/pseudo/pt_pbe_v1.uspp.F.UPF
     MD5 check sum: 4c71d6ad5ef119f1eb26a4d0b7884226
     Pseudo is Ultrasoft + core correction, Zval = 16.0
     Generated by new atomic code, or converted to UPF format
     Using radial grid of  985 points,  6 beta functions with:
                l(1) =   0
                l(2) =   0
                l(3) =   1
                l(4) =   1
                l(5) =   2
                l(6) =   2
     Q(r) pseudized with  8 coefficients,  rinner =    1.300   1.300   1.300
                                                       1.300   1.300

     PseudoPot. # 2 for O  read from file:
     /home/camp/zhonxu/pseudo/o_pbe_v1.01.uspp.F.UPF
     MD5 check sum: 2bcb18d16ea4b960afae9ec6d52f22d2
     Pseudo is Ultrasoft + core correction, Zval =  6.0
     Generated by new atomic code, or converted to UPF format
     Using radial grid of  737 points,  5 beta functions with:
                l(1) =   0
                l(2) =   0
                l(3) =   1
                l(4) =   1
                l(5) =   2
     Q(r) pseudized with  8 coefficients,  rinner =    0.900   0.900   0.900
                                                       0.900   0.900

     atomic species   valence    mass     pseudopotential
        Pt0           16.00   195.08000     Pt( 1.00)
        O1             6.00    15.99940     O ( 1.00)

     Starting magnetic structure
     atomic species   magnetization
        Pt0          0.000
        O1           0.000

      8 Sym. Ops., with inversion, found
          (note:  8 additional sym.ops. were found but ignored
           their fractional translations are incommensurate with FFT grid)

   Cartesian axes

     site n.     atom                  positions (alat units)
         1           Pt0 tau(   1) = (   0.0000000   0.0000000   0.0000000  )
         2           Pt0 tau(   2) = (   0.4868478   0.4868478   0.3398637  )
         3           O1  tau(   3) = (   0.3004278   0.3004278   0.0000000  )
         4           O1  tau(   4) = (  -0.3004278  -0.3004278   0.0000000  )
         5           O1  tau(   5) = (   0.7872831   0.1864124   0.3398637  )
         6           O1  tau(   6) = (   0.1864124   0.7872831   0.3398637  )

     number of k points=    54  Methfessel-Paxton smearing, width (Ry)=  0.0100
                       cart. coord. in units 2pi/alat
        k(    1) = (   0.0000000   0.0000000   0.0000000), wk =   0.0080000
        k(    2) = (   0.0000000   0.0000000   0.2942356), wk =   0.0160000
        k(    3) = (   0.0000000   0.0000000   0.5884712), wk =   0.0160000
        k(    4) = (   0.0000010   0.2054020   0.0000000), wk =   0.0320000
        k(    5) = (   0.0000010   0.2054020   0.2942356), wk =   0.0640000
        k(    6) = (   0.0000010   0.2054020   0.5884712), wk =   0.0640000
        k(    7) = (   0.0000021   0.4108040   0.0000000), wk =   0.0320000
        k(    8) = (   0.0000021   0.4108040   0.2942356), wk =   0.0640000
        k(    9) = (   0.0000021   0.4108040   0.5884712), wk =   0.0640000
        k(   10) = (   0.2054030   0.2054030   0.0000000), wk =   0.0160000
        k(   11) = (   0.2054030   0.2054030   0.2942356), wk =   0.0320000
        k(   12) = (   0.2054030   0.2054030   0.5884712), wk =   0.0320000
        k(   13) = (   0.2054040   0.4108050   0.0000000), wk =   0.0320000
        k(   14) = (   0.2054040   0.4108050   0.2942356), wk =   0.0640000
        k(   15) = (   0.2054040   0.4108050   0.5884712), wk =   0.0640000
        k(   16) = (   0.4108060   0.4108060   0.0000000), wk =   0.0160000
        k(   17) = (   0.4108060   0.4108060   0.2942356), wk =   0.0320000
        k(   18) = (   0.4108060   0.4108060   0.5884712), wk =   0.0320000
        k(   19) = (  -0.2054009   0.2054009   0.0000000), wk =   0.0160000
        k(   20) = (  -0.2054009   0.2054009  -0.2942356), wk =   0.0320000
        k(   21) = (  -0.2054009   0.2054009  -0.5884712), wk =   0.0320000
        k(   22) = (  -0.2053999   0.4108029   0.0000000), wk =   0.0320000
        k(   23) = (  -0.2053999   0.4108029  -0.2942356), wk =   0.0640000
        k(   24) = (  -0.2053999   0.4108029  -0.5884712), wk =   0.0640000
        k(   25) = (  -0.4108019   0.4108019   0.0000000), wk =   0.0160000
        k(   26) = (  -0.4108019   0.4108019  -0.2942356), wk =   0.0320000
        k(   27) = (  -0.4108019   0.4108019  -0.5884712), wk =   0.0320000
        k(   28) = (   0.0000000   0.0000000   0.0000000), wk =   0.0080000
        k(   29) = (   0.0000000   0.0000000   0.2942356), wk =   0.0160000
        k(   30) = (   0.0000000   0.0000000   0.5884712), wk =   0.0160000
        k(   31) = (   0.0000010   0.2054020   0.0000000), wk =   0.0320000
        k(   32) = (   0.0000010   0.2054020   0.2942356), wk =   0.0640000
        k(   33) = (   0.0000010   0.2054020   0.5884712), wk =   0.0640000
        k(   34) = (   0.0000021   0.4108040   0.0000000), wk =   0.0320000
        k(   35) = (   0.0000021   0.4108040   0.2942356), wk =   0.0640000
        k(   36) = (   0.0000021   0.4108040   0.5884712), wk =   0.0640000
        k(   37) = (   0.2054030   0.2054030   0.0000000), wk =   0.0160000
        k(   38) = (   0.2054030   0.2054030   0.2942356), wk =   0.0320000
        k(   39) = (   0.2054030   0.2054030   0.5884712), wk =   0.0320000
        k(   40) = (   0.2054040   0.4108050   0.0000000), wk =   0.0320000
        k(   41) = (   0.2054040   0.4108050   0.2942356), wk =   0.0640000
        k(   42) = (   0.2054040   0.4108050   0.5884712), wk =   0.0640000
        k(   43) = (   0.4108060   0.4108060   0.0000000), wk =   0.0160000
        k(   44) = (   0.4108060   0.4108060   0.2942356), wk =   0.0320000
        k(   45) = (   0.4108060   0.4108060   0.5884712), wk =   0.0320000
        k(   46) = (  -0.2054009   0.2054009   0.0000000), wk =   0.0160000
        k(   47) = (  -0.2054009   0.2054009  -0.2942356), wk =   0.0320000
        k(   48) = (  -0.2054009   0.2054009  -0.5884712), wk =   0.0320000
        k(   49) = (  -0.2053999   0.4108029   0.0000000), wk =   0.0320000
        k(   50) = (  -0.2053999   0.4108029  -0.2942356), wk =   0.0640000
        k(   51) = (  -0.2053999   0.4108029  -0.5884712), wk =   0.0640000
        k(   52) = (  -0.4108019   0.4108019   0.0000000), wk =   0.0160000
        k(   53) = (  -0.4108019   0.4108019  -0.2942356), wk =   0.0320000
        k(   54) = (  -0.4108019   0.4108019  -0.5884712), wk =   0.0320000

     Largest allocated arrays     est. size (Mb)     dimensions
     Largest temporary arrays     est. size (Mb)     dimensions

     Check: negative/imaginary core charge=   -0.000005    0.000000

     Initial potential from superposition of free atoms
     Check: negative starting charge=(component1):   -0.191867
     Check: negative starting charge=(component2):   -0.191867

     starting charge   54.99997, renormalised to   56.00000

     negative rho (up, down):  0.195E+00 0.195E+00
     Starting wfc are   40 randomized atomic wfcs

     Self-consistent Calculation

[...]

     total energy              =    -544.93141267 Ry
     Harris-Foulkes estimate   =    -544.93141199 Ry
     estimated scf accuracy    <       0.00000002 Ry

[...]

     iteration # 12     ecut=    40.00 Ry     beta=0.30
     Davidson diagonalization with overlap
     ethr =  3.37E-11,  avg # of iterations =  1.1

     negative rho (up, down):  0.197E+00 0.197E+00

     End of self-consistent calculation

 ------ SPIN UP ------------

[...]

 ------ SPIN DOWN ----------

[...]

          k = 0.4108 0.4108 0.5885 (  2067 PWs)   bands (ev):

[...]

          k =-0.4108 0.4108-0.5885 (  2067 PWs)   bands (ev):

   -42.6878 -42.6876 -42.5739 -42.5736 -42.4082 -42.4081  -7.2152  -7.1723
    -6.9517  -6.9445   3.9902   4.0343   4.5326   4.6969   4.9782   5.3586
     6.3582   6.4919   7.3634   7.5243   8.3504   8.7638   8.8044   8.9227
     9.7681  10.4145  10.4905  11.0037  11.9355  12.5668  13.3275  13.9214
    19.7077  19.9629  21.2723  21.4303  22.7696  23.2757  24.1035  24.6490
    27.7711  27.8879  29.4956  29.5104  29.6475  30.1619  30.8039  32.1148
    32.2975  32.4681  32.7915  33.9003  36.0299  36.5279  37.2026  37.2761
    38.5892  39.2043  40.2202  41.5184  41.5856  41.9438  42.4776  42.8433
    43.3548  43.6545  44.2235  44.9171  45.3973  45.9343  46.4359  46.8839
    47.4286  47.7648  48.0666  48.5899  49.0685  49.8610  50.1651  50.6380
    51.8909  52.1081  52.4158  53.0967

     the Fermi energy is    11.3854 ev

!    total energy              =    -544.93141333 Ry
     Harris-Foulkes estimate   =    -544.93141267 Ry
     estimated scf accuracy    <          1.2E-09 Ry

     The total energy is the sum of the following terms:

     one-electron contribution =    -146.08534163 Ry
     hartree contribution      =     108.23304581 Ry
     xc contribution           =    -136.93868611 Ry
     ewald contribution        =    -370.14014136 Ry
     smearing contrib. (-TS)   =      -0.00029005 Ry

     total magnetization       =     0.00 Bohr mag/cell
     absolute magnetization    =     0.00 Bohr mag/cell

     convergence has been achieved in  12 iterations

     Forces acting on atoms (Ry/au):

     negative rho (up, down):  0.197E+00 0.197E+00
     atom    1 type  1   force =     0.00000000    0.00000000    0.00000000
     atom    2 type  1   force =     0.00000000    0.00000000    0.00000000
     atom    3 type  2   force =     0.00006499    0.00006499   -0.00000000
     atom    4 type  2   force =    -0.00006499   -0.00006499   -0.00000000
     atom    5 type  2   force =     0.00004501   -0.00004501    0.00000000
     atom    6 type  2   force =    -0.00004501    0.00004501    0.00000000

     Total force =     0.000158     Total SCF correction =     0.000024
     SCF correction compared to forces is large: reduce conv_thr to get better values

     entering subroutine stress ...

     negative rho (up, down):  0.197E+00 0.197E+00
          total   stress  (Ry/bohr**3)                   (kbar)     P= -112.60
  -0.00077709   0.00000007   0.00000000       -114.31      0.01      0.00
   0.00000007  -0.00077709   0.00000000          0.01   -114.31      0.00
   0.00000000   0.00000000  -0.00074219          0.00      0.00   -109.18

     General routines

     Parallel routines

   This run was terminated on:  14:49:45  24Jan2014

   JOB DONE.