     Program PWSCF v.5.0.2 (svn rev. 9656) starts on  5Jun2014 at 21:17:12

     Current dimensions of program PWSCF are:
     Max number of different atomic species (ntypx) = 10
     Max number of k-points (npk) =  40000
     Max angular momentum in pseudopotentials (lmaxx) =  3
     Reading input from pwscf.in
Warning: card &CELL ignored
Warning: card / ignored

     Subspace diagonalization in iterative solution of the eigenvalue problem:
     a serial algorithm will be used

     bravais-lattice index     =            0
     lattice parameter (alat)  =      11.7541  a.u.
     unit-cell volume          =    7139.8207 (a.u.)^3
     number of atoms/cell      =           33
     number of atomic types    =            3
     number of electrons       =       245.00
     number of Kohn-Sham states=          367
     kinetic-energy cutoff     =      40.0000  Ry
     charge density cutoff     =     500.0000  Ry
     convergence threshold     =      1.0E-06
     mixing beta               =       0.3000
     number of iterations used =            8  plain     mixing
     Exchange-correlation      = SLA  PW   PBE  PBE ( 1 4 3 4 0)
     EXX-fraction              =        0.00
     nstep                     =           50

     celldm(1)=  11.754097  celldm(2)=   0.000000  celldm(3)=   0.000000
     celldm(4)=   0.000000  celldm(5)=   0.000000  celldm(6)=   0.000000

     crystal axes: (cart. coord. in units of alat)
               a(1) = (   1.000000   0.000000   0.000000 )
               a(2) = (   0.000000   1.034513   0.000000 )
               a(3) = (   0.000000   0.000000   4.249947 )

     reciprocal axes: (cart. coord. in units 2 pi/alat)
               b(1) = (  1.000000  0.000000  0.000000 )
               b(2) = (  0.000000  0.966638  0.000000 )
               b(3) = (  0.000000  0.000000  0.235297 )

     PseudoPot. # 1 for O  read from file:
     /home/camp/zhonxu/pseudo/o_pbe_v1.01.uspp.F.UPF
     MD5 check sum: 2bcb18d16ea4b960afae9ec6d52f22d2
     Pseudo is Ultrasoft + core correction, Zval =  6.0
     Generated by new atomic code, or converted to UPF format
     Using radial grid of  737 points,  5 beta functions with:
                l(1) =   0
                l(2) =   0
                l(3) =   1
                l(4) =   1
                l(5) =   2
     Q(r) pseudized with  8 coefficients,  rinner =    0.900   0.900   0.900
                                                       0.900   0.900

     PseudoPot. # 2 for Rh read from file:
     /home/camp/zhonxu/pseudo/rh_pbe_v1.uspp.F.UPF
     MD5 check sum: 37b626987ad0dd8ec6bf4cc9ef289918
     Pseudo is Ultrasoft + core correction, Zval = 15.0
     Generated by new atomic code, or converted to UPF format
     Using radial grid of  969 points,  7 beta functions with:
                l(1) =   0
                l(2) =   0
                l(3) =   1
                l(4) =   1
                l(5) =   2
                l(6) =   2
                l(7) =   2
     Q(r) pseudized with  6 coefficients,  rinner =    1.050   1.050   1.050
                                                       1.050   1.050

     PseudoPot. # 3 for H  read from file:
     /home/camp/zhonxu/pseudo/h_pbe_v1.uspp.F.UPF
     MD5 check sum: 3408e3ff4ec8b0a4e358431e7e038a48
     Pseudo is Ultrasoft, Zval =  1.0
     Generated by new atomic code, or converted to UPF format
     Using radial grid of  615 points,  2 beta functions with:
                l(1) =   0
                l(2) =   0
     Q(r) pseudized with  8 coefficients,  rinner =    0.700

     atomic species   valence    mass     pseudopotential
        O0             6.00    15.99940     O ( 1.00)
        Rh1           15.00   102.90550     Rh( 1.00)
        H2             1.00     1.00794     H ( 1.00)

     Simplified LDA+U calculation (l_max = 2) with parameters (eV):
     atomic species    L          U    alpha       J0     beta
        Rh1            2     1.5000   0.0000   0.0000   0.0000

     No symmetry found

   Cartesian axes

     site n.     atom                  positions (alat units)
         1           O0  tau(   1) = (   0.0000000   0.0000000   1.6055876  )
         2           O0  tau(   2) = (   0.0000000   0.5172566   1.7058013  )
         3           Rh1 tau(   3) = (   0.2500000   0.5172566   1.9245886  )
         4           Rh1 tau(   4) = (   0.0000000   0.0000000   1.9225486  )
         5           O0  tau(   5) = (   0.2500000   0.8379556   1.9216561  )
         6           O0  tau(   6) = (   0.2500000   0.1965575   1.9210611  )
         7           O0  tau(   7) = (   0.0000000   0.5172566   2.1183012  )
         8           O0  tau(   8) = (   0.0000000   0.0000000   2.2433346  )
         9           Rh1 tau(   9) = (   0.2500000   0.0000000   2.4442296  )
        10           Rh1 tau(  10) = (   0.0000000   0.5172566   2.4248924  )
        11           O0  tau(  11) = (   0.2500000   0.7138141   2.4423597  )
        12           O0  tau(  12) = (   0.2500000   0.3206991   2.4526445  )
        13           O0  tau(  13) = (   0.0000000   0.0000000   2.6373472  )
        14           O0  tau(  14) = (   0.5000000   0.0000000   1.6058426  )
        15           O0  tau(  15) = (   0.5000000   0.5172566   1.7065663  )
        16           Rh1 tau(  16) = (   0.7500000   0.5172566   1.9245461  )
        17           Rh1 tau(  17) = (   0.5000000   0.0000000   1.9225486  )
        18           O0  tau(  18) = (   0.7500000   0.8379556   1.9215286  )
        19           O0  tau(  19) = (   0.7500000   0.1965575   1.9212311  )
        20           O0  tau(  20) = (   0.5000000   0.5172566   2.1254411  )
        21           O0  tau(  21) = (   0.5000000   0.0000000   2.2428246  )
        22           Rh1 tau(  22) = (   0.7500000   0.0000000   2.4442296  )
        23           Rh1 tau(  23) = (   0.5000000   0.5172566   2.4566820  )
        24           O0  tau(  24) = (   0.7500000   0.7138141   2.4423172  )
        25           O0  tau(  25) = (   0.7500000   0.3206991   2.4526445  )
        26           O0  tau(  26) = (   0.5000000   0.0000000   2.6350523  )
        27           H2  tau(  27) = (   0.0000500   0.6607849   1.6355072  )
        28           H2  tau(  28) = (   0.4999200   0.6608884   1.6361872  )
        29           H2  tau(  29) = (   0.1477700   0.0372011   1.5603681  )
        30           H2  tau(  30) = (   0.6484400   0.0346148   1.5604531  )
        31           O0  tau(  31) = (   0.4997300   0.5556577   2.7651007  )
        32           O0  tau(  32) = (   0.5003300   0.3573415   2.8834192  )
        33           H2  tau(  33) = (   0.4999300   0.4160398   3.0312324  )

     number of k points=    10  Methfessel-Paxton smearing, width (Ry)=  0.0100
                       cart. coord. in units 2pi/alat
        k(    1) = (   0.0000000   0.0000000   0.0000000), wk =   0.1250000
        k(    2) = (   0.0000000   0.2416596   0.0000000), wk =   0.2500000
        k(    3) = (   0.0000000  -0.4833191   0.0000000), wk =   0.1250000
        k(    4) = (   0.2500000   0.0000000   0.0000000), wk =   0.2500000
        k(    5) = (   0.2500000   0.2416596   0.0000000), wk =   0.2500000
        k(    6) = (   0.2500000  -0.4833191   0.0000000), wk =   0.2500000
        k(    7) = (  -0.5000000   0.0000000   0.0000000), wk =   0.1250000
        k(    8) = (  -0.5000000   0.2416596   0.0000000), wk =   0.2500000
        k(    9) = (  -0.5000000  -0.4833191   0.0000000), wk =   0.1250000
        k(   10) = (  -0.2500000   0.2416596   0.0000000), wk =   0.2500000

     Largest allocated arrays     est. size (Mb)     dimensions
     Largest temporary arrays     est. size (Mb)     dimensions

     Check: negative/imaginary core charge=   -0.000003    0.000000

     Initial potential from superposition of free atoms
     Check: negative starting charge=   -0.646062

     starting charge  240.99914, renormalised to  245.00000

     negative rho (up, down):  0.657E+00 0.000E+00
     Number of +U iterations with fixed ns =  0
     Starting occupations:
 --- enter write_ns ---
 LDA+U parameters:
U( 2)     =  1.50000000
alpha( 2) =  0.00000000
atom    3   Tr[ns(na)] =   7.00000
    eigenvalues:
  0.700  0.700  0.700  0.700  0.700
    eigenvectors:
  1.000  0.000  0.000  0.000  0.000
  0.000  1.000  0.000  0.000  0.000
  0.000  0.000  1.000  0.000  0.000
  0.000  0.000  0.000  1.000  0.000
  0.000  0.000  0.000  0.000  1.000
    occupations:
  0.700  0.000  0.000  0.000  0.000
  0.000  0.700  0.000  0.000  0.000
  0.000  0.000  0.700  0.000  0.000
  0.000  0.000  0.000  0.700  0.000
  0.000  0.000  0.000  0.000  0.700
atom    4   Tr[ns(na)] =   7.00000
    eigenvalues:
  0.700  0.700  0.700  0.700  0.700
    eigenvectors:
  1.000  0.000  0.000  0.000  0.000
  0.000  1.000  0.000  0.000  0.000
  0.000  0.000  1.000  0.000  0.000
  0.000  0.000  0.000  1.000  0.000
  0.000  0.000  0.000  0.000  1.000
    occupations:
  0.700  0.000  0.000  0.000  0.000
  0.000  0.700  0.000  0.000  0.000
  0.000  0.000  0.700  0.000  0.000
  0.000  0.000  0.000  0.700  0.000
  0.000  0.000  0.000  0.000  0.700
atom    9   Tr[ns(na)] =   7.00000
    eigenvalues:
  0.700  0.700  0.700  0.700  0.700
    eigenvectors:
  1.000  0.000  0.000  0.000  0.000
  0.000  1.000  0.000  0.000  0.000
  0.000  0.000  1.000  0.000  0.000
  0.000  0.000  0.000  1.000  0.000
  0.000  0.000  0.000  0.000  1.000
    occupations:
  0.700  0.000  0.000  0.000  0.000
  0.000  0.700  0.000  0.000  0.000
  0.000  0.000  0.700  0.000  0.000
  0.000  0.000  0.000  0.700  0.000
  0.000  0.000  0.000  0.000  0.700
atom   10   Tr[ns(na)] =   7.00000
    eigenvalues:
  0.700  0.700  0.700  0.700  0.700
    eigenvectors:
  1.000  0.000  0.000  0.000  0.000
  0.000  1.000  0.000  0.000  0.000
  0.000  0.000  1.000  0.000  0.000
  0.000  0.000  0.000  1.000  0.000
  0.000  0.000  0.000  0.000  1.000
    occupations:
  0.700  0.000  0.000  0.000  0.000
  0.000  0.700  0.000  0.000  0.000
  0.000  0.000  0.700  0.000  0.000
  0.000  0.000  0.000  0.700  0.000
  0.000  0.000  0.000  0.000  0.700
atom   16   Tr[ns(na)] =   7.00000
    eigenvalues:
  0.700  0.700  0.700  0.700  0.700
    eigenvectors:
  1.000  0.000  0.000  0.000  0.000
  0.000  1.000  0.000  0.000  0.000
  0.000  0.000  1.000  0.000  0.000
  0.000  0.000  0.000  1.000  0.000
  0.000  0.000  0.000  0.000  1.000
    occupations:
  0.700  0.000  0.000  0.000  0.000
  0.000  0.700  0.000  0.000  0.000
  0.000  0.000  0.700  0.000  0.000
  0.000  0.000  0.000  0.700  0.000
  0.000  0.000  0.000  0.000  0.700
atom   17   Tr[ns(na)] =   7.00000
    eigenvalues:
  0.700  0.700  0.700  0.700  0.700
    eigenvectors:
  1.000  0.000  0.000  0.000  0.000
  0.000  1.000  0.000  0.000  0.000
  0.000  0.000  1.000  0.000  0.000
  0.000  0.000  0.000  1.000  0.000
  0.000  0.000  0.000  0.000  1.000
    occupations:
  0.700  0.000  0.000  0.000  0.000
  0.000  0.700  0.000  0.000  0.000
  0.000  0.000  0.700  0.000  0.000
  0.000  0.000  0.000  0.700  0.000
  0.000  0.000  0.000  0.000  0.700
atom   22   Tr[ns(na)] =   7.00000
    eigenvalues:
  0.700  0.700  0.700  0.700  0.700
    eigenvectors:
  1.000  0.000  0.000  0.000  0.000
  0.000  1.000  0.000  0.000  0.000
[...]
 -0.001 -0.000 -0.005  0.001  0.881
atom   10   Tr[ns(na)] =   7.98975
    eigenvalues:
  0.597  0.608  0.902  0.915  0.973
    eigenvectors:
  0.000  0.991  0.001  0.000  0.009
  0.001  0.000  0.000  0.999  0.000
  0.000  0.001  0.999  0.000  0.000
  0.000  0.009  0.000  0.000  0.991
  0.999  0.000  0.000  0.001  0.000
    occupations:
  0.612  0.000  0.007  0.034 -0.000
  0.000  0.915 -0.000  0.000 -0.009
  0.007 -0.000  0.901  0.000  0.000
  0.034  0.000  0.000  0.970  0.000
 -0.000 -0.009  0.000  0.000  0.597
atom   16   Tr[ns(na)] =   7.99395
    eigenvalues:
  0.589  0.610  0.880  0.949  0.968
    eigenvectors:
  0.013  0.190  0.003  0.001  0.794
  0.943  0.057  0.000  0.000  0.000
  0.000  0.000  0.992  0.005  0.003
  0.043  0.754  0.000  0.000  0.203
  0.000  0.000  0.005  0.994  0.001
    occupations:
  0.895  0.005  0.003 -0.144  0.001
  0.005  0.591  0.000  0.003 -0.006
  0.003  0.000  0.880 -0.005 -0.005
 -0.144  0.003 -0.005  0.682 -0.000
  0.001 -0.006 -0.005 -0.000  0.949
atom   17   Tr[ns(na)] =   7.98489
    eigenvalues:
  0.603  0.650  0.858  0.908  0.974
    eigenvectors:
  0.001  0.992  0.000  0.000  0.007
  0.000  0.000  0.044  0.956  0.000
  0.000  0.000  0.956  0.044  0.000
  0.000  0.007  0.000  0.000  0.993
  0.999  0.001  0.000  0.000  0.000
    occupations:
  0.653 -0.004 -0.001  0.027  0.001
 -0.004  0.905  0.010  0.001 -0.001
 -0.001  0.010  0.860 -0.001  0.001
  0.027  0.001 -0.001  0.971  0.000
  0.001 -0.001  0.001  0.000  0.603
atom   22   Tr[ns(na)] =   7.97827
    eigenvalues:
  0.639  0.650  0.843  0.882  0.975
    eigenvectors:
  0.000  0.152  0.001  0.000  0.848
  1.000  0.000  0.000  0.000  0.000
  0.000  0.000  0.984  0.015  0.000
  0.000  0.847  0.000  0.000  0.152
  0.000  0.000  0.015  0.985  0.000
    occupations:
  0.926  0.002  0.001 -0.117 -0.000
  0.002  0.639  0.001 -0.001 -0.000
  0.001  0.001  0.844 -0.005  0.005
 -0.117 -0.001 -0.005  0.699  0.000
 -0.000 -0.000  0.005  0.000  0.881
atom   23   Tr[ns(na)] =   8.00033
    eigenvalues:
  0.602  0.636  0.851  0.941  0.970
    eigenvectors:
  0.000  0.994  0.000  0.003  0.002
  0.001  0.000  0.999  0.000  0.000
  0.000  0.003  0.000  0.996  0.001
  0.000  0.003  0.000  0.000  0.997
  0.999  0.000  0.001  0.000  0.000
    occupations:
  0.638 -0.000  0.017  0.017 -0.000
 -0.000  0.850 -0.001 -0.000 -0.009
  0.017 -0.001  0.940 -0.002  0.000
  0.017 -0.000 -0.002  0.969  0.000
 -0.000 -0.009  0.000  0.000  0.603
N of occupied +U levels =  63.9053494
 --- exit write_ns ---

     Threshold (ethr) on eigenvalues was too large:
     Diagonalizing with lowered threshold

     Davidson diagonalization with overlap
     ethr =  1.42E-08,  avg # of iterations =  3.0

[...]

     total energy              =   -2013.04391371 Ry
     Harris-Foulkes estimate   =   -2013.04391371 Ry
     estimated scf accuracy    <       0.00000001 Ry

     iteration # 15     ecut=    40.00 Ry     beta=0.30
     Davidson diagonalization with overlap
     ethr =  4.30E-12,  avg # of iterations =  1.0

     negative rho (up, down):  0.694E+00 0.000E+00

     End of self-consistent calculation
 --- enter write_ns ---
 LDA+U parameters:
U( 2)     =  1.50000000
alpha( 2) =  0.00000000
atom    3   Tr[ns(na)] =   7.99488
    eigenvalues:
  0.589  0.611  0.880  0.950  0.968
    eigenvectors:
  0.014  0.189  0.003  0.000  0.794
  0.939  0.060  0.000  0.000  0.000
  0.000  0.000  0.988  0.009  0.003
  0.046  0.751  0.000  0.000  0.203
  0.000  0.000  0.009  0.990  0.001
    occupations:
  0.895 -0.006  0.003 -0.144 -0.001
 -0.006  0.591 -0.001 -0.003 -0.006
  0.003 -0.001  0.881 -0.005  0.006
 -0.144 -0.003 -0.005  0.682 -0.000
 -0.001 -0.006  0.006 -0.000  0.949
atom    4   Tr[ns(na)] =   7.98695
    eigenvalues:
  0.602  0.649  0.862  0.907  0.973
    eigenvectors:
  0.001  0.992  0.000  0.000  0.007
  0.000  0.000  0.070  0.930  0.000
  0.000  0.000  0.930  0.070  0.000
  0.000  0.007  0.000  0.000  0.993
  0.999  0.001  0.000  0.000  0.000
    occupations:
  0.652 -0.004 -0.002  0.027  0.001
 -0.004  0.903  0.011  0.001 -0.000
 -0.002  0.011  0.865 -0.001  0.001
  0.027  0.001 -0.001  0.971  0.000
  0.001 -0.000  0.001  0.000  0.602
atom    9   Tr[ns(na)] =   7.97764
    eigenvalues:
  0.639  0.650  0.843  0.882  0.975
    eigenvectors:
  0.001  0.150  0.001  0.000  0.847
  0.990  0.010  0.000  0.000  0.000
  0.000  0.000  0.983  0.016  0.000
  0.008  0.840  0.000  0.000  0.152
  0.000  0.000  0.016  0.983  0.000
    occupations:
  0.926 -0.001  0.001 -0.117 -0.001
 -0.001  0.639  0.000  0.001 -0.000
  0.001  0.000  0.844 -0.005 -0.005
 -0.117  0.001 -0.005  0.699  0.001
 -0.001 -0.000 -0.005  0.001  0.881
atom   10   Tr[ns(na)] =   7.98820
    eigenvalues:
  0.597  0.608  0.901  0.915  0.973
    eigenvectors:
  0.000  0.991  0.001  0.000  0.009
  0.001  0.000  0.000  0.999  0.000
  0.000  0.001  0.999  0.000  0.000
  0.000  0.009  0.000  0.000  0.991
  0.999  0.000  0.000  0.001  0.000
    occupations:
  0.612  0.000  0.007  0.034 -0.000
  0.000  0.914 -0.000  0.000 -0.009
  0.007 -0.000  0.901  0.000  0.000
  0.034  0.000  0.000  0.970  0.000
 -0.000 -0.009  0.000  0.000  0.597
atom   16   Tr[ns(na)] =   7.99481
    eigenvalues:
  0.589  0.611  0.880  0.949  0.968
    eigenvectors:
  0.013  0.190  0.003  0.001  0.794
  0.943  0.057  0.000  0.000  0.000
  0.000  0.000  0.992  0.005  0.003
  0.043  0.754  0.000  0.000  0.203
  0.000  0.000  0.005  0.994  0.001
    occupations:
  0.895  0.005  0.003 -0.144  0.001
  0.005  0.591 -0.000  0.003 -0.006
  0.003 -0.000  0.881 -0.005 -0.005
 -0.144  0.003 -0.005  0.682 -0.000
  0.001 -0.006 -0.005 -0.000  0.949
atom   17   Tr[ns(na)] =   7.98536
    eigenvalues:
  0.603  0.650  0.858  0.908  0.974
    eigenvectors:
  0.001  0.992  0.000  0.000  0.007
  0.000  0.000  0.044  0.956  0.000
  0.000  0.000  0.956  0.044  0.000
  0.000  0.007  0.000  0.000  0.993
  0.999  0.001  0.000  0.000  0.000
    occupations:
  0.653 -0.004 -0.001  0.027  0.001
 -0.004  0.905  0.010  0.001 -0.001
 -0.001  0.010  0.860 -0.001  0.001
  0.027  0.001 -0.001  0.971  0.000
  0.001 -0.001  0.001  0.000  0.603
atom   22   Tr[ns(na)] =   7.97778
    eigenvalues:
  0.639  0.650  0.843  0.882  0.975
    eigenvectors:
  0.000  0.152  0.001  0.000  0.848
  1.000  0.000  0.000  0.000  0.000
  0.000  0.000  0.985  0.015  0.000
  0.000  0.847  0.000  0.000  0.152
  0.000  0.000  0.015  0.985  0.000
    occupations:
  0.926  0.002  0.001 -0.117 -0.000
  0.002  0.639  0.001 -0.001 -0.000
  0.001  0.001  0.844 -0.005  0.005
 -0.117 -0.001 -0.005  0.699  0.000
 -0.000 -0.000  0.005  0.000  0.881
atom   23   Tr[ns(na)] =   8.00031
    eigenvalues:
  0.602  0.636  0.851  0.941  0.970
    eigenvectors:
  0.000  0.994  0.000  0.003  0.002
  0.001  0.000  0.999  0.000  0.000
  0.000  0.003  0.000  0.996  0.001
  0.000  0.003  0.000  0.000  0.997
  0.999  0.000  0.001  0.000  0.000
    occupations:
  0.638 -0.000  0.017  0.017 -0.000
 -0.000  0.850 -0.001 -0.000 -0.009
  0.017 -0.001  0.940 -0.002  0.000
  0.017 -0.000 -0.002  0.969  0.000
 -0.000 -0.009  0.000  0.000  0.603
N of occupied +U levels =  63.9059337
 --- exit write_ns ---

[...]

          k = 0.2500-0.4833 0.0000 ( 30510 PWs)   bands (ev):

[...]

          k =-0.2500 0.2417 0.0000 ( 30481 PWs)   bands (ev):

   -48.7558 -48.6877 -48.6813 -48.6475 -48.6297 -48.6167 -48.5914 -48.5679
   -48.5641 -48.5421 -48.5194 -48.4764 -48.4614 -48.4494 -48.3468 -48.3424
   -48.2951 -48.2899 -48.2581 -48.2521 -48.2456 -48.2447 -48.2394 -48.2063
   -24.0833 -20.8294 -20.5287 -20.3552 -20.2546 -20.0759 -19.8451 -19.7920
   -19.6772 -19.6115 -19.5062 -19.4564 -19.4260 -19.3331 -19.2376 -19.1901
   -19.1070 -18.4284 -18.2826 -17.4871  -9.1586  -9.0279  -8.9043  -8.8287
    -8.6001  -8.2427  -8.1989  -8.1289  -8.0702  -8.0290  -7.9409  -7.9110
    -7.8544  -7.8054  -7.7470  -7.5454  -7.3650  -7.3184  -7.2628  -7.0653
    -6.8598  -6.7228  -6.6917  -6.5868  -6.4890  -6.3926  -6.1311  -6.0232
    -5.9019  -5.8255  -5.7242  -5.6537  -5.6058  -5.5108  -5.4686  -5.4228
    -5.3868  -5.2651  -5.1828  -5.0915  -5.0295  -4.9274  -4.7854  -4.6859
    -4.4781  -4.4052  -4.2997  -4.2165  -4.1204  -4.0679  -3.9407  -3.8355
    -3.7378  -3.6844  -3.4811  -3.3489  -3.1781  -3.1205  -3.0191  -2.9733
    -2.9135  -2.7679  -2.7411  -2.6351  -2.6262  -2.5359  -2.5051  -2.4174
    -2.3486  -2.2966  -2.2776  -2.1541  -1.9223  -1.7211  -1.5184  -1.4748
    -1.3865  -1.3451  -1.1951  -1.0816  -0.9652  -0.8771  -0.8000  -0.3355
     0.1963   0.2761   0.4882   0.9072   1.0728   1.3964   1.5077   1.7700
     1.8899   2.0599   2.1097   2.2578   2.3602   2.4331   2.7227   3.3505
     3.9194   4.1472   4.5217   5.0433   5.2678   5.5660   5.9338   5.9752
     6.0055   6.2580   6.3914   6.5468   6.6070   6.9182   6.9646   7.2298
     7.4208   7.5451   7.7288   7.8425   7.8892   8.2215   8.2489   8.2990
     8.3837   8.4622   8.6805   8.7744   8.8993   9.0044   9.1146   9.1942
     9.2792   9.3902   9.4991   9.6252   9.7845   9.8499   9.9303   9.9734
    10.0679  10.1909  10.2767  10.3517  10.4526  10.5456  10.6057  10.6872
    10.7657  10.9039  11.0036  11.1187  11.1660  11.2285  11.2920  11.3538
    11.4872  11.5282  11.6740  11.7097  11.7600  11.7919  11.8543  11.9557
    11.9913  12.1647  12.2032  12.3171  12.3655  12.4671  12.5396  12.5633
    12.6225  12.7064  12.7830  12.8546  12.9267  12.9782  13.0676  13.1681
    13.2636  13.3618  13.4293  13.5397  13.6147  13.6680  13.7892  13.8344
    13.8651  13.9696  14.0117  14.1216  14.2091  14.3129  14.3495  14.3985
    14.4925  14.5205  14.5542  14.6957  14.7453  14.8002  14.9486  15.0043
    15.0663  15.1460  15.2516  15.3300  15.4454  15.5137  15.5395  15.6125
    15.7041  15.7415  15.7903  15.8402  15.9351  15.9837  16.0409  16.0607
    16.1420  16.1782  16.3426  16.3717  16.4205  16.4702  16.5360  16.5954
    16.6166  16.6994  16.7611  16.8328  16.8921  17.0141  17.0693  17.1610
    17.2262  17.2348  17.2967  17.3809  17.4507  17.4863  17.5567  17.6133
    17.7092  17.7298  17.7788  17.8993  17.9365  17.9892  18.0893  18.1100
    18.2141  18.2274  18.3407  18.4109  18.5067  18.6235  18.6598  18.7046
    18.8680  18.9207  18.9808  19.0190  19.0556  19.1692  19.2474  19.2702
    19.3367  19.4048  19.4784  19.5604  19.6103  19.6844  19.7470  19.8858
    19.9351  19.9751  20.1002  20.1425  20.1973  20.3242  20.3822  20.4725
    20.5654  20.6390  20.7116  20.7402  20.7800  20.8499  20.9126  20.9947
    21.0802  21.1216  21.1713  21.2198  21.2540  21.3545  21.4013  21.4682
    21.5225  21.5755  21.6621  21.6852  21.7472  21.8117  21.8318  21.9451
    22.0344  22.0688  22.1069  22.1825  22.2949  22.3396  22.4224  22.4383
    22.5118  22.5814  22.6649  22.7040  22.7904  22.8545  22.9153

     the Fermi energy is    -1.2500 ev

!    total energy              =   -2013.04391370 Ry
     Harris-Foulkes estimate   =   -2013.04391371 Ry
     estimated scf accuracy    <          8.8E-10 Ry

     The total energy is the sum of the following terms:

     one-electron contribution =  -23708.02057996 Ry
     hartree contribution      =   11909.09729815 Ry
     xc contribution           =    -379.87511777 Ry
     ewald contribution        =   10165.14703591 Ry
     Hubbard energy            =       0.60811043 Ry
     smearing contrib. (-TS)   =      -0.00066046 Ry

     convergence has been achieved in  15 iterations

     Forces acting on atoms (Ry/au):

     negative rho (up, down):  0.694E+00 0.000E+00
     atom    1 type  1   force =    -0.00737927   -0.01318960   -0.00007291
     atom    2 type  1   force =     0.00020354    0.00582155    0.00058485
     atom    3 type  2   force =     0.03033922    0.00380339   -0.00005921
     atom    4 type  2   force =     0.00821820    0.00845335   -0.00003270
     atom    5 type  1   force =    -0.00233281   -0.03276764    0.00023630
     atom    6 type  1   force =     0.00133890    0.03066406    0.00023384
     atom    7 type  1   force =    -0.00023073   -0.00365370   -0.00058980
     atom    8 type  1   force =    -0.00275257    0.00097620    0.00008873
     atom    9 type  2   force =     0.00547905    0.00123087   -0.00016003
     atom   10 type  2   force =    -0.00015410   -0.00040561   -0.00036171
     atom   11 type  1   force =    -0.01154994    0.01630812    0.00004187
     atom   12 type  1   force =    -0.00559747   -0.01046237    0.00010705
     atom   13 type  1   force =    -0.00075410   -0.00296900    0.00009116
     atom   14 type  1   force =    -0.00635262   -0.01309330   -0.00006291
     atom   15 type  1   force =     0.00012855    0.00570696    0.00037344
     atom   16 type  2   force =    -0.03059805    0.00393836   -0.00009368
     atom   17 type  2   force =     0.00798167    0.00927128    0.00022222
     atom   18 type  1   force =    -0.00014509   -0.03336922    0.00023137
     atom   19 type  1   force =     0.00333956    0.03023024    0.00023132
     atom   20 type  1   force =    -0.00016238   -0.00525296   -0.00015784
     atom   21 type  1   force =    -0.00298396    0.00114587    0.00013701
     atom   22 type  2   force =    -0.00282523    0.00127922   -0.00009432
     atom   23 type  2   force =    -0.00032830    0.00149897   -0.00018853
     atom   24 type  1   force =     0.01129861    0.01620441    0.00003761
     atom   25 type  1   force =     0.00647065   -0.01058286    0.00013038
     atom   26 type  1   force =    -0.00094467   -0.01073081   -0.00067777
     atom   27 type  3   force =    -0.00001848   -0.00021705    0.00029352
     atom   28 type  3   force =    -0.00001169   -0.00006168    0.00026627
     atom   29 type  3   force =     0.00012916    0.00001583    0.00020872
     atom   30 type  3   force =     0.00012317    0.00005364    0.00006998
     atom   31 type  1   force =    -0.00014299    0.00004263   -0.00038733
     atom   32 type  1   force =     0.00022655    0.00003992   -0.00030126
     atom   33 type  3   force =    -0.00001237    0.00007092   -0.00034563

     Total force =     0.001613     Total SCF correction =     0.000076

     entering subroutine stress ...

     negative rho (up, down):  0.694E+00 0.000E+00
          total   stress  (Ry/bohr**3)                   (kbar)     P=  -16.41
  -0.00011133   0.00000382   0.00000422        -16.38      0.56      0.62
   0.00000382  -0.00013821   0.00000451          0.56    -20.33      0.66
   0.00000422   0.00000451  -0.00008510          0.62      0.66    -12.52

     bfgs converged in   6 scf cycles and   5 bfgs steps
     (criteria: energy < 0.10E-03, force < 0.10E-02)

     End of BFGS Geometry Optimization

     Final energy   =   -2013.0439137048 Ry
Begin final coordinates

ATOMIC_POSITIONS (crystal)
O0       0.000000000   0.000000000   0.377905054    0   0   1
O0       0.000000000   0.500000000   0.401482880    0   0   1
Rh1      0.250000000   0.500000000   0.452902719    0   0   1
Rh1      0.000000000   0.000000000   0.452397072    0   0   1
O0       0.250000000   0.810000000   0.452197543    0   0   1
O0       0.250000000   0.190000000   0.452023692    0   0   1
O0       0.000000000   0.500000000   0.498790004    0   0   1
O0       0.000000000   0.000000000   0.527864009    0   0   1
Rh1      0.250000000   0.000000000   0.575054501    0   0   1
Rh1      0.000000000   0.500000000   0.570636671    0   0   1
O0       0.250000000   0.690000000   0.574490686    0   0   1
O0       0.250000000   0.310000000   0.576904048    0   0   1
O0       0.000000000   0.000000000   0.620524386    0   0   1
O0       0.500000000   0.000000000   0.377883673    0   0   1
O0       0.500000000   0.500000000   0.401682743    0   0   1
Rh1      0.750000000   0.500000000   0.452897338    0   0   1
Rh1      0.500000000   0.000000000   0.452291831    0   0   1
O0       0.750000000   0.810000000   0.452166372    0   0   1
O0       0.750000000   0.190000000   0.452058793    0   0   1
O0       0.500000000   0.500000000   0.500206749    0   0   1
O0       0.500000000   0.000000000   0.527719611    0   0   1
Rh1      0.750000000   0.000000000   0.575044362    0   0   1
Rh1      0.500000000   0.500000000   0.577937264    0   0   1
O0       0.750000000   0.690000000   0.574483677    0   0   1
O0       0.750000000   0.310000000   0.576898881    0   0   1
O0       0.500000000   0.000000000   0.620100127    0   0   1
H2       0.000012496   0.638460425   0.384853337
H2       0.499887607   0.638552787   0.385042091
H2       0.147706227   0.035921390   0.367201140
H2       0.648470649   0.033498888   0.367231498
O0       0.499579926   0.536787517   0.650581273
O0       0.500516911   0.345810835   0.678328265
H2       0.499926130   0.402251955   0.713147709
End final coordinates

     General routines

     Parallel routines
     Hubbard U routines

   This run was terminated on:   4:48:45   6Jun2014

   JOB DONE.