     Program PWSCF v.5.0.2 (svn rev. 9656) starts on 28May2014 at  1:13:35

     Current dimensions of program PWSCF are:
     Max number of different atomic species (ntypx) = 10
     Max number of k-points (npk) =  40000
     Max angular momentum in pseudopotentials (lmaxx) =  3
     Reading input from pwscf.in
Warning: card &CELL ignored
Warning: card / ignored

     Subspace diagonalization in iterative solution of the eigenvalue problem:
     a serial algorithm will be used

     bravais-lattice index     =            0
     lattice parameter (alat)  =      10.3179  a.u.
     unit-cell volume          =    6964.3238 (a.u.)^3
     number of atoms/cell      =           33
     number of atomic types    =            3
     number of electrons       =       237.00
     number of Kohn-Sham states=          355
     kinetic-energy cutoff     =      40.0000  Ry
     charge density cutoff     =     500.0000  Ry
     convergence threshold     =      1.0E-06
     mixing beta               =       0.7000
     number of iterations used =            8  plain     mixing
     Exchange-correlation      = SLA  PW   PBE  PBE ( 1 4 3 4 0)
     EXX-fraction              =        0.00
     nstep                     =           50

     celldm(1)=  10.317905  celldm(2)=   0.000000  celldm(3)=   0.000000
     celldm(4)=   0.000000  celldm(5)=   0.000000  celldm(6)=   0.000000

     crystal axes: (cart. coord. in units of alat)
               a(1) = (   1.000000   0.000000   0.000000 )
               a(2) = (   0.000000   1.282117   0.000000 )
               a(3) = (   0.000000   0.000000   4.945120 )

     reciprocal axes: (cart. coord. in units 2 pi/alat)
               b(1) = (  1.000000  0.000000  0.000000 )
               b(2) = (  0.000000  0.779960  0.000000 )
               b(3) = (  0.000000  0.000000  0.202220 )

     PseudoPot. # 1 for O  read from file:
     /home/camp/zhonxu/pseudo/o_pbe_v1.01.uspp.F.UPF
     MD5 check sum: 2bcb18d16ea4b960afae9ec6d52f22d2
     Pseudo is Ultrasoft + core correction, Zval =  6.0
     Generated by new atomic code, or converted to UPF format
     Using radial grid of  737 points,  5 beta functions with:
                l(1) =   0
                l(2) =   0
                l(3) =   1
                l(4) =   1
                l(5) =   2
     Q(r) pseudized with  8 coefficients,  rinner =    0.900   0.900   0.900
                                                       0.900   0.900

     PseudoPot. # 2 for Mo read from file:
     /home/camp/zhonxu/pseudo/mo_pbe_v1.uspp.F.UPF
     MD5 check sum: 30c4dcd161f5d35cd49bb5239c51a633
     Pseudo is Ultrasoft + core correction, Zval = 14.0
     Generated by new atomic code, or converted to UPF format
     Using radial grid of  889 points,  6 beta functions with:
                l(1) =   0
                l(2) =   0
                l(3) =   1
                l(4) =   1
                l(5) =   2
                l(6) =   2
     Q(r) pseudized with  6 coefficients,  rinner =    1.000   1.000   1.000
                                                       1.000   1.000

     PseudoPot. # 3 for H  read from file:
     /home/camp/zhonxu/pseudo/h_pbe_v1.uspp.F.UPF
     MD5 check sum: 3408e3ff4ec8b0a4e358431e7e038a48
     Pseudo is Ultrasoft, Zval =  1.0
     Generated by new atomic code, or converted to UPF format
     Using radial grid of  615 points,  2 beta functions with:
                l(1) =   0
                l(2) =   0
     Q(r) pseudized with  8 coefficients,  rinner =    0.700

     atomic species   valence    mass     pseudopotential
        O0             6.00    15.99940     O ( 1.00)
        Mo1           14.00    95.94000     Mo( 1.00)
        H2             1.00     1.00794     H ( 1.00)

     Simplified LDA+U calculation (l_max = 2) with parameters (eV):
     atomic species    L          U    alpha       J0     beta
        Mo1            2     0.5000   0.0000   0.0000   0.0000

     No symmetry found

   Cartesian axes

     site n.     atom                  positions (alat units)
         1           O0  tau(   1) = (   0.0000000   0.0000000   1.8345407  )
         2           O0  tau(   2) = (   0.0000000   0.6410583   1.8924976  )
         3           Mo1 tau(   3) = (   0.2500000   0.6410583   2.1781772  )
         4           Mo1 tau(   4) = (   0.0000000   0.0000000   2.1929631  )
         5           O0  tau(   5) = (   0.2500000   1.0000510   2.1897982  )
         6           O0  tau(   6) = (   0.2500000   0.2820657   2.1891553  )
         7           O0  tau(   7) = (   0.0000000   0.6410583   2.4607413  )
         8           O0  tau(   8) = (   0.0000000   0.0000000   2.5556382  )
         9           Mo1 tau(   9) = (   0.2500000   0.0000000   2.8453728  )
        10           Mo1 tau(  10) = (   0.0000000   0.6410583   2.7952787  )
        11           O0  tau(  11) = (   0.2500000   0.9231240   2.8196582  )
        12           O0  tau(  12) = (   0.2500000   0.3589927   2.8248011  )
        13           O0  tau(  13) = (   0.0000000   0.0000000   3.0952003  )
        14           O0  tau(  14) = (   0.5000000   0.0000000   1.8353814  )
        15           O0  tau(  15) = (   0.5000000   0.6410583   1.8936349  )
        16           Mo1 tau(  16) = (   0.7500000   0.6410583   2.1781277  )
        17           Mo1 tau(  17) = (   0.5000000   0.0000000   2.1954851  )
        18           O0  tau(  18) = (   0.7500000   1.0000510   2.1899960  )
        19           O0  tau(  19) = (   0.7500000   0.2820657   2.1890564  )
        20           O0  tau(  20) = (   0.5000000   0.6410583   2.4612853  )
        21           O0  tau(  21) = (   0.5000000   0.0000000   2.5539074  )
        22           Mo1 tau(  22) = (   0.7500000   0.0000000   2.8439387  )
        23           Mo1 tau(  23) = (   0.5000000   0.6410583   2.8209934  )
        24           O0  tau(  24) = (   0.7500000   0.9231240   2.8195098  )
        25           O0  tau(  25) = (   0.7500000   0.3589927   2.8246033  )
        26           O0  tau(  26) = (   0.5000000   0.0000000   3.0932717  )
        27           H2  tau(  27) = (  -0.0005800   0.7846554   1.7836060  )
        28           H2  tau(  28) = (   0.4995100   0.7915788   1.7940402  )
        29           H2  tau(  29) = (   0.1672700   0.0232576   1.7642706  )
        30           H2  tau(  30) = (   0.6659000   0.0248346   1.7633310  )
        31           O0  tau(  31) = (   0.5002100   0.6666879   3.1760530  )
        32           O0  tau(  32) = (   0.4999400   0.4570233   3.3393409  )
        33           H2  tau(  33) = (   0.5000100   0.5446560   3.4973869  )

     number of k points=    10  Methfessel-Paxton smearing, width (Ry)=  0.0100
                       cart. coord. in units 2pi/alat
        k(    1) = (   0.0000000   0.0000000   0.0000000), wk =   0.1250000
        k(    2) = (   0.0000000   0.1949901   0.0000000), wk =   0.2500000
        k(    3) = (   0.0000000  -0.3899801   0.0000000), wk =   0.1250000
        k(    4) = (   0.2500000   0.0000000   0.0000000), wk =   0.2500000
        k(    5) = (   0.2500000   0.1949901   0.0000000), wk =   0.2500000
        k(    6) = (   0.2500000  -0.3899801   0.0000000), wk =   0.2500000
        k(    7) = (  -0.5000000   0.0000000   0.0000000), wk =   0.1250000
        k(    8) = (  -0.5000000   0.1949901   0.0000000), wk =   0.2500000
        k(    9) = (  -0.5000000  -0.3899801   0.0000000), wk =   0.1250000
        k(   10) = (  -0.2500000   0.1949901   0.0000000), wk =   0.2500000

     Largest allocated arrays     est. size (Mb)     dimensions
     Largest temporary arrays     est. size (Mb)     dimensions

     Check: negative/imaginary core charge=   -0.000003    0.000000

     Initial potential from superposition of free atoms
     Check: negative starting charge=   -0.002157

     starting charge  236.99142, renormalised to  237.00000

     negative rho (up, down):  0.216E-02 0.000E+00
     Number of +U iterations with fixed ns =  0
     Starting occupations:
 --- enter write_ns ---
 LDA+U parameters:
U( 2)     =  0.50000000
alpha( 2) =  0.00000000
atom    3   Tr[ns(na)] =   5.00000
    eigenvalues:
  0.500  0.500  0.500  0.500  0.500
    eigenvectors:
  1.000  0.000  0.000  0.000  0.000
  0.000  1.000  0.000  0.000  0.000
  0.000  0.000  1.000  0.000  0.000
  0.000  0.000  0.000  1.000  0.000
  0.000  0.000  0.000  0.000  1.000
    occupations:
  0.500  0.000  0.000  0.000  0.000
  0.000  0.500  0.000  0.000  0.000
  0.000  0.000  0.500  0.000  0.000
  0.000  0.000  0.000  0.500  0.000
  0.000  0.000  0.000  0.000  0.500
atom    4   Tr[ns(na)] =   5.00000
    eigenvalues:
  0.500  0.500  0.500  0.500  0.500
    eigenvectors:
  1.000  0.000  0.000  0.000  0.000
  0.000  1.000  0.000  0.000  0.000
  0.000  0.000  1.000  0.000  0.000
  0.000  0.000  0.000  1.000  0.000
  0.000  0.000  0.000  0.000  1.000
    occupations:
  0.500  0.000  0.000  0.000  0.000
  0.000  0.500  0.000  0.000  0.000
  0.000  0.000  0.500  0.000  0.000
  0.000  0.000  0.000  0.500  0.000
  0.000  0.000  0.000  0.000  0.500
atom    9   Tr[ns(na)] =   5.00000
    eigenvalues:
  0.500  0.500  0.500  0.500  0.500
    eigenvectors:
  1.000  0.000  0.000  0.000  0.000
  0.000  1.000  0.000  0.000  0.000
  0.000  0.000  1.000  0.000  0.000
  0.000  0.000  0.000  1.000  0.000
  0.000  0.000  0.000  0.000  1.000
    occupations:
  0.500  0.000  0.000  0.000  0.000
  0.000  0.500  0.000  0.000  0.000
  0.000  0.000  0.500  0.000  0.000
  0.000  0.000  0.000  0.500  0.000
  0.000  0.000  0.000  0.000  0.500
atom   10   Tr[ns(na)] =   5.00000
    eigenvalues:
  0.500  0.500  0.500  0.500  0.500
    eigenvectors:
  1.000  0.000  0.000  0.000  0.000
  0.000  1.000  0.000  0.000  0.000
  0.000  0.000  1.000  0.000  0.000
  0.000  0.000  0.000  1.000  0.000
  0.000  0.000  0.000  0.000  1.000
    occupations:
  0.500  0.000  0.000  0.000  0.000
  0.000  0.500  0.000  0.000  0.000
  0.000  0.000  0.500  0.000  0.000
  0.000  0.000  0.000  0.500  0.000
  0.000  0.000  0.000  0.000  0.500
atom   16   Tr[ns(na)] =   5.00000
    eigenvalues:
  0.500  0.500  0.500  0.500  0.500
    eigenvectors:
  1.000  0.000  0.000  0.000  0.000
  0.000  1.000  0.000  0.000  0.000
  0.000  0.000  1.000  0.000  0.000
  0.000  0.000  0.000  1.000  0.000
  0.000  0.000  0.000  0.000  1.000
    occupations:
  0.500  0.000  0.000  0.000  0.000
  0.000  0.500  0.000  0.000  0.000
  0.000  0.000  0.500  0.000  0.000
  0.000  0.000  0.000  0.500  0.000
  0.000  0.000  0.000  0.000  0.500
atom   17   Tr[ns(na)] =   5.00000
    eigenvalues:
  0.500  0.500  0.500  0.500  0.500
    eigenvectors:
  1.000  0.000  0.000  0.000  0.000
  0.000  1.000  0.000  0.000  0.000
  0.000  0.000  1.000  0.000  0.000
  0.000  0.000  0.000  1.000  0.000
  0.000  0.000  0.000  0.000  1.000
    occupations:
  0.500  0.000  0.000  0.000  0.000
  0.000  0.500  0.000  0.000  0.000
  0.000  0.000  0.500  0.000  0.000
  0.000  0.000  0.000  0.500  0.000
  0.000  0.000  0.000  0.000  0.500
atom   22   Tr[ns(na)] =   5.00000
    eigenvalues:
  0.500  0.500  0.500  0.500  0.500
    eigenvectors:
  1.000  0.000  0.000  0.000  0.000
  0.000  1.000  0.000  0.000  0.000
  0.000  0.000  1.000  0.000  0.000
[...]
  0.000  0.000  0.751  0.019  0.230
  0.804  0.196  0.000  0.000  0.000
    occupations:
  0.654 -0.000 -0.001 -0.038 -0.002
 -0.000  0.590 -0.000 -0.001  0.000
 -0.001 -0.000  0.536  0.000  0.010
 -0.038 -0.001  0.000  0.605  0.000
 -0.002  0.000  0.010  0.000  0.520
atom   10   Tr[ns(na)] =   5.76348
    eigenvalues:
  0.499  0.518  0.520  0.623  0.722
    eigenvectors:
  0.988  0.011  0.000  0.000  0.001
  0.000  0.000  0.000  1.000  0.000
  0.011  0.980  0.009  0.000  0.000
  0.001  0.000  0.000  0.000  0.999
  0.000  0.009  0.991  0.000  0.000
    occupations:
  0.499  0.000 -0.002 -0.007  0.000
  0.000  0.623 -0.000  0.000  0.000
 -0.002 -0.000  0.518 -0.001 -0.000
 -0.007  0.000 -0.001  0.721  0.000
  0.000  0.000 -0.000  0.000  0.520
atom   16   Tr[ns(na)] =   5.81862
    eigenvalues:
  0.513  0.514  0.562  0.594  0.725
    eigenvectors:
  0.000  0.015  0.347  0.000  0.638
  0.923  0.074  0.002  0.001  0.000
  0.076  0.891  0.005  0.020  0.009
  0.001  0.000  0.646  0.001  0.352
  0.000  0.020  0.001  0.979  0.000
    occupations:
  0.666  0.003  0.018 -0.077  0.000
  0.003  0.514  0.001  0.001 -0.002
  0.018  0.001  0.518 -0.009 -0.011
 -0.077  0.001 -0.009  0.620 -0.000
  0.000 -0.002 -0.011 -0.000  0.592
atom   17   Tr[ns(na)] =   5.80477
    eigenvalues:
  0.479  0.523  0.578  0.612  0.711
    eigenvectors:
  0.000  0.000  0.987  0.011  0.002
  0.001  0.000  0.011  0.988  0.000
  0.999  0.000  0.000  0.001  0.000
  0.000  0.000  0.002  0.000  0.998
  0.000  1.000  0.000  0.000  0.000
    occupations:
  0.579  0.004  0.000 -0.005  0.000
  0.004  0.611  0.004 -0.001 -0.001
  0.000  0.004  0.479  0.000  0.000
 -0.005 -0.001  0.000  0.710  0.000
  0.000 -0.001  0.000  0.000  0.523
atom   22   Tr[ns(na)] =   5.81537
    eigenvalues:
  0.515  0.540  0.584  0.589  0.679
    eigenvectors:
  0.000  0.000  0.218  0.014  0.768
  0.000  0.000  0.056  0.944  0.000
  0.209  0.791  0.000  0.000  0.000
  0.000  0.000  0.726  0.042  0.232
  0.791  0.209  0.000  0.000  0.000
    occupations:
  0.657  0.000 -0.001 -0.040 -0.001
  0.000  0.589 -0.000  0.001 -0.000
 -0.001 -0.000  0.535  0.000 -0.010
 -0.040  0.001  0.000  0.606  0.000
 -0.001 -0.000 -0.010  0.000  0.521
atom   23   Tr[ns(na)] =   5.83341
    eigenvalues:
  0.527  0.532  0.552  0.575  0.731
    eigenvectors:
  0.000  0.002  0.000  0.988  0.010
  0.021  0.000  0.979  0.000  0.000
  0.000  0.997  0.000  0.002  0.000
  0.000  0.000  0.000  0.009  0.990
  0.979  0.000  0.021  0.000  0.000
    occupations:
  0.577  0.000  0.002 -0.015  0.000
  0.000  0.552  0.000 -0.000 -0.004
  0.002  0.000  0.532  0.002  0.000
 -0.015 -0.000  0.002  0.729 -0.000
  0.000 -0.004  0.000 -0.000  0.527
N of occupied +U levels =  46.4706179
 --- exit write_ns ---

[...]

     total energy              =   -1765.36288068 Ry
     Harris-Foulkes estimate   =   -1765.36288118 Ry
     estimated scf accuracy    <       0.00000303 Ry

     iteration #  8     ecut=    40.00 Ry     beta=0.70
     Davidson diagonalization with overlap
     ethr =  1.11E-09,  avg # of iterations =  1.0

     negative rho (up, down):  0.334E-02 0.000E+00

     End of self-consistent calculation
 --- enter write_ns ---
 LDA+U parameters:
U( 2)     =  0.50000000
alpha( 2) =  0.00000000
atom    3   Tr[ns(na)] =   5.81931
    eigenvalues:
  0.513  0.515  0.562  0.594  0.725
    eigenvectors:
  0.000  0.015  0.346  0.000  0.638
  0.977  0.020  0.002  0.001  0.000
  0.022  0.945  0.005  0.018  0.009
  0.001  0.000  0.645  0.001  0.353
  0.000  0.019  0.001  0.980  0.000
    occupations:
  0.666 -0.003  0.018 -0.077 -0.000
 -0.003  0.514 -0.001 -0.001 -0.002
  0.018 -0.001  0.519 -0.009  0.010
 -0.077 -0.001 -0.009  0.620  0.000
 -0.000 -0.002  0.010  0.000  0.592
atom    4   Tr[ns(na)] =   5.80677
    eigenvalues:
  0.473  0.523  0.577  0.616  0.714
    eigenvectors:
  0.000  0.000  0.989  0.010  0.001
  0.001  0.000  0.010  0.989  0.000
  0.999  0.000  0.000  0.001  0.000
  0.000  0.000  0.001  0.000  0.998
  0.000  1.000  0.000  0.000  0.000
    occupations:
  0.577  0.004  0.000 -0.005  0.000
  0.004  0.616  0.005 -0.001  0.000
  0.000  0.005  0.473  0.000  0.000
 -0.005 -0.001  0.000  0.714  0.000
  0.000  0.000  0.000  0.000  0.523
atom    9   Tr[ns(na)] =   5.81271
    eigenvalues:
  0.515  0.541  0.584  0.590  0.675
    eigenvectors:
  0.000  0.000  0.224  0.006  0.770
  0.000  0.000  0.025  0.975  0.000
  0.198  0.802  0.000  0.000  0.000
  0.000  0.000  0.751  0.019  0.230
  0.802  0.198  0.000  0.000  0.000
    occupations:
  0.654 -0.000 -0.001 -0.038 -0.002
 -0.000  0.590 -0.000 -0.001  0.000
 -0.001 -0.000  0.536  0.000  0.010
 -0.038 -0.001  0.000  0.605  0.000
 -0.002  0.000  0.010  0.000  0.520
atom   10   Tr[ns(na)] =   5.75587
    eigenvalues:
  0.499  0.517  0.520  0.621  0.721
    eigenvectors:
  0.987  0.012  0.000  0.000  0.001
  0.000  0.000  0.000  1.000  0.000
  0.012  0.984  0.005  0.000  0.000
  0.001  0.000  0.000  0.000  0.999
  0.000  0.005  0.995  0.000  0.000
    occupations:
  0.499  0.000 -0.002 -0.007  0.000
  0.000  0.621 -0.000  0.000  0.000
 -0.002 -0.000  0.517 -0.001 -0.000
 -0.007  0.000 -0.001  0.721  0.000
  0.000  0.000 -0.000  0.000  0.520
atom   16   Tr[ns(na)] =   5.81908
    eigenvalues:
  0.513  0.514  0.562  0.594  0.726
    eigenvectors:
  0.000  0.015  0.347  0.000  0.638
  0.930  0.067  0.002  0.001  0.000
  0.069  0.898  0.005  0.020  0.009
  0.001  0.000  0.646  0.001  0.352
  0.000  0.020  0.001  0.979  0.000
    occupations:
  0.666  0.003  0.018 -0.078  0.000
  0.003  0.514  0.001  0.001 -0.002
  0.018  0.001  0.518 -0.009 -0.011
 -0.078  0.001 -0.009  0.620 -0.000
  0.000 -0.002 -0.011 -0.000  0.592
atom   17   Tr[ns(na)] =   5.81328
    eigenvalues:
  0.480  0.523  0.578  0.614  0.712
    eigenvectors:
  0.000  0.000  0.989  0.009  0.002
  0.001  0.000  0.009  0.989  0.000
  0.999  0.000  0.000  0.001  0.000
  0.000  0.000  0.002  0.000  0.998
  0.000  1.000  0.000  0.000  0.000
    occupations:
  0.579  0.003  0.000 -0.006  0.000
  0.003  0.613  0.004 -0.001 -0.001
  0.000  0.004  0.480  0.000  0.000
 -0.006 -0.001  0.000  0.712  0.000
  0.000 -0.001  0.000  0.000  0.523
atom   22   Tr[ns(na)] =   5.81286
    eigenvalues:
  0.515  0.540  0.584  0.589  0.679
    eigenvectors:
  0.000  0.000  0.218  0.014  0.768
  0.000  0.000  0.056  0.944  0.000
  0.209  0.791  0.000  0.000  0.000
  0.000  0.000  0.726  0.042  0.232
  0.791  0.209  0.000  0.000  0.000
    occupations:
  0.657  0.000 -0.001 -0.040 -0.001
  0.000  0.589 -0.000  0.001 -0.000
 -0.001 -0.000  0.535  0.000 -0.010
 -0.040  0.001  0.000  0.606  0.000
 -0.001 -0.000 -0.010  0.000  0.520
atom   23   Tr[ns(na)] =   5.82938
    eigenvalues:
  0.527  0.531  0.552  0.575  0.730
    eigenvectors:
  0.000  0.002  0.000  0.988  0.010
  0.022  0.000  0.978  0.000  0.000
  0.000  0.997  0.000  0.002  0.000
  0.000  0.000  0.000  0.009  0.990
  0.978  0.000  0.022  0.000  0.000
    occupations:
  0.576  0.000  0.002 -0.015  0.000
  0.000  0.551  0.000 -0.000 -0.004
  0.002  0.000  0.531  0.002  0.000
 -0.015 -0.000  0.002  0.729 -0.000
  0.000 -0.004  0.000 -0.000  0.527
N of occupied +U levels =  46.4692499
 --- exit write_ns ---

[...]

          k = 0.2500-0.3900 0.0000 ( 29726 PWs)   bands (ev):

[...]

          k =-0.2500 0.1950 0.0000 ( 29746 PWs)   bands (ev):

   -62.1037 -62.0284 -62.0156 -61.9128 -61.8874 -61.8817 -61.8291 -61.8047
   -36.6929 -36.4385 -36.4274 -36.3928 -36.3381 -36.3345 -36.2851 -36.2711
   -36.1987 -36.1543 -36.0966 -36.0692 -36.0451 -36.0429 -36.0368 -36.0032
   -35.9163 -35.9131 -35.8896 -35.8637 -35.8622 -35.6400 -35.5548 -35.5440
   -22.7817 -20.3607 -20.0960 -19.5280 -19.3845 -19.2695 -19.0920 -19.0176
   -18.9667 -18.8096 -18.7420 -18.6337 -18.5104 -18.4863 -18.3664 -18.3402
   -18.2683 -17.7641 -17.6105 -16.5457  -8.3630  -8.2451  -8.1037  -7.7356
    -7.4021  -7.2881  -7.2819  -7.2031  -7.0306  -6.9172  -6.8677  -6.8309
    -6.7218  -6.5484  -6.4748  -6.2941  -6.0166  -5.9689  -5.8747  -5.8089
    -5.6931  -5.6264  -5.5412  -5.4000  -5.2641  -5.2132  -5.0408  -4.9804
    -4.9030  -4.7573  -4.6567  -4.6016  -4.3894  -4.2927  -4.1668  -4.1461
    -4.0785  -4.0075  -3.9579  -3.9105  -3.7926  -3.7550  -3.6747  -3.6168
    -3.4738  -3.3750  -3.2455  -3.1171  -3.0179  -2.9932  -2.9148  -2.8295
    -2.7174  -2.6894  -2.5125  -2.4106  -2.3345  -2.1491  -1.3339  -1.1776
    -1.0627  -0.9853  -0.2827  -0.0578   0.0739   0.1178   0.5266   0.6213
     0.9555   1.0883   1.1395   1.2796   1.4169   1.5299   1.7050   1.7516
     1.8683   2.0491   2.1550   2.3206   2.3386   2.4359   2.5953   2.8109
     3.6852   3.7431   4.0278   4.0686   4.1977   4.2761   4.3455   4.4545
     4.6994   4.7767   4.9200   4.9622   5.1702   5.2224   5.3479   5.5644
     5.9070   6.0545   6.1590   6.2611   6.3316   6.4330   6.5238   6.5897
     6.7345   6.9433   7.0063   7.2730   7.3308   7.4429   7.7389   7.7903
     8.0855   8.2388   8.4514   8.4974   8.6493   8.7326   8.8756   8.9566
     9.0102   9.1971   9.2553   9.3525   9.5118   9.6110   9.6787   9.7758
     9.8196   9.9108   9.9732  10.0894  10.2119  10.4167  10.5343  10.6052
    10.6994  10.7949  10.8779  10.9386  11.0071  11.1170  11.2781  11.3688
    11.4897  11.6459  11.7211  11.8346  11.9007  11.9398  12.0173  12.1629
    12.2002  12.2613  12.3575  12.3674  12.4638  12.5422  12.6175  12.8108
    12.8887  12.9757  13.0148  13.1506  13.1964  13.2237  13.3641  13.4411
    13.5238  13.5565  13.6439  13.6874  13.7441  13.8270  13.8873  13.9577
    14.0335  14.0826  14.1258  14.1980  14.2351  14.2837  14.3661  14.3906
    14.4523  14.5243  14.6194  14.7400  14.7863  14.8767  14.9168  15.0720
    15.1351  15.2283  15.2777  15.4079  15.4778  15.4922  15.6343  15.6797
    15.7854  15.8741  15.9083  16.0055  16.0546  16.1491  16.2347  16.2744
    16.3257  16.4243  16.4968  16.5595  16.5859  16.6182  16.7161  16.7597
    16.8389  16.9212  16.9648  17.0914  17.1079  17.1830  17.2674  17.3040
    17.3352  17.3776  17.4926  17.5822  17.6711  17.7522  17.7960  17.8913
    18.0487  18.0834  18.1289  18.1917  18.2304  18.3400  18.3895  18.4799
    18.5725  18.6115  18.6779  18.7705  18.8937  18.9365  19.0094  19.0572
    19.1792  19.2296  19.3609  19.4013  19.4224  19.5346  19.5960  19.6910
    19.8223  19.8809  19.9868  20.0374  20.0976  20.1411  20.1759  20.2388
    20.2660  20.3334  20.4415  20.4649  20.4847  20.5362  20.6049  20.6752
    20.7531  20.8204  20.8745  20.9275  20.9870  21.0986  21.1378  21.2319
    21.2948  21.3516  21.4019  21.4571  21.5160  21.5450  21.6056  21.6292
    21.6689  21.7408  21.8182  21.8638  21.9022  21.9470  21.9864  22.0776
    22.1445  22.2191  22.2815

     the Fermi energy is     0.4784 ev

!    total energy              =   -1765.36288076 Ry
     Harris-Foulkes estimate   =   -1765.36288096 Ry
     estimated scf accuracy    <       0.00000022 Ry

     The total energy is the sum of the following terms:

     one-electron contribution =  -22644.69043219 Ry
     hartree contribution      =   11351.59938601 Ry
     xc contribution           =    -301.52788789 Ry
     ewald contribution        =    9828.90645507 Ry
     Hubbard energy            =       0.34973067 Ry
     smearing contrib. (-TS)   =      -0.00013243 Ry

     convergence has been achieved in   8 iterations

     Forces acting on atoms (Ry/au):

     negative rho (up, down):  0.334E-02 0.000E+00
     atom    1 type  1   force =    -0.00051650   -0.00526505    0.00046627
     atom    2 type  1   force =    -0.00011034    0.00901286   -0.00015344
     atom    3 type  2   force =    -0.01363918   -0.00822629   -0.00010511
     atom    4 type  2   force =     0.00062116    0.00582334    0.00013411
     atom    5 type  1   force =     0.00025574   -0.00005865    0.00009255
     atom    6 type  1   force =    -0.00169645   -0.00288290    0.00003530
     atom    7 type  1   force =     0.00031492   -0.00127413   -0.00015120
     atom    8 type  1   force =     0.00264538    0.00219018   -0.00053249
     atom    9 type  2   force =    -0.00677007   -0.00370921   -0.00053495
     atom   10 type  2   force =    -0.00053627    0.00284634   -0.00009320
     atom   11 type  1   force =    -0.01427391   -0.02585833    0.00029406
     atom   12 type  1   force =    -0.01162730    0.03194728    0.00070080
     atom   13 type  1   force =     0.00011940   -0.00172977   -0.00028515
     atom   14 type  1   force =    -0.00278332   -0.00609208    0.00061626
     atom   15 type  1   force =    -0.00002053    0.01065176   -0.00005175
     atom   16 type  2   force =     0.01289292   -0.00813013   -0.00003742
     atom   17 type  2   force =    -0.00098353    0.00447302    0.00037958
     atom   18 type  1   force =     0.00242013   -0.00047849    0.00010518
     atom   19 type  1   force =     0.00202952   -0.00301761    0.00004395
     atom   20 type  1   force =     0.00024564    0.00098206    0.00051242
     atom   21 type  1   force =     0.00340770    0.00199906   -0.00091773
     atom   22 type  2   force =     0.00282733   -0.00374358   -0.00060972
     atom   23 type  2   force =     0.00067979    0.00153209    0.00006625
     atom   24 type  1   force =     0.01429560   -0.02547361    0.00029634
     atom   25 type  1   force =     0.01154962    0.03194143    0.00066898
     atom   26 type  1   force =    -0.00025210   -0.00660703   -0.00034991
     atom   27 type  3   force =     0.00000586   -0.00029314   -0.00035272
     atom   28 type  3   force =     0.00000745   -0.00034904   -0.00035330
     atom   29 type  3   force =    -0.00056509   -0.00014483    0.00000728
     atom   30 type  3   force =    -0.00060431   -0.00014164    0.00001719
     atom   31 type  1   force =     0.00012471   -0.00013783    0.00007199
     atom   32 type  1   force =    -0.00008014   -0.00023278   -0.00036739
     atom   33 type  3   force =     0.00001614    0.00044674    0.00038698

     Total force =     0.002447     Total SCF correction =     0.001407
     SCF correction compared to forces is large: reduce conv_thr to get better values

     entering subroutine stress ...

     negative rho (up, down):  0.334E-02 0.000E+00
          total   stress  (Ry/bohr**3)                   (kbar)     P=   -3.66
   0.00001548  -0.00000051   0.00000200          2.28     -0.07      0.29
  -0.00000051  -0.00005349  -0.00000180         -0.07     -7.87     -0.26
   0.00000200  -0.00000180  -0.00003658          0.29     -0.26     -5.38

     bfgs converged in   2 scf cycles and   1 bfgs steps
     (criteria: energy < 0.10E-03, force < 0.10E-02)

     End of BFGS Geometry Optimization

     Final energy   =   -1765.3628807628 Ry
Begin final coordinates

ATOMIC_POSITIONS (crystal)
O0       0.000000000   0.000000000   0.371011694    0   0   1
O0       0.000000000   0.500000000   0.382698874    0   0   1
Mo1      0.250000000   0.500000000   0.440456352    0   0   1
Mo1      0.000000000   0.000000000   0.443444274    0   0   1
O0       0.250000000   0.780000000   0.442823383    0   0   1
O0       0.250000000   0.220000000   0.442691900    0   0   1
O0       0.000000000   0.500000000   0.497630784    0   0   1
O0       0.000000000   0.000000000   0.516783060    0   0   1
Mo1      0.250000000   0.000000000   0.575392062    0   0   1
Mo1      0.000000000   0.500000000   0.565238095    0   0   1
O0       0.250000000   0.720000000   0.570197758    0   0   1
O0       0.250000000   0.280000000   0.571246695    0   0   1
O0       0.000000000   0.000000000   0.625894738    0   0   1
O0       0.500000000   0.000000000   0.371178354    0   0   1
O0       0.500000000   0.500000000   0.382931350    0   0   1
Mo1      0.750000000   0.500000000   0.440448599    0   0   1
Mo1      0.500000000   0.000000000   0.443966101    0   0   1
O0       0.750000000   0.780000000   0.442863623    0   0   1
O0       0.750000000   0.220000000   0.442671973    0   0   1
O0       0.500000000   0.500000000   0.497739594    0   0   1
O0       0.500000000   0.000000000   0.516424500    0   0   1
Mo1      0.750000000   0.000000000   0.575100806    0   0   1
Mo1      0.500000000   0.500000000   0.570463284    0   0   1
O0       0.750000000   0.720000000   0.570167831    0   0   1
O0       0.750000000   0.280000000   0.571206130    0   0   1
O0       0.500000000   0.000000000   0.625503080    0   0   1
H2      -0.000579025   0.611969114   0.360674555
H2       0.499510942   0.617362178   0.362784525
H2       0.167256341   0.018134567   0.356764610
H2       0.665882434   0.019364338   0.356575290
O0       0.500222166   0.519973586   0.642255831
O0       0.499932984   0.356484670   0.675288237
H2       0.500011700   0.424806066   0.707232057
End final coordinates

     General routines

     Parallel routines
     Hubbard U routines

   This run was terminated on:   3:33:10  28May2014

   JOB DONE.