     Program PWSCF v.5.0.2 (svn rev. 9656) starts on 27Feb2014 at 18: 0:38

     Current dimensions of program PWSCF are:
     Max number of different atomic species (ntypx) = 10
     Max number of k-points (npk) =  40000
     Max angular momentum in pseudopotentials (lmaxx) =  3
     Reading input from bare.in
Warning: card &CELL ignored
Warning: card / ignored

     Subspace diagonalization in iterative solution of the eigenvalue problem:
     a serial algorithm will be used

     Found symmetry operation: I + ( -0.5000  0.0000  0.0000)
     This is a supercell, fractional translations are disabled

     bravais-lattice index     =            0
     lattice parameter (alat)  =      11.7919  a.u.
     unit-cell volume          =    7123.6633 (a.u.)^3
     number of atoms/cell      =           30
     number of atomic types    =            3
     number of electrons       =       240.00
     number of Kohn-Sham states=          348
     kinetic-energy cutoff     =      40.0000  Ry
     charge density cutoff     =     500.0000  Ry
     convergence threshold     =      1.0E-06
     mixing beta               =       0.3000
     number of iterations used =            8  plain     mixing
     Exchange-correlation      = SLA  PW   PBE  PBE ( 1 4 3 4 0)
     EXX-fraction              =        0.00
     nstep                     =           50

     celldm(1)=  11.791891  celldm(2)=   0.000000  celldm(3)=   0.000000
     celldm(4)=   0.000000  celldm(5)=   0.000000  celldm(6)=   0.000000

     crystal axes: (cart. coord. in units of alat)
               a(1) = (   1.000000   0.000000   0.000000 )
               a(2) = (   0.000000   1.026665   0.000000 )
               a(3) = (   0.000000   0.000000   4.231793 )

     reciprocal axes: (cart. coord. in units 2 pi/alat)
               b(1) = (  1.000000  0.000000  0.000000 )
               b(2) = (  0.000000  0.974028  0.000000 )
               b(3) = (  0.000000  0.000000  0.236306 )

     PseudoPot. # 1 for O  read from file:
     /home/camp/zhonxu/pseudo/o_pbe_v1.01.uspp.F.UPF
     MD5 check sum: 2bcb18d16ea4b960afae9ec6d52f22d2
     Pseudo is Ultrasoft + core correction, Zval =  6.0
     Generated by new atomic code, or converted to UPF format
     Using radial grid of  737 points,  5 beta functions with:
                l(1) =   0
                l(2) =   0
                l(3) =   1
                l(4) =   1
                l(5) =   2
     Q(r) pseudized with  8 coefficients,  rinner =    0.900   0.900   0.900
                                                       0.900   0.900

     PseudoPot. # 2 for Ru read from file:
     /home/camp/zhonxu/pseudo/ru_pbe_v1.uspp.F.UPF
     MD5 check sum: df00be1c11b23341d9806d8f1dfa10cf
     Pseudo is Ultrasoft + core correction, Zval = 16.0
     Generated by new atomic code, or converted to UPF format
     Using radial grid of  967 points,  6 beta functions with:
                l(1) =   0
                l(2) =   0
                l(3) =   1
                l(4) =   1
                l(5) =   2
                l(6) =   2
     Q(r) pseudized with  8 coefficients,  rinner =    1.300   1.300   1.300
                                                       1.300   1.300

     PseudoPot. # 3 for H  read from file:
     /home/camp/zhonxu/pseudo/h_pbe_v1.uspp.F.UPF
     MD5 check sum: 3408e3ff4ec8b0a4e358431e7e038a48
     Pseudo is Ultrasoft, Zval =  1.0
     Generated by new atomic code, or converted to UPF format
     Using radial grid of  615 points,  2 beta functions with:
                l(1) =   0
                l(2) =   0
     Q(r) pseudized with  8 coefficients,  rinner =    0.700

     atomic species   valence    mass     pseudopotential
        O0             6.00    15.99940     O ( 1.00)
        Ru1           16.00   101.07000     Ru( 1.00)
        H2             1.00     1.00794     H ( 1.00)

     No symmetry found

   Cartesian axes

     site n.     atom                  positions (alat units)
         1           O0  tau(   1) = (   0.0000000   0.0000000   1.6025800  )
         2           O0  tau(   2) = (   0.0000000   0.5133323   1.7257674  )
         3           Ru1 tau(   3) = (   0.2500000   0.5133323   1.9208108  )
         4           Ru1 tau(   4) = (   0.0000000   0.0000000   1.9208108  )
         5           O0  tau(   5) = (   0.2500000   0.8315984   1.9208108  )
         6           O0  tau(   6) = (   0.2500000   0.1950663   1.9208108  )
         7           O0  tau(   7) = (   0.0000000   0.5133323   2.1158964  )
         8           O0  tau(   8) = (   0.0000000   0.0000000   2.2390839  )
         9           Ru1 tau(   9) = (   0.2500000   0.0000000   2.4341696  )
        10           Ru1 tau(  10) = (   0.0000000   0.5133323   2.4341696  )
        11           O0  tau(  11) = (   0.2500000   0.7083986   2.4341696  )
        12           O0  tau(  12) = (   0.2500000   0.3182660   2.4341696  )
        13           O0  tau(  13) = (   0.0000000   0.0000000   2.6292129  )
        14           O0  tau(  14) = (   0.5000000   0.0000000   1.6025800  )
        15           O0  tau(  15) = (   0.5000000   0.5133323   1.7257674  )
        16           Ru1 tau(  16) = (   0.7500000   0.5133323   1.9208108  )
        17           Ru1 tau(  17) = (   0.5000000   0.0000000   1.9208108  )
        18           O0  tau(  18) = (   0.7500000   0.8315984   1.9208108  )
        19           O0  tau(  19) = (   0.7500000   0.1950663   1.9208108  )
        20           O0  tau(  20) = (   0.5000000   0.5133323   2.1158964  )
        21           O0  tau(  21) = (   0.5000000   0.0000000   2.2390839  )
        22           Ru1 tau(  22) = (   0.7500000   0.0000000   2.4341696  )
        23           Ru1 tau(  23) = (   0.5000000   0.5133323   2.4341696  )
        24           O0  tau(  24) = (   0.7500000   0.7083986   2.4341696  )
        25           O0  tau(  25) = (   0.7500000   0.3182660   2.4341696  )
        26           O0  tau(  26) = (   0.5000000   0.0000000   2.6292129  )
        27           H2  tau(  27) = (   0.0000000   0.6415422   1.6296211  )
        28           H2  tau(  28) = (   0.5000000   0.6415422   1.6296211  )
        29           H2  tau(  29) = (   0.1282100   0.0000000   1.5063913  )
        30           H2  tau(  30) = (   0.6282100   0.0000000   1.5063913  )

     number of k points=    10  Methfessel-Paxton smearing, width (Ry)=  0.0100
                       cart. coord. in units 2pi/alat
        k(    1) = (   0.0000000   0.0000000   0.0000000), wk =   0.1250000
        k(    2) = (   0.0000000   0.2435070   0.0000000), wk =   0.2500000
        k(    3) = (   0.0000000  -0.4870139   0.0000000), wk =   0.1250000
        k(    4) = (   0.2500000   0.0000000   0.0000000), wk =   0.2500000
        k(    5) = (   0.2500000   0.2435070   0.0000000), wk =   0.2500000
        k(    6) = (   0.2500000  -0.4870139   0.0000000), wk =   0.2500000
        k(    7) = (  -0.5000000   0.0000000   0.0000000), wk =   0.1250000
        k(    8) = (  -0.5000000   0.2435070   0.0000000), wk =   0.2500000
        k(    9) = (  -0.5000000  -0.4870139   0.0000000), wk =   0.1250000
        k(   10) = (  -0.2500000   0.2435070   0.0000000), wk =   0.2500000

     Largest allocated arrays     est. size (Mb)     dimensions
     Largest temporary arrays     est. size (Mb)     dimensions

     Check: negative/imaginary core charge=   -0.000003    0.000000

     Initial potential from superposition of free atoms
     Check: negative starting charge=   -0.522338

     starting charge  231.99981, renormalised to  240.00000

     negative rho (up, down):  0.540E+00 0.000E+00
     Starting wfc are  180 randomized atomic wfcs

     Self-consistent Calculation

     iteration #  1     ecut=    40.00 Ry     beta=0.30
     Davidson diagonalization with overlap
     ethr =  1.00E-02,  avg # of iterations =  6.7

     negative rho (up, down):  0.574E+00 0.000E+00

     total energy              =   -2097.38630418 Ry
     Harris-Foulkes estimate   =   -2136.35406538 Ry
     estimated scf accuracy    <      78.72348694 Ry

[...]

     End of self-consistent calculation

          k = 0.0000 0.0000 0.0000 ( 30363 PWs)   bands (ev):

   -74.4378 -74.4275 -74.2801 -74.2697 -74.1928 -74.1822 -74.0047 -73.9941
   -44.5028 -44.4979 -44.4892 -44.4772 -44.4587 -44.3315 -44.3165 -44.3142
   -44.2918 -44.2915 -44.2622 -44.2618 -44.1709 -44.1534 -44.1122 -44.1087
   -44.0804 -44.0747 -44.0670 -44.0490 -44.0435 -43.9239 -43.8492 -43.8192
   -21.2620 -20.8890 -20.5200 -20.2547 -19.8286 -19.8190 -19.7083 -19.6108
   -19.5582 -19.5091 -19.4679 -19.4046 -19.1200 -18.9863 -18.8927 -18.8824
   -18.1270 -18.0703  -9.4681  -8.9922  -8.9330  -8.7387  -8.0603  -7.9395
    -7.8396  -7.6884  -7.5831  -7.5430  -7.4554  -7.4444  -7.3965  -7.3342
    -7.3220  -7.2480  -7.1000  -7.0287  -6.8977  -6.7731  -6.6767  -6.5732
    -6.2252  -6.1343  -5.6766  -5.4608  -5.4239  -5.3259  -5.1473  -5.0806
    -4.8835  -4.8712  -4.7892  -4.7719  -4.7402  -4.5025  -4.3670  -4.3382
    -4.2878  -4.1841  -4.0528  -3.9474  -3.9169  -3.8579  -3.7911  -3.5797
    -3.4896  -3.3948  -3.1836  -3.1298  -2.9435  -2.9353  -2.7685  -2.4717
    -2.0947  -2.0395  -2.0152  -1.9925  -1.7959  -1.7265  -1.5427  -1.5398
    -1.4380  -1.3831  -1.3109  -1.2491  -1.2414  -1.1509  -1.0354  -0.9905
    -0.8550  -0.4227  -0.3983  -0.1886  -0.0706   0.1595   0.2211   0.2220
     0.3029   0.6577   1.6891   1.8668   2.3281   2.3569   2.4376   2.4835
     2.6003   2.6951   3.0975   3.3207   3.4398   3.6085   3.8223   3.9168
     3.9704   4.0849   4.2134   4.6387   5.0516   5.7977   6.1960   6.2123
     6.4152   6.5991   6.9212   6.9454   7.2922   7.4247   7.5181   7.5190
     7.7576   7.8133   7.8195   7.9428   7.9593   8.1709   8.2592   8.3566
     8.3670   8.4777   8.5970   8.6532   8.7965   8.8862   8.9997   9.1889
     9.1994   9.2592   9.3276   9.3984   9.4830   9.5261   9.6747   9.7732
     9.8518  10.0148  10.1202  10.1389  10.4216  10.6023  10.7090  10.8378
    10.8490  10.9337  11.0527  11.1230  11.1748  11.3224  11.4022  11.4406
    11.5332  11.5464  11.6001  11.6182  11.6489  11.6898  11.7707  11.8977
    11.9236  12.0154  12.0523  12.1156  12.1675  12.3977  12.4115  12.4153
    12.4259  12.5215  12.5897  12.6507  12.7134  12.7514  12.8061  12.8918
    12.9896  13.0183  13.1214  13.2393  13.3261  13.3365  13.4640  13.4948
    13.5919  13.6234  13.8660  13.9173  13.9673  14.0242  14.1856  14.1983
    14.2562  14.4735  14.6079  14.6660  14.7007  14.7180  14.7508  15.0318
    15.0979  15.1446  15.3728  15.4917  15.5411  15.6280  15.6993  15.9167
    15.9693  15.9961  16.0317  16.0575  16.2237  16.2647  16.2709  16.3810
    16.5459  16.7190  16.7524  16.8281  16.9657  17.0039  17.1420  17.1966
    17.2740  17.3413  17.3459  17.4898  17.5483  17.5880  17.7977  17.9101
    17.9425  18.0367  18.1712  18.1911  18.3322  18.3922  18.4213  18.4804
    18.5883  18.6754  18.7337  18.7350  18.7544  18.8365  18.8701  18.9277
    18.9633  19.0666  19.1043  19.1681  19.2578  19.2838  19.3525  19.4091
    19.4883  19.5437  19.6560  19.6652  19.7212  19.7346  19.7666  19.8364
    19.9418  19.9957  20.0771  20.1272  20.2033  20.2130  20.2924  20.3308
[...]

     The total energy is the sum of the following terms:

     one-electron contribution =  -24455.11465849 Ry
     hartree contribution      =   12248.56776940 Ry
     xc contribution           =    -330.49692212 Ry
     ewald contribution        =   10405.81976288 Ry
     smearing contrib. (-TS)   =      -0.00122504 Ry

     convergence has been achieved in  28 iterations

     Forces acting on atoms (Ry/au):

     negative rho (up, down):  0.577E+00 0.000E+00
     atom    1 type  1   force =    -0.01242635   -0.01944761   -0.02110969
     atom    2 type  1   force =     0.00018876    0.03113520   -0.07769127
     atom    3 type  2   force =    -0.00036971   -0.00785894    0.09354627
     atom    4 type  2   force =     0.01657210    0.01046042   -0.02321078
     atom    5 type  1   force =     0.00159501   -0.02604120    0.00165125
     atom    6 type  1   force =     0.00135900    0.02390810    0.00150799
     atom    7 type  1   force =     0.00007083   -0.00247450    0.02606638
     atom    8 type  1   force =     0.00173734   -0.00128051   -0.04967459
     atom    9 type  2   force =     0.00030361    0.00068145    0.08980168
     atom   10 type  2   force =     0.00019681   -0.00058116   -0.09061645
     atom   11 type  1   force =    -0.00021847    0.00472581    0.02612564
     atom   12 type  1   force =    -0.00009096   -0.00546546    0.02654116
     atom   13 type  1   force =    -0.00225609    0.00034736   -0.05391619
     atom   14 type  1   force =    -0.01242091   -0.01944762   -0.02110387
     atom   15 type  1   force =     0.00019639    0.03113592   -0.07769134
     atom   16 type  2   force =    -0.00036594   -0.00785972    0.09354698
     atom   17 type  2   force =     0.01656999    0.01046028   -0.02320932
     atom   18 type  1   force =     0.00158559   -0.02604515    0.00165176
     atom   19 type  1   force =     0.00134931    0.02391203    0.00150839
     atom   20 type  1   force =     0.00008043   -0.00247452    0.02605461
     atom   21 type  1   force =     0.00174633   -0.00128052   -0.04968113
     atom   22 type  2   force =     0.00030618    0.00068154    0.08980691
     atom   23 type  2   force =     0.00019657   -0.00058105   -0.09061401
     atom   24 type  1   force =    -0.00019960    0.00472841    0.02612501
     atom   25 type  1   force =    -0.00007201   -0.00546795    0.02654059
     atom   26 type  1   force =    -0.00224788    0.00034739   -0.05391284
     atom   27 type  3   force =    -0.00081822   -0.01415646    0.00448338
     atom   28 type  3   force =    -0.00081814   -0.01415659    0.00448379
     atom   29 type  3   force =    -0.00587507    0.00604751    0.04649500
     atom   30 type  3   force =    -0.00587491    0.00604754    0.04649469

     Total force =     0.289644     Total SCF correction =     0.000820

     BFGS Geometry Optimization

     number of scf cycles    =   1
     number of bfgs steps    =   0

     energy   new            =   -2131.2252733717 Ry

     new trust radius        =       0.0935469801 bohr
     new conv_thr            =       0.0000010000 Ry

ATOMIC_POSITIONS (crystal)
O0       0.000000000   0.000000000   0.378276967    0   0   1
O0       0.000000000   0.500000000   0.406253087    0   0   1
Ru1      0.250000000   0.500000000   0.455774643    0   0   1
Ru1      0.000000000   0.000000000   0.453434862    0   0   1
O0       0.250000000   0.810000000   0.453933091    0   0   1
O0       0.250000000   0.190000000   0.453930220    0   0   1
O0       0.000000000   0.500000000   0.500522364    0   0   1
O0       0.000000000   0.000000000   0.528114534    0   0   1
Ru1      0.250000000   0.000000000   0.577009602    0   0   1
Ru1      0.000000000   0.500000000   0.573394070    0   0   1
O0       0.250000000   0.690000000   0.575733551    0   0   1
O0       0.250000000   0.310000000   0.575741878    0   0   1
O0       0.000000000   0.000000000   0.620219533    0   0   1
O0       0.500000000   0.000000000   0.378277084    0   0   1
O0       0.500000000   0.500000000   0.406253086    0   0   1
Ru1      0.750000000   0.500000000   0.455774657    0   0   1
Ru1      0.500000000   0.000000000   0.453434891    0   0   1
O0       0.750000000   0.810000000   0.453933101    0   0   1
O0       0.750000000   0.190000000   0.453930228    0   0   1
O0       0.500000000   0.500000000   0.500522128    0   0   1
O0       0.500000000   0.000000000   0.528114403    0   0   1
Ru1      0.750000000   0.000000000   0.577009707    0   0   1
Ru1      0.500000000   0.500000000   0.573394118    0   0   1
O0       0.750000000   0.690000000   0.575733538    0   0   1
O0       0.750000000   0.310000000   0.575741867    0   0   1
O0       0.500000000   0.000000000   0.620219600    0   0   1
H2      -0.000069388   0.623710656   0.385179846
H2       0.499930619   0.623710644   0.385179854
H2       0.127711770   0.000499534   0.356901748
H2       0.627711784   0.000499536   0.356901742

     Check: negative starting charge=   -0.522338
     NEW-OLD atomic charge density approx. for the potential

     Check: negative/imaginary core charge=   -0.000003    0.000000
     Check: negative starting charge=   -0.523516

[...]

     energy   old            =   -2131.2252733717 Ry
     energy   new            =   -2131.2794326481 Ry

     CASE: energy  _new < energy  _old

[...]

     number of scf cycles    =  22
     number of bfgs steps    =  21

     energy   old            =   -2131.3161203693 Ry
     energy   new            =   -2131.3161969175 Ry

     CASE: energy  _new < energy  _old

     new trust radius        =       0.0057582057 bohr
     new conv_thr            =       0.0000000100 Ry

ATOMIC_POSITIONS (crystal)
O0       0.000000000   0.000000000   0.379987585    0   0   1
O0       0.000000000   0.500000000   0.402270915    0   0   1
Ru1      0.250000000   0.500000000   0.453125376    0   0   1
Ru1      0.000000000   0.000000000   0.454068657    0   0   1
O0       0.250000000   0.810000000   0.453607262    0   0   1
O0       0.250000000   0.190000000   0.453551247    0   0   1
O0       0.000000000   0.500000000   0.498757790    0   0   1
O0       0.000000000   0.000000000   0.528032087    0   0   1
Ru1      0.250000000   0.000000000   0.578651838    0   0   1
Ru1      0.000000000   0.500000000   0.569805934    0   0   1
O0       0.250000000   0.690000000   0.576287296    0   0   1
O0       0.250000000   0.310000000   0.576635229    0   0   1
O0       0.000000000   0.000000000   0.620026236    0   0   1
O0       0.500000000   0.000000000   0.379986266    0   0   1
O0       0.500000000   0.500000000   0.402270660    0   0   1
Ru1      0.750000000   0.500000000   0.453125342    0   0   1
Ru1      0.500000000   0.000000000   0.454068369    0   0   1
O0       0.750000000   0.810000000   0.453607280    0   0   1
O0       0.750000000   0.190000000   0.453551307    0   0   1
O0       0.500000000   0.500000000   0.498757226    0   0   1
O0       0.500000000   0.000000000   0.528033261    0   0   1
Ru1      0.750000000   0.000000000   0.578652381    0   0   1
Ru1      0.500000000   0.500000000   0.569805621    0   0   1
O0       0.750000000   0.690000000   0.576286791    0   0   1
O0       0.750000000   0.310000000   0.576634759    0   0   1
O0       0.500000000   0.000000000   0.620027285    0   0   1
H2      -0.000407914   0.629870252   0.381921289
H2       0.499591984   0.629870958   0.381921224
H2       0.146466672   0.028897197   0.367691852
H2       0.646468391   0.028897699   0.367691635

     Check: negative starting charge=   -0.522182
     NEW-OLD atomic charge density approx. for the potential

     Check: negative/imaginary core charge=   -0.000003    0.000000
     Check: negative starting charge=   -0.522088

[...]

     Self-consistent Calculation

[...]

     total energy              =   -2131.31621613 Ry
     Harris-Foulkes estimate   =   -2131.31621614 Ry
     estimated scf accuracy    <       0.00000003 Ry

     iteration # 16     ecut=    40.00 Ry     beta=0.30
     Davidson diagonalization with overlap
     ethr =  1.08E-11,  avg # of iterations =  1.0

     negative rho (up, down):  0.577E+00 0.000E+00

     End of self-consistent calculation

[...]

          k = 0.2500-0.4870 0.0000 ( 30468 PWs)   bands (ev):

[...]

          k =-0.2500 0.2435 0.0000 ( 30434 PWs)   bands (ev):

   -74.6598 -74.6523 -74.4114 -74.4041 -74.2705 -74.2631 -74.1453 -74.1382
   -44.7950 -44.6648 -44.6408 -44.6312 -44.6278 -44.6193 -44.5363 -44.5169
   -44.5159 -44.5072 -44.3724 -44.3161 -44.2915 -44.2729 -44.2528 -44.1918
   -44.1897 -44.1884 -44.1374 -44.0943 -44.0731 -44.0505 -44.0299 -44.0172
   -20.9479 -20.5156 -20.4456 -20.3963 -20.2359 -20.1390 -19.8563 -19.7745
   -19.6918 -19.5554 -19.5267 -19.4809 -19.3320 -19.2930 -19.1840 -19.1542
   -19.0569 -18.8345  -9.0589  -8.5385  -8.4994  -8.4274  -8.0847  -8.0774
    -7.9457  -7.9302  -7.8843  -7.7251  -7.6187  -7.5923  -7.5478  -7.4732
    -7.3283  -7.3229  -7.1989  -7.1752  -6.7961  -6.7068  -6.6522  -6.5116
    -6.4340  -6.0644  -5.9345  -5.8438  -5.7437  -5.5530  -5.4665  -5.4383
    -5.3984  -5.2831  -5.2647  -5.1753  -5.0283  -4.9854  -4.8959  -4.8534
    -4.7253  -4.6799  -4.5254  -4.4671  -4.2279  -4.2160  -4.0920  -4.0602
    -3.9528  -3.8205  -3.7521  -3.4616  -3.4453  -3.1255  -3.0767  -2.7097
    -2.1526  -2.0534  -1.9100  -1.7547  -1.6318  -1.5735  -1.5278  -1.3735
    -1.3657  -1.3137  -1.2837  -1.2348  -1.2065  -1.1229  -1.0389  -0.9635
    -0.6127  -0.5025  -0.4501  -0.3427  -0.2942  -0.0685   0.0232   0.1873
     0.5657   0.7446   1.4514   1.6022   1.6584   2.0850   2.2050   2.5184
     2.6920   3.0117   3.1496   3.1594   3.2570   3.3608   3.6334   3.7030
     4.0691   4.2893   4.6904   5.1149   5.5543   5.8154   5.8808   5.9819
     6.1131   6.4183   6.5795   6.5986   6.6838   6.9113   6.9992   7.2220
     7.4909   7.5679   7.7586   7.9219   7.9349   8.2097   8.2676   8.3851
     8.4049   8.4679   8.6846   8.7313   8.8494   8.9905   9.1594   9.1682
     9.2406   9.4713   9.5075   9.7730   9.7954   9.8873   9.9496  10.0287
    10.1413  10.2508  10.3722  10.4278  10.4412  10.5889  10.6677  10.7120
    10.8416  10.9047  10.9979  11.1232  11.2701  11.2884  11.4372  11.4981
    11.6018  11.6294  11.6627  11.8064  11.8485  11.9481  12.0495  12.0524
    12.1516  12.2616  12.3731  12.4437  12.4988  12.5303  12.5922  12.6523
    12.7553  12.7805  12.9087  12.9147  12.9567  13.1036  13.2012  13.3147
    13.3318  13.4502  13.5030  13.6068  13.7063  13.7475  13.8509  13.9061
    13.9648  14.0290  14.1567  14.2850  14.3046  14.3728  14.4900  14.4967
    14.5638  14.6561  14.7216  14.7903  14.8495  14.9653  15.0290  15.0538
    15.1959  15.3500  15.5246  15.5667  15.6677  15.6860  15.7632  15.8392
    15.8408  15.9008  15.9436  15.9506  16.0276  16.0883  16.1591  16.2068
    16.2860  16.3770  16.4237  16.5368  16.6044  16.7069  16.7128  16.8031
    16.8227  16.8334  16.9960  17.0051  17.0513  17.2114  17.2148  17.3444
    17.4353  17.4816  17.5058  17.5656  17.5858  17.6365  17.7382  17.7517
    17.8619  17.8716  17.9941  18.0218  18.0850  18.1688  18.1748  18.3122
    18.3247  18.4568  18.4835  18.6011  18.6228  18.7412  18.7637  18.9150
    18.9972  19.0644  19.1361  19.1507  19.2580  19.2604  19.3430  19.4275
    19.4377  19.5344  19.5849  19.7757  19.7910  19.8534  19.9300  19.9391
    19.9943  20.1782  20.2153  20.3586  20.3660  20.5420  20.5985  20.6290
    20.7515  20.7529  20.8623  20.9013  20.9562  21.0122  21.0411  21.1293
    21.1637  21.2678  21.3248  21.3496  21.4156  21.4239  21.4803  21.5919
    21.6391  21.6705  21.7740  21.8023

     the Fermi energy is    -0.7608 ev

!    total energy              =   -2131.31621613 Ry
     Harris-Foulkes estimate   =   -2131.31621613 Ry
     estimated scf accuracy    <          4.0E-09 Ry

     The total energy is the sum of the following terms:

     one-electron contribution =  -24448.12966506 Ry
     hartree contribution      =   12243.72938455 Ry
     xc contribution           =    -330.62626652 Ry
     ewald contribution        =   10403.70967855 Ry
     smearing contrib. (-TS)   =       0.00065235 Ry

     convergence has been achieved in  16 iterations

     Forces acting on atoms (Ry/au):

     negative rho (up, down):  0.577E+00 0.000E+00
     atom    1 type  1   force =    -0.00557411   -0.01202776    0.00028658
     atom    2 type  1   force =    -0.00014831    0.00908145    0.00062134
     atom    3 type  2   force =    -0.00021860   -0.00018856   -0.00002302
     atom    4 type  2   force =     0.00400098    0.00671815   -0.00004776
     atom    5 type  1   force =     0.00169252   -0.02603168   -0.00042791
     atom    6 type  1   force =     0.00043337    0.02589556   -0.00027848
     atom    7 type  1   force =     0.00010831   -0.00203692    0.00008889
     atom    8 type  1   force =    -0.00014847   -0.00092379   -0.00093113
     atom    9 type  2   force =     0.00096007    0.00018104    0.00023914
     atom   10 type  2   force =     0.00006028    0.00042031   -0.00003075
     atom   11 type  1   force =    -0.00000212   -0.00003476    0.00003033
     atom   12 type  1   force =     0.00000536   -0.00089733    0.00006010
     atom   13 type  1   force =    -0.00164882   -0.00010999    0.00089324
     atom   14 type  1   force =    -0.00556627   -0.01202755    0.00031264
     atom   15 type  1   force =    -0.00013799    0.00908378    0.00062474
     atom   16 type  2   force =    -0.00021482   -0.00018911   -0.00001784
     atom   17 type  2   force =     0.00399995    0.00671813   -0.00004850
     atom   18 type  1   force =     0.00167647   -0.02603803   -0.00042886
     atom   19 type  1   force =     0.00041738    0.02590230   -0.00027992
     atom   20 type  1   force =     0.00012090   -0.00203690    0.00010157
     atom   21 type  1   force =    -0.00015052   -0.00092396   -0.00096038
     atom   22 type  2   force =     0.00094399    0.00018059    0.00022747
     atom   23 type  2   force =     0.00005770    0.00042021   -0.00003206
     atom   24 type  1   force =    -0.00000921   -0.00003681    0.00003332
     atom   25 type  1   force =    -0.00000176   -0.00089510    0.00006277
     atom   26 type  1   force =    -0.00165569   -0.00010977    0.00088547
     atom   27 type  3   force =     0.00001190   -0.00036562   -0.00024420
     atom   28 type  3   force =     0.00001221   -0.00036621   -0.00024344
     atom   29 type  3   force =     0.00048883    0.00031938   -0.00023629
     atom   30 type  3   force =     0.00048648    0.00031895   -0.00023706

     Total force =     0.002485     Total SCF correction =     0.000176

     bfgs converged in  23 scf cycles and  22 bfgs steps
     (criteria: energy < 0.10E-03, force < 0.10E-02)

     End of BFGS Geometry Optimization

     Final energy   =   -2131.3162161321 Ry
Begin final coordinates

ATOMIC_POSITIONS (crystal)
O0       0.000000000   0.000000000   0.379987585    0   0   1
O0       0.000000000   0.500000000   0.402270915    0   0   1
Ru1      0.250000000   0.500000000   0.453125376    0   0   1
Ru1      0.000000000   0.000000000   0.454068657    0   0   1
O0       0.250000000   0.810000000   0.453607262    0   0   1
O0       0.250000000   0.190000000   0.453551247    0   0   1
O0       0.000000000   0.500000000   0.498757790    0   0   1
O0       0.000000000   0.000000000   0.528032087    0   0   1
Ru1      0.250000000   0.000000000   0.578651838    0   0   1
Ru1      0.000000000   0.500000000   0.569805934    0   0   1
O0       0.250000000   0.690000000   0.576287296    0   0   1
O0       0.250000000   0.310000000   0.576635229    0   0   1
O0       0.000000000   0.000000000   0.620026236    0   0   1
O0       0.500000000   0.000000000   0.379986266    0   0   1
O0       0.500000000   0.500000000   0.402270660    0   0   1
Ru1      0.750000000   0.500000000   0.453125342    0   0   1
Ru1      0.500000000   0.000000000   0.454068369    0   0   1
O0       0.750000000   0.810000000   0.453607280    0   0   1
O0       0.750000000   0.190000000   0.453551307    0   0   1
O0       0.500000000   0.500000000   0.498757226    0   0   1
O0       0.500000000   0.000000000   0.528033261    0   0   1
Ru1      0.750000000   0.000000000   0.578652381    0   0   1
Ru1      0.500000000   0.500000000   0.569805621    0   0   1
O0       0.750000000   0.690000000   0.576286791    0   0   1
O0       0.750000000   0.310000000   0.576634759    0   0   1
O0       0.500000000   0.000000000   0.620027285    0   0   1
H2      -0.000407914   0.629870252   0.381921289
H2       0.499591984   0.629870958   0.381921224
H2       0.146466672   0.028897197   0.367691852
H2       0.646468391   0.028897699   0.367691635
End final coordinates

     General routines

     Parallel routines

   This run was terminated on:  17:26:55  28Feb2014

   JOB DONE.