     Program PWSCF v.5.0.2 (svn rev. 9656) starts on 18Mar2014 at  2:33:56

     Current dimensions of program PWSCF are:
     Max number of different atomic species (ntypx) = 10
     Max number of k-points (npk) =  40000
     Max angular momentum in pseudopotentials (lmaxx) =  3
     Reading input from pwscf.in
Warning: card &CELL ignored
Warning: card / ignored

     Subspace diagonalization in iterative solution of the eigenvalue problem:
     a serial algorithm will be used

     bravais-lattice index     =            0
     lattice parameter (alat)  =      10.3179  a.u.
     unit-cell volume          =    6964.3238 (a.u.)^3
     number of atoms/cell      =           31
     number of atomic types    =            3
     number of electrons       =       230.00
     number of Kohn-Sham states=          345
     kinetic-energy cutoff     =      40.0000  Ry
     charge density cutoff     =     500.0000  Ry
     convergence threshold     =      1.0E-06
     mixing beta               =       0.7000
     number of iterations used =            8  plain     mixing
     Exchange-correlation      = SLA  PW   PBE  PBE ( 1 4 3 4 0)
     EXX-fraction              =        0.00
     nstep                     =           50

     celldm(1)=  10.317905  celldm(2)=   0.000000  celldm(3)=   0.000000
     celldm(4)=   0.000000  celldm(5)=   0.000000  celldm(6)=   0.000000

     crystal axes: (cart. coord. in units of alat)
               a(1) = (   1.000000   0.000000   0.000000 )
               a(2) = (   0.000000   1.282117   0.000000 )
               a(3) = (   0.000000   0.000000   4.945120 )

     reciprocal axes: (cart. coord. in units 2 pi/alat)
               b(1) = (  1.000000  0.000000  0.000000 )
               b(2) = (  0.000000  0.779960  0.000000 )
               b(3) = (  0.000000  0.000000  0.202220 )

     PseudoPot. # 1 for O  read from file:
     /home/camp/zhonxu/pseudo/o_pbe_v1.01.uspp.F.UPF
     MD5 check sum: 2bcb18d16ea4b960afae9ec6d52f22d2
     Pseudo is Ultrasoft + core correction, Zval =  6.0
     Generated by new atomic code, or converted to UPF format
     Using radial grid of  737 points,  5 beta functions with:
                l(1) =   0
                l(2) =   0
                l(3) =   1
                l(4) =   1
                l(5) =   2
     Q(r) pseudized with  8 coefficients,  rinner =    0.900   0.900   0.900
                                                       0.900   0.900

     PseudoPot. # 2 for Mo read from file:
     /home/camp/zhonxu/pseudo/mo_pbe_v1.uspp.F.UPF
     MD5 check sum: 30c4dcd161f5d35cd49bb5239c51a633
     Pseudo is Ultrasoft + core correction, Zval = 14.0
     Generated by new atomic code, or converted to UPF format
     Using radial grid of  889 points,  6 beta functions with:
                l(1) =   0
                l(2) =   0
                l(3) =   1
                l(4) =   1
                l(5) =   2
                l(6) =   2
     Q(r) pseudized with  6 coefficients,  rinner =    1.000   1.000   1.000
                                                       1.000   1.000

     PseudoPot. # 3 for H  read from file:
     /home/camp/zhonxu/pseudo/h_pbe_v1.uspp.F.UPF
     MD5 check sum: 3408e3ff4ec8b0a4e358431e7e038a48
     Pseudo is Ultrasoft, Zval =  1.0
     Generated by new atomic code, or converted to UPF format
     Using radial grid of  615 points,  2 beta functions with:
                l(1) =   0
                l(2) =   0
     Q(r) pseudized with  8 coefficients,  rinner =    0.700

     atomic species   valence    mass     pseudopotential
        O0             6.00    15.99940     O ( 1.00)
        Mo1           14.00    95.94000     Mo( 1.00)
        H2             1.00     1.00794     H ( 1.00)

     Starting magnetic structure
     atomic species   magnetization
        O0           0.000
        Mo1          0.000
        H2           0.000

     No symmetry found

   Cartesian axes

     site n.     atom                  positions (alat units)
         1           O0  tau(   1) = (   0.0000000   0.0000000   1.8465574  )
         2           O0  tau(   2) = (   0.0000000   0.6410583   1.8808271  )
         3           Mo1 tau(   3) = (   0.2500000   0.6410583   2.1650231  )
         4           Mo1 tau(   4) = (   0.0000000   0.0000000   2.2064633  )
         5           O0  tau(   5) = (   0.2500000   1.0000510   2.1927158  )
         6           O0  tau(   6) = (   0.2500000   0.2820657   2.1921224  )
         7           O0  tau(   7) = (   0.0000000   0.6410583   2.4520379  )
         8           O0  tau(   8) = (   0.0000000   0.0000000   2.5658746  )
         9           Mo1 tau(   9) = (   0.2500000   0.0000000   2.8596642  )
        10           Mo1 tau(  10) = (   0.0000000   0.6410583   2.7884050  )
        11           O0  tau(  11) = (   0.2500000   0.9231240   2.8369661  )
        12           O0  tau(  12) = (   0.2500000   0.3589927   2.8372628  )
        13           O0  tau(  13) = (   0.0000000   0.0000000   3.1104807  )
        14           O0  tau(  14) = (   0.5000000   0.0000000   1.8465574  )
        15           O0  tau(  15) = (   0.5000000   0.6410583   1.8808271  )
        16           Mo1 tau(  16) = (   0.7500000   0.6410583   2.1650231  )
        17           Mo1 tau(  17) = (   0.5000000   0.0000000   2.2064633  )
        18           O0  tau(  18) = (   0.7500000   1.0000510   2.1927158  )
        19           O0  tau(  19) = (   0.7500000   0.2820657   2.1921224  )
        20           O0  tau(  20) = (   0.5000000   0.6410583   2.4520379  )
        21           O0  tau(  21) = (   0.5000000   0.0000000   2.5658746  )
        22           Mo1 tau(  22) = (   0.7500000   0.0000000   2.8596642  )
        23           Mo1 tau(  23) = (   0.5000000   0.6410583   2.7884050  )
        24           O0  tau(  24) = (   0.7500000   0.9231240   2.8369661  )
        25           O0  tau(  25) = (   0.7500000   0.3589927   2.8372628  )
        26           O0  tau(  26) = (   0.5000000   0.0000000   3.1104807  )
        27           H2  tau(  27) = (  -0.0004900   0.7868222   1.7746059  )
        28           H2  tau(  28) = (   0.4995100   0.7868222   1.7746059  )
        29           H2  tau(  29) = (   0.1657500   0.0265270   1.7749026  )
        30           H2  tau(  30) = (   0.6657500   0.0265270   1.7749026  )
        31           O0  tau(  31) = (   0.5000000   0.6410583   3.0738374  )

     number of k points=    20  Methfessel-Paxton smearing, width (Ry)=  0.0100
                       cart. coord. in units 2pi/alat
        k(    1) = (   0.0000000   0.0000000   0.0000000), wk =   0.0625000
        k(    2) = (   0.0000000   0.1949901   0.0000000), wk =   0.1250000
        k(    3) = (   0.0000000  -0.3899801   0.0000000), wk =   0.0625000
        k(    4) = (   0.2500000   0.0000000   0.0000000), wk =   0.1250000
        k(    5) = (   0.2500000   0.1949901   0.0000000), wk =   0.1250000
        k(    6) = (   0.2500000  -0.3899801   0.0000000), wk =   0.1250000
        k(    7) = (  -0.5000000   0.0000000   0.0000000), wk =   0.0625000
        k(    8) = (  -0.5000000   0.1949901   0.0000000), wk =   0.1250000
        k(    9) = (  -0.5000000  -0.3899801   0.0000000), wk =   0.0625000
        k(   10) = (  -0.2500000   0.1949901   0.0000000), wk =   0.1250000
        k(   11) = (   0.0000000   0.0000000   0.0000000), wk =   0.0625000
        k(   12) = (   0.0000000   0.1949901   0.0000000), wk =   0.1250000
        k(   13) = (   0.0000000  -0.3899801   0.0000000), wk =   0.0625000
        k(   14) = (   0.2500000   0.0000000   0.0000000), wk =   0.1250000
        k(   15) = (   0.2500000   0.1949901   0.0000000), wk =   0.1250000
        k(   16) = (   0.2500000  -0.3899801   0.0000000), wk =   0.1250000
        k(   17) = (  -0.5000000   0.0000000   0.0000000), wk =   0.0625000
        k(   18) = (  -0.5000000   0.1949901   0.0000000), wk =   0.1250000
        k(   19) = (  -0.5000000  -0.3899801   0.0000000), wk =   0.0625000
        k(   20) = (  -0.2500000   0.1949901   0.0000000), wk =   0.1250000

     Largest allocated arrays     est. size (Mb)     dimensions
     Largest temporary arrays     est. size (Mb)     dimensions

     Check: negative/imaginary core charge=   -0.000003    0.000000

     Initial potential from superposition of free atoms
     Check: negative starting charge=(component1):   -0.001233
     Check: negative starting charge=(component2):   -0.001233

     starting charge  229.99143, renormalised to  230.00000

     negative rho (up, down):  0.123E-02 0.123E-02
     Starting wfc are  184 randomized atomic wfcs

     Self-consistent Calculation

     iteration #  1     ecut=    40.00 Ry     beta=0.70
     Davidson diagonalization with overlap
     ethr =  1.00E-02,  avg # of iterations =  6.3

     negative rho (up, down):  0.173E-02 0.173E-02

     total energy              =   -1727.42130473 Ry
     Harris-Foulkes estimate   =   -1734.35259882 Ry
     estimated scf accuracy    <       8.96210674 Ry

     total magnetization       =     0.00 Bohr mag/cell
     absolute magnetization    =     0.01 Bohr mag/cell

[...]

     End of self-consistent calculation

 ------ SPIN UP ------------

          k = 0.0000 0.0000 0.0000 ( 29769 PWs)   bands (ev):

   -62.8248 -62.7037 -62.6929 -62.5953 -62.5913 -62.5515 -62.4764 -62.4520
   -37.8158 -37.5204 -37.1640 -37.1314 -37.0959 -37.0417 -37.0154 -37.0131
   -36.9366 -36.9244 -36.7983 -36.7806 -36.7661 -36.7490 -36.7438 -36.6454
   -36.6111 -36.5666 -36.5577 -36.4248 -36.3450 -36.1303 -36.0540 -36.0115
   -21.1941 -20.8533 -20.3140 -20.0751 -19.9587 -19.8088 -19.6991 -19.3631
   -19.3606 -19.3150 -19.1261 -19.1153 -18.9760 -18.9691 -18.9612 -18.8070
   -18.3021 -18.0768 -17.5867  -9.2329  -8.9556  -8.6934  -8.5154  -8.4742
    -8.0335  -7.6845  -7.6018  -7.5485  -7.3130  -7.2057  -7.1791  -7.1429
    -7.0032  -6.9201  -6.7723  -6.5815  -6.5471  -6.4784  -6.3694  -6.3629
    -6.2389  -6.1350  -5.6352  -5.5126  -5.4481  -5.3061  -5.2997  -5.2592
    -5.1643  -5.1101  -5.0224  -4.8615  -4.8214  -4.7103  -4.5541  -4.4126
    -4.3931  -4.3427  -4.2977  -4.1545  -4.0128  -3.9120  -3.8460  -3.7268
    -3.4744  -3.4194  -3.3732  -3.3452  -3.3337  -3.2535  -3.1343  -3.0882
    -2.8966  -2.7822  -2.7078  -2.6486  -2.6023  -2.4271  -2.2296  -0.8220
    -0.5398  -0.3054  -0.1581   0.1133   0.1981   0.2663   0.3177   0.4682
     0.4779   0.8965   1.0455   1.1545   1.7092   1.7851   1.9539   2.0883
     2.6988   2.7276   2.7594   2.7856   2.9006   2.9011   3.3004   3.7668
     3.8983   3.9127   4.0764   4.1171   4.2104   4.3267   4.3472   4.5143
     4.5829   4.7203   4.7681   4.7717   4.9473   5.1695   5.4156   5.7352
     5.8666   6.1367   6.4555   6.7401   6.8463   7.3847   7.4376   7.5743
     7.6265   7.8914   7.9287   8.0074   8.0986   8.3123   8.4425   8.4615
     8.4835   8.7934   8.8888   9.0885   9.1446   9.1978   9.2192   9.3999
     9.4716   9.5825   9.6779   9.7297   9.7447   9.8434   9.8480   9.9963
    10.1185  10.1426  10.2266  10.3471  10.3565  10.5492  10.5934  10.6247
    10.8266  10.9038  10.9642  11.1163  11.2990  11.4413  11.5411  11.6525
[...]
     atom   11 type  1   force =    -0.05087505   -0.01003888   -0.04304510
     atom   12 type  1   force =    -0.05127664    0.00961174   -0.04354314
     atom   13 type  1   force =    -0.00004673   -0.00046414   -0.01507455
     atom   14 type  1   force =    -0.00339364   -0.00482390    0.00063865
     atom   15 type  1   force =     0.00007727    0.00823991    0.00130617
     atom   16 type  2   force =     0.04641523   -0.00681636    0.00095179
     atom   17 type  2   force =    -0.00074377    0.00390830    0.00297028
     atom   18 type  1   force =     0.00109922   -0.00094017    0.00095140
     atom   19 type  1   force =    -0.00114069   -0.00451970    0.00137032
     atom   20 type  1   force =     0.00010031    0.00264918   -0.20011117
     atom   21 type  1   force =     0.00300853    0.00037703   -0.00291579
     atom   22 type  2   force =    -0.01424145    0.00013494    0.01361273
     atom   23 type  2   force =    -0.00000544   -0.00037142   -0.10884486
     atom   24 type  1   force =     0.05122285   -0.01005145   -0.04314224
     atom   25 type  1   force =     0.05116033    0.00962686   -0.04341893
     atom   26 type  1   force =    -0.00007338    0.00010388   -0.01067297
     atom   27 type  3   force =     0.00001839   -0.00112430   -0.00291574
     atom   28 type  3   force =     0.00002590    0.00099356    0.00098729
     atom   29 type  3   force =     0.00237407   -0.00083099   -0.00006524
     atom   30 type  3   force =     0.00037667   -0.00038611   -0.00004779
     atom   31 type  1   force =    -0.00000100    0.00060154    0.45293863

     Total force =     0.452939     Total SCF correction =     0.000110

     BFGS Geometry Optimization

     number of scf cycles    =   1
     number of bfgs steps    =   0

     energy   new            =   -1732.3443160568 Ry

     new trust radius        =       0.4529390262 bohr
     new conv_thr            =       0.0000010000 Ry

ATOMIC_POSITIONS (crystal)
O0       0.000000000   0.000000000   0.373410000    0   0   0
O0       0.000000000   0.500000000   0.380340000    0   0   0
Mo1      0.250000000   0.500000000   0.437810000    0   0   0
Mo1      0.000000000   0.000000000   0.446190000    0   0   0
O0       0.250000000   0.780000000   0.443410000    0   0   0
O0       0.250000000   0.220000000   0.443290000    0   0   0
O0       0.000000000   0.500000000   0.495850000    0   0   0
O0       0.000000000   0.000000000   0.518870000    0   0   0
Mo1      0.250000000   0.000000000   0.578280000    0   0   0
Mo1      0.000000000   0.500000000   0.563870000    0   0   0
O0       0.250000000   0.720000000   0.573690000    0   0   0
O0       0.250000000   0.280000000   0.573750000    0   0   0
O0       0.000000000   0.000000000   0.629000000    0   0   0
O0       0.500000000   0.000000000   0.373410000    0   0   0
O0       0.500000000   0.500000000   0.380340000    0   0   0
Mo1      0.750000000   0.500000000   0.437810000    0   0   0
Mo1      0.500000000   0.000000000   0.446190000    0   0   0
O0       0.750000000   0.780000000   0.443410000    0   0   0
O0       0.750000000   0.220000000   0.443290000    0   0   0
O0       0.500000000   0.500000000   0.495850000    0   0   0
O0       0.500000000   0.000000000   0.518870000    0   0   0
Mo1      0.750000000   0.000000000   0.578280000    0   0   0
Mo1      0.500000000   0.500000000   0.563870000    0   0   0
O0       0.750000000   0.720000000   0.573690000    0   0   0
O0       0.750000000   0.280000000   0.573750000    0   0   0
O0       0.500000000   0.000000000   0.629000000    0   0   0
H2      -0.000490000   0.613690000   0.358860000    0   0   0
H2       0.499510000   0.613690000   0.358860000    0   0   0
H2       0.165750000   0.020690000   0.358920000    0   0   0
H2       0.665750000   0.020690000   0.358920000    0   0   0
O0       0.499999903   0.500045472   0.630467097

     Check: negative starting charge=(component1):   -0.002467
     NEW-OLD atomic charge density approx. for the potential

     Check: negative/imaginary core charge=   -0.000003    0.000000
     Check: negative starting charge=(component1):   -0.002458

[...]

     energy   old            =   -1732.3443160568 Ry
     energy   new            =   -1732.4078688290 Ry

     CASE: energy  _new < energy  _old

[...]

     number of scf cycles    =   4
     number of bfgs steps    =   3

     energy   old            =   -1732.4106029049 Ry
     energy   new            =   -1732.4112715257 Ry

     CASE: energy  _new < energy  _old

     new trust radius        =       0.0079802433 bohr
     new conv_thr            =       0.0000000565 Ry

ATOMIC_POSITIONS (crystal)
O0       0.000000000   0.000000000   0.373410000    0   0   0
O0       0.000000000   0.500000000   0.380340000    0   0   0
Mo1      0.250000000   0.500000000   0.437810000    0   0   0
Mo1      0.000000000   0.000000000   0.446190000    0   0   0
O0       0.250000000   0.780000000   0.443410000    0   0   0
O0       0.250000000   0.220000000   0.443290000    0   0   0
O0       0.000000000   0.500000000   0.495850000    0   0   0
O0       0.000000000   0.000000000   0.518870000    0   0   0
Mo1      0.250000000   0.000000000   0.578280000    0   0   0
Mo1      0.000000000   0.500000000   0.563870000    0   0   0
O0       0.250000000   0.720000000   0.573690000    0   0   0
O0       0.250000000   0.280000000   0.573750000    0   0   0
O0       0.000000000   0.000000000   0.629000000    0   0   0
O0       0.500000000   0.000000000   0.373410000    0   0   0
O0       0.500000000   0.500000000   0.380340000    0   0   0
Mo1      0.750000000   0.500000000   0.437810000    0   0   0
Mo1      0.500000000   0.000000000   0.446190000    0   0   0
O0       0.750000000   0.780000000   0.443410000    0   0   0
O0       0.750000000   0.220000000   0.443290000    0   0   0
O0       0.500000000   0.500000000   0.495850000    0   0   0
O0       0.500000000   0.000000000   0.518870000    0   0   0
Mo1      0.750000000   0.000000000   0.578280000    0   0   0
Mo1      0.500000000   0.500000000   0.563870000    0   0   0
O0       0.750000000   0.720000000   0.573690000    0   0   0
O0       0.750000000   0.280000000   0.573750000    0   0   0
O0       0.500000000   0.000000000   0.629000000    0   0   0
H2      -0.000490000   0.613690000   0.358860000    0   0   0
H2       0.499510000   0.613690000   0.358860000    0   0   0
H2       0.165750000   0.020690000   0.358920000    0   0   0
H2       0.665750000   0.020690000   0.358920000    0   0   0
O0       0.500000623   0.500115367   0.628502620

     Check: negative starting charge=(component1):   -0.002460
     NEW-OLD atomic charge density approx. for the potential

     Check: negative/imaginary core charge=   -0.000003    0.000000
     Check: negative starting charge=(component1):   -0.002460

[...]

     Self-consistent Calculation

[...]

     Threshold (ethr) on eigenvalues was too large:
     Diagonalizing with lowered threshold

     Davidson diagonalization with overlap
     ethr =  1.97E-08,  avg # of iterations =  1.0

[...]

     total energy              =   -1732.41129352 Ry
     Harris-Foulkes estimate   =   -1732.41129355 Ry
     estimated scf accuracy    <       0.00000013 Ry

[...]

     iteration # 11     ecut=    40.00 Ry     beta=0.70
     Davidson diagonalization with overlap
     ethr =  5.59E-11,  avg # of iterations =  1.0

     negative rho (up, down):  0.176E-02 0.176E-02

     End of self-consistent calculation

 ------ SPIN UP ------------

[...]

 ------ SPIN DOWN ----------

[...]

          k = 0.2500-0.3900 0.0000 ( 29726 PWs)   bands (ev):

[...]

          k =-0.2500 0.1950 0.0000 ( 29746 PWs)   bands (ev):

   -62.9670 -62.8814 -62.8499 -62.7690 -62.7405 -62.7392 -62.6576 -62.5748
   -37.5330 -37.2692 -37.2420 -37.1977 -37.1950 -37.1617 -37.0928 -37.0917
   -37.0746 -37.0445 -36.9815 -36.9467 -36.9230 -36.9006 -36.8951 -36.8206
   -36.8102 -36.7762 -36.7620 -36.7207 -36.5588 -36.4624 -36.3801 -36.3583
   -21.2751 -21.0361 -20.2989 -20.1544 -19.9051 -19.8879 -19.7893 -19.7186
   -19.6172 -19.5367 -19.3662 -19.3193 -19.1309 -19.1245 -19.0962 -18.9174
   -18.4879 -18.3467 -17.1386  -9.2445  -9.1223  -8.5319  -8.0977  -8.0138
    -7.9942  -7.8719  -7.7446  -7.6800  -7.6369  -7.4985  -7.3433  -7.3021
    -7.2261  -7.0796  -6.7269  -6.6237  -6.5631  -6.3635  -6.3136  -6.2463
    -6.1899  -6.1092  -5.9778  -5.8357  -5.7772  -5.6418  -5.5804  -5.4649
    -5.2675  -5.1788  -5.0093  -4.9308  -4.8814  -4.7716  -4.7119  -4.6702
    -4.6075  -4.5667  -4.5328  -4.4241  -4.3380  -4.1633  -4.0257  -3.9217
    -3.8056  -3.7683  -3.6614  -3.5800  -3.5208  -3.3943  -3.2048  -3.1568
    -2.9729  -2.8573  -2.5040  -2.1706  -1.8922  -1.8170  -1.7631  -0.9315
    -0.8421  -0.7283  -0.5790  -0.1928  -0.1361   0.2759   0.3606   0.5328
     0.5981   0.7914   0.9065   1.0569   1.0883   1.2488   1.3718   1.5223
     1.5376   1.6559   1.8171   2.0383   2.2373   2.9188   3.1029   3.1763
     3.3174   3.3684   3.5028   3.7264   3.8979   4.0446   4.2907   4.4347
     4.6442   4.9353   5.1623   5.3241   5.3808   5.5568   5.5901   5.6839
     5.8084   5.9992   6.3817   6.5159   6.9221   7.0237   7.0643   7.2689
     7.4578   7.5634   7.6354   7.9525   8.0034   8.0854   8.2933   8.3596
     8.4233   8.4906   8.6986   8.7794   8.9645   9.0309   9.1875   9.2961
     9.4102   9.5456   9.5797   9.6985   9.7380   9.7779   9.9905  10.0671
    10.1269  10.2024  10.2529  10.3904  10.4590  10.5529  10.5981  10.7160
    10.8095  10.9128  11.0409  11.2345  11.3278  11.3802  11.5670  11.6338
    11.7096  11.7913  11.9641  12.0146  12.0331  12.1634  12.3011  12.3738
    12.4178  12.4656  12.5357  12.5981  12.7198  12.8363  12.9089  12.9909
    13.0257  13.1458  13.2117  13.2307  13.3322  13.4191  13.5060  13.5530
    13.6119  13.6685  13.6999  13.8090  13.8873  13.9424  14.0451  14.1456
    14.1994  14.3052  14.3635  14.4499  14.5306  14.6026  14.6271  14.6765
    14.7592  14.8386  14.9272  14.9578  15.0013  15.0862  15.1472  15.2340
    15.2581  15.4009  15.4804  15.6217  15.6860  15.7614  15.7973  15.8519
    15.9192  15.9965  16.0771  16.1455  16.1652  16.2348  16.2571  16.3244
    16.4183  16.5154  16.6614  16.7081  16.7690  16.8383  16.9335  16.9786
    17.0431  17.1223  17.2524  17.3382  17.3857  17.4528  17.4911  17.5676
    17.6812  17.7553  17.7892  17.8885  17.9934  18.0409  18.0857  18.1331
    18.2175  18.2710  18.3604  18.3933  18.4431  18.5258  18.6274  18.7212
    18.7522  18.7989  18.9001  18.9994  19.1054  19.2048  19.2329  19.3082
    19.3578  19.4785  19.5850  19.6752  19.7440  19.8024  19.8736  19.9576
    20.0049  20.0442  20.1222  20.1830  20.2228  20.3073  20.3656  20.4717
    20.5551  20.5723  20.5997  20.6349  20.7181  20.7566  20.8307  20.9074
    20.9665  20.9907  21.0591  21.0754  21.1457  21.2347  21.2662  21.3556
    21.4844  21.5707  21.6347  21.6534  21.6965  21.7101  21.7711  21.7975
    21.8512

     the Fermi energy is    -0.4367 ev

!    total energy              =   -1732.41129352 Ry
     Harris-Foulkes estimate   =   -1732.41129354 Ry
     estimated scf accuracy    <       0.00000002 Ry

     The total energy is the sum of the following terms:

     one-electron contribution =  -22172.88447053 Ry
     hartree contribution      =   11106.89927443 Ry
     xc contribution           =    -293.69622136 Ry
     ewald contribution        =    9627.26937277 Ry
     smearing contrib. (-TS)   =       0.00075117 Ry

     total magnetization       =    -0.00 Bohr mag/cell
     absolute magnetization    =     0.00 Bohr mag/cell

     convergence has been achieved in  11 iterations

     Forces acting on atoms (Ry/au):

     negative rho (up, down):  0.176E-02 0.176E-02
     atom    1 type  1   force =    -0.00433876   -0.00455252    0.00557056
     atom    2 type  1   force =    -0.00002751    0.01226230    0.00032507
     atom    3 type  2   force =    -0.04284228   -0.00576276   -0.00484959
     atom    4 type  2   force =     0.00063713    0.00569176   -0.01280198
     atom    5 type  1   force =     0.00267221   -0.00093670    0.00125588
     atom    6 type  1   force =     0.00061167   -0.00505447    0.00206146
     atom    7 type  1   force =     0.00019477    0.00062393    0.01258262
     atom    8 type  1   force =     0.00279835    0.00048185    0.00326773
     atom    9 type  2   force =     0.01068269    0.00054293    0.01748897
     atom   10 type  2   force =    -0.00007699    0.00068175    0.02141851
     atom   11 type  1   force =    -0.04331408   -0.01608528   -0.04307119
     atom   12 type  1   force =    -0.04352700    0.01552898   -0.04347205
     atom   13 type  1   force =    -0.00002953   -0.00052938   -0.01780294
     atom   14 type  1   force =    -0.00340691   -0.00479961    0.00126097
     atom   15 type  1   force =     0.00001109    0.00856371    0.00223302
     atom   16 type  2   force =     0.04239977   -0.00627717   -0.00501273
     atom   17 type  2   force =    -0.00061200    0.00398904    0.00122051
     atom   18 type  1   force =     0.00114656   -0.00068117    0.00150851
     atom   19 type  1   force =    -0.00135740   -0.00488365    0.00190922
     atom   20 type  1   force =     0.00005755    0.00216687   -0.14118399
     atom   21 type  1   force =     0.00295654    0.00034198   -0.00153524
     atom   22 type  2   force =    -0.01441516    0.00028548    0.01752549
     atom   23 type  2   force =     0.00000451    0.00003634    0.28313108
     atom   24 type  1   force =     0.04367140   -0.01608526   -0.04315100
     atom   25 type  1   force =     0.04342622    0.01552025   -0.04335313
     atom   26 type  1   force =    -0.00005536    0.00003526   -0.01393362
     atom   27 type  3   force =     0.00001890   -0.00093605   -0.00260220
     atom   28 type  3   force =     0.00002479    0.00085947    0.00064996
     atom   29 type  3   force =     0.00227327   -0.00084372   -0.00020377
     atom   30 type  3   force =     0.00041544   -0.00043115   -0.00018001
     atom   31 type  1   force =     0.00000012    0.00024699   -0.00025611

     Total force =     0.000356     Total SCF correction =     0.000033

     bfgs converged in   5 scf cycles and   4 bfgs steps
     (criteria: energy < 0.10E-03, force < 0.10E-02)

     End of BFGS Geometry Optimization

     Final energy   =   -1732.4112935215 Ry
Begin final coordinates

ATOMIC_POSITIONS (crystal)
O0       0.000000000   0.000000000   0.373410000    0   0   0
O0       0.000000000   0.500000000   0.380340000    0   0   0
Mo1      0.250000000   0.500000000   0.437810000    0   0   0
Mo1      0.000000000   0.000000000   0.446190000    0   0   0
O0       0.250000000   0.780000000   0.443410000    0   0   0
O0       0.250000000   0.220000000   0.443290000    0   0   0
O0       0.000000000   0.500000000   0.495850000    0   0   0
O0       0.000000000   0.000000000   0.518870000    0   0   0
Mo1      0.250000000   0.000000000   0.578280000    0   0   0
Mo1      0.000000000   0.500000000   0.563870000    0   0   0
O0       0.250000000   0.720000000   0.573690000    0   0   0
O0       0.250000000   0.280000000   0.573750000    0   0   0
O0       0.000000000   0.000000000   0.629000000    0   0   0
O0       0.500000000   0.000000000   0.373410000    0   0   0
O0       0.500000000   0.500000000   0.380340000    0   0   0
Mo1      0.750000000   0.500000000   0.437810000    0   0   0
Mo1      0.500000000   0.000000000   0.446190000    0   0   0
O0       0.750000000   0.780000000   0.443410000    0   0   0
O0       0.750000000   0.220000000   0.443290000    0   0   0
O0       0.500000000   0.500000000   0.495850000    0   0   0
O0       0.500000000   0.000000000   0.518870000    0   0   0
Mo1      0.750000000   0.000000000   0.578280000    0   0   0
Mo1      0.500000000   0.500000000   0.563870000    0   0   0
O0       0.750000000   0.720000000   0.573690000    0   0   0
O0       0.750000000   0.280000000   0.573750000    0   0   0
O0       0.500000000   0.000000000   0.629000000    0   0   0
H2      -0.000490000   0.613690000   0.358860000    0   0   0
H2       0.499510000   0.613690000   0.358860000    0   0   0
H2       0.165750000   0.020690000   0.358920000    0   0   0
H2       0.665750000   0.020690000   0.358920000    0   0   0
O0       0.500000623   0.500115367   0.628502620
End final coordinates

     General routines

     Parallel routines

   This run was terminated on:  11:36:59  18Mar2014

   JOB DONE.
Running PBS batch system epilogue script
Job id: 306620.audhumbla.fysik.dtu.dk
Username: zhonxu
Groupname: campgst
Jobname: MoO2/Eads-2-layers/O
Sessionid: 2517
Queuename: verylong
Accounting:
This job has allocated the following 16 nodes:
c039 c039 c039 c039 c039 c039 c039 c039 c011 c011 c011 c011 c011 c011 c011 c011
Finished epilogue job 306620.audhumbla.fysik.dtu.dk for zhonxu