     Program PWSCF v.5.0.2 (svn rev. 9656) starts on 24Jan2014 at 15:23:41

     Current dimensions of program PWSCF are:
     Max number of different atomic species (ntypx) = 10
     Max number of k-points (npk) =  40000
     Max angular momentum in pseudopotentials (lmaxx) =  3
     Reading input from TiO2-v-0.90.in

     Subspace diagonalization in iterative solution of the eigenvalue problem:
     a serial algorithm will be used

     bravais-lattice index     =            0
     lattice parameter (alat)  =       8.4608  a.u.
     unit-cell volume          =     390.3135 (a.u.)^3
     number of atoms/cell      =            6
     number of atomic types    =            2
     number of electrons       =        48.00
     number of Kohn-Sham states=           69
     kinetic-energy cutoff     =      40.0000  Ry
     charge density cutoff     =     500.0000  Ry
     convergence threshold     =      1.0E-06
     mixing beta               =       0.3000
     number of iterations used =            8  plain     mixing
     Exchange-correlation      = SLA  PW   PBE  PBE ( 1 4 3 4 0)
     EXX-fraction              =        0.00
     nstep                     =           50

     celldm(1)=   8.460760  celldm(2)=   0.000000  celldm(3)=   0.000000
     celldm(4)=   0.000000  celldm(5)=   0.000000  celldm(6)=   0.000000

     crystal axes: (cart. coord. in units of alat)
               a(1) = (   1.000000   0.000000   0.000000 )
               a(2) = (   0.000000   1.000000   0.000000 )
               a(3) = (   0.000000   0.000000   0.644444 )

     reciprocal axes: (cart. coord. in units 2 pi/alat)
               b(1) = (  1.000000  0.000000  0.000000 )
               b(2) = (  0.000000  1.000000  0.000000 )
               b(3) = (  0.000000  0.000000  1.551724 )

     PseudoPot. # 1 for Ti read from file:
     /home/camp/zhonxu/pseudo/ti_pbe_v1.uspp.F.UPF
     MD5 check sum: bcc8f6961b3b91f0cac3ca967d22d0fb
     Pseudo is Ultrasoft + core correction, Zval = 12.0
     Generated by new atomic code, or converted to UPF format
     Using radial grid of  851 points,  6 beta functions with:
                l(1) =   0
                l(2) =   0
                l(3) =   1
                l(4) =   1
                l(5) =   2
                l(6) =   2
     Q(r) pseudized with  6 coefficients,  rinner =    1.000   1.000   1.000
                                                       1.000   1.000

     PseudoPot. # 2 for O  read from file:
     /home/camp/zhonxu/pseudo/o_pbe_v1.01.uspp.F.UPF
     MD5 check sum: 2bcb18d16ea4b960afae9ec6d52f22d2
     Pseudo is Ultrasoft + core correction, Zval =  6.0
     Generated by new atomic code, or converted to UPF format
     Using radial grid of  737 points,  5 beta functions with:
                l(1) =   0
                l(2) =   0
                l(3) =   1
                l(4) =   1
                l(5) =   2
     Q(r) pseudized with  8 coefficients,  rinner =    0.900   0.900   0.900
                                                       0.900   0.900

     atomic species   valence    mass     pseudopotential
        Ti0           12.00    47.88000     Ti( 1.00)
        O1             6.00    15.99940     O ( 1.00)

     Starting magnetic structure
     atomic species   magnetization
        Ti0          0.600
        O1           0.000

     16 Sym. Ops., with inversion, found ( 8 have fractional translation)

   Cartesian axes

     site n.     atom                  positions (alat units)
         1           Ti0 tau(   1) = (   0.0000000   0.0000000   0.0000000  )
         2           Ti0 tau(   2) = (   0.5000000   0.5000000   0.3222222  )
         3           O1  tau(   3) = (   0.3050000   0.3050000   0.0000000  )
         4           O1  tau(   4) = (  -0.3050000  -0.3050000   0.0000000  )
         5           O1  tau(   5) = (   0.8050000   0.1950000   0.3222222  )
         6           O1  tau(   6) = (   0.1950000   0.8050000   0.3222222  )

     number of k points=    36  Methfessel-Paxton smearing, width (Ry)=  0.0100
                       cart. coord. in units 2pi/alat
        k(    1) = (   0.0000000   0.0000000   0.0000000), wk =   0.0080000
        k(    2) = (   0.0000000   0.0000000   0.3103448), wk =   0.0160000
        k(    3) = (   0.0000000   0.0000000   0.6206897), wk =   0.0160000
        k(    4) = (   0.0000000   0.2000000   0.0000000), wk =   0.0320000
        k(    5) = (   0.0000000   0.2000000   0.3103448), wk =   0.0640000
        k(    6) = (   0.0000000   0.2000000   0.6206897), wk =   0.0640000
        k(    7) = (   0.0000000   0.4000000   0.0000000), wk =   0.0320000
        k(    8) = (   0.0000000   0.4000000   0.3103448), wk =   0.0640000
        k(    9) = (   0.0000000   0.4000000   0.6206897), wk =   0.0640000
        k(   10) = (   0.2000000   0.2000000   0.0000000), wk =   0.0320000
        k(   11) = (   0.2000000   0.2000000   0.3103448), wk =   0.0640000
        k(   12) = (   0.2000000   0.2000000   0.6206897), wk =   0.0640000
        k(   13) = (   0.2000000   0.4000000   0.0000000), wk =   0.0640000
        k(   14) = (   0.2000000   0.4000000   0.3103448), wk =   0.1280000
        k(   15) = (   0.2000000   0.4000000   0.6206897), wk =   0.1280000
        k(   16) = (   0.4000000   0.4000000   0.0000000), wk =   0.0320000
        k(   17) = (   0.4000000   0.4000000   0.3103448), wk =   0.0640000
        k(   18) = (   0.4000000   0.4000000   0.6206897), wk =   0.0640000
        k(   19) = (   0.0000000   0.0000000   0.0000000), wk =   0.0080000
        k(   20) = (   0.0000000   0.0000000   0.3103448), wk =   0.0160000
        k(   21) = (   0.0000000   0.0000000   0.6206897), wk =   0.0160000
        k(   22) = (   0.0000000   0.2000000   0.0000000), wk =   0.0320000
        k(   23) = (   0.0000000   0.2000000   0.3103448), wk =   0.0640000
        k(   24) = (   0.0000000   0.2000000   0.6206897), wk =   0.0640000
        k(   25) = (   0.0000000   0.4000000   0.0000000), wk =   0.0320000
        k(   26) = (   0.0000000   0.4000000   0.3103448), wk =   0.0640000
        k(   27) = (   0.0000000   0.4000000   0.6206897), wk =   0.0640000
        k(   28) = (   0.2000000   0.2000000   0.0000000), wk =   0.0320000
        k(   29) = (   0.2000000   0.2000000   0.3103448), wk =   0.0640000
        k(   30) = (   0.2000000   0.2000000   0.6206897), wk =   0.0640000
        k(   31) = (   0.2000000   0.4000000   0.0000000), wk =   0.0640000
        k(   32) = (   0.2000000   0.4000000   0.3103448), wk =   0.1280000
        k(   33) = (   0.2000000   0.4000000   0.6206897), wk =   0.1280000
        k(   34) = (   0.4000000   0.4000000   0.0000000), wk =   0.0320000
        k(   35) = (   0.4000000   0.4000000   0.3103448), wk =   0.0640000
        k(   36) = (   0.4000000   0.4000000   0.6206897), wk =   0.0640000

     Largest allocated arrays     est. size (Mb)     dimensions
     Largest temporary arrays     est. size (Mb)     dimensions

     Check: negative/imaginary core charge=   -0.000015    0.000000

     Initial potential from superposition of free atoms
     Check: negative starting charge=(component1):   -0.020153
     Check: negative starting charge=(component2):   -0.004926

     starting charge   45.99991, renormalised to   48.00000

     negative rho (up, down):  0.210E-01 0.514E-02
     Starting wfc are   36 randomized atomic wfcs

     Self-consistent Calculation

     iteration #  1     ecut=    40.00 Ry     beta=0.30
     Davidson diagonalization with overlap
     ethr =  1.00E-02,  avg # of iterations =  5.2

     negative rho (up, down):  0.190E-01 0.835E-02

     total energy              =    -365.43657316 Ry
     Harris-Foulkes estimate   =    -365.17113447 Ry
     estimated scf accuracy    <       2.56248632 Ry

     total magnetization       =     0.00 Bohr mag/cell
     absolute magnetization    =     1.74 Bohr mag/cell

[...]

     End of self-consistent calculation

 ------ SPIN UP ------------

          k = 0.0000 0.0000 0.0000 (  1667 PWs)   bands (ev):

   -46.2838 -46.2582 -22.7020 -22.7020 -22.4711 -22.4711 -22.4101 -22.3587
    -8.2470  -6.9676  -5.9950  -5.9950   4.2019   4.5426   4.8757   6.1914
     6.1914   7.6369   7.6369   8.2771   9.6308   9.8706   9.8706  10.3137
    12.4017  12.7740  12.9916  13.1016  13.1016  15.3513  15.4301  17.7028
    17.7028  18.7776  18.8801  22.5228  22.5228  25.4611  26.6092  27.7644
    30.0340  30.1291  30.8344  30.8344  32.8140  34.2904  35.2639  35.2639
    36.3492  36.9157  36.9157  37.2791  37.6313  37.6313  38.4386  40.3868
    43.5268  43.9787  44.0785  44.0785  44.1441  45.0154  45.8157  45.8157
    47.8874  48.6962  48.7931  48.7931  51.6267

[...]

 ------ SPIN DOWN ----------

[...]

     the Fermi energy is    12.3820 ev

!    total energy              =    -366.46234038 Ry
     Harris-Foulkes estimate   =    -366.46233906 Ry
     estimated scf accuracy    <       0.00000010 Ry

     The total energy is the sum of the following terms:

     one-electron contribution =    -114.90290222 Ry
     hartree contribution      =      83.23268259 Ry
     xc contribution           =     -63.66971221 Ry
     ewald contribution        =    -271.12259614 Ry
     smearing contrib. (-TS)   =       0.00018760 Ry

[...]

     convergence has been achieved in  11 iterations

     Forces acting on atoms (Ry/au):

     negative rho (up, down):  0.127E-01 0.127E-01
     atom    1 type  1   force =     0.00000000    0.00000000    0.00000000
     atom    2 type  1   force =     0.00000000    0.00000000   -0.00000000
     atom    3 type  2   force =    -0.01500214   -0.01500214    0.00000000
     atom    4 type  2   force =     0.01500214    0.01500214   -0.00000000
     atom    5 type  2   force =    -0.01500214    0.01500214    0.00000000
     atom    6 type  2   force =     0.01500214   -0.01500214   -0.00000000

     Total force =     0.042432     Total SCF correction =     0.000096

     entering subroutine stress ...

     negative rho (up, down):  0.127E-01 0.127E-01
          total   stress  (Ry/bohr**3)                   (kbar)     P=  268.05
   0.00170838   0.00000000   0.00000000        251.31      0.00      0.00
   0.00000000   0.00170838   0.00000000          0.00    251.31      0.00
   0.00000000   0.00000000   0.00204965          0.00      0.00    301.51

     Volume is kept fixed: isostatic pressure set to zero

     BFGS Geometry Optimization

     number of scf cycles    =   1
     number of bfgs steps    =   0

     enthalpy new            =    -366.4623403778 Ry

     new trust radius        =       0.0224741372 bohr
     new conv_thr            =       0.0000010000 Ry

     new unit-cell volume =    390.31355 a.u.^3 (    57.83850 Ang^3 )

CELL_PARAMETERS (alat=  8.46076011)
   0.997164137   0.000000000   0.000000000
   0.000000000   0.997164137   0.000000000
   0.000000000   0.000000000   0.648115164

ATOMIC_POSITIONS (crystal)
Ti0      0.000000000   0.000000000   0.000000000    0   0   0
Ti0      0.500000000   0.500000000   0.500000000    0   0   0
O1       0.303226857   0.303226857   0.000000000    1   1   0
O1      -0.303226857  -0.303226857   0.000000000    1   1   0
[...]
        k(   28) = (   0.2005688   0.2005688   0.0000000), wk =   0.0320000
        k(   29) = (   0.2005688   0.2005688   0.3085871), wk =   0.0640000
        k(   30) = (   0.2005688   0.2005688   0.6171743), wk =   0.0640000
        k(   31) = (   0.2005688   0.4011376   0.0000000), wk =   0.0640000
        k(   32) = (   0.2005688   0.4011376   0.3085871), wk =   0.1280000
        k(   33) = (   0.2005688   0.4011376   0.6171743), wk =   0.1280000
        k(   34) = (   0.4011376   0.4011376   0.0000000), wk =   0.0320000
        k(   35) = (   0.4011376   0.4011376   0.3085871), wk =   0.0640000
        k(   36) = (   0.4011376   0.4011376   0.6171743), wk =   0.0640000

     Check: negative/imaginary core charge=   -0.000015    0.000000
     Check: negative starting charge=(component1):   -0.025038

[...]

     enthalpy old            =    -366.4623403778 Ry
     enthalpy new            =    -366.4640203376 Ry

     CASE: enthalpy_new < enthalpy_old

[...]

     Threshold (ethr) on eigenvalues was too large:
     Diagonalizing with lowered threshold

     Davidson diagonalization with overlap
     ethr =  5.13E-10,  avg # of iterations =  1.9

[...]

     Total force =     0.000337     Total SCF correction =     0.000029

[...]

     number of scf cycles    =   4
     number of bfgs steps    =   3

     enthalpy old            =    -366.4642225126 Ry
     enthalpy new            =    -366.4642247025 Ry

     CASE: enthalpy_new < enthalpy_old

     new trust radius        =       0.0014727155 bohr
     new conv_thr            =       0.0000000100 Ry

     new unit-cell volume =    390.31355 a.u.^3 (    57.83850 Ang^3 )

[...]

ATOMIC_POSITIONS (crystal)
Ti0      0.000000000   0.000000000   0.000000000    0   0   0
Ti0      0.500000000   0.500000000   0.500000000    0   0   0
O1       0.302204491   0.302204491   0.000000000    1   1   0
O1      -0.302204491  -0.302204491   0.000000000    1   1   0
O1       0.802204491   0.197795509   0.500000000    1   1   0
O1       0.197795509   0.802204491   0.500000000    1   1   0

     Check: negative starting charge=(component1):   -0.025035
     NEW-OLD atomic charge density approx. for the potential
     NEW k-points:
        k(    1) = (   0.0000000   0.0000000   0.0000000), wk =   0.0080000
        k(    2) = (   0.0000000   0.0000000   0.3081129), wk =   0.0160000
        k(    3) = (   0.0000000   0.0000000   0.6162258), wk =   0.0160000
        k(    4) = (   0.0000000   0.2007231   0.0000000), wk =   0.0320000
        k(    5) = (   0.0000000   0.2007231   0.3081129), wk =   0.0640000
        k(    6) = (   0.0000000   0.2007231   0.6162258), wk =   0.0640000
        k(    7) = (   0.0000000   0.4014462   0.0000000), wk =   0.0320000
        k(    8) = (   0.0000000   0.4014462   0.3081129), wk =   0.0640000
        k(    9) = (   0.0000000   0.4014462   0.6162258), wk =   0.0640000
        k(   10) = (   0.2007231   0.2007231   0.0000000), wk =   0.0320000
        k(   11) = (   0.2007231   0.2007231   0.3081129), wk =   0.0640000
        k(   12) = (   0.2007231   0.2007231   0.6162258), wk =   0.0640000
        k(   13) = (   0.2007231   0.4014462   0.0000000), wk =   0.0640000
        k(   14) = (   0.2007231   0.4014462   0.3081129), wk =   0.1280000
        k(   15) = (   0.2007231   0.4014462   0.6162258), wk =   0.1280000
        k(   16) = (   0.4014462   0.4014462   0.0000000), wk =   0.0320000
        k(   17) = (   0.4014462   0.4014462   0.3081129), wk =   0.0640000
        k(   18) = (   0.4014462   0.4014462   0.6162258), wk =   0.0640000
        k(   19) = (   0.0000000   0.0000000   0.0000000), wk =   0.0080000
        k(   20) = (   0.0000000   0.0000000   0.3081129), wk =   0.0160000
        k(   21) = (   0.0000000   0.0000000   0.6162258), wk =   0.0160000
        k(   22) = (   0.0000000   0.2007231   0.0000000), wk =   0.0320000
        k(   23) = (   0.0000000   0.2007231   0.3081129), wk =   0.0640000
        k(   24) = (   0.0000000   0.2007231   0.6162258), wk =   0.0640000
        k(   25) = (   0.0000000   0.4014462   0.0000000), wk =   0.0320000
        k(   26) = (   0.0000000   0.4014462   0.3081129), wk =   0.0640000
        k(   27) = (   0.0000000   0.4014462   0.6162258), wk =   0.0640000
        k(   28) = (   0.2007231   0.2007231   0.0000000), wk =   0.0320000
        k(   29) = (   0.2007231   0.2007231   0.3081129), wk =   0.0640000
        k(   30) = (   0.2007231   0.2007231   0.6162258), wk =   0.0640000
        k(   31) = (   0.2007231   0.4014462   0.0000000), wk =   0.0640000
        k(   32) = (   0.2007231   0.4014462   0.3081129), wk =   0.1280000
        k(   33) = (   0.2007231   0.4014462   0.6162258), wk =   0.1280000
        k(   34) = (   0.4014462   0.4014462   0.0000000), wk =   0.0320000
        k(   35) = (   0.4014462   0.4014462   0.3081129), wk =   0.0640000
        k(   36) = (   0.4014462   0.4014462   0.6162258), wk =   0.0640000

     Check: negative/imaginary core charge=   -0.000015    0.000000
     Check: negative starting charge=(component1):   -0.025036

[...]

     Threshold (ethr) on eigenvalues was too large:
     Diagonalizing with lowered threshold

     Davidson diagonalization with overlap
     ethr =  2.25E-10,  avg # of iterations =  2.0

[...]

     Total force =     0.000010     Total SCF correction =     0.000015
     SCF correction compared to forces is large: reduce conv_thr to get better values

[...]

     Volume is kept fixed: isostatic pressure set to zero

     bfgs converged in   5 scf cycles and   4 bfgs steps
     (criteria: energy < 0.10E-03, force < 0.10E-02, cell < 0.50E+00)

     End of BFGS Geometry Optimization

     Final enthalpy =    -366.4642256198 Ry
Begin final coordinates
     new unit-cell volume =    390.31355 a.u.^3 (    57.83850 Ang^3 )

CELL_PARAMETERS (alat=  8.46076011)
   0.996397619   0.000000000   0.000000000
   0.000000000   0.996397619   0.000000000
   0.000000000   0.000000000   0.649112724

ATOMIC_POSITIONS (crystal)
Ti0      0.000000000   0.000000000   0.000000000    0   0   0
Ti0      0.500000000   0.500000000   0.500000000    0   0   0
O1       0.302204491   0.302204491   0.000000000    1   1   0
O1      -0.302204491  -0.302204491   0.000000000    1   1   0
O1       0.802204491   0.197795509   0.500000000    1   1   0
O1       0.197795509   0.802204491   0.500000000    1   1   0
End final coordinates

     A final scf calculation at the relaxed structure.
     The G-vectors are recalculated for the final unit cell
     Results may differ from those at the preceding step.

     bravais-lattice index     =            0
     lattice parameter (alat)  =       8.4608  a.u.
     unit-cell volume          =     390.3135 (a.u.)^3
     number of atoms/cell      =            6
     number of atomic types    =            2
     number of electrons       =        48.00
     number of Kohn-Sham states=           69
     kinetic-energy cutoff     =      40.0000  Ry
     charge density cutoff     =     500.0000  Ry
     convergence threshold     =      1.0E-08
     mixing beta               =       0.3000
     number of iterations used =            8  plain     mixing
     Exchange-correlation      = SLA  PW   PBE  PBE ( 1 4 3 4 0)
     EXX-fraction              =        0.00

     celldm(1)=   8.460760  celldm(2)=   0.000000  celldm(3)=   0.000000
     celldm(4)=   0.000000  celldm(5)=   0.000000  celldm(6)=   0.000000

     crystal axes: (cart. coord. in units of alat)
               a(1) = (   0.996398   0.000000   0.000000 )
               a(2) = (   0.000000   0.996398   0.000000 )
               a(3) = (   0.000000   0.000000   0.649113 )

     reciprocal axes: (cart. coord. in units 2 pi/alat)
               b(1) = (  1.003615  0.000000  0.000000 )
               b(2) = (  0.000000  1.003615  0.000000 )
               b(3) = (  0.000000  0.000000  1.540564 )

     PseudoPot. # 1 for Ti read from file:
     /home/camp/zhonxu/pseudo/ti_pbe_v1.uspp.F.UPF
     MD5 check sum: bcc8f6961b3b91f0cac3ca967d22d0fb
     Pseudo is Ultrasoft + core correction, Zval = 12.0
     Generated by new atomic code, or converted to UPF format
     Using radial grid of  851 points,  6 beta functions with:
                l(1) =   0
                l(2) =   0
                l(3) =   1
                l(4) =   1
                l(5) =   2
                l(6) =   2
     Q(r) pseudized with  6 coefficients,  rinner =    1.000   1.000   1.000
                                                       1.000   1.000

     PseudoPot. # 2 for O  read from file:
     /home/camp/zhonxu/pseudo/o_pbe_v1.01.uspp.F.UPF
     MD5 check sum: 2bcb18d16ea4b960afae9ec6d52f22d2
     Pseudo is Ultrasoft + core correction, Zval =  6.0
     Generated by new atomic code, or converted to UPF format
     Using radial grid of  737 points,  5 beta functions with:
                l(1) =   0
                l(2) =   0
                l(3) =   1
                l(4) =   1
                l(5) =   2
     Q(r) pseudized with  8 coefficients,  rinner =    0.900   0.900   0.900
                                                       0.900   0.900

     atomic species   valence    mass     pseudopotential
        Ti0           12.00    47.88000     Ti( 1.00)
        O1             6.00    15.99940     O ( 1.00)

     Starting magnetic structure
     atomic species   magnetization
        Ti0          0.600
        O1           0.000

     16 Sym. Ops., with inversion, found ( 8 have fractional translation)

   Cartesian axes

     site n.     atom                  positions (alat units)
         1           Ti0 tau(   1) = (   0.0000000   0.0000000   0.0000000  )
         2           Ti0 tau(   2) = (   0.4981988   0.4981988   0.3245564  )
         3           O1  tau(   3) = (   0.3011158   0.3011158   0.0000000  )
         4           O1  tau(   4) = (  -0.3011158  -0.3011158   0.0000000  )
         5           O1  tau(   5) = (   0.7993146   0.1970830   0.3245564  )
         6           O1  tau(   6) = (   0.1970830   0.7993146   0.3245564  )

     number of k points=    36  Methfessel-Paxton smearing, width (Ry)=  0.0100
                       cart. coord. in units 2pi/alat
        k(    1) = (   0.0000000   0.0000000   0.0000000), wk =   0.0080000
        k(    2) = (   0.0000000   0.0000000   0.3081129), wk =   0.0160000
        k(    3) = (   0.0000000   0.0000000   0.6162258), wk =   0.0160000
        k(    4) = (   0.0000000   0.2007231   0.0000000), wk =   0.0320000
        k(    5) = (   0.0000000   0.2007231   0.3081129), wk =   0.0640000
        k(    6) = (   0.0000000   0.2007231   0.6162258), wk =   0.0640000
        k(    7) = (   0.0000000   0.4014462   0.0000000), wk =   0.0320000
        k(    8) = (   0.0000000   0.4014462   0.3081129), wk =   0.0640000
        k(    9) = (   0.0000000   0.4014462   0.6162258), wk =   0.0640000
        k(   10) = (   0.2007231   0.2007231   0.0000000), wk =   0.0320000
        k(   11) = (   0.2007231   0.2007231   0.3081129), wk =   0.0640000
        k(   12) = (   0.2007231   0.2007231   0.6162258), wk =   0.0640000
        k(   13) = (   0.2007231   0.4014462   0.0000000), wk =   0.0640000
        k(   14) = (   0.2007231   0.4014462   0.3081129), wk =   0.1280000
        k(   15) = (   0.2007231   0.4014462   0.6162258), wk =   0.1280000
        k(   16) = (   0.4014462   0.4014462   0.0000000), wk =   0.0320000
        k(   17) = (   0.4014462   0.4014462   0.3081129), wk =   0.0640000
        k(   18) = (   0.4014462   0.4014462   0.6162258), wk =   0.0640000
        k(   19) = (   0.0000000   0.0000000   0.0000000), wk =   0.0080000
        k(   20) = (   0.0000000   0.0000000   0.3081129), wk =   0.0160000
        k(   21) = (   0.0000000   0.0000000   0.6162258), wk =   0.0160000
        k(   22) = (   0.0000000   0.2007231   0.0000000), wk =   0.0320000
        k(   23) = (   0.0000000   0.2007231   0.3081129), wk =   0.0640000
        k(   24) = (   0.0000000   0.2007231   0.6162258), wk =   0.0640000
        k(   25) = (   0.0000000   0.4014462   0.0000000), wk =   0.0320000
        k(   26) = (   0.0000000   0.4014462   0.3081129), wk =   0.0640000
        k(   27) = (   0.0000000   0.4014462   0.6162258), wk =   0.0640000
        k(   28) = (   0.2007231   0.2007231   0.0000000), wk =   0.0320000
        k(   29) = (   0.2007231   0.2007231   0.3081129), wk =   0.0640000
        k(   30) = (   0.2007231   0.2007231   0.6162258), wk =   0.0640000
        k(   31) = (   0.2007231   0.4014462   0.0000000), wk =   0.0640000
        k(   32) = (   0.2007231   0.4014462   0.3081129), wk =   0.1280000
        k(   33) = (   0.2007231   0.4014462   0.6162258), wk =   0.1280000
        k(   34) = (   0.4014462   0.4014462   0.0000000), wk =   0.0320000
        k(   35) = (   0.4014462   0.4014462   0.3081129), wk =   0.0640000
        k(   36) = (   0.4014462   0.4014462   0.6162258), wk =   0.0640000

     Largest allocated arrays     est. size (Mb)     dimensions
     Largest temporary arrays     est. size (Mb)     dimensions

     Check: negative/imaginary core charge=   -0.000015    0.000000

     Initial potential from superposition of free atoms
     Check: negative starting charge=(component1):   -0.020144
     Check: negative starting charge=(component2):   -0.004926

     starting charge   45.99991, renormalised to   48.00000

     negative rho (up, down):  0.210E-01 0.514E-02
     Starting wfc are   36 randomized atomic wfcs

     Self-consistent Calculation

     iteration #  1     ecut=    40.00 Ry     beta=0.30
     Davidson diagonalization with overlap
     c_bands:  1 eigenvalues not converged
     ethr =  1.00E-06,  avg # of iterations = 12.1

[...]

     total energy              =    -366.46419503 Ry
     Harris-Foulkes estimate   =    -366.46419433 Ry
     estimated scf accuracy    <       0.00000007 Ry

[...]

     iteration # 12     ecut=    40.00 Ry     beta=0.30
     Davidson diagonalization with overlap
     ethr =  1.39E-10,  avg # of iterations =  2.0

     negative rho (up, down):  0.127E-01 0.127E-01

     End of self-consistent calculation

 ------ SPIN UP ------------

[...]

 ------ SPIN DOWN ----------

[...]

          k = 0.4014 0.4014 0.6162 (  1662 PWs)   bands (ev):

   -46.2441 -46.2433 -22.9256 -22.9195 -22.5794 -22.5675 -22.4842 -22.4807
    -6.8590  -6.6707  -6.5376  -6.3419   5.0637   5.2153   5.5695   5.7051
     6.4832   6.7854   7.7149   7.7604   8.5696   8.7695   9.4599   9.5987
    12.9582  13.4311  13.6924  13.7661  13.8342  14.2050  16.3442  16.9006
    17.1067  17.6324  22.3901  22.6906  24.7904  25.6081  25.8844  26.6090
    28.6035  28.7868  29.3403  29.8626  30.5802  31.1442  34.5589  35.3551
    36.5808  36.8851  37.3178  37.9338  40.4668  40.5241  42.1046  42.9074
    44.3100  44.7604  44.8080  45.5860  45.5972  46.4224  46.6046  47.1697
    48.1318  48.9283  49.7548  50.6432  51.0544

     the Fermi energy is    12.3311 ev

!    total energy              =    -366.46419573 Ry
     Harris-Foulkes estimate   =    -366.46419507 Ry
     estimated scf accuracy    <          4.1E-09 Ry

     The total energy is the sum of the following terms:

     one-electron contribution =    -113.68507979 Ry
     hartree contribution      =      82.61984019 Ry
     xc contribution           =     -63.64862118 Ry
     ewald contribution        =    -271.75046688 Ry
     smearing contrib. (-TS)   =       0.00013194 Ry

     total magnetization       =     0.00 Bohr mag/cell
     absolute magnetization    =     0.00 Bohr mag/cell

     convergence has been achieved in  12 iterations

     Forces acting on atoms (Ry/au):

     negative rho (up, down):  0.127E-01 0.127E-01
     atom    1 type  1   force =     0.00000000    0.00000000    0.00000000
     atom    2 type  1   force =     0.00000000    0.00000000    0.00000000
     atom    3 type  2   force =    -0.00002095   -0.00002095    0.00000000
     atom    4 type  2   force =     0.00002095    0.00002095    0.00000000
     atom    5 type  2   force =    -0.00002095    0.00002095   -0.00000000
     atom    6 type  2   force =     0.00002095   -0.00002095   -0.00000000

     Total force =     0.000059     Total SCF correction =     0.000122
     SCF correction compared to forces is large: reduce conv_thr to get better values

     entering subroutine stress ...

     negative rho (up, down):  0.127E-01 0.127E-01
          total   stress  (Ry/bohr**3)                   (kbar)     P=  254.29
   0.00172855   0.00000000   0.00000000        254.28      0.00      0.00
   0.00000000   0.00172855   0.00000000          0.00    254.28      0.00
   0.00000000   0.00000000   0.00172877          0.00      0.00    254.31

     General routines

     Parallel routines

   This run was terminated on:  15:38:30  24Jan2014

   JOB DONE.