     Program PWSCF v.5.0.2 (svn rev. 9656) starts on  9May2014 at  7:30:26

     Current dimensions of program PWSCF are:
     Max number of different atomic species (ntypx) = 10
     Max number of k-points (npk) =  40000
     Max angular momentum in pseudopotentials (lmaxx) =  3
     Reading input from pwscf.in
Warning: card &CELL ignored
Warning: card / ignored

     Subspace diagonalization in iterative solution of the eigenvalue problem:
     a serial algorithm will be used

     bravais-lattice index     =            0
     lattice parameter (alat)  =      10.1289  a.u.
     unit-cell volume          =    6836.7721 (a.u.)^3
     number of atoms/cell      =           30
     number of atomic types    =            3
     number of electrons       =       232.00
     number of Kohn-Sham states=          348
     kinetic-energy cutoff     =      40.0000  Ry
     charge density cutoff     =     500.0000  Ry
     convergence threshold     =      1.0E-06
     mixing beta               =       0.7000
     number of iterations used =            8  plain     mixing
     Exchange-correlation      = SLA  PW   PBE  PBE ( 1 4 3 4 0)
     EXX-fraction              =        0.00
     nstep                     =           50

     celldm(1)=  10.128932  celldm(2)=   0.000000  celldm(3)=   0.000000
     celldm(4)=   0.000000  celldm(5)=   0.000000  celldm(6)=   0.000000

     crystal axes: (cart. coord. in units of alat)
               a(1) = (   1.000000   0.000000   0.000000 )
               a(2) = (   0.000000   1.306037   0.000000 )
               a(3) = (   0.000000   0.000000   5.037380 )

     reciprocal axes: (cart. coord. in units 2 pi/alat)
               b(1) = (  1.000000  0.000000  0.000000 )
               b(2) = (  0.000000  0.765675  0.000000 )
               b(3) = (  0.000000  0.000000  0.198516 )

     PseudoPot. # 1 for O  read from file:
     /home/camp/zhonxu/pseudo/o_pbe_v1.01.uspp.F.UPF
     MD5 check sum: 2bcb18d16ea4b960afae9ec6d52f22d2
     Pseudo is Ultrasoft + core correction, Zval =  6.0
     Generated by new atomic code, or converted to UPF format
     Using radial grid of  737 points,  5 beta functions with:
                l(1) =   0
                l(2) =   0
                l(3) =   1
                l(4) =   1
                l(5) =   2
     Q(r) pseudized with  8 coefficients,  rinner =    0.900   0.900   0.900
                                                       0.900   0.900

     PseudoPot. # 2 for Re read from file:
     /home/camp/zhonxu/pseudo/re_pbe_v1.uspp.F.UPF
     MD5 check sum: 6f5a5dcaf9c96c20d0ffdde0de57afc6
     Pseudo is Ultrasoft + core correction, Zval = 15.0
     Generated by new atomic code, or converted to UPF format
     Using radial grid of  981 points,  8 beta functions with:
                l(1) =   0
                l(2) =   0
                l(3) =   1
                l(4) =   1
                l(5) =   2
                l(6) =   2
                l(7) =   3
                l(8) =   3
     Q(r) pseudized with  8 coefficients,  rinner =    1.000   1.000   1.000
                                                       1.000   1.000   1.000
                                                       1.000

     PseudoPot. # 3 for H  read from file:
     /home/camp/zhonxu/pseudo/h_pbe_v1.uspp.F.UPF
     MD5 check sum: 3408e3ff4ec8b0a4e358431e7e038a48
     Pseudo is Ultrasoft, Zval =  1.0
     Generated by new atomic code, or converted to UPF format
     Using radial grid of  615 points,  2 beta functions with:
                l(1) =   0
                l(2) =   0
     Q(r) pseudized with  8 coefficients,  rinner =    0.700

     atomic species   valence    mass     pseudopotential
        O0             6.00    15.99940     O ( 1.00)
        Re1           15.00   186.20700     Re( 1.00)
        H2             1.00     1.00794     H ( 1.00)

     Simplified LDA+U calculation (l_max = 2) with parameters (eV):
     atomic species    L          U    alpha       J0     beta
        Re1            2     2.5000   0.0000   0.0000   0.0000

     No symmetry found

   Cartesian axes

     site n.     atom                  positions (alat units)
         1           O0  tau(   1) = (   0.0000000   0.0000000   1.8688176  )
         2           O0  tau(   2) = (   0.0000000   0.6530184   1.9243296  )
         3           Re1 tau(   3) = (   0.2500000   0.6530184   2.2228951  )
         4           Re1 tau(   4) = (   0.0000000   0.0000000   2.2352367  )
         5           O0  tau(   5) = (   0.2500000   1.0187087   2.2249100  )
         6           O0  tau(   6) = (   0.2500000   0.2873281   2.2250611  )
         7           O0  tau(   7) = (   0.0000000   0.6530184   2.5071041  )
         8           O0  tau(   8) = (   0.0000000   0.0000000   2.5966183  )
         9           Re1 tau(   9) = (   0.2500000   0.0000000   2.8989619  )
        10           Re1 tau(  10) = (   0.0000000   0.6530184   2.8608793  )
        11           O0  tau(  11) = (   0.2500000   0.9403465   2.8908013  )
        12           O0  tau(  12) = (   0.2500000   0.3656903   2.8907005  )
        13           O0  tau(  13) = (   0.0000000   0.0000000   3.1620138  )
        14           O0  tau(  14) = (   0.5000000   0.0000000   1.8688176  )
        15           O0  tau(  15) = (   0.5000000   0.6530184   1.9243296  )
        16           Re1 tau(  16) = (   0.7500000   0.6530184   2.2228951  )
        17           Re1 tau(  17) = (   0.5000000   0.0000000   2.2352367  )
        18           O0  tau(  18) = (   0.7500000   1.0187087   2.2249604  )
        19           O0  tau(  19) = (   0.7500000   0.2873281   2.2250611  )
        20           O0  tau(  20) = (   0.5000000   0.6530184   2.5071041  )
        21           O0  tau(  21) = (   0.5000000   0.0000000   2.5966183  )
        22           Re1 tau(  22) = (   0.7500000   0.0000000   2.8989619  )
        23           Re1 tau(  23) = (   0.5000000   0.6530184   2.8609296  )
        24           O0  tau(  24) = (   0.7500000   0.9403465   2.8908013  )
        25           O0  tau(  25) = (   0.7500000   0.3656903   2.8907005  )
        26           O0  tau(  26) = (   0.5000000   0.0000000   3.1620138  )
        27           H2  tau(  27) = (  -0.0003800   0.8172395   1.8403061  )
        28           H2  tau(  28) = (   0.4996200   0.8172395   1.8403061  )
        29           H2  tau(  29) = (   0.1698700   0.0284977   1.7974380  )
        30           H2  tau(  30) = (   0.6698800   0.0284977   1.7974380  )

     number of k points=    10  Methfessel-Paxton smearing, width (Ry)=  0.0100
                       cart. coord. in units 2pi/alat
        k(    1) = (   0.0000000   0.0000000   0.0000000), wk =   0.1250000
        k(    2) = (   0.0000000   0.1914188   0.0000000), wk =   0.2500000
        k(    3) = (   0.0000000  -0.3828376   0.0000000), wk =   0.1250000
        k(    4) = (   0.2500000   0.0000000   0.0000000), wk =   0.2500000
        k(    5) = (   0.2500000   0.1914188   0.0000000), wk =   0.2500000
        k(    6) = (   0.2500000  -0.3828376   0.0000000), wk =   0.2500000
        k(    7) = (  -0.5000000   0.0000000   0.0000000), wk =   0.1250000
        k(    8) = (  -0.5000000   0.1914188   0.0000000), wk =   0.2500000
        k(    9) = (  -0.5000000  -0.3828376   0.0000000), wk =   0.1250000
        k(   10) = (  -0.2500000   0.1914188   0.0000000), wk =   0.2500000

     Largest allocated arrays     est. size (Mb)     dimensions
     Largest temporary arrays     est. size (Mb)     dimensions

     Check: negative/imaginary core charge=   -0.000003    0.000000

     Initial potential from superposition of free atoms
     Check: negative starting charge=   -0.237311

     starting charge  227.99958, renormalised to  232.00000

     negative rho (up, down):  0.241E+00 0.000E+00
     Number of +U iterations with fixed ns =  0
     Starting occupations:
 --- enter write_ns ---
 LDA+U parameters:
U( 2)     =  2.50000000
alpha( 2) =  0.00000000
atom    3   Tr[ns(na)] =   5.00000
    eigenvalues:
  0.500  0.500  0.500  0.500  0.500
    eigenvectors:
  1.000  0.000  0.000  0.000  0.000
  0.000  1.000  0.000  0.000  0.000
  0.000  0.000  1.000  0.000  0.000
  0.000  0.000  0.000  1.000  0.000
  0.000  0.000  0.000  0.000  1.000
    occupations:
  0.500  0.000  0.000  0.000  0.000
  0.000  0.500  0.000  0.000  0.000
  0.000  0.000  0.500  0.000  0.000
  0.000  0.000  0.000  0.500  0.000
  0.000  0.000  0.000  0.000  0.500
atom    4   Tr[ns(na)] =   5.00000
    eigenvalues:
  0.500  0.500  0.500  0.500  0.500
    eigenvectors:
  1.000  0.000  0.000  0.000  0.000
  0.000  1.000  0.000  0.000  0.000
  0.000  0.000  1.000  0.000  0.000
  0.000  0.000  0.000  1.000  0.000
  0.000  0.000  0.000  0.000  1.000
    occupations:
  0.500  0.000  0.000  0.000  0.000
  0.000  0.500  0.000  0.000  0.000
  0.000  0.000  0.500  0.000  0.000
  0.000  0.000  0.000  0.500  0.000
  0.000  0.000  0.000  0.000  0.500
atom    9   Tr[ns(na)] =   5.00000
    eigenvalues:
  0.500  0.500  0.500  0.500  0.500
    eigenvectors:
  1.000  0.000  0.000  0.000  0.000
  0.000  1.000  0.000  0.000  0.000
  0.000  0.000  1.000  0.000  0.000
  0.000  0.000  0.000  1.000  0.000
  0.000  0.000  0.000  0.000  1.000
    occupations:
  0.500  0.000  0.000  0.000  0.000
  0.000  0.500  0.000  0.000  0.000
  0.000  0.000  0.500  0.000  0.000
  0.000  0.000  0.000  0.500  0.000
  0.000  0.000  0.000  0.000  0.500
atom   10   Tr[ns(na)] =   5.00000
    eigenvalues:
  0.500  0.500  0.500  0.500  0.500
    eigenvectors:
  1.000  0.000  0.000  0.000  0.000
  0.000  1.000  0.000  0.000  0.000
  0.000  0.000  1.000  0.000  0.000
  0.000  0.000  0.000  1.000  0.000
  0.000  0.000  0.000  0.000  1.000
    occupations:
  0.500  0.000  0.000  0.000  0.000
  0.000  0.500  0.000  0.000  0.000
  0.000  0.000  0.500  0.000  0.000
  0.000  0.000  0.000  0.500  0.000
  0.000  0.000  0.000  0.000  0.500
atom   16   Tr[ns(na)] =   5.00000
    eigenvalues:
  0.500  0.500  0.500  0.500  0.500
    eigenvectors:
  1.000  0.000  0.000  0.000  0.000
  0.000  1.000  0.000  0.000  0.000
  0.000  0.000  1.000  0.000  0.000
  0.000  0.000  0.000  1.000  0.000
  0.000  0.000  0.000  0.000  1.000
    occupations:
  0.500  0.000  0.000  0.000  0.000
  0.000  0.500  0.000  0.000  0.000
  0.000  0.000  0.500  0.000  0.000
  0.000  0.000  0.000  0.500  0.000
  0.000  0.000  0.000  0.000  0.500
atom   17   Tr[ns(na)] =   5.00000
    eigenvalues:
  0.500  0.500  0.500  0.500  0.500
    eigenvectors:
  1.000  0.000  0.000  0.000  0.000
  0.000  1.000  0.000  0.000  0.000
  0.000  0.000  1.000  0.000  0.000
  0.000  0.000  0.000  1.000  0.000
  0.000  0.000  0.000  0.000  1.000
    occupations:
  0.500  0.000  0.000  0.000  0.000
  0.000  0.500  0.000  0.000  0.000
  0.000  0.000  0.500  0.000  0.000
  0.000  0.000  0.000  0.500  0.000
  0.000  0.000  0.000  0.000  0.500
atom   22   Tr[ns(na)] =   5.00000
    eigenvalues:
  0.500  0.500  0.500  0.500  0.500
    eigenvectors:
  1.000  0.000  0.000  0.000  0.000
  0.000  1.000  0.000  0.000  0.000
  0.000  0.000  1.000  0.000  0.000
  0.000  0.000  0.000  1.000  0.000
  0.000  0.000  0.000  0.000  1.000
    occupations:
[...]
  0.000  0.006  0.613  0.001 -0.000
 -0.020 -0.000  0.001  0.776 -0.000
  0.000 -0.002 -0.000 -0.000  0.567
atom    9   Tr[ns(na)] =   6.54383
    eigenvalues:
  0.591  0.603  0.614  0.718  0.747
    eigenvectors:
  0.257  0.000  0.000  0.003  0.740
  0.000  0.999  0.000  0.000  0.000
  0.000  0.000  1.000  0.000  0.000
  0.743  0.000  0.000  0.001  0.256
  0.000  0.000  0.000  0.996  0.004
    occupations:
  0.707  0.000 -0.001 -0.068  0.002
  0.000  0.603  0.000  0.000  0.000
 -0.001  0.000  0.614  0.001  0.000
 -0.068  0.000  0.001  0.631 -0.001
  0.002  0.000  0.000 -0.001  0.718
atom   10   Tr[ns(na)] =   6.53839
    eigenvalues:
  0.481  0.536  0.695  0.759  0.797
    eigenvectors:
  0.996  0.000  0.000  0.004  0.000
  0.000  0.000  0.000  0.000  1.000
  0.000  0.000  1.000  0.000  0.000
  0.004  0.000  0.000  0.996  0.000
  0.000  1.000  0.000  0.000  0.000
    occupations:
  0.482  0.000  0.000 -0.017 -0.000
  0.000  0.797  0.001 -0.000  0.001
  0.000  0.001  0.695  0.000  0.000
 -0.017 -0.000  0.000  0.758 -0.000
 -0.000  0.001  0.000 -0.000  0.536
atom   16   Tr[ns(na)] =   6.58185
    eigenvalues:
  0.533  0.568  0.643  0.756  0.790
    eigenvectors:
  0.000  0.370  0.006  0.624  0.000
  0.999  0.000  0.000  0.000  0.001
  0.000  0.000  0.988  0.012  0.000
  0.000  0.630  0.006  0.364  0.000
  0.001  0.000  0.000  0.000  0.999
    occupations:
  0.686  0.000  0.010 -0.090 -0.000
  0.000  0.534  0.000 -0.000 -0.009
  0.010  0.000  0.645 -0.007  0.001
 -0.090 -0.000 -0.007  0.637  0.000
 -0.000 -0.009  0.001  0.000  0.790
atom   17   Tr[ns(na)] =   6.53702
    eigenvalues:
  0.567  0.605  0.613  0.705  0.779
    eigenvectors:
  0.000  0.984  0.001  0.001  0.014
  0.000  0.001  0.005  0.994  0.000
  0.000  0.001  0.994  0.005  0.000
  0.000  0.014  0.000  0.000  0.986
  1.000  0.000  0.000  0.000  0.000
    occupations:
  0.608  0.003  0.000 -0.020  0.000
  0.003  0.704  0.006 -0.000 -0.002
  0.000  0.006  0.613  0.001 -0.000
 -0.020 -0.000  0.001  0.776 -0.000
  0.000 -0.002 -0.000 -0.000  0.567
atom   22   Tr[ns(na)] =   6.54372
    eigenvalues:
  0.591  0.603  0.614  0.717  0.747
    eigenvectors:
  0.257  0.000  0.000  0.003  0.740
  0.000  0.999  0.000  0.000  0.000
  0.000  0.000  1.000  0.000  0.000
  0.743  0.000  0.000  0.001  0.256
  0.000  0.000  0.000  0.996  0.004
    occupations:
  0.707  0.000 -0.001 -0.068  0.002
  0.000  0.603  0.000  0.000  0.000
 -0.001  0.000  0.614  0.001  0.000
 -0.068  0.000  0.001  0.631 -0.001
  0.002  0.000  0.000 -0.001  0.718
atom   23   Tr[ns(na)] =   6.53806
    eigenvalues:
  0.481  0.536  0.695  0.759  0.797
    eigenvectors:
  0.996  0.000  0.000  0.004  0.000
  0.000  0.000  0.000  0.000  1.000
  0.000  0.000  1.000  0.000  0.000
  0.004  0.000  0.000  0.996  0.000
  0.000  1.000  0.000  0.000  0.000
    occupations:
  0.482  0.000  0.000 -0.017 -0.000
  0.000  0.797  0.001 -0.000  0.001
  0.000  0.001  0.695  0.000  0.000
 -0.017 -0.000  0.000  0.758 -0.000
 -0.000  0.001  0.000 -0.000  0.536
N of occupied +U levels =  52.4019418
 --- exit write_ns ---

     Threshold (ethr) on eigenvalues was too large:
     Diagonalizing with lowered threshold

     Davidson diagonalization with overlap
     ethr =  6.44E-09,  avg # of iterations =  2.0

[...]

     total energy              =   -2141.44138082 Ry
     Harris-Foulkes estimate   =   -2141.44138083 Ry
     estimated scf accuracy    <       0.00000005 Ry

     iteration # 15     ecut=    40.00 Ry     beta=0.70
     Davidson diagonalization with overlap
     ethr =  7.97E-12,  avg # of iterations =  1.0

     negative rho (up, down):  0.239E+00 0.000E+00

     End of self-consistent calculation
 --- enter write_ns ---
 LDA+U parameters:
U( 2)     =  2.50000000
alpha( 2) =  0.00000000
atom    3   Tr[ns(na)] =   6.58300
    eigenvalues:
  0.533  0.568  0.644  0.756  0.790
    eigenvectors:
  0.000  0.370  0.006  0.624  0.000
  0.999  0.000  0.000  0.000  0.001
  0.000  0.000  0.988  0.012  0.000
  0.000  0.630  0.006  0.364  0.000
  0.001  0.000  0.000  0.000  0.999
    occupations:
  0.686  0.000  0.010 -0.090 -0.000
  0.000  0.534  0.000 -0.000 -0.009
  0.010  0.000  0.645 -0.007  0.001
 -0.090 -0.000 -0.007  0.637  0.000
 -0.000 -0.009  0.001  0.000  0.790
atom    4   Tr[ns(na)] =   6.53637
    eigenvalues:
  0.567  0.605  0.613  0.705  0.779
    eigenvectors:
  0.000  0.984  0.001  0.001  0.014
  0.000  0.001  0.005  0.994  0.000
  0.000  0.001  0.994  0.005  0.000
  0.000  0.014  0.000  0.000  0.986
  1.000  0.000  0.000  0.000  0.000
    occupations:
  0.608  0.003  0.000 -0.020  0.000
  0.003  0.704  0.006 -0.000 -0.002
  0.000  0.006  0.613  0.001 -0.000
 -0.020 -0.000  0.001  0.776 -0.000
  0.000 -0.002 -0.000 -0.000  0.567
atom    9   Tr[ns(na)] =   6.54306
    eigenvalues:
  0.591  0.603  0.613  0.717  0.747
    eigenvectors:
  0.257  0.000  0.000  0.003  0.740
  0.000  0.999  0.000  0.000  0.000
  0.000  0.000  1.000  0.000  0.000
  0.743  0.000  0.000  0.001  0.256
  0.000  0.000  0.000  0.996  0.004
    occupations:
  0.707  0.000 -0.001 -0.068  0.002
  0.000  0.603  0.000  0.000  0.000
 -0.001  0.000  0.613  0.001  0.000
 -0.068  0.000  0.001  0.631 -0.001
  0.002  0.000  0.000 -0.001  0.718
atom   10   Tr[ns(na)] =   6.53856
    eigenvalues:
  0.481  0.536  0.695  0.759  0.798
    eigenvectors:
  0.996  0.000  0.000  0.004  0.000
  0.000  0.000  0.000  0.000  1.000
  0.000  0.000  1.000  0.000  0.000
  0.004  0.000  0.000  0.996  0.000
  0.000  1.000  0.000  0.000  0.000
    occupations:
  0.482  0.000  0.000 -0.017 -0.000
  0.000  0.798  0.001 -0.000  0.001
  0.000  0.001  0.695  0.000  0.000
 -0.017 -0.000  0.000  0.758 -0.000
 -0.000  0.001  0.000 -0.000  0.536
atom   16   Tr[ns(na)] =   6.58298
    eigenvalues:
  0.533  0.568  0.643  0.756  0.790
    eigenvectors:
  0.000  0.370  0.006  0.624  0.000
  0.999  0.000  0.000  0.000  0.001
  0.000  0.000  0.988  0.012  0.000
  0.000  0.630  0.006  0.364  0.000
  0.001  0.000  0.000  0.000  0.999
    occupations:
  0.686  0.000  0.010 -0.090 -0.000
  0.000  0.534  0.000 -0.000 -0.009
  0.010  0.000  0.645 -0.007  0.001
 -0.090 -0.000 -0.007  0.637  0.000
 -0.000 -0.009  0.001  0.000  0.790
atom   17   Tr[ns(na)] =   6.53636
    eigenvalues:
  0.567  0.605  0.613  0.705  0.779
    eigenvectors:
  0.000  0.984  0.001  0.001  0.014
  0.000  0.001  0.005  0.994  0.000
  0.000  0.001  0.994  0.005  0.000
  0.000  0.014  0.000  0.000  0.986
  1.000  0.000  0.000  0.000  0.000
    occupations:
  0.608  0.003  0.000 -0.020  0.000
  0.003  0.704  0.006 -0.000 -0.002
  0.000  0.006  0.613  0.001 -0.000
 -0.020 -0.000  0.001  0.776 -0.000
  0.000 -0.002 -0.000 -0.000  0.567
atom   22   Tr[ns(na)] =   6.54303
    eigenvalues:
  0.591  0.603  0.613  0.717  0.747
    eigenvectors:
  0.257  0.000  0.000  0.003  0.740
  0.000  0.999  0.000  0.000  0.000
  0.000  0.000  1.000  0.000  0.000
  0.743  0.000  0.000  0.001  0.256
  0.000  0.000  0.000  0.996  0.004
    occupations:
  0.707  0.000 -0.001 -0.068  0.002
  0.000  0.603  0.000  0.000  0.000
 -0.001  0.000  0.613  0.001  0.000
 -0.068  0.000  0.001  0.631 -0.001
  0.002  0.000  0.000 -0.001  0.718
atom   23   Tr[ns(na)] =   6.53857
    eigenvalues:
  0.481  0.536  0.695  0.759  0.798
    eigenvectors:
  0.996  0.000  0.000  0.004  0.000
  0.000  0.000  0.000  0.000  1.000
  0.000  0.000  1.000  0.000  0.000
  0.004  0.000  0.000  0.996  0.000
  0.000  1.000  0.000  0.000  0.000
    occupations:
  0.482  0.000  0.000 -0.017 -0.000
  0.000  0.797  0.001 -0.000  0.001
  0.000  0.001  0.695  0.000  0.000
 -0.017 -0.000  0.000  0.758 -0.000
 -0.000  0.001  0.000 -0.000  0.536
N of occupied +U levels =  52.4019450
 --- exit write_ns ---

[...]

          k = 0.2500-0.3828 0.0000 ( 29202 PWs)   bands (ev):

[...]

          k =-0.2500 0.1914 0.0000 ( 29229 PWs)   bands (ev):

   -81.2543 -81.2153 -80.9911 -80.9511 -80.7185 -80.6792 -80.6167 -80.5771
   -43.3485 -43.1867 -43.1643 -43.1457 -43.1214 -43.0625 -42.9888 -42.9264
   -42.8410 -42.8301 -42.7925 -42.7613 -42.7344 -42.7315 -42.6871 -42.6109
   -42.5955 -42.5774 -42.5502 -42.5336 -42.5093 -42.4767 -42.2073 -42.1369
   -20.8702 -20.4332 -20.3515 -20.2021 -20.0671 -19.9484 -19.7864 -19.7631
   -19.7400 -19.5540 -19.4588 -19.3693 -19.3222 -19.1082 -19.0831 -18.9214
   -18.2888 -18.0882  -9.0382  -8.7641  -8.7482  -8.6449  -8.5403  -8.3275
    -8.2834  -8.1586  -7.9462  -7.8924  -7.8397  -7.7642  -7.5368  -7.3567
    -7.3560  -7.0274  -6.7893  -6.6748  -6.5387  -6.5301  -6.4434  -6.1773
    -6.0182  -5.9919  -5.7911  -5.7131  -5.5654  -5.5559  -5.5105  -5.2224
    -5.1196  -5.0177  -4.8952  -4.8669  -4.7826  -4.6898  -4.6800  -4.6036
    -4.5064  -4.4469  -4.2306  -4.0340  -3.9863  -3.8963  -3.7508  -3.6228
    -3.6193  -3.4000  -3.3313  -3.1920  -3.1216  -2.8750  -2.7994  -2.6467
    -2.2819  -2.1742  -1.9925  -1.3586  -1.1139  -0.9644  -0.8946  -0.2939
    -0.1274   0.2963   0.3699   0.4189   0.6918   0.7607   0.8295   1.1068
     1.2128   1.2786   1.3930   1.5139   1.5733   1.7316   1.8338   1.8980
     2.3126   2.3834   3.6689   3.7075   3.8663   3.9195   4.0946   4.2528
     4.5071   4.5755   4.7636   4.7679   4.8942   4.9295   5.2315   5.4118
     5.7878   5.8386   6.0040   6.2103   6.2328   6.4635   6.6364   6.7173
     6.8648   6.9865   7.2442   7.3029   7.4332   7.6890   7.7674   8.0170
     8.1368   8.3108   8.3233   8.4652   8.5863   8.6274   8.7435   8.8855
     9.0879   9.3469   9.3915   9.4063   9.6023   9.6698   9.7379   9.7552
     9.8224   9.9142   9.9535  10.1319  10.1670  10.2739  10.3175  10.3987
    10.4153  10.6337  10.7340  10.8011  10.9303  11.0283  11.0405  11.2014
    11.3929  11.4314  11.4516  11.6772  11.7827  11.8836  11.9584  12.1057
    12.3163  12.3788  12.4921  12.5084  12.6274  12.6564  12.6860  12.8108
    12.8508  12.9727  13.0086  13.1918  13.2256  13.3331  13.4859  13.5406
    13.6166  13.6697  13.7857  13.8013  13.8969  13.9018  13.9679  14.0401
    14.1030  14.2281  14.2571  14.3181  14.4311  14.5202  14.5531  14.5691
    14.7049  14.7787  14.7958  14.8553  14.8819  14.9308  15.0022  15.0241
    15.0981  15.2136  15.2898  15.3923  15.4957  15.5673  15.6396  15.7263
    15.8705  15.9454  16.0858  16.1047  16.1819  16.2261  16.2634  16.4137
    16.5245  16.5660  16.6158  16.6841  16.7710  16.8556  16.8597  17.0009
    17.1199  17.1293  17.1929  17.3087  17.3547  17.4699  17.5495  17.6644
    17.6981  17.7175  17.7517  17.8864  17.9630  18.0415  18.0766  18.2041
    18.2158  18.3001  18.3091  18.3794  18.5129  18.5153  18.6454  18.6613
    18.7699  18.8738  18.8847  18.9780  19.0614  19.0640  19.1529  19.3089
    19.4349  19.5076  19.5668  19.6528  19.7614  19.9032  19.9659  19.9903
    20.0506  20.1046  20.2198  20.2207  20.4404  20.4692  20.5553  20.5721
    20.6191  20.7353  20.7594  20.8025  20.8513  20.8996  20.9606  21.0579
    21.1404  21.1765  21.2737  21.3072  21.3923  21.4555  21.5057  21.5063
    21.6307  21.6455  21.7557  21.8243  21.9181  21.9348  22.0916  22.1198
    22.1702  22.2476  22.2625  22.3491  22.3655  22.4091  22.4565  22.5313
    22.5428  22.6271  22.6340  22.7082

     the Fermi energy is     0.4511 ev

!    total energy              =   -2141.44138082 Ry
     Harris-Foulkes estimate   =   -2141.44138082 Ry
     estimated scf accuracy    <          2.3E-09 Ry

     The total energy is the sum of the following terms:

     one-electron contribution =  -23516.66893851 Ry
     hartree contribution      =   11773.68513324 Ry
     xc contribution           =    -587.19566098 Ry
     ewald contribution        =   10187.14466688 Ry
     Hubbard energy            =       1.59512940 Ry
     smearing contrib. (-TS)   =      -0.00171086 Ry

     convergence has been achieved in  15 iterations

     Forces acting on atoms (Ry/au):

     negative rho (up, down):  0.239E+00 0.000E+00
     atom    1 type  1   force =    -0.00476746   -0.00687929   -0.00001918
     atom    2 type  1   force =     0.00005190    0.00586489   -0.00068869
     atom    3 type  2   force =    -0.00010336   -0.00465300    0.00030149
     atom    4 type  2   force =     0.00147567    0.00789178   -0.00002542
     atom    5 type  1   force =     0.00187377    0.01329099    0.00004969
     atom    6 type  1   force =     0.00021556   -0.01467703    0.00011645
     atom    7 type  1   force =    -0.00019519    0.00001600    0.00054468
     atom    8 type  1   force =     0.00280477   -0.00098444    0.00011627
     atom    9 type  2   force =    -0.00159190    0.00045201    0.00028017
     atom   10 type  2   force =     0.00003812   -0.00094251   -0.00012035
     atom   11 type  1   force =     0.00012532   -0.00992250   -0.00019724
     atom   12 type  1   force =    -0.00018942    0.00970368   -0.00016280
     atom   13 type  1   force =    -0.00047893    0.00036351    0.00002467
     atom   14 type  1   force =    -0.00475472   -0.00687352    0.00000307
     atom   15 type  1   force =     0.00005415    0.00585470   -0.00069053
     atom   16 type  2   force =    -0.00007352   -0.00465368    0.00030775
     atom   17 type  2   force =     0.00147282    0.00789221   -0.00003605
     atom   18 type  1   force =     0.00187687    0.01328819    0.00005791
     atom   19 type  1   force =     0.00021476   -0.01467333    0.00011630
     atom   20 type  1   force =    -0.00018906    0.00001722    0.00062184
     atom   21 type  1   force =     0.00280936   -0.00098572    0.00006618
     atom   22 type  2   force =    -0.00161008    0.00045267    0.00028660
     atom   23 type  2   force =     0.00003553   -0.00094300   -0.00013834
     atom   24 type  1   force =     0.00012161   -0.00991969   -0.00019652
     atom   25 type  1   force =    -0.00019364    0.00969986   -0.00016180
     atom   26 type  1   force =    -0.00047261    0.00036566    0.00000323
     atom   27 type  3   force =    -0.00000021    0.00024923   -0.00042305
     atom   28 type  3   force =     0.00000005    0.00024904   -0.00042139
     atom   29 type  3   force =     0.00072973    0.00022917    0.00019143
     atom   30 type  3   force =     0.00072009    0.00022686    0.00019363

     Total force =     0.001977     Total SCF correction =     0.000123

     bfgs converged in   7 scf cycles and   6 bfgs steps
     (criteria: energy < 0.10E-03, force < 0.10E-02)

     End of BFGS Geometry Optimization

     Final energy   =   -2141.4413808214 Ry
Begin final coordinates

ATOMIC_POSITIONS (crystal)
O0       0.000000000   0.000000000   0.371394189    0   0   1
O0       0.000000000   0.500000000   0.382255323    0   0   1
Re1      0.250000000   0.500000000   0.441428159    0   0   1
Re1      0.000000000   0.000000000   0.443854439    0   0   1
O0       0.250000000   0.780000000   0.441935110    0   0   1
O0       0.250000000   0.220000000   0.441863398    0   0   1
O0       0.000000000   0.500000000   0.497603191    0   0   1
O0       0.000000000   0.000000000   0.515231803    0   0   1
Re1      0.250000000   0.000000000   0.575357066    0   0   1
Re1      0.000000000   0.500000000   0.567666827    0   0   1
O0       0.250000000   0.720000000   0.573568603    0   0   1
O0       0.250000000   0.280000000   0.573625457    0   0   1
O0       0.000000000   0.000000000   0.627487640    0   0   1
O0       0.500000000   0.000000000   0.371392991    0   0   1
O0       0.500000000   0.500000000   0.382255300    0   0   1
Re1      0.750000000   0.500000000   0.441427791    0   0   1
Re1      0.500000000   0.000000000   0.443854697    0   0   1
O0       0.750000000   0.780000000   0.441933918    0   0   1
O0       0.750000000   0.220000000   0.441863431    0   0   1
O0       0.500000000   0.500000000   0.497600519    0   0   1
O0       0.500000000   0.000000000   0.515233681    0   0   1
Re1      0.750000000   0.000000000   0.575356670    0   0   1
Re1      0.500000000   0.500000000   0.567666248    0   0   1
O0       0.750000000   0.720000000   0.573568435    0   0   1
O0       0.750000000   0.280000000   0.573625096    0   0   1
O0       0.500000000   0.000000000   0.627488798    0   0   1
H2      -0.000374522   0.624799577   0.365241106
H2       0.499625140   0.624799466   0.365240951
H2       0.169471231   0.021942080   0.357069488
H2       0.669475034   0.021942726   0.357069677
End final coordinates

     General routines

     Parallel routines
     Hubbard U routines

   This run was terminated on:  16:56:16   9May2014

   JOB DONE.
Running PBS batch system epilogue script
Job id: 340864.audhumbla.fysik.dtu.dk
Username: zhonxu
Groupname: campgst
Jobname: ReO2/Eads-2-layers/bare-U-2.5
Sessionid: 16191
Queuename: verylong
Accounting:
This job has allocated the following 16 nodes:
c011 c011 c011 c011 c011 c011 c011 c011 c010 c010 c010 c010 c010 c010 c010 c010
Finished epilogue job 340864.audhumbla.fysik.dtu.dk for zhonxu