     Program PWSCF v.5.0.2 (svn rev. 9656) starts on  1Jun2014 at 11:56:40

     Current dimensions of program PWSCF are:
     Max number of different atomic species (ntypx) = 10
     Max number of k-points (npk) =  40000
     Max angular momentum in pseudopotentials (lmaxx) =  3
     Reading input from pwscf.in
Warning: card &CELL ignored
Warning: card / ignored

     Subspace diagonalization in iterative solution of the eigenvalue problem:
     a serial algorithm will be used

     bravais-lattice index     =            0
     lattice parameter (alat)  =      10.1289  a.u.
     unit-cell volume          =    6836.7721 (a.u.)^3
     number of atoms/cell      =           33
     number of atomic types    =            3
     number of electrons       =       245.00
     number of Kohn-Sham states=          367
     kinetic-energy cutoff     =      40.0000  Ry
     charge density cutoff     =     500.0000  Ry
     convergence threshold     =      1.0E-06
     mixing beta               =       0.7000
     number of iterations used =            8  plain     mixing
     Exchange-correlation      = SLA  PW   PBE  PBE ( 1 4 3 4 0)
     EXX-fraction              =        0.00
     nstep                     =           50

     celldm(1)=  10.128932  celldm(2)=   0.000000  celldm(3)=   0.000000
     celldm(4)=   0.000000  celldm(5)=   0.000000  celldm(6)=   0.000000

     crystal axes: (cart. coord. in units of alat)
               a(1) = (   1.000000   0.000000   0.000000 )
               a(2) = (   0.000000   1.306037   0.000000 )
               a(3) = (   0.000000   0.000000   5.037380 )

     reciprocal axes: (cart. coord. in units 2 pi/alat)
               b(1) = (  1.000000  0.000000  0.000000 )
               b(2) = (  0.000000  0.765675  0.000000 )
               b(3) = (  0.000000  0.000000  0.198516 )

     PseudoPot. # 1 for O  read from file:
     /home/camp/zhonxu/pseudo/o_pbe_v1.01.uspp.F.UPF
     MD5 check sum: 2bcb18d16ea4b960afae9ec6d52f22d2
     Pseudo is Ultrasoft + core correction, Zval =  6.0
     Generated by new atomic code, or converted to UPF format
     Using radial grid of  737 points,  5 beta functions with:
                l(1) =   0
                l(2) =   0
                l(3) =   1
                l(4) =   1
                l(5) =   2
     Q(r) pseudized with  8 coefficients,  rinner =    0.900   0.900   0.900
                                                       0.900   0.900

     PseudoPot. # 2 for Re read from file:
     /home/camp/zhonxu/pseudo/re_pbe_v1.uspp.F.UPF
     MD5 check sum: 6f5a5dcaf9c96c20d0ffdde0de57afc6
     Pseudo is Ultrasoft + core correction, Zval = 15.0
     Generated by new atomic code, or converted to UPF format
     Using radial grid of  981 points,  8 beta functions with:
                l(1) =   0
                l(2) =   0
                l(3) =   1
                l(4) =   1
                l(5) =   2
                l(6) =   2
                l(7) =   3
                l(8) =   3
     Q(r) pseudized with  8 coefficients,  rinner =    1.000   1.000   1.000
                                                       1.000   1.000   1.000
                                                       1.000

     PseudoPot. # 3 for H  read from file:
     /home/camp/zhonxu/pseudo/h_pbe_v1.uspp.F.UPF
     MD5 check sum: 3408e3ff4ec8b0a4e358431e7e038a48
     Pseudo is Ultrasoft, Zval =  1.0
     Generated by new atomic code, or converted to UPF format
     Using radial grid of  615 points,  2 beta functions with:
                l(1) =   0
                l(2) =   0
     Q(r) pseudized with  8 coefficients,  rinner =    0.700

     atomic species   valence    mass     pseudopotential
        O0             6.00    15.99940     O ( 1.00)
        Re1           15.00   186.20700     Re( 1.00)
        H2             1.00     1.00794     H ( 1.00)

     Simplified LDA+U calculation (l_max = 2) with parameters (eV):
     atomic species    L          U    alpha       J0     beta
        Re1            2     2.0000   0.0000   0.0000   0.0000

     No symmetry found

   Cartesian axes

     site n.     atom                  positions (alat units)
         1           O0  tau(   1) = (   0.0000000   0.0000000   1.8623194  )
         2           O0  tau(   2) = (   0.0000000   0.6530184   1.9253370  )
         3           Re1 tau(   3) = (   0.2500000   0.6530184   2.2271768  )
         4           Re1 tau(   4) = (   0.0000000   0.0000000   2.2287384  )
         5           O0  tau(   5) = (   0.2500000   1.0187087   2.2217869  )
         6           O0  tau(   6) = (   0.2500000   0.2873281   2.2210816  )
         7           O0  tau(   7) = (   0.0000000   0.6530184   2.5071544  )
         8           O0  tau(   8) = (   0.0000000   0.0000000   2.5894652  )
         9           Re1 tau(   9) = (   0.2500000   0.0000000   2.8894412  )
        10           Re1 tau(  10) = (   0.0000000   0.6530184   2.8583102  )
        11           O0  tau(  11) = (   0.2500000   0.9403465   2.8756892  )
        12           O0  tau(  12) = (   0.2500000   0.3656903   2.8872751  )
        13           O0  tau(  13) = (   0.0000000   0.0000000   3.1516368  )
        14           O0  tau(  14) = (   0.5000000   0.0000000   1.8624705  )
        15           O0  tau(  15) = (   0.5000000   0.6530184   1.9269994  )
        16           Re1 tau(  16) = (   0.7500000   0.6530184   2.2271768  )
        17           Re1 tau(  17) = (   0.5000000   0.0000000   2.2274287  )
        18           O0  tau(  18) = (   0.7500000   1.0187087   2.2214342  )
        19           O0  tau(  19) = (   0.7500000   0.2873281   2.2214846  )
        20           O0  tau(  20) = (   0.5000000   0.6530184   2.5086153  )
        21           O0  tau(  21) = (   0.5000000   0.0000000   2.5899690  )
        22           Re1 tau(  22) = (   0.7500000   0.0000000   2.8888367  )
        23           Re1 tau(  23) = (   0.5000000   0.6530184   2.9018835  )
        24           O0  tau(  24) = (   0.7500000   0.9403465   2.8756892  )
        25           O0  tau(  25) = (   0.7500000   0.3656903   2.8872248  )
        26           O0  tau(  26) = (   0.5000000   0.0000000   3.1466498  )
        27           H2  tau(  27) = (  -0.0002100   0.8169913   1.8417165  )
        28           H2  tau(  28) = (   0.4996400   0.8147057   1.8388956  )
        29           H2  tau(  29) = (   0.1678400   0.0328729   1.7887233  )
        30           H2  tau(  30) = (   0.6697500   0.0291246   1.7904864  )
        31           O0  tau(  31) = (   0.4996300   0.6876806   3.2307741  )
        32           O0  tau(  32) = (   0.5002900   0.4188329   3.4291461  )
        33           H2  tau(  33) = (   0.4999500   0.5176477   3.5843478  )

     number of k points=    10  Methfessel-Paxton smearing, width (Ry)=  0.0100
                       cart. coord. in units 2pi/alat
        k(    1) = (   0.0000000   0.0000000   0.0000000), wk =   0.1250000
        k(    2) = (   0.0000000   0.1914188   0.0000000), wk =   0.2500000
        k(    3) = (   0.0000000  -0.3828376   0.0000000), wk =   0.1250000
        k(    4) = (   0.2500000   0.0000000   0.0000000), wk =   0.2500000
        k(    5) = (   0.2500000   0.1914188   0.0000000), wk =   0.2500000
        k(    6) = (   0.2500000  -0.3828376   0.0000000), wk =   0.2500000
        k(    7) = (  -0.5000000   0.0000000   0.0000000), wk =   0.1250000
        k(    8) = (  -0.5000000   0.1914188   0.0000000), wk =   0.2500000
        k(    9) = (  -0.5000000  -0.3828376   0.0000000), wk =   0.1250000
        k(   10) = (  -0.2500000   0.1914188   0.0000000), wk =   0.2500000

     Largest allocated arrays     est. size (Mb)     dimensions
     Largest temporary arrays     est. size (Mb)     dimensions

     Check: negative/imaginary core charge=   -0.000003    0.000000

     Initial potential from superposition of free atoms
     Check: negative starting charge=   -0.236968

     starting charge  240.99957, renormalised to  245.00000

     negative rho (up, down):  0.241E+00 0.000E+00
     Number of +U iterations with fixed ns =  0
     Starting occupations:
 --- enter write_ns ---
 LDA+U parameters:
U( 2)     =  2.00000000
alpha( 2) =  0.00000000
atom    3   Tr[ns(na)] =   5.00000
    eigenvalues:
  0.500  0.500  0.500  0.500  0.500
    eigenvectors:
  1.000  0.000  0.000  0.000  0.000
  0.000  1.000  0.000  0.000  0.000
  0.000  0.000  1.000  0.000  0.000
  0.000  0.000  0.000  1.000  0.000
  0.000  0.000  0.000  0.000  1.000
    occupations:
  0.500  0.000  0.000  0.000  0.000
  0.000  0.500  0.000  0.000  0.000
  0.000  0.000  0.500  0.000  0.000
  0.000  0.000  0.000  0.500  0.000
  0.000  0.000  0.000  0.000  0.500
atom    4   Tr[ns(na)] =   5.00000
    eigenvalues:
  0.500  0.500  0.500  0.500  0.500
    eigenvectors:
  1.000  0.000  0.000  0.000  0.000
  0.000  1.000  0.000  0.000  0.000
  0.000  0.000  1.000  0.000  0.000
  0.000  0.000  0.000  1.000  0.000
  0.000  0.000  0.000  0.000  1.000
    occupations:
  0.500  0.000  0.000  0.000  0.000
  0.000  0.500  0.000  0.000  0.000
  0.000  0.000  0.500  0.000  0.000
  0.000  0.000  0.000  0.500  0.000
  0.000  0.000  0.000  0.000  0.500
atom    9   Tr[ns(na)] =   5.00000
    eigenvalues:
  0.500  0.500  0.500  0.500  0.500
    eigenvectors:
  1.000  0.000  0.000  0.000  0.000
  0.000  1.000  0.000  0.000  0.000
  0.000  0.000  1.000  0.000  0.000
  0.000  0.000  0.000  1.000  0.000
  0.000  0.000  0.000  0.000  1.000
    occupations:
  0.500  0.000  0.000  0.000  0.000
  0.000  0.500  0.000  0.000  0.000
  0.000  0.000  0.500  0.000  0.000
  0.000  0.000  0.000  0.500  0.000
  0.000  0.000  0.000  0.000  0.500
atom   10   Tr[ns(na)] =   5.00000
    eigenvalues:
  0.500  0.500  0.500  0.500  0.500
    eigenvectors:
  1.000  0.000  0.000  0.000  0.000
  0.000  1.000  0.000  0.000  0.000
  0.000  0.000  1.000  0.000  0.000
  0.000  0.000  0.000  1.000  0.000
  0.000  0.000  0.000  0.000  1.000
    occupations:
  0.500  0.000  0.000  0.000  0.000
  0.000  0.500  0.000  0.000  0.000
  0.000  0.000  0.500  0.000  0.000
  0.000  0.000  0.000  0.500  0.000
  0.000  0.000  0.000  0.000  0.500
atom   16   Tr[ns(na)] =   5.00000
    eigenvalues:
  0.500  0.500  0.500  0.500  0.500
    eigenvectors:
  1.000  0.000  0.000  0.000  0.000
  0.000  1.000  0.000  0.000  0.000
  0.000  0.000  1.000  0.000  0.000
  0.000  0.000  0.000  1.000  0.000
  0.000  0.000  0.000  0.000  1.000
    occupations:
  0.500  0.000  0.000  0.000  0.000
  0.000  0.500  0.000  0.000  0.000
  0.000  0.000  0.500  0.000  0.000
  0.000  0.000  0.000  0.500  0.000
  0.000  0.000  0.000  0.000  0.500
atom   17   Tr[ns(na)] =   5.00000
    eigenvalues:
  0.500  0.500  0.500  0.500  0.500
    eigenvectors:
  1.000  0.000  0.000  0.000  0.000
  0.000  1.000  0.000  0.000  0.000
  0.000  0.000  1.000  0.000  0.000
  0.000  0.000  0.000  1.000  0.000
  0.000  0.000  0.000  0.000  1.000
    occupations:
  0.500  0.000  0.000  0.000  0.000
  0.000  0.500  0.000  0.000  0.000
  0.000  0.000  0.500  0.000  0.000
  0.000  0.000  0.000  0.500  0.000
  0.000  0.000  0.000  0.000  0.500
atom   22   Tr[ns(na)] =   5.00000
    eigenvalues:
  0.500  0.500  0.500  0.500  0.500
[...]
    eigenvalues:
  0.485  0.542  0.653  0.741  0.833
    eigenvectors:
  0.999  0.000  0.000  0.001  0.000
  0.000  0.000  0.000  0.000  1.000
  0.000  0.000  0.995  0.005  0.000
  0.001  0.000  0.005  0.994  0.000
  0.000  1.000  0.000  0.000  0.000
    occupations:
  0.485  0.000 -0.002 -0.009  0.000
  0.000  0.833  0.001 -0.000 -0.003
 -0.002  0.001  0.654  0.006 -0.000
 -0.009 -0.000  0.006  0.741 -0.000
  0.000 -0.003 -0.000 -0.000  0.542
atom   16   Tr[ns(na)] =   6.54744
    eigenvalues:
  0.546  0.573  0.617  0.765  0.773
    eigenvectors:
  0.007  0.348  0.002  0.617  0.026
  0.988  0.010  0.000  0.001  0.001
  0.000  0.001  0.982  0.003  0.015
  0.004  0.641  0.005  0.335  0.015
  0.001  0.000  0.011  0.045  0.943
    occupations:
  0.697  0.007  0.010 -0.092  0.000
  0.007  0.547 -0.000 -0.002 -0.007
  0.010 -0.000  0.619 -0.006 -0.017
 -0.092 -0.002 -0.006  0.640  0.001
  0.000 -0.007 -0.017  0.001  0.771
atom   17   Tr[ns(na)] =   6.52710
    eigenvalues:
  0.565  0.604  0.615  0.705  0.774
    eigenvectors:
  0.000  0.986  0.001  0.001  0.013
  0.000  0.001  0.005  0.994  0.000
  0.000  0.001  0.995  0.005  0.000
  0.000  0.013  0.000  0.000  0.987
  1.000  0.000  0.000  0.000  0.000
    occupations:
  0.606  0.003  0.000 -0.019  0.000
  0.003  0.705  0.006 -0.000 -0.001
  0.000  0.006  0.615  0.001 -0.000
 -0.019 -0.000  0.001  0.772 -0.000
  0.000 -0.001 -0.000 -0.000  0.565
atom   22   Tr[ns(na)] =   6.52992
    eigenvalues:
  0.596  0.608  0.613  0.708  0.741
    eigenvectors:
  0.258  0.001  0.001  0.004  0.736
  0.001  0.953  0.046  0.000  0.000
  0.005  0.043  0.893  0.058  0.000
  0.736  0.001  0.003  0.002  0.258
  0.000  0.002  0.056  0.936  0.005
    occupations:
  0.703 -0.001  0.000 -0.063  0.002
 -0.001  0.608  0.001  0.001  0.000
  0.000  0.001  0.618 -0.001  0.023
 -0.063  0.001 -0.001  0.634 -0.001
  0.002  0.000  0.023 -0.001  0.703
atom   23   Tr[ns(na)] =   6.58139
    eigenvalues:
  0.555  0.584  0.606  0.764  0.782
    eigenvectors:
  0.000  0.000  0.963  0.000  0.037
  0.022  0.978  0.000  0.000  0.000
  0.000  0.000  0.007  0.813  0.180
  0.000  0.000  0.031  0.187  0.783
  0.978  0.022  0.000  0.000  0.000
    occupations:
  0.612  0.000 -0.014 -0.030 -0.000
  0.000  0.584 -0.002 -0.000 -0.004
 -0.014 -0.002  0.766  0.005  0.000
 -0.030 -0.000  0.005  0.773  0.000
 -0.000 -0.004  0.000  0.000  0.555
N of occupied +U levels =  52.3024635
 --- exit write_ns ---

     Threshold (ethr) on eigenvalues was too large:
     Diagonalizing with lowered threshold

     Davidson diagonalization with overlap
     ethr =  9.49E-08,  avg # of iterations =  1.0

[...]

     total energy              =   -2207.28958868 Ry
     Harris-Foulkes estimate   =   -2207.28958869 Ry
     estimated scf accuracy    <       0.00000010 Ry

     iteration # 15     ecut=    40.00 Ry     beta=0.70
     Davidson diagonalization with overlap
     ethr =  9.04E-12,  avg # of iterations =  1.0

     negative rho (up, down):  0.245E+00 0.000E+00

     End of self-consistent calculation
 --- enter write_ns ---
 LDA+U parameters:
U( 2)     =  2.00000000
alpha( 2) =  0.00000000
atom    3   Tr[ns(na)] =   6.54595
    eigenvalues:
  0.546  0.573  0.616  0.765  0.773
    eigenvectors:
  0.007  0.347  0.002  0.621  0.022
  0.987  0.010  0.000  0.001  0.001
  0.000  0.001  0.981  0.003  0.016
  0.004  0.642  0.004  0.337  0.013
  0.001  0.000  0.012  0.038  0.948
    occupations:
  0.697 -0.007  0.010 -0.091 -0.000
 -0.007  0.547  0.000  0.002 -0.006
  0.010  0.000  0.619 -0.006  0.018
 -0.091  0.002 -0.006  0.640 -0.001
 -0.000 -0.006  0.018 -0.001  0.771
atom    4   Tr[ns(na)] =   6.53063
    eigenvalues:
  0.564  0.605  0.626  0.695  0.775
    eigenvectors:
  0.000  0.983  0.000  0.001  0.016
  0.000  0.001  0.012  0.987  0.000
  0.000  0.000  0.988  0.012  0.000
  0.000  0.016  0.000  0.000  0.984
  1.000  0.000  0.000  0.000  0.000
    occupations:
  0.607  0.003  0.000 -0.021  0.001
  0.003  0.694  0.007 -0.000 -0.002
  0.000  0.007  0.627  0.000 -0.000
 -0.021 -0.000  0.000  0.772 -0.000
  0.001 -0.002 -0.000 -0.000  0.565
atom    9   Tr[ns(na)] =   6.52707
    eigenvalues:
  0.596  0.609  0.613  0.707  0.737
    eigenvectors:
  0.257  0.000  0.001  0.005  0.737
  0.000  0.981  0.019  0.000  0.000
  0.004  0.018  0.919  0.058  0.000
  0.739  0.000  0.003  0.001  0.257
  0.000  0.001  0.057  0.936  0.006
    occupations:
  0.701  0.001 -0.001 -0.062  0.002
  0.001  0.609 -0.001 -0.001  0.000
 -0.001 -0.001  0.619 -0.001 -0.022
 -0.062 -0.001 -0.001  0.633 -0.002
  0.002  0.000 -0.022 -0.002  0.702
atom   10   Tr[ns(na)] =   6.50894
    eigenvalues:
  0.485  0.542  0.653  0.742  0.833
    eigenvectors:
  0.999  0.000  0.000  0.001  0.000
  0.000  0.000  0.000  0.000  1.000
  0.000  0.000  0.995  0.005  0.000
  0.001  0.000  0.005  0.994  0.000
  0.000  1.000  0.000  0.000  0.000
    occupations:
  0.485  0.000 -0.002 -0.009  0.000
  0.000  0.833  0.001 -0.000 -0.003
 -0.002  0.001  0.653  0.006 -0.000
 -0.009 -0.000  0.006  0.741 -0.000
  0.000 -0.003 -0.000 -0.000  0.542
atom   16   Tr[ns(na)] =   6.54585
    eigenvalues:
  0.546  0.573  0.616  0.765  0.772
    eigenvectors:
  0.007  0.348  0.002  0.615  0.028
  0.988  0.010  0.000  0.001  0.001
  0.000  0.001  0.982  0.003  0.015
  0.004  0.641  0.005  0.334  0.016
  0.001  0.000  0.011  0.048  0.940
    occupations:
  0.697  0.007  0.010 -0.092  0.000
  0.007  0.547 -0.000 -0.002 -0.006
  0.010 -0.000  0.619 -0.006 -0.017
 -0.092 -0.002 -0.006  0.640  0.001
  0.000 -0.006 -0.017  0.001  0.770
atom   17   Tr[ns(na)] =   6.52668
    eigenvalues:
  0.565  0.604  0.615  0.705  0.774
    eigenvectors:
  0.000  0.986  0.001  0.001  0.013
  0.000  0.001  0.005  0.994  0.000
  0.000  0.001  0.995  0.005  0.000
  0.000  0.013  0.000  0.000  0.987
  1.000  0.000  0.000  0.000  0.000
    occupations:
  0.606  0.003  0.000 -0.019  0.000
  0.003  0.705  0.006 -0.000 -0.001
  0.000  0.006  0.615  0.001 -0.000
 -0.019 -0.000  0.001  0.772 -0.000
  0.000 -0.001 -0.000 -0.000  0.565
atom   22   Tr[ns(na)] =   6.52901
    eigenvalues:
  0.596  0.608  0.613  0.708  0.740
    eigenvectors:
  0.258  0.001  0.001  0.004  0.736
  0.001  0.950  0.049  0.000  0.000
  0.005  0.045  0.891  0.058  0.000
  0.736  0.001  0.003  0.002  0.258
  0.000  0.002  0.056  0.936  0.005
    occupations:
  0.703 -0.001  0.000 -0.063  0.002
 -0.001  0.608  0.001  0.001  0.000
  0.000  0.001  0.618 -0.001  0.022
 -0.063  0.001 -0.001  0.633 -0.001
  0.002  0.000  0.022 -0.001  0.702
atom   23   Tr[ns(na)] =   6.57769
    eigenvalues:
  0.555  0.583  0.606  0.763  0.782
    eigenvectors:
  0.000  0.000  0.962  0.000  0.038
  0.022  0.978  0.000  0.000  0.000
  0.000  0.000  0.007  0.814  0.179
  0.000  0.000  0.031  0.186  0.784
  0.978  0.022  0.000  0.000  0.000
    occupations:
  0.612  0.000 -0.014 -0.030 -0.000
  0.000  0.583 -0.002 -0.000 -0.004
 -0.014 -0.002  0.766  0.005  0.000
 -0.030 -0.000  0.005  0.773  0.000
 -0.000 -0.004  0.000  0.000  0.555
N of occupied +U levels =  52.2918099
 --- exit write_ns ---

[...]

          k = 0.2500-0.3828 0.0000 ( 29202 PWs)   bands (ev):

[...]

          k =-0.2500 0.1914 0.0000 ( 29229 PWs)   bands (ev):

   -81.3348 -81.2824 -81.1535 -81.1094 -80.9870 -80.8677 -80.8288 -80.6888
   -43.4429 -43.3394 -43.2528 -43.2332 -43.2013 -43.1826 -43.1316 -43.1214
   -43.0655 -42.9879 -42.9767 -42.9257 -42.8808 -42.8796 -42.8263 -42.7929
   -42.7837 -42.7332 -42.7167 -42.6880 -42.6468 -42.6011 -42.3597 -42.3046
   -20.7380 -20.3321 -20.2874 -20.1758 -20.0221 -19.8780 -19.8002 -19.7541
   -19.7049 -19.6108 -19.4908 -19.4111 -19.2666 -19.1547 -19.0547 -18.9773
   -18.9578 -18.3786 -18.1299 -16.9693  -8.9238  -8.7584  -8.6717  -8.6244
    -8.5363  -8.3095  -8.2582  -8.2363  -7.8930  -7.7989  -7.7343  -7.5752
    -7.4066  -7.2992  -7.1662  -7.0640  -6.7967  -6.7441  -6.5784  -6.5411
    -6.4243  -6.2907  -6.1015  -6.0035  -5.8077  -5.7605  -5.6600  -5.5460
    -5.4531  -5.3642  -5.1802  -5.1560  -4.9936  -4.9040  -4.8517  -4.7917
    -4.6892  -4.6308  -4.5811  -4.4958  -4.4296  -4.2568  -4.1895  -3.9912
    -3.8783  -3.7714  -3.7473  -3.6719  -3.6153  -3.4225  -3.3612  -3.2546
    -3.2349  -3.0416  -2.9665  -2.7788  -2.7079  -2.5862  -2.2194  -1.9786
    -1.8571  -1.2260  -1.0251  -0.9171  -0.8631  -0.5723  -0.1602   0.0027
     0.1921   0.4325   0.5630   0.7559   0.8142   0.8844   1.0836   1.1750
     1.3636   1.5088   1.5715   1.7095   1.8300   1.9782   2.0612   2.3381
     2.6744   3.6601   3.7225   3.8339   3.8902   4.0759   4.1981   4.4444
     4.5593   4.6229   4.8262   4.9602   5.0624   5.3769   5.3995   5.7439
     5.8858   5.9761   6.1720   6.3022   6.4733   6.5994   6.7466   6.9368
     7.0933   7.2090   7.4307   7.6119   7.7697   7.8464   8.0450   8.1739
     8.3153   8.4174   8.6022   8.6984   8.7161   8.8065   9.0425   9.1041
     9.2088   9.4571   9.5298   9.6670   9.7241   9.8692   9.9126   9.9771
    10.0100  10.0784  10.1652  10.2166  10.3490  10.4330  10.5180  10.5439
    10.5744  10.7011  10.9092  11.0060  11.1320  11.1872  11.3787  11.4749
    11.5388  11.5953  11.7359  11.8220  11.9498  12.0659  12.2463  12.3546
    12.4596  12.5652  12.6391  12.6646  12.7427  12.8085  12.8920  12.9436
    12.9813  13.1073  13.2062  13.2467  13.3972  13.4891  13.5751  13.6702
    13.7540  13.7978  13.8845  13.9232  13.9664  14.0654  14.1152  14.1726
    14.2642  14.3244  14.4178  14.4350  14.5481  14.6111  14.6439  14.6863
    14.7495  14.8169  14.8694  14.9411  14.9894  15.0503  15.1030  15.1874
    15.2390  15.3218  15.4038  15.4883  15.5874  15.6626  15.7041  15.8625
    15.9647  16.1003  16.1348  16.2132  16.2973  16.3541  16.4424  16.4902
    16.5758  16.6633  16.7568  16.8038  16.8624  16.9871  17.0303  17.1420
    17.1897  17.2875  17.3406  17.3969  17.4640  17.5380  17.5979  17.7216
    17.7936  17.8415  17.9155  17.9652  18.0491  18.0975  18.1692  18.2857
    18.3586  18.4027  18.4637  18.5254  18.5664  18.6427  18.7080  18.7857
    18.8468  18.9397  19.0393  19.0995  19.1366  19.2186  19.3332  19.4435
    19.5400  19.5628  19.6679  19.7469  19.8453  19.9292  20.0077  20.0883
    20.1679  20.2684  20.3233  20.4101  20.4691  20.5492  20.5955  20.6872
    20.7246  20.8176  20.8576  20.8905  20.9165  21.0047  21.0883  21.1749
    21.2217  21.2697  21.3210  21.4112  21.4955  21.5736  21.5880  21.6843
    21.7258  21.8007  21.8613  21.9126  22.0054  22.0412  22.1203  22.1839
    22.2587  22.2987  22.3781  22.3981  22.4501  22.4987  22.5364  22.6023
    22.6850  22.7255  22.7856  22.8047  22.8363  22.9221  22.9501  23.0058
    23.1023  23.1357  23.1647  23.1878  23.2614  23.3295  23.3733

     the Fermi energy is     0.4433 ev

!    total energy              =   -2207.28958868 Ry
     Harris-Foulkes estimate   =   -2207.28958869 Ry
     estimated scf accuracy    <          7.4E-09 Ry

     The total energy is the sum of the following terms:

     one-electron contribution =  -24651.41520476 Ry
     hartree contribution      =   12346.24277002 Ry
     xc contribution           =    -601.95830593 Ry
     ewald contribution        =   10698.55568783 Ry
     Hubbard energy            =       1.28567914 Ry
     smearing contrib. (-TS)   =      -0.00021498 Ry

     convergence has been achieved in  15 iterations

     Forces acting on atoms (Ry/au):

     negative rho (up, down):  0.245E+00 0.000E+00
     atom    1 type  1   force =    -0.00549042   -0.00678245    0.00009958
     atom    2 type  1   force =     0.00003756    0.00452858    0.00011875
     atom    3 type  2   force =     0.01772328   -0.00237239   -0.00030209
     atom    4 type  2   force =     0.00104854    0.00727691    0.00097219
     atom    5 type  1   force =     0.00305850    0.00690012   -0.00010467
     atom    6 type  1   force =     0.00157258   -0.00791511   -0.00015211
     atom    7 type  1   force =    -0.00031343   -0.00253365   -0.00006537
     atom    8 type  1   force =     0.00334225    0.00254836    0.00071868
     atom    9 type  2   force =    -0.04026390   -0.00376149    0.00007115
     atom   10 type  2   force =    -0.00010645    0.00221056   -0.00016220
     atom   11 type  1   force =    -0.02092988   -0.00568507   -0.00008490
     atom   12 type  1   force =    -0.01232519    0.01736394   -0.00021493
     atom   13 type  1   force =    -0.00018075   -0.00460105   -0.00035372
     atom   14 type  1   force =    -0.00303280   -0.00603493    0.00024581
     atom   15 type  1   force =    -0.00002944    0.00378125   -0.00046336
     atom   16 type  2   force =    -0.01759600   -0.00241017   -0.00028263
     atom   17 type  2   force =     0.00177171    0.00740018   -0.00027736
     atom   18 type  1   force =     0.00022205    0.00681972   -0.00010843
     atom   19 type  1   force =    -0.00113630   -0.00779030   -0.00014012
     atom   20 type  1   force =    -0.00042421    0.00051330    0.00005808
     atom   21 type  1   force =     0.00252978    0.00194684    0.00062718
     atom   22 type  2   force =     0.03668724   -0.00227116    0.00013303
     atom   23 type  2   force =     0.00057678   -0.00817952    0.00063416
     atom   24 type  1   force =     0.02070111   -0.00672953   -0.00005092
     atom   25 type  1   force =     0.01217547    0.01684610   -0.00013233
     atom   26 type  1   force =    -0.00072988   -0.01205771   -0.00020036
     atom   27 type  3   force =     0.00000596    0.00006144    0.00017040
     atom   28 type  3   force =     0.00000021    0.00007893   -0.00009266
     atom   29 type  3   force =     0.00054645    0.00010439   -0.00062532
     atom   30 type  3   force =     0.00037339    0.00015806   -0.00048821
     atom   31 type  1   force =    -0.00007678   -0.00020344    0.00038005
     atom   32 type  1   force =     0.00024596    0.00065163    0.00002327
     atom   33 type  3   force =     0.00001661    0.00013769    0.00004936

     Total force =     0.002239     Total SCF correction =     0.000451
     SCF correction compared to forces is large: reduce conv_thr to get better values

     entering subroutine stress ...

     negative rho (up, down):  0.245E+00 0.000E+00
          total   stress  (Ry/bohr**3)                   (kbar)     P=   -8.66
  -0.00005552  -0.00000012   0.00000224         -8.17     -0.02      0.33
  -0.00000012  -0.00007691  -0.00000778         -0.02    -11.31     -1.15
   0.00000224  -0.00000778  -0.00004412          0.33     -1.15     -6.49

     bfgs converged in  14 scf cycles and  13 bfgs steps
     (criteria: energy < 0.10E-03, force < 0.10E-02)

     End of BFGS Geometry Optimization

     Final energy   =   -2207.2895886799 Ry
Begin final coordinates

ATOMIC_POSITIONS (crystal)
O0       0.000000000   0.000000000   0.370253168    0   0   1
O0       0.000000000   0.500000000   0.382457821    0   0   1
Re1      0.250000000   0.500000000   0.442194401    0   0   1
Re1      0.000000000   0.000000000   0.442756356    0   0   1
O0       0.250000000   0.780000000   0.441333850    0   0   1
O0       0.250000000   0.220000000   0.441139256    0   0   1
O0       0.000000000   0.500000000   0.497722294    0   0   1
O0       0.000000000   0.000000000   0.513930031    0   0   1
Re1      0.250000000   0.000000000   0.573723851    0   0   1
Re1      0.000000000   0.500000000   0.567427507    0   0   1
O0       0.250000000   0.720000000   0.570897522    0   0   1
O0       0.250000000   0.280000000   0.573093547    0   0   1
O0       0.000000000   0.000000000   0.625762170    0   0   1
O0       0.500000000   0.000000000   0.370208557    0   0   1
O0       0.500000000   0.500000000   0.382616937    0   0   1
Re1      0.750000000   0.500000000   0.442189089    0   0   1
Re1      0.500000000   0.000000000   0.442455894    0   0   1
O0       0.750000000   0.780000000   0.441268640    0   0   1
O0       0.750000000   0.220000000   0.441238734    0   0   1
O0       0.500000000   0.500000000   0.498025784    0   0   1
O0       0.500000000   0.000000000   0.514161624    0   0   1
Re1      0.750000000   0.000000000   0.573554302    0   0   1
Re1      0.500000000   0.500000000   0.575392736    0   0   1
O0       0.750000000   0.720000000   0.570861781    0   0   1
O0       0.750000000   0.280000000   0.573063329    0   0   1
O0       0.500000000   0.000000000   0.624792350    0   0   1
H2      -0.000249753   0.624428312   0.365334933
H2       0.499577634   0.623741788   0.365137901
H2       0.168301365   0.024807641   0.355780633
H2       0.670193447   0.021790401   0.356072254
O0       0.499315847   0.526196746   0.641110658
O0       0.501383012   0.326250088   0.678783658
H2       0.499898321   0.399533383   0.709988432
End final coordinates

     General routines

     Parallel routines
     Hubbard U routines

   This run was terminated on:   8:24: 9   2Jun2014

   JOB DONE.