     Program PWSCF v.5.0.2 (svn rev. 9656) starts on  2Jun2014 at  3:29:32

     Current dimensions of program PWSCF are:
     Max number of different atomic species (ntypx) = 10
     Max number of k-points (npk) =  40000
     Max angular momentum in pseudopotentials (lmaxx) =  3
     Reading input from pwscf.in
Warning: card &CELL ignored
Warning: card / ignored

     Subspace diagonalization in iterative solution of the eigenvalue problem:
     a serial algorithm will be used

     bravais-lattice index     =            0
     lattice parameter (alat)  =      11.7541  a.u.
     unit-cell volume          =    7139.8207 (a.u.)^3
     number of atoms/cell      =           33
     number of atomic types    =            3
     number of electrons       =       245.00
     number of Kohn-Sham states=          367
     kinetic-energy cutoff     =      40.0000  Ry
     charge density cutoff     =     500.0000  Ry
     convergence threshold     =      1.0E-06
     mixing beta               =       0.7000
     number of iterations used =            8  plain     mixing
     Exchange-correlation      = SLA  PW   PBE  PBE ( 1 4 3 4 0)
     EXX-fraction              =        0.00
     nstep                     =           50

     celldm(1)=  11.754097  celldm(2)=   0.000000  celldm(3)=   0.000000
     celldm(4)=   0.000000  celldm(5)=   0.000000  celldm(6)=   0.000000

     crystal axes: (cart. coord. in units of alat)
               a(1) = (   1.000000   0.000000   0.000000 )
               a(2) = (   0.000000   1.034513   0.000000 )
               a(3) = (   0.000000   0.000000   4.249947 )

     reciprocal axes: (cart. coord. in units 2 pi/alat)
               b(1) = (  1.000000  0.000000  0.000000 )
               b(2) = (  0.000000  0.966638  0.000000 )
               b(3) = (  0.000000  0.000000  0.235297 )

     PseudoPot. # 1 for O  read from file:
     /home/camp/zhonxu/pseudo/o_pbe_v1.01.uspp.F.UPF
     MD5 check sum: 2bcb18d16ea4b960afae9ec6d52f22d2
     Pseudo is Ultrasoft + core correction, Zval =  6.0
     Generated by new atomic code, or converted to UPF format
     Using radial grid of  737 points,  5 beta functions with:
                l(1) =   0
                l(2) =   0
                l(3) =   1
                l(4) =   1
                l(5) =   2
     Q(r) pseudized with  8 coefficients,  rinner =    0.900   0.900   0.900
                                                       0.900   0.900

     PseudoPot. # 2 for Rh read from file:
     /home/camp/zhonxu/pseudo/rh_pbe_v1.uspp.F.UPF
     MD5 check sum: 37b626987ad0dd8ec6bf4cc9ef289918
     Pseudo is Ultrasoft + core correction, Zval = 15.0
     Generated by new atomic code, or converted to UPF format
     Using radial grid of  969 points,  7 beta functions with:
                l(1) =   0
                l(2) =   0
                l(3) =   1
                l(4) =   1
                l(5) =   2
                l(6) =   2
                l(7) =   2
     Q(r) pseudized with  6 coefficients,  rinner =    1.050   1.050   1.050
                                                       1.050   1.050

     PseudoPot. # 3 for H  read from file:
     /home/camp/zhonxu/pseudo/h_pbe_v1.uspp.F.UPF
     MD5 check sum: 3408e3ff4ec8b0a4e358431e7e038a48
     Pseudo is Ultrasoft, Zval =  1.0
     Generated by new atomic code, or converted to UPF format
     Using radial grid of  615 points,  2 beta functions with:
                l(1) =   0
                l(2) =   0
     Q(r) pseudized with  8 coefficients,  rinner =    0.700

     atomic species   valence    mass     pseudopotential
        O0             6.00    15.99940     O ( 1.00)
        Rh1           15.00   102.90550     Rh( 1.00)
        H2             1.00     1.00794     H ( 1.00)

     Simplified LDA+U calculation (l_max = 2) with parameters (eV):
     atomic species    L          U    alpha       J0     beta
        Rh1            2     7.5000   0.0000   0.0000   0.0000

     No symmetry found

   Cartesian axes

     site n.     atom                  positions (alat units)
         1           O0  tau(   1) = (   0.0000000   0.0000000   1.6055876  )
         2           O0  tau(   2) = (   0.0000000   0.5172566   1.7058013  )
         3           Rh1 tau(   3) = (   0.2500000   0.5172566   1.9245886  )
         4           Rh1 tau(   4) = (   0.0000000   0.0000000   1.9225486  )
         5           O0  tau(   5) = (   0.2500000   0.8379556   1.9216561  )
         6           O0  tau(   6) = (   0.2500000   0.1965575   1.9210611  )
         7           O0  tau(   7) = (   0.0000000   0.5172566   2.1183012  )
         8           O0  tau(   8) = (   0.0000000   0.0000000   2.2433346  )
         9           Rh1 tau(   9) = (   0.2500000   0.0000000   2.4442296  )
        10           Rh1 tau(  10) = (   0.0000000   0.5172566   2.4248924  )
        11           O0  tau(  11) = (   0.2500000   0.7138141   2.4423597  )
        12           O0  tau(  12) = (   0.2500000   0.3206991   2.4526445  )
        13           O0  tau(  13) = (   0.0000000   0.0000000   2.6373472  )
        14           O0  tau(  14) = (   0.5000000   0.0000000   1.6058426  )
        15           O0  tau(  15) = (   0.5000000   0.5172566   1.7065663  )
        16           Rh1 tau(  16) = (   0.7500000   0.5172566   1.9245461  )
        17           Rh1 tau(  17) = (   0.5000000   0.0000000   1.9225486  )
        18           O0  tau(  18) = (   0.7500000   0.8379556   1.9215286  )
        19           O0  tau(  19) = (   0.7500000   0.1965575   1.9212311  )
        20           O0  tau(  20) = (   0.5000000   0.5172566   2.1254411  )
        21           O0  tau(  21) = (   0.5000000   0.0000000   2.2428246  )
        22           Rh1 tau(  22) = (   0.7500000   0.0000000   2.4442296  )
        23           Rh1 tau(  23) = (   0.5000000   0.5172566   2.4566820  )
        24           O0  tau(  24) = (   0.7500000   0.7138141   2.4423172  )
        25           O0  tau(  25) = (   0.7500000   0.3206991   2.4526445  )
        26           O0  tau(  26) = (   0.5000000   0.0000000   2.6350523  )
        27           H2  tau(  27) = (   0.0000500   0.6607849   1.6355072  )
        28           H2  tau(  28) = (   0.4999200   0.6608884   1.6361872  )
        29           H2  tau(  29) = (   0.1477700   0.0372011   1.5603681  )
        30           H2  tau(  30) = (   0.6484400   0.0346148   1.5604531  )
        31           O0  tau(  31) = (   0.4997300   0.5556577   2.7651007  )
        32           O0  tau(  32) = (   0.5003300   0.3573415   2.8834192  )
        33           H2  tau(  33) = (   0.4999300   0.4160398   3.0312324  )

     number of k points=    10  Methfessel-Paxton smearing, width (Ry)=  0.0100
                       cart. coord. in units 2pi/alat
        k(    1) = (   0.0000000   0.0000000   0.0000000), wk =   0.1250000
        k(    2) = (   0.0000000   0.2416596   0.0000000), wk =   0.2500000
        k(    3) = (   0.0000000  -0.4833191   0.0000000), wk =   0.1250000
        k(    4) = (   0.2500000   0.0000000   0.0000000), wk =   0.2500000
        k(    5) = (   0.2500000   0.2416596   0.0000000), wk =   0.2500000
        k(    6) = (   0.2500000  -0.4833191   0.0000000), wk =   0.2500000
        k(    7) = (  -0.5000000   0.0000000   0.0000000), wk =   0.1250000
        k(    8) = (  -0.5000000   0.2416596   0.0000000), wk =   0.2500000
        k(    9) = (  -0.5000000  -0.4833191   0.0000000), wk =   0.1250000
        k(   10) = (  -0.2500000   0.2416596   0.0000000), wk =   0.2500000

     Largest allocated arrays     est. size (Mb)     dimensions
     Largest temporary arrays     est. size (Mb)     dimensions

     Check: negative/imaginary core charge=   -0.000003    0.000000

     Initial potential from superposition of free atoms
     Check: negative starting charge=   -0.646062

     starting charge  240.99914, renormalised to  245.00000

     negative rho (up, down):  0.657E+00 0.000E+00
     Number of +U iterations with fixed ns =  0
     Starting occupations:
 --- enter write_ns ---
 LDA+U parameters:
U( 2)     =  7.50000000
alpha( 2) =  0.00000000
atom    3   Tr[ns(na)] =   7.00000
    eigenvalues:
  0.700  0.700  0.700  0.700  0.700
    eigenvectors:
  1.000  0.000  0.000  0.000  0.000
  0.000  1.000  0.000  0.000  0.000
  0.000  0.000  1.000  0.000  0.000
  0.000  0.000  0.000  1.000  0.000
  0.000  0.000  0.000  0.000  1.000
    occupations:
  0.700  0.000  0.000  0.000  0.000
  0.000  0.700  0.000  0.000  0.000
  0.000  0.000  0.700  0.000  0.000
  0.000  0.000  0.000  0.700  0.000
  0.000  0.000  0.000  0.000  0.700
atom    4   Tr[ns(na)] =   7.00000
    eigenvalues:
  0.700  0.700  0.700  0.700  0.700
    eigenvectors:
  1.000  0.000  0.000  0.000  0.000
  0.000  1.000  0.000  0.000  0.000
  0.000  0.000  1.000  0.000  0.000
  0.000  0.000  0.000  1.000  0.000
  0.000  0.000  0.000  0.000  1.000
    occupations:
  0.700  0.000  0.000  0.000  0.000
  0.000  0.700  0.000  0.000  0.000
  0.000  0.000  0.700  0.000  0.000
  0.000  0.000  0.000  0.700  0.000
  0.000  0.000  0.000  0.000  0.700
atom    9   Tr[ns(na)] =   7.00000
    eigenvalues:
  0.700  0.700  0.700  0.700  0.700
    eigenvectors:
  1.000  0.000  0.000  0.000  0.000
  0.000  1.000  0.000  0.000  0.000
  0.000  0.000  1.000  0.000  0.000
  0.000  0.000  0.000  1.000  0.000
  0.000  0.000  0.000  0.000  1.000
    occupations:
  0.700  0.000  0.000  0.000  0.000
  0.000  0.700  0.000  0.000  0.000
  0.000  0.000  0.700  0.000  0.000
  0.000  0.000  0.000  0.700  0.000
  0.000  0.000  0.000  0.000  0.700
atom   10   Tr[ns(na)] =   7.00000
    eigenvalues:
  0.700  0.700  0.700  0.700  0.700
    eigenvectors:
  1.000  0.000  0.000  0.000  0.000
  0.000  1.000  0.000  0.000  0.000
  0.000  0.000  1.000  0.000  0.000
  0.000  0.000  0.000  1.000  0.000
  0.000  0.000  0.000  0.000  1.000
    occupations:
  0.700  0.000  0.000  0.000  0.000
  0.000  0.700  0.000  0.000  0.000
  0.000  0.000  0.700  0.000  0.000
  0.000  0.000  0.000  0.700  0.000
  0.000  0.000  0.000  0.000  0.700
atom   16   Tr[ns(na)] =   7.00000
    eigenvalues:
  0.700  0.700  0.700  0.700  0.700
    eigenvectors:
  1.000  0.000  0.000  0.000  0.000
  0.000  1.000  0.000  0.000  0.000
  0.000  0.000  1.000  0.000  0.000
  0.000  0.000  0.000  1.000  0.000
  0.000  0.000  0.000  0.000  1.000
    occupations:
  0.700  0.000  0.000  0.000  0.000
  0.000  0.700  0.000  0.000  0.000
  0.000  0.000  0.700  0.000  0.000
  0.000  0.000  0.000  0.700  0.000
  0.000  0.000  0.000  0.000  0.700
atom   17   Tr[ns(na)] =   7.00000
    eigenvalues:
  0.700  0.700  0.700  0.700  0.700
    eigenvectors:
  1.000  0.000  0.000  0.000  0.000
  0.000  1.000  0.000  0.000  0.000
  0.000  0.000  1.000  0.000  0.000
  0.000  0.000  0.000  1.000  0.000
  0.000  0.000  0.000  0.000  1.000
    occupations:
  0.700  0.000  0.000  0.000  0.000
  0.000  0.700  0.000  0.000  0.000
  0.000  0.000  0.700  0.000  0.000
  0.000  0.000  0.000  0.700  0.000
  0.000  0.000  0.000  0.000  0.700
atom   22   Tr[ns(na)] =   7.00000
    eigenvalues:
  0.700  0.700  0.700  0.700  0.700
    eigenvectors:
  1.000  0.000  0.000  0.000  0.000
  0.000  1.000  0.000  0.000  0.000
[...]
  0.000  0.947 -0.000  0.000 -0.010
  0.008 -0.000  0.945 -0.000 -0.000
  0.037  0.000 -0.000  0.978  0.000
 -0.000 -0.010 -0.000  0.000  0.593
atom   16   Tr[ns(na)] =   8.10853
    eigenvalues:
  0.578  0.600  0.927  0.969  0.981
    eigenvectors:
  0.018  0.183  0.003  0.000  0.796
  0.917  0.083  0.000  0.000  0.000
  0.000  0.000  0.986  0.012  0.002
  0.064  0.734  0.000  0.000  0.202
  0.000  0.000  0.011  0.988  0.000
    occupations:
  0.904  0.005  0.001 -0.154  0.000
  0.005  0.580 -0.000  0.004 -0.006
  0.001 -0.000  0.927 -0.005 -0.004
 -0.154  0.004 -0.005  0.675 -0.000
  0.000 -0.006 -0.004 -0.000  0.968
atom   17   Tr[ns(na)] =   8.12853
    eigenvalues:
  0.595  0.649  0.898  0.940  0.982
    eigenvectors:
  0.001  0.991  0.000  0.000  0.008
  0.000  0.000  0.064  0.935  0.000
  0.000  0.000  0.936  0.064  0.000
  0.000  0.008  0.000  0.000  0.992
  0.999  0.001  0.000  0.000  0.000
    occupations:
  0.652 -0.004 -0.001  0.030  0.002
 -0.004  0.937  0.010  0.001 -0.001
 -0.001  0.010  0.901 -0.000  0.001
  0.030  0.001 -0.000  0.979 -0.000
  0.002 -0.001  0.001 -0.000  0.595
atom   22   Tr[ns(na)] =   8.13392
    eigenvalues:
  0.634  0.642  0.888  0.920  0.983
    eigenvectors:
  0.000  0.152  0.000  0.000  0.847
  0.998  0.002  0.000  0.000  0.000
  0.000  0.000  0.983  0.017  0.000
  0.002  0.845  0.000  0.000  0.153
  0.000  0.000  0.017  0.983  0.000
    occupations:
  0.931  0.001 -0.000 -0.123  0.000
  0.001  0.634  0.001 -0.001 -0.000
 -0.000  0.001  0.888 -0.005  0.004
 -0.123 -0.001 -0.005  0.694  0.001
  0.000 -0.000  0.004  0.001  0.919
atom   23   Tr[ns(na)] =   8.13267
    eigenvalues:
  0.596  0.631  0.895  0.963  0.981
    eigenvectors:
  0.000  0.993  0.000  0.003  0.004
  0.001  0.000  0.999  0.000  0.000
  0.000  0.003  0.000  0.996  0.001
  0.000  0.004  0.000  0.001  0.995
  0.999  0.000  0.001  0.000  0.000
    occupations:
  0.633 -0.000  0.018  0.021 -0.000
 -0.000  0.895 -0.001 -0.000 -0.010
  0.018 -0.001  0.962 -0.002  0.000
  0.021 -0.000 -0.002  0.980  0.000
 -0.000 -0.010  0.000  0.000  0.596
N of occupied +U levels =  64.9757774
 --- exit write_ns ---

     Threshold (ethr) on eigenvalues was too large:
     Diagonalizing with lowered threshold

     Davidson diagonalization with overlap
     ethr =  7.31E-08,  avg # of iterations =  2.0

[...]

     total energy              =   -2010.73052061 Ry
     Harris-Foulkes estimate   =   -2010.73052061 Ry
     estimated scf accuracy    <       0.00000004 Ry

     iteration # 19     ecut=    40.00 Ry     beta=0.70
     Davidson diagonalization with overlap
     ethr =  1.45E-11,  avg # of iterations =  1.0

     negative rho (up, down):  0.687E+00 0.000E+00

     End of self-consistent calculation
 --- enter write_ns ---
 LDA+U parameters:
U( 2)     =  7.50000000
alpha( 2) =  0.00000000
atom    3   Tr[ns(na)] =   8.10780
    eigenvalues:
  0.578  0.600  0.927  0.969  0.981
    eigenvectors:
  0.019  0.183  0.003  0.000  0.796
  0.914  0.086  0.000  0.000  0.000
  0.000  0.000  0.979  0.019  0.002
  0.067  0.731  0.000  0.000  0.202
  0.000  0.000  0.019  0.981  0.000
    occupations:
  0.904 -0.005  0.001 -0.154 -0.001
 -0.005  0.580 -0.001 -0.004 -0.005
  0.001 -0.001  0.927 -0.005  0.006
 -0.154 -0.004 -0.005  0.675 -0.000
 -0.001 -0.005  0.006 -0.000  0.968
atom    4   Tr[ns(na)] =   8.12883
    eigenvalues:
  0.594  0.648  0.900  0.939  0.982
    eigenvectors:
  0.001  0.991  0.000  0.000  0.008
  0.000  0.000  0.099  0.901  0.000
  0.000  0.000  0.901  0.099  0.000
  0.000  0.008  0.000  0.000  0.992
  0.999  0.001  0.000  0.000  0.000
    occupations:
  0.651 -0.004 -0.001  0.029  0.002
 -0.004  0.935  0.012  0.001 -0.001
 -0.001  0.012  0.904 -0.000  0.001
  0.029  0.001 -0.000  0.979  0.000
  0.002 -0.001  0.001  0.000  0.594
atom    9   Tr[ns(na)] =   8.13402
    eigenvalues:
  0.634  0.642  0.888  0.920  0.983
    eigenvectors:
  0.004  0.149  0.000  0.000  0.847
  0.971  0.029  0.000  0.000  0.000
  0.000  0.000  0.981  0.018  0.000
  0.025  0.822  0.000  0.000  0.153
  0.000  0.000  0.018  0.981  0.000
    occupations:
  0.931 -0.000 -0.000 -0.123 -0.001
 -0.000  0.634  0.000  0.002 -0.000
 -0.000  0.000  0.889 -0.005 -0.004
 -0.123  0.002 -0.005  0.694  0.001
 -0.001 -0.000 -0.004  0.001  0.919
atom   10   Tr[ns(na)] =   8.10063
    eigenvalues:
  0.583  0.593  0.945  0.947  0.982
    eigenvectors:
  0.991  0.000  0.000  0.000  0.009
  0.000  0.001  0.002  0.997  0.000
  0.000  0.000  0.997  0.002  0.000
  0.009  0.000  0.000  0.000  0.991
  0.000  0.999  0.000  0.001  0.000
    occupations:
  0.587  0.000  0.008  0.037 -0.000
  0.000  0.947 -0.000  0.000 -0.010
  0.008 -0.000  0.945 -0.000 -0.000
  0.037  0.000 -0.000  0.978  0.000
 -0.000 -0.010 -0.000  0.000  0.593
atom   16   Tr[ns(na)] =   8.10777
    eigenvalues:
  0.578  0.600  0.927  0.968  0.981
    eigenvectors:
  0.018  0.183  0.003  0.000  0.796
  0.917  0.083  0.000  0.000  0.000
  0.000  0.000  0.985  0.012  0.002
  0.065  0.734  0.000  0.000  0.202
  0.000  0.000  0.012  0.988  0.000
    occupations:
  0.904  0.005  0.001 -0.154  0.000
  0.005  0.580 -0.000  0.004 -0.006
  0.001 -0.000  0.927 -0.005 -0.005
 -0.154  0.004 -0.005  0.675 -0.000
  0.000 -0.006 -0.005 -0.000  0.968
atom   17   Tr[ns(na)] =   8.12820
    eigenvalues:
  0.595  0.649  0.898  0.940  0.982
    eigenvectors:
  0.001  0.991  0.000  0.000  0.008
  0.000  0.000  0.064  0.935  0.000
  0.000  0.000  0.936  0.064  0.000
  0.000  0.008  0.000  0.000  0.992
  0.999  0.001  0.000  0.000  0.000
    occupations:
  0.652 -0.004 -0.001  0.030  0.002
 -0.004  0.937  0.010  0.001 -0.001
 -0.001  0.010  0.901 -0.000  0.001
  0.030  0.001 -0.000  0.979 -0.000
  0.002 -0.001  0.001 -0.000  0.595
atom   22   Tr[ns(na)] =   8.13406
    eigenvalues:
  0.634  0.642  0.888  0.920  0.983
    eigenvectors:
  0.000  0.152  0.000  0.000  0.847
  0.998  0.002  0.000  0.000  0.000
  0.000  0.000  0.983  0.017  0.000
  0.002  0.845  0.000  0.000  0.153
  0.000  0.000  0.017  0.983  0.000
    occupations:
  0.931  0.001 -0.000 -0.123  0.000
  0.001  0.634  0.001 -0.001 -0.000
 -0.000  0.001  0.888 -0.005  0.004
 -0.123 -0.001 -0.005  0.694  0.001
  0.000 -0.000  0.004  0.001  0.920
atom   23   Tr[ns(na)] =   8.13324
    eigenvalues:
  0.596  0.631  0.895  0.963  0.981
    eigenvectors:
  0.000  0.993  0.000  0.003  0.004
  0.001  0.000  0.999  0.000  0.000
  0.000  0.003  0.000  0.996  0.001
  0.000  0.004  0.000  0.001  0.995
  0.999  0.000  0.001  0.000  0.000
    occupations:
  0.633 -0.000  0.018  0.021 -0.000
 -0.000  0.895 -0.001 -0.000 -0.010
  0.018 -0.001  0.962 -0.002  0.000
  0.021 -0.000 -0.002  0.980  0.000
 -0.000 -0.010  0.000  0.000  0.596
N of occupied +U levels =  64.9745621
 --- exit write_ns ---

[...]

          k = 0.2500-0.4833 0.0000 ( 30510 PWs)   bands (ev):

[...]

          k =-0.2500 0.2417 0.0000 ( 30481 PWs)   bands (ev):

   -47.8922 -47.7842 -47.7543 -47.7530 -47.7250 -47.6849 -47.6779 -47.6722
   -47.6497 -47.6282 -47.6142 -47.5484 -47.5311 -47.5206 -47.4567 -47.4280
   -47.4086 -47.4005 -47.3958 -47.3311 -47.3048 -47.2914 -47.2913 -47.2777
   -24.6171 -20.6275 -20.3426 -20.3001 -20.2476 -19.9025 -19.8381 -19.8103
   -19.7732 -19.6743 -19.5389 -19.4688 -19.4454 -19.2790 -19.2572 -19.2058
   -19.0935 -18.5469 -18.3802 -17.6961  -9.9504  -9.8545  -9.7590  -9.5559
    -9.5032  -9.3722  -9.1600  -9.1545  -9.0742  -8.7896  -8.3105  -8.2235
    -8.2048  -8.0989  -8.0417  -7.9428  -7.8932  -7.6938  -7.6433  -7.5098
    -7.3667  -7.2237  -7.1099  -7.0236  -6.9487  -6.7892  -6.6728  -6.6062
    -6.5241  -6.4749  -6.4108  -6.3001  -6.2731  -6.2155  -6.1535  -6.0444
    -6.0308  -5.9320  -5.8431  -5.7875  -5.6554  -5.5923  -5.4859  -5.3196
    -4.9580  -4.9025  -4.6957  -4.5399  -4.4605  -4.3441  -4.2546  -4.1886
    -4.0897  -3.9772  -3.9570  -3.9030  -3.8196  -3.5935  -3.5354  -3.4287
    -3.2973  -3.1338  -3.1046  -3.0408  -2.9890  -2.9502  -2.8965  -2.8073
    -2.7739  -2.6437  -2.5336  -2.4802  -2.2224  -2.0199  -1.8898  -1.8139
    -1.7306  -1.7006  -1.5521  -1.4379  -1.2912  -1.2201  -1.1502  -0.0952
     0.4789   0.5514   0.7314   1.0760   1.3516   1.6457   1.8354   2.0513
     2.1679   2.3362   2.3951   2.5203   2.5515   2.6646   2.9503   3.2544
     3.8698   4.1882   4.4200   4.9629   5.1928   5.5002   5.8289   5.9788
     6.0291   6.1948   6.2931   6.4663   6.6238   6.8667   6.9100   7.2265
     7.3948   7.4852   7.6684   7.8212   7.8635   8.1406   8.2029   8.3024
     8.4079   8.5126   8.6971   8.8296   8.8702   9.0371   9.1537   9.1932
     9.3391   9.4107   9.4907   9.6288   9.7877   9.8296   9.9470   9.9865
    10.0859  10.1753  10.3026  10.3747  10.4783  10.5307  10.6301  10.7087
    10.7825  10.9095  10.9977  11.1336  11.1800  11.3070  11.3331  11.4298
    11.5138  11.6130  11.6714  11.7053  11.7916  11.8437  11.9339  11.9714
    12.0329  12.1381  12.2653  12.3481  12.4417  12.5070  12.5397  12.5906
    12.6450  12.7557  12.8415  12.9664  13.0404  13.0877  13.1044  13.1847
    13.3071  13.4293  13.4625  13.6114  13.6531  13.7388  13.8010  13.8858
    14.0011  14.0627  14.1453  14.1785  14.2797  14.3696  14.4453  14.4714
    14.5481  14.5669  14.7026  14.7358  14.8179  14.8822  15.0184  15.0373
    15.1099  15.2149  15.2743  15.3470  15.4665  15.5064  15.5890  15.6271
    15.6789  15.7766  15.8169  15.8590  15.9477  15.9770  16.0239  16.0985
    16.1366  16.1940  16.3218  16.3816  16.4526  16.5029  16.5343  16.6286
    16.6436  16.7374  16.7939  16.8928  16.9834  17.0661  17.1120  17.1673
    17.2343  17.2743  17.3121  17.4392  17.4739  17.5308  17.5711  17.6039
    17.7253  17.7382  17.7844  17.8598  17.9603  18.0060  18.0790  18.1278
    18.1952  18.2632  18.3624  18.4108  18.5338  18.6190  18.6487  18.6936
    18.8511  18.9244  18.9795  19.0091  19.0592  19.1811  19.2385  19.3353
    19.4016  19.4721  19.5006  19.5884  19.6449  19.7000  19.7859  19.9135
    19.9590  20.0666  20.1379  20.2253  20.3135  20.3379  20.3647  20.4997
    20.6106  20.6933  20.7247  20.7578  20.7963  20.8768  20.9694  20.9898
    21.0838  21.1247  21.1582  21.2036  21.2909  21.3710  21.4335  21.4534
    21.5197  21.5960  21.6844  21.7055  21.7703  21.8220  21.8519  21.9488
    22.0696  22.0901  22.1365  22.2232  22.2800  22.3533  22.4261  22.4621
    22.5558  22.6205  22.6658  22.7239  22.8093  22.8914  22.9298

     the Fermi energy is    -1.6048 ev

!    total energy              =   -2010.73052061 Ry
     Harris-Foulkes estimate   =   -2010.73052061 Ry
     estimated scf accuracy    <          4.3E-09 Ry

     The total energy is the sum of the following terms:

     one-electron contribution =  -23748.62299818 Ry
     hartree contribution      =   11933.21169747 Ry
     xc contribution           =    -380.16448792 Ry
     ewald contribution        =   10182.09060946 Ry
     Hubbard energy            =       2.75553540 Ry
     smearing contrib. (-TS)   =      -0.00087684 Ry

     convergence has been achieved in  19 iterations

     Forces acting on atoms (Ry/au):

     negative rho (up, down):  0.687E+00 0.000E+00
     atom    1 type  1   force =    -0.00700258   -0.01160097    0.00014531
     atom    2 type  1   force =     0.00013855    0.00302254   -0.00035519
     atom    3 type  2   force =     0.03012918    0.00576384   -0.00017192
     atom    4 type  2   force =     0.00777096    0.00775027    0.00011511
     atom    5 type  1   force =    -0.00425943   -0.02877433    0.00010391
     atom    6 type  1   force =     0.00319124    0.02715300    0.00027400
     atom    7 type  1   force =    -0.00027748   -0.00510742   -0.00032748
     atom    8 type  1   force =    -0.00275142    0.00113627   -0.00052698
     atom    9 type  2   force =     0.00388022    0.00030341   -0.00010561
     atom   10 type  2   force =    -0.00019444    0.00135899   -0.00026140
     atom   11 type  1   force =    -0.00966434    0.02377410    0.00022506
     atom   12 type  1   force =    -0.00300633   -0.01814950    0.00033295
     atom   13 type  1   force =    -0.00060821   -0.00250036   -0.00004321
     atom   14 type  1   force =    -0.00569564   -0.01127009    0.00046038
     atom   15 type  1   force =     0.00007478    0.00276603   -0.00018960
     atom   16 type  2   force =    -0.03009348    0.00586434   -0.00016598
     atom   17 type  2   force =     0.00742925    0.00841455   -0.00000621
     atom   18 type  1   force =    -0.00186538   -0.02955421    0.00010123
     atom   19 type  1   force =     0.00551131    0.02652450    0.00027873
     atom   20 type  1   force =    -0.00012333   -0.00676753    0.00080928
     atom   21 type  1   force =    -0.00290911    0.00137747   -0.00070711
     atom   22 type  2   force =    -0.00143057    0.00019791   -0.00011172
     atom   23 type  2   force =    -0.00055268    0.00307334   -0.00067719
     atom   24 type  1   force =     0.00908923    0.02351893    0.00022315
     atom   25 type  1   force =     0.00423132   -0.01830327    0.00040252
     atom   26 type  1   force =    -0.00085872   -0.01028752    0.00037498
     atom   27 type  3   force =    -0.00000107    0.00027518    0.00026840
     atom   28 type  3   force =     0.00000143    0.00022982    0.00040699
     atom   29 type  3   force =    -0.00002791    0.00010500    0.00020130
     atom   30 type  3   force =    -0.00025206    0.00007238    0.00006291
     atom   31 type  1   force =    -0.00024701   -0.00004511    0.00036072
     atom   32 type  1   force =     0.00040140   -0.00030828   -0.00059491
     atom   33 type  3   force =    -0.00002767   -0.00001329   -0.00090242

     Total force =     0.002314     Total SCF correction =     0.000107

     entering subroutine stress ...

     negative rho (up, down):  0.687E+00 0.000E+00
          total   stress  (Ry/bohr**3)                   (kbar)     P=  -17.49
  -0.00012398   0.00000641   0.00000405        -18.24      0.94      0.60
   0.00000641  -0.00014173   0.00000405          0.94    -20.85      0.60
   0.00000405   0.00000405  -0.00009106          0.60      0.60    -13.40

     bfgs converged in   9 scf cycles and   8 bfgs steps
     (criteria: energy < 0.10E-03, force < 0.10E-02)

     End of BFGS Geometry Optimization

     Final energy   =   -2010.7305206099 Ry
Begin final coordinates

ATOMIC_POSITIONS (crystal)
O0       0.000000000   0.000000000   0.378066242    0   0   1
O0       0.000000000   0.500000000   0.401966887    0   0   1
Rh1      0.250000000   0.500000000   0.452987074    0   0   1
Rh1      0.000000000   0.000000000   0.452418499    0   0   1
O0       0.250000000   0.810000000   0.452412533    0   0   1
O0       0.250000000   0.190000000   0.452056226    0   0   1
O0       0.000000000   0.500000000   0.499440616    0   0   1
O0       0.000000000   0.000000000   0.527726636    0   0   1
Rh1      0.250000000   0.000000000   0.574751239    0   0   1
Rh1      0.000000000   0.500000000   0.570900268    0   0   1
O0       0.250000000   0.690000000   0.574114338    0   0   1
O0       0.250000000   0.310000000   0.576445688    0   0   1
O0       0.000000000   0.000000000   0.620413680    0   0   1
O0       0.500000000   0.000000000   0.377951827    0   0   1
O0       0.500000000   0.500000000   0.402032502    0   0   1
Rh1      0.750000000   0.500000000   0.452977518    0   0   1
Rh1      0.500000000   0.000000000   0.452208872    0   0   1
O0       0.750000000   0.810000000   0.452377716    0   0   1
O0       0.750000000   0.190000000   0.452091834    0   0   1
O0       0.500000000   0.500000000   0.500525107    0   0   1
O0       0.500000000   0.000000000   0.527593534    0   0   1
Rh1      0.750000000   0.000000000   0.574749161    0   0   1
Rh1      0.500000000   0.500000000   0.577453929    0   0   1
O0       0.750000000   0.690000000   0.574118513    0   0   1
O0       0.750000000   0.310000000   0.576437609    0   0   1
O0       0.500000000   0.000000000   0.620017593    0   0   1
H2      -0.000169142   0.637320246   0.384998888
H2       0.499722912   0.637757084   0.385234425
H2       0.147788108   0.036258689   0.367438806
H2       0.648625073   0.033848631   0.367415741
O0       0.499287316   0.535760732   0.650637534
O0       0.500825994   0.346965273   0.677958358
H2       0.499935243   0.401460042   0.713010607
End final coordinates

     General routines

     Parallel routines
     Hubbard U routines

   This run was terminated on:  20:50:12   2Jun2014

   JOB DONE.
Running PBS batch system epilogue script
Job id: 373356.audhumbla.fysik.dtu.dk
Username: zhonxu
Groupname: campgst
Jobname: RhO2/Eads-2-layers/OOH-U-7.5
Sessionid: 32293
Queuename: verylong
Accounting:
This job has allocated the following 16 nodes:
d059 d059 d059 d059 d059 d059 d059 d059 d005 d005 d005 d005 d005 d005 d005 d005
Finished epilogue job 373356.audhumbla.fysik.dtu.dk for zhonxu