     Program PWSCF v.5.0.2 (svn rev. 9656) starts on 15Oct2014 at 13:11:45

     Current dimensions of program PWSCF are:
     Max number of different atomic species (ntypx) = 10
     Max number of k-points (npk) =  40000
     Max angular momentum in pseudopotentials (lmaxx) =  3
     Reading input from pwscf.in
Warning: card &CELL ignored
Warning: card / ignored

     Subspace diagonalization in iterative solution of the eigenvalue problem:
     a serial algorithm will be used

     bravais-lattice index     =            0
     lattice parameter (alat)  =      11.2250  a.u.
     unit-cell volume          =    7005.5484 (a.u.)^3
     number of atoms/cell      =           33
     number of atomic types    =            3
     number of electrons       =       221.00
     number of Kohn-Sham states=          319
     kinetic-energy cutoff     =      40.0000  Ry
     charge density cutoff     =     500.0000  Ry
     convergence threshold     =      1.0E-06
     mixing beta               =       0.7000
     number of iterations used =            8  plain     mixing
     Exchange-correlation      = SLA  PW   PBE  PBE ( 1 4 3 4 0)
     EXX-fraction              =        0.00
     nstep                     =           50

     celldm(1)=  11.224973  celldm(2)=   0.000000  celldm(3)=   0.000000
     celldm(4)=   0.000000  celldm(5)=   0.000000  celldm(6)=   0.000000

     crystal axes: (cart. coord. in units of alat)
               a(1) = (   1.000000   0.000000   0.000000 )
               a(2) = (   0.000000   1.107086   0.000000 )
               a(3) = (   0.000000   0.000000   4.474090 )

     reciprocal axes: (cart. coord. in units 2 pi/alat)
               b(1) = (  1.000000  0.000000  0.000000 )
               b(2) = (  0.000000  0.903272  0.000000 )
               b(3) = (  0.000000  0.000000  0.223509 )

     PseudoPot. # 1 for O  read from file:
     /home-research/zhongnanxu/pseudopotentials/gbrv_espresso_pseudo_v1.01/o_pbe_v1.01.uspp.F.UPF
     MD5 check sum: 2bcb18d16ea4b960afae9ec6d52f22d2
     Pseudo is Ultrasoft + core correction, Zval =  6.0
     Generated by new atomic code, or converted to UPF format
     Using radial grid of  737 points,  5 beta functions with:
                l(1) =   0
                l(2) =   0
                l(3) =   1
                l(4) =   1
                l(5) =   2
     Q(r) pseudized with  8 coefficients,  rinner =    0.900   0.900   0.900
                                                       0.900   0.900

     PseudoPot. # 2 for Ti read from file:
     /home-research/zhongnanxu/pseudopotentials/gbrv_espresso_pseudo_v1.01/ti_pbe_v1.uspp.F.UPF
     MD5 check sum: bcc8f6961b3b91f0cac3ca967d22d0fb
     Pseudo is Ultrasoft + core correction, Zval = 12.0
     Generated by new atomic code, or converted to UPF format
     Using radial grid of  851 points,  6 beta functions with:
                l(1) =   0
                l(2) =   0
                l(3) =   1
                l(4) =   1
                l(5) =   2
                l(6) =   2
     Q(r) pseudized with  6 coefficients,  rinner =    1.000   1.000   1.000
                                                       1.000   1.000

     PseudoPot. # 3 for H  read from file:
     /home-research/zhongnanxu/pseudopotentials/gbrv_espresso_pseudo_v1.01/h_pbe_v1.uspp.F.UPF
     MD5 check sum: 3408e3ff4ec8b0a4e358431e7e038a48
     Pseudo is Ultrasoft, Zval =  1.0
     Generated by new atomic code, or converted to UPF format
     Using radial grid of  615 points,  2 beta functions with:
                l(1) =   0
                l(2) =   0
     Q(r) pseudized with  8 coefficients,  rinner =    0.700

     atomic species   valence    mass     pseudopotential
        O0             6.00    15.99940     O ( 1.00)
        Ti1           12.00    47.88000     Ti( 1.00)
        H2             1.00     1.00794     H ( 1.00)

     Simplified LDA+U calculation (l_max = 2) with parameters (eV):
     atomic species    L          U    alpha       J0     beta
        Ti1            2     6.0000   0.0000   0.0000   0.0000

     No symmetry found

   Cartesian axes

     site n.     atom                  positions (alat units)
         1           O0  tau(   1) = (   0.0000000   0.0000000   1.6839579  )
         2           O0  tau(   2) = (   0.0000000   0.5535432   1.7822984  )
         3           Ti1 tau(   3) = (   0.2500000   0.5535432   2.0167854  )
         4           Ti1 tau(   4) = (   0.0000000   0.0000000   2.0157564  )
         5           O0  tau(   5) = (   0.2500000   0.8967400   2.0110586  )
         6           O0  tau(   6) = (   0.2500000   0.2103464   2.0159354  )
         7           O0  tau(   7) = (   0.0000000   0.5535432   2.2298416  )
         8           O0  tau(   8) = (   0.0000000   0.0000000   2.3559214  )
         9           Ti1 tau(   9) = (   0.2500000   0.0000000   2.5994014  )
        10           Ti1 tau(  10) = (   0.0000000   0.5535432   2.5501417  )
        11           O0  tau(  11) = (   0.2500000   0.7638896   2.5901400  )
        12           O0  tau(  12) = (   0.2500000   0.3431968   2.5973433  )
        13           O0  tau(  13) = (   0.0000000   0.0000000   2.7921004  )
        14           O0  tau(  14) = (   0.5000000   0.0000000   1.6878504  )
        15           O0  tau(  15) = (   0.5000000   0.5535432   1.7824326  )
        16           Ti1 tau(  16) = (   0.7500000   0.5535432   2.0168302  )
        17           Ti1 tau(  17) = (   0.5000000   0.0000000   2.0241229  )
        18           O0  tau(  18) = (   0.7500000   0.8967400   2.0108796  )
        19           O0  tau(  19) = (   0.7500000   0.2103464   2.0163380  )
        20           O0  tau(  20) = (   0.5000000   0.5535432   2.2277835  )
        21           O0  tau(  21) = (   0.5000000   0.0000000   2.3568163  )
        22           Ti1 tau(  22) = (   0.7500000   0.0000000   2.5994461  )
        23           Ti1 tau(  23) = (   0.5000000   0.5535432   2.6028464  )
        24           O0  tau(  24) = (   0.7500000   0.7638896   2.5900953  )
        25           O0  tau(  25) = (   0.7500000   0.3431968   2.5972986  )
        26           O0  tau(  26) = (   0.5000000   0.0000000   2.7896844  )
        27           H2  tau(  27) = (  -0.0002200   0.6966784   1.6959037  )
        28           H2  tau(  28) = (   0.4998100   0.6979626   1.6980065  )
        29           H2  tau(  29) = (   0.1517400   0.0340540   1.6246762  )
        30           H2  tau(  30) = (   0.6507100   0.0357700   1.6273159  )
        31           O0  tau(  31) = (   0.5003100   0.5957342   2.9447116  )
        32           O0  tau(  32) = (   0.4991200   0.3951413   3.0700309  )
        33           H2  tau(  33) = (   0.5003600   0.4565514   3.2249239  )

     number of k points=    10  Methfessel-Paxton smearing, width (Ry)=  0.0100
                       cart. coord. in units 2pi/alat
        k(    1) = (   0.0000000   0.0000000   0.0000000), wk =   0.1250000
        k(    2) = (   0.0000000   0.2258180   0.0000000), wk =   0.2500000
        k(    3) = (   0.0000000  -0.4516359   0.0000000), wk =   0.1250000
        k(    4) = (   0.2500000   0.0000000   0.0000000), wk =   0.2500000
        k(    5) = (   0.2500000   0.2258180   0.0000000), wk =   0.2500000
        k(    6) = (   0.2500000  -0.4516359   0.0000000), wk =   0.2500000
        k(    7) = (  -0.5000000   0.0000000   0.0000000), wk =   0.1250000
        k(    8) = (  -0.5000000   0.2258180   0.0000000), wk =   0.2500000
        k(    9) = (  -0.5000000  -0.4516359   0.0000000), wk =   0.1250000
        k(   10) = (  -0.2500000   0.2258180   0.0000000), wk =   0.2500000

     Largest allocated arrays     est. size (Mb)     dimensions
     Largest temporary arrays     est. size (Mb)     dimensions

     Check: negative/imaginary core charge=   -0.000006    0.000000

     Initial potential from superposition of free atoms
     Check: negative starting charge=   -0.102179

     starting charge  212.99957, renormalised to  221.00000

     negative rho (up, down):  0.106E+00 0.000E+00
     Number of +U iterations with fixed ns =  0
     Starting occupations:
 --- enter write_ns ---
 LDA+U parameters:
U( 2)     =  6.00000000
alpha( 2) =  0.00000000
atom    3   Tr[ns(na)] =   2.00000
    eigenvalues:
  0.200  0.200  0.200  0.200  0.200
    eigenvectors:
  1.000  0.000  0.000  0.000  0.000
  0.000  1.000  0.000  0.000  0.000
  0.000  0.000  1.000  0.000  0.000
  0.000  0.000  0.000  1.000  0.000
  0.000  0.000  0.000  0.000  1.000
    occupations:
  0.200  0.000  0.000  0.000  0.000
  0.000  0.200  0.000  0.000  0.000
  0.000  0.000  0.200  0.000  0.000
  0.000  0.000  0.000  0.200  0.000
  0.000  0.000  0.000  0.000  0.200
atom    4   Tr[ns(na)] =   2.00000
    eigenvalues:
  0.200  0.200  0.200  0.200  0.200
    eigenvectors:
  1.000  0.000  0.000  0.000  0.000
  0.000  1.000  0.000  0.000  0.000
  0.000  0.000  1.000  0.000  0.000
  0.000  0.000  0.000  1.000  0.000
  0.000  0.000  0.000  0.000  1.000
    occupations:
  0.200  0.000  0.000  0.000  0.000
  0.000  0.200  0.000  0.000  0.000
  0.000  0.000  0.200  0.000  0.000
  0.000  0.000  0.000  0.200  0.000
  0.000  0.000  0.000  0.000  0.200
atom    9   Tr[ns(na)] =   2.00000
    eigenvalues:
  0.200  0.200  0.200  0.200  0.200
    eigenvectors:
  1.000  0.000  0.000  0.000  0.000
  0.000  1.000  0.000  0.000  0.000
  0.000  0.000  1.000  0.000  0.000
  0.000  0.000  0.000  1.000  0.000
  0.000  0.000  0.000  0.000  1.000
    occupations:
  0.200  0.000  0.000  0.000  0.000
  0.000  0.200  0.000  0.000  0.000
  0.000  0.000  0.200  0.000  0.000
  0.000  0.000  0.000  0.200  0.000
  0.000  0.000  0.000  0.000  0.200
atom   10   Tr[ns(na)] =   2.00000
    eigenvalues:
  0.200  0.200  0.200  0.200  0.200
    eigenvectors:
  1.000  0.000  0.000  0.000  0.000
  0.000  1.000  0.000  0.000  0.000
  0.000  0.000  1.000  0.000  0.000
  0.000  0.000  0.000  1.000  0.000
  0.000  0.000  0.000  0.000  1.000
    occupations:
  0.200  0.000  0.000  0.000  0.000
  0.000  0.200  0.000  0.000  0.000
  0.000  0.000  0.200  0.000  0.000
  0.000  0.000  0.000  0.200  0.000
  0.000  0.000  0.000  0.000  0.200
atom   16   Tr[ns(na)] =   2.00000
    eigenvalues:
  0.200  0.200  0.200  0.200  0.200
    eigenvectors:
  1.000  0.000  0.000  0.000  0.000
  0.000  1.000  0.000  0.000  0.000
  0.000  0.000  1.000  0.000  0.000
  0.000  0.000  0.000  1.000  0.000
  0.000  0.000  0.000  0.000  1.000
    occupations:
  0.200  0.000  0.000  0.000  0.000
  0.000  0.200  0.000  0.000  0.000
  0.000  0.000  0.200  0.000  0.000
  0.000  0.000  0.000  0.200  0.000
  0.000  0.000  0.000  0.000  0.200
atom   17   Tr[ns(na)] =   2.00000
    eigenvalues:
  0.200  0.200  0.200  0.200  0.200
    eigenvectors:
  1.000  0.000  0.000  0.000  0.000
  0.000  1.000  0.000  0.000  0.000
  0.000  0.000  1.000  0.000  0.000
  0.000  0.000  0.000  1.000  0.000
  0.000  0.000  0.000  0.000  1.000
    occupations:
  0.200  0.000  0.000  0.000  0.000
  0.000  0.200  0.000  0.000  0.000
  0.000  0.000  0.200  0.000  0.000
  0.000  0.000  0.000  0.200  0.000
  0.000  0.000  0.000  0.000  0.200
atom   22   Tr[ns(na)] =   2.00000
    eigenvalues:
[...]
atom    4   Tr[ns(na)] =   2.70094
    eigenvalues:
  0.132  0.160  0.177  0.434  0.448
    eigenvectors:
  0.007  0.003  0.000  0.000  0.990
  0.002  0.865  0.130  0.000  0.003
  0.001  0.129  0.869  0.000  0.000
  0.990  0.004  0.000  0.000  0.006
  0.000  0.000  0.000  1.000  0.000
    occupations:
  0.445  0.015  0.005 -0.025  0.000
  0.015  0.163 -0.005  0.000 -0.003
  0.005 -0.005  0.175  0.001  0.000
 -0.025  0.000  0.001  0.134  0.000
  0.000 -0.003  0.000  0.000  0.434
atom    9   Tr[ns(na)] =   2.69866
    eigenvalues:
  0.136  0.179  0.191  0.382  0.461
    eigenvectors:
  0.000  0.001  0.904  0.095  0.000
  0.000  0.000  0.000  0.000  1.000
  0.999  0.001  0.000  0.000  0.000
  0.000  0.000  0.095  0.905  0.000
  0.001  0.998  0.001  0.000  0.000
    occupations:
  0.209  0.001  0.001  0.056  0.000
  0.001  0.461  0.000 -0.002  0.000
  0.001  0.000  0.136  0.002 -0.001
  0.056 -0.002  0.002  0.364  0.000
  0.000  0.000 -0.001  0.000  0.179
atom   10   Tr[ns(na)] =   2.63129
    eigenvalues:
  0.143  0.177  0.199  0.328  0.469
    eigenvectors:
  0.021  0.000  0.000  0.979  0.000
  0.000  0.000  1.000  0.000  0.000
  0.001  0.999  0.000  0.000  0.000
  0.979  0.001  0.000  0.021  0.000
  0.000  0.000  0.000  0.000  1.000
    occupations:
  0.324  0.000 -0.001 -0.026  0.000
  0.000  0.199  0.000  0.000  0.004
 -0.001  0.000  0.177 -0.001  0.000
 -0.026  0.000 -0.001  0.146  0.000
  0.000  0.004  0.000  0.000  0.469
atom   16   Tr[ns(na)] =   2.58797
    eigenvalues:
  0.130  0.145  0.161  0.417  0.440
    eigenvectors:
  0.727  0.035  0.044  0.165  0.029
  0.000  0.002  0.001  0.172  0.826
  0.088  0.194  0.718  0.000  0.000
  0.180  0.007  0.008  0.663  0.144
  0.005  0.763  0.230  0.000  0.002
    occupations:
  0.188 -0.001 -0.005  0.114 -0.001
 -0.001  0.435 -0.001  0.010  0.014
 -0.005 -0.001  0.156  0.007  0.007
  0.114  0.010  0.007  0.365  0.000
 -0.001  0.014  0.007  0.000  0.150
atom   17   Tr[ns(na)] =   2.70120
    eigenvalues:
  0.131  0.162  0.177  0.430  0.450
    eigenvectors:
  0.007  0.002  0.000  0.000  0.991
  0.001  0.878  0.119  0.000  0.002
  0.001  0.118  0.881  0.000  0.000
  0.991  0.002  0.000  0.000  0.006
  0.000  0.000  0.000  1.000  0.000
    occupations:
  0.448  0.014  0.005 -0.025  0.000
  0.014  0.165 -0.005  0.000 -0.003
  0.005 -0.005  0.176  0.001  0.000
 -0.025  0.000  0.001  0.133  0.000
  0.000 -0.003  0.000  0.000  0.430
atom   22   Tr[ns(na)] =   2.69872
    eigenvalues:
  0.135  0.179  0.191  0.382  0.461
    eigenvectors:
  0.000  0.001  0.904  0.095  0.000
  0.000  0.000  0.000  0.000  1.000
  0.999  0.001  0.000  0.000  0.000
  0.000  0.000  0.095  0.905  0.000
  0.001  0.998  0.001  0.000  0.000
    occupations:
  0.209 -0.001  0.001  0.056  0.000
 -0.001  0.461  0.000  0.002  0.000
  0.001  0.000  0.136  0.002  0.001
  0.056  0.002  0.002  0.364  0.000
  0.000  0.000  0.001  0.000  0.179
atom   23   Tr[ns(na)] =   2.61734
    eigenvalues:
  0.128  0.146  0.184  0.379  0.472
    eigenvectors:
  0.001  0.010  0.000  0.989  0.000
  0.000  0.000  1.000  0.000  0.000
  0.999  0.000  0.000  0.001  0.000
  0.000  0.990  0.000  0.010  0.000
  0.000  0.000  0.000  0.000  1.000
    occupations:
  0.377  0.000 -0.008 -0.023  0.000
  0.000  0.184  0.000  0.000  0.003
 -0.008  0.000  0.128  0.001  0.000
 -0.023  0.000  0.001  0.148  0.000
  0.000  0.003  0.000  0.000  0.472
N of occupied +U levels =  21.2238320
 --- exit write_ns ---

[...]

     total energy              =   -1597.00310550 Ry
     Harris-Foulkes estimate   =   -1597.00310551 Ry
     estimated scf accuracy    <       0.00000003 Ry

     iteration # 12     ecut=    40.00 Ry     beta=0.70
     Davidson diagonalization with overlap
     ethr =  1.18E-11,  avg # of iterations =  1.0

     negative rho (up, down):  0.108E+00 0.000E+00

     End of self-consistent calculation
 --- enter write_ns ---
 LDA+U parameters:
U( 2)     =  6.00000000
alpha( 2) =  0.00000000
atom    3   Tr[ns(na)] =   2.58839
    eigenvalues:
  0.130  0.145  0.161  0.417  0.440
    eigenvectors:
  0.723  0.038  0.045  0.165  0.029
  0.000  0.002  0.001  0.173  0.824
  0.091  0.197  0.711  0.000  0.000
  0.179  0.008  0.007  0.661  0.145
  0.006  0.755  0.236  0.000  0.002
    occupations:
  0.189  0.001 -0.005  0.114  0.001
  0.001  0.435  0.001 -0.010  0.014
 -0.005  0.001  0.155  0.008 -0.007
  0.114 -0.010  0.008  0.365 -0.001
  0.001  0.014 -0.007 -0.001  0.150
atom    4   Tr[ns(na)] =   2.70136
    eigenvalues:
  0.132  0.160  0.177  0.434  0.448
    eigenvectors:
  0.007  0.003  0.000  0.000  0.990
  0.002  0.865  0.130  0.000  0.003
  0.001  0.129  0.870  0.000  0.000
  0.990  0.004  0.000  0.000  0.006
  0.000  0.000  0.000  1.000  0.000
    occupations:
  0.446  0.015  0.005 -0.025  0.000
  0.015  0.163 -0.005  0.000 -0.003
  0.005 -0.005  0.175  0.001  0.000
 -0.025  0.000  0.001  0.134  0.000
  0.000 -0.003  0.000  0.000  0.434
atom    9   Tr[ns(na)] =   2.69900
    eigenvalues:
  0.136  0.180  0.191  0.382  0.461
    eigenvectors:
  0.000  0.001  0.904  0.095  0.000
  0.000  0.000  0.000  0.000  1.000
  0.999  0.001  0.000  0.000  0.000
  0.000  0.000  0.095  0.905  0.000
  0.001  0.998  0.001  0.000  0.000
    occupations:
  0.209  0.001  0.001  0.056  0.000
  0.001  0.461  0.000 -0.002  0.000
  0.001  0.000  0.136  0.002 -0.001
  0.056 -0.002  0.002  0.364  0.000
  0.000  0.000 -0.001  0.000  0.179
atom   10   Tr[ns(na)] =   2.63130
    eigenvalues:
  0.143  0.177  0.199  0.328  0.469
    eigenvectors:
  0.021  0.000  0.000  0.979  0.000
  0.000  0.000  1.000  0.000  0.000
  0.001  0.999  0.000  0.000  0.000
  0.979  0.001  0.000  0.021  0.000
  0.000  0.000  0.000  0.000  1.000
    occupations:
  0.324  0.000 -0.001 -0.026  0.000
  0.000  0.199  0.000  0.000  0.004
 -0.001  0.000  0.177 -0.001  0.000
 -0.026  0.000 -0.001  0.146  0.000
  0.000  0.004  0.000  0.000  0.469
atom   16   Tr[ns(na)] =   2.58864
    eigenvalues:
  0.130  0.145  0.161  0.417  0.440
    eigenvectors:
  0.727  0.035  0.044  0.165  0.029
  0.000  0.002  0.001  0.172  0.826
  0.088  0.194  0.717  0.000  0.000
  0.180  0.007  0.008  0.662  0.144
  0.005  0.762  0.230  0.000  0.002
    occupations:
  0.189 -0.001 -0.005  0.114 -0.001
 -0.001  0.435 -0.001  0.010  0.014
 -0.005 -0.001  0.156  0.007  0.007
  0.114  0.010  0.007  0.365  0.000
 -0.001  0.014  0.007  0.000  0.150
atom   17   Tr[ns(na)] =   2.70146
    eigenvalues:
  0.131  0.162  0.177  0.430  0.450
    eigenvectors:
  0.007  0.002  0.000  0.000  0.991
  0.001  0.878  0.118  0.000  0.002
  0.001  0.118  0.881  0.000  0.000
  0.991  0.002  0.000  0.000  0.006
  0.000  0.000  0.000  1.000  0.000
    occupations:
  0.448  0.014  0.005 -0.025  0.000
  0.014  0.165 -0.005  0.000 -0.003
  0.005 -0.005  0.176  0.001  0.000
 -0.025  0.000  0.001  0.133  0.000
  0.000 -0.003  0.000  0.000  0.430
atom   22   Tr[ns(na)] =   2.69906
    eigenvalues:
  0.135  0.180  0.191  0.382  0.461
    eigenvectors:
  0.000  0.001  0.904  0.095  0.000
  0.000  0.000  0.000  0.000  1.000
  0.999  0.001  0.000  0.000  0.000
  0.000  0.000  0.094  0.905  0.000
  0.001  0.998  0.001  0.000  0.000
    occupations:
  0.209 -0.001  0.001  0.056  0.000
 -0.001  0.461  0.000  0.002  0.000
  0.001  0.000  0.135  0.002  0.001
  0.056  0.002  0.002  0.364  0.000
  0.000  0.000  0.001  0.000  0.180
atom   23   Tr[ns(na)] =   2.61735
    eigenvalues:
  0.128  0.146  0.184  0.379  0.472
    eigenvectors:
  0.001  0.010  0.000  0.989  0.000
  0.000  0.000  1.000  0.000  0.000
  0.999  0.000  0.000  0.001  0.000
  0.000  0.990  0.000  0.010  0.000
  0.000  0.000  0.000  0.000  1.000
    occupations:
  0.377  0.000 -0.008 -0.023  0.000
  0.000  0.184  0.000  0.000  0.003
 -0.008  0.000  0.128  0.001  0.000
 -0.023  0.000  0.001  0.148  0.000
  0.000  0.003  0.000  0.000  0.472
N of occupied +U levels =  21.2265691
 --- exit write_ns ---

[...]

          k = 0.2500-0.4516 0.0000 ( 29882 PWs)   bands (ev):

[...]

          k =-0.2500 0.2258 0.0000 ( 29912 PWs)   bands (ev):

   -61.1584 -61.1339 -60.8716 -60.6200 -59.8449 -59.8116 -59.3570 -59.3307
   -37.5523 -37.3403 -37.3196 -37.2405 -37.2382 -37.2174 -37.2019 -37.0823
   -36.9881 -36.8121 -36.8041 -36.7428 -36.3261 -36.1340 -36.0633 -36.0264
   -35.8845 -35.8517 -35.6693 -35.6483 -35.6413 -35.5369 -35.4736 -35.3462
   -24.8576 -21.2938 -21.0725 -20.1918 -19.7015 -19.6392 -19.2756 -19.2063
   -19.0959 -18.9853 -18.9715 -18.9419 -18.8898 -18.7383 -18.7146 -18.1043
   -17.8288 -17.6331 -17.4056 -17.3849  -9.5194  -8.9285  -8.7066  -7.9008
    -7.2691  -7.1558  -7.1202  -7.0221  -6.9532  -6.6687  -6.6580  -6.5570
    -6.5185  -6.4856  -6.4201  -6.3074  -6.2433  -6.1643  -6.0909  -5.9530
    -5.8724  -5.6793  -5.6036  -5.4382  -5.3195  -5.0856  -4.9792  -4.8615
    -4.8507  -4.7591  -4.7129  -4.6483  -4.5496  -4.4899  -4.4091  -4.3452
    -4.3106  -4.2664  -4.2216  -4.0828  -4.0507  -3.8974  -3.8229  -3.7117
    -3.6388  -3.4887  -3.2922  -3.0969  -2.9111  -2.7967  -2.7852  -2.6978
    -2.5785  -2.4550  -2.3704  -2.3108  -2.2331  -2.1175  -2.0689   0.1796
     0.3998   0.5044   0.5794   0.5911   0.8006   0.8664   0.9199   0.9881
     1.0706   1.1472   1.2290   1.4230   1.4610   1.5770   1.6952   1.8106
     1.8551   1.9334   2.0979   2.1472   2.1748   2.2350   2.2912   2.3367
     2.3793   2.4614   2.5215   2.5500   2.7865   2.9558   3.0857   3.1995
     3.2576   3.4241   3.5994   3.6271   3.7930   3.9090   3.9697   4.1040
     4.1885   4.3295   4.4205   4.7022   5.1458   5.2390   5.5972   5.6731
     5.7066   6.0053   6.0883   6.2871   6.4051   6.6329   6.7231   7.0322
     7.1621   7.3433   7.4952   7.6001   7.7595   7.9852   8.0373   8.1129
     8.2150   8.3000   8.4692   8.4930   8.7138   8.7670   8.8846   8.9723
     9.1240   9.1528   9.2485   9.3796   9.5118   9.6448   9.6948   9.7544
     9.8564   9.9763  10.1298  10.2978  10.3500  10.3869  10.4686  10.5752
    10.6135  10.7802  10.8561  10.9465  11.0207  11.0968  11.1815  11.2752
    11.3484  11.4286  11.5014  11.5749  11.6429  11.7439  11.7736  11.8765
    11.9624  12.0641  12.1189  12.1770  12.2219  12.2992  12.3370  12.4465
    12.5189  12.5624  12.6270  12.7037  12.7735  12.9444  12.9963  13.0456
    13.0630  13.1584  13.1952  13.3206  13.4444  13.5606  13.5881  13.7364
    13.7908  13.8962  13.9126  14.0119  14.0700  14.1494  14.2249  14.2590
    14.3030  14.3371  14.4647  14.5322  14.5676  14.6013  14.6792  14.7815
    14.8426  14.9799  15.0122  15.1143  15.1461  15.2294  15.3379  15.3765
    15.4944  15.5310  15.5738  15.6379  15.6658  15.7496  15.8113  15.8833
    15.9749  16.0379  16.0942  16.1546  16.2091  16.3056  16.3726  16.4495
    16.5063  16.5849  16.6183  16.7041  16.8058  16.8446  16.8876  16.9182
    17.0153  17.1094  17.1484  17.2351  17.2840  17.3471  17.4248  17.4546
    17.5374  17.5911  17.6561  17.7856  17.8839  17.9253  17.9606  18.0514
    18.1394  18.1787  18.2899  18.3590  18.4174  18.4804  18.6067  18.6376
    18.6770  18.7423  18.8002  18.8638  18.9635  19.0660  19.1119

     the Fermi energy is    -2.0563 ev

!    total energy              =   -1597.00310550 Ry
     Harris-Foulkes estimate   =   -1597.00310550 Ry
     estimated scf accuracy    <          7.6E-09 Ry

     The total energy is the sum of the following terms:

     one-electron contribution =  -19101.89673082 Ry
     hartree contribution      =    9572.04971026 Ry
     xc contribution           =    -284.44232998 Ry
     ewald contribution        =    8214.16757198 Ry
     Hubbard energy            =       3.11996059 Ry
     smearing contrib. (-TS)   =      -0.00128753 Ry

     convergence has been achieved in  12 iterations

     Forces acting on atoms (Ry/au):

     negative rho (up, down):  0.108E+00 0.000E+00
     atom    1 type  1   force =    -0.00263661   -0.01483277    0.00014522
     atom    2 type  1   force =     0.00005685    0.01684472    0.00016992
     atom    3 type  2   force =     0.04055581   -0.00802449   -0.00005740
     atom    4 type  2   force =     0.00101269    0.00956000   -0.00002511
     atom    5 type  1   force =    -0.00112196   -0.08898995   -0.00019174
     atom    6 type  1   force =    -0.00428683    0.08730668   -0.00018365
     atom    7 type  1   force =     0.00010137   -0.00110313    0.00015514
     atom    8 type  1   force =     0.00077756   -0.00075404    0.00006219
     atom    9 type  2   force =     0.00163399    0.00006254    0.00054782
     atom   10 type  2   force =     0.00001225   -0.00093636   -0.00054822
     atom   11 type  1   force =    -0.02359205   -0.01328025    0.00032320
     atom   12 type  1   force =    -0.02055905    0.01851794    0.00023219
     atom   13 type  1   force =     0.00010511   -0.00250987   -0.00006256
     atom   14 type  1   force =    -0.00455201   -0.01495040   -0.00006054
     atom   15 type  1   force =     0.00010248    0.01722683    0.00027511
     atom   16 type  2   force =    -0.04042124   -0.00865058   -0.00005704
     atom   17 type  2   force =     0.00094982    0.00904693   -0.00001917
     atom   18 type  1   force =     0.00528374   -0.08910378   -0.00016310
     atom   19 type  1   force =     0.00353136    0.08772188   -0.00022800
     atom   20 type  1   force =    -0.00009454   -0.00054013   -0.00072971
     atom   21 type  1   force =     0.00068106   -0.00004703   -0.00018289
     atom   22 type  2   force =    -0.00201503    0.00009041    0.00054911
     atom   23 type  2   force =    -0.00007693   -0.00283503   -0.00055009
     atom   24 type  1   force =     0.02372562   -0.01317112    0.00032999
     atom   25 type  1   force =     0.02045658    0.01838555    0.00023440
     atom   26 type  1   force =     0.00016356   -0.00526485    0.00002214
     atom   27 type  3   force =    -0.00000847    0.00001396    0.00005227
     atom   28 type  3   force =     0.00000236   -0.00012191   -0.00005129
     atom   29 type  3   force =     0.00003020   -0.00008654    0.00007052
     atom   30 type  3   force =     0.00018092   -0.00008487    0.00000082
     atom   31 type  1   force =     0.00016645    0.00022217   -0.00057603
     atom   32 type  1   force =    -0.00020485    0.00038167    0.00080286
     atom   33 type  3   force =     0.00003977   -0.00009415   -0.00028637

     Total force =     0.001936     Total SCF correction =     0.000358
     SCF correction compared to forces is large: reduce conv_thr to get better values

     bfgs converged in   5 scf cycles and   4 bfgs steps
     (criteria: energy < 0.10E-03, force < 0.10E-02)

     End of BFGS Geometry Optimization

     Final energy   =   -1597.0031054977 Ry
Begin final coordinates

ATOMIC_POSITIONS (crystal)
O0       0.000000000   0.000000000   0.376286337    0   0   1
O0       0.000000000   0.500000000   0.398213910    0   0   1
Ti1      0.250000000   0.500000000   0.450736540    0   0   1
Ti1      0.000000000   0.000000000   0.450534471    0   0   1
O0       0.250000000   0.810000000   0.449442946    0   0   1
O0       0.250000000   0.190000000   0.450541334    0   0   1
O0       0.000000000   0.500000000   0.498392297    0   0   1
O0       0.000000000   0.000000000   0.526628965    0   0   1
Ti1      0.250000000   0.000000000   0.580969822    0   0   1
Ti1      0.000000000   0.500000000   0.570205477    0   0   1
O0       0.250000000   0.690000000   0.578928231    0   0   1
O0       0.250000000   0.310000000   0.580522339    0   0   1
O0       0.000000000   0.000000000   0.624253578    0   0   1
O0       0.500000000   0.000000000   0.377159181    0   0   1
O0       0.500000000   0.500000000   0.398251420    0   0   1
Ti1      0.750000000   0.500000000   0.450747830    0   0   1
Ti1      0.500000000   0.000000000   0.452312082    0   0   1
O0       0.750000000   0.810000000   0.449408672    0   0   1
O0       0.750000000   0.190000000   0.450622417    0   0   1
O0       0.500000000   0.500000000   0.498158689    0   0   1
O0       0.500000000   0.000000000   0.526839852    0   0   1
Ti1      0.750000000   0.000000000   0.580978160    0   0   1
Ti1      0.500000000   0.500000000   0.581588551    0   0   1
O0       0.750000000   0.690000000   0.578919961    0   0   1
O0       0.750000000   0.310000000   0.580513434    0   0   1
O0       0.500000000   0.000000000   0.623687491    0   0   1
H2      -0.000231889   0.629616496   0.379013456
H2       0.499809411   0.630696058   0.379460875
H2       0.151946447   0.030721875   0.363162550
H2       0.650926676   0.032262212   0.363755365
O0       0.500310000   0.538215796   0.658228835    0   1   1
O0       0.499120000   0.357018998   0.686200828    0   1   1
H2       0.500360000   0.412564877   0.720824103    0   1   1
End final coordinates

     General routines

     Parallel routines
     Hubbard U routines

   This run was terminated on:  17:26:47  15Oct2014

   JOB DONE.