     Program PWSCF v.5.0.2 (svn rev. 9656) starts on 31May2014 at 16:28:28

     Current dimensions of program PWSCF are:
     Max number of different atomic species (ntypx) = 10
     Max number of k-points (npk) =  40000
     Max angular momentum in pseudopotentials (lmaxx) =  3
     Reading input from pwscf.in
Warning: card &CELL ignored
Warning: card / ignored

     Subspace diagonalization in iterative solution of the eigenvalue problem:
     a serial algorithm will be used

     bravais-lattice index     =            0
     lattice parameter (alat)  =      11.2250  a.u.
     unit-cell volume          =    7005.5484 (a.u.)^3
     number of atoms/cell      =           33
     number of atomic types    =            3
     number of electrons       =       221.00
     number of Kohn-Sham states=          319
     kinetic-energy cutoff     =      40.0000  Ry
     charge density cutoff     =     500.0000  Ry
     convergence threshold     =      1.0E-06
     mixing beta               =       0.7000
     number of iterations used =            8  plain     mixing
     Exchange-correlation      = SLA  PW   PBE  PBE ( 1 4 3 4 0)
     EXX-fraction              =        0.00
     nstep                     =           50

     celldm(1)=  11.224973  celldm(2)=   0.000000  celldm(3)=   0.000000
     celldm(4)=   0.000000  celldm(5)=   0.000000  celldm(6)=   0.000000

     crystal axes: (cart. coord. in units of alat)
               a(1) = (   1.000000   0.000000   0.000000 )
               a(2) = (   0.000000   1.107086   0.000000 )
               a(3) = (   0.000000   0.000000   4.474090 )

     reciprocal axes: (cart. coord. in units 2 pi/alat)
               b(1) = (  1.000000  0.000000  0.000000 )
               b(2) = (  0.000000  0.903272  0.000000 )
               b(3) = (  0.000000  0.000000  0.223509 )

     PseudoPot. # 1 for O  read from file:
     /home/camp/zhonxu/pseudo/o_pbe_v1.01.uspp.F.UPF
     MD5 check sum: 2bcb18d16ea4b960afae9ec6d52f22d2
     Pseudo is Ultrasoft + core correction, Zval =  6.0
     Generated by new atomic code, or converted to UPF format
     Using radial grid of  737 points,  5 beta functions with:
                l(1) =   0
                l(2) =   0
                l(3) =   1
                l(4) =   1
                l(5) =   2
     Q(r) pseudized with  8 coefficients,  rinner =    0.900   0.900   0.900
                                                       0.900   0.900

     PseudoPot. # 2 for Ti read from file:
     /home/camp/zhonxu/pseudo/ti_pbe_v1.uspp.F.UPF
     MD5 check sum: bcc8f6961b3b91f0cac3ca967d22d0fb
     Pseudo is Ultrasoft + core correction, Zval = 12.0
     Generated by new atomic code, or converted to UPF format
     Using radial grid of  851 points,  6 beta functions with:
                l(1) =   0
                l(2) =   0
                l(3) =   1
                l(4) =   1
                l(5) =   2
                l(6) =   2
     Q(r) pseudized with  6 coefficients,  rinner =    1.000   1.000   1.000
                                                       1.000   1.000

     PseudoPot. # 3 for H  read from file:
     /home/camp/zhonxu/pseudo/h_pbe_v1.uspp.F.UPF
     MD5 check sum: 3408e3ff4ec8b0a4e358431e7e038a48
     Pseudo is Ultrasoft, Zval =  1.0
     Generated by new atomic code, or converted to UPF format
     Using radial grid of  615 points,  2 beta functions with:
                l(1) =   0
                l(2) =   0
     Q(r) pseudized with  8 coefficients,  rinner =    0.700

     atomic species   valence    mass     pseudopotential
        O0             6.00    15.99940     O ( 1.00)
        Ti1           12.00    47.88000     Ti( 1.00)
        H2             1.00     1.00794     H ( 1.00)

     Simplified LDA+U calculation (l_max = 2) with parameters (eV):
     atomic species    L          U    alpha       J0     beta
        Ti1            2     6.0000   0.0000   0.0000   0.0000

     No symmetry found

   Cartesian axes

     site n.     atom                  positions (alat units)
         1           O0  tau(   1) = (   0.0000000   0.0000000   1.6912954  )
         2           O0  tau(   2) = (   0.0000000   0.5535432   1.7865040  )
         3           Ti1 tau(   3) = (   0.2500000   0.5535432   2.0182619  )
         4           Ti1 tau(   4) = (   0.0000000   0.0000000   2.0215280  )
         5           O0  tau(   5) = (   0.2500000   0.8967400   2.0132062  )
         6           O0  tau(   6) = (   0.2500000   0.2103464   2.0173223  )
         7           O0  tau(   7) = (   0.0000000   0.5535432   2.2297074  )
         8           O0  tau(   8) = (   0.0000000   0.0000000   2.3520737  )
         9           Ti1 tau(   9) = (   0.2500000   0.0000000   2.5974328  )
        10           Ti1 tau(  10) = (   0.0000000   0.5535432   2.5411040  )
        11           O0  tau(  11) = (   0.2500000   0.7638896   2.5876345  )
        12           O0  tau(  12) = (   0.2500000   0.3431968   2.5923323  )
        13           O0  tau(  13) = (   0.0000000   0.0000000   2.7826601  )
        14           O0  tau(  14) = (   0.5000000   0.0000000   1.6946510  )
        15           O0  tau(  15) = (   0.5000000   0.5535432   1.7849381  )
        16           Ti1 tau(  16) = (   0.7500000   0.5535432   2.0183066  )
        17           Ti1 tau(  17) = (   0.5000000   0.0000000   2.0277470  )
        18           O0  tau(  18) = (   0.7500000   0.8967400   2.0129377  )
        19           O0  tau(  19) = (   0.7500000   0.2103464   2.0175013  )
        20           O0  tau(  20) = (   0.5000000   0.5535432   2.2179405  )
        21           O0  tau(  21) = (   0.5000000   0.0000000   2.3528791  )
        22           Ti1 tau(  22) = (   0.7500000   0.0000000   2.5974328  )
        23           Ti1 tau(  23) = (   0.5000000   0.5535432   2.6181478  )
        24           O0  tau(  24) = (   0.7500000   0.7638896   2.5875898  )
        25           O0  tau(  25) = (   0.7500000   0.3431968   2.5922429  )
        26           O0  tau(  26) = (   0.5000000   0.0000000   2.7811837  )
        27           H2  tau(  27) = (  -0.0004600   0.6930693   1.6949194  )
        28           H2  tau(  28) = (   0.4997200   0.6918293   1.6916086  )
        29           H2  tau(  29) = (   0.1490000   0.0365781   1.6268238  )
        30           H2  tau(  30) = (   0.6482800   0.0381834   1.6297319  )
        31           O0  tau(  31) = (   0.5003100   0.5833902   2.9430115  )
        32           O0  tau(  32) = (   0.4991200   0.3876242   3.0783974  )
        33           H2  tau(  33) = (   0.5003600   0.4575034   3.2295322  )

     number of k points=    10  Methfessel-Paxton smearing, width (Ry)=  0.0100
                       cart. coord. in units 2pi/alat
        k(    1) = (   0.0000000   0.0000000   0.0000000), wk =   0.1250000
        k(    2) = (   0.0000000   0.2258180   0.0000000), wk =   0.2500000
        k(    3) = (   0.0000000  -0.4516359   0.0000000), wk =   0.1250000
        k(    4) = (   0.2500000   0.0000000   0.0000000), wk =   0.2500000
        k(    5) = (   0.2500000   0.2258180   0.0000000), wk =   0.2500000
        k(    6) = (   0.2500000  -0.4516359   0.0000000), wk =   0.2500000
        k(    7) = (  -0.5000000   0.0000000   0.0000000), wk =   0.1250000
        k(    8) = (  -0.5000000   0.2258180   0.0000000), wk =   0.2500000
        k(    9) = (  -0.5000000  -0.4516359   0.0000000), wk =   0.1250000
        k(   10) = (  -0.2500000   0.2258180   0.0000000), wk =   0.2500000

     Largest allocated arrays     est. size (Mb)     dimensions
     Largest temporary arrays     est. size (Mb)     dimensions

     Check: negative/imaginary core charge=   -0.000006    0.000000

     Initial potential from superposition of free atoms
     Check: negative starting charge=   -0.102033

     starting charge  212.99957, renormalised to  221.00000

     negative rho (up, down):  0.106E+00 0.000E+00
     Number of +U iterations with fixed ns =  0
     Starting occupations:
 --- enter write_ns ---
 LDA+U parameters:
U( 2)     =  6.00000000
alpha( 2) =  0.00000000
atom    3   Tr[ns(na)] =   2.00000
    eigenvalues:
  0.200  0.200  0.200  0.200  0.200
    eigenvectors:
  1.000  0.000  0.000  0.000  0.000
  0.000  1.000  0.000  0.000  0.000
  0.000  0.000  1.000  0.000  0.000
  0.000  0.000  0.000  1.000  0.000
  0.000  0.000  0.000  0.000  1.000
    occupations:
  0.200  0.000  0.000  0.000  0.000
  0.000  0.200  0.000  0.000  0.000
  0.000  0.000  0.200  0.000  0.000
  0.000  0.000  0.000  0.200  0.000
  0.000  0.000  0.000  0.000  0.200
atom    4   Tr[ns(na)] =   2.00000
    eigenvalues:
  0.200  0.200  0.200  0.200  0.200
    eigenvectors:
  1.000  0.000  0.000  0.000  0.000
  0.000  1.000  0.000  0.000  0.000
  0.000  0.000  1.000  0.000  0.000
  0.000  0.000  0.000  1.000  0.000
  0.000  0.000  0.000  0.000  1.000
    occupations:
  0.200  0.000  0.000  0.000  0.000
  0.000  0.200  0.000  0.000  0.000
  0.000  0.000  0.200  0.000  0.000
  0.000  0.000  0.000  0.200  0.000
  0.000  0.000  0.000  0.000  0.200
atom    9   Tr[ns(na)] =   2.00000
    eigenvalues:
  0.200  0.200  0.200  0.200  0.200
    eigenvectors:
  1.000  0.000  0.000  0.000  0.000
  0.000  1.000  0.000  0.000  0.000
  0.000  0.000  1.000  0.000  0.000
  0.000  0.000  0.000  1.000  0.000
  0.000  0.000  0.000  0.000  1.000
    occupations:
  0.200  0.000  0.000  0.000  0.000
  0.000  0.200  0.000  0.000  0.000
  0.000  0.000  0.200  0.000  0.000
  0.000  0.000  0.000  0.200  0.000
  0.000  0.000  0.000  0.000  0.200
atom   10   Tr[ns(na)] =   2.00000
    eigenvalues:
  0.200  0.200  0.200  0.200  0.200
    eigenvectors:
  1.000  0.000  0.000  0.000  0.000
  0.000  1.000  0.000  0.000  0.000
  0.000  0.000  1.000  0.000  0.000
  0.000  0.000  0.000  1.000  0.000
  0.000  0.000  0.000  0.000  1.000
    occupations:
  0.200  0.000  0.000  0.000  0.000
  0.000  0.200  0.000  0.000  0.000
  0.000  0.000  0.200  0.000  0.000
  0.000  0.000  0.000  0.200  0.000
  0.000  0.000  0.000  0.000  0.200
atom   16   Tr[ns(na)] =   2.00000
    eigenvalues:
  0.200  0.200  0.200  0.200  0.200
    eigenvectors:
  1.000  0.000  0.000  0.000  0.000
  0.000  1.000  0.000  0.000  0.000
  0.000  0.000  1.000  0.000  0.000
  0.000  0.000  0.000  1.000  0.000
  0.000  0.000  0.000  0.000  1.000
    occupations:
  0.200  0.000  0.000  0.000  0.000
  0.000  0.200  0.000  0.000  0.000
  0.000  0.000  0.200  0.000  0.000
  0.000  0.000  0.000  0.200  0.000
  0.000  0.000  0.000  0.000  0.200
atom   17   Tr[ns(na)] =   2.00000
    eigenvalues:
  0.200  0.200  0.200  0.200  0.200
    eigenvectors:
  1.000  0.000  0.000  0.000  0.000
  0.000  1.000  0.000  0.000  0.000
  0.000  0.000  1.000  0.000  0.000
  0.000  0.000  0.000  1.000  0.000
  0.000  0.000  0.000  0.000  1.000
    occupations:
  0.200  0.000  0.000  0.000  0.000
  0.000  0.200  0.000  0.000  0.000
  0.000  0.000  0.200  0.000  0.000
  0.000  0.000  0.000  0.200  0.000
  0.000  0.000  0.000  0.000  0.200
atom   22   Tr[ns(na)] =   2.00000
    eigenvalues:
  0.200  0.200  0.200  0.200  0.200
    eigenvectors:
  1.000  0.000  0.000  0.000  0.000
  0.000  1.000  0.000  0.000  0.000
  0.000  0.000  1.000  0.000  0.000
[...]
    eigenvectors:
  0.000  0.000  0.898  0.102  0.000
  0.000  0.000  0.000  0.000  1.000
  0.998  0.002  0.000  0.000  0.000
  0.000  0.000  0.102  0.898  0.000
  0.002  0.998  0.000  0.000  0.000
    occupations:
  0.209 -0.001  0.001  0.059  0.000
 -0.001  0.462  0.001  0.002 -0.000
  0.001  0.001  0.134  0.001  0.002
  0.059  0.002  0.001  0.363  0.000
  0.000 -0.000  0.002  0.000  0.177
atom   10   Tr[ns(na)] =   2.62971
    eigenvalues:
  0.143  0.176  0.197  0.328  0.470
    eigenvectors:
  0.020  0.000  0.000  0.979  0.000
  0.000  0.001  0.999  0.000  0.000
  0.000  0.998  0.001  0.000  0.000
  0.979  0.000  0.000  0.020  0.000
  0.000  0.000  0.000  0.000  1.000
    occupations:
  0.325 -0.000 -0.002 -0.026  0.000
 -0.000  0.197 -0.001  0.000  0.001
 -0.002 -0.001  0.176 -0.000 -0.004
 -0.026  0.000 -0.000  0.147 -0.000
  0.000  0.001 -0.004 -0.000  0.470
atom   16   Tr[ns(na)] =   2.58897
    eigenvalues:
  0.129  0.146  0.162  0.419  0.438
    eigenvectors:
  0.740  0.021  0.044  0.165  0.030
  0.000  0.002  0.000  0.170  0.827
  0.074  0.161  0.764  0.000  0.000
  0.184  0.004  0.007  0.664  0.141
  0.002  0.811  0.184  0.000  0.002
    occupations:
  0.188 -0.000 -0.005  0.115 -0.001
 -0.000  0.434 -0.001  0.008  0.014
 -0.005 -0.001  0.157  0.008  0.006
  0.115  0.008  0.008  0.365  0.000
 -0.001  0.014  0.006  0.000  0.150
atom   17   Tr[ns(na)] =   2.69581
    eigenvalues:
  0.131  0.160  0.176  0.432  0.449
    eigenvectors:
  0.007  0.002  0.000  0.000  0.990
  0.002  0.866  0.129  0.000  0.003
  0.001  0.128  0.871  0.000  0.000
  0.990  0.003  0.000  0.000  0.006
  0.000  0.000  0.000  1.000  0.000
    occupations:
  0.446  0.015  0.005 -0.025 -0.000
  0.015  0.163 -0.005 -0.000 -0.003
  0.005 -0.005  0.174  0.001 -0.000
 -0.025 -0.000  0.001  0.133 -0.000
 -0.000 -0.003 -0.000 -0.000  0.432
atom   22   Tr[ns(na)] =   2.69141
    eigenvalues:
  0.136  0.178  0.188  0.380  0.463
    eigenvectors:
  0.000  0.000  0.897  0.103  0.000
  0.000  0.000  0.000  0.000  1.000
  0.997  0.003  0.000  0.000  0.000
  0.000  0.000  0.103  0.897  0.000
  0.003  0.997  0.000  0.000  0.000
    occupations:
  0.208  0.001 -0.000  0.058 -0.000
  0.001  0.463 -0.001 -0.002  0.000
 -0.000 -0.001  0.136 -0.000 -0.002
  0.058 -0.002 -0.000  0.361 -0.000
 -0.000  0.000 -0.002 -0.000  0.178
atom   23   Tr[ns(na)] =   2.62731
    eigenvalues:
  0.140  0.145  0.174  0.385  0.471
    eigenvectors:
  0.000  0.015  0.003  0.981  0.000
  0.087  0.068  0.838  0.007  0.000
  0.846  0.033  0.121  0.000  0.000
  0.067  0.884  0.038  0.011  0.000
  0.000  0.000  0.000  0.000  1.000
    occupations:
  0.380 -0.019 -0.001 -0.025 -0.001
 -0.019  0.170 -0.010 -0.003  0.002
 -0.001 -0.010  0.144  0.003  0.004
 -0.025 -0.003  0.003  0.148 -0.000
 -0.001  0.002  0.004 -0.000  0.471
N of occupied +U levels =  21.2130462
 --- exit write_ns ---

[...]

     total energy              =   -1597.00942217 Ry
     Harris-Foulkes estimate   =   -1597.00942218 Ry
     estimated scf accuracy    <       0.00000004 Ry

     iteration # 13     ecut=    40.00 Ry     beta=0.70
     Davidson diagonalization with overlap
     ethr =  1.81E-11,  avg # of iterations =  1.0

     negative rho (up, down):  0.108E+00 0.000E+00

     End of self-consistent calculation
 --- enter write_ns ---
 LDA+U parameters:
U( 2)     =  6.00000000
alpha( 2) =  0.00000000
atom    3   Tr[ns(na)] =   2.58944
    eigenvalues:
  0.129  0.146  0.162  0.419  0.438
    eigenvectors:
  0.740  0.021  0.044  0.165  0.030
  0.000  0.002  0.000  0.170  0.827
  0.074  0.155  0.771  0.000  0.000
  0.183  0.004  0.007  0.664  0.141
  0.003  0.818  0.177  0.000  0.002
    occupations:
  0.188  0.000 -0.005  0.115  0.001
  0.000  0.434  0.001 -0.008  0.014
 -0.005  0.001  0.157  0.008 -0.006
  0.115 -0.008  0.008  0.365 -0.001
  0.001  0.014 -0.006 -0.001  0.150
atom    4   Tr[ns(na)] =   2.70009
    eigenvalues:
  0.132  0.159  0.177  0.433  0.448
    eigenvectors:
  0.007  0.003  0.000  0.000  0.990
  0.002  0.877  0.118  0.000  0.003
  0.001  0.117  0.882  0.000  0.000
  0.990  0.004  0.000  0.000  0.006
  0.000  0.000  0.000  0.999  0.000
    occupations:
  0.446  0.016  0.005 -0.025 -0.000
  0.016  0.162 -0.006  0.000 -0.003
  0.005 -0.006  0.175  0.001 -0.000
 -0.025  0.000  0.001  0.134 -0.000
 -0.000 -0.003 -0.000 -0.000  0.433
atom    9   Tr[ns(na)] =   2.69117
    eigenvalues:
  0.134  0.178  0.189  0.382  0.462
    eigenvectors:
  0.000  0.000  0.898  0.102  0.000
  0.000  0.000  0.000  0.000  1.000
  0.998  0.002  0.000  0.000  0.000
  0.000  0.000  0.102  0.898  0.000
  0.002  0.998  0.000  0.000  0.000
    occupations:
  0.209 -0.001  0.001  0.058  0.000
 -0.001  0.462  0.001  0.002 -0.000
  0.001  0.001  0.134  0.001  0.002
  0.058  0.002  0.001  0.363  0.000
  0.000 -0.000  0.002  0.000  0.178
atom   10   Tr[ns(na)] =   2.63056
    eigenvalues:
  0.143  0.176  0.197  0.328  0.471
    eigenvectors:
  0.021  0.000  0.000  0.979  0.000
  0.000  0.001  0.999  0.000  0.000
  0.000  0.998  0.001  0.000  0.000
  0.979  0.000  0.000  0.020  0.000
  0.000  0.000  0.000  0.000  1.000
    occupations:
  0.324 -0.000 -0.002 -0.026  0.000
 -0.000  0.197 -0.001  0.000  0.001
 -0.002 -0.001  0.176 -0.000 -0.004
 -0.026  0.000 -0.000  0.147 -0.000
  0.000  0.001 -0.004 -0.000  0.471
atom   16   Tr[ns(na)] =   2.58865
    eigenvalues:
  0.129  0.146  0.162  0.419  0.438
    eigenvectors:
  0.740  0.021  0.044  0.165  0.029
  0.000  0.002  0.000  0.169  0.829
  0.074  0.158  0.768  0.000  0.000
  0.184  0.004  0.007  0.665  0.140
  0.002  0.815  0.180  0.000  0.002
    occupations:
  0.188 -0.000 -0.005  0.115 -0.001
 -0.000  0.434 -0.001  0.008  0.014
 -0.005 -0.001  0.157  0.008  0.006
  0.115  0.008  0.008  0.365  0.000
 -0.001  0.014  0.006  0.000  0.150
atom   17   Tr[ns(na)] =   2.69649
    eigenvalues:
  0.131  0.160  0.176  0.432  0.449
    eigenvectors:
  0.007  0.002  0.000  0.000  0.990
  0.002  0.865  0.130  0.000  0.003
  0.001  0.129  0.870  0.000  0.000
  0.990  0.003  0.000  0.000  0.006
  0.000  0.000  0.000  1.000  0.000
    occupations:
  0.446  0.015  0.005 -0.025 -0.000
  0.015  0.163 -0.005 -0.000 -0.003
  0.005 -0.005  0.174  0.001 -0.000
 -0.025 -0.000  0.001  0.134 -0.000
 -0.000 -0.003 -0.000 -0.000  0.432
atom   22   Tr[ns(na)] =   2.69210
    eigenvalues:
  0.137  0.178  0.188  0.380  0.463
    eigenvectors:
  0.000  0.000  0.897  0.102  0.000
  0.000  0.000  0.000  0.000  1.000
  0.997  0.003  0.000  0.000  0.000
  0.000  0.000  0.102  0.897  0.000
  0.003  0.997  0.000  0.000  0.000
    occupations:
  0.208  0.001 -0.000  0.058 -0.000
  0.001  0.463 -0.001 -0.002  0.000
 -0.000 -0.001  0.137 -0.001 -0.002
  0.058 -0.002 -0.001  0.361 -0.000
 -0.000  0.000 -0.002 -0.000  0.178
atom   23   Tr[ns(na)] =   2.62863
    eigenvalues:
  0.140  0.144  0.174  0.385  0.471
    eigenvectors:
  0.000  0.015  0.003  0.981  0.000
  0.088  0.069  0.836  0.007  0.000
  0.840  0.036  0.123  0.000  0.000
  0.072  0.880  0.037  0.011  0.000
  0.000  0.000  0.000  0.000  1.000
    occupations:
  0.381 -0.019 -0.001 -0.025 -0.001
 -0.019  0.170 -0.010 -0.003  0.002
 -0.001 -0.010  0.145  0.003  0.004
 -0.025 -0.003  0.003  0.148 -0.000
 -0.001  0.002  0.004 -0.000  0.470
N of occupied +U levels =  21.2171090
 --- exit write_ns ---

[...]

          k = 0.2500-0.4516 0.0000 ( 29882 PWs)   bands (ev):

[...]

          k =-0.2500 0.2258 0.0000 ( 29912 PWs)   bands (ev):

   -61.2162 -61.1915 -60.9258 -60.6278 -59.8796 -59.8503 -59.4252 -59.3991
   -37.6142 -37.4008 -37.3778 -37.3047 -37.2893 -37.2684 -37.2548 -37.1375
   -37.0394 -36.8166 -36.8052 -36.7764 -36.3627 -36.1686 -36.0997 -36.0628
   -35.9137 -35.8906 -35.7369 -35.7159 -35.7055 -35.5975 -35.5349 -35.4139
   -24.9165 -21.3661 -21.1451 -20.2426 -19.7517 -19.6750 -19.3611 -19.2669
   -19.1290 -19.0357 -18.9851 -18.9608 -18.9373 -18.7652 -18.7255 -18.1262
   -17.8455 -17.6646 -17.4713 -17.4156  -9.6218  -9.0225  -8.7969  -7.9937
    -7.3152  -7.1715  -7.1615  -7.0825  -7.0066  -6.7522  -6.7109  -6.6319
    -6.5755  -6.5087  -6.4424  -6.3405  -6.2779  -6.2202  -6.1266  -6.0023
    -5.9212  -5.7246  -5.6615  -5.4651  -5.3411  -5.1071  -5.0433  -4.9199
    -4.8989  -4.7982  -4.7626  -4.6848  -4.6027  -4.5435  -4.4358  -4.3883
    -4.3543  -4.3011  -4.2467  -4.1079  -4.0586  -3.9440  -3.8628  -3.7419
    -3.6555  -3.5539  -3.3531  -3.1312  -2.9466  -2.8213  -2.8117  -2.7089
    -2.6222  -2.5018  -2.4282  -2.3235  -2.2589  -2.1575  -2.0717   0.1263
     0.3595   0.4489   0.5220   0.5351   0.7490   0.8210   0.8626   0.9510
     1.0468   1.0886   1.1959   1.4087   1.4417   1.5400   1.6640   1.7742
     1.8267   1.8892   2.0568   2.1155   2.1374   2.2154   2.2567   2.2717
     2.3437   2.4166   2.4836   2.4987   2.7286   2.8955   3.0861   3.1544
     3.2060   3.3737   3.5651   3.5950   3.7624   3.8684   3.9179   4.0587
     4.1821   4.2627   4.3421   4.6977   5.1968   5.2951   5.6210   5.6469
     5.7438   6.0134   6.1116   6.3014   6.4381   6.6036   6.7570   7.0546
     7.1449   7.3118   7.4514   7.5704   7.7819   7.9657   8.0307   8.1076
     8.1970   8.2935   8.4500   8.4893   8.5984   8.7512   8.8735   8.9863
     9.1325   9.2065   9.2947   9.4753   9.5357   9.6182   9.7318   9.7718
     9.8857   9.9678  10.0990  10.2386  10.3557  10.3935  10.4505  10.5916
    10.6880  10.7803  10.8677  10.9756  11.0157  11.0806  11.1712  11.2644
    11.3295  11.4217  11.5061  11.5468  11.6507  11.7214  11.7786  11.8732
    11.9558  12.0174  12.0789  12.1800  12.2034  12.2850  12.3532  12.3814
    12.5253  12.5695  12.6281  12.7008  12.8065  12.9169  12.9824  13.0357
    13.0605  13.1217  13.2032  13.3386  13.4369  13.5484  13.6527  13.7437
    13.7731  13.8200  13.9283  13.9876  14.0893  14.1367  14.1910  14.2346
    14.2654  14.3568  14.4183  14.4974  14.5562  14.5951  14.6415  14.7210
    14.8272  14.8992  14.9597  15.0486  15.1456  15.2552  15.2692  15.3372
    15.4636  15.5408  15.5929  15.6528  15.6985  15.7512  15.7926  15.8809
    15.9585  16.0131  16.0609  16.1250  16.2325  16.3140  16.3507  16.4083
    16.5092  16.5828  16.6398  16.7351  16.8126  16.8478  16.8794  16.9140
    17.0061  17.0953  17.1623  17.1901  17.3167  17.3563  17.4177  17.4485
    17.5550  17.6057  17.6715  17.7571  17.8836  17.9249  17.9789  18.0492
    18.0910  18.2038  18.2945  18.3975  18.4343  18.5243  18.5734  18.6179
    18.7047  18.7599  18.8229  18.9193  18.9838  19.0498  19.1257

     the Fermi energy is    -2.0577 ev

!    total energy              =   -1597.00942217 Ry
     Harris-Foulkes estimate   =   -1597.00942218 Ry
     estimated scf accuracy    <          9.1E-09 Ry

     The total energy is the sum of the following terms:

     one-electron contribution =  -19126.57207025 Ry
     hartree contribution      =    9584.02085067 Ry
     xc contribution           =    -284.44019014 Ry
     ewald contribution        =    8226.86491566 Ry
     Hubbard energy            =       3.11805672 Ry
     smearing contrib. (-TS)   =      -0.00098482 Ry

     convergence has been achieved in  13 iterations

     Forces acting on atoms (Ry/au):

     negative rho (up, down):  0.108E+00 0.000E+00
     atom    1 type  1   force =    -0.00259780   -0.01441388    0.00110323
     atom    2 type  1   force =     0.00000569    0.01472601   -0.00212909
     atom    3 type  2   force =     0.03779430   -0.00815245   -0.00082547
     atom    4 type  2   force =     0.00097100    0.00918003    0.00049229
     atom    5 type  1   force =    -0.00012585   -0.09009811    0.00056943
     atom    6 type  1   force =    -0.00339936    0.08864019    0.00076019
     atom    7 type  1   force =     0.00186585   -0.00052278    0.00126598
     atom    8 type  1   force =     0.00161966    0.00007777    0.00074601
     atom    9 type  2   force =    -0.00401939    0.00014291    0.00000319
     atom   10 type  2   force =     0.00274297    0.00294671    0.00102768
     atom   11 type  1   force =    -0.02234416   -0.01790045   -0.00040155
     atom   12 type  1   force =    -0.01926618    0.02039303   -0.00012362
     atom   13 type  1   force =    -0.00246452    0.00000847   -0.00080890
     atom   14 type  1   force =    -0.00336594   -0.01471484    0.00124087
     atom   15 type  1   force =     0.00029666    0.01593704   -0.00123317
     atom   16 type  2   force =    -0.03777038   -0.00769095   -0.00090433
     atom   17 type  2   force =     0.00126127    0.00914585    0.00098170
     atom   18 type  1   force =     0.00463456   -0.09029692    0.00043641
     atom   19 type  1   force =     0.00204244    0.08827121    0.00076453
     atom   20 type  1   force =    -0.00147350   -0.00014233   -0.00279757
     atom   21 type  1   force =     0.00018010    0.00007262   -0.00009045
     atom   22 type  2   force =     0.00333980   -0.00155474    0.00022494
     atom   23 type  2   force =    -0.00298500    0.00513351   -0.00159686
     atom   24 type  1   force =     0.02333749   -0.01367529    0.00139652
     atom   25 type  1   force =     0.02191861    0.00507813   -0.00016709
     atom   26 type  1   force =     0.00271054   -0.00097683   -0.00106843
     atom   27 type  3   force =    -0.00001982    0.00187492    0.00025658
     atom   28 type  3   force =    -0.00004422    0.00101607    0.00023739
     atom   29 type  3   force =    -0.00045661   -0.00058623   -0.00006329
     atom   30 type  3   force =    -0.00045578   -0.00050495    0.00013853
     atom   31 type  1   force =    -0.00117053    0.00033602    0.00127838
     atom   32 type  1   force =    -0.00048955   -0.00117288    0.00008249
     atom   33 type  3   force =    -0.00227237   -0.00057683   -0.00079654

     Total force =     0.006883     Total SCF correction =     0.000434

     entering subroutine stress ...

     negative rho (up, down):  0.108E+00 0.000E+00
          total   stress  (Ry/bohr**3)                   (kbar)     P=   12.43
   0.00022617  -0.00000152  -0.00000004         33.27     -0.22     -0.01
  -0.00000152   0.00006354   0.00000110         -0.22      9.35      0.16
  -0.00000004   0.00000110  -0.00003616         -0.01      0.16     -5.32

     The maximum number of steps has been reached.

     End of BFGS Geometry Optimization
Begin final coordinates

ATOMIC_POSITIONS (crystal)
O0       0.000000000   0.000000000   0.376411088    0   0   1
O0       0.000000000   0.500000000   0.398902496    0   0   1
Ti1      0.250000000   0.500000000   0.451142940    0   0   1
Ti1      0.000000000   0.000000000   0.450555321    0   0   1
O0       0.250000000   0.810000000   0.449722456    0   0   1
O0       0.250000000   0.190000000   0.450742173    0   0   1
O0       0.000000000   0.500000000   0.498733797    0   0   1
O0       0.000000000   0.000000000   0.526947182    0   0   1
Ti1      0.250000000   0.000000000   0.581238113    0   0   1
Ti1      0.000000000   0.500000000   0.570612683    0   0   1
O0       0.250000000   0.690000000   0.580161217    0   0   1
O0       0.250000000   0.310000000   0.581099768    0   0   1
O0       0.000000000   0.000000000   0.624418988    0   0   1
O0       0.500000000   0.000000000   0.376975921    0   0   1
O0       0.500000000   0.500000000   0.398862570    0   0   1
Ti1      0.750000000   0.500000000   0.451172189    0   0   1
Ti1      0.500000000   0.000000000   0.451594304    0   0   1
O0       0.750000000   0.810000000   0.449720718    0   0   1
O0       0.750000000   0.190000000   0.450776269    0   0   1
O0       0.500000000   0.500000000   0.498763851    0   0   1
O0       0.500000000   0.000000000   0.527302094    0   0   1
Ti1      0.750000000   0.000000000   0.581126078    0   0   1
Ti1      0.500000000   0.500000000   0.580413190    0   0   1
O0       0.750000000   0.690000000   0.578777647    0   0   1
O0       0.750000000   0.310000000   0.579018088    0   0   1
O0       0.500000000   0.000000000   0.624734540    0   0   1
H2      -0.000170803   0.627796271   0.379041065
H2       0.499966489   0.629275752   0.379525137
H2       0.151946435   0.030699280   0.363284584
H2       0.651473328   0.031137116   0.363660414
O0       0.554596208   0.517584706   0.656393509
O0       0.403129741   0.405219356   0.685810493
H2       0.487784672   0.396652738   0.717829117
End final coordinates

     General routines

     Parallel routines
     Hubbard U routines

   This run was terminated on:  13:39: 9   2Jun2014

   JOB DONE.
Running PBS batch system epilogue script
Job id: 373336.audhumbla.fysik.dtu.dk
Username: zhonxu
Groupname: campgst
Jobname: TiO2/Eads-2-layers/OOH-U-6.0
Sessionid: 30222
Queuename: verylong
Accounting:
This job has allocated the following 16 nodes:
c046 c046 c046 c046 c046 c046 c046 c046 c044 c044 c044 c044 c044 c044 c044 c044
Finished epilogue job 373336.audhumbla.fysik.dtu.dk for zhonxu