     Program PWSCF v.5.0.2 (svn rev. 9656) starts on  5Jun2014 at 20:30:40

     Current dimensions of program PWSCF are:
     Max number of different atomic species (ntypx) = 10
     Max number of k-points (npk) =  40000
     Max angular momentum in pseudopotentials (lmaxx) =  3
     Reading input from pwscf.in
Warning: card &CELL ignored
Warning: card / ignored

     Subspace diagonalization in iterative solution of the eigenvalue problem:
     a serial algorithm will be used

     bravais-lattice index     =            0
     lattice parameter (alat)  =      11.2250  a.u.
     unit-cell volume          =    7005.5484 (a.u.)^3
     number of atoms/cell      =           33
     number of atomic types    =            3
     number of electrons       =       221.00
     number of Kohn-Sham states=          319
     kinetic-energy cutoff     =      40.0000  Ry
     charge density cutoff     =     500.0000  Ry
     convergence threshold     =      1.0E-06
     mixing beta               =       0.7000
     number of iterations used =            8  plain     mixing
     Exchange-correlation      = SLA  PW   PBE  PBE ( 1 4 3 4 0)
     EXX-fraction              =        0.00
     nstep                     =           50

     celldm(1)=  11.224973  celldm(2)=   0.000000  celldm(3)=   0.000000
     celldm(4)=   0.000000  celldm(5)=   0.000000  celldm(6)=   0.000000

     crystal axes: (cart. coord. in units of alat)
               a(1) = (   1.000000   0.000000   0.000000 )
               a(2) = (   0.000000   1.107086   0.000000 )
               a(3) = (   0.000000   0.000000   4.474090 )

     reciprocal axes: (cart. coord. in units 2 pi/alat)
               b(1) = (  1.000000  0.000000  0.000000 )
               b(2) = (  0.000000  0.903272  0.000000 )
               b(3) = (  0.000000  0.000000  0.223509 )

     PseudoPot. # 1 for O  read from file:
     /home/camp/zhonxu/pseudo/o_pbe_v1.01.uspp.F.UPF
     MD5 check sum: 2bcb18d16ea4b960afae9ec6d52f22d2
     Pseudo is Ultrasoft + core correction, Zval =  6.0
     Generated by new atomic code, or converted to UPF format
     Using radial grid of  737 points,  5 beta functions with:
                l(1) =   0
                l(2) =   0
                l(3) =   1
                l(4) =   1
                l(5) =   2
     Q(r) pseudized with  8 coefficients,  rinner =    0.900   0.900   0.900
                                                       0.900   0.900

     PseudoPot. # 2 for Ti read from file:
     /home/camp/zhonxu/pseudo/ti_pbe_v1.uspp.F.UPF
     MD5 check sum: bcc8f6961b3b91f0cac3ca967d22d0fb
     Pseudo is Ultrasoft + core correction, Zval = 12.0
     Generated by new atomic code, or converted to UPF format
     Using radial grid of  851 points,  6 beta functions with:
                l(1) =   0
                l(2) =   0
                l(3) =   1
                l(4) =   1
                l(5) =   2
                l(6) =   2
     Q(r) pseudized with  6 coefficients,  rinner =    1.000   1.000   1.000
                                                       1.000   1.000

     PseudoPot. # 3 for H  read from file:
     /home/camp/zhonxu/pseudo/h_pbe_v1.uspp.F.UPF
     MD5 check sum: 3408e3ff4ec8b0a4e358431e7e038a48
     Pseudo is Ultrasoft, Zval =  1.0
     Generated by new atomic code, or converted to UPF format
     Using radial grid of  615 points,  2 beta functions with:
                l(1) =   0
                l(2) =   0
     Q(r) pseudized with  8 coefficients,  rinner =    0.700

     atomic species   valence    mass     pseudopotential
        O0             6.00    15.99940     O ( 1.00)
        Ti1           12.00    47.88000     Ti( 1.00)
        H2             1.00     1.00794     H ( 1.00)

     Simplified LDA+U calculation (l_max = 2) with parameters (eV):
     atomic species    L          U    alpha       J0     beta
        Ti1            2     6.0000   0.0000   0.0000   0.0000

     No symmetry found

   Cartesian axes

     site n.     atom                  positions (alat units)
         1           O0  tau(   1) = (   0.0000000   0.0000000   1.6840921  )
         2           O0  tau(   2) = (   0.0000000   0.5535432   1.7847144  )
         3           Ti1 tau(   3) = (   0.2500000   0.5535432   2.0184408  )
         4           Ti1 tau(   4) = (   0.0000000   0.0000000   2.0158459  )
         5           O0  tau(   5) = (   0.2500000   0.8967400   2.0120876  )
         6           O0  tau(   6) = (   0.2500000   0.2103464   2.0166512  )
         7           O0  tau(   7) = (   0.0000000   0.5535432   2.2313628  )
         8           O0  tau(   8) = (   0.0000000   0.0000000   2.3576216  )
         9           Ti1 tau(   9) = (   0.2500000   0.0000000   2.6005199  )
        10           Ti1 tau(  10) = (   0.0000000   0.5535432   2.5529603  )
        11           O0  tau(  11) = (   0.2500000   0.7638896   2.5956879  )
        12           O0  tau(  12) = (   0.2500000   0.3431968   2.5998935  )
        13           O0  tau(  13) = (   0.0000000   0.0000000   2.7937111  )
        14           O0  tau(  14) = (   0.5000000   0.0000000   1.6866424  )
        15           O0  tau(  15) = (   0.5000000   0.5535432   1.7845354  )
        16           Ti1 tau(  16) = (   0.7500000   0.5535432   2.0185751  )
        17           Ti1 tau(  17) = (   0.5000000   0.0000000   2.0204542  )
        18           O0  tau(  18) = (   0.7500000   0.8967400   2.0120876  )
        19           O0  tau(  19) = (   0.7500000   0.2103464   2.0168302  )
        20           O0  tau(  20) = (   0.5000000   0.5535432   2.2314970  )
        21           O0  tau(  21) = (   0.5000000   0.0000000   2.3591875  )
        22           Ti1 tau(  22) = (   0.7500000   0.0000000   2.6000278  )
        23           Ti1 tau(  23) = (   0.5000000   0.5535432   2.5968064  )
        24           O0  tau(  24) = (   0.7500000   0.7638896   2.5895137  )
        25           O0  tau(  25) = (   0.7500000   0.3431968   2.5905874  )
        26           O0  tau(  26) = (   0.5000000   0.0000000   2.7950981  )
        27           H2  tau(  27) = (  -0.0001700   0.6950288   1.6958590  )
        28           H2  tau(  28) = (   0.4999700   0.6966673   1.6980513  )
        29           H2  tau(  29) = (   0.1519500   0.0339876   1.6253473  )
        30           H2  tau(  30) = (   0.6514700   0.0344747   1.6270475  )
        31           O0  tau(  31) = (   0.5546000   0.5730058   2.9367478  )
        32           O0  tau(  32) = (   0.4031300   0.4486135   3.0683755  )
        33           H2  tau(  33) = (   0.4877800   0.4391258   3.2116358  )

     number of k points=    10  Methfessel-Paxton smearing, width (Ry)=  0.0100
                       cart. coord. in units 2pi/alat
        k(    1) = (   0.0000000   0.0000000   0.0000000), wk =   0.1250000
        k(    2) = (   0.0000000   0.2258180   0.0000000), wk =   0.2500000
        k(    3) = (   0.0000000  -0.4516359   0.0000000), wk =   0.1250000
        k(    4) = (   0.2500000   0.0000000   0.0000000), wk =   0.2500000
        k(    5) = (   0.2500000   0.2258180   0.0000000), wk =   0.2500000
        k(    6) = (   0.2500000  -0.4516359   0.0000000), wk =   0.2500000
        k(    7) = (  -0.5000000   0.0000000   0.0000000), wk =   0.1250000
        k(    8) = (  -0.5000000   0.2258180   0.0000000), wk =   0.2500000
        k(    9) = (  -0.5000000  -0.4516359   0.0000000), wk =   0.1250000
        k(   10) = (  -0.2500000   0.2258180   0.0000000), wk =   0.2500000

     Largest allocated arrays     est. size (Mb)     dimensions
     Largest temporary arrays     est. size (Mb)     dimensions

     Check: negative/imaginary core charge=   -0.000006    0.000000

     Initial potential from superposition of free atoms
     Check: negative starting charge=   -0.102334

     starting charge  212.99957, renormalised to  221.00000

     negative rho (up, down):  0.106E+00 0.000E+00
     Number of +U iterations with fixed ns =  0
     Starting occupations:
 --- enter write_ns ---
 LDA+U parameters:
U( 2)     =  6.00000000
alpha( 2) =  0.00000000
atom    3   Tr[ns(na)] =   2.00000
    eigenvalues:
  0.200  0.200  0.200  0.200  0.200
    eigenvectors:
  1.000  0.000  0.000  0.000  0.000
  0.000  1.000  0.000  0.000  0.000
  0.000  0.000  1.000  0.000  0.000
  0.000  0.000  0.000  1.000  0.000
  0.000  0.000  0.000  0.000  1.000
    occupations:
  0.200  0.000  0.000  0.000  0.000
  0.000  0.200  0.000  0.000  0.000
  0.000  0.000  0.200  0.000  0.000
  0.000  0.000  0.000  0.200  0.000
  0.000  0.000  0.000  0.000  0.200
atom    4   Tr[ns(na)] =   2.00000
    eigenvalues:
  0.200  0.200  0.200  0.200  0.200
    eigenvectors:
  1.000  0.000  0.000  0.000  0.000
  0.000  1.000  0.000  0.000  0.000
  0.000  0.000  1.000  0.000  0.000
  0.000  0.000  0.000  1.000  0.000
  0.000  0.000  0.000  0.000  1.000
    occupations:
  0.200  0.000  0.000  0.000  0.000
  0.000  0.200  0.000  0.000  0.000
  0.000  0.000  0.200  0.000  0.000
  0.000  0.000  0.000  0.200  0.000
  0.000  0.000  0.000  0.000  0.200
atom    9   Tr[ns(na)] =   2.00000
    eigenvalues:
  0.200  0.200  0.200  0.200  0.200
    eigenvectors:
  1.000  0.000  0.000  0.000  0.000
  0.000  1.000  0.000  0.000  0.000
  0.000  0.000  1.000  0.000  0.000
  0.000  0.000  0.000  1.000  0.000
  0.000  0.000  0.000  0.000  1.000
    occupations:
  0.200  0.000  0.000  0.000  0.000
  0.000  0.200  0.000  0.000  0.000
  0.000  0.000  0.200  0.000  0.000
  0.000  0.000  0.000  0.200  0.000
  0.000  0.000  0.000  0.000  0.200
atom   10   Tr[ns(na)] =   2.00000
    eigenvalues:
  0.200  0.200  0.200  0.200  0.200
    eigenvectors:
  1.000  0.000  0.000  0.000  0.000
  0.000  1.000  0.000  0.000  0.000
  0.000  0.000  1.000  0.000  0.000
  0.000  0.000  0.000  1.000  0.000
  0.000  0.000  0.000  0.000  1.000
    occupations:
  0.200  0.000  0.000  0.000  0.000
  0.000  0.200  0.000  0.000  0.000
  0.000  0.000  0.200  0.000  0.000
  0.000  0.000  0.000  0.200  0.000
  0.000  0.000  0.000  0.000  0.200
atom   16   Tr[ns(na)] =   2.00000
    eigenvalues:
  0.200  0.200  0.200  0.200  0.200
    eigenvectors:
  1.000  0.000  0.000  0.000  0.000
  0.000  1.000  0.000  0.000  0.000
  0.000  0.000  1.000  0.000  0.000
  0.000  0.000  0.000  1.000  0.000
  0.000  0.000  0.000  0.000  1.000
    occupations:
  0.200  0.000  0.000  0.000  0.000
  0.000  0.200  0.000  0.000  0.000
  0.000  0.000  0.200  0.000  0.000
  0.000  0.000  0.000  0.200  0.000
  0.000  0.000  0.000  0.000  0.200
atom   17   Tr[ns(na)] =   2.00000
    eigenvalues:
  0.200  0.200  0.200  0.200  0.200
    eigenvectors:
  1.000  0.000  0.000  0.000  0.000
  0.000  1.000  0.000  0.000  0.000
  0.000  0.000  1.000  0.000  0.000
  0.000  0.000  0.000  1.000  0.000
  0.000  0.000  0.000  0.000  1.000
    occupations:
  0.200  0.000  0.000  0.000  0.000
  0.000  0.200  0.000  0.000  0.000
  0.000  0.000  0.200  0.000  0.000
  0.000  0.000  0.000  0.200  0.000
  0.000  0.000  0.000  0.000  0.200
atom   22   Tr[ns(na)] =   2.00000
    eigenvalues:
  0.200  0.200  0.200  0.200  0.200
    eigenvectors:
  1.000  0.000  0.000  0.000  0.000
  0.000  1.000  0.000  0.000  0.000
  0.000  0.000  1.000  0.000  0.000
[...]
    occupations:
  0.208 -0.001  0.000  0.058  0.000
 -0.001  0.462  0.000  0.001 -0.000
  0.000  0.000  0.135 -0.001  0.001
  0.058  0.001 -0.001  0.362  0.000
  0.000 -0.000  0.001  0.000  0.178
atom   10   Tr[ns(na)] =   2.63069
    eigenvalues:
  0.143  0.176  0.198  0.328  0.470
    eigenvectors:
  0.020  0.000  0.000  0.980  0.000
  0.000  0.001  0.999  0.000  0.000
  0.000  0.999  0.001  0.000  0.000
  0.980  0.000  0.000  0.020  0.000
  0.000  0.000  0.000  0.000  1.000
    occupations:
  0.324 -0.001 -0.001 -0.026 -0.000
 -0.001  0.198 -0.001  0.000 -0.001
 -0.001 -0.001  0.176  0.000 -0.001
 -0.026  0.000  0.000  0.147 -0.000
 -0.000 -0.001 -0.001 -0.000  0.470
atom   16   Tr[ns(na)] =   2.58762
    eigenvalues:
  0.130  0.146  0.161  0.418  0.439
    eigenvectors:
  0.736  0.025  0.044  0.165  0.029
  0.000  0.002  0.000  0.174  0.824
  0.078  0.168  0.754  0.000  0.000
  0.182  0.005  0.008  0.661  0.145
  0.003  0.801  0.194  0.000  0.002
    occupations:
  0.188 -0.001 -0.004  0.115 -0.001
 -0.001  0.435 -0.001  0.009  0.013
 -0.004 -0.001  0.156  0.007  0.006
  0.115  0.009  0.007  0.365  0.000
 -0.001  0.013  0.006  0.000  0.149
atom   17   Tr[ns(na)] =   2.69911
    eigenvalues:
  0.131  0.161  0.177  0.431  0.450
    eigenvectors:
  0.007  0.002  0.000  0.000  0.990
  0.002  0.873  0.123  0.000  0.003
  0.001  0.122  0.877  0.000  0.000
  0.991  0.003  0.000  0.000  0.006
  0.000  0.000  0.000  1.000  0.000
    occupations:
  0.447  0.015  0.005 -0.025 -0.000
  0.015  0.164 -0.005 -0.000 -0.003
  0.005 -0.005  0.175  0.001 -0.000
 -0.025 -0.000  0.001  0.133 -0.000
 -0.000 -0.003 -0.000 -0.000  0.431
atom   22   Tr[ns(na)] =   2.69459
    eigenvalues:
  0.136  0.179  0.189  0.381  0.462
    eigenvectors:
  0.000  0.000  0.900  0.100  0.000
  0.000  0.000  0.000  0.000  1.000
  0.999  0.001  0.000  0.000  0.000
  0.000  0.000  0.100  0.900  0.000
  0.001  0.999  0.000  0.000  0.000
    occupations:
  0.208  0.000 -0.001  0.057 -0.000
  0.000  0.462 -0.001 -0.001 -0.000
 -0.001 -0.001  0.136 -0.002 -0.001
  0.057 -0.001 -0.002  0.362 -0.000
 -0.000 -0.000 -0.001 -0.000  0.179
atom   23   Tr[ns(na)] =   2.62902
    eigenvalues:
  0.142  0.146  0.172  0.385  0.470
    eigenvectors:
  0.010  0.004  0.001  0.985  0.000
  0.060  0.119  0.821  0.000  0.000
  0.481  0.349  0.169  0.002  0.000
  0.450  0.529  0.010  0.012  0.000
  0.000  0.000  0.000  0.000  1.000
    occupations:
  0.381 -0.003  0.011 -0.026 -0.002
 -0.003  0.167 -0.010 -0.001 -0.002
  0.011 -0.010  0.149  0.002 -0.000
 -0.026 -0.001  0.002  0.147 -0.000
 -0.002 -0.002 -0.000 -0.000  0.470
N of occupied +U levels =  21.2223972
 --- exit write_ns ---

[...]

     total energy              =   -1597.01095236 Ry
     Harris-Foulkes estimate   =   -1597.01095240 Ry
     estimated scf accuracy    <       0.00000095 Ry

     iteration # 11     ecut=    40.00 Ry     beta=0.70
     Davidson diagonalization with overlap
     ethr =  4.31E-10,  avg # of iterations =  1.0

     negative rho (up, down):  0.107E+00 0.000E+00

     End of self-consistent calculation
 --- enter write_ns ---
 LDA+U parameters:
U( 2)     =  6.00000000
alpha( 2) =  0.00000000
atom    3   Tr[ns(na)] =   2.58812
    eigenvalues:
  0.130  0.146  0.161  0.418  0.439
    eigenvectors:
  0.736  0.026  0.044  0.164  0.030
  0.000  0.002  0.000  0.176  0.821
  0.078  0.167  0.755  0.000  0.000
  0.182  0.005  0.007  0.659  0.147
  0.004  0.800  0.194  0.000  0.002
    occupations:
  0.188  0.001 -0.005  0.115  0.000
  0.001  0.435  0.001 -0.009  0.013
 -0.005  0.001  0.156  0.007 -0.006
  0.115 -0.009  0.007  0.366 -0.001
  0.000  0.013 -0.006 -0.001  0.149
atom    4   Tr[ns(na)] =   2.70162
    eigenvalues:
  0.132  0.160  0.178  0.433  0.449
    eigenvectors:
  0.007  0.003  0.000  0.000  0.990
  0.002  0.879  0.115  0.000  0.003
  0.001  0.114  0.884  0.000  0.000
  0.990  0.004  0.000  0.000  0.006
  0.000  0.000  0.000  1.000  0.000
    occupations:
  0.446  0.016  0.005 -0.025 -0.000
  0.016  0.163 -0.006 -0.000 -0.003
  0.005 -0.006  0.176  0.001 -0.000
 -0.025 -0.000  0.001  0.134 -0.000
 -0.000 -0.003 -0.000 -0.000  0.433
atom    9   Tr[ns(na)] =   2.69236
    eigenvalues:
  0.135  0.178  0.189  0.382  0.462
    eigenvectors:
  0.000  0.000  0.899  0.101  0.000
  0.000  0.000  0.000  0.000  1.000
  0.999  0.001  0.000  0.000  0.000
  0.000  0.000  0.101  0.899  0.000
  0.001  0.999  0.000  0.000  0.000
    occupations:
  0.208 -0.001  0.000  0.058  0.000
 -0.001  0.462  0.000  0.001 -0.000
  0.000  0.000  0.135 -0.001  0.001
  0.058  0.001 -0.001  0.362  0.000
  0.000 -0.000  0.001  0.000  0.178
atom   10   Tr[ns(na)] =   2.63052
    eigenvalues:
  0.143  0.176  0.198  0.328  0.471
    eigenvectors:
  0.020  0.000  0.000  0.980  0.000
  0.000  0.001  0.999  0.000  0.000
  0.000  0.999  0.001  0.000  0.000
  0.980  0.000  0.000  0.020  0.000
  0.000  0.000  0.000  0.000  1.000
    occupations:
  0.324 -0.001 -0.001 -0.026 -0.000
 -0.001  0.198 -0.001  0.000 -0.001
 -0.001 -0.001  0.176  0.000 -0.001
 -0.026  0.000  0.000  0.147 -0.000
 -0.000 -0.001 -0.001 -0.000  0.470
atom   16   Tr[ns(na)] =   2.58813
    eigenvalues:
  0.130  0.146  0.161  0.418  0.439
    eigenvectors:
  0.737  0.025  0.044  0.165  0.029
  0.000  0.002  0.000  0.173  0.824
  0.077  0.167  0.755  0.000  0.000
  0.182  0.005  0.007  0.661  0.144
  0.003  0.802  0.193  0.000  0.002
    occupations:
  0.188 -0.001 -0.004  0.115 -0.001
 -0.001  0.435 -0.001  0.009  0.013
 -0.004 -0.001  0.156  0.007  0.006
  0.115  0.009  0.007  0.365  0.000
 -0.001  0.013  0.006  0.000  0.149
atom   17   Tr[ns(na)] =   2.69891
    eigenvalues:
  0.131  0.161  0.177  0.431  0.450
    eigenvectors:
  0.007  0.002  0.000  0.000  0.990
  0.002  0.872  0.123  0.000  0.003
  0.001  0.122  0.877  0.000  0.000
  0.991  0.003  0.000  0.000  0.006
  0.000  0.000  0.000  1.000  0.000
    occupations:
  0.447  0.015  0.005 -0.025 -0.000
  0.015  0.164 -0.005 -0.000 -0.003
  0.005 -0.005  0.175  0.001 -0.000
 -0.025 -0.000  0.001  0.133 -0.000
 -0.000 -0.003 -0.000 -0.000  0.431
atom   22   Tr[ns(na)] =   2.69489
    eigenvalues:
  0.136  0.179  0.189  0.381  0.462
    eigenvectors:
  0.000  0.000  0.901  0.099  0.000
  0.000  0.000  0.000  0.000  1.000
  0.999  0.001  0.000  0.000  0.000
  0.000  0.000  0.099  0.900  0.000
  0.001  0.999  0.000  0.000  0.000
    occupations:
  0.208  0.000 -0.001  0.057 -0.000
  0.000  0.462 -0.001 -0.001 -0.000
 -0.001 -0.001  0.136 -0.002 -0.001
  0.057 -0.001 -0.002  0.362 -0.000
 -0.000 -0.000 -0.001 -0.000  0.179
atom   23   Tr[ns(na)] =   2.62859
    eigenvalues:
  0.142  0.146  0.172  0.385  0.470
    eigenvectors:
  0.010  0.004  0.000  0.985  0.000
  0.060  0.119  0.821  0.000  0.000
  0.481  0.349  0.169  0.002  0.000
  0.449  0.529  0.010  0.012  0.000
  0.000  0.000  0.000  0.000  1.000
    occupations:
  0.381 -0.003  0.011 -0.026 -0.002
 -0.003  0.167 -0.010 -0.001 -0.002
  0.011 -0.010  0.149  0.002 -0.001
 -0.026 -0.001  0.002  0.147 -0.000
 -0.002 -0.002 -0.001 -0.000  0.470
N of occupied +U levels =  21.2231321
 --- exit write_ns ---

[...]

          k = 0.2500-0.4516 0.0000 ( 29882 PWs)   bands (ev):

[...]

          k =-0.2500 0.2258 0.0000 ( 29912 PWs)   bands (ev):

   -61.2262 -61.2016 -60.9324 -60.6296 -59.8930 -59.8651 -59.4368 -59.4105
   -37.6208 -37.4094 -37.3857 -37.3131 -37.3024 -37.2816 -37.2605 -37.1443
   -37.0461 -36.8184 -36.8035 -36.7820 -36.3773 -36.1831 -36.1147 -36.0776
   -35.9286 -35.9066 -35.7473 -35.7264 -35.7190 -35.6117 -35.5488 -35.4263
   -24.9205 -21.3616 -21.1405 -20.2404 -19.7603 -19.6923 -19.3729 -19.2739
   -19.1494 -19.0437 -19.0086 -18.9831 -18.9459 -18.7851 -18.7493 -18.1527
   -17.8749 -17.6828 -17.4853 -17.4399  -9.6401  -8.9905  -8.7681  -8.0058
    -7.3230  -7.1959  -7.1743  -7.0904  -7.0061  -6.7621  -6.7179  -6.6357
    -6.5850  -6.5181  -6.4490  -6.3554  -6.2989  -6.2291  -6.1478  -6.0162
    -5.9315  -5.7375  -5.6735  -5.4823  -5.3647  -5.1314  -5.0477  -4.9260
    -4.9154  -4.8145  -4.7698  -4.7033  -4.6209  -4.5522  -4.4539  -4.4048
    -4.3686  -4.3167  -4.2601  -4.1349  -4.0637  -3.9685  -3.8806  -3.7629
    -3.6609  -3.5650  -3.3702  -3.1505  -2.9631  -2.8435  -2.8386  -2.7335
    -2.6422  -2.5157  -2.4479  -2.3463  -2.2822  -2.1812  -2.0963   0.1195
     0.3514   0.4402   0.5160   0.5250   0.7405   0.8112   0.8540   0.9457
     1.0313   1.0834   1.1832   1.4012   1.4329   1.5254   1.6513   1.7602
     1.8100   1.8765   2.0449   2.1021   2.1259   2.1965   2.2406   2.2624
     2.3278   2.4038   2.4717   2.4868   2.7218   2.8843   3.0939   3.1464
     3.1976   3.3698   3.5491   3.5839   3.7408   3.8657   3.9107   4.0547
     4.1938   4.2595   4.3387   4.7125   5.2025   5.3131   5.6303   5.6576
     5.7570   6.0209   6.1203   6.3136   6.4314   6.6033   6.7540   7.0668
     7.1548   7.3056   7.4649   7.5720   7.7809   7.9756   8.0116   8.1227
     8.2227   8.2932   8.4429   8.4686   8.5975   8.7410   8.8722   8.9949
     9.1192   9.2221   9.3055   9.4776   9.5568   9.6218   9.7346   9.7895
     9.8906   9.9715  10.0795  10.2487  10.3399  10.4107  10.4671  10.5957
    10.6859  10.7554  10.8663  10.9878  11.0401  11.0956  11.1923  11.2429
    11.3480  11.4142  11.5116  11.5600  11.6422  11.7154  11.7734  11.8665
    11.9363  12.0662  12.0746  12.1815  12.1994  12.3011  12.3338  12.4138
    12.5212  12.5716  12.6396  12.6799  12.8024  12.8765  13.0064  13.0251
    13.0690  13.1377  13.2023  13.3574  13.4578  13.5448  13.6516  13.7017
    13.7793  13.8296  13.9189  13.9960  14.1009  14.1432  14.1801  14.2251
    14.2650  14.3256  14.4169  14.4914  14.5299  14.5891  14.6237  14.7243
    14.8163  14.8949  14.9582  15.0465  15.1341  15.2373  15.2605  15.3351
    15.4621  15.5507  15.5928  15.6410  15.7046  15.7516  15.7715  15.8973
    15.9547  15.9873  16.0580  16.1272  16.2449  16.2991  16.3542  16.4229
    16.5009  16.5666  16.6374  16.7483  16.8160  16.8570  16.8761  16.9259
    16.9920  17.0624  17.1527  17.2058  17.3083  17.3490  17.4240  17.4690
    17.5492  17.5985  17.6311  17.7873  17.8729  17.9204  17.9897  18.0524
    18.1001  18.2382  18.2872  18.3804  18.4214  18.5377  18.5749  18.6376
    18.6948  18.7614  18.8227  18.9275  19.0018  19.0665  19.1201

     the Fermi energy is    -2.0841 ev

!    total energy              =   -1597.01095237 Ry
     Harris-Foulkes estimate   =   -1597.01095238 Ry
     estimated scf accuracy    <          9.5E-09 Ry

     The total energy is the sum of the following terms:

     one-electron contribution =  -19154.12856936 Ry
     hartree contribution      =    9597.70064017 Ry
     xc contribution           =    -284.44370494 Ry
     ewald contribution        =    8240.74252938 Ry
     Hubbard energy            =       3.11911216 Ry
     smearing contrib. (-TS)   =      -0.00095978 Ry

     convergence has been achieved in  11 iterations

     Forces acting on atoms (Ry/au):

     negative rho (up, down):  0.107E+00 0.000E+00
     atom    1 type  1   force =    -0.00287934   -0.01493535    0.00042012
     atom    2 type  1   force =     0.00014389    0.01785893   -0.00000063
     atom    3 type  2   force =     0.03709365   -0.00908576   -0.00010683
     atom    4 type  2   force =     0.00109741    0.00974039    0.00032068
     atom    5 type  1   force =    -0.00043030   -0.09014023    0.00010032
     atom    6 type  1   force =    -0.00366528    0.08827216   -0.00016488
     atom    7 type  1   force =    -0.00021636    0.00101189    0.00003305
     atom    8 type  1   force =     0.00031707   -0.00174242    0.00043576
     atom    9 type  2   force =    -0.00320911    0.00060486    0.00003080
     atom   10 type  2   force =     0.00417310    0.00157132   -0.00004822
     atom   11 type  1   force =    -0.02210252   -0.01665827   -0.00018525
     atom   12 type  1   force =    -0.02018757    0.01827638   -0.00038861
     atom   13 type  1   force =    -0.00070304    0.00126482    0.00007541
     atom   14 type  1   force =    -0.00365068   -0.01503110    0.00039970
     atom   15 type  1   force =     0.00008014    0.01801035    0.00014654
     atom   16 type  2   force =    -0.03702487   -0.00882293   -0.00013708
     atom   17 type  2   force =     0.00111117    0.00950105    0.00027839
     atom   18 type  1   force =     0.00486823   -0.09032577   -0.00001841
     atom   19 type  1   force =     0.00242396    0.08806889   -0.00011698
     atom   20 type  1   force =     0.00032700    0.00111418   -0.00029988
     atom   21 type  1   force =     0.00129092   -0.00165125    0.00001758
     atom   22 type  2   force =     0.00259095   -0.00082461    0.00022967
     atom   23 type  2   force =    -0.00622297    0.00251582   -0.00032200
     atom   24 type  1   force =     0.02217708   -0.01659918    0.00034259
     atom   25 type  1   force =     0.02225350    0.00770600   -0.00013124
     atom   26 type  1   force =     0.00063895   -0.00018153    0.00014644
     atom   27 type  3   force =    -0.00000747   -0.00020196   -0.00027349
     atom   28 type  3   force =     0.00000358   -0.00031411   -0.00034187
     atom   29 type  3   force =    -0.00019651   -0.00032593   -0.00009626
     atom   30 type  3   force =    -0.00021833   -0.00023718   -0.00008477
     atom   31 type  1   force =     0.00046309    0.00055003    0.00063904
     atom   32 type  1   force =    -0.00011173    0.00071040   -0.00040576
     atom   33 type  3   force =    -0.00022757    0.00030009   -0.00049392

     Total force =     0.001999     Total SCF correction =     0.000421
     SCF correction compared to forces is large: reduce conv_thr to get better values

     entering subroutine stress ...

     negative rho (up, down):  0.107E+00 0.000E+00
          total   stress  (Ry/bohr**3)                   (kbar)     P=   12.51
   0.00022653  -0.00000173   0.00000366         33.32     -0.26      0.54
  -0.00000173   0.00006312   0.00000383         -0.26      9.29      0.56
   0.00000366   0.00000383  -0.00003461          0.54      0.56     -5.09

     bfgs converged in  38 scf cycles and  37 bfgs steps
     (criteria: energy < 0.10E-03, force < 0.10E-02)

     End of BFGS Geometry Optimization

     Final energy   =   -1597.0109523729 Ry
Begin final coordinates

ATOMIC_POSITIONS (crystal)
O0       0.000000000   0.000000000   0.376804671    0   0   1
O0       0.000000000   0.500000000   0.398576080    0   0   1
Ti1      0.250000000   0.500000000   0.451030661    0   0   1
Ti1      0.000000000   0.000000000   0.450951717    0   0   1
O0       0.250000000   0.810000000   0.449933467    0   0   1
O0       0.250000000   0.190000000   0.451043296    0   0   1
O0       0.000000000   0.500000000   0.498745063    0   0   1
O0       0.000000000   0.000000000   0.527181816    0   0   1
Ti1      0.250000000   0.000000000   0.581439409    0   0   1
Ti1      0.000000000   0.500000000   0.570643374    0   0   1
O0       0.250000000   0.690000000   0.580079237    0   0   1
O0       0.250000000   0.310000000   0.579809488    0   0   1
O0       0.000000000   0.000000000   0.624628956    0   0   1
O0       0.500000000   0.000000000   0.377475978    0   0   1
O0       0.500000000   0.500000000   0.398600489    0   0   1
Ti1      0.750000000   0.500000000   0.451018274    0   0   1
Ti1      0.500000000   0.000000000   0.452194526    0   0   1
O0       0.750000000   0.810000000   0.449929836    0   0   1
O0       0.750000000   0.190000000   0.451074419    0   0   1
O0       0.500000000   0.500000000   0.498472129    0   0   1
O0       0.500000000   0.000000000   0.527514649    0   0   1
Ti1      0.750000000   0.000000000   0.581470734    0   0   1
Ti1      0.500000000   0.500000000   0.580502854    0   0   1
O0       0.750000000   0.690000000   0.580303535    0   0   1
O0       0.750000000   0.310000000   0.579198976    0   0   1
O0       0.500000000   0.000000000   0.624796746    0   0   1
H2      -0.000162161   0.630235450   0.379586647
H2       0.499807167   0.630970335   0.379895401
H2       0.151906032   0.030363821   0.363623048
H2       0.651482557   0.030858941   0.364141181
O0       0.530271735   0.500714548   0.657253419
O0       0.356748816   0.396315880   0.682015879
H2       0.425205261   0.374255154   0.715514042
End final coordinates

     General routines

     Parallel routines
     Hubbard U routines

   This run was terminated on:   3:30:33   7Jun2014

   JOB DONE.
Running PBS batch system epilogue script
Job id: 381415.audhumbla.fysik.dtu.dk
Username: zhonxu
Groupname: campgst
Jobname: TiO2/Eads-2-layers/OOH-U-6.0
Sessionid: 26971
Queuename: verylong
Accounting:
This job has allocated the following 16 nodes:
b072 b072 b072 b072 b072 b072 b072 b072 b010 b010 b010 b010 b010 b010 b010 b010
Finished epilogue job 381415.audhumbla.fysik.dtu.dk for zhonxu