     Program PWSCF v.5.0.2 (svn rev. 9656) starts on 14Feb2014 at 15:33: 6

     Current dimensions of program PWSCF are:
     Max number of different atomic species (ntypx) = 10
     Max number of k-points (npk) =  40000
     Max angular momentum in pseudopotentials (lmaxx) =  3
     Reading input from alpha_0/alpha_0.in
Warning: card &IONS ignored
Warning: card / ignored
Warning: card &CELL ignored
Warning: card / ignored

     Subspace diagonalization in iterative solution of the eigenvalue problem:
     a serial algorithm will be used

     bravais-lattice index     =            0
     lattice parameter (alat)  =      18.6705  a.u.
     unit-cell volume          =    3899.7090 (a.u.)^3
     number of atoms/cell      =           48
     number of atomic types    =            3
     number of electrons       =       400.00
     number of Kohn-Sham states=          600
     kinetic-energy cutoff     =      40.0000  Ry
     charge density cutoff     =     500.0000  Ry
     convergence threshold     =      1.0E-06
     mixing beta               =       0.7000
     number of iterations used =            8  plain     mixing
     Exchange-correlation      = SLA  PW   PBE  PBE ( 1 4 3 4 0)
     EXX-fraction              =        0.00

     celldm(1)=  18.670494  celldm(2)=   0.000000  celldm(3)=   0.000000
     celldm(4)=   0.000000  celldm(5)=   0.000000  celldm(6)=   0.000000

     crystal axes: (cart. coord. in units of alat)
               a(1) = (   1.000000   0.000000   0.000000 )
               a(2) = (   0.000000   1.000000   0.000000 )
               a(3) = (   0.000000   0.000000   0.599190 )

     reciprocal axes: (cart. coord. in units 2 pi/alat)
               b(1) = (  1.000000  0.000000  0.000000 )
               b(2) = (  0.000000  1.000000  0.000000 )
               b(3) = (  0.000000  0.000000  1.668919 )

     PseudoPot. # 1 for Nb read from file:
     /home/camp/zhonxu/pseudo/nb_pbe_v1.uspp.F.UPF
     MD5 check sum: 573aab8a2fa660278ed4a62cd769473f
     Pseudo is Ultrasoft + core correction, Zval = 13.0
     Generated by new atomic code, or converted to UPF format
     Using radial grid of  887 points,  6 beta functions with:
                l(1) =   0
                l(2) =   0
                l(3) =   1
                l(4) =   1
                l(5) =   2
                l(6) =   2
     Q(r) pseudized with  6 coefficients,  rinner =    1.000   1.000   1.000
                                                       1.000   1.000

     PseudoPot. # 2 for O  read from file:
     /home/camp/zhonxu/pseudo/o_pbe_v1.01.uspp.F.UPF
     MD5 check sum: 2bcb18d16ea4b960afae9ec6d52f22d2
     Pseudo is Ultrasoft + core correction, Zval =  6.0
     Generated by new atomic code, or converted to UPF format
     Using radial grid of  737 points,  5 beta functions with:
                l(1) =   0
                l(2) =   0
                l(3) =   1
                l(4) =   1
                l(5) =   2
     Q(r) pseudized with  8 coefficients,  rinner =    0.900   0.900   0.900
                                                       0.900   0.900

     PseudoPot. # 3 for O  read from file:
     /home/camp/zhonxu/pseudo/o_pbe_v1.01.uspp.F.UPF
     MD5 check sum: 2bcb18d16ea4b960afae9ec6d52f22d2
     Pseudo is Ultrasoft + core correction, Zval =  6.0
     Generated by new atomic code, or converted to UPF format
     Using radial grid of  737 points,  5 beta functions with:
                l(1) =   0
                l(2) =   0
                l(3) =   1
                l(4) =   1
                l(5) =   2
     Q(r) pseudized with  8 coefficients,  rinner =    0.900   0.900   0.900
                                                       0.900   0.900

     atomic species   valence    mass     pseudopotential
        Nb0           13.00    92.90640     Nb( 1.00)
        O1             6.00    15.99940     O ( 1.00)
        O2             6.00    15.99940     O ( 1.00)

     Starting magnetic structure
     atomic species   magnetization
        Nb0          0.000
        O1           0.000
        O2           0.000

     Simplified LDA+U calculation (l_max = 2) with parameters (eV):
     atomic species    L          U    alpha       J0     beta
        Nb0            2     0.0000   0.0000   0.0000   0.0000
        O1             1     0.0000   0.0000   0.0000   0.0000
        O2             1     0.0000   0.0000   0.0000   0.0000

      4 Sym. Ops. (no inversion) found

   Cartesian axes

     site n.     atom                  positions (alat units)
         1           Nb0 tau(   1) = (  -0.1450000  -0.1450000   0.0000000  )
         2           Nb0 tau(   2) = (   0.1050000   0.1050000   0.1497976  )
         3           Nb0 tau(   3) = (  -0.1450000  -0.1450000   0.2995951  )
         4           Nb0 tau(   4) = (   0.1050000   0.1050000   0.4493927  )
         5           Nb0 tau(   5) = (  -0.1450000   0.3550000   0.0000000  )
         6           Nb0 tau(   6) = (   0.1050000   0.6050000   0.1497976  )
         7           Nb0 tau(   7) = (  -0.1450000   0.3550000   0.2995951  )
         8           Nb0 tau(   8) = (   0.1050000   0.6050000   0.4493927  )
         9           Nb0 tau(   9) = (   0.3550000  -0.1450000   0.0000000  )
        10           Nb0 tau(  10) = (   0.6050000   0.1050000   0.1497976  )
        11           Nb0 tau(  11) = (   0.3550000  -0.1450000   0.2995951  )
        12           Nb0 tau(  12) = (   0.6050000   0.1050000   0.4493927  )
        13           Nb0 tau(  13) = (   0.3550000   0.3550000   0.0000000  )
        14           Nb0 tau(  14) = (   0.6050000   0.6050000   0.1497976  )
        15           Nb0 tau(  15) = (   0.3550000   0.3550000   0.2995951  )
        16           Nb0 tau(  16) = (   0.6050000   0.6050000   0.4493927  )
        17           O1  tau(  17) = (   0.0000000   0.0000000   0.0000000  )
        18           O2  tau(  18) = (  -0.2900000  -0.2900000   0.0000000  )
        19           O2  tau(  19) = (   0.2500000  -0.0400000   0.1497976  )
        20           O2  tau(  20) = (  -0.0400000   0.2500000   0.1497976  )
        21           O2  tau(  21) = (   0.0000000   0.0000000   0.2995951  )
        22           O2  tau(  22) = (  -0.2900000  -0.2900000   0.2995951  )
        23           O2  tau(  23) = (   0.2500000  -0.0400000   0.4493927  )
        24           O2  tau(  24) = (  -0.0400000   0.2500000   0.4493927  )
        25           O2  tau(  25) = (   0.0000000   0.5000000   0.0000000  )
        26           O2  tau(  26) = (  -0.2900000   0.2100000   0.0000000  )
        27           O2  tau(  27) = (   0.2500000   0.4600000   0.1497976  )
        28           O2  tau(  28) = (  -0.0400000   0.7500000   0.1497976  )
        29           O2  tau(  29) = (   0.0000000   0.5000000   0.2995951  )
        30           O2  tau(  30) = (  -0.2900000   0.2100000   0.2995951  )
        31           O2  tau(  31) = (   0.2500000   0.4600000   0.4493927  )
        32           O2  tau(  32) = (  -0.0400000   0.7500000   0.4493927  )
        33           O2  tau(  33) = (   0.5000000   0.0000000   0.0000000  )
        34           O2  tau(  34) = (   0.2100000  -0.2900000   0.0000000  )
        35           O2  tau(  35) = (   0.7500000  -0.0400000   0.1497976  )
        36           O2  tau(  36) = (   0.4600000   0.2500000   0.1497976  )
        37           O2  tau(  37) = (   0.5000000   0.0000000   0.2995951  )
        38           O2  tau(  38) = (   0.2100000  -0.2900000   0.2995951  )
        39           O2  tau(  39) = (   0.7500000  -0.0400000   0.4493927  )
        40           O2  tau(  40) = (   0.4600000   0.2500000   0.4493927  )
        41           O2  tau(  41) = (   0.5000000   0.5000000   0.0000000  )
        42           O2  tau(  42) = (   0.2100000   0.2100000   0.0000000  )
        43           O2  tau(  43) = (   0.7500000   0.4600000   0.1497976  )
        44           O2  tau(  44) = (   0.4600000   0.7500000   0.1497976  )
        45           O2  tau(  45) = (   0.5000000   0.5000000   0.2995951  )
        46           O2  tau(  46) = (   0.2100000   0.2100000   0.2995951  )
        47           O2  tau(  47) = (   0.7500000   0.4600000   0.4493927  )
        48           O2  tau(  48) = (   0.4600000   0.7500000   0.4493927  )

     number of k points=    42  Methfessel-Paxton smearing, width (Ry)=  0.0100
                       cart. coord. in units 2pi/alat
        k(    1) = (   0.0000000   0.0000000   0.0000000), wk =   0.0156250
        k(    2) = (   0.0000000   0.0000000   0.4172297), wk =   0.0312500
        k(    3) = (   0.0000000   0.0000000  -0.8344595), wk =   0.0156250
        k(    4) = (   0.0000000   0.2500000   0.0000000), wk =   0.0625000
        k(    5) = (   0.0000000   0.2500000   0.4172297), wk =   0.1250000
        k(    6) = (   0.0000000   0.2500000  -0.8344595), wk =   0.0625000
        k(    7) = (   0.0000000  -0.5000000   0.0000000), wk =   0.0312500
        k(    8) = (   0.0000000  -0.5000000   0.4172297), wk =   0.0625000
        k(    9) = (   0.0000000  -0.5000000  -0.8344595), wk =   0.0312500
        k(   10) = (   0.2500000   0.2500000   0.0000000), wk =   0.0312500
        k(   11) = (   0.2500000   0.2500000   0.4172297), wk =   0.0625000
        k(   12) = (   0.2500000   0.2500000  -0.8344595), wk =   0.0312500
        k(   13) = (   0.2500000  -0.5000000   0.0000000), wk =   0.0625000
        k(   14) = (   0.2500000  -0.5000000   0.4172297), wk =   0.1250000
        k(   15) = (   0.2500000  -0.5000000  -0.8344595), wk =   0.0625000
        k(   16) = (  -0.5000000  -0.5000000   0.0000000), wk =   0.0156250
        k(   17) = (  -0.5000000  -0.5000000   0.4172297), wk =   0.0312500
        k(   18) = (  -0.5000000  -0.5000000  -0.8344595), wk =   0.0156250
        k(   19) = (   0.2500000  -0.2500000   0.0000000), wk =   0.0312500
        k(   20) = (   0.2500000  -0.2500000   0.4172297), wk =   0.0625000
        k(   21) = (   0.2500000  -0.2500000  -0.8344595), wk =   0.0312500
        k(   22) = (   0.0000000   0.0000000   0.0000000), wk =   0.0156250
        k(   23) = (   0.0000000   0.0000000   0.4172297), wk =   0.0312500
        k(   24) = (   0.0000000   0.0000000  -0.8344595), wk =   0.0156250
        k(   25) = (   0.0000000   0.2500000   0.0000000), wk =   0.0625000
        k(   26) = (   0.0000000   0.2500000   0.4172297), wk =   0.1250000
        k(   27) = (   0.0000000   0.2500000  -0.8344595), wk =   0.0625000
        k(   28) = (   0.0000000  -0.5000000   0.0000000), wk =   0.0312500
        k(   29) = (   0.0000000  -0.5000000   0.4172297), wk =   0.0625000
        k(   30) = (   0.0000000  -0.5000000  -0.8344595), wk =   0.0312500
        k(   31) = (   0.2500000   0.2500000   0.0000000), wk =   0.0312500
        k(   32) = (   0.2500000   0.2500000   0.4172297), wk =   0.0625000
        k(   33) = (   0.2500000   0.2500000  -0.8344595), wk =   0.0312500
        k(   34) = (   0.2500000  -0.5000000   0.0000000), wk =   0.0625000
        k(   35) = (   0.2500000  -0.5000000   0.4172297), wk =   0.1250000
        k(   36) = (   0.2500000  -0.5000000  -0.8344595), wk =   0.0625000
[...]
  0.913  0.916  0.917
    eigenvectors:
  0.000  0.000  1.000
  0.500  0.500  0.000
  0.500  0.500  0.000
    occupations:
  0.917 -0.000 -0.000
 -0.000  0.914  0.002
 -0.000  0.002  0.914
   spin  2
    eigenvalues:
  0.913  0.916  0.917
    eigenvectors:
  0.000  0.000  1.000
  0.500  0.500  0.000
  0.500  0.500  0.000
    occupations:
  0.917 -0.000 -0.000
 -0.000  0.914  0.002
 -0.000  0.002  0.914
atomic mag. moment =     0.000000
atom   42   Tr[ns(na)] (up, down, total) =   2.74570  2.74570  5.49139
   spin  1
    eigenvalues:
  0.913  0.916  0.917
    eigenvectors:
  0.000  0.000  1.000
  0.500  0.500  0.000
  0.500  0.500  0.000
    occupations:
  0.917 -0.000 -0.000
 -0.000  0.914  0.002
 -0.000  0.002  0.914
   spin  2
    eigenvalues:
  0.913  0.916  0.917
    eigenvectors:
  0.000  0.000  1.000
  0.500  0.500  0.000
  0.500  0.500  0.000
    occupations:
  0.917 -0.000 -0.000
 -0.000  0.914  0.002
 -0.000  0.002  0.914
atomic mag. moment =     0.000000
atom   43   Tr[ns(na)] (up, down, total) =   2.74571  2.74571  5.49142
   spin  1
    eigenvalues:
  0.913  0.916  0.917
    eigenvectors:
  0.000  0.000  1.000
  0.500  0.500  0.000
  0.500  0.500  0.000
    occupations:
  0.917  0.000 -0.000
  0.000  0.914 -0.002
 -0.000 -0.002  0.914
   spin  2
    eigenvalues:
  0.913  0.916  0.917
    eigenvectors:
  0.000  0.000  1.000
  0.500  0.500  0.000
  0.500  0.500  0.000
    occupations:
  0.917  0.000 -0.000
  0.000  0.914 -0.002
 -0.000 -0.002  0.914
atomic mag. moment =     0.000000
atom   44   Tr[ns(na)] (up, down, total) =   2.74571  2.74571  5.49142
   spin  1
    eigenvalues:
  0.913  0.916  0.917
    eigenvectors:
  0.000  0.000  1.000
  0.500  0.500  0.000
  0.500  0.500  0.000
    occupations:
  0.917 -0.000  0.000
 -0.000  0.914 -0.002
  0.000 -0.002  0.914
   spin  2
    eigenvalues:
  0.913  0.916  0.917
    eigenvectors:
  0.000  0.000  1.000
  0.500  0.500  0.000
  0.500  0.500  0.000
    occupations:
  0.917 -0.000  0.000
 -0.000  0.914 -0.002
  0.000 -0.002  0.914
atomic mag. moment =     0.000000
atom   45   Tr[ns(na)] (up, down, total) =   2.74571  2.74571  5.49143
   spin  1
    eigenvalues:
  0.913  0.916  0.917
    eigenvectors:
  0.000  0.000  1.000
  0.500  0.500  0.000
  0.500  0.500  0.000
    occupations:
  0.917 -0.000 -0.000
 -0.000  0.914  0.002
 -0.000  0.002  0.914
   spin  2
    eigenvalues:
  0.913  0.916  0.917
    eigenvectors:
  0.000  0.000  1.000
  0.500  0.500  0.000
  0.500  0.500  0.000
    occupations:
  0.917 -0.000 -0.000
 -0.000  0.914  0.002
 -0.000  0.002  0.914
atomic mag. moment =     0.000000
atom   46   Tr[ns(na)] (up, down, total) =   2.74570  2.74570  5.49140
   spin  1
    eigenvalues:
  0.913  0.916  0.917
    eigenvectors:
  0.000  0.000  1.000
  0.500  0.500  0.000
  0.500  0.500  0.000
    occupations:
  0.917 -0.000 -0.000
 -0.000  0.914  0.002
 -0.000  0.002  0.914
   spin  2
    eigenvalues:
  0.913  0.916  0.917
    eigenvectors:
  0.000  0.000  1.000
  0.500  0.500  0.000
  0.500  0.500  0.000
    occupations:
  0.917 -0.000 -0.000
 -0.000  0.914  0.002
 -0.000  0.002  0.914
atomic mag. moment =     0.000000
atom   47   Tr[ns(na)] (up, down, total) =   2.74571  2.74571  5.49142
   spin  1
    eigenvalues:
  0.913  0.916  0.917
    eigenvectors:
  0.000  0.000  1.000
  0.500  0.500  0.000
  0.500  0.500  0.000
    occupations:
  0.917 -0.000  0.000
 -0.000  0.914 -0.002
  0.000 -0.002  0.914
   spin  2
    eigenvalues:
  0.913  0.916  0.917
    eigenvectors:
  0.000  0.000  1.000
  0.500  0.500  0.000
  0.500  0.500  0.000
    occupations:
  0.917 -0.000  0.000
 -0.000  0.914 -0.002
  0.000 -0.002  0.914
atomic mag. moment =     0.000000
atom   48   Tr[ns(na)] (up, down, total) =   2.74571  2.74571  5.49142
   spin  1
    eigenvalues:
  0.913  0.916  0.917
    eigenvectors:
  0.000  0.000  1.000
  0.500  0.500  0.000
  0.500  0.500  0.000
    occupations:
  0.917  0.000 -0.000
  0.000  0.914 -0.002
 -0.000 -0.002  0.914
   spin  2
    eigenvalues:
  0.913  0.916  0.917
    eigenvectors:
  0.000  0.000  1.000
  0.500  0.500  0.000
  0.500  0.500  0.000
    occupations:
  0.917  0.000 -0.000
  0.000  0.914 -0.002
 -0.000 -0.002  0.914
atomic mag. moment =     0.000000
N of occupied +U levels = 259.8475300
 --- exit write_ns ---

 ------ SPIN UP ------------

          k = 0.0000 0.0000 0.0000 ( 16699 PWs)   bands (ev):

   -44.1432 -44.1349 -44.1347 -44.1347 -44.1345 -44.1344 -44.1342 -44.1261
   -44.0563 -44.0562 -44.0560 -44.0560 -44.0558 -44.0558 -44.0557 -44.0554
   -20.7425 -20.7424 -20.7423 -20.7423 -20.7215 -20.7215 -20.7207 -20.7207
   -20.4905 -20.4905 -20.4776 -20.4775 -20.4286 -20.4285 -20.4284 -20.4284
   -20.3522 -20.3522 -20.3498 -20.3498 -20.3279 -20.3278 -20.3277 -20.3277
   -20.1855 -20.1854 -20.1854 -20.1853 -20.1287 -20.1286 -20.1207 -20.1206
   -19.9715 -19.9713 -19.9700 -19.9698 -19.9695 -19.9693 -19.9692 -19.9691
   -19.8888 -19.8683 -19.8682 -19.8682 -19.8679 -19.8679 -19.8677 -19.8473
    -7.7326  -7.3735  -7.3734  -7.2300  -7.2299  -7.2298  -7.2298  -7.1356
    -7.0261  -7.0260  -7.0259  -7.0259  -6.8325  -6.8325  -6.7840  -6.7839
    -6.5805  -6.5804  -6.5803  -6.5803  -6.5220  -6.5220  -6.4620  -6.4620
    -6.1659  -6.1658  -6.1004  -6.1004  -6.0022  -6.0021  -6.0020  -6.0020
     4.2584   4.3392   4.3392   4.4515   4.9229   4.9230   4.9230   4.9231
     5.0452   5.1627   5.1628   5.1629   5.1629   5.4181   5.4182   5.4182
     5.4182   5.4692   5.4692   5.5484   5.5484   5.7965   5.7965   6.2077
     6.2077   6.2654   6.2654   6.2952   6.2953   6.2954   6.2954   6.5389
     6.5390   6.5765   6.5765   6.5766   6.5766   6.5821   6.5821   6.5912
     6.5913   6.6701   6.6702   6.7033   6.7034   6.7297   6.7298   6.7298
     6.7298   7.1667   7.1667   7.1668   7.1668   7.4511   7.4511   7.4581
     7.4582   7.5734   7.5734   7.6047   7.6047   7.8796   7.8797   7.8797
     7.8797   8.0333   8.0334   8.0334   8.0334   8.3869   8.3870   8.4108
     8.4109   8.4110   8.4110   8.4235   8.4236   8.4405   8.6763   8.6763
     8.7488   8.7488   8.7489   8.7489   8.8189   8.8190   9.0236   9.0236
     9.1139   9.1139   9.1140   9.1141   9.1375   9.1821   9.1821   9.8060
    11.3532  11.4064  11.4064  11.6107  12.0975  12.0975  12.0975  12.0976
    12.1753  12.1754  12.1755  12.1755  12.7947  13.3240  13.3240  13.3277
    13.3277  13.4979  13.4979  13.5427  13.5427  13.7316  13.7317  13.7607
    13.7608  14.2268  14.2269  14.2270  14.2270  14.4213  14.4214  14.4215
    14.4215  14.4545  14.4545  14.4546  14.4546  14.7421  14.7421  15.3199
    15.3200  15.3384  15.3385  15.3385  15.3386  15.3478  15.3478  15.8759
    15.9970  16.4048  16.5474  16.5474  16.5475  16.5475  17.0600  17.0600
    17.2719  17.2721  17.2721  17.2721  17.3341  17.3341  17.3377  17.3378
    17.3378  17.3379  17.8838  17.8838  17.9066  17.9067  17.9089  17.9090
    18.0229  18.0229  18.0570  18.0571  19.1882  19.1882  19.1883  19.1883
    19.5887  19.5887  19.5888  19.5888  19.8349  20.1362  20.1362  20.5009
    20.5010  20.9903  20.9903  21.1786  21.1786  21.1787  21.1787  21.7326
    21.7326  21.9622  21.9622  21.9713  21.9713  22.5178  22.5179  22.5179
    22.5179  23.0041  23.0041  23.6550  23.6550  23.6550  23.6550  23.7225
    23.7646  23.7647  23.7647  23.7647  24.0466  24.0466  24.4406  24.4406
    24.4406  24.4406  24.8624  24.8624  25.0885  25.2602  25.2603  25.4464
    25.8548  25.8548  26.1731  26.1731  26.3705  26.3706  26.3853  26.3853
    26.3853  26.3853  26.4263  26.4263  26.4263  26.4263  27.1557  27.3592
    27.3593  27.3593  27.3593  27.3643  27.3644  27.5212  27.5212  27.7349
    27.7349  28.3929  28.3929  28.3929  28.3929  28.5201  28.5928  28.5928
    29.0229  29.0229  29.0229  29.0230  29.9299  29.9300  29.9309  29.9309
    30.4149  30.4149  30.4150  30.4150  30.6872  30.6873  30.6874  30.6874
    30.8130  30.8130  31.3031  31.3031  31.3512  31.3512  31.4050  31.4050
    31.4880  31.7166  31.7166  32.0942  32.4874  32.4874  32.5183  32.5183
    32.5183  32.5183  32.5519  32.5519  32.5727  32.5727  32.9986  33.1516
    33.1517  33.1517  33.1517  33.4529  33.4530  33.4530  33.4530  33.6436
    33.6436  33.8970  33.8970  34.2447  34.2447  34.2448  34.2448  34.2714
    34.2714  34.2988  34.2989  34.5797  34.5797  34.9066  34.9067  34.9067
    34.9067  35.3371  35.3371  36.1878  36.1879  36.1879  36.1879  36.1932
    36.1932  36.4331  36.4331  36.4331  36.4331  36.4776  36.6412  36.6412
    36.7656  36.7657  36.9829  37.1539  37.1539  37.1539  37.1540  37.2138
    37.2139  37.7221  37.7221  38.0877  38.0877  38.0877  38.0878  38.2164
    38.5406  38.5406  38.5407  38.5407  39.2298  39.2298  39.2298  39.2298
    39.3103  39.3104  39.3605  39.3605  39.6952  39.6952  39.6953  39.6953
    39.7121  39.7121  39.7653  39.7653  39.8233  40.1645  40.2541  40.2541
    40.2925  40.2925  40.6098  40.6098  40.6098  40.6099  40.8500  40.8501
    40.8501  40.8501  40.9229  40.9230  41.2432  41.2432  41.4319  41.4320
    41.5699  41.5699  41.8971  41.9098  41.9098  41.9099  41.9099  41.9353
    41.9353  42.0183  42.1250  42.1250  42.1250  42.1251  42.1570  42.3230
    42.3230  42.3416  42.3417  42.3418  42.3418  42.3620  42.3621  42.3676
    42.3677  42.3677  42.3677  42.3746  42.3746  42.6822  42.6822  42.7123
    42.7123  42.8451  42.8451  42.9675  42.9675  43.0974  43.1874  43.1874
    43.2325  43.2326  43.7215  43.7216  43.7216  43.7216  43.7267  43.7267
    43.7268  43.7268  43.7289  43.7289  43.7289  43.7290  43.8789  43.8789
    44.1221  44.1221  44.3299  44.3300  44.5073  44.5074  44.5074  44.5074
    44.8537  44.8538  45.1255  45.3173  45.3173  45.3249  45.3249  45.8284
    45.8285  45.8289  45.8289  45.8290  45.8290  46.2943  46.2944  46.2944
    46.2944  46.5339  46.5339  46.5339  46.5340  46.6935  46.6935  46.8261
    46.8261  46.8261  46.8261  46.8654  46.9123  46.9124  46.9124  46.9124
    46.9585  46.9585  47.0464  47.0464  47.1011  47.1011  47.1011  47.1011
    47.3129  47.3129  47.5844  47.5844  47.9142  48.2491  48.2491  48.2491

[...]

          k =-0.5000-0.5000 0.0000 ( 16684 PWs)   bands (ev):

[...]

 ------ SPIN DOWN ----------

[...]

          k =-0.5000-0.5000-0.8345 ( 16640 PWs)   bands (ev):

[...]

          k = 0.2500-0.2500-0.8345 ( 16644 PWs)   bands (ev):

   -44.1007 -44.1007 -44.0977 -44.0977 -44.0976 -44.0975 -44.0963 -44.0963
   -44.0945 -44.0945 -44.0934 -44.0933 -44.0932 -44.0932 -44.0903 -44.0902
   -20.4295 -20.4294 -20.4294 -20.4293 -20.4250 -20.4250 -20.4223 -20.4223
   -20.4222 -20.4221 -20.4207 -20.4207 -20.4180 -20.4180 -20.4126 -20.4126
   -20.3134 -20.3133 -20.3109 -20.3109 -20.2920 -20.2919 -20.2919 -20.2918
   -20.2896 -20.2896 -20.2865 -20.2865 -20.2699 -20.2699 -20.2699 -20.2698
   -20.0778 -20.0778 -20.0777 -20.0777 -20.0652 -20.0652 -20.0640 -20.0639
   -20.0638 -20.0637 -20.0625 -20.0625 -20.0529 -20.0529 -20.0506 -20.0506
    -7.1501  -7.1501  -7.0254  -7.0254  -7.0253  -7.0253  -6.9561  -6.9561
    -6.8945  -6.8945  -6.8779  -6.8779  -6.8778  -6.8778  -6.7873  -6.7873
    -6.4884  -6.4884  -6.4816  -6.4816  -6.4642  -6.4642  -6.4641  -6.4641
    -6.4559  -6.4559  -6.4558  -6.4558  -6.4486  -6.4486  -6.4412  -6.4412
     5.0918   5.0918   5.1768   5.1768   5.1918   5.1918   5.1920   5.1920
     5.2332   5.2332   5.2457   5.2458   5.2458   5.2458   5.3083   5.3083
     5.6017   5.6017   5.6599   5.6599   5.8571   5.8571   5.8572   5.8572
     5.9013   5.9013   6.1009   6.1010   6.1010   6.1010   6.1275   6.1275
     6.1457   6.1457   6.4842   6.4842   6.4842   6.4842   6.7377   6.7377
     6.7680   6.7680   6.7683   6.7683   6.7684   6.7684   6.9663   6.9663
     6.9663   6.9663   7.1813   7.1813   7.1853   7.1853   7.2334   7.2334
     7.7024   7.7024   7.7024   7.7024   7.8706   7.8706   7.8943   7.8943
     7.8944   7.8944   7.9182   7.9182   8.0172   8.0172   8.0356   8.0356
     8.0530   8.0530   8.1621   8.1621   8.1622   8.1622   8.3902   8.3902
     8.5444   8.5444   8.6340   8.6340   8.8060   8.8060   8.8061   8.8061
     8.9363   8.9363   9.1670   9.1670   9.1672   9.1672   9.3551   9.3551
    12.6436  12.6436  12.7576  12.7576  12.7577  12.7577  12.8692  12.8692
    12.9790  12.9790  13.0514  13.0514  13.1037  13.1038  13.1038  13.1038
    13.1760  13.1760  13.2523  13.2524  13.2913  13.2914  13.2915  13.2915
    13.5417  13.5417  13.5883  13.5883  13.7270  13.7270  13.7375  13.7375
    13.7375  13.7375  14.0796  14.0796  14.2795  14.2795  14.2796  14.2796
    14.3823  14.3823  14.7521  14.7521  14.7522  14.7522  15.1664  15.1664
    16.3618  16.3618  16.3618  16.3618  16.7701  16.7701  16.9122  16.9122
    16.9243  16.9244  16.9245  16.9245  17.2719  17.2719  17.5822  17.5822
    17.6943  17.6943  17.7864  17.7864  17.9273  17.9273  17.9274  17.9275
    18.2781  18.2781  18.6969  18.6969  18.6970  18.6970  18.7393  18.7393
    19.3682  19.3682  20.0225  20.0225  20.0226  20.0226  20.5007  20.5007
    21.0781  21.0781  21.2469  21.2469  21.2470  21.2470  22.3526  22.3526
    22.5124  22.5124  22.7986  22.7986  22.9755  22.9756  23.3137  23.3137
    23.3138  23.3138  23.9801  23.9801  23.9801  23.9802  24.6395  24.6395
    24.7436  24.7436  24.7929  24.7929  24.7929  24.7929  24.8326  24.8326
    24.9208  24.9208  24.9467  24.9467  25.1190  25.1190  25.1191  25.1191
    25.7644  25.7644  25.7644  25.7644  25.7892  25.7892  26.0614  26.0614
    26.1159  26.1159  26.1160  26.1160  26.3763  26.3763  26.7346  26.7346
    26.9678  26.9678  26.9678  26.9678  27.4208  27.4208  27.9160  27.9160
    28.1347  28.1347  28.4181  28.4181  28.4834  28.4834  28.4835  28.4835
    28.6092  28.6092  28.6602  28.6602  29.6721  29.6721  29.6722  29.6722
    29.7663  29.7663  30.2855  30.2855  30.2856  30.2856  30.9419  30.9419
    30.9420  30.9420  31.0543  31.0543  31.4143  31.4143  31.4867  31.4867
    32.1349  32.1349  32.1818  32.1818  32.3882  32.3882  32.3882  32.3882
    32.6564  32.6564  33.0899  33.0900  33.0900  33.0900  33.2280  33.2280
    33.3135  33.3135  33.4503  33.4503  33.6015  33.6015  33.6016  33.6016
    33.9426  33.9426  33.9426  33.9427  34.2534  34.2534  34.2534  34.2534
    34.4898  34.4898  34.8093  34.8093  34.9869  34.9869  35.3161  35.3161
    35.4555  35.4555  35.7123  35.7123  35.7123  35.7123  35.7696  35.7696
    35.8012  35.8012  35.8451  35.8451  35.8451  35.8451  36.1375  36.1375
    36.3542  36.3542  36.7762  36.7762  36.8298  36.8298  36.8298  36.8298
    36.9865  36.9865  37.1697  37.1697  37.1697  37.1697  38.1611  38.1611
    38.2207  38.2207  38.2501  38.2501  38.2904  38.2904  38.5318  38.5318
    38.5318  38.5318  38.6125  38.6125  39.0706  39.0706  39.0707  39.0707
    39.0975  39.0975  39.5992  39.5992  40.3540  40.3540  40.3540  40.3540
    40.4987  40.4987  40.5764  40.5764  40.6163  40.6163  40.6163  40.6163
    40.9378  40.9378  40.9953  40.9953  41.0062  41.0062  41.0062  41.0062
    41.1739  41.1739  41.3929  41.3929  41.6226  41.6226  41.6226  41.6226
    41.6617  41.6617  41.6618  41.6618  41.8698  41.8698  42.0585  42.0585
    42.1970  42.1970  42.1970  42.1970  42.8106  42.8106  43.0101  43.0101
    43.0255  43.0255  43.0522  43.0522  43.2450  43.2450  43.3568  43.3568
    43.3568  43.3569  43.4177  43.4177  43.6294  43.6294  43.9473  43.9473
    43.9473  43.9473  44.1128  44.1129  44.2899  44.2899  44.3346  44.3346
    44.3347  44.3347  44.3977  44.3977  44.3977  44.3977  44.7481  44.7481
    44.7999  44.7999  44.8000  44.8000  44.8003  44.8003  44.8738  44.8738
    45.0857  45.0857  45.1446  45.1446  45.1447  45.1447  45.1712  45.1712
    45.2402  45.2402  45.6795  45.6795  45.6795  45.6795  45.7342  45.7342
    45.8540  45.8540  45.9052  45.9052  45.9053  45.9053  45.9151  45.9151
    46.4017  46.4017  46.4187  46.4187  46.4187  46.4187  46.6247  46.6247
    47.0423  47.0423  47.0423  47.0423  47.0590  47.0590  47.2897  47.2897
    47.2898  47.2898  47.4480  47.4480  47.5033  47.5033  47.8498  47.8498

     the Fermi energy is    12.5578 ev

!    total energy              =   -2922.40012761 Ry
     Harris-Foulkes estimate   =   -2922.40012811 Ry
     estimated scf accuracy    <       0.00000053 Ry

     The total energy is the sum of the following terms:

     one-electron contribution =    -784.88681961 Ry
     hartree contribution      =     606.82175564 Ry
     xc contribution           =    -525.15508291 Ry
     ewald contribution        =   -2219.17932603 Ry
     Hubbard energy            =       0.00000000 Ry
     smearing contrib. (-TS)   =      -0.00065469 Ry

     total magnetization       =    -0.00 Bohr mag/cell
     absolute magnetization    =     0.00 Bohr mag/cell

     convergence has been achieved in   5 iterations

     Writing output data file pwscf.save

     General routines

     Parallel routines
     Hubbard U routines

   This run was terminated on:  18:24:36  14Feb2014

   JOB DONE.