     Program PWSCF v.5.0.2 (svn rev. 9656) starts on 14Feb2014 at 22:10:42

     Current dimensions of program PWSCF are:
     Max number of different atomic species (ntypx) = 10
     Max number of k-points (npk) =  40000
     Max angular momentum in pseudopotentials (lmaxx) =  3
     Reading input from alpha_0.15/alpha_0.15.in
Warning: card &IONS ignored
Warning: card / ignored
Warning: card &CELL ignored
Warning: card / ignored

     Subspace diagonalization in iterative solution of the eigenvalue problem:
     a serial algorithm will be used

     bravais-lattice index     =            0
     lattice parameter (alat)  =      18.6705  a.u.
     unit-cell volume          =    3899.7090 (a.u.)^3
     number of atoms/cell      =           48
     number of atomic types    =            3
     number of electrons       =       400.00
     number of Kohn-Sham states=          600
     kinetic-energy cutoff     =      40.0000  Ry
     charge density cutoff     =     500.0000  Ry
     convergence threshold     =      1.0E-06
     mixing beta               =       0.7000
     number of iterations used =            8  plain     mixing
     Exchange-correlation      = SLA  PW   PBE  PBE ( 1 4 3 4 0)
     EXX-fraction              =        0.00

     celldm(1)=  18.670494  celldm(2)=   0.000000  celldm(3)=   0.000000
     celldm(4)=   0.000000  celldm(5)=   0.000000  celldm(6)=   0.000000

     crystal axes: (cart. coord. in units of alat)
               a(1) = (   1.000000   0.000000   0.000000 )
               a(2) = (   0.000000   1.000000   0.000000 )
               a(3) = (   0.000000   0.000000   0.599190 )

     reciprocal axes: (cart. coord. in units 2 pi/alat)
               b(1) = (  1.000000  0.000000  0.000000 )
               b(2) = (  0.000000  1.000000  0.000000 )
               b(3) = (  0.000000  0.000000  1.668919 )

     PseudoPot. # 1 for Nb read from file:
     /home/camp/zhonxu/pseudo/nb_pbe_v1.uspp.F.UPF
     MD5 check sum: 573aab8a2fa660278ed4a62cd769473f
     Pseudo is Ultrasoft + core correction, Zval = 13.0
     Generated by new atomic code, or converted to UPF format
     Using radial grid of  887 points,  6 beta functions with:
                l(1) =   0
                l(2) =   0
                l(3) =   1
                l(4) =   1
                l(5) =   2
                l(6) =   2
     Q(r) pseudized with  6 coefficients,  rinner =    1.000   1.000   1.000
                                                       1.000   1.000

     PseudoPot. # 2 for O  read from file:
     /home/camp/zhonxu/pseudo/o_pbe_v1.01.uspp.F.UPF
     MD5 check sum: 2bcb18d16ea4b960afae9ec6d52f22d2
     Pseudo is Ultrasoft + core correction, Zval =  6.0
     Generated by new atomic code, or converted to UPF format
     Using radial grid of  737 points,  5 beta functions with:
                l(1) =   0
                l(2) =   0
                l(3) =   1
                l(4) =   1
                l(5) =   2
     Q(r) pseudized with  8 coefficients,  rinner =    0.900   0.900   0.900
                                                       0.900   0.900

     PseudoPot. # 3 for O  read from file:
     /home/camp/zhonxu/pseudo/o_pbe_v1.01.uspp.F.UPF
     MD5 check sum: 2bcb18d16ea4b960afae9ec6d52f22d2
     Pseudo is Ultrasoft + core correction, Zval =  6.0
     Generated by new atomic code, or converted to UPF format
     Using radial grid of  737 points,  5 beta functions with:
                l(1) =   0
                l(2) =   0
                l(3) =   1
                l(4) =   1
                l(5) =   2
     Q(r) pseudized with  8 coefficients,  rinner =    0.900   0.900   0.900
                                                       0.900   0.900

     atomic species   valence    mass     pseudopotential
        Nb0           13.00    92.90640     Nb( 1.00)
        O1             6.00    15.99940     O ( 1.00)
        O2             6.00    15.99940     O ( 1.00)

     Starting magnetic structure
     atomic species   magnetization
        Nb0          0.000
        O1           0.000
        O2           0.000

     Simplified LDA+U calculation (l_max = 2) with parameters (eV):
     atomic species    L          U    alpha       J0     beta
        Nb0            2     0.0000   0.0000   0.0000   0.0000
        O1             1     0.0000   0.1500   0.0000   0.0000
        O2             1     0.0000   0.0000   0.0000   0.0000

      4 Sym. Ops. (no inversion) found

   Cartesian axes

     site n.     atom                  positions (alat units)
         1           Nb0 tau(   1) = (  -0.1450000  -0.1450000   0.0000000  )
         2           Nb0 tau(   2) = (   0.1050000   0.1050000   0.1497976  )
         3           Nb0 tau(   3) = (  -0.1450000  -0.1450000   0.2995951  )
         4           Nb0 tau(   4) = (   0.1050000   0.1050000   0.4493927  )
         5           Nb0 tau(   5) = (  -0.1450000   0.3550000   0.0000000  )
         6           Nb0 tau(   6) = (   0.1050000   0.6050000   0.1497976  )
         7           Nb0 tau(   7) = (  -0.1450000   0.3550000   0.2995951  )
         8           Nb0 tau(   8) = (   0.1050000   0.6050000   0.4493927  )
         9           Nb0 tau(   9) = (   0.3550000  -0.1450000   0.0000000  )
        10           Nb0 tau(  10) = (   0.6050000   0.1050000   0.1497976  )
        11           Nb0 tau(  11) = (   0.3550000  -0.1450000   0.2995951  )
        12           Nb0 tau(  12) = (   0.6050000   0.1050000   0.4493927  )
        13           Nb0 tau(  13) = (   0.3550000   0.3550000   0.0000000  )
        14           Nb0 tau(  14) = (   0.6050000   0.6050000   0.1497976  )
        15           Nb0 tau(  15) = (   0.3550000   0.3550000   0.2995951  )
        16           Nb0 tau(  16) = (   0.6050000   0.6050000   0.4493927  )
        17           O1  tau(  17) = (   0.0000000   0.0000000   0.0000000  )
        18           O2  tau(  18) = (  -0.2900000  -0.2900000   0.0000000  )
        19           O2  tau(  19) = (   0.2500000  -0.0400000   0.1497976  )
        20           O2  tau(  20) = (  -0.0400000   0.2500000   0.1497976  )
        21           O2  tau(  21) = (   0.0000000   0.0000000   0.2995951  )
        22           O2  tau(  22) = (  -0.2900000  -0.2900000   0.2995951  )
        23           O2  tau(  23) = (   0.2500000  -0.0400000   0.4493927  )
        24           O2  tau(  24) = (  -0.0400000   0.2500000   0.4493927  )
        25           O2  tau(  25) = (   0.0000000   0.5000000   0.0000000  )
        26           O2  tau(  26) = (  -0.2900000   0.2100000   0.0000000  )
        27           O2  tau(  27) = (   0.2500000   0.4600000   0.1497976  )
        28           O2  tau(  28) = (  -0.0400000   0.7500000   0.1497976  )
        29           O2  tau(  29) = (   0.0000000   0.5000000   0.2995951  )
        30           O2  tau(  30) = (  -0.2900000   0.2100000   0.2995951  )
        31           O2  tau(  31) = (   0.2500000   0.4600000   0.4493927  )
        32           O2  tau(  32) = (  -0.0400000   0.7500000   0.4493927  )
        33           O2  tau(  33) = (   0.5000000   0.0000000   0.0000000  )
        34           O2  tau(  34) = (   0.2100000  -0.2900000   0.0000000  )
        35           O2  tau(  35) = (   0.7500000  -0.0400000   0.1497976  )
        36           O2  tau(  36) = (   0.4600000   0.2500000   0.1497976  )
        37           O2  tau(  37) = (   0.5000000   0.0000000   0.2995951  )
        38           O2  tau(  38) = (   0.2100000  -0.2900000   0.2995951  )
        39           O2  tau(  39) = (   0.7500000  -0.0400000   0.4493927  )
        40           O2  tau(  40) = (   0.4600000   0.2500000   0.4493927  )
        41           O2  tau(  41) = (   0.5000000   0.5000000   0.0000000  )
        42           O2  tau(  42) = (   0.2100000   0.2100000   0.0000000  )
        43           O2  tau(  43) = (   0.7500000   0.4600000   0.1497976  )
        44           O2  tau(  44) = (   0.4600000   0.7500000   0.1497976  )
        45           O2  tau(  45) = (   0.5000000   0.5000000   0.2995951  )
        46           O2  tau(  46) = (   0.2100000   0.2100000   0.2995951  )
        47           O2  tau(  47) = (   0.7500000   0.4600000   0.4493927  )
        48           O2  tau(  48) = (   0.4600000   0.7500000   0.4493927  )

     number of k points=    42  Methfessel-Paxton smearing, width (Ry)=  0.0100
                       cart. coord. in units 2pi/alat
        k(    1) = (   0.0000000   0.0000000   0.0000000), wk =   0.0156250
        k(    2) = (   0.0000000   0.0000000   0.4172297), wk =   0.0312500
        k(    3) = (   0.0000000   0.0000000  -0.8344595), wk =   0.0156250
        k(    4) = (   0.0000000   0.2500000   0.0000000), wk =   0.0625000
        k(    5) = (   0.0000000   0.2500000   0.4172297), wk =   0.1250000
        k(    6) = (   0.0000000   0.2500000  -0.8344595), wk =   0.0625000
        k(    7) = (   0.0000000  -0.5000000   0.0000000), wk =   0.0312500
        k(    8) = (   0.0000000  -0.5000000   0.4172297), wk =   0.0625000
        k(    9) = (   0.0000000  -0.5000000  -0.8344595), wk =   0.0312500
        k(   10) = (   0.2500000   0.2500000   0.0000000), wk =   0.0312500
        k(   11) = (   0.2500000   0.2500000   0.4172297), wk =   0.0625000
        k(   12) = (   0.2500000   0.2500000  -0.8344595), wk =   0.0312500
        k(   13) = (   0.2500000  -0.5000000   0.0000000), wk =   0.0625000
        k(   14) = (   0.2500000  -0.5000000   0.4172297), wk =   0.1250000
        k(   15) = (   0.2500000  -0.5000000  -0.8344595), wk =   0.0625000
        k(   16) = (  -0.5000000  -0.5000000   0.0000000), wk =   0.0156250
        k(   17) = (  -0.5000000  -0.5000000   0.4172297), wk =   0.0312500
        k(   18) = (  -0.5000000  -0.5000000  -0.8344595), wk =   0.0156250
        k(   19) = (   0.2500000  -0.2500000   0.0000000), wk =   0.0312500
        k(   20) = (   0.2500000  -0.2500000   0.4172297), wk =   0.0625000
        k(   21) = (   0.2500000  -0.2500000  -0.8344595), wk =   0.0312500
        k(   22) = (   0.0000000   0.0000000   0.0000000), wk =   0.0156250
        k(   23) = (   0.0000000   0.0000000   0.4172297), wk =   0.0312500
        k(   24) = (   0.0000000   0.0000000  -0.8344595), wk =   0.0156250
        k(   25) = (   0.0000000   0.2500000   0.0000000), wk =   0.0625000
        k(   26) = (   0.0000000   0.2500000   0.4172297), wk =   0.1250000
        k(   27) = (   0.0000000   0.2500000  -0.8344595), wk =   0.0625000
        k(   28) = (   0.0000000  -0.5000000   0.0000000), wk =   0.0312500
        k(   29) = (   0.0000000  -0.5000000   0.4172297), wk =   0.0625000
        k(   30) = (   0.0000000  -0.5000000  -0.8344595), wk =   0.0312500
        k(   31) = (   0.2500000   0.2500000   0.0000000), wk =   0.0312500
        k(   32) = (   0.2500000   0.2500000   0.4172297), wk =   0.0625000
        k(   33) = (   0.2500000   0.2500000  -0.8344595), wk =   0.0312500
        k(   34) = (   0.2500000  -0.5000000   0.0000000), wk =   0.0625000
        k(   35) = (   0.2500000  -0.5000000   0.4172297), wk =   0.1250000
        k(   36) = (   0.2500000  -0.5000000  -0.8344595), wk =   0.0625000
[...]
  0.913  0.916  0.917
    eigenvectors:
  0.000  0.000  1.000
  0.500  0.500  0.000
  0.500  0.500  0.000
    occupations:
  0.917 -0.000 -0.000
 -0.000  0.914  0.002
 -0.000  0.002  0.914
   spin  2
    eigenvalues:
  0.913  0.916  0.917
    eigenvectors:
  0.000  0.000  1.000
  0.500  0.500  0.000
  0.500  0.500  0.000
    occupations:
  0.917 -0.000 -0.000
 -0.000  0.914  0.002
 -0.000  0.002  0.914
atomic mag. moment =     0.000000
atom   42   Tr[ns(na)] (up, down, total) =   2.74569  2.74569  5.49138
   spin  1
    eigenvalues:
  0.913  0.916  0.917
    eigenvectors:
  0.000  0.000  1.000
  0.500  0.500  0.000
  0.500  0.500  0.000
    occupations:
  0.917 -0.000 -0.000
 -0.000  0.914  0.002
 -0.000  0.002  0.914
   spin  2
    eigenvalues:
  0.913  0.916  0.917
    eigenvectors:
  0.000  0.000  1.000
  0.500  0.500  0.000
  0.500  0.500  0.000
    occupations:
  0.917 -0.000 -0.000
 -0.000  0.914  0.002
 -0.000  0.002  0.914
atomic mag. moment =     0.000000
atom   43   Tr[ns(na)] (up, down, total) =   2.74568  2.74568  5.49136
   spin  1
    eigenvalues:
  0.913  0.916  0.917
    eigenvectors:
  0.000  0.000  1.000
  0.500  0.500  0.000
  0.500  0.500  0.000
    occupations:
  0.917  0.000  0.000
  0.000  0.914 -0.002
  0.000 -0.002  0.914
   spin  2
    eigenvalues:
  0.913  0.916  0.917
    eigenvectors:
  0.000  0.000  1.000
  0.500  0.500  0.000
  0.500  0.500  0.000
    occupations:
  0.917  0.000  0.000
  0.000  0.914 -0.002
  0.000 -0.002  0.914
atomic mag. moment =     0.000000
atom   44   Tr[ns(na)] (up, down, total) =   2.74568  2.74568  5.49136
   spin  1
    eigenvalues:
  0.913  0.916  0.917
    eigenvectors:
  0.000  0.000  1.000
  0.500  0.500  0.000
  0.500  0.500  0.000
    occupations:
  0.917  0.000  0.000
  0.000  0.914 -0.002
  0.000 -0.002  0.914
   spin  2
    eigenvalues:
  0.913  0.916  0.917
    eigenvectors:
  0.000  0.000  1.000
  0.500  0.500  0.000
  0.500  0.500  0.000
    occupations:
  0.917  0.000  0.000
  0.000  0.914 -0.002
  0.000 -0.002  0.914
atomic mag. moment =     0.000000
atom   45   Tr[ns(na)] (up, down, total) =   2.74573  2.74573  5.49146
   spin  1
    eigenvalues:
  0.913  0.916  0.917
    eigenvectors:
  0.000  0.000  1.000
  0.500  0.500  0.000
  0.500  0.500  0.000
    occupations:
  0.917 -0.000 -0.000
 -0.000  0.914  0.002
 -0.000  0.002  0.914
   spin  2
    eigenvalues:
  0.913  0.916  0.917
    eigenvectors:
  0.000  0.000  1.000
  0.500  0.500  0.000
  0.500  0.500  0.000
    occupations:
  0.917 -0.000 -0.000
 -0.000  0.914  0.002
 -0.000  0.002  0.914
atomic mag. moment =     0.000000
atom   46   Tr[ns(na)] (up, down, total) =   2.74555  2.74555  5.49109
   spin  1
    eigenvalues:
  0.913  0.916  0.917
    eigenvectors:
  0.000  0.000  1.000
  0.500  0.500  0.000
  0.500  0.500  0.000
    occupations:
  0.917 -0.000 -0.000
 -0.000  0.914  0.002
 -0.000  0.002  0.914
   spin  2
    eigenvalues:
  0.913  0.916  0.917
    eigenvectors:
  0.000  0.000  1.000
  0.500  0.500  0.000
  0.500  0.500  0.000
    occupations:
  0.917 -0.000 -0.000
 -0.000  0.914  0.002
 -0.000  0.002  0.914
atomic mag. moment =     0.000000
atom   47   Tr[ns(na)] (up, down, total) =   2.74568  2.74568  5.49136
   spin  1
    eigenvalues:
  0.913  0.916  0.917
    eigenvectors:
  0.000  0.000  1.000
  0.500  0.500  0.000
  0.500  0.500  0.000
    occupations:
  0.917 -0.000 -0.000
 -0.000  0.914 -0.002
 -0.000 -0.002  0.914
   spin  2
    eigenvalues:
  0.913  0.916  0.917
    eigenvectors:
  0.000  0.000  1.000
  0.500  0.500  0.000
  0.500  0.500  0.000
    occupations:
  0.917 -0.000 -0.000
 -0.000  0.914 -0.002
 -0.000 -0.002  0.914
atomic mag. moment =     0.000000
atom   48   Tr[ns(na)] (up, down, total) =   2.74568  2.74568  5.49136
   spin  1
    eigenvalues:
  0.913  0.916  0.917
    eigenvectors:
  0.000  0.000  1.000
  0.500  0.500  0.000
  0.500  0.500  0.000
    occupations:
  0.917 -0.000 -0.000
 -0.000  0.914 -0.002
 -0.000 -0.002  0.914
   spin  2
    eigenvalues:
  0.913  0.916  0.917
    eigenvectors:
  0.000  0.000  1.000
  0.500  0.500  0.000
  0.500  0.500  0.000
    occupations:
  0.917 -0.000 -0.000
 -0.000  0.914 -0.002
 -0.000 -0.002  0.914
atomic mag. moment =     0.000000
N of occupied +U levels = 259.8493654
 --- exit write_ns ---

 ------ SPIN UP ------------

          k = 0.0000 0.0000 0.0000 ( 16699 PWs)   bands (ev):

   -44.1418 -44.1338 -44.1338 -44.1336 -44.1336 -44.1320 -44.1307 -44.1235
   -44.0552 -44.0551 -44.0551 -44.0549 -44.0549 -44.0549 -44.0519 -44.0512
   -20.7415 -20.7413 -20.7407 -20.7403 -20.7204 -20.7202 -20.7191 -20.7183
   -20.4892 -20.4889 -20.4762 -20.4761 -20.4277 -20.4275 -20.4263 -20.4262
   -20.3509 -20.3508 -20.3483 -20.3482 -20.3269 -20.3268 -20.3258 -20.3249
   -20.1846 -20.1844 -20.1837 -20.1836 -20.1272 -20.1271 -20.1193 -20.1190
   -19.9702 -19.9702 -19.9689 -19.9687 -19.9685 -19.9683 -19.9668 -19.9654
   -19.8873 -19.8672 -19.8672 -19.8671 -19.8670 -19.8658 -19.8652 -19.8459
    -7.7336  -7.3767  -7.3723  -7.2370  -7.2289  -7.2289  -7.2288  -7.1365
    -7.0325  -7.0250  -7.0248  -7.0242  -6.8355  -6.8314  -6.7865  -6.7829
    -6.5873  -6.5795  -6.5793  -6.5790  -6.5244  -6.5208  -6.4642  -6.4609
    -6.1686  -6.1646  -6.1029  -6.0993  -6.0077  -6.0011  -6.0010  -6.0010
     4.2613   4.3402   4.3456   4.4560   4.9239   4.9245   4.9261   4.9324
     5.0498   5.1638   5.1642   5.1654   5.1719   5.4192   5.4192   5.4206
     5.4279   5.4718   5.4743   5.5523   5.5531   5.7991   5.8028   6.2100
     6.2121   6.2673   6.2690   6.2964   6.2964   6.2978   6.3053   6.5400
     6.5434   6.5771   6.5778   6.5787   6.5845   6.5866   6.5875   6.5923
     6.5971   6.6712   6.6750   6.7045   6.7093   6.7307   6.7308   6.7309
     6.7393   7.1677   7.1686   7.1705   7.1772   7.4535   7.4547   7.4590
     7.4653   7.5742   7.5793   7.6086   7.6090   7.8806   7.8806   7.8824
     7.8876   8.0344   8.0358   8.0363   8.0413   8.3878   8.3922   8.4119
     8.4119   8.4119   8.4195   8.4264   8.4276   8.4446   8.6792   8.6800
     8.7497   8.7503   8.7512   8.7577   8.8200   8.8246   9.0259   9.0274
     9.1146   9.1150   9.1156   9.1239   9.1406   9.1852   9.1859   9.8091
    11.3542  11.4071  11.4075  11.6116  12.0984  12.0984  12.0984  12.0984
    12.1763  12.1764  12.1766  12.1768  12.7956  13.3251  13.3253  13.3285
    13.3289  13.4988  13.4989  13.5436  13.5437  13.7327  13.7329  13.7617
    13.7619  14.2277  14.2279  14.2281  14.2282  14.4221  14.4222  14.4223
    14.4233  14.4554  14.4555  14.4556  14.4563  14.7430  14.7434  15.3208
    15.3211  15.3394  15.3395  15.3395  15.3398  15.3487  15.3490  15.8767
    15.9981  16.4045  16.5475  16.5484  16.5486  16.5489  17.0602  17.0615
    17.2729  17.2730  17.2733  17.2734  17.3348  17.3353  17.3382  17.3384
    17.3388  17.3393  17.8849  17.8850  17.9077  17.9079  17.9097  17.9101
    18.0239  18.0241  18.0578  18.0583  19.1861  19.1876  19.1892  19.1894
    19.5897  19.5899  19.5899  19.5900  19.8359  20.1355  20.1359  20.5006
    20.5012  20.9901  20.9902  21.1776  21.1779  21.1790  21.1791  21.7322
    21.7327  21.9620  21.9625  21.9710  21.9717  22.5173  22.5180  22.5180
    22.5182  23.0040  23.0042  23.6544  23.6544  23.6549  23.6551  23.7221
    23.7639  23.7645  23.7647  23.7650  24.0460  24.0462  24.4394  24.4398
    24.4406  24.4416  24.8618  24.8624  25.0886  25.2597  25.2607  25.4463
    25.8541  25.8552  26.1728  26.1731  26.3698  26.3708  26.3849  26.3853
    26.3855  26.3857  26.4255  26.4265  26.4266  26.4270  27.1559  27.3586
    27.3590  27.3595  27.3599  27.3643  27.3646  27.5214  27.5214  27.7344
    27.7349  28.3918  28.3920  28.3935  28.3936  28.5200  28.5928  28.5929
    29.0225  29.0232  29.0233  29.0237  29.9298  29.9302  29.9312  29.9314
    30.4148  30.4149  30.4151  30.4158  30.6850  30.6863  30.6885  30.6885
    30.8128  30.8133  31.3030  31.3032  31.3509  31.3513  31.4051  31.4054
    31.4882  31.7164  31.7168  32.0939  32.4872  32.4878  32.5173  32.5181
    32.5183  32.5189  32.5513  32.5521  32.5724  32.5726  32.9984  33.1508
    33.1516  33.1521  33.1525  33.4526  33.4528  33.4534  33.4535  33.6432
    33.6439  33.8967  33.8974  34.2442  34.2445  34.2451  34.2453  34.2712
    34.2716  34.2987  34.2992  34.5794  34.5800  34.9056  34.9067  34.9071
    34.9071  35.3370  35.3374  36.1872  36.1882  36.1884  36.1884  36.1929
    36.1936  36.4327  36.4329  36.4330  36.4332  36.4778  36.6410  36.6412
    36.7650  36.7660  36.9830  37.1534  37.1538  37.1540  37.1542  37.2139
    37.2143  37.7216  37.7224  38.0871  38.0871  38.0884  38.0884  38.2166
    38.5396  38.5409  38.5411  38.5413  39.2284  39.2290  39.2305  39.2306
    39.3098  39.3109  39.3600  39.3608  39.6950  39.6953  39.6954  39.6956
    39.7119  39.7127  39.7648  39.7660  39.8229  40.1646  40.2538  40.2543
    40.2922  40.2928  40.6085  40.6100  40.6105  40.6108  40.8494  40.8496
    40.8504  40.8507  40.9232  40.9233  41.2428  41.2433  41.4311  41.4327
    41.5692  41.5702  41.8969  41.9086  41.9099  41.9101  41.9102  41.9351
    41.9356  42.0187  42.1246  42.1247  42.1251  42.1258  42.1575  42.3226
    42.3235  42.3403  42.3423  42.3423  42.3426  42.3620  42.3622  42.3667
    42.3678  42.3684  42.3684  42.3740  42.3755  42.6817  42.6825  42.7122
    42.7127  42.8452  42.8455  42.9671  42.9680  43.0976  43.1870  43.1874
    43.2319  43.2333  43.7211  43.7214  43.7218  43.7223  43.7248  43.7269
    43.7270  43.7274  43.7287  43.7290  43.7295  43.7296  43.8786  43.8795
    44.1214  44.1223  44.3295  44.3300  44.5063  44.5072  44.5077  44.5081
    44.8539  44.8542  45.1255  45.3167  45.3177  45.3247  45.3249  45.8274
    45.8289  45.8291  45.8295  45.8296  45.8297  46.2939  46.2944  46.2947
    46.2947  46.5321  46.5334  46.5348  46.5349  46.6936  46.6939  46.8259
    46.8263  46.8265  46.8267  46.8657  46.9119  46.9122  46.9131  46.9132
    46.9586  46.9587  47.0460  47.0467  47.1006  47.1010  47.1012  47.1016
    47.3124  47.3132  47.5840  47.5849  47.9137  48.2488  48.2490  48.2496

[...]

          k =-0.5000-0.5000 0.0000 ( 16684 PWs)   bands (ev):

[...]

 ------ SPIN DOWN ----------

[...]

          k =-0.5000-0.5000-0.8345 ( 16640 PWs)   bands (ev):

[...]

          k = 0.2500-0.2500-0.8345 ( 16644 PWs)   bands (ev):

   -44.0995 -44.0993 -44.0968 -44.0964 -44.0962 -44.0960 -44.0950 -44.0945
   -44.0934 -44.0932 -44.0925 -44.0912 -44.0911 -44.0908 -44.0884 -44.0852
   -20.4285 -20.4284 -20.4282 -20.4277 -20.4237 -20.4237 -20.4213 -20.4212
   -20.4206 -20.4205 -20.4189 -20.4188 -20.4170 -20.4161 -20.4116 -20.4103
   -20.3120 -20.3120 -20.3093 -20.3090 -20.2909 -20.2907 -20.2906 -20.2902
   -20.2886 -20.2875 -20.2854 -20.2844 -20.2690 -20.2690 -20.2680 -20.2654
   -20.0770 -20.0770 -20.0761 -20.0752 -20.0642 -20.0640 -20.0629 -20.0629
   -20.0626 -20.0622 -20.0616 -20.0588 -20.0515 -20.0515 -20.0487 -20.0485
    -7.1537  -7.1487  -7.0326  -7.0243  -7.0242  -7.0241  -6.9603  -6.9548
    -6.8975  -6.8934  -6.8836  -6.8769  -6.8768  -6.8766  -6.7895  -6.7862
    -6.5000  -6.4873  -6.4805  -6.4805  -6.4693  -6.4631  -6.4630  -6.4629
    -6.4614  -6.4550  -6.4548  -6.4544  -6.4496  -6.4475  -6.4402  -6.4401
     5.0931   5.0962   5.1780   5.1797   5.1930   5.1931   5.1933   5.1936
     5.2343   5.2374   5.2467   5.2467   5.2507   5.2646   5.3095   5.3175
     5.6051   5.6080   5.6643   5.6650   5.8581   5.8582   5.8592   5.8655
     5.9028   5.9059   6.1019   6.1024   6.1047   6.1105   6.1294   6.1300
     6.1497   6.1522   6.4851   6.4852   6.4894   6.4953   6.7395   6.7395
     6.7690   6.7692   6.7695   6.7706   6.7708   6.7772   6.9672   6.9679
     6.9692   6.9716   7.1825   7.1840   7.1864   7.2021   7.2345   7.2403
     7.7032   7.7034   7.7091   7.7139   7.8720   7.8730   7.8954   7.8957
     7.8989   7.8992   7.9193   7.9212   8.0183   8.0186   8.0382   8.0408
     8.0555   8.0590   8.1633   8.1641   8.1652   8.1675   8.3922   8.3938
     8.5456   8.5518   8.6351   8.6406   8.8072   8.8075   8.8091   8.8115
     8.9394   8.9400   9.1681   9.1684   9.1685   9.1767   9.3563   9.3605
    12.6445  12.6445  12.7583  12.7585  12.7587  12.7588  12.8697  12.8702
    12.9795  12.9801  13.0523  13.0524  13.1046  13.1047  13.1047  13.1047
    13.1770  13.1772  13.2534  13.2536  13.2923  13.2925  13.2925  13.2929
    13.5427  13.5430  13.5894  13.5895  13.7279  13.7279  13.7384  13.7384
    13.7385  13.7389  14.0806  14.0807  14.2804  14.2805  14.2807  14.2810
    14.3832  14.3836  14.7530  14.7531  14.7532  14.7538  15.1673  15.1676
    16.3610  16.3627  16.3627  16.3633  16.7710  16.7714  16.9131  16.9136
    16.9253  16.9255  16.9258  16.9259  17.2723  17.2729  17.5827  17.5835
    17.6949  17.6955  17.7868  17.7872  17.9281  17.9283  17.9286  17.9289
    18.2792  18.2795  18.6969  18.6974  18.6980  18.6982  18.7389  18.7397
    19.3694  19.3694  20.0207  20.0224  20.0232  20.0238  20.4999  20.5012
    21.0770  21.0786  21.2442  21.2466  21.2479  21.2482  22.3517  22.3534
    22.5114  22.5124  22.7979  22.7989  22.9752  22.9765  23.3117  23.3127
    23.3143  23.3150  23.9788  23.9798  23.9808  23.9810  24.6384  24.6397
    24.7432  24.7441  24.7922  24.7931  24.7933  24.7939  24.8321  24.8322
    24.9207  24.9211  24.9463  24.9470  25.1174  25.1177  25.1200  25.1203
    25.7633  25.7639  25.7644  25.7653  25.7887  25.7893  26.0610  26.0614
    26.1149  26.1153  26.1164  26.1171  26.3758  26.3769  26.7345  26.7349
    26.9672  26.9675  26.9678  26.9685  27.4202  27.4215  27.9156  27.9162
    28.1349  28.1350  28.4178  28.4185  28.4832  28.4833  28.4840  28.4840
    28.6091  28.6096  28.6601  28.6603  29.6717  29.6720  29.6727  29.6728
    29.7658  29.7669  30.2850  30.2858  30.2858  30.2863  30.9415  30.9415
    30.9422  30.9424  31.0540  31.0547  31.4143  31.4148  31.4867  31.4871
    32.1337  32.1352  32.1818  32.1824  32.3875  32.3884  32.3886  32.3887
    32.6554  32.6571  33.0898  33.0901  33.0902  33.0904  33.2281  33.2283
    33.3137  33.3141  33.4499  33.4503  33.6008  33.6017  33.6019  33.6024
    33.9410  33.9421  33.9429  33.9436  34.2531  34.2532  34.2533  34.2541
    34.4897  34.4903  34.8087  34.8095  34.9869  34.9873  35.3158  35.3164
    35.4550  35.4560  35.7120  35.7120  35.7128  35.7128  35.7696  35.7696
    35.8008  35.8016  35.8444  35.8446  35.8453  35.8457  36.1378  36.1379
    36.3543  36.3547  36.7760  36.7765  36.8294  36.8298  36.8301  36.8303
    36.9857  36.9868  37.1696  37.1697  37.1700  37.1702  38.1613  38.1613
    38.2198  38.2212  38.2498  38.2505  38.2901  38.2902  38.5309  38.5320
    38.5322  38.5325  38.6125  38.6125  39.0701  39.0705  39.0708  39.0711
    39.0977  39.0981  39.5987  39.5992  40.3533  40.3537  40.3542  40.3546
    40.4983  40.4983  40.5766  40.5766  40.6154  40.6162  40.6166  40.6170
    40.9366  40.9378  40.9948  40.9955  41.0059  41.0065  41.0069  41.0070
    41.1740  41.1740  41.3936  41.3937  41.6224  41.6227  41.6227  41.6229
    41.6611  41.6611  41.6620  41.6626  41.8692  41.8701  42.0582  42.0587
    42.1960  42.1963  42.1972  42.1977  42.8106  42.8106  43.0096  43.0099
    43.0252  43.0258  43.0512  43.0527  43.2450  43.2454  43.3564  43.3567
    43.3572  43.3575  43.4181  43.4181  43.6297  43.6299  43.9458  43.9465
    43.9479  43.9480  44.1123  44.1128  44.2899  44.2901  44.3329  44.3351
    44.3352  44.3355  44.3976  44.3979  44.3981  44.3983  44.7485  44.7489
    44.7970  44.8000  44.8003  44.8003  44.8006  44.8010  44.8729  44.8741
    45.0863  45.0863  45.1442  45.1446  45.1451  45.1453  45.1712  45.1715
    45.2399  45.2402  45.6786  45.6791  45.6799  45.6800  45.7342  45.7347
    45.8532  45.8542  45.9044  45.9045  45.9053  45.9058  45.9152  45.9155
    46.4016  46.4019  46.4179  46.4187  46.4189  46.4192  46.6242  46.6252
    47.0416  47.0424  47.0426  47.0426  47.0586  47.0590  47.2884  47.2895
    47.2902  47.2905  47.4475  47.4483  47.5036  47.5036  47.8497  47.8500

     the Fermi energy is    12.5588 ev

!    total energy              =   -2922.33962452 Ry
     Harris-Foulkes estimate   =   -2922.33962534 Ry
     estimated scf accuracy    <       0.00000088 Ry

     The total energy is the sum of the following terms:

     one-electron contribution =    -784.88745530 Ry
     hartree contribution      =     606.81965119 Ry
     xc contribution           =    -525.15230033 Ry
     ewald contribution        =   -2219.17932603 Ry
     Hubbard energy            =       0.06046460 Ry
     smearing contrib. (-TS)   =      -0.00065865 Ry

     total magnetization       =    -0.00 Bohr mag/cell
     absolute magnetization    =     0.00 Bohr mag/cell

     convergence has been achieved in   7 iterations

     Writing output data file pwscf.save

     General routines

     Parallel routines
     Hubbard U routines

   This run was terminated on:   1:46:55  15Feb2014

   JOB DONE.