     Program PWSCF v.5.0.2 (svn rev. 9656) starts on 14Feb2014 at 12: 2:32

     Current dimensions of program PWSCF are:
     Max number of different atomic species (ntypx) = 10
     Max number of k-points (npk) =  40000
     Max angular momentum in pseudopotentials (lmaxx) =  3
     Reading input from alpha_-0.07/alpha_-0.07.in
Warning: card &IONS ignored
Warning: card / ignored
Warning: card &CELL ignored
Warning: card / ignored

     Subspace diagonalization in iterative solution of the eigenvalue problem:
     a serial algorithm will be used

     bravais-lattice index     =            0
     lattice parameter (alat)  =      18.6705  a.u.
     unit-cell volume          =    3899.7090 (a.u.)^3
     number of atoms/cell      =           48
     number of atomic types    =            3
     number of electrons       =       400.00
     number of Kohn-Sham states=          600
     kinetic-energy cutoff     =      40.0000  Ry
     charge density cutoff     =     500.0000  Ry
     convergence threshold     =      1.0E-06
     mixing beta               =       0.7000
     number of iterations used =            8  plain     mixing
     Exchange-correlation      = SLA  PW   PBE  PBE ( 1 4 3 4 0)
     EXX-fraction              =        0.00

     celldm(1)=  18.670494  celldm(2)=   0.000000  celldm(3)=   0.000000
     celldm(4)=   0.000000  celldm(5)=   0.000000  celldm(6)=   0.000000

     crystal axes: (cart. coord. in units of alat)
               a(1) = (   1.000000   0.000000   0.000000 )
               a(2) = (   0.000000   1.000000   0.000000 )
               a(3) = (   0.000000   0.000000   0.599190 )

     reciprocal axes: (cart. coord. in units 2 pi/alat)
               b(1) = (  1.000000  0.000000  0.000000 )
               b(2) = (  0.000000  1.000000  0.000000 )
               b(3) = (  0.000000  0.000000  1.668919 )

     PseudoPot. # 1 for Nb read from file:
     /home/camp/zhonxu/pseudo/nb_pbe_v1.uspp.F.UPF
     MD5 check sum: 573aab8a2fa660278ed4a62cd769473f
     Pseudo is Ultrasoft + core correction, Zval = 13.0
     Generated by new atomic code, or converted to UPF format
     Using radial grid of  887 points,  6 beta functions with:
                l(1) =   0
                l(2) =   0
                l(3) =   1
                l(4) =   1
                l(5) =   2
                l(6) =   2
     Q(r) pseudized with  6 coefficients,  rinner =    1.000   1.000   1.000
                                                       1.000   1.000

     PseudoPot. # 2 for O  read from file:
     /home/camp/zhonxu/pseudo/o_pbe_v1.01.uspp.F.UPF
     MD5 check sum: 2bcb18d16ea4b960afae9ec6d52f22d2
     Pseudo is Ultrasoft + core correction, Zval =  6.0
     Generated by new atomic code, or converted to UPF format
     Using radial grid of  737 points,  5 beta functions with:
                l(1) =   0
                l(2) =   0
                l(3) =   1
                l(4) =   1
                l(5) =   2
     Q(r) pseudized with  8 coefficients,  rinner =    0.900   0.900   0.900
                                                       0.900   0.900

     PseudoPot. # 3 for O  read from file:
     /home/camp/zhonxu/pseudo/o_pbe_v1.01.uspp.F.UPF
     MD5 check sum: 2bcb18d16ea4b960afae9ec6d52f22d2
     Pseudo is Ultrasoft + core correction, Zval =  6.0
     Generated by new atomic code, or converted to UPF format
     Using radial grid of  737 points,  5 beta functions with:
                l(1) =   0
                l(2) =   0
                l(3) =   1
                l(4) =   1
                l(5) =   2
     Q(r) pseudized with  8 coefficients,  rinner =    0.900   0.900   0.900
                                                       0.900   0.900

     atomic species   valence    mass     pseudopotential
        Nb0           13.00    92.90640     Nb( 1.00)
        O1             6.00    15.99940     O ( 1.00)
        O2             6.00    15.99940     O ( 1.00)

     Starting magnetic structure
     atomic species   magnetization
        Nb0          0.000
        O1           0.000
        O2           0.000

     Simplified LDA+U calculation (l_max = 2) with parameters (eV):
     atomic species    L          U    alpha       J0     beta
        Nb0            2     0.0000   0.0000   0.0000   0.0000
        O1             1     0.0000  -0.0700   0.0000   0.0000
        O2             1     0.0000   0.0000   0.0000   0.0000

      4 Sym. Ops. (no inversion) found

   Cartesian axes

     site n.     atom                  positions (alat units)
         1           Nb0 tau(   1) = (  -0.1450000  -0.1450000   0.0000000  )
         2           Nb0 tau(   2) = (   0.1050000   0.1050000   0.1497976  )
         3           Nb0 tau(   3) = (  -0.1450000  -0.1450000   0.2995951  )
         4           Nb0 tau(   4) = (   0.1050000   0.1050000   0.4493927  )
         5           Nb0 tau(   5) = (  -0.1450000   0.3550000   0.0000000  )
         6           Nb0 tau(   6) = (   0.1050000   0.6050000   0.1497976  )
         7           Nb0 tau(   7) = (  -0.1450000   0.3550000   0.2995951  )
         8           Nb0 tau(   8) = (   0.1050000   0.6050000   0.4493927  )
         9           Nb0 tau(   9) = (   0.3550000  -0.1450000   0.0000000  )
        10           Nb0 tau(  10) = (   0.6050000   0.1050000   0.1497976  )
        11           Nb0 tau(  11) = (   0.3550000  -0.1450000   0.2995951  )
        12           Nb0 tau(  12) = (   0.6050000   0.1050000   0.4493927  )
        13           Nb0 tau(  13) = (   0.3550000   0.3550000   0.0000000  )
        14           Nb0 tau(  14) = (   0.6050000   0.6050000   0.1497976  )
        15           Nb0 tau(  15) = (   0.3550000   0.3550000   0.2995951  )
        16           Nb0 tau(  16) = (   0.6050000   0.6050000   0.4493927  )
        17           O1  tau(  17) = (   0.0000000   0.0000000   0.0000000  )
        18           O2  tau(  18) = (  -0.2900000  -0.2900000   0.0000000  )
        19           O2  tau(  19) = (   0.2500000  -0.0400000   0.1497976  )
        20           O2  tau(  20) = (  -0.0400000   0.2500000   0.1497976  )
        21           O2  tau(  21) = (   0.0000000   0.0000000   0.2995951  )
        22           O2  tau(  22) = (  -0.2900000  -0.2900000   0.2995951  )
        23           O2  tau(  23) = (   0.2500000  -0.0400000   0.4493927  )
        24           O2  tau(  24) = (  -0.0400000   0.2500000   0.4493927  )
        25           O2  tau(  25) = (   0.0000000   0.5000000   0.0000000  )
        26           O2  tau(  26) = (  -0.2900000   0.2100000   0.0000000  )
        27           O2  tau(  27) = (   0.2500000   0.4600000   0.1497976  )
        28           O2  tau(  28) = (  -0.0400000   0.7500000   0.1497976  )
        29           O2  tau(  29) = (   0.0000000   0.5000000   0.2995951  )
        30           O2  tau(  30) = (  -0.2900000   0.2100000   0.2995951  )
        31           O2  tau(  31) = (   0.2500000   0.4600000   0.4493927  )
        32           O2  tau(  32) = (  -0.0400000   0.7500000   0.4493927  )
        33           O2  tau(  33) = (   0.5000000   0.0000000   0.0000000  )
        34           O2  tau(  34) = (   0.2100000  -0.2900000   0.0000000  )
        35           O2  tau(  35) = (   0.7500000  -0.0400000   0.1497976  )
        36           O2  tau(  36) = (   0.4600000   0.2500000   0.1497976  )
        37           O2  tau(  37) = (   0.5000000   0.0000000   0.2995951  )
        38           O2  tau(  38) = (   0.2100000  -0.2900000   0.2995951  )
        39           O2  tau(  39) = (   0.7500000  -0.0400000   0.4493927  )
        40           O2  tau(  40) = (   0.4600000   0.2500000   0.4493927  )
        41           O2  tau(  41) = (   0.5000000   0.5000000   0.0000000  )
        42           O2  tau(  42) = (   0.2100000   0.2100000   0.0000000  )
        43           O2  tau(  43) = (   0.7500000   0.4600000   0.1497976  )
        44           O2  tau(  44) = (   0.4600000   0.7500000   0.1497976  )
        45           O2  tau(  45) = (   0.5000000   0.5000000   0.2995951  )
        46           O2  tau(  46) = (   0.2100000   0.2100000   0.2995951  )
        47           O2  tau(  47) = (   0.7500000   0.4600000   0.4493927  )
        48           O2  tau(  48) = (   0.4600000   0.7500000   0.4493927  )

     number of k points=    42  Methfessel-Paxton smearing, width (Ry)=  0.0100
                       cart. coord. in units 2pi/alat
        k(    1) = (   0.0000000   0.0000000   0.0000000), wk =   0.0156250
        k(    2) = (   0.0000000   0.0000000   0.4172297), wk =   0.0312500
        k(    3) = (   0.0000000   0.0000000  -0.8344595), wk =   0.0156250
        k(    4) = (   0.0000000   0.2500000   0.0000000), wk =   0.0625000
        k(    5) = (   0.0000000   0.2500000   0.4172297), wk =   0.1250000
        k(    6) = (   0.0000000   0.2500000  -0.8344595), wk =   0.0625000
        k(    7) = (   0.0000000  -0.5000000   0.0000000), wk =   0.0312500
        k(    8) = (   0.0000000  -0.5000000   0.4172297), wk =   0.0625000
        k(    9) = (   0.0000000  -0.5000000  -0.8344595), wk =   0.0312500
        k(   10) = (   0.2500000   0.2500000   0.0000000), wk =   0.0312500
        k(   11) = (   0.2500000   0.2500000   0.4172297), wk =   0.0625000
        k(   12) = (   0.2500000   0.2500000  -0.8344595), wk =   0.0312500
        k(   13) = (   0.2500000  -0.5000000   0.0000000), wk =   0.0625000
        k(   14) = (   0.2500000  -0.5000000   0.4172297), wk =   0.1250000
        k(   15) = (   0.2500000  -0.5000000  -0.8344595), wk =   0.0625000
        k(   16) = (  -0.5000000  -0.5000000   0.0000000), wk =   0.0156250
        k(   17) = (  -0.5000000  -0.5000000   0.4172297), wk =   0.0312500
        k(   18) = (  -0.5000000  -0.5000000  -0.8344595), wk =   0.0156250
        k(   19) = (   0.2500000  -0.2500000   0.0000000), wk =   0.0312500
        k(   20) = (   0.2500000  -0.2500000   0.4172297), wk =   0.0625000
        k(   21) = (   0.2500000  -0.2500000  -0.8344595), wk =   0.0312500
        k(   22) = (   0.0000000   0.0000000   0.0000000), wk =   0.0156250
        k(   23) = (   0.0000000   0.0000000   0.4172297), wk =   0.0312500
        k(   24) = (   0.0000000   0.0000000  -0.8344595), wk =   0.0156250
        k(   25) = (   0.0000000   0.2500000   0.0000000), wk =   0.0625000
        k(   26) = (   0.0000000   0.2500000   0.4172297), wk =   0.1250000
        k(   27) = (   0.0000000   0.2500000  -0.8344595), wk =   0.0625000
        k(   28) = (   0.0000000  -0.5000000   0.0000000), wk =   0.0312500
        k(   29) = (   0.0000000  -0.5000000   0.4172297), wk =   0.0625000
        k(   30) = (   0.0000000  -0.5000000  -0.8344595), wk =   0.0312500
        k(   31) = (   0.2500000   0.2500000   0.0000000), wk =   0.0312500
        k(   32) = (   0.2500000   0.2500000   0.4172297), wk =   0.0625000
        k(   33) = (   0.2500000   0.2500000  -0.8344595), wk =   0.0312500
        k(   34) = (   0.2500000  -0.5000000   0.0000000), wk =   0.0625000
        k(   35) = (   0.2500000  -0.5000000   0.4172297), wk =   0.1250000
        k(   36) = (   0.2500000  -0.5000000  -0.8344595), wk =   0.0625000
[...]
  0.913  0.916  0.917
    eigenvectors:
  0.000  0.000  1.000
  0.500  0.500  0.000
  0.500  0.500  0.000
    occupations:
  0.917 -0.000 -0.000
 -0.000  0.914  0.002
 -0.000  0.002  0.914
   spin  2
    eigenvalues:
  0.913  0.916  0.917
    eigenvectors:
  0.000  0.000  1.000
  0.500  0.500  0.000
  0.500  0.500  0.000
    occupations:
  0.917 -0.000 -0.000
 -0.000  0.914  0.002
 -0.000  0.002  0.914
atomic mag. moment =     0.000000
atom   42   Tr[ns(na)] (up, down, total) =   2.74573  2.74573  5.49146
   spin  1
    eigenvalues:
  0.913  0.916  0.917
    eigenvectors:
  0.000  0.000  1.000
  0.500  0.500  0.000
  0.500  0.500  0.000
    occupations:
  0.917 -0.000 -0.000
 -0.000  0.914  0.002
 -0.000  0.002  0.914
   spin  2
    eigenvalues:
  0.913  0.916  0.917
    eigenvectors:
  0.000  0.000  1.000
  0.500  0.500  0.000
  0.500  0.500  0.000
    occupations:
  0.917 -0.000 -0.000
 -0.000  0.914  0.002
 -0.000  0.002  0.914
atomic mag. moment =     0.000000
atom   43   Tr[ns(na)] (up, down, total) =   2.74569  2.74569  5.49139
   spin  1
    eigenvalues:
  0.913  0.916  0.917
    eigenvectors:
  0.000  0.000  1.000
  0.500  0.500  0.000
  0.500  0.500  0.000
    occupations:
  0.917 -0.000 -0.000
 -0.000  0.914 -0.002
 -0.000 -0.002  0.914
   spin  2
    eigenvalues:
  0.913  0.916  0.917
    eigenvectors:
  0.000  0.000  1.000
  0.500  0.500  0.000
  0.500  0.500  0.000
    occupations:
  0.917 -0.000 -0.000
 -0.000  0.914 -0.002
 -0.000 -0.002  0.914
atomic mag. moment =     0.000000
atom   44   Tr[ns(na)] (up, down, total) =   2.74569  2.74569  5.49139
   spin  1
    eigenvalues:
  0.913  0.916  0.917
    eigenvectors:
  0.000  0.000  1.000
  0.500  0.500  0.000
  0.500  0.500  0.000
    occupations:
  0.917 -0.000 -0.000
 -0.000  0.914 -0.002
 -0.000 -0.002  0.914
   spin  2
    eigenvalues:
  0.913  0.916  0.917
    eigenvectors:
  0.000  0.000  1.000
  0.500  0.500  0.000
  0.500  0.500  0.000
    occupations:
  0.917 -0.000 -0.000
 -0.000  0.914 -0.002
 -0.000 -0.002  0.914
atomic mag. moment =     0.000000
atom   45   Tr[ns(na)] (up, down, total) =   2.74568  2.74568  5.49135
   spin  1
    eigenvalues:
  0.913  0.916  0.917
    eigenvectors:
  0.000  0.000  1.000
  0.500  0.500  0.000
  0.500  0.500  0.000
    occupations:
  0.917 -0.000 -0.000
 -0.000  0.914  0.002
 -0.000  0.002  0.914
   spin  2
    eigenvalues:
  0.913  0.916  0.917
    eigenvectors:
  0.000  0.000  1.000
  0.500  0.500  0.000
  0.500  0.500  0.000
    occupations:
  0.917 -0.000 -0.000
 -0.000  0.914  0.002
 -0.000  0.002  0.914
atomic mag. moment =     0.000000
atom   46   Tr[ns(na)] (up, down, total) =   2.74578  2.74578  5.49155
   spin  1
    eigenvalues:
  0.913  0.916  0.917
    eigenvectors:
  0.000  0.000  1.000
  0.500  0.500  0.000
  0.500  0.500  0.000
    occupations:
  0.917 -0.000 -0.000
 -0.000  0.914  0.002
 -0.000  0.002  0.914
   spin  2
    eigenvalues:
  0.913  0.916  0.917
    eigenvectors:
  0.000  0.000  1.000
  0.500  0.500  0.000
  0.500  0.500  0.000
    occupations:
  0.917 -0.000 -0.000
 -0.000  0.914  0.002
 -0.000  0.002  0.914
atomic mag. moment =     0.000000
atom   47   Tr[ns(na)] (up, down, total) =   2.74569  2.74569  5.49139
   spin  1
    eigenvalues:
  0.913  0.916  0.917
    eigenvectors:
  0.000  0.000  1.000
  0.500  0.500  0.000
  0.500  0.500  0.000
    occupations:
  0.917  0.000  0.000
  0.000  0.914 -0.002
  0.000 -0.002  0.914
   spin  2
    eigenvalues:
  0.913  0.916  0.917
    eigenvectors:
  0.000  0.000  1.000
  0.500  0.500  0.000
  0.500  0.500  0.000
    occupations:
  0.917  0.000  0.000
  0.000  0.914 -0.002
  0.000 -0.002  0.914
atomic mag. moment =     0.000000
atom   48   Tr[ns(na)] (up, down, total) =   2.74569  2.74569  5.49139
   spin  1
    eigenvalues:
  0.913  0.916  0.917
    eigenvectors:
  0.000  0.000  1.000
  0.500  0.500  0.000
  0.500  0.500  0.000
    occupations:
  0.917  0.000  0.000
  0.000  0.914 -0.002
  0.000 -0.002  0.914
   spin  2
    eigenvalues:
  0.913  0.916  0.917
    eigenvectors:
  0.000  0.000  1.000
  0.500  0.500  0.000
  0.500  0.500  0.000
    occupations:
  0.917  0.000  0.000
  0.000  0.914 -0.002
  0.000 -0.002  0.914
atomic mag. moment =     0.000000
N of occupied +U levels = 259.8469479
 --- exit write_ns ---

 ------ SPIN UP ------------

          k = 0.0000 0.0000 0.0000 ( 16699 PWs)   bands (ev):

   -44.1440 -44.1371 -44.1357 -44.1352 -44.1352 -44.1352 -44.1352 -44.1271
   -44.0587 -44.0573 -44.0566 -44.0565 -44.0565 -44.0565 -44.0565 -44.0564
   -20.7437 -20.7431 -20.7430 -20.7430 -20.7228 -20.7222 -20.7216 -20.7213
   -20.4915 -20.4911 -20.4785 -20.4782 -20.4299 -20.4295 -20.4291 -20.4290
   -20.3532 -20.3530 -20.3507 -20.3506 -20.3290 -20.3290 -20.3284 -20.3283
   -20.1866 -20.1862 -20.1860 -20.1859 -20.1297 -20.1294 -20.1216 -20.1214
   -19.9731 -19.9721 -19.9711 -19.9705 -19.9702 -19.9701 -19.9699 -19.9699
   -19.8897 -19.8698 -19.8688 -19.8686 -19.8686 -19.8686 -19.8686 -19.8481
    -7.7321  -7.3738  -7.3723  -7.2302  -7.2302  -7.2301  -7.2270  -7.1351
    -7.0266  -7.0265  -7.0262  -7.0229  -6.8328  -6.8313  -6.7842  -6.7826
    -6.5809  -6.5808  -6.5805  -6.5773  -6.5223  -6.5206  -6.4623  -6.4605
    -6.1662  -6.1646  -6.1007  -6.0990  -6.0024  -6.0024  -6.0023  -5.9989
     4.2569   4.3360   4.3388   4.4495   4.9183   4.9215   4.9224   4.9227
     5.0431   5.1583   5.1617   5.1622   5.1625   5.4134   5.4171   5.4177
     5.4179   5.4666   5.4683   5.5463   5.5466   5.7935   5.7954   6.2056
     6.2066   6.2631   6.2647   6.2912   6.2942   6.2949   6.2950   6.5364
     6.5386   6.5718   6.5748   6.5760   6.5764   6.5803   6.5806   6.5892
     6.5909   6.6677   6.6698   6.7011   6.7030   6.7256   6.7294   6.7294
     6.7295   7.1621   7.1652   7.1661   7.1664   7.4477   7.4502   7.4561
     7.4579   7.5706   7.5732   7.6028   7.6033   7.8760   7.8785   7.8793
     7.8793   8.0298   8.0321   8.0324   8.0330   8.3844   8.3867   8.4064
     8.4106   8.4106   8.4107   8.4218   8.4225   8.4392   8.6745   8.6752
     8.7449   8.7479   8.7483   8.7487   8.8166   8.8187   9.0219   9.0227
     9.1098   9.1133   9.1135   9.1139   9.1363   9.1807   9.1809   9.8048
    11.3527  11.4059  11.4059  11.6102  12.0970  12.0970  12.0970  12.0971
    12.1746  12.1749  12.1750  12.1750  12.7942  13.3233  13.3235  13.3272
    13.3272  13.4972  13.4975  13.5420  13.5423  13.7309  13.7312  13.7602
    13.7602  14.2261  14.2264  14.2264  14.2264  14.4204  14.4209  14.4210
    14.4211  14.4537  14.4540  14.4541  14.4542  14.7414  14.7417  15.3193
    15.3194  15.3378  15.3380  15.3380  15.3380  15.3471  15.3473  15.8755
    15.9964  16.4049  16.5467  16.5469  16.5469  16.5473  17.0592  17.0598
    17.2712  17.2715  17.2716  17.2716  17.3334  17.3337  17.3372  17.3373
    17.3375  17.3376  17.8832  17.8833  17.9060  17.9061  17.9085  17.9085
    18.0222  18.0225  18.0565  18.0566  19.1877  19.1878  19.1886  19.1893
    19.5881  19.5881  19.5883  19.5883  19.8344  20.1364  20.1366  20.5009
    20.5012  20.9904  20.9905  21.1785  21.1785  21.1790  21.1792  21.7326
    21.7328  21.9621  21.9621  21.9712  21.9715  22.5178  22.5178  22.5178
    22.5181  23.0041  23.0043  23.6550  23.6551  23.6553  23.6553  23.7228
    23.7646  23.7647  23.7648  23.7650  24.0469  24.0469  24.4402  24.4407
    24.4410  24.4412  24.8625  24.8627  25.0884  25.2601  25.2605  25.4465
    25.8546  25.8551  26.1731  26.1732  26.3705  26.3707  26.3851  26.3852
    26.3854  26.3857  26.4260  26.4262  26.4262  26.4266  27.1556  27.3590
    27.3592  27.3595  27.3595  27.3643  27.3644  27.5210  27.5210  27.7349
    27.7351  28.3926  28.3926  28.3933  28.3934  28.5203  28.5928  28.5929
    29.0225  29.0227  29.0227  29.0231  29.9298  29.9300  29.9308  29.9309
    30.4146  30.4149  30.4149  30.4150  30.6867  30.6867  30.6878  30.6884
    30.8128  30.8130  31.3030  31.3031  31.3512  31.3513  31.4048  31.4049
    31.4878  31.7165  31.7166  32.0944  32.4872  32.4875  32.5181  32.5183
    32.5184  32.5187  32.5518  32.5522  32.5728  32.5729  32.9988  33.1513
    33.1515  33.1516  33.1521  33.4527  33.4527  33.4530  33.4531  33.6435
    33.6437  33.8968  33.8971  34.2445  34.2446  34.2448  34.2450  34.2713
    34.2715  34.2987  34.2990  34.5797  34.5799  34.9064  34.9065  34.9067
    34.9071  35.3370  35.3371  36.1876  36.1876  36.1877  36.1881  36.1931
    36.1934  36.4331  36.4331  36.4332  36.4333  36.4776  36.6412  36.6412
    36.7655  36.7660  36.9828  37.1538  37.1539  37.1540  37.1542  37.2137
    37.2138  37.7220  37.7223  38.0874  38.0874  38.0880  38.0880  38.2163
    38.5404  38.5404  38.5405  38.5411  39.2294  39.2295  39.2302  39.2305
    39.3101  39.3105  39.3604  39.3608  39.6951  39.6952  39.6953  39.6954
    39.7118  39.7122  39.7650  39.7655  39.8235  40.1644  40.2539  40.2542
    40.2923  40.2926  40.6094  40.6095  40.6098  40.6104  40.8498  40.8499
    40.8503  40.8504  40.9227  40.9228  41.2431  41.2433  41.4317  41.4323
    41.5698  41.5703  41.8972  41.9097  41.9098  41.9099  41.9105  41.9351
    41.9353  42.0181  42.1247  42.1250  42.1251  42.1252  42.1567  42.3228
    42.3230  42.3413  42.3415  42.3416  42.3423  42.3620  42.3620  42.3673
    42.3674  42.3677  42.3680  42.3742  42.3750  42.6822  42.6824  42.7121
    42.7123  42.8448  42.8450  42.9673  42.9678  43.0972  43.1874  43.1876
    43.2323  43.2328  43.7212  43.7214  43.7216  43.7217  43.7265  43.7267
    43.7267  43.7275  43.7286  43.7287  43.7289  43.7293  43.8786  43.8791
    44.1221  44.1224  44.3300  44.3301  44.5071  44.5073  44.5075  44.5079
    44.8536  44.8536  45.1255  45.3171  45.3176  45.3249  45.3250  45.8282
    45.8286  45.8286  45.8286  45.8286  45.8294  46.2942  46.2942  46.2944
    46.2946  46.5335  46.5335  46.5342  46.5347  46.6933  46.6933  46.8258
    46.8259  46.8260  46.8262  46.8653  46.9119  46.9120  46.9124  46.9126
    46.9585  46.9585  47.0462  47.0465  47.1009  47.1011  47.1011  47.1013
    47.3128  47.3132  47.5841  47.5846  47.9144  48.2489  48.2492  48.2493

[...]

          k =-0.5000-0.5000 0.0000 ( 16684 PWs)   bands (ev):

[...]

 ------ SPIN DOWN ----------

[...]

          k =-0.5000-0.5000-0.8345 ( 16640 PWs)   bands (ev):

[...]

          k = 0.2500-0.2500-0.8345 ( 16644 PWs)   bands (ev):

   -44.1017 -44.1017 -44.0994 -44.0989 -44.0986 -44.0982 -44.0972 -44.0971
   -44.0960 -44.0953 -44.0943 -44.0942 -44.0942 -44.0939 -44.0913 -44.0910
   -20.4303 -20.4301 -20.4300 -20.4299 -20.4261 -20.4260 -20.4234 -20.4233
   -20.4229 -20.4228 -20.4215 -20.4215 -20.4190 -20.4186 -20.4135 -20.4131
   -20.3145 -20.3144 -20.3120 -20.3119 -20.2929 -20.2926 -20.2925 -20.2924
   -20.2904 -20.2901 -20.2873 -20.2871 -20.2721 -20.2710 -20.2705 -20.2705
   -20.0794 -20.0790 -20.0784 -20.0784 -20.0661 -20.0656 -20.0648 -20.0645
   -20.0643 -20.0643 -20.0633 -20.0631 -20.0540 -20.0540 -20.0516 -20.0516
    -7.1506  -7.1488  -7.0258  -7.0258  -7.0256  -7.0228  -6.9565  -6.9544
    -6.8949  -6.8939  -6.8784  -6.8782  -6.8782  -6.8740  -6.7877  -6.7860
    -6.4889  -6.4862  -6.4819  -6.4818  -6.4645  -6.4644  -6.4643  -6.4640
    -6.4565  -6.4562  -6.4562  -6.4530  -6.4491  -6.4424  -6.4415  -6.4404
     5.0891   5.0912   5.1749   5.1763   5.1912   5.1914   5.1915   5.1916
     5.2265   5.2327   5.2405   5.2433   5.2453   5.2454   5.3057   5.3079
     5.5983   5.6002   5.6575   5.6580   5.8527   5.8562   5.8568   5.8569
     5.8996   5.9008   6.0959   6.0992   6.1004   6.1006   6.1264   6.1268
     6.1428   6.1443   6.4792   6.4818   6.4839   6.4839   6.7370   6.7370
     6.7644   6.7671   6.7672   6.7678   6.7679   6.7679   6.9639   6.9650
     6.9657   6.9660   7.1739   7.1806   7.1835   7.1848   7.2302   7.2329
     7.6971   7.6992   7.7020   7.7021   7.8695   7.8701   7.8923   7.8925
     7.8938   7.8939   7.9169   7.9179   8.0167   8.0169   8.0330   8.0344
     8.0506   8.0521   8.1599   8.1610   8.1614   8.1617   8.3887   8.3894
     8.5407   8.5439   8.6312   8.6336   8.8038   8.8048   8.8054   8.8056
     8.9347   8.9350   9.1630   9.1665   9.1666   9.1669   9.3530   9.3547
    12.6431  12.6432  12.7570  12.7570  12.7572  12.7572  12.8685  12.8688
    12.9783  12.9786  13.0509  13.0510  13.1033  13.1033  13.1033  13.1033
    13.1754  13.1754  13.2518  13.2518  13.2909  13.2909  13.2909  13.2910
    13.5410  13.5411  13.5876  13.5877  13.7265  13.7266  13.7367  13.7369
    13.7369  13.7370  14.0792  14.0792  14.2788  14.2790  14.2790  14.2790
    14.3816  14.3818  14.7514  14.7516  14.7517  14.7517  15.1657  15.1659
    16.3609  16.3613  16.3613  16.3620  16.7694  16.7696  16.9116  16.9118
    16.9238  16.9239  16.9239  16.9240  17.2714  17.2717  17.5814  17.5818
    17.6935  17.6938  17.7859  17.7862  17.9267  17.9268  17.9270  17.9270
    18.2775  18.2776  18.6964  18.6964  18.6967  18.6969  18.7392  18.7396
    19.3677  19.3677  20.0219  20.0222  20.0226  20.0234  20.5005  20.5011
    21.0780  21.0787  21.2464  21.2465  21.2472  21.2483  22.3523  22.3531
    22.5124  22.5129  22.7984  22.7989  22.9752  22.9758  23.3131  23.3135
    23.3143  23.3148  23.9798  23.9799  23.9803  23.9808  24.6394  24.6400
    24.7434  24.7438  24.7925  24.7928  24.7928  24.7932  24.8328  24.8329
    24.9207  24.9209  24.9466  24.9469  25.1184  25.1186  25.1198  25.1199
    25.7640  25.7644  25.7647  25.7650  25.7891  25.7894  26.0614  26.0616
    26.1154  26.1157  26.1163  26.1164  26.3760  26.3765  26.7345  26.7347
    26.9675  26.9678  26.9680  26.9681  27.4206  27.4212  27.9159  27.9162
    28.1347  28.1347  28.4179  28.4182  28.4832  28.4832  28.4835  28.4836
    28.6090  28.6092  28.6602  28.6603  29.6719  29.6719  29.6723  29.6724
    29.7661  29.7666  30.2852  30.2854  30.2854  30.2858  30.9416  30.9417
    30.9421  30.9421  31.0540  31.0543  31.4140  31.4143  31.4865  31.4867
    32.1347  32.1354  32.1816  32.1818  32.3879  32.3880  32.3881  32.3885
    32.6560  32.6568  33.0898  33.0899  33.0899  33.0901  33.2279  33.2279
    33.3132  33.3134  33.4503  33.4505  33.6011  33.6013  33.6015  33.6019
    33.9422  33.9425  33.9429  33.9434  34.2531  34.2535  34.2535  34.2536
    34.4896  34.4899  34.8092  34.8096  34.9868  34.9870  35.3160  35.3162
    35.4552  35.4557  35.7121  35.7121  35.7125  35.7125  35.7696  35.7696
    35.8009  35.8013  35.8449  35.8451  35.8454  35.8455  36.1374  36.1374
    36.3540  36.3542  36.7761  36.7763  36.8295  36.8296  36.8298  36.8299
    36.9863  36.9868  37.1695  37.1696  37.1697  37.1698  38.1610  38.1610
    38.2204  38.2211  38.2499  38.2503  38.2904  38.2905  38.5315  38.5316
    38.5317  38.5322  38.6126  38.6126  39.0704  39.0706  39.0707  39.0709
    39.0972  39.0974  39.5992  39.5994  40.3537  40.3539  40.3541  40.3543
    40.4988  40.4989  40.5762  40.5762  40.6159  40.6161  40.6163  40.6167
    40.9377  40.9383  40.9952  40.9955  41.0058  41.0059  41.0061  41.0063
    41.1738  41.1738  41.3926  41.3927  41.6225  41.6226  41.6226  41.6227
    41.6613  41.6616  41.6621  41.6621  41.8697  41.8701  42.0584  42.0586
    42.1967  42.1969  42.1973  42.1974  42.8107  42.8107  43.0102  43.0103
    43.0254  43.0257  43.0520  43.0526  43.2449  43.2450  43.3566  43.3567
    43.3569  43.3571  43.4176  43.4176  43.6292  43.6293  43.9469  43.9470
    43.9476  43.9479  44.1128  44.1131  44.2898  44.2899  44.3343  44.3344
    44.3345  44.3355  44.3975  44.3975  44.3976  44.3978  44.7478  44.7480
    44.7995  44.7998  44.8000  44.8000  44.8000  44.8016  44.8737  44.8743
    45.0855  45.0855  45.1443  45.1444  45.1446  45.1448  45.1710  45.1712
    45.2403  45.2404  45.6793  45.6793  45.6797  45.6799  45.7340  45.7342
    45.8539  45.8544  45.9050  45.9053  45.9056  45.9056  45.9149  45.9151
    46.4015  46.4017  46.4185  46.4186  46.4187  46.4191  46.6246  46.6250
    47.0421  47.0421  47.0422  47.0426  47.0590  47.0591  47.2894  47.2896
    47.2899  47.2904  47.4478  47.4481  47.5032  47.5033  47.8496  47.8498

     the Fermi energy is    12.5573 ev

!    total energy              =   -2922.42838890 Ry
     Harris-Foulkes estimate   =   -2922.42838920 Ry
     estimated scf accuracy    <       0.00000032 Ry

     The total energy is the sum of the following terms:

     one-electron contribution =    -784.88574247 Ry
     hartree contribution      =     606.82119002 Ry
     xc contribution           =    -525.15558727 Ry
     ewald contribution        =   -2219.17932603 Ry
     Hubbard energy            =      -0.02826952 Ry
     smearing contrib. (-TS)   =      -0.00065362 Ry

     total magnetization       =    -0.00 Bohr mag/cell
     absolute magnetization    =     0.00 Bohr mag/cell

     convergence has been achieved in   7 iterations

     Writing output data file pwscf.save

     General routines

     Parallel routines
     Hubbard U routines

   This run was terminated on:  15:27:41  14Feb2014

   JOB DONE.