     Program PWSCF v.5.0.2 (svn rev. 9656) starts on 14Feb2014 at 18:29:13

     Current dimensions of program PWSCF are:
     Max number of different atomic species (ntypx) = 10
     Max number of k-points (npk) =  40000
     Max angular momentum in pseudopotentials (lmaxx) =  3
     Reading input from alpha_0.07/alpha_0.07.in
Warning: card &IONS ignored
Warning: card / ignored
Warning: card &CELL ignored
Warning: card / ignored

     Subspace diagonalization in iterative solution of the eigenvalue problem:
     a serial algorithm will be used

     bravais-lattice index     =            0
     lattice parameter (alat)  =      18.6705  a.u.
     unit-cell volume          =    3899.7090 (a.u.)^3
     number of atoms/cell      =           48
     number of atomic types    =            3
     number of electrons       =       400.00
     number of Kohn-Sham states=          600
     kinetic-energy cutoff     =      40.0000  Ry
     charge density cutoff     =     500.0000  Ry
     convergence threshold     =      1.0E-06
     mixing beta               =       0.7000
     number of iterations used =            8  plain     mixing
     Exchange-correlation      = SLA  PW   PBE  PBE ( 1 4 3 4 0)
     EXX-fraction              =        0.00

     celldm(1)=  18.670494  celldm(2)=   0.000000  celldm(3)=   0.000000
     celldm(4)=   0.000000  celldm(5)=   0.000000  celldm(6)=   0.000000

     crystal axes: (cart. coord. in units of alat)
               a(1) = (   1.000000   0.000000   0.000000 )
               a(2) = (   0.000000   1.000000   0.000000 )
               a(3) = (   0.000000   0.000000   0.599190 )

     reciprocal axes: (cart. coord. in units 2 pi/alat)
               b(1) = (  1.000000  0.000000  0.000000 )
               b(2) = (  0.000000  1.000000  0.000000 )
               b(3) = (  0.000000  0.000000  1.668919 )

     PseudoPot. # 1 for Nb read from file:
     /home/camp/zhonxu/pseudo/nb_pbe_v1.uspp.F.UPF
     MD5 check sum: 573aab8a2fa660278ed4a62cd769473f
     Pseudo is Ultrasoft + core correction, Zval = 13.0
     Generated by new atomic code, or converted to UPF format
     Using radial grid of  887 points,  6 beta functions with:
                l(1) =   0
                l(2) =   0
                l(3) =   1
                l(4) =   1
                l(5) =   2
                l(6) =   2
     Q(r) pseudized with  6 coefficients,  rinner =    1.000   1.000   1.000
                                                       1.000   1.000

     PseudoPot. # 2 for O  read from file:
     /home/camp/zhonxu/pseudo/o_pbe_v1.01.uspp.F.UPF
     MD5 check sum: 2bcb18d16ea4b960afae9ec6d52f22d2
     Pseudo is Ultrasoft + core correction, Zval =  6.0
     Generated by new atomic code, or converted to UPF format
     Using radial grid of  737 points,  5 beta functions with:
                l(1) =   0
                l(2) =   0
                l(3) =   1
                l(4) =   1
                l(5) =   2
     Q(r) pseudized with  8 coefficients,  rinner =    0.900   0.900   0.900
                                                       0.900   0.900

     PseudoPot. # 3 for O  read from file:
     /home/camp/zhonxu/pseudo/o_pbe_v1.01.uspp.F.UPF
     MD5 check sum: 2bcb18d16ea4b960afae9ec6d52f22d2
     Pseudo is Ultrasoft + core correction, Zval =  6.0
     Generated by new atomic code, or converted to UPF format
     Using radial grid of  737 points,  5 beta functions with:
                l(1) =   0
                l(2) =   0
                l(3) =   1
                l(4) =   1
                l(5) =   2
     Q(r) pseudized with  8 coefficients,  rinner =    0.900   0.900   0.900
                                                       0.900   0.900

     atomic species   valence    mass     pseudopotential
        Nb0           13.00    92.90640     Nb( 1.00)
        O1             6.00    15.99940     O ( 1.00)
        O2             6.00    15.99940     O ( 1.00)

     Starting magnetic structure
     atomic species   magnetization
        Nb0          0.000
        O1           0.000
        O2           0.000

     Simplified LDA+U calculation (l_max = 2) with parameters (eV):
     atomic species    L          U    alpha       J0     beta
        Nb0            2     0.0000   0.0000   0.0000   0.0000
        O1             1     0.0000   0.0700   0.0000   0.0000
        O2             1     0.0000   0.0000   0.0000   0.0000

      4 Sym. Ops. (no inversion) found

   Cartesian axes

     site n.     atom                  positions (alat units)
         1           Nb0 tau(   1) = (  -0.1450000  -0.1450000   0.0000000  )
         2           Nb0 tau(   2) = (   0.1050000   0.1050000   0.1497976  )
         3           Nb0 tau(   3) = (  -0.1450000  -0.1450000   0.2995951  )
         4           Nb0 tau(   4) = (   0.1050000   0.1050000   0.4493927  )
         5           Nb0 tau(   5) = (  -0.1450000   0.3550000   0.0000000  )
         6           Nb0 tau(   6) = (   0.1050000   0.6050000   0.1497976  )
         7           Nb0 tau(   7) = (  -0.1450000   0.3550000   0.2995951  )
         8           Nb0 tau(   8) = (   0.1050000   0.6050000   0.4493927  )
         9           Nb0 tau(   9) = (   0.3550000  -0.1450000   0.0000000  )
        10           Nb0 tau(  10) = (   0.6050000   0.1050000   0.1497976  )
        11           Nb0 tau(  11) = (   0.3550000  -0.1450000   0.2995951  )
        12           Nb0 tau(  12) = (   0.6050000   0.1050000   0.4493927  )
        13           Nb0 tau(  13) = (   0.3550000   0.3550000   0.0000000  )
        14           Nb0 tau(  14) = (   0.6050000   0.6050000   0.1497976  )
        15           Nb0 tau(  15) = (   0.3550000   0.3550000   0.2995951  )
        16           Nb0 tau(  16) = (   0.6050000   0.6050000   0.4493927  )
        17           O1  tau(  17) = (   0.0000000   0.0000000   0.0000000  )
        18           O2  tau(  18) = (  -0.2900000  -0.2900000   0.0000000  )
        19           O2  tau(  19) = (   0.2500000  -0.0400000   0.1497976  )
        20           O2  tau(  20) = (  -0.0400000   0.2500000   0.1497976  )
        21           O2  tau(  21) = (   0.0000000   0.0000000   0.2995951  )
        22           O2  tau(  22) = (  -0.2900000  -0.2900000   0.2995951  )
        23           O2  tau(  23) = (   0.2500000  -0.0400000   0.4493927  )
        24           O2  tau(  24) = (  -0.0400000   0.2500000   0.4493927  )
        25           O2  tau(  25) = (   0.0000000   0.5000000   0.0000000  )
        26           O2  tau(  26) = (  -0.2900000   0.2100000   0.0000000  )
        27           O2  tau(  27) = (   0.2500000   0.4600000   0.1497976  )
        28           O2  tau(  28) = (  -0.0400000   0.7500000   0.1497976  )
        29           O2  tau(  29) = (   0.0000000   0.5000000   0.2995951  )
        30           O2  tau(  30) = (  -0.2900000   0.2100000   0.2995951  )
        31           O2  tau(  31) = (   0.2500000   0.4600000   0.4493927  )
        32           O2  tau(  32) = (  -0.0400000   0.7500000   0.4493927  )
        33           O2  tau(  33) = (   0.5000000   0.0000000   0.0000000  )
        34           O2  tau(  34) = (   0.2100000  -0.2900000   0.0000000  )
        35           O2  tau(  35) = (   0.7500000  -0.0400000   0.1497976  )
        36           O2  tau(  36) = (   0.4600000   0.2500000   0.1497976  )
        37           O2  tau(  37) = (   0.5000000   0.0000000   0.2995951  )
        38           O2  tau(  38) = (   0.2100000  -0.2900000   0.2995951  )
        39           O2  tau(  39) = (   0.7500000  -0.0400000   0.4493927  )
        40           O2  tau(  40) = (   0.4600000   0.2500000   0.4493927  )
        41           O2  tau(  41) = (   0.5000000   0.5000000   0.0000000  )
        42           O2  tau(  42) = (   0.2100000   0.2100000   0.0000000  )
        43           O2  tau(  43) = (   0.7500000   0.4600000   0.1497976  )
        44           O2  tau(  44) = (   0.4600000   0.7500000   0.1497976  )
        45           O2  tau(  45) = (   0.5000000   0.5000000   0.2995951  )
        46           O2  tau(  46) = (   0.2100000   0.2100000   0.2995951  )
        47           O2  tau(  47) = (   0.7500000   0.4600000   0.4493927  )
        48           O2  tau(  48) = (   0.4600000   0.7500000   0.4493927  )

     number of k points=    42  Methfessel-Paxton smearing, width (Ry)=  0.0100
                       cart. coord. in units 2pi/alat
        k(    1) = (   0.0000000   0.0000000   0.0000000), wk =   0.0156250
        k(    2) = (   0.0000000   0.0000000   0.4172297), wk =   0.0312500
        k(    3) = (   0.0000000   0.0000000  -0.8344595), wk =   0.0156250
        k(    4) = (   0.0000000   0.2500000   0.0000000), wk =   0.0625000
        k(    5) = (   0.0000000   0.2500000   0.4172297), wk =   0.1250000
        k(    6) = (   0.0000000   0.2500000  -0.8344595), wk =   0.0625000
        k(    7) = (   0.0000000  -0.5000000   0.0000000), wk =   0.0312500
        k(    8) = (   0.0000000  -0.5000000   0.4172297), wk =   0.0625000
        k(    9) = (   0.0000000  -0.5000000  -0.8344595), wk =   0.0312500
        k(   10) = (   0.2500000   0.2500000   0.0000000), wk =   0.0312500
        k(   11) = (   0.2500000   0.2500000   0.4172297), wk =   0.0625000
        k(   12) = (   0.2500000   0.2500000  -0.8344595), wk =   0.0312500
        k(   13) = (   0.2500000  -0.5000000   0.0000000), wk =   0.0625000
        k(   14) = (   0.2500000  -0.5000000   0.4172297), wk =   0.1250000
        k(   15) = (   0.2500000  -0.5000000  -0.8344595), wk =   0.0625000
        k(   16) = (  -0.5000000  -0.5000000   0.0000000), wk =   0.0156250
        k(   17) = (  -0.5000000  -0.5000000   0.4172297), wk =   0.0312500
        k(   18) = (  -0.5000000  -0.5000000  -0.8344595), wk =   0.0156250
        k(   19) = (   0.2500000  -0.2500000   0.0000000), wk =   0.0312500
        k(   20) = (   0.2500000  -0.2500000   0.4172297), wk =   0.0625000
        k(   21) = (   0.2500000  -0.2500000  -0.8344595), wk =   0.0312500
        k(   22) = (   0.0000000   0.0000000   0.0000000), wk =   0.0156250
        k(   23) = (   0.0000000   0.0000000   0.4172297), wk =   0.0312500
        k(   24) = (   0.0000000   0.0000000  -0.8344595), wk =   0.0156250
        k(   25) = (   0.0000000   0.2500000   0.0000000), wk =   0.0625000
        k(   26) = (   0.0000000   0.2500000   0.4172297), wk =   0.1250000
        k(   27) = (   0.0000000   0.2500000  -0.8344595), wk =   0.0625000
        k(   28) = (   0.0000000  -0.5000000   0.0000000), wk =   0.0312500
        k(   29) = (   0.0000000  -0.5000000   0.4172297), wk =   0.0625000
        k(   30) = (   0.0000000  -0.5000000  -0.8344595), wk =   0.0312500
        k(   31) = (   0.2500000   0.2500000   0.0000000), wk =   0.0312500
        k(   32) = (   0.2500000   0.2500000   0.4172297), wk =   0.0625000
        k(   33) = (   0.2500000   0.2500000  -0.8344595), wk =   0.0312500
        k(   34) = (   0.2500000  -0.5000000   0.0000000), wk =   0.0625000
        k(   35) = (   0.2500000  -0.5000000   0.4172297), wk =   0.1250000
        k(   36) = (   0.2500000  -0.5000000  -0.8344595), wk =   0.0625000
[...]
  0.913  0.916  0.917
    eigenvectors:
  0.000  0.000  1.000
  0.500  0.500  0.000
  0.500  0.500  0.000
    occupations:
  0.917 -0.000 -0.000
 -0.000  0.914  0.002
 -0.000  0.002  0.914
   spin  2
    eigenvalues:
  0.913  0.916  0.917
    eigenvectors:
  0.000  0.000  1.000
  0.500  0.500  0.000
  0.500  0.500  0.000
    occupations:
  0.917 -0.000 -0.000
 -0.000  0.914  0.002
 -0.000  0.002  0.914
atomic mag. moment =     0.000000
atom   42   Tr[ns(na)] (up, down, total) =   2.74570  2.74570  5.49141
   spin  1
    eigenvalues:
  0.913  0.916  0.917
    eigenvectors:
  0.000  0.000  1.000
  0.500  0.500  0.000
  0.500  0.500  0.000
    occupations:
  0.917 -0.000 -0.000
 -0.000  0.914  0.002
 -0.000  0.002  0.914
   spin  2
    eigenvalues:
  0.913  0.916  0.917
    eigenvectors:
  0.000  0.000  1.000
  0.500  0.500  0.000
  0.500  0.500  0.000
    occupations:
  0.917 -0.000 -0.000
 -0.000  0.914  0.002
 -0.000  0.002  0.914
atomic mag. moment =     0.000000
atom   43   Tr[ns(na)] (up, down, total) =   2.74569  2.74569  5.49138
   spin  1
    eigenvalues:
  0.913  0.916  0.917
    eigenvectors:
  0.000  0.000  1.000
  0.500  0.500  0.000
  0.500  0.500  0.000
    occupations:
  0.917  0.000  0.000
  0.000  0.914 -0.002
  0.000 -0.002  0.914
   spin  2
    eigenvalues:
  0.913  0.916  0.917
    eigenvectors:
  0.000  0.000  1.000
  0.500  0.500  0.000
  0.500  0.500  0.000
    occupations:
  0.917  0.000  0.000
  0.000  0.914 -0.002
  0.000 -0.002  0.914
atomic mag. moment =     0.000000
atom   44   Tr[ns(na)] (up, down, total) =   2.74569  2.74569  5.49138
   spin  1
    eigenvalues:
  0.913  0.916  0.917
    eigenvectors:
  0.000  0.000  1.000
  0.500  0.500  0.000
  0.500  0.500  0.000
    occupations:
  0.917  0.000  0.000
  0.000  0.914 -0.002
  0.000 -0.002  0.914
   spin  2
    eigenvalues:
  0.913  0.916  0.917
    eigenvectors:
  0.000  0.000  1.000
  0.500  0.500  0.000
  0.500  0.500  0.000
    occupations:
  0.917  0.000  0.000
  0.000  0.914 -0.002
  0.000 -0.002  0.914
atomic mag. moment =     0.000000
atom   45   Tr[ns(na)] (up, down, total) =   2.74571  2.74571  5.49141
   spin  1
    eigenvalues:
  0.913  0.916  0.917
    eigenvectors:
  0.000  0.000  1.000
  0.500  0.500  0.000
  0.500  0.500  0.000
    occupations:
  0.917 -0.000 -0.000
 -0.000  0.914  0.002
 -0.000  0.002  0.914
   spin  2
    eigenvalues:
  0.913  0.916  0.917
    eigenvectors:
  0.000  0.000  1.000
  0.500  0.500  0.000
  0.500  0.500  0.000
    occupations:
  0.917 -0.000 -0.000
 -0.000  0.914  0.002
 -0.000  0.002  0.914
atomic mag. moment =     0.000000
atom   46   Tr[ns(na)] (up, down, total) =   2.74563  2.74563  5.49126
   spin  1
    eigenvalues:
  0.913  0.916  0.917
    eigenvectors:
  0.000  0.000  1.000
  0.500  0.500  0.000
  0.500  0.500  0.000
    occupations:
  0.917 -0.000 -0.000
 -0.000  0.914  0.002
 -0.000  0.002  0.914
   spin  2
    eigenvalues:
  0.913  0.916  0.917
    eigenvectors:
  0.000  0.000  1.000
  0.500  0.500  0.000
  0.500  0.500  0.000
    occupations:
  0.917 -0.000 -0.000
 -0.000  0.914  0.002
 -0.000  0.002  0.914
atomic mag. moment =     0.000000
atom   47   Tr[ns(na)] (up, down, total) =   2.74569  2.74569  5.49138
   spin  1
    eigenvalues:
  0.913  0.916  0.917
    eigenvectors:
  0.000  0.000  1.000
  0.500  0.500  0.000
  0.500  0.500  0.000
    occupations:
  0.917 -0.000 -0.000
 -0.000  0.914 -0.002
 -0.000 -0.002  0.914
   spin  2
    eigenvalues:
  0.913  0.916  0.917
    eigenvectors:
  0.000  0.000  1.000
  0.500  0.500  0.000
  0.500  0.500  0.000
    occupations:
  0.917 -0.000 -0.000
 -0.000  0.914 -0.002
 -0.000 -0.002  0.914
atomic mag. moment =     0.000000
atom   48   Tr[ns(na)] (up, down, total) =   2.74569  2.74569  5.49138
   spin  1
    eigenvalues:
  0.913  0.916  0.917
    eigenvectors:
  0.000  0.000  1.000
  0.500  0.500  0.000
  0.500  0.500  0.000
    occupations:
  0.917 -0.000 -0.000
 -0.000  0.914 -0.002
 -0.000 -0.002  0.914
   spin  2
    eigenvalues:
  0.913  0.916  0.917
    eigenvectors:
  0.000  0.000  1.000
  0.500  0.500  0.000
  0.500  0.500  0.000
    occupations:
  0.917 -0.000 -0.000
 -0.000  0.914 -0.002
 -0.000 -0.002  0.914
atomic mag. moment =     0.000000
N of occupied +U levels = 259.8484770
 --- exit write_ns ---

 ------ SPIN UP ------------

          k = 0.0000 0.0000 0.0000 ( 16699 PWs)   bands (ev):

   -44.1426 -44.1344 -44.1343 -44.1342 -44.1341 -44.1334 -44.1326 -44.1251
   -44.0557 -44.0557 -44.0556 -44.0556 -44.0554 -44.0554 -44.0541 -44.0537
   -20.7421 -20.7419 -20.7416 -20.7415 -20.7210 -20.7209 -20.7200 -20.7198
   -20.4899 -20.4898 -20.4770 -20.4770 -20.4282 -20.4280 -20.4275 -20.4275
   -20.3517 -20.3515 -20.3493 -20.3491 -20.3275 -20.3273 -20.3269 -20.3265
   -20.1851 -20.1849 -20.1847 -20.1846 -20.1280 -20.1280 -20.1200 -20.1200
   -19.9708 -19.9708 -19.9694 -19.9694 -19.9691 -19.9689 -19.9682 -19.9676
   -19.8882 -19.8678 -19.8677 -19.8676 -19.8675 -19.8670 -19.8667 -19.8467
    -7.7330  -7.3748  -7.3728  -7.2330  -7.2294  -7.2294  -7.2293  -7.1360
    -7.0290  -7.0255  -7.0253  -7.0251  -6.8338  -6.8320  -6.7851  -6.7834
    -6.5835  -6.5799  -6.5798  -6.5797  -6.5232  -6.5214  -6.4631  -6.4614
    -6.1671  -6.1652  -6.1016  -6.0998  -6.0049  -6.0016  -6.0015  -6.0015
     4.2598   4.3397   4.3422   4.4536   4.9235   4.9237   4.9245   4.9275
     5.0474   5.1633   5.1635   5.1641   5.1671   5.4186   5.4187   5.4194
     5.4228   5.4704   5.4716   5.5503   5.5506   5.7977   5.7995   6.2088
     6.2098   6.2663   6.2673   6.2958   6.2959   6.2965   6.2999   6.5395
     6.5412   6.5769   6.5771   6.5777   6.5813   6.5834   6.5845   6.5918
     6.5938   6.6707   6.6725   6.7039   6.7059   6.7302   6.7303   6.7304
     6.7341   7.1673   7.1677   7.1685   7.1716   7.4523   7.4533   7.4586
     7.4612   7.5738   7.5763   7.6064   7.6067   7.8801   7.8801   7.8810
     7.8834   8.0339   8.0345   8.0348   8.0370   8.3874   8.3895   8.4114
     8.4114   8.4115   8.4151   8.4249   8.4255   8.4423   8.6777   8.6782
     8.7493   8.7495   8.7500   8.7529   8.8195   8.8215   9.0247   9.0254
     9.1144   9.1144   9.1147   9.1186   9.1390   9.1835   9.1838   9.8075
    11.3537  11.4067  11.4069  11.6111  12.0979  12.0979  12.0979  12.0979
    12.1758  12.1759  12.1759  12.1761  12.7951  13.3245  13.3246  13.3280
    13.3283  13.4983  13.4983  13.5431  13.5431  13.7322  13.7322  13.7611
    13.7613  14.2272  14.2274  14.2274  14.2275  14.4217  14.4218  14.4219
    14.4223  14.4549  14.4550  14.4550  14.4553  14.7425  14.7427  15.3203
    15.3205  15.3388  15.3389  15.3390  15.3391  15.3482  15.3484  15.8763
    15.9975  16.4047  16.5474  16.5478  16.5480  16.5481  17.0600  17.0607
    17.2724  17.2725  17.2726  17.2727  17.3345  17.3346  17.3379  17.3381
    17.3382  17.3385  17.8843  17.8844  17.9071  17.9072  17.9092  17.9095
    18.0234  18.0234  18.0574  18.0577  19.1873  19.1880  19.1887  19.1887
    19.5892  19.5892  19.5893  19.5893  19.8354  20.1359  20.1361  20.5008
    20.5011  20.9902  20.9903  21.1782  21.1783  21.1788  21.1789  21.7324
    21.7327  21.9621  21.9623  21.9712  21.9715  22.5176  22.5179  22.5179
    22.5180  23.0041  23.0042  23.6547  23.6547  23.6550  23.6551  23.7223
    23.7643  23.7646  23.7647  23.7648  24.0463  24.0464  24.4401  24.4402
    24.4406  24.4411  24.8621  24.8624  25.0885  25.2600  25.2605  25.4463
    25.8545  25.8550  26.1730  26.1731  26.3703  26.3707  26.3850  26.3853
    26.3854  26.3855  26.4259  26.4264  26.4264  26.4266  27.1558  27.3589
    27.3592  27.3594  27.3596  27.3643  27.3645  27.5213  27.5213  27.7346
    27.7349  28.3924  28.3925  28.3932  28.3932  28.5201  28.5928  28.5928
    29.0227  29.0230  29.0231  29.0233  29.9299  29.9301  29.9310  29.9311
    30.4149  30.4149  30.4150  30.4153  30.6863  30.6869  30.6878  30.6879
    30.8129  30.8131  31.3031  31.3031  31.3510  31.3513  31.4051  31.4052
    31.4881  31.7165  31.7167  32.0941  32.4873  32.4876  32.5178  32.5182
    32.5183  32.5186  32.5516  32.5520  32.5726  32.5727  32.9985  33.1513
    33.1516  33.1519  33.1521  33.4528  33.4529  33.4532  33.4532  33.6434
    33.6438  33.8968  33.8972  34.2445  34.2446  34.2449  34.2450  34.2713
    34.2715  34.2988  34.2990  34.5796  34.5799  34.9061  34.9067  34.9069
    34.9069  35.3370  35.3372  36.1876  36.1880  36.1881  36.1881  36.1931
    36.1934  36.4329  36.4330  36.4331  36.4332  36.4777  36.6411  36.6412
    36.7654  36.7658  36.9829  37.1537  37.1539  37.1540  37.1541  37.2139
    37.2140  37.7219  37.7222  38.0874  38.0874  38.0880  38.0880  38.2165
    38.5402  38.5408  38.5409  38.5409  39.2292  39.2295  39.2301  39.2302
    39.3101  39.3106  39.3603  39.3606  39.6951  39.6953  39.6953  39.6954
    39.7121  39.7124  39.7651  39.7656  39.8231  40.1646  40.2539  40.2542
    40.2923  40.2926  40.6092  40.6099  40.6101  40.6103  40.8498  40.8498
    40.8502  40.8504  40.9231  40.9231  41.2430  41.2432  41.4315  41.4323
    41.5696  41.5700  41.8970  41.9093  41.9099  41.9100  41.9100  41.9352
    41.9354  42.0185  42.1248  42.1249  42.1250  42.1254  42.1572  42.3228
    42.3232  42.3410  42.3420  42.3420  42.3421  42.3620  42.3621  42.3672
    42.3677  42.3680  42.3680  42.3743  42.3750  42.6820  42.6824  42.7122
    42.7125  42.8451  42.8452  42.9673  42.9677  43.0975  43.1872  43.1874
    43.2322  43.2329  43.7214  43.7215  43.7217  43.7219  43.7258  43.7268
    43.7269  43.7271  43.7287  43.7290  43.7292  43.7293  43.8788  43.8792
    44.1218  44.1222  44.3297  44.3300  44.5069  44.5073  44.5075  44.5077
    44.8538  44.8540  45.1255  45.3170  45.3175  45.3248  45.3249  45.8280
    45.8288  45.8289  45.8292  45.8292  45.8293  46.2942  46.2944  46.2945
    46.2945  46.5331  46.5337  46.5343  46.5344  46.6935  46.6937  46.8260
    46.8262  46.8263  46.8264  46.8655  46.9121  46.9123  46.9127  46.9127
    46.9586  46.9586  47.0462  47.0465  47.1008  47.1010  47.1012  47.1014
    47.3127  47.3131  47.5842  47.5846  47.9140  48.2490  48.2491  48.2494

[...]

          k =-0.5000-0.5000 0.0000 ( 16684 PWs)   bands (ev):

[...]

 ------ SPIN DOWN ----------

[...]

          k =-0.5000-0.5000-0.8345 ( 16640 PWs)   bands (ev):

[...]

          k = 0.2500-0.2500-0.8345 ( 16644 PWs)   bands (ev):

   -44.1001 -44.1001 -44.0973 -44.0970 -44.0968 -44.0968 -44.0957 -44.0956
   -44.0940 -44.0938 -44.0930 -44.0925 -44.0923 -44.0920 -44.0896 -44.0886
   -20.4290 -20.4289 -20.4289 -20.4285 -20.4245 -20.4245 -20.4219 -20.4218
   -20.4215 -20.4214 -20.4200 -20.4200 -20.4175 -20.4172 -20.4121 -20.4116
   -20.3128 -20.3128 -20.3103 -20.3102 -20.2915 -20.2914 -20.2912 -20.2908
   -20.2891 -20.2888 -20.2860 -20.2857 -20.2696 -20.2695 -20.2691 -20.2679
   -20.0775 -20.0775 -20.0771 -20.0767 -20.0646 -20.0645 -20.0634 -20.0634
   -20.0632 -20.0628 -20.0620 -20.0613 -20.0523 -20.0523 -20.0499 -20.0498
    -7.1515  -7.1494  -7.0283  -7.0248  -7.0248  -7.0247  -6.9579  -6.9554
    -6.8955  -6.8940  -6.8810  -6.8774  -6.8773  -6.8772  -6.7884  -6.7867
    -6.4926  -6.4878  -6.4810  -6.4810  -6.4655  -6.4636  -6.4636  -6.4635
    -6.4606  -6.4555  -6.4553  -6.4552  -6.4498  -6.4481  -6.4407  -6.4406
     5.0924   5.0940   5.1774   5.1783   5.1924   5.1925   5.1926   5.1927
     5.2338   5.2360   5.2462   5.2463   5.2481   5.2544   5.3089   5.3119
     5.6033   5.6048   5.6620   5.6623   5.8577   5.8577   5.8581   5.8613
     5.9021   5.9034   6.1014   6.1017   6.1028   6.1057   6.1284   6.1287
     6.1474   6.1487   6.4847   6.4847   6.4867   6.4894   6.7386   6.7386
     6.7685   6.7687   6.7689   6.7693   6.7695   6.7725   6.9668   6.9671
     6.9677   6.9688   7.1819   7.1833   7.1858   7.1924   7.2339   7.2366
     7.7028   7.7029   7.7056   7.7078   7.8713   7.8718   7.8948   7.8949
     7.8964   7.8967   7.9187   7.9196   8.0178   8.0179   8.0368   8.0381
     8.0541   8.0557   8.1627   8.1630   8.1636   8.1647   8.3911   8.3919
     8.5450   8.5479   8.6345   8.6370   8.8066   8.8067   8.8075   8.8086
     8.9377   8.9380   9.1676   9.1677   9.1677   9.1716   9.3557   9.3576
    12.6440  12.6440  12.7579  12.7580  12.7581  12.7581  12.8693  12.8696
    12.9791  12.9795  13.0518  13.0519  13.1041  13.1042  13.1042  13.1042
    13.1765  13.1765  13.2529  13.2529  13.2918  13.2919  13.2920  13.2922
    13.5422  13.5423  13.5888  13.5888  13.7274  13.7274  13.7379  13.7379
    13.7379  13.7381  14.0801  14.0801  14.2799  14.2800  14.2801  14.2802
    14.3827  14.3828  14.7525  14.7526  14.7527  14.7529  15.1668  15.1669
    16.3614  16.3621  16.3622  16.3625  16.7705  16.7707  16.9126  16.9128
    16.9248  16.9250  16.9250  16.9251  17.2721  17.2723  17.5824  17.5827
    17.6945  17.6948  17.7865  17.7867  17.9277  17.9278  17.9280  17.9281
    18.2786  18.2787  18.6969  18.6972  18.6974  18.6975  18.7391  18.7395
    19.3688  19.3688  20.0217  20.0225  20.0228  20.0231  20.5003  20.5010
    21.0776  21.0784  21.2457  21.2468  21.2473  21.2475  22.3522  22.3530
    22.5119  22.5124  22.7982  22.7987  22.9754  22.9760  23.3128  23.3133
    23.3140  23.3143  23.9795  23.9800  23.9805  23.9806  24.6390  24.6396
    24.7434  24.7438  24.7925  24.7930  24.7931  24.7934  24.8324  24.8324
    24.9207  24.9210  24.9465  24.9469  25.1183  25.1184  25.1195  25.1196
    25.7639  25.7642  25.7644  25.7648  25.7889  25.7892  26.0612  26.0614
    26.1155  26.1157  26.1161  26.1164  26.3761  26.3766  26.7346  26.7348
    26.9675  26.9677  26.9678  26.9682  27.4205  27.4212  27.9158  27.9161
    28.1348  28.1349  28.4180  28.4183  28.4833  28.4834  28.4837  28.4837
    28.6092  28.6094  28.6602  28.6602  29.6720  29.6721  29.6724  29.6724
    29.7661  29.7666  30.2853  30.2856  30.2857  30.2859  30.9417  30.9417
    30.9420  30.9421  31.0541  31.0545  31.4143  31.4145  31.4867  31.4869
    32.1343  32.1350  32.1818  32.1821  32.3878  32.3883  32.3884  32.3884
    32.6559  32.6567  33.0899  33.0900  33.0901  33.0902  33.2281  33.2281
    33.3136  33.3138  33.4501  33.4503  33.6012  33.6016  33.6017  33.6019
    33.9419  33.9424  33.9428  33.9431  34.2533  34.2533  34.2533  34.2537
    34.4898  34.4900  34.8090  34.8094  34.9869  34.9871  35.3160  35.3162
    35.4553  35.4557  35.7121  35.7122  35.7125  35.7125  35.7696  35.7696
    35.8010  35.8014  35.8448  35.8449  35.8452  35.8454  36.1376  36.1377
    36.3542  36.3544  36.7761  36.7764  36.8296  36.8298  36.8300  36.8300
    36.9861  36.9866  37.1696  37.1697  37.1699  37.1699  38.1612  38.1612
    38.2203  38.2209  38.2500  38.2503  38.2903  38.2903  38.5314  38.5319
    38.5320  38.5321  38.6125  38.6125  39.0704  39.0706  39.0707  39.0709
    39.0976  39.0978  39.5990  39.5992  40.3537  40.3539  40.3541  40.3543
    40.4985  40.4985  40.5765  40.5765  40.6159  40.6163  40.6164  40.6166
    40.9372  40.9378  40.9951  40.9954  41.0061  41.0063  41.0065  41.0066
    41.1739  41.1739  41.3933  41.3933  41.6225  41.6226  41.6226  41.6228
    41.6615  41.6615  41.6619  41.6622  41.8695  41.8699  42.0583  42.0586
    42.1965  42.1966  42.1971  42.1973  42.8106  42.8106  43.0099  43.0100
    43.0254  43.0257  43.0517  43.0524  43.2450  43.2452  43.3566  43.3568
    43.3570  43.3572  43.4179  43.4179  43.6295  43.6297  43.9466  43.9469
    43.9475  43.9476  44.1126  44.1129  44.2899  44.2900  44.3339  44.3349
    44.3349  44.3351  44.3977  44.3978  44.3979  44.3980  44.7483  44.7485
    44.7986  44.8000  44.8001  44.8002  44.8003  44.8006  44.8734  44.8740
    45.0860  45.0860  45.1444  45.1446  45.1448  45.1449  45.1712  45.1713
    45.2401  45.2402  45.6791  45.6793  45.6797  45.6797  45.7342  45.7344
    45.8536  45.8541  45.9049  45.9049  45.9052  45.9055  45.9151  45.9153
    46.4016  46.4018  46.4184  46.4187  46.4188  46.4189  46.6245  46.6250
    47.0420  47.0423  47.0424  47.0425  47.0588  47.0590  47.2891  47.2896
    47.2900  47.2901  47.4477  47.4481  47.5034  47.5035  47.8497  47.8498

     the Fermi energy is    12.5582 ev

!    total energy              =   -2922.37188362 Ry
     Harris-Foulkes estimate   =   -2922.37188378 Ry
     estimated scf accuracy    <       0.00000017 Ry

     The total energy is the sum of the following terms:

     one-electron contribution =    -784.88687203 Ry
     hartree contribution      =     606.82027385 Ry
     xc contribution           =    -525.15353867 Ry
     ewald contribution        =   -2219.17932603 Ry
     Hubbard energy            =       0.02823605 Ry
     smearing contrib. (-TS)   =      -0.00065680 Ry

     total magnetization       =    -0.00 Bohr mag/cell
     absolute magnetization    =     0.00 Bohr mag/cell

     convergence has been achieved in   7 iterations

     Writing output data file pwscf.save

     General routines

     Parallel routines
     Hubbard U routines

   This run was terminated on:  22: 6:30  14Feb2014

   JOB DONE.