     Program PWSCF v.5.0.2 (svn rev. 9656) starts on 31May2014 at  6:14:42

     Current dimensions of program PWSCF are:
     Max number of different atomic species (ntypx) = 10
     Max number of k-points (npk) =  40000
     Max angular momentum in pseudopotentials (lmaxx) =  3
     Reading input from pwscf.in
Warning: card &CELL ignored
Warning: card / ignored

     Subspace diagonalization in iterative solution of the eigenvalue problem:
     a serial algorithm will be used

     bravais-lattice index     =            0
     lattice parameter (alat)  =      12.2076  a.u.
     unit-cell volume          =    7496.5096 (a.u.)^3
     number of atoms/cell      =           33
     number of atomic types    =            3
     number of electrons       =       253.00
     number of Kohn-Sham states=          379
     kinetic-energy cutoff     =      40.0000  Ry
     charge density cutoff     =     500.0000  Ry
     convergence threshold     =      1.0E-06
     mixing beta               =       0.7000
     number of iterations used =            8  plain     mixing
     Exchange-correlation      = SLA  PW   PBE  PBE ( 1 4 3 4 0)
     EXX-fraction              =        0.00
     nstep                     =           50

     celldm(1)=  12.207631  celldm(2)=   0.000000  celldm(3)=   0.000000
     celldm(4)=   0.000000  celldm(5)=   0.000000  celldm(6)=   0.000000

     crystal axes: (cart. coord. in units of alat)
               a(1) = (   1.000000   0.000000   0.000000 )
               a(2) = (   0.000000   1.004836   0.000000 )
               a(3) = (   0.000000   0.000000   4.100811 )

     reciprocal axes: (cart. coord. in units 2 pi/alat)
               b(1) = (  1.000000  0.000000  0.000000 )
               b(2) = (  0.000000  0.995187  0.000000 )
               b(3) = (  0.000000  0.000000  0.243854 )

     PseudoPot. # 1 for O  read from file:
     /home/camp/zhonxu/pseudo/o_pbe_v1.01.uspp.F.UPF
     MD5 check sum: 2bcb18d16ea4b960afae9ec6d52f22d2
     Pseudo is Ultrasoft + core correction, Zval =  6.0
     Generated by new atomic code, or converted to UPF format
     Using radial grid of  737 points,  5 beta functions with:
                l(1) =   0
                l(2) =   0
                l(3) =   1
                l(4) =   1
                l(5) =   2
     Q(r) pseudized with  8 coefficients,  rinner =    0.900   0.900   0.900
                                                       0.900   0.900

     PseudoPot. # 2 for Pt read from file:
     /home/camp/zhonxu/pseudo/pt_pbe_v1.uspp.F.UPF
     MD5 check sum: 4c71d6ad5ef119f1eb26a4d0b7884226
     Pseudo is Ultrasoft + core correction, Zval = 16.0
     Generated by new atomic code, or converted to UPF format
     Using radial grid of  985 points,  6 beta functions with:
                l(1) =   0
                l(2) =   0
                l(3) =   1
                l(4) =   1
                l(5) =   2
                l(6) =   2
     Q(r) pseudized with  8 coefficients,  rinner =    1.300   1.300   1.300
                                                       1.300   1.300

     PseudoPot. # 3 for H  read from file:
     /home/camp/zhonxu/pseudo/h_pbe_v1.uspp.F.UPF
     MD5 check sum: 3408e3ff4ec8b0a4e358431e7e038a48
     Pseudo is Ultrasoft, Zval =  1.0
     Generated by new atomic code, or converted to UPF format
     Using radial grid of  615 points,  2 beta functions with:
                l(1) =   0
                l(2) =   0
     Q(r) pseudized with  8 coefficients,  rinner =    0.700

     atomic species   valence    mass     pseudopotential
        O0             6.00    15.99940     O ( 1.00)
        Pt1           16.00   195.08000     Pt( 1.00)
        H2             1.00     1.00794     H ( 1.00)

     Simplified LDA+U calculation (l_max = 2) with parameters (eV):
     atomic species    L          U    alpha       J0     beta
        Pt1            2     3.5000   0.0000   0.0000   0.0000

     No symmetry found

   Cartesian axes

     site n.     atom                  positions (alat units)
         1           O0  tau(   1) = (   0.0000000   0.0000000   1.5494095  )
         2           O0  tau(   2) = (   0.0000000   0.5024180   1.6475009  )
         3           Pt1 tau(   3) = (   0.2500000   0.5024180   1.8504910  )
         4           Pt1 tau(   4) = (   0.0000000   0.0000000   1.8570523  )
         5           O0  tau(   5) = (   0.2500000   0.8139171   1.8187098  )
         6           O0  tau(   6) = (   0.2500000   0.1909188   1.8864142  )
         7           O0  tau(   7) = (   0.0000000   0.5024180   2.0369959  )
         8           O0  tau(   8) = (   0.0000000   0.0000000   2.1720357  )
         9           Pt1 tau(   9) = (   0.2500000   0.0000000   2.3614521  )
        10           Pt1 tau(  10) = (   0.0000000   0.5024180   2.3598528  )
        11           O0  tau(  11) = (   0.2500000   0.6933368   2.3268823  )
        12           O0  tau(  12) = (   0.2500000   0.3114991   2.4033624  )
        13           O0  tau(  13) = (   0.0000000   0.0000000   2.5482851  )
        14           O0  tau(  14) = (   0.5000000   0.0000000   1.5485073  )
        15           O0  tau(  15) = (   0.5000000   0.5024180   1.6434821  )
        16           Pt1 tau(  16) = (   0.7500000   0.5024180   1.8504910  )
        17           Pt1 tau(  17) = (   0.5000000   0.0000000   1.8561092  )
        18           O0  tau(  18) = (   0.7500000   0.8139171   1.8187918  )
        19           O0  tau(  19) = (   0.7500000   0.1909188   1.8863321  )
        20           O0  tau(  20) = (   0.5000000   0.5024180   2.0428191  )
        21           O0  tau(  21) = (   0.5000000   0.0000000   2.1708874  )
        22           Pt1 tau(  22) = (   0.7500000   0.0000000   2.3614521  )
        23           Pt1 tau(  23) = (   0.5000000   0.5024180   2.3628874  )
        24           O0  tau(  24) = (   0.7500000   0.6933368   2.3268003  )
        25           O0  tau(  25) = (   0.7500000   0.3114991   2.4034034  )
        26           O0  tau(  26) = (   0.5000000   0.0000000   2.5460296  )
        27           H2  tau(  27) = (   0.0000200   0.6429744   1.5830361  )
        28           H2  tau(  28) = (   0.5000600   0.6435874   1.5806577  )
        29           H2  tau(  29) = (   0.1433700   0.0339333   1.5082373  )
        30           H2  tau(  30) = (   0.6430800   0.0354607   1.5076632  )
        31           O0  tau(  31) = (   0.5001100   0.5589199   2.6603192  )
        32           O0  tau(  32) = (   0.4999400   0.3687346   2.7792838  )
        33           H2  tau(  33) = (   0.4999900   0.4305019   2.9192445  )

     number of k points=    10  Methfessel-Paxton smearing, width (Ry)=  0.0100
                       cart. coord. in units 2pi/alat
        k(    1) = (   0.0000000   0.0000000   0.0000000), wk =   0.1250000
        k(    2) = (   0.0000000   0.2487968   0.0000000), wk =   0.2500000
        k(    3) = (   0.0000000  -0.4975937   0.0000000), wk =   0.1250000
        k(    4) = (   0.2500000   0.0000000   0.0000000), wk =   0.2500000
        k(    5) = (   0.2500000   0.2487968   0.0000000), wk =   0.2500000
        k(    6) = (   0.2500000  -0.4975937   0.0000000), wk =   0.2500000
        k(    7) = (  -0.5000000   0.0000000   0.0000000), wk =   0.1250000
        k(    8) = (  -0.5000000   0.2487968   0.0000000), wk =   0.2500000
        k(    9) = (  -0.5000000  -0.4975937   0.0000000), wk =   0.1250000
        k(   10) = (  -0.2500000   0.2487968   0.0000000), wk =   0.2500000

     Largest allocated arrays     est. size (Mb)     dimensions
     Largest temporary arrays     est. size (Mb)     dimensions

     Check: negative/imaginary core charge=   -0.000003    0.000000

     Initial potential from superposition of free atoms
     Check: negative starting charge=   -1.535323

     starting charge  248.99983, renormalised to  253.00000

     negative rho (up, down):  0.156E+01 0.000E+00
     Number of +U iterations with fixed ns =  0
     Starting occupations:
 --- enter write_ns ---
 LDA+U parameters:
U( 2)     =  3.50000000
alpha( 2) =  0.00000000
atom    3   Tr[ns(na)] =   8.00000
    eigenvalues:
  0.800  0.800  0.800  0.800  0.800
    eigenvectors:
  1.000  0.000  0.000  0.000  0.000
  0.000  1.000  0.000  0.000  0.000
  0.000  0.000  1.000  0.000  0.000
  0.000  0.000  0.000  1.000  0.000
  0.000  0.000  0.000  0.000  1.000
    occupations:
  0.800  0.000  0.000  0.000  0.000
  0.000  0.800  0.000  0.000  0.000
  0.000  0.000  0.800  0.000  0.000
  0.000  0.000  0.000  0.800  0.000
  0.000  0.000  0.000  0.000  0.800
atom    4   Tr[ns(na)] =   8.00000
    eigenvalues:
  0.800  0.800  0.800  0.800  0.800
    eigenvectors:
  1.000  0.000  0.000  0.000  0.000
  0.000  1.000  0.000  0.000  0.000
  0.000  0.000  1.000  0.000  0.000
  0.000  0.000  0.000  1.000  0.000
  0.000  0.000  0.000  0.000  1.000
    occupations:
  0.800  0.000  0.000  0.000  0.000
  0.000  0.800  0.000  0.000  0.000
  0.000  0.000  0.800  0.000  0.000
  0.000  0.000  0.000  0.800  0.000
  0.000  0.000  0.000  0.000  0.800
atom    9   Tr[ns(na)] =   8.00000
    eigenvalues:
  0.800  0.800  0.800  0.800  0.800
    eigenvectors:
  1.000  0.000  0.000  0.000  0.000
  0.000  1.000  0.000  0.000  0.000
  0.000  0.000  1.000  0.000  0.000
  0.000  0.000  0.000  1.000  0.000
  0.000  0.000  0.000  0.000  1.000
    occupations:
  0.800  0.000  0.000  0.000  0.000
  0.000  0.800  0.000  0.000  0.000
  0.000  0.000  0.800  0.000  0.000
  0.000  0.000  0.000  0.800  0.000
  0.000  0.000  0.000  0.000  0.800
atom   10   Tr[ns(na)] =   8.00000
    eigenvalues:
  0.800  0.800  0.800  0.800  0.800
    eigenvectors:
  1.000  0.000  0.000  0.000  0.000
  0.000  1.000  0.000  0.000  0.000
  0.000  0.000  1.000  0.000  0.000
  0.000  0.000  0.000  1.000  0.000
  0.000  0.000  0.000  0.000  1.000
    occupations:
  0.800  0.000  0.000  0.000  0.000
  0.000  0.800  0.000  0.000  0.000
  0.000  0.000  0.800  0.000  0.000
  0.000  0.000  0.000  0.800  0.000
  0.000  0.000  0.000  0.000  0.800
atom   16   Tr[ns(na)] =   8.00000
    eigenvalues:
  0.800  0.800  0.800  0.800  0.800
    eigenvectors:
  1.000  0.000  0.000  0.000  0.000
  0.000  1.000  0.000  0.000  0.000
  0.000  0.000  1.000  0.000  0.000
  0.000  0.000  0.000  1.000  0.000
  0.000  0.000  0.000  0.000  1.000
    occupations:
  0.800  0.000  0.000  0.000  0.000
  0.000  0.800  0.000  0.000  0.000
  0.000  0.000  0.800  0.000  0.000
  0.000  0.000  0.000  0.800  0.000
  0.000  0.000  0.000  0.000  0.800
atom   17   Tr[ns(na)] =   8.00000
    eigenvalues:
  0.800  0.800  0.800  0.800  0.800
    eigenvectors:
  1.000  0.000  0.000  0.000  0.000
  0.000  1.000  0.000  0.000  0.000
  0.000  0.000  1.000  0.000  0.000
  0.000  0.000  0.000  1.000  0.000
  0.000  0.000  0.000  0.000  1.000
    occupations:
  0.800  0.000  0.000  0.000  0.000
  0.000  0.800  0.000  0.000  0.000
  0.000  0.000  0.800  0.000  0.000
  0.000  0.000  0.000  0.800  0.000
  0.000  0.000  0.000  0.000  0.800
atom   22   Tr[ns(na)] =   8.00000
    eigenvalues:
  0.800  0.800  0.800  0.800  0.800
    eigenvectors:
  1.000  0.000  0.000  0.000  0.000
  0.000  1.000  0.000  0.000  0.000
  0.000  0.000  1.000  0.000  0.000
[...]
  0.000 -0.036  0.000 -0.000  0.666
atom   16   Tr[ns(na)] =   8.71758
    eigenvalues:
  0.690  0.707  0.985  0.987  0.990
    eigenvectors:
  0.047  0.127  0.811  0.003  0.012
  0.759  0.240  0.000  0.000  0.000
  0.001  0.004  0.023  0.000  0.972
  0.194  0.629  0.162  0.000  0.015
  0.000  0.000  0.003  0.997  0.000
    occupations:
  0.936 -0.007  0.007 -0.107 -0.000
 -0.007  0.694 -0.002 -0.005 -0.002
  0.007 -0.002  0.989  0.018  0.000
 -0.107 -0.005  0.018  0.753 -0.001
 -0.000 -0.002  0.000 -0.001  0.987
atom   17   Tr[ns(na)] =   8.70882
    eigenvalues:
  0.690  0.712  0.982  0.985  0.986
    eigenvectors:
  0.000  0.986  0.008  0.003  0.004
  0.011  0.000  0.069  0.894  0.026
  0.000  0.005  0.842  0.039  0.115
  0.000  0.009  0.081  0.056  0.855
  0.989  0.000  0.001  0.010  0.000
    occupations:
  0.715 -0.004 -0.019  0.026 -0.001
 -0.004  0.982  0.000  0.000  0.030
 -0.019  0.000  0.981  0.003  0.000
  0.026  0.000  0.003  0.983  0.000
 -0.001  0.030  0.000  0.000  0.693
atom   22   Tr[ns(na)] =   8.69162
    eigenvalues:
  0.712  0.722  0.958  0.967  0.986
    eigenvectors:
  0.001  0.135  0.001  0.015  0.848
  0.997  0.003  0.000  0.000  0.000
  0.000  0.011  0.052  0.928  0.009
  0.002  0.851  0.000  0.004  0.143
  0.000  0.000  0.947  0.053  0.000
    occupations:
  0.950  0.002 -0.008 -0.090  0.000
  0.002  0.712  0.000 -0.000 -0.003
 -0.008  0.000  0.964 -0.025 -0.002
 -0.090 -0.000 -0.025  0.761 -0.000
  0.000 -0.003 -0.002 -0.000  0.958
atom   23   Tr[ns(na)] =   8.70307
    eigenvalues:
  0.703  0.709  0.968  0.985  0.987
    eigenvectors:
  0.000  0.959  0.000  0.032  0.009
  0.019  0.000  0.981  0.000  0.000
  0.000  0.033  0.000  0.967  0.000
  0.000  0.008  0.000  0.000  0.991
  0.981  0.000  0.019  0.000  0.000
    occupations:
  0.720  0.000  0.049  0.025 -0.000
  0.000  0.963  0.000 -0.000 -0.036
  0.049  0.000  0.976 -0.005 -0.000
  0.025 -0.000 -0.005  0.985 -0.000
 -0.000 -0.036 -0.000 -0.000  0.708
N of occupied +U levels =  69.7131736
 --- exit write_ns ---

     Threshold (ethr) on eigenvalues was too large:
     Diagonalizing with lowered threshold

     Davidson diagonalization with overlap
     ethr =  4.47E-09,  avg # of iterations =  2.0

[...]

     total energy              =   -2313.22307802 Ry
     Harris-Foulkes estimate   =   -2313.22307803 Ry
     estimated scf accuracy    <       0.00000003 Ry

     iteration # 15     ecut=    40.00 Ry     beta=0.70
     Davidson diagonalization with overlap
     ethr =  6.83E-12,  avg # of iterations =  1.0

     negative rho (up, down):  0.158E+01 0.000E+00

     End of self-consistent calculation
 --- enter write_ns ---
 LDA+U parameters:
U( 2)     =  3.50000000
alpha( 2) =  0.00000000
atom    3   Tr[ns(na)] =   8.71742
    eigenvalues:
  0.690  0.707  0.985  0.987  0.990
    eigenvectors:
  0.046  0.127  0.809  0.005  0.012
  0.761  0.238  0.000  0.000  0.000
  0.001  0.004  0.023  0.000  0.972
  0.192  0.630  0.162  0.001  0.015
  0.000  0.000  0.006  0.994  0.000
    occupations:
  0.936  0.007  0.007 -0.107  0.001
  0.007  0.694  0.002  0.005 -0.002
  0.007  0.002  0.989  0.018 -0.000
 -0.107  0.005  0.018  0.753  0.001
  0.001 -0.002 -0.000  0.001  0.987
atom    4   Tr[ns(na)] =   8.71029
    eigenvalues:
  0.690  0.712  0.982  0.985  0.986
    eigenvectors:
  0.000  0.985  0.008  0.002  0.004
  0.010  0.000  0.047  0.913  0.029
  0.000  0.005  0.870  0.024  0.101
  0.000  0.009  0.074  0.051  0.866
  0.989  0.000  0.000  0.010  0.000
    occupations:
  0.716 -0.004 -0.019  0.026 -0.001
 -0.004  0.982  0.000  0.000  0.030
 -0.019  0.000  0.981  0.003  0.000
  0.026  0.000  0.003  0.983  0.000
 -0.001  0.030  0.000  0.000  0.693
atom    9   Tr[ns(na)] =   8.69138
    eigenvalues:
  0.712  0.722  0.958  0.967  0.986
    eigenvectors:
  0.000  0.136  0.001  0.015  0.849
  0.999  0.001  0.000  0.000  0.000
  0.000  0.012  0.046  0.934  0.008
  0.001  0.852  0.000  0.004  0.143
  0.000  0.000  0.953  0.047  0.000
    occupations:
  0.950 -0.001 -0.008 -0.090 -0.000
 -0.001  0.712  0.000  0.001 -0.003
 -0.008  0.000  0.964 -0.025  0.002
 -0.090  0.001 -0.025  0.761  0.000
 -0.000 -0.003  0.002  0.000  0.958
atom   10   Tr[ns(na)] =   8.77225
    eigenvalues:
  0.662  0.770  0.982  0.984  0.988
    eigenvectors:
  0.000  0.980  0.000  0.012  0.008
  0.013  0.000  0.987  0.000  0.000
  0.000  0.001  0.000  0.218  0.781
  0.000  0.019  0.000  0.770  0.211
  0.987  0.000  0.013  0.000  0.000
    occupations:
  0.775 -0.000 -0.006  0.029  0.000
 -0.000  0.977 -0.000  0.000 -0.036
 -0.006 -0.000  0.987 -0.001  0.000
  0.029  0.000 -0.001  0.981 -0.000
  0.000 -0.036  0.000 -0.000  0.666
atom   16   Tr[ns(na)] =   8.71743
    eigenvalues:
  0.690  0.707  0.985  0.987  0.990
    eigenvectors:
  0.047  0.127  0.811  0.003  0.012
  0.759  0.241  0.000  0.000  0.000
  0.001  0.004  0.023  0.000  0.972
  0.194  0.629  0.162  0.000  0.015
  0.000  0.000  0.003  0.997  0.000
    occupations:
  0.936 -0.007  0.007 -0.107 -0.001
 -0.007  0.694 -0.002 -0.005 -0.002
  0.007 -0.002  0.989  0.018  0.000
 -0.107 -0.005  0.018  0.753 -0.001
 -0.001 -0.002  0.000 -0.001  0.987
atom   17   Tr[ns(na)] =   8.70886
    eigenvalues:
  0.690  0.712  0.982  0.985  0.986
    eigenvectors:
  0.000  0.986  0.008  0.003  0.004
  0.011  0.000  0.070  0.893  0.026
  0.000  0.005  0.841  0.039  0.115
  0.000  0.009  0.081  0.056  0.854
  0.989  0.000  0.001  0.010  0.000
    occupations:
  0.715 -0.004 -0.019  0.026 -0.001
 -0.004  0.982  0.000  0.000  0.030
 -0.019  0.000  0.981  0.003  0.000
  0.026  0.000  0.003  0.983  0.000
 -0.001  0.030  0.000  0.000  0.693
atom   22   Tr[ns(na)] =   8.69135
    eigenvalues:
  0.712  0.722  0.958  0.967  0.986
    eigenvectors:
  0.001  0.135  0.001  0.015  0.848
  0.997  0.003  0.000  0.000  0.000
  0.000  0.011  0.053  0.927  0.009
  0.002  0.851  0.000  0.004  0.143
  0.000  0.000  0.946  0.054  0.000
    occupations:
  0.950  0.002 -0.008 -0.090  0.000
  0.002  0.712  0.000 -0.000 -0.003
 -0.008  0.000  0.964 -0.025 -0.002
 -0.090 -0.000 -0.025  0.761 -0.000
  0.000 -0.003 -0.002 -0.000  0.958
atom   23   Tr[ns(na)] =   8.70300
    eigenvalues:
  0.703  0.709  0.968  0.985  0.987
    eigenvectors:
  0.000  0.959  0.000  0.032  0.009
  0.019  0.000  0.981  0.000  0.000
  0.000  0.033  0.000  0.967  0.000
  0.000  0.008  0.000  0.000  0.991
  0.981  0.000  0.019  0.000  0.000
    occupations:
  0.720  0.000  0.049  0.025 -0.000
  0.000  0.963  0.000 -0.000 -0.036
  0.049  0.000  0.976 -0.005 -0.000
  0.025 -0.000 -0.005  0.985 -0.000
 -0.000 -0.036 -0.000 -0.000  0.708
N of occupied +U levels =  69.7119721
 --- exit write_ns ---

[...]

          k = 0.2500-0.4976 0.0000 ( 32026 PWs)   bands (ev):

[...]

          k =-0.2500 0.2488 0.0000 ( 32025 PWs)   bands (ev):

   -54.8644 -54.8269 -54.8172 -54.7886 -54.7768 -54.7506 -54.7132 -54.6743
   -54.6626 -54.6594 -54.6421 -54.6381 -54.5934 -54.4979 -54.4932 -54.4712
   -54.4667 -54.3907 -54.3855 -54.3820 -54.3781 -54.0164 -53.7836 -53.4296
   -23.7509 -21.4563 -21.1679 -20.5353 -20.3718 -20.0793 -19.9959 -19.9377
   -19.7976 -19.7784 -19.6690 -19.6203 -19.5435 -19.4991 -19.3603 -19.3074
   -19.2676 -18.5795 -18.3793 -17.4087  -9.9913  -9.7652  -9.6144  -9.5839
    -9.1637  -9.1203  -9.0748  -8.9230  -8.7769  -8.7445  -8.6851  -8.6068
    -8.4967  -8.4088  -8.3157  -8.2291  -8.1854  -8.0898  -8.0467  -7.5690
    -7.5126  -7.4422  -7.3070  -7.2282  -7.1333  -7.0961  -6.8532  -6.7975
    -6.7235  -6.5201  -6.4851  -6.4386  -6.3379  -6.2259  -6.1349  -6.0887
    -6.0368  -5.9883  -5.8882  -5.7804  -5.7332  -5.6826  -5.5023  -5.2736
    -5.2124  -5.0705  -4.9395  -4.8169  -4.6896  -4.6460  -4.5637  -4.5065
    -4.4435  -4.3092  -4.1983  -4.0861  -3.9697  -3.8470  -3.7240  -3.6887
    -3.5317  -3.4170  -3.3117  -3.2110  -3.1243  -3.1120  -2.9976  -2.9268
    -2.8252  -2.7713  -2.4760  -2.4584  -2.1974  -2.0466  -1.9659  -1.8245
    -1.7725  -1.7204  -1.6718  -1.5468  -1.2851  -1.1796  -1.1210  -0.9829
    -0.4342  -0.2344  -0.1029   0.3623   0.5211   0.8472   1.0463   1.3292
     1.4040   1.5547   1.5966   1.8887   2.0364   2.0836   2.3628   3.4121
     3.7792   4.0751   4.5673   4.8812   5.1104   5.5638   5.7327   5.7840
     5.9892   6.1654   6.2977   6.4724   6.5307   6.7519   6.8682   6.9639
     7.0089   7.1348   7.2957   7.4692   7.6171   7.6589   7.7868   7.8909
     7.9607   8.0647   8.2100   8.2568   8.4318   8.4869   8.5905   8.6903
     8.8154   8.8233   8.9533   8.9728   9.1538   9.2095   9.3338   9.4221
     9.5315   9.5962   9.6823   9.7594   9.8696   9.9964  10.0230  10.1221
    10.1984  10.2952  10.3975  10.4813  10.5763  10.6500  10.7249  10.7874
    10.9509  11.0078  11.0982  11.2043  11.3186  11.3610  11.4437  11.5543
    11.6351  11.7308  11.8145  11.8768  11.9532  12.0405  12.0898  12.1536
    12.2300  12.2914  12.3780  12.4345  12.5805  12.6520  12.7293  12.7773
    12.8700  12.9008  12.9833  13.0449  13.2112  13.2824  13.3324  13.4410
    13.5392  13.6186  13.6583  13.7089  13.8033  13.8263  13.9457  14.0257
    14.1091  14.1574  14.2546  14.3906  14.4267  14.4800  14.5974  14.7208
    14.7660  14.8301  14.9247  14.9737  15.0582  15.1442  15.1868  15.2889
    15.3245  15.3368  15.3938  15.4293  15.5138  15.5739  15.6397  15.6613
    15.7655  15.8485  15.8729  15.9221  15.9795  16.0643  16.1230  16.1608
    16.2270  16.2787  16.3437  16.4312  16.5241  16.5971  16.7473  16.7794
    16.8221  16.9288  16.9915  17.0436  17.0810  17.1435  17.2043  17.2528
    17.3117  17.3354  17.3985  17.4248  17.4478  17.4790  17.5173  17.5258
    17.5692  17.5866  17.6166  17.6397  17.6681  17.6927  17.7186  17.7859
    17.8985  17.9861  18.0032  18.0874  18.1221  18.2681  18.3617  18.3806
    18.3998  18.4760  18.5257  18.5911  18.6141  18.6866  18.7430  18.8524
    18.9429  18.9812  19.0342  19.1107  19.1215  19.2057  19.3087  19.3771
    19.4486  19.5420  19.5981  19.6388  19.6952  19.8372  19.9742  20.0193
    20.0918  20.1571  20.1944  20.2370  20.2811  20.3243  20.3532  20.4167
    20.5290  20.5861  20.6379  20.7036  20.7437  20.8154  20.8265  20.8528
    20.9403  20.9840  21.0541  21.0934  21.1616  21.2261  21.3135  21.3369
    21.3954  21.5003  21.5084  21.5822  21.6136  21.6813  21.7748  21.8741
    21.9372  21.9877  22.0705  22.1449  22.1899  22.2650  22.3143  22.3419
    22.4414  22.4858  22.5356

     the Fermi energy is    -1.1011 ev

!    total energy              =   -2313.22307802 Ry
     Harris-Foulkes estimate   =   -2313.22307802 Ry
     estimated scf accuracy    <          7.5E-10 Ry

     The total energy is the sum of the following terms:

     one-electron contribution =  -24132.92897074 Ry
     hartree contribution      =   12117.27350932 Ry
     xc contribution           =    -580.02170195 Ry
     ewald contribution        =   10281.48939226 Ry
     Hubbard energy            =       0.96464960 Ry
     smearing contrib. (-TS)   =       0.00004348 Ry

     convergence has been achieved in  15 iterations

     Forces acting on atoms (Ry/au):

     negative rho (up, down):  0.158E+01 0.000E+00
     atom    1 type  1   force =    -0.00724608   -0.00362707    0.00009719
     atom    2 type  1   force =     0.00012801    0.00457366    0.00027912
     atom    3 type  2   force =     0.00734831    0.00601366   -0.00005131
     atom    4 type  2   force =     0.00978392    0.00391935    0.00027410
     atom    5 type  1   force =     0.00107923   -0.00400978    0.00025070
     atom    6 type  1   force =     0.00007015   -0.00276494    0.00011425
     atom    7 type  1   force =     0.00012358   -0.00109647    0.00061087
     atom    8 type  1   force =    -0.00398720    0.00023035    0.00053011
     atom    9 type  2   force =     0.00621504    0.00417997   -0.00004670
     atom   10 type  2   force =    -0.00006989   -0.02361479    0.00002562
     atom   11 type  1   force =    -0.00094907    0.00222107   -0.00009313
     atom   12 type  1   force =    -0.01305956    0.01105503    0.00002564
     atom   13 type  1   force =    -0.00111035   -0.00771271   -0.00034122
     atom   14 type  1   force =    -0.00769865   -0.00347674   -0.00011818
     atom   15 type  1   force =     0.00014661    0.00124189   -0.00022170
     atom   16 type  2   force =    -0.00822216    0.00610261   -0.00000747
     atom   17 type  2   force =     0.00978577    0.00542488    0.00016783
     atom   18 type  1   force =     0.00128168   -0.00403526    0.00025092
     atom   19 type  1   force =    -0.00005910   -0.00271058    0.00012774
     atom   20 type  1   force =    -0.00000776   -0.00376278   -0.00066393
     atom   21 type  1   force =    -0.00389240    0.00229312    0.00039383
     atom   22 type  2   force =    -0.00267055    0.00411502   -0.00004075
     atom   23 type  2   force =     0.00011484    0.00720152   -0.00064829
     atom   24 type  1   force =     0.00101185    0.00228197   -0.00010070
     atom   25 type  1   force =     0.01311776    0.01109500    0.00003913
     atom   26 type  1   force =    -0.00103914   -0.01594358   -0.00037131
     atom   27 type  3   force =     0.00000205   -0.00009944    0.00007762
     atom   28 type  3   force =    -0.00000887    0.00016205    0.00013197
     atom   29 type  3   force =    -0.00016093   -0.00011053   -0.00043257
     atom   30 type  3   force =    -0.00001143   -0.00013804   -0.00028351
     atom   31 type  1   force =     0.00002460   -0.00005301    0.00069375
     atom   32 type  1   force =    -0.00005576    0.00070589   -0.00020895
     atom   33 type  3   force =     0.00001550    0.00033865   -0.00046069

     Total force =     0.002026     Total SCF correction =     0.000075

     entering subroutine stress ...

     negative rho (up, down):  0.158E+01 0.000E+00
          total   stress  (Ry/bohr**3)                   (kbar)     P=  -20.10
  -0.00021752   0.00000004   0.00000385        -32.00      0.01      0.57
   0.00000004  -0.00014115  -0.00000684          0.01    -20.76     -1.01
   0.00000385  -0.00000684  -0.00005126          0.57     -1.01     -7.54

     bfgs converged in   9 scf cycles and   8 bfgs steps
     (criteria: energy < 0.10E-03, force < 0.10E-02)

     End of BFGS Geometry Optimization

     Final energy   =   -2313.2230780243 Ry
Begin final coordinates

ATOMIC_POSITIONS (crystal)
O0       0.000000000   0.000000000   0.377604746    0   0   1
O0       0.000000000   0.500000000   0.401782894    0   0   1
Pt1      0.250000000   0.500000000   0.451324767    0   0   1
Pt1      0.000000000   0.000000000   0.452686554    0   0   1
O0       0.250000000   0.810000000   0.442760253    0   0   1
O0       0.250000000   0.190000000   0.460694481    0   0   1
O0       0.000000000   0.500000000   0.496703842    0   0   1
O0       0.000000000   0.000000000   0.529666575    0   0   1
Pt1      0.250000000   0.000000000   0.575747578    0   0   1
Pt1      0.000000000   0.500000000   0.575238214    0   0   1
O0       0.250000000   0.690000000   0.566348454    0   0   1
O0       0.250000000   0.310000000   0.586616434    0   0   1
O0       0.000000000   0.000000000   0.621374902    0   0   1
O0       0.500000000   0.000000000   0.377484605    0   0   1
O0       0.500000000   0.500000000   0.401193513    0   0   1
Pt1      0.750000000   0.500000000   0.451327261    0   0   1
Pt1      0.500000000   0.000000000   0.452545664    0   0   1
O0       0.750000000   0.810000000   0.442773174    0   0   1
O0       0.750000000   0.190000000   0.460677532    0   0   1
O0       0.500000000   0.500000000   0.498195122    0   0   1
O0       0.500000000   0.000000000   0.529452888    0   0   1
Pt1      0.750000000   0.000000000   0.575744501    0   0   1
Pt1      0.500000000   0.500000000   0.576094628    0   0   1
O0       0.750000000   0.690000000   0.566322803    0   0   1
O0       0.750000000   0.310000000   0.586600758    0   0   1
O0       0.500000000   0.000000000   0.620899459    0   0   1
H2       0.000033634   0.640854989   0.386537709
H2       0.500074814   0.640885138   0.386088717
H2       0.143839939   0.033846791   0.367951788
H2       0.643425102   0.035121507   0.367765781
O0       0.500208103   0.556540907   0.648925102
O0       0.499817634   0.367886589   0.677665710
H2       0.500012658   0.428420708   0.711933591
End final coordinates

     General routines

     Parallel routines
     Hubbard U routines

   This run was terminated on:  16:58:17  31May2014

   JOB DONE.
Running PBS batch system epilogue script
Job id: 373314.audhumbla.fysik.dtu.dk
Username: zhonxu
Groupname: campgst
Jobname: PtO2/Eads-2-layers/OOH-U-3.5
Sessionid: 11625
Queuename: verylong
Accounting:
This job has allocated the following 16 nodes:
b026 b026 b026 b026 b026 b026 b026 b026 b001 b001 b001 b001 b001 b001 b001 b001
Finished epilogue job 373314.audhumbla.fysik.dtu.dk for zhonxu