     Program PWSCF v.5.0.2 (svn rev. 9656) starts on 22Apr2014 at  1:22:11

     Current dimensions of program PWSCF are:
     Max number of different atomic species (ntypx) = 10
     Max number of k-points (npk) =  40000
     Max angular momentum in pseudopotentials (lmaxx) =  3
     Reading input from pwscf.in
Warning: card &CELL ignored
Warning: card / ignored

     Subspace diagonalization in iterative solution of the eigenvalue problem:
     a serial algorithm will be used

     bravais-lattice index     =            0
     lattice parameter (alat)  =      10.9604  a.u.
     unit-cell volume          =    6350.6732 (a.u.)^3
     number of atoms/cell      =           31
     number of atomic types    =            3
     number of electrons       =       230.00 (up: 122.00, down: 108.00)
     number of Kohn-Sham states=          333
     kinetic-energy cutoff     =      40.0000  Ry
     charge density cutoff     =     500.0000  Ry
     convergence threshold     =      1.0E-06
     mixing beta               =       0.7000
     number of iterations used =            8  plain     mixing
     Exchange-correlation      = SLA  PW   PBE  PBE ( 1 4 3 4 0)
     EXX-fraction              =        0.00
     nstep                     =           50

     celldm(1)=  10.960412  celldm(2)=   0.000000  celldm(3)=   0.000000
     celldm(4)=   0.000000  celldm(5)=   0.000000  celldm(6)=   0.000000

     crystal axes: (cart. coord. in units of alat)
               a(1) = (   1.000000   0.000000   0.000000 )
               a(2) = (   0.000000   1.067975   0.000000 )
               a(3) = (   0.000000   0.000000   4.516251 )

     reciprocal axes: (cart. coord. in units 2 pi/alat)
               b(1) = (  1.000000  0.000000  0.000000 )
               b(2) = (  0.000000  0.936351  0.000000 )
               b(3) = (  0.000000  0.000000  0.221423 )

     PseudoPot. # 1 for O  read from file:
     /home/camp/zhonxu/pseudo/o_pbe_v1.01.uspp.F.UPF
     MD5 check sum: 2bcb18d16ea4b960afae9ec6d52f22d2
     Pseudo is Ultrasoft + core correction, Zval =  6.0
     Generated by new atomic code, or converted to UPF format
     Using radial grid of  737 points,  5 beta functions with:
                l(1) =   0
                l(2) =   0
                l(3) =   1
                l(4) =   1
                l(5) =   2
     Q(r) pseudized with  8 coefficients,  rinner =    0.900   0.900   0.900
                                                       0.900   0.900

     PseudoPot. # 2 for Cr read from file:
     /home/camp/zhonxu/pseudo/cr_pbe_v1.uspp.F.UPF
     MD5 check sum: 68b6f918d1762dccfb11451fe85b0e0e
     Pseudo is Ultrasoft + core correction, Zval = 14.0
     Generated by new atomic code, or converted to UPF format
     Using radial grid of  857 points,  6 beta functions with:
                l(1) =   0
                l(2) =   0
                l(3) =   1
                l(4) =   1
                l(5) =   2
                l(6) =   2
     Q(r) pseudized with  6 coefficients,  rinner =    1.000   1.000   1.000
                                                       1.000   1.000

     PseudoPot. # 3 for H  read from file:
     /home/camp/zhonxu/pseudo/h_pbe_v1.uspp.F.UPF
     MD5 check sum: 3408e3ff4ec8b0a4e358431e7e038a48
     Pseudo is Ultrasoft, Zval =  1.0
     Generated by new atomic code, or converted to UPF format
     Using radial grid of  615 points,  2 beta functions with:
                l(1) =   0
                l(2) =   0
     Q(r) pseudized with  8 coefficients,  rinner =    0.700

     atomic species   valence    mass     pseudopotential
        O0             6.00    15.99940     O ( 1.00)
        Cr1           14.00    51.99600     Cr( 1.00)
        H2             1.00     1.00794     H ( 1.00)

     Starting magnetic structure
     atomic species   magnetization
        O0           0.000
        Cr1          0.600
        H2           0.000

     No symmetry found

   Cartesian axes

     site n.     atom                  positions (alat units)
         1           O0  tau(   1) = (   0.0000000   0.0000000   1.7030331  )
         2           O0  tau(   2) = (   0.0000000   0.5339875   1.8028422  )
         3           Cr1 tau(   3) = (   0.2500000   0.5339875   2.0350227  )
         4           Cr1 tau(   4) = (   0.0000000   0.0000000   2.0223320  )
         5           O0  tau(   5) = (   0.2500000   0.8543801   2.0287902  )
         6           O0  tau(   6) = (   0.2500000   0.2135950   2.0292419  )
         7           O0  tau(   7) = (   0.0000000   0.5339875   2.2445767  )
         8           O0  tau(   8) = (   0.0000000   0.0000000   2.3628573  )
         9           Cr1 tau(   9) = (   0.2500000   0.0000000   2.5580045  )
        10           Cr1 tau(  10) = (   0.0000000   0.5339875   2.5485656  )
        11           O0  tau(  11) = (   0.2500000   0.7475825   2.5953991  )
        12           O0  tau(  12) = (   0.2500000   0.3203925   2.5951281  )
        13           O0  tau(  13) = (   0.0000000   0.0000000   2.7889204  )
        14           O0  tau(  14) = (   0.5000000   0.0000000   1.7055170  )
        15           O0  tau(  15) = (   0.5000000   0.5339875   1.8012615  )
        16           Cr1 tau(  16) = (   0.7500000   0.5339875   2.0359259  )
        17           Cr1 tau(  17) = (   0.5000000   0.0000000   2.0265773  )
        18           O0  tau(  18) = (   0.7500000   0.8543801   2.0288354  )
        19           O0  tau(  19) = (   0.7500000   0.2135950   2.0296032  )
        20           O0  tau(  20) = (   0.5000000   0.5339875   2.2364023  )
        21           O0  tau(  21) = (   0.5000000   0.0000000   2.3615024  )
        22           Cr1 tau(  22) = (   0.7500000   0.0000000   2.6337872  )
        23           Cr1 tau(  23) = (   0.5000000   0.5339875   2.6580395  )
        24           O0  tau(  24) = (   0.7500000   0.7475825   2.5992379  )
        25           O0  tau(  25) = (   0.7500000   0.3203925   2.5991024  )
        26           O0  tau(  26) = (   0.5000000   0.0000000   2.7868881  )
        27           H2  tau(  27) = (  -0.0008000   0.6785059   1.7121107  )
        28           H2  tau(  28) = (   0.4997900   0.6815710   1.7150915  )
        29           H2  tau(  29) = (   0.1566700   0.0342393   1.6437347  )
        30           H2  tau(  30) = (   0.6553000   0.0356063   1.6443670  )
        31           O0  tau(  31) = (   0.4989300   0.5335603   2.9283823  )

     number of k points=    20  Methfessel-Paxton smearing, width (Ry)=  0.0100
                       cart. coord. in units 2pi/alat
        k(    1) = (   0.0000000   0.0000000   0.0000000), wk =   0.0625000
        k(    2) = (   0.0000000   0.2340879   0.0000000), wk =   0.1250000
        k(    3) = (   0.0000000  -0.4681757   0.0000000), wk =   0.0625000
        k(    4) = (   0.2500000   0.0000000   0.0000000), wk =   0.1250000
        k(    5) = (   0.2500000   0.2340879   0.0000000), wk =   0.1250000
        k(    6) = (   0.2500000  -0.4681757   0.0000000), wk =   0.1250000
        k(    7) = (  -0.5000000   0.0000000   0.0000000), wk =   0.0625000
        k(    8) = (  -0.5000000   0.2340879   0.0000000), wk =   0.1250000
        k(    9) = (  -0.5000000  -0.4681757   0.0000000), wk =   0.0625000
        k(   10) = (  -0.2500000   0.2340879   0.0000000), wk =   0.1250000
        k(   11) = (   0.0000000   0.0000000   0.0000000), wk =   0.0625000
        k(   12) = (   0.0000000   0.2340879   0.0000000), wk =   0.1250000
        k(   13) = (   0.0000000  -0.4681757   0.0000000), wk =   0.0625000
        k(   14) = (   0.2500000   0.0000000   0.0000000), wk =   0.1250000
        k(   15) = (   0.2500000   0.2340879   0.0000000), wk =   0.1250000
        k(   16) = (   0.2500000  -0.4681757   0.0000000), wk =   0.1250000
        k(   17) = (  -0.5000000   0.0000000   0.0000000), wk =   0.0625000
        k(   18) = (  -0.5000000   0.2340879   0.0000000), wk =   0.1250000
        k(   19) = (  -0.5000000  -0.4681757   0.0000000), wk =   0.0625000
        k(   20) = (  -0.2500000   0.2340879   0.0000000), wk =   0.1250000

     Largest allocated arrays     est. size (Mb)     dimensions
     Largest temporary arrays     est. size (Mb)     dimensions

     Check: negative/imaginary core charge=   -0.000012    0.000000

     Initial potential from superposition of free atoms
     Check: negative starting charge=(component1):   -0.001547
     Check: negative starting charge=(component2):   -0.000494

     starting charge  221.99984, renormalised to  230.00000

     negative rho (up, down):  0.160E-02 0.512E-03
     Starting wfc are  160 randomized atomic wfcs

     Self-consistent Calculation

     iteration #  1     ecut=    40.00 Ry     beta=0.70
     Davidson diagonalization with overlap
     ethr =  1.00E-02,  avg # of iterations =  5.3

     negative rho (up, down):  0.272E-02 0.119E-02

     total energy              =   -1998.32360854 Ry
     Harris-Foulkes estimate   =   -2022.64739943 Ry
     estimated scf accuracy    <      38.81062577 Ry

     total magnetization       =    14.00 Bohr mag/cell
     absolute magnetization    =    26.83 Bohr mag/cell

[...]

     total energy              =   -2025.86932153 Ry
     Harris-Foulkes estimate   =   -2025.86932181 Ry
     estimated scf accuracy    <       0.00000285 Ry

[...]

     iteration # 58     ecut=    40.00 Ry     beta=0.70
     Davidson diagonalization with overlap
     ethr =  8.53E-10,  avg # of iterations =  1.0

     negative rho (up, down):  0.451E-02 0.169E-02

     End of self-consistent calculation

 ------ SPIN UP ------------

          k = 0.0000 0.0000 0.0000 ( 27003 PWs)   bands (ev):

   -75.6348 -75.5530 -75.3000 -75.1118 -75.1083 -75.0938 -75.0924 -75.0787
   -47.1756 -46.9476 -46.9096 -46.8484 -46.8388 -46.8188 -46.7718 -46.5574
   -46.5443 -46.5263 -46.5141 -46.4931 -46.4845 -46.4713 -46.4054 -46.3913
   -46.3825 -46.3785 -46.3642 -46.3577 -46.3560 -46.3406 -46.3101 -46.2812
   -21.5028 -21.0707 -20.7015 -20.6445 -20.5609 -20.1217 -20.0851 -19.9570
   -19.9294 -19.8005 -19.7664 -19.6821 -19.6803 -19.6610 -19.4788 -19.4629
   -19.2863 -19.1835 -19.1089  -9.3292  -9.0983  -9.0157  -8.8395  -8.7021
    -8.1164  -8.0341  -7.9952  -7.9715  -7.9321  -7.8900  -7.8276  -7.7398
    -7.3752  -7.2447  -7.1814  -7.1245  -7.1183  -7.0816  -7.0151  -6.8477
    -6.8031  -6.7343  -6.6122  -6.4477  -6.1236  -6.1091  -5.9707  -5.9413
    -5.7503  -5.6063  -5.5286  -5.4875  -5.4306  -5.3251  -5.1410  -5.0436
    -4.9735  -4.9374  -4.8688  -4.7752  -4.7173  -4.5670  -4.4238  -4.3059
    -4.3020  -4.1302  -4.0828  -3.9610  -3.8988  -3.8645  -3.7964  -3.7032
    -3.5045  -3.4653  -3.2633  -3.2340  -3.0690  -2.7209  -2.7094  -2.6320
    -2.4988  -2.4429  -2.2670  -2.2105  -2.1986  -2.1587  -1.9688  -1.9343
    -1.7630  -1.6487  -1.5917  -1.3947  -1.3495  -1.2075  -1.1196  -0.9661
    -0.8928  -0.8500  -0.5685  -0.4860  -0.4633   0.4576   0.5631   0.5941
     0.7928   1.1650   1.3343   1.3400   1.4797   1.6290   1.7042   1.7842
     1.8895   2.0934   2.1372   2.4957   3.1118   3.6836   3.8456   4.3663
     4.8485   5.6193   6.1122   6.2398   6.7301   7.0856   7.1000   7.1456
     7.3644   7.5068   7.6412   7.7193   7.8585   8.0355   8.1206   8.1497
     8.2485   8.2915   8.3893   8.4038   8.5279   8.7715   8.7967   8.8862
     8.9891   9.2074   9.3352   9.3632   9.3950   9.4669   9.5693   9.6857
     9.8424   9.9999  10.0272  10.0985  10.1853  10.2684  10.4498  10.5626
    10.6604  10.8191  10.9344  11.0856  11.1652  11.2791  11.3779  11.3980
    11.4355  11.4589  11.7299  11.7540  11.8047  11.8496  11.9210  12.0829
    12.1532  12.1729  12.1935  12.2678  12.3774  12.4163  12.4462  12.5081
    12.5290  12.5979  12.6355  12.6517  12.7718  12.8530  12.9598  13.0428
    13.0479  13.0957  13.1313  13.2235  13.2968  13.3623  13.4432  13.5923
    13.6295  13.6947  13.7429  13.8361  13.9240  14.0648  14.1479  14.1746
    14.3175  14.4177  14.4836  14.5167  14.5781  14.6029  14.7392  14.8435
    14.8870  15.0411  15.1191  15.1458  15.2278  15.2826  15.3283  15.5028
    15.6035  15.6907  15.8020  15.8562  16.1707  16.1897  16.2418  16.4101
    16.4537  16.5750  16.6658  16.7882  16.8409  16.9897  17.0266  17.0806
    17.1240  17.3146  17.4302  17.5486  17.5999  17.7581  17.8019  17.9218
    18.0114  18.0210  18.0761  18.2048  18.3122  18.3902  18.5870  18.6439
    18.7117  18.8118  18.8438  18.9564  19.0060  19.0424  19.1455  19.1686
    19.2393  19.3795  19.4676  19.5342  19.6088  19.6300  19.7098  19.7645
    19.8529  19.8740  19.9946  20.0459  20.1027  20.1349  20.2402  20.2953
    20.3203  20.4614  20.4932  20.5851  20.6732  20.9108  20.9532  21.0176
    21.0428  21.1254  21.1480  21.2021  21.2875  21.3513  21.3790  21.4775
    21.5010  21.6234  21.6282  21.7362  21.8532

[...]

          k =-0.5000 0.0000 0.0000 ( 27158 PWs)   bands (ev):

[...]

 ------ SPIN DOWN ----------

[...]

          k = 0.2500-0.4682 0.0000 ( 27150 PWs)   bands (ev):

[...]

          k =-0.2500 0.2341 0.0000 ( 27132 PWs)   bands (ev):

   -74.4436 -74.2480 -72.9143 -72.8441 -72.8328 -72.7863 -72.7682 -72.7631
   -46.3593 -46.1109 -45.7398 -45.5200 -45.2900 -45.1872 -44.6225 -44.4477
   -44.4322 -44.4281 -44.4158 -44.4147 -44.1755 -44.1613 -44.1254 -44.0918
   -44.0916 -44.0590 -44.0461 -44.0307 -43.9976 -43.9782 -43.9038 -43.8648
   -21.3228 -20.8745 -20.7459 -20.6939 -20.5465 -20.2494 -20.1567 -20.0906
   -19.9997 -19.8967 -19.8512 -19.7689 -19.6820 -19.6667 -19.6549 -19.5637
   -19.4104 -19.3146 -19.2730  -8.9213  -8.6475  -8.3302  -8.3113  -8.1669
    -7.9217  -7.7809  -7.7365  -7.6345  -7.5646  -7.5121  -7.3851  -7.2807
    -7.1775  -7.1149  -7.0193  -6.8848  -6.8408  -6.6420  -6.6227  -6.5309
    -6.4740  -6.3830  -6.2311  -6.1173  -6.0478  -5.9068  -5.8067  -5.7003
    -5.6668  -5.5789  -5.5191  -5.4542  -5.4388  -5.2731  -5.1908  -5.1313
    -5.0887  -4.9050  -4.8095  -4.6706  -4.5471  -4.4490  -4.4065  -4.3031
    -4.2224  -4.1060  -4.0661  -3.9788  -3.9343  -3.8072  -3.6558  -3.6116
    -3.4626  -3.3630  -3.2096  -2.9652  -1.0461  -0.8090  -0.7437  -0.6112
    -0.4654  -0.4209  -0.3367  -0.2522  -0.1902  -0.1560  -0.0707  -0.0007
     0.0680   0.1782   0.2237   0.2318   0.3546   0.3757   0.4791   0.5317
     0.6241   0.6587   0.8246   0.8739   1.0449   1.1378   1.3050   1.7173
     1.8421   2.0285   2.1669   2.3639   2.4914   2.5553   2.6253   2.7457
     2.8400   3.0173   3.3464   3.4310   3.7655   4.2599   4.4458   4.9347
     5.4166   5.6504   5.7260   6.0767   6.2744   6.4386   6.5091   6.6737
     6.7955   6.9533   7.0324   7.3256   7.4845   7.7820   7.8855   8.0262
     8.3153   8.3464   8.4292   8.5584   8.7259   8.8355   9.0389   9.0790
     9.2616   9.2828   9.4450   9.5888   9.7409   9.8143   9.9395  10.1211
    10.1674  10.2555  10.3423  10.4396  10.5192  10.6509  10.7381  10.8418
    10.9313  11.0231  11.2068  11.2446  11.3119  11.3510  11.5365  11.6218
    11.6687  11.7787  11.8501  11.9278  12.0367  12.0996  12.1783  12.2795
    12.3676  12.4322  12.5319  12.6614  12.7369  12.8002  12.8676  12.9101
    12.9837  13.0050  13.0983  13.1443  13.2124  13.2810  13.3347  13.4295
    13.4895  13.5725  13.6926  13.8012  13.8704  13.9375  13.9997  14.0470
    14.1234  14.2619  14.3778  14.4480  14.4718  14.5188  14.6160  14.7230
    14.7796  14.8573  14.9545  14.9899  15.0527  15.1751  15.2534  15.3778
    15.4237  15.4893  15.5993  15.6588  15.7625  15.8577  15.9452  16.0099
    16.0917  16.1453  16.2071  16.2752  16.3775  16.4581  16.5129  16.5422
    16.6080  16.7663  16.8104  16.8444  16.9226  17.0558  17.0836  17.1159
    17.1989  17.2297  17.3852  17.4547  17.4825  17.5339  17.5959  17.6834
    17.7116  17.7591  17.7939  17.8990  17.9732  18.0453  18.1253  18.2351
    18.2644  18.3319  18.3882  18.3998  18.5791  18.6781  18.7656  18.8140
    18.8610  18.9303  18.9820  19.0243  19.0725  19.2352  19.3240  19.3823
    19.4227  19.4957  19.5802  19.6574  19.6730  19.7562  19.7939  19.8668
    19.9586  20.0412  20.1242  20.1934  20.3160  20.3570  20.4547  20.5227
    20.6276  20.7136  20.7769  20.8343  20.9146  21.0195  21.0804  21.1512
    21.2194  21.2498  21.3329  21.4234  21.4989

     the spin up/dw Fermi energies are    -1.5767   -2.7711 ev

!    total energy              =   -2025.86932128 Ry
     Harris-Foulkes estimate   =   -2025.86932175 Ry
     estimated scf accuracy    <       0.00000057 Ry

     The total energy is the sum of the following terms:

     one-electron contribution =  -23896.70993426 Ry
     hartree contribution      =   11965.60063180 Ry
     xc contribution           =    -321.57153125 Ry
     ewald contribution        =   10226.81109503 Ry
     smearing contrib. (-TS)   =       0.00041740 Ry

     total magnetization       =    14.00 Bohr mag/cell
     absolute magnetization    =    16.48 Bohr mag/cell

     convergence has been achieved in  58 iterations

     Forces acting on atoms (Ry/au):

     negative rho (up, down):  0.451E-02 0.169E-02
     atom    1 type  1   force =    -0.00224437   -0.01195571   -0.00006438
     atom    2 type  1   force =    -0.00053808    0.00818961   -0.00053693
     atom    3 type  2   force =     0.06252281   -0.00448243    0.00013906
     atom    4 type  2   force =    -0.00469220    0.00757507   -0.00017942
     atom    5 type  1   force =    -0.00241328    0.01226897   -0.00022225
     atom    6 type  1   force =    -0.00533140   -0.00910839   -0.00012484
     atom    7 type  1   force =     0.00109686   -0.00120107    0.00074764
     atom    8 type  1   force =    -0.00437995   -0.00099107   -0.00015961
     atom    9 type  2   force =     0.01476730    0.00069563    0.00052826
     atom   10 type  2   force =     0.00625610   -0.00012412    0.00072883
     atom   11 type  1   force =    -0.00693113   -0.05371265   -0.00000576
     atom   12 type  1   force =    -0.00662758    0.05317684    0.00010569
     atom   13 type  1   force =    -0.04900857    0.00012334   -0.00063603
     atom   14 type  1   force =    -0.00647100   -0.01273947   -0.00060282
     atom   15 type  1   force =     0.00024527    0.00741713   -0.00025893
     atom   16 type  2   force =    -0.06478152   -0.00362061    0.00007958
     atom   17 type  2   force =     0.00654588    0.00704837   -0.00022533
     atom   18 type  1   force =     0.00801324    0.01210691   -0.00014488
     atom   19 type  1   force =     0.00550620   -0.00991070   -0.00018996
     atom   20 type  1   force =     0.00069799   -0.00138033    0.00024733
     atom   21 type  1   force =     0.00124707    0.00011421    0.00015494
     atom   22 type  2   force =     0.01958870    0.00008442    0.00057599
     atom   23 type  2   force =    -0.00713068    0.00022139    0.00095150
     atom   24 type  1   force =    -0.00104429   -0.04869284   -0.00015554
     atom   25 type  1   force =    -0.00040415    0.04875757   -0.00019781
     atom   26 type  1   force =     0.03432910   -0.00009966   -0.00059577
     atom   27 type  3   force =     0.00000667    0.00002879    0.00003756
     atom   28 type  3   force =    -0.00002604    0.00011293    0.00009270
     atom   29 type  3   force =     0.00051099    0.00000194    0.00010233
     atom   30 type  3   force =     0.00053302    0.00009518    0.00030313
     atom   31 type  1   force =     0.00015703    0.00000072   -0.00049429

     Total force =     0.002335     Total SCF correction =     0.001710
     SCF correction compared to forces is large: reduce conv_thr to get better values

     BFGS Geometry Optimization

     bfgs converged in   1 scf cycles and   0 bfgs steps
     (criteria: energy < 0.10E-03, force < 0.10E-02)

     End of BFGS Geometry Optimization

     Final energy   =   -2025.8693212824 Ry
Begin final coordinates

ATOMIC_POSITIONS (crystal)
O0       0.000000000   0.000000000   0.377090000    0   0   1
O0       0.000000000   0.500000000   0.399190000    0   0   1
Cr1      0.250000000   0.500000000   0.450600000    0   0   1
Cr1      0.000000000   0.000000000   0.447790000    0   0   1
O0       0.250000000   0.800000000   0.449220000    0   0   1
O0       0.250000000   0.200000000   0.449320000    0   0   1
O0       0.000000000   0.500000000   0.497000000    0   0   1
O0       0.000000000   0.000000000   0.523190000    0   0   1
Cr1      0.250000000   0.000000000   0.566400000    0   0   1
Cr1      0.000000000   0.500000000   0.564310000    0   0   1
O0       0.250000000   0.700000000   0.574680000    0   0   1
O0       0.250000000   0.300000000   0.574620000    0   0   1
O0       0.000000000   0.000000000   0.617530000    0   0   1
O0       0.500000000   0.000000000   0.377640000    0   0   1
O0       0.500000000   0.500000000   0.398840000    0   0   1
Cr1      0.750000000   0.500000000   0.450800000    0   0   1
Cr1      0.500000000   0.000000000   0.448730000    0   0   1
O0       0.750000000   0.800000000   0.449230000    0   0   1
O0       0.750000000   0.200000000   0.449400000    0   0   1
O0       0.500000000   0.500000000   0.495190000    0   0   1
O0       0.500000000   0.000000000   0.522890000    0   0   1
Cr1      0.750000000   0.000000000   0.583180000    0   0   1
Cr1      0.500000000   0.500000000   0.588550000    0   0   1
O0       0.750000000   0.700000000   0.575530000    0   0   1
O0       0.750000000   0.300000000   0.575500000    0   0   1
O0       0.500000000   0.000000000   0.617080000    0   0   1
H2      -0.000800000   0.635320000   0.379100000
H2       0.499790000   0.638190000   0.379760000
H2       0.156670000   0.032060000   0.363960000
H2       0.655300000   0.033340000   0.364100000
O0       0.498930000   0.499600000   0.648410000
End final coordinates

     General routines

     Parallel routines

   This run was terminated on:   5: 1:23  22Apr2014

   JOB DONE.
Running PBS batch system epilogue script
Job id: 338452.audhumbla.fysik.dtu.dk
Username: zhonxu
Groupname: campgst
Jobname: CrO2/Eads-2-layers/O-relax-surf
Sessionid: 13951
Queuename: verylong
Accounting:
This job has allocated the following 16 nodes:
b057 b057 b057 b057 b057 b057 b057 b057 b032 b032 b032 b032 b032 b032 b032 b032
Finished epilogue job 338452.audhumbla.fysik.dtu.dk for zhonxu