     Program PWSCF v.5.0.2 (svn rev. 9656) starts on 31May2014 at 23:38:36

     Current dimensions of program PWSCF are:
     Max number of different atomic species (ntypx) = 10
     Max number of k-points (npk) =  40000
     Max angular momentum in pseudopotentials (lmaxx) =  3
     Reading input from pwscf.in
Warning: card &CELL ignored
Warning: card / ignored

     Subspace diagonalization in iterative solution of the eigenvalue problem:
     a serial algorithm will be used

     bravais-lattice index     =            0
     lattice parameter (alat)  =      11.2250  a.u.
     unit-cell volume          =    7005.5484 (a.u.)^3
     number of atoms/cell      =           33
     number of atomic types    =            3
     number of electrons       =       221.00
     number of Kohn-Sham states=          319
     kinetic-energy cutoff     =      40.0000  Ry
     charge density cutoff     =     500.0000  Ry
     convergence threshold     =      1.0E-06
     mixing beta               =       0.7000
     number of iterations used =            8  plain     mixing
     Exchange-correlation      = SLA  PW   PBE  PBE ( 1 4 3 4 0)
     EXX-fraction              =        0.00
     nstep                     =           50

     celldm(1)=  11.224973  celldm(2)=   0.000000  celldm(3)=   0.000000
     celldm(4)=   0.000000  celldm(5)=   0.000000  celldm(6)=   0.000000

     crystal axes: (cart. coord. in units of alat)
               a(1) = (   1.000000   0.000000   0.000000 )
               a(2) = (   0.000000   1.107086   0.000000 )
               a(3) = (   0.000000   0.000000   4.474090 )

     reciprocal axes: (cart. coord. in units 2 pi/alat)
               b(1) = (  1.000000  0.000000  0.000000 )
               b(2) = (  0.000000  0.903272  0.000000 )
               b(3) = (  0.000000  0.000000  0.223509 )

     PseudoPot. # 1 for O  read from file:
     /home/camp/zhonxu/pseudo/o_pbe_v1.01.uspp.F.UPF
     MD5 check sum: 2bcb18d16ea4b960afae9ec6d52f22d2
     Pseudo is Ultrasoft + core correction, Zval =  6.0
     Generated by new atomic code, or converted to UPF format
     Using radial grid of  737 points,  5 beta functions with:
                l(1) =   0
                l(2) =   0
                l(3) =   1
                l(4) =   1
                l(5) =   2
     Q(r) pseudized with  8 coefficients,  rinner =    0.900   0.900   0.900
                                                       0.900   0.900

     PseudoPot. # 2 for Ti read from file:
     /home/camp/zhonxu/pseudo/ti_pbe_v1.uspp.F.UPF
     MD5 check sum: bcc8f6961b3b91f0cac3ca967d22d0fb
     Pseudo is Ultrasoft + core correction, Zval = 12.0
     Generated by new atomic code, or converted to UPF format
     Using radial grid of  851 points,  6 beta functions with:
                l(1) =   0
                l(2) =   0
                l(3) =   1
                l(4) =   1
                l(5) =   2
                l(6) =   2
     Q(r) pseudized with  6 coefficients,  rinner =    1.000   1.000   1.000
                                                       1.000   1.000

     PseudoPot. # 3 for H  read from file:
     /home/camp/zhonxu/pseudo/h_pbe_v1.uspp.F.UPF
     MD5 check sum: 3408e3ff4ec8b0a4e358431e7e038a48
     Pseudo is Ultrasoft, Zval =  1.0
     Generated by new atomic code, or converted to UPF format
     Using radial grid of  615 points,  2 beta functions with:
                l(1) =   0
                l(2) =   0
     Q(r) pseudized with  8 coefficients,  rinner =    0.700

     atomic species   valence    mass     pseudopotential
        O0             6.00    15.99940     O ( 1.00)
        Ti1           12.00    47.88000     Ti( 1.00)
        H2             1.00     1.00794     H ( 1.00)

     Simplified LDA+U calculation (l_max = 2) with parameters (eV):
     atomic species    L          U    alpha       J0     beta
        Ti1            2     7.0000   0.0000   0.0000   0.0000

     No symmetry found

   Cartesian axes

     site n.     atom                  positions (alat units)
         1           O0  tau(   1) = (   0.0000000   0.0000000   1.6912954  )
         2           O0  tau(   2) = (   0.0000000   0.5535432   1.7865040  )
         3           Ti1 tau(   3) = (   0.2500000   0.5535432   2.0182619  )
         4           Ti1 tau(   4) = (   0.0000000   0.0000000   2.0215280  )
         5           O0  tau(   5) = (   0.2500000   0.8967400   2.0132062  )
         6           O0  tau(   6) = (   0.2500000   0.2103464   2.0173223  )
         7           O0  tau(   7) = (   0.0000000   0.5535432   2.2297074  )
         8           O0  tau(   8) = (   0.0000000   0.0000000   2.3520737  )
         9           Ti1 tau(   9) = (   0.2500000   0.0000000   2.5974328  )
        10           Ti1 tau(  10) = (   0.0000000   0.5535432   2.5411040  )
        11           O0  tau(  11) = (   0.2500000   0.7638896   2.5876345  )
        12           O0  tau(  12) = (   0.2500000   0.3431968   2.5923323  )
        13           O0  tau(  13) = (   0.0000000   0.0000000   2.7826601  )
        14           O0  tau(  14) = (   0.5000000   0.0000000   1.6946510  )
        15           O0  tau(  15) = (   0.5000000   0.5535432   1.7849381  )
        16           Ti1 tau(  16) = (   0.7500000   0.5535432   2.0183066  )
        17           Ti1 tau(  17) = (   0.5000000   0.0000000   2.0277470  )
        18           O0  tau(  18) = (   0.7500000   0.8967400   2.0129377  )
        19           O0  tau(  19) = (   0.7500000   0.2103464   2.0175013  )
        20           O0  tau(  20) = (   0.5000000   0.5535432   2.2179405  )
        21           O0  tau(  21) = (   0.5000000   0.0000000   2.3528791  )
        22           Ti1 tau(  22) = (   0.7500000   0.0000000   2.5974328  )
        23           Ti1 tau(  23) = (   0.5000000   0.5535432   2.6181478  )
        24           O0  tau(  24) = (   0.7500000   0.7638896   2.5875898  )
        25           O0  tau(  25) = (   0.7500000   0.3431968   2.5922429  )
        26           O0  tau(  26) = (   0.5000000   0.0000000   2.7811837  )
        27           H2  tau(  27) = (  -0.0004600   0.6930693   1.6949194  )
        28           H2  tau(  28) = (   0.4997200   0.6918293   1.6916086  )
        29           H2  tau(  29) = (   0.1490000   0.0365781   1.6268238  )
        30           H2  tau(  30) = (   0.6482800   0.0381834   1.6297319  )
        31           O0  tau(  31) = (   0.5003100   0.5833902   2.9430115  )
        32           O0  tau(  32) = (   0.4991200   0.3876242   3.0783974  )
        33           H2  tau(  33) = (   0.5003600   0.4575034   3.2295322  )

     number of k points=    10  Methfessel-Paxton smearing, width (Ry)=  0.0100
                       cart. coord. in units 2pi/alat
        k(    1) = (   0.0000000   0.0000000   0.0000000), wk =   0.1250000
        k(    2) = (   0.0000000   0.2258180   0.0000000), wk =   0.2500000
        k(    3) = (   0.0000000  -0.4516359   0.0000000), wk =   0.1250000
        k(    4) = (   0.2500000   0.0000000   0.0000000), wk =   0.2500000
        k(    5) = (   0.2500000   0.2258180   0.0000000), wk =   0.2500000
        k(    6) = (   0.2500000  -0.4516359   0.0000000), wk =   0.2500000
        k(    7) = (  -0.5000000   0.0000000   0.0000000), wk =   0.1250000
        k(    8) = (  -0.5000000   0.2258180   0.0000000), wk =   0.2500000
        k(    9) = (  -0.5000000  -0.4516359   0.0000000), wk =   0.1250000
        k(   10) = (  -0.2500000   0.2258180   0.0000000), wk =   0.2500000

     Largest allocated arrays     est. size (Mb)     dimensions
     Largest temporary arrays     est. size (Mb)     dimensions

     Check: negative/imaginary core charge=   -0.000006    0.000000

     Initial potential from superposition of free atoms
     Check: negative starting charge=   -0.102033

     starting charge  212.99957, renormalised to  221.00000

     negative rho (up, down):  0.106E+00 0.000E+00
     Number of +U iterations with fixed ns =  0
     Starting occupations:
 --- enter write_ns ---
 LDA+U parameters:
U( 2)     =  7.00000000
alpha( 2) =  0.00000000
atom    3   Tr[ns(na)] =   2.00000
    eigenvalues:
  0.200  0.200  0.200  0.200  0.200
    eigenvectors:
  1.000  0.000  0.000  0.000  0.000
  0.000  1.000  0.000  0.000  0.000
  0.000  0.000  1.000  0.000  0.000
  0.000  0.000  0.000  1.000  0.000
  0.000  0.000  0.000  0.000  1.000
    occupations:
  0.200  0.000  0.000  0.000  0.000
  0.000  0.200  0.000  0.000  0.000
  0.000  0.000  0.200  0.000  0.000
  0.000  0.000  0.000  0.200  0.000
  0.000  0.000  0.000  0.000  0.200
atom    4   Tr[ns(na)] =   2.00000
    eigenvalues:
  0.200  0.200  0.200  0.200  0.200
    eigenvectors:
  1.000  0.000  0.000  0.000  0.000
  0.000  1.000  0.000  0.000  0.000
  0.000  0.000  1.000  0.000  0.000
  0.000  0.000  0.000  1.000  0.000
  0.000  0.000  0.000  0.000  1.000
    occupations:
  0.200  0.000  0.000  0.000  0.000
  0.000  0.200  0.000  0.000  0.000
  0.000  0.000  0.200  0.000  0.000
  0.000  0.000  0.000  0.200  0.000
  0.000  0.000  0.000  0.000  0.200
atom    9   Tr[ns(na)] =   2.00000
    eigenvalues:
  0.200  0.200  0.200  0.200  0.200
    eigenvectors:
  1.000  0.000  0.000  0.000  0.000
  0.000  1.000  0.000  0.000  0.000
  0.000  0.000  1.000  0.000  0.000
  0.000  0.000  0.000  1.000  0.000
  0.000  0.000  0.000  0.000  1.000
    occupations:
  0.200  0.000  0.000  0.000  0.000
  0.000  0.200  0.000  0.000  0.000
  0.000  0.000  0.200  0.000  0.000
  0.000  0.000  0.000  0.200  0.000
  0.000  0.000  0.000  0.000  0.200
atom   10   Tr[ns(na)] =   2.00000
    eigenvalues:
  0.200  0.200  0.200  0.200  0.200
    eigenvectors:
  1.000  0.000  0.000  0.000  0.000
  0.000  1.000  0.000  0.000  0.000
  0.000  0.000  1.000  0.000  0.000
  0.000  0.000  0.000  1.000  0.000
  0.000  0.000  0.000  0.000  1.000
    occupations:
  0.200  0.000  0.000  0.000  0.000
  0.000  0.200  0.000  0.000  0.000
  0.000  0.000  0.200  0.000  0.000
  0.000  0.000  0.000  0.200  0.000
  0.000  0.000  0.000  0.000  0.200
atom   16   Tr[ns(na)] =   2.00000
    eigenvalues:
  0.200  0.200  0.200  0.200  0.200
    eigenvectors:
  1.000  0.000  0.000  0.000  0.000
  0.000  1.000  0.000  0.000  0.000
  0.000  0.000  1.000  0.000  0.000
  0.000  0.000  0.000  1.000  0.000
  0.000  0.000  0.000  0.000  1.000
    occupations:
  0.200  0.000  0.000  0.000  0.000
  0.000  0.200  0.000  0.000  0.000
  0.000  0.000  0.200  0.000  0.000
  0.000  0.000  0.000  0.200  0.000
  0.000  0.000  0.000  0.000  0.200
atom   17   Tr[ns(na)] =   2.00000
    eigenvalues:
  0.200  0.200  0.200  0.200  0.200
    eigenvectors:
  1.000  0.000  0.000  0.000  0.000
  0.000  1.000  0.000  0.000  0.000
  0.000  0.000  1.000  0.000  0.000
  0.000  0.000  0.000  1.000  0.000
  0.000  0.000  0.000  0.000  1.000
    occupations:
  0.200  0.000  0.000  0.000  0.000
  0.000  0.200  0.000  0.000  0.000
  0.000  0.000  0.200  0.000  0.000
  0.000  0.000  0.000  0.200  0.000
  0.000  0.000  0.000  0.000  0.200
atom   22   Tr[ns(na)] =   2.00000
    eigenvalues:
  0.200  0.200  0.200  0.200  0.200
    eigenvectors:
  1.000  0.000  0.000  0.000  0.000
  0.000  1.000  0.000  0.000  0.000
  0.000  0.000  1.000  0.000  0.000
[...]
    eigenvectors:
  0.000  0.000  0.891  0.109  0.000
  0.000  0.000  0.000  0.001  0.999
  0.995  0.005  0.000  0.000  0.000
  0.000  0.000  0.109  0.890  0.001
  0.005  0.995  0.000  0.000  0.000
    occupations:
  0.196 -0.001  0.001  0.066 -0.000
 -0.001  0.472  0.001  0.003 -0.000
  0.001  0.001  0.123  0.000  0.003
  0.066  0.003  0.000  0.362  0.000
 -0.000 -0.000  0.003  0.000  0.165
atom   10   Tr[ns(na)] =   2.57418
    eigenvalues:
  0.133  0.162  0.186  0.325  0.482
    eigenvectors:
  0.021  0.000  0.000  0.978  0.000
  0.000  0.001  0.999  0.000  0.000
  0.000  0.999  0.001  0.000  0.000
  0.978  0.000  0.000  0.021  0.000
  0.000  0.000  0.000  0.000  1.000
    occupations:
  0.321 -0.001 -0.002 -0.028  0.001
 -0.001  0.186 -0.001  0.000  0.002
 -0.002 -0.001  0.162 -0.000 -0.003
 -0.028  0.000 -0.000  0.137 -0.000
  0.001  0.002 -0.003 -0.000  0.482
atom   16   Tr[ns(na)] =   2.53787
    eigenvalues:
  0.118  0.134  0.147  0.425  0.444
    eigenvectors:
  0.732  0.024  0.049  0.160  0.036
  0.000  0.002  0.000  0.199  0.798
  0.083  0.163  0.754  0.000  0.000
  0.183  0.004  0.009  0.640  0.164
  0.002  0.808  0.188  0.000  0.002
    occupations:
  0.181  0.000 -0.004  0.123 -0.001
  0.000  0.440 -0.001  0.008  0.014
 -0.004 -0.001  0.143  0.008  0.005
  0.123  0.008  0.008  0.369  0.000
 -0.001  0.014  0.005  0.000  0.137
atom   17   Tr[ns(na)] =   2.64739
    eigenvalues:
  0.122  0.147  0.162  0.437  0.455
    eigenvectors:
  0.007  0.002  0.000  0.000  0.990
  0.002  0.787  0.208  0.000  0.003
  0.001  0.206  0.792  0.000  0.000
  0.989  0.004  0.000  0.000  0.007
  0.000  0.000  0.000  1.000  0.000
    occupations:
  0.452  0.016  0.006 -0.027 -0.000
  0.016  0.151 -0.006 -0.000 -0.003
  0.006 -0.006  0.159  0.001 -0.000
 -0.027 -0.000  0.001  0.124 -0.000
 -0.000 -0.003 -0.000 -0.000  0.437
atom   22   Tr[ns(na)] =   2.63832
    eigenvalues:
  0.125  0.166  0.173  0.383  0.473
    eigenvectors:
  0.000  0.000  0.891  0.109  0.000
  0.000  0.000  0.000  0.001  0.999
  0.995  0.005  0.000  0.000  0.000
  0.000  0.000  0.109  0.890  0.001
  0.005  0.995  0.000  0.000  0.000
    occupations:
  0.196  0.001  0.000  0.065 -0.000
  0.001  0.473 -0.001 -0.003  0.000
  0.000 -0.001  0.125 -0.000 -0.003
  0.065 -0.003 -0.000  0.360 -0.000
 -0.000  0.000 -0.003 -0.000  0.166
atom   23   Tr[ns(na)] =   2.57988
    eigenvalues:
  0.127  0.134  0.161  0.389  0.479
    eigenvectors:
  0.000  0.014  0.003  0.983  0.000
  0.086  0.041  0.868  0.006  0.000
  0.898  0.004  0.097  0.000  0.000
  0.016  0.941  0.032  0.011  0.000
  0.000  0.000  0.000  0.000  1.000
    occupations:
  0.384 -0.018 -0.001 -0.027 -0.001
 -0.018  0.158 -0.010 -0.002  0.002
 -0.001 -0.010  0.130  0.002  0.003
 -0.027 -0.002  0.002  0.138 -0.000
 -0.001  0.002  0.003 -0.000  0.479
N of occupied +U levels =  20.8017751
 --- exit write_ns ---

[...]

     total energy              =   -1596.49734334 Ry
     Harris-Foulkes estimate   =   -1596.49734335 Ry
     estimated scf accuracy    <       0.00000003 Ry

     iteration # 16     ecut=    40.00 Ry     beta=0.70
     Davidson diagonalization with overlap
     ethr =  1.05E-11,  avg # of iterations =  1.0

     negative rho (up, down):  0.108E+00 0.000E+00

     End of self-consistent calculation
 --- enter write_ns ---
 LDA+U parameters:
U( 2)     =  7.00000000
alpha( 2) =  0.00000000
atom    3   Tr[ns(na)] =   2.53884
    eigenvalues:
  0.118  0.134  0.147  0.425  0.445
    eigenvectors:
  0.732  0.023  0.049  0.159  0.037
  0.000  0.002  0.000  0.203  0.795
  0.082  0.158  0.760  0.000  0.000
  0.183  0.005  0.008  0.637  0.167
  0.002  0.813  0.182  0.000  0.002
    occupations:
  0.181 -0.001 -0.004  0.123  0.000
 -0.001  0.440  0.001 -0.008  0.014
 -0.004  0.001  0.143  0.008 -0.005
  0.123 -0.008  0.008  0.369 -0.001
  0.000  0.014 -0.005 -0.001  0.137
atom    4   Tr[ns(na)] =   2.64895
    eigenvalues:
  0.122  0.147  0.163  0.438  0.455
    eigenvectors:
  0.007  0.002  0.000  0.000  0.990
  0.003  0.806  0.188  0.000  0.003
  0.001  0.187  0.812  0.000  0.000
  0.989  0.005  0.000  0.000  0.007
  0.000  0.000  0.000  0.999  0.000
    occupations:
  0.451  0.016  0.006 -0.027 -0.000
  0.016  0.150 -0.006 -0.000 -0.003
  0.006 -0.006  0.160  0.001 -0.000
 -0.027 -0.000  0.001  0.125 -0.000
 -0.000 -0.003 -0.000 -0.000  0.438
atom    9   Tr[ns(na)] =   2.63676
    eigenvalues:
  0.123  0.165  0.173  0.385  0.472
    eigenvectors:
  0.000  0.000  0.890  0.109  0.000
  0.000  0.000  0.000  0.001  0.999
  0.995  0.005  0.000  0.000  0.000
  0.000  0.000  0.109  0.890  0.001
  0.005  0.995  0.000  0.000  0.000
    occupations:
  0.196 -0.001  0.001  0.066 -0.000
 -0.001  0.472  0.001  0.003 -0.000
  0.001  0.001  0.124  0.000  0.003
  0.066  0.003  0.000  0.362  0.000
 -0.000 -0.000  0.003  0.000  0.165
atom   10   Tr[ns(na)] =   2.57540
    eigenvalues:
  0.133  0.162  0.186  0.324  0.483
    eigenvectors:
  0.022  0.000  0.000  0.978  0.000
  0.000  0.001  0.999  0.000  0.000
  0.000  0.999  0.001  0.000  0.000
  0.978  0.000  0.000  0.021  0.000
  0.000  0.000  0.000  0.000  1.000
    occupations:
  0.320 -0.001 -0.002 -0.028  0.001
 -0.001  0.186 -0.001  0.000  0.002
 -0.002 -0.001  0.162  0.000 -0.003
 -0.028  0.000  0.000  0.137 -0.000
  0.001  0.002 -0.003 -0.000  0.483
atom   16   Tr[ns(na)] =   2.53845
    eigenvalues:
  0.118  0.134  0.147  0.425  0.444
    eigenvectors:
  0.733  0.023  0.048  0.160  0.036
  0.000  0.002  0.000  0.197  0.800
  0.081  0.161  0.758  0.000  0.000
  0.183  0.004  0.008  0.642  0.162
  0.002  0.810  0.185  0.000  0.002
    occupations:
  0.181  0.000 -0.004  0.123 -0.001
  0.000  0.440 -0.001  0.008  0.014
 -0.004 -0.001  0.143  0.008  0.005
  0.123  0.008  0.008  0.369  0.000
 -0.001  0.014  0.005  0.000  0.137
atom   17   Tr[ns(na)] =   2.64593
    eigenvalues:
  0.122  0.147  0.162  0.437  0.455
    eigenvectors:
  0.007  0.002  0.000  0.000  0.990
  0.002  0.783  0.212  0.000  0.003
  0.001  0.211  0.787  0.000  0.000
  0.989  0.004  0.000  0.000  0.007
  0.000  0.000  0.000  1.000  0.000
    occupations:
  0.452  0.015  0.006 -0.027 -0.000
  0.015  0.151 -0.006 -0.000 -0.003
  0.006 -0.006  0.159  0.001 -0.000
 -0.027 -0.000  0.001  0.124 -0.000
 -0.000 -0.003 -0.000 -0.000  0.437
atom   22   Tr[ns(na)] =   2.63848
    eigenvalues:
  0.125  0.166  0.173  0.383  0.473
    eigenvectors:
  0.000  0.000  0.891  0.109  0.000
  0.000  0.000  0.000  0.001  0.999
  0.995  0.005  0.000  0.000  0.000
  0.000  0.000  0.109  0.890  0.001
  0.005  0.995  0.000  0.000  0.000
    occupations:
  0.196  0.001  0.000  0.066 -0.000
  0.001  0.472 -0.001 -0.003 -0.000
  0.000 -0.001  0.125 -0.000 -0.003
  0.066 -0.003 -0.000  0.360 -0.000
 -0.000 -0.000 -0.003 -0.000  0.166
atom   23   Tr[ns(na)] =   2.57982
    eigenvalues:
  0.127  0.134  0.161  0.390  0.479
    eigenvectors:
  0.000  0.014  0.002  0.983  0.000
  0.088  0.040  0.868  0.005  0.000
  0.896  0.005  0.100  0.000  0.000
  0.017  0.942  0.030  0.011  0.000
  0.000  0.000  0.000  0.000  1.000
    occupations:
  0.385 -0.017 -0.000 -0.027 -0.001
 -0.017  0.158 -0.010 -0.002  0.002
 -0.000 -0.010  0.130  0.002  0.003
 -0.027 -0.002  0.002  0.138 -0.000
 -0.001  0.002  0.003 -0.000  0.479
N of occupied +U levels =  20.8026229
 --- exit write_ns ---

[...]

          k = 0.2500-0.4516 0.0000 ( 29882 PWs)   bands (ev):

[...]

          k =-0.2500 0.2258 0.0000 ( 29912 PWs)   bands (ev):

   -61.4475 -61.4233 -61.1896 -60.8431 -60.1046 -60.0756 -59.6497 -59.6241
   -37.8279 -37.6223 -37.5988 -37.5252 -37.5166 -37.5146 -37.4940 -37.3688
   -37.2867 -37.0289 -37.0136 -36.9832 -36.5698 -36.3888 -36.3213 -36.2735
   -36.1270 -36.1041 -35.9602 -35.9397 -35.9036 -35.8057 -35.7456 -35.6201
   -24.9423 -21.4002 -21.1811 -20.2366 -19.7663 -19.7021 -19.3667 -19.3035
   -19.1547 -19.0681 -18.9860 -18.9803 -18.9695 -18.7971 -18.7273 -18.1287
   -17.8698 -17.6672 -17.4625 -17.3872  -9.6335  -9.0422  -8.8295  -7.9746
    -7.3092  -7.1824  -7.1346  -7.0801  -6.9902  -6.7829  -6.7469  -6.6704
    -6.6281  -6.5465  -6.4774  -6.3454  -6.2846  -6.2377  -6.1289  -6.0313
    -5.9450  -5.7253  -5.6747  -5.4444  -5.3351  -5.1162  -5.0578  -4.9213
    -4.9047  -4.8124  -4.7823  -4.6846  -4.6134  -4.5622  -4.4516  -4.3988
    -4.3700  -4.2972  -4.2402  -4.1060  -4.0452  -3.9481  -3.8585  -3.7197
    -3.6325  -3.5304  -3.3568  -3.1098  -2.9508  -2.7997  -2.7718  -2.6914
    -2.6166  -2.4604  -2.3732  -2.3026  -2.2468  -2.1348  -2.0487   0.2594
     0.5413   0.6207   0.6590   0.7037   0.7806   0.8920   1.0187   1.0470
     1.1362   1.2303   1.2816   1.4444   1.5374   1.6345   1.6724   1.8506
     1.9240   1.9371   2.0368   2.0746   2.1442   2.2506   2.3012   2.3841
     2.4728   2.5527   2.5751   2.5996   2.8267   3.0087   3.0973   3.1317
     3.1618   3.2633   3.4245   3.4901   3.7447   3.7991   3.8608   3.9541
     4.0991   4.1508   4.2413   4.7247   5.2289   5.3033   5.6170   5.6505
     5.7785   6.0316   6.1332   6.3240   6.4362   6.6238   6.7669   7.0497
     7.1608   7.3385   7.4720   7.5747   7.7857   7.9895   8.0479   8.1050
     8.2140   8.2820   8.4450   8.4824   8.6017   8.7555   8.8722   8.9764
     9.0958   9.2218   9.3185   9.4816   9.5419   9.6033   9.7412   9.7739
     9.8883   9.9733  10.0738  10.2453  10.3276  10.4123  10.4688  10.5809
    10.6834  10.7888  10.8744  10.9582  11.0241  11.0782  11.1668  11.2431
    11.3331  11.4272  11.5076  11.5506  11.6250  11.7200  11.7750  11.8542
    11.9383  12.0059  12.0577  12.1383  12.2072  12.2760  12.3463  12.3846
    12.5176  12.5387  12.6258  12.7051  12.7947  12.8837  12.9783  13.0217
    13.0627  13.0903  13.1931  13.3098  13.4309  13.5414  13.6178  13.7077
    13.7299  13.8034  13.9025  13.9578  14.0687  14.0824  14.1638  14.2033
    14.2409  14.3343  14.3779  14.4643  14.5296  14.5630  14.5963  14.7107
    14.8047  14.8756  14.9160  15.0120  15.1180  15.2341  15.2670  15.3181
    15.4516  15.5275  15.5839  15.6447  15.6668  15.7392  15.7657  15.8748
    15.9329  16.0048  16.0437  16.1047  16.2391  16.2874  16.3397  16.4037
    16.4975  16.5757  16.6395  16.7298  16.7878  16.8632  16.8869  16.9179
    16.9988  17.0659  17.1477  17.1802  17.3098  17.3402  17.4279  17.4648
    17.5661  17.6022  17.6658  17.7608  17.8341  17.9268  17.9798  18.0470
    18.0850  18.2070  18.2954  18.3934  18.4283  18.5344  18.5759  18.6415
    18.7030  18.7663  18.8268  18.9116  18.9848  19.0576  19.1317

     the Fermi energy is    -2.0360 ev

!    total energy              =   -1596.49734334 Ry
     Harris-Foulkes estimate   =   -1596.49734335 Ry
     estimated scf accuracy    <          3.9E-09 Ry

     The total energy is the sum of the following terms:

     one-electron contribution =  -19093.46835475 Ry
     hartree contribution      =    9566.81831540 Ry
     xc contribution           =    -284.40966816 Ry
     ewald contribution        =    8211.02853018 Ry
     Hubbard energy            =       3.53487679 Ry
     smearing contrib. (-TS)   =      -0.00104279 Ry

     convergence has been achieved in  16 iterations

     Forces acting on atoms (Ry/au):

     negative rho (up, down):  0.108E+00 0.000E+00
     atom    1 type  1   force =    -0.00362873   -0.01371928    0.00204111
     atom    2 type  1   force =     0.00014060    0.01290397   -0.00229426
     atom    3 type  2   force =     0.03601860   -0.00644641   -0.00034101
     atom    4 type  2   force =     0.00205492    0.00906244   -0.00023891
     atom    5 type  1   force =     0.00001423   -0.09042934    0.00020139
     atom    6 type  1   force =    -0.00335934    0.08858374    0.00067088
     atom    7 type  1   force =     0.00118318   -0.00076209    0.00266844
     atom    8 type  1   force =     0.00090984    0.00014796    0.00142230
     atom    9 type  2   force =    -0.00583714    0.00035738    0.00021693
     atom   10 type  2   force =     0.00360098    0.00255083    0.00043528
     atom   11 type  1   force =    -0.02345566   -0.01580056   -0.00024617
     atom   12 type  1   force =    -0.02045226    0.01750018   -0.00012637
     atom   13 type  1   force =    -0.00198624   -0.00006682   -0.00159118
     atom   14 type  1   force =    -0.00441131   -0.01418287    0.00184536
     atom   15 type  1   force =     0.00044775    0.01495377   -0.00121249
     atom   16 type  2   force =    -0.03604569   -0.00596775   -0.00045202
     atom   17 type  2   force =     0.00217647    0.00913518   -0.00009376
     atom   18 type  1   force =     0.00431222   -0.09055971    0.00015195
     atom   19 type  1   force =     0.00169284    0.08828139    0.00034011
     atom   20 type  1   force =    -0.00097497   -0.00035176   -0.00327878
     atom   21 type  1   force =     0.00012733    0.00004756    0.00128747
     atom   22 type  2   force =     0.00539073   -0.00145995    0.00051948
     atom   23 type  2   force =    -0.00278053    0.00529222   -0.00261992
     atom   24 type  1   force =     0.02322380   -0.01170225    0.00190932
     atom   25 type  1   force =     0.02213698    0.00424621   -0.00128974
     atom   26 type  1   force =     0.00200034   -0.00131854   -0.00170926
     atom   27 type  3   force =    -0.00009405    0.00280411    0.00050583
     atom   28 type  3   force =    -0.00012291    0.00153746    0.00036949
     atom   29 type  3   force =     0.00005495   -0.00163992   -0.00040373
     atom   30 type  3   force =     0.00017411   -0.00156029   -0.00014881
     atom   31 type  1   force =     0.00133262    0.00157938    0.00110018
     atom   32 type  1   force =    -0.00707273   -0.00246395   -0.00503877
     atom   33 type  3   force =     0.00322907   -0.00055228    0.00539963

     Total force =     0.014068     Total SCF correction =     0.000166

     entering subroutine stress ...

     negative rho (up, down):  0.108E+00 0.000E+00
          total   stress  (Ry/bohr**3)                   (kbar)     P=   15.88
   0.00027273  -0.00000145   0.00000207         40.12     -0.21      0.30
  -0.00000145   0.00008643   0.00000154         -0.21     12.71      0.23
   0.00000207   0.00000154  -0.00003538          0.30      0.23     -5.21

     The maximum number of steps has been reached.

     End of BFGS Geometry Optimization
Begin final coordinates

ATOMIC_POSITIONS (crystal)
O0       0.000000000   0.000000000   0.376029396    0   0   1
O0       0.000000000   0.500000000   0.398596058    0   0   1
Ti1      0.250000000   0.500000000   0.451033484    0   0   1
Ti1      0.000000000   0.000000000   0.450430323    0   0   1
O0       0.250000000   0.810000000   0.449699098    0   0   1
O0       0.250000000   0.190000000   0.450686831    0   0   1
O0       0.000000000   0.500000000   0.498719359    0   0   1
O0       0.000000000   0.000000000   0.527229670    0   0   1
Ti1      0.250000000   0.000000000   0.581272901    0   0   1
Ti1      0.000000000   0.500000000   0.571117165    0   0   1
O0       0.250000000   0.690000000   0.580429036    0   0   1
O0       0.250000000   0.310000000   0.581077293    0   0   1
O0       0.000000000   0.000000000   0.624984793    0   0   1
O0       0.500000000   0.000000000   0.376639467    0   0   1
O0       0.500000000   0.500000000   0.398563624    0   0   1
Ti1      0.750000000   0.500000000   0.451061665    0   0   1
Ti1      0.500000000   0.000000000   0.451474484    0   0   1
O0       0.750000000   0.810000000   0.449677705    0   0   1
O0       0.750000000   0.190000000   0.450805410    0   0   1
O0       0.500000000   0.500000000   0.499003184    0   0   1
O0       0.500000000   0.000000000   0.527580023    0   0   1
Ti1      0.750000000   0.000000000   0.581207356    0   0   1
Ti1      0.500000000   0.500000000   0.580768222    0   0   1
O0       0.750000000   0.690000000   0.579198000    0   0   1
O0       0.750000000   0.310000000   0.579920303    0   0   1
O0       0.500000000   0.000000000   0.625491819    0   0   1
H2       0.000151614   0.627314917   0.378576954
H2       0.500295396   0.629364649   0.379267024
H2       0.151184680   0.035634799   0.363271948
H2       0.650541977   0.036210203   0.363632979
O0       0.547545639   0.516086145   0.657235105
O0       0.393869977   0.397660737   0.684378133
H2       0.474943808   0.378856137   0.716411187
End final coordinates

     General routines

     Parallel routines
     Hubbard U routines

   This run was terminated on:  21:24:18   2Jun2014

   JOB DONE.
Running PBS batch system epilogue script
Job id: 373338.audhumbla.fysik.dtu.dk
Username: zhonxu
Groupname: campgst
Jobname: TiO2/Eads-2-layers/OOH-U-7.0
Sessionid: 16068
Queuename: verylong
Accounting:
This job has allocated the following 16 nodes:
b126 b126 b126 b126 b126 b126 b126 b126 b006 b006 b006 b006 b006 b006 b006 b006
Finished epilogue job 373338.audhumbla.fysik.dtu.dk for zhonxu