     Program PWSCF v.5.0.2 (svn rev. 9656) starts on  5Jun2014 at 21:11:53

     Current dimensions of program PWSCF are:
     Max number of different atomic species (ntypx) = 10
     Max number of k-points (npk) =  40000
     Max angular momentum in pseudopotentials (lmaxx) =  3
     Reading input from pwscf.in
Warning: card &CELL ignored
Warning: card / ignored

     Subspace diagonalization in iterative solution of the eigenvalue problem:
     a serial algorithm will be used

     bravais-lattice index     =            0
     lattice parameter (alat)  =      11.2250  a.u.
     unit-cell volume          =    7005.5484 (a.u.)^3
     number of atoms/cell      =           33
     number of atomic types    =            3
     number of electrons       =       221.00
     number of Kohn-Sham states=          319
     kinetic-energy cutoff     =      40.0000  Ry
     charge density cutoff     =     500.0000  Ry
     convergence threshold     =      1.0E-06
     mixing beta               =       0.7000
     number of iterations used =            8  plain     mixing
     Exchange-correlation      = SLA  PW   PBE  PBE ( 1 4 3 4 0)
     EXX-fraction              =        0.00
     nstep                     =           50

     celldm(1)=  11.224973  celldm(2)=   0.000000  celldm(3)=   0.000000
     celldm(4)=   0.000000  celldm(5)=   0.000000  celldm(6)=   0.000000

     crystal axes: (cart. coord. in units of alat)
               a(1) = (   1.000000   0.000000   0.000000 )
               a(2) = (   0.000000   1.107086   0.000000 )
               a(3) = (   0.000000   0.000000   4.474090 )

     reciprocal axes: (cart. coord. in units 2 pi/alat)
               b(1) = (  1.000000  0.000000  0.000000 )
               b(2) = (  0.000000  0.903272  0.000000 )
               b(3) = (  0.000000  0.000000  0.223509 )

     PseudoPot. # 1 for O  read from file:
     /home/camp/zhonxu/pseudo/o_pbe_v1.01.uspp.F.UPF
     MD5 check sum: 2bcb18d16ea4b960afae9ec6d52f22d2
     Pseudo is Ultrasoft + core correction, Zval =  6.0
     Generated by new atomic code, or converted to UPF format
     Using radial grid of  737 points,  5 beta functions with:
                l(1) =   0
                l(2) =   0
                l(3) =   1
                l(4) =   1
                l(5) =   2
     Q(r) pseudized with  8 coefficients,  rinner =    0.900   0.900   0.900
                                                       0.900   0.900

     PseudoPot. # 2 for Ti read from file:
     /home/camp/zhonxu/pseudo/ti_pbe_v1.uspp.F.UPF
     MD5 check sum: bcc8f6961b3b91f0cac3ca967d22d0fb
     Pseudo is Ultrasoft + core correction, Zval = 12.0
     Generated by new atomic code, or converted to UPF format
     Using radial grid of  851 points,  6 beta functions with:
                l(1) =   0
                l(2) =   0
                l(3) =   1
                l(4) =   1
                l(5) =   2
                l(6) =   2
     Q(r) pseudized with  6 coefficients,  rinner =    1.000   1.000   1.000
                                                       1.000   1.000

     PseudoPot. # 3 for H  read from file:
     /home/camp/zhonxu/pseudo/h_pbe_v1.uspp.F.UPF
     MD5 check sum: 3408e3ff4ec8b0a4e358431e7e038a48
     Pseudo is Ultrasoft, Zval =  1.0
     Generated by new atomic code, or converted to UPF format
     Using radial grid of  615 points,  2 beta functions with:
                l(1) =   0
                l(2) =   0
     Q(r) pseudized with  8 coefficients,  rinner =    0.700

     atomic species   valence    mass     pseudopotential
        O0             6.00    15.99940     O ( 1.00)
        Ti1           12.00    47.88000     Ti( 1.00)
        H2             1.00     1.00794     H ( 1.00)

     Simplified LDA+U calculation (l_max = 2) with parameters (eV):
     atomic species    L          U    alpha       J0     beta
        Ti1            2     7.0000   0.0000   0.0000   0.0000

     No symmetry found

   Cartesian axes

     site n.     atom                  positions (alat units)
         1           O0  tau(   1) = (   0.0000000   0.0000000   1.6823920  )
         2           O0  tau(   2) = (   0.0000000   0.5535432   1.7833722  )
         3           Ti1 tau(   3) = (   0.2500000   0.5535432   2.0179487  )
         4           Ti1 tau(   4) = (   0.0000000   0.0000000   2.0152642  )
         5           O0  tau(   5) = (   0.2500000   0.8967400   2.0119982  )
         6           O0  tau(   6) = (   0.2500000   0.2103464   2.0164275  )
         7           O0  tau(   7) = (   0.0000000   0.5535432   2.2313180  )
         8           O0  tau(   8) = (   0.0000000   0.0000000   2.3588743  )
         9           Ti1 tau(   9) = (   0.2500000   0.0000000   2.6006541  )
        10           Ti1 tau(  10) = (   0.0000000   0.5535432   2.5552421  )
        11           O0  tau(  11) = (   0.2500000   0.7638896   2.5968959  )
        12           O0  tau(  12) = (   0.2500000   0.3431968   2.5998041  )
        13           O0  tau(  13) = (   0.0000000   0.0000000   2.7962166  )
        14           O0  tau(  14) = (   0.5000000   0.0000000   1.6851212  )
        15           O0  tau(  15) = (   0.5000000   0.5535432   1.7831932  )
        16           Ti1 tau(  16) = (   0.7500000   0.5535432   2.0180829  )
        17           Ti1 tau(  17) = (   0.5000000   0.0000000   2.0199173  )
        18           O0  tau(  18) = (   0.7500000   0.8967400   2.0119087  )
        19           O0  tau(  19) = (   0.7500000   0.2103464   2.0169644  )
        20           O0  tau(  20) = (   0.5000000   0.5535432   2.2325708  )
        21           O0  tau(  21) = (   0.5000000   0.0000000   2.3604403  )
        22           Ti1 tau(  22) = (   0.7500000   0.0000000   2.6003857  )
        23           Ti1 tau(  23) = (   0.5000000   0.5535432   2.5984171  )
        24           O0  tau(  24) = (   0.7500000   0.7638896   2.5913928  )
        25           O0  tau(  25) = (   0.7500000   0.3431968   2.5946141  )
        26           O0  tau(  26) = (   0.5000000   0.0000000   2.7984984  )
        27           H2  tau(  27) = (   0.0001500   0.6944864   1.6938009  )
        28           H2  tau(  28) = (   0.5003000   0.6967559   1.6968880  )
        29           H2  tau(  29) = (   0.1511800   0.0394455   1.6253026  )
        30           H2  tau(  30) = (   0.6505400   0.0400876   1.6269133  )
        31           O0  tau(  31) = (   0.5475500   0.5713562   2.9405507  )
        32           O0  tau(  32) = (   0.3938700   0.4402440   3.0619775  )
        33           H2  tau(  33) = (   0.4749400   0.4194307   3.2052826  )

     number of k points=    10  Methfessel-Paxton smearing, width (Ry)=  0.0100
                       cart. coord. in units 2pi/alat
        k(    1) = (   0.0000000   0.0000000   0.0000000), wk =   0.1250000
        k(    2) = (   0.0000000   0.2258180   0.0000000), wk =   0.2500000
        k(    3) = (   0.0000000  -0.4516359   0.0000000), wk =   0.1250000
        k(    4) = (   0.2500000   0.0000000   0.0000000), wk =   0.2500000
        k(    5) = (   0.2500000   0.2258180   0.0000000), wk =   0.2500000
        k(    6) = (   0.2500000  -0.4516359   0.0000000), wk =   0.2500000
        k(    7) = (  -0.5000000   0.0000000   0.0000000), wk =   0.1250000
        k(    8) = (  -0.5000000   0.2258180   0.0000000), wk =   0.2500000
        k(    9) = (  -0.5000000  -0.4516359   0.0000000), wk =   0.1250000
        k(   10) = (  -0.2500000   0.2258180   0.0000000), wk =   0.2500000

     Largest allocated arrays     est. size (Mb)     dimensions
     Largest temporary arrays     est. size (Mb)     dimensions

     Check: negative/imaginary core charge=   -0.000006    0.000000

     Initial potential from superposition of free atoms
     Check: negative starting charge=   -0.102089

     starting charge  212.99957, renormalised to  221.00000

     negative rho (up, down):  0.106E+00 0.000E+00
     Number of +U iterations with fixed ns =  0
     Starting occupations:
 --- enter write_ns ---
 LDA+U parameters:
U( 2)     =  7.00000000
alpha( 2) =  0.00000000
atom    3   Tr[ns(na)] =   2.00000
    eigenvalues:
  0.200  0.200  0.200  0.200  0.200
    eigenvectors:
  1.000  0.000  0.000  0.000  0.000
  0.000  1.000  0.000  0.000  0.000
  0.000  0.000  1.000  0.000  0.000
  0.000  0.000  0.000  1.000  0.000
  0.000  0.000  0.000  0.000  1.000
    occupations:
  0.200  0.000  0.000  0.000  0.000
  0.000  0.200  0.000  0.000  0.000
  0.000  0.000  0.200  0.000  0.000
  0.000  0.000  0.000  0.200  0.000
  0.000  0.000  0.000  0.000  0.200
atom    4   Tr[ns(na)] =   2.00000
    eigenvalues:
  0.200  0.200  0.200  0.200  0.200
    eigenvectors:
  1.000  0.000  0.000  0.000  0.000
  0.000  1.000  0.000  0.000  0.000
  0.000  0.000  1.000  0.000  0.000
  0.000  0.000  0.000  1.000  0.000
  0.000  0.000  0.000  0.000  1.000
    occupations:
  0.200  0.000  0.000  0.000  0.000
  0.000  0.200  0.000  0.000  0.000
  0.000  0.000  0.200  0.000  0.000
  0.000  0.000  0.000  0.200  0.000
  0.000  0.000  0.000  0.000  0.200
atom    9   Tr[ns(na)] =   2.00000
    eigenvalues:
  0.200  0.200  0.200  0.200  0.200
    eigenvectors:
  1.000  0.000  0.000  0.000  0.000
  0.000  1.000  0.000  0.000  0.000
  0.000  0.000  1.000  0.000  0.000
  0.000  0.000  0.000  1.000  0.000
  0.000  0.000  0.000  0.000  1.000
    occupations:
  0.200  0.000  0.000  0.000  0.000
  0.000  0.200  0.000  0.000  0.000
  0.000  0.000  0.200  0.000  0.000
  0.000  0.000  0.000  0.200  0.000
  0.000  0.000  0.000  0.000  0.200
atom   10   Tr[ns(na)] =   2.00000
    eigenvalues:
  0.200  0.200  0.200  0.200  0.200
    eigenvectors:
  1.000  0.000  0.000  0.000  0.000
  0.000  1.000  0.000  0.000  0.000
  0.000  0.000  1.000  0.000  0.000
  0.000  0.000  0.000  1.000  0.000
  0.000  0.000  0.000  0.000  1.000
    occupations:
  0.200  0.000  0.000  0.000  0.000
  0.000  0.200  0.000  0.000  0.000
  0.000  0.000  0.200  0.000  0.000
  0.000  0.000  0.000  0.200  0.000
  0.000  0.000  0.000  0.000  0.200
atom   16   Tr[ns(na)] =   2.00000
    eigenvalues:
  0.200  0.200  0.200  0.200  0.200
    eigenvectors:
  1.000  0.000  0.000  0.000  0.000
  0.000  1.000  0.000  0.000  0.000
  0.000  0.000  1.000  0.000  0.000
  0.000  0.000  0.000  1.000  0.000
  0.000  0.000  0.000  0.000  1.000
    occupations:
  0.200  0.000  0.000  0.000  0.000
  0.000  0.200  0.000  0.000  0.000
  0.000  0.000  0.200  0.000  0.000
  0.000  0.000  0.000  0.200  0.000
  0.000  0.000  0.000  0.000  0.200
atom   17   Tr[ns(na)] =   2.00000
    eigenvalues:
  0.200  0.200  0.200  0.200  0.200
    eigenvectors:
  1.000  0.000  0.000  0.000  0.000
  0.000  1.000  0.000  0.000  0.000
  0.000  0.000  1.000  0.000  0.000
  0.000  0.000  0.000  1.000  0.000
  0.000  0.000  0.000  0.000  1.000
    occupations:
  0.200  0.000  0.000  0.000  0.000
  0.000  0.200  0.000  0.000  0.000
  0.000  0.000  0.200  0.000  0.000
  0.000  0.000  0.000  0.200  0.000
  0.000  0.000  0.000  0.000  0.200
atom   22   Tr[ns(na)] =   2.00000
    eigenvalues:
  0.200  0.200  0.200  0.200  0.200
    eigenvectors:
  1.000  0.000  0.000  0.000  0.000
  0.000  1.000  0.000  0.000  0.000
  0.000  0.000  1.000  0.000  0.000
[...]
  0.001  0.001  0.124 -0.000  0.003
  0.066  0.003 -0.000  0.361  0.000
 -0.000 -0.000  0.003  0.000  0.165
atom   10   Tr[ns(na)] =   2.57651
    eigenvalues:
  0.133  0.162  0.186  0.325  0.482
    eigenvectors:
  0.021  0.000  0.000  0.979  0.000
  0.000  0.001  0.999  0.000  0.000
  0.000  0.999  0.001  0.000  0.000
  0.979  0.000  0.000  0.021  0.000
  0.000  0.000  0.000  0.000  1.000
    occupations:
  0.321 -0.001 -0.001 -0.028  0.000
 -0.001  0.186 -0.001  0.000  0.000
 -0.001 -0.001  0.162  0.000 -0.001
 -0.028  0.000  0.000  0.137 -0.000
  0.000  0.000 -0.001 -0.000  0.482
atom   16   Tr[ns(na)] =   2.53740
    eigenvalues:
  0.118  0.134  0.147  0.425  0.445
    eigenvectors:
  0.734  0.023  0.048  0.158  0.038
  0.000  0.002  0.000  0.212  0.785
  0.080  0.150  0.769  0.000  0.000
  0.183  0.004  0.008  0.629  0.175
  0.003  0.821  0.174  0.001  0.002
    occupations:
  0.181  0.000 -0.004  0.123 -0.001
  0.000  0.440 -0.001  0.009  0.014
 -0.004 -0.001  0.143  0.008  0.005
  0.123  0.009  0.008  0.369  0.000
 -0.001  0.014  0.005  0.000  0.136
atom   17   Tr[ns(na)] =   2.64821
    eigenvalues:
  0.122  0.148  0.162  0.437  0.455
    eigenvectors:
  0.007  0.002  0.000  0.000  0.990
  0.002  0.865  0.130  0.000  0.003
  0.001  0.129  0.870  0.000  0.000
  0.989  0.004  0.000  0.000  0.007
  0.000  0.000  0.000  1.000  0.000
    occupations:
  0.452  0.016  0.005 -0.027 -0.000
  0.016  0.151 -0.005 -0.000 -0.003
  0.005 -0.005  0.160  0.001 -0.000
 -0.027 -0.000  0.001  0.124 -0.000
 -0.000 -0.003 -0.000 -0.000  0.437
atom   22   Tr[ns(na)] =   2.64107
    eigenvalues:
  0.124  0.166  0.174  0.383  0.473
    eigenvectors:
  0.000  0.000  0.892  0.108  0.000
  0.000  0.000  0.000  0.001  0.999
  0.993  0.007  0.000  0.000  0.000
  0.000  0.000  0.108  0.891  0.001
  0.007  0.993  0.000  0.000  0.000
    occupations:
  0.196  0.001 -0.000  0.065 -0.000
  0.001  0.473 -0.001 -0.003 -0.000
 -0.000 -0.001  0.125 -0.002 -0.003
  0.065 -0.003 -0.002  0.361 -0.000
 -0.000 -0.000 -0.003 -0.000  0.166
atom   23   Tr[ns(na)] =   2.57793
    eigenvalues:
  0.126  0.134  0.160  0.389  0.480
    eigenvectors:
  0.000  0.013  0.001  0.986  0.000
  0.073  0.030  0.895  0.002  0.000
  0.901  0.014  0.085  0.000  0.000
  0.025  0.944  0.019  0.012  0.000
  0.000  0.000  0.000  0.000  1.000
    occupations:
  0.385 -0.011  0.003 -0.028 -0.002
 -0.011  0.157 -0.009 -0.002  0.000
  0.003 -0.009  0.129  0.002  0.001
 -0.028 -0.002  0.002  0.138 -0.000
 -0.002  0.000  0.001 -0.000  0.480
N of occupied +U levels =  20.8088933
 --- exit write_ns ---

     Threshold (ethr) on eigenvalues was too large:
     Diagonalizing with lowered threshold

     Davidson diagonalization with overlap
     ethr =  2.12E-08,  avg # of iterations =  1.4

[...]

     total energy              =   -1596.49815951 Ry
     Harris-Foulkes estimate   =   -1596.49815952 Ry
     estimated scf accuracy    <       0.00000002 Ry

     iteration # 11     ecut=    40.00 Ry     beta=0.70
     Davidson diagonalization with overlap
     ethr =  8.20E-12,  avg # of iterations =  1.0

     negative rho (up, down):  0.108E+00 0.000E+00

     End of self-consistent calculation
 --- enter write_ns ---
 LDA+U parameters:
U( 2)     =  7.00000000
alpha( 2) =  0.00000000
atom    3   Tr[ns(na)] =   2.53727
    eigenvalues:
  0.118  0.134  0.147  0.425  0.445
    eigenvectors:
  0.734  0.023  0.048  0.157  0.039
  0.000  0.002  0.000  0.219  0.779
  0.080  0.146  0.774  0.000  0.000
  0.183  0.005  0.008  0.624  0.180
  0.003  0.825  0.170  0.000  0.002
    occupations:
  0.181 -0.000 -0.004  0.123  0.000
 -0.000  0.440  0.001 -0.009  0.014
 -0.004  0.001  0.143  0.007 -0.005
  0.123 -0.009  0.007  0.369 -0.001
  0.000  0.014 -0.005 -0.001  0.136
atom    4   Tr[ns(na)] =   2.65225
    eigenvalues:
  0.122  0.148  0.163  0.438  0.455
    eigenvectors:
  0.007  0.003  0.000  0.000  0.990
  0.003  0.883  0.111  0.000  0.003
  0.001  0.110  0.888  0.000  0.000
  0.989  0.004  0.000  0.000  0.007
  0.000  0.000  0.000  1.000  0.000
    occupations:
  0.452  0.017  0.005 -0.027 -0.000
  0.017  0.150 -0.005 -0.000 -0.003
  0.005 -0.005  0.162  0.001 -0.000
 -0.027 -0.000  0.001  0.124 -0.000
 -0.000 -0.003 -0.000 -0.000  0.438
atom    9   Tr[ns(na)] =   2.63789
    eigenvalues:
  0.124  0.165  0.173  0.384  0.473
    eigenvectors:
  0.000  0.000  0.889  0.110  0.000
  0.000  0.000  0.000  0.001  0.999
  0.993  0.006  0.000  0.000  0.000
  0.000  0.000  0.110  0.889  0.001
  0.006  0.993  0.000  0.000  0.000
    occupations:
  0.196 -0.001  0.001  0.066 -0.000
 -0.001  0.473  0.001  0.003 -0.000
  0.001  0.001  0.124 -0.000  0.003
  0.066  0.003 -0.000  0.361  0.000
 -0.000 -0.000  0.003  0.000  0.165
atom   10   Tr[ns(na)] =   2.57640
    eigenvalues:
  0.133  0.162  0.186  0.325  0.482
    eigenvectors:
  0.021  0.000  0.000  0.979  0.000
  0.000  0.001  0.999  0.000  0.000
  0.000  0.999  0.001  0.000  0.000
  0.979  0.000  0.000  0.021  0.000
  0.000  0.000  0.000  0.000  1.000
    occupations:
  0.321 -0.001 -0.001 -0.028  0.000
 -0.001  0.186 -0.001  0.000  0.000
 -0.001 -0.001  0.162  0.000 -0.001
 -0.028  0.000  0.000  0.137 -0.000
  0.000  0.000 -0.001 -0.000  0.482
atom   16   Tr[ns(na)] =   2.53703
    eigenvalues:
  0.118  0.134  0.147  0.425  0.445
    eigenvectors:
  0.734  0.023  0.048  0.158  0.038
  0.000  0.002  0.000  0.213  0.785
  0.080  0.150  0.769  0.000  0.000
  0.183  0.004  0.008  0.629  0.175
  0.003  0.821  0.174  0.001  0.002
    occupations:
  0.181 -0.000 -0.004  0.123 -0.001
 -0.000  0.440 -0.001  0.009  0.014
 -0.004 -0.001  0.143  0.008  0.005
  0.123  0.009  0.008  0.369  0.000
 -0.001  0.014  0.005  0.000  0.136
atom   17   Tr[ns(na)] =   2.64840
    eigenvalues:
  0.122  0.148  0.162  0.437  0.455
    eigenvectors:
  0.007  0.002  0.000  0.000  0.990
  0.002  0.865  0.130  0.000  0.003
  0.001  0.129  0.870  0.000  0.000
  0.989  0.004  0.000  0.000  0.007
  0.000  0.000  0.000  1.000  0.000
    occupations:
  0.452  0.016  0.005 -0.027 -0.000
  0.016  0.151 -0.005 -0.000 -0.003
  0.005 -0.005  0.160  0.001 -0.000
 -0.027 -0.000  0.001  0.124 -0.000
 -0.000 -0.003 -0.000 -0.000  0.437
atom   22   Tr[ns(na)] =   2.64103
    eigenvalues:
  0.124  0.166  0.174  0.383  0.473
    eigenvectors:
  0.000  0.000  0.892  0.108  0.000
  0.000  0.000  0.000  0.001  0.999
  0.993  0.007  0.000  0.000  0.000
  0.000  0.000  0.108  0.891  0.001
  0.007  0.993  0.000  0.000  0.000
    occupations:
  0.196  0.001 -0.000  0.065 -0.000
  0.001  0.473 -0.001 -0.003 -0.000
 -0.000 -0.001  0.125 -0.002 -0.003
  0.065 -0.003 -0.002  0.360 -0.000
 -0.000 -0.000 -0.003 -0.000  0.166
atom   23   Tr[ns(na)] =   2.57888
    eigenvalues:
  0.127  0.134  0.160  0.389  0.480
    eigenvectors:
  0.000  0.013  0.001  0.986  0.000
  0.073  0.030  0.895  0.002  0.000
  0.900  0.014  0.086  0.000  0.000
  0.026  0.944  0.019  0.012  0.000
  0.000  0.000  0.000  0.000  1.000
    occupations:
  0.385 -0.011  0.003 -0.028 -0.002
 -0.011  0.157 -0.009 -0.002  0.000
  0.003 -0.009  0.130  0.002  0.001
 -0.028 -0.002  0.002  0.138 -0.000
 -0.002  0.000  0.001 -0.000  0.480
N of occupied +U levels =  20.8091538
 --- exit write_ns ---

[...]

          k = 0.2500-0.4516 0.0000 ( 29882 PWs)   bands (ev):

[...]

          k =-0.2500 0.2258 0.0000 ( 29912 PWs)   bands (ev):

   -61.4505 -61.4263 -61.1863 -60.8540 -60.0900 -60.0593 -59.6436 -59.6174
   -37.8289 -37.6250 -37.5997 -37.5295 -37.5173 -37.5128 -37.4968 -37.3692
   -37.2840 -37.0384 -37.0235 -36.9917 -36.5570 -36.3731 -36.3050 -36.2606
   -36.1139 -36.0893 -35.9549 -35.9342 -35.8989 -35.8005 -35.7402 -35.6141
   -24.9388 -21.3907 -21.1715 -20.2219 -19.7665 -19.6994 -19.3907 -19.3074
   -19.1524 -19.0720 -18.9794 -18.9769 -18.9718 -18.7910 -18.7207 -18.1365
   -17.8762 -17.6622 -17.4733 -17.3835  -9.6190  -9.0029  -8.7937  -7.9889
    -7.3053  -7.1773  -7.1651  -7.0826  -6.9828  -6.7851  -6.7440  -6.6768
    -6.6315  -6.5450  -6.4720  -6.3436  -6.2867  -6.2394  -6.1410  -6.0321
    -5.9442  -5.7277  -5.6747  -5.4423  -5.3393  -5.1176  -5.0547  -4.9225
    -4.9093  -4.8186  -4.7797  -4.6937  -4.6139  -4.5635  -4.4490  -4.3945
    -4.3756  -4.2952  -4.2357  -4.1154  -4.0457  -3.9556  -3.8629  -3.7147
    -3.6518  -3.5369  -3.3597  -3.1043  -2.9511  -2.8070  -2.7782  -2.6967
    -2.6165  -2.4712  -2.3666  -2.2948  -2.2419  -2.1335  -2.0483   0.2591
     0.5393   0.6205   0.6587   0.7048   0.7761   0.8873   1.0181   1.0436
     1.1304   1.2267   1.2773   1.4430   1.5363   1.6332   1.6713   1.8550
     1.9310   1.9443   2.0444   2.0742   2.1458   2.2646   2.3047   2.3986
     2.4794   2.5611   2.5831   2.6055   2.8323   3.0112   3.0945   3.1356
     3.1599   3.2751   3.4349   3.5015   3.7266   3.8077   3.8627   3.9653
     4.1142   4.1611   4.2401   4.7230   5.2090   5.2958   5.6224   5.6687
     5.7752   6.0350   6.1310   6.3238   6.4306   6.6318   6.7713   7.0492
     7.1762   7.3385   7.4760   7.5827   7.8045   7.9898   8.0459   8.1056
     8.2201   8.2777   8.4431   8.4725   8.6204   8.7293   8.8589   8.9850
     9.0936   9.2228   9.3139   9.4986   9.5369   9.6077   9.7440   9.7740
     9.8801   9.9751  10.0761  10.2500  10.3250  10.4161  10.4857  10.5795
    10.6755  10.7746  10.8737  10.9591  11.0398  11.0847  11.1714  11.2380
    11.3362  11.4284  11.5076  11.5560  11.6233  11.7169  11.7710  11.8528
    11.9339  12.0218  12.0634  12.1412  12.1995  12.2641  12.3413  12.4000
    12.5239  12.5441  12.6184  12.6878  12.8158  12.8800  12.9819  13.0258
    13.0578  13.1042  13.1894  13.3118  13.4355  13.5550  13.6214  13.7141
    13.7596  13.8111  13.9152  13.9765  14.0714  14.0961  14.1698  14.2104
    14.2478  14.3264  14.3780  14.4701  14.5248  14.5634  14.5982  14.7159
    14.8061  14.8882  14.9131  15.0195  15.1206  15.2300  15.2564  15.3261
    15.4651  15.5292  15.5888  15.6331  15.6753  15.7448  15.7743  15.8752
    15.9413  15.9979  16.0494  16.1136  16.2404  16.2803  16.3445  16.4161
    16.4882  16.5757  16.6358  16.7178  16.8015  16.8657  16.8812  16.9220
    16.9974  17.0630  17.1496  17.1886  17.3024  17.3415  17.4315  17.4704
    17.5644  17.5956  17.6582  17.7639  17.8352  17.9257  17.9708  18.0474
    18.0893  18.2210  18.2973  18.3975  18.4178  18.5430  18.5864  18.6410
    18.7040  18.7677  18.8297  18.9301  18.9978  19.0511  19.1289

     the Fermi energy is    -2.0361 ev

!    total energy              =   -1596.49815952 Ry
     Harris-Foulkes estimate   =   -1596.49815952 Ry
     estimated scf accuracy    <          2.9E-09 Ry

     The total energy is the sum of the following terms:

     one-electron contribution =  -19120.10340051 Ry
     hartree contribution      =    9580.14651156 Ry
     xc contribution           =    -284.41355832 Ry
     ewald contribution        =    8224.33783562 Ry
     Hubbard energy            =       3.53533011 Ry
     smearing contrib. (-TS)   =      -0.00087798 Ry

     convergence has been achieved in  11 iterations

     Forces acting on atoms (Ry/au):

     negative rho (up, down):  0.108E+00 0.000E+00
     atom    1 type  1   force =    -0.00379772   -0.01618401   -0.00032174
     atom    2 type  1   force =     0.00003204    0.01715829   -0.00028240
     atom    3 type  2   force =     0.03334351   -0.00769344    0.00014063
     atom    4 type  2   force =     0.00244310    0.00981880    0.00031718
     atom    5 type  1   force =    -0.00032671   -0.09150417   -0.00022934
     atom    6 type  1   force =    -0.00306883    0.08893377   -0.00019814
     atom    7 type  1   force =     0.00021665    0.00002021    0.00029427
     atom    8 type  1   force =     0.00046985   -0.00066208   -0.00023742
     atom    9 type  2   force =    -0.00715821    0.00057003    0.00033071
     atom   10 type  2   force =     0.00380359    0.00242955    0.00048749
     atom   11 type  1   force =    -0.02287521   -0.01526455   -0.00036628
     atom   12 type  1   force =    -0.02038525    0.01727165   -0.00041206
     atom   13 type  1   force =    -0.00101135    0.00060269    0.00040364
     atom   14 type  1   force =    -0.00430024   -0.01624016   -0.00028360
     atom   15 type  1   force =     0.00009101    0.01692884   -0.00022280
     atom   16 type  2   force =    -0.03333983   -0.00729385    0.00011532
     atom   17 type  2   force =     0.00230471    0.00965405    0.00021324
     atom   18 type  1   force =     0.00413389   -0.09165170   -0.00018289
     atom   19 type  1   force =     0.00183232    0.08862642   -0.00025649
     atom   20 type  1   force =    -0.00015715    0.00030330    0.00016483
     atom   21 type  1   force =     0.00069423   -0.00071016   -0.00027865
     atom   22 type  2   force =     0.00655355   -0.00112961    0.00033741
     atom   23 type  2   force =    -0.00342749    0.00420531    0.00093563
     atom   24 type  1   force =     0.02267418   -0.01293359    0.00013193
     atom   25 type  1   force =     0.02125408    0.00491579   -0.00058939
     atom   26 type  1   force =     0.00106478   -0.00139817    0.00047057
     atom   27 type  3   force =     0.00001188    0.00028290    0.00000439
     atom   28 type  3   force =     0.00000713    0.00033622    0.00017230
     atom   29 type  3   force =     0.00001951    0.00062213   -0.00023151
     atom   30 type  3   force =     0.00002872    0.00061445   -0.00011274
     atom   31 type  1   force =    -0.00031985   -0.00008188   -0.00081136
     atom   32 type  1   force =    -0.00058782    0.00029375   -0.00031722
     atom   33 type  3   force =    -0.00022306   -0.00084077    0.00081449

     Total force =     0.002664     Total SCF correction =     0.000153

     entering subroutine stress ...

     negative rho (up, down):  0.108E+00 0.000E+00
          total   stress  (Ry/bohr**3)                   (kbar)     P=   16.04
   0.00027408  -0.00000096   0.00000300         40.32     -0.14      0.44
  -0.00000096   0.00008484   0.00000168         -0.14     12.48      0.25
   0.00000300   0.00000168  -0.00003177          0.44      0.25     -4.67

     bfgs converged in  23 scf cycles and  22 bfgs steps
     (criteria: energy < 0.10E-03, force < 0.10E-02)

     End of BFGS Geometry Optimization

     Final energy   =   -1596.4981595157 Ry
Begin final coordinates

ATOMIC_POSITIONS (crystal)
O0       0.000000000   0.000000000   0.376570130    0   0   1
O0       0.000000000   0.500000000   0.398219685    0   0   1
Ti1      0.250000000   0.500000000   0.450812416    0   0   1
Ti1      0.000000000   0.000000000   0.450741186    0   0   1
O0       0.250000000   0.810000000   0.449968596    0   0   1
O0       0.250000000   0.190000000   0.451051094    0   0   1
O0       0.000000000   0.500000000   0.498703593    0   0   1
O0       0.000000000   0.000000000   0.527505015    0   0   1
Ti1      0.250000000   0.000000000   0.581290950    0   0   1
Ti1      0.000000000   0.500000000   0.571049663    0   0   1
O0       0.250000000   0.690000000   0.580230905    0   0   1
O0       0.250000000   0.310000000   0.580607497    0   0   1
O0       0.000000000   0.000000000   0.624987848    0   0   1
O0       0.500000000   0.000000000   0.377089877    0   0   1
O0       0.500000000   0.500000000   0.398284965    0   0   1
Ti1      0.750000000   0.500000000   0.450807514    0   0   1
Ti1      0.500000000   0.000000000   0.451637969    0   0   1
O0       0.750000000   0.810000000   0.449960658    0   0   1
O0       0.750000000   0.190000000   0.451087329    0   0   1
O0       0.500000000   0.500000000   0.498654582    0   0   1
O0       0.500000000   0.000000000   0.527853240    0   0   1
Ti1      0.750000000   0.000000000   0.581351329    0   0   1
Ti1      0.500000000   0.500000000   0.580067447    0   0   1
O0       0.750000000   0.690000000   0.580003359    0   0   1
O0       0.750000000   0.310000000   0.579701206    0   0   1
O0       0.500000000   0.000000000   0.625563572    0   0   1
H2      -0.000276310   0.630426537   0.379298585
H2       0.499762115   0.630630384   0.379439331
H2       0.152998299   0.026313907   0.363511640
H2       0.652567014   0.026973552   0.363876363
O0       0.538297471   0.511683270   0.657304316
O0       0.385737629   0.384774721   0.682454377
H2       0.458638461   0.373262956   0.715793762
End final coordinates

     General routines

     Parallel routines
     Hubbard U routines

   This run was terminated on:  15:47: 1   6Jun2014

   JOB DONE.
Running PBS batch system epilogue script
Job id: 381417.audhumbla.fysik.dtu.dk
Username: zhonxu
Groupname: campgst
Jobname: TiO2/Eads-2-layers/OOH-U-7.0
Sessionid: 7364
Queuename: verylong
Accounting:
This job has allocated the following 16 nodes:
b104 b104 b104 b104 b104 b104 b104 b104 b101 b101 b101 b101 b101 b101 b101 b101
Finished epilogue job 381417.audhumbla.fysik.dtu.dk for zhonxu