     Program PWSCF v.5.0.2 (svn rev. 9656) starts on 15Oct2014 at 13:11:46

     Current dimensions of program PWSCF are:
     Max number of different atomic species (ntypx) = 10
     Max number of k-points (npk) =  40000
     Max angular momentum in pseudopotentials (lmaxx) =  3
     Reading input from pwscf.in
Warning: card &CELL ignored
Warning: card / ignored

     Subspace diagonalization in iterative solution of the eigenvalue problem:
     a serial algorithm will be used

     bravais-lattice index     =            0
     lattice parameter (alat)  =      11.2250  a.u.
     unit-cell volume          =    7005.5484 (a.u.)^3
     number of atoms/cell      =           33
     number of atomic types    =            3
     number of electrons       =       221.00
     number of Kohn-Sham states=          319
     kinetic-energy cutoff     =      40.0000  Ry
     charge density cutoff     =     500.0000  Ry
     convergence threshold     =      1.0E-06
     mixing beta               =       0.7000
     number of iterations used =            8  plain     mixing
     Exchange-correlation      = SLA  PW   PBE  PBE ( 1 4 3 4 0)
     EXX-fraction              =        0.00
     nstep                     =           50

     celldm(1)=  11.224973  celldm(2)=   0.000000  celldm(3)=   0.000000
     celldm(4)=   0.000000  celldm(5)=   0.000000  celldm(6)=   0.000000

     crystal axes: (cart. coord. in units of alat)
               a(1) = (   1.000000   0.000000   0.000000 )
               a(2) = (   0.000000   1.107086   0.000000 )
               a(3) = (   0.000000   0.000000   4.474090 )

     reciprocal axes: (cart. coord. in units 2 pi/alat)
               b(1) = (  1.000000  0.000000  0.000000 )
               b(2) = (  0.000000  0.903272  0.000000 )
               b(3) = (  0.000000  0.000000  0.223509 )

     PseudoPot. # 1 for O  read from file:
     /home-research/zhongnanxu/pseudopotentials/gbrv_espresso_pseudo_v1.01/o_pbe_v1.01.uspp.F.UPF
     MD5 check sum: 2bcb18d16ea4b960afae9ec6d52f22d2
     Pseudo is Ultrasoft + core correction, Zval =  6.0
     Generated by new atomic code, or converted to UPF format
     Using radial grid of  737 points,  5 beta functions with:
                l(1) =   0
                l(2) =   0
                l(3) =   1
                l(4) =   1
                l(5) =   2
     Q(r) pseudized with  8 coefficients,  rinner =    0.900   0.900   0.900
                                                       0.900   0.900

     PseudoPot. # 2 for Ti read from file:
     /home-research/zhongnanxu/pseudopotentials/gbrv_espresso_pseudo_v1.01/ti_pbe_v1.uspp.F.UPF
     MD5 check sum: bcc8f6961b3b91f0cac3ca967d22d0fb
     Pseudo is Ultrasoft + core correction, Zval = 12.0
     Generated by new atomic code, or converted to UPF format
     Using radial grid of  851 points,  6 beta functions with:
                l(1) =   0
                l(2) =   0
                l(3) =   1
                l(4) =   1
                l(5) =   2
                l(6) =   2
     Q(r) pseudized with  6 coefficients,  rinner =    1.000   1.000   1.000
                                                       1.000   1.000

     PseudoPot. # 3 for H  read from file:
     /home-research/zhongnanxu/pseudopotentials/gbrv_espresso_pseudo_v1.01/h_pbe_v1.uspp.F.UPF
     MD5 check sum: 3408e3ff4ec8b0a4e358431e7e038a48
     Pseudo is Ultrasoft, Zval =  1.0
     Generated by new atomic code, or converted to UPF format
     Using radial grid of  615 points,  2 beta functions with:
                l(1) =   0
                l(2) =   0
     Q(r) pseudized with  8 coefficients,  rinner =    0.700

     atomic species   valence    mass     pseudopotential
        O0             6.00    15.99940     O ( 1.00)
        Ti1           12.00    47.88000     Ti( 1.00)
        H2             1.00     1.00794     H ( 1.00)

     Simplified LDA+U calculation (l_max = 2) with parameters (eV):
     atomic species    L          U    alpha       J0     beta
        Ti1            2     7.0000   0.0000   0.0000   0.0000

     No symmetry found

   Cartesian axes

     site n.     atom                  positions (alat units)
         1           O0  tau(   1) = (   0.0000000   0.0000000   1.6839579  )
         2           O0  tau(   2) = (   0.0000000   0.5535432   1.7822984  )
         3           Ti1 tau(   3) = (   0.2500000   0.5535432   2.0167854  )
         4           Ti1 tau(   4) = (   0.0000000   0.0000000   2.0157564  )
         5           O0  tau(   5) = (   0.2500000   0.8967400   2.0110586  )
         6           O0  tau(   6) = (   0.2500000   0.2103464   2.0159354  )
         7           O0  tau(   7) = (   0.0000000   0.5535432   2.2298416  )
         8           O0  tau(   8) = (   0.0000000   0.0000000   2.3559214  )
         9           Ti1 tau(   9) = (   0.2500000   0.0000000   2.5994014  )
        10           Ti1 tau(  10) = (   0.0000000   0.5535432   2.5501417  )
        11           O0  tau(  11) = (   0.2500000   0.7638896   2.5901400  )
        12           O0  tau(  12) = (   0.2500000   0.3431968   2.5973433  )
        13           O0  tau(  13) = (   0.0000000   0.0000000   2.7921004  )
        14           O0  tau(  14) = (   0.5000000   0.0000000   1.6878504  )
        15           O0  tau(  15) = (   0.5000000   0.5535432   1.7824326  )
        16           Ti1 tau(  16) = (   0.7500000   0.5535432   2.0168302  )
        17           Ti1 tau(  17) = (   0.5000000   0.0000000   2.0241229  )
        18           O0  tau(  18) = (   0.7500000   0.8967400   2.0108796  )
        19           O0  tau(  19) = (   0.7500000   0.2103464   2.0163380  )
        20           O0  tau(  20) = (   0.5000000   0.5535432   2.2277835  )
        21           O0  tau(  21) = (   0.5000000   0.0000000   2.3568163  )
        22           Ti1 tau(  22) = (   0.7500000   0.0000000   2.5994461  )
        23           Ti1 tau(  23) = (   0.5000000   0.5535432   2.6028464  )
        24           O0  tau(  24) = (   0.7500000   0.7638896   2.5900953  )
        25           O0  tau(  25) = (   0.7500000   0.3431968   2.5972986  )
        26           O0  tau(  26) = (   0.5000000   0.0000000   2.7896844  )
        27           H2  tau(  27) = (  -0.0002200   0.6966784   1.6959037  )
        28           H2  tau(  28) = (   0.4998100   0.6979626   1.6980065  )
        29           H2  tau(  29) = (   0.1517400   0.0340540   1.6246762  )
        30           H2  tau(  30) = (   0.6507100   0.0357700   1.6273159  )
        31           O0  tau(  31) = (   0.5003100   0.5957342   2.9447116  )
        32           O0  tau(  32) = (   0.4991200   0.3951413   3.0700309  )
        33           H2  tau(  33) = (   0.5003600   0.4565514   3.2249239  )

     number of k points=    10  Methfessel-Paxton smearing, width (Ry)=  0.0100
                       cart. coord. in units 2pi/alat
        k(    1) = (   0.0000000   0.0000000   0.0000000), wk =   0.1250000
        k(    2) = (   0.0000000   0.2258180   0.0000000), wk =   0.2500000
        k(    3) = (   0.0000000  -0.4516359   0.0000000), wk =   0.1250000
        k(    4) = (   0.2500000   0.0000000   0.0000000), wk =   0.2500000
        k(    5) = (   0.2500000   0.2258180   0.0000000), wk =   0.2500000
        k(    6) = (   0.2500000  -0.4516359   0.0000000), wk =   0.2500000
        k(    7) = (  -0.5000000   0.0000000   0.0000000), wk =   0.1250000
        k(    8) = (  -0.5000000   0.2258180   0.0000000), wk =   0.2500000
        k(    9) = (  -0.5000000  -0.4516359   0.0000000), wk =   0.1250000
        k(   10) = (  -0.2500000   0.2258180   0.0000000), wk =   0.2500000

     Largest allocated arrays     est. size (Mb)     dimensions
     Largest temporary arrays     est. size (Mb)     dimensions

     Check: negative/imaginary core charge=   -0.000006    0.000000

     Initial potential from superposition of free atoms
     Check: negative starting charge=   -0.102179

     starting charge  212.99957, renormalised to  221.00000

     negative rho (up, down):  0.106E+00 0.000E+00
     Number of +U iterations with fixed ns =  0
     Starting occupations:
 --- enter write_ns ---
 LDA+U parameters:
U( 2)     =  7.00000000
alpha( 2) =  0.00000000
atom    3   Tr[ns(na)] =   2.00000
    eigenvalues:
  0.200  0.200  0.200  0.200  0.200
    eigenvectors:
  1.000  0.000  0.000  0.000  0.000
  0.000  1.000  0.000  0.000  0.000
  0.000  0.000  1.000  0.000  0.000
  0.000  0.000  0.000  1.000  0.000
  0.000  0.000  0.000  0.000  1.000
    occupations:
  0.200  0.000  0.000  0.000  0.000
  0.000  0.200  0.000  0.000  0.000
  0.000  0.000  0.200  0.000  0.000
  0.000  0.000  0.000  0.200  0.000
  0.000  0.000  0.000  0.000  0.200
atom    4   Tr[ns(na)] =   2.00000
    eigenvalues:
  0.200  0.200  0.200  0.200  0.200
    eigenvectors:
  1.000  0.000  0.000  0.000  0.000
  0.000  1.000  0.000  0.000  0.000
  0.000  0.000  1.000  0.000  0.000
  0.000  0.000  0.000  1.000  0.000
  0.000  0.000  0.000  0.000  1.000
    occupations:
  0.200  0.000  0.000  0.000  0.000
  0.000  0.200  0.000  0.000  0.000
  0.000  0.000  0.200  0.000  0.000
  0.000  0.000  0.000  0.200  0.000
  0.000  0.000  0.000  0.000  0.200
atom    9   Tr[ns(na)] =   2.00000
    eigenvalues:
  0.200  0.200  0.200  0.200  0.200
    eigenvectors:
  1.000  0.000  0.000  0.000  0.000
  0.000  1.000  0.000  0.000  0.000
  0.000  0.000  1.000  0.000  0.000
  0.000  0.000  0.000  1.000  0.000
  0.000  0.000  0.000  0.000  1.000
    occupations:
  0.200  0.000  0.000  0.000  0.000
  0.000  0.200  0.000  0.000  0.000
  0.000  0.000  0.200  0.000  0.000
  0.000  0.000  0.000  0.200  0.000
  0.000  0.000  0.000  0.000  0.200
atom   10   Tr[ns(na)] =   2.00000
    eigenvalues:
  0.200  0.200  0.200  0.200  0.200
    eigenvectors:
  1.000  0.000  0.000  0.000  0.000
  0.000  1.000  0.000  0.000  0.000
  0.000  0.000  1.000  0.000  0.000
  0.000  0.000  0.000  1.000  0.000
  0.000  0.000  0.000  0.000  1.000
    occupations:
  0.200  0.000  0.000  0.000  0.000
  0.000  0.200  0.000  0.000  0.000
  0.000  0.000  0.200  0.000  0.000
  0.000  0.000  0.000  0.200  0.000
  0.000  0.000  0.000  0.000  0.200
atom   16   Tr[ns(na)] =   2.00000
    eigenvalues:
  0.200  0.200  0.200  0.200  0.200
    eigenvectors:
  1.000  0.000  0.000  0.000  0.000
  0.000  1.000  0.000  0.000  0.000
  0.000  0.000  1.000  0.000  0.000
  0.000  0.000  0.000  1.000  0.000
  0.000  0.000  0.000  0.000  1.000
    occupations:
  0.200  0.000  0.000  0.000  0.000
  0.000  0.200  0.000  0.000  0.000
  0.000  0.000  0.200  0.000  0.000
  0.000  0.000  0.000  0.200  0.000
  0.000  0.000  0.000  0.000  0.200
atom   17   Tr[ns(na)] =   2.00000
    eigenvalues:
  0.200  0.200  0.200  0.200  0.200
    eigenvectors:
  1.000  0.000  0.000  0.000  0.000
  0.000  1.000  0.000  0.000  0.000
  0.000  0.000  1.000  0.000  0.000
  0.000  0.000  0.000  1.000  0.000
  0.000  0.000  0.000  0.000  1.000
    occupations:
  0.200  0.000  0.000  0.000  0.000
  0.000  0.200  0.000  0.000  0.000
  0.000  0.000  0.200  0.000  0.000
  0.000  0.000  0.000  0.200  0.000
  0.000  0.000  0.000  0.000  0.200
atom   22   Tr[ns(na)] =   2.00000
    eigenvalues:
[...]
  0.007  0.002  0.000  0.000  0.990
  0.003  0.834  0.161  0.000  0.003
  0.001  0.159  0.839  0.000  0.000
  0.989  0.004  0.000  0.000  0.007
  0.000  0.000  0.000  1.000  0.000
    occupations:
  0.452  0.016  0.005 -0.027  0.000
  0.016  0.151 -0.005  0.000 -0.003
  0.005 -0.005  0.160  0.001  0.000
 -0.027  0.000  0.001  0.125  0.000
  0.000 -0.003  0.000  0.000  0.438
atom    9   Tr[ns(na)] =   2.64702
    eigenvalues:
  0.124  0.167  0.177  0.384  0.471
    eigenvectors:
  0.000  0.002  0.899  0.100  0.000
  0.000  0.000  0.000  0.000  1.000
  0.998  0.001  0.000  0.000  0.000
  0.000  0.000  0.100  0.900  0.000
  0.001  0.997  0.002  0.000  0.000
    occupations:
  0.197  0.002  0.001  0.062  0.000
  0.002  0.471  0.000 -0.002  0.000
  0.001  0.000  0.124  0.002 -0.002
  0.062 -0.002  0.002  0.363  0.000
  0.000  0.000 -0.002  0.000  0.167
atom   10   Tr[ns(na)] =   2.57911
    eigenvalues:
  0.133  0.163  0.187  0.326  0.482
    eigenvectors:
  0.021  0.000  0.000  0.979  0.000
  0.000  0.000  1.000  0.000  0.000
  0.001  0.999  0.000  0.000  0.000
  0.977  0.001  0.000  0.021  0.000
  0.000  0.000  0.000  0.000  1.000
    occupations:
  0.321  0.000 -0.001 -0.028  0.000
  0.000  0.187  0.000  0.000  0.004
 -0.001  0.000  0.163 -0.001  0.000
 -0.028  0.000 -0.001  0.137  0.000
  0.000  0.004  0.000  0.000  0.482
atom   16   Tr[ns(na)] =   2.53779
    eigenvalues:
  0.119  0.133  0.147  0.424  0.446
    eigenvectors:
  0.723  0.035  0.048  0.160  0.035
  0.000  0.001  0.001  0.198  0.799
  0.092  0.187  0.720  0.000  0.000
  0.180  0.007  0.008  0.641  0.164
  0.005  0.770  0.223  0.000  0.002
    occupations:
  0.181  0.000 -0.004  0.122 -0.001
  0.000  0.441 -0.001  0.010  0.014
 -0.004 -0.001  0.142  0.007  0.006
  0.122  0.010  0.007  0.369  0.000
 -0.001  0.014  0.006  0.000  0.137
atom   17   Tr[ns(na)] =   2.65192
    eigenvalues:
  0.121  0.150  0.163  0.435  0.457
    eigenvectors:
  0.007  0.002  0.000  0.000  0.991
  0.002  0.845  0.151  0.000  0.002
  0.001  0.150  0.849  0.000  0.000
  0.991  0.003  0.000  0.000  0.007
  0.000  0.000  0.000  1.000  0.000
    occupations:
  0.454  0.014  0.005 -0.027  0.000
  0.014  0.152 -0.005  0.000 -0.003
  0.005 -0.005  0.161  0.001  0.000
 -0.027  0.000  0.001  0.123  0.000
  0.000 -0.003  0.000  0.000  0.435
atom   22   Tr[ns(na)] =   2.64713
    eigenvalues:
  0.124  0.167  0.177  0.384  0.471
    eigenvectors:
  0.000  0.002  0.899  0.100  0.000
  0.000  0.000  0.000  0.000  1.000
  0.999  0.001  0.000  0.000  0.000
  0.000  0.000  0.099  0.900  0.000
  0.001  0.997  0.002  0.000  0.000
    occupations:
  0.197 -0.002  0.001  0.062  0.000
 -0.002  0.471  0.000  0.002  0.000
  0.001  0.000  0.124  0.002  0.002
  0.062  0.002  0.002  0.363  0.001
  0.000  0.000  0.002  0.001  0.167
atom   23   Tr[ns(na)] =   2.56926
    eigenvalues:
  0.116  0.135  0.169  0.383  0.481
    eigenvectors:
  0.001  0.010  0.000  0.988  0.000
  0.000  0.000  1.000  0.000  0.000
  0.998  0.000  0.000  0.001  0.000
  0.000  0.989  0.000  0.011  0.000
  0.000  0.000  0.000  0.000  1.000
    occupations:
  0.380  0.000 -0.009 -0.025  0.000
  0.000  0.169  0.000  0.000  0.003
 -0.009  0.000  0.117  0.001  0.000
 -0.025  0.000  0.001  0.138  0.000
  0.000  0.003  0.000  0.000  0.481
N of occupied +U levels =  20.8215417
 --- exit write_ns ---

     Threshold (ethr) on eigenvalues was too large:
     Diagonalizing with lowered threshold

     Davidson diagonalization with overlap
     ethr =  1.83E-08,  avg # of iterations =  2.0

[...]

     total energy              =   -1596.49023029 Ry
     Harris-Foulkes estimate   =   -1596.49023030 Ry
     estimated scf accuracy    <       0.00000002 Ry

     iteration # 10     ecut=    40.00 Ry     beta=0.70
     Davidson diagonalization with overlap
     ethr =  7.70E-12,  avg # of iterations =  1.5

     negative rho (up, down):  0.108E+00 0.000E+00

     End of self-consistent calculation
 --- enter write_ns ---
 LDA+U parameters:
U( 2)     =  7.00000000
alpha( 2) =  0.00000000
atom    3   Tr[ns(na)] =   2.53738
    eigenvalues:
  0.119  0.133  0.147  0.424  0.446
    eigenvectors:
  0.720  0.037  0.048  0.160  0.035
  0.000  0.002  0.001  0.200  0.798
  0.095  0.190  0.715  0.000  0.000
  0.179  0.007  0.008  0.639  0.166
  0.005  0.765  0.228  0.000  0.002
    occupations:
  0.181  0.000 -0.004  0.122  0.000
  0.000  0.441  0.001 -0.010  0.014
 -0.004  0.001  0.141  0.008 -0.006
  0.122 -0.010  0.008  0.369 -0.001
  0.000  0.014 -0.006 -0.001  0.137
atom    4   Tr[ns(na)] =   2.65191
    eigenvalues:
  0.122  0.148  0.162  0.438  0.455
    eigenvectors:
  0.007  0.002  0.000  0.000  0.990
  0.003  0.834  0.161  0.000  0.003
  0.001  0.159  0.839  0.000  0.000
  0.989  0.004  0.000  0.000  0.007
  0.000  0.000  0.000  1.000  0.000
    occupations:
  0.452  0.016  0.005 -0.027  0.000
  0.016  0.151 -0.005  0.000 -0.003
  0.005 -0.005  0.160  0.001  0.000
 -0.027  0.000  0.001  0.125  0.000
  0.000 -0.003  0.000  0.000  0.438
atom    9   Tr[ns(na)] =   2.64769
    eigenvalues:
  0.124  0.167  0.177  0.384  0.471
    eigenvectors:
  0.000  0.002  0.899  0.100  0.000
  0.000  0.000  0.000  0.000  1.000
  0.999  0.001  0.000  0.000  0.000
  0.000  0.000  0.099  0.900  0.000
  0.001  0.997  0.002  0.000  0.000
    occupations:
  0.197  0.002  0.001  0.062  0.000
  0.002  0.471  0.000 -0.002  0.000
  0.001  0.000  0.124  0.002 -0.002
  0.062 -0.002  0.002  0.363  0.000
  0.000  0.000 -0.002  0.000  0.167
atom   10   Tr[ns(na)] =   2.57900
    eigenvalues:
  0.133  0.163  0.187  0.326  0.482
    eigenvectors:
  0.021  0.000  0.000  0.979  0.000
  0.000  0.000  1.000  0.000  0.000
  0.001  0.999  0.000  0.000  0.000
  0.977  0.001  0.000  0.021  0.000
  0.000  0.000  0.000  0.000  1.000
    occupations:
  0.321  0.000 -0.001 -0.028  0.000
  0.000  0.187  0.000  0.000  0.004
 -0.001  0.000  0.163 -0.001  0.000
 -0.028  0.000 -0.001  0.137  0.000
  0.000  0.004  0.000  0.000  0.482
atom   16   Tr[ns(na)] =   2.53761
    eigenvalues:
  0.119  0.133  0.147  0.424  0.446
    eigenvectors:
  0.723  0.035  0.048  0.160  0.035
  0.000  0.001  0.001  0.199  0.799
  0.092  0.187  0.721  0.000  0.000
  0.180  0.007  0.008  0.640  0.164
  0.005  0.770  0.223  0.000  0.002
    occupations:
  0.181  0.000 -0.004  0.122 -0.001
  0.000  0.441 -0.001  0.010  0.014
 -0.004 -0.001  0.142  0.007  0.006
  0.122  0.010  0.007  0.369  0.000
 -0.001  0.014  0.006  0.000  0.137
atom   17   Tr[ns(na)] =   2.65195
    eigenvalues:
  0.121  0.150  0.163  0.435  0.457
    eigenvectors:
  0.007  0.002  0.000  0.000  0.991
  0.002  0.845  0.151  0.000  0.002
  0.001  0.150  0.849  0.000  0.000
  0.991  0.003  0.000  0.000  0.007
  0.000  0.000  0.000  1.000  0.000
    occupations:
  0.454  0.014  0.005 -0.027  0.000
  0.014  0.152 -0.005  0.000 -0.003
  0.005 -0.005  0.161  0.001  0.000
 -0.027  0.000  0.001  0.123  0.000
  0.000 -0.003  0.000  0.000  0.435
atom   22   Tr[ns(na)] =   2.64779
    eigenvalues:
  0.124  0.168  0.177  0.384  0.471
    eigenvectors:
  0.000  0.002  0.899  0.099  0.000
  0.000  0.000  0.000  0.000  1.000
  0.999  0.001  0.000  0.000  0.000
  0.000  0.000  0.099  0.900  0.000
  0.001  0.997  0.002  0.000  0.000
    occupations:
  0.197 -0.002  0.001  0.062  0.000
 -0.002  0.471  0.000  0.002  0.000
  0.001  0.000  0.124  0.002  0.002
  0.062  0.002  0.002  0.364  0.001
  0.000  0.000  0.002  0.001  0.168
atom   23   Tr[ns(na)] =   2.56948
    eigenvalues:
  0.116  0.135  0.169  0.383  0.481
    eigenvectors:
  0.001  0.010  0.000  0.988  0.000
  0.000  0.000  1.000  0.000  0.000
  0.998  0.000  0.000  0.001  0.000
  0.000  0.989  0.000  0.011  0.000
  0.000  0.000  0.000  0.000  1.000
    occupations:
  0.380  0.000 -0.009 -0.025  0.000
  0.000  0.169  0.000  0.000  0.003
 -0.009  0.000  0.117  0.001  0.000
 -0.025  0.000  0.001  0.138  0.000
  0.000  0.003  0.000  0.000  0.481
N of occupied +U levels =  20.8227978
 --- exit write_ns ---

[...]

          k = 0.2500-0.4516 0.0000 ( 29882 PWs)   bands (ev):

[...]

          k =-0.2500 0.2258 0.0000 ( 29912 PWs)   bands (ev):

   -61.3971 -61.3730 -61.1262 -60.8410 -60.0611 -60.0276 -59.5579 -59.5321
   -37.7736 -37.5687 -37.5475 -37.4701 -37.4692 -37.4576 -37.4494 -37.3086
   -37.2268 -37.0279 -37.0168 -36.9552 -36.5268 -36.3457 -36.2761 -36.2303
   -36.0883 -36.0545 -35.8711 -35.8506 -35.8157 -35.7236 -35.6621 -35.5278
   -24.8449 -21.3295 -21.1093 -20.1928 -19.7224 -19.6663 -19.3031 -19.2452
   -19.1245 -19.0132 -18.9766 -18.9610 -18.9224 -18.7707 -18.7159 -18.0932
   -17.8343 -17.6165 -17.3709 -17.3507  -9.4986  -8.9393  -8.7306  -7.8854
    -7.2720  -7.1438  -7.1394  -7.0233  -6.9433  -6.7044  -6.6561  -6.6252
    -6.5619  -6.5289  -6.4544  -6.3112  -6.2507  -6.1830  -6.1016  -5.9828
    -5.8937  -5.6792  -5.6252  -5.4115  -5.3109  -5.0858  -4.9995  -4.8722
    -4.8537  -4.7643  -4.7335  -4.6501  -4.5631  -4.5050  -4.4248  -4.3469
    -4.3243  -4.2629  -4.2174  -4.0810  -4.0378  -3.9021  -3.8168  -3.6915
    -3.6238  -3.4763  -3.2857  -3.0753  -2.9122  -2.7666  -2.7328  -2.6716
    -2.5530  -2.3927  -2.3146  -2.2786  -2.2112  -2.0972  -2.0467   0.3059
     0.5818   0.6776   0.7089   0.7534   0.8249   0.9345   1.0540   1.1005
     1.1837   1.2578   1.3276   1.4786   1.5762   1.6405   1.7039   1.8993
     1.9655   1.9811   2.0807   2.1122   2.1652   2.2953   2.3526   2.4135
     2.5096   2.6210   2.6372   2.6717   2.9077   3.0568   3.1294   3.1840
     3.2193   3.3210   3.4643   3.5296   3.7738   3.8748   3.9004   4.0375
     4.1828   4.1921   4.2893   4.7190   5.1434   5.2534   5.6187   5.6707
     5.7263   6.0230   6.1032   6.3073   6.4026   6.6502   6.7372   7.0338
     7.1802   7.3608   7.4990   7.6136   7.7714   8.0006   8.0446   8.1100
     8.2106   8.2846   8.4613   8.4933   8.7129   8.7645   8.8771   8.9694
     9.1062   9.1368   9.2546   9.3878   9.5160   9.6314   9.6913   9.7590
     9.8587   9.9678  10.1171  10.3016  10.3443  10.3918  10.4749  10.5613
    10.6290  10.7467  10.8676  10.9390  11.0234  11.0892  11.1777  11.2502
    11.3370  11.4384  11.5027  11.5580  11.6383  11.7241  11.7758  11.8572
    11.9401  12.0496  12.0871  12.1546  12.2097  12.2864  12.3353  12.4234
    12.5141  12.5575  12.5993  12.6963  12.7699  12.9290  12.9928  13.0306
    13.0565  13.1245  13.1681  13.3123  13.4401  13.5532  13.5738  13.7121
    13.7621  13.8767  13.8960  13.9892  14.0523  14.1153  14.1972  14.2304
    14.2873  14.3286  14.4192  14.5041  14.5515  14.5853  14.6476  14.7593
    14.8192  14.9427  14.9843  15.1080  15.1296  15.2128  15.3136  15.3636
    15.4925  15.5208  15.5506  15.6264  15.6573  15.7424  15.8002  15.8664
    15.9602  16.0129  16.0798  16.1447  16.1883  16.2991  16.3587  16.4446
    16.5102  16.5823  16.6117  16.7053  16.7923  16.8519  16.8867  16.9216
    17.0072  17.0948  17.1458  17.2263  17.2710  17.3563  17.4157  17.4541
    17.5371  17.5943  17.6544  17.7721  17.8460  17.9201  17.9461  18.0482
    18.1300  18.1703  18.2845  18.3563  18.4147  18.4802  18.6202  18.6399
    18.6827  18.7474  18.8028  18.8585  18.9598  19.0542  19.1102

     the Fermi energy is    -2.0350 ev

!    total energy              =   -1596.49023029 Ry
     Harris-Foulkes estimate   =   -1596.49023030 Ry
     estimated scf accuracy    <          7.1E-09 Ry

     The total energy is the sum of the following terms:

     one-electron contribution =  -19072.77328787 Ry
     hartree contribution      =    9556.86744962 Ry
     xc contribution           =    -284.41573300 Ry
     ewald contribution        =    8200.29351340 Ry
     Hubbard energy            =       3.53887804 Ry
     smearing contrib. (-TS)   =      -0.00105050 Ry

     convergence has been achieved in  10 iterations

     Forces acting on atoms (Ry/au):

     negative rho (up, down):  0.108E+00 0.000E+00
     atom    1 type  1   force =    -0.00289261   -0.01511680    0.00006986
     atom    2 type  1   force =     0.00004100    0.01690860    0.00043018
     atom    3 type  2   force =     0.03738013   -0.00696398   -0.00065305
     atom    4 type  2   force =     0.00202669    0.00986867    0.00038938
     atom    5 type  1   force =    -0.00116283   -0.09016445   -0.00052284
     atom    6 type  1   force =    -0.00409854    0.08789857   -0.00049295
     atom    7 type  1   force =     0.00008695   -0.00122299   -0.00058535
     atom    8 type  1   force =     0.00043369   -0.00074643    0.00024418
     atom    9 type  2   force =     0.00229012    0.00013253   -0.00042716
     atom   10 type  2   force =     0.00004473   -0.00132363   -0.00012815
     atom   11 type  1   force =    -0.02406203   -0.01125275    0.00065937
     atom   12 type  1   force =    -0.02136978    0.01650567    0.00066895
     atom   13 type  1   force =     0.00005317   -0.00255706    0.00048460
     atom   14 type  1   force =    -0.00465530   -0.01522889   -0.00028857
     atom   15 type  1   force =     0.00010281    0.01737032    0.00038772
     atom   16 type  2   force =    -0.03727767   -0.00747167   -0.00065455
     atom   17 type  2   force =     0.00194736    0.00943160    0.00045318
     atom   18 type  1   force =     0.00488607   -0.09031194   -0.00047447
     atom   19 type  1   force =     0.00326094    0.08823640   -0.00055605
     atom   20 type  1   force =    -0.00008239   -0.00075568   -0.00078388
     atom   21 type  1   force =     0.00031871   -0.00004464    0.00014056
     atom   22 type  2   force =    -0.00247856    0.00015069   -0.00042795
     atom   23 type  2   force =    -0.00010200   -0.00275831    0.00018920
     atom   24 type  1   force =     0.02416531   -0.01112374    0.00066996
     atom   25 type  1   force =     0.02127211    0.01635667    0.00067080
     atom   26 type  1   force =     0.00010629   -0.00532080    0.00083612
     atom   27 type  3   force =     0.00001686   -0.00034481    0.00022063
     atom   28 type  3   force =     0.00002652   -0.00041555    0.00009044
     atom   29 type  3   force =    -0.00022294   -0.00019183   -0.00029429
     atom   30 type  3   force =    -0.00006579   -0.00022971   -0.00046429
     atom   31 type  1   force =     0.00019798    0.00010251   -0.00004930
     atom   32 type  1   force =    -0.00025438    0.00015770   -0.00059060
     atom   33 type  3   force =     0.00006739    0.00042574    0.00078832

     Total force =     0.002973     Total SCF correction =     0.000177

     bfgs converged in   7 scf cycles and   6 bfgs steps
     (criteria: energy < 0.10E-03, force < 0.10E-02)

     End of BFGS Geometry Optimization

     Final energy   =   -1596.4902302942 Ry
Begin final coordinates

ATOMIC_POSITIONS (crystal)
O0       0.000000000   0.000000000   0.375947283    0   0   1
O0       0.000000000   0.500000000   0.397878145    0   0   1
Ti1      0.250000000   0.500000000   0.450623745    0   0   1
Ti1      0.000000000   0.000000000   0.450333252    0   0   1
O0       0.250000000   0.810000000   0.449374896    0   0   1
O0       0.250000000   0.190000000   0.450513107    0   0   1
O0       0.000000000   0.500000000   0.498412956    0   0   1
O0       0.000000000   0.000000000   0.526812785    0   0   1
Ti1      0.250000000   0.000000000   0.580951364    0   0   1
Ti1      0.000000000   0.500000000   0.570626326    0   0   1
O0       0.250000000   0.690000000   0.579055976    0   0   1
O0       0.250000000   0.310000000   0.580678300    0   0   1
O0       0.000000000   0.000000000   0.624719444    0   0   1
O0       0.500000000   0.000000000   0.376788406    0   0   1
O0       0.500000000   0.500000000   0.397970512    0   0   1
Ti1      0.750000000   0.500000000   0.450635102    0   0   1
Ti1      0.500000000   0.000000000   0.451936035    0   0   1
O0       0.750000000   0.810000000   0.449353624    0   0   1
O0       0.750000000   0.190000000   0.450581005    0   0   1
O0       0.500000000   0.500000000   0.498416659    0   0   1
O0       0.500000000   0.000000000   0.526987760    0   0   1
Ti1      0.750000000   0.000000000   0.580962945    0   0   1
Ti1      0.500000000   0.500000000   0.581350583    0   0   1
O0       0.750000000   0.690000000   0.579049842    0   0   1
O0       0.750000000   0.310000000   0.580670556    0   0   1
O0       0.500000000   0.000000000   0.624061062    0   0   1
H2      -0.000210257   0.630340750   0.378934055
H2       0.499838481   0.631301975   0.379395933
H2       0.152474200   0.030749475   0.363128194
H2       0.651514486   0.032278297   0.363713660
O0       0.500310000   0.538841571   0.658443829    0   1   1
O0       0.499120000   0.357267497   0.686263414    0   1   1
H2       0.500360000   0.412245444   0.720919244    0   1   1
End final coordinates

     General routines

     Parallel routines
     Hubbard U routines

   This run was terminated on:  20:37:37  15Oct2014

   JOB DONE.