     Program PWSCF v.5.0.2 (svn rev. 9656) starts on  1Jun2014 at  6:22: 2

     Current dimensions of program PWSCF are:
     Max number of different atomic species (ntypx) = 10
     Max number of k-points (npk) =  40000
     Max angular momentum in pseudopotentials (lmaxx) =  3
     Reading input from pwscf.in
Warning: card &CELL ignored
Warning: card / ignored

     Subspace diagonalization in iterative solution of the eigenvalue problem:
     a serial algorithm will be used

     bravais-lattice index     =            0
     lattice parameter (alat)  =      11.1872  a.u.
     unit-cell volume          =    7531.8600 (a.u.)^3
     number of atoms/cell      =           33
     number of atomic types    =            3
     number of electrons       =       229.00
     number of Kohn-Sham states=          343
     kinetic-energy cutoff     =      40.0000  Ry
     charge density cutoff     =     500.0000  Ry
     convergence threshold     =      1.0E-06
     mixing beta               =       0.7000
     number of iterations used =            8  plain     mixing
     Exchange-correlation      = SLA  PW   PBE  PBE ( 1 4 3 4 0)
     EXX-fraction              =        0.00
     nstep                     =           50

     celldm(1)=  11.187179  celldm(2)=   0.000000  celldm(3)=   0.000000
     celldm(4)=   0.000000  celldm(5)=   0.000000  celldm(6)=   0.000000

     crystal axes: (cart. coord. in units of alat)
               a(1) = (   1.000000   0.000000   0.000000 )
               a(2) = (   0.000000   1.180104   0.000000 )
               a(3) = (   0.000000   0.000000   4.558482 )

     reciprocal axes: (cart. coord. in units 2 pi/alat)
               b(1) = (  1.000000  0.000000  0.000000 )
               b(2) = (  0.000000  0.847383  0.000000 )
               b(3) = (  0.000000  0.000000  0.219371 )

     PseudoPot. # 1 for O  read from file:
     /home/camp/zhonxu/pseudo/o_pbe_v1.01.uspp.F.UPF
     MD5 check sum: 2bcb18d16ea4b960afae9ec6d52f22d2
     Pseudo is Ultrasoft + core correction, Zval =  6.0
     Generated by new atomic code, or converted to UPF format
     Using radial grid of  737 points,  5 beta functions with:
                l(1) =   0
                l(2) =   0
                l(3) =   1
                l(4) =   1
                l(5) =   2
     Q(r) pseudized with  8 coefficients,  rinner =    0.900   0.900   0.900
                                                       0.900   0.900

     PseudoPot. # 2 for Nb read from file:
     /home/camp/zhonxu/pseudo/nb_pbe_v1.uspp.F.UPF
     MD5 check sum: 573aab8a2fa660278ed4a62cd769473f
     Pseudo is Ultrasoft + core correction, Zval = 13.0
     Generated by new atomic code, or converted to UPF format
     Using radial grid of  887 points,  6 beta functions with:
                l(1) =   0
                l(2) =   0
                l(3) =   1
                l(4) =   1
                l(5) =   2
                l(6) =   2
     Q(r) pseudized with  6 coefficients,  rinner =    1.000   1.000   1.000
                                                       1.000   1.000

     PseudoPot. # 3 for H  read from file:
     /home/camp/zhonxu/pseudo/h_pbe_v1.uspp.F.UPF
     MD5 check sum: 3408e3ff4ec8b0a4e358431e7e038a48
     Pseudo is Ultrasoft, Zval =  1.0
     Generated by new atomic code, or converted to UPF format
     Using radial grid of  615 points,  2 beta functions with:
                l(1) =   0
                l(2) =   0
     Q(r) pseudized with  8 coefficients,  rinner =    0.700

     atomic species   valence    mass     pseudopotential
        O0             6.00    15.99940     O ( 1.00)
        Nb1           13.00    92.90640     Nb( 1.00)
        H2             1.00     1.00794     H ( 1.00)

     Simplified LDA+U calculation (l_max = 2) with parameters (eV):
     atomic species    L          U    alpha       J0     beta
        Nb1            2     1.5000   0.0000   0.0000   0.0000

     No symmetry found

   Cartesian axes

     site n.     atom                  positions (alat units)
         1           O0  tau(   1) = (   0.0000000   0.0000000   1.6962113  )
         2           O0  tau(   2) = (   0.0000000   0.5900519   1.7723835  )
         3           Nb1 tau(   3) = (   0.2500000   0.5900519   2.0257895  )
         4           Nb1 tau(   4) = (   0.0000000   0.0000000   2.0274306  )
         5           O0  tau(   5) = (   0.2500000   0.9322821   2.0383253  )
         6           O0  tau(   6) = (   0.2500000   0.2478218   2.0381886  )
         7           O0  tau(   7) = (   0.0000000   0.5900519   2.2790132  )
         8           O0  tau(   8) = (   0.0000000   0.0000000   2.3853170  )
         9           Nb1 tau(   9) = (   0.2500000   0.0000000   2.6318397  )
        10           Nb1 tau(  10) = (   0.0000000   0.5900519   2.5956910  )
        11           O0  tau(  11) = (   0.2500000   0.8378738   2.6232242  )
        12           O0  tau(  12) = (   0.2500000   0.3422301   2.6255034  )
        13           O0  tau(  13) = (   0.0000000   0.0000000   2.8344187  )
        14           O0  tau(  14) = (   0.5000000   0.0000000   1.6974420  )
        15           O0  tau(  15) = (   0.5000000   0.5900519   1.7789021  )
        16           Nb1 tau(  16) = (   0.7500000   0.5900519   2.0259719  )
        17           Nb1 tau(  17) = (   0.5000000   0.0000000   2.0298010  )
        18           O0  tau(  18) = (   0.7500000   0.9322821   2.0382798  )
        19           O0  tau(  19) = (   0.7500000   0.2478218   2.0381886  )
        20           O0  tau(  20) = (   0.5000000   0.5900519   2.2737254  )
        21           O0  tau(  21) = (   0.5000000   0.0000000   2.3845421  )
        22           Nb1 tau(  22) = (   0.7500000   0.0000000   2.6318397  )
        23           Nb1 tau(  23) = (   0.5000000   0.5900519   2.6269166  )
        24           O0  tau(  24) = (   0.7500000   0.8378738   2.6231786  )
        25           O0  tau(  25) = (   0.7500000   0.3422301   2.6254579  )
        26           O0  tau(  26) = (   0.5000000   0.0000000   2.8332335  )
        27           H2  tau(  27) = (  -0.0005200   0.5958463   1.6070929  )
        28           H2  tau(  28) = (   0.4994400   0.5914445   1.6138395  )
        29           H2  tau(  29) = (   0.1507700   0.0008261   1.6243240  )
        30           H2  tau(  30) = (   0.6503900   0.0006019   1.6249166  )
        31           O0  tau(  31) = (   0.5000000   0.6010623   2.9587285  )
        32           O0  tau(  32) = (   0.5000000   0.4103103   3.1155403  )
        33           H2  tau(  33) = (   0.5000000   0.4955964   3.2584031  )

     number of k points=    10  Methfessel-Paxton smearing, width (Ry)=  0.0100
                       cart. coord. in units 2pi/alat
        k(    1) = (   0.0000000   0.0000000   0.0000000), wk =   0.1250000
        k(    2) = (   0.0000000   0.2118458   0.0000000), wk =   0.2500000
        k(    3) = (   0.0000000  -0.4236915   0.0000000), wk =   0.1250000
        k(    4) = (   0.2500000   0.0000000   0.0000000), wk =   0.2500000
        k(    5) = (   0.2500000   0.2118458   0.0000000), wk =   0.2500000
        k(    6) = (   0.2500000  -0.4236915   0.0000000), wk =   0.2500000
        k(    7) = (  -0.5000000   0.0000000   0.0000000), wk =   0.1250000
        k(    8) = (  -0.5000000   0.2118458   0.0000000), wk =   0.2500000
        k(    9) = (  -0.5000000  -0.4236915   0.0000000), wk =   0.1250000
        k(   10) = (  -0.2500000   0.2118458   0.0000000), wk =   0.2500000

     Largest allocated arrays     est. size (Mb)     dimensions
     Largest temporary arrays     est. size (Mb)     dimensions

     Check: negative/imaginary core charge=   -0.000003    0.000000

     Initial potential from superposition of free atoms
     Check: negative starting charge=   -0.003307

     starting charge  228.97806, renormalised to  229.00000

     negative rho (up, down):  0.331E-02 0.000E+00
     Number of +U iterations with fixed ns =  0
     Starting occupations:
 --- enter write_ns ---
 LDA+U parameters:
U( 2)     =  1.50000000
alpha( 2) =  0.00000000
atom    3   Tr[ns(na)] =   3.00000
    eigenvalues:
  0.300  0.300  0.300  0.300  0.300
    eigenvectors:
  1.000  0.000  0.000  0.000  0.000
  0.000  1.000  0.000  0.000  0.000
  0.000  0.000  1.000  0.000  0.000
  0.000  0.000  0.000  1.000  0.000
  0.000  0.000  0.000  0.000  1.000
    occupations:
  0.300  0.000  0.000  0.000  0.000
  0.000  0.300  0.000  0.000  0.000
  0.000  0.000  0.300  0.000  0.000
  0.000  0.000  0.000  0.300  0.000
  0.000  0.000  0.000  0.000  0.300
atom    4   Tr[ns(na)] =   3.00000
    eigenvalues:
  0.300  0.300  0.300  0.300  0.300
    eigenvectors:
  1.000  0.000  0.000  0.000  0.000
  0.000  1.000  0.000  0.000  0.000
  0.000  0.000  1.000  0.000  0.000
  0.000  0.000  0.000  1.000  0.000
  0.000  0.000  0.000  0.000  1.000
    occupations:
  0.300  0.000  0.000  0.000  0.000
  0.000  0.300  0.000  0.000  0.000
  0.000  0.000  0.300  0.000  0.000
  0.000  0.000  0.000  0.300  0.000
  0.000  0.000  0.000  0.000  0.300
atom    9   Tr[ns(na)] =   3.00000
    eigenvalues:
  0.300  0.300  0.300  0.300  0.300
    eigenvectors:
  1.000  0.000  0.000  0.000  0.000
  0.000  1.000  0.000  0.000  0.000
  0.000  0.000  1.000  0.000  0.000
  0.000  0.000  0.000  1.000  0.000
  0.000  0.000  0.000  0.000  1.000
    occupations:
  0.300  0.000  0.000  0.000  0.000
  0.000  0.300  0.000  0.000  0.000
  0.000  0.000  0.300  0.000  0.000
  0.000  0.000  0.000  0.300  0.000
  0.000  0.000  0.000  0.000  0.300
atom   10   Tr[ns(na)] =   3.00000
    eigenvalues:
  0.300  0.300  0.300  0.300  0.300
    eigenvectors:
  1.000  0.000  0.000  0.000  0.000
  0.000  1.000  0.000  0.000  0.000
  0.000  0.000  1.000  0.000  0.000
  0.000  0.000  0.000  1.000  0.000
  0.000  0.000  0.000  0.000  1.000
    occupations:
  0.300  0.000  0.000  0.000  0.000
  0.000  0.300  0.000  0.000  0.000
  0.000  0.000  0.300  0.000  0.000
  0.000  0.000  0.000  0.300  0.000
  0.000  0.000  0.000  0.000  0.300
atom   16   Tr[ns(na)] =   3.00000
    eigenvalues:
  0.300  0.300  0.300  0.300  0.300
    eigenvectors:
  1.000  0.000  0.000  0.000  0.000
  0.000  1.000  0.000  0.000  0.000
  0.000  0.000  1.000  0.000  0.000
  0.000  0.000  0.000  1.000  0.000
  0.000  0.000  0.000  0.000  1.000
    occupations:
  0.300  0.000  0.000  0.000  0.000
  0.000  0.300  0.000  0.000  0.000
  0.000  0.000  0.300  0.000  0.000
  0.000  0.000  0.000  0.300  0.000
  0.000  0.000  0.000  0.000  0.300
atom   17   Tr[ns(na)] =   3.00000
    eigenvalues:
  0.300  0.300  0.300  0.300  0.300
    eigenvectors:
  1.000  0.000  0.000  0.000  0.000
  0.000  1.000  0.000  0.000  0.000
  0.000  0.000  1.000  0.000  0.000
  0.000  0.000  0.000  1.000  0.000
  0.000  0.000  0.000  0.000  1.000
    occupations:
  0.300  0.000  0.000  0.000  0.000
  0.000  0.300  0.000  0.000  0.000
  0.000  0.000  0.300  0.000  0.000
  0.000  0.000  0.000  0.300  0.000
  0.000  0.000  0.000  0.000  0.300
atom   22   Tr[ns(na)] =   3.00000
    eigenvalues:
  0.300  0.300  0.300  0.300  0.300
    eigenvectors:
  1.000  0.000  0.000  0.000  0.000
  0.000  1.000  0.000  0.000  0.000
  0.000  0.000  1.000  0.000  0.000
[...]
  0.120  0.000  0.000  0.859  0.021
  0.000  0.905  0.094  0.000  0.000
    occupations:
  0.477 -0.000  0.000  0.047  0.000
 -0.000  0.610  0.000 -0.001  0.000
  0.000  0.000  0.497 -0.000  0.009
  0.047 -0.001 -0.000  0.587 -0.000
  0.000  0.000  0.009 -0.000  0.473
atom   10   Tr[ns(na)] =   5.12368
    eigenvalues:
  0.408  0.476  0.509  0.545  0.625
    eigenvectors:
  0.000  0.000  0.997  0.000  0.003
  0.000  1.000  0.000  0.000  0.000
  1.000  0.000  0.000  0.000  0.000
  0.000  0.000  0.003  0.000  0.997
  0.000  0.000  0.000  1.000  0.000
    occupations:
  0.509  0.000 -0.000  0.007 -0.000
  0.000  0.476 -0.000 -0.000  0.001
 -0.000 -0.000  0.408 -0.000  0.000
  0.007 -0.000 -0.000  0.624  0.000
 -0.000  0.001  0.000  0.000  0.545
atom   16   Tr[ns(na)] =   5.23339
    eigenvalues:
  0.415  0.436  0.521  0.572  0.673
    eigenvectors:
  0.000  0.000  0.004  0.445  0.551
  0.000  0.000  0.993  0.006  0.000
  0.015  0.984  0.000  0.000  0.000
  0.000  0.000  0.003  0.548  0.449
  0.984  0.015  0.000  0.000  0.000
    occupations:
  0.628  0.004  0.004 -0.050  0.003
  0.004  0.521  0.001  0.002 -0.000
  0.004  0.001  0.435 -0.002 -0.002
 -0.050  0.002 -0.002  0.617 -0.003
  0.003 -0.000 -0.002 -0.003  0.415
atom   17   Tr[ns(na)] =   5.24230
    eigenvalues:
  0.418  0.454  0.549  0.581  0.620
    eigenvectors:
  0.000  0.005  0.000  0.994  0.002
  0.000  0.994  0.000  0.005  0.001
  1.000  0.000  0.000  0.000  0.000
  0.000  0.001  0.000  0.001  0.997
  0.000  0.000  1.000  0.000  0.000
    occupations:
  0.580  0.008 -0.000  0.002  0.000
  0.008  0.454 -0.000 -0.005  0.000
 -0.000 -0.000  0.418  0.002  0.001
  0.002 -0.005  0.002  0.620  0.000
  0.000  0.000  0.001  0.000  0.549
atom   22   Tr[ns(na)] =   5.28546
    eigenvalues:
  0.459  0.470  0.499  0.604  0.610
    eigenvectors:
  0.880  0.000  0.000  0.118  0.002
  0.000  0.000  0.000  0.019  0.981
  0.000  0.096  0.904  0.000  0.000
  0.120  0.000  0.000  0.863  0.017
  0.000  0.903  0.096  0.000  0.000
    occupations:
  0.477  0.000  0.000  0.047 -0.000
  0.000  0.610 -0.000  0.001  0.000
  0.000 -0.000  0.496 -0.000 -0.009
  0.047  0.001 -0.000  0.587  0.000
 -0.000  0.000 -0.009  0.000  0.473
atom   23   Tr[ns(na)] =   5.25786
    eigenvalues:
  0.409  0.483  0.548  0.580  0.609
    eigenvectors:
  0.003  0.000  0.000  0.986  0.011
  0.000  0.996  0.004  0.000  0.000
  0.997  0.000  0.000  0.003  0.001
  0.000  0.000  0.000  0.012  0.988
  0.000  0.004  0.996  0.000  0.000
    occupations:
  0.580  0.000  0.009  0.003 -0.000
  0.000  0.483 -0.000 -0.000 -0.004
  0.009 -0.000  0.409  0.004  0.000
  0.003 -0.000  0.004  0.609  0.000
 -0.000 -0.004  0.000  0.000  0.548
N of occupied +U levels =  41.9057610
 --- exit write_ns ---

     Threshold (ethr) on eigenvalues was too large:
     Diagonalizing with lowered threshold

     Davidson diagonalization with overlap
     ethr =  3.58E-09,  avg # of iterations =  3.0

[...]

     total energy              =   -1594.64768898 Ry
     Harris-Foulkes estimate   =   -1594.64768899 Ry
     estimated scf accuracy    <       0.00000001 Ry

     iteration # 10     ecut=    40.00 Ry     beta=0.70
     Davidson diagonalization with overlap
     ethr =  6.43E-12,  avg # of iterations =  1.0

     negative rho (up, down):  0.333E-02 0.000E+00

     End of self-consistent calculation
 --- enter write_ns ---
 LDA+U parameters:
U( 2)     =  1.50000000
alpha( 2) =  0.00000000
atom    3   Tr[ns(na)] =   5.23340
    eigenvalues:
  0.414  0.436  0.521  0.572  0.674
    eigenvectors:
  0.000  0.000  0.003  0.445  0.551
  0.000  0.000  0.994  0.006  0.000
  0.052  0.947  0.000  0.000  0.000
  0.000  0.000  0.003  0.549  0.448
  0.947  0.052  0.000  0.000  0.000
    occupations:
  0.628 -0.004  0.004 -0.051 -0.003
 -0.004  0.521 -0.000 -0.002 -0.000
  0.004 -0.000  0.435 -0.002 -0.005
 -0.051 -0.002 -0.002  0.618  0.003
 -0.003 -0.000 -0.005  0.003  0.415
atom    4   Tr[ns(na)] =   5.24445
    eigenvalues:
  0.414  0.449  0.549  0.580  0.630
    eigenvectors:
  0.000  0.005  0.000  0.995  0.001
  0.000  0.995  0.000  0.005  0.001
  1.000  0.000  0.000  0.000  0.000
  0.000  0.001  0.000  0.001  0.998
  0.000  0.000  1.000  0.000  0.000
    occupations:
  0.579  0.009 -0.000  0.002 -0.000
  0.009  0.450 -0.000 -0.005 -0.000
 -0.000 -0.000  0.414 -0.000  0.001
  0.002 -0.005 -0.000  0.630  0.000
 -0.000 -0.000  0.001  0.000  0.549
atom    9   Tr[ns(na)] =   5.28559
    eigenvalues:
  0.459  0.470  0.499  0.604  0.610
    eigenvectors:
  0.880  0.000  0.000  0.117  0.003
  0.000  0.000  0.000  0.024  0.976
  0.000  0.094  0.906  0.000  0.000
  0.120  0.000  0.000  0.859  0.021
  0.000  0.905  0.094  0.000  0.000
    occupations:
  0.477 -0.000  0.000  0.047  0.000
 -0.000  0.610  0.000 -0.001  0.000
  0.000  0.000  0.497 -0.000  0.009
  0.047 -0.001 -0.000  0.587 -0.000
  0.000  0.000  0.009 -0.000  0.473
atom   10   Tr[ns(na)] =   5.12277
    eigenvalues:
  0.408  0.476  0.509  0.545  0.625
    eigenvectors:
  0.000  0.000  0.996  0.000  0.003
  0.000  1.000  0.000  0.000  0.000
  1.000  0.000  0.000  0.000  0.000
  0.000  0.000  0.003  0.000  0.997
  0.000  0.000  0.000  1.000  0.000
    occupations:
  0.509  0.000 -0.000  0.007 -0.000
  0.000  0.476 -0.000 -0.000  0.001
 -0.000 -0.000  0.408 -0.000  0.000
  0.007 -0.000 -0.000  0.624  0.000
 -0.000  0.001  0.000  0.000  0.545
atom   16   Tr[ns(na)] =   5.23383
    eigenvalues:
  0.415  0.436  0.521  0.572  0.673
    eigenvectors:
  0.000  0.000  0.004  0.445  0.551
  0.000  0.000  0.993  0.006  0.000
  0.015  0.985  0.000  0.000  0.000
  0.000  0.000  0.003  0.549  0.448
  0.985  0.015  0.000  0.000  0.000
    occupations:
  0.628  0.004  0.004 -0.050  0.003
  0.004  0.521  0.001  0.002 -0.000
  0.004  0.001  0.435 -0.002 -0.002
 -0.050  0.002 -0.002  0.617 -0.003
  0.003 -0.000 -0.002 -0.003  0.416
atom   17   Tr[ns(na)] =   5.24253
    eigenvalues:
  0.418  0.454  0.549  0.581  0.620
    eigenvectors:
  0.000  0.005  0.000  0.994  0.002
  0.000  0.994  0.000  0.005  0.001
  1.000  0.000  0.000  0.000  0.000
  0.000  0.001  0.000  0.001  0.997
  0.000  0.000  1.000  0.000  0.000
    occupations:
  0.580  0.008 -0.000  0.002  0.000
  0.008  0.454 -0.000 -0.005  0.000
 -0.000 -0.000  0.418  0.002  0.001
  0.002 -0.005  0.002  0.620  0.000
  0.000  0.000  0.001  0.000  0.549
atom   22   Tr[ns(na)] =   5.28550
    eigenvalues:
  0.459  0.470  0.499  0.604  0.610
    eigenvectors:
  0.880  0.000  0.000  0.117  0.002
  0.000  0.000  0.000  0.020  0.980
  0.000  0.096  0.904  0.000  0.000
  0.120  0.000  0.000  0.863  0.017
  0.000  0.903  0.096  0.000  0.000
    occupations:
  0.477  0.000  0.000  0.047 -0.000
  0.000  0.610 -0.000  0.001  0.000
  0.000 -0.000  0.496 -0.000 -0.009
  0.047  0.001 -0.000  0.587  0.000
 -0.000  0.000 -0.009  0.000  0.473
atom   23   Tr[ns(na)] =   5.25762
    eigenvalues:
  0.408  0.483  0.548  0.580  0.609
    eigenvectors:
  0.003  0.000  0.000  0.986  0.011
  0.000  0.996  0.004  0.000  0.000
  0.997  0.000  0.000  0.003  0.001
  0.000  0.000  0.000  0.011  0.988
  0.000  0.004  0.996  0.000  0.000
    occupations:
  0.580  0.000  0.009  0.003 -0.000
  0.000  0.483 -0.000 -0.000 -0.004
  0.009 -0.000  0.409  0.004  0.000
  0.003 -0.000  0.004  0.609 -0.000
 -0.000 -0.004  0.000 -0.000  0.548
N of occupied +U levels =  41.9056969
 --- exit write_ns ---

[...]

          k = 0.2500-0.4237 0.0000 ( 32188 PWs)   bands (ev):

[...]

          k =-0.2500 0.2118 0.0000 ( 32165 PWs)   bands (ev):

   -56.0215 -55.9569 -55.6239 -55.5679 -55.5666 -55.5562 -55.5004 -55.4580
   -32.8336 -32.2265 -32.1308 -32.1202 -32.0850 -32.0782 -32.0702 -32.0122
   -31.9732 -31.9372 -31.9218 -31.9202 -31.8711 -31.8412 -31.7842 -31.6424
   -31.5686 -31.5621 -31.5142 -31.4505 -31.4404 -31.4239 -31.3665 -31.3496
   -22.3859 -20.3027 -19.9338 -19.1353 -18.8556 -18.7574 -18.6453 -18.6026
   -18.5374 -18.5229 -18.4834 -18.4524 -17.9807 -17.8913 -17.8673 -17.7973
   -17.7822 -17.6693 -17.5223 -16.1806  -8.7451  -8.2808  -7.7966  -7.3628
    -6.8115  -6.6254  -6.5353  -6.4149  -6.3068  -6.2837  -6.1219  -6.0706
    -5.9530  -5.9467  -5.7886  -5.6942  -5.6442  -5.6213  -5.4103  -5.3888
    -5.3489  -5.2561  -5.0567  -4.9249  -4.7913  -4.7235  -4.5025  -4.4707
    -4.3798  -4.2735  -4.1309  -4.0603  -4.0196  -3.9647  -3.8224  -3.7828
    -3.7310  -3.7072  -3.6721  -3.6060  -3.5002  -3.4082  -3.3595  -3.3084
    -3.2297  -3.0850  -3.0029  -2.9241  -2.8674  -2.8346  -2.7211  -2.6227
    -2.5429  -2.5111  -2.3691  -2.3412  -2.1157  -1.9233  -0.9011   0.0544
     0.6687   0.7236   1.0927   1.2274   1.4895   1.7616   1.9278   1.9785
     2.0958   2.2761   2.3198   2.3920   2.5178   2.5995   2.6937   2.7738
     2.8498   2.9342   3.0035   3.0408   3.1200   3.1923   3.2084   3.4644
     3.7307   4.1326   4.3384   4.4594   4.7034   4.8276   5.0621   5.3120
     5.3190   5.3814   5.5416   5.5766   5.6812   5.7695   5.8697   5.8993
     6.0235   6.0745   6.1500   6.2364   6.4260   6.5634   6.6144   6.7535
     6.8046   6.9244   6.9352   7.1101   7.2006   7.3824   7.4517   7.4943
     7.6359   7.7800   7.8842   8.0118   8.0783   8.1418   8.3172   8.3616
     8.5170   8.6163   8.7234   8.7861   8.9466   8.9965   9.0580   9.2530
     9.3344   9.3971   9.4576   9.5549   9.6599   9.7698   9.8831   9.9421
    10.0566  10.1249  10.2164  10.3203  10.4076  10.4380  10.6081  10.7677
    10.8363  10.9877  11.0243  11.1048  11.1669  11.2012  11.3261  11.4001
    11.4767  11.5964  11.6315  11.6577  11.6817  11.8481  11.8905  11.9981
    12.1152  12.1717  12.2323  12.3184  12.4473  12.5404  12.6250  12.7075
    12.7307  12.7802  12.8850  12.9132  12.9416  13.0075  13.0632  13.1798
    13.2355  13.3277  13.3614  13.4184  13.5015  13.5816  13.6243  13.7001
    13.7611  13.8639  13.9138  13.9980  14.0385  14.1087  14.1307  14.2389
    14.3031  14.3860  14.4312  14.4689  14.6498  14.7494  14.8386  14.8808
    14.9617  15.1235  15.1547  15.2370  15.2927  15.3265  15.4074  15.4444
    15.4940  15.5619  15.5952  15.6959  15.7576  15.7952  15.8646  15.8982
    15.9883  16.0507  16.1299  16.1905  16.2808  16.3568  16.3698  16.4318
    16.5606  16.6709  16.6940  16.7468  16.7901  16.8714  16.9214  17.0283
    17.0724  17.1075  17.1831  17.2425  17.3089  17.3625  17.4503  17.4685
    17.5608  17.6103  17.6909  17.8238  17.8705  17.9207  17.9680  18.0551
    18.1204  18.2160  18.3068  18.3427  18.3983  18.5334  18.5622  18.6142
    18.6589  18.7271  18.8010  18.8705  18.9496  18.9909  19.0732  19.1005
    19.1785  19.2691  19.2993  19.3497  19.4344  19.4595  19.5062  19.6116
    19.6992  19.7441  19.7676  19.8073  19.8809  19.9196  19.9718  20.0293
    20.0689  20.1496  20.1773  20.2365  20.2806  20.3461  20.4091

     the Fermi energy is     1.1683 ev

!    total energy              =   -1594.64768899 Ry
     Harris-Foulkes estimate   =   -1594.64768899 Ry
     estimated scf accuracy    <          2.6E-09 Ry

     The total energy is the sum of the following terms:

     one-electron contribution =  -19406.91598692 Ry
     hartree contribution      =    9736.65573770 Ry
     xc contribution           =    -294.65576981 Ry
     ewald contribution        =    8369.19576206 Ry
     Hubbard energy            =       1.07275031 Ry
     smearing contrib. (-TS)   =      -0.00018233 Ry

     convergence has been achieved in  10 iterations

     Forces acting on atoms (Ry/au):

     negative rho (up, down):  0.333E-02 0.000E+00
     atom    1 type  1   force =     0.00153913   -0.00022995   -0.00005049
     atom    2 type  1   force =    -0.00077173    0.00002829   -0.00058139
     atom    3 type  2   force =    -0.05110968    0.00002208   -0.00009891
     atom    4 type  2   force =    -0.00453876   -0.00039894    0.00000850
     atom    5 type  1   force =    -0.00184511   -0.01409013   -0.00010250
     atom    6 type  1   force =    -0.00105153    0.01456825   -0.00011057
     atom    7 type  1   force =    -0.00012705   -0.00004414   -0.00016227
     atom    8 type  1   force =     0.00176104    0.00100610   -0.00010852
     atom    9 type  2   force =    -0.00017461    0.00000415    0.00020458
     atom   10 type  2   force =     0.00005541    0.00027455   -0.00078554
     atom   11 type  1   force =    -0.01422846   -0.01296396    0.00052232
     atom   12 type  1   force =    -0.01230290    0.01531889    0.00036123
     atom   13 type  1   force =     0.00034938   -0.00143470    0.00024438
     atom   14 type  1   force =     0.00065170    0.00002475   -0.00007872
     atom   15 type  1   force =    -0.00073777   -0.00000231   -0.00064506
     atom   16 type  2   force =     0.05271645    0.00005315   -0.00007022
     atom   17 type  2   force =    -0.00435226   -0.00027585   -0.00016286
     atom   18 type  1   force =     0.00312083   -0.01389569   -0.00010644
     atom   19 type  1   force =     0.00210661    0.01434599   -0.00010151
     atom   20 type  1   force =     0.00010765   -0.00449161   -0.00051434
     atom   21 type  1   force =     0.00182923    0.00046229   -0.00008306
     atom   22 type  2   force =    -0.00034173    0.00000574    0.00020142
     atom   23 type  2   force =     0.00000209    0.00387072    0.00051810
     atom   24 type  1   force =     0.01437877   -0.01296131    0.00052567
     atom   25 type  1   force =     0.01244454    0.01530877    0.00037084
     atom   26 type  1   force =     0.00042988   -0.00409633    0.00033812
     atom   27 type  3   force =     0.00000843    0.00009123    0.00017434
     atom   28 type  3   force =    -0.00000984   -0.00028753    0.00059936
     atom   29 type  3   force =     0.00005078    0.00004508    0.00012699
     atom   30 type  3   force =     0.00004135    0.00001842    0.00011529
     atom   31 type  1   force =    -0.00000559   -0.00056054    0.00027489
     atom   32 type  1   force =     0.00000561   -0.00016059   -0.00038779
     atom   33 type  3   force =    -0.00000187    0.00044515   -0.00043583

     Total force =     0.002142     Total SCF correction =     0.000116

     entering subroutine stress ...

     negative rho (up, down):  0.333E-02 0.000E+00
          total   stress  (Ry/bohr**3)                   (kbar)     P=   -2.56
  -0.00001218  -0.00000006   0.00000209         -1.79     -0.01      0.31
  -0.00000006  -0.00000877   0.00000039         -0.01     -1.29      0.06
   0.00000209   0.00000039  -0.00003124          0.31      0.06     -4.60

     bfgs converged in   6 scf cycles and   5 bfgs steps
     (criteria: energy < 0.10E-03, force < 0.10E-02)

     End of BFGS Geometry Optimization

     Final energy   =   -1594.6476889850 Ry
Begin final coordinates

ATOMIC_POSITIONS (crystal)
O0       0.000000000   0.000000000   0.372192472    0   0   1
O0       0.000000000   0.500000000   0.388443891    0   0   1
Nb1      0.250000000   0.500000000   0.444280171    0   0   1
Nb1      0.000000000   0.000000000   0.444827072    0   0   1
O0       0.250000000   0.790000000   0.447024955    0   0   1
O0       0.250000000   0.210000000   0.446993315    0   0   1
O0       0.000000000   0.500000000   0.500467730    0   0   1
O0       0.000000000   0.000000000   0.523325417    0   0   1
Nb1      0.250000000   0.000000000   0.577356274    0   0   1
Nb1      0.000000000   0.500000000   0.569667944    0   0   1
O0       0.250000000   0.710000000   0.575604743    0   0   1
O0       0.250000000   0.290000000   0.576070400    0   0   1
O0       0.000000000   0.000000000   0.621758411    0   0   1
O0       0.500000000   0.000000000   0.372433069    0   0   1
O0       0.500000000   0.500000000   0.390357102    0   0   1
Nb1      0.750000000   0.500000000   0.444309842    0   0   1
Nb1      0.500000000   0.000000000   0.445329826    0   0   1
O0       0.750000000   0.790000000   0.447015474    0   0   1
O0       0.750000000   0.210000000   0.446999475    0   0   1
O0       0.500000000   0.500000000   0.498880550    0   0   1
O0       0.500000000   0.000000000   0.523140563    0   0   1
Nb1      0.750000000   0.000000000   0.577348463    0   0   1
Nb1      0.500000000   0.500000000   0.576014031    0   0   1
O0       0.750000000   0.710000000   0.575599892    0   0   1
O0       0.750000000   0.290000000   0.576067984    0   0   1
O0       0.500000000   0.000000000   0.621462140    0   0   1
H2      -0.000514382   0.505022931   0.352164050
H2       0.499429054   0.500957099   0.354125656
H2       0.150610733   0.000739276   0.356360225
H2       0.650253186   0.000530806   0.356482069
O0       0.500000017   0.508639038   0.648964559
O0       0.500006211   0.347975019   0.683406512
H2       0.499998889   0.420024516   0.714785723
End final coordinates

     General routines

     Parallel routines
     Hubbard U routines

   This run was terminated on:  12:28:59   1Jun2014

   JOB DONE.