     Program PWSCF v.5.0.2 (svn rev. 9656) starts on 24Jan2014 at 14:32: 8

     Current dimensions of program PWSCF are:
     Max number of different atomic species (ntypx) = 10
     Max number of k-points (npk) =  40000
     Max angular momentum in pseudopotentials (lmaxx) =  3
     Reading input from RhO2-v-0.95.in

     Subspace diagonalization in iterative solution of the eigenvalue problem:
     a serial algorithm will be used

     bravais-lattice index     =            0
     lattice parameter (alat)  =       8.6209  a.u.
     unit-cell volume          =     412.8952 (a.u.)^3
     number of atoms/cell      =            6
     number of atomic types    =            2
     number of electrons       =        54.00
     number of Kohn-Sham states=           81
     kinetic-energy cutoff     =      40.0000  Ry
     charge density cutoff     =     500.0000  Ry
     convergence threshold     =      1.0E-06
     mixing beta               =       0.3000
     number of iterations used =            8  plain     mixing
     Exchange-correlation      = SLA  PW   PBE  PBE ( 1 4 3 4 0)
     EXX-fraction              =        0.00
     nstep                     =           50

     celldm(1)=   8.620877  celldm(2)=   0.000000  celldm(3)=   0.000000
     celldm(4)=   0.000000  celldm(5)=   0.000000  celldm(6)=   0.000000

     crystal axes: (cart. coord. in units of alat)
               a(1) = (   1.000000   0.000000   0.000000 )
               a(2) = (   0.000000   1.000000   0.000000 )
               a(3) = (   0.000000   0.000000   0.644444 )

     reciprocal axes: (cart. coord. in units 2 pi/alat)
               b(1) = (  1.000000  0.000000  0.000000 )
               b(2) = (  0.000000  1.000000  0.000000 )
               b(3) = (  0.000000  0.000000  1.551724 )

     PseudoPot. # 1 for Rh read from file:
     /home/camp/zhonxu/pseudo/rh_pbe_v1.uspp.F.UPF
     MD5 check sum: 37b626987ad0dd8ec6bf4cc9ef289918
     Pseudo is Ultrasoft + core correction, Zval = 15.0
     Generated by new atomic code, or converted to UPF format
     Using radial grid of  969 points,  7 beta functions with:
                l(1) =   0
                l(2) =   0
                l(3) =   1
                l(4) =   1
                l(5) =   2
                l(6) =   2
                l(7) =   2
     Q(r) pseudized with  6 coefficients,  rinner =    1.050   1.050   1.050
                                                       1.050   1.050

     PseudoPot. # 2 for O  read from file:
     /home/camp/zhonxu/pseudo/o_pbe_v1.01.uspp.F.UPF
     MD5 check sum: 2bcb18d16ea4b960afae9ec6d52f22d2
     Pseudo is Ultrasoft + core correction, Zval =  6.0
     Generated by new atomic code, or converted to UPF format
     Using radial grid of  737 points,  5 beta functions with:
                l(1) =   0
                l(2) =   0
                l(3) =   1
                l(4) =   1
                l(5) =   2
     Q(r) pseudized with  8 coefficients,  rinner =    0.900   0.900   0.900
                                                       0.900   0.900

     atomic species   valence    mass     pseudopotential
        Rh0           15.00   102.90550     Rh( 1.00)
        O1             6.00    15.99940     O ( 1.00)

     Starting magnetic structure
     atomic species   magnetization
        Rh0          0.000
        O1           0.000

     16 Sym. Ops., with inversion, found ( 8 have fractional translation)

   Cartesian axes

     site n.     atom                  positions (alat units)
         1           Rh0 tau(   1) = (   0.0000000   0.0000000   0.0000000  )
         2           Rh0 tau(   2) = (   0.5000000   0.5000000   0.3222222  )
         3           O1  tau(   3) = (   0.3050000   0.3050000   0.0000000  )
         4           O1  tau(   4) = (  -0.3050000  -0.3050000   0.0000000  )
         5           O1  tau(   5) = (   0.8050000   0.1950000   0.3222222  )
         6           O1  tau(   6) = (   0.1950000   0.8050000   0.3222222  )

     number of k points=    36  Methfessel-Paxton smearing, width (Ry)=  0.0100
                       cart. coord. in units 2pi/alat
        k(    1) = (   0.0000000   0.0000000   0.0000000), wk =   0.0080000
        k(    2) = (   0.0000000   0.0000000   0.3103448), wk =   0.0160000
        k(    3) = (   0.0000000   0.0000000   0.6206897), wk =   0.0160000
        k(    4) = (   0.0000000   0.2000000   0.0000000), wk =   0.0320000
        k(    5) = (   0.0000000   0.2000000   0.3103448), wk =   0.0640000
        k(    6) = (   0.0000000   0.2000000   0.6206897), wk =   0.0640000
        k(    7) = (   0.0000000   0.4000000   0.0000000), wk =   0.0320000
        k(    8) = (   0.0000000   0.4000000   0.3103448), wk =   0.0640000
        k(    9) = (   0.0000000   0.4000000   0.6206897), wk =   0.0640000
        k(   10) = (   0.2000000   0.2000000   0.0000000), wk =   0.0320000
        k(   11) = (   0.2000000   0.2000000   0.3103448), wk =   0.0640000
        k(   12) = (   0.2000000   0.2000000   0.6206897), wk =   0.0640000
        k(   13) = (   0.2000000   0.4000000   0.0000000), wk =   0.0640000
        k(   14) = (   0.2000000   0.4000000   0.3103448), wk =   0.1280000
        k(   15) = (   0.2000000   0.4000000   0.6206897), wk =   0.1280000
        k(   16) = (   0.4000000   0.4000000   0.0000000), wk =   0.0320000
        k(   17) = (   0.4000000   0.4000000   0.3103448), wk =   0.0640000
        k(   18) = (   0.4000000   0.4000000   0.6206897), wk =   0.0640000
        k(   19) = (   0.0000000   0.0000000   0.0000000), wk =   0.0080000
        k(   20) = (   0.0000000   0.0000000   0.3103448), wk =   0.0160000
        k(   21) = (   0.0000000   0.0000000   0.6206897), wk =   0.0160000
        k(   22) = (   0.0000000   0.2000000   0.0000000), wk =   0.0320000
        k(   23) = (   0.0000000   0.2000000   0.3103448), wk =   0.0640000
        k(   24) = (   0.0000000   0.2000000   0.6206897), wk =   0.0640000
        k(   25) = (   0.0000000   0.4000000   0.0000000), wk =   0.0320000
        k(   26) = (   0.0000000   0.4000000   0.3103448), wk =   0.0640000
        k(   27) = (   0.0000000   0.4000000   0.6206897), wk =   0.0640000
        k(   28) = (   0.2000000   0.2000000   0.0000000), wk =   0.0320000
        k(   29) = (   0.2000000   0.2000000   0.3103448), wk =   0.0640000
        k(   30) = (   0.2000000   0.2000000   0.6206897), wk =   0.0640000
        k(   31) = (   0.2000000   0.4000000   0.0000000), wk =   0.0640000
        k(   32) = (   0.2000000   0.4000000   0.3103448), wk =   0.1280000
        k(   33) = (   0.2000000   0.4000000   0.6206897), wk =   0.1280000
        k(   34) = (   0.4000000   0.4000000   0.0000000), wk =   0.0320000
        k(   35) = (   0.4000000   0.4000000   0.3103448), wk =   0.0640000
        k(   36) = (   0.4000000   0.4000000   0.6206897), wk =   0.0640000

     Largest allocated arrays     est. size (Mb)     dimensions
     Largest temporary arrays     est. size (Mb)     dimensions

     Check: negative/imaginary core charge=   -0.000004    0.000000

     Initial potential from superposition of free atoms
     Check: negative starting charge=(component1):   -0.081265
     Check: negative starting charge=(component2):   -0.081265

     starting charge   52.99980, renormalised to   54.00000

     negative rho (up, down):  0.828E-01 0.828E-01
     Starting wfc are   40 randomized atomic wfcs

     Self-consistent Calculation

     iteration #  1     ecut=    40.00 Ry     beta=0.30
     Davidson diagonalization with overlap
     ethr =  1.00E-02,  avg # of iterations =  6.9

     negative rho (up, down):  0.842E-01 0.842E-01

     total energy              =    -469.08650132 Ry
     Harris-Foulkes estimate   =    -470.53306861 Ry
     estimated scf accuracy    <       3.14965255 Ry

     total magnetization       =    -0.00 Bohr mag/cell
     absolute magnetization    =     0.00 Bohr mag/cell

[...]

     End of self-consistent calculation

 ------ SPIN UP ------------

          k = 0.0000 0.0000 0.0000 (  1787 PWs)   bands (ev):

   -35.2651 -35.2651 -35.1354 -35.1354 -35.0806 -35.0676  -7.6482  -6.4932
    -5.6276  -5.6276   3.8337   3.9763   5.2805   5.4661   5.4661   8.2157
     8.2157   8.7412   9.8105   9.9417  10.0840  10.3469  10.3469  10.4704
    10.4704  10.5386  11.4069  12.8912  13.5826  16.4340  16.4340  17.5774
    18.9392  22.8443  22.8443  26.2526  27.0284  27.2537  28.8078  30.3944
    30.3944  30.9174  31.9498  34.3229  35.2637  35.2637  36.7886  36.7886
    37.3754  38.7186  39.1074  39.1074  40.0647  40.8681  40.8820  42.0901
    42.3460  42.7745  44.2015  44.2732  44.5049  44.5049  45.3531  45.3531
    47.4747  47.4747  47.8283  48.3311  51.6445  53.1342  53.2661  53.2661
    53.5295  53.5295  53.7100  54.4575  54.4575  54.7282  54.7623  55.0699
    55.4523

[...]

 ------ SPIN DOWN ----------

[...]

     the Fermi energy is    12.6530 ev

!    total energy              =    -469.79698549 Ry
     Harris-Foulkes estimate   =    -469.79698010 Ry
     estimated scf accuracy    <       0.00000098 Ry

     The total energy is the sum of the following terms:

     one-electron contribution =    -132.67207409 Ry
     hartree contribution      =     104.05105252 Ry
     xc contribution           =     -87.34638634 Ry
     ewald contribution        =    -353.82899222 Ry
     smearing contrib. (-TS)   =      -0.00058538 Ry

[...]

     convergence has been achieved in   8 iterations

     Forces acting on atoms (Ry/au):

     negative rho (up, down):  0.885E-01 0.885E-01
     atom    1 type  1   force =     0.00000000    0.00000000   -0.00000000
     atom    2 type  1   force =     0.00000000    0.00000000    0.00000000
     atom    3 type  2   force =    -0.01762967   -0.01762967   -0.00000000
     atom    4 type  2   force =     0.01762967    0.01762967   -0.00000000
     atom    5 type  2   force =    -0.01762967    0.01762967    0.00000000
     atom    6 type  2   force =     0.01762967   -0.01762967    0.00000000

     Total force =     0.049864     Total SCF correction =     0.000225

     entering subroutine stress ...

     negative rho (up, down):  0.885E-01 0.885E-01
          total   stress  (Ry/bohr**3)                   (kbar)     P=  125.37
   0.00027325   0.00000000   0.00000000         40.20      0.00      0.00
   0.00000000   0.00027325   0.00000000          0.00     40.20      0.00
   0.00000000   0.00000000   0.00201034          0.00      0.00    295.73

     Volume is kept fixed: isostatic pressure set to zero

     BFGS Geometry Optimization

     number of scf cycles    =   1
     number of bfgs steps    =   0

     enthalpy new            =    -469.7969854947 Ry

     new trust radius        =       0.1176578610 bohr
     new conv_thr            =       0.0000010000 Ry

     new unit-cell volume =    412.89516 a.u.^3 (    61.18475 Ang^3 )

CELL_PARAMETERS (alat=  8.62087678)
   0.985728856   0.000000000   0.000000000
   0.000000000   0.985728856   0.000000000
   0.000000000   0.000000000   0.663239745

ATOMIC_POSITIONS (crystal)
Rh0      0.000000000   0.000000000   0.000000000    0   0   0
Rh0      0.500000000   0.500000000   0.500000000    0   0   0
[...]
        k(   32) = (   0.2028956   0.4057911   0.3015501), wk =   0.1280000
        k(   33) = (   0.2028956   0.4057911   0.6031002), wk =   0.1280000
        k(   34) = (   0.4057911   0.4057911   0.0000000), wk =   0.0320000
        k(   35) = (   0.4057911   0.4057911   0.3015501), wk =   0.0640000
        k(   36) = (   0.4057911   0.4057911   0.6031002), wk =   0.0640000

     Check: negative/imaginary core charge=   -0.000004    0.000000
     Check: negative starting charge=(component1):   -0.162057

[...]

     enthalpy old            =    -469.7969854947 Ry
     enthalpy new            =    -469.8100512101 Ry

     CASE: enthalpy_new < enthalpy_old

[...]

     Threshold (ethr) on eigenvalues was too large:
     Diagonalizing with lowered threshold

     Davidson diagonalization with overlap
     ethr =  1.25E-08,  avg # of iterations =  1.1

[...]

     Total force =     0.001044     Total SCF correction =     0.000055

[...]

     number of scf cycles    =   5
     number of bfgs steps    =   4

     enthalpy old            =    -469.8131100097 Ry
     enthalpy new            =    -469.8131476954 Ry

     CASE: enthalpy_new < enthalpy_old

     new trust radius        =       0.0013428711 bohr
     new conv_thr            =       0.0000000100 Ry

     new unit-cell volume =    412.89516 a.u.^3 (    61.18475 Ang^3 )

[...]

ATOMIC_POSITIONS (crystal)
Rh0      0.000000000   0.000000000   0.000000000    0   0   0
Rh0      0.500000000   0.500000000   0.500000000    0   0   0
O1       0.307138966   0.307138966   0.000000000    1   1   0
O1      -0.307138966  -0.307138966   0.000000000    1   1   0
O1       0.807138966   0.192861034   0.500000000    1   1   0
O1       0.192861034   0.807138966   0.500000000    1   1   0

     Check: negative starting charge=(component1):   -0.161485
     NEW-OLD atomic charge density approx. for the potential
     NEW k-points:
        k(    1) = (   0.0000000   0.0000000   0.0000000), wk =   0.0080000
        k(    2) = (   0.0000000   0.0000000   0.2958761), wk =   0.0160000
        k(    3) = (   0.0000000   0.0000000   0.5917523), wk =   0.0160000
        k(    4) = (   0.0000000   0.2048318   0.0000000), wk =   0.0320000
        k(    5) = (   0.0000000   0.2048318   0.2958761), wk =   0.0640000
        k(    6) = (   0.0000000   0.2048318   0.5917523), wk =   0.0640000
        k(    7) = (   0.0000000   0.4096635   0.0000000), wk =   0.0320000
        k(    8) = (   0.0000000   0.4096635   0.2958761), wk =   0.0640000
        k(    9) = (   0.0000000   0.4096635   0.5917523), wk =   0.0640000
        k(   10) = (   0.2048318   0.2048318   0.0000000), wk =   0.0320000
        k(   11) = (   0.2048318   0.2048318   0.2958761), wk =   0.0640000
        k(   12) = (   0.2048318   0.2048318   0.5917523), wk =   0.0640000
        k(   13) = (   0.2048318   0.4096635   0.0000000), wk =   0.0640000
        k(   14) = (   0.2048318   0.4096635   0.2958761), wk =   0.1280000
        k(   15) = (   0.2048318   0.4096635   0.5917523), wk =   0.1280000
        k(   16) = (   0.4096635   0.4096635   0.0000000), wk =   0.0320000
        k(   17) = (   0.4096635   0.4096635   0.2958761), wk =   0.0640000
        k(   18) = (   0.4096635   0.4096635   0.5917523), wk =   0.0640000
        k(   19) = (   0.0000000   0.0000000   0.0000000), wk =   0.0080000
        k(   20) = (   0.0000000   0.0000000   0.2958761), wk =   0.0160000
        k(   21) = (   0.0000000   0.0000000   0.5917523), wk =   0.0160000
        k(   22) = (   0.0000000   0.2048318   0.0000000), wk =   0.0320000
        k(   23) = (   0.0000000   0.2048318   0.2958761), wk =   0.0640000
        k(   24) = (   0.0000000   0.2048318   0.5917523), wk =   0.0640000
        k(   25) = (   0.0000000   0.4096635   0.0000000), wk =   0.0320000
        k(   26) = (   0.0000000   0.4096635   0.2958761), wk =   0.0640000
        k(   27) = (   0.0000000   0.4096635   0.5917523), wk =   0.0640000
        k(   28) = (   0.2048318   0.2048318   0.0000000), wk =   0.0320000
        k(   29) = (   0.2048318   0.2048318   0.2958761), wk =   0.0640000
        k(   30) = (   0.2048318   0.2048318   0.5917523), wk =   0.0640000
        k(   31) = (   0.2048318   0.4096635   0.0000000), wk =   0.0640000
        k(   32) = (   0.2048318   0.4096635   0.2958761), wk =   0.1280000
        k(   33) = (   0.2048318   0.4096635   0.5917523), wk =   0.1280000
        k(   34) = (   0.4096635   0.4096635   0.0000000), wk =   0.0320000
        k(   35) = (   0.4096635   0.4096635   0.2958761), wk =   0.0640000
        k(   36) = (   0.4096635   0.4096635   0.5917523), wk =   0.0640000

     Check: negative/imaginary core charge=   -0.000004    0.000000
     Check: negative starting charge=(component1):   -0.161497

[...]

     Threshold (ethr) on eigenvalues was too large:
     Diagonalizing with lowered threshold

     Davidson diagonalization with overlap
     ethr =  3.72E-10,  avg # of iterations =  2.0

[...]

     Total force =     0.000002     Total SCF correction =     0.000036
     SCF correction compared to forces is large: reduce conv_thr to get better values

[...]

     Volume is kept fixed: isostatic pressure set to zero

     bfgs converged in   6 scf cycles and   5 bfgs steps
     (criteria: energy < 0.10E-03, force < 0.10E-02, cell < 0.50E+00)

     End of BFGS Geometry Optimization

     Final enthalpy =    -469.8131493000 Ry
Begin final coordinates
     new unit-cell volume =    412.89516 a.u.^3 (    61.18475 Ang^3 )

CELL_PARAMETERS (alat=  8.62087678)
   0.976411116   0.000000000   0.000000000
   0.000000000   0.976411116   0.000000000
   0.000000000   0.000000000   0.675958533

ATOMIC_POSITIONS (crystal)
Rh0      0.000000000   0.000000000   0.000000000    0   0   0
Rh0      0.500000000   0.500000000   0.500000000    0   0   0
O1       0.307138966   0.307138966   0.000000000    1   1   0
O1      -0.307138966  -0.307138966   0.000000000    1   1   0
O1       0.807138966   0.192861034   0.500000000    1   1   0
O1       0.192861034   0.807138966   0.500000000    1   1   0
End final coordinates

     A final scf calculation at the relaxed structure.
     The G-vectors are recalculated for the final unit cell
     Results may differ from those at the preceding step.

     bravais-lattice index     =            0
     lattice parameter (alat)  =       8.6209  a.u.
     unit-cell volume          =     412.8952 (a.u.)^3
     number of atoms/cell      =            6
     number of atomic types    =            2
     number of electrons       =        54.00
     number of Kohn-Sham states=           81
     kinetic-energy cutoff     =      40.0000  Ry
     charge density cutoff     =     500.0000  Ry
     convergence threshold     =      1.0E-08
     mixing beta               =       0.3000
     number of iterations used =            8  plain     mixing
     Exchange-correlation      = SLA  PW   PBE  PBE ( 1 4 3 4 0)
     EXX-fraction              =        0.00

     celldm(1)=   8.620877  celldm(2)=   0.000000  celldm(3)=   0.000000
     celldm(4)=   0.000000  celldm(5)=   0.000000  celldm(6)=   0.000000

     crystal axes: (cart. coord. in units of alat)
               a(1) = (   0.976411   0.000000   0.000000 )
               a(2) = (   0.000000   0.976411   0.000000 )
               a(3) = (   0.000000   0.000000   0.675959 )

     reciprocal axes: (cart. coord. in units 2 pi/alat)
               b(1) = (  1.024159  0.000000  0.000000 )
               b(2) = (  0.000000  1.024159  0.000000 )
               b(3) = (  0.000000  0.000000  1.479381 )

     PseudoPot. # 1 for Rh read from file:
     /home/camp/zhonxu/pseudo/rh_pbe_v1.uspp.F.UPF
     MD5 check sum: 37b626987ad0dd8ec6bf4cc9ef289918
     Pseudo is Ultrasoft + core correction, Zval = 15.0
     Generated by new atomic code, or converted to UPF format
     Using radial grid of  969 points,  7 beta functions with:
                l(1) =   0
                l(2) =   0
                l(3) =   1
                l(4) =   1
                l(5) =   2
                l(6) =   2
                l(7) =   2
     Q(r) pseudized with  6 coefficients,  rinner =    1.050   1.050   1.050
                                                       1.050   1.050

     PseudoPot. # 2 for O  read from file:
     /home/camp/zhonxu/pseudo/o_pbe_v1.01.uspp.F.UPF
     MD5 check sum: 2bcb18d16ea4b960afae9ec6d52f22d2
     Pseudo is Ultrasoft + core correction, Zval =  6.0
     Generated by new atomic code, or converted to UPF format
     Using radial grid of  737 points,  5 beta functions with:
                l(1) =   0
                l(2) =   0
                l(3) =   1
                l(4) =   1
                l(5) =   2
     Q(r) pseudized with  8 coefficients,  rinner =    0.900   0.900   0.900
                                                       0.900   0.900

     atomic species   valence    mass     pseudopotential
        Rh0           15.00   102.90550     Rh( 1.00)
        O1             6.00    15.99940     O ( 1.00)

     Starting magnetic structure
     atomic species   magnetization
        Rh0          0.000
        O1           0.000

     16 Sym. Ops., with inversion, found ( 8 have fractional translation)

   Cartesian axes

     site n.     atom                  positions (alat units)
         1           Rh0 tau(   1) = (   0.0000000   0.0000000   0.0000000  )
         2           Rh0 tau(   2) = (   0.4882056   0.4882056   0.3379793  )
         3           O1  tau(   3) = (   0.2998939   0.2998939   0.0000000  )
         4           O1  tau(   4) = (  -0.2998939  -0.2998939   0.0000000  )
         5           O1  tau(   5) = (   0.7880995   0.1883117   0.3379793  )
         6           O1  tau(   6) = (   0.1883117   0.7880995   0.3379793  )

     number of k points=    36  Methfessel-Paxton smearing, width (Ry)=  0.0100
                       cart. coord. in units 2pi/alat
        k(    1) = (   0.0000000   0.0000000   0.0000000), wk =   0.0080000
        k(    2) = (   0.0000000   0.0000000   0.2958761), wk =   0.0160000
        k(    3) = (   0.0000000   0.0000000   0.5917523), wk =   0.0160000
        k(    4) = (   0.0000000   0.2048318   0.0000000), wk =   0.0320000
        k(    5) = (   0.0000000   0.2048318   0.2958761), wk =   0.0640000
        k(    6) = (   0.0000000   0.2048318   0.5917523), wk =   0.0640000
        k(    7) = (   0.0000000   0.4096635   0.0000000), wk =   0.0320000
        k(    8) = (   0.0000000   0.4096635   0.2958761), wk =   0.0640000
        k(    9) = (   0.0000000   0.4096635   0.5917523), wk =   0.0640000
        k(   10) = (   0.2048318   0.2048318   0.0000000), wk =   0.0320000
        k(   11) = (   0.2048318   0.2048318   0.2958761), wk =   0.0640000
        k(   12) = (   0.2048318   0.2048318   0.5917523), wk =   0.0640000
        k(   13) = (   0.2048318   0.4096635   0.0000000), wk =   0.0640000
        k(   14) = (   0.2048318   0.4096635   0.2958761), wk =   0.1280000
        k(   15) = (   0.2048318   0.4096635   0.5917523), wk =   0.1280000
        k(   16) = (   0.4096635   0.4096635   0.0000000), wk =   0.0320000
        k(   17) = (   0.4096635   0.4096635   0.2958761), wk =   0.0640000
        k(   18) = (   0.4096635   0.4096635   0.5917523), wk =   0.0640000
        k(   19) = (   0.0000000   0.0000000   0.0000000), wk =   0.0080000
        k(   20) = (   0.0000000   0.0000000   0.2958761), wk =   0.0160000
        k(   21) = (   0.0000000   0.0000000   0.5917523), wk =   0.0160000
        k(   22) = (   0.0000000   0.2048318   0.0000000), wk =   0.0320000
        k(   23) = (   0.0000000   0.2048318   0.2958761), wk =   0.0640000
        k(   24) = (   0.0000000   0.2048318   0.5917523), wk =   0.0640000
        k(   25) = (   0.0000000   0.4096635   0.0000000), wk =   0.0320000
        k(   26) = (   0.0000000   0.4096635   0.2958761), wk =   0.0640000
        k(   27) = (   0.0000000   0.4096635   0.5917523), wk =   0.0640000
        k(   28) = (   0.2048318   0.2048318   0.0000000), wk =   0.0320000
        k(   29) = (   0.2048318   0.2048318   0.2958761), wk =   0.0640000
        k(   30) = (   0.2048318   0.2048318   0.5917523), wk =   0.0640000
        k(   31) = (   0.2048318   0.4096635   0.0000000), wk =   0.0640000
        k(   32) = (   0.2048318   0.4096635   0.2958761), wk =   0.1280000
        k(   33) = (   0.2048318   0.4096635   0.5917523), wk =   0.1280000
        k(   34) = (   0.4096635   0.4096635   0.0000000), wk =   0.0320000
        k(   35) = (   0.4096635   0.4096635   0.2958761), wk =   0.0640000
        k(   36) = (   0.4096635   0.4096635   0.5917523), wk =   0.0640000

     Largest allocated arrays     est. size (Mb)     dimensions
     Largest temporary arrays     est. size (Mb)     dimensions

     Check: negative/imaginary core charge=   -0.000004    0.000000

     Initial potential from superposition of free atoms
     Check: negative starting charge=(component1):   -0.080112
     Check: negative starting charge=(component2):   -0.080112

     starting charge   52.99980, renormalised to   54.00000

     negative rho (up, down):  0.816E-01 0.816E-01
     Starting wfc are   40 randomized atomic wfcs

     Self-consistent Calculation

[...]

     total energy              =    -469.81390385 Ry
     Harris-Foulkes estimate   =    -469.81390233 Ry
     estimated scf accuracy    <       0.00000002 Ry

[...]

     iteration # 10     ecut=    40.00 Ry     beta=0.30
     Davidson diagonalization with overlap
     ethr =  3.49E-11,  avg # of iterations =  1.6

     negative rho (up, down):  0.869E-01 0.869E-01

     End of self-consistent calculation

 ------ SPIN UP ------------

[...]

 ------ SPIN DOWN ----------

[...]

          k = 0.4097 0.4097 0.5918 (  1759 PWs)   bands (ev):

   -35.2813 -35.2772 -35.2540 -35.2501 -35.0325 -35.0322  -6.3156  -6.2445
    -6.0768  -6.0223   5.1731   5.2960   5.4582   5.5392   6.3001   6.6267
     7.6693   7.7940   8.5472   8.7696   9.8036  10.1454  10.8617  10.9395
    11.1251  11.8416  12.0484  12.6045  14.1989  14.8212  15.5229  16.0978
    23.1170  23.4798  24.8273  25.5036  25.9238  26.3244  27.2637  27.6881
    30.3237  30.4646  32.0495  32.5480  34.6294  35.7200  36.1829  36.3894
    36.7577  37.7478  40.8219  40.8299  40.9463  41.0131  41.0905  41.6817
    43.1252  43.5365  44.4889  45.3895  46.1463  46.5924  47.2734  47.5977
    47.9253  48.3128  49.6673  50.2996  50.9885  51.1567  51.1933  52.2002
    52.3349  53.4269  53.6853  54.1687  54.4226  55.1928  55.5609  56.3295
    57.8164

     the Fermi energy is    12.6455 ev

!    total energy              =    -469.81390530 Ry
     Harris-Foulkes estimate   =    -469.81390385 Ry
     estimated scf accuracy    <          2.1E-09 Ry

     The total energy is the sum of the following terms:

     one-electron contribution =    -128.03824235 Ry
     hartree contribution      =     101.75776299 Ry
     xc contribution           =     -87.27865251 Ry
     ewald contribution        =    -356.25404750 Ry
     smearing contrib. (-TS)   =      -0.00072593 Ry

     total magnetization       =    -0.00 Bohr mag/cell
     absolute magnetization    =     0.00 Bohr mag/cell

     convergence has been achieved in  10 iterations

     Forces acting on atoms (Ry/au):

     negative rho (up, down):  0.869E-01 0.869E-01
     atom    1 type  1   force =     0.00000000    0.00000000   -0.00000000
     atom    2 type  1   force =     0.00000000    0.00000000    0.00000000
     atom    3 type  2   force =    -0.00003930   -0.00003930    0.00000000
     atom    4 type  2   force =     0.00003930    0.00003930    0.00000000
     atom    5 type  2   force =    -0.00003930    0.00003930   -0.00000000
     atom    6 type  2   force =     0.00003930   -0.00003930    0.00000000

     Total force =     0.000111     Total SCF correction =     0.000064
     SCF correction compared to forces is large: reduce conv_thr to get better values

     entering subroutine stress ...

     negative rho (up, down):  0.869E-01 0.869E-01
          total   stress  (Ry/bohr**3)                   (kbar)     P=   85.88
   0.00056840   0.00000000   0.00000000         83.61      0.00      0.00
   0.00000000   0.00056840   0.00000000          0.00     83.61      0.00
   0.00000000   0.00000000   0.00061458          0.00      0.00     90.41

     General routines

     Parallel routines

   This run was terminated on:  14:52:27  24Jan2014

   JOB DONE.
Running PBS batch system epilogue script
Job id: 251980.audhumbla.fysik.dtu.dk
Username: zhonxu
Groupname: campgst
Jobname: RhO2/fine-EOS/non-mag/RhO2-v-0.95
Sessionid: 19334
Queuename: verylong
Accounting:
This job has allocated the following 4 nodes:
q118 q118 q118 q118
Finished epilogue job 251980.audhumbla.fysik.dtu.dk for zhonxu