     Program PWSCF v.5.0.2 (svn rev. 9656) starts on 30Apr2014 at  3:59:52

     Current dimensions of program PWSCF are:
     Max number of different atomic species (ntypx) = 10
     Max number of k-points (npk) =  40000
     Max angular momentum in pseudopotentials (lmaxx) =  3
     Reading input from pwscf.in
Warning: card &CELL ignored
Warning: card / ignored

     Subspace diagonalization in iterative solution of the eigenvalue problem:
     a serial algorithm will be used

     bravais-lattice index     =            0
     lattice parameter (alat)  =      11.7541  a.u.
     unit-cell volume          =    7139.8207 (a.u.)^3
     number of atoms/cell      =           31
     number of atomic types    =            3
     number of electrons       =       238.00
     number of Kohn-Sham states=          357
     kinetic-energy cutoff     =      40.0000  Ry
     charge density cutoff     =     500.0000  Ry
     convergence threshold     =      1.0E-06
     mixing beta               =       0.7000
     number of iterations used =            8  plain     mixing
     Exchange-correlation      = SLA  PW   PBE  PBE ( 1 4 3 4 0)
     EXX-fraction              =        0.00
     nstep                     =           50

     celldm(1)=  11.754097  celldm(2)=   0.000000  celldm(3)=   0.000000
     celldm(4)=   0.000000  celldm(5)=   0.000000  celldm(6)=   0.000000

     crystal axes: (cart. coord. in units of alat)
               a(1) = (   1.000000   0.000000   0.000000 )
               a(2) = (   0.000000   1.034513   0.000000 )
               a(3) = (   0.000000   0.000000   4.249947 )

     reciprocal axes: (cart. coord. in units 2 pi/alat)
               b(1) = (  1.000000  0.000000  0.000000 )
               b(2) = (  0.000000  0.966638  0.000000 )
               b(3) = (  0.000000  0.000000  0.235297 )

     PseudoPot. # 1 for O  read from file:
     /home/camp/zhonxu/pseudo/o_pbe_v1.01.uspp.F.UPF
     MD5 check sum: 2bcb18d16ea4b960afae9ec6d52f22d2
     Pseudo is Ultrasoft + core correction, Zval =  6.0
     Generated by new atomic code, or converted to UPF format
     Using radial grid of  737 points,  5 beta functions with:
                l(1) =   0
                l(2) =   0
                l(3) =   1
                l(4) =   1
                l(5) =   2
     Q(r) pseudized with  8 coefficients,  rinner =    0.900   0.900   0.900
                                                       0.900   0.900

     PseudoPot. # 2 for Rh read from file:
     /home/camp/zhonxu/pseudo/rh_pbe_v1.uspp.F.UPF
     MD5 check sum: 37b626987ad0dd8ec6bf4cc9ef289918
     Pseudo is Ultrasoft + core correction, Zval = 15.0
     Generated by new atomic code, or converted to UPF format
     Using radial grid of  969 points,  7 beta functions with:
                l(1) =   0
                l(2) =   0
                l(3) =   1
                l(4) =   1
                l(5) =   2
                l(6) =   2
                l(7) =   2
     Q(r) pseudized with  6 coefficients,  rinner =    1.050   1.050   1.050
                                                       1.050   1.050

     PseudoPot. # 3 for H  read from file:
     /home/camp/zhonxu/pseudo/h_pbe_v1.uspp.F.UPF
     MD5 check sum: 3408e3ff4ec8b0a4e358431e7e038a48
     Pseudo is Ultrasoft, Zval =  1.0
     Generated by new atomic code, or converted to UPF format
     Using radial grid of  615 points,  2 beta functions with:
                l(1) =   0
                l(2) =   0
     Q(r) pseudized with  8 coefficients,  rinner =    0.700

     atomic species   valence    mass     pseudopotential
        O0             6.00    15.99940     O ( 1.00)
        Rh1           15.00   102.90550     Rh( 1.00)
        H2             1.00     1.00794     H ( 1.00)

     Simplified LDA+U calculation (l_max = 2) with parameters (eV):
     atomic species    L          U    alpha       J0     beta
        Rh1            2     3.5000   0.0000   0.0000   0.0000

     No symmetry found

   Cartesian axes

     site n.     atom                  positions (alat units)
         1           O0  tau(   1) = (   0.0000000   0.0000000   1.6064375  )
         2           O0  tau(   2) = (   0.0000000   0.5172566   1.7091588  )
         3           Rh1 tau(   3) = (   0.2500000   0.5172566   1.9262886  )
         4           Rh1 tau(   4) = (   0.0000000   0.0000000   1.9228036  )
         5           O0  tau(   5) = (   0.2500000   0.8379556   1.9220386  )
         6           O0  tau(   6) = (   0.2500000   0.1965575   1.9215286  )
         7           O0  tau(   7) = (   0.0000000   0.5172566   2.1200437  )
         8           O0  tau(   8) = (   0.0000000   0.0000000   2.2432071  )
         9           Rh1 tau(   9) = (   0.2500000   0.0000000   2.4439746  )
        10           Rh1 tau(  10) = (   0.0000000   0.5172566   2.4253174  )
        11           O0  tau(  11) = (   0.2500000   0.7138141   2.4432947  )
        12           O0  tau(  12) = (   0.2500000   0.3206991   2.4432097  )
        13           O0  tau(  13) = (   0.0000000   0.0000000   2.6356898  )
        14           O0  tau(  14) = (   0.5000000   0.0000000   1.6064375  )
        15           O0  tau(  15) = (   0.5000000   0.5172566   1.7079263  )
        16           Rh1 tau(  16) = (   0.7500000   0.5172566   1.9262886  )
        17           Rh1 tau(  17) = (   0.5000000   0.0000000   1.9227611  )
        18           O0  tau(  18) = (   0.7500000   0.8379556   1.9219536  )
        19           O0  tau(  19) = (   0.7500000   0.1965575   1.9216136  )
        20           O0  tau(  20) = (   0.5000000   0.5172566   2.1284161  )
        21           O0  tau(  21) = (   0.5000000   0.0000000   2.2423572  )
        22           Rh1 tau(  22) = (   0.7500000   0.0000000   2.4439321  )
        23           Rh1 tau(  23) = (   0.5000000   0.5172566   2.4652244  )
        24           O0  tau(  24) = (   0.7500000   0.7138141   2.4431672  )
        25           O0  tau(  25) = (   0.7500000   0.3206991   2.4432097  )
        26           O0  tau(  26) = (   0.5000000   0.0000000   2.6354348  )
        27           H2  tau(  27) = (  -0.0000700   0.6590056   1.6354222  )
        28           H2  tau(  28) = (   0.4999300   0.6605366   1.6368247  )
        29           H2  tau(  29) = (   0.1480800   0.0354838   1.5606656  )
        30           H2  tau(  30) = (   0.6481100   0.0354321   1.5605806  )
        31           O0  tau(  31) = (   0.5000800   0.5160462   2.7479734  )

     number of k points=    10  Methfessel-Paxton smearing, width (Ry)=  0.0100
                       cart. coord. in units 2pi/alat
        k(    1) = (   0.0000000   0.0000000   0.0000000), wk =   0.1250000
        k(    2) = (   0.0000000   0.2416596   0.0000000), wk =   0.2500000
        k(    3) = (   0.0000000  -0.4833191   0.0000000), wk =   0.1250000
        k(    4) = (   0.2500000   0.0000000   0.0000000), wk =   0.2500000
        k(    5) = (   0.2500000   0.2416596   0.0000000), wk =   0.2500000
        k(    6) = (   0.2500000  -0.4833191   0.0000000), wk =   0.2500000
        k(    7) = (  -0.5000000   0.0000000   0.0000000), wk =   0.1250000
        k(    8) = (  -0.5000000   0.2416596   0.0000000), wk =   0.2500000
        k(    9) = (  -0.5000000  -0.4833191   0.0000000), wk =   0.1250000
        k(   10) = (  -0.2500000   0.2416596   0.0000000), wk =   0.2500000

     Largest allocated arrays     est. size (Mb)     dimensions
     Largest temporary arrays     est. size (Mb)     dimensions

     Check: negative/imaginary core charge=   -0.000003    0.000000

     Initial potential from superposition of free atoms
     Check: negative starting charge=   -0.645358

     starting charge  233.99915, renormalised to  238.00000

     negative rho (up, down):  0.656E+00 0.000E+00
     Number of +U iterations with fixed ns =  0
     Starting occupations:
 --- enter write_ns ---
 LDA+U parameters:
U( 2)     =  3.50000000
alpha( 2) =  0.00000000
atom    3   Tr[ns(na)] =   7.00000
    eigenvalues:
  0.700  0.700  0.700  0.700  0.700
    eigenvectors:
  1.000  0.000  0.000  0.000  0.000
  0.000  1.000  0.000  0.000  0.000
  0.000  0.000  1.000  0.000  0.000
  0.000  0.000  0.000  1.000  0.000
  0.000  0.000  0.000  0.000  1.000
    occupations:
  0.700  0.000  0.000  0.000  0.000
  0.000  0.700  0.000  0.000  0.000
  0.000  0.000  0.700  0.000  0.000
  0.000  0.000  0.000  0.700  0.000
  0.000  0.000  0.000  0.000  0.700
atom    4   Tr[ns(na)] =   7.00000
    eigenvalues:
  0.700  0.700  0.700  0.700  0.700
    eigenvectors:
  1.000  0.000  0.000  0.000  0.000
  0.000  1.000  0.000  0.000  0.000
  0.000  0.000  1.000  0.000  0.000
  0.000  0.000  0.000  1.000  0.000
  0.000  0.000  0.000  0.000  1.000
    occupations:
  0.700  0.000  0.000  0.000  0.000
  0.000  0.700  0.000  0.000  0.000
  0.000  0.000  0.700  0.000  0.000
  0.000  0.000  0.000  0.700  0.000
  0.000  0.000  0.000  0.000  0.700
atom    9   Tr[ns(na)] =   7.00000
    eigenvalues:
  0.700  0.700  0.700  0.700  0.700
    eigenvectors:
  1.000  0.000  0.000  0.000  0.000
  0.000  1.000  0.000  0.000  0.000
  0.000  0.000  1.000  0.000  0.000
  0.000  0.000  0.000  1.000  0.000
  0.000  0.000  0.000  0.000  1.000
    occupations:
  0.700  0.000  0.000  0.000  0.000
  0.000  0.700  0.000  0.000  0.000
  0.000  0.000  0.700  0.000  0.000
  0.000  0.000  0.000  0.700  0.000
  0.000  0.000  0.000  0.000  0.700
atom   10   Tr[ns(na)] =   7.00000
    eigenvalues:
  0.700  0.700  0.700  0.700  0.700
    eigenvectors:
  1.000  0.000  0.000  0.000  0.000
  0.000  1.000  0.000  0.000  0.000
  0.000  0.000  1.000  0.000  0.000
  0.000  0.000  0.000  1.000  0.000
  0.000  0.000  0.000  0.000  1.000
    occupations:
  0.700  0.000  0.000  0.000  0.000
  0.000  0.700  0.000  0.000  0.000
  0.000  0.000  0.700  0.000  0.000
  0.000  0.000  0.000  0.700  0.000
  0.000  0.000  0.000  0.000  0.700
atom   16   Tr[ns(na)] =   7.00000
    eigenvalues:
  0.700  0.700  0.700  0.700  0.700
    eigenvectors:
  1.000  0.000  0.000  0.000  0.000
  0.000  1.000  0.000  0.000  0.000
  0.000  0.000  1.000  0.000  0.000
  0.000  0.000  0.000  1.000  0.000
  0.000  0.000  0.000  0.000  1.000
    occupations:
  0.700  0.000  0.000  0.000  0.000
  0.000  0.700  0.000  0.000  0.000
  0.000  0.000  0.700  0.000  0.000
  0.000  0.000  0.000  0.700  0.000
  0.000  0.000  0.000  0.000  0.700
atom   17   Tr[ns(na)] =   7.00000
    eigenvalues:
  0.700  0.700  0.700  0.700  0.700
    eigenvectors:
  1.000  0.000  0.000  0.000  0.000
  0.000  1.000  0.000  0.000  0.000
  0.000  0.000  1.000  0.000  0.000
  0.000  0.000  0.000  1.000  0.000
  0.000  0.000  0.000  0.000  1.000
    occupations:
  0.700  0.000  0.000  0.000  0.000
  0.000  0.700  0.000  0.000  0.000
  0.000  0.000  0.700  0.000  0.000
  0.000  0.000  0.000  0.700  0.000
  0.000  0.000  0.000  0.000  0.700
atom   22   Tr[ns(na)] =   7.00000
    eigenvalues:
  0.700  0.700  0.700  0.700  0.700
    eigenvectors:
  1.000  0.000  0.000  0.000  0.000
  0.000  1.000  0.000  0.000  0.000
  0.000  0.000  1.000  0.000  0.000
  0.000  0.000  0.000  1.000  0.000
  0.000  0.000  0.000  0.000  1.000
    occupations:
  0.700  0.000  0.000  0.000  0.000
[...]
    eigenvectors:
  0.004  0.147  0.000  0.000  0.849
  0.974  0.026  0.000  0.000  0.000
  0.000  0.000  0.930  0.070  0.000
  0.022  0.827  0.000  0.000  0.151
  0.000  0.000  0.070  0.930  0.000
    occupations:
  0.927  0.002 -0.000 -0.119 -0.000
  0.002  0.636  0.001  0.001 -0.000
 -0.000  0.001  0.864  0.000 -0.009
 -0.119  0.001  0.000  0.695  0.001
 -0.000 -0.000 -0.009  0.001  0.895
atom   10   Tr[ns(na)] =   8.02904
    eigenvalues:
  0.591  0.592  0.922  0.932  0.977
    eigenvectors:
  0.989  0.001  0.000  0.000  0.009
  0.000  0.000  0.000  1.000  0.000
  0.000  0.000  1.000  0.000  0.000
  0.009  0.000  0.000  0.000  0.991
  0.001  0.999  0.000  0.000  0.000
    occupations:
  0.595  0.000  0.001  0.037 -0.000
  0.000  0.932 -0.000 -0.000 -0.000
  0.001 -0.000  0.922  0.000  0.000
  0.037 -0.000  0.000  0.973 -0.000
 -0.000 -0.000  0.000 -0.000  0.592
atom   16   Tr[ns(na)] =   8.03917
    eigenvalues:
  0.584  0.605  0.896  0.958  0.975
    eigenvectors:
  0.011  0.191  0.002  0.000  0.796
  0.955  0.045  0.000  0.000  0.000
  0.000  0.000  0.982  0.015  0.002
  0.034  0.764  0.000  0.000  0.201
  0.000  0.000  0.015  0.984  0.001
    occupations:
  0.900  0.005  0.002 -0.149  0.001
  0.005  0.585  0.001  0.002 -0.006
  0.002  0.001  0.897 -0.004 -0.007
 -0.149  0.002 -0.004  0.679  0.000
  0.001 -0.006 -0.007  0.000  0.957
atom   17   Tr[ns(na)] =   8.03611
    eigenvalues:
  0.601  0.650  0.870  0.919  0.978
    eigenvectors:
  0.001  0.991  0.000  0.000  0.008
  0.000  0.000  0.069  0.931  0.000
  0.000  0.000  0.931  0.069  0.000
  0.000  0.008  0.000  0.000  0.992
  0.999  0.001  0.000  0.000  0.000
    occupations:
  0.653 -0.004 -0.001  0.028  0.001
 -0.004  0.916  0.012  0.001 -0.001
 -0.001  0.012  0.874 -0.000  0.001
  0.028  0.001 -0.000  0.975  0.000
  0.001 -0.001  0.001  0.000  0.601
atom   22   Tr[ns(na)] =   8.03391
    eigenvalues:
  0.636  0.644  0.862  0.897  0.977
    eigenvectors:
  0.000  0.151  0.000  0.000  0.848
  0.998  0.002  0.000  0.000  0.000
  0.000  0.000  0.935  0.065  0.000
  0.002  0.847  0.000  0.000  0.151
  0.000  0.000  0.065  0.935  0.000
    occupations:
  0.927 -0.001  0.000 -0.119 -0.000
 -0.001  0.636  0.001 -0.000 -0.000
  0.000  0.001  0.864 -0.000  0.009
 -0.119 -0.000 -0.000  0.695  0.001
 -0.000 -0.000  0.009  0.001  0.895
atom   23   Tr[ns(na)] =   8.02031
    eigenvalues:
  0.638  0.700  0.823  0.869  0.980
    eigenvectors:
  0.000  0.993  0.000  0.000  0.007
  0.000  0.000  0.000  1.000  0.000
  0.000  0.000  1.000  0.000  0.000
  0.000  0.007  0.000  0.000  0.993
  1.000  0.000  0.000  0.000  0.000
    occupations:
  0.702  0.000 -0.001  0.023 -0.000
  0.000  0.869 -0.000  0.000  0.000
 -0.001 -0.000  0.823  0.001  0.000
  0.023  0.000  0.001  0.979  0.000
 -0.000  0.000  0.000  0.000  0.638
N of occupied +U levels =  64.2690106
 --- exit write_ns ---

     Threshold (ethr) on eigenvalues was too large:
     Diagonalizing with lowered threshold

     Davidson diagonalization with overlap
     ethr =  2.54E-08,  avg # of iterations =  2.0

[...]

     total energy              =   -1978.88828839 Ry
     Harris-Foulkes estimate   =   -1978.88828840 Ry
     estimated scf accuracy    <       0.00000004 Ry

     iteration # 19     ecut=    40.00 Ry     beta=0.70
     Davidson diagonalization with overlap
     ethr =  1.69E-11,  avg # of iterations =  1.0

     negative rho (up, down):  0.690E+00 0.000E+00

     End of self-consistent calculation
 --- enter write_ns ---
 LDA+U parameters:
U( 2)     =  3.50000000
alpha( 2) =  0.00000000
atom    3   Tr[ns(na)] =   8.03993
    eigenvalues:
  0.584  0.605  0.896  0.959  0.975
    eigenvectors:
  0.012  0.190  0.002  0.000  0.796
  0.951  0.048  0.000  0.000  0.000
  0.000  0.000  0.977  0.021  0.002
  0.037  0.762  0.000  0.000  0.201
  0.000  0.000  0.021  0.979  0.001
    occupations:
  0.900 -0.006  0.002 -0.149 -0.001
 -0.006  0.585 -0.001 -0.002 -0.006
  0.002 -0.001  0.898 -0.004  0.009
 -0.149 -0.002 -0.004  0.679 -0.000
 -0.001 -0.006  0.009 -0.000  0.957
atom    4   Tr[ns(na)] =   8.03818
    eigenvalues:
  0.601  0.650  0.870  0.922  0.977
    eigenvectors:
  0.001  0.992  0.000  0.000  0.008
  0.000  0.000  0.051  0.948  0.000
  0.000  0.000  0.948  0.051  0.000
  0.000  0.008  0.000  0.000  0.992
  0.999  0.001  0.000  0.000  0.000
    occupations:
  0.652 -0.004 -0.001  0.028  0.001
 -0.004  0.919  0.011  0.001 -0.001
 -0.001  0.011  0.872 -0.001  0.001
  0.028  0.001 -0.001  0.975  0.000
  0.001 -0.001  0.001  0.000  0.601
atom    9   Tr[ns(na)] =   8.03426
    eigenvalues:
  0.636  0.645  0.862  0.897  0.977
    eigenvectors:
  0.004  0.147  0.000  0.000  0.849
  0.975  0.025  0.000  0.000  0.000
  0.000  0.000  0.931  0.069  0.000
  0.021  0.828  0.000  0.000  0.151
  0.000  0.000  0.069  0.931  0.000
    occupations:
  0.927  0.002 -0.000 -0.119 -0.000
  0.002  0.636  0.001  0.001 -0.000
 -0.000  0.001  0.864  0.000 -0.009
 -0.119  0.001  0.000  0.695  0.001
 -0.000 -0.000 -0.009  0.001  0.895
atom   10   Tr[ns(na)] =   8.02718
    eigenvalues:
  0.591  0.592  0.922  0.932  0.977
    eigenvectors:
  0.990  0.001  0.000  0.000  0.009
  0.000  0.000  0.000  1.000  0.000
  0.000  0.000  1.000  0.000  0.000
  0.009  0.000  0.000  0.000  0.991
  0.001  0.999  0.000  0.000  0.000
    occupations:
  0.595  0.000  0.001  0.037 -0.000
  0.000  0.932 -0.000 -0.000 -0.000
  0.001 -0.000  0.922  0.000  0.000
  0.037 -0.000  0.000  0.973 -0.000
 -0.000 -0.000  0.000 -0.000  0.592
atom   16   Tr[ns(na)] =   8.03987
    eigenvalues:
  0.584  0.605  0.896  0.958  0.975
    eigenvectors:
  0.011  0.191  0.002  0.000  0.796
  0.955  0.045  0.000  0.000  0.000
  0.000  0.000  0.983  0.015  0.002
  0.034  0.765  0.000  0.000  0.201
  0.000  0.000  0.015  0.984  0.001
    occupations:
  0.901  0.006  0.002 -0.149  0.001
  0.006  0.585  0.001  0.002 -0.006
  0.002  0.001  0.897 -0.004 -0.007
 -0.149  0.002 -0.004  0.679  0.000
  0.001 -0.006 -0.007  0.000  0.957
atom   17   Tr[ns(na)] =   8.03630
    eigenvalues:
  0.601  0.650  0.870  0.919  0.978
    eigenvectors:
  0.001  0.991  0.000  0.000  0.008
  0.000  0.000  0.069  0.931  0.000
  0.000  0.000  0.931  0.069  0.000
  0.000  0.008  0.000  0.000  0.992
  0.999  0.001  0.000  0.000  0.000
    occupations:
  0.653 -0.004 -0.001  0.028  0.001
 -0.004  0.916  0.012  0.001 -0.001
 -0.001  0.012  0.874 -0.000  0.001
  0.028  0.001 -0.000  0.975  0.000
  0.001 -0.001  0.001  0.000  0.601
atom   22   Tr[ns(na)] =   8.03426
    eigenvalues:
  0.637  0.644  0.862  0.897  0.977
    eigenvectors:
  0.000  0.151  0.000  0.000  0.849
  0.998  0.002  0.000  0.000  0.000
  0.000  0.000  0.936  0.064  0.000
  0.002  0.847  0.000  0.000  0.151
  0.000  0.000  0.064  0.936  0.000
    occupations:
  0.927 -0.001  0.000 -0.119 -0.000
 -0.001  0.637  0.001 -0.000 -0.000
  0.000  0.001  0.864 -0.000  0.009
 -0.119 -0.000 -0.000  0.695  0.000
 -0.000 -0.000  0.009  0.000  0.895
atom   23   Tr[ns(na)] =   8.01966
    eigenvalues:
  0.638  0.700  0.823  0.868  0.980
    eigenvectors:
  0.000  0.993  0.000  0.000  0.007
  0.000  0.000  0.000  1.000  0.000
  0.000  0.000  1.000  0.000  0.000
  0.000  0.007  0.000  0.000  0.993
  1.000  0.000  0.000  0.000  0.000
    occupations:
  0.702  0.000 -0.001  0.023 -0.000
  0.000  0.868 -0.000  0.000  0.000
 -0.001 -0.000  0.823  0.001  0.000
  0.023  0.000  0.001  0.979  0.000
 -0.000  0.000  0.000  0.000  0.638
N of occupied +U levels =  64.2696332
 --- exit write_ns ---

[...]

          k = 0.2500-0.4833 0.0000 ( 30510 PWs)   bands (ev):

[...]

          k =-0.2500 0.2417 0.0000 ( 30481 PWs)   bands (ev):

   -50.2556 -49.9225 -49.8384 -49.1561 -49.1510 -49.1493 -49.1068 -49.1066
   -49.0879 -49.0853 -49.0633 -49.0538 -48.9723 -48.9657 -48.9567 -48.8179
   -48.8128 -48.7965 -48.7754 -48.7291 -48.7157 -48.7111 -48.6988 -48.6976
   -21.5605 -21.2693 -21.1977 -21.0668 -20.8140 -20.6874 -20.6101 -20.5663
   -20.4309 -20.3863 -20.2841 -20.2710 -20.2249 -20.1002 -20.0646 -20.0262
   -19.4297 -19.2812 -19.1623 -10.1070 -10.0388  -9.8512  -9.6026  -9.3589
    -9.2896  -9.2742  -9.1401  -9.0354  -8.9284  -8.8499  -8.7927  -8.7422
    -8.5629  -8.4574  -8.3732  -8.2221  -8.1847  -7.9463  -7.7548  -7.6536
    -7.5916  -7.4442  -7.3417  -7.2654  -7.1871  -7.0338  -6.8820  -6.8310
    -6.7084  -6.6815  -6.5361  -6.4818  -6.4338  -6.3505  -6.3006  -6.2237
    -6.0937  -6.0553  -5.9779  -5.8118  -5.7378  -5.5986  -5.3833  -5.3036
    -5.2399  -5.0500  -4.9828  -4.8628  -4.8375  -4.6853  -4.5681  -4.4911
    -4.3556  -4.2030  -4.1668  -4.0434  -3.9369  -3.8218  -3.7720  -3.6879
    -3.6616  -3.6041  -3.5102  -3.4485  -3.4349  -3.3653  -3.2785  -3.2437
    -3.0917  -2.7548  -2.6257  -2.5474  -2.4533  -2.2885  -2.1501  -2.0637
    -2.0251  -1.8916  -1.8246  -1.7107  -1.0346  -0.7171  -0.4823  -0.0735
     0.1672   0.3992   0.6121   0.8419   1.0786   1.2360   1.2882   1.4256
     1.5011   1.6831   1.7193   2.0905   3.4924   4.4555   4.5908   5.0606
     5.3057   5.3310   5.4864   6.0733   6.3738   6.4054   6.4458   6.5492
     6.6730   6.7943   6.9378   7.1485   7.3045   7.4802   7.6039   7.7147
     7.8551   7.9976   8.0779   8.1540   8.2582   8.3445   8.4423   8.5294
     8.7639   8.8332   8.8812   9.0001   9.2207   9.3947   9.4777   9.5570
     9.6336   9.7505   9.7977   9.8566   9.9294  10.1076  10.1721  10.2395
    10.3322  10.4233  10.4614  10.6078  10.7337  10.7844  10.8433  10.9396
    10.9807  11.1057  11.1452  11.2151  11.3403  11.4621  11.5085  11.5534
    11.5922  11.7253  11.7527  11.7886  11.8732  12.0222  12.1132  12.1859
    12.2322  12.2714  12.3533  12.4415  12.5064  12.6307  12.6813  12.7502
    12.7991  12.8539  12.9521  13.0351  13.0879  13.1344  13.1758  13.2740
    13.3053  13.4167  13.5129  13.5564  13.7315  13.7953  13.8296  13.8678
    13.9270  14.1171  14.1626  14.1969  14.2657  14.3642  14.3967  14.4902
    14.5930  14.6140  14.7265  14.8073  15.0039  15.1286  15.2749  15.3069
    15.3661  15.4332  15.4988  15.5269  15.5741  15.6472  15.7202  15.7687
    15.8719  15.9434  16.0215  16.0456  16.1188  16.1804  16.2621  16.3238
    16.3878  16.4146  16.4650  16.4903  16.5689  16.6183  16.6633  16.7338
    16.7991  16.8857  16.9974  17.0480  17.1249  17.2098  17.2567  17.3343
    17.3864  17.4861  17.5469  17.5918  17.6309  17.7454  17.8152  17.8495
    17.9211  18.0189  18.0845  18.1521  18.1645  18.2929  18.3114  18.3872
    18.4604  18.5691  18.6592  18.7152  18.7895  18.8445  18.8947  18.9661
    19.0150  19.0566  19.1051  19.2005  19.2523  19.2810  19.3417  19.4765
    19.5410  19.6008  19.6616  19.7335  19.7836  19.8901  20.0259  20.0617
    20.1929  20.2447  20.2752  20.3333  20.5084  20.5585  20.6228  20.6794
    20.7067  20.7803  20.8540  20.9073  20.9392  21.0255  21.0930  21.2008
    21.2795  21.3302  21.3517  21.3922  21.4365  21.5245  21.6743  21.7404
    21.7790  21.8435  21.8891  21.9136  21.9445  22.0411  22.0962  22.1750
    22.2042  22.3074  22.4061  22.4646  22.5322

     the Fermi energy is    -2.1725 ev

!    total energy              =   -1978.88828839 Ry
     Harris-Foulkes estimate   =   -1978.88828839 Ry
     estimated scf accuracy    <          5.1E-09 Ry

     The total energy is the sum of the following terms:

     one-electron contribution =  -23286.93316924 Ry
     hartree contribution      =   11690.26240445 Ry
     xc contribution           =    -372.06715143 Ry
     ewald contribution        =    9988.46638287 Ry
     Hubbard energy            =       1.38360300 Ry
     smearing contrib. (-TS)   =      -0.00035805 Ry

     convergence has been achieved in  19 iterations

     Forces acting on atoms (Ry/au):

     negative rho (up, down):  0.690E+00 0.000E+00
     atom    1 type  1   force =    -0.00753402   -0.01268749   -0.00031604
     atom    2 type  1   force =     0.00008557    0.00407777    0.00097112
     atom    3 type  2   force =     0.03828600    0.00758601   -0.00062375
     atom    4 type  2   force =     0.00875701    0.00926549   -0.00002814
     atom    5 type  1   force =    -0.00265544   -0.02999895    0.00030468
     atom    6 type  1   force =     0.00307504    0.02671143    0.00032014
     atom    7 type  1   force =    -0.00028945   -0.00178289    0.00058712
     atom    8 type  1   force =    -0.00312467   -0.00108267    0.00024393
     atom    9 type  2   force =     0.00291102    0.00037058   -0.00031481
     atom   10 type  2   force =    -0.00003069   -0.00121000   -0.00052364
     atom   11 type  1   force =    -0.00115096    0.01091504   -0.00052301
     atom   12 type  1   force =    -0.00166832   -0.01158441   -0.00057986
     atom   13 type  1   force =    -0.00077808    0.00010681    0.00018007
     atom   14 type  1   force =    -0.00677194   -0.01263943    0.00001491
     atom   15 type  1   force =     0.00013495    0.00384962    0.00047248
     atom   16 type  2   force =    -0.03862568    0.00634811   -0.00062075
     atom   17 type  2   force =     0.00849745    0.00945911   -0.00027465
     atom   18 type  1   force =    -0.00181753   -0.02968859    0.00029554
     atom   19 type  1   force =     0.00366823    0.02714869    0.00032602
     atom   20 type  1   force =    -0.00018277   -0.00472833   -0.00092684
     atom   21 type  1   force =    -0.00301631   -0.00069501    0.00014430
     atom   22 type  2   force =    -0.00022960    0.00056296   -0.00030965
     atom   23 type  2   force =    -0.00011461    0.00099182    0.00035289
     atom   24 type  1   force =     0.00080789    0.01097954   -0.00051808
     atom   25 type  1   force =     0.00245028   -0.01165062   -0.00057531
     atom   26 type  1   force =    -0.00073860   -0.00003325   -0.00038106
     atom   27 type  3   force =    -0.00001945   -0.00049533    0.00076896
     atom   28 type  3   force =    -0.00001552   -0.00028940    0.00069394
     atom   29 type  3   force =     0.00017697    0.00016450    0.00017194
     atom   30 type  3   force =    -0.00007497    0.00018784    0.00010265
     atom   31 type  1   force =    -0.00001182   -0.00015895    0.00056489

     Total force =     0.002767     Total SCF correction =     0.000171

     bfgs converged in   7 scf cycles and   6 bfgs steps
     (criteria: energy < 0.10E-03, force < 0.10E-02)

     End of BFGS Geometry Optimization

     Final energy   =   -1978.8882883910 Ry
Begin final coordinates

ATOMIC_POSITIONS (crystal)
O0       0.000000000   0.000000000   0.378200960    0   0   1
O0       0.000000000   0.500000000   0.402327240    0   0   1
Rh1      0.250000000   0.500000000   0.453339962    0   0   1
Rh1      0.000000000   0.000000000   0.452433154    0   0   1
O0       0.250000000   0.810000000   0.452394657    0   0   1
O0       0.250000000   0.190000000   0.452183260    0   0   1
O0       0.000000000   0.500000000   0.499403243    0   0   1
O0       0.000000000   0.000000000   0.527631602    0   0   1
Rh1      0.250000000   0.000000000   0.574768780    0   0   1
Rh1      0.000000000   0.500000000   0.570834727    0   0   1
O0       0.250000000   0.690000000   0.574809345    0   0   1
O0       0.250000000   0.310000000   0.574762226    0   0   1
O0       0.000000000   0.000000000   0.619940787    0   0   1
O0       0.500000000   0.000000000   0.378101932    0   0   1
O0       0.500000000   0.500000000   0.402184491    0   0   1
Rh1      0.750000000   0.500000000   0.453342447    0   0   1
Rh1      0.500000000   0.000000000   0.452325235    0   0   1
O0       0.750000000   0.810000000   0.452370651    0   0   1
O0       0.750000000   0.190000000   0.452198163    0   0   1
O0       0.500000000   0.500000000   0.501438704    0   0   1
O0       0.500000000   0.000000000   0.527516750    0   0   1
Rh1      0.750000000   0.000000000   0.574764929    0   0   1
Rh1      0.500000000   0.500000000   0.579327239    0   0   1
O0       0.750000000   0.690000000   0.574774922    0   0   1
O0       0.750000000   0.310000000   0.574777405    0   0   1
O0       0.500000000   0.000000000   0.620034435    0   0   1
H2      -0.000133460   0.636678379   0.384899931
H2       0.499852415   0.637919002   0.385307159
H2       0.147882501   0.034460252   0.367308032
H2       0.647994730   0.034528401   0.367259218
O0       0.500069792   0.498635349   0.645858415
End final coordinates

     General routines

     Parallel routines
     Hubbard U routines

   This run was terminated on:  18: 7:38  30Apr2014

   JOB DONE.
Running PBS batch system epilogue script
Job id: 340542.audhumbla.fysik.dtu.dk
Username: zhonxu
Groupname: campgst
Jobname: RhO2/Eads-2-layers/O-U-3.5
Sessionid: 15711
Queuename: verylong
Accounting:
This job has allocated the following 16 nodes:
b007 b007 b007 b007 b007 b007 b007 b007 b001 b001 b001 b001 b001 b001 b001 b001
Finished epilogue job 340542.audhumbla.fysik.dtu.dk for zhonxu