     Program PWSCF v.5.0.2 (svn rev. 9656) starts on 30Apr2014 at  3: 2:41

     Current dimensions of program PWSCF are:
     Max number of different atomic species (ntypx) = 10
     Max number of k-points (npk) =  40000
     Max angular momentum in pseudopotentials (lmaxx) =  3
     Reading input from pwscf.in
Warning: card &CELL ignored
Warning: card / ignored

     Subspace diagonalization in iterative solution of the eigenvalue problem:
     a serial algorithm will be used

     bravais-lattice index     =            0
     lattice parameter (alat)  =      11.2250  a.u.
     unit-cell volume          =    7005.5484 (a.u.)^3
     number of atoms/cell      =           32
     number of atomic types    =            3
     number of electrons       =       215.00
     number of Kohn-Sham states=          310
     kinetic-energy cutoff     =      40.0000  Ry
     charge density cutoff     =     500.0000  Ry
     convergence threshold     =      1.0E-06
     mixing beta               =       0.7000
     number of iterations used =            8  plain     mixing
     Exchange-correlation      = SLA  PW   PBE  PBE ( 1 4 3 4 0)
     EXX-fraction              =        0.00
     nstep                     =           50

     celldm(1)=  11.224973  celldm(2)=   0.000000  celldm(3)=   0.000000
     celldm(4)=   0.000000  celldm(5)=   0.000000  celldm(6)=   0.000000

     crystal axes: (cart. coord. in units of alat)
               a(1) = (   1.000000   0.000000   0.000000 )
               a(2) = (   0.000000   1.107086   0.000000 )
               a(3) = (   0.000000   0.000000   4.474090 )

     reciprocal axes: (cart. coord. in units 2 pi/alat)
               b(1) = (  1.000000  0.000000  0.000000 )
               b(2) = (  0.000000  0.903272  0.000000 )
               b(3) = (  0.000000  0.000000  0.223509 )

     PseudoPot. # 1 for O  read from file:
     /home/camp/zhonxu/pseudo/o_pbe_v1.01.uspp.F.UPF
     MD5 check sum: 2bcb18d16ea4b960afae9ec6d52f22d2
     Pseudo is Ultrasoft + core correction, Zval =  6.0
     Generated by new atomic code, or converted to UPF format
     Using radial grid of  737 points,  5 beta functions with:
                l(1) =   0
                l(2) =   0
                l(3) =   1
                l(4) =   1
                l(5) =   2
     Q(r) pseudized with  8 coefficients,  rinner =    0.900   0.900   0.900
                                                       0.900   0.900

     PseudoPot. # 2 for Ti read from file:
     /home/camp/zhonxu/pseudo/ti_pbe_v1.uspp.F.UPF
     MD5 check sum: bcc8f6961b3b91f0cac3ca967d22d0fb
     Pseudo is Ultrasoft + core correction, Zval = 12.0
     Generated by new atomic code, or converted to UPF format
     Using radial grid of  851 points,  6 beta functions with:
                l(1) =   0
                l(2) =   0
                l(3) =   1
                l(4) =   1
                l(5) =   2
                l(6) =   2
     Q(r) pseudized with  6 coefficients,  rinner =    1.000   1.000   1.000
                                                       1.000   1.000

     PseudoPot. # 3 for H  read from file:
     /home/camp/zhonxu/pseudo/h_pbe_v1.uspp.F.UPF
     MD5 check sum: 3408e3ff4ec8b0a4e358431e7e038a48
     Pseudo is Ultrasoft, Zval =  1.0
     Generated by new atomic code, or converted to UPF format
     Using radial grid of  615 points,  2 beta functions with:
                l(1) =   0
                l(2) =   0
     Q(r) pseudized with  8 coefficients,  rinner =    0.700

     atomic species   valence    mass     pseudopotential
        O0             6.00    15.99940     O ( 1.00)
        Ti1           12.00    47.88000     Ti( 1.00)
        H2             1.00     1.00794     H ( 1.00)

     Simplified LDA+U calculation (l_max = 2) with parameters (eV):
     atomic species    L          U    alpha       J0     beta
        Ti1            2     3.0000   0.0000   0.0000   0.0000

     No symmetry found

   Cartesian axes

     site n.     atom                  positions (alat units)
         1           O0  tau(   1) = (   0.0000000   0.0000000   1.6864186  )
         2           O0  tau(   2) = (   0.0000000   0.5535432   1.7740213  )
         3           Ti1 tau(   3) = (   0.2500000   0.5535432   2.0074793  )
         4           Ti1 tau(   4) = (   0.0000000   0.0000000   2.0324447  )
         5           O0  tau(   5) = (   0.2500000   0.8967400   2.0044817  )
         6           O0  tau(   6) = (   0.2500000   0.2103464   2.0092242  )
         7           O0  tau(   7) = (   0.0000000   0.5535432   2.2196854  )
         8           O0  tau(   8) = (   0.0000000   0.0000000   2.3507315  )
         9           Ti1 tau(   9) = (   0.2500000   0.0000000   2.6021753  )
        10           Ti1 tau(  10) = (   0.0000000   0.5535432   2.5345718  )
        11           O0  tau(  11) = (   0.2500000   0.7638896   2.5931377  )
        12           O0  tau(  12) = (   0.2500000   0.3431968   2.5930482  )
        13           O0  tau(  13) = (   0.0000000   0.0000000   2.7844945  )
        14           O0  tau(  14) = (   0.5000000   0.0000000   1.6873582  )
        15           O0  tau(  15) = (   0.5000000   0.5535432   1.7709789  )
        16           Ti1 tau(  16) = (   0.7500000   0.5535432   2.0079715  )
        17           Ti1 tau(  17) = (   0.5000000   0.0000000   2.0352187  )
        18           O0  tau(  18) = (   0.7500000   0.8967400   2.0040790  )
        19           O0  tau(  19) = (   0.7500000   0.2103464   2.0094479  )
        20           O0  tau(  20) = (   0.5000000   0.5535432   2.1971360  )
        21           O0  tau(  21) = (   0.5000000   0.0000000   2.3514026  )
        22           Ti1 tau(  22) = (   0.7500000   0.0000000   2.6024885  )
        23           Ti1 tau(  23) = (   0.5000000   0.5535432   2.6568935  )
        24           O0  tau(  24) = (   0.7500000   0.7638896   2.5904532  )
        25           O0  tau(  25) = (   0.7500000   0.3431968   2.5901848  )
        26           O0  tau(  26) = (   0.5000000   0.0000000   2.7844945  )
        27           H2  tau(  27) = (  -0.0007700   0.6889399   1.6773810  )
        28           H2  tau(  28) = (   0.4993300   0.6850208   1.6695513  )
        29           H2  tau(  29) = (   0.1496500   0.0435638   1.6275396  )
        30           H2  tau(  30) = (   0.6495100   0.0435638   1.6281213  )
        31           O0  tau(  31) = (   0.5047900   0.5534214   2.9586261  )
        32           H2  tau(  32) = (   0.3766100   0.5530007   3.0621118  )

     number of k points=    10  Methfessel-Paxton smearing, width (Ry)=  0.0100
                       cart. coord. in units 2pi/alat
        k(    1) = (   0.0000000   0.0000000   0.0000000), wk =   0.1250000
        k(    2) = (   0.0000000   0.2258180   0.0000000), wk =   0.2500000
        k(    3) = (   0.0000000  -0.4516359   0.0000000), wk =   0.1250000
        k(    4) = (   0.2500000   0.0000000   0.0000000), wk =   0.2500000
        k(    5) = (   0.2500000   0.2258180   0.0000000), wk =   0.2500000
        k(    6) = (   0.2500000  -0.4516359   0.0000000), wk =   0.2500000
        k(    7) = (  -0.5000000   0.0000000   0.0000000), wk =   0.1250000
        k(    8) = (  -0.5000000   0.2258180   0.0000000), wk =   0.2500000
        k(    9) = (  -0.5000000  -0.4516359   0.0000000), wk =   0.1250000
        k(   10) = (  -0.2500000   0.2258180   0.0000000), wk =   0.2500000

     Largest allocated arrays     est. size (Mb)     dimensions
     Largest temporary arrays     est. size (Mb)     dimensions

     Check: negative/imaginary core charge=   -0.000006    0.000000

     Initial potential from superposition of free atoms
     Check: negative starting charge=   -0.102331

     starting charge  206.99957, renormalised to  215.00000

     negative rho (up, down):  0.106E+00 0.000E+00
     Number of +U iterations with fixed ns =  0
     Starting occupations:
 --- enter write_ns ---
 LDA+U parameters:
U( 2)     =  3.00000000
alpha( 2) =  0.00000000
atom    3   Tr[ns(na)] =   2.00000
    eigenvalues:
  0.200  0.200  0.200  0.200  0.200
    eigenvectors:
  1.000  0.000  0.000  0.000  0.000
  0.000  1.000  0.000  0.000  0.000
  0.000  0.000  1.000  0.000  0.000
  0.000  0.000  0.000  1.000  0.000
  0.000  0.000  0.000  0.000  1.000
    occupations:
  0.200  0.000  0.000  0.000  0.000
  0.000  0.200  0.000  0.000  0.000
  0.000  0.000  0.200  0.000  0.000
  0.000  0.000  0.000  0.200  0.000
  0.000  0.000  0.000  0.000  0.200
atom    4   Tr[ns(na)] =   2.00000
    eigenvalues:
  0.200  0.200  0.200  0.200  0.200
    eigenvectors:
  1.000  0.000  0.000  0.000  0.000
  0.000  1.000  0.000  0.000  0.000
  0.000  0.000  1.000  0.000  0.000
  0.000  0.000  0.000  1.000  0.000
  0.000  0.000  0.000  0.000  1.000
    occupations:
  0.200  0.000  0.000  0.000  0.000
  0.000  0.200  0.000  0.000  0.000
  0.000  0.000  0.200  0.000  0.000
  0.000  0.000  0.000  0.200  0.000
  0.000  0.000  0.000  0.000  0.200
atom    9   Tr[ns(na)] =   2.00000
    eigenvalues:
  0.200  0.200  0.200  0.200  0.200
    eigenvectors:
  1.000  0.000  0.000  0.000  0.000
  0.000  1.000  0.000  0.000  0.000
  0.000  0.000  1.000  0.000  0.000
  0.000  0.000  0.000  1.000  0.000
  0.000  0.000  0.000  0.000  1.000
    occupations:
  0.200  0.000  0.000  0.000  0.000
  0.000  0.200  0.000  0.000  0.000
  0.000  0.000  0.200  0.000  0.000
  0.000  0.000  0.000  0.200  0.000
  0.000  0.000  0.000  0.000  0.200
atom   10   Tr[ns(na)] =   2.00000
    eigenvalues:
  0.200  0.200  0.200  0.200  0.200
    eigenvectors:
  1.000  0.000  0.000  0.000  0.000
  0.000  1.000  0.000  0.000  0.000
  0.000  0.000  1.000  0.000  0.000
  0.000  0.000  0.000  1.000  0.000
  0.000  0.000  0.000  0.000  1.000
    occupations:
  0.200  0.000  0.000  0.000  0.000
  0.000  0.200  0.000  0.000  0.000
  0.000  0.000  0.200  0.000  0.000
  0.000  0.000  0.000  0.200  0.000
  0.000  0.000  0.000  0.000  0.200
atom   16   Tr[ns(na)] =   2.00000
    eigenvalues:
  0.200  0.200  0.200  0.200  0.200
    eigenvectors:
  1.000  0.000  0.000  0.000  0.000
  0.000  1.000  0.000  0.000  0.000
  0.000  0.000  1.000  0.000  0.000
  0.000  0.000  0.000  1.000  0.000
  0.000  0.000  0.000  0.000  1.000
    occupations:
  0.200  0.000  0.000  0.000  0.000
  0.000  0.200  0.000  0.000  0.000
  0.000  0.000  0.200  0.000  0.000
  0.000  0.000  0.000  0.200  0.000
  0.000  0.000  0.000  0.000  0.200
atom   17   Tr[ns(na)] =   2.00000
    eigenvalues:
  0.200  0.200  0.200  0.200  0.200
    eigenvectors:
  1.000  0.000  0.000  0.000  0.000
  0.000  1.000  0.000  0.000  0.000
  0.000  0.000  1.000  0.000  0.000
  0.000  0.000  0.000  1.000  0.000
  0.000  0.000  0.000  0.000  1.000
    occupations:
  0.200  0.000  0.000  0.000  0.000
  0.000  0.200  0.000  0.000  0.000
  0.000  0.000  0.200  0.000  0.000
  0.000  0.000  0.000  0.200  0.000
  0.000  0.000  0.000  0.000  0.200
atom   22   Tr[ns(na)] =   2.00000
    eigenvalues:
  0.200  0.200  0.200  0.200  0.200
    eigenvectors:
  1.000  0.000  0.000  0.000  0.000
  0.000  1.000  0.000  0.000  0.000
  0.000  0.000  1.000  0.000  0.000
  0.000  0.000  0.000  1.000  0.000
  0.000  0.000  0.000  0.000  1.000
[...]
  0.010  0.424  0.003 -0.023  0.012
 -0.004  0.003  0.183  0.007 -0.017
  0.081 -0.023  0.007  0.362 -0.001
  0.002  0.012 -0.017 -0.001  0.189
atom    4   Tr[ns(na)] =   2.84545
    eigenvalues:
  0.160  0.198  0.212  0.421  0.431
    eigenvectors:
  0.006  0.002  0.000  0.000  0.991
  0.000  0.877  0.121  0.000  0.002
  0.000  0.120  0.879  0.000  0.000
  0.993  0.001  0.000  0.000  0.006
  0.000  0.000  0.000  1.000  0.000
    occupations:
  0.429  0.011  0.004 -0.021 -0.000
  0.011  0.200 -0.005 -0.000 -0.002
  0.004 -0.005  0.211  0.000 -0.000
 -0.021 -0.000  0.000  0.162 -0.000
 -0.000 -0.002 -0.000 -0.000  0.421
atom    9   Tr[ns(na)] =   2.83056
    eigenvalues:
  0.164  0.208  0.226  0.383  0.434
    eigenvectors:
  0.000  0.000  0.918  0.082  0.000
  0.000  0.000  0.000  0.000  1.000
  0.998  0.002  0.000  0.000  0.000
  0.000  0.000  0.082  0.918  0.000
  0.002  0.998  0.000  0.000  0.000
    occupations:
  0.239 -0.000 -0.000  0.043  0.000
 -0.000  0.434  0.000  0.000 -0.000
 -0.000  0.000  0.164  0.000  0.002
  0.043  0.000  0.000  0.370 -0.000
  0.000 -0.000  0.002 -0.000  0.208
atom   10   Tr[ns(na)] =   2.75970
    eigenvalues:
  0.163  0.222  0.228  0.331  0.436
    eigenvectors:
  0.019  0.000  0.000  0.981  0.000
  0.000  0.000  1.000  0.000  0.000
  0.000  1.000  0.000  0.000  0.000
  0.981  0.000  0.000  0.019  0.000
  0.000  0.000  0.000  0.000  1.000
    occupations:
  0.328  0.001 -0.000 -0.023 -0.000
  0.001  0.228 -0.000  0.000 -0.000
 -0.000 -0.000  0.222 -0.000 -0.001
 -0.023  0.000 -0.000  0.166  0.000
 -0.000 -0.000 -0.001  0.000  0.436
atom   16   Tr[ns(na)] =   2.75534
    eigenvalues:
  0.168  0.182  0.204  0.391  0.433
    eigenvectors:
  0.068  0.697  0.055  0.167  0.013
  0.003  0.003  0.003  0.182  0.809
  0.579  0.005  0.416  0.000  0.000
  0.019  0.146  0.009  0.650  0.176
  0.330  0.149  0.518  0.001  0.002
    occupations:
  0.220 -0.010 -0.004  0.081 -0.002
 -0.010  0.423 -0.003  0.023  0.012
 -0.004 -0.003  0.183  0.007  0.016
  0.081  0.023  0.007  0.362  0.001
 -0.002  0.012  0.016  0.001  0.189
atom   17   Tr[ns(na)] =   2.83961
    eigenvalues:
  0.159  0.198  0.213  0.417  0.432
    eigenvectors:
  0.006  0.002  0.000  0.000  0.992
  0.000  0.889  0.109  0.000  0.002
  0.000  0.108  0.891  0.000  0.000
  0.993  0.001  0.000  0.000  0.006
  0.000  0.000  0.000  1.000  0.000
    occupations:
  0.430  0.010  0.004 -0.021 -0.000
  0.010  0.200 -0.004 -0.000 -0.002
  0.004 -0.004  0.211  0.000 -0.000
 -0.021 -0.000  0.000  0.160 -0.000
 -0.000 -0.002 -0.000 -0.000  0.417
atom   22   Tr[ns(na)] =   2.82971
    eigenvalues:
  0.165  0.208  0.226  0.383  0.434
    eigenvectors:
  0.000  0.000  0.919  0.081  0.000
  0.000  0.000  0.000  0.000  1.000
  0.998  0.002  0.000  0.000  0.000
  0.000  0.000  0.081  0.919  0.000
  0.002  0.998  0.000  0.000  0.000
    occupations:
  0.238 -0.000 -0.000  0.043  0.000
 -0.000  0.434  0.000 -0.000 -0.000
 -0.000  0.000  0.165 -0.000 -0.002
  0.043 -0.000 -0.000  0.370 -0.000
  0.000 -0.000 -0.002 -0.000  0.208
atom   23   Tr[ns(na)] =   2.79195
    eigenvalues:
  0.143  0.216  0.251  0.380  0.407
    eigenvectors:
  0.012  0.027  0.000  0.961  0.000
  0.001  0.971  0.000  0.028  0.000
  0.000  0.000  1.000  0.000  0.000
  0.988  0.002  0.000  0.010  0.000
  0.000  0.000  0.000  0.000  1.000
    occupations:
  0.372  0.027  0.000 -0.024 -0.000
  0.027  0.220 -0.000 -0.001 -0.000
  0.000 -0.000  0.251 -0.000 -0.000
 -0.024 -0.001 -0.000  0.145 -0.000
 -0.000 -0.000 -0.000 -0.000  0.407
N of occupied +U levels =  22.4071392
 --- exit write_ns ---

     Threshold (ethr) on eigenvalues was too large:
     Diagonalizing with lowered threshold

     Davidson diagonalization with overlap
     ethr =  4.56E-09,  avg # of iterations =  2.4

[...]

     total energy              =   -1566.61223079 Ry
     Harris-Foulkes estimate   =   -1566.61223080 Ry
     estimated scf accuracy    <       0.00000003 Ry

     iteration # 10     ecut=    40.00 Ry     beta=0.70
     Davidson diagonalization with overlap
     ethr =  1.29E-11,  avg # of iterations =  1.0

     negative rho (up, down):  0.105E+00 0.000E+00

     End of self-consistent calculation
 --- enter write_ns ---
 LDA+U parameters:
U( 2)     =  3.00000000
alpha( 2) =  0.00000000
atom    3   Tr[ns(na)] =   2.75519
    eigenvalues:
  0.167  0.182  0.204  0.391  0.433
    eigenvectors:
  0.073  0.691  0.054  0.168  0.013
  0.003  0.003  0.003  0.180  0.811
  0.573  0.006  0.420  0.001  0.000
  0.020  0.147  0.009  0.651  0.174
  0.330  0.154  0.514  0.000  0.002
    occupations:
  0.220  0.010 -0.004  0.081  0.002
  0.010  0.424  0.003 -0.023  0.012
 -0.004  0.003  0.183  0.007 -0.017
  0.081 -0.023  0.007  0.362 -0.001
  0.002  0.012 -0.017 -0.001  0.189
atom    4   Tr[ns(na)] =   2.84483
    eigenvalues:
  0.160  0.198  0.212  0.421  0.431
    eigenvectors:
  0.006  0.002  0.000  0.000  0.991
  0.000  0.877  0.121  0.000  0.002
  0.000  0.120  0.879  0.000  0.000
  0.993  0.001  0.000  0.000  0.006
  0.000  0.000  0.000  1.000  0.000
    occupations:
  0.429  0.011  0.004 -0.021 -0.000
  0.011  0.200 -0.005 -0.000 -0.002
  0.004 -0.005  0.211  0.000 -0.000
 -0.021 -0.000  0.000  0.162 -0.000
 -0.000 -0.002 -0.000 -0.000  0.421
atom    9   Tr[ns(na)] =   2.83103
    eigenvalues:
  0.164  0.208  0.226  0.383  0.434
    eigenvectors:
  0.000  0.000  0.918  0.082  0.000
  0.000  0.000  0.000  0.000  1.000
  0.998  0.002  0.000  0.000  0.000
  0.000  0.000  0.082  0.918  0.000
  0.002  0.998  0.000  0.000  0.000
    occupations:
  0.239 -0.000 -0.000  0.043  0.000
 -0.000  0.434  0.000  0.000 -0.000
 -0.000  0.000  0.164  0.000  0.002
  0.043  0.000  0.000  0.370 -0.000
  0.000 -0.000  0.002 -0.000  0.208
atom   10   Tr[ns(na)] =   2.75921
    eigenvalues:
  0.163  0.222  0.228  0.331  0.436
    eigenvectors:
  0.019  0.000  0.000  0.981  0.000
  0.000  0.000  1.000  0.000  0.000
  0.000  1.000  0.000  0.000  0.000
  0.981  0.000  0.000  0.019  0.000
  0.000  0.000  0.000  0.000  1.000
    occupations:
  0.328  0.001 -0.000 -0.023 -0.000
  0.001  0.228 -0.000  0.000 -0.000
 -0.000 -0.000  0.222 -0.000 -0.001
 -0.023  0.000 -0.000  0.166  0.000
 -0.000 -0.000 -0.001  0.000  0.436
atom   16   Tr[ns(na)] =   2.75566
    eigenvalues:
  0.168  0.182  0.204  0.391  0.433
    eigenvectors:
  0.068  0.697  0.054  0.167  0.013
  0.003  0.003  0.003  0.183  0.809
  0.579  0.005  0.416  0.000  0.000
  0.019  0.146  0.009  0.649  0.176
  0.330  0.149  0.518  0.001  0.002
    occupations:
  0.220 -0.010 -0.004  0.081 -0.002
 -0.010  0.423 -0.003  0.023  0.012
 -0.004 -0.003  0.183  0.007  0.016
  0.081  0.023  0.007  0.362  0.001
 -0.002  0.012  0.016  0.001  0.189
atom   17   Tr[ns(na)] =   2.83885
    eigenvalues:
  0.159  0.198  0.213  0.417  0.432
    eigenvectors:
  0.006  0.002  0.000  0.000  0.992
  0.000  0.889  0.109  0.000  0.002
  0.000  0.108  0.891  0.000  0.000
  0.993  0.001  0.000  0.000  0.006
  0.000  0.000  0.000  1.000  0.000
    occupations:
  0.430  0.010  0.004 -0.021 -0.000
  0.010  0.200 -0.004 -0.000 -0.002
  0.004 -0.004  0.211  0.000 -0.000
 -0.021 -0.000  0.000  0.160 -0.000
 -0.000 -0.002 -0.000 -0.000  0.417
atom   22   Tr[ns(na)] =   2.83029
    eigenvalues:
  0.165  0.208  0.226  0.383  0.434
    eigenvectors:
  0.000  0.000  0.919  0.081  0.000
  0.000  0.000  0.000  0.000  1.000
  0.998  0.002  0.000  0.000  0.000
  0.000  0.000  0.081  0.919  0.000
  0.002  0.998  0.000  0.000  0.000
    occupations:
  0.238 -0.000 -0.000  0.043  0.000
 -0.000  0.434  0.000 -0.000 -0.000
 -0.000  0.000  0.165 -0.000 -0.002
  0.043 -0.000 -0.000  0.370 -0.000
  0.000 -0.000 -0.002 -0.000  0.208
atom   23   Tr[ns(na)] =   2.79207
    eigenvalues:
  0.143  0.216  0.251  0.380  0.407
    eigenvectors:
  0.012  0.027  0.000  0.961  0.000
  0.001  0.971  0.000  0.029  0.000
  0.000  0.000  1.000  0.000  0.000
  0.988  0.002  0.000  0.010  0.000
  0.000  0.000  0.000  0.000  1.000
    occupations:
  0.372  0.027  0.000 -0.024 -0.000
  0.027  0.220 -0.000 -0.001 -0.000
  0.000 -0.000  0.251 -0.000 -0.000
 -0.024 -0.001 -0.000  0.145 -0.000
 -0.000 -0.000 -0.000 -0.000  0.407
N of occupied +U levels =  22.4071230
 --- exit write_ns ---

[...]

          k = 0.2500-0.4516 0.0000 ( 29882 PWs)   bands (ev):

[...]

          k =-0.2500 0.2258 0.0000 ( 29912 PWs)   bands (ev):

   -60.6722 -60.6456 -60.4324 -59.9903 -59.7155 -59.6876 -59.2905 -59.2600
   -37.1099 -36.8990 -36.8608 -36.8211 -36.7987 -36.7768 -36.7644 -36.6498
   -36.5830 -36.2711 -36.2386 -36.2113 -36.1707 -36.0207 -35.9493 -35.9292
   -35.8093 -35.7865 -35.6699 -35.5767 -35.5492 -35.5214 -35.4510 -35.3510
   -21.4655 -21.2231 -20.5239 -20.3910 -20.1760 -19.7947 -19.6477 -19.6000
   -19.5312 -19.3886 -19.3233 -19.2594 -19.1722 -19.1374 -19.0937 -18.7124
   -18.4687 -18.1216 -18.0893  -9.2066  -8.9434  -8.2412  -7.8074  -7.6632
    -7.4852  -7.2373  -7.1949  -7.0623  -6.8969  -6.8075  -6.7354  -6.6836
    -6.6412  -6.4955  -6.4631  -6.3876  -6.2961  -6.1815  -6.1010  -5.9861
    -5.9371  -5.7493  -5.6319  -5.4108  -5.3194  -5.2716  -5.1839  -5.0957
    -5.0426  -4.9966  -4.8969  -4.8723  -4.7892  -4.7186  -4.6623  -4.6044
    -4.5491  -4.4600  -4.3366  -4.2753  -4.2222  -4.1543  -4.0197  -3.8671
    -3.7624  -3.6616  -3.5140  -3.4842  -3.4489  -3.3119  -3.2101  -3.1756
    -3.0245  -2.9627  -2.8590  -2.7164  -0.3809  -0.2627  -0.2150  -0.0756
     0.1279   0.2355   0.2994   0.4100   0.4524   0.5649   0.6510   0.7627
     0.8874   0.9507   1.0050   1.0643   1.1283   1.2081   1.2907   1.4130
     1.5275   1.6491   1.6608   1.7519   1.9317   1.9341   2.0555   2.1866
     2.2458   2.4586   2.5176   2.9597   3.0156   3.2150   3.3714   3.4998
     3.5880   3.6227   3.6961   3.8710   4.1413   4.1560   4.2707   4.5943
     5.0282   5.2491   5.2810   5.5881   5.8376   5.8913   6.1122   6.2098
     6.2915   6.4777   6.5529   6.8714   6.9667   7.2869   7.3385   7.4725
     7.6664   7.8030   7.9055   7.9654   8.0489   8.1048   8.1947   8.4024
     8.4850   8.5868   8.7698   8.8234   8.9357   9.0405   9.2536   9.3319
     9.4156   9.4964   9.5618   9.6227   9.7493   9.8827  10.0148  10.0777
    10.1305  10.2487  10.3970  10.4503  10.5593  10.6435  10.7573  10.8039
    10.9165  10.9701  11.0263  11.1449  11.2499  11.2775  11.4125  11.4678
    11.4838  11.5544  11.6213  11.7263  11.8153  11.9030  11.9585  11.9979
    12.1042  12.1669  12.1906  12.3326  12.3879  12.4446  12.4892  12.5766
    12.6773  12.7875  12.8473  12.8844  12.9532  13.0080  13.0385  13.1105
    13.3245  13.3740  13.4551  13.5787  13.6079  13.6580  13.7895  13.8521
    13.8689  13.9444  14.0830  14.1096  14.2069  14.2493  14.3727  14.4300
    14.5038  14.5753  14.6111  14.6363  14.7070  14.8104  14.9071  14.9733
    15.0002  15.1748  15.2549  15.2674  15.3469  15.3964  15.4691  15.5401
    15.5729  15.6746  15.7815  15.8215  15.8413  15.9282  15.9887  16.0581
    16.1869  16.2449  16.3247  16.3521  16.4249  16.5159  16.6504  16.6933
    16.7529  16.7868  16.8205  16.8507  16.9084  17.0159  17.0703  17.1114
    17.2052  17.2726  17.3562  17.3833  17.4655  17.5285  17.6017  17.6498
    17.7559  17.8294  17.9092  17.9409  18.0643  18.1118  18.2189  18.2818
    18.3866  18.4553  18.4861  18.5478  18.6229  18.7119

     the Fermi energy is    -2.7346 ev

!    total energy              =   -1566.61223079 Ry
     Harris-Foulkes estimate   =   -1566.61223080 Ry
     estimated scf accuracy    <          3.6E-09 Ry

     The total energy is the sum of the following terms:

     one-electron contribution =  -18572.12261507 Ry
     hartree contribution      =    9304.07227056 Ry
     xc contribution           =    -277.46935686 Ry
     ewald contribution        =    7977.23250240 Ry
     Hubbard energy            =       1.67423246 Ry
     smearing contrib. (-TS)   =       0.00073572 Ry

     convergence has been achieved in  10 iterations

     Forces acting on atoms (Ry/au):

     negative rho (up, down):  0.105E+00 0.000E+00
     atom    1 type  1   force =    -0.00185814   -0.01184838   -0.00072503
     atom    2 type  1   force =     0.00002825    0.01647467    0.00023624
     atom    3 type  2   force =     0.06069593   -0.00904147   -0.00013443
     atom    4 type  2   force =    -0.00197753    0.00596934   -0.00016548
     atom    5 type  1   force =    -0.00296548   -0.07142782   -0.00001174
     atom    6 type  1   force =    -0.00482966    0.07213679    0.00031935
     atom    7 type  1   force =     0.00142843    0.00052164    0.00011198
     atom    8 type  1   force =     0.00219078   -0.00116926   -0.00048792
     atom    9 type  2   force =    -0.00082311   -0.00006026    0.00021638
     atom   10 type  2   force =    -0.00491321    0.00014864    0.00028829
     atom   11 type  1   force =    -0.01670861   -0.02418432   -0.00009518
     atom   12 type  1   force =    -0.01693867    0.02408840   -0.00009999
     atom   13 type  1   force =     0.00113570    0.00011972    0.00022062
     atom   14 type  1   force =    -0.00283178   -0.01155578   -0.00044734
     atom   15 type  1   force =     0.00019200    0.01388973    0.00047982
     atom   16 type  2   force =    -0.06061749   -0.00933761   -0.00011991
     atom   17 type  2   force =    -0.00154918    0.00544420   -0.00024102
     atom   18 type  1   force =     0.00672466   -0.07096711   -0.00004840
     atom   19 type  1   force =     0.00565569    0.07239977    0.00035622
     atom   20 type  1   force =    -0.00075756   -0.00003256    0.00016319
     atom   21 type  1   force =     0.00089222   -0.00097885   -0.00051877
     atom   22 type  2   force =     0.00031368    0.00002730    0.00017354
     atom   23 type  2   force =     0.00007278    0.00005465   -0.00029061
     atom   24 type  1   force =     0.01910230   -0.02209741   -0.00009971
     atom   25 type  1   force =     0.01864211    0.02202238   -0.00006317
     atom   26 type  1   force =    -0.00071092    0.00005582    0.00017412
     atom   27 type  3   force =    -0.00005096   -0.00022278   -0.00000916
     atom   28 type  3   force =    -0.00004056   -0.00016775    0.00033388
     atom   29 type  3   force =     0.00034088   -0.00009946   -0.00012875
     atom   30 type  3   force =     0.00020075   -0.00010813   -0.00011766
     atom   31 type  1   force =    -0.00032410    0.00000029   -0.00003286
     atom   32 type  3   force =     0.00028082   -0.00005438    0.00076349

     Total force =     0.001854     Total SCF correction =     0.000151

     bfgs converged in  15 scf cycles and  14 bfgs steps
     (criteria: energy < 0.10E-03, force < 0.10E-02)

     End of BFGS Geometry Optimization

     Final energy   =   -1566.6122307942 Ry
Begin final coordinates

ATOMIC_POSITIONS (crystal)
O0       0.000000000   0.000000000   0.376920898    0   0   1
O0       0.000000000   0.500000000   0.395889067    0   0   1
Ti1      0.250000000   0.500000000   0.448355368    0   0   1
Ti1      0.000000000   0.000000000   0.451985847    0   0   1
O0       0.250000000   0.810000000   0.448269664    0   0   1
O0       0.250000000   0.190000000   0.449075393    0   0   1
O0       0.000000000   0.500000000   0.496127515    0   0   1
O0       0.000000000   0.000000000   0.525577988    0   0   1
Ti1      0.250000000   0.000000000   0.581192288    0   0   1
Ti1      0.000000000   0.500000000   0.567000569    0   0   1
O0       0.250000000   0.690000000   0.579957283    0   0   1
O0       0.250000000   0.310000000   0.579964483    0   0   1
O0       0.000000000   0.000000000   0.622851943    0   0   1
O0       0.500000000   0.000000000   0.377229359    0   0   1
O0       0.500000000   0.500000000   0.395263425    0   0   1
Ti1      0.750000000   0.500000000   0.448439098    0   0   1
Ti1      0.500000000   0.000000000   0.452710229    0   0   1
O0       0.750000000   0.810000000   0.448237362    0   0   1
O0       0.750000000   0.190000000   0.449089991    0   0   1
O0       0.500000000   0.500000000   0.491604905    0   0   1
O0       0.500000000   0.000000000   0.525664879    0   0   1
Ti1      0.750000000   0.000000000   0.581265465    0   0   1
Ti1      0.500000000   0.500000000   0.594421568    0   0   1
O0       0.750000000   0.690000000   0.579268614    0   0   1
O0       0.750000000   0.310000000   0.579183498    0   0   1
O0       0.500000000   0.000000000   0.622843930    0   0   1
H2      -0.000468663   0.625623557   0.375367556
H2       0.499715463   0.624389044   0.374333833
H2       0.149680624   0.036977922   0.363469511
H2       0.649103346   0.037868189   0.363651019
O0       0.509312478   0.499986840   0.662505179
H2       0.377268464   0.499301813   0.684532272
End final coordinates

     General routines

     Parallel routines
     Hubbard U routines

   This run was terminated on:  12:34:25  30Apr2014

   JOB DONE.