     Program PWSCF v.5.0.2 (svn rev. 9656) starts on 24Jan2014 at 13:54:36

     Current dimensions of program PWSCF are:
     Max number of different atomic species (ntypx) = 10
     Max number of k-points (npk) =  40000
     Max angular momentum in pseudopotentials (lmaxx) =  3
     Reading input from PtO2-v-1.10.in

     Subspace diagonalization in iterative solution of the eigenvalue problem:
     a serial algorithm will be used

     bravais-lattice index     =            0
     lattice parameter (alat)  =       9.2207  a.u.
     unit-cell volume          =     505.2134 (a.u.)^3
     number of atoms/cell      =            6
     number of atomic types    =            2
     number of electrons       =        56.00
     number of Kohn-Sham states=           84
     kinetic-energy cutoff     =      40.0000  Ry
     charge density cutoff     =     500.0000  Ry
     convergence threshold     =      1.0E-06
     mixing beta               =       0.3000
     number of iterations used =            8  plain     mixing
     Exchange-correlation      = SLA  PW   PBE  PBE ( 1 4 3 4 0)
     EXX-fraction              =        0.00
     nstep                     =           50

     celldm(1)=   9.220684  celldm(2)=   0.000000  celldm(3)=   0.000000
     celldm(4)=   0.000000  celldm(5)=   0.000000  celldm(6)=   0.000000

     crystal axes: (cart. coord. in units of alat)
               a(1) = (   1.000000   0.000000   0.000000 )
               a(2) = (   0.000000   1.000000   0.000000 )
               a(3) = (   0.000000   0.000000   0.644444 )

     reciprocal axes: (cart. coord. in units 2 pi/alat)
               b(1) = (  1.000000  0.000000  0.000000 )
               b(2) = (  0.000000  1.000000  0.000000 )
               b(3) = (  0.000000  0.000000  1.551724 )

     PseudoPot. # 1 for Pt read from file:
     /home/camp/zhonxu/pseudo/pt_pbe_v1.uspp.F.UPF
     MD5 check sum: 4c71d6ad5ef119f1eb26a4d0b7884226
     Pseudo is Ultrasoft + core correction, Zval = 16.0
     Generated by new atomic code, or converted to UPF format
     Using radial grid of  985 points,  6 beta functions with:
                l(1) =   0
                l(2) =   0
                l(3) =   1
                l(4) =   1
                l(5) =   2
                l(6) =   2
     Q(r) pseudized with  8 coefficients,  rinner =    1.300   1.300   1.300
                                                       1.300   1.300

     PseudoPot. # 2 for O  read from file:
     /home/camp/zhonxu/pseudo/o_pbe_v1.01.uspp.F.UPF
     MD5 check sum: 2bcb18d16ea4b960afae9ec6d52f22d2
     Pseudo is Ultrasoft + core correction, Zval =  6.0
     Generated by new atomic code, or converted to UPF format
     Using radial grid of  737 points,  5 beta functions with:
                l(1) =   0
                l(2) =   0
                l(3) =   1
                l(4) =   1
                l(5) =   2
     Q(r) pseudized with  8 coefficients,  rinner =    0.900   0.900   0.900
                                                       0.900   0.900

     atomic species   valence    mass     pseudopotential
        Pt0           16.00   195.08000     Pt( 1.00)
        O1             6.00    15.99940     O ( 1.00)

     Starting magnetic structure
     atomic species   magnetization
        Pt0          0.000
        O1           0.000

      8 Sym. Ops., with inversion, found
          (note:  8 additional sym.ops. were found but ignored
           their fractional translations are incommensurate with FFT grid)

   Cartesian axes

     site n.     atom                  positions (alat units)
         1           Pt0 tau(   1) = (   0.0000000   0.0000000   0.0000000  )
         2           Pt0 tau(   2) = (   0.5000000   0.5000000   0.3222222  )
         3           O1  tau(   3) = (   0.3050000   0.3050000   0.0000000  )
         4           O1  tau(   4) = (  -0.3050000  -0.3050000   0.0000000  )
         5           O1  tau(   5) = (   0.8050000   0.1950000   0.3222222  )
         6           O1  tau(   6) = (   0.1950000   0.8050000   0.3222222  )

     number of k points=    54  Methfessel-Paxton smearing, width (Ry)=  0.0100
                       cart. coord. in units 2pi/alat
        k(    1) = (   0.0000000   0.0000000   0.0000000), wk =   0.0080000
        k(    2) = (   0.0000000   0.0000000   0.3103448), wk =   0.0160000
        k(    3) = (   0.0000000   0.0000000   0.6206897), wk =   0.0160000
        k(    4) = (   0.0000000   0.2000000   0.0000000), wk =   0.0320000
        k(    5) = (   0.0000000   0.2000000   0.3103448), wk =   0.0640000
        k(    6) = (   0.0000000   0.2000000   0.6206897), wk =   0.0640000
        k(    7) = (   0.0000000   0.4000000   0.0000000), wk =   0.0320000
        k(    8) = (   0.0000000   0.4000000   0.3103448), wk =   0.0640000
        k(    9) = (   0.0000000   0.4000000   0.6206897), wk =   0.0640000
        k(   10) = (   0.2000000   0.2000000   0.0000000), wk =   0.0160000
        k(   11) = (   0.2000000   0.2000000   0.3103448), wk =   0.0320000
        k(   12) = (   0.2000000   0.2000000   0.6206897), wk =   0.0320000
        k(   13) = (   0.2000000   0.4000000   0.0000000), wk =   0.0320000
        k(   14) = (   0.2000000   0.4000000   0.3103448), wk =   0.0640000
        k(   15) = (   0.2000000   0.4000000   0.6206897), wk =   0.0640000
        k(   16) = (   0.4000000   0.4000000   0.0000000), wk =   0.0160000
        k(   17) = (   0.4000000   0.4000000   0.3103448), wk =   0.0320000
        k(   18) = (   0.4000000   0.4000000   0.6206897), wk =   0.0320000
        k(   19) = (  -0.2000000   0.2000000   0.0000000), wk =   0.0160000
        k(   20) = (  -0.2000000   0.2000000  -0.3103448), wk =   0.0320000
        k(   21) = (  -0.2000000   0.2000000  -0.6206897), wk =   0.0320000
        k(   22) = (  -0.2000000   0.4000000   0.0000000), wk =   0.0320000
        k(   23) = (  -0.2000000   0.4000000  -0.3103448), wk =   0.0640000
        k(   24) = (  -0.2000000   0.4000000  -0.6206897), wk =   0.0640000
        k(   25) = (  -0.4000000   0.4000000   0.0000000), wk =   0.0160000
        k(   26) = (  -0.4000000   0.4000000  -0.3103448), wk =   0.0320000
        k(   27) = (  -0.4000000   0.4000000  -0.6206897), wk =   0.0320000
        k(   28) = (   0.0000000   0.0000000   0.0000000), wk =   0.0080000
        k(   29) = (   0.0000000   0.0000000   0.3103448), wk =   0.0160000
        k(   30) = (   0.0000000   0.0000000   0.6206897), wk =   0.0160000
        k(   31) = (   0.0000000   0.2000000   0.0000000), wk =   0.0320000
        k(   32) = (   0.0000000   0.2000000   0.3103448), wk =   0.0640000
        k(   33) = (   0.0000000   0.2000000   0.6206897), wk =   0.0640000
        k(   34) = (   0.0000000   0.4000000   0.0000000), wk =   0.0320000
        k(   35) = (   0.0000000   0.4000000   0.3103448), wk =   0.0640000
        k(   36) = (   0.0000000   0.4000000   0.6206897), wk =   0.0640000
        k(   37) = (   0.2000000   0.2000000   0.0000000), wk =   0.0160000
        k(   38) = (   0.2000000   0.2000000   0.3103448), wk =   0.0320000
        k(   39) = (   0.2000000   0.2000000   0.6206897), wk =   0.0320000
        k(   40) = (   0.2000000   0.4000000   0.0000000), wk =   0.0320000
        k(   41) = (   0.2000000   0.4000000   0.3103448), wk =   0.0640000
        k(   42) = (   0.2000000   0.4000000   0.6206897), wk =   0.0640000
        k(   43) = (   0.4000000   0.4000000   0.0000000), wk =   0.0160000
        k(   44) = (   0.4000000   0.4000000   0.3103448), wk =   0.0320000
        k(   45) = (   0.4000000   0.4000000   0.6206897), wk =   0.0320000
        k(   46) = (  -0.2000000   0.2000000   0.0000000), wk =   0.0160000
        k(   47) = (  -0.2000000   0.2000000  -0.3103448), wk =   0.0320000
        k(   48) = (  -0.2000000   0.2000000  -0.6206897), wk =   0.0320000
        k(   49) = (  -0.2000000   0.4000000   0.0000000), wk =   0.0320000
        k(   50) = (  -0.2000000   0.4000000  -0.3103448), wk =   0.0640000
        k(   51) = (  -0.2000000   0.4000000  -0.6206897), wk =   0.0640000
        k(   52) = (  -0.4000000   0.4000000   0.0000000), wk =   0.0160000
        k(   53) = (  -0.4000000   0.4000000  -0.3103448), wk =   0.0320000
        k(   54) = (  -0.4000000   0.4000000  -0.6206897), wk =   0.0320000

     Largest allocated arrays     est. size (Mb)     dimensions
     Largest temporary arrays     est. size (Mb)     dimensions

     Check: negative/imaginary core charge=   -0.000005    0.000000

     Initial potential from superposition of free atoms
     Check: negative starting charge=(component1):   -0.192005
     Check: negative starting charge=(component2):   -0.192005

     starting charge   54.99997, renormalised to   56.00000

     negative rho (up, down):  0.195E+00 0.195E+00
     Starting wfc are   40 randomized atomic wfcs

     Self-consistent Calculation

     iteration #  1     ecut=    40.00 Ry     beta=0.30
     Davidson diagonalization with overlap
     ethr =  1.00E-02,  avg # of iterations =  6.7

     negative rho (up, down):  0.192E+00 0.192E+00

     total energy              =    -543.81408955 Ry
     Harris-Foulkes estimate   =    -546.36686946 Ry
     estimated scf accuracy    <       5.52614639 Ry

     total magnetization       =     0.00 Bohr mag/cell
     absolute magnetization    =     0.00 Bohr mag/cell

[...]

     End of self-consistent calculation

 ------ SPIN UP ------------

          k = 0.0000 0.0000 0.0000 (  2127 PWs)   bands (ev):

   -43.4018 -43.3982 -43.3280 -43.3279 -43.3112 -43.3111  -8.9055  -7.9326
    -7.3414  -7.3413   2.1588   2.4252   3.7981   3.7981   4.2602   6.4973
     6.4974   6.8441   7.2223   7.5145   7.5575   7.6886   7.6887   7.9660
     8.5910   8.5910   9.4349   9.5630  10.8864  13.1809  13.1810  13.5594
    14.4050  19.2588  19.2588  20.2861  22.4614  23.0758  25.1870  25.3336
    25.3336  26.5621  27.6787  28.6627  28.6780  29.2703  30.8126  30.8126
    31.8780  31.8780  33.4368  34.8261  34.8324  35.0352  35.0353  35.7194
    36.1451  37.5621  38.1053  38.6226  39.0425  39.0425  39.2854  39.2854
    40.1018  40.1018  41.2291  42.9034  43.2381  44.7765  44.7765  45.7765
    46.8180  46.8180  47.0579  47.1202  47.5723  47.5723  47.6784  47.6803
    48.2162  48.5377  49.2431  53.1597

[...]

          k =-0.2000 0.2000 0.0000 (  2133 PWs)   bands (ev):

[...]

 ------ SPIN DOWN ----------

[...]

     the Fermi energy is    10.4478 ev

!    total energy              =    -544.90204101 Ry
     Harris-Foulkes estimate   =    -544.90203947 Ry
     estimated scf accuracy    <          7.2E-09 Ry

     The total energy is the sum of the following terms:

     one-electron contribution =    -159.83209041 Ry
     hartree contribution      =     113.49168412 Ry
     xc contribution           =    -136.80306352 Ry
     ewald contribution        =    -361.75792557 Ry
     smearing contrib. (-TS)   =      -0.00064563 Ry

[...]

     convergence has been achieved in  11 iterations

     Forces acting on atoms (Ry/au):

     negative rho (up, down):  0.197E+00 0.197E+00
     atom    1 type  1   force =     0.00000000    0.00000000    0.00000000
[...]
        k(    9) = (  -0.0000035   0.4092410   0.5929748), wk =   0.0640000
        k(   10) = (   0.2046187   0.2046187   0.0000000), wk =   0.0160000
        k(   11) = (   0.2046187   0.2046187   0.2964874), wk =   0.0320000
        k(   12) = (   0.2046187   0.2046187   0.5929748), wk =   0.0320000
        k(   13) = (   0.2046170   0.4092392   0.0000000), wk =   0.0320000
        k(   14) = (   0.2046170   0.4092392   0.2964874), wk =   0.0640000
        k(   15) = (   0.2046170   0.4092392   0.5929748), wk =   0.0640000
        k(   16) = (   0.4092375   0.4092375   0.0000000), wk =   0.0160000
        k(   17) = (   0.4092375   0.4092375   0.2964874), wk =   0.0320000
        k(   18) = (   0.4092375   0.4092375   0.5929748), wk =   0.0320000
        k(   19) = (  -0.2046223   0.2046223   0.0000000), wk =   0.0160000
        k(   20) = (  -0.2046223   0.2046223  -0.2964874), wk =   0.0320000
        k(   21) = (  -0.2046223   0.2046223  -0.5929748), wk =   0.0320000
        k(   22) = (  -0.2046240   0.4092428   0.0000000), wk =   0.0320000
        k(   23) = (  -0.2046240   0.4092428  -0.2964874), wk =   0.0640000
        k(   24) = (  -0.2046240   0.4092428  -0.5929748), wk =   0.0640000
        k(   25) = (  -0.4092445   0.4092445   0.0000000), wk =   0.0160000
        k(   26) = (  -0.4092445   0.4092445  -0.2964874), wk =   0.0320000
        k(   27) = (  -0.4092445   0.4092445  -0.5929748), wk =   0.0320000
        k(   28) = (   0.0000000   0.0000000   0.0000000), wk =   0.0080000
        k(   29) = (   0.0000000   0.0000000   0.2964874), wk =   0.0160000
        k(   30) = (   0.0000000   0.0000000   0.5929748), wk =   0.0160000
        k(   31) = (  -0.0000018   0.2046205   0.0000000), wk =   0.0320000
        k(   32) = (  -0.0000018   0.2046205   0.2964874), wk =   0.0640000
        k(   33) = (  -0.0000018   0.2046205   0.5929748), wk =   0.0640000
        k(   34) = (  -0.0000035   0.4092410   0.0000000), wk =   0.0320000
        k(   35) = (  -0.0000035   0.4092410   0.2964874), wk =   0.0640000
        k(   36) = (  -0.0000035   0.4092410   0.5929748), wk =   0.0640000
        k(   37) = (   0.2046187   0.2046187   0.0000000), wk =   0.0160000
        k(   38) = (   0.2046187   0.2046187   0.2964874), wk =   0.0320000
        k(   39) = (   0.2046187   0.2046187   0.5929748), wk =   0.0320000
        k(   40) = (   0.2046170   0.4092392   0.0000000), wk =   0.0320000
        k(   41) = (   0.2046170   0.4092392   0.2964874), wk =   0.0640000
        k(   42) = (   0.2046170   0.4092392   0.5929748), wk =   0.0640000
        k(   43) = (   0.4092375   0.4092375   0.0000000), wk =   0.0160000
        k(   44) = (   0.4092375   0.4092375   0.2964874), wk =   0.0320000
        k(   45) = (   0.4092375   0.4092375   0.5929748), wk =   0.0320000
        k(   46) = (  -0.2046223   0.2046223   0.0000000), wk =   0.0160000
        k(   47) = (  -0.2046223   0.2046223  -0.2964874), wk =   0.0320000
        k(   48) = (  -0.2046223   0.2046223  -0.5929748), wk =   0.0320000
        k(   49) = (  -0.2046240   0.4092428   0.0000000), wk =   0.0320000
        k(   50) = (  -0.2046240   0.4092428  -0.2964874), wk =   0.0640000
        k(   51) = (  -0.2046240   0.4092428  -0.5929748), wk =   0.0640000
        k(   52) = (  -0.4092445   0.4092445   0.0000000), wk =   0.0160000
        k(   53) = (  -0.4092445   0.4092445  -0.2964874), wk =   0.0320000
        k(   54) = (  -0.4092445   0.4092445  -0.5929748), wk =   0.0320000

     Check: negative/imaginary core charge=   -0.000005    0.000000
     Check: negative starting charge=(component1):   -0.385282

[...]

     Threshold (ethr) on eigenvalues was too large:
     Diagonalizing with lowered threshold

     Davidson diagonalization with overlap
     ethr =  2.70E-08,  avg # of iterations =  1.0

[...]

     Volume is kept fixed: isostatic pressure set to zero

     bfgs converged in   6 scf cycles and   5 bfgs steps
     (criteria: energy < 0.10E-03, force < 0.10E-02, cell < 0.50E+00)

     End of BFGS Geometry Optimization

     Final enthalpy =    -544.9115438751 Ry
Begin final coordinates
     new unit-cell volume =    505.21339 a.u.^3 (    74.86490 Ang^3 )

CELL_PARAMETERS (alat=  9.22068369)
   0.977419198   0.000008411   0.000000000
   0.000008411   0.977419198   0.000000000
   0.000000000   0.000000000   0.674564923

ATOMIC_POSITIONS (crystal)
Pt0      0.000000000   0.000000000   0.000000000    0   0   0
Pt0      0.500000000   0.500000000   0.500000000    0   0   0
O1       0.308722217   0.308722217   0.000000000    1   1   0
O1      -0.308722217  -0.308722217   0.000000000    1   1   0
O1       0.808726966   0.191273034   0.500000000    1   1   0
O1       0.191273034   0.808726966   0.500000000    1   1   0
End final coordinates

     A final scf calculation at the relaxed structure.
     The G-vectors are recalculated for the final unit cell
     Results may differ from those at the preceding step.

     bravais-lattice index     =            0
     lattice parameter (alat)  =       9.2207  a.u.
     unit-cell volume          =     505.2134 (a.u.)^3
     number of atoms/cell      =            6
     number of atomic types    =            2
     number of electrons       =        56.00
     number of Kohn-Sham states=           84
     kinetic-energy cutoff     =      40.0000  Ry
     charge density cutoff     =     500.0000  Ry
     convergence threshold     =      1.0E-08
     mixing beta               =       0.3000
     number of iterations used =            8  plain     mixing
     Exchange-correlation      = SLA  PW   PBE  PBE ( 1 4 3 4 0)
     EXX-fraction              =        0.00

     celldm(1)=   9.220684  celldm(2)=   0.000000  celldm(3)=   0.000000
     celldm(4)=   0.000000  celldm(5)=   0.000000  celldm(6)=   0.000000

     crystal axes: (cart. coord. in units of alat)
               a(1) = (   0.977419   0.000008   0.000000 )
               a(2) = (   0.000008   0.977419   0.000000 )
               a(3) = (   0.000000   0.000000   0.674565 )

     reciprocal axes: (cart. coord. in units 2 pi/alat)
               b(1) = (  1.023102 -0.000009  0.000000 )
               b(2) = ( -0.000009  1.023102  0.000000 )
               b(3) = (  0.000000  0.000000  1.482437 )

     PseudoPot. # 1 for Pt read from file:
     /home/camp/zhonxu/pseudo/pt_pbe_v1.uspp.F.UPF
     MD5 check sum: 4c71d6ad5ef119f1eb26a4d0b7884226
     Pseudo is Ultrasoft + core correction, Zval = 16.0
     Generated by new atomic code, or converted to UPF format
     Using radial grid of  985 points,  6 beta functions with:
                l(1) =   0
                l(2) =   0
                l(3) =   1
                l(4) =   1
                l(5) =   2
                l(6) =   2
     Q(r) pseudized with  8 coefficients,  rinner =    1.300   1.300   1.300
                                                       1.300   1.300

     PseudoPot. # 2 for O  read from file:
     /home/camp/zhonxu/pseudo/o_pbe_v1.01.uspp.F.UPF
     MD5 check sum: 2bcb18d16ea4b960afae9ec6d52f22d2
     Pseudo is Ultrasoft + core correction, Zval =  6.0
     Generated by new atomic code, or converted to UPF format
     Using radial grid of  737 points,  5 beta functions with:
                l(1) =   0
                l(2) =   0
                l(3) =   1
                l(4) =   1
                l(5) =   2
     Q(r) pseudized with  8 coefficients,  rinner =    0.900   0.900   0.900
                                                       0.900   0.900

     atomic species   valence    mass     pseudopotential
        Pt0           16.00   195.08000     Pt( 1.00)
        O1             6.00    15.99940     O ( 1.00)

     Starting magnetic structure
     atomic species   magnetization
        Pt0          0.000
        O1           0.000

      8 Sym. Ops., with inversion, found
          (note:  8 additional sym.ops. were found but ignored
           their fractional translations are incommensurate with FFT grid)

   Cartesian axes

     site n.     atom                  positions (alat units)
         1           Pt0 tau(   1) = (   0.0000000   0.0000000   0.0000000  )
         2           Pt0 tau(   2) = (   0.4887138   0.4887138   0.3372825  )
         3           O1  tau(   3) = (   0.3017536   0.3017536   0.0000000  )
         4           O1  tau(   4) = (  -0.3017536  -0.3017536   0.0000000  )
         5           O1  tau(   5) = (   0.7904669   0.1869607   0.3372825  )
         6           O1  tau(   6) = (   0.1869607   0.7904669   0.3372825  )

     number of k points=    54  Methfessel-Paxton smearing, width (Ry)=  0.0100
                       cart. coord. in units 2pi/alat
        k(    1) = (   0.0000000   0.0000000   0.0000000), wk =   0.0080000
        k(    2) = (   0.0000000   0.0000000   0.2964874), wk =   0.0160000
        k(    3) = (   0.0000000   0.0000000   0.5929748), wk =   0.0160000
        k(    4) = (  -0.0000018   0.2046205   0.0000000), wk =   0.0320000
        k(    5) = (  -0.0000018   0.2046205   0.2964874), wk =   0.0640000
        k(    6) = (  -0.0000018   0.2046205   0.5929748), wk =   0.0640000
        k(    7) = (  -0.0000035   0.4092410   0.0000000), wk =   0.0320000
        k(    8) = (  -0.0000035   0.4092410   0.2964874), wk =   0.0640000
        k(    9) = (  -0.0000035   0.4092410   0.5929748), wk =   0.0640000
        k(   10) = (   0.2046187   0.2046187   0.0000000), wk =   0.0160000
        k(   11) = (   0.2046187   0.2046187   0.2964874), wk =   0.0320000
        k(   12) = (   0.2046187   0.2046187   0.5929748), wk =   0.0320000
        k(   13) = (   0.2046170   0.4092392   0.0000000), wk =   0.0320000
        k(   14) = (   0.2046170   0.4092392   0.2964874), wk =   0.0640000
        k(   15) = (   0.2046170   0.4092392   0.5929748), wk =   0.0640000
        k(   16) = (   0.4092375   0.4092375   0.0000000), wk =   0.0160000
        k(   17) = (   0.4092375   0.4092375   0.2964874), wk =   0.0320000
        k(   18) = (   0.4092375   0.4092375   0.5929748), wk =   0.0320000
        k(   19) = (  -0.2046223   0.2046223   0.0000000), wk =   0.0160000
        k(   20) = (  -0.2046223   0.2046223  -0.2964874), wk =   0.0320000
        k(   21) = (  -0.2046223   0.2046223  -0.5929748), wk =   0.0320000
        k(   22) = (  -0.2046240   0.4092428   0.0000000), wk =   0.0320000
        k(   23) = (  -0.2046240   0.4092428  -0.2964874), wk =   0.0640000
        k(   24) = (  -0.2046240   0.4092428  -0.5929748), wk =   0.0640000
        k(   25) = (  -0.4092445   0.4092445   0.0000000), wk =   0.0160000
        k(   26) = (  -0.4092445   0.4092445  -0.2964874), wk =   0.0320000
        k(   27) = (  -0.4092445   0.4092445  -0.5929748), wk =   0.0320000
        k(   28) = (   0.0000000   0.0000000   0.0000000), wk =   0.0080000
        k(   29) = (   0.0000000   0.0000000   0.2964874), wk =   0.0160000
        k(   30) = (   0.0000000   0.0000000   0.5929748), wk =   0.0160000
        k(   31) = (  -0.0000018   0.2046205   0.0000000), wk =   0.0320000
        k(   32) = (  -0.0000018   0.2046205   0.2964874), wk =   0.0640000
        k(   33) = (  -0.0000018   0.2046205   0.5929748), wk =   0.0640000
        k(   34) = (  -0.0000035   0.4092410   0.0000000), wk =   0.0320000
        k(   35) = (  -0.0000035   0.4092410   0.2964874), wk =   0.0640000
        k(   36) = (  -0.0000035   0.4092410   0.5929748), wk =   0.0640000
        k(   37) = (   0.2046187   0.2046187   0.0000000), wk =   0.0160000
        k(   38) = (   0.2046187   0.2046187   0.2964874), wk =   0.0320000
        k(   39) = (   0.2046187   0.2046187   0.5929748), wk =   0.0320000
        k(   40) = (   0.2046170   0.4092392   0.0000000), wk =   0.0320000
        k(   41) = (   0.2046170   0.4092392   0.2964874), wk =   0.0640000
        k(   42) = (   0.2046170   0.4092392   0.5929748), wk =   0.0640000
        k(   43) = (   0.4092375   0.4092375   0.0000000), wk =   0.0160000
        k(   44) = (   0.4092375   0.4092375   0.2964874), wk =   0.0320000
        k(   45) = (   0.4092375   0.4092375   0.5929748), wk =   0.0320000
        k(   46) = (  -0.2046223   0.2046223   0.0000000), wk =   0.0160000
        k(   47) = (  -0.2046223   0.2046223  -0.2964874), wk =   0.0320000
        k(   48) = (  -0.2046223   0.2046223  -0.5929748), wk =   0.0320000
        k(   49) = (  -0.2046240   0.4092428   0.0000000), wk =   0.0320000
        k(   50) = (  -0.2046240   0.4092428  -0.2964874), wk =   0.0640000
        k(   51) = (  -0.2046240   0.4092428  -0.5929748), wk =   0.0640000
        k(   52) = (  -0.4092445   0.4092445   0.0000000), wk =   0.0160000
        k(   53) = (  -0.4092445   0.4092445  -0.2964874), wk =   0.0320000
        k(   54) = (  -0.4092445   0.4092445  -0.5929748), wk =   0.0320000

     Largest allocated arrays     est. size (Mb)     dimensions
     Largest temporary arrays     est. size (Mb)     dimensions

     Check: negative/imaginary core charge=   -0.000005    0.000000

     Initial potential from superposition of free atoms
     Check: negative starting charge=(component1):   -0.192640
     Check: negative starting charge=(component2):   -0.192640

     starting charge   54.99997, renormalised to   56.00000

     negative rho (up, down):  0.196E+00 0.196E+00
     Starting wfc are   40 randomized atomic wfcs

     Self-consistent Calculation

     iteration #  1     ecut=    40.00 Ry     beta=0.30
     Davidson diagonalization with overlap
     c_bands:  1 eigenvalues not converged
     ethr =  1.00E-06,  avg # of iterations = 11.2

[...]

     total energy              =    -544.91197524 Ry
     Harris-Foulkes estimate   =    -544.91197451 Ry
     estimated scf accuracy    <       0.00000004 Ry

[...]

     iteration # 12     ecut=    40.00 Ry     beta=0.30
     Davidson diagonalization with overlap
     ethr =  6.52E-11,  avg # of iterations =  1.3

     negative rho (up, down):  0.198E+00 0.198E+00

     End of self-consistent calculation

 ------ SPIN UP ------------

[...]

 ------ SPIN DOWN ----------

[...]

          k = 0.4092 0.4092 0.5930 (  2152 PWs)   bands (ev):

[...]

          k =-0.4092 0.4092-0.5930 (  2152 PWs)   bands (ev):

   -43.4379 -43.4377 -43.3359 -43.3358 -43.1826 -43.1825  -7.8331  -7.7935
    -7.6077  -7.6008   3.4761   3.5124   4.0071   4.1767   4.3746   4.7440
     5.6530   5.8000   6.6985   6.8413   7.5716   7.9523   8.0353   8.1403
     8.9802   9.5444   9.6670  10.1110  10.9305  11.5890  12.1826  12.8064
    18.4275  18.6486  20.2760  20.4554  21.7028  22.2420  22.9061  23.4485
    26.5810  26.7263  28.3994  28.6589  28.6847  28.8972  29.3895  30.8484
    30.9488  31.0202  31.4520  32.4859  34.6500  35.1650  35.7224  35.7829
    37.2962  37.9653  38.5953  39.9127  40.0689  40.4708  40.9773  41.2967
    41.7346  42.0971  42.4534  43.3451  43.7907  44.1369  44.9062  45.3356
    45.9095  46.0917  46.5009  46.9659  47.2066  48.0116  48.6387  49.0921
    50.1804  50.4675  50.5576  51.2764

     the Fermi energy is    10.4423 ev

!    total energy              =    -544.91197595 Ry
     Harris-Foulkes estimate   =    -544.91197524 Ry
     estimated scf accuracy    <          3.4E-09 Ry

     The total energy is the sum of the following terms:

     one-electron contribution =    -155.57008557 Ry
     hartree contribution      =     111.40080538 Ry
     xc contribution           =    -136.74849658 Ry
     ewald contribution        =    -363.99389625 Ry
     smearing contrib. (-TS)   =      -0.00030295 Ry

     total magnetization       =     0.00 Bohr mag/cell
     absolute magnetization    =     0.00 Bohr mag/cell

     convergence has been achieved in  12 iterations

     Forces acting on atoms (Ry/au):

     negative rho (up, down):  0.198E+00 0.198E+00
     atom    1 type  1   force =     0.00000000    0.00000000    0.00000000
     atom    2 type  1   force =     0.00000000    0.00000000    0.00000000
     atom    3 type  2   force =     0.00020566    0.00020566   -0.00000000
     atom    4 type  2   force =    -0.00020566   -0.00020566   -0.00000000
     atom    5 type  2   force =     0.00018705   -0.00018705   -0.00000000
     atom    6 type  2   force =    -0.00018705    0.00018705   -0.00000000

     Total force =     0.000556     Total SCF correction =     0.000030

     entering subroutine stress ...

     negative rho (up, down):  0.198E+00 0.198E+00
          total   stress  (Ry/bohr**3)                   (kbar)     P= -177.97
  -0.00121891  -0.00000014   0.00000000       -179.31     -0.02      0.00
  -0.00000014  -0.00121891   0.00000000         -0.02   -179.31      0.00
   0.00000000   0.00000000  -0.00119163          0.00      0.00   -175.29

     General routines

     Parallel routines

   This run was terminated on:  14:48:42  24Jan2014

   JOB DONE.