     Program PWSCF v.5.0.2 (svn rev. 9656) starts on 14Aug2014 at 14: 0:57

     Current dimensions of program PWSCF are:
     Max number of different atomic species (ntypx) = 10
     Max number of k-points (npk) =  40000
     Max angular momentum in pseudopotentials (lmaxx) =  3
     Reading input from pwscf.in
Warning: card &CELL ignored
Warning: card / ignored

     Subspace diagonalization in iterative solution of the eigenvalue problem:
     a serial algorithm will be used

     bravais-lattice index     =            0
     lattice parameter (alat)  =      11.7919  a.u.
     unit-cell volume          =    7123.6633 (a.u.)^3
     number of atoms/cell      =           33
     number of atomic types    =            3
     number of electrons       =       253.00
     number of Kohn-Sham states=          379
     kinetic-energy cutoff     =      40.0000  Ry
     charge density cutoff     =     500.0000  Ry
     convergence threshold     =      1.0E-06
     mixing beta               =       0.7000
     number of iterations used =            8  plain     mixing
     Exchange-correlation      = SLA  PW   PBE  PBE ( 1 4 3 4 0)
     EXX-fraction              =        0.00
     nstep                     =           50

     celldm(1)=  11.791891  celldm(2)=   0.000000  celldm(3)=   0.000000
     celldm(4)=   0.000000  celldm(5)=   0.000000  celldm(6)=   0.000000

     crystal axes: (cart. coord. in units of alat)
               a(1) = (   1.000000   0.000000   0.000000 )
               a(2) = (   0.000000   1.026665   0.000000 )
               a(3) = (   0.000000   0.000000   4.231793 )

     reciprocal axes: (cart. coord. in units 2 pi/alat)
               b(1) = (  1.000000  0.000000  0.000000 )
               b(2) = (  0.000000  0.974028  0.000000 )
               b(3) = (  0.000000  0.000000  0.236306 )

     PseudoPot. # 1 for O  read from file:
     /home-research/zhongnanxu/gbrv_espresso_pseudo_v1.01/o_pbe_v1.01.uspp.F.UPF
     MD5 check sum: 2bcb18d16ea4b960afae9ec6d52f22d2
     Pseudo is Ultrasoft + core correction, Zval =  6.0
     Generated by new atomic code, or converted to UPF format
     Using radial grid of  737 points,  5 beta functions with:
                l(1) =   0
                l(2) =   0
                l(3) =   1
                l(4) =   1
                l(5) =   2
     Q(r) pseudized with  8 coefficients,  rinner =    0.900   0.900   0.900
                                                       0.900   0.900

     PseudoPot. # 2 for Ru read from file:
     /home-research/zhongnanxu/gbrv_espresso_pseudo_v1.01/ru_pbe_v1.uspp.F.UPF
     MD5 check sum: df00be1c11b23341d9806d8f1dfa10cf
     Pseudo is Ultrasoft + core correction, Zval = 16.0
     Generated by new atomic code, or converted to UPF format
     Using radial grid of  967 points,  6 beta functions with:
                l(1) =   0
                l(2) =   0
                l(3) =   1
                l(4) =   1
                l(5) =   2
                l(6) =   2
     Q(r) pseudized with  8 coefficients,  rinner =    1.300   1.300   1.300
                                                       1.300   1.300

     PseudoPot. # 3 for H  read from file:
     /home-research/zhongnanxu/gbrv_espresso_pseudo_v1.01/h_pbe_v1.uspp.F.UPF
     MD5 check sum: 3408e3ff4ec8b0a4e358431e7e038a48
     Pseudo is Ultrasoft, Zval =  1.0
     Generated by new atomic code, or converted to UPF format
     Using radial grid of  615 points,  2 beta functions with:
                l(1) =   0
                l(2) =   0
     Q(r) pseudized with  8 coefficients,  rinner =    0.700

     atomic species   valence    mass     pseudopotential
        O0             6.00    15.99940     O ( 1.00)
        Ru1           16.00   101.07000     Ru( 1.00)
        H2             1.00     1.00794     H ( 1.00)

     Simplified LDA+U calculation (l_max = 2) with parameters (eV):
     atomic species    L          U    alpha       J0     beta
        Ru1            2     5.5000   0.0000   0.0000   0.0000

     No symmetry found

   Cartesian axes

     site n.     atom                  positions (alat units)
         1           O0  tau(   1) = (   0.0000000   0.0000000   1.6071926  )
         2           O0  tau(   2) = (   0.0000000   0.5133323   1.7133260  )
         3           Ru1 tau(   3) = (   0.2500000   0.5133323   1.9203876  )
         4           Ru1 tau(   4) = (   0.0000000   0.0000000   1.9178908  )
         5           O0  tau(   5) = (   0.2500000   0.8315984   1.9172138  )
         6           O0  tau(   6) = (   0.2500000   0.1950663   1.9167059  )
         7           O0  tau(   7) = (   0.0000000   0.5133323   2.1169121  )
         8           O0  tau(   8) = (   0.0000000   0.0000000   2.2257961  )
         9           Ru1 tau(   9) = (   0.2500000   0.0000000   2.4553285  )
        10           Ru1 tau(  10) = (   0.0000000   0.5133323   2.4086095  )
        11           O0  tau(  11) = (   0.2500000   0.7083986   2.4395863  )
        12           O0  tau(  12) = (   0.2500000   0.3182660   2.4497849  )
        13           O0  tau(  13) = (   0.0000000   0.0000000   2.6143170  )
        14           O0  tau(  14) = (   0.5000000   0.0000000   1.6047805  )
        15           O0  tau(  15) = (   0.5000000   0.5133323   1.7032120  )
        16           Ru1 tau(  16) = (   0.7500000   0.5133323   1.9200914  )
        17           Ru1 tau(  17) = (   0.5000000   0.0000000   1.9153941  )
        18           O0  tau(  18) = (   0.7500000   0.8315984   1.9172984  )
        19           O0  tau(  19) = (   0.7500000   0.1950663   1.9169598  )
        20           O0  tau(  20) = (   0.5000000   0.5133323   2.1195358  )
        21           O0  tau(  21) = (   0.5000000   0.0000000   2.2234263  )
        22           Ru1 tau(  22) = (   0.7500000   0.0000000   2.4251982  )
        23           Ru1 tau(  23) = (   0.5000000   0.5133323   2.4470342  )
        24           O0  tau(  24) = (   0.7500000   0.7083986   2.4253674  )
        25           O0  tau(  25) = (   0.7500000   0.3182660   2.4342542  )
        26           O0  tau(  26) = (   0.5000000   0.0000000   2.6070383  )
        27           H2  tau(  27) = (  -0.0002800   0.6190583   1.5964862  )
        28           H2  tau(  28) = (   0.4995100   0.6464805   1.6179837  )
        29           H2  tau(  29) = (   0.1478600   0.0250301   1.5559456  )
        30           H2  tau(  30) = (   0.6472200   0.0275249   1.5531949  )
        31           O0  tau(  31) = (   0.5000700   0.5436600   2.7494381  )
        32           O0  tau(  32) = (   0.4999900   0.3472180   2.8725410  )
        33           H2  tau(  33) = (   0.4999600   0.4091156   3.0182416  )

     number of k points=    10  Methfessel-Paxton smearing, width (Ry)=  0.0100
                       cart. coord. in units 2pi/alat
        k(    1) = (   0.0000000   0.0000000   0.0000000), wk =   0.1250000
        k(    2) = (   0.0000000   0.2435070   0.0000000), wk =   0.2500000
        k(    3) = (   0.0000000  -0.4870139   0.0000000), wk =   0.1250000
        k(    4) = (   0.2500000   0.0000000   0.0000000), wk =   0.2500000
        k(    5) = (   0.2500000   0.2435070   0.0000000), wk =   0.2500000
        k(    6) = (   0.2500000  -0.4870139   0.0000000), wk =   0.2500000
        k(    7) = (  -0.5000000   0.0000000   0.0000000), wk =   0.1250000
        k(    8) = (  -0.5000000   0.2435070   0.0000000), wk =   0.2500000
        k(    9) = (  -0.5000000  -0.4870139   0.0000000), wk =   0.1250000
        k(   10) = (  -0.2500000   0.2435070   0.0000000), wk =   0.2500000

     Largest allocated arrays     est. size (Mb)     dimensions
     Largest temporary arrays     est. size (Mb)     dimensions

     Check: negative/imaginary core charge=   -0.000003    0.000000

     Initial potential from superposition of free atoms
     Check: negative starting charge=   -0.519635

     starting charge  244.99980, renormalised to  253.00000

     negative rho (up, down):  0.537E+00 0.000E+00
     Number of +U iterations with fixed ns =  0
     Starting occupations:
 --- enter write_ns ---
 LDA+U parameters:
U( 2)     =  5.50000000
alpha( 2) =  0.00000000
atom    3   Tr[ns(na)] =   6.00000
    eigenvalues:
  0.600  0.600  0.600  0.600  0.600
    eigenvectors:
  1.000  0.000  0.000  0.000  0.000
  0.000  1.000  0.000  0.000  0.000
  0.000  0.000  1.000  0.000  0.000
  0.000  0.000  0.000  1.000  0.000
  0.000  0.000  0.000  0.000  1.000
    occupations:
  0.600  0.000  0.000  0.000  0.000
  0.000  0.600  0.000  0.000  0.000
  0.000  0.000  0.600  0.000  0.000
  0.000  0.000  0.000  0.600  0.000
  0.000  0.000  0.000  0.000  0.600
atom    4   Tr[ns(na)] =   6.00000
    eigenvalues:
  0.600  0.600  0.600  0.600  0.600
    eigenvectors:
  1.000  0.000  0.000  0.000  0.000
  0.000  1.000  0.000  0.000  0.000
  0.000  0.000  1.000  0.000  0.000
  0.000  0.000  0.000  1.000  0.000
  0.000  0.000  0.000  0.000  1.000
    occupations:
  0.600  0.000  0.000  0.000  0.000
  0.000  0.600  0.000  0.000  0.000
  0.000  0.000  0.600  0.000  0.000
  0.000  0.000  0.000  0.600  0.000
  0.000  0.000  0.000  0.000  0.600
atom    9   Tr[ns(na)] =   6.00000
    eigenvalues:
  0.600  0.600  0.600  0.600  0.600
    eigenvectors:
  1.000  0.000  0.000  0.000  0.000
  0.000  1.000  0.000  0.000  0.000
  0.000  0.000  1.000  0.000  0.000
  0.000  0.000  0.000  1.000  0.000
  0.000  0.000  0.000  0.000  1.000
    occupations:
  0.600  0.000  0.000  0.000  0.000
  0.000  0.600  0.000  0.000  0.000
  0.000  0.000  0.600  0.000  0.000
  0.000  0.000  0.000  0.600  0.000
  0.000  0.000  0.000  0.000  0.600
atom   10   Tr[ns(na)] =   6.00000
    eigenvalues:
  0.600  0.600  0.600  0.600  0.600
    eigenvectors:
  1.000  0.000  0.000  0.000  0.000
  0.000  1.000  0.000  0.000  0.000
  0.000  0.000  1.000  0.000  0.000
  0.000  0.000  0.000  1.000  0.000
  0.000  0.000  0.000  0.000  1.000
    occupations:
  0.600  0.000  0.000  0.000  0.000
  0.000  0.600  0.000  0.000  0.000
  0.000  0.000  0.600  0.000  0.000
  0.000  0.000  0.000  0.600  0.000
  0.000  0.000  0.000  0.000  0.600
atom   16   Tr[ns(na)] =   6.00000
    eigenvalues:
  0.600  0.600  0.600  0.600  0.600
    eigenvectors:
  1.000  0.000  0.000  0.000  0.000
  0.000  1.000  0.000  0.000  0.000
  0.000  0.000  1.000  0.000  0.000
  0.000  0.000  0.000  1.000  0.000
  0.000  0.000  0.000  0.000  1.000
    occupations:
  0.600  0.000  0.000  0.000  0.000
  0.000  0.600  0.000  0.000  0.000
  0.000  0.000  0.600  0.000  0.000
  0.000  0.000  0.000  0.600  0.000
  0.000  0.000  0.000  0.000  0.600
atom   17   Tr[ns(na)] =   6.00000
    eigenvalues:
  0.600  0.600  0.600  0.600  0.600
    eigenvectors:
  1.000  0.000  0.000  0.000  0.000
  0.000  1.000  0.000  0.000  0.000
  0.000  0.000  1.000  0.000  0.000
  0.000  0.000  0.000  1.000  0.000
  0.000  0.000  0.000  0.000  1.000
    occupations:
  0.600  0.000  0.000  0.000  0.000
  0.000  0.600  0.000  0.000  0.000
  0.000  0.000  0.600  0.000  0.000
  0.000  0.000  0.000  0.600  0.000
  0.000  0.000  0.000  0.000  0.600
atom   22   Tr[ns(na)] =   6.00000
    eigenvalues:
  0.600  0.600  0.600  0.600  0.600
    eigenvectors:
[...]
  0.000  0.000  0.000  0.016  0.983
  0.052  0.514  0.433  0.001  0.000
  0.000  0.000  0.002  0.982  0.016
    occupations:
  0.638 -0.002 -0.004 -0.037  0.008
 -0.002  0.593  0.002  0.002 -0.001
 -0.004  0.002  0.896 -0.005 -0.005
 -0.037  0.002 -0.005  0.627 -0.003
  0.008 -0.001 -0.005 -0.003  0.858
atom   10   Tr[ns(na)] =   7.27030
    eigenvalues:
  0.525  0.533  0.709  0.888  0.981
    eigenvectors:
  0.977  0.007  0.000  0.000  0.016
  0.000  0.001  0.000  0.995  0.004
  0.000  0.000  0.999  0.000  0.000
  0.016  0.000  0.000  0.004  0.980
  0.007  0.992  0.000  0.001  0.000
    occupations:
  0.532 -0.001  0.001  0.057 -0.001
 -0.001  0.888 -0.003  0.006 -0.008
  0.001 -0.003  0.709 -0.001  0.003
  0.057  0.006 -0.001  0.973  0.000
 -0.001 -0.008  0.003  0.000  0.533
atom   16   Tr[ns(na)] =   7.24378
    eigenvalues:
  0.505  0.555  0.670  0.910  0.982
    eigenvectors:
  0.004  0.171  0.005  0.000  0.820
  0.986  0.013  0.000  0.000  0.000
  0.000  0.003  0.943  0.043  0.011
  0.010  0.813  0.009  0.000  0.169
  0.000  0.000  0.042  0.957  0.000
    occupations:
  0.905  0.010  0.032 -0.160  0.007
  0.010  0.506  0.004  0.002 -0.004
  0.032  0.004  0.683 -0.007 -0.048
 -0.160  0.002 -0.007  0.627 -0.002
  0.007 -0.004 -0.048 -0.002  0.900
atom   17   Tr[ns(na)] =   7.24814
    eigenvalues:
  0.550  0.606  0.632  0.851  0.985
    eigenvectors:
  0.002  0.983  0.000  0.000  0.015
  0.000  0.000  0.018  0.981  0.000
  0.000  0.000  0.982  0.018  0.000
  0.000  0.015  0.000  0.000  0.985
  0.998  0.002  0.000  0.000  0.000
    occupations:
  0.611 -0.003  0.000  0.046  0.002
 -0.003  0.847  0.029  0.001 -0.001
  0.000  0.029  0.636  0.002 -0.001
  0.046  0.001  0.002  0.980  0.000
  0.002 -0.001 -0.001  0.000  0.550
atom   22   Tr[ns(na)] =   7.29253
    eigenvalues:
  0.545  0.571  0.712  0.870  0.948
    eigenvectors:
  0.002  0.163  0.000  0.001  0.834
  0.994  0.005  0.000  0.000  0.000
  0.000  0.001  0.995  0.004  0.000
  0.004  0.831  0.001  0.000  0.164
  0.000  0.000  0.004  0.995  0.001
    occupations:
  0.886  0.007 -0.004 -0.140  0.003
  0.007  0.545  0.002 -0.001  0.000
 -0.004  0.002  0.713 -0.003 -0.010
 -0.140 -0.001 -0.003  0.633 -0.001
  0.003  0.000 -0.010 -0.001  0.870
atom   23   Tr[ns(na)] =   7.29013
    eigenvalues:
  0.537  0.576  0.674  0.891  0.967
    eigenvectors:
  0.000  0.997  0.000  0.001  0.001
  0.002  0.000  0.996  0.001  0.001
  0.001  0.001  0.001  0.998  0.001
  0.000  0.001  0.001  0.001  0.997
  0.997  0.000  0.002  0.000  0.000
    occupations:
  0.577 -0.003  0.008  0.015  0.000
 -0.003  0.674 -0.006 -0.008 -0.006
  0.008 -0.006  0.891 -0.002 -0.008
  0.015 -0.008 -0.002  0.966  0.000
  0.000 -0.006 -0.008  0.000  0.537
N of occupied +U levels =  58.0601305
 --- exit write_ns ---

     Threshold (ethr) on eigenvalues was too large:
     Diagonalizing with lowered threshold

     Davidson diagonalization with overlap
     ethr =  2.00E-09,  avg # of iterations =  3.0

[...]

     total energy              =   -2193.85289407 Ry
     Harris-Foulkes estimate   =   -2193.85289408 Ry
     estimated scf accuracy    <       0.00000001 Ry

     iteration # 18     ecut=    40.00 Ry     beta=0.70
     Davidson diagonalization with overlap
     ethr =  4.58E-12,  avg # of iterations =  1.0

     negative rho (up, down):  0.572E+00 0.000E+00

     End of self-consistent calculation
 --- enter write_ns ---
 LDA+U parameters:
U( 2)     =  5.50000000
alpha( 2) =  0.00000000
atom    3   Tr[ns(na)] =   7.24189
    eigenvalues:
  0.505  0.557  0.667  0.910  0.982
    eigenvectors:
  0.006  0.173  0.005  0.000  0.816
  0.978  0.021  0.000  0.000  0.000
  0.000  0.003  0.891  0.095  0.011
  0.016  0.802  0.010  0.000  0.172
  0.000  0.000  0.094  0.905  0.001
    occupations:
  0.904 -0.011  0.032 -0.161 -0.010
 -0.011  0.507 -0.005 -0.003 -0.004
  0.032 -0.005  0.693 -0.008  0.070
 -0.161 -0.003 -0.008  0.630  0.002
 -0.010 -0.004  0.070  0.002  0.887
atom    4   Tr[ns(na)] =   7.24992
    eigenvalues:
  0.550  0.604  0.625  0.861  0.985
    eigenvectors:
  0.002  0.982  0.000  0.000  0.016
  0.000  0.000  0.014  0.986  0.000
  0.000  0.000  0.986  0.014  0.000
  0.000  0.016  0.000  0.000  0.984
  0.998  0.002  0.000  0.000  0.000
    occupations:
  0.610  0.000  0.000  0.048  0.002
  0.000  0.858  0.028 -0.001 -0.001
  0.000  0.028  0.628  0.001  0.001
  0.048 -0.001  0.001  0.978  0.000
  0.002 -0.001  0.001  0.000  0.550
atom    9   Tr[ns(na)] =   7.22303
    eigenvalues:
  0.593  0.596  0.669  0.857  0.896
    eigenvectors:
  0.021  0.412  0.565  0.002  0.000
  0.930  0.069  0.001  0.000  0.000
  0.000  0.000  0.000  0.016  0.983
  0.049  0.519  0.432  0.001  0.000
  0.000  0.000  0.002  0.982  0.016
    occupations:
  0.638 -0.002 -0.004 -0.037  0.008
 -0.002  0.593  0.002  0.002 -0.001
 -0.004  0.002  0.896 -0.005 -0.005
 -0.037  0.002 -0.005  0.627 -0.003
  0.008 -0.001 -0.005 -0.003  0.858
atom   10   Tr[ns(na)] =   7.26975
    eigenvalues:
  0.525  0.533  0.709  0.888  0.981
    eigenvectors:
  0.977  0.007  0.000  0.000  0.016
  0.000  0.001  0.000  0.995  0.004
  0.000  0.000  0.999  0.000  0.000
  0.016  0.000  0.000  0.004  0.980
  0.007  0.992  0.000  0.001  0.000
    occupations:
  0.532 -0.001  0.001  0.057 -0.001
 -0.001  0.888 -0.003  0.006 -0.008
  0.001 -0.003  0.709 -0.001  0.003
  0.057  0.006 -0.001  0.973  0.000
 -0.001 -0.008  0.003  0.000  0.533
atom   16   Tr[ns(na)] =   7.24361
    eigenvalues:
  0.505  0.555  0.670  0.910  0.982
    eigenvectors:
  0.004  0.171  0.005  0.000  0.820
  0.986  0.013  0.000  0.000  0.000
  0.000  0.003  0.943  0.043  0.011
  0.010  0.813  0.009  0.000  0.169
  0.000  0.000  0.042  0.957  0.000
    occupations:
  0.905  0.010  0.032 -0.160  0.007
  0.010  0.506  0.004  0.002 -0.004
  0.032  0.004  0.683 -0.007 -0.048
 -0.160  0.002 -0.007  0.627 -0.002
  0.007 -0.004 -0.048 -0.002  0.900
atom   17   Tr[ns(na)] =   7.24835
    eigenvalues:
  0.550  0.606  0.632  0.851  0.985
    eigenvectors:
  0.002  0.983  0.000  0.000  0.015
  0.000  0.000  0.018  0.981  0.000
  0.000  0.000  0.982  0.018  0.000
  0.000  0.015  0.000  0.000  0.985
  0.998  0.002  0.000  0.000  0.000
    occupations:
  0.611 -0.003  0.000  0.046  0.002
 -0.003  0.847  0.029  0.001 -0.001
  0.000  0.029  0.636  0.002 -0.001
  0.046  0.001  0.002  0.980  0.000
  0.002 -0.001 -0.001  0.000  0.550
atom   22   Tr[ns(na)] =   7.29369
    eigenvalues:
  0.545  0.571  0.713  0.870  0.948
    eigenvectors:
  0.002  0.163  0.000  0.001  0.834
  0.994  0.005  0.000  0.000  0.000
  0.000  0.001  0.995  0.004  0.000
  0.004  0.831  0.001  0.000  0.164
  0.000  0.000  0.004  0.995  0.001
    occupations:
  0.886  0.007 -0.004 -0.140  0.003
  0.007  0.545  0.002 -0.001  0.000
 -0.004  0.002  0.713 -0.003 -0.010
 -0.140 -0.001 -0.003  0.633 -0.001
  0.003  0.000 -0.010 -0.001  0.870
atom   23   Tr[ns(na)] =   7.28998
    eigenvalues:
  0.537  0.576  0.674  0.891  0.967
    eigenvectors:
  0.000  0.997  0.000  0.001  0.001
  0.002  0.000  0.996  0.001  0.001
  0.001  0.001  0.001  0.998  0.001
  0.000  0.001  0.001  0.001  0.997
  0.997  0.000  0.002  0.000  0.000
    occupations:
  0.577 -0.003  0.008  0.015  0.000
 -0.003  0.674 -0.006 -0.008 -0.006
  0.008 -0.006  0.891 -0.002 -0.008
  0.015 -0.008 -0.002  0.966  0.000
  0.000 -0.006 -0.008  0.000  0.537
N of occupied +U levels =  58.0602153
 --- exit write_ns ---

[...]

          k = 0.2500-0.4870 0.0000 ( 30468 PWs)   bands (ev):

[...]

          k =-0.2500 0.2435 0.0000 ( 30434 PWs)   bands (ev):

   -73.8265 -73.2409 -73.2228 -73.0420 -73.0173 -72.9818 -72.8759 -72.8523
   -44.1511 -43.9056 -43.5671 -43.5467 -43.4623 -43.4457 -43.2991 -43.2375
   -43.2036 -43.1920 -43.1886 -43.1085 -43.0860 -43.0460 -43.0105 -42.9514
   -42.9360 -42.9329 -42.8860 -42.8751 -42.8516 -42.6673 -42.5656 -42.5174
   -23.3974 -20.2879 -19.9324 -19.8193 -19.6491 -19.5274 -19.4080 -19.3515
   -19.2665 -19.1130 -19.0896 -18.9066 -18.8379 -18.7861 -18.7601 -18.7038
   -18.5716 -18.5356 -18.5076 -17.1306  -9.0034  -8.7522  -8.4971  -8.4779
    -8.2633  -8.2313  -8.1215  -7.9495  -7.7361  -7.4021  -7.3784  -7.2486
    -7.2285  -7.1327  -7.0653  -7.0260  -6.9500  -6.9047  -6.7867  -6.6633
    -6.4441  -6.3024  -6.0590  -5.9937  -5.8779  -5.7755  -5.6460  -5.5514
    -5.4978  -5.3248  -5.2811  -5.1724  -5.0672  -4.9458  -4.9289  -4.8604
    -4.7277  -4.6556  -4.6028  -4.4983  -4.4250  -4.3463  -4.3199  -4.1740
    -4.0632  -3.8180  -3.7216  -3.6376  -3.5778  -3.5406  -3.4247  -3.3431
    -3.1850  -3.1244  -3.0438  -2.7713  -2.6466  -2.4435  -2.4227  -2.2862
    -2.1172  -2.0667  -2.0152  -1.9027  -1.8264  -1.7634  -1.7067  -1.6630
    -1.5248  -1.4807  -1.3659  -1.2089  -1.0959  -0.7898  -0.7139  -0.4034
    -0.3224  -0.1510   0.0111   0.1337   0.2375   0.3509   0.6014   1.6687
     2.0756   2.3878   2.4812   2.5542   3.0870   3.2616   3.3832   3.5676
     3.8073   3.8527   3.9844   4.0796   4.1541   4.2142   4.2850   4.3535
     4.4626   4.6128   4.8437   5.1728   5.6005   5.7612   6.0035   6.0811
     6.1423   6.4620   6.5010   6.6611   6.9237   7.0388   7.1296   7.4467
     7.5942   7.6925   7.9058   8.0929   8.1599   8.3424   8.4063   8.5555
     8.6810   8.8142   8.9611   9.0775   9.1021   9.3090   9.4262   9.4468
     9.6215   9.6950   9.8030   9.8706  10.0435  10.0735  10.1896  10.2880
    10.3232  10.4114  10.4927  10.6340  10.6876  10.7449  10.8695  10.9732
    11.0399  11.1883  11.2585  11.3620  11.4314  11.5721  11.6455  11.7388
    11.8180  11.8942  11.9514  12.0365  12.1082  12.1757  12.2157  12.2758
    12.3812  12.4771  12.5098  12.6309  12.7655  12.7893  12.8533  12.9180
    13.0028  13.0131  13.1638  13.2845  13.3330  13.4028  13.4590  13.5191
    13.5968  13.7220  13.8352  13.8663  13.9469  13.9870  14.0907  14.2000
    14.2845  14.3570  14.4632  14.5292  14.6127  14.6943  14.7778  14.8610
    14.9455  15.0077  15.0949  15.2150  15.2333  15.3279  15.3574  15.4327
    15.5052  15.5411  15.6093  15.6955  15.7380  15.8133  15.8712  15.9189
    15.9908  16.0288  16.0934  16.1285  16.2005  16.2317  16.2541  16.3401
    16.3839  16.4660  16.5544  16.6262  16.7140  16.7539  16.7994  16.9194
    16.9648  17.0163  17.0722  17.1971  17.2548  17.3191  17.3862  17.4656
    17.5037  17.5767  17.6296  17.7105  17.7705  17.8136  17.8588  17.9087
    17.9727  18.0542  18.0806  18.1315  18.2256  18.2777  18.3367  18.4117
    18.4554  18.5321  18.6152  18.7308  18.7867  18.8598  18.8973  18.9902
    19.0366  19.1333  19.2369  19.2655  19.3259  19.4038  19.5214  19.6233
    19.6690  19.7614  19.8139  19.8801  19.9308  19.9807  20.0565  20.1748
    20.2570  20.3273  20.4322  20.4976  20.5733  20.6096  20.6674  20.7493
    20.8783  20.9450  20.9711  21.0785  21.0935  21.1460  21.2153  21.2663
    21.2943  21.3545  21.4495  21.5113  21.5493  21.5835  21.6251  21.6926
    21.7975  21.8414  21.9176  21.9308  21.9531  22.0642  22.1141  22.1741
    22.2471  22.3417  22.3920  22.4232  22.4794  22.5461  22.6618  22.7218
    22.7887  22.8228  22.8979  22.9295  22.9902  23.0781  23.1000  23.1558
    23.1899  23.2673  23.3343

     the Fermi energy is    -0.6936 ev

!    total energy              =   -2193.85289407 Ry
     Harris-Foulkes estimate   =   -2193.85289407 Ry
     estimated scf accuracy    <          3.0E-09 Ry

     The total energy is the sum of the following terms:

     one-electron contribution =  -25620.33751416 Ry
     hartree contribution      =   12842.49850670 Ry
     xc contribution           =    -345.76501830 Ry
     ewald contribution        =   10927.00428126 Ry
     Hubbard energy            =       2.74708062 Ry
     smearing contrib. (-TS)   =      -0.00023019 Ry

     convergence has been achieved in  18 iterations

     Forces acting on atoms (Ry/au):

     negative rho (up, down):  0.572E+00 0.000E+00
     atom    1 type  1   force =    -0.00549213   -0.00589383   -0.00040406
     atom    2 type  1   force =     0.00235569    0.00303701    0.00017127
     atom    3 type  2   force =     0.04944652    0.00380689   -0.00007681
     atom    4 type  2   force =     0.00769084    0.00393034   -0.00036093
     atom    5 type  1   force =    -0.00210186   -0.04175771   -0.00001639
     atom    6 type  1   force =     0.00426806    0.04170222    0.00000177
     atom    7 type  1   force =    -0.00260159   -0.00712479   -0.00003508
     atom    8 type  1   force =     0.02661843    0.00102981    0.00017616
     atom    9 type  2   force =    -0.02063235    0.00057851   -0.00023359
     atom   10 type  2   force =     0.01080585    0.00234032    0.00011701
     atom   11 type  1   force =    -0.01402159    0.01051021    0.00011898
     atom   12 type  1   force =    -0.00306844   -0.00529740    0.00011578
     atom   13 type  1   force =     0.03263813   -0.00288312   -0.00001253
     atom   14 type  1   force =    -0.00431361   -0.00832615   -0.00056334
     atom   15 type  1   force =     0.00070520    0.00220371   -0.00001362
     atom   16 type  2   force =    -0.04467536    0.00451134   -0.00000248
     atom   17 type  2   force =     0.00193466    0.00496170   -0.00022608
     atom   18 type  1   force =    -0.00192529   -0.04152775   -0.00000055
     atom   19 type  1   force =     0.00299858    0.04226956    0.00004275
     atom   20 type  1   force =    -0.00705050   -0.00392563    0.00028428
     atom   21 type  1   force =    -0.02771945    0.00104189   -0.00000287
     atom   22 type  2   force =    -0.00215199   -0.00107325   -0.00078698
     atom   23 type  2   force =    -0.00626170   -0.00061304   -0.00027911
     atom   24 type  1   force =     0.01029332    0.03091480    0.00026204
     atom   25 type  1   force =     0.00625948   -0.02778796    0.00023118
     atom   26 type  1   force =    -0.02064656   -0.00665157   -0.00001099
     atom   27 type  3   force =     0.00002362   -0.00063318   -0.00031073
     atom   28 type  3   force =     0.00001363    0.00028354    0.00035324
     atom   29 type  3   force =     0.00011440   -0.00011650   -0.00014059
     atom   30 type  3   force =     0.00009544   -0.00010936   -0.00036811
     atom   31 type  1   force =     0.00460918   -0.00010313    0.00099081
     atom   32 type  1   force =     0.00300780    0.00019933    0.00039839
     atom   33 type  3   force =    -0.00121641    0.00050320    0.00058119

     Total force =     0.002101     Total SCF correction =     0.000116

     bfgs converged in   4 scf cycles and   3 bfgs steps
     (criteria: energy < 0.10E-03, force < 0.10E-02)

     End of BFGS Geometry Optimization

     Final energy   =   -2193.8528940723 Ry
Begin final coordinates

ATOMIC_POSITIONS (crystal)
O0       0.000000000   0.000000000   0.379849382    0   0   1
O0       0.000000000   0.500000000   0.404900881    0   0   1
Ru1      0.250000000   0.500000000   0.453816269    0   0   1
Ru1      0.000000000   0.000000000   0.453211991    0   0   1
O0       0.250000000   0.810000000   0.452961922    0   0   1
O0       0.250000000   0.190000000   0.452832624    0   0   1
O0       0.000000000   0.500000000   0.500301905    0   0   1
O0       0.000000000   0.000000000   0.525931210    0   0   1
Ru1      0.250000000   0.000000000   0.580167156    0   0   1
Ru1      0.000000000   0.500000000   0.569228340    0   0   1
O0       0.250000000   0.690000000   0.576504400    0   0   1
O0       0.250000000   0.310000000   0.578920969    0   0   1
O0       0.000000000   0.000000000   0.617760527    0   0   1
O0       0.500000000   0.000000000   0.379275705    0   0   1
O0       0.500000000   0.500000000   0.402505607    0   0   1
Ru1      0.750000000   0.500000000   0.453734863    0   0   1
Ru1      0.500000000   0.000000000   0.452600944    0   0   1
O0       0.750000000   0.810000000   0.452975386    0   0   1
O0       0.750000000   0.190000000   0.452914739    0   0   1
O0       0.500000000   0.500000000   0.500806659    0   0   1
O0       0.500000000   0.000000000   0.525369517    0   0   1
Ru1      0.750000000   0.000000000   0.573160326    0   0   1
Ru1      0.500000000   0.500000000   0.578330336    0   0   1
O0       0.750000000   0.690000000   0.573123837    0   0   1
O0       0.750000000   0.310000000   0.575213492    0   0   1
O0       0.500000000   0.000000000   0.616022431    0   0   1
H2      -0.000269526   0.602663058   0.377222263
H2       0.499523116   0.629761050   0.382396128
H2       0.147710823   0.024286711   0.367657828
H2       0.647030768   0.026714389   0.366975872
O0       0.500070000   0.529572919   0.649701182    0   1   1
O0       0.499990000   0.338277746   0.678911238    0   1   1
H2       0.499960000   0.398578215   0.713314069    0   1   1
End final coordinates

     General routines

     Parallel routines
     Hubbard U routines

   This run was terminated on:  21:15:56  14Aug2014

   JOB DONE.