     Program PWSCF v.5.0.2 (svn rev. 9656) starts on 24Jan2014 at 15:47:26

     Current dimensions of program PWSCF are:
     Max number of different atomic species (ntypx) = 10
     Max number of k-points (npk) =  40000
     Max angular momentum in pseudopotentials (lmaxx) =  3
     Reading input from RuO2-v-0.90.in

     Subspace diagonalization in iterative solution of the eigenvalue problem:
     a serial algorithm will be used

     bravais-lattice index     =            0
     lattice parameter (alat)  =       8.4545  a.u.
     unit-cell volume          =     389.4450 (a.u.)^3
     number of atoms/cell      =            6
     number of atomic types    =            2
     number of electrons       =        56.00
     number of Kohn-Sham states=           81
     kinetic-energy cutoff     =      40.0000  Ry
     charge density cutoff     =     500.0000  Ry
     convergence threshold     =      1.0E-06
     mixing beta               =       0.3000
     number of iterations used =            8  plain     mixing
     Exchange-correlation      = SLA  PW   PBE  PBE ( 1 4 3 4 0)
     EXX-fraction              =        0.00
     nstep                     =           50

     celldm(1)=   8.454480  celldm(2)=   0.000000  celldm(3)=   0.000000
     celldm(4)=   0.000000  celldm(5)=   0.000000  celldm(6)=   0.000000

     crystal axes: (cart. coord. in units of alat)
               a(1) = (   1.000000   0.000000   0.000000 )
               a(2) = (   0.000000   1.000000   0.000000 )
               a(3) = (   0.000000   0.000000   0.644444 )

     reciprocal axes: (cart. coord. in units 2 pi/alat)
               b(1) = (  1.000000  0.000000  0.000000 )
               b(2) = (  0.000000  1.000000  0.000000 )
               b(3) = (  0.000000  0.000000  1.551724 )

     PseudoPot. # 1 for Ru read from file:
     /home/camp/zhonxu/pseudo/ru_pbe_v1.uspp.F.UPF
     MD5 check sum: df00be1c11b23341d9806d8f1dfa10cf
     Pseudo is Ultrasoft + core correction, Zval = 16.0
     Generated by new atomic code, or converted to UPF format
     Using radial grid of  967 points,  6 beta functions with:
                l(1) =   0
                l(2) =   0
                l(3) =   1
                l(4) =   1
                l(5) =   2
                l(6) =   2
     Q(r) pseudized with  8 coefficients,  rinner =    1.300   1.300   1.300
                                                       1.300   1.300

     PseudoPot. # 2 for O  read from file:
     /home/camp/zhonxu/pseudo/o_pbe_v1.01.uspp.F.UPF
     MD5 check sum: 2bcb18d16ea4b960afae9ec6d52f22d2
     Pseudo is Ultrasoft + core correction, Zval =  6.0
     Generated by new atomic code, or converted to UPF format
     Using radial grid of  737 points,  5 beta functions with:
                l(1) =   0
                l(2) =   0
                l(3) =   1
                l(4) =   1
                l(5) =   2
     Q(r) pseudized with  8 coefficients,  rinner =    0.900   0.900   0.900
                                                       0.900   0.900

     atomic species   valence    mass     pseudopotential
        Ru0           16.00   101.07000     Ru( 1.00)
        O1             6.00    15.99940     O ( 1.00)

     Starting magnetic structure
     atomic species   magnetization
        Ru0          0.000
        O1           0.000

     16 Sym. Ops., with inversion, found ( 8 have fractional translation)

   Cartesian axes

     site n.     atom                  positions (alat units)
         1           Ru0 tau(   1) = (   0.0000000   0.0000000   0.0000000  )
         2           Ru0 tau(   2) = (   0.5000000   0.5000000   0.3222222  )
         3           O1  tau(   3) = (   0.3050000   0.3050000   0.0000000  )
         4           O1  tau(   4) = (  -0.3050000  -0.3050000   0.0000000  )
         5           O1  tau(   5) = (   0.8050000   0.1950000   0.3222222  )
         6           O1  tau(   6) = (   0.1950000   0.8050000   0.3222222  )

     number of k points=    36  Methfessel-Paxton smearing, width (Ry)=  0.0100
                       cart. coord. in units 2pi/alat
        k(    1) = (   0.0000000   0.0000000   0.0000000), wk =   0.0080000
        k(    2) = (   0.0000000   0.0000000   0.3103448), wk =   0.0160000
        k(    3) = (   0.0000000   0.0000000   0.6206897), wk =   0.0160000
        k(    4) = (   0.0000000   0.2000000   0.0000000), wk =   0.0320000
        k(    5) = (   0.0000000   0.2000000   0.3103448), wk =   0.0640000
        k(    6) = (   0.0000000   0.2000000   0.6206897), wk =   0.0640000
        k(    7) = (   0.0000000   0.4000000   0.0000000), wk =   0.0320000
        k(    8) = (   0.0000000   0.4000000   0.3103448), wk =   0.0640000
        k(    9) = (   0.0000000   0.4000000   0.6206897), wk =   0.0640000
        k(   10) = (   0.2000000   0.2000000   0.0000000), wk =   0.0320000
        k(   11) = (   0.2000000   0.2000000   0.3103448), wk =   0.0640000
        k(   12) = (   0.2000000   0.2000000   0.6206897), wk =   0.0640000
        k(   13) = (   0.2000000   0.4000000   0.0000000), wk =   0.0640000
        k(   14) = (   0.2000000   0.4000000   0.3103448), wk =   0.1280000
        k(   15) = (   0.2000000   0.4000000   0.6206897), wk =   0.1280000
        k(   16) = (   0.4000000   0.4000000   0.0000000), wk =   0.0320000
        k(   17) = (   0.4000000   0.4000000   0.3103448), wk =   0.0640000
        k(   18) = (   0.4000000   0.4000000   0.6206897), wk =   0.0640000
        k(   19) = (   0.0000000   0.0000000   0.0000000), wk =   0.0080000
        k(   20) = (   0.0000000   0.0000000   0.3103448), wk =   0.0160000
        k(   21) = (   0.0000000   0.0000000   0.6206897), wk =   0.0160000
        k(   22) = (   0.0000000   0.2000000   0.0000000), wk =   0.0320000
        k(   23) = (   0.0000000   0.2000000   0.3103448), wk =   0.0640000
        k(   24) = (   0.0000000   0.2000000   0.6206897), wk =   0.0640000
        k(   25) = (   0.0000000   0.4000000   0.0000000), wk =   0.0320000
        k(   26) = (   0.0000000   0.4000000   0.3103448), wk =   0.0640000
        k(   27) = (   0.0000000   0.4000000   0.6206897), wk =   0.0640000
        k(   28) = (   0.2000000   0.2000000   0.0000000), wk =   0.0320000
        k(   29) = (   0.2000000   0.2000000   0.3103448), wk =   0.0640000
        k(   30) = (   0.2000000   0.2000000   0.6206897), wk =   0.0640000
        k(   31) = (   0.2000000   0.4000000   0.0000000), wk =   0.0640000
        k(   32) = (   0.2000000   0.4000000   0.3103448), wk =   0.1280000
        k(   33) = (   0.2000000   0.4000000   0.6206897), wk =   0.1280000
        k(   34) = (   0.4000000   0.4000000   0.0000000), wk =   0.0320000
        k(   35) = (   0.4000000   0.4000000   0.3103448), wk =   0.0640000
        k(   36) = (   0.4000000   0.4000000   0.6206897), wk =   0.0640000

     Largest allocated arrays     est. size (Mb)     dimensions
     Largest temporary arrays     est. size (Mb)     dimensions

     Check: negative/imaginary core charge=   -0.000008    0.000000

     Initial potential from superposition of free atoms
     Check: negative starting charge=(component1):   -0.065109
     Check: negative starting charge=(component2):   -0.065109

     starting charge   53.99996, renormalised to   56.00000

     negative rho (up, down):  0.675E-01 0.675E-01
     Starting wfc are   42 randomized atomic wfcs

     Self-consistent Calculation

     iteration #  1     ecut=    40.00 Ry     beta=0.30
     Davidson diagonalization with overlap
     ethr =  1.00E-02,  avg # of iterations =  5.1

     negative rho (up, down):  0.723E-01 0.723E-01

     total energy              =    -514.87238803 Ry
     Harris-Foulkes estimate   =    -516.33799523 Ry
     estimated scf accuracy    <       3.14893435 Ry

     total magnetization       =    -0.00 Bohr mag/cell
     absolute magnetization    =     0.00 Bohr mag/cell

[...]

     End of self-consistent calculation

 ------ SPIN UP ------------

          k = 0.0000 0.0000 0.0000 (  1651 PWs)   bands (ev):

   -58.6996 -58.6904 -28.9178 -28.9178 -28.6839 -28.6839 -28.5211 -28.4892
    -6.0441  -4.9294  -3.7589  -3.7589   5.5629   5.7594   6.7623   7.4195
     7.4195  10.0212  10.0212  10.6473  11.9316  12.1579  12.1579  12.4948
    12.9371  13.6375  13.6375  13.6538  13.7391  16.7422  17.0071  20.2176
    20.2176  21.2821  21.6794  25.0366  25.0366  28.5182  30.1797  30.3804
    31.8634  32.4465  33.2625  33.2625  35.2256  36.5708  37.1395  37.1395
    38.3402  38.3402  39.6259  42.0997  42.3342  42.3342  43.5727  44.5868
    45.6637  46.5352  47.2507  47.3457  47.3457  47.5490  48.2043  48.2043
    48.5349  49.4862  49.4862  51.0508  52.8929  54.7693  54.9244  54.9244
    54.9606  55.9468  55.9468  56.3493  56.8840  56.8840  57.0308  57.1425
    58.1217

[...]

 ------ SPIN DOWN ----------

[...]

     the Fermi energy is    15.0771 ev

!    total energy              =    -515.51998588 Ry
     Harris-Foulkes estimate   =    -515.51998309 Ry
     estimated scf accuracy    <       0.00000016 Ry

     The total energy is the sum of the following terms:

     one-electron contribution =    -154.80783085 Ry
     hartree contribution      =     112.86495996 Ry
     xc contribution           =     -79.03308861 Ry
     ewald contribution        =    -394.54294426 Ry
     smearing contrib. (-TS)   =      -0.00108211 Ry

[...]

     convergence has been achieved in   9 iterations

     Forces acting on atoms (Ry/au):

     negative rho (up, down):  0.735E-01 0.735E-01
     atom    1 type  1   force =     0.00000000    0.00000000    0.00000000
     atom    2 type  1   force =     0.00000000    0.00000000   -0.00000000
     atom    3 type  2   force =    -0.03818834   -0.03818834    0.00000000
     atom    4 type  2   force =     0.03818834    0.03818834    0.00000000
     atom    5 type  2   force =    -0.03818834    0.03818834   -0.00000000
     atom    6 type  2   force =     0.03818834   -0.03818834   -0.00000000

     Total force =     0.108013     Total SCF correction =     0.000337

     entering subroutine stress ...

     negative rho (up, down):  0.735E-01 0.735E-01
          total   stress  (Ry/bohr**3)                   (kbar)     P=  377.14
   0.00179458   0.00000000   0.00000000        263.99      0.00      0.00
   0.00000000   0.00179458   0.00000000          0.00    263.99      0.00
   0.00000000   0.00000000   0.00410202          0.00      0.00    603.43

     Volume is kept fixed: isostatic pressure set to zero

     BFGS Geometry Optimization

     number of scf cycles    =   1
     number of bfgs steps    =   0

     enthalpy new            =    -515.5199858827 Ry

     new trust radius        =       0.1517858366 bohr
     new conv_thr            =       0.0000010000 Ry

     new unit-cell volume =    389.44504 a.u.^3 (    57.70980 Ang^3 )

CELL_PARAMETERS (alat=  8.45447993)
   0.981129621   0.000000000   0.000000000
   0.000000000   0.981129621   0.000000000
   0.000000000   0.000000000   0.669472449

ATOMIC_POSITIONS (crystal)
Ru0      0.000000000   0.000000000   0.000000000    0   0   0
Ru0      0.500000000   0.500000000   0.500000000    0   0   0
O1       0.300483065   0.300483065   0.000000000    1   1   0
[...]
        k(   27) = (   0.0000000   0.4076933   0.5974854), wk =   0.0640000
        k(   28) = (   0.2038467   0.2038467   0.0000000), wk =   0.0320000
        k(   29) = (   0.2038467   0.2038467   0.2987427), wk =   0.0640000
        k(   30) = (   0.2038467   0.2038467   0.5974854), wk =   0.0640000
        k(   31) = (   0.2038467   0.4076933   0.0000000), wk =   0.0640000
        k(   32) = (   0.2038467   0.4076933   0.2987427), wk =   0.1280000
        k(   33) = (   0.2038467   0.4076933   0.5974854), wk =   0.1280000
        k(   34) = (   0.4076933   0.4076933   0.0000000), wk =   0.0320000
        k(   35) = (   0.4076933   0.4076933   0.2987427), wk =   0.0640000
        k(   36) = (   0.4076933   0.4076933   0.5974854), wk =   0.0640000

     Check: negative/imaginary core charge=   -0.000008    0.000000
     Check: negative starting charge=(component1):   -0.130289

[...]

     enthalpy old            =    -515.5199858827 Ry
     enthalpy new            =    -515.5427521103 Ry

     CASE: enthalpy_new < enthalpy_old

[...]

     Total force =     0.001987     Total SCF correction =     0.000082

[...]

     number of scf cycles    =   5
     number of bfgs steps    =   4

     enthalpy old            =    -515.5471966232 Ry
     enthalpy new            =    -515.5480006825 Ry

     CASE: enthalpy_new < enthalpy_old

     new trust radius        =       0.0053128585 bohr
     new conv_thr            =       0.0000000100 Ry

     new unit-cell volume =    389.44504 a.u.^3 (    57.70980 Ang^3 )

[...]

ATOMIC_POSITIONS (crystal)
Ru0      0.000000000   0.000000000   0.000000000    0   0   0
Ru0      0.500000000   0.500000000   0.500000000    0   0   0
O1       0.306702592   0.306702592   0.000000000    1   1   0
O1      -0.306702592  -0.306702592   0.000000000    1   1   0
O1       0.806702592   0.193297408   0.500000000    1   1   0
O1       0.193297408   0.806702592   0.500000000    1   1   0

     Check: negative starting charge=(component1):   -0.130485
     NEW-OLD atomic charge density approx. for the potential
     NEW k-points:
        k(    1) = (   0.0000000   0.0000000   0.0000000), wk =   0.0080000
        k(    2) = (   0.0000000   0.0000000   0.2922637), wk =   0.0160000
        k(    3) = (   0.0000000   0.0000000   0.5845274), wk =   0.0160000
        k(    4) = (   0.0000000   0.2060937   0.0000000), wk =   0.0320000
        k(    5) = (   0.0000000   0.2060937   0.2922637), wk =   0.0640000
        k(    6) = (   0.0000000   0.2060937   0.5845274), wk =   0.0640000
        k(    7) = (   0.0000000   0.4121875   0.0000000), wk =   0.0320000
        k(    8) = (   0.0000000   0.4121875   0.2922637), wk =   0.0640000
        k(    9) = (   0.0000000   0.4121875   0.5845274), wk =   0.0640000
        k(   10) = (   0.2060937   0.2060937   0.0000000), wk =   0.0320000
        k(   11) = (   0.2060937   0.2060937   0.2922637), wk =   0.0640000
        k(   12) = (   0.2060937   0.2060937   0.5845274), wk =   0.0640000
        k(   13) = (   0.2060937   0.4121875   0.0000000), wk =   0.0640000
        k(   14) = (   0.2060937   0.4121875   0.2922637), wk =   0.1280000
        k(   15) = (   0.2060937   0.4121875   0.5845274), wk =   0.1280000
        k(   16) = (   0.4121875   0.4121875   0.0000000), wk =   0.0320000
        k(   17) = (   0.4121875   0.4121875   0.2922637), wk =   0.0640000
        k(   18) = (   0.4121875   0.4121875   0.5845274), wk =   0.0640000
        k(   19) = (   0.0000000   0.0000000   0.0000000), wk =   0.0080000
        k(   20) = (   0.0000000   0.0000000   0.2922637), wk =   0.0160000
        k(   21) = (   0.0000000   0.0000000   0.5845274), wk =   0.0160000
        k(   22) = (   0.0000000   0.2060937   0.0000000), wk =   0.0320000
        k(   23) = (   0.0000000   0.2060937   0.2922637), wk =   0.0640000
        k(   24) = (   0.0000000   0.2060937   0.5845274), wk =   0.0640000
        k(   25) = (   0.0000000   0.4121875   0.0000000), wk =   0.0320000
        k(   26) = (   0.0000000   0.4121875   0.2922637), wk =   0.0640000
        k(   27) = (   0.0000000   0.4121875   0.5845274), wk =   0.0640000
        k(   28) = (   0.2060937   0.2060937   0.0000000), wk =   0.0320000
        k(   29) = (   0.2060937   0.2060937   0.2922637), wk =   0.0640000
        k(   30) = (   0.2060937   0.2060937   0.5845274), wk =   0.0640000
        k(   31) = (   0.2060937   0.4121875   0.0000000), wk =   0.0640000
        k(   32) = (   0.2060937   0.4121875   0.2922637), wk =   0.1280000
        k(   33) = (   0.2060937   0.4121875   0.5845274), wk =   0.1280000
        k(   34) = (   0.4121875   0.4121875   0.0000000), wk =   0.0320000
        k(   35) = (   0.4121875   0.4121875   0.2922637), wk =   0.0640000
        k(   36) = (   0.4121875   0.4121875   0.5845274), wk =   0.0640000

     Check: negative/imaginary core charge=   -0.000008    0.000000
     Check: negative starting charge=(component1):   -0.130479

[...]

     Threshold (ethr) on eigenvalues was too large:
     Diagonalizing with lowered threshold

     Davidson diagonalization with overlap
     ethr =  5.76E-09,  avg # of iterations =  2.7

[...]

     Total force =     0.000129     Total SCF correction =     0.000096
     SCF correction compared to forces is large: reduce conv_thr to get better values

[...]

     Volume is kept fixed: isostatic pressure set to zero

     bfgs converged in   6 scf cycles and   5 bfgs steps
     (criteria: energy < 0.10E-03, force < 0.10E-02, cell < 0.50E+00)

     End of BFGS Geometry Optimization

     Final enthalpy =    -515.5480147421 Ry
Begin final coordinates
     new unit-cell volume =    389.44504 a.u.^3 (    57.70980 Ang^3 )

CELL_PARAMETERS (alat=  8.45447993)
   0.970432181   0.000000000   0.000000000
   0.000000000   0.970432181   0.000000000
   0.000000000   0.000000000   0.684313494

ATOMIC_POSITIONS (crystal)
Ru0      0.000000000   0.000000000   0.000000000    0   0   0
Ru0      0.500000000   0.500000000   0.500000000    0   0   0
O1       0.306702592   0.306702592   0.000000000    1   1   0
O1      -0.306702592  -0.306702592   0.000000000    1   1   0
O1       0.806702592   0.193297408   0.500000000    1   1   0
O1       0.193297408   0.806702592   0.500000000    1   1   0
End final coordinates

     A final scf calculation at the relaxed structure.
     The G-vectors are recalculated for the final unit cell
     Results may differ from those at the preceding step.

     bravais-lattice index     =            0
     lattice parameter (alat)  =       8.4545  a.u.
     unit-cell volume          =     389.4450 (a.u.)^3
     number of atoms/cell      =            6
     number of atomic types    =            2
     number of electrons       =        56.00
     number of Kohn-Sham states=           81
     kinetic-energy cutoff     =      40.0000  Ry
     charge density cutoff     =     500.0000  Ry
     convergence threshold     =      1.0E-08
     mixing beta               =       0.3000
     number of iterations used =            8  plain     mixing
     Exchange-correlation      = SLA  PW   PBE  PBE ( 1 4 3 4 0)
     EXX-fraction              =        0.00

     celldm(1)=   8.454480  celldm(2)=   0.000000  celldm(3)=   0.000000
     celldm(4)=   0.000000  celldm(5)=   0.000000  celldm(6)=   0.000000

     crystal axes: (cart. coord. in units of alat)
               a(1) = (   0.970432   0.000000   0.000000 )
               a(2) = (   0.000000   0.970432   0.000000 )
               a(3) = (   0.000000   0.000000   0.684313 )

     reciprocal axes: (cart. coord. in units 2 pi/alat)
               b(1) = (  1.030469  0.000000  0.000000 )
               b(2) = (  0.000000  1.030469  0.000000 )
               b(3) = (  0.000000  0.000000  1.461319 )

     PseudoPot. # 1 for Ru read from file:
     /home/camp/zhonxu/pseudo/ru_pbe_v1.uspp.F.UPF
     MD5 check sum: df00be1c11b23341d9806d8f1dfa10cf
     Pseudo is Ultrasoft + core correction, Zval = 16.0
     Generated by new atomic code, or converted to UPF format
     Using radial grid of  967 points,  6 beta functions with:
                l(1) =   0
                l(2) =   0
                l(3) =   1
                l(4) =   1
                l(5) =   2
                l(6) =   2
     Q(r) pseudized with  8 coefficients,  rinner =    1.300   1.300   1.300
                                                       1.300   1.300

     PseudoPot. # 2 for O  read from file:
     /home/camp/zhonxu/pseudo/o_pbe_v1.01.uspp.F.UPF
     MD5 check sum: 2bcb18d16ea4b960afae9ec6d52f22d2
     Pseudo is Ultrasoft + core correction, Zval =  6.0
     Generated by new atomic code, or converted to UPF format
     Using radial grid of  737 points,  5 beta functions with:
                l(1) =   0
                l(2) =   0
                l(3) =   1
                l(4) =   1
                l(5) =   2
     Q(r) pseudized with  8 coefficients,  rinner =    0.900   0.900   0.900
                                                       0.900   0.900

     atomic species   valence    mass     pseudopotential
        Ru0           16.00   101.07000     Ru( 1.00)
        O1             6.00    15.99940     O ( 1.00)

     Starting magnetic structure
     atomic species   magnetization
        Ru0          0.000
        O1           0.000

     16 Sym. Ops., with inversion, found ( 8 have fractional translation)

   Cartesian axes

     site n.     atom                  positions (alat units)
         1           Ru0 tau(   1) = (   0.0000000   0.0000000   0.0000000  )
         2           Ru0 tau(   2) = (   0.4852161   0.4852161   0.3421567  )
         3           O1  tau(   3) = (   0.2976341   0.2976341   0.0000000  )
         4           O1  tau(   4) = (  -0.2976341  -0.2976341   0.0000000  )
         5           O1  tau(   5) = (   0.7828502   0.1875820   0.3421567  )
         6           O1  tau(   6) = (   0.1875820   0.7828502   0.3421567  )

     number of k points=    36  Methfessel-Paxton smearing, width (Ry)=  0.0100
                       cart. coord. in units 2pi/alat
        k(    1) = (   0.0000000   0.0000000   0.0000000), wk =   0.0080000
        k(    2) = (   0.0000000   0.0000000   0.2922637), wk =   0.0160000
        k(    3) = (   0.0000000   0.0000000   0.5845274), wk =   0.0160000
        k(    4) = (   0.0000000   0.2060937   0.0000000), wk =   0.0320000
        k(    5) = (   0.0000000   0.2060937   0.2922637), wk =   0.0640000
        k(    6) = (   0.0000000   0.2060937   0.5845274), wk =   0.0640000
        k(    7) = (   0.0000000   0.4121875   0.0000000), wk =   0.0320000
        k(    8) = (   0.0000000   0.4121875   0.2922637), wk =   0.0640000
        k(    9) = (   0.0000000   0.4121875   0.5845274), wk =   0.0640000
        k(   10) = (   0.2060937   0.2060937   0.0000000), wk =   0.0320000
        k(   11) = (   0.2060937   0.2060937   0.2922637), wk =   0.0640000
        k(   12) = (   0.2060937   0.2060937   0.5845274), wk =   0.0640000
        k(   13) = (   0.2060937   0.4121875   0.0000000), wk =   0.0640000
        k(   14) = (   0.2060937   0.4121875   0.2922637), wk =   0.1280000
        k(   15) = (   0.2060937   0.4121875   0.5845274), wk =   0.1280000
        k(   16) = (   0.4121875   0.4121875   0.0000000), wk =   0.0320000
        k(   17) = (   0.4121875   0.4121875   0.2922637), wk =   0.0640000
        k(   18) = (   0.4121875   0.4121875   0.5845274), wk =   0.0640000
        k(   19) = (   0.0000000   0.0000000   0.0000000), wk =   0.0080000
        k(   20) = (   0.0000000   0.0000000   0.2922637), wk =   0.0160000
        k(   21) = (   0.0000000   0.0000000   0.5845274), wk =   0.0160000
        k(   22) = (   0.0000000   0.2060937   0.0000000), wk =   0.0320000
        k(   23) = (   0.0000000   0.2060937   0.2922637), wk =   0.0640000
        k(   24) = (   0.0000000   0.2060937   0.5845274), wk =   0.0640000
        k(   25) = (   0.0000000   0.4121875   0.0000000), wk =   0.0320000
        k(   26) = (   0.0000000   0.4121875   0.2922637), wk =   0.0640000
        k(   27) = (   0.0000000   0.4121875   0.5845274), wk =   0.0640000
        k(   28) = (   0.2060937   0.2060937   0.0000000), wk =   0.0320000
        k(   29) = (   0.2060937   0.2060937   0.2922637), wk =   0.0640000
        k(   30) = (   0.2060937   0.2060937   0.5845274), wk =   0.0640000
        k(   31) = (   0.2060937   0.4121875   0.0000000), wk =   0.0640000
        k(   32) = (   0.2060937   0.4121875   0.2922637), wk =   0.1280000
        k(   33) = (   0.2060937   0.4121875   0.5845274), wk =   0.1280000
        k(   34) = (   0.4121875   0.4121875   0.0000000), wk =   0.0320000
        k(   35) = (   0.4121875   0.4121875   0.2922637), wk =   0.0640000
        k(   36) = (   0.4121875   0.4121875   0.5845274), wk =   0.0640000

     Largest allocated arrays     est. size (Mb)     dimensions
     Largest temporary arrays     est. size (Mb)     dimensions

     Check: negative/imaginary core charge=   -0.000008    0.000000

     Initial potential from superposition of free atoms
     Check: negative starting charge=(component1):   -0.064683
     Check: negative starting charge=(component2):   -0.064683

     starting charge   53.99996, renormalised to   56.00000

     negative rho (up, down):  0.671E-01 0.671E-01
     Starting wfc are   42 randomized atomic wfcs

     Self-consistent Calculation

     iteration #  1     ecut=    40.00 Ry     beta=0.30
     Davidson diagonalization with overlap
     c_bands:  1 eigenvalues not converged
     ethr =  1.00E-06,  avg # of iterations = 11.6

[...]

     total energy              =    -515.54841470 Ry
     Harris-Foulkes estimate   =    -515.54841404 Ry
     estimated scf accuracy    <       0.00000008 Ry

[...]

     iteration # 11     ecut=    40.00 Ry     beta=0.30
     Davidson diagonalization with overlap
     ethr =  1.42E-10,  avg # of iterations =  1.0

     negative rho (up, down):  0.728E-01 0.728E-01

     End of self-consistent calculation

 ------ SPIN UP ------------

[...]

 ------ SPIN DOWN ----------

[...]

          k = 0.4122 0.4122 0.5845 (  1664 PWs)   bands (ev):

   -58.6885 -58.6882 -29.0124 -29.0099 -28.7768 -28.7731 -28.5216 -28.5212
    -4.6468  -4.5096  -4.3468  -4.2117   6.9120   7.1360   7.1814   7.4122
     8.2815   8.6261   9.9411   9.9829  10.5203  10.8023  11.8104  12.0267
    13.9345  14.2044  14.2890  14.6112  15.0288  15.6350  17.9170  18.4242
    19.3205  19.7943  25.0660  25.3675  27.1802  28.0910  28.6059  29.3762
    30.1305  30.5631  32.7553  32.9648  34.7460  35.2276  37.2152  37.6799
    38.9990  39.4373  39.8403  40.9983  43.3168  43.4936  44.0890  44.5662
    45.3933  45.7912  47.4240  48.0945  48.4233  48.8799  49.3409  50.0676
    50.1186  50.2816  51.2803  51.7178  52.0383  52.9307  53.6225  54.0077
    54.3189  54.7037  54.8337  56.2811  56.5340  57.2756  57.7774  57.8223
    59.9461

     the Fermi energy is    14.9718 ev

!    total energy              =    -515.54841538 Ry
     Harris-Foulkes estimate   =    -515.54841471 Ry
     estimated scf accuracy    <          3.2E-10 Ry

     The total energy is the sum of the following terms:

     one-electron contribution =    -148.10652575 Ry
     hartree contribution      =     109.53301092 Ry
     xc contribution           =     -78.93790421 Ry
     ewald contribution        =    -398.03621421 Ry
     smearing contrib. (-TS)   =      -0.00078213 Ry

     total magnetization       =     0.00 Bohr mag/cell
     absolute magnetization    =     0.00 Bohr mag/cell

     convergence has been achieved in  11 iterations

     Forces acting on atoms (Ry/au):

     negative rho (up, down):  0.728E-01 0.728E-01
     atom    1 type  1   force =     0.00000000    0.00000000   -0.00000000
     atom    2 type  1   force =     0.00000000    0.00000000    0.00000000
     atom    3 type  2   force =     0.00004947    0.00004947    0.00000000
     atom    4 type  2   force =    -0.00004947   -0.00004947    0.00000000
     atom    5 type  2   force =     0.00004947   -0.00004947    0.00000000
     atom    6 type  2   force =    -0.00004947    0.00004947   -0.00000000

     Total force =     0.000140     Total SCF correction =     0.000016
     SCF correction compared to forces is large: reduce conv_thr to get better values

     entering subroutine stress ...

     negative rho (up, down):  0.728E-01 0.728E-01
          total   stress  (Ry/bohr**3)                   (kbar)     P=  311.75
   0.00211030   0.00000000   0.00000000        310.44      0.00      0.00
   0.00000000   0.00211030   0.00000000          0.00    310.44      0.00
   0.00000000   0.00000000   0.00213702          0.00      0.00    314.37

     General routines

     Parallel routines

   This run was terminated on:  16: 8:24  24Jan2014

   JOB DONE.