     Program PWSCF v.5.0.2 (svn rev. 9656) starts on 31May2014 at 10: 1:34

     Current dimensions of program PWSCF are:
     Max number of different atomic species (ntypx) = 10
     Max number of k-points (npk) =  40000
     Max angular momentum in pseudopotentials (lmaxx) =  3
     Reading input from pwscf.in
Warning: card &CELL ignored
Warning: card / ignored

     Subspace diagonalization in iterative solution of the eigenvalue problem:
     a serial algorithm will be used

     bravais-lattice index     =            0
     lattice parameter (alat)  =      12.2076  a.u.
     unit-cell volume          =    7496.5096 (a.u.)^3
     number of atoms/cell      =           33
     number of atomic types    =            3
     number of electrons       =       253.00
     number of Kohn-Sham states=          379
     kinetic-energy cutoff     =      40.0000  Ry
     charge density cutoff     =     500.0000  Ry
     convergence threshold     =      1.0E-06
     mixing beta               =       0.7000
     number of iterations used =            8  plain     mixing
     Exchange-correlation      = SLA  PW   PBE  PBE ( 1 4 3 4 0)
     EXX-fraction              =        0.00
     nstep                     =           50

     celldm(1)=  12.207631  celldm(2)=   0.000000  celldm(3)=   0.000000
     celldm(4)=   0.000000  celldm(5)=   0.000000  celldm(6)=   0.000000

     crystal axes: (cart. coord. in units of alat)
               a(1) = (   1.000000   0.000000   0.000000 )
               a(2) = (   0.000000   1.004836   0.000000 )
               a(3) = (   0.000000   0.000000   4.100811 )

     reciprocal axes: (cart. coord. in units 2 pi/alat)
               b(1) = (  1.000000  0.000000  0.000000 )
               b(2) = (  0.000000  0.995187  0.000000 )
               b(3) = (  0.000000  0.000000  0.243854 )

     PseudoPot. # 1 for O  read from file:
     /home/camp/zhonxu/pseudo/o_pbe_v1.01.uspp.F.UPF
     MD5 check sum: 2bcb18d16ea4b960afae9ec6d52f22d2
     Pseudo is Ultrasoft + core correction, Zval =  6.0
     Generated by new atomic code, or converted to UPF format
     Using radial grid of  737 points,  5 beta functions with:
                l(1) =   0
                l(2) =   0
                l(3) =   1
                l(4) =   1
                l(5) =   2
     Q(r) pseudized with  8 coefficients,  rinner =    0.900   0.900   0.900
                                                       0.900   0.900

     PseudoPot. # 2 for Pt read from file:
     /home/camp/zhonxu/pseudo/pt_pbe_v1.uspp.F.UPF
     MD5 check sum: 4c71d6ad5ef119f1eb26a4d0b7884226
     Pseudo is Ultrasoft + core correction, Zval = 16.0
     Generated by new atomic code, or converted to UPF format
     Using radial grid of  985 points,  6 beta functions with:
                l(1) =   0
                l(2) =   0
                l(3) =   1
                l(4) =   1
                l(5) =   2
                l(6) =   2
     Q(r) pseudized with  8 coefficients,  rinner =    1.300   1.300   1.300
                                                       1.300   1.300

     PseudoPot. # 3 for H  read from file:
     /home/camp/zhonxu/pseudo/h_pbe_v1.uspp.F.UPF
     MD5 check sum: 3408e3ff4ec8b0a4e358431e7e038a48
     Pseudo is Ultrasoft, Zval =  1.0
     Generated by new atomic code, or converted to UPF format
     Using radial grid of  615 points,  2 beta functions with:
                l(1) =   0
                l(2) =   0
     Q(r) pseudized with  8 coefficients,  rinner =    0.700

     atomic species   valence    mass     pseudopotential
        O0             6.00    15.99940     O ( 1.00)
        Pt1           16.00   195.08000     Pt( 1.00)
        H2             1.00     1.00794     H ( 1.00)

     Simplified LDA+U calculation (l_max = 2) with parameters (eV):
     atomic species    L          U    alpha       J0     beta
        Pt1            2     7.5000   0.0000   0.0000   0.0000

     No symmetry found

   Cartesian axes

     site n.     atom                  positions (alat units)
         1           O0  tau(   1) = (   0.0000000   0.0000000   1.5494095  )
         2           O0  tau(   2) = (   0.0000000   0.5024180   1.6475009  )
         3           Pt1 tau(   3) = (   0.2500000   0.5024180   1.8504910  )
         4           Pt1 tau(   4) = (   0.0000000   0.0000000   1.8570523  )
         5           O0  tau(   5) = (   0.2500000   0.8139171   1.8187098  )
         6           O0  tau(   6) = (   0.2500000   0.1909188   1.8864142  )
         7           O0  tau(   7) = (   0.0000000   0.5024180   2.0369959  )
         8           O0  tau(   8) = (   0.0000000   0.0000000   2.1720357  )
         9           Pt1 tau(   9) = (   0.2500000   0.0000000   2.3614521  )
        10           Pt1 tau(  10) = (   0.0000000   0.5024180   2.3598528  )
        11           O0  tau(  11) = (   0.2500000   0.6933368   2.3268823  )
        12           O0  tau(  12) = (   0.2500000   0.3114991   2.4033624  )
        13           O0  tau(  13) = (   0.0000000   0.0000000   2.5482851  )
        14           O0  tau(  14) = (   0.5000000   0.0000000   1.5485073  )
        15           O0  tau(  15) = (   0.5000000   0.5024180   1.6434821  )
        16           Pt1 tau(  16) = (   0.7500000   0.5024180   1.8504910  )
        17           Pt1 tau(  17) = (   0.5000000   0.0000000   1.8561092  )
        18           O0  tau(  18) = (   0.7500000   0.8139171   1.8187918  )
        19           O0  tau(  19) = (   0.7500000   0.1909188   1.8863321  )
        20           O0  tau(  20) = (   0.5000000   0.5024180   2.0428191  )
        21           O0  tau(  21) = (   0.5000000   0.0000000   2.1708874  )
        22           Pt1 tau(  22) = (   0.7500000   0.0000000   2.3614521  )
        23           Pt1 tau(  23) = (   0.5000000   0.5024180   2.3628874  )
        24           O0  tau(  24) = (   0.7500000   0.6933368   2.3268003  )
        25           O0  tau(  25) = (   0.7500000   0.3114991   2.4034034  )
        26           O0  tau(  26) = (   0.5000000   0.0000000   2.5460296  )
        27           H2  tau(  27) = (   0.0000200   0.6429744   1.5830361  )
        28           H2  tau(  28) = (   0.5000600   0.6435874   1.5806577  )
        29           H2  tau(  29) = (   0.1433700   0.0339333   1.5082373  )
        30           H2  tau(  30) = (   0.6430800   0.0354607   1.5076632  )
        31           O0  tau(  31) = (   0.5001100   0.5589199   2.6603192  )
        32           O0  tau(  32) = (   0.4999400   0.3687346   2.7792838  )
        33           H2  tau(  33) = (   0.4999900   0.4305019   2.9192445  )

     number of k points=    10  Methfessel-Paxton smearing, width (Ry)=  0.0100
                       cart. coord. in units 2pi/alat
        k(    1) = (   0.0000000   0.0000000   0.0000000), wk =   0.1250000
        k(    2) = (   0.0000000   0.2487968   0.0000000), wk =   0.2500000
        k(    3) = (   0.0000000  -0.4975937   0.0000000), wk =   0.1250000
        k(    4) = (   0.2500000   0.0000000   0.0000000), wk =   0.2500000
        k(    5) = (   0.2500000   0.2487968   0.0000000), wk =   0.2500000
        k(    6) = (   0.2500000  -0.4975937   0.0000000), wk =   0.2500000
        k(    7) = (  -0.5000000   0.0000000   0.0000000), wk =   0.1250000
        k(    8) = (  -0.5000000   0.2487968   0.0000000), wk =   0.2500000
        k(    9) = (  -0.5000000  -0.4975937   0.0000000), wk =   0.1250000
        k(   10) = (  -0.2500000   0.2487968   0.0000000), wk =   0.2500000

     Largest allocated arrays     est. size (Mb)     dimensions
     Largest temporary arrays     est. size (Mb)     dimensions

     Check: negative/imaginary core charge=   -0.000003    0.000000

     Initial potential from superposition of free atoms
     Check: negative starting charge=   -1.535323

     starting charge  248.99983, renormalised to  253.00000

     negative rho (up, down):  0.156E+01 0.000E+00
     Number of +U iterations with fixed ns =  0
     Starting occupations:
 --- enter write_ns ---
 LDA+U parameters:
U( 2)     =  7.50000000
alpha( 2) =  0.00000000
atom    3   Tr[ns(na)] =   8.00000
    eigenvalues:
  0.800  0.800  0.800  0.800  0.800
    eigenvectors:
  1.000  0.000  0.000  0.000  0.000
  0.000  1.000  0.000  0.000  0.000
  0.000  0.000  1.000  0.000  0.000
  0.000  0.000  0.000  1.000  0.000
  0.000  0.000  0.000  0.000  1.000
    occupations:
  0.800  0.000  0.000  0.000  0.000
  0.000  0.800  0.000  0.000  0.000
  0.000  0.000  0.800  0.000  0.000
  0.000  0.000  0.000  0.800  0.000
  0.000  0.000  0.000  0.000  0.800
atom    4   Tr[ns(na)] =   8.00000
    eigenvalues:
  0.800  0.800  0.800  0.800  0.800
    eigenvectors:
  1.000  0.000  0.000  0.000  0.000
  0.000  1.000  0.000  0.000  0.000
  0.000  0.000  1.000  0.000  0.000
  0.000  0.000  0.000  1.000  0.000
  0.000  0.000  0.000  0.000  1.000
    occupations:
  0.800  0.000  0.000  0.000  0.000
  0.000  0.800  0.000  0.000  0.000
  0.000  0.000  0.800  0.000  0.000
  0.000  0.000  0.000  0.800  0.000
  0.000  0.000  0.000  0.000  0.800
atom    9   Tr[ns(na)] =   8.00000
    eigenvalues:
  0.800  0.800  0.800  0.800  0.800
    eigenvectors:
  1.000  0.000  0.000  0.000  0.000
  0.000  1.000  0.000  0.000  0.000
  0.000  0.000  1.000  0.000  0.000
  0.000  0.000  0.000  1.000  0.000
  0.000  0.000  0.000  0.000  1.000
    occupations:
  0.800  0.000  0.000  0.000  0.000
  0.000  0.800  0.000  0.000  0.000
  0.000  0.000  0.800  0.000  0.000
  0.000  0.000  0.000  0.800  0.000
  0.000  0.000  0.000  0.000  0.800
atom   10   Tr[ns(na)] =   8.00000
    eigenvalues:
  0.800  0.800  0.800  0.800  0.800
    eigenvectors:
  1.000  0.000  0.000  0.000  0.000
  0.000  1.000  0.000  0.000  0.000
  0.000  0.000  1.000  0.000  0.000
  0.000  0.000  0.000  1.000  0.000
  0.000  0.000  0.000  0.000  1.000
    occupations:
  0.800  0.000  0.000  0.000  0.000
  0.000  0.800  0.000  0.000  0.000
  0.000  0.000  0.800  0.000  0.000
  0.000  0.000  0.000  0.800  0.000
  0.000  0.000  0.000  0.000  0.800
atom   16   Tr[ns(na)] =   8.00000
    eigenvalues:
  0.800  0.800  0.800  0.800  0.800
    eigenvectors:
  1.000  0.000  0.000  0.000  0.000
  0.000  1.000  0.000  0.000  0.000
  0.000  0.000  1.000  0.000  0.000
  0.000  0.000  0.000  1.000  0.000
  0.000  0.000  0.000  0.000  1.000
    occupations:
  0.800  0.000  0.000  0.000  0.000
  0.000  0.800  0.000  0.000  0.000
  0.000  0.000  0.800  0.000  0.000
  0.000  0.000  0.000  0.800  0.000
  0.000  0.000  0.000  0.000  0.800
atom   17   Tr[ns(na)] =   8.00000
    eigenvalues:
  0.800  0.800  0.800  0.800  0.800
    eigenvectors:
  1.000  0.000  0.000  0.000  0.000
  0.000  1.000  0.000  0.000  0.000
  0.000  0.000  1.000  0.000  0.000
  0.000  0.000  0.000  1.000  0.000
  0.000  0.000  0.000  0.000  1.000
    occupations:
  0.800  0.000  0.000  0.000  0.000
  0.000  0.800  0.000  0.000  0.000
  0.000  0.000  0.800  0.000  0.000
  0.000  0.000  0.000  0.800  0.000
  0.000  0.000  0.000  0.000  0.800
atom   22   Tr[ns(na)] =   8.00000
    eigenvalues:
  0.800  0.800  0.800  0.800  0.800
    eigenvectors:
  1.000  0.000  0.000  0.000  0.000
  0.000  1.000  0.000  0.000  0.000
  0.000  0.000  1.000  0.000  0.000
[...]
  0.000 -0.041  0.000 -0.000  0.672
atom   16   Tr[ns(na)] =   8.81037
    eigenvalues:
  0.708  0.726  0.989  0.990  0.993
    eigenvectors:
  0.056  0.113  0.824  0.003  0.004
  0.703  0.296  0.000  0.000  0.000
  0.001  0.005  0.011  0.000  0.983
  0.239  0.586  0.161  0.000  0.013
  0.000  0.000  0.003  0.997  0.000
    occupations:
  0.943 -0.008  0.008 -0.100 -0.000
 -0.008  0.713 -0.001 -0.006 -0.002
  0.008 -0.001  0.991  0.019  0.000
 -0.100 -0.006  0.019  0.768 -0.001
 -0.000 -0.002  0.000 -0.001  0.990
atom   17   Tr[ns(na)] =   8.80469
    eigenvalues:
  0.707  0.730  0.987  0.989  0.990
    eigenvectors:
  0.000  0.984  0.010  0.004  0.002
  0.014  0.000  0.076  0.840  0.070
  0.000  0.006  0.734  0.013  0.248
  0.000  0.010  0.179  0.132  0.679
  0.986  0.000  0.001  0.012  0.001
    occupations:
  0.734 -0.004 -0.019  0.025 -0.001
 -0.004  0.985  0.000  0.000  0.033
 -0.019  0.000  0.986  0.003 -0.000
  0.025  0.000  0.003  0.987  0.000
 -0.001  0.033 -0.000  0.000  0.711
atom   22   Tr[ns(na)] =   8.79932
    eigenvalues:
  0.728  0.738  0.967  0.977  0.989
    eigenvectors:
  0.000  0.132  0.001  0.017  0.850
  0.998  0.001  0.000  0.000  0.000
  0.000  0.013  0.030  0.948  0.009
  0.001  0.853  0.000  0.005  0.141
  0.000  0.000  0.969  0.031  0.000
    occupations:
  0.956  0.002 -0.009 -0.085  0.000
  0.002  0.728  0.000 -0.000 -0.003
 -0.009  0.000  0.973 -0.026 -0.002
 -0.085 -0.000 -0.026  0.775  0.000
  0.000 -0.003 -0.002  0.000  0.968
atom   23   Tr[ns(na)] =   8.80130
    eigenvalues:
  0.721  0.724  0.977  0.988  0.990
    eigenvectors:
  0.000  0.956  0.000  0.034  0.010
  0.023  0.000  0.977  0.000  0.000
  0.000  0.034  0.000  0.966  0.000
  0.000  0.009  0.000  0.000  0.990
  0.977  0.000  0.023  0.000  0.000
    occupations:
  0.736  0.000  0.048  0.025 -0.000
  0.000  0.971  0.000 -0.000 -0.038
  0.048  0.000  0.979 -0.005 -0.000
  0.025 -0.000 -0.005  0.987 -0.000
 -0.000 -0.038 -0.000 -0.000  0.727
N of occupied +U levels =  70.5197803
 --- exit write_ns ---

     Threshold (ethr) on eigenvalues was too large:
     Diagonalizing with lowered threshold

     Davidson diagonalization with overlap
     ethr =  1.84E-08,  avg # of iterations =  2.0

[...]

     total energy              =   -2312.15608692 Ry
     Harris-Foulkes estimate   =   -2312.15608692 Ry
     estimated scf accuracy    <       0.00000001 Ry

     iteration # 16     ecut=    40.00 Ry     beta=0.70
     Davidson diagonalization with overlap
     ethr =  3.99E-12,  avg # of iterations =  1.0

     negative rho (up, down):  0.157E+01 0.000E+00

     End of self-consistent calculation
 --- enter write_ns ---
 LDA+U parameters:
U( 2)     =  7.50000000
alpha( 2) =  0.00000000
atom    3   Tr[ns(na)] =   8.81049
    eigenvalues:
  0.708  0.726  0.989  0.990  0.993
    eigenvectors:
  0.056  0.113  0.822  0.005  0.004
  0.704  0.296  0.000  0.000  0.000
  0.001  0.005  0.011  0.000  0.983
  0.239  0.587  0.161  0.001  0.013
  0.000  0.000  0.006  0.994  0.000
    occupations:
  0.943  0.008  0.008 -0.100  0.001
  0.008  0.713  0.001  0.006 -0.002
  0.008  0.001  0.991  0.019 -0.000
 -0.100  0.006  0.019  0.768  0.001
  0.001 -0.002 -0.000  0.001  0.990
atom    4   Tr[ns(na)] =   8.80568
    eigenvalues:
  0.707  0.730  0.987  0.989  0.990
    eigenvectors:
  0.000  0.984  0.011  0.003  0.002
  0.014  0.000  0.051  0.849  0.087
  0.000  0.006  0.767  0.004  0.223
  0.000  0.010  0.171  0.132  0.687
  0.986  0.000  0.001  0.012  0.001
    occupations:
  0.734 -0.004 -0.019  0.026 -0.001
 -0.004  0.985  0.000  0.000  0.033
 -0.019  0.000  0.986  0.003 -0.000
  0.026  0.000  0.003  0.987  0.000
 -0.001  0.033 -0.000  0.000  0.711
atom    9   Tr[ns(na)] =   8.79881
    eigenvalues:
  0.728  0.738  0.967  0.977  0.989
    eigenvectors:
  0.000  0.132  0.000  0.016  0.851
  0.997  0.003  0.000  0.000  0.000
  0.000  0.013  0.026  0.952  0.009
  0.003  0.852  0.000  0.005  0.141
  0.000  0.000  0.974  0.026  0.000
    occupations:
  0.956 -0.001 -0.009 -0.085 -0.000
 -0.001  0.728  0.000  0.001 -0.003
 -0.009  0.000  0.973 -0.026  0.001
 -0.085  0.001 -0.026  0.774 -0.000
 -0.000 -0.003  0.001 -0.000  0.968
atom   10   Tr[ns(na)] =   8.88953
    eigenvalues:
  0.667  0.811  0.987  0.988  0.991
    eigenvectors:
  0.000  0.975  0.000  0.017  0.009
  0.017  0.000  0.983  0.000  0.000
  0.000  0.001  0.000  0.186  0.813
  0.000  0.025  0.000  0.798  0.178
  0.983  0.000  0.017  0.000  0.000
    occupations:
  0.816 -0.000 -0.006  0.027  0.000
 -0.000  0.982 -0.000  0.000 -0.041
 -0.006 -0.000  0.990 -0.000  0.000
  0.027  0.000 -0.000  0.984 -0.000
  0.000 -0.041  0.000 -0.000  0.673
atom   16   Tr[ns(na)] =   8.81049
    eigenvalues:
  0.708  0.726  0.989  0.990  0.993
    eigenvectors:
  0.056  0.112  0.824  0.003  0.004
  0.703  0.297  0.000  0.000  0.000
  0.001  0.005  0.011  0.000  0.983
  0.239  0.586  0.161  0.000  0.013
  0.000  0.000  0.003  0.997  0.000
    occupations:
  0.943 -0.008  0.008 -0.100 -0.000
 -0.008  0.713 -0.001 -0.006 -0.002
  0.008 -0.001  0.991  0.019  0.000
 -0.100 -0.006  0.019  0.768 -0.001
 -0.000 -0.002  0.000 -0.001  0.990
atom   17   Tr[ns(na)] =   8.80451
    eigenvalues:
  0.707  0.730  0.987  0.989  0.990
    eigenvectors:
  0.000  0.984  0.010  0.004  0.002
  0.014  0.000  0.074  0.841  0.071
  0.000  0.006  0.742  0.012  0.240
  0.000  0.010  0.173  0.131  0.686
  0.986  0.000  0.001  0.012  0.001
    occupations:
  0.734 -0.004 -0.019  0.025 -0.001
 -0.004  0.985  0.000  0.000  0.033
 -0.019  0.000  0.986  0.003 -0.000
  0.025  0.000  0.003  0.987  0.000
 -0.001  0.033 -0.000  0.000  0.711
atom   22   Tr[ns(na)] =   8.79880
    eigenvalues:
  0.728  0.738  0.967  0.977  0.989
    eigenvectors:
  0.000  0.132  0.000  0.017  0.850
  0.998  0.001  0.000  0.000  0.000
  0.000  0.013  0.029  0.948  0.009
  0.001  0.853  0.000  0.005  0.141
  0.000  0.000  0.970  0.030  0.000
    occupations:
  0.956  0.002 -0.009 -0.085  0.000
  0.002  0.728  0.000 -0.000 -0.003
 -0.009  0.000  0.973 -0.026 -0.002
 -0.085 -0.000 -0.026  0.775  0.000
  0.000 -0.003 -0.002  0.000  0.968
atom   23   Tr[ns(na)] =   8.80135
    eigenvalues:
  0.721  0.724  0.977  0.988  0.990
    eigenvectors:
  0.000  0.956  0.000  0.034  0.009
  0.023  0.000  0.977  0.000  0.000
  0.000  0.034  0.000  0.965  0.000
  0.000  0.009  0.000  0.000  0.990
  0.977  0.000  0.023  0.000  0.000
    occupations:
  0.736  0.000  0.048  0.025 -0.000
  0.000  0.971  0.000 -0.000 -0.038
  0.048  0.000  0.979 -0.005 -0.000
  0.025 -0.000 -0.005  0.987 -0.000
 -0.000 -0.038 -0.000 -0.000  0.727
N of occupied +U levels =  70.5196651
 --- exit write_ns ---

[...]

          k = 0.2500-0.4976 0.0000 ( 32026 PWs)   bands (ev):

[...]

          k =-0.2500 0.2488 0.0000 ( 32025 PWs)   bands (ev):

   -54.3468 -54.3367 -54.2976 -54.2879 -54.2461 -54.2450 -54.2207 -54.1808
   -54.1597 -54.1554 -54.1155 -54.1117 -54.0857 -54.0127 -54.0087 -53.9784
   -53.9736 -53.8868 -53.8832 -53.8503 -53.8451 -53.3908 -53.1701 -52.7204
   -24.0930 -21.5196 -21.2652 -20.6520 -20.5258 -20.3079 -20.2740 -20.1480
   -20.0261 -19.9015 -19.7930 -19.7326 -19.6580 -19.5715 -19.4518 -19.4030
   -19.3455 -18.7967 -18.5285 -17.5731 -10.8363 -10.7079 -10.6547 -10.4757
   -10.2354 -10.1494 -10.0701  -9.8747  -9.8236  -9.4660  -9.3221  -9.1845
    -9.1299  -8.9926  -8.8338  -8.7875  -8.7319  -8.5928  -8.4825  -8.3953
    -8.2316  -8.0035  -7.9730  -7.9155  -7.8605  -7.6622  -7.5459  -7.4906
    -7.4662  -7.2608  -7.2264  -7.1535  -7.0933  -7.0419  -6.9377  -6.8048
    -6.7404  -6.6716  -6.6032  -6.4671  -6.3919  -6.2296  -6.0416  -5.8079
    -5.7172  -5.4661  -5.2674  -5.1447  -5.1020  -5.0387  -4.9208  -4.8258
    -4.7907  -4.6367  -4.5202  -4.3496  -4.2721  -4.0558  -3.8672  -3.8066
    -3.7317  -3.6066  -3.5340  -3.4336  -3.2948  -3.2446  -3.1660  -3.0370
    -2.9017  -2.8735  -2.5904  -2.5355  -2.3420  -2.2093  -2.1055  -2.0206
    -1.9597  -1.9113  -1.8589  -1.7446  -1.4811  -1.3784  -1.3024  -1.1882
    -0.5368  -0.3098  -0.1939   0.2545   0.4249   0.7861   0.9942   1.2694
     1.3645   1.4967   1.5822   1.8532   1.9737   2.0469   2.3157   3.3863
     3.8149   4.0287   4.5487   4.8842   5.0741   5.5241   5.7585   5.7980
     5.9649   6.1235   6.2534   6.4252   6.5034   6.7478   6.8680   6.9602
     7.0313   7.1668   7.3050   7.4655   7.6018   7.6791   7.7825   7.8788
     7.9649   8.0975   8.1948   8.2637   8.4259   8.5053   8.6402   8.7105
     8.8090   8.8396   8.9993   9.0506   9.1508   9.2413   9.3677   9.4349
     9.5266   9.5917   9.7060   9.7539   9.8841   9.9674  10.0068  10.1389
    10.2067  10.3026  10.3935  10.4659  10.5610  10.6481  10.7166  10.8059
    10.9368  11.0226  11.0720  11.1988  11.3154  11.3442  11.4630  11.5364
    11.6141  11.7353  11.7930  11.8611  11.9503  12.0500  12.0944  12.1641
    12.2150  12.3123  12.3862  12.4393  12.5843  12.6501  12.7342  12.8364
    12.8858  12.9389  13.0091  13.1005  13.2432  13.3131  13.3694  13.4795
    13.5601  13.6583  13.6801  13.7349  13.8298  13.8714  13.9793  14.0423
    14.1174  14.1727  14.2884  14.4328  14.4403  14.5182  14.6218  14.7294
    14.7802  14.8608  14.9661  14.9895  15.0542  15.1626  15.2013  15.2913
    15.3206  15.3520  15.3708  15.4249  15.5186  15.5727  15.6428  15.6602
    15.7831  15.8599  15.8900  15.9477  15.9957  16.0865  16.1456  16.1787
    16.2460  16.2877  16.3417  16.4304  16.5294  16.6116  16.7409  16.7760
    16.8290  16.9313  16.9805  17.0309  17.0582  17.1574  17.1983  17.2441
    17.3345  17.3585  17.4014  17.4635  17.4900  17.6034  17.6177  17.7171
    17.7607  17.9009  17.9646  18.0081  18.0354  18.0852  18.1413  18.1605
    18.1668  18.1846  18.2037  18.2448  18.2819  18.3083  18.3646  18.3992
    18.4206  18.5130  18.5662  18.6147  18.7176  18.7593  18.8748  18.9632
    18.9902  19.0473  19.1233  19.1365  19.2376  19.3103  19.3268  19.3943
    19.4604  19.5824  19.6343  19.6620  19.7245  19.8556  19.9832  20.0378
    20.1057  20.1696  20.2077  20.2515  20.2916  20.3364  20.3815  20.4465
    20.5457  20.5891  20.6397  20.7051  20.7351  20.8178  20.8307  20.8716
    20.9470  20.9939  21.0442  21.1305  21.1624  21.2397  21.3219  21.3579
    21.4144  21.5030  21.5257  21.5725  21.6256  21.6946  21.7739  21.8825
    21.9499  21.9994  22.0704  22.1444  22.1854  22.2568  22.3141  22.3302
    22.4558  22.4956  22.5188

     the Fermi energy is    -1.2935 ev

!    total energy              =   -2312.15608691 Ry
     Harris-Foulkes estimate   =   -2312.15608692 Ry
     estimated scf accuracy    <          2.4E-09 Ry

     The total energy is the sum of the following terms:

     one-electron contribution =  -24121.13130769 Ry
     hartree contribution      =   12113.39722141 Ry
     xc contribution           =    -580.08756193 Ry
     ewald contribution        =   10273.73056674 Ry
     Hubbard energy            =       1.93511794 Ry
     smearing contrib. (-TS)   =      -0.00012340 Ry

     convergence has been achieved in  16 iterations

     Forces acting on atoms (Ry/au):

     negative rho (up, down):  0.157E+01 0.000E+00
     atom    1 type  1   force =    -0.00695037   -0.00296727    0.00008584
     atom    2 type  1   force =     0.00010216    0.00472716    0.00093799
     atom    3 type  2   force =     0.00639841    0.00512822    0.00003435
     atom    4 type  2   force =     0.00920246    0.00353601    0.00017746
     atom    5 type  1   force =     0.00112292   -0.00311921    0.00051106
     atom    6 type  1   force =     0.00017060   -0.00295213    0.00029516
     atom    7 type  1   force =     0.00011077   -0.00047615   -0.00069852
     atom    8 type  1   force =    -0.00392734   -0.00009124    0.00017146
     atom    9 type  2   force =     0.00671790    0.00364020    0.00019953
     atom   10 type  2   force =    -0.00007008   -0.02261916    0.00044896
     atom   11 type  1   force =    -0.00058259    0.00284075   -0.00063683
     atom   12 type  1   force =    -0.01153186    0.00962063   -0.00044060
     atom   13 type  1   force =    -0.00108773   -0.00758048   -0.00003710
     atom   14 type  1   force =    -0.00720584   -0.00269621    0.00001444
     atom   15 type  1   force =     0.00011453    0.00105822    0.00034879
     atom   16 type  2   force =    -0.00727108    0.00524306    0.00003657
     atom   17 type  2   force =     0.00911911    0.00513252    0.00009950
     atom   18 type  1   force =     0.00140409   -0.00314181    0.00051041
     atom   19 type  1   force =     0.00011865   -0.00290147    0.00030690
     atom   20 type  1   force =    -0.00003109   -0.00377592   -0.00025652
     atom   21 type  1   force =    -0.00380410    0.00253205    0.00014903
     atom   22 type  2   force =    -0.00326595    0.00356973    0.00019913
     atom   23 type  2   force =     0.00012105    0.00919953    0.00013474
     atom   24 type  1   force =     0.00067049    0.00290591   -0.00064003
     atom   25 type  1   force =     0.01159448    0.00964965   -0.00043731
     atom   26 type  1   force =    -0.00101433   -0.01654731   -0.00001851
     atom   27 type  3   force =     0.00000226   -0.00054534    0.00012785
     atom   28 type  3   force =    -0.00000063   -0.00017544    0.00008620
     atom   29 type  3   force =    -0.00013118   -0.00006360   -0.00044086
     atom   30 type  3   force =    -0.00007418   -0.00011834   -0.00035108
     atom   31 type  1   force =     0.00002734    0.00059345   -0.00052574
     atom   32 type  1   force =    -0.00007066   -0.00006851   -0.00025416
     atom   33 type  3   force =     0.00002180    0.00046252   -0.00013810

     Total force =     0.002347     Total SCF correction =     0.000137

     entering subroutine stress ...

     negative rho (up, down):  0.157E+01 0.000E+00
          total   stress  (Ry/bohr**3)                   (kbar)     P=  -21.68
  -0.00023506   0.00000012   0.00000355        -34.58      0.02      0.52
   0.00000012  -0.00015229  -0.00000797          0.02    -22.40     -1.17
   0.00000355  -0.00000797  -0.00005469          0.52     -1.17     -8.04

     bfgs converged in  10 scf cycles and   9 bfgs steps
     (criteria: energy < 0.10E-03, force < 0.10E-02)

     End of BFGS Geometry Optimization

     Final energy   =   -2312.1560869139 Ry
Begin final coordinates

ATOMIC_POSITIONS (crystal)
O0       0.000000000   0.000000000   0.377553688    0   0   1
O0       0.000000000   0.500000000   0.401563585    0   0   1
Pt1      0.250000000   0.500000000   0.451130791    0   0   1
Pt1      0.000000000   0.000000000   0.452686577    0   0   1
O0       0.250000000   0.810000000   0.442152583    0   0   1
O0       0.250000000   0.190000000   0.461241426    0   0   1
O0       0.000000000   0.500000000   0.496423050    0   0   1
O0       0.000000000   0.000000000   0.529773603    0   0   1
Pt1      0.250000000   0.000000000   0.575738793    0   0   1
Pt1      0.000000000   0.500000000   0.575757464    0   0   1
O0       0.250000000   0.690000000   0.565843067    0   0   1
O0       0.250000000   0.310000000   0.587176892    0   0   1
O0       0.000000000   0.000000000   0.621469654    0   0   1
O0       0.500000000   0.000000000   0.377422810    0   0   1
O0       0.500000000   0.500000000   0.400986000    0   0   1
Pt1      0.750000000   0.500000000   0.451134437    0   0   1
Pt1      0.500000000   0.000000000   0.452538508    0   0   1
O0       0.750000000   0.810000000   0.442162231    0   0   1
O0       0.750000000   0.190000000   0.461226362    0   0   1
O0       0.500000000   0.500000000   0.498064987    0   0   1
O0       0.500000000   0.000000000   0.529556209    0   0   1
Pt1      0.750000000   0.000000000   0.575735897    0   0   1
Pt1      0.500000000   0.500000000   0.575871831    0   0   1
O0       0.750000000   0.690000000   0.565819598    0   0   1
O0       0.750000000   0.310000000   0.587163409    0   0   1
O0       0.500000000   0.000000000   0.621028024    0   0   1
H2       0.000021568   0.641776714   0.386821188
H2       0.500051849   0.641741625   0.386371686
H2       0.144092122   0.034053435   0.368153829
H2       0.643710498   0.035354242   0.367981126
O0       0.500226217   0.556807517   0.649051951
O0       0.499795688   0.368926580   0.677343393
H2       0.500027060   0.427985690   0.711785356
End final coordinates

     General routines

     Parallel routines
     Hubbard U routines

   This run was terminated on:  23:41: 7  31May2014

   JOB DONE.
Running PBS batch system epilogue script
Job id: 373322.audhumbla.fysik.dtu.dk
Username: zhonxu
Groupname: campgst
Jobname: PtO2/Eads-2-layers/OOH-U-7.5
Sessionid: 19108
Queuename: verylong
Accounting:
This job has allocated the following 16 nodes:
a073 a073 a073 a073 a073 a073 a073 a073 a042 a042 a042 a042 a042 a042 a042 a042
Finished epilogue job 373322.audhumbla.fysik.dtu.dk for zhonxu