     Program PWSCF v.5.0.2 (svn rev. 9656) starts on  1Jun2014 at  3:26:35

     Current dimensions of program PWSCF are:
     Max number of different atomic species (ntypx) = 10
     Max number of k-points (npk) =  40000
     Max angular momentum in pseudopotentials (lmaxx) =  3
     Reading input from pwscf.in
Warning: card &CELL ignored
Warning: card / ignored

     Subspace diagonalization in iterative solution of the eigenvalue problem:
     a serial algorithm will be used

     bravais-lattice index     =            0
     lattice parameter (alat)  =      11.7541  a.u.
     unit-cell volume          =    7139.8207 (a.u.)^3
     number of atoms/cell      =           33
     number of atomic types    =            3
     number of electrons       =       245.00
     number of Kohn-Sham states=          367
     kinetic-energy cutoff     =      40.0000  Ry
     charge density cutoff     =     500.0000  Ry
     convergence threshold     =      1.0E-06
     mixing beta               =       0.7000
     number of iterations used =            8  plain     mixing
     Exchange-correlation      = SLA  PW   PBE  PBE ( 1 4 3 4 0)
     EXX-fraction              =        0.00
     nstep                     =           50

     celldm(1)=  11.754097  celldm(2)=   0.000000  celldm(3)=   0.000000
     celldm(4)=   0.000000  celldm(5)=   0.000000  celldm(6)=   0.000000

     crystal axes: (cart. coord. in units of alat)
               a(1) = (   1.000000   0.000000   0.000000 )
               a(2) = (   0.000000   1.034513   0.000000 )
               a(3) = (   0.000000   0.000000   4.249947 )

     reciprocal axes: (cart. coord. in units 2 pi/alat)
               b(1) = (  1.000000  0.000000  0.000000 )
               b(2) = (  0.000000  0.966638  0.000000 )
               b(3) = (  0.000000  0.000000  0.235297 )

     PseudoPot. # 1 for O  read from file:
     /home/camp/zhonxu/pseudo/o_pbe_v1.01.uspp.F.UPF
     MD5 check sum: 2bcb18d16ea4b960afae9ec6d52f22d2
     Pseudo is Ultrasoft + core correction, Zval =  6.0
     Generated by new atomic code, or converted to UPF format
     Using radial grid of  737 points,  5 beta functions with:
                l(1) =   0
                l(2) =   0
                l(3) =   1
                l(4) =   1
                l(5) =   2
     Q(r) pseudized with  8 coefficients,  rinner =    0.900   0.900   0.900
                                                       0.900   0.900

     PseudoPot. # 2 for Rh read from file:
     /home/camp/zhonxu/pseudo/rh_pbe_v1.uspp.F.UPF
     MD5 check sum: 37b626987ad0dd8ec6bf4cc9ef289918
     Pseudo is Ultrasoft + core correction, Zval = 15.0
     Generated by new atomic code, or converted to UPF format
     Using radial grid of  969 points,  7 beta functions with:
                l(1) =   0
                l(2) =   0
                l(3) =   1
                l(4) =   1
                l(5) =   2
                l(6) =   2
                l(7) =   2
     Q(r) pseudized with  6 coefficients,  rinner =    1.050   1.050   1.050
                                                       1.050   1.050

     PseudoPot. # 3 for H  read from file:
     /home/camp/zhonxu/pseudo/h_pbe_v1.uspp.F.UPF
     MD5 check sum: 3408e3ff4ec8b0a4e358431e7e038a48
     Pseudo is Ultrasoft, Zval =  1.0
     Generated by new atomic code, or converted to UPF format
     Using radial grid of  615 points,  2 beta functions with:
                l(1) =   0
                l(2) =   0
     Q(r) pseudized with  8 coefficients,  rinner =    0.700

     atomic species   valence    mass     pseudopotential
        O0             6.00    15.99940     O ( 1.00)
        Rh1           15.00   102.90550     Rh( 1.00)
        H2             1.00     1.00794     H ( 1.00)

     Simplified LDA+U calculation (l_max = 2) with parameters (eV):
     atomic species    L          U    alpha       J0     beta
        Rh1            2     4.5000   0.0000   0.0000   0.0000

     No symmetry found

   Cartesian axes

     site n.     atom                  positions (alat units)
         1           O0  tau(   1) = (   0.0000000   0.0000000   1.6055876  )
         2           O0  tau(   2) = (   0.0000000   0.5172566   1.7058013  )
         3           Rh1 tau(   3) = (   0.2500000   0.5172566   1.9245886  )
         4           Rh1 tau(   4) = (   0.0000000   0.0000000   1.9225486  )
         5           O0  tau(   5) = (   0.2500000   0.8379556   1.9216561  )
         6           O0  tau(   6) = (   0.2500000   0.1965575   1.9210611  )
         7           O0  tau(   7) = (   0.0000000   0.5172566   2.1183012  )
         8           O0  tau(   8) = (   0.0000000   0.0000000   2.2433346  )
         9           Rh1 tau(   9) = (   0.2500000   0.0000000   2.4442296  )
        10           Rh1 tau(  10) = (   0.0000000   0.5172566   2.4248924  )
        11           O0  tau(  11) = (   0.2500000   0.7138141   2.4423597  )
        12           O0  tau(  12) = (   0.2500000   0.3206991   2.4526445  )
        13           O0  tau(  13) = (   0.0000000   0.0000000   2.6373472  )
        14           O0  tau(  14) = (   0.5000000   0.0000000   1.6058426  )
        15           O0  tau(  15) = (   0.5000000   0.5172566   1.7065663  )
        16           Rh1 tau(  16) = (   0.7500000   0.5172566   1.9245461  )
        17           Rh1 tau(  17) = (   0.5000000   0.0000000   1.9225486  )
        18           O0  tau(  18) = (   0.7500000   0.8379556   1.9215286  )
        19           O0  tau(  19) = (   0.7500000   0.1965575   1.9212311  )
        20           O0  tau(  20) = (   0.5000000   0.5172566   2.1254411  )
        21           O0  tau(  21) = (   0.5000000   0.0000000   2.2428246  )
        22           Rh1 tau(  22) = (   0.7500000   0.0000000   2.4442296  )
        23           Rh1 tau(  23) = (   0.5000000   0.5172566   2.4566820  )
        24           O0  tau(  24) = (   0.7500000   0.7138141   2.4423172  )
        25           O0  tau(  25) = (   0.7500000   0.3206991   2.4526445  )
        26           O0  tau(  26) = (   0.5000000   0.0000000   2.6350523  )
        27           H2  tau(  27) = (   0.0000500   0.6607849   1.6355072  )
        28           H2  tau(  28) = (   0.4999200   0.6608884   1.6361872  )
        29           H2  tau(  29) = (   0.1477700   0.0372011   1.5603681  )
        30           H2  tau(  30) = (   0.6484400   0.0346148   1.5604531  )
        31           O0  tau(  31) = (   0.4997300   0.5556577   2.7651007  )
        32           O0  tau(  32) = (   0.5003300   0.3573415   2.8834192  )
        33           H2  tau(  33) = (   0.4999300   0.4160398   3.0312324  )

     number of k points=    10  Methfessel-Paxton smearing, width (Ry)=  0.0100
                       cart. coord. in units 2pi/alat
        k(    1) = (   0.0000000   0.0000000   0.0000000), wk =   0.1250000
        k(    2) = (   0.0000000   0.2416596   0.0000000), wk =   0.2500000
        k(    3) = (   0.0000000  -0.4833191   0.0000000), wk =   0.1250000
        k(    4) = (   0.2500000   0.0000000   0.0000000), wk =   0.2500000
        k(    5) = (   0.2500000   0.2416596   0.0000000), wk =   0.2500000
        k(    6) = (   0.2500000  -0.4833191   0.0000000), wk =   0.2500000
        k(    7) = (  -0.5000000   0.0000000   0.0000000), wk =   0.1250000
        k(    8) = (  -0.5000000   0.2416596   0.0000000), wk =   0.2500000
        k(    9) = (  -0.5000000  -0.4833191   0.0000000), wk =   0.1250000
        k(   10) = (  -0.2500000   0.2416596   0.0000000), wk =   0.2500000

     Largest allocated arrays     est. size (Mb)     dimensions
     Largest temporary arrays     est. size (Mb)     dimensions

     Check: negative/imaginary core charge=   -0.000003    0.000000

     Initial potential from superposition of free atoms
     Check: negative starting charge=   -0.646062

     starting charge  240.99914, renormalised to  245.00000

     negative rho (up, down):  0.657E+00 0.000E+00
     Number of +U iterations with fixed ns =  0
     Starting occupations:
 --- enter write_ns ---
 LDA+U parameters:
U( 2)     =  4.50000000
alpha( 2) =  0.00000000
atom    3   Tr[ns(na)] =   7.00000
    eigenvalues:
  0.700  0.700  0.700  0.700  0.700
    eigenvectors:
  1.000  0.000  0.000  0.000  0.000
  0.000  1.000  0.000  0.000  0.000
  0.000  0.000  1.000  0.000  0.000
  0.000  0.000  0.000  1.000  0.000
  0.000  0.000  0.000  0.000  1.000
    occupations:
  0.700  0.000  0.000  0.000  0.000
  0.000  0.700  0.000  0.000  0.000
  0.000  0.000  0.700  0.000  0.000
  0.000  0.000  0.000  0.700  0.000
  0.000  0.000  0.000  0.000  0.700
atom    4   Tr[ns(na)] =   7.00000
    eigenvalues:
  0.700  0.700  0.700  0.700  0.700
    eigenvectors:
  1.000  0.000  0.000  0.000  0.000
  0.000  1.000  0.000  0.000  0.000
  0.000  0.000  1.000  0.000  0.000
  0.000  0.000  0.000  1.000  0.000
  0.000  0.000  0.000  0.000  1.000
    occupations:
  0.700  0.000  0.000  0.000  0.000
  0.000  0.700  0.000  0.000  0.000
  0.000  0.000  0.700  0.000  0.000
  0.000  0.000  0.000  0.700  0.000
  0.000  0.000  0.000  0.000  0.700
atom    9   Tr[ns(na)] =   7.00000
    eigenvalues:
  0.700  0.700  0.700  0.700  0.700
    eigenvectors:
  1.000  0.000  0.000  0.000  0.000
  0.000  1.000  0.000  0.000  0.000
  0.000  0.000  1.000  0.000  0.000
  0.000  0.000  0.000  1.000  0.000
  0.000  0.000  0.000  0.000  1.000
    occupations:
  0.700  0.000  0.000  0.000  0.000
  0.000  0.700  0.000  0.000  0.000
  0.000  0.000  0.700  0.000  0.000
  0.000  0.000  0.000  0.700  0.000
  0.000  0.000  0.000  0.000  0.700
atom   10   Tr[ns(na)] =   7.00000
    eigenvalues:
  0.700  0.700  0.700  0.700  0.700
    eigenvectors:
  1.000  0.000  0.000  0.000  0.000
  0.000  1.000  0.000  0.000  0.000
  0.000  0.000  1.000  0.000  0.000
  0.000  0.000  0.000  1.000  0.000
  0.000  0.000  0.000  0.000  1.000
    occupations:
  0.700  0.000  0.000  0.000  0.000
  0.000  0.700  0.000  0.000  0.000
  0.000  0.000  0.700  0.000  0.000
  0.000  0.000  0.000  0.700  0.000
  0.000  0.000  0.000  0.000  0.700
atom   16   Tr[ns(na)] =   7.00000
    eigenvalues:
  0.700  0.700  0.700  0.700  0.700
    eigenvectors:
  1.000  0.000  0.000  0.000  0.000
  0.000  1.000  0.000  0.000  0.000
  0.000  0.000  1.000  0.000  0.000
  0.000  0.000  0.000  1.000  0.000
  0.000  0.000  0.000  0.000  1.000
    occupations:
  0.700  0.000  0.000  0.000  0.000
  0.000  0.700  0.000  0.000  0.000
  0.000  0.000  0.700  0.000  0.000
  0.000  0.000  0.000  0.700  0.000
  0.000  0.000  0.000  0.000  0.700
atom   17   Tr[ns(na)] =   7.00000
    eigenvalues:
  0.700  0.700  0.700  0.700  0.700
    eigenvectors:
  1.000  0.000  0.000  0.000  0.000
  0.000  1.000  0.000  0.000  0.000
  0.000  0.000  1.000  0.000  0.000
  0.000  0.000  0.000  1.000  0.000
  0.000  0.000  0.000  0.000  1.000
    occupations:
  0.700  0.000  0.000  0.000  0.000
  0.000  0.700  0.000  0.000  0.000
  0.000  0.000  0.700  0.000  0.000
  0.000  0.000  0.000  0.700  0.000
  0.000  0.000  0.000  0.000  0.700
atom   22   Tr[ns(na)] =   7.00000
    eigenvalues:
  0.700  0.700  0.700  0.700  0.700
    eigenvectors:
  1.000  0.000  0.000  0.000  0.000
  0.000  1.000  0.000  0.000  0.000
[...]
  0.035  0.000 -0.000  0.975  0.000
 -0.000 -0.009 -0.000  0.000  0.594
atom   16   Tr[ns(na)] =   8.05734
    eigenvalues:
  0.583  0.604  0.903  0.962  0.976
    eigenvectors:
  0.017  0.184  0.003  0.000  0.796
  0.924  0.076  0.000  0.000  0.000
  0.000  0.000  0.989  0.009  0.003
  0.059  0.740  0.000  0.000  0.201
  0.000  0.000  0.008  0.991  0.000
    occupations:
  0.901  0.006  0.002 -0.150  0.001
  0.006  0.585 -0.000  0.003 -0.006
  0.002 -0.000  0.904 -0.005 -0.005
 -0.150  0.003 -0.005  0.678 -0.000
  0.001 -0.006 -0.005 -0.000  0.961
atom   17   Tr[ns(na)] =   8.06166
    eigenvalues:
  0.599  0.649  0.878  0.926  0.979
    eigenvectors:
  0.001  0.991  0.000  0.000  0.008
  0.000  0.000  0.055  0.945  0.000
  0.000  0.000  0.945  0.055  0.000
  0.000  0.008  0.000  0.000  0.992
  0.999  0.001  0.000  0.000  0.000
    occupations:
  0.652 -0.004 -0.001  0.029  0.001
 -0.004  0.923  0.011  0.001 -0.001
 -0.001  0.011  0.880 -0.001  0.001
  0.029  0.001 -0.001  0.976  0.000
  0.001 -0.001  0.001  0.000  0.599
atom   22   Tr[ns(na)] =   8.05930
    eigenvalues:
  0.637  0.646  0.865  0.902  0.980
    eigenvectors:
  0.000  0.151  0.001  0.000  0.848
  0.999  0.001  0.000  0.000  0.000
  0.000  0.000  0.984  0.016  0.000
  0.001  0.847  0.000  0.000  0.152
  0.000  0.000  0.016  0.984  0.000
    occupations:
  0.929  0.002  0.000 -0.120  0.000
  0.002  0.637  0.001 -0.001 -0.000
  0.000  0.001  0.865 -0.005  0.005
 -0.120 -0.001 -0.005  0.696  0.001
  0.000 -0.000  0.005  0.001  0.902
atom   23   Tr[ns(na)] =   8.06990
    eigenvalues:
  0.599  0.633  0.871  0.955  0.977
    eigenvectors:
  0.000  0.994  0.000  0.003  0.003
  0.001  0.000  0.999  0.000  0.000
  0.000  0.003  0.000  0.996  0.001
  0.000  0.003  0.000  0.001  0.996
  0.999  0.000  0.001  0.000  0.000
    occupations:
  0.635 -0.000  0.017  0.019 -0.000
 -0.000  0.871 -0.001 -0.000 -0.010
  0.017 -0.001  0.954 -0.002  0.000
  0.019 -0.000 -0.002  0.976  0.000
 -0.000 -0.010  0.000  0.000  0.599
N of occupied +U levels =  64.4778708
 --- exit write_ns ---

     Threshold (ethr) on eigenvalues was too large:
     Diagonalizing with lowered threshold

     Davidson diagonalization with overlap
     ethr =  4.37E-08,  avg # of iterations =  2.0

[...]

     total energy              =   -2011.85873907 Ry
     Harris-Foulkes estimate   =   -2011.85873907 Ry
     estimated scf accuracy    <       0.00000005 Ry

     iteration # 17     ecut=    40.00 Ry     beta=0.70
     Davidson diagonalization with overlap
     ethr =  2.01E-11,  avg # of iterations =  1.0

     negative rho (up, down):  0.690E+00 0.000E+00

     End of self-consistent calculation
 --- enter write_ns ---
 LDA+U parameters:
U( 2)     =  4.50000000
alpha( 2) =  0.00000000
atom    3   Tr[ns(na)] =   8.05691
    eigenvalues:
  0.583  0.604  0.903  0.962  0.976
    eigenvectors:
  0.018  0.183  0.003  0.000  0.796
  0.920  0.080  0.000  0.000  0.000
  0.000  0.000  0.983  0.014  0.003
  0.062  0.737  0.000  0.000  0.201
  0.000  0.000  0.014  0.985  0.000
    occupations:
  0.901 -0.006  0.002 -0.150 -0.001
 -0.006  0.585 -0.001 -0.004 -0.006
  0.002 -0.001  0.904 -0.005  0.007
 -0.150 -0.004 -0.005  0.678 -0.000
 -0.001 -0.006  0.007 -0.000  0.961
atom    4   Tr[ns(na)] =   8.06196
    eigenvalues:
  0.598  0.648  0.880  0.925  0.979
    eigenvectors:
  0.001  0.992  0.000  0.000  0.007
  0.000  0.000  0.087  0.913  0.000
  0.000  0.000  0.913  0.087  0.000
  0.000  0.007  0.000  0.000  0.993
  0.999  0.001  0.000  0.000  0.000
    occupations:
  0.651 -0.004 -0.002  0.028  0.001
 -0.004  0.921  0.013  0.001 -0.001
 -0.002  0.013  0.884 -0.000  0.001
  0.028  0.001 -0.000  0.976  0.000
  0.001 -0.001  0.001  0.000  0.598
atom    9   Tr[ns(na)] =   8.05927
    eigenvalues:
  0.637  0.646  0.865  0.902  0.980
    eigenvectors:
  0.002  0.149  0.000  0.000  0.848
  0.982  0.018  0.000  0.000  0.000
  0.000  0.000  0.982  0.017  0.000
  0.016  0.832  0.000  0.000  0.152
  0.000  0.000  0.017  0.982  0.000
    occupations:
  0.929 -0.001  0.000 -0.120 -0.001
 -0.001  0.637  0.000  0.002 -0.000
  0.000  0.000  0.866 -0.005 -0.005
 -0.120  0.002 -0.005  0.696  0.001
 -0.001 -0.000 -0.005  0.001  0.902
atom   10   Tr[ns(na)] =   8.05078
    eigenvalues:
  0.592  0.594  0.927  0.934  0.978
    eigenvectors:
  0.988  0.003  0.000  0.000  0.008
  0.000  0.001  0.001  0.998  0.000
  0.000  0.000  0.998  0.001  0.000
  0.008  0.000  0.000  0.000  0.991
  0.003  0.996  0.000  0.001  0.000
    occupations:
  0.596  0.000  0.008  0.035 -0.000
  0.000  0.933 -0.000  0.000 -0.009
  0.008 -0.000  0.927 -0.000 -0.000
  0.035  0.000 -0.000  0.975  0.000
 -0.000 -0.009 -0.000  0.000  0.594
atom   16   Tr[ns(na)] =   8.05687
    eigenvalues:
  0.583  0.604  0.903  0.962  0.976
    eigenvectors:
  0.017  0.184  0.003  0.000  0.796
  0.924  0.076  0.000  0.000  0.000
  0.000  0.000  0.988  0.009  0.003
  0.059  0.740  0.000  0.000  0.201
  0.000  0.000  0.009  0.991  0.000
    occupations:
  0.901  0.006  0.002 -0.150  0.001
  0.006  0.585 -0.000  0.003 -0.006
  0.002 -0.000  0.904 -0.005 -0.005
 -0.150  0.003 -0.005  0.678 -0.000
  0.001 -0.006 -0.005 -0.000  0.961
atom   17   Tr[ns(na)] =   8.06078
    eigenvalues:
  0.599  0.649  0.877  0.926  0.979
    eigenvectors:
  0.001  0.991  0.000  0.000  0.008
  0.000  0.000  0.055  0.945  0.000
  0.000  0.000  0.945  0.055  0.000
  0.000  0.008  0.000  0.000  0.992
  0.999  0.001  0.000  0.000  0.000
    occupations:
  0.652 -0.004 -0.001  0.029  0.001
 -0.004  0.923  0.011  0.001 -0.001
 -0.001  0.011  0.880 -0.001  0.001
  0.029  0.001 -0.001  0.976  0.000
  0.001 -0.001  0.001  0.000  0.599
atom   22   Tr[ns(na)] =   8.05935
    eigenvalues:
  0.637  0.646  0.865  0.902  0.980
    eigenvectors:
  0.000  0.151  0.001  0.000  0.848
  0.999  0.001  0.000  0.000  0.000
  0.000  0.000  0.984  0.016  0.000
  0.001  0.847  0.000  0.000  0.152
  0.000  0.000  0.016  0.984  0.000
    occupations:
  0.929  0.002  0.000 -0.120  0.000
  0.002  0.637  0.001 -0.001 -0.000
  0.000  0.001  0.865 -0.005  0.005
 -0.120 -0.001 -0.005  0.696  0.001
  0.000 -0.000  0.005  0.001  0.902
atom   23   Tr[ns(na)] =   8.07085
    eigenvalues:
  0.599  0.633  0.871  0.955  0.977
    eigenvectors:
  0.000  0.994  0.000  0.003  0.003
  0.001  0.000  0.999  0.000  0.000
  0.000  0.003  0.000  0.996  0.001
  0.000  0.003  0.000  0.001  0.996
  0.999  0.000  0.001  0.000  0.000
    occupations:
  0.635 -0.000  0.017  0.019 -0.000
 -0.000  0.871 -0.001 -0.000 -0.010
  0.017 -0.001  0.954 -0.002  0.000
  0.019 -0.000 -0.002  0.976  0.000
 -0.000 -0.010  0.000  0.000  0.599
N of occupied +U levels =  64.4767771
 --- exit write_ns ---

[...]

          k = 0.2500-0.4833 0.0000 ( 30510 PWs)   bands (ev):

[...]

          k =-0.2500 0.2417 0.0000 ( 30481 PWs)   bands (ev):

   -48.3160 -48.1888 -48.1874 -48.1825 -48.1707 -48.1506 -48.1292 -48.1119
   -48.1088 -48.0974 -48.0771 -48.0024 -47.9949 -47.9743 -47.8489 -47.8441
   -47.8417 -47.8240 -47.8193 -47.7801 -47.7670 -47.7488 -47.7428 -47.7244
   -24.3603 -20.7189 -20.4277 -20.3200 -20.2433 -19.9741 -19.8226 -19.7936
   -19.7474 -19.6243 -19.4969 -19.4822 -19.4572 -19.2919 -19.2350 -19.2216
   -19.0903 -18.4953 -18.3336 -17.6033  -9.4360  -9.3608  -9.3036  -9.1333
    -8.9247  -8.6969  -8.6064  -8.4845  -8.3795  -8.1897  -8.1205  -8.0840
    -8.0313  -7.9281  -7.9177  -7.7438  -7.6277  -7.4872  -7.4287  -7.2316
    -6.9867  -6.8846  -6.8449  -6.7229  -6.6051  -6.5398  -6.4554  -6.3846
    -6.2371  -6.1024  -5.9738  -5.9250  -5.8819  -5.7891  -5.7249  -5.6824
    -5.6354  -5.5286  -5.4424  -5.3540  -5.2984  -5.2264  -5.1264  -4.9768
    -4.8218  -4.6372  -4.4950  -4.4150  -4.3011  -4.2087  -4.0799  -4.0584
    -3.9333  -3.8271  -3.7065  -3.6238  -3.5536  -3.4672  -3.4047  -3.2430
    -3.1356  -3.0068  -2.9477  -2.9032  -2.8306  -2.8064  -2.7137  -2.6928
    -2.6183  -2.5306  -2.4520  -2.3527  -2.0922  -1.8793  -1.7179  -1.6763
    -1.5707  -1.5297  -1.3760  -1.2625  -1.1255  -1.0514  -0.9726  -0.2098
     0.3493   0.4140   0.6242   0.9959   1.2273   1.5272   1.6922   1.9192
     2.0374   2.2107   2.2608   2.3937   2.4606   2.5545   2.8442   3.3024
     3.8820   4.1727   4.4678   5.0021   5.2316   5.5292   5.8850   5.9851
     6.0085   6.2247   6.3396   6.5044   6.6201   6.8967   6.9318   7.2311
     7.4087   7.5147   7.6959   7.8313   7.8753   8.1849   8.2255   8.3099
     8.4044   8.4958   8.6875   8.8050   8.8891   9.0147   9.1377   9.2044
     9.3249   9.3914   9.4869   9.6294   9.7922   9.8511   9.9329   9.9835
    10.0805  10.1848  10.3118  10.3482  10.4662  10.5327  10.6204  10.7026
    10.7787  10.9045  11.0110  11.1262  11.1756  11.2817  11.3105  11.3926
    11.4982  11.5752  11.6792  11.7306  11.7773  11.8158  11.8986  11.9578
    12.0058  12.1519  12.2511  12.3322  12.3982  12.4896  12.5449  12.5746
    12.6417  12.7326  12.8108  12.9372  12.9689  13.0332  13.0872  13.1769
    13.2860  13.4048  13.4418  13.5867  13.6436  13.6933  13.7966  13.8688
    13.9580  14.0103  14.0910  14.1459  14.2505  14.3452  14.4168  14.4297
    14.5222  14.5425  14.6373  14.7207  14.7871  14.8304  14.9980  15.0202
    15.0989  15.1884  15.2694  15.3195  15.4511  15.5094  15.5635  15.6215
    15.6950  15.7655  15.8088  15.8468  15.9427  15.9852  16.0366  16.0733
    16.1382  16.1853  16.3334  16.3853  16.4424  16.4822  16.5342  16.6183
    16.6276  16.7218  16.7808  16.8724  16.9428  17.0562  17.0859  17.1723
    17.2288  17.2596  17.2927  17.4083  17.4529  17.5109  17.5670  17.6090
    17.7164  17.7292  17.7795  17.8800  17.9549  17.9860  18.0850  18.1208
    18.2040  18.2454  18.3540  18.4032  18.5244  18.6188  18.6519  18.6981
    18.8598  18.9212  18.9805  19.0121  19.0564  19.1776  19.2437  19.3119
    19.3682  19.4464  19.4877  19.5790  19.6320  19.6893  19.7724  19.9067
    19.9491  20.0191  20.1168  20.1980  20.2482  20.3334  20.3692  20.4884
    20.6009  20.6814  20.7208  20.7371  20.7771  20.8634  20.9416  20.9964
    21.0886  21.1233  21.1545  21.2084  21.2721  21.3621  21.4262  21.4609
    21.5275  21.5869  21.6733  21.6949  21.7615  21.8193  21.8393  21.9430
    22.0559  22.0861  22.1242  22.2047  22.2877  22.3499  22.4204  22.4526
    22.5371  22.6103  22.6592  22.7151  22.8079  22.8681  22.9229

     the Fermi energy is    -1.4331 ev

!    total energy              =   -2011.85873906 Ry
     Harris-Foulkes estimate   =   -2011.85873907 Ry
     estimated scf accuracy    <          9.5E-09 Ry

     The total energy is the sum of the following terms:

     one-electron contribution =  -23739.29297159 Ry
     hartree contribution      =   11926.69294499 Ry
     xc contribution           =    -380.02903587 Ry
     ewald contribution        =   10179.03803602 Ry
     Hubbard energy            =       1.73321156 Ry
     smearing contrib. (-TS)   =      -0.00092418 Ry

     convergence has been achieved in  17 iterations

     Forces acting on atoms (Ry/au):

     negative rho (up, down):  0.690E+00 0.000E+00
     atom    1 type  1   force =    -0.00712633   -0.01235117    0.00002116
     atom    2 type  1   force =     0.00016499    0.00403619   -0.00032065
     atom    3 type  2   force =     0.03099427    0.00496608   -0.00015722
     atom    4 type  2   force =     0.00799894    0.00810344    0.00005342
     atom    5 type  1   force =    -0.00362455   -0.03145648    0.00007024
     atom    6 type  1   force =     0.00252000    0.02969230    0.00020493
     atom    7 type  1   force =    -0.00028535   -0.00449441    0.00009780
     atom    8 type  1   force =    -0.00278516    0.00113731   -0.00026967
     atom    9 type  2   force =     0.00450501    0.00070767   -0.00010928
     atom   10 type  2   force =    -0.00018074    0.00061615   -0.00035289
     atom   11 type  1   force =    -0.01040194    0.02069289    0.00012551
     atom   12 type  1   force =    -0.00391445   -0.01498589    0.00020208
     atom   13 type  1   force =    -0.00066585   -0.00277598   -0.00009184
     atom   14 type  1   force =    -0.00579790   -0.01207768    0.00037782
     atom   15 type  1   force =     0.00008710    0.00391293   -0.00021619
     atom   16 type  2   force =    -0.03103328    0.00507937   -0.00014006
     atom   17 type  2   force =     0.00768449    0.00881960   -0.00012308
     atom   18 type  1   force =    -0.00128808   -0.03220827    0.00006669
     atom   19 type  1   force =     0.00478984    0.02910610    0.00021062
     atom   20 type  1   force =    -0.00015602   -0.00605404    0.00047413
     atom   21 type  1   force =    -0.00294303    0.00127368   -0.00037259
     atom   22 type  2   force =    -0.00195378    0.00067219   -0.00013034
     atom   23 type  2   force =    -0.00048734    0.00223483   -0.00026793
     atom   24 type  1   force =     0.00994585    0.02046950    0.00012545
     atom   25 type  1   force =     0.00504323   -0.01513143    0.00026307
     atom   26 type  1   force =    -0.00091760   -0.01039810    0.00039762
     atom   27 type  3   force =     0.00000445    0.00025159    0.00025989
     atom   28 type  3   force =     0.00000617    0.00019557    0.00035286
     atom   29 type  3   force =    -0.00003629    0.00006368    0.00016699
     atom   30 type  3   force =    -0.00026994    0.00001966    0.00004881
     atom   31 type  1   force =    -0.00019172   -0.00018356    0.00013646
     atom   32 type  1   force =     0.00033399    0.00015361   -0.00044472
     atom   33 type  3   force =    -0.00001894   -0.00008734   -0.00065908

     Total force =     0.001642     Total SCF correction =     0.000363
     SCF correction compared to forces is large: reduce conv_thr to get better values

     entering subroutine stress ...

     negative rho (up, down):  0.690E+00 0.000E+00
          total   stress  (Ry/bohr**3)                   (kbar)     P=  -17.18
  -0.00011883   0.00000549   0.00000410        -17.48      0.81      0.60
   0.00000549  -0.00014458   0.00000421          0.81    -21.27      0.62
   0.00000410   0.00000421  -0.00008700          0.60      0.62    -12.80

     bfgs converged in   9 scf cycles and   8 bfgs steps
     (criteria: energy < 0.10E-03, force < 0.10E-02)

     End of BFGS Geometry Optimization

     Final energy   =   -2011.8587390617 Ry
Begin final coordinates

ATOMIC_POSITIONS (crystal)
O0       0.000000000   0.000000000   0.378051888    0   0   1
O0       0.000000000   0.500000000   0.401849994    0   0   1
Rh1      0.250000000   0.500000000   0.453007683    0   0   1
Rh1      0.000000000   0.000000000   0.452422086    0   0   1
O0       0.250000000   0.810000000   0.452357771    0   0   1
O0       0.250000000   0.190000000   0.452063194    0   0   1
O0       0.000000000   0.500000000   0.499197227    0   0   1
O0       0.000000000   0.000000000   0.527774239    0   0   1
Rh1      0.250000000   0.000000000   0.574827887    0   0   1
Rh1      0.000000000   0.500000000   0.570755149    0   0   1
O0       0.250000000   0.690000000   0.574235194    0   0   1
O0       0.250000000   0.310000000   0.576587884    0   0   1
O0       0.000000000   0.000000000   0.620385265    0   0   1
O0       0.500000000   0.000000000   0.377942448    0   0   1
O0       0.500000000   0.500000000   0.401972645    0   0   1
Rh1      0.750000000   0.500000000   0.452998459    0   0   1
Rh1      0.500000000   0.000000000   0.452229533    0   0   1
O0       0.750000000   0.810000000   0.452322226    0   0   1
O0       0.750000000   0.190000000   0.452097137    0   0   1
O0       0.500000000   0.500000000   0.500384654    0   0   1
O0       0.500000000   0.000000000   0.527625519    0   0   1
Rh1      0.750000000   0.000000000   0.574825266    0   0   1
Rh1      0.500000000   0.500000000   0.577689889    0   0   1
O0       0.750000000   0.690000000   0.574236144    0   0   1
O0       0.750000000   0.310000000   0.576585646    0   0   1
O0       0.500000000   0.000000000   0.619933077    0   0   1
H2      -0.000098878   0.637716926   0.384990608
H2       0.499790416   0.638037873   0.385213068
H2       0.147732288   0.036163165   0.367385646
H2       0.648570658   0.033740427   0.367362954
O0       0.499358055   0.536092102   0.650514186
O0       0.500786502   0.346335634   0.678094497
H2       0.499930961   0.402030024   0.713010935
End final coordinates

     General routines

     Parallel routines
     Hubbard U routines

   This run was terminated on:  17:17: 3   1Jun2014

   JOB DONE.
Running PBS batch system epilogue script
Job id: 373350.audhumbla.fysik.dtu.dk
Username: zhonxu
Groupname: campgst
Jobname: RhO2/Eads-2-layers/OOH-U-4.5
Sessionid: 6775
Queuename: verylong
Accounting:
This job has allocated the following 16 nodes:
b009 b009 b009 b009 b009 b009 b009 b009 b001 b001 b001 b001 b001 b001 b001 b001
Finished epilogue job 373350.audhumbla.fysik.dtu.dk for zhonxu