     Program PWSCF v.5.0.2 (svn rev. 9656) starts on 16May2014 at  0: 2: 4

     Current dimensions of program PWSCF are:
     Max number of different atomic species (ntypx) = 10
     Max number of k-points (npk) =  40000
     Max angular momentum in pseudopotentials (lmaxx) =  3
     Reading input from pwscf.in
Warning: card &CELL ignored
Warning: card / ignored

     Subspace diagonalization in iterative solution of the eigenvalue problem:
     a serial algorithm will be used

     bravais-lattice index     =            0
     lattice parameter (alat)  =      10.9604  a.u.
     unit-cell volume          =    6350.6732 (a.u.)^3
     number of atoms/cell      =           30
     number of atomic types    =            3
     number of electrons       =       224.00 (up: 120.00, down: 104.00)
     number of Kohn-Sham states=          324
     kinetic-energy cutoff     =      40.0000  Ry
     charge density cutoff     =     500.0000  Ry
     convergence threshold     =      1.0E-06
     mixing beta               =       0.7000
     number of iterations used =            8  plain     mixing
     Exchange-correlation      = SLA  PW   PBE  PBE ( 1 4 3 4 0)
     EXX-fraction              =        0.00
     nstep                     =           50

     celldm(1)=  10.960412  celldm(2)=   0.000000  celldm(3)=   0.000000
     celldm(4)=   0.000000  celldm(5)=   0.000000  celldm(6)=   0.000000

     crystal axes: (cart. coord. in units of alat)
               a(1) = (   1.000000   0.000000   0.000000 )
               a(2) = (   0.000000   1.067975   0.000000 )
               a(3) = (   0.000000   0.000000   4.516251 )

     reciprocal axes: (cart. coord. in units 2 pi/alat)
               b(1) = (  1.000000  0.000000  0.000000 )
               b(2) = (  0.000000  0.936351  0.000000 )
               b(3) = (  0.000000  0.000000  0.221423 )

     PseudoPot. # 1 for O  read from file:
     /home/camp/zhonxu/pseudo/o_pbe_v1.01.uspp.F.UPF
     MD5 check sum: 2bcb18d16ea4b960afae9ec6d52f22d2
     Pseudo is Ultrasoft + core correction, Zval =  6.0
     Generated by new atomic code, or converted to UPF format
     Using radial grid of  737 points,  5 beta functions with:
                l(1) =   0
                l(2) =   0
                l(3) =   1
                l(4) =   1
                l(5) =   2
     Q(r) pseudized with  8 coefficients,  rinner =    0.900   0.900   0.900
                                                       0.900   0.900

     PseudoPot. # 2 for Cr read from file:
     /home/camp/zhonxu/pseudo/cr_pbe_v1.uspp.F.UPF
     MD5 check sum: 68b6f918d1762dccfb11451fe85b0e0e
     Pseudo is Ultrasoft + core correction, Zval = 14.0
     Generated by new atomic code, or converted to UPF format
     Using radial grid of  857 points,  6 beta functions with:
                l(1) =   0
                l(2) =   0
                l(3) =   1
                l(4) =   1
                l(5) =   2
                l(6) =   2
     Q(r) pseudized with  6 coefficients,  rinner =    1.000   1.000   1.000
                                                       1.000   1.000

     PseudoPot. # 3 for H  read from file:
     /home/camp/zhonxu/pseudo/h_pbe_v1.uspp.F.UPF
     MD5 check sum: 3408e3ff4ec8b0a4e358431e7e038a48
     Pseudo is Ultrasoft, Zval =  1.0
     Generated by new atomic code, or converted to UPF format
     Using radial grid of  615 points,  2 beta functions with:
                l(1) =   0
                l(2) =   0
     Q(r) pseudized with  8 coefficients,  rinner =    0.700

     atomic species   valence    mass     pseudopotential
        O0             6.00    15.99940     O ( 1.00)
        Cr1           14.00    51.99600     Cr( 1.00)
        H2             1.00     1.00794     H ( 1.00)

     Starting magnetic structure
     atomic species   magnetization
        O0           0.000
        Cr1          0.600
        H2           0.000

     Simplified LDA+U calculation (l_max = 2) with parameters (eV):
     atomic species    L          U    alpha       J0     beta
        Cr1            2     0.0000   0.0000   0.0000   0.0000

     No symmetry found

   Cartesian axes

     site n.     atom                  positions (alat units)
         1           O0  tau(   1) = (   0.0000000   0.0000000   1.7181625  )
         2           O0  tau(   2) = (   0.0000000   0.5339875   1.8008551  )
         3           Cr1 tau(   3) = (   0.2500000   0.5339875   2.0300096  )
         4           Cr1 tau(   4) = (   0.0000000   0.0000000   2.0413454  )
         5           O0  tau(   5) = (   0.2500000   0.8543801   2.0369195  )
         6           O0  tau(   6) = (   0.2500000   0.2135950   2.0378227  )
         7           O0  tau(   7) = (   0.0000000   0.5339875   2.2471058  )
         8           O0  tau(   8) = (   0.0000000   0.0000000   2.3700833  )
         9           Cr1 tau(   9) = (   0.2500000   0.0000000   2.6079543  )
        10           Cr1 tau(  10) = (   0.0000000   0.5339875   2.5535334  )
        11           O0  tau(  11) = (   0.2500000   0.7475825   2.5983798  )
        12           O0  tau(  12) = (   0.2500000   0.3203925   2.5982895  )
        13           O0  tau(  13) = (   0.0000000   0.0000000   2.7910882  )
        14           O0  tau(  14) = (   0.5000000   0.0000000   1.7181625  )
        15           O0  tau(  15) = (   0.5000000   0.5339875   1.8008551  )
        16           Cr1 tau(  16) = (   0.7500000   0.5339875   2.0300096  )
        17           Cr1 tau(  17) = (   0.5000000   0.0000000   2.0413454  )
        18           O0  tau(  18) = (   0.7500000   0.8543801   2.0369195  )
        19           O0  tau(  19) = (   0.7500000   0.2135950   2.0378227  )
        20           O0  tau(  20) = (   0.5000000   0.5339875   2.2471058  )
        21           O0  tau(  21) = (   0.5000000   0.0000000   2.3700833  )
        22           Cr1 tau(  22) = (   0.7500000   0.0000000   2.6079543  )
        23           Cr1 tau(  23) = (   0.5000000   0.5339875   2.5535334  )
        24           O0  tau(  24) = (   0.7500000   0.7475825   2.5983798  )
        25           O0  tau(  25) = (   0.7500000   0.3203925   2.5982895  )
        26           O0  tau(  26) = (   0.5000000   0.0000000   2.7910882  )
        27           H2  tau(  27) = (  -0.0006900   0.6851274   1.7196980  )
        28           H2  tau(  28) = (   0.4993100   0.6851274   1.7196980  )
        29           H2  tau(  29) = (   0.1573400   0.0316548   1.6594512  )
        30           H2  tau(  30) = (   0.6573500   0.0316548   1.6594512  )

     number of k points=    20  Methfessel-Paxton smearing, width (Ry)=  0.0100
                       cart. coord. in units 2pi/alat
        k(    1) = (   0.0000000   0.0000000   0.0000000), wk =   0.0625000
        k(    2) = (   0.0000000   0.2340879   0.0000000), wk =   0.1250000
        k(    3) = (   0.0000000  -0.4681757   0.0000000), wk =   0.0625000
        k(    4) = (   0.2500000   0.0000000   0.0000000), wk =   0.1250000
        k(    5) = (   0.2500000   0.2340879   0.0000000), wk =   0.1250000
        k(    6) = (   0.2500000  -0.4681757   0.0000000), wk =   0.1250000
        k(    7) = (  -0.5000000   0.0000000   0.0000000), wk =   0.0625000
        k(    8) = (  -0.5000000   0.2340879   0.0000000), wk =   0.1250000
        k(    9) = (  -0.5000000  -0.4681757   0.0000000), wk =   0.0625000
        k(   10) = (  -0.2500000   0.2340879   0.0000000), wk =   0.1250000
        k(   11) = (   0.0000000   0.0000000   0.0000000), wk =   0.0625000
        k(   12) = (   0.0000000   0.2340879   0.0000000), wk =   0.1250000
        k(   13) = (   0.0000000  -0.4681757   0.0000000), wk =   0.0625000
        k(   14) = (   0.2500000   0.0000000   0.0000000), wk =   0.1250000
        k(   15) = (   0.2500000   0.2340879   0.0000000), wk =   0.1250000
        k(   16) = (   0.2500000  -0.4681757   0.0000000), wk =   0.1250000
        k(   17) = (  -0.5000000   0.0000000   0.0000000), wk =   0.0625000
        k(   18) = (  -0.5000000   0.2340879   0.0000000), wk =   0.1250000
        k(   19) = (  -0.5000000  -0.4681757   0.0000000), wk =   0.0625000
        k(   20) = (  -0.2500000   0.2340879   0.0000000), wk =   0.1250000

     Largest allocated arrays     est. size (Mb)     dimensions
     Largest temporary arrays     est. size (Mb)     dimensions

     Check: negative/imaginary core charge=   -0.000012    0.000000

     Initial potential from superposition of free atoms
     Check: negative starting charge=(component1):   -0.001590
     Check: negative starting charge=(component2):   -0.000511

     starting charge  215.99984, renormalised to  224.00000

     negative rho (up, down):  0.165E-02 0.530E-03
     Number of +U iterations with fixed ns =  0
     Starting occupations:
 --- enter write_ns ---
 LDA+U parameters:
U( 2)     =  0.00000000
alpha( 2) =  0.00000000
atom    3   Tr[ns(na)] (up, down, total) =   5.00000  0.00000  5.00000
   spin  1
    eigenvalues:
  1.000  1.000  1.000  1.000  1.000
    eigenvectors:
  1.000  0.000  0.000  0.000  0.000
  0.000  1.000  0.000  0.000  0.000
  0.000  0.000  1.000  0.000  0.000
  0.000  0.000  0.000  1.000  0.000
  0.000  0.000  0.000  0.000  1.000
    occupations:
  1.000  0.000  0.000  0.000  0.000
  0.000  1.000  0.000  0.000  0.000
  0.000  0.000  1.000  0.000  0.000
  0.000  0.000  0.000  1.000  0.000
  0.000  0.000  0.000  0.000  1.000
   spin  2
    eigenvalues:
  0.000  0.000  0.000  0.000  0.000
    eigenvectors:
  1.000  0.000  0.000  0.000  0.000
  0.000  1.000  0.000  0.000  0.000
  0.000  0.000  1.000  0.000  0.000
  0.000  0.000  0.000  1.000  0.000
  0.000  0.000  0.000  0.000  1.000
    occupations:
  0.000  0.000  0.000  0.000  0.000
  0.000  0.000  0.000  0.000  0.000
  0.000  0.000  0.000  0.000  0.000
  0.000  0.000  0.000  0.000  0.000
  0.000  0.000  0.000  0.000  0.000
atomic mag. moment =     5.000000
atom    4   Tr[ns(na)] (up, down, total) =   5.00000  0.00000  5.00000
   spin  1
    eigenvalues:
  1.000  1.000  1.000  1.000  1.000
    eigenvectors:
  1.000  0.000  0.000  0.000  0.000
  0.000  1.000  0.000  0.000  0.000
  0.000  0.000  1.000  0.000  0.000
  0.000  0.000  0.000  1.000  0.000
  0.000  0.000  0.000  0.000  1.000
    occupations:
  1.000  0.000  0.000  0.000  0.000
  0.000  1.000  0.000  0.000  0.000
  0.000  0.000  1.000  0.000  0.000
  0.000  0.000  0.000  1.000  0.000
  0.000  0.000  0.000  0.000  1.000
   spin  2
    eigenvalues:
  0.000  0.000  0.000  0.000  0.000
    eigenvectors:
  1.000  0.000  0.000  0.000  0.000
  0.000  1.000  0.000  0.000  0.000
  0.000  0.000  1.000  0.000  0.000
  0.000  0.000  0.000  1.000  0.000
  0.000  0.000  0.000  0.000  1.000
    occupations:
  0.000  0.000  0.000  0.000  0.000
  0.000  0.000  0.000  0.000  0.000
  0.000  0.000  0.000  0.000  0.000
  0.000  0.000  0.000  0.000  0.000
  0.000  0.000  0.000  0.000  0.000
atomic mag. moment =     5.000000
atom    9   Tr[ns(na)] (up, down, total) =   5.00000  0.00000  5.00000
   spin  1
    eigenvalues:
  1.000  1.000  1.000  1.000  1.000
    eigenvectors:
  1.000  0.000  0.000  0.000  0.000
  0.000  1.000  0.000  0.000  0.000
  0.000  0.000  1.000  0.000  0.000
[...]
  0.484  0.000  0.001  0.021 -0.000
  0.000  0.850 -0.000 -0.000 -0.001
  0.001 -0.000  0.740 -0.003  0.000
  0.021 -0.000 -0.003  0.953 -0.000
 -0.000 -0.001  0.000 -0.000  0.471
   spin  2
    eigenvalues:
  0.122  0.180  0.200  0.316  0.371
    eigenvectors:
  0.006  0.000  0.000  0.994  0.000
  0.000  1.000  0.000  0.000  0.000
  0.000  0.000  1.000  0.000  0.000
  0.994  0.000  0.000  0.006  0.000
  0.000  0.000  0.000  0.000  1.000
    occupations:
  0.315 -0.000 -0.000 -0.015 -0.000
 -0.000  0.180 -0.000 -0.000 -0.000
 -0.000 -0.000  0.200  0.000  0.000
 -0.015 -0.000  0.000  0.124  0.000
 -0.000 -0.000  0.000  0.000  0.371
atomic mag. moment =     2.309593
atom   16   Tr[ns(na)] (up, down, total) =   3.49013  1.21537  4.70550
   spin  1
    eigenvalues:
  0.457  0.500  0.697  0.882  0.955
    eigenvectors:
  0.000  0.231  0.003  0.000  0.766
  0.999  0.000  0.000  0.001  0.000
  0.000  0.000  0.995  0.000  0.005
  0.000  0.769  0.001  0.000  0.230
  0.001  0.000  0.000  0.999  0.000
    occupations:
  0.849 -0.000  0.015 -0.191 -0.000
 -0.000  0.457 -0.000 -0.000 -0.011
  0.015 -0.000  0.698 -0.008  0.001
 -0.191 -0.000 -0.008  0.605 -0.000
 -0.000 -0.011  0.001 -0.000  0.882
   spin  2
    eigenvalues:
  0.123  0.154  0.198  0.356  0.385
    eigenvectors:
  0.764  0.000  0.012  0.000  0.224
  0.000  0.003  0.000  0.997  0.000
  0.013  0.000  0.987  0.000  0.001
  0.223  0.000  0.001  0.000  0.776
  0.000  0.997  0.000  0.003  0.000
    occupations:
  0.182 -0.000 -0.005  0.109 -0.000
 -0.000  0.356 -0.000 -0.000  0.011
 -0.005 -0.000  0.197  0.008  0.000
  0.109 -0.000  0.008  0.326 -0.000
 -0.000  0.011  0.000 -0.000  0.154
atomic mag. moment =     2.274757
atom   17   Tr[ns(na)] (up, down, total) =   3.34246  1.37339  4.71585
   spin  1
    eigenvalues:
  0.478  0.521  0.600  0.771  0.973
    eigenvectors:
  0.000  0.996  0.001  0.001  0.002
  0.000  0.001  0.013  0.986  0.000
  0.000  0.001  0.986  0.013  0.000
  0.000  0.002  0.000  0.000  0.998
  1.000  0.000  0.000  0.000  0.000
    occupations:
  0.522 -0.007 -0.003  0.022  0.001
 -0.007  0.768  0.019  0.001  0.001
 -0.003  0.019  0.602  0.002 -0.000
  0.022  0.001  0.002  0.972  0.000
  0.001  0.001 -0.000  0.000  0.478
   spin  2
    eigenvalues:
  0.135  0.186  0.242  0.389  0.422
    eigenvectors:
  0.002  0.004  0.000  0.000  0.993
  0.001  0.967  0.028  0.000  0.004
  0.000  0.028  0.971  0.000  0.000
  0.997  0.001  0.000  0.000  0.002
  0.000  0.000  0.000  1.000  0.000
    occupations:
  0.420  0.016  0.003 -0.013  0.000
  0.016  0.188 -0.009  0.001 -0.000
  0.003 -0.009  0.240  0.000 -0.000
 -0.013  0.001  0.000  0.136 -0.000
  0.000 -0.000 -0.000 -0.000  0.389
atomic mag. moment =     1.969064
atom   22   Tr[ns(na)] (up, down, total) =   3.24662  1.53194  4.77856
   spin  1
    eigenvalues:
  0.518  0.528  0.679  0.750  0.771
    eigenvectors:
  0.001  0.184  0.001  0.809  0.006
  0.995  0.005  0.000  0.000  0.000
  0.000  0.000  0.999  0.001  0.000
  0.004  0.811  0.000  0.183  0.001
  0.000  0.000  0.000  0.007  0.993
    occupations:
  0.709  0.001 -0.002 -0.086  0.002
  0.001  0.518  0.001  0.000  0.000
 -0.002  0.001  0.679  0.001 -0.000
 -0.086  0.000  0.001  0.569 -0.001
  0.002  0.000 -0.000 -0.001  0.771
   spin  2
    eigenvalues:
  0.224  0.226  0.231  0.420  0.431
    eigenvectors:
  0.837  0.016  0.000  0.146  0.000
  0.000  0.000  0.000  0.000  1.000
  0.019  0.981  0.000  0.000  0.000
  0.143  0.003  0.000  0.854  0.000
  0.000  0.000  0.999  0.000  0.000
    occupations:
  0.253 -0.000  0.000  0.069 -0.000
 -0.000  0.431 -0.000 -0.000  0.000
  0.000 -0.000  0.226 -0.000 -0.000
  0.069 -0.000 -0.000  0.392  0.000
 -0.000  0.000 -0.000  0.000  0.231
atomic mag. moment =     1.714684
atom   23   Tr[ns(na)] (up, down, total) =   3.49949  1.18994  4.68942
   spin  1
    eigenvalues:
  0.471  0.484  0.740  0.850  0.954
    eigenvectors:
  0.000  0.998  0.000  0.000  0.002
  0.000  0.000  0.000  1.000  0.000
  0.000  0.000  1.000  0.000  0.000
  0.000  0.002  0.000  0.000  0.998
  1.000  0.000  0.000  0.000  0.000
    occupations:
  0.484  0.000  0.001  0.021 -0.000
  0.000  0.850 -0.000 -0.000 -0.001
  0.001 -0.000  0.740 -0.003  0.000
  0.021 -0.000 -0.003  0.953 -0.000
 -0.000 -0.001  0.000 -0.000  0.471
   spin  2
    eigenvalues:
  0.122  0.180  0.200  0.316  0.371
    eigenvectors:
  0.006  0.000  0.000  0.994  0.000
  0.000  1.000  0.000  0.000  0.000
  0.000  0.000  1.000  0.000  0.000
  0.994  0.000  0.000  0.006  0.000
  0.000  0.000  0.000  0.000  1.000
    occupations:
  0.315 -0.000 -0.000 -0.015 -0.000
 -0.000  0.180 -0.000 -0.000 -0.000
 -0.000 -0.000  0.200  0.000  0.000
 -0.015 -0.000  0.000  0.124  0.000
 -0.000 -0.000  0.000  0.000  0.371
atomic mag. moment =     2.309550
N of occupied +U levels =  37.7786452
 --- exit write_ns ---

 ------ SPIN UP ------------

          k = 0.0000 0.0000 0.0000 ( 27003 PWs)   bands (ev):

   -75.1953 -75.1799 -75.1483 -75.1340 -75.0351 -75.0209 -74.9789 -74.9644
   -46.6200 -46.6060 -46.5864 -46.5425 -46.5235 -46.4944 -46.4785 -46.4486
   -46.4148 -46.4013 -46.3897 -46.3827 -46.3728 -46.3661 -46.3615 -46.3507
   -46.3254 -46.3228 -46.2795 -46.2654 -46.2629 -46.2519 -46.2411 -46.1994
   -21.5231 -20.9788 -20.8547 -20.5709 -20.3440 -20.2765 -19.9839 -19.8240
   -19.8038 -19.7152 -19.6806 -19.5562 -19.5378 -19.5281 -19.3426 -19.2680
   -19.0314 -18.8942  -9.3680  -9.0759  -8.9366  -8.7919  -8.6323  -8.1830
    -7.9386  -7.9202  -7.9023  -7.7971  -7.7648  -7.7344  -7.6053  -7.3841
    -7.2511  -7.0170  -6.9977  -6.9892  -6.9520  -6.9174  -6.8741  -6.8223
    -6.5831  -6.2917  -6.1878  -6.0227  -5.8219  -5.7691  -5.5800  -5.4674
    -5.3967  -5.2945  -5.2522  -5.1741  -5.1091  -4.9195  -4.8628  -4.8121
    -4.7919  -4.5550  -4.4954  -4.3655  -4.2716  -4.0754  -4.0189  -4.0075
    -3.9327  -3.7468  -3.7398  -3.5608  -3.4260  -3.2245  -3.2093  -3.0488
    -2.9875  -2.7687  -2.7260  -2.6617  -2.6056  -2.2306  -2.1815  -2.1421
    -2.1176  -2.1011  -2.0577  -2.0104  -1.7355  -1.7118  -1.6364  -1.5512
    -1.5273  -1.4514  -1.0770  -1.0672  -1.0108  -0.7318  -0.6373  -0.6226
    -0.4419  -0.2099   0.5705   0.7884   1.1811   1.2527   1.2853   1.4581
     1.4721   1.6310   1.6637   1.8245   2.2438   2.2482   2.3409   2.5683
     3.1643   3.2697   3.6743   4.1534   4.6577   5.4385   6.0002   6.3405
     6.7303   6.9651   7.0748   7.1266   7.1905   7.1919   7.2795   7.5072
     7.5904   7.5931   7.7498   8.0331   8.0448   8.1288   8.1391   8.2989
     8.4249   8.4747   8.5820   8.7309   8.7404   8.8935   9.1837   9.2112
     9.3400   9.3461   9.3533   9.5013   9.6490   9.8159   9.8309   9.9325
    10.1244  10.2468  10.2518  10.4551  10.6118  10.6183  11.0200  11.0239
    11.1060  11.1765  11.2599  11.2774  11.3288  11.3343  11.4954  11.4976
    11.6100  11.7620  11.8462  11.9852  12.0019  12.0228  12.0339  12.1249
    12.2711  12.2863  12.3448  12.4015  12.4424  12.4429  12.5008  12.6031
    12.6742  12.8521  12.9028  12.9338  12.9444  13.0287  13.1053  13.1169
    13.2680  13.2916  13.4175  13.4272  13.5276  13.6757  13.7145  13.8024
    13.8530  14.0241  14.0427  14.2719  14.2804  14.4246  14.4666  14.5129
    14.8087  14.8203  14.8875  14.8903  14.9159  14.9736  15.0063  15.0610
    15.2360  15.2780  15.4145  15.4204  15.4541  15.5454  15.7073  15.8292
    16.0855  16.1051  16.2113  16.3351  16.4186  16.4400  16.6985  16.7469
    16.9065  16.9349  17.0244  17.0408  17.1190  17.1474  17.3184  17.5432
    17.5482  17.6304  17.7665  17.8319  17.8948  18.0740  18.1001  18.1735
    18.2960  18.3532  18.4841  18.4881  18.6979  18.7584  18.8028  18.8392
    18.9191  18.9671  19.0280  19.2011  19.2375  19.3218  19.3365  19.4328
    19.5117  19.6137  19.6721  19.7282  19.7559  19.8640  19.8912  19.9374
    20.0771  20.1923  20.1995  20.3570  20.3660  20.4290  20.4779  20.4934
    20.5876  20.8130  20.9585  21.0156  21.0692  21.1424  21.1611  21.1833
    21.2795  21.3226  21.3254  21.4132

[...]

          k =-0.5000 0.0000 0.0000 ( 27158 PWs)   bands (ev):

[...]

 ------ SPIN DOWN ----------

[...]

          k = 0.2500-0.4682 0.0000 ( 27150 PWs)   bands (ev):

[...]

          k =-0.2500 0.2341 0.0000 ( 27132 PWs)   bands (ev):

   -73.2448 -73.2330 -72.7790 -72.7679 -72.5882 -72.5770 -72.5171 -72.5063
   -44.6695 -44.6373 -44.6263 -44.5789 -44.5517 -44.5191 -44.3996 -44.3900
   -44.2376 -44.2258 -44.1021 -44.0797 -44.0529 -44.0482 -43.9634 -43.9300
   -43.9076 -43.8782 -43.8755 -43.8528 -43.8335 -43.7461 -43.7392 -43.6119
   -21.3363 -20.8723 -20.7948 -20.4672 -20.4555 -20.4042 -20.0752 -19.9432
   -19.9148 -19.7525 -19.7287 -19.6800 -19.5067 -19.4857 -19.4848 -19.4136
   -19.2086 -19.0847  -8.9503  -8.6508  -8.1739  -8.1667  -8.0536  -7.7614
    -7.6322  -7.5741  -7.5647  -7.4581  -7.4130  -7.3187  -7.1469  -7.0676
    -6.9640  -6.8611  -6.8033  -6.6746  -6.6290  -6.5596  -6.4614  -6.3015
    -6.2982  -6.0049  -5.9053  -5.8963  -5.5856  -5.4937  -5.3976  -5.3701
    -5.3165  -5.2602  -5.1786  -5.0999  -5.0027  -4.9812  -4.8553  -4.6574
    -4.5768  -4.5464  -4.4354  -4.3164  -4.2133  -4.1636  -4.0052  -3.9616
    -3.8857  -3.7220  -3.6453  -3.5021  -3.3584  -3.1062  -3.0949  -2.7753
    -0.6235  -0.5104  -0.3497  -0.3445  -0.2473  -0.1716  -0.1299  -0.0253
    -0.0056   0.0636   0.1219   0.2425   0.3062   0.3280   0.4323   0.4675
     0.5023   0.5818   0.6132   0.7041   0.7892   0.8887   0.9812   1.0434
     1.2256   1.3893   1.7124   1.8976   1.9828   2.2644   2.3850   2.4347
     2.5572   2.7831   2.8532   3.0142   3.0560   3.3633   3.4851   3.5502
     3.8252   3.9303   4.2639   4.7289   5.2526   5.6691   5.7793   5.8862
     5.9658   6.1243   6.3200   6.4336   6.6661   6.8036   6.8408   7.1894
     7.3677   7.5476   7.7183   7.9600   7.9938   8.2241   8.2726   8.4077
     8.5993   8.7036   8.9282   8.9920   9.2195   9.2529   9.2800   9.4264
     9.5326   9.6928   9.7822   9.8491  10.0295  10.0797  10.2657  10.2681
    10.4150  10.4744  10.6159  10.7204  10.7617  10.9510  11.0410  11.0915
    11.1615  11.3442  11.5012  11.5461  11.5853  11.6232  11.7970  11.8349
    11.8850  12.0207  12.0737  12.1617  12.2755  12.3127  12.4086  12.5792
    12.6640  12.6986  12.8118  12.9053  12.9238  12.9988  13.0727  13.1022
    13.1073  13.1916  13.2482  13.3232  13.5552  13.6445  13.7137  13.8045
    13.8551  13.9076  13.9809  14.0129  14.1182  14.2646  14.3593  14.4485
    14.5342  14.5634  14.6289  14.7031  14.7925  14.8662  14.9069  15.0542
    15.1810  15.2761  15.3879  15.4506  15.5013  15.5054  15.5947  15.6251
    15.7805  15.8130  15.9145  15.9170  16.0311  16.0889  16.1665  16.1713
    16.2504  16.2919  16.3966  16.5576  16.6205  16.6628  16.8105  16.8316
    16.8844  16.9516  17.0029  17.1115  17.1946  17.2242  17.3844  17.3912
    17.4396  17.4562  17.5409  17.6208  17.6345  17.7254  17.7556  17.8522
    17.9142  18.0061  18.0516  18.1452  18.2196  18.2859  18.3530  18.3658
    18.4311  18.6249  18.6295  18.7536  18.7885  18.8646  18.9257  19.0699
    19.1031  19.1678  19.2726  19.3457  19.3764  19.4144  19.4886  19.5659
    19.6204  19.6526  19.7352  19.7833  19.8258  19.9452  20.1088  20.1234
    20.2622  20.3367  20.4007  20.4681  20.5157  20.6554  20.7097  20.8226
    20.8514  20.9085  21.1050  21.1060

     the spin up/dw Fermi energies are    -1.4096   -2.6363 ev

!    total energy              =   -1993.71436637 Ry
     Harris-Foulkes estimate   =   -1993.71436650 Ry
     estimated scf accuracy    <       0.00000017 Ry

     The total energy is the sum of the following terms:

     one-electron contribution =  -23569.24729749 Ry
     hartree contribution      =   11801.32107092 Ry
     xc contribution           =    -314.92159333 Ry
     ewald contribution        =   10089.13234520 Ry
     Hubbard energy            =       0.00000000 Ry
     smearing contrib. (-TS)   =       0.00110832 Ry

     total magnetization       =    16.00 Bohr mag/cell
     absolute magnetization    =    18.32 Bohr mag/cell

     convergence has been achieved in  48 iterations

     Forces acting on atoms (Ry/au):

     negative rho (up, down):  0.484E-02 0.180E-02
     atom    1 type  1   force =    -0.00359724   -0.01482559   -0.00004291
     atom    2 type  1   force =    -0.00004584    0.01365732    0.00027337
     atom    3 type  2   force =    -0.00014276   -0.00572679   -0.00020738
     atom    4 type  2   force =     0.00075877    0.00801573   -0.00052803
     atom    5 type  1   force =     0.00346725    0.00633775    0.00018653
     atom    6 type  1   force =    -0.00074286   -0.00586147    0.00013146
     atom    7 type  1   force =    -0.00005731   -0.00063878   -0.00059378
     atom    8 type  1   force =     0.00070265   -0.00068701    0.00031936
     atom    9 type  2   force =     0.00043448   -0.00018074   -0.00005501
     atom   10 type  2   force =     0.00003709   -0.00051181   -0.00025370
     atom   11 type  1   force =    -0.00003543   -0.05980465    0.00029768
     atom   12 type  1   force =     0.00015214    0.06025657    0.00031677
     atom   13 type  1   force =    -0.00064674    0.00015101    0.00039354
     atom   14 type  1   force =    -0.00351176   -0.01480655   -0.00004609
     atom   15 type  1   force =    -0.00010548    0.01365939    0.00027729
     atom   16 type  2   force =    -0.00016702   -0.00572516   -0.00021517
     atom   17 type  2   force =     0.00070998    0.00801495   -0.00052937
     atom   18 type  1   force =     0.00342867    0.00637646    0.00019002
     atom   19 type  1   force =    -0.00078061   -0.00590057    0.00013539
     atom   20 type  1   force =    -0.00012894   -0.00063869   -0.00058105
     atom   21 type  1   force =     0.00071056   -0.00068694    0.00029898
     atom   22 type  2   force =     0.00042121   -0.00018130   -0.00004658
     atom   23 type  2   force =     0.00002596   -0.00051175   -0.00025409
     atom   24 type  1   force =    -0.00005715   -0.05979292    0.00030320
     atom   25 type  1   force =     0.00013047    0.06024482    0.00032231
     atom   26 type  1   force =    -0.00062231    0.00015095    0.00039047
     atom   27 type  3   force =     0.00010167   -0.00056295   -0.00009677
     atom   28 type  3   force =     0.00010131   -0.00056309   -0.00009642
     atom   29 type  3   force =    -0.00022799    0.00037994   -0.00016102
     atom   30 type  3   force =    -0.00031276    0.00036184   -0.00012902

     Total force =     0.001939     Total SCF correction =     0.000722
     SCF correction compared to forces is large: reduce conv_thr to get better values

     BFGS Geometry Optimization

     bfgs converged in   1 scf cycles and   0 bfgs steps
     (criteria: energy < 0.10E-03, force < 0.10E-02)

     End of BFGS Geometry Optimization

     Final energy   =   -1993.7143663733 Ry
Begin final coordinates

ATOMIC_POSITIONS (crystal)
O0       0.000000000   0.000000000   0.380440000    0   0   1
O0       0.000000000   0.500000000   0.398750000    0   0   1
Cr1      0.250000000   0.500000000   0.449490000    0   0   1
Cr1      0.000000000   0.000000000   0.452000000    0   0   1
O0       0.250000000   0.800000000   0.451020000    0   0   1
O0       0.250000000   0.200000000   0.451220000    0   0   1
O0       0.000000000   0.500000000   0.497560000    0   0   1
O0       0.000000000   0.000000000   0.524790000    0   0   1
Cr1      0.250000000   0.000000000   0.577460000    0   0   1
Cr1      0.000000000   0.500000000   0.565410000    0   0   1
O0       0.250000000   0.700000000   0.575340000    0   0   1
O0       0.250000000   0.300000000   0.575320000    0   0   1
O0       0.000000000   0.000000000   0.618010000    0   0   1
O0       0.500000000   0.000000000   0.380440000    0   0   1
O0       0.500000000   0.500000000   0.398750000    0   0   1
Cr1      0.750000000   0.500000000   0.449490000    0   0   1
Cr1      0.500000000   0.000000000   0.452000000    0   0   1
O0       0.750000000   0.800000000   0.451020000    0   0   1
O0       0.750000000   0.200000000   0.451220000    0   0   1
O0       0.500000000   0.500000000   0.497560000    0   0   1
O0       0.500000000   0.000000000   0.524790000    0   0   1
Cr1      0.750000000   0.000000000   0.577460000    0   0   1
Cr1      0.500000000   0.500000000   0.565410000    0   0   1
O0       0.750000000   0.700000000   0.575340000    0   0   1
O0       0.750000000   0.300000000   0.575320000    0   0   1
O0       0.500000000   0.000000000   0.618010000    0   0   1
H2      -0.000690000   0.641520000   0.380780000
H2       0.499310000   0.641520000   0.380780000
H2       0.157340000   0.029640000   0.367440000
H2       0.657350000   0.029640000   0.367440000
End final coordinates

     General routines

     Parallel routines
     Hubbard U routines

   This run was terminated on:   3:28:41  16May2014

   JOB DONE.