     Program PWSCF v.5.0.2 (svn rev. 9656) starts on  6May2014 at  3:46:10

     Current dimensions of program PWSCF are:
     Max number of different atomic species (ntypx) = 10
     Max number of k-points (npk) =  40000
     Max angular momentum in pseudopotentials (lmaxx) =  3
     Reading input from pwscf.in
Warning: card &CELL ignored
Warning: card / ignored

     Subspace diagonalization in iterative solution of the eigenvalue problem:
     a serial algorithm will be used

     bravais-lattice index     =            0
     lattice parameter (alat)  =      12.0187  a.u.
     unit-cell volume          =    7280.5819 (a.u.)^3
     number of atoms/cell      =           30
     number of atomic types    =            3
     number of electrons       =       232.00
     number of Kohn-Sham states=          348
     kinetic-energy cutoff     =      40.0000  Ry
     charge density cutoff     =     500.0000  Ry
     convergence threshold     =      1.0E-06
     mixing beta               =       0.7000
     number of iterations used =            8  plain     mixing
     Exchange-correlation      = SLA  PW   PBE  PBE ( 1 4 3 4 0)
     EXX-fraction              =        0.00
     nstep                     =           50

     celldm(1)=  12.018658  celldm(2)=   0.000000  celldm(3)=   0.000000
     celldm(4)=   0.000000  celldm(5)=   0.000000  celldm(6)=   0.000000

     crystal axes: (cart. coord. in units of alat)
               a(1) = (   1.000000   0.000000   0.000000 )
               a(2) = (   0.000000   1.009517   0.000000 )
               a(3) = (   0.000000   0.000000   4.154171 )

     reciprocal axes: (cart. coord. in units 2 pi/alat)
               b(1) = (  1.000000  0.000000  0.000000 )
               b(2) = (  0.000000  0.990572  0.000000 )
               b(3) = (  0.000000  0.000000  0.240722 )

     PseudoPot. # 1 for O  read from file:
     /home/camp/zhonxu/pseudo/o_pbe_v1.01.uspp.F.UPF
     MD5 check sum: 2bcb18d16ea4b960afae9ec6d52f22d2
     Pseudo is Ultrasoft + core correction, Zval =  6.0
     Generated by new atomic code, or converted to UPF format
     Using radial grid of  737 points,  5 beta functions with:
                l(1) =   0
                l(2) =   0
                l(3) =   1
                l(4) =   1
                l(5) =   2
     Q(r) pseudized with  8 coefficients,  rinner =    0.900   0.900   0.900
                                                       0.900   0.900

     PseudoPot. # 2 for Ir read from file:
     /home/camp/zhonxu/pseudo/ir_pbe_v1.uspp.F.UPF
     MD5 check sum: abf987a9674477536ede83817f8f8b70
     Pseudo is Ultrasoft + core correction, Zval = 15.0
     Generated by new atomic code, or converted to UPF format
     Using radial grid of  983 points,  7 beta functions with:
                l(1) =   0
                l(2) =   0
                l(3) =   1
                l(4) =   1
                l(5) =   1
                l(6) =   2
                l(7) =   2
     Q(r) pseudized with  8 coefficients,  rinner =    1.350   1.350   1.350
                                                       1.350   1.350

     PseudoPot. # 3 for H  read from file:
     /home/camp/zhonxu/pseudo/h_pbe_v1.uspp.F.UPF
     MD5 check sum: 3408e3ff4ec8b0a4e358431e7e038a48
     Pseudo is Ultrasoft, Zval =  1.0
     Generated by new atomic code, or converted to UPF format
     Using radial grid of  615 points,  2 beta functions with:
                l(1) =   0
                l(2) =   0
     Q(r) pseudized with  8 coefficients,  rinner =    0.700

     atomic species   valence    mass     pseudopotential
        O0             6.00    15.99940     O ( 1.00)
        Ir1           15.00   192.22000     Ir( 1.00)
        H2             1.00     1.00794     H ( 1.00)

     Simplified LDA+U calculation (l_max = 2) with parameters (eV):
     atomic species    L          U    alpha       J0     beta
        Ir1            2     8.0000   0.0000   0.0000   0.0000

     No symmetry found

   Cartesian axes

     site n.     atom                  positions (alat units)
         1           O0  tau(   1) = (   0.0000000   0.0000000   1.5730185  )
         2           O0  tau(   2) = (   0.0000000   0.5047586   1.6673182  )
         3           Ir1 tau(   3) = (   0.2500000   0.5047586   1.8780178  )
         4           Ir1 tau(   4) = (   0.0000000   0.0000000   1.8842906  )
         5           O0  tau(   5) = (   0.2500000   0.8177090   1.8825458  )
         6           O0  tau(   6) = (   0.2500000   0.1918083   1.8810503  )
         7           O0  tau(   7) = (   0.0000000   0.5047586   2.0695666  )
         8           O0  tau(   8) = (   0.0000000   0.0000000   2.1991352  )
         9           Ir1 tau(   9) = (   0.2500000   0.0000000   2.3955860  )
        10           Ir1 tau(  10) = (   0.0000000   0.5047586   2.3764768  )
        11           O0  tau(  11) = (   0.2500000   0.6965669   2.3975800  )
        12           O0  tau(  12) = (   0.2500000   0.3129503   2.3977461  )
        13           O0  tau(  13) = (   0.0000000   0.0000000   2.5806958  )
        14           O0  tau(  14) = (   0.5000000   0.0000000   1.5730185  )
        15           O0  tau(  15) = (   0.5000000   0.5047586   1.6673182  )
        16           Ir1 tau(  16) = (   0.7500000   0.5047586   1.8780178  )
        17           Ir1 tau(  17) = (   0.5000000   0.0000000   1.8842906  )
        18           O0  tau(  18) = (   0.7500000   0.8177090   1.8825458  )
        19           O0  tau(  19) = (   0.7500000   0.1918083   1.8810503  )
        20           O0  tau(  20) = (   0.5000000   0.5047586   2.0695666  )
        21           O0  tau(  21) = (   0.5000000   0.0000000   2.1991352  )
        22           Ir1 tau(  22) = (   0.7500000   0.0000000   2.3955860  )
        23           Ir1 tau(  23) = (   0.5000000   0.5047586   2.3764768  )
        24           O0  tau(  24) = (   0.7500000   0.6965669   2.3975800  )
        25           O0  tau(  25) = (   0.7500000   0.3129503   2.3977461  )
        26           O0  tau(  26) = (   0.5000000   0.0000000   2.5807374  )
        27           H2  tau(  27) = (  -0.0000500   0.6423962   1.5933324  )
        28           H2  tau(  28) = (   0.4999500   0.6423962   1.5933324  )
        29           H2  tau(  29) = (   0.1436500   0.0338188   1.5249132  )
        30           H2  tau(  30) = (   0.6436500   0.0338188   1.5249132  )

     number of k points=    10  Methfessel-Paxton smearing, width (Ry)=  0.0100
                       cart. coord. in units 2pi/alat
        k(    1) = (   0.0000000   0.0000000   0.0000000), wk =   0.1250000
        k(    2) = (   0.0000000   0.2476431   0.0000000), wk =   0.2500000
        k(    3) = (   0.0000000  -0.4952862   0.0000000), wk =   0.1250000
        k(    4) = (   0.2500000   0.0000000   0.0000000), wk =   0.2500000
        k(    5) = (   0.2500000   0.2476431   0.0000000), wk =   0.2500000
        k(    6) = (   0.2500000  -0.4952862   0.0000000), wk =   0.2500000
        k(    7) = (  -0.5000000   0.0000000   0.0000000), wk =   0.1250000
        k(    8) = (  -0.5000000   0.2476431   0.0000000), wk =   0.2500000
        k(    9) = (  -0.5000000  -0.4952862   0.0000000), wk =   0.1250000
        k(   10) = (  -0.2500000   0.2476431   0.0000000), wk =   0.2500000

     Largest allocated arrays     est. size (Mb)     dimensions
     Largest temporary arrays     est. size (Mb)     dimensions

     Check: negative/imaginary core charge=   -0.000003    0.000000

     Initial potential from superposition of free atoms
     Check: negative starting charge=   -3.334716

     starting charge  227.99968, renormalised to  232.00000

     negative rho (up, down):  0.339E+01 0.000E+00
     Number of +U iterations with fixed ns =  0
     Starting occupations:
 --- enter write_ns ---
 LDA+U parameters:
U( 2)     =  8.00000000
alpha( 2) =  0.00000000
atom    3   Tr[ns(na)] =   7.00000
    eigenvalues:
  0.700  0.700  0.700  0.700  0.700
    eigenvectors:
  1.000  0.000  0.000  0.000  0.000
  0.000  1.000  0.000  0.000  0.000
  0.000  0.000  1.000  0.000  0.000
  0.000  0.000  0.000  1.000  0.000
  0.000  0.000  0.000  0.000  1.000
    occupations:
  0.700  0.000  0.000  0.000  0.000
  0.000  0.700  0.000  0.000  0.000
  0.000  0.000  0.700  0.000  0.000
  0.000  0.000  0.000  0.700  0.000
  0.000  0.000  0.000  0.000  0.700
atom    4   Tr[ns(na)] =   7.00000
    eigenvalues:
  0.700  0.700  0.700  0.700  0.700
    eigenvectors:
  1.000  0.000  0.000  0.000  0.000
  0.000  1.000  0.000  0.000  0.000
  0.000  0.000  1.000  0.000  0.000
  0.000  0.000  0.000  1.000  0.000
  0.000  0.000  0.000  0.000  1.000
    occupations:
  0.700  0.000  0.000  0.000  0.000
  0.000  0.700  0.000  0.000  0.000
  0.000  0.000  0.700  0.000  0.000
  0.000  0.000  0.000  0.700  0.000
  0.000  0.000  0.000  0.000  0.700
atom    9   Tr[ns(na)] =   7.00000
    eigenvalues:
  0.700  0.700  0.700  0.700  0.700
    eigenvectors:
  1.000  0.000  0.000  0.000  0.000
  0.000  1.000  0.000  0.000  0.000
  0.000  0.000  1.000  0.000  0.000
  0.000  0.000  0.000  1.000  0.000
  0.000  0.000  0.000  0.000  1.000
    occupations:
  0.700  0.000  0.000  0.000  0.000
  0.000  0.700  0.000  0.000  0.000
  0.000  0.000  0.700  0.000  0.000
  0.000  0.000  0.000  0.700  0.000
  0.000  0.000  0.000  0.000  0.700
atom   10   Tr[ns(na)] =   7.00000
    eigenvalues:
  0.700  0.700  0.700  0.700  0.700
    eigenvectors:
  1.000  0.000  0.000  0.000  0.000
  0.000  1.000  0.000  0.000  0.000
  0.000  0.000  1.000  0.000  0.000
  0.000  0.000  0.000  1.000  0.000
  0.000  0.000  0.000  0.000  1.000
    occupations:
  0.700  0.000  0.000  0.000  0.000
  0.000  0.700  0.000  0.000  0.000
  0.000  0.000  0.700  0.000  0.000
  0.000  0.000  0.000  0.700  0.000
  0.000  0.000  0.000  0.000  0.700
atom   16   Tr[ns(na)] =   7.00000
    eigenvalues:
  0.700  0.700  0.700  0.700  0.700
    eigenvectors:
  1.000  0.000  0.000  0.000  0.000
  0.000  1.000  0.000  0.000  0.000
  0.000  0.000  1.000  0.000  0.000
  0.000  0.000  0.000  1.000  0.000
  0.000  0.000  0.000  0.000  1.000
    occupations:
  0.700  0.000  0.000  0.000  0.000
  0.000  0.700  0.000  0.000  0.000
  0.000  0.000  0.700  0.000  0.000
  0.000  0.000  0.000  0.700  0.000
  0.000  0.000  0.000  0.000  0.700
atom   17   Tr[ns(na)] =   7.00000
    eigenvalues:
  0.700  0.700  0.700  0.700  0.700
    eigenvectors:
  1.000  0.000  0.000  0.000  0.000
  0.000  1.000  0.000  0.000  0.000
  0.000  0.000  1.000  0.000  0.000
  0.000  0.000  0.000  1.000  0.000
  0.000  0.000  0.000  0.000  1.000
    occupations:
  0.700  0.000  0.000  0.000  0.000
  0.000  0.700  0.000  0.000  0.000
  0.000  0.000  0.700  0.000  0.000
  0.000  0.000  0.000  0.700  0.000
  0.000  0.000  0.000  0.000  0.700
atom   22   Tr[ns(na)] =   7.00000
    eigenvalues:
  0.700  0.700  0.700  0.700  0.700
    eigenvectors:
  1.000  0.000  0.000  0.000  0.000
  0.000  1.000  0.000  0.000  0.000
  0.000  0.000  1.000  0.000  0.000
  0.000  0.000  0.000  1.000  0.000
  0.000  0.000  0.000  0.000  1.000
    occupations:
  0.700  0.000  0.000  0.000  0.000
  0.000  0.700  0.000  0.000  0.000
  0.000  0.000  0.700  0.000  0.000
[...]
  0.622  0.675  0.900  0.944  0.988
    eigenvectors:
  0.001  0.988  0.000  0.000  0.011
  0.000  0.000  0.080  0.920  0.000
  0.000  0.000  0.920  0.080  0.000
  0.000  0.011  0.000  0.000  0.989
  0.999  0.001  0.000  0.000  0.000
    occupations:
  0.679 -0.003 -0.001  0.033  0.001
 -0.003  0.941  0.012  0.000 -0.002
 -0.001  0.012  0.903 -0.000  0.001
  0.033  0.000 -0.000  0.984  0.000
  0.001 -0.002  0.001  0.000  0.622
atom    9   Tr[ns(na)] =   8.25365
    eigenvalues:
  0.655  0.671  0.889  0.923  0.987
    eigenvectors:
  0.000  0.141  0.000  0.000  0.859
  0.999  0.000  0.000  0.000  0.000
  0.000  0.000  1.000  0.000  0.000
  0.000  0.859  0.000  0.000  0.141
  0.000  0.000  0.000  1.000  0.000
    occupations:
  0.943  0.000 -0.000 -0.110 -0.000
  0.000  0.655  0.001  0.000 -0.000
 -0.000  0.001  0.889 -0.000 -0.000
 -0.110  0.000 -0.000  0.716  0.001
 -0.000 -0.000 -0.000  0.001  0.923
atom   10   Tr[ns(na)] =   8.18941
    eigenvalues:
  0.572  0.616  0.954  0.966  0.987
    eigenvectors:
  0.992  0.000  0.000  0.000  0.008
  0.000  0.000  1.000  0.000  0.000
  0.000  0.000  0.000  1.000  0.000
  0.008  0.000  0.000  0.000  0.992
  0.000  1.000  0.000  0.000  0.000
    occupations:
  0.575  0.000  0.001  0.037 -0.000
  0.000  0.954 -0.000  0.000 -0.000
  0.001 -0.000  0.966 -0.000  0.000
  0.037  0.000 -0.000  0.984  0.000
 -0.000 -0.000  0.000  0.000  0.616
atom   16   Tr[ns(na)] =   8.25366
    eigenvalues:
  0.603  0.631  0.931  0.979  0.984
    eigenvectors:
  0.000  0.189  0.003  0.000  0.808
  1.000  0.000  0.000  0.000  0.000
  0.000  0.000  0.997  0.000  0.003
  0.000  0.811  0.000  0.000  0.189
  0.000  0.000  0.000  0.999  0.000
    occupations:
  0.917 -0.000  0.001 -0.138 -0.000
 -0.000  0.603 -0.000 -0.000 -0.005
  0.001 -0.000  0.931 -0.004  0.001
 -0.138 -0.000 -0.004  0.698 -0.000
 -0.000 -0.005  0.001 -0.000  0.978
atom   17   Tr[ns(na)] =   8.25746
    eigenvalues:
  0.622  0.675  0.900  0.944  0.988
    eigenvectors:
  0.001  0.988  0.000  0.000  0.011
  0.000  0.000  0.080  0.920  0.000
  0.000  0.000  0.920  0.080  0.000
  0.000  0.011  0.000  0.000  0.989
  0.999  0.001  0.000  0.000  0.000
    occupations:
  0.679 -0.003 -0.001  0.033  0.001
 -0.003  0.941  0.012  0.000 -0.002
 -0.001  0.012  0.903 -0.000  0.001
  0.033  0.000 -0.000  0.984  0.000
  0.001 -0.002  0.001  0.000  0.622
atom   22   Tr[ns(na)] =   8.25400
    eigenvalues:
  0.655  0.671  0.890  0.923  0.987
    eigenvectors:
  0.000  0.141  0.000  0.000  0.859
  1.000  0.000  0.000  0.000  0.000
  0.000  0.000  1.000  0.000  0.000
  0.000  0.859  0.000  0.000  0.141
  0.000  0.000  0.000  1.000  0.000
    occupations:
  0.943  0.000 -0.000 -0.110 -0.000
  0.000  0.655  0.001  0.000 -0.000
 -0.000  0.001  0.890 -0.000 -0.000
 -0.110  0.000 -0.000  0.716  0.001
 -0.000 -0.000 -0.000  0.001  0.923
atom   23   Tr[ns(na)] =   8.18941
    eigenvalues:
  0.572  0.616  0.954  0.966  0.987
    eigenvectors:
  0.992  0.000  0.000  0.000  0.008
  0.000  0.000  1.000  0.000  0.000
  0.000  0.000  0.000  1.000  0.000
  0.008  0.000  0.000  0.000  0.992
  0.000  1.000  0.000  0.000  0.000
    occupations:
  0.575  0.000  0.001  0.037 -0.000
  0.000  0.954 -0.000  0.000 -0.000
  0.001 -0.000  0.966 -0.000  0.000
  0.037  0.000 -0.000  0.984  0.000
 -0.000 -0.000  0.000  0.000  0.616
N of occupied +U levels =  65.9084322
 --- exit write_ns ---

     Threshold (ethr) on eigenvalues was too large:
     Diagonalizing with lowered threshold

     Davidson diagonalization with overlap
     ethr =  6.28E-09,  avg # of iterations =  2.1

[...]

     total energy              =   -2071.00009930 Ry
     Harris-Foulkes estimate   =   -2071.00009930 Ry
     estimated scf accuracy    <       0.00000003 Ry

     iteration # 14     ecut=    40.00 Ry     beta=0.70
     Davidson diagonalization with overlap
     ethr =  6.91E-12,  avg # of iterations =  1.0

     negative rho (up, down):  0.315E+01 0.000E+00

     End of self-consistent calculation
 --- enter write_ns ---
 LDA+U parameters:
U( 2)     =  8.00000000
alpha( 2) =  0.00000000
atom    3   Tr[ns(na)] =   8.25332
    eigenvalues:
  0.602  0.631  0.931  0.979  0.983
    eigenvectors:
  0.000  0.189  0.003  0.000  0.808
  1.000  0.000  0.000  0.000  0.000
  0.000  0.000  0.997  0.000  0.003
  0.000  0.811  0.000  0.000  0.189
  0.000  0.000  0.000  0.999  0.000
    occupations:
  0.917 -0.000  0.001 -0.138 -0.000
 -0.000  0.603 -0.000 -0.000 -0.005
  0.001 -0.000  0.931 -0.004  0.001
 -0.138 -0.000 -0.004  0.698 -0.000
 -0.000 -0.005  0.001 -0.000  0.978
atom    4   Tr[ns(na)] =   8.25764
    eigenvalues:
  0.622  0.675  0.900  0.944  0.988
    eigenvectors:
  0.001  0.988  0.000  0.000  0.011
  0.000  0.000  0.080  0.920  0.000
  0.000  0.000  0.920  0.080  0.000
  0.000  0.011  0.000  0.000  0.989
  0.999  0.001  0.000  0.000  0.000
    occupations:
  0.679 -0.003 -0.001  0.033  0.001
 -0.003  0.941  0.012  0.000 -0.002
 -0.001  0.012  0.903 -0.000  0.001
  0.033  0.000 -0.000  0.984  0.000
  0.001 -0.002  0.001  0.000  0.622
atom    9   Tr[ns(na)] =   8.25407
    eigenvalues:
  0.655  0.672  0.890  0.923  0.987
    eigenvectors:
  0.000  0.141  0.000  0.000  0.859
  0.999  0.000  0.000  0.000  0.000
  0.000  0.000  1.000  0.000  0.000
  0.000  0.859  0.000  0.000  0.141
  0.000  0.000  0.000  1.000  0.000
    occupations:
  0.943  0.000 -0.000 -0.110 -0.000
  0.000  0.655  0.001  0.000 -0.000
 -0.000  0.001  0.890 -0.000 -0.000
 -0.110  0.000 -0.000  0.716  0.001
 -0.000 -0.000 -0.000  0.001  0.923
atom   10   Tr[ns(na)] =   8.18936
    eigenvalues:
  0.572  0.616  0.954  0.966  0.987
    eigenvectors:
  0.992  0.000  0.000  0.000  0.008
  0.000  0.000  1.000  0.000  0.000
  0.000  0.000  0.000  1.000  0.000
  0.008  0.000  0.000  0.000  0.992
  0.000  1.000  0.000  0.000  0.000
    occupations:
  0.575  0.000  0.001  0.037 -0.000
  0.000  0.954 -0.000  0.000 -0.000
  0.001 -0.000  0.966 -0.000  0.000
  0.037  0.000 -0.000  0.984  0.000
 -0.000 -0.000  0.000  0.000  0.616
atom   16   Tr[ns(na)] =   8.25332
    eigenvalues:
  0.602  0.631  0.931  0.979  0.983
    eigenvectors:
  0.000  0.189  0.003  0.000  0.808
  1.000  0.000  0.000  0.000  0.000
  0.000  0.000  0.997  0.000  0.003
  0.000  0.811  0.000  0.000  0.189
  0.000  0.000  0.000  0.999  0.000
    occupations:
  0.917 -0.000  0.001 -0.138 -0.000
 -0.000  0.603 -0.000 -0.000 -0.005
  0.001 -0.000  0.931 -0.004  0.001
 -0.138 -0.000 -0.004  0.698 -0.000
 -0.000 -0.005  0.001 -0.000  0.978
atom   17   Tr[ns(na)] =   8.25766
    eigenvalues:
  0.622  0.675  0.900  0.944  0.988
    eigenvectors:
  0.001  0.988  0.000  0.000  0.011
  0.000  0.000  0.080  0.920  0.000
  0.000  0.000  0.920  0.080  0.000
  0.000  0.011  0.000  0.000  0.989
  0.999  0.001  0.000  0.000  0.000
    occupations:
  0.679 -0.003 -0.001  0.033  0.001
 -0.003  0.941  0.012  0.000 -0.002
 -0.001  0.012  0.904 -0.000  0.001
  0.033  0.000 -0.000  0.984  0.000
  0.001 -0.002  0.001  0.000  0.622
atom   22   Tr[ns(na)] =   8.25406
    eigenvalues:
  0.655  0.672  0.890  0.923  0.987
    eigenvectors:
  0.000  0.141  0.000  0.000  0.859
  1.000  0.000  0.000  0.000  0.000
  0.000  0.000  1.000  0.000  0.000
  0.000  0.859  0.000  0.000  0.141
  0.000  0.000  0.000  1.000  0.000
    occupations:
  0.943  0.000 -0.000 -0.110 -0.000
  0.000  0.655  0.001  0.000 -0.000
 -0.000  0.001  0.890 -0.000 -0.000
 -0.110  0.000 -0.000  0.716  0.001
 -0.000 -0.000 -0.000  0.001  0.923
atom   23   Tr[ns(na)] =   8.18936
    eigenvalues:
  0.572  0.616  0.954  0.966  0.987
    eigenvectors:
  0.992  0.000  0.000  0.000  0.008
  0.000  0.000  1.000  0.000  0.000
  0.000  0.000  0.000  1.000  0.000
  0.008  0.000  0.000  0.000  0.992
  0.000  1.000  0.000  0.000  0.000
    occupations:
  0.575  0.000  0.001  0.037 -0.000
  0.000  0.954 -0.000  0.000 -0.000
  0.001 -0.000  0.966 -0.000  0.000
  0.037  0.000 -0.000  0.984  0.000
 -0.000 -0.000  0.000  0.000  0.616
N of occupied +U levels =  65.9087921
 --- exit write_ns ---

[...]

          k = 0.2500-0.4953 0.0000 ( 31088 PWs)   bands (ev):

[...]

          k =-0.2500 0.2476 0.0000 ( 31099 PWs)   bands (ev):

   -50.1399 -50.1183 -50.0892 -50.0808 -50.0793 -50.0739 -50.0664 -50.0384
   -50.0319 -50.0311 -50.0165 -49.9427 -49.8925 -49.8841 -49.7901 -49.7309
   -49.7263 -49.7181 -49.7001 -49.6897 -49.6594 -49.6484 -49.6414 -49.6316
   -21.4208 -21.2232 -21.1609 -21.0416 -20.7777 -20.7733 -20.7535 -20.5131
   -20.4418 -20.3674 -20.2260 -20.1849 -20.0473 -19.9812 -19.9377 -19.7898
   -19.0456 -18.8927 -11.1806 -10.9561 -10.7805 -10.6598 -10.4772 -10.3395
   -10.1840 -10.1220  -9.9116  -9.2056  -9.1182  -8.9838  -8.9593  -8.7926
    -8.7780  -8.5062  -8.4620  -8.3289  -8.2405  -7.9174  -7.8820  -7.6638
    -7.6588  -7.4702  -7.3925  -7.3549  -7.3228  -7.0376  -6.9594  -6.9430
    -6.7618  -6.6749  -6.6144  -6.4730  -6.4264  -6.3295  -6.2862  -6.1889
    -6.1770  -6.0009  -5.7610  -5.4669  -5.2624  -5.1946  -4.9931  -4.9114
    -4.7649  -4.6633  -4.5930  -4.4705  -4.2044  -4.1206  -4.0442  -3.9482
    -3.8971  -3.7950  -3.5574  -3.5523  -3.4887  -3.4707  -3.2180  -3.2070
    -3.1917  -3.1331  -2.9084  -2.8983  -2.7411  -2.6452  -2.3596  -2.0696
    -1.8522  -1.6526  -1.6351  -1.4173  -1.3833  -1.1214  -0.9492  -0.7583
    -0.0624   0.1151   1.0759   1.1226   1.6488   1.8398   1.8407   2.2983
     2.5419   2.7766   2.9739   2.9791   3.2525   3.2741   3.4235   3.4826
     3.8202   4.3549   4.7073   5.1240   5.4066   5.6152   5.6829   5.8899
     6.1269   6.2844   6.5031   6.5474   6.5933   6.7864   6.9943   7.0379
     7.3319   7.3823   7.4979   7.6966   7.6974   7.8877   8.0278   8.0998
     8.1613   8.3224   8.4516   8.4817   8.5995   8.8071   8.8470   8.9309
     8.9574   9.1945   9.2666   9.2718   9.3676   9.5487   9.6468   9.7127
     9.8265   9.8693   9.8693   9.8833   9.8890   9.9819   9.9842  10.0628
    10.0779  10.0792  10.1305  10.1341  10.2086  10.2852  10.2879  10.4120
    10.4301  10.5670  10.6238  10.7245  10.7974  10.8328  11.0003  11.0300
    11.0782  11.2841  11.3480  11.4343  11.5365  11.5725  11.7323  11.7625
    11.7752  11.9467  12.0871  12.1470  12.1558  12.2751  12.4061  12.4143
    12.4968  12.5727  12.6549  12.7382  12.7863  12.8094  12.8402  12.9167
    13.0908  13.1744  13.1967  13.2699  13.3633  13.3786  13.5470  13.6820
    13.6884  13.7608  13.8737  13.8986  14.0204  14.0350  14.1297  14.1378
    14.2798  14.3740  14.4130  14.5580  14.5868  14.7666  14.7925  14.9002
    14.9319  15.2186  15.2836  15.3682  15.3805  15.5231  15.5908  15.5931
    15.6308  15.7398  15.7881  15.8257  15.8576  15.8869  15.9582  16.0231
    16.0960  16.1637  16.1751  16.2925  16.3386  16.4091  16.4414  16.4597
    16.6535  16.6575  16.7274  16.7375  16.8345  16.8485  17.0764  17.1243
    17.2169  17.3634  17.3690  17.4314  17.4332  17.4756  17.5518  17.5635
    17.6329  17.7343  17.7701  17.8137  17.8770  17.8845  17.9796  17.9980
    18.1662  18.2337  18.3048  18.3955  18.4760  18.5194  18.6097  18.6222
    18.8326  18.8441  18.9072  18.9713  19.0282  19.1361  19.1497  19.2336
    19.2918  19.2999  19.3554  19.5056  19.6134  19.6167  19.7288  19.7915
    19.8251  19.9585  20.0240  20.1524  20.1545  20.3264  20.3362  20.3802
    20.5071  20.5730  20.6285  20.6858  20.7271  20.7868  20.8220  20.9136
    20.9224  21.0161  21.0615  21.1286  21.1902  21.2558  21.3025  21.3500
    21.3533  21.4438  21.4833  21.5805

     the Fermi energy is    -1.4182 ev

!    total energy              =   -2071.00009929 Ry
     Harris-Foulkes estimate   =   -2071.00009930 Ry
     estimated scf accuracy    <          9.2E-09 Ry

     The total energy is the sum of the following terms:

     one-electron contribution =  -22094.56989184 Ry
     hartree contribution      =   11091.60886102 Ry
     xc contribution           =    -569.47600065 Ry
     ewald contribution        =    9498.63679168 Ry
     Hubbard energy            =       2.80158079 Ry
     smearing contrib. (-TS)   =      -0.00144029 Ry

     convergence has been achieved in  14 iterations

     Forces acting on atoms (Ry/au):

     negative rho (up, down):  0.315E+01 0.000E+00
     atom    1 type  1   force =    -0.00678568   -0.01188372   -0.00020113
     atom    2 type  1   force =     0.00004403    0.00336508    0.00018813
     atom    3 type  2   force =     0.00019203    0.00578178    0.00078061
     atom    4 type  2   force =     0.00831433    0.00725207    0.00014644
     atom    5 type  1   force =    -0.00571873   -0.01261213   -0.00011343
     atom    6 type  1   force =     0.00738779    0.01119402   -0.00017487
     atom    7 type  1   force =    -0.00047185   -0.00251229   -0.00038757
     atom    8 type  1   force =    -0.00318943   -0.00053176   -0.00001714
     atom    9 type  2   force =     0.00107248    0.00018555    0.00042280
     atom   10 type  2   force =    -0.00000754   -0.00096206    0.00011534
     atom   11 type  1   force =    -0.00011553    0.02442251   -0.00038447
     atom   12 type  1   force =     0.00022674   -0.02417454   -0.00036841
     atom   13 type  1   force =    -0.00073031   -0.00007530    0.00037062
     atom   14 type  1   force =    -0.00679642   -0.01188816   -0.00017532
     atom   15 type  1   force =     0.00004535    0.00336430    0.00018915
     atom   16 type  2   force =     0.00019180    0.00578280    0.00078069
     atom   17 type  2   force =     0.00831537    0.00725194    0.00012986
     atom   18 type  1   force =    -0.00570808   -0.01261303   -0.00011391
     atom   19 type  1   force =     0.00739861    0.01119380   -0.00017535
     atom   20 type  1   force =    -0.00047001   -0.00251228   -0.00038843
     atom   21 type  1   force =    -0.00318655   -0.00053180   -0.00006728
     atom   22 type  2   force =     0.00108411    0.00018404    0.00042010
     atom   23 type  2   force =    -0.00000724   -0.00096210    0.00011348
     atom   24 type  1   force =    -0.00011194    0.02442412   -0.00038395
     atom   25 type  1   force =     0.00023031   -0.02417610   -0.00036800
     atom   26 type  1   force =    -0.00072840   -0.00007533    0.00035837
     atom   27 type  3   force =     0.00002459    0.00021320    0.00000095
     atom   28 type  3   force =     0.00002507    0.00021428    0.00000100
     atom   29 type  3   force =    -0.00026374    0.00033993   -0.00034823
     atom   30 type  3   force =    -0.00026116    0.00034120   -0.00035007

     Total force =     0.001927     Total SCF correction =     0.000509
     SCF correction compared to forces is large: reduce conv_thr to get better values

     bfgs converged in  13 scf cycles and  12 bfgs steps
     (criteria: energy < 0.10E-03, force < 0.10E-02)

     End of BFGS Geometry Optimization

     Final energy   =   -2071.0000992889 Ry
Begin final coordinates

ATOMIC_POSITIONS (crystal)
O0       0.000000000   0.000000000   0.379090943    0   0   1
O0       0.000000000   0.500000000   0.402473198    0   0   1
Ir1      0.250000000   0.500000000   0.452749713    0   0   1
Ir1      0.000000000   0.000000000   0.453500619    0   0   1
O0       0.250000000   0.810000000   0.453475414    0   0   1
O0       0.250000000   0.190000000   0.452937316    0   0   1
O0       0.000000000   0.500000000   0.499259661    0   0   1
O0       0.000000000   0.000000000   0.528804515    0   0   1
Ir1      0.250000000   0.000000000   0.575507238    0   0   1
Ir1      0.000000000   0.500000000   0.572197533    0   0   1
O0       0.250000000   0.690000000   0.575746416    0   0   1
O0       0.250000000   0.310000000   0.575745234    0   0   1
O0       0.000000000   0.000000000   0.620162932    0   0   1
O0       0.500000000   0.000000000   0.379089781    0   0   1
O0       0.500000000   0.500000000   0.402473140    0   0   1
Ir1      0.750000000   0.500000000   0.452749727    0   0   1
Ir1      0.500000000   0.000000000   0.453501305    0   0   1
O0       0.750000000   0.810000000   0.453475505    0   0   1
O0       0.750000000   0.190000000   0.452937427    0   0   1
O0       0.500000000   0.500000000   0.499259845    0   0   1
O0       0.500000000   0.000000000   0.528807267    0   0   1
Ir1      0.750000000   0.000000000   0.575507303    0   0   1
Ir1      0.500000000   0.500000000   0.572197763    0   0   1
O0       0.750000000   0.690000000   0.575746220    0   0   1
O0       0.750000000   0.310000000   0.575745067    0   0   1
O0       0.500000000   0.000000000   0.620165202    0   0   1
H2      -0.000257261   0.636241250   0.384903987
H2       0.499742602   0.636241326   0.384903911
H2       0.143290267   0.035855550   0.367627920
H2       0.643290874   0.035856603   0.367627896
End final coordinates

     General routines

     Parallel routines
     Hubbard U routines

   This run was terminated on:  16: 6:42   6May2014

   JOB DONE.