     Program PWSCF v.5.0.2 (svn rev. 9656) starts on 24Jan2014 at 15:49: 5

     Current dimensions of program PWSCF are:
     Max number of different atomic species (ntypx) = 10
     Max number of k-points (npk) =  40000
     Max angular momentum in pseudopotentials (lmaxx) =  3
     Reading input from MoO2-v-1.10.in

     Subspace diagonalization in iterative solution of the eigenvalue problem:
     a serial algorithm will be used

     bravais-lattice index     =            0
     lattice parameter (alat)  =       9.1290  a.u.
     unit-cell volume          =     490.2854 (a.u.)^3
     number of atoms/cell      =            6
     number of atomic types    =            2
     number of electrons       =        52.00
     number of Kohn-Sham states=           78
     kinetic-energy cutoff     =      40.0000  Ry
     charge density cutoff     =     500.0000  Ry
     convergence threshold     =      1.0E-06
     mixing beta               =       0.3000
     number of iterations used =            8  plain     mixing
     Exchange-correlation      = SLA  PW   PBE  PBE ( 1 4 3 4 0)
     EXX-fraction              =        0.00
     nstep                     =           50

     celldm(1)=   9.128957  celldm(2)=   0.000000  celldm(3)=   0.000000
     celldm(4)=   0.000000  celldm(5)=   0.000000  celldm(6)=   0.000000

     crystal axes: (cart. coord. in units of alat)
               a(1) = (   1.000000   0.000000   0.000000 )
               a(2) = (   0.000000   1.000000   0.000000 )
               a(3) = (   0.000000   0.000000   0.644444 )

     reciprocal axes: (cart. coord. in units 2 pi/alat)
               b(1) = (  1.000000  0.000000  0.000000 )
               b(2) = (  0.000000  1.000000  0.000000 )
               b(3) = (  0.000000  0.000000  1.551724 )

     PseudoPot. # 1 for Mo read from file:
     /home/camp/zhonxu/pseudo/mo_pbe_v1.uspp.F.UPF
     MD5 check sum: 30c4dcd161f5d35cd49bb5239c51a633
     Pseudo is Ultrasoft + core correction, Zval = 14.0
     Generated by new atomic code, or converted to UPF format
     Using radial grid of  889 points,  6 beta functions with:
                l(1) =   0
                l(2) =   0
                l(3) =   1
                l(4) =   1
                l(5) =   2
                l(6) =   2
     Q(r) pseudized with  6 coefficients,  rinner =    1.000   1.000   1.000
                                                       1.000   1.000

     PseudoPot. # 2 for O  read from file:
     /home/camp/zhonxu/pseudo/o_pbe_v1.01.uspp.F.UPF
     MD5 check sum: 2bcb18d16ea4b960afae9ec6d52f22d2
     Pseudo is Ultrasoft + core correction, Zval =  6.0
     Generated by new atomic code, or converted to UPF format
     Using radial grid of  737 points,  5 beta functions with:
                l(1) =   0
                l(2) =   0
                l(3) =   1
                l(4) =   1
                l(5) =   2
     Q(r) pseudized with  8 coefficients,  rinner =    0.900   0.900   0.900
                                                       0.900   0.900

     atomic species   valence    mass     pseudopotential
        Mo0           14.00    95.94000     Mo( 1.00)
        O1             6.00    15.99940     O ( 1.00)

     Starting magnetic structure
     atomic species   magnetization
        Mo0          0.000
        O1           0.000

      8 Sym. Ops., with inversion, found
          (note:  8 additional sym.ops. were found but ignored
           their fractional translations are incommensurate with FFT grid)

   Cartesian axes

     site n.     atom                  positions (alat units)
         1           Mo0 tau(   1) = (   0.0000000   0.0000000   0.0000000  )
         2           Mo0 tau(   2) = (   0.5000000   0.5000000   0.3222222  )
         3           O1  tau(   3) = (   0.3050000   0.3050000   0.0000000  )
         4           O1  tau(   4) = (  -0.3050000  -0.3050000   0.0000000  )
         5           O1  tau(   5) = (   0.8050000   0.1950000   0.3222222  )
         6           O1  tau(   6) = (   0.1950000   0.8050000   0.3222222  )

     number of k points=    54  Methfessel-Paxton smearing, width (Ry)=  0.0100
                       cart. coord. in units 2pi/alat
        k(    1) = (   0.0000000   0.0000000   0.0000000), wk =   0.0080000
        k(    2) = (   0.0000000   0.0000000   0.3103448), wk =   0.0160000
        k(    3) = (   0.0000000   0.0000000   0.6206897), wk =   0.0160000
        k(    4) = (   0.0000000   0.2000000   0.0000000), wk =   0.0320000
        k(    5) = (   0.0000000   0.2000000   0.3103448), wk =   0.0640000
        k(    6) = (   0.0000000   0.2000000   0.6206897), wk =   0.0640000
        k(    7) = (   0.0000000   0.4000000   0.0000000), wk =   0.0320000
        k(    8) = (   0.0000000   0.4000000   0.3103448), wk =   0.0640000
        k(    9) = (   0.0000000   0.4000000   0.6206897), wk =   0.0640000
        k(   10) = (   0.2000000   0.2000000   0.0000000), wk =   0.0160000
        k(   11) = (   0.2000000   0.2000000   0.3103448), wk =   0.0320000
        k(   12) = (   0.2000000   0.2000000   0.6206897), wk =   0.0320000
        k(   13) = (   0.2000000   0.4000000   0.0000000), wk =   0.0320000
        k(   14) = (   0.2000000   0.4000000   0.3103448), wk =   0.0640000
        k(   15) = (   0.2000000   0.4000000   0.6206897), wk =   0.0640000
        k(   16) = (   0.4000000   0.4000000   0.0000000), wk =   0.0160000
        k(   17) = (   0.4000000   0.4000000   0.3103448), wk =   0.0320000
        k(   18) = (   0.4000000   0.4000000   0.6206897), wk =   0.0320000
        k(   19) = (  -0.2000000   0.2000000   0.0000000), wk =   0.0160000
        k(   20) = (  -0.2000000   0.2000000  -0.3103448), wk =   0.0320000
        k(   21) = (  -0.2000000   0.2000000  -0.6206897), wk =   0.0320000
        k(   22) = (  -0.2000000   0.4000000   0.0000000), wk =   0.0320000
        k(   23) = (  -0.2000000   0.4000000  -0.3103448), wk =   0.0640000
        k(   24) = (  -0.2000000   0.4000000  -0.6206897), wk =   0.0640000
        k(   25) = (  -0.4000000   0.4000000   0.0000000), wk =   0.0160000
        k(   26) = (  -0.4000000   0.4000000  -0.3103448), wk =   0.0320000
        k(   27) = (  -0.4000000   0.4000000  -0.6206897), wk =   0.0320000
        k(   28) = (   0.0000000   0.0000000   0.0000000), wk =   0.0080000
        k(   29) = (   0.0000000   0.0000000   0.3103448), wk =   0.0160000
        k(   30) = (   0.0000000   0.0000000   0.6206897), wk =   0.0160000
        k(   31) = (   0.0000000   0.2000000   0.0000000), wk =   0.0320000
        k(   32) = (   0.0000000   0.2000000   0.3103448), wk =   0.0640000
        k(   33) = (   0.0000000   0.2000000   0.6206897), wk =   0.0640000
        k(   34) = (   0.0000000   0.4000000   0.0000000), wk =   0.0320000
        k(   35) = (   0.0000000   0.4000000   0.3103448), wk =   0.0640000
        k(   36) = (   0.0000000   0.4000000   0.6206897), wk =   0.0640000
        k(   37) = (   0.2000000   0.2000000   0.0000000), wk =   0.0160000
        k(   38) = (   0.2000000   0.2000000   0.3103448), wk =   0.0320000
        k(   39) = (   0.2000000   0.2000000   0.6206897), wk =   0.0320000
        k(   40) = (   0.2000000   0.4000000   0.0000000), wk =   0.0320000
        k(   41) = (   0.2000000   0.4000000   0.3103448), wk =   0.0640000
        k(   42) = (   0.2000000   0.4000000   0.6206897), wk =   0.0640000
        k(   43) = (   0.4000000   0.4000000   0.0000000), wk =   0.0160000
        k(   44) = (   0.4000000   0.4000000   0.3103448), wk =   0.0320000
        k(   45) = (   0.4000000   0.4000000   0.6206897), wk =   0.0320000
        k(   46) = (  -0.2000000   0.2000000   0.0000000), wk =   0.0160000
        k(   47) = (  -0.2000000   0.2000000  -0.3103448), wk =   0.0320000
        k(   48) = (  -0.2000000   0.2000000  -0.6206897), wk =   0.0320000
        k(   49) = (  -0.2000000   0.4000000   0.0000000), wk =   0.0320000
        k(   50) = (  -0.2000000   0.4000000  -0.3103448), wk =   0.0640000
        k(   51) = (  -0.2000000   0.4000000  -0.6206897), wk =   0.0640000
        k(   52) = (  -0.4000000   0.4000000   0.0000000), wk =   0.0160000
        k(   53) = (  -0.4000000   0.4000000  -0.3103448), wk =   0.0320000
        k(   54) = (  -0.4000000   0.4000000  -0.6206897), wk =   0.0320000

     Largest allocated arrays     est. size (Mb)     dimensions
     Largest temporary arrays     est. size (Mb)     dimensions

     Check: negative/imaginary core charge=   -0.000007    0.000000

     Initial potential from superposition of free atoms

     starting charge   51.99787, renormalised to   52.00000
     Starting wfc are   42 randomized atomic wfcs

     Self-consistent Calculation

     iteration #  1     ecut=    40.00 Ry     beta=0.30
     Davidson diagonalization with overlap
     ethr =  1.00E-02,  avg # of iterations =  5.4

     total energy              =    -407.36587572 Ry
     Harris-Foulkes estimate   =    -408.13568182 Ry
     estimated scf accuracy    <       1.75460122 Ry

     total magnetization       =    -0.00 Bohr mag/cell
     absolute magnetization    =     0.00 Bohr mag/cell

[...]

     End of self-consistent calculation

 ------ SPIN UP ------------

          k = 0.0000 0.0000 0.0000 (  2079 PWs)   bands (ev):

   -50.5176 -50.5084 -24.5924 -24.5923 -24.5714 -24.5427 -24.4688 -24.4687
    -8.2461  -7.5389  -6.6853  -6.6850   3.7792   3.7795   4.9269   5.3493
     5.3495   7.1986   7.1987   7.6318   8.5480   8.7527   8.7527   9.2988
    10.9987  11.2336  11.6648  11.7189  11.7190  14.0414  14.3149  16.0734
    16.8189  16.8190  17.9716  20.1947  20.1948  23.4047  24.9877  25.1115
    26.1070  27.2393  27.2393  27.3064  29.5952  30.1651  31.1333  31.1333
    32.0054  32.0055  33.3051  36.0820  36.0820  36.1164  36.8196  37.6541
    38.6889  39.3024  39.6870  39.6870  39.7076  39.8210  40.2069  40.2070
    41.0779  41.6262  41.6263  43.0656  43.9867  45.7473  45.7474  46.4667
    46.6326  47.2360  47.2360  47.7543  47.8197  48.5340

[...]

          k =-0.2000 0.2000 0.0000 (  2069 PWs)   bands (ev):

[...]

 ------ SPIN DOWN ----------

[...]

     the Fermi energy is    11.9632 ev

!    total energy              =    -407.75143742 Ry
     Harris-Foulkes estimate   =    -407.75143424 Ry
     estimated scf accuracy    <       0.00000013 Ry

     The total energy is the sum of the following terms:

     one-electron contribution =    -124.77180233 Ry
     hartree contribution      =      88.81058400 Ry
     xc contribution           =     -67.09174618 Ry
     ewald contribution        =    -304.69830307 Ry
     smearing contrib. (-TS)   =      -0.00016983 Ry

[...]

     convergence has been achieved in   9 iterations

     Forces acting on atoms (Ry/au):

     atom    1 type  1   force =     0.00000000    0.00000000    0.00000000
     atom    2 type  1   force =     0.00000000    0.00000000    0.00000000
     atom    3 type  2   force =    -0.02629984   -0.02629984    0.00000000
     atom    4 type  2   force =     0.02629984    0.02629984   -0.00000000
     atom    5 type  2   force =    -0.02630174    0.02630174    0.00000000
     atom    6 type  2   force =     0.02630174   -0.02630174    0.00000000

[...]
        k(    5) = (  -0.0000000   0.1904250   0.3423392), wk =   0.0640000
        k(    6) = (  -0.0000000   0.1904250   0.6846784), wk =   0.0640000
        k(    7) = (  -0.0000000   0.3808500   0.0000000), wk =   0.0320000
        k(    8) = (  -0.0000000   0.3808500   0.3423392), wk =   0.0640000
        k(    9) = (  -0.0000000   0.3808500   0.6846784), wk =   0.0640000
        k(   10) = (   0.1904250   0.1904250   0.0000000), wk =   0.0160000
        k(   11) = (   0.1904250   0.1904250   0.3423392), wk =   0.0320000
        k(   12) = (   0.1904250   0.1904250   0.6846784), wk =   0.0320000
        k(   13) = (   0.1904250   0.3808500   0.0000000), wk =   0.0320000
        k(   14) = (   0.1904250   0.3808500   0.3423392), wk =   0.0640000
        k(   15) = (   0.1904250   0.3808500   0.6846784), wk =   0.0640000
        k(   16) = (   0.3808500   0.3808500   0.0000000), wk =   0.0160000
        k(   17) = (   0.3808500   0.3808500   0.3423392), wk =   0.0320000
        k(   18) = (   0.3808500   0.3808500   0.6846784), wk =   0.0320000
        k(   19) = (  -0.1904250   0.1904250   0.0000000), wk =   0.0160000
        k(   20) = (  -0.1904250   0.1904250  -0.3423392), wk =   0.0320000
        k(   21) = (  -0.1904250   0.1904250  -0.6846784), wk =   0.0320000
        k(   22) = (  -0.1904250   0.3808500   0.0000000), wk =   0.0320000
        k(   23) = (  -0.1904250   0.3808500  -0.3423392), wk =   0.0640000
        k(   24) = (  -0.1904250   0.3808500  -0.6846784), wk =   0.0640000
        k(   25) = (  -0.3808500   0.3808500   0.0000000), wk =   0.0160000
        k(   26) = (  -0.3808500   0.3808500  -0.3423392), wk =   0.0320000
        k(   27) = (  -0.3808500   0.3808500  -0.6846784), wk =   0.0320000
        k(   28) = (   0.0000000   0.0000000   0.0000000), wk =   0.0080000
        k(   29) = (   0.0000000   0.0000000   0.3423392), wk =   0.0160000
        k(   30) = (   0.0000000   0.0000000   0.6846784), wk =   0.0160000
        k(   31) = (  -0.0000000   0.1904250   0.0000000), wk =   0.0320000
        k(   32) = (  -0.0000000   0.1904250   0.3423392), wk =   0.0640000
        k(   33) = (  -0.0000000   0.1904250   0.6846784), wk =   0.0640000
        k(   34) = (  -0.0000000   0.3808500   0.0000000), wk =   0.0320000
        k(   35) = (  -0.0000000   0.3808500   0.3423392), wk =   0.0640000
        k(   36) = (  -0.0000000   0.3808500   0.6846784), wk =   0.0640000
        k(   37) = (   0.1904250   0.1904250   0.0000000), wk =   0.0160000
        k(   38) = (   0.1904250   0.1904250   0.3423392), wk =   0.0320000
        k(   39) = (   0.1904250   0.1904250   0.6846784), wk =   0.0320000
        k(   40) = (   0.1904250   0.3808500   0.0000000), wk =   0.0320000
        k(   41) = (   0.1904250   0.3808500   0.3423392), wk =   0.0640000
        k(   42) = (   0.1904250   0.3808500   0.6846784), wk =   0.0640000
        k(   43) = (   0.3808500   0.3808500   0.0000000), wk =   0.0160000
        k(   44) = (   0.3808500   0.3808500   0.3423392), wk =   0.0320000
        k(   45) = (   0.3808500   0.3808500   0.6846784), wk =   0.0320000
        k(   46) = (  -0.1904250   0.1904250   0.0000000), wk =   0.0160000
        k(   47) = (  -0.1904250   0.1904250  -0.3423392), wk =   0.0320000
        k(   48) = (  -0.1904250   0.1904250  -0.6846784), wk =   0.0320000
        k(   49) = (  -0.1904250   0.3808500   0.0000000), wk =   0.0320000
        k(   50) = (  -0.1904250   0.3808500  -0.3423392), wk =   0.0640000
        k(   51) = (  -0.1904250   0.3808500  -0.6846784), wk =   0.0640000
        k(   52) = (  -0.3808500   0.3808500   0.0000000), wk =   0.0160000
        k(   53) = (  -0.3808500   0.3808500  -0.3423392), wk =   0.0320000
        k(   54) = (  -0.3808500   0.3808500  -0.6846784), wk =   0.0320000

[...]

     Threshold (ethr) on eigenvalues was too large:
     Diagonalizing with lowered threshold

     Davidson diagonalization with overlap
     ethr =  5.19E-09,  avg # of iterations =  1.2

[...]

     Volume is kept fixed: isostatic pressure set to zero

     bfgs converged in   9 scf cycles and   8 bfgs steps
     (criteria: energy < 0.10E-03, force < 0.10E-02, cell < 0.50E+00)

     End of BFGS Geometry Optimization

     Final enthalpy =    -407.8054700942 Ry
Begin final coordinates
     new unit-cell volume =    490.28540 a.u.^3 (    72.65280 Ang^3 )

CELL_PARAMETERS (alat=  9.12895696)
   1.050282315   0.000000011   0.000000000
   0.000000011   1.050282315   0.000000000
   0.000000000   0.000000000   0.584215908

ATOMIC_POSITIONS (crystal)
Mo0      0.000000000   0.000000000   0.000000000    0   0   0
Mo0      0.500000000   0.500000000   0.500000000    0   0   0
O1       0.283178731   0.283178731   0.000000000    1   1   0
O1      -0.283178731  -0.283178731   0.000000000    1   1   0
O1       0.783178798   0.216821202   0.500000000    1   1   0
O1       0.216821202   0.783178798   0.500000000    1   1   0
End final coordinates

     A final scf calculation at the relaxed structure.
     The G-vectors are recalculated for the final unit cell
     Results may differ from those at the preceding step.

     bravais-lattice index     =            0
     lattice parameter (alat)  =       9.1290  a.u.
     unit-cell volume          =     490.2854 (a.u.)^3
     number of atoms/cell      =            6
     number of atomic types    =            2
     number of electrons       =        52.00
     number of Kohn-Sham states=           78
     kinetic-energy cutoff     =      40.0000  Ry
     charge density cutoff     =     500.0000  Ry
     convergence threshold     =      1.0E-08
     mixing beta               =       0.3000
     number of iterations used =            8  plain     mixing
     Exchange-correlation      = SLA  PW   PBE  PBE ( 1 4 3 4 0)
     EXX-fraction              =        0.00

     celldm(1)=   9.128957  celldm(2)=   0.000000  celldm(3)=   0.000000
     celldm(4)=   0.000000  celldm(5)=   0.000000  celldm(6)=   0.000000

     crystal axes: (cart. coord. in units of alat)
               a(1) = (   1.050282   0.000000   0.000000 )
               a(2) = (   0.000000   1.050282   0.000000 )
               a(3) = (   0.000000   0.000000   0.584216 )

     reciprocal axes: (cart. coord. in units 2 pi/alat)
               b(1) = (  0.952125 -0.000000  0.000000 )
               b(2) = ( -0.000000  0.952125  0.000000 )
               b(3) = (  0.000000  0.000000  1.711696 )

     PseudoPot. # 1 for Mo read from file:
     /home/camp/zhonxu/pseudo/mo_pbe_v1.uspp.F.UPF
     MD5 check sum: 30c4dcd161f5d35cd49bb5239c51a633
     Pseudo is Ultrasoft + core correction, Zval = 14.0
     Generated by new atomic code, or converted to UPF format
     Using radial grid of  889 points,  6 beta functions with:
                l(1) =   0
                l(2) =   0
                l(3) =   1
                l(4) =   1
                l(5) =   2
                l(6) =   2
     Q(r) pseudized with  6 coefficients,  rinner =    1.000   1.000   1.000
                                                       1.000   1.000

     PseudoPot. # 2 for O  read from file:
     /home/camp/zhonxu/pseudo/o_pbe_v1.01.uspp.F.UPF
     MD5 check sum: 2bcb18d16ea4b960afae9ec6d52f22d2
     Pseudo is Ultrasoft + core correction, Zval =  6.0
     Generated by new atomic code, or converted to UPF format
     Using radial grid of  737 points,  5 beta functions with:
                l(1) =   0
                l(2) =   0
                l(3) =   1
                l(4) =   1
                l(5) =   2
     Q(r) pseudized with  8 coefficients,  rinner =    0.900   0.900   0.900
                                                       0.900   0.900

     atomic species   valence    mass     pseudopotential
        Mo0           14.00    95.94000     Mo( 1.00)
        O1             6.00    15.99940     O ( 1.00)

     Starting magnetic structure
     atomic species   magnetization
        Mo0          0.000
        O1           0.000

      8 Sym. Ops., with inversion, found
          (note:  8 additional sym.ops. were found but ignored
           their fractional translations are incommensurate with FFT grid)

   Cartesian axes

     site n.     atom                  positions (alat units)
         1           Mo0 tau(   1) = (   0.0000000   0.0000000   0.0000000  )
         2           Mo0 tau(   2) = (   0.5251412   0.5251412   0.2921080  )
         3           O1  tau(   3) = (   0.2974176   0.2974176   0.0000000  )
         4           O1  tau(   4) = (  -0.2974176  -0.2974176   0.0000000  )
         5           O1  tau(   5) = (   0.8225588   0.2277235   0.2921080  )
         6           O1  tau(   6) = (   0.2277235   0.8225588   0.2921080  )

     number of k points=    54  Methfessel-Paxton smearing, width (Ry)=  0.0100
                       cart. coord. in units 2pi/alat
        k(    1) = (   0.0000000   0.0000000   0.0000000), wk =   0.0080000
        k(    2) = (   0.0000000   0.0000000   0.3423392), wk =   0.0160000
        k(    3) = (   0.0000000   0.0000000   0.6846784), wk =   0.0160000
        k(    4) = (  -0.0000000   0.1904250   0.0000000), wk =   0.0320000
        k(    5) = (  -0.0000000   0.1904250   0.3423392), wk =   0.0640000
        k(    6) = (  -0.0000000   0.1904250   0.6846784), wk =   0.0640000
        k(    7) = (  -0.0000000   0.3808500   0.0000000), wk =   0.0320000
        k(    8) = (  -0.0000000   0.3808500   0.3423392), wk =   0.0640000
        k(    9) = (  -0.0000000   0.3808500   0.6846784), wk =   0.0640000
        k(   10) = (   0.1904250   0.1904250   0.0000000), wk =   0.0160000
        k(   11) = (   0.1904250   0.1904250   0.3423392), wk =   0.0320000
        k(   12) = (   0.1904250   0.1904250   0.6846784), wk =   0.0320000
        k(   13) = (   0.1904250   0.3808500   0.0000000), wk =   0.0320000
        k(   14) = (   0.1904250   0.3808500   0.3423392), wk =   0.0640000
        k(   15) = (   0.1904250   0.3808500   0.6846784), wk =   0.0640000
        k(   16) = (   0.3808500   0.3808500   0.0000000), wk =   0.0160000
        k(   17) = (   0.3808500   0.3808500   0.3423392), wk =   0.0320000
        k(   18) = (   0.3808500   0.3808500   0.6846784), wk =   0.0320000
        k(   19) = (  -0.1904250   0.1904250   0.0000000), wk =   0.0160000
        k(   20) = (  -0.1904250   0.1904250  -0.3423392), wk =   0.0320000
        k(   21) = (  -0.1904250   0.1904250  -0.6846784), wk =   0.0320000
        k(   22) = (  -0.1904250   0.3808500   0.0000000), wk =   0.0320000
        k(   23) = (  -0.1904250   0.3808500  -0.3423392), wk =   0.0640000
        k(   24) = (  -0.1904250   0.3808500  -0.6846784), wk =   0.0640000
        k(   25) = (  -0.3808500   0.3808500   0.0000000), wk =   0.0160000
        k(   26) = (  -0.3808500   0.3808500  -0.3423392), wk =   0.0320000
        k(   27) = (  -0.3808500   0.3808500  -0.6846784), wk =   0.0320000
        k(   28) = (   0.0000000   0.0000000   0.0000000), wk =   0.0080000
        k(   29) = (   0.0000000   0.0000000   0.3423392), wk =   0.0160000
        k(   30) = (   0.0000000   0.0000000   0.6846784), wk =   0.0160000
        k(   31) = (  -0.0000000   0.1904250   0.0000000), wk =   0.0320000
        k(   32) = (  -0.0000000   0.1904250   0.3423392), wk =   0.0640000
        k(   33) = (  -0.0000000   0.1904250   0.6846784), wk =   0.0640000
        k(   34) = (  -0.0000000   0.3808500   0.0000000), wk =   0.0320000
        k(   35) = (  -0.0000000   0.3808500   0.3423392), wk =   0.0640000
        k(   36) = (  -0.0000000   0.3808500   0.6846784), wk =   0.0640000
        k(   37) = (   0.1904250   0.1904250   0.0000000), wk =   0.0160000
        k(   38) = (   0.1904250   0.1904250   0.3423392), wk =   0.0320000
        k(   39) = (   0.1904250   0.1904250   0.6846784), wk =   0.0320000
        k(   40) = (   0.1904250   0.3808500   0.0000000), wk =   0.0320000
        k(   41) = (   0.1904250   0.3808500   0.3423392), wk =   0.0640000
        k(   42) = (   0.1904250   0.3808500   0.6846784), wk =   0.0640000
        k(   43) = (   0.3808500   0.3808500   0.0000000), wk =   0.0160000
        k(   44) = (   0.3808500   0.3808500   0.3423392), wk =   0.0320000
        k(   45) = (   0.3808500   0.3808500   0.6846784), wk =   0.0320000
        k(   46) = (  -0.1904250   0.1904250   0.0000000), wk =   0.0160000
        k(   47) = (  -0.1904250   0.1904250  -0.3423392), wk =   0.0320000
        k(   48) = (  -0.1904250   0.1904250  -0.6846784), wk =   0.0320000
        k(   49) = (  -0.1904250   0.3808500   0.0000000), wk =   0.0320000
        k(   50) = (  -0.1904250   0.3808500  -0.3423392), wk =   0.0640000
        k(   51) = (  -0.1904250   0.3808500  -0.6846784), wk =   0.0640000
        k(   52) = (  -0.3808500   0.3808500   0.0000000), wk =   0.0160000
        k(   53) = (  -0.3808500   0.3808500  -0.3423392), wk =   0.0320000
        k(   54) = (  -0.3808500   0.3808500  -0.6846784), wk =   0.0320000

     Largest allocated arrays     est. size (Mb)     dimensions
     Largest temporary arrays     est. size (Mb)     dimensions

     Check: negative/imaginary core charge=   -0.000007    0.000000

     Initial potential from superposition of free atoms

     starting charge   51.99787, renormalised to   52.00000
     Starting wfc are   42 randomized atomic wfcs

     Self-consistent Calculation

[...]

     total energy              =    -407.80561735 Ry
     Harris-Foulkes estimate   =    -407.80561654 Ry
     estimated scf accuracy    <       0.00000008 Ry

[...]

     iteration # 11     ecut=    40.00 Ry     beta=0.30
     Davidson diagonalization with overlap
     ethr =  1.50E-10,  avg # of iterations =  1.0

     End of self-consistent calculation

 ------ SPIN UP ------------

[...]

 ------ SPIN DOWN ----------

[...]

          k = 0.3808 0.3808 0.6847 (  2079 PWs)   bands (ev):

[...]

          k =-0.3808 0.3808-0.6847 (  2079 PWs)   bands (ev):

   -50.8309 -50.8307 -25.2047 -25.2025 -25.0543 -25.0515 -24.7359 -24.7357
    -7.3375  -7.1705  -7.0413  -6.8598   4.6257   4.9942   5.0399   5.2698
     5.4536   5.9467   6.0316   6.6283   7.6793   7.8354   8.5444   8.6912
    11.1846  11.4469  12.0486  12.3901  13.3719  13.4461  14.9370  15.7954
    16.0087  16.7420  20.5730  21.1380  21.1611  21.5228  24.5042  24.5304
    26.0268  26.1137  27.3056  27.4819  28.1119  28.6315  29.6586  30.2061
    32.7002  32.9906  33.6268  33.7956  35.6057  36.0200  37.5282  37.8567
    38.4598  38.7866  39.5907  40.4482  40.5513  40.9027  40.9691  41.9243
    42.1792  42.2034  42.5537  43.0595  43.3470  43.5301  44.1296  44.3739
    45.6701  46.7544  49.2232  49.4198  49.8565  50.0525

     the Fermi energy is    11.4737 ev

!    total energy              =    -407.80561815 Ry
     Harris-Foulkes estimate   =    -407.80561736 Ry
     estimated scf accuracy    <          6.2E-09 Ry

     The total energy is the sum of the following terms:

     one-electron contribution =    -127.53717331 Ry
     hartree contribution      =      89.82750774 Ry
     xc contribution           =     -67.01189087 Ry
     ewald contribution        =    -303.08398483 Ry
     smearing contrib. (-TS)   =      -0.00007689 Ry

     total magnetization       =    -0.00 Bohr mag/cell
     absolute magnetization    =     0.00 Bohr mag/cell

     convergence has been achieved in  11 iterations

     Forces acting on atoms (Ry/au):

     atom    1 type  1   force =     0.00000000    0.00000000    0.00000000
     atom    2 type  1   force =     0.00000000    0.00000000    0.00000000
     atom    3 type  2   force =    -0.00011917   -0.00011917    0.00000000
     atom    4 type  2   force =     0.00011917    0.00011917    0.00000000
     atom    5 type  2   force =    -0.00011929    0.00011929    0.00000000
     atom    6 type  2   force =     0.00011929   -0.00011929    0.00000000

     Total force =     0.000337     Total SCF correction =     0.000050
     SCF correction compared to forces is large: reduce conv_thr to get better values

     entering subroutine stress ...

          total   stress  (Ry/bohr**3)                   (kbar)     P= -199.50
  -0.00135304  -0.00000001   0.00000000       -199.04     -0.00      0.00
  -0.00000001  -0.00135304   0.00000000         -0.00   -199.04      0.00
   0.00000000   0.00000000  -0.00136237          0.00      0.00   -200.41

     General routines

     Parallel routines

   This run was terminated on:  16:54:54  24Jan2014

   JOB DONE.
Running PBS batch system epilogue script
Job id: 251953.audhumbla.fysik.dtu.dk
Username: zhonxu
Groupname: campgst
Jobname: MoO2/fine-EOS/non-mag/MoO2-v-1.10
Sessionid: 24901
Queuename: verylong
Accounting:
This job has allocated the following 4 nodes:
q018 q018 q018 q018
Finished epilogue job 251953.audhumbla.fysik.dtu.dk for zhonxu