     Program PWSCF v.5.0.2 (svn rev. 9656) starts on 19May2014 at  6:43:23

     Current dimensions of program PWSCF are:
     Max number of different atomic species (ntypx) = 10
     Max number of k-points (npk) =  40000
     Max angular momentum in pseudopotentials (lmaxx) =  3
     Reading input from pwscf.in
Warning: card &CELL ignored
Warning: card / ignored

     Subspace diagonalization in iterative solution of the eigenvalue problem:
     a serial algorithm will be used

     bravais-lattice index     =            0
     lattice parameter (alat)  =      10.3179  a.u.
     unit-cell volume          =    6964.3238 (a.u.)^3
     number of atoms/cell      =           33
     number of atomic types    =            3
     number of electrons       =       237.00
     number of Kohn-Sham states=          355
     kinetic-energy cutoff     =      40.0000  Ry
     charge density cutoff     =     500.0000  Ry
     convergence threshold     =      1.0E-06
     mixing beta               =       0.7000
     number of iterations used =            8  plain     mixing
     Exchange-correlation      = SLA  PW   PBE  PBE ( 1 4 3 4 0)
     EXX-fraction              =        0.00
     nstep                     =           50

     celldm(1)=  10.317905  celldm(2)=   0.000000  celldm(3)=   0.000000
     celldm(4)=   0.000000  celldm(5)=   0.000000  celldm(6)=   0.000000

     crystal axes: (cart. coord. in units of alat)
               a(1) = (   1.000000   0.000000   0.000000 )
               a(2) = (   0.000000   1.282117   0.000000 )
               a(3) = (   0.000000   0.000000   4.945120 )

     reciprocal axes: (cart. coord. in units 2 pi/alat)
               b(1) = (  1.000000  0.000000  0.000000 )
               b(2) = (  0.000000  0.779960  0.000000 )
               b(3) = (  0.000000  0.000000  0.202220 )

     PseudoPot. # 1 for O  read from file:
     /home/camp/zhonxu/pseudo/o_pbe_v1.01.uspp.F.UPF
     MD5 check sum: 2bcb18d16ea4b960afae9ec6d52f22d2
     Pseudo is Ultrasoft + core correction, Zval =  6.0
     Generated by new atomic code, or converted to UPF format
     Using radial grid of  737 points,  5 beta functions with:
                l(1) =   0
                l(2) =   0
                l(3) =   1
                l(4) =   1
                l(5) =   2
     Q(r) pseudized with  8 coefficients,  rinner =    0.900   0.900   0.900
                                                       0.900   0.900

     PseudoPot. # 2 for Mo read from file:
     /home/camp/zhonxu/pseudo/mo_pbe_v1.uspp.F.UPF
     MD5 check sum: 30c4dcd161f5d35cd49bb5239c51a633
     Pseudo is Ultrasoft + core correction, Zval = 14.0
     Generated by new atomic code, or converted to UPF format
     Using radial grid of  889 points,  6 beta functions with:
                l(1) =   0
                l(2) =   0
                l(3) =   1
                l(4) =   1
                l(5) =   2
                l(6) =   2
     Q(r) pseudized with  6 coefficients,  rinner =    1.000   1.000   1.000
                                                       1.000   1.000

     PseudoPot. # 3 for H  read from file:
     /home/camp/zhonxu/pseudo/h_pbe_v1.uspp.F.UPF
     MD5 check sum: 3408e3ff4ec8b0a4e358431e7e038a48
     Pseudo is Ultrasoft, Zval =  1.0
     Generated by new atomic code, or converted to UPF format
     Using radial grid of  615 points,  2 beta functions with:
                l(1) =   0
                l(2) =   0
     Q(r) pseudized with  8 coefficients,  rinner =    0.700

     atomic species   valence    mass     pseudopotential
        O0             6.00    15.99940     O ( 1.00)
        Mo1           14.00    95.94000     Mo( 1.00)
        H2             1.00     1.00794     H ( 1.00)

     No symmetry found

   Cartesian axes

     site n.     atom                  positions (alat units)
         1           O0  tau(   1) = (   0.0000000   0.0000000   1.8465574  )
         2           O0  tau(   2) = (   0.0000000   0.6410583   1.8808271  )
         3           Mo1 tau(   3) = (   0.2500000   0.6410583   2.1650231  )
         4           Mo1 tau(   4) = (   0.0000000   0.0000000   2.2064633  )
         5           O0  tau(   5) = (   0.2500000   1.0000510   2.1927158  )
         6           O0  tau(   6) = (   0.2500000   0.2820657   2.1921224  )
         7           O0  tau(   7) = (   0.0000000   0.6410583   2.4520379  )
         8           O0  tau(   8) = (   0.0000000   0.0000000   2.5658746  )
         9           Mo1 tau(   9) = (   0.2500000   0.0000000   2.8596642  )
        10           Mo1 tau(  10) = (   0.0000000   0.6410583   2.7884050  )
        11           O0  tau(  11) = (   0.2500000   0.9231240   2.8369661  )
        12           O0  tau(  12) = (   0.2500000   0.3589927   2.8372628  )
        13           O0  tau(  13) = (   0.0000000   0.0000000   3.1104807  )
        14           O0  tau(  14) = (   0.5000000   0.0000000   1.8465574  )
        15           O0  tau(  15) = (   0.5000000   0.6410583   1.8808271  )
        16           Mo1 tau(  16) = (   0.7500000   0.6410583   2.1650231  )
        17           Mo1 tau(  17) = (   0.5000000   0.0000000   2.2064633  )
        18           O0  tau(  18) = (   0.7500000   1.0000510   2.1927158  )
        19           O0  tau(  19) = (   0.7500000   0.2820657   2.1921224  )
        20           O0  tau(  20) = (   0.5000000   0.6410583   2.4520379  )
        21           O0  tau(  21) = (   0.5000000   0.0000000   2.5658746  )
        22           Mo1 tau(  22) = (   0.7500000   0.0000000   2.8596642  )
        23           Mo1 tau(  23) = (   0.5000000   0.6410583   2.7884050  )
        24           O0  tau(  24) = (   0.7500000   0.9231240   2.8369661  )
        25           O0  tau(  25) = (   0.7500000   0.3589927   2.8372628  )
        26           O0  tau(  26) = (   0.5000000   0.0000000   3.1104807  )
        27           H2  tau(  27) = (  -0.0004900   0.7868222   1.7746059  )
        28           H2  tau(  28) = (   0.4995100   0.7868222   1.7746059  )
        29           H2  tau(  29) = (   0.1657500   0.0265270   1.7749026  )
        30           H2  tau(  30) = (   0.6657500   0.0265270   1.7749026  )
        31           O0  tau(  31) = (   0.5002100   0.6410583   3.1552340  )
        32           O0  tau(  32) = (   0.4999400   0.4276885   3.2981480  )
        33           H2  tau(  33) = (   0.5000100   0.4819220   3.4699910  )

     number of k points=    10  Methfessel-Paxton smearing, width (Ry)=  0.0100
                       cart. coord. in units 2pi/alat
        k(    1) = (   0.0000000   0.0000000   0.0000000), wk =   0.1250000
        k(    2) = (   0.0000000   0.1949901   0.0000000), wk =   0.2500000
        k(    3) = (   0.0000000  -0.3899801   0.0000000), wk =   0.1250000
        k(    4) = (   0.2500000   0.0000000   0.0000000), wk =   0.2500000
        k(    5) = (   0.2500000   0.1949901   0.0000000), wk =   0.2500000
        k(    6) = (   0.2500000  -0.3899801   0.0000000), wk =   0.2500000
        k(    7) = (  -0.5000000   0.0000000   0.0000000), wk =   0.1250000
        k(    8) = (  -0.5000000   0.1949901   0.0000000), wk =   0.2500000
        k(    9) = (  -0.5000000  -0.3899801   0.0000000), wk =   0.1250000
        k(   10) = (  -0.2500000   0.1949901   0.0000000), wk =   0.2500000

     Largest allocated arrays     est. size (Mb)     dimensions
     Largest temporary arrays     est. size (Mb)     dimensions

     Check: negative/imaginary core charge=   -0.000003    0.000000

     Initial potential from superposition of free atoms
     Check: negative starting charge=   -0.002183

     starting charge  236.99142, renormalised to  237.00000

     negative rho (up, down):  0.218E-02 0.000E+00
     Starting wfc are  189 randomized atomic wfcs

     Self-consistent Calculation

     iteration #  1     ecut=    40.00 Ry     beta=0.70
     Davidson diagonalization with overlap
     ethr =  1.00E-02,  avg # of iterations =  6.0

     negative rho (up, down):  0.310E-02 0.000E+00

     total energy              =   -1761.05111480 Ry
     Harris-Foulkes estimate   =   -1767.62689094 Ry
     estimated scf accuracy    <       8.57382314 Ry

[...]

     End of self-consistent calculation

          k = 0.0000 0.0000 0.0000 ( 29769 PWs)   bands (ev):

   -62.1503 -62.0959 -62.0290 -61.9758 -61.9378 -61.9050 -61.8581 -61.7886
   -36.8456 -36.5373 -36.5354 -36.4849 -36.4788 -36.4445 -36.3670 -36.3601
   -36.2300 -36.2085 -36.1312 -36.0966 -36.0852 -36.0821 -36.0579 -36.0527
   -35.9474 -35.9211 -35.8783 -35.8723 -35.7547 -35.5003 -35.4447 -35.3879
   -23.0291 -20.5585 -20.2166 -19.6870 -19.4860 -19.3941 -19.1563 -19.0999
   -18.7038 -18.6898 -18.6786 -18.6580 -18.5275 -18.4641 -18.3630 -18.3020
   -18.2949 -17.6833 -17.4523 -16.1358  -8.6465  -8.4001  -8.1917  -7.9985
    -7.8937  -7.8430  -7.3719  -7.1443  -6.9783  -6.9301  -6.6834  -6.6061
    -6.5239  -6.4841  -6.4567  -6.2400  -6.2016  -6.0147  -5.9163  -5.8729
    -5.8377  -5.7624  -5.7244  -5.5075  -5.2875  -5.0350  -4.9332  -4.9039
    -4.7848  -4.6874  -4.6611  -4.5328  -4.4979  -4.3125  -4.2653  -4.1954
    -4.1157  -3.9653  -3.8395  -3.7694  -3.7239  -3.6516  -3.4932  -3.4323
    -3.2892  -3.2838  -3.0401  -2.9339  -2.8236  -2.7612  -2.7445  -2.7206
    -2.6752  -2.4784  -2.3998  -2.2513  -2.1639  -2.0859  -2.0272  -1.8378
    -1.6387  -0.7292  -0.1985  -0.0405   0.3248   0.4204   0.5315   0.6866
     0.8850   0.9714   1.0872   1.1323   1.4066   1.6282   1.6505   1.7150
     1.8498   2.3201   2.3888   3.0063   3.2092   3.2838   3.4196   3.4209
     3.5028   3.6948   4.0523   4.1708   4.2488   4.4209   4.5642   4.5673
     4.6204   4.8287   4.8614   4.8861   5.0763   5.2150   5.2585   5.3417
     5.4196   5.4386   5.5557   5.9725   6.3109   6.5126   6.5461   6.9210
     7.1320   7.2064   7.4204   7.5305   7.5837   7.6470   7.8968   7.9723
     8.1248   8.1527   8.2592   8.6583   8.8525   8.8865   9.0790   9.0924
     9.1793   9.3288   9.3589   9.3828   9.4745   9.5022   9.7249   9.7726
     9.9252  10.0012  10.0425  10.1013  10.1688  10.2359  10.3192  10.3516
    10.5698  10.7022  10.7435  10.8764  10.8928  11.1187  11.1973  11.2642
    11.3411  11.5648  11.6889  11.7147  11.8340  11.8776  11.9755  12.0539
    12.1022  12.1690  12.2210  12.3990  12.4620  12.5011  12.5384  12.6112
    12.6704  12.7043  12.7627  12.7698  12.8165  12.8772  13.0403  13.0653
    13.1722  13.2414  13.3080  13.3518  13.4366  13.5520  13.5660  13.7048
    13.7606  13.7691  13.8389  14.0026  14.0244  14.0489  14.1658  14.2027
    14.2540  14.2903  14.4513  14.5873  14.6364  14.6962  14.7713  14.8990
    15.0148  15.0669  15.1733  15.1928  15.2923  15.4504  15.4777  15.6353
    15.7503  15.7703  15.8948  15.9768  15.9991  16.0247  16.1174  16.1342
    16.1880  16.2435  16.3530  16.3585  16.4460  16.5323  16.5983  16.6288
    16.6909  16.7528  16.7737  16.8231  16.8927  16.9065  16.9383  17.0142
    17.1008  17.1324  17.3695  17.5309  17.6554  17.7862  17.8705  17.8947
    17.9949  18.0159  18.1668  18.2993  18.3454  18.4361  18.4998  18.5764
    18.6149  18.7169  18.8079  18.8362  18.8930  19.0057  19.0943  19.1674
[...]
     atom   29 type  3   force =     0.00155724   -0.00050258    0.00063340
     atom   30 type  3   force =     0.00101212   -0.00042383    0.00059802
     atom   31 type  1   force =     0.00010066    0.04063945    0.00060093
     atom   32 type  1   force =    -0.00010853   -0.04136884    0.00025319
     atom   33 type  3   force =     0.00003681    0.02266666   -0.00063667

     Total force =     0.163264     Total SCF correction =     0.001836

     entering subroutine stress ...

     negative rho (up, down):  0.338E-02 0.000E+00
          total   stress  (Ry/bohr**3)                   (kbar)     P=   -3.96
   0.00000949  -0.00000091   0.00000190          1.40     -0.13      0.28
  -0.00000091  -0.00006517   0.00000694         -0.13     -9.59      1.02
   0.00000190   0.00000694  -0.00002508          0.28      1.02     -3.69

     BFGS Geometry Optimization

     number of scf cycles    =   1
     number of bfgs steps    =   0

     energy   new            =   -1765.6799337829 Ry

     new trust radius        =       0.1330741371 bohr
     new conv_thr            =       0.0000010000 Ry

ATOMIC_POSITIONS (crystal)
O0       0.000000000   0.000000000   0.373402305    0   0   1
O0       0.000000000   0.500000000   0.380355830    0   0   1
Mo1      0.250000000   0.500000000   0.437705101    0   0   1
Mo1      0.000000000   0.000000000   0.446040111    0   0   1
O0       0.250000000   0.780000000   0.443433292    0   0   1
O0       0.250000000   0.220000000   0.443313262    0   0   1
O0       0.000000000   0.500000000   0.495879707    0   0   1
O0       0.000000000   0.000000000   0.519043066    0   0   1
Mo1      0.250000000   0.000000000   0.578435707    0   0   1
Mo1      0.000000000   0.500000000   0.564168442    0   0   1
O0       0.250000000   0.720000000   0.573199218    0   0   1
O0       0.250000000   0.280000000   0.573224541    0   0   1
O0       0.000000000   0.000000000   0.628894547    0   0   1
O0       0.500000000   0.000000000   0.373379428    0   0   1
O0       0.500000000   0.500000000   0.380373350    0   0   1
Mo1      0.750000000   0.500000000   0.437704336    0   0   1
Mo1      0.500000000   0.000000000   0.446162075    0   0   1
O0       0.750000000   0.780000000   0.443432015    0   0   1
O0       0.750000000   0.220000000   0.443314833    0   0   1
O0       0.500000000   0.500000000   0.495073770    0   0   1
O0       0.500000000   0.000000000   0.518896967    0   0   1
Mo1      0.750000000   0.000000000   0.578431829    0   0   1
Mo1      0.500000000   0.500000000   0.566478106    0   0   1
O0       0.750000000   0.720000000   0.573198517    0   0   1
O0       0.750000000   0.280000000   0.573224920    0   0   1
O0       0.500000000   0.000000000   0.628718257    0   0   1
H2      -0.000490918   0.613679408   0.358861851
H2       0.499509433   0.613702587   0.358866221
H2       0.165900926   0.020652009   0.358932414
H2       0.665848093   0.020657961   0.358931721
O0       0.500210000   0.503072054   0.638061778    0   1   1
O0       0.499940000   0.330452810   0.666954962    0   1   1
H2       0.500010000   0.377593438   0.701687522    0   1   1

     Check: negative starting charge=   -0.002183
     NEW-OLD atomic charge density approx. for the potential

     Check: negative/imaginary core charge=   -0.000003    0.000000
     Check: negative starting charge=   -0.002206

[...]

     energy   old            =   -1765.6799337829 Ry
     energy   new            =   -1765.6958426713 Ry

     CASE: energy  _new < energy  _old

[...]

     Threshold (ethr) on eigenvalues was too large:
     Diagonalizing with lowered threshold

     Davidson diagonalization with overlap
     ethr =  5.71E-08,  avg # of iterations =  1.2

[...]

     Total force =     0.002634     Total SCF correction =     0.000271
     SCF correction compared to forces is large: reduce conv_thr to get better values

[...]

     Total force =     0.002419     Total SCF correction =     0.000105

[...]

     number of scf cycles    =  34
     number of bfgs steps    =  33

     energy   old            =   -1765.7129660606 Ry
     energy   new            =   -1765.7129780411 Ry

     CASE: energy  _new < energy  _old

     new trust radius        =       0.0081557951 bohr
     new conv_thr            =       0.0000000100 Ry

ATOMIC_POSITIONS (crystal)
O0       0.000000000   0.000000000   0.370982514    0   0   1
O0       0.000000000   0.500000000   0.382697087    0   0   1
Mo1      0.250000000   0.500000000   0.440466138    0   0   1
Mo1      0.000000000   0.000000000   0.443457643    0   0   1
O0       0.250000000   0.780000000   0.442820299    0   0   1
O0       0.250000000   0.220000000   0.442687219    0   0   1
O0       0.000000000   0.500000000   0.497611944    0   0   1
O0       0.000000000   0.000000000   0.516804792    0   0   1
Mo1      0.250000000   0.000000000   0.575388610    0   0   1
Mo1      0.000000000   0.500000000   0.565264256    0   0   1
O0       0.250000000   0.720000000   0.570190018    0   0   1
O0       0.250000000   0.280000000   0.571233937    0   0   1
O0       0.000000000   0.000000000   0.625913740    0   0   1
O0       0.500000000   0.000000000   0.371153089    0   0   1
O0       0.500000000   0.500000000   0.382930963    0   0   1
Mo1      0.750000000   0.500000000   0.440462807    0   0   1
Mo1      0.500000000   0.000000000   0.443970472    0   0   1
O0       0.750000000   0.780000000   0.442864541    0   0   1
O0       0.750000000   0.220000000   0.442671351    0   0   1
O0       0.500000000   0.500000000   0.497724438    0   0   1
O0       0.500000000   0.000000000   0.516450169    0   0   1
Mo1      0.750000000   0.000000000   0.575097757    0   0   1
Mo1      0.500000000   0.500000000   0.570464223    0   0   1
O0       0.750000000   0.720000000   0.570161469    0   0   1
O0       0.750000000   0.280000000   0.571191810    0   0   1
O0       0.500000000   0.000000000   0.625517384    0   0   1
H2      -0.000584060   0.611995709   0.360682989
H2       0.499512850   0.617398932   0.362793988
H2       0.167274576   0.018141537   0.356765160
H2       0.665902729   0.019372662   0.356578855
O0       0.500210000   0.519988144   0.642259489    0   1   1
O0       0.499940000   0.356462352   0.675283804    0   1   1
H2       0.500010000   0.424812546   0.707237045    0   1   1

     Check: negative starting charge=   -0.002158
     NEW-OLD atomic charge density approx. for the potential

     Check: negative/imaginary core charge=   -0.000003    0.000000
     Check: negative starting charge=   -0.002157

[...]

     Self-consistent Calculation

[...]

     Threshold (ethr) on eigenvalues was too large:
     Diagonalizing with lowered threshold

     Davidson diagonalization with overlap
     ethr =  1.41E-08,  avg # of iterations =  2.0

[...]

     total energy              =   -1765.71298658 Ry
     Harris-Foulkes estimate   =   -1765.71298659 Ry
     estimated scf accuracy    <       0.00000006 Ry

     iteration # 15     ecut=    40.00 Ry     beta=0.70
     Davidson diagonalization with overlap
     ethr =  7.62E-12,  avg # of iterations =  1.0

     negative rho (up, down):  0.334E-02 0.000E+00

     End of self-consistent calculation

[...]

          k = 0.2500-0.3900 0.0000 ( 29726 PWs)   bands (ev):

[...]

          k =-0.2500 0.1950 0.0000 ( 29746 PWs)   bands (ev):

   -62.1267 -62.0519 -62.0389 -61.9488 -61.9132 -61.9094 -61.8655 -61.8304
   -36.7166 -36.4559 -36.4473 -36.4146 -36.3574 -36.3511 -36.3298 -36.2986
   -36.2203 -36.1825 -36.1177 -36.0975 -36.0728 -36.0683 -36.0647 -36.0280
   -35.9436 -35.9406 -35.9139 -35.8942 -35.8869 -35.6742 -35.5935 -35.5826
   -22.7720 -20.3647 -20.0983 -19.5333 -19.3852 -19.2667 -19.0875 -19.0111
   -18.9686 -18.8015 -18.7439 -18.6338 -18.5079 -18.4921 -18.3611 -18.3370
   -18.2750 -17.7555 -17.6024 -16.5370  -8.3576  -8.2444  -8.0969  -7.7254
    -7.3867  -7.2798  -7.2763  -7.2036  -7.0289  -6.9068  -6.8566  -6.8170
    -6.7061  -6.5361  -6.4738  -6.2842  -6.0128  -5.9602  -5.8716  -5.8021
    -5.6889  -5.6245  -5.5348  -5.3996  -5.2607  -5.2010  -5.0418  -4.9805
    -4.9017  -4.7585  -4.6543  -4.6032  -4.3834  -4.2916  -4.1666  -4.1501
    -4.0802  -4.0066  -3.9549  -3.9073  -3.7936  -3.7482  -3.6688  -3.6166
    -3.4727  -3.3728  -3.2440  -3.1155  -3.0167  -2.9908  -2.9109  -2.8279
    -2.7184  -2.6878  -2.5087  -2.4095  -2.3329  -2.1503  -1.3262  -1.1278
    -1.0128  -0.9441  -0.2756  -0.0513   0.0967   0.1272   0.5188   0.6198
     0.9563   1.0885   1.1375   1.2818   1.4087   1.5310   1.6988   1.7404
     1.8606   2.0568   2.1547   2.3455   2.3630   2.4618   2.5946   2.8053
     3.6877   3.7400   4.0230   4.0580   4.1922   4.2672   4.3349   4.4459
     4.6954   4.7725   4.9183   4.9632   5.1703   5.2217   5.3474   5.5658
     5.9080   6.0514   6.1568   6.2625   6.3296   6.4299   6.5253   6.5865
     6.7358   6.9414   7.0078   7.2742   7.3326   7.4457   7.7406   7.7927
     8.0867   8.2410   8.4511   8.4985   8.6502   8.7342   8.8781   8.9550
     9.0125   9.1973   9.2575   9.3502   9.5136   9.6104   9.6771   9.7766
     9.8189   9.9079   9.9743  10.0898  10.2105  10.4163  10.5336  10.6043
    10.6997  10.7928  10.8731  10.9369  11.0049  11.1135  11.2774  11.3664
    11.4887  11.6426  11.7179  11.8334  11.8994  11.9403  12.0177  12.1608
    12.2008  12.2624  12.3584  12.3678  12.4650  12.5401  12.6164  12.8115
    12.8864  12.9733  13.0117  13.1486  13.1930  13.2206  13.3595  13.4416
    13.5219  13.5556  13.6434  13.6857  13.7423  13.8251  13.8864  13.9591
    14.0320  14.0819  14.1254  14.1973  14.2324  14.2818  14.3665  14.3915
    14.4504  14.5250  14.6198  14.7391  14.7875  14.8766  14.9166  15.0723
    15.1347  15.2258  15.2740  15.4028  15.4774  15.4912  15.6335  15.6782
    15.7828  15.8726  15.9053  16.0022  16.0514  16.1465  16.2293  16.2711
    16.3235  16.4231  16.4935  16.5583  16.5855  16.6174  16.7138  16.7595
    16.8381  16.9218  16.9647  17.0909  17.1092  17.1797  17.2644  17.3031
    17.3343  17.3751  17.4906  17.5808  17.6693  17.7519  17.7964  17.8901
    18.0477  18.0810  18.1277  18.1909  18.2306  18.3373  18.3873  18.4769
    18.5715  18.6104  18.6763  18.7689  18.8899  18.9343  19.0073  19.0562
    19.1765  19.2249  19.3574  19.3996  19.4219  19.5337  19.5936  19.6904
    19.8227  19.8787  19.9867  20.0357  20.0934  20.1392  20.1701  20.2384
    20.2661  20.3331  20.4413  20.4636  20.4827  20.5348  20.6053  20.6735
    20.7512  20.8184  20.8727  20.9230  20.9846  21.0982  21.1381  21.2317
    21.2950  21.3490  21.4014  21.4563  21.5125  21.5452  21.6037  21.6306
    21.6706  21.7410  21.8191  21.8628  21.9028  21.9475  21.9855  22.0772
    22.1456  22.2206  22.2793

     the Fermi energy is     0.4774 ev

!    total energy              =   -1765.71298658 Ry
     Harris-Foulkes estimate   =   -1765.71298658 Ry
     estimated scf accuracy    <          6.5E-09 Ry

     The total energy is the sum of the following terms:

     one-electron contribution =  -22644.04119944 Ry
     hartree contribution      =   11351.16391987 Ry
     xc contribution           =    -301.52407328 Ry
     ewald contribution        =    9828.68843570 Ry
     smearing contrib. (-TS)   =      -0.00006942 Ry

     convergence has been achieved in  15 iterations

     Forces acting on atoms (Ry/au):

     negative rho (up, down):  0.334E-02 0.000E+00
     atom    1 type  1   force =    -0.00058827   -0.00537293    0.00057554
     atom    2 type  1   force =    -0.00012572    0.00888366   -0.00018726
     atom    3 type  2   force =    -0.01460812   -0.00815069   -0.00014412
     atom    4 type  2   force =     0.00057003    0.00600832    0.00023724
     atom    5 type  1   force =     0.00034576    0.00196582   -0.00002120
     atom    6 type  1   force =    -0.00172855   -0.00510220   -0.00002472
     atom    7 type  1   force =     0.00032037   -0.00133102   -0.00041677
     atom    8 type  1   force =     0.00264313    0.00213843   -0.00033369
     atom    9 type  2   force =    -0.00710256   -0.00369867   -0.00021982
     atom   10 type  2   force =    -0.00062128    0.00279843   -0.00029963
     atom   11 type  1   force =    -0.01436314   -0.02752425    0.00012697
     atom   12 type  1   force =    -0.01185578    0.03361675    0.00061604
     atom   13 type  1   force =     0.00012060   -0.00169061   -0.00031862
     atom   14 type  1   force =    -0.00289130   -0.00618102    0.00055281
     atom   15 type  1   force =    -0.00001058    0.01070222    0.00014746
     atom   16 type  2   force =     0.01383502   -0.00806173   -0.00015500
     atom   17 type  2   force =    -0.00098439    0.00457974    0.00023281
     atom   18 type  1   force =     0.00232138    0.00158133   -0.00002852
     atom   19 type  1   force =     0.00205524   -0.00525172   -0.00003067
     atom   20 type  1   force =     0.00024669    0.00105909   -0.00033637
     atom   21 type  1   force =     0.00334586    0.00196869   -0.00016784
     atom   22 type  2   force =     0.00316993   -0.00371507   -0.00020897
     atom   23 type  2   force =     0.00075488    0.00141734    0.00035865
     atom   24 type  1   force =     0.01439820   -0.02715941    0.00012627
     atom   25 type  1   force =     0.01175293    0.03360410    0.00059687
     atom   26 type  1   force =    -0.00019298   -0.00662877   -0.00042169
     atom   27 type  3   force =     0.00000695   -0.00012222   -0.00030530
     atom   28 type  3   force =     0.00000608   -0.00035173   -0.00025477
     atom   29 type  3   force =    -0.00044918   -0.00007105   -0.00015292
     atom   30 type  3   force =    -0.00042745   -0.00007673   -0.00014374
     atom   31 type  1   force =     0.00013159    0.00022325    0.00043962
     atom   32 type  1   force =    -0.00008726   -0.00014646    0.00026746
     atom   33 type  3   force =     0.00001191    0.00008909   -0.00010612

     Total force =     0.001931     Total SCF correction =     0.000292
     SCF correction compared to forces is large: reduce conv_thr to get better values

     entering subroutine stress ...

     negative rho (up, down):  0.334E-02 0.000E+00
          total   stress  (Ry/bohr**3)                   (kbar)     P=   -3.11
   0.00002335  -0.00000047   0.00000205          3.43     -0.07      0.30
  -0.00000047  -0.00005073  -0.00000184         -0.07     -7.46     -0.27
   0.00000205  -0.00000184  -0.00003596          0.30     -0.27     -5.29

     bfgs converged in  35 scf cycles and  34 bfgs steps
     (criteria: energy < 0.10E-03, force < 0.10E-02)

     End of BFGS Geometry Optimization

     Final energy   =   -1765.7129865787 Ry
Begin final coordinates

ATOMIC_POSITIONS (crystal)
O0       0.000000000   0.000000000   0.370982514    0   0   1
O0       0.000000000   0.500000000   0.382697087    0   0   1
Mo1      0.250000000   0.500000000   0.440466138    0   0   1
Mo1      0.000000000   0.000000000   0.443457643    0   0   1
O0       0.250000000   0.780000000   0.442820299    0   0   1
O0       0.250000000   0.220000000   0.442687219    0   0   1
O0       0.000000000   0.500000000   0.497611944    0   0   1
O0       0.000000000   0.000000000   0.516804792    0   0   1
Mo1      0.250000000   0.000000000   0.575388610    0   0   1
Mo1      0.000000000   0.500000000   0.565264256    0   0   1
O0       0.250000000   0.720000000   0.570190018    0   0   1
O0       0.250000000   0.280000000   0.571233937    0   0   1
O0       0.000000000   0.000000000   0.625913740    0   0   1
O0       0.500000000   0.000000000   0.371153089    0   0   1
O0       0.500000000   0.500000000   0.382930963    0   0   1
Mo1      0.750000000   0.500000000   0.440462807    0   0   1
Mo1      0.500000000   0.000000000   0.443970472    0   0   1
O0       0.750000000   0.780000000   0.442864541    0   0   1
O0       0.750000000   0.220000000   0.442671351    0   0   1
O0       0.500000000   0.500000000   0.497724438    0   0   1
O0       0.500000000   0.000000000   0.516450169    0   0   1
Mo1      0.750000000   0.000000000   0.575097757    0   0   1
Mo1      0.500000000   0.500000000   0.570464223    0   0   1
O0       0.750000000   0.720000000   0.570161469    0   0   1
O0       0.750000000   0.280000000   0.571191810    0   0   1
O0       0.500000000   0.000000000   0.625517384    0   0   1
H2      -0.000584060   0.611995709   0.360682989
H2       0.499512850   0.617398932   0.362793988
H2       0.167274576   0.018141537   0.356765160
H2       0.665902729   0.019372662   0.356578855
O0       0.500210000   0.519988144   0.642259489    0   1   1
O0       0.499940000   0.356462352   0.675283804    0   1   1
H2       0.500010000   0.424812546   0.707237045    0   1   1
End final coordinates

     General routines

     Parallel routines

   This run was terminated on:  14:30:45  20May2014

   JOB DONE.