     Program PWSCF v.5.0.2 (svn rev. 9656) starts on 25Mar2014 at  9:34:41

     Current dimensions of program PWSCF are:
     Max number of different atomic species (ntypx) = 10
     Max number of k-points (npk) =  40000
     Max angular momentum in pseudopotentials (lmaxx) =  3
     Reading input from pwscf.in
Warning: card &CELL ignored
Warning: card / ignored

     Subspace diagonalization in iterative solution of the eigenvalue problem:
     a serial algorithm will be used

     bravais-lattice index     =            0
     lattice parameter (alat)  =      10.7336  a.u.
     unit-cell volume          =    6184.1966 (a.u.)^3
     number of atoms/cell      =           31
     number of atomic types    =            3
     number of electrons       =       238.00
     number of Kohn-Sham states=          345
     kinetic-energy cutoff     =      40.0000  Ry
     charge density cutoff     =     500.0000  Ry
     convergence threshold     =      1.0E-06
     mixing beta               =       0.3000
     number of iterations used =            8  plain     mixing
     Exchange-correlation      = SLA  PW   PBE  PBE ( 1 4 3 4 0)
     EXX-fraction              =        0.00
     nstep                     =           50

     celldm(1)=  10.733644  celldm(2)=   0.000000  celldm(3)=   0.000000
     celldm(4)=   0.000000  celldm(5)=   0.000000  celldm(6)=   0.000000

     crystal axes: (cart. coord. in units of alat)
               a(1) = (   1.000000   0.000000   0.000000 )
               a(2) = (   0.000000   1.085558   0.000000 )
               a(3) = (   0.000000   0.000000   4.606685 )

     reciprocal axes: (cart. coord. in units 2 pi/alat)
               b(1) = (  1.000000  0.000000  0.000000 )
               b(2) = (  0.000000  0.921185  0.000000 )
               b(3) = (  0.000000  0.000000  0.217076 )

     PseudoPot. # 1 for O  read from file:
     /home/camp/zhonxu/pseudo/o_pbe_v1.01.uspp.F.UPF
     MD5 check sum: 2bcb18d16ea4b960afae9ec6d52f22d2
     Pseudo is Ultrasoft + core correction, Zval =  6.0
     Generated by new atomic code, or converted to UPF format
     Using radial grid of  737 points,  5 beta functions with:
                l(1) =   0
                l(2) =   0
                l(3) =   1
                l(4) =   1
                l(5) =   2
     Q(r) pseudized with  8 coefficients,  rinner =    0.900   0.900   0.900
                                                       0.900   0.900

     PseudoPot. # 2 for Mn read from file:
     /home/camp/zhonxu/pseudo/mn_pbe_v1.uspp.F.UPF
     MD5 check sum: 5fd7c7b5c956fd19902447332617373a
     Pseudo is Ultrasoft + core correction, Zval = 15.0
     Generated by new atomic code, or converted to UPF format
     Using radial grid of  859 points,  6 beta functions with:
                l(1) =   0
                l(2) =   0
                l(3) =   1
                l(4) =   1
                l(5) =   2
                l(6) =   2
     Q(r) pseudized with  6 coefficients,  rinner =    1.150   1.150   1.150
                                                       1.150   1.150

     PseudoPot. # 3 for H  read from file:
     /home/camp/zhonxu/pseudo/h_pbe_v1.uspp.F.UPF
     MD5 check sum: 3408e3ff4ec8b0a4e358431e7e038a48
     Pseudo is Ultrasoft, Zval =  1.0
     Generated by new atomic code, or converted to UPF format
     Using radial grid of  615 points,  2 beta functions with:
                l(1) =   0
                l(2) =   0
     Q(r) pseudized with  8 coefficients,  rinner =    0.700

     atomic species   valence    mass     pseudopotential
        O0             6.00    15.99940     O ( 1.00)
        Mn1           15.00    54.93800     Mn( 1.00)
        H2             1.00     1.00794     H ( 1.00)

     Starting magnetic structure
     atomic species   magnetization
        O0           0.000
        Mn1          0.600
        H2           0.000

     No symmetry found

   Cartesian axes

     site n.     atom                  positions (alat units)
         1           O0  tau(   1) = (   0.0000000   0.0000000   1.7440910  )
         2           O0  tau(   2) = (   0.0000000   0.5427791   1.8348887  )
         3           Mn1 tau(   3) = (   0.2500000   0.5427791   2.0695072  )
         4           Mn1 tau(   4) = (   0.0000000   0.0000000   2.0719487  )
         5           O0  tau(   5) = (   0.2500000   0.8684466   2.0695533  )
         6           O0  tau(   6) = (   0.2500000   0.2171117   2.0770161  )
         7           O0  tau(   7) = (   0.0000000   0.5427791   2.2881405  )
         8           O0  tau(   8) = (   0.0000000   0.0000000   2.4167130  )
         9           Mn1 tau(   9) = (   0.2500000   0.0000000   2.6452046  )
        10           Mn1 tau(  10) = (   0.0000000   0.5427791   2.6189465  )
        11           O0  tau(  11) = (   0.2500000   0.7598908   2.6694358  )
        12           O0  tau(  12) = (   0.2500000   0.3256675   2.6696661  )
        13           O0  tau(  13) = (   0.0000000   0.0000000   2.8462864  )
        14           O0  tau(  14) = (   0.5000000   0.0000000   1.7440910  )
        15           O0  tau(  15) = (   0.5000000   0.5427791   1.8348887  )
        16           Mn1 tau(  16) = (   0.7500000   0.5427791   2.0695072  )
        17           Mn1 tau(  17) = (   0.5000000   0.0000000   2.0719487  )
        18           O0  tau(  18) = (   0.7500000   0.8684466   2.0695533  )
        19           O0  tau(  19) = (   0.7500000   0.2171117   2.0770161  )
        20           O0  tau(  20) = (   0.5000000   0.5427791   2.2881405  )
        21           O0  tau(  21) = (   0.5000000   0.0000000   2.4167130  )
        22           Mn1 tau(  22) = (   0.7500000   0.0000000   2.6452046  )
        23           Mn1 tau(  23) = (   0.5000000   0.5427791   2.6189465  )
        24           O0  tau(  24) = (   0.7500000   0.7598908   2.6694358  )
        25           O0  tau(  25) = (   0.7500000   0.3256675   2.6696661  )
        26           O0  tau(  26) = (   0.5000000   0.0000000   2.8462864  )
        27           H2  tau(  27) = (  -0.0000900   0.7018026   1.7591088  )
        28           H2  tau(  28) = (   0.4999100   0.7018026   1.7591088  )
        29           H2  tau(  29) = (   0.1616900   0.0388738   1.6898703  )
        30           H2  tau(  30) = (   0.6616900   0.0388738   1.6898703  )
        31           O0  tau(  31) = (   0.5000200   0.5425837   2.9077396  )

     number of k points=    20  Methfessel-Paxton smearing, width (Ry)=  0.0100
                       cart. coord. in units 2pi/alat
        k(    1) = (   0.0000000   0.0000000   0.0000000), wk =   0.0625000
        k(    2) = (   0.0000000   0.2302962   0.0000000), wk =   0.1250000
        k(    3) = (   0.0000000  -0.4605925   0.0000000), wk =   0.0625000
        k(    4) = (   0.2500000   0.0000000   0.0000000), wk =   0.1250000
        k(    5) = (   0.2500000   0.2302962   0.0000000), wk =   0.1250000
        k(    6) = (   0.2500000  -0.4605925   0.0000000), wk =   0.1250000
        k(    7) = (  -0.5000000   0.0000000   0.0000000), wk =   0.0625000
        k(    8) = (  -0.5000000   0.2302962   0.0000000), wk =   0.1250000
        k(    9) = (  -0.5000000  -0.4605925   0.0000000), wk =   0.0625000
        k(   10) = (  -0.2500000   0.2302962   0.0000000), wk =   0.1250000
        k(   11) = (   0.0000000   0.0000000   0.0000000), wk =   0.0625000
        k(   12) = (   0.0000000   0.2302962   0.0000000), wk =   0.1250000
        k(   13) = (   0.0000000  -0.4605925   0.0000000), wk =   0.0625000
        k(   14) = (   0.2500000   0.0000000   0.0000000), wk =   0.1250000
        k(   15) = (   0.2500000   0.2302962   0.0000000), wk =   0.1250000
        k(   16) = (   0.2500000  -0.4605925   0.0000000), wk =   0.1250000
        k(   17) = (  -0.5000000   0.0000000   0.0000000), wk =   0.0625000
        k(   18) = (  -0.5000000   0.2302962   0.0000000), wk =   0.1250000
        k(   19) = (  -0.5000000  -0.4605925   0.0000000), wk =   0.0625000
        k(   20) = (  -0.2500000   0.2302962   0.0000000), wk =   0.1250000

     Largest allocated arrays     est. size (Mb)     dimensions
     Largest temporary arrays     est. size (Mb)     dimensions

     Check: negative/imaginary core charge=   -0.000022    0.000000

     Initial potential from superposition of free atoms
     Check: negative starting charge=(component1):   -0.000757
     Check: negative starting charge=(component2):   -0.000372

     starting charge  229.99987, renormalised to  238.00000

     negative rho (up, down):  0.783E-03 0.385E-03
     Starting wfc are  184 randomized atomic wfcs

     Self-consistent Calculation

     iteration #  1     ecut=    40.00 Ry     beta=0.30
     Davidson diagonalization with overlap
     ethr =  1.00E-02,  avg # of iterations =  5.6

     negative rho (up, down):  0.844E-03 0.552E-03

     total energy              =   -2306.74759598 Ry
     Harris-Foulkes estimate   =   -2318.54824665 Ry
     estimated scf accuracy    <      34.15234831 Ry

     total magnetization       =    26.95 Bohr mag/cell
     absolute magnetization    =    32.22 Bohr mag/cell

[...]

     End of self-consistent calculation

 ------ SPIN UP ------------

          k = 0.0000 0.0000 0.0000 ( 26393 PWs)   bands (ev):

   -84.4776 -84.4678 -84.1033 -84.0857 -84.0119 -84.0020 -83.7804 -83.7700
   -53.3209 -53.2063 -53.1065 -53.0890 -53.0862 -53.0756 -52.9770 -52.8567
   -52.8030 -52.7806 -52.7730 -52.7576 -52.6949 -52.6648 -52.6489 -52.6398
   -52.5970 -52.5756 -52.5325 -52.5049 -52.4972 -52.4092 -52.3665 -52.3458
   -22.4338 -21.7664 -21.5849 -21.3648 -20.8195 -20.6702 -20.6344 -20.4780
   -20.3818 -20.3304 -20.2601 -20.1218 -20.0737 -19.9902 -19.9375 -19.5641
   -19.2809 -19.1283 -18.8347 -10.3027 -10.0807  -9.7501  -9.6571  -9.4337
    -8.8747  -8.8358  -8.8259  -8.7734  -8.6086  -8.4361  -8.4175  -8.1818
    -8.1780  -8.1449  -8.0295  -7.9641  -7.7641  -7.7413  -7.6577  -7.4803
    -7.4713  -7.3749  -7.0838  -7.0618  -7.0132  -6.9574  -6.4401  -6.4163
    -6.3645  -6.2601  -6.2419  -6.1646  -6.0329  -5.7728  -5.7257  -5.6913
    -5.5352  -5.4574  -5.4019  -5.3797  -5.2432  -5.1419  -5.1113  -4.9786
    -4.9383  -4.9071  -4.9000  -4.8256  -4.7076  -4.6855  -4.6110  -4.5357
    -4.3888  -4.3494  -4.3317  -4.2155  -4.0901  -4.0651  -3.9236  -3.8894
    -3.7570  -3.6092  -3.5834  -3.3609  -3.2574  -3.2548  -3.0546  -2.9735
    -2.9316  -2.8377  -2.7741  -2.7545  -2.6671  -2.4985  -2.2986  -2.2911
    -2.2109  -2.1567  -1.9989  -1.8140  -1.4179  -1.3070  -0.8235  -0.6469
    -0.5924  -0.3795  -0.3117  -0.2588  -0.1125   0.2985   0.3733   0.4760
     0.5329   0.8645   1.2054   1.6088   2.7352   3.7023   4.0860   4.4721
     4.8528   5.5985   5.9559   6.0209   6.2203   6.7944   6.9172   7.0683
     7.2620   7.5202   7.7226   7.9400   7.9485   8.0541   8.0761   8.2495
     8.3413   8.3497   8.4690   8.6462   8.6992   8.8668   8.9011   8.9765
     9.0475   9.0622   9.1094   9.1646   9.2537   9.3846   9.5556   9.6962
     9.7237   9.9100   9.9802  10.0364  10.0908  10.2879  10.3770  10.4474
    10.5768  10.7771  10.8110  10.9304  11.0662  11.1839  11.2437  11.3401
[...]
     atom   14 type  1   force =    -0.00430950   -0.01584686    0.00128860
     atom   15 type  1   force =     0.00016257    0.01338175   -0.00037050
     atom   16 type  2   force =    -0.01130500   -0.00411559    0.00723652
     atom   17 type  2   force =     0.00424429    0.01062043    0.00019922
     atom   18 type  1   force =     0.00317074    0.00474750   -0.00016191
     atom   19 type  1   force =    -0.00312984   -0.00730156   -0.00093804
     atom   20 type  1   force =    -0.00005864   -0.00003201   -0.02443102
     atom   21 type  1   force =    -0.00035252   -0.00190889   -0.00010009
     atom   22 type  2   force =     0.00155122    0.00031467    0.00907044
     atom   23 type  2   force =    -0.00008811    0.00002952    0.11008711
     atom   24 type  1   force =     0.04583723   -0.03131696   -0.04346482
     atom   25 type  1   force =     0.04615092    0.03127549   -0.04353470
     atom   26 type  1   force =    -0.00021074   -0.00014334   -0.00247114
     atom   27 type  3   force =     0.00007228   -0.00022633    0.00046687
     atom   28 type  3   force =     0.00006547    0.00016759    0.00009626
     atom   29 type  3   force =    -0.00053606    0.00013607   -0.00069582
     atom   30 type  3   force =    -0.00028780    0.00010723   -0.00067361
     atom   31 type  1   force =    -0.00003193    0.00003509    0.06361087

     Total force =     0.063611     Total SCF correction =     0.000063

     BFGS Geometry Optimization

     number of scf cycles    =   1
     number of bfgs steps    =   0

     energy   new            =   -2320.9065828145 Ry

     new trust radius        =       0.0636108856 bohr
     new conv_thr            =       0.0000010000 Ry

ATOMIC_POSITIONS (crystal)
O0       0.000000000   0.000000000   0.378600000    0   0   0
O0       0.000000000   0.500000000   0.398310000    0   0   0
Mn1      0.250000000   0.500000000   0.449240000    0   0   0
Mn1      0.000000000   0.000000000   0.449770000    0   0   0
O0       0.250000000   0.800000000   0.449250000    0   0   0
O0       0.250000000   0.200000000   0.450870000    0   0   0
O0       0.000000000   0.500000000   0.496700000    0   0   0
O0       0.000000000   0.000000000   0.524610000    0   0   0
Mn1      0.250000000   0.000000000   0.574210000    0   0   0
Mn1      0.000000000   0.500000000   0.568510000    0   0   0
O0       0.250000000   0.700000000   0.579470000    0   0   0
O0       0.250000000   0.300000000   0.579520000    0   0   0
O0       0.000000000   0.000000000   0.617860000    0   0   0
O0       0.500000000   0.000000000   0.378600000    0   0   0
O0       0.500000000   0.500000000   0.398310000    0   0   0
Mn1      0.750000000   0.500000000   0.449240000    0   0   0
Mn1      0.500000000   0.000000000   0.449770000    0   0   0
O0       0.750000000   0.800000000   0.449250000    0   0   0
O0       0.750000000   0.200000000   0.450870000    0   0   0
O0       0.500000000   0.500000000   0.496700000    0   0   0
O0       0.500000000   0.000000000   0.524610000    0   0   0
Mn1      0.750000000   0.000000000   0.574210000    0   0   0
Mn1      0.500000000   0.500000000   0.568510000    0   0   0
O0       0.750000000   0.700000000   0.579470000    0   0   0
O0       0.750000000   0.300000000   0.579520000    0   0   0
O0       0.500000000   0.000000000   0.617860000    0   0   0
H2      -0.000090000   0.646490000   0.381860000    0   0   0
H2       0.499910000   0.646490000   0.381860000    0   0   0
H2       0.161690000   0.035810000   0.366830000    0   0   0
H2       0.661690000   0.035810000   0.366830000    0   0   0
O0       0.500017026   0.499823012   0.632486458

     Check: negative starting charge=(component1):   -0.001074
     NEW-OLD atomic charge density approx. for the potential

     Check: negative/imaginary core charge=   -0.000022    0.000000
     Check: negative starting charge=(component1):   -0.001073

[...]

     energy   old            =   -2320.9065828145 Ry
     energy   new            =   -2320.9098402833 Ry

     CASE: energy  _new < energy  _old

[...]

     Total force =     0.004673     Total SCF correction =     0.000262

     number of scf cycles    =   4
     number of bfgs steps    =   3

     energy   old            =   -2320.9119792634 Ry
     energy   new            =   -2320.9130071934 Ry

     CASE: energy  _new < energy  _old

     new trust radius        =       0.0225721488 bohr
     new conv_thr            =       0.0000000467 Ry

ATOMIC_POSITIONS (crystal)
O0       0.000000000   0.000000000   0.378600000    0   0   0
O0       0.000000000   0.500000000   0.398310000    0   0   0
Mn1      0.250000000   0.500000000   0.449240000    0   0   0
Mn1      0.000000000   0.000000000   0.449770000    0   0   0
O0       0.250000000   0.800000000   0.449250000    0   0   0
O0       0.250000000   0.200000000   0.450870000    0   0   0
O0       0.000000000   0.500000000   0.496700000    0   0   0
O0       0.000000000   0.000000000   0.524610000    0   0   0
Mn1      0.250000000   0.000000000   0.574210000    0   0   0
Mn1      0.000000000   0.500000000   0.568510000    0   0   0
O0       0.250000000   0.700000000   0.579470000    0   0   0
O0       0.250000000   0.300000000   0.579520000    0   0   0
O0       0.000000000   0.000000000   0.617860000    0   0   0
O0       0.500000000   0.000000000   0.378600000    0   0   0
O0       0.500000000   0.500000000   0.398310000    0   0   0
Mn1      0.750000000   0.500000000   0.449240000    0   0   0
Mn1      0.500000000   0.000000000   0.449770000    0   0   0
O0       0.750000000   0.800000000   0.449250000    0   0   0
O0       0.750000000   0.200000000   0.450870000    0   0   0
O0       0.500000000   0.500000000   0.496700000    0   0   0
O0       0.500000000   0.000000000   0.524610000    0   0   0
Mn1      0.750000000   0.000000000   0.574210000    0   0   0
Mn1      0.500000000   0.500000000   0.568510000    0   0   0
O0       0.750000000   0.700000000   0.579470000    0   0   0
O0       0.750000000   0.300000000   0.579520000    0   0   0
O0       0.500000000   0.000000000   0.617860000    0   0   0
H2      -0.000090000   0.646490000   0.381860000    0   0   0
H2       0.499910000   0.646490000   0.381860000    0   0   0
H2       0.161690000   0.035810000   0.366830000    0   0   0
H2       0.661690000   0.035810000   0.366830000    0   0   0
O0       0.500007276   0.499883327   0.635972809

     Check: negative starting charge=(component1):   -0.001070
     NEW-OLD atomic charge density approx. for the potential

     Check: negative/imaginary core charge=   -0.000022    0.000000
     Check: negative starting charge=(component1):   -0.001069

[...]

     Self-consistent Calculation

[...]

     Threshold (ethr) on eigenvalues was too large:
     Diagonalizing with lowered threshold

     Davidson diagonalization with overlap
     ethr =  5.49E-08,  avg # of iterations =  1.0

[...]

     total energy              =   -2320.91306431 Ry
     Harris-Foulkes estimate   =   -2320.91306430 Ry
     estimated scf accuracy    <       0.00000006 Ry

[...]

     iteration # 19     ecut=    40.00 Ry     beta=0.30
     Davidson diagonalization with overlap
     ethr =  2.64E-11,  avg # of iterations =  2.0

     negative rho (up, down):  0.231E-02 0.132E-02

     End of self-consistent calculation

 ------ SPIN UP ------------

[...]

 ------ SPIN DOWN ----------

[...]

          k = 0.2500-0.4606 0.0000 ( 26462 PWs)   bands (ev):

[...]

          k =-0.2500 0.2303 0.0000 ( 26396 PWs)   bands (ev):

   -81.0947 -81.0866 -80.9231 -80.9038 -80.8954 -80.7892 -80.7708 -80.4066
   -50.0113 -49.9144 -49.8689 -49.8576 -49.8139 -49.8001 -49.7977 -49.7960
   -49.7880 -49.7400 -49.7204 -49.7132 -49.6995 -49.6937 -49.6375 -49.6126
   -49.5898 -49.4713 -49.4532 -49.4021 -49.3796 -49.3428 -49.2347 -49.0297
   -22.2228 -21.8198 -21.3491 -21.1239 -20.7678 -20.7060 -20.4932 -20.4125
   -20.3770 -20.2613 -20.2389 -20.1014 -20.0901 -20.0317 -19.7478 -19.5396
   -19.4866 -19.2154 -19.0946  -9.8043  -9.5257  -8.9836  -8.8187  -8.6919
    -8.4193  -8.2290  -8.1531  -8.0952  -8.0644  -7.9628  -7.8081  -7.6922
    -7.6492  -7.4490  -7.4000  -7.3238  -7.2773  -7.1499  -6.9854  -6.8852
    -6.8529  -6.7273  -6.7002  -6.4464  -6.3276  -6.2287  -6.1678  -6.0747
    -5.9623  -5.8320  -5.8173  -5.7203  -5.6847  -5.5864  -5.4685  -5.3466
    -5.2774  -5.0925  -5.0226  -4.9111  -4.6958  -4.6116  -4.5201  -4.4355
    -4.4069  -4.2815  -4.1493  -3.9773  -3.9034  -3.7299  -3.6553  -3.4716
    -3.4367  -3.2382  -3.0890  -2.9195  -1.6384  -1.4653  -1.4262  -1.3733
    -1.3375  -1.2599  -1.2049  -1.1475  -1.0570  -1.0383  -0.8407  -0.8217
    -0.7991  -0.6994  -0.6021  -0.4992  -0.4435  -0.3950  -0.3399  -0.2304
    -0.1548  -0.1019   0.0084   0.1247   0.2661   0.5474   0.6924   0.8429
     0.9520   1.0346   1.1124   1.4344   1.5415   1.7868   1.8718   1.9794
     2.1019   2.2264   2.3716   2.5692   3.3829   4.2755   4.7004   5.0407
     5.3074   5.3808   5.6106   6.1988   6.3657   6.4435   6.6569   6.7847
     6.8298   7.0321   7.1333   7.3964   7.5352   7.7487   7.8307   8.0045
     8.2989   8.4197   8.5772   8.6358   8.7739   8.8303   8.9178   8.9949
     9.1455   9.2938   9.4812   9.5617   9.7395   9.8491   9.9656  10.0444
    10.1625  10.3512  10.3722  10.5256  10.6557  10.7116  10.7859  10.8371
    11.0579  11.1129  11.1742  11.2661  11.3683  11.5563  11.6188  11.6653
    11.7287  11.7830  11.9310  11.9496  12.0776  12.1776  12.3000  12.3953
    12.4574  12.5243  12.6673  12.7306  12.8398  12.8842  12.9188  12.9553
    13.0380  13.1329  13.2020  13.3233  13.3800  13.4504  13.5088  13.5571
    13.6690  13.7326  13.7754  13.8162  13.9535  14.0062  14.1146  14.1729
    14.2391  14.2991  14.3631  14.4000  14.4673  14.5205  14.6360  14.7310
    14.7934  14.8491  14.9650  15.0264  15.1068  15.1887  15.2364  15.3950
    15.4246  15.5185  15.6195  15.6842  15.8143  15.8829  15.9658  16.0188
    16.1203  16.1975  16.2871  16.3547  16.5084  16.5470  16.5921  16.6745
    16.7412  16.7919  16.8467  17.0346  17.0722  17.1148  17.1824  17.2574
    17.3554  17.4114  17.4592  17.5764  17.6230  17.7132  17.7807  17.8380
    17.8933  17.9430  17.9961  18.1496  18.1849  18.3183  18.3646  18.4071
    18.4251  18.5959  18.6293  18.7090  18.7683  18.8377  18.9000  18.9804
    19.0792  19.1078  19.2507  19.2829  19.3142  19.3974  19.4779  19.5314
    19.6000  19.6915  19.7962  19.8573  19.9365  20.0211  20.0987  20.1733
    20.2617  20.2851  20.3446  20.4025  20.4921  20.5504  20.5953  20.7510
    20.8177  20.8954  21.0077  21.0542  21.1053  21.1556  21.2451  21.3285
    21.3587  21.4607  21.5112  21.5390  21.6391  21.7362  21.7988  21.9113
    21.9869  22.0019  22.1264  22.2264  22.2820  22.3353  22.4632  22.5520
    22.6268

     the Fermi energy is    -2.0703 ev

!    total energy              =   -2320.91306431 Ry
     Harris-Foulkes estimate   =   -2320.91306432 Ry
     estimated scf accuracy    <       0.00000004 Ry

     The total energy is the sum of the following terms:

     one-electron contribution =  -26786.05541984 Ry
     hartree contribution      =   13408.69231143 Ry
     xc contribution           =    -347.96610322 Ry
     ewald contribution        =   11404.41631668 Ry
     smearing contrib. (-TS)   =      -0.00016935 Ry

     total magnetization       =    22.00 Bohr mag/cell
     absolute magnetization    =    24.83 Bohr mag/cell

     convergence has been achieved in  19 iterations

     Forces acting on atoms (Ry/au):

     negative rho (up, down):  0.231E-02 0.132E-02
     atom    1 type  1   force =    -0.00421295   -0.01593458    0.00052609
     atom    2 type  1   force =     0.00017460    0.01327487    0.00208358
     atom    3 type  2   force =     0.00791104   -0.00421952    0.00579905
     atom    4 type  2   force =     0.00410416    0.01044853    0.00317053
     atom    5 type  1   force =     0.00375378    0.00475074   -0.00025815
     atom    6 type  1   force =    -0.00255376   -0.00713591   -0.00091359
     atom    7 type  1   force =    -0.00003612    0.00108761    0.00061833
     atom    8 type  1   force =    -0.00031027   -0.00198993   -0.00510366
     atom    9 type  2   force =     0.00040170    0.00029993    0.01055221
     atom   10 type  2   force =    -0.00008748   -0.00078480    0.00498465
     atom   11 type  1   force =    -0.03189975   -0.04136758   -0.03324735
     atom   12 type  1   force =    -0.03208938    0.04133308   -0.03330833
     atom   13 type  1   force =    -0.00019167   -0.00011377   -0.00661844
     atom   14 type  1   force =    -0.00434920   -0.01586754    0.00114108
     atom   15 type  1   force =     0.00016936    0.01332269    0.00006623
     atom   16 type  2   force =    -0.00860649   -0.00414534    0.00582010
     atom   17 type  2   force =     0.00422798    0.01059126    0.00050237
     atom   18 type  1   force =     0.00334224    0.00468609   -0.00021774
     atom   19 type  1   force =    -0.00299434   -0.00720656   -0.00089804
     atom   20 type  1   force =    -0.00004271    0.00031338   -0.02326429
     atom   21 type  1   force =    -0.00030654   -0.00192673   -0.00077017
     atom   22 type  2   force =     0.00027135    0.00030003    0.01057090
     atom   23 type  2   force =    -0.00005703   -0.00041506    0.12730629
     atom   24 type  1   force =     0.03203747   -0.04127729   -0.03326681
     atom   25 type  1   force =     0.03217909    0.04132833   -0.03329394
     atom   26 type  1   force =    -0.00017059   -0.00015232   -0.00136048
     atom   27 type  3   force =     0.00007730    0.00016265    0.00042824
     atom   28 type  3   force =     0.00007009    0.00030245    0.00005202
     atom   29 type  3   force =    -0.00054002    0.00011603   -0.00076113
     atom   30 type  3   force =    -0.00026498    0.00010242   -0.00073504
     atom   31 type  1   force =    -0.00000691    0.00011684    0.00039547

     Total force =     0.000412     Total SCF correction =     0.000174
     SCF correction compared to forces is large: reduce conv_thr to get better values

     bfgs converged in   5 scf cycles and   4 bfgs steps
     (criteria: energy < 0.10E-03, force < 0.10E-02)

     End of BFGS Geometry Optimization

     Final energy   =   -2320.9130643093 Ry
Begin final coordinates

ATOMIC_POSITIONS (crystal)
O0       0.000000000   0.000000000   0.378600000    0   0   0
O0       0.000000000   0.500000000   0.398310000    0   0   0
Mn1      0.250000000   0.500000000   0.449240000    0   0   0
Mn1      0.000000000   0.000000000   0.449770000    0   0   0
O0       0.250000000   0.800000000   0.449250000    0   0   0
O0       0.250000000   0.200000000   0.450870000    0   0   0
O0       0.000000000   0.500000000   0.496700000    0   0   0
O0       0.000000000   0.000000000   0.524610000    0   0   0
Mn1      0.250000000   0.000000000   0.574210000    0   0   0
Mn1      0.000000000   0.500000000   0.568510000    0   0   0
O0       0.250000000   0.700000000   0.579470000    0   0   0
O0       0.250000000   0.300000000   0.579520000    0   0   0
O0       0.000000000   0.000000000   0.617860000    0   0   0
O0       0.500000000   0.000000000   0.378600000    0   0   0
O0       0.500000000   0.500000000   0.398310000    0   0   0
Mn1      0.750000000   0.500000000   0.449240000    0   0   0
Mn1      0.500000000   0.000000000   0.449770000    0   0   0
O0       0.750000000   0.800000000   0.449250000    0   0   0
O0       0.750000000   0.200000000   0.450870000    0   0   0
O0       0.500000000   0.500000000   0.496700000    0   0   0
O0       0.500000000   0.000000000   0.524610000    0   0   0
Mn1      0.750000000   0.000000000   0.574210000    0   0   0
Mn1      0.500000000   0.500000000   0.568510000    0   0   0
O0       0.750000000   0.700000000   0.579470000    0   0   0
O0       0.750000000   0.300000000   0.579520000    0   0   0
O0       0.500000000   0.000000000   0.617860000    0   0   0
H2      -0.000090000   0.646490000   0.381860000    0   0   0
H2       0.499910000   0.646490000   0.381860000    0   0   0
H2       0.161690000   0.035810000   0.366830000    0   0   0
H2       0.661690000   0.035810000   0.366830000    0   0   0
O0       0.500007276   0.499883327   0.635972809
End final coordinates

     General routines

     Parallel routines

   This run was terminated on:  20:35:13  25Mar2014

   JOB DONE.
Running PBS batch system epilogue script
Job id: 312966.audhumbla.fysik.dtu.dk
Username: zhonxu
Groupname: campgst
Jobname: MnO2/Eads-2-layers/O
Sessionid: 5372
Queuename: verylong
Accounting:
This job has allocated the following 16 nodes:
b088 b088 b088 b088 b088 b088 b088 b088 b037 b037 b037 b037 b037 b037 b037 b037
Finished epilogue job 312966.audhumbla.fysik.dtu.dk for zhonxu