     Program PWSCF v.5.0.2 (svn rev. 9656) starts on 24Jan2014 at 15:58:33

     Current dimensions of program PWSCF are:
     Max number of different atomic species (ntypx) = 10
     Max number of k-points (npk) =  40000
     Max angular momentum in pseudopotentials (lmaxx) =  3
     Reading input from CrO2-v-1.00.in

     Subspace diagonalization in iterative solution of the eigenvalue problem:
     a serial algorithm will be used

     bravais-lattice index     =            0
     lattice parameter (alat)  =       8.4597  a.u.
     unit-cell volume          =     390.1685 (a.u.)^3
     number of atoms/cell      =            6
     number of atomic types    =            2
     number of electrons       =        52.00
     number of Kohn-Sham states=           75
     kinetic-energy cutoff     =      40.0000  Ry
     charge density cutoff     =     500.0000  Ry
     convergence threshold     =      1.0E-06
     mixing beta               =       0.3000
     number of iterations used =            8  plain     mixing
     Exchange-correlation      = SLA  PW   PBE  PBE ( 1 4 3 4 0)
     EXX-fraction              =        0.00
     nstep                     =           50

     celldm(1)=   8.459712  celldm(2)=   0.000000  celldm(3)=   0.000000
     celldm(4)=   0.000000  celldm(5)=   0.000000  celldm(6)=   0.000000

     crystal axes: (cart. coord. in units of alat)
               a(1) = (   1.000000   0.000000   0.000000 )
               a(2) = (   0.000000   1.000000   0.000000 )
               a(3) = (   0.000000   0.000000   0.644444 )

     reciprocal axes: (cart. coord. in units 2 pi/alat)
               b(1) = (  1.000000  0.000000  0.000000 )
               b(2) = (  0.000000  1.000000  0.000000 )
               b(3) = (  0.000000  0.000000  1.551724 )

     PseudoPot. # 1 for Cr read from file:
     /home/camp/zhonxu/pseudo/cr_pbe_v1.uspp.F.UPF
     MD5 check sum: 68b6f918d1762dccfb11451fe85b0e0e
     Pseudo is Ultrasoft + core correction, Zval = 14.0
     Generated by new atomic code, or converted to UPF format
     Using radial grid of  857 points,  6 beta functions with:
                l(1) =   0
                l(2) =   0
                l(3) =   1
                l(4) =   1
                l(5) =   2
                l(6) =   2
     Q(r) pseudized with  6 coefficients,  rinner =    1.000   1.000   1.000
                                                       1.000   1.000

     PseudoPot. # 2 for O  read from file:
     /home/camp/zhonxu/pseudo/o_pbe_v1.01.uspp.F.UPF
     MD5 check sum: 2bcb18d16ea4b960afae9ec6d52f22d2
     Pseudo is Ultrasoft + core correction, Zval =  6.0
     Generated by new atomic code, or converted to UPF format
     Using radial grid of  737 points,  5 beta functions with:
                l(1) =   0
                l(2) =   0
                l(3) =   1
                l(4) =   1
                l(5) =   2
     Q(r) pseudized with  8 coefficients,  rinner =    0.900   0.900   0.900
                                                       0.900   0.900

     atomic species   valence    mass     pseudopotential
        Cr0           14.00    51.99600     Cr( 1.00)
        O1             6.00    15.99940     O ( 1.00)

     Starting magnetic structure
     atomic species   magnetization
        Cr0          0.600
        O1           0.000

     16 Sym. Ops., with inversion, found ( 8 have fractional translation)

   Cartesian axes

     site n.     atom                  positions (alat units)
         1           Cr0 tau(   1) = (   0.0000000   0.0000000   0.0000000  )
         2           Cr0 tau(   2) = (   0.5000000   0.5000000   0.3222222  )
         3           O1  tau(   3) = (   0.3050000   0.3050000   0.0000000  )
         4           O1  tau(   4) = (  -0.3050000  -0.3050000   0.0000000  )
         5           O1  tau(   5) = (   0.8050000   0.1950000   0.3222222  )
         6           O1  tau(   6) = (   0.1950000   0.8050000   0.3222222  )

     number of k points=    36  Methfessel-Paxton smearing, width (Ry)=  0.0100
                       cart. coord. in units 2pi/alat
        k(    1) = (   0.0000000   0.0000000   0.0000000), wk =   0.0080000
        k(    2) = (   0.0000000   0.0000000   0.3103448), wk =   0.0160000
        k(    3) = (   0.0000000   0.0000000   0.6206897), wk =   0.0160000
        k(    4) = (   0.0000000   0.2000000   0.0000000), wk =   0.0320000
        k(    5) = (   0.0000000   0.2000000   0.3103448), wk =   0.0640000
        k(    6) = (   0.0000000   0.2000000   0.6206897), wk =   0.0640000
        k(    7) = (   0.0000000   0.4000000   0.0000000), wk =   0.0320000
        k(    8) = (   0.0000000   0.4000000   0.3103448), wk =   0.0640000
        k(    9) = (   0.0000000   0.4000000   0.6206897), wk =   0.0640000
        k(   10) = (   0.2000000   0.2000000   0.0000000), wk =   0.0320000
        k(   11) = (   0.2000000   0.2000000   0.3103448), wk =   0.0640000
        k(   12) = (   0.2000000   0.2000000   0.6206897), wk =   0.0640000
        k(   13) = (   0.2000000   0.4000000   0.0000000), wk =   0.0640000
        k(   14) = (   0.2000000   0.4000000   0.3103448), wk =   0.1280000
        k(   15) = (   0.2000000   0.4000000   0.6206897), wk =   0.1280000
        k(   16) = (   0.4000000   0.4000000   0.0000000), wk =   0.0320000
        k(   17) = (   0.4000000   0.4000000   0.3103448), wk =   0.0640000
        k(   18) = (   0.4000000   0.4000000   0.6206897), wk =   0.0640000
        k(   19) = (   0.0000000   0.0000000   0.0000000), wk =   0.0080000
        k(   20) = (   0.0000000   0.0000000   0.3103448), wk =   0.0160000
        k(   21) = (   0.0000000   0.0000000   0.6206897), wk =   0.0160000
        k(   22) = (   0.0000000   0.2000000   0.0000000), wk =   0.0320000
        k(   23) = (   0.0000000   0.2000000   0.3103448), wk =   0.0640000
        k(   24) = (   0.0000000   0.2000000   0.6206897), wk =   0.0640000
        k(   25) = (   0.0000000   0.4000000   0.0000000), wk =   0.0320000
        k(   26) = (   0.0000000   0.4000000   0.3103448), wk =   0.0640000
        k(   27) = (   0.0000000   0.4000000   0.6206897), wk =   0.0640000
        k(   28) = (   0.2000000   0.2000000   0.0000000), wk =   0.0320000
        k(   29) = (   0.2000000   0.2000000   0.3103448), wk =   0.0640000
        k(   30) = (   0.2000000   0.2000000   0.6206897), wk =   0.0640000
        k(   31) = (   0.2000000   0.4000000   0.0000000), wk =   0.0640000
        k(   32) = (   0.2000000   0.4000000   0.3103448), wk =   0.1280000
        k(   33) = (   0.2000000   0.4000000   0.6206897), wk =   0.1280000
        k(   34) = (   0.4000000   0.4000000   0.0000000), wk =   0.0320000
        k(   35) = (   0.4000000   0.4000000   0.3103448), wk =   0.0640000
        k(   36) = (   0.4000000   0.4000000   0.6206897), wk =   0.0640000

     Largest allocated arrays     est. size (Mb)     dimensions
     Largest temporary arrays     est. size (Mb)     dimensions

     Check: negative/imaginary core charge=   -0.000033    0.000000

     Initial potential from superposition of free atoms

     starting charge   49.99997, renormalised to   52.00000
     Starting wfc are   36 randomized atomic wfcs

     Self-consistent Calculation

     iteration #  1     ecut=    40.00 Ry     beta=0.30
     Davidson diagonalization with overlap
     ethr =  1.00E-02,  avg # of iterations =  5.1

     total energy              =    -480.18639913 Ry
     Harris-Foulkes estimate   =    -480.22337991 Ry
     estimated scf accuracy    <       3.03171235 Ry

     total magnetization       =     4.00 Bohr mag/cell
     absolute magnetization    =     5.90 Bohr mag/cell

[...]

     End of self-consistent calculation

 ------ SPIN UP ------------

          k = 0.0000 0.0000 0.0000 (  1651 PWs)   bands (ev):

   -62.9848 -62.9802 -34.3526 -34.3526 -34.2424 -34.2424 -34.1713 -34.1574
    -9.1831  -7.5390  -7.0822  -7.0822   2.9401   3.6031   4.1648   5.2076
     5.2076   6.6177   6.6177   7.2491   8.8801   8.9885   9.0819   9.2892
     9.2892   9.4526   9.4526   9.4541  10.1008  11.5333  11.7135  14.3813
    14.3813  15.0679  17.9236  21.4451  21.4451  24.5215  24.8529  25.7698
    27.8560  28.9707  28.9707  29.9067  30.0870  33.5300  34.5459  34.5459
    34.5702  35.8630  35.8630  36.3206  36.4533  36.4533  36.8419  38.5091
    40.2998  40.7904  43.3089  43.4661  43.4661  43.8388  43.8388  45.0945
    46.9147  47.8613  47.8613  48.7016  50.2732  50.6072  50.6072  51.1098
    52.0725  52.8244  53.8400

[...]

 ------ SPIN DOWN ----------

[...]

     the Fermi energy is    10.5600 ev

!    total energy              =    -481.17092257 Ry
     Harris-Foulkes estimate   =    -481.17091474 Ry
     estimated scf accuracy    <       0.00000010 Ry

     The total energy is the sum of the following terms:

     one-electron contribution =    -207.98271993 Ry
     hartree contribution      =     130.04942556 Ry
     xc contribution           =     -74.43455469 Ry
     ewald contribution        =    -328.80289795 Ry
     smearing contrib. (-TS)   =      -0.00017556 Ry

[...]

     convergence has been achieved in  11 iterations

     Forces acting on atoms (Ry/au):

     atom    1 type  1   force =     0.00000000    0.00000000    0.00000000
     atom    2 type  1   force =     0.00000000    0.00000000    0.00000000
     atom    3 type  2   force =    -0.00538307   -0.00538307   -0.00000000
     atom    4 type  2   force =     0.00538307    0.00538307   -0.00000000
     atom    5 type  2   force =    -0.00538307    0.00538307   -0.00000000
     atom    6 type  2   force =     0.00538307   -0.00538307   -0.00000000

     Total force =     0.015226     Total SCF correction =     0.000169

     entering subroutine stress ...

          total   stress  (Ry/bohr**3)                   (kbar)     P=    2.17
  -0.00010981   0.00000000   0.00000000        -16.15      0.00      0.00
   0.00000000  -0.00010981   0.00000000          0.00    -16.15      0.00
   0.00000000   0.00000000   0.00026380          0.00      0.00     38.81

     Volume is kept fixed: isostatic pressure set to zero

     BFGS Geometry Optimization

     number of scf cycles    =   1
     number of bfgs steps    =   0

     enthalpy new            =    -481.1709225657 Ry

     new trust radius        =       0.0245995430 bohr
     new conv_thr            =       0.0000010000 Ry

     new unit-cell volume =    390.16846 a.u.^3 (    57.81700 Ang^3 )

CELL_PARAMETERS (alat=  8.45971162)
   0.996896200   0.000000000   0.000000000
   0.000000000   0.996896200   0.000000000
   0.000000000   0.000000000   0.648463600

ATOMIC_POSITIONS (crystal)
Cr0      0.000000000   0.000000000   0.000000000    0   0   0
Cr0      0.500000000   0.500000000   0.500000000    0   0   0
O1       0.304363682   0.304363682   0.000000000    1   1   0
O1      -0.304363682  -0.304363682   0.000000000    1   1   0
O1       0.804363682   0.195636318   0.500000000    1   1   0
O1       0.195636318   0.804363682   0.500000000    1   1   0

     NEW-OLD atomic charge density approx. for the potential
     NEW k-points:
        k(    1) = (   0.0000000   0.0000000   0.0000000), wk =   0.0080000
[...]
        k(   17) = (   0.4012454   0.4012454   0.3084213), wk =   0.0640000
        k(   18) = (   0.4012454   0.4012454   0.6168426), wk =   0.0640000
        k(   19) = (   0.0000000   0.0000000   0.0000000), wk =   0.0080000
        k(   20) = (   0.0000000   0.0000000   0.3084213), wk =   0.0160000
        k(   21) = (   0.0000000   0.0000000   0.6168426), wk =   0.0160000
        k(   22) = (   0.0000000   0.2006227   0.0000000), wk =   0.0320000
        k(   23) = (   0.0000000   0.2006227   0.3084213), wk =   0.0640000
        k(   24) = (   0.0000000   0.2006227   0.6168426), wk =   0.0640000
        k(   25) = (   0.0000000   0.4012454   0.0000000), wk =   0.0320000
        k(   26) = (   0.0000000   0.4012454   0.3084213), wk =   0.0640000
        k(   27) = (   0.0000000   0.4012454   0.6168426), wk =   0.0640000
        k(   28) = (   0.2006227   0.2006227   0.0000000), wk =   0.0320000
        k(   29) = (   0.2006227   0.2006227   0.3084213), wk =   0.0640000
        k(   30) = (   0.2006227   0.2006227   0.6168426), wk =   0.0640000
        k(   31) = (   0.2006227   0.4012454   0.0000000), wk =   0.0640000
        k(   32) = (   0.2006227   0.4012454   0.3084213), wk =   0.1280000
        k(   33) = (   0.2006227   0.4012454   0.6168426), wk =   0.1280000
        k(   34) = (   0.4012454   0.4012454   0.0000000), wk =   0.0320000
        k(   35) = (   0.4012454   0.4012454   0.3084213), wk =   0.0640000
        k(   36) = (   0.4012454   0.4012454   0.6168426), wk =   0.0640000

[...]

     enthalpy old            =    -481.1709225657 Ry
     enthalpy new            =    -481.1717944522 Ry

     CASE: enthalpy_new < enthalpy_old

[...]

     Total force =     0.000627     Total SCF correction =     0.000119
     SCF correction compared to forces is large: reduce conv_thr to get better values

[...]

     number of scf cycles    =   3
     number of bfgs steps    =   2

     enthalpy old            =    -481.1717944522 Ry
     enthalpy new            =    -481.1721575830 Ry

     CASE: enthalpy_new < enthalpy_old

     new trust radius        =       0.0014036546 bohr
     new conv_thr            =       0.0000000100 Ry

     new unit-cell volume =    390.16846 a.u.^3 (    57.81700 Ang^3 )

[...]

ATOMIC_POSITIONS (crystal)
Cr0      0.000000000   0.000000000   0.000000000    0   0   0
Cr0      0.500000000   0.500000000   0.500000000    0   0   0
O1       0.303567039   0.303567039   0.000000000    1   1   0
O1      -0.303567039  -0.303567039   0.000000000    1   1   0
O1       0.803567039   0.196432961   0.500000000    1   1   0
O1       0.196432961   0.803567039   0.500000000    1   1   0

     NEW-OLD atomic charge density approx. for the potential
     NEW k-points:
        k(    1) = (   0.0000000   0.0000000   0.0000000), wk =   0.0080000
        k(    2) = (   0.0000000   0.0000000   0.3061663), wk =   0.0160000
        k(    3) = (   0.0000000   0.0000000   0.6123326), wk =   0.0160000
        k(    4) = (   0.0000000   0.2013602   0.0000000), wk =   0.0320000
        k(    5) = (   0.0000000   0.2013602   0.3061663), wk =   0.0640000
        k(    6) = (   0.0000000   0.2013602   0.6123326), wk =   0.0640000
        k(    7) = (   0.0000000   0.4027203   0.0000000), wk =   0.0320000
        k(    8) = (   0.0000000   0.4027203   0.3061663), wk =   0.0640000
        k(    9) = (   0.0000000   0.4027203   0.6123326), wk =   0.0640000
        k(   10) = (   0.2013602   0.2013602   0.0000000), wk =   0.0320000
        k(   11) = (   0.2013602   0.2013602   0.3061663), wk =   0.0640000
        k(   12) = (   0.2013602   0.2013602   0.6123326), wk =   0.0640000
        k(   13) = (   0.2013602   0.4027203   0.0000000), wk =   0.0640000
        k(   14) = (   0.2013602   0.4027203   0.3061663), wk =   0.1280000
        k(   15) = (   0.2013602   0.4027203   0.6123326), wk =   0.1280000
        k(   16) = (   0.4027203   0.4027203   0.0000000), wk =   0.0320000
        k(   17) = (   0.4027203   0.4027203   0.3061663), wk =   0.0640000
        k(   18) = (   0.4027203   0.4027203   0.6123326), wk =   0.0640000
        k(   19) = (   0.0000000   0.0000000   0.0000000), wk =   0.0080000
        k(   20) = (   0.0000000   0.0000000   0.3061663), wk =   0.0160000
        k(   21) = (   0.0000000   0.0000000   0.6123326), wk =   0.0160000
        k(   22) = (   0.0000000   0.2013602   0.0000000), wk =   0.0320000
        k(   23) = (   0.0000000   0.2013602   0.3061663), wk =   0.0640000
        k(   24) = (   0.0000000   0.2013602   0.6123326), wk =   0.0640000
        k(   25) = (   0.0000000   0.4027203   0.0000000), wk =   0.0320000
        k(   26) = (   0.0000000   0.4027203   0.3061663), wk =   0.0640000
        k(   27) = (   0.0000000   0.4027203   0.6123326), wk =   0.0640000
        k(   28) = (   0.2013602   0.2013602   0.0000000), wk =   0.0320000
        k(   29) = (   0.2013602   0.2013602   0.3061663), wk =   0.0640000
        k(   30) = (   0.2013602   0.2013602   0.6123326), wk =   0.0640000
        k(   31) = (   0.2013602   0.4027203   0.0000000), wk =   0.0640000
        k(   32) = (   0.2013602   0.4027203   0.3061663), wk =   0.1280000
        k(   33) = (   0.2013602   0.4027203   0.6123326), wk =   0.1280000
        k(   34) = (   0.4027203   0.4027203   0.0000000), wk =   0.0320000
        k(   35) = (   0.4027203   0.4027203   0.3061663), wk =   0.0640000
        k(   36) = (   0.4027203   0.4027203   0.6123326), wk =   0.0640000

[...]

     Threshold (ethr) on eigenvalues was too large:
     Diagonalizing with lowered threshold

     Davidson diagonalization with overlap
     ethr =  1.14E-09,  avg # of iterations =  2.0

[...]

     Volume is kept fixed: isostatic pressure set to zero

     bfgs converged in   4 scf cycles and   3 bfgs steps
     (criteria: energy < 0.10E-03, force < 0.10E-02, cell < 0.50E+00)

     End of BFGS Geometry Optimization

     Final enthalpy =    -481.1721586866 Ry
Begin final coordinates
     new unit-cell volume =    390.16846 a.u.^3 (    57.81700 Ang^3 )

CELL_PARAMETERS (alat=  8.45971162)
   0.993245123   0.000000000   0.000000000
   0.000000000   0.993245123   0.000000000
   0.000000000   0.000000000   0.653239747

ATOMIC_POSITIONS (crystal)
Cr0      0.000000000   0.000000000   0.000000000    0   0   0
Cr0      0.500000000   0.500000000   0.500000000    0   0   0
O1       0.303567039   0.303567039   0.000000000    1   1   0
O1      -0.303567039  -0.303567039   0.000000000    1   1   0
O1       0.803567039   0.196432961   0.500000000    1   1   0
O1       0.196432961   0.803567039   0.500000000    1   1   0
End final coordinates

     A final scf calculation at the relaxed structure.
     The G-vectors are recalculated for the final unit cell
     Results may differ from those at the preceding step.

     bravais-lattice index     =            0
     lattice parameter (alat)  =       8.4597  a.u.
     unit-cell volume          =     390.1685 (a.u.)^3
     number of atoms/cell      =            6
     number of atomic types    =            2
     number of electrons       =        52.00
     number of Kohn-Sham states=           75
     kinetic-energy cutoff     =      40.0000  Ry
     charge density cutoff     =     500.0000  Ry
     convergence threshold     =      1.0E-08
     mixing beta               =       0.3000
     number of iterations used =            8  plain     mixing
     Exchange-correlation      = SLA  PW   PBE  PBE ( 1 4 3 4 0)
     EXX-fraction              =        0.00

     celldm(1)=   8.459712  celldm(2)=   0.000000  celldm(3)=   0.000000
     celldm(4)=   0.000000  celldm(5)=   0.000000  celldm(6)=   0.000000

     crystal axes: (cart. coord. in units of alat)
               a(1) = (   0.993245   0.000000   0.000000 )
               a(2) = (   0.000000   0.993245   0.000000 )
               a(3) = (   0.000000   0.000000   0.653240 )

     reciprocal axes: (cart. coord. in units 2 pi/alat)
               b(1) = (  1.006801  0.000000  0.000000 )
               b(2) = (  0.000000  1.006801  0.000000 )
               b(3) = (  0.000000  0.000000  1.530832 )

     PseudoPot. # 1 for Cr read from file:
     /home/camp/zhonxu/pseudo/cr_pbe_v1.uspp.F.UPF
     MD5 check sum: 68b6f918d1762dccfb11451fe85b0e0e
     Pseudo is Ultrasoft + core correction, Zval = 14.0
     Generated by new atomic code, or converted to UPF format
     Using radial grid of  857 points,  6 beta functions with:
                l(1) =   0
                l(2) =   0
                l(3) =   1
                l(4) =   1
                l(5) =   2
                l(6) =   2
     Q(r) pseudized with  6 coefficients,  rinner =    1.000   1.000   1.000
                                                       1.000   1.000

     PseudoPot. # 2 for O  read from file:
     /home/camp/zhonxu/pseudo/o_pbe_v1.01.uspp.F.UPF
     MD5 check sum: 2bcb18d16ea4b960afae9ec6d52f22d2
     Pseudo is Ultrasoft + core correction, Zval =  6.0
     Generated by new atomic code, or converted to UPF format
     Using radial grid of  737 points,  5 beta functions with:
                l(1) =   0
                l(2) =   0
                l(3) =   1
                l(4) =   1
                l(5) =   2
     Q(r) pseudized with  8 coefficients,  rinner =    0.900   0.900   0.900
                                                       0.900   0.900

     atomic species   valence    mass     pseudopotential
        Cr0           14.00    51.99600     Cr( 1.00)
        O1             6.00    15.99940     O ( 1.00)

     Starting magnetic structure
     atomic species   magnetization
        Cr0          0.600
        O1           0.000

     16 Sym. Ops., with inversion, found ( 8 have fractional translation)

   Cartesian axes

     site n.     atom                  positions (alat units)
         1           Cr0 tau(   1) = (   0.0000000   0.0000000   0.0000000  )
         2           Cr0 tau(   2) = (   0.4966226   0.4966226   0.3266199  )
         3           O1  tau(   3) = (   0.3015165   0.3015165   0.0000000  )
         4           O1  tau(   4) = (  -0.3015165  -0.3015165   0.0000000  )
         5           O1  tau(   5) = (   0.7981390   0.1951061   0.3266199  )
         6           O1  tau(   6) = (   0.1951061   0.7981390   0.3266199  )

     number of k points=    36  Methfessel-Paxton smearing, width (Ry)=  0.0100
                       cart. coord. in units 2pi/alat
        k(    1) = (   0.0000000   0.0000000   0.0000000), wk =   0.0080000
        k(    2) = (   0.0000000   0.0000000   0.3061663), wk =   0.0160000
        k(    3) = (   0.0000000   0.0000000   0.6123326), wk =   0.0160000
        k(    4) = (   0.0000000   0.2013602   0.0000000), wk =   0.0320000
        k(    5) = (   0.0000000   0.2013602   0.3061663), wk =   0.0640000
        k(    6) = (   0.0000000   0.2013602   0.6123326), wk =   0.0640000
        k(    7) = (   0.0000000   0.4027203   0.0000000), wk =   0.0320000
        k(    8) = (   0.0000000   0.4027203   0.3061663), wk =   0.0640000
        k(    9) = (   0.0000000   0.4027203   0.6123326), wk =   0.0640000
        k(   10) = (   0.2013602   0.2013602   0.0000000), wk =   0.0320000
        k(   11) = (   0.2013602   0.2013602   0.3061663), wk =   0.0640000
        k(   12) = (   0.2013602   0.2013602   0.6123326), wk =   0.0640000
        k(   13) = (   0.2013602   0.4027203   0.0000000), wk =   0.0640000
        k(   14) = (   0.2013602   0.4027203   0.3061663), wk =   0.1280000
        k(   15) = (   0.2013602   0.4027203   0.6123326), wk =   0.1280000
        k(   16) = (   0.4027203   0.4027203   0.0000000), wk =   0.0320000
        k(   17) = (   0.4027203   0.4027203   0.3061663), wk =   0.0640000
        k(   18) = (   0.4027203   0.4027203   0.6123326), wk =   0.0640000
        k(   19) = (   0.0000000   0.0000000   0.0000000), wk =   0.0080000
        k(   20) = (   0.0000000   0.0000000   0.3061663), wk =   0.0160000
        k(   21) = (   0.0000000   0.0000000   0.6123326), wk =   0.0160000
        k(   22) = (   0.0000000   0.2013602   0.0000000), wk =   0.0320000
        k(   23) = (   0.0000000   0.2013602   0.3061663), wk =   0.0640000
        k(   24) = (   0.0000000   0.2013602   0.6123326), wk =   0.0640000
        k(   25) = (   0.0000000   0.4027203   0.0000000), wk =   0.0320000
        k(   26) = (   0.0000000   0.4027203   0.3061663), wk =   0.0640000
        k(   27) = (   0.0000000   0.4027203   0.6123326), wk =   0.0640000
        k(   28) = (   0.2013602   0.2013602   0.0000000), wk =   0.0320000
        k(   29) = (   0.2013602   0.2013602   0.3061663), wk =   0.0640000
        k(   30) = (   0.2013602   0.2013602   0.6123326), wk =   0.0640000
        k(   31) = (   0.2013602   0.4027203   0.0000000), wk =   0.0640000
        k(   32) = (   0.2013602   0.4027203   0.3061663), wk =   0.1280000
        k(   33) = (   0.2013602   0.4027203   0.6123326), wk =   0.1280000
        k(   34) = (   0.4027203   0.4027203   0.0000000), wk =   0.0320000
        k(   35) = (   0.4027203   0.4027203   0.3061663), wk =   0.0640000
        k(   36) = (   0.4027203   0.4027203   0.6123326), wk =   0.0640000

     Largest allocated arrays     est. size (Mb)     dimensions
     Largest temporary arrays     est. size (Mb)     dimensions

     Check: negative/imaginary core charge=   -0.000033    0.000000

     Initial potential from superposition of free atoms

     starting charge   49.99997, renormalised to   52.00000
     Starting wfc are   36 randomized atomic wfcs

     Self-consistent Calculation

[...]

     total energy              =    -481.17212266 Ry
     Harris-Foulkes estimate   =    -481.17212050 Ry
     estimated scf accuracy    <       0.00000006 Ry

[...]

     iteration # 13     ecut=    40.00 Ry     beta=0.30
     Davidson diagonalization with overlap
     ethr =  1.06E-10,  avg # of iterations =  1.0

     End of self-consistent calculation

 ------ SPIN UP ------------

[...]

 ------ SPIN DOWN ----------

[...]

          k = 0.4027 0.4027 0.6123 (  1656 PWs)   bands (ev):

   -60.6271 -60.6269 -32.2548 -32.2545 -31.8870 -31.8852 -31.8662 -31.8649
    -7.6860  -7.6030  -7.4718  -7.4496   4.2907   4.4855   4.5509   4.6173
     5.8454   6.0264   6.7796   6.8370   7.8928   8.0472   8.5961   8.7606
    11.6814  12.0241  12.4419  12.6490  12.6778  12.7767  14.0311  14.5590
    14.7277  15.2406  21.9916  22.3197  24.0724  24.7001  25.2828  25.7790
    26.8750  27.0771  28.4010  28.7124  29.7365  30.2096  33.2637  34.9015
    34.9808  35.3845  35.9519  36.6048  39.8989  40.0167  40.6798  41.5396
    43.1719  43.6506  43.9253  44.7548  45.7005  45.7477  46.4606  47.0493
    47.2639  48.3780  49.8414  50.4954  50.5531  51.0868  51.7825  52.4389
    52.6259  53.0905  53.1124

     the Fermi energy is    10.5485 ev

!    total energy              =    -481.17212473 Ry
     Harris-Foulkes estimate   =    -481.17212267 Ry
     estimated scf accuracy    <          7.0E-09 Ry

     The total energy is the sum of the following terms:

     one-electron contribution =    -206.22810897 Ry
     hartree contribution      =     129.18174017 Ry
     xc contribution           =     -74.41683623 Ry
     ewald contribution        =    -329.70877109 Ry
     smearing contrib. (-TS)   =      -0.00014861 Ry

     total magnetization       =     4.00 Bohr mag/cell
     absolute magnetization    =     4.72 Bohr mag/cell

     convergence has been achieved in  13 iterations

     Forces acting on atoms (Ry/au):

     atom    1 type  1   force =     0.00000000    0.00000000   -0.00000000
     atom    2 type  1   force =     0.00000000    0.00000000    0.00000000
     atom    3 type  2   force =    -0.00007845   -0.00007845   -0.00000000
     atom    4 type  2   force =     0.00007845    0.00007845    0.00000000
     atom    5 type  2   force =    -0.00007845    0.00007845    0.00000000
     atom    6 type  2   force =     0.00007845   -0.00007845    0.00000000

     Total force =     0.000222     Total SCF correction =     0.000015

     entering subroutine stress ...

          total   stress  (Ry/bohr**3)                   (kbar)     P=  -10.62
  -0.00007287   0.00000000   0.00000000        -10.72      0.00      0.00
   0.00000000  -0.00007287   0.00000000          0.00    -10.72      0.00
   0.00000000   0.00000000  -0.00007087          0.00      0.00    -10.43

     General routines

     Parallel routines

   This run was terminated on:  16:13:27  24Jan2014

   JOB DONE.
Running PBS batch system epilogue script
Job id: 251945.audhumbla.fysik.dtu.dk
Username: zhonxu
Groupname: campgst
Jobname: CrO2/fine-EOS/ferro/CrO2-v-1.00
Sessionid: 15660
Queuename: verylong
Accounting:
This job has allocated the following 4 nodes:
q083 q083 q083 q083
Finished epilogue job 251945.audhumbla.fysik.dtu.dk for zhonxu