     Program PWSCF v.5.0.2 (svn rev. 9656) starts on 30Apr2014 at  4:36:54

     Current dimensions of program PWSCF are:
     Max number of different atomic species (ntypx) = 10
     Max number of k-points (npk) =  40000
     Max angular momentum in pseudopotentials (lmaxx) =  3
     Reading input from pwscf.in
Warning: card &CELL ignored
Warning: card / ignored

     Subspace diagonalization in iterative solution of the eigenvalue problem:
     a serial algorithm will be used

     bravais-lattice index     =            0
     lattice parameter (alat)  =      11.7541  a.u.
     unit-cell volume          =    7139.8207 (a.u.)^3
     number of atoms/cell      =           31
     number of atomic types    =            3
     number of electrons       =       238.00
     number of Kohn-Sham states=          357
     kinetic-energy cutoff     =      40.0000  Ry
     charge density cutoff     =     500.0000  Ry
     convergence threshold     =      1.0E-06
     mixing beta               =       0.7000
     number of iterations used =            8  plain     mixing
     Exchange-correlation      = SLA  PW   PBE  PBE ( 1 4 3 4 0)
     EXX-fraction              =        0.00
     nstep                     =           50

     celldm(1)=  11.754097  celldm(2)=   0.000000  celldm(3)=   0.000000
     celldm(4)=   0.000000  celldm(5)=   0.000000  celldm(6)=   0.000000

     crystal axes: (cart. coord. in units of alat)
               a(1) = (   1.000000   0.000000   0.000000 )
               a(2) = (   0.000000   1.034513   0.000000 )
               a(3) = (   0.000000   0.000000   4.249947 )

     reciprocal axes: (cart. coord. in units 2 pi/alat)
               b(1) = (  1.000000  0.000000  0.000000 )
               b(2) = (  0.000000  0.966638  0.000000 )
               b(3) = (  0.000000  0.000000  0.235297 )

     PseudoPot. # 1 for O  read from file:
     /home/camp/zhonxu/pseudo/o_pbe_v1.01.uspp.F.UPF
     MD5 check sum: 2bcb18d16ea4b960afae9ec6d52f22d2
     Pseudo is Ultrasoft + core correction, Zval =  6.0
     Generated by new atomic code, or converted to UPF format
     Using radial grid of  737 points,  5 beta functions with:
                l(1) =   0
                l(2) =   0
                l(3) =   1
                l(4) =   1
                l(5) =   2
     Q(r) pseudized with  8 coefficients,  rinner =    0.900   0.900   0.900
                                                       0.900   0.900

     PseudoPot. # 2 for Rh read from file:
     /home/camp/zhonxu/pseudo/rh_pbe_v1.uspp.F.UPF
     MD5 check sum: 37b626987ad0dd8ec6bf4cc9ef289918
     Pseudo is Ultrasoft + core correction, Zval = 15.0
     Generated by new atomic code, or converted to UPF format
     Using radial grid of  969 points,  7 beta functions with:
                l(1) =   0
                l(2) =   0
                l(3) =   1
                l(4) =   1
                l(5) =   2
                l(6) =   2
                l(7) =   2
     Q(r) pseudized with  6 coefficients,  rinner =    1.050   1.050   1.050
                                                       1.050   1.050

     PseudoPot. # 3 for H  read from file:
     /home/camp/zhonxu/pseudo/h_pbe_v1.uspp.F.UPF
     MD5 check sum: 3408e3ff4ec8b0a4e358431e7e038a48
     Pseudo is Ultrasoft, Zval =  1.0
     Generated by new atomic code, or converted to UPF format
     Using radial grid of  615 points,  2 beta functions with:
                l(1) =   0
                l(2) =   0
     Q(r) pseudized with  8 coefficients,  rinner =    0.700

     atomic species   valence    mass     pseudopotential
        O0             6.00    15.99940     O ( 1.00)
        Rh1           15.00   102.90550     Rh( 1.00)
        H2             1.00     1.00794     H ( 1.00)

     Simplified LDA+U calculation (l_max = 2) with parameters (eV):
     atomic species    L          U    alpha       J0     beta
        Rh1            2     6.0000   0.0000   0.0000   0.0000

     No symmetry found

   Cartesian axes

     site n.     atom                  positions (alat units)
         1           O0  tau(   1) = (   0.0000000   0.0000000   1.6064375  )
         2           O0  tau(   2) = (   0.0000000   0.5172566   1.7091588  )
         3           Rh1 tau(   3) = (   0.2500000   0.5172566   1.9262886  )
         4           Rh1 tau(   4) = (   0.0000000   0.0000000   1.9228036  )
         5           O0  tau(   5) = (   0.2500000   0.8379556   1.9220386  )
         6           O0  tau(   6) = (   0.2500000   0.1965575   1.9215286  )
         7           O0  tau(   7) = (   0.0000000   0.5172566   2.1200437  )
         8           O0  tau(   8) = (   0.0000000   0.0000000   2.2432071  )
         9           Rh1 tau(   9) = (   0.2500000   0.0000000   2.4439746  )
        10           Rh1 tau(  10) = (   0.0000000   0.5172566   2.4253174  )
        11           O0  tau(  11) = (   0.2500000   0.7138141   2.4432947  )
        12           O0  tau(  12) = (   0.2500000   0.3206991   2.4432097  )
        13           O0  tau(  13) = (   0.0000000   0.0000000   2.6356898  )
        14           O0  tau(  14) = (   0.5000000   0.0000000   1.6064375  )
        15           O0  tau(  15) = (   0.5000000   0.5172566   1.7079263  )
        16           Rh1 tau(  16) = (   0.7500000   0.5172566   1.9262886  )
        17           Rh1 tau(  17) = (   0.5000000   0.0000000   1.9227611  )
        18           O0  tau(  18) = (   0.7500000   0.8379556   1.9219536  )
        19           O0  tau(  19) = (   0.7500000   0.1965575   1.9216136  )
        20           O0  tau(  20) = (   0.5000000   0.5172566   2.1284161  )
        21           O0  tau(  21) = (   0.5000000   0.0000000   2.2423572  )
        22           Rh1 tau(  22) = (   0.7500000   0.0000000   2.4439321  )
        23           Rh1 tau(  23) = (   0.5000000   0.5172566   2.4652244  )
        24           O0  tau(  24) = (   0.7500000   0.7138141   2.4431672  )
        25           O0  tau(  25) = (   0.7500000   0.3206991   2.4432097  )
        26           O0  tau(  26) = (   0.5000000   0.0000000   2.6354348  )
        27           H2  tau(  27) = (  -0.0000700   0.6590056   1.6354222  )
        28           H2  tau(  28) = (   0.4999300   0.6605366   1.6368247  )
        29           H2  tau(  29) = (   0.1480800   0.0354838   1.5606656  )
        30           H2  tau(  30) = (   0.6481100   0.0354321   1.5605806  )
        31           O0  tau(  31) = (   0.5000800   0.5160462   2.7479734  )

     number of k points=    10  Methfessel-Paxton smearing, width (Ry)=  0.0100
                       cart. coord. in units 2pi/alat
        k(    1) = (   0.0000000   0.0000000   0.0000000), wk =   0.1250000
        k(    2) = (   0.0000000   0.2416596   0.0000000), wk =   0.2500000
        k(    3) = (   0.0000000  -0.4833191   0.0000000), wk =   0.1250000
        k(    4) = (   0.2500000   0.0000000   0.0000000), wk =   0.2500000
        k(    5) = (   0.2500000   0.2416596   0.0000000), wk =   0.2500000
        k(    6) = (   0.2500000  -0.4833191   0.0000000), wk =   0.2500000
        k(    7) = (  -0.5000000   0.0000000   0.0000000), wk =   0.1250000
        k(    8) = (  -0.5000000   0.2416596   0.0000000), wk =   0.2500000
        k(    9) = (  -0.5000000  -0.4833191   0.0000000), wk =   0.1250000
        k(   10) = (  -0.2500000   0.2416596   0.0000000), wk =   0.2500000

     Largest allocated arrays     est. size (Mb)     dimensions
     Largest temporary arrays     est. size (Mb)     dimensions

     Check: negative/imaginary core charge=   -0.000003    0.000000

     Initial potential from superposition of free atoms
     Check: negative starting charge=   -0.645358

     starting charge  233.99915, renormalised to  238.00000

     negative rho (up, down):  0.656E+00 0.000E+00
     Number of +U iterations with fixed ns =  0
     Starting occupations:
 --- enter write_ns ---
 LDA+U parameters:
U( 2)     =  6.00000000
alpha( 2) =  0.00000000
atom    3   Tr[ns(na)] =   7.00000
    eigenvalues:
  0.700  0.700  0.700  0.700  0.700
    eigenvectors:
  1.000  0.000  0.000  0.000  0.000
  0.000  1.000  0.000  0.000  0.000
  0.000  0.000  1.000  0.000  0.000
  0.000  0.000  0.000  1.000  0.000
  0.000  0.000  0.000  0.000  1.000
    occupations:
  0.700  0.000  0.000  0.000  0.000
  0.000  0.700  0.000  0.000  0.000
  0.000  0.000  0.700  0.000  0.000
  0.000  0.000  0.000  0.700  0.000
  0.000  0.000  0.000  0.000  0.700
atom    4   Tr[ns(na)] =   7.00000
    eigenvalues:
  0.700  0.700  0.700  0.700  0.700
    eigenvectors:
  1.000  0.000  0.000  0.000  0.000
  0.000  1.000  0.000  0.000  0.000
  0.000  0.000  1.000  0.000  0.000
  0.000  0.000  0.000  1.000  0.000
  0.000  0.000  0.000  0.000  1.000
    occupations:
  0.700  0.000  0.000  0.000  0.000
  0.000  0.700  0.000  0.000  0.000
  0.000  0.000  0.700  0.000  0.000
  0.000  0.000  0.000  0.700  0.000
  0.000  0.000  0.000  0.000  0.700
atom    9   Tr[ns(na)] =   7.00000
    eigenvalues:
  0.700  0.700  0.700  0.700  0.700
    eigenvectors:
  1.000  0.000  0.000  0.000  0.000
  0.000  1.000  0.000  0.000  0.000
  0.000  0.000  1.000  0.000  0.000
  0.000  0.000  0.000  1.000  0.000
  0.000  0.000  0.000  0.000  1.000
    occupations:
  0.700  0.000  0.000  0.000  0.000
  0.000  0.700  0.000  0.000  0.000
  0.000  0.000  0.700  0.000  0.000
  0.000  0.000  0.000  0.700  0.000
  0.000  0.000  0.000  0.000  0.700
atom   10   Tr[ns(na)] =   7.00000
    eigenvalues:
  0.700  0.700  0.700  0.700  0.700
    eigenvectors:
  1.000  0.000  0.000  0.000  0.000
  0.000  1.000  0.000  0.000  0.000
  0.000  0.000  1.000  0.000  0.000
  0.000  0.000  0.000  1.000  0.000
  0.000  0.000  0.000  0.000  1.000
    occupations:
  0.700  0.000  0.000  0.000  0.000
  0.000  0.700  0.000  0.000  0.000
  0.000  0.000  0.700  0.000  0.000
  0.000  0.000  0.000  0.700  0.000
  0.000  0.000  0.000  0.000  0.700
atom   16   Tr[ns(na)] =   7.00000
    eigenvalues:
  0.700  0.700  0.700  0.700  0.700
    eigenvectors:
  1.000  0.000  0.000  0.000  0.000
  0.000  1.000  0.000  0.000  0.000
  0.000  0.000  1.000  0.000  0.000
  0.000  0.000  0.000  1.000  0.000
  0.000  0.000  0.000  0.000  1.000
    occupations:
  0.700  0.000  0.000  0.000  0.000
  0.000  0.700  0.000  0.000  0.000
  0.000  0.000  0.700  0.000  0.000
  0.000  0.000  0.000  0.700  0.000
  0.000  0.000  0.000  0.000  0.700
atom   17   Tr[ns(na)] =   7.00000
    eigenvalues:
  0.700  0.700  0.700  0.700  0.700
    eigenvectors:
  1.000  0.000  0.000  0.000  0.000
  0.000  1.000  0.000  0.000  0.000
  0.000  0.000  1.000  0.000  0.000
  0.000  0.000  0.000  1.000  0.000
  0.000  0.000  0.000  0.000  1.000
    occupations:
  0.700  0.000  0.000  0.000  0.000
  0.000  0.700  0.000  0.000  0.000
  0.000  0.000  0.700  0.000  0.000
  0.000  0.000  0.000  0.700  0.000
  0.000  0.000  0.000  0.000  0.700
atom   22   Tr[ns(na)] =   7.00000
    eigenvalues:
  0.700  0.700  0.700  0.700  0.700
    eigenvectors:
  1.000  0.000  0.000  0.000  0.000
  0.000  1.000  0.000  0.000  0.000
  0.000  0.000  1.000  0.000  0.000
  0.000  0.000  0.000  1.000  0.000
  0.000  0.000  0.000  0.000  1.000
    occupations:
  0.700  0.000  0.000  0.000  0.000
[...]
  0.000  0.000  0.940  0.060  0.000
  0.000  0.008  0.000  0.000  0.992
  0.999  0.001  0.000  0.000  0.000
    occupations:
  0.653 -0.004 -0.001  0.029  0.001
 -0.004  0.931  0.011  0.001 -0.001
 -0.001  0.011  0.889 -0.000  0.001
  0.029  0.001 -0.000  0.978  0.000
  0.001 -0.001  0.001  0.000  0.598
atom    9   Tr[ns(na)] =   8.09851
    eigenvalues:
  0.634  0.641  0.881  0.913  0.981
    eigenvectors:
  0.007  0.145  0.000  0.000  0.848
  0.957  0.043  0.000  0.000  0.000
  0.000  0.000  0.928  0.072  0.000
  0.036  0.813  0.000  0.000  0.152
  0.000  0.000  0.072  0.928  0.000
    occupations:
  0.929  0.002 -0.000 -0.122 -0.000
  0.002  0.634  0.001  0.001 -0.000
 -0.000  0.001  0.883  0.000 -0.008
 -0.122  0.001  0.000  0.692  0.001
 -0.000 -0.000 -0.008  0.001  0.911
atom   10   Tr[ns(na)] =   8.07171
    eigenvalues:
  0.581  0.590  0.939  0.945  0.980
    eigenvectors:
  0.991  0.000  0.000  0.000  0.009
  0.000  0.000  0.001  0.999  0.000
  0.000  0.000  0.999  0.001  0.000
  0.009  0.000  0.000  0.000  0.991
  0.000  1.000  0.000  0.000  0.000
    occupations:
  0.585  0.000  0.001  0.038 -0.000
  0.000  0.945 -0.000 -0.000 -0.000
  0.001 -0.000  0.939  0.000  0.000
  0.038 -0.000  0.000  0.976 -0.000
 -0.000 -0.000  0.000 -0.000  0.590
atom   16   Tr[ns(na)] =   8.08539
    eigenvalues:
  0.579  0.600  0.917  0.966  0.980
    eigenvectors:
  0.008  0.193  0.002  0.000  0.796
  0.964  0.035  0.000  0.000  0.000
  0.000  0.000  0.985  0.013  0.002
  0.027  0.771  0.000  0.000  0.201
  0.000  0.000  0.013  0.986  0.001
    occupations:
  0.903  0.004  0.001 -0.153  0.001
  0.004  0.580  0.000  0.002 -0.006
  0.001  0.000  0.918 -0.004 -0.006
 -0.153  0.002 -0.004  0.676  0.000
  0.001 -0.006 -0.006  0.000  0.966
atom   17   Tr[ns(na)] =   8.09575
    eigenvalues:
  0.598  0.650  0.887  0.932  0.981
    eigenvectors:
  0.001  0.991  0.000  0.000  0.008
  0.000  0.000  0.082  0.917  0.000
  0.000  0.000  0.917  0.082  0.000
  0.000  0.008  0.000  0.000  0.992
  0.999  0.001  0.000  0.000  0.000
    occupations:
  0.652 -0.004 -0.001  0.029  0.002
 -0.004  0.929  0.012  0.001 -0.001
 -0.001  0.012  0.891 -0.000  0.001
  0.029  0.001 -0.000  0.978  0.000
  0.002 -0.001  0.001  0.000  0.598
atom   22   Tr[ns(na)] =   8.09839
    eigenvalues:
  0.634  0.640  0.881  0.913  0.981
    eigenvectors:
  0.000  0.152  0.000  0.000  0.848
  0.997  0.003  0.000  0.000  0.000
  0.000  0.000  0.933  0.067  0.000
  0.002  0.846  0.000  0.000  0.152
  0.000  0.000  0.067  0.933  0.000
    occupations:
  0.929 -0.001  0.000 -0.122 -0.000
 -0.001  0.634  0.001 -0.000 -0.000
  0.000  0.001  0.883 -0.000  0.008
 -0.122 -0.000 -0.000  0.692  0.001
 -0.000 -0.000  0.008  0.001  0.911
atom   23   Tr[ns(na)] =   8.08876
    eigenvalues:
  0.640  0.705  0.834  0.883  0.983
    eigenvectors:
  0.000  0.993  0.000  0.000  0.007
  0.000  0.000  0.000  1.000  0.000
  0.000  0.000  1.000  0.000  0.000
  0.000  0.007  0.000  0.000  0.993
  1.000  0.000  0.000  0.000  0.000
    occupations:
  0.707  0.000 -0.001  0.024 -0.000
  0.000  0.883 -0.000  0.000  0.000
 -0.001 -0.000  0.834  0.001  0.000
  0.024  0.000  0.001  0.981  0.000
 -0.000  0.000  0.000  0.000  0.640
N of occupied +U levels =  64.7207682
 --- exit write_ns ---

     Threshold (ethr) on eigenvalues was too large:
     Diagonalizing with lowered threshold

     Davidson diagonalization with overlap
     ethr =  1.38E-08,  avg # of iterations =  2.0

[...]

     total energy              =   -1977.91992373 Ry
     Harris-Foulkes estimate   =   -1977.91992374 Ry
     estimated scf accuracy    <       0.00000016 Ry

     iteration # 18     ecut=    40.00 Ry     beta=0.70
     Davidson diagonalization with overlap
     ethr =  8.59E-12,  avg # of iterations =  1.0

     negative rho (up, down):  0.687E+00 0.000E+00

     End of self-consistent calculation
 --- enter write_ns ---
 LDA+U parameters:
U( 2)     =  6.00000000
alpha( 2) =  0.00000000
atom    3   Tr[ns(na)] =   8.08558
    eigenvalues:
  0.579  0.600  0.917  0.966  0.980
    eigenvectors:
  0.009  0.193  0.002  0.000  0.796
  0.960  0.039  0.000  0.000  0.000
  0.000  0.000  0.979  0.019  0.002
  0.030  0.768  0.000  0.000  0.202
  0.000  0.000  0.019  0.981  0.001
    occupations:
  0.903 -0.005  0.001 -0.153 -0.001
 -0.005  0.580 -0.001 -0.002 -0.006
  0.001 -0.001  0.918 -0.004  0.007
 -0.153 -0.002 -0.004  0.676 -0.000
 -0.001 -0.006  0.007 -0.000  0.965
atom    4   Tr[ns(na)] =   8.09680
    eigenvalues:
  0.598  0.650  0.886  0.934  0.981
    eigenvectors:
  0.001  0.991  0.000  0.000  0.008
  0.000  0.000  0.059  0.940  0.000
  0.000  0.000  0.941  0.059  0.000
  0.000  0.008  0.000  0.000  0.992
  0.999  0.001  0.000  0.000  0.000
    occupations:
  0.652 -0.004 -0.001  0.029  0.001
 -0.004  0.931  0.011  0.001 -0.001
 -0.001  0.011  0.889 -0.000  0.001
  0.029  0.001 -0.000  0.978  0.000
  0.001 -0.001  0.001  0.000  0.598
atom    9   Tr[ns(na)] =   8.09907
    eigenvalues:
  0.634  0.641  0.881  0.913  0.981
    eigenvectors:
  0.007  0.145  0.000  0.000  0.848
  0.958  0.042  0.000  0.000  0.000
  0.000  0.000  0.928  0.072  0.000
  0.035  0.813  0.000  0.000  0.152
  0.000  0.000  0.072  0.928  0.000
    occupations:
  0.929  0.002 -0.000 -0.122 -0.000
  0.002  0.634  0.001  0.001 -0.000
 -0.000  0.001  0.884  0.000 -0.008
 -0.122  0.001  0.000  0.692  0.001
 -0.000 -0.000 -0.008  0.001  0.911
atom   10   Tr[ns(na)] =   8.07140
    eigenvalues:
  0.581  0.590  0.939  0.945  0.980
    eigenvectors:
  0.991  0.000  0.000  0.000  0.009
  0.000  0.000  0.001  0.999  0.000
  0.000  0.000  0.999  0.001  0.000
  0.009  0.000  0.000  0.000  0.991
  0.000  1.000  0.000  0.000  0.000
    occupations:
  0.585  0.000  0.001  0.038 -0.000
  0.000  0.945 -0.000 -0.000 -0.000
  0.001 -0.000  0.939  0.000  0.000
  0.038 -0.000  0.000  0.976 -0.000
 -0.000 -0.000  0.000 -0.000  0.590
atom   16   Tr[ns(na)] =   8.08557
    eigenvalues:
  0.579  0.600  0.917  0.966  0.980
    eigenvectors:
  0.008  0.193  0.002  0.000  0.796
  0.963  0.036  0.000  0.000  0.000
  0.000  0.000  0.985  0.013  0.002
  0.028  0.770  0.000  0.000  0.201
  0.000  0.000  0.013  0.986  0.001
    occupations:
  0.903  0.004  0.001 -0.153  0.001
  0.004  0.580  0.000  0.002 -0.006
  0.001  0.000  0.918 -0.004 -0.006
 -0.153  0.002 -0.004  0.676  0.000
  0.001 -0.006 -0.006  0.000  0.966
atom   17   Tr[ns(na)] =   8.09563
    eigenvalues:
  0.598  0.650  0.887  0.932  0.981
    eigenvectors:
  0.001  0.991  0.000  0.000  0.008
  0.000  0.000  0.082  0.917  0.000
  0.000  0.000  0.918  0.082  0.000
  0.000  0.008  0.000  0.000  0.992
  0.999  0.001  0.000  0.000  0.000
    occupations:
  0.652 -0.004 -0.001  0.029  0.002
 -0.004  0.929  0.012  0.001 -0.001
 -0.001  0.012  0.891 -0.000  0.001
  0.029  0.001 -0.000  0.978  0.000
  0.002 -0.001  0.001  0.000  0.598
atom   22   Tr[ns(na)] =   8.09909
    eigenvalues:
  0.634  0.640  0.881  0.913  0.981
    eigenvectors:
  0.000  0.152  0.000  0.000  0.848
  0.997  0.003  0.000  0.000  0.000
  0.000  0.000  0.933  0.067  0.000
  0.002  0.846  0.000  0.000  0.152
  0.000  0.000  0.067  0.933  0.000
    occupations:
  0.929 -0.001  0.000 -0.122 -0.000
 -0.001  0.634  0.001 -0.000 -0.000
  0.000  0.001  0.883 -0.000  0.008
 -0.122 -0.000 -0.000  0.692  0.001
 -0.000 -0.000  0.008  0.001  0.911
atom   23   Tr[ns(na)] =   8.08817
    eigenvalues:
  0.640  0.705  0.834  0.883  0.983
    eigenvectors:
  0.000  0.993  0.000  0.000  0.007
  0.000  0.000  0.000  1.000  0.000
  0.000  0.000  1.000  0.000  0.000
  0.000  0.007  0.000  0.000  0.993
  1.000  0.000  0.000  0.000  0.000
    occupations:
  0.707  0.000 -0.001  0.024 -0.000
  0.000  0.883 -0.000  0.000  0.000
 -0.001 -0.000  0.834  0.001  0.000
  0.024  0.000  0.001  0.981  0.000
 -0.000  0.000  0.000  0.000  0.640
N of occupied +U levels =  64.7212933
 --- exit write_ns ---

[...]

          k = 0.2500-0.4833 0.0000 ( 30510 PWs)   bands (ev):

[...]

          k =-0.2500 0.2417 0.0000 ( 30481 PWs)   bands (ev):

   -49.9120 -49.5849 -49.5109 -48.8010 -48.7972 -48.7970 -48.7515 -48.7448
   -48.7259 -48.7133 -48.7030 -48.6807 -48.5996 -48.5974 -48.5902 -48.4896
   -48.4438 -48.4385 -48.4311 -48.3534 -48.3445 -48.3364 -48.3308 -48.3245
   -21.5000 -21.2147 -21.2100 -21.0815 -20.7749 -20.7063 -20.6497 -20.6010
   -20.4891 -20.4059 -20.3436 -20.3191 -20.2864 -20.1261 -20.0792 -20.0566
   -19.5399 -19.3467 -19.2154 -10.5827 -10.4330 -10.1899 -10.0259  -9.8848
    -9.7631  -9.7021  -9.6691  -9.3788  -9.1559  -9.0609  -8.9812  -8.8427
    -8.7433  -8.6477  -8.4883  -8.4278  -8.3947  -8.2577  -7.9868  -7.8938
    -7.7886  -7.6966  -7.5486  -7.4771  -7.3872  -7.3044  -7.2537  -7.1974
    -7.0269  -6.9617  -6.8703  -6.7946  -6.7327  -6.6758  -6.5843  -6.5073
    -6.4340  -6.3507  -6.3112  -6.1693  -6.0720  -5.7293  -5.5221  -5.4735
    -5.3730  -5.2085  -5.1285  -5.0245  -4.9890  -4.8523  -4.7611  -4.6601
    -4.5843  -4.4241  -4.3756  -4.2133  -4.1332  -3.9817  -3.9158  -3.8852
    -3.8333  -3.7697  -3.7097  -3.6150  -3.5758  -3.5082  -3.4338  -3.3583
    -3.2458  -2.9159  -2.7819  -2.7010  -2.6314  -2.4547  -2.3201  -2.2186
    -2.1941  -2.0529  -1.9839  -1.8740  -0.9436  -0.6601  -0.3690   0.0046
     0.2237   0.5031   0.6886   0.9576   1.1578   1.3119   1.3808   1.5227
     1.5925   1.7455   1.7953   2.1681   3.5014   4.4504   4.5696   5.0418
     5.3125   5.3238   5.4797   6.0627   6.3711   6.3996   6.4434   6.5259
     6.6425   6.7677   6.9111   7.1277   7.2959   7.4819   7.6160   7.7093
     7.8858   8.0086   8.0918   8.1805   8.2513   8.3300   8.4472   8.5261
     8.7606   8.8680   8.8937   9.0061   9.2209   9.3986   9.5065   9.5715
     9.6476   9.7699   9.8132   9.8770   9.9483  10.1053  10.1559  10.2586
    10.3362  10.4233  10.4483  10.6183  10.7426  10.8091  10.8468  10.9754
    11.0005  11.1243  11.1949  11.2598  11.3630  11.4740  11.5065  11.5656
    11.5929  11.7389  11.7633  11.8116  11.8762  12.0351  12.1621  12.2058
    12.2580  12.3118  12.3437  12.4597  12.5092  12.6271  12.6819  12.7424
    12.7999  12.8572  12.9755  13.0653  13.1121  13.1709  13.2115  13.2863
    13.3689  13.4379  13.5337  13.5786  13.7523  13.8146  13.8780  13.9191
    13.9504  14.1471  14.2035  14.2227  14.2937  14.3747  14.4144  14.5055
    14.6159  14.6580  14.7433  14.8149  15.0252  15.1546  15.3065  15.3245
    15.3736  15.4368  15.5058  15.5304  15.5904  15.6605  15.7213  15.7812
    15.8740  15.9304  16.0245  16.0585  16.1344  16.2121  16.2834  16.3503
    16.3922  16.4362  16.4719  16.5100  16.5839  16.6329  16.6650  16.7418
    16.8163  16.8980  16.9977  17.0559  17.1285  17.2091  17.2481  17.3336
    17.3944  17.4948  17.5324  17.5936  17.6382  17.7377  17.8024  17.8462
    17.9400  18.0153  18.0738  18.1498  18.1635  18.2913  18.3148  18.4016
    18.4539  18.5673  18.6502  18.7109  18.8238  18.8551  18.9020  18.9578
    19.0171  19.0684  19.1320  19.2152  19.2729  19.3060  19.3530  19.4921
    19.5481  19.6265  19.6960  19.7476  19.7975  19.9085  20.0291  20.0729
    20.2052  20.2746  20.2858  20.3487  20.5216  20.5702  20.6190  20.6788
    20.7189  20.7933  20.8728  20.9237  20.9461  21.0456  21.0964  21.1992
    21.3005  21.3393  21.3731  21.4068  21.4484  21.5373  21.6723  21.7492
    21.7673  21.8380  21.8759  21.9195  21.9483  22.0551  22.1060  22.1855
    22.2248  22.3198  22.4051  22.4603  22.5465

     the Fermi energy is    -2.3387 ev

!    total energy              =   -1977.91992373 Ry
     Harris-Foulkes estimate   =   -1977.91992373 Ry
     estimated scf accuracy    <          8.0E-09 Ry

     The total energy is the sum of the following terms:

     one-electron contribution =  -23306.31782854 Ry
     hartree contribution      =   11701.39776322 Ry
     xc contribution           =    -372.18550861 Ry
     ewald contribution        =    9996.90805061 Ry
     Hubbard energy            =       2.27794787 Ry
     smearing contrib. (-TS)   =      -0.00034828 Ry

     convergence has been achieved in  18 iterations

     Forces acting on atoms (Ry/au):

     negative rho (up, down):  0.687E+00 0.000E+00
     atom    1 type  1   force =    -0.00724493   -0.01196010   -0.00002352
     atom    2 type  1   force =     0.00005563    0.00323380    0.00087120
     atom    3 type  2   force =     0.03540985    0.00842101   -0.00098236
     atom    4 type  2   force =     0.00852175    0.00893491    0.00013172
     atom    5 type  1   force =    -0.00338745   -0.02803934    0.00024914
     atom    6 type  1   force =     0.00400303    0.02472938    0.00032170
     atom    7 type  1   force =    -0.00032217   -0.00224643    0.00001580
     atom    8 type  1   force =    -0.00312113   -0.00108325   -0.00025792
     atom    9 type  2   force =     0.00238074    0.00041977   -0.00038736
     atom   10 type  2   force =    -0.00003919   -0.00113075   -0.00068696
     atom   11 type  1   force =     0.00215489    0.01226039   -0.00056205
     atom   12 type  1   force =     0.00158119   -0.01303189   -0.00066634
     atom   13 type  1   force =    -0.00070546    0.00008962    0.00042822
     atom   14 type  1   force =    -0.00655235   -0.01194653    0.00022879
     atom   15 type  1   force =     0.00011539    0.00270640    0.00008563
     atom   16 type  2   force =    -0.03564393    0.00692026   -0.00096865
     atom   17 type  2   force =     0.00826119    0.00910030   -0.00031091
     atom   18 type  1   force =    -0.00268109   -0.02763203    0.00025161
     atom   19 type  1   force =     0.00454400    0.02530845    0.00031821
     atom   20 type  1   force =    -0.00018846   -0.00497009    0.00052661
     atom   21 type  1   force =    -0.00298360   -0.00068563   -0.00017045
     atom   22 type  2   force =     0.00015873    0.00062380   -0.00036507
     atom   23 type  2   force =    -0.00011331    0.00134167    0.00054217
     atom   24 type  1   force =    -0.00262345    0.01233986   -0.00055510
     atom   25 type  1   force =    -0.00067715   -0.01307654   -0.00067023
     atom   26 type  1   force =    -0.00065447   -0.00000692    0.00000042
     atom   27 type  3   force =    -0.00001843   -0.00057782    0.00095569
     atom   28 type  3   force =    -0.00001212   -0.00021147    0.00076315
     atom   29 type  3   force =     0.00002080    0.00016431    0.00015771
     atom   30 type  3   force =    -0.00022298    0.00026053    0.00011979
     atom   31 type  1   force =    -0.00001556   -0.00025565    0.00063938

     Total force =     0.002970     Total SCF correction =     0.000254

     bfgs converged in   8 scf cycles and   7 bfgs steps
     (criteria: energy < 0.10E-03, force < 0.10E-02)

     End of BFGS Geometry Optimization

     Final energy   =   -1977.9199237262 Ry
Begin final coordinates

ATOMIC_POSITIONS (crystal)
O0       0.000000000   0.000000000   0.378229591    0   0   1
O0       0.000000000   0.500000000   0.402482996    0   0   1
Rh1      0.250000000   0.500000000   0.453382951    0   0   1
Rh1      0.000000000   0.000000000   0.452410693    0   0   1
O0       0.250000000   0.810000000   0.452487059    0   0   1
O0       0.250000000   0.190000000   0.452215976    0   0   1
O0       0.000000000   0.500000000   0.499686559    0   0   1
O0       0.000000000   0.000000000   0.527553965    0   0   1
Rh1      0.250000000   0.000000000   0.574625865    0   0   1
Rh1      0.000000000   0.500000000   0.571030101    0   0   1
O0       0.250000000   0.690000000   0.574711927    0   0   1
O0       0.250000000   0.310000000   0.574647708    0   0   1
O0       0.000000000   0.000000000   0.619869576    0   0   1
O0       0.500000000   0.000000000   0.378124844    0   0   1
O0       0.500000000   0.500000000   0.402359756    0   0   1
Rh1      0.750000000   0.500000000   0.453385574    0   0   1
Rh1      0.500000000   0.000000000   0.452304441    0   0   1
O0       0.750000000   0.810000000   0.452457577    0   0   1
O0       0.750000000   0.190000000   0.452231238    0   0   1
O0       0.500000000   0.500000000   0.501758640    0   0   1
O0       0.500000000   0.000000000   0.527462364    0   0   1
Rh1      0.750000000   0.000000000   0.574622789    0   0   1
Rh1      0.500000000   0.500000000   0.578910991    0   0   1
O0       0.750000000   0.690000000   0.574675613    0   0   1
O0       0.750000000   0.310000000   0.574671645    0   0   1
O0       0.500000000   0.000000000   0.620010675    0   0   1
H2      -0.000198499   0.636355001   0.384973555
H2       0.499782243   0.637510634   0.385378162
H2       0.147934880   0.034597500   0.367373634
H2       0.647999863   0.034796487   0.367312085
O0       0.500065973   0.498377009   0.645471445
End final coordinates

     General routines

     Parallel routines
     Hubbard U routines

   This run was terminated on:  15:27:39  30Apr2014

   JOB DONE.