     Program PWSCF v.5.0.2 (svn rev. 9656) starts on 28Apr2014 at  1:53: 8

     Current dimensions of program PWSCF are:
     Max number of different atomic species (ntypx) = 10
     Max number of k-points (npk) =  40000
     Max angular momentum in pseudopotentials (lmaxx) =  3
     Reading input from pwscf.in
Warning: card &CELL ignored
Warning: card / ignored

     Subspace diagonalization in iterative solution of the eigenvalue problem:
     a serial algorithm will be used

     bravais-lattice index     =            0
     lattice parameter (alat)  =      11.7919  a.u.
     unit-cell volume          =    7123.6633 (a.u.)^3
     number of atoms/cell      =           32
     number of atomic types    =            3
     number of electrons       =       247.00
     number of Kohn-Sham states=          358
     kinetic-energy cutoff     =      40.0000  Ry
     charge density cutoff     =     500.0000  Ry
     convergence threshold     =      1.0E-06
     mixing beta               =       0.7000
     number of iterations used =            8  plain     mixing
     Exchange-correlation      = SLA  PW   PBE  PBE ( 1 4 3 4 0)
     EXX-fraction              =        0.00
     nstep                     =           50

     celldm(1)=  11.791891  celldm(2)=   0.000000  celldm(3)=   0.000000
     celldm(4)=   0.000000  celldm(5)=   0.000000  celldm(6)=   0.000000

     crystal axes: (cart. coord. in units of alat)
               a(1) = (   1.000000   0.000000   0.000000 )
               a(2) = (   0.000000   1.026665   0.000000 )
               a(3) = (   0.000000   0.000000   4.231793 )

     reciprocal axes: (cart. coord. in units 2 pi/alat)
               b(1) = (  1.000000  0.000000  0.000000 )
               b(2) = (  0.000000  0.974028  0.000000 )
               b(3) = (  0.000000  0.000000  0.236306 )

     PseudoPot. # 1 for O  read from file:
     /home/camp/zhonxu/pseudo/o_pbe_v1.01.uspp.F.UPF
     MD5 check sum: 2bcb18d16ea4b960afae9ec6d52f22d2
     Pseudo is Ultrasoft + core correction, Zval =  6.0
     Generated by new atomic code, or converted to UPF format
     Using radial grid of  737 points,  5 beta functions with:
                l(1) =   0
                l(2) =   0
                l(3) =   1
                l(4) =   1
                l(5) =   2
     Q(r) pseudized with  8 coefficients,  rinner =    0.900   0.900   0.900
                                                       0.900   0.900

     PseudoPot. # 2 for Ru read from file:
     /home/camp/zhonxu/pseudo/ru_pbe_v1.uspp.F.UPF
     MD5 check sum: df00be1c11b23341d9806d8f1dfa10cf
     Pseudo is Ultrasoft + core correction, Zval = 16.0
     Generated by new atomic code, or converted to UPF format
     Using radial grid of  967 points,  6 beta functions with:
                l(1) =   0
                l(2) =   0
                l(3) =   1
                l(4) =   1
                l(5) =   2
                l(6) =   2
     Q(r) pseudized with  8 coefficients,  rinner =    1.300   1.300   1.300
                                                       1.300   1.300

     PseudoPot. # 3 for H  read from file:
     /home/camp/zhonxu/pseudo/h_pbe_v1.uspp.F.UPF
     MD5 check sum: 3408e3ff4ec8b0a4e358431e7e038a48
     Pseudo is Ultrasoft, Zval =  1.0
     Generated by new atomic code, or converted to UPF format
     Using radial grid of  615 points,  2 beta functions with:
                l(1) =   0
                l(2) =   0
     Q(r) pseudized with  8 coefficients,  rinner =    0.700

     atomic species   valence    mass     pseudopotential
        O0             6.00    15.99940     O ( 1.00)
        Ru1           16.00   101.07000     Ru( 1.00)
        H2             1.00     1.00794     H ( 1.00)

     Simplified LDA+U calculation (l_max = 2) with parameters (eV):
     atomic species    L          U    alpha       J0     beta
        Ru1            2     7.5000   0.0000   0.0000   0.0000

     No symmetry found

   Cartesian axes

     site n.     atom                  positions (alat units)
         1           O0  tau(   1) = (   0.0000000   0.0000000   1.6035109  )
         2           O0  tau(   2) = (   0.0000000   0.5133323   1.7058780  )
         3           Ru1 tau(   3) = (   0.2500000   0.5133323   1.9200491  )
         4           Ru1 tau(   4) = (   0.0000000   0.0000000   1.9171714  )
         5           O0  tau(   5) = (   0.2500000   0.8315984   1.9169175  )
         6           O0  tau(   6) = (   0.2500000   0.1950663   1.9164520  )
         7           O0  tau(   7) = (   0.0000000   0.5133323   2.1053593  )
         8           O0  tau(   8) = (   0.0000000   0.0000000   2.2310435  )
         9           Ru1 tau(   9) = (   0.2500000   0.0000000   2.4441566  )
        10           Ru1 tau(  10) = (   0.0000000   0.5133323   2.4052664  )
        11           O0  tau(  11) = (   0.2500000   0.7083986   2.4364547  )
        12           O0  tau(  12) = (   0.2500000   0.3182660   2.4361585  )
        13           O0  tau(  13) = (   0.0000000   0.0000000   2.6233307  )
        14           O0  tau(  14) = (   0.5000000   0.0000000   1.6045689  )
        15           O0  tau(  15) = (   0.5000000   0.5133323   1.7057934  )
        16           Ru1 tau(  16) = (   0.7500000   0.5133323   1.9200914  )
        17           Ru1 tau(  17) = (   0.5000000   0.0000000   1.9176369  )
        18           O0  tau(  18) = (   0.7500000   0.8315984   1.9167059  )
        19           O0  tau(  19) = (   0.7500000   0.1950663   1.9164520  )
        20           O0  tau(  20) = (   0.5000000   0.5133323   2.1229635  )
        21           O0  tau(  21) = (   0.5000000   0.0000000   2.2303664  )
        22           Ru1 tau(  22) = (   0.7500000   0.0000000   2.4441143  )
        23           Ru1 tau(  23) = (   0.5000000   0.5133323   2.4370472  )
        24           O0  tau(  24) = (   0.7500000   0.7083986   2.4343812  )
        25           O0  tau(  25) = (   0.7500000   0.3182660   2.4338310  )
        26           O0  tau(  26) = (   0.5000000   0.0000000   2.6134283  )
        27           H2  tau(  27) = (  -0.0002400   0.6455975   1.6183222  )
        28           H2  tau(  28) = (   0.4995500   0.6408954   1.6119322  )
        29           H2  tau(  29) = (   0.1457200   0.0328533   1.5514599  )
        30           H2  tau(  30) = (   0.6465200   0.0301223   1.5527294  )
        31           O0  tau(  31) = (   0.5138700   0.5107965   2.7447408  )
        32           H2  tau(  32) = (   0.3716000   0.5093694   2.8125765  )

     number of k points=    10  Methfessel-Paxton smearing, width (Ry)=  0.0100
                       cart. coord. in units 2pi/alat
        k(    1) = (   0.0000000   0.0000000   0.0000000), wk =   0.1250000
        k(    2) = (   0.0000000   0.2435070   0.0000000), wk =   0.2500000
        k(    3) = (   0.0000000  -0.4870139   0.0000000), wk =   0.1250000
        k(    4) = (   0.2500000   0.0000000   0.0000000), wk =   0.2500000
        k(    5) = (   0.2500000   0.2435070   0.0000000), wk =   0.2500000
        k(    6) = (   0.2500000  -0.4870139   0.0000000), wk =   0.2500000
        k(    7) = (  -0.5000000   0.0000000   0.0000000), wk =   0.1250000
        k(    8) = (  -0.5000000   0.2435070   0.0000000), wk =   0.2500000
        k(    9) = (  -0.5000000  -0.4870139   0.0000000), wk =   0.1250000
        k(   10) = (  -0.2500000   0.2435070   0.0000000), wk =   0.2500000

     Largest allocated arrays     est. size (Mb)     dimensions
     Largest temporary arrays     est. size (Mb)     dimensions

     Check: negative/imaginary core charge=   -0.000003    0.000000

     Initial potential from superposition of free atoms
     Check: negative starting charge=   -0.522051

     starting charge  238.99980, renormalised to  247.00000

     negative rho (up, down):  0.540E+00 0.000E+00
     Number of +U iterations with fixed ns =  0
     Starting occupations:
 --- enter write_ns ---
 LDA+U parameters:
U( 2)     =  7.50000000
alpha( 2) =  0.00000000
atom    3   Tr[ns(na)] =   6.00000
    eigenvalues:
  0.600  0.600  0.600  0.600  0.600
    eigenvectors:
  1.000  0.000  0.000  0.000  0.000
  0.000  1.000  0.000  0.000  0.000
  0.000  0.000  1.000  0.000  0.000
  0.000  0.000  0.000  1.000  0.000
  0.000  0.000  0.000  0.000  1.000
    occupations:
  0.600  0.000  0.000  0.000  0.000
  0.000  0.600  0.000  0.000  0.000
  0.000  0.000  0.600  0.000  0.000
  0.000  0.000  0.000  0.600  0.000
  0.000  0.000  0.000  0.000  0.600
atom    4   Tr[ns(na)] =   6.00000
    eigenvalues:
  0.600  0.600  0.600  0.600  0.600
    eigenvectors:
  1.000  0.000  0.000  0.000  0.000
  0.000  1.000  0.000  0.000  0.000
  0.000  0.000  1.000  0.000  0.000
  0.000  0.000  0.000  1.000  0.000
  0.000  0.000  0.000  0.000  1.000
    occupations:
  0.600  0.000  0.000  0.000  0.000
  0.000  0.600  0.000  0.000  0.000
  0.000  0.000  0.600  0.000  0.000
  0.000  0.000  0.000  0.600  0.000
  0.000  0.000  0.000  0.000  0.600
atom    9   Tr[ns(na)] =   6.00000
    eigenvalues:
  0.600  0.600  0.600  0.600  0.600
    eigenvectors:
  1.000  0.000  0.000  0.000  0.000
  0.000  1.000  0.000  0.000  0.000
  0.000  0.000  1.000  0.000  0.000
  0.000  0.000  0.000  1.000  0.000
  0.000  0.000  0.000  0.000  1.000
    occupations:
  0.600  0.000  0.000  0.000  0.000
  0.000  0.600  0.000  0.000  0.000
  0.000  0.000  0.600  0.000  0.000
  0.000  0.000  0.000  0.600  0.000
  0.000  0.000  0.000  0.000  0.600
atom   10   Tr[ns(na)] =   6.00000
    eigenvalues:
  0.600  0.600  0.600  0.600  0.600
    eigenvectors:
  1.000  0.000  0.000  0.000  0.000
  0.000  1.000  0.000  0.000  0.000
  0.000  0.000  1.000  0.000  0.000
  0.000  0.000  0.000  1.000  0.000
  0.000  0.000  0.000  0.000  1.000
    occupations:
  0.600  0.000  0.000  0.000  0.000
  0.000  0.600  0.000  0.000  0.000
  0.000  0.000  0.600  0.000  0.000
  0.000  0.000  0.000  0.600  0.000
  0.000  0.000  0.000  0.000  0.600
atom   16   Tr[ns(na)] =   6.00000
    eigenvalues:
  0.600  0.600  0.600  0.600  0.600
    eigenvectors:
  1.000  0.000  0.000  0.000  0.000
  0.000  1.000  0.000  0.000  0.000
  0.000  0.000  1.000  0.000  0.000
  0.000  0.000  0.000  1.000  0.000
  0.000  0.000  0.000  0.000  1.000
    occupations:
  0.600  0.000  0.000  0.000  0.000
  0.000  0.600  0.000  0.000  0.000
  0.000  0.000  0.600  0.000  0.000
  0.000  0.000  0.000  0.600  0.000
  0.000  0.000  0.000  0.000  0.600
atom   17   Tr[ns(na)] =   6.00000
    eigenvalues:
  0.600  0.600  0.600  0.600  0.600
    eigenvectors:
  1.000  0.000  0.000  0.000  0.000
  0.000  1.000  0.000  0.000  0.000
  0.000  0.000  1.000  0.000  0.000
  0.000  0.000  0.000  1.000  0.000
  0.000  0.000  0.000  0.000  1.000
    occupations:
  0.600  0.000  0.000  0.000  0.000
  0.000  0.600  0.000  0.000  0.000
  0.000  0.000  0.600  0.000  0.000
  0.000  0.000  0.000  0.600  0.000
  0.000  0.000  0.000  0.000  0.600
atom   22   Tr[ns(na)] =   6.00000
    eigenvalues:
  0.600  0.600  0.600  0.600  0.600
    eigenvectors:
  1.000  0.000  0.000  0.000  0.000
  0.000  1.000  0.000  0.000  0.000
  0.000  0.000  1.000  0.000  0.000
  0.000  0.000  0.000  1.000  0.000
  0.000  0.000  0.000  0.000  1.000
[...]
  0.615 -0.002 -0.001  0.052  0.004
 -0.002  0.899  0.053 -0.000 -0.002
 -0.001  0.053  0.586  0.002  0.000
  0.052 -0.000  0.002  0.980  0.000
  0.004 -0.002  0.000  0.000  0.549
atom    9   Tr[ns(na)] =   7.22804
    eigenvalues:
  0.560  0.604  0.629  0.898  0.924
    eigenvectors:
  0.892  0.004  0.103  0.000  0.001
  0.003  0.996  0.000  0.000  0.000
  0.000  0.000  0.000  0.356  0.644
  0.103  0.000  0.896  0.000  0.000
  0.001  0.000  0.001  0.644  0.355
    occupations:
  0.567  0.002 -0.005 -0.021  0.011
  0.002  0.604  0.002  0.001  0.000
 -0.005  0.002  0.915  0.000 -0.012
 -0.021  0.001  0.000  0.622 -0.004
  0.011  0.000 -0.012 -0.004  0.907
atom   10   Tr[ns(na)] =   7.30974
    eigenvalues:
  0.492  0.518  0.796  0.864  0.985
    eigenvectors:
  0.987  0.000  0.000  0.001  0.011
  0.001  0.000  0.001  0.990  0.007
  0.000  0.000  0.998  0.001  0.000
  0.012  0.000  0.000  0.007  0.981
  0.000  1.000  0.000  0.000  0.000
    occupations:
  0.498 -0.010  0.003  0.053  0.000
 -0.010  0.865  0.003  0.011 -0.000
  0.003  0.003  0.796 -0.001  0.005
  0.053  0.011 -0.001  0.978 -0.000
  0.000 -0.000  0.005 -0.000  0.518
atom   16   Tr[ns(na)] =   7.23665
    eigenvalues:
  0.498  0.550  0.630  0.952  0.988
    eigenvectors:
  0.001  0.174  0.005  0.000  0.820
  0.998  0.000  0.000  0.001  0.001
  0.001  0.014  0.949  0.019  0.017
  0.000  0.812  0.026  0.000  0.162
  0.000  0.000  0.019  0.980  0.000
    occupations:
  0.910 -0.011  0.046 -0.161 -0.007
 -0.011  0.499 -0.006  0.003 -0.010
  0.046 -0.006  0.641 -0.010  0.044
 -0.161  0.003 -0.010  0.623  0.001
 -0.007 -0.010  0.044  0.001  0.946
atom   17   Tr[ns(na)] =   7.25935
    eigenvalues:
  0.549  0.577  0.610  0.906  0.988
    eigenvectors:
  0.002  0.001  0.978  0.000  0.019
  0.000  0.011  0.000  0.989  0.000
  0.000  0.989  0.001  0.010  0.000
  0.000  0.000  0.019  0.000  0.981
  0.998  0.000  0.002  0.000  0.000
    occupations:
  0.617 -0.005  0.001  0.052  0.003
 -0.005  0.903  0.033  0.001 -0.002
  0.001  0.033  0.580  0.001 -0.000
  0.052  0.001  0.001  0.980 -0.000
  0.003 -0.002 -0.000 -0.000  0.549
atom   22   Tr[ns(na)] =   7.31973
    eigenvalues:
  0.529  0.556  0.697  0.902  0.976
    eigenvectors:
  0.000  0.159  0.000  0.000  0.840
  0.998  0.002  0.000  0.000  0.000
  0.000  0.000  0.999  0.001  0.000
  0.002  0.839  0.000  0.000  0.160
  0.000  0.000  0.001  0.999  0.000
    occupations:
  0.909  0.002 -0.000 -0.154  0.001
  0.002  0.529  0.001  0.001 -0.000
 -0.000  0.001  0.697  0.000 -0.006
 -0.154  0.001  0.000  0.623 -0.001
  0.001 -0.000 -0.006 -0.001  0.902
atom   23   Tr[ns(na)] =   7.24586
    eigenvalues:
  0.551  0.560  0.617  0.913  0.983
    eigenvectors:
  0.000  0.000  0.976  0.007  0.017
  0.000  0.001  0.004  0.982  0.012
  0.018  0.981  0.000  0.001  0.000
  0.000  0.000  0.020  0.010  0.970
  0.982  0.018  0.000  0.000  0.000
    occupations:
  0.625  0.018 -0.000  0.050  0.001
  0.018  0.912  0.010 -0.011 -0.000
 -0.000  0.010  0.560  0.001  0.001
  0.050 -0.011  0.001  0.975 -0.000
  0.001 -0.000  0.001 -0.000  0.551
N of occupied +U levels =  58.0911330
 --- exit write_ns ---

     Threshold (ethr) on eigenvalues was too large:
     Diagonalizing with lowered threshold

     Davidson diagonalization with overlap
     ethr =  7.63E-09,  avg # of iterations =  2.7

[...]

     total energy              =   -2160.85327901 Ry
     Harris-Foulkes estimate   =   -2160.85327902 Ry
     estimated scf accuracy    <       0.00000001 Ry

     iteration # 22     ecut=    40.00 Ry     beta=0.70
     Davidson diagonalization with overlap
     ethr =  5.23E-12,  avg # of iterations =  1.0

     negative rho (up, down):  0.571E+00 0.000E+00

     End of self-consistent calculation
 --- enter write_ns ---
 LDA+U parameters:
U( 2)     =  7.50000000
alpha( 2) =  0.00000000
atom    3   Tr[ns(na)] =   7.23249
    eigenvalues:
  0.503  0.551  0.622  0.952  0.988
    eigenvectors:
  0.001  0.174  0.004  0.000  0.822
  0.998  0.000  0.001  0.001  0.001
  0.001  0.020  0.946  0.016  0.018
  0.000  0.806  0.034  0.000  0.160
  0.000  0.000  0.016  0.983  0.000
    occupations:
  0.911  0.011  0.048 -0.159  0.006
  0.011  0.503  0.006 -0.004 -0.010
  0.048  0.006  0.632 -0.010 -0.041
 -0.159 -0.004 -0.010  0.624 -0.001
  0.006 -0.010 -0.041 -0.001  0.946
atom    4   Tr[ns(na)] =   7.25922
    eigenvalues:
  0.549  0.577  0.608  0.908  0.987
    eigenvectors:
  0.005  0.000  0.976  0.000  0.019
  0.000  0.026  0.000  0.974  0.000
  0.001  0.973  0.000  0.026  0.000
  0.000  0.000  0.019  0.000  0.981
  0.994  0.001  0.005  0.000  0.000
    occupations:
  0.615 -0.002 -0.001  0.052  0.004
 -0.002  0.899  0.053 -0.000 -0.002
 -0.001  0.053  0.586  0.002  0.000
  0.052 -0.000  0.002  0.980  0.000
  0.004 -0.002  0.000  0.000  0.549
atom    9   Tr[ns(na)] =   7.22831
    eigenvalues:
  0.560  0.604  0.629  0.898  0.924
    eigenvectors:
  0.893  0.004  0.102  0.000  0.001
  0.003  0.996  0.000  0.000  0.000
  0.000  0.000  0.000  0.358  0.642
  0.103  0.000  0.897  0.000  0.000
  0.001  0.000  0.001  0.642  0.357
    occupations:
  0.567  0.002 -0.005 -0.021  0.011
  0.002  0.604  0.002  0.001  0.000
 -0.005  0.002  0.915  0.000 -0.012
 -0.021  0.001  0.000  0.621 -0.004
  0.011  0.000 -0.012 -0.004  0.907
atom   10   Tr[ns(na)] =   7.31032
    eigenvalues:
  0.492  0.518  0.796  0.865  0.985
    eigenvectors:
  0.987  0.000  0.000  0.001  0.011
  0.001  0.000  0.001  0.990  0.007
  0.000  0.000  0.998  0.001  0.000
  0.012  0.000  0.000  0.007  0.981
  0.000  1.000  0.000  0.000  0.000
    occupations:
  0.498 -0.010  0.003  0.053  0.000
 -0.010  0.865  0.003  0.011 -0.000
  0.003  0.003  0.796 -0.001  0.005
  0.053  0.011 -0.001  0.978 -0.000
  0.000 -0.000  0.005 -0.000  0.518
atom   16   Tr[ns(na)] =   7.23664
    eigenvalues:
  0.498  0.550  0.630  0.952  0.988
    eigenvectors:
  0.001  0.174  0.005  0.000  0.820
  0.998  0.001  0.000  0.001  0.001
  0.001  0.014  0.949  0.019  0.017
  0.000  0.812  0.026  0.000  0.162
  0.000  0.000  0.019  0.980  0.000
    occupations:
  0.910 -0.011  0.046 -0.161 -0.007
 -0.011  0.499 -0.006  0.003 -0.010
  0.046 -0.006  0.641 -0.010  0.044
 -0.161  0.003 -0.010  0.623  0.001
 -0.007 -0.010  0.044  0.001  0.946
atom   17   Tr[ns(na)] =   7.25898
    eigenvalues:
  0.549  0.577  0.610  0.906  0.988
    eigenvectors:
  0.002  0.001  0.978  0.000  0.019
  0.000  0.010  0.000  0.989  0.000
  0.000  0.989  0.001  0.010  0.000
  0.000  0.000  0.019  0.000  0.981
  0.998  0.000  0.002  0.000  0.000
    occupations:
  0.617 -0.005  0.001  0.052  0.003
 -0.005  0.903  0.033  0.001 -0.002
  0.001  0.033  0.580  0.001 -0.000
  0.052  0.001  0.001  0.980 -0.000
  0.003 -0.002 -0.000 -0.000  0.549
atom   22   Tr[ns(na)] =   7.31862
    eigenvalues:
  0.529  0.556  0.697  0.902  0.976
    eigenvectors:
  0.000  0.159  0.000  0.000  0.840
  0.998  0.002  0.000  0.000  0.000
  0.000  0.000  0.999  0.001  0.000
  0.002  0.839  0.000  0.000  0.160
  0.000  0.000  0.001  0.999  0.000
    occupations:
  0.909  0.002 -0.000 -0.154  0.001
  0.002  0.529  0.001  0.001 -0.000
 -0.000  0.001  0.697  0.000 -0.006
 -0.154  0.001  0.000  0.623 -0.001
  0.001 -0.000 -0.006 -0.001  0.902
atom   23   Tr[ns(na)] =   7.24621
    eigenvalues:
  0.551  0.560  0.617  0.913  0.983
    eigenvectors:
  0.000  0.000  0.976  0.007  0.017
  0.000  0.001  0.004  0.982  0.013
  0.017  0.982  0.000  0.001  0.000
  0.000  0.000  0.020  0.010  0.970
  0.982  0.017  0.000  0.000  0.000
    occupations:
  0.625  0.019 -0.000  0.050  0.001
  0.019  0.912  0.011 -0.011 -0.000
 -0.000  0.011  0.560  0.002  0.001
  0.050 -0.011  0.002  0.975 -0.000
  0.001 -0.000  0.001 -0.000  0.551
N of occupied +U levels =  58.0907996
 --- exit write_ns ---

[...]

          k = 0.2500-0.4870 0.0000 ( 30468 PWs)   bands (ev):

[...]

          k =-0.2500 0.2435 0.0000 ( 30434 PWs)   bands (ev):

   -74.1689 -73.6041 -73.5046 -73.4904 -73.1950 -73.1566 -73.1555 -73.0922
   -44.4787 -44.3946 -43.9211 -43.8375 -43.8185 -43.7020 -43.6601 -43.5705
   -43.5555 -43.5176 -43.4506 -43.4069 -43.3966 -43.3108 -43.2747 -43.2647
   -43.2373 -43.1295 -43.1131 -43.0621 -43.0404 -42.8930 -42.8598 -42.7793
   -20.6377 -20.2961 -20.1584 -20.1008 -20.0083 -19.9012 -19.8475 -19.7938
   -19.7306 -19.5609 -19.5370 -19.3310 -19.2152 -19.1958 -19.1703 -19.1374
   -19.0115 -18.9753 -18.9541  -9.6338  -9.3050  -9.2269  -9.1401  -9.0742
    -8.9564  -8.8575  -8.6901  -8.0304  -7.9707  -7.8753  -7.7880  -7.6638
    -7.6164  -7.5705  -7.4896  -7.4652  -7.2849  -7.2360  -6.9593  -6.7093
    -6.6276  -6.4322  -6.3007  -6.2612  -6.1642  -6.0340  -5.9295  -5.8636
    -5.8008  -5.7470  -5.6286  -5.5706  -5.4521  -5.3153  -5.1900  -5.1237
    -5.0297  -5.0082  -4.9528  -4.8067  -4.6599  -4.5557  -4.3966  -4.2628
    -4.2012  -4.1749  -4.0515  -3.9269  -3.8634  -3.7429  -3.6389  -3.5320
    -3.3465  -3.1981  -3.1749  -3.0745  -2.9923  -2.9487  -2.8786  -2.7538
    -2.6673  -2.5542  -2.5247  -2.4330  -2.3335  -2.2595  -2.1946  -2.1732
    -1.9568  -1.7990  -1.5120  -1.1961  -0.8240  -0.7645  -0.6722  -0.5336
    -0.3933  -0.2129  -0.1042   0.2506   1.3055   1.5759   1.9848   2.0624
     2.2068   2.6775   2.9639   3.0745   3.3814   3.5224   3.5833   3.7095
     3.7493   3.8376   3.9980   4.0368   4.1487   4.5498   4.6656   5.1035
     5.5664   5.6943   5.7901   6.0514   6.3265   6.4589   6.5595   6.6222
     6.8778   6.9455   6.9872   7.2393   7.4974   7.6873   7.8873   7.9382
     8.0521   8.2804   8.3347   8.4708   8.5888   8.6375   8.7480   8.8522
     8.9714   9.1121   9.2233   9.3848   9.4539   9.5964   9.6497   9.8677
     9.9579  10.0511  10.0919  10.1601  10.2138  10.3116  10.3561  10.4899
    10.5464  10.6594  10.7381  10.8904  10.9508  10.9843  11.1467  11.3160
    11.3792  11.4460  11.5722  11.5820  11.6439  11.8410  11.8620  11.9126
    12.0078  12.0534  12.0955  12.1907  12.2624  12.3917  12.4195  12.5163
    12.5988  12.6746  12.7406  12.7925  12.8143  12.9351  12.9787  13.0492
    13.1494  13.1821  13.2187  13.3367  13.4100  13.5122  13.6289  13.7025
    13.7589  13.8623  13.9690  14.0876  14.1195  14.2181  14.3105  14.3623
    14.4368  14.5820  14.6120  14.6579  14.7358  14.8619  14.9568  14.9953
    15.0558  15.1605  15.2373  15.2780  15.3660  15.4640  15.5356  15.5611
    15.6343  15.7566  15.7836  15.8504  15.8644  15.9104  15.9661  16.0198
    16.1102  16.1608  16.2014  16.2476  16.2948  16.3718  16.5012  16.5787
    16.6243  16.6944  16.7393  16.8460  16.8935  16.9189  16.9681  17.1053
    17.1874  17.2312  17.3292  17.4158  17.4493  17.4736  17.5222  17.5828
    17.6307  17.6880  17.7579  17.8192  17.8768  17.9557  17.9883  18.0590
    18.1397  18.1594  18.2378  18.3015  18.3387  18.4569  18.5633  18.6269
    18.7157  18.7822  18.8368  18.8969  18.9506  19.0287  19.1086  19.1868
    19.2345  19.2925  19.4221  19.4715  19.5257  19.7113  19.7276  19.7624
    19.7989  19.8915  19.9672  20.0680  20.1634  20.2457  20.3292  20.4025
    20.4689  20.5834  20.6429  20.7338  20.7850  20.8626  20.9244  20.9666
    21.0132  21.0478  21.1437  21.2333  21.2816  21.3146  21.3416  21.3890
    21.4336  21.5103  21.5750  21.6024  21.6840  21.7864  21.8588  21.9078
    21.9510  21.9874  22.0081  22.0666  22.1443  22.2399

     the Fermi energy is    -1.1942 ev

!    total energy              =   -2160.85327901 Ry
     Harris-Foulkes estimate   =   -2160.85327902 Ry
     estimated scf accuracy    <          9.0E-09 Ry

     The total energy is the sum of the following terms:

     one-electron contribution =  -25206.69846019 Ry
     hartree contribution      =   12630.51077118 Ry
     xc contribution           =    -338.79330196 Ry
     ewald contribution        =   10750.51682736 Ry
     Hubbard energy            =       3.61145669 Ry
     smearing contrib. (-TS)   =      -0.00057209 Ry

     convergence has been achieved in  22 iterations

     Forces acting on atoms (Ry/au):

     negative rho (up, down):  0.571E+00 0.000E+00
     atom    1 type  1   force =    -0.00693645   -0.00751507   -0.00026702
     atom    2 type  1   force =     0.00050212    0.00085259    0.00024943
     atom    3 type  2   force =     0.00853986    0.00237918   -0.00025851
     atom    4 type  2   force =     0.00721145    0.00491003    0.00019891
     atom    5 type  1   force =    -0.00402750   -0.05848659    0.00019685
     atom    6 type  1   force =     0.00615196    0.06150039    0.00017935
     atom    7 type  1   force =     0.00596252   -0.00194377   -0.00029482
     atom    8 type  1   force =     0.03352497    0.00001368    0.00082682
     atom    9 type  2   force =    -0.01167975    0.00017294   -0.00064163
     atom   10 type  2   force =    -0.00412312   -0.00124961   -0.00045183
     atom   11 type  1   force =    -0.01365413    0.00468521   -0.00001706
     atom   12 type  1   force =    -0.01634293   -0.00484143    0.00003996
     atom   13 type  1   force =     0.04261855   -0.00100014   -0.00054466
     atom   14 type  1   force =    -0.00541079   -0.00620658   -0.00028291
     atom   15 type  1   force =    -0.00036243    0.00062517    0.00008578
     atom   16 type  2   force =    -0.00902416    0.00893674   -0.00021519
     atom   17 type  2   force =     0.00528168    0.00479824    0.00019843
     atom   18 type  1   force =    -0.00478411   -0.06167327    0.00020556
     atom   19 type  1   force =     0.00719089    0.05682030    0.00027093
     atom   20 type  1   force =    -0.00940414   -0.00361508   -0.00030604
     atom   21 type  1   force =    -0.04146548   -0.00075671    0.00075757
     atom   22 type  2   force =    -0.00562035    0.00010149    0.00049526
     atom   23 type  2   force =     0.00567670    0.00073959    0.00000364
     atom   24 type  1   force =     0.02015124    0.03922312   -0.00061989
     atom   25 type  1   force =     0.01866239   -0.03962399   -0.00071899
     atom   26 type  1   force =    -0.02865767    0.00152824   -0.00062150
     atom   27 type  3   force =    -0.00003876    0.00021738    0.00063337
     atom   28 type  3   force =    -0.00002096   -0.00015252   -0.00035455
     atom   29 type  3   force =     0.00021792   -0.00002917   -0.00002230
     atom   30 type  3   force =     0.00028288    0.00005488    0.00017913
     atom   31 type  1   force =    -0.00019661   -0.00010143    0.00030065
     atom   32 type  3   force =    -0.00022579   -0.00036381    0.00079528

     Total force =     0.002491     Total SCF correction =     0.000210

     bfgs converged in  29 scf cycles and  27 bfgs steps
     (criteria: energy < 0.10E-03, force < 0.10E-02)

     End of BFGS Geometry Optimization

     Final energy   =   -2160.8532790099 Ry
Begin final coordinates

ATOMIC_POSITIONS (crystal)
O0       0.000000000   0.000000000   0.380393226    0   0   1
O0       0.000000000   0.500000000   0.401289000    0   0   1
Ru1      0.250000000   0.500000000   0.452809308    0   0   1
Ru1      0.000000000   0.000000000   0.453462447    0   0   1
O0       0.250000000   0.810000000   0.453420127    0   0   1
O0       0.250000000   0.190000000   0.453126501    0   0   1
O0       0.000000000   0.500000000   0.498954655    0   0   1
O0       0.000000000   0.000000000   0.526220219    0   0   1
Ru1      0.250000000   0.000000000   0.582234050    0   0   1
Ru1      0.000000000   0.500000000   0.568997396    0   0   1
O0       0.250000000   0.690000000   0.577667554    0   0   1
O0       0.250000000   0.310000000   0.577816529    0   0   1
O0       0.000000000   0.000000000   0.618971477    0   0   1
O0       0.500000000   0.000000000   0.380707012    0   0   1
O0       0.500000000   0.500000000   0.403664174    0   0   1
Ru1      0.750000000   0.500000000   0.452792637    0   0   1
Ru1      0.500000000   0.000000000   0.453813121    0   0   1
O0       0.750000000   0.810000000   0.453392765    0   0   1
O0       0.750000000   0.190000000   0.453232750    0   0   1
O0       0.500000000   0.500000000   0.502685642    0   0   1
O0       0.500000000   0.000000000   0.526220122    0   0   1
Ru1      0.750000000   0.000000000   0.573586407    0   0   1
Ru1      0.500000000   0.500000000   0.575710708    0   0   1
O0       0.750000000   0.690000000   0.573060025    0   0   1
O0       0.750000000   0.310000000   0.572798692    0   0   1
O0       0.500000000   0.000000000   0.618639206    0   0   1
H2      -0.000579748   0.627725360   0.380511788
H2       0.499179384   0.609910005   0.377659903
H2       0.146708092   0.028545545   0.368062717
H2       0.647745049   0.021959182   0.368240425
O0       0.523906024   0.497799613   0.647384240
H2       0.383499666   0.492548362   0.664295177
End final coordinates

     General routines

     Parallel routines
     Hubbard U routines

   This run was terminated on:  20:22:25  29Apr2014

   JOB DONE.