     Program PWSCF v.5.0.2 (svn rev. 9656) starts on  1Jun2014 at  6:50:50

     Current dimensions of program PWSCF are:
     Max number of different atomic species (ntypx) = 10
     Max number of k-points (npk) =  40000
     Max angular momentum in pseudopotentials (lmaxx) =  3
     Reading input from pwscf.in
Warning: card &CELL ignored
Warning: card / ignored

     Subspace diagonalization in iterative solution of the eigenvalue problem:
     a serial algorithm will be used

     bravais-lattice index     =            0
     lattice parameter (alat)  =      11.1872  a.u.
     unit-cell volume          =    7531.8600 (a.u.)^3
     number of atoms/cell      =           33
     number of atomic types    =            3
     number of electrons       =       229.00
     number of Kohn-Sham states=          343
     kinetic-energy cutoff     =      40.0000  Ry
     charge density cutoff     =     500.0000  Ry
     convergence threshold     =      1.0E-06
     mixing beta               =       0.7000
     number of iterations used =            8  plain     mixing
     Exchange-correlation      = SLA  PW   PBE  PBE ( 1 4 3 4 0)
     EXX-fraction              =        0.00
     nstep                     =           50

     celldm(1)=  11.187179  celldm(2)=   0.000000  celldm(3)=   0.000000
     celldm(4)=   0.000000  celldm(5)=   0.000000  celldm(6)=   0.000000

     crystal axes: (cart. coord. in units of alat)
               a(1) = (   1.000000   0.000000   0.000000 )
               a(2) = (   0.000000   1.180104   0.000000 )
               a(3) = (   0.000000   0.000000   4.558482 )

     reciprocal axes: (cart. coord. in units 2 pi/alat)
               b(1) = (  1.000000  0.000000  0.000000 )
               b(2) = (  0.000000  0.847383  0.000000 )
               b(3) = (  0.000000  0.000000  0.219371 )

     PseudoPot. # 1 for O  read from file:
     /home/camp/zhonxu/pseudo/o_pbe_v1.01.uspp.F.UPF
     MD5 check sum: 2bcb18d16ea4b960afae9ec6d52f22d2
     Pseudo is Ultrasoft + core correction, Zval =  6.0
     Generated by new atomic code, or converted to UPF format
     Using radial grid of  737 points,  5 beta functions with:
                l(1) =   0
                l(2) =   0
                l(3) =   1
                l(4) =   1
                l(5) =   2
     Q(r) pseudized with  8 coefficients,  rinner =    0.900   0.900   0.900
                                                       0.900   0.900

     PseudoPot. # 2 for Nb read from file:
     /home/camp/zhonxu/pseudo/nb_pbe_v1.uspp.F.UPF
     MD5 check sum: 573aab8a2fa660278ed4a62cd769473f
     Pseudo is Ultrasoft + core correction, Zval = 13.0
     Generated by new atomic code, or converted to UPF format
     Using radial grid of  887 points,  6 beta functions with:
                l(1) =   0
                l(2) =   0
                l(3) =   1
                l(4) =   1
                l(5) =   2
                l(6) =   2
     Q(r) pseudized with  6 coefficients,  rinner =    1.000   1.000   1.000
                                                       1.000   1.000

     PseudoPot. # 3 for H  read from file:
     /home/camp/zhonxu/pseudo/h_pbe_v1.uspp.F.UPF
     MD5 check sum: 3408e3ff4ec8b0a4e358431e7e038a48
     Pseudo is Ultrasoft, Zval =  1.0
     Generated by new atomic code, or converted to UPF format
     Using radial grid of  615 points,  2 beta functions with:
                l(1) =   0
                l(2) =   0
     Q(r) pseudized with  8 coefficients,  rinner =    0.700

     atomic species   valence    mass     pseudopotential
        O0             6.00    15.99940     O ( 1.00)
        Nb1           13.00    92.90640     Nb( 1.00)
        H2             1.00     1.00794     H ( 1.00)

     Simplified LDA+U calculation (l_max = 2) with parameters (eV):
     atomic species    L          U    alpha       J0     beta
        Nb1            2     2.5000   0.0000   0.0000   0.0000

     No symmetry found

   Cartesian axes

     site n.     atom                  positions (alat units)
         1           O0  tau(   1) = (   0.0000000   0.0000000   1.6962113  )
         2           O0  tau(   2) = (   0.0000000   0.5900519   1.7723835  )
         3           Nb1 tau(   3) = (   0.2500000   0.5900519   2.0257895  )
         4           Nb1 tau(   4) = (   0.0000000   0.0000000   2.0274306  )
         5           O0  tau(   5) = (   0.2500000   0.9322821   2.0383253  )
         6           O0  tau(   6) = (   0.2500000   0.2478218   2.0381886  )
         7           O0  tau(   7) = (   0.0000000   0.5900519   2.2790132  )
         8           O0  tau(   8) = (   0.0000000   0.0000000   2.3853170  )
         9           Nb1 tau(   9) = (   0.2500000   0.0000000   2.6318397  )
        10           Nb1 tau(  10) = (   0.0000000   0.5900519   2.5956910  )
        11           O0  tau(  11) = (   0.2500000   0.8378738   2.6232242  )
        12           O0  tau(  12) = (   0.2500000   0.3422301   2.6255034  )
        13           O0  tau(  13) = (   0.0000000   0.0000000   2.8344187  )
        14           O0  tau(  14) = (   0.5000000   0.0000000   1.6974420  )
        15           O0  tau(  15) = (   0.5000000   0.5900519   1.7789021  )
        16           Nb1 tau(  16) = (   0.7500000   0.5900519   2.0259719  )
        17           Nb1 tau(  17) = (   0.5000000   0.0000000   2.0298010  )
        18           O0  tau(  18) = (   0.7500000   0.9322821   2.0382798  )
        19           O0  tau(  19) = (   0.7500000   0.2478218   2.0381886  )
        20           O0  tau(  20) = (   0.5000000   0.5900519   2.2737254  )
        21           O0  tau(  21) = (   0.5000000   0.0000000   2.3845421  )
        22           Nb1 tau(  22) = (   0.7500000   0.0000000   2.6318397  )
        23           Nb1 tau(  23) = (   0.5000000   0.5900519   2.6269166  )
        24           O0  tau(  24) = (   0.7500000   0.8378738   2.6231786  )
        25           O0  tau(  25) = (   0.7500000   0.3422301   2.6254579  )
        26           O0  tau(  26) = (   0.5000000   0.0000000   2.8332335  )
        27           H2  tau(  27) = (  -0.0005200   0.5958463   1.6070929  )
        28           H2  tau(  28) = (   0.4994400   0.5914445   1.6138395  )
        29           H2  tau(  29) = (   0.1507700   0.0008261   1.6243240  )
        30           H2  tau(  30) = (   0.6503900   0.0006019   1.6249166  )
        31           O0  tau(  31) = (   0.5000000   0.6010623   2.9587285  )
        32           O0  tau(  32) = (   0.5000000   0.4103103   3.1155403  )
        33           H2  tau(  33) = (   0.5000000   0.4955964   3.2584031  )

     number of k points=    10  Methfessel-Paxton smearing, width (Ry)=  0.0100
                       cart. coord. in units 2pi/alat
        k(    1) = (   0.0000000   0.0000000   0.0000000), wk =   0.1250000
        k(    2) = (   0.0000000   0.2118458   0.0000000), wk =   0.2500000
        k(    3) = (   0.0000000  -0.4236915   0.0000000), wk =   0.1250000
        k(    4) = (   0.2500000   0.0000000   0.0000000), wk =   0.2500000
        k(    5) = (   0.2500000   0.2118458   0.0000000), wk =   0.2500000
        k(    6) = (   0.2500000  -0.4236915   0.0000000), wk =   0.2500000
        k(    7) = (  -0.5000000   0.0000000   0.0000000), wk =   0.1250000
        k(    8) = (  -0.5000000   0.2118458   0.0000000), wk =   0.2500000
        k(    9) = (  -0.5000000  -0.4236915   0.0000000), wk =   0.1250000
        k(   10) = (  -0.2500000   0.2118458   0.0000000), wk =   0.2500000

     Largest allocated arrays     est. size (Mb)     dimensions
     Largest temporary arrays     est. size (Mb)     dimensions

     Check: negative/imaginary core charge=   -0.000003    0.000000

     Initial potential from superposition of free atoms
     Check: negative starting charge=   -0.003307

     starting charge  228.97806, renormalised to  229.00000

     negative rho (up, down):  0.331E-02 0.000E+00
     Number of +U iterations with fixed ns =  0
     Starting occupations:
 --- enter write_ns ---
 LDA+U parameters:
U( 2)     =  2.50000000
alpha( 2) =  0.00000000
atom    3   Tr[ns(na)] =   3.00000
    eigenvalues:
  0.300  0.300  0.300  0.300  0.300
    eigenvectors:
  1.000  0.000  0.000  0.000  0.000
  0.000  1.000  0.000  0.000  0.000
  0.000  0.000  1.000  0.000  0.000
  0.000  0.000  0.000  1.000  0.000
  0.000  0.000  0.000  0.000  1.000
    occupations:
  0.300  0.000  0.000  0.000  0.000
  0.000  0.300  0.000  0.000  0.000
  0.000  0.000  0.300  0.000  0.000
  0.000  0.000  0.000  0.300  0.000
  0.000  0.000  0.000  0.000  0.300
atom    4   Tr[ns(na)] =   3.00000
    eigenvalues:
  0.300  0.300  0.300  0.300  0.300
    eigenvectors:
  1.000  0.000  0.000  0.000  0.000
  0.000  1.000  0.000  0.000  0.000
  0.000  0.000  1.000  0.000  0.000
  0.000  0.000  0.000  1.000  0.000
  0.000  0.000  0.000  0.000  1.000
    occupations:
  0.300  0.000  0.000  0.000  0.000
  0.000  0.300  0.000  0.000  0.000
  0.000  0.000  0.300  0.000  0.000
  0.000  0.000  0.000  0.300  0.000
  0.000  0.000  0.000  0.000  0.300
atom    9   Tr[ns(na)] =   3.00000
    eigenvalues:
  0.300  0.300  0.300  0.300  0.300
    eigenvectors:
  1.000  0.000  0.000  0.000  0.000
  0.000  1.000  0.000  0.000  0.000
  0.000  0.000  1.000  0.000  0.000
  0.000  0.000  0.000  1.000  0.000
  0.000  0.000  0.000  0.000  1.000
    occupations:
  0.300  0.000  0.000  0.000  0.000
  0.000  0.300  0.000  0.000  0.000
  0.000  0.000  0.300  0.000  0.000
  0.000  0.000  0.000  0.300  0.000
  0.000  0.000  0.000  0.000  0.300
atom   10   Tr[ns(na)] =   3.00000
    eigenvalues:
  0.300  0.300  0.300  0.300  0.300
    eigenvectors:
  1.000  0.000  0.000  0.000  0.000
  0.000  1.000  0.000  0.000  0.000
  0.000  0.000  1.000  0.000  0.000
  0.000  0.000  0.000  1.000  0.000
  0.000  0.000  0.000  0.000  1.000
    occupations:
  0.300  0.000  0.000  0.000  0.000
  0.000  0.300  0.000  0.000  0.000
  0.000  0.000  0.300  0.000  0.000
  0.000  0.000  0.000  0.300  0.000
  0.000  0.000  0.000  0.000  0.300
atom   16   Tr[ns(na)] =   3.00000
    eigenvalues:
  0.300  0.300  0.300  0.300  0.300
    eigenvectors:
  1.000  0.000  0.000  0.000  0.000
  0.000  1.000  0.000  0.000  0.000
  0.000  0.000  1.000  0.000  0.000
  0.000  0.000  0.000  1.000  0.000
  0.000  0.000  0.000  0.000  1.000
    occupations:
  0.300  0.000  0.000  0.000  0.000
  0.000  0.300  0.000  0.000  0.000
  0.000  0.000  0.300  0.000  0.000
  0.000  0.000  0.000  0.300  0.000
  0.000  0.000  0.000  0.000  0.300
atom   17   Tr[ns(na)] =   3.00000
    eigenvalues:
  0.300  0.300  0.300  0.300  0.300
    eigenvectors:
  1.000  0.000  0.000  0.000  0.000
  0.000  1.000  0.000  0.000  0.000
  0.000  0.000  1.000  0.000  0.000
  0.000  0.000  0.000  1.000  0.000
  0.000  0.000  0.000  0.000  1.000
    occupations:
  0.300  0.000  0.000  0.000  0.000
  0.000  0.300  0.000  0.000  0.000
  0.000  0.000  0.300  0.000  0.000
  0.000  0.000  0.000  0.300  0.000
  0.000  0.000  0.000  0.000  0.300
atom   22   Tr[ns(na)] =   3.00000
    eigenvalues:
  0.300  0.300  0.300  0.300  0.300
    eigenvectors:
  1.000  0.000  0.000  0.000  0.000
  0.000  1.000  0.000  0.000  0.000
  0.000  0.000  1.000  0.000  0.000
[...]
  0.118  0.000  0.000  0.860  0.022
  0.000  0.904  0.095  0.000  0.000
    occupations:
  0.474 -0.000  0.000  0.049  0.000
 -0.000  0.613  0.000 -0.001  0.000
  0.000  0.000  0.496 -0.000  0.009
  0.049 -0.001 -0.000  0.590 -0.000
  0.000  0.000  0.009 -0.000  0.470
atom   10   Tr[ns(na)] =   5.11149
    eigenvalues:
  0.378  0.485  0.510  0.545  0.638
    eigenvectors:
  0.000  0.000  0.995  0.000  0.005
  0.000  1.000  0.000  0.000  0.000
  1.000  0.000  0.000  0.000  0.000
  0.000  0.000  0.005  0.000  0.995
  0.000  0.000  0.000  1.000  0.000
    occupations:
  0.511  0.000  0.001  0.009 -0.000
  0.000  0.485 -0.000 -0.000  0.001
  0.001 -0.000  0.378  0.000  0.000
  0.009 -0.000  0.000  0.637  0.000
 -0.000  0.001  0.000  0.000  0.545
atom   16   Tr[ns(na)] =   5.20768
    eigenvalues:
  0.376  0.414  0.512  0.571  0.731
    eigenvectors:
  0.000  0.000  0.002  0.417  0.581
  0.000  0.000  0.997  0.003  0.000
  0.000  0.999  0.000  0.000  0.000
  0.000  0.000  0.001  0.580  0.419
  0.999  0.000  0.000  0.000  0.000
    occupations:
  0.664  0.004  0.005 -0.079  0.006
  0.004  0.512  0.001  0.001  0.000
  0.005  0.001  0.414 -0.003 -0.000
 -0.079  0.001 -0.003  0.638 -0.004
  0.006  0.000 -0.000 -0.004  0.376
atom   17   Tr[ns(na)] =   5.23949
    eigenvalues:
  0.410  0.443  0.550  0.584  0.633
    eigenvectors:
  0.000  0.004  0.000  0.995  0.000
  0.000  0.994  0.000  0.005  0.001
  1.000  0.000  0.000  0.000  0.000
  0.000  0.001  0.000  0.000  0.999
  0.000  0.000  1.000  0.000  0.000
    occupations:
  0.583  0.009 -0.000  0.001 -0.000
  0.009  0.444 -0.000 -0.006  0.000
 -0.000 -0.000  0.410  0.002  0.001
  0.001 -0.006  0.002  0.633  0.000
 -0.000  0.000  0.001  0.000  0.550
atom   22   Tr[ns(na)] =   5.28548
    eigenvalues:
  0.456  0.467  0.499  0.608  0.613
    eigenvectors:
  0.881  0.000  0.000  0.116  0.002
  0.000  0.000  0.000  0.019  0.981
  0.000  0.097  0.903  0.000  0.000
  0.118  0.000  0.000  0.865  0.017
  0.001  0.903  0.097  0.000  0.000
    occupations:
  0.474  0.000 -0.000  0.049 -0.000
  0.000  0.613 -0.000  0.001  0.000
 -0.000 -0.000  0.496 -0.000 -0.009
  0.049  0.001 -0.000  0.590  0.000
 -0.000  0.000 -0.009  0.000  0.470
atom   23   Tr[ns(na)] =   5.26467
    eigenvalues:
  0.389  0.493  0.550  0.592  0.609
    eigenvectors:
  0.004  0.000  0.000  0.948  0.047
  0.000  0.996  0.004  0.000  0.000
  0.996  0.000  0.000  0.004  0.001
  0.000  0.000  0.000  0.048  0.952
  0.000  0.004  0.996  0.000  0.000
    occupations:
  0.592  0.000  0.013  0.003 -0.000
  0.000  0.493  0.000 -0.000 -0.004
  0.013  0.000  0.390  0.004  0.000
  0.003 -0.000  0.004  0.608 -0.000
 -0.000 -0.004  0.000 -0.000  0.550
N of occupied +U levels =  41.8399656
 --- exit write_ns ---

     Threshold (ethr) on eigenvalues was too large:
     Diagonalizing with lowered threshold

     Davidson diagonalization with overlap
     ethr =  1.02E-08,  avg # of iterations =  2.1

[...]

     total energy              =   -1593.93584906 Ry
     Harris-Foulkes estimate   =   -1593.93584906 Ry
     estimated scf accuracy    <       0.00000002 Ry

     iteration # 10     ecut=    40.00 Ry     beta=0.70
     Davidson diagonalization with overlap
     ethr =  7.81E-12,  avg # of iterations =  1.5

     negative rho (up, down):  0.335E-02 0.000E+00

     End of self-consistent calculation
 --- enter write_ns ---
 LDA+U parameters:
U( 2)     =  2.50000000
alpha( 2) =  0.00000000
atom    3   Tr[ns(na)] =   5.20701
    eigenvalues:
  0.375  0.414  0.512  0.571  0.731
    eigenvectors:
  0.000  0.000  0.002  0.417  0.581
  0.000  0.000  0.998  0.002  0.000
  0.033  0.966  0.000  0.000  0.000
  0.000  0.000  0.001  0.581  0.418
  0.966  0.033  0.000  0.000  0.001
    occupations:
  0.664 -0.004  0.005 -0.079 -0.006
 -0.004  0.512 -0.001 -0.001  0.000
  0.005 -0.001  0.413 -0.003 -0.007
 -0.079 -0.001 -0.003  0.638  0.005
 -0.006  0.000 -0.007  0.005  0.376
atom    4   Tr[ns(na)] =   5.23915
    eigenvalues:
  0.407  0.443  0.552  0.583  0.634
    eigenvectors:
  0.000  0.005  0.000  0.994  0.002
  0.000  0.994  0.000  0.005  0.001
  1.000  0.000  0.000  0.000  0.000
  0.000  0.001  0.000  0.001  0.998
  0.000  0.000  1.000  0.000  0.000
    occupations:
  0.583  0.009 -0.000  0.002 -0.000
  0.009  0.444 -0.000 -0.006  0.000
 -0.000 -0.000  0.407 -0.000  0.001
  0.002 -0.006 -0.000  0.634  0.000
 -0.000  0.000  0.001  0.000  0.552
atom    9   Tr[ns(na)] =   5.28554
    eigenvalues:
  0.456  0.467  0.499  0.608  0.613
    eigenvectors:
  0.881  0.000  0.000  0.115  0.003
  0.000  0.000  0.000  0.025  0.975
  0.000  0.096  0.904  0.000  0.000
  0.118  0.000  0.000  0.860  0.022
  0.000  0.904  0.096  0.000  0.000
    occupations:
  0.474 -0.000  0.000  0.049  0.000
 -0.000  0.613  0.000 -0.001  0.000
  0.000  0.000  0.496 -0.000  0.009
  0.049 -0.001 -0.000  0.590 -0.000
  0.000  0.000  0.009 -0.000  0.470
atom   10   Tr[ns(na)] =   5.11194
    eigenvalues:
  0.379  0.485  0.510  0.545  0.638
    eigenvectors:
  0.000  0.000  0.995  0.000  0.005
  0.000  1.000  0.000  0.000  0.000
  1.000  0.000  0.000  0.000  0.000
  0.000  0.000  0.005  0.000  0.995
  0.000  0.000  0.000  1.000  0.000
    occupations:
  0.511  0.000  0.001  0.009 -0.000
  0.000  0.485 -0.000 -0.000  0.001
  0.001 -0.000  0.379  0.000  0.000
  0.009 -0.000  0.000  0.637  0.000
 -0.000  0.001  0.000  0.000  0.545
atom   16   Tr[ns(na)] =   5.20748
    eigenvalues:
  0.376  0.414  0.512  0.571  0.731
    eigenvectors:
  0.000  0.000  0.002  0.417  0.580
  0.000  0.000  0.997  0.003  0.000
  0.000  0.999  0.000  0.000  0.000
  0.000  0.000  0.001  0.580  0.419
  0.999  0.000  0.000  0.000  0.000
    occupations:
  0.664  0.004  0.005 -0.079  0.006
  0.004  0.512  0.001  0.001  0.000
  0.005  0.001  0.414 -0.003 -0.000
 -0.079  0.001 -0.003  0.638 -0.004
  0.006  0.000 -0.000 -0.004  0.376
atom   17   Tr[ns(na)] =   5.24001
    eigenvalues:
  0.410  0.443  0.550  0.584  0.633
    eigenvectors:
  0.000  0.004  0.000  0.995  0.000
  0.000  0.994  0.000  0.005  0.001
  1.000  0.000  0.000  0.000  0.000
  0.000  0.001  0.000  0.000  0.999
  0.000  0.000  1.000  0.000  0.000
    occupations:
  0.583  0.009 -0.000  0.001 -0.000
  0.009  0.444 -0.000 -0.006  0.000
 -0.000 -0.000  0.410  0.002  0.001
  0.001 -0.006  0.002  0.633  0.000
 -0.000  0.000  0.001  0.000  0.550
atom   22   Tr[ns(na)] =   5.28545
    eigenvalues:
  0.456  0.467  0.499  0.608  0.613
    eigenvectors:
  0.881  0.000  0.000  0.116  0.002
  0.000  0.000  0.000  0.019  0.981
  0.000  0.097  0.903  0.000  0.000
  0.118  0.000  0.000  0.865  0.017
  0.001  0.902  0.097  0.000  0.000
    occupations:
  0.474  0.000 -0.000  0.049 -0.000
  0.000  0.613 -0.000  0.001  0.000
 -0.000 -0.000  0.496 -0.000 -0.009
  0.049  0.001 -0.000  0.590  0.000
 -0.000  0.000 -0.009  0.000  0.470
atom   23   Tr[ns(na)] =   5.26505
    eigenvalues:
  0.389  0.493  0.550  0.592  0.608
    eigenvectors:
  0.004  0.000  0.000  0.948  0.048
  0.000  0.996  0.004  0.000  0.000
  0.995  0.000  0.000  0.004  0.001
  0.000  0.000  0.000  0.048  0.952
  0.000  0.004  0.996  0.000  0.000
    occupations:
  0.592  0.000  0.013  0.003 -0.000
  0.000  0.493  0.000 -0.000 -0.004
  0.013  0.000  0.390  0.004  0.000
  0.003 -0.000  0.004  0.608 -0.000
 -0.000 -0.004  0.000 -0.000  0.550
N of occupied +U levels =  41.8416279
 --- exit write_ns ---

[...]

          k = 0.2500-0.4237 0.0000 ( 32188 PWs)   bands (ev):

[...]

          k =-0.2500 0.2118 0.0000 ( 32165 PWs)   bands (ev):

   -56.0588 -55.9935 -55.6875 -55.6301 -55.6271 -55.5165 -55.4982 -55.4426
   -32.8720 -32.2661 -32.2009 -32.1585 -32.1258 -32.1202 -32.1118 -32.0516
   -31.9900 -31.9671 -31.9469 -31.9363 -31.8703 -31.8681 -31.8207 -31.6920
   -31.6393 -31.5640 -31.5041 -31.4991 -31.4544 -31.3782 -31.3323 -31.2454
   -22.4624 -20.1397 -19.9559 -19.1691 -18.9054 -18.7728 -18.6908 -18.6361
   -18.5998 -18.5760 -18.5491 -18.5321 -17.9514 -17.8994 -17.8539 -17.8254
   -17.7899 -17.7195 -17.5641 -16.1228  -8.6171  -8.2862  -7.8325  -7.3830
    -6.8727  -6.7022  -6.5931  -6.4491  -6.3202  -6.2890  -6.1240  -6.0692
    -5.9905  -5.9793  -5.7868  -5.6968  -5.6800  -5.6154  -5.4239  -5.4011
    -5.3699  -5.2202  -5.0315  -4.9385  -4.8030  -4.6970  -4.4719  -4.4250
    -4.3590  -4.2336  -4.1174  -4.0866  -4.0232  -3.9846  -3.8475  -3.8070
    -3.7548  -3.7332  -3.6958  -3.6114  -3.5028  -3.4152  -3.3591  -3.3096
    -3.2336  -3.0984  -3.0196  -2.9355  -2.8869  -2.8286  -2.7454  -2.6090
    -2.5525  -2.5162  -2.3862  -2.3472  -2.0486  -1.8865  -0.8473  -0.1715
     0.5348   0.5984   1.1493   1.2499   1.5607   1.7871   1.9255   1.9827
     2.1463   2.3202   2.3644   2.4402   2.5297   2.5661   2.6373   2.7837
     2.8526   2.9088   2.9770   3.0229   3.1043   3.1689   3.2164   3.4660
     3.7383   4.1439   4.3533   4.4600   4.7185   4.8287   5.0431   5.2454
     5.2721   5.3040   5.4860   5.5423   5.6461   5.7188   5.8521   5.8702
     5.9833   6.0495   6.1246   6.2092   6.4266   6.5473   6.5897   6.7346
     6.7995   6.8671   6.9145   7.0862   7.1790   7.3557   7.4356   7.4719
     7.6477   7.8087   7.8825   8.0102   8.0902   8.1395   8.3163   8.3499
     8.5219   8.6063   8.7174   8.7917   8.9517   8.9875   9.0592   9.2441
     9.3276   9.4021   9.4597   9.5536   9.6653   9.7821   9.8749   9.9414
    10.0518  10.1281  10.2116  10.3197  10.4054  10.4411  10.6064  10.7750
    10.8366  10.9854  11.0273  11.1093  11.1637  11.2024  11.3219  11.3931
    11.4732  11.5874  11.6162  11.6537  11.6816  11.8491  11.8922  12.0057
    12.1191  12.1749  12.2271  12.3103  12.4489  12.5412  12.6122  12.7100
    12.7417  12.7826  12.8749  12.9063  12.9394  13.0015  13.0565  13.1729
    13.2271  13.3152  13.3584  13.4218  13.4972  13.5869  13.6249  13.7034
    13.7639  13.8627  13.9137  14.0005  14.0428  14.0966  14.1302  14.2395
    14.3022  14.3909  14.4307  14.4683  14.6498  14.7399  14.8357  14.8794
    14.9556  15.1140  15.1587  15.2361  15.2964  15.3155  15.4045  15.4462
    15.4869  15.5593  15.5884  15.6970  15.7564  15.7996  15.8604  15.8906
    15.9828  16.0430  16.1245  16.1905  16.2833  16.3526  16.3781  16.4408
    16.5543  16.6748  16.6962  16.7512  16.7764  16.8745  16.9173  17.0255
    17.0627  17.1105  17.1808  17.2368  17.3077  17.3685  17.4547  17.4763
    17.5592  17.6201  17.6888  17.8235  17.8703  17.9179  17.9670  18.0590
    18.1176  18.2178  18.3008  18.3445  18.4049  18.5363  18.5726  18.6194
    18.6575  18.7266  18.8046  18.8726  18.9584  18.9993  19.0724  19.0885
    19.1903  19.2706  19.3037  19.3571  19.4363  19.4592  19.5199  19.6171
    19.6844  19.7463  19.7727  19.8131  19.8794  19.9167  19.9770  20.0290
    20.0682  20.1459  20.1688  20.2367  20.2871  20.3495  20.4099

     the Fermi energy is     1.1768 ev

!    total energy              =   -1593.93584906 Ry
     Harris-Foulkes estimate   =   -1593.93584906 Ry
     estimated scf accuracy    <          4.0E-09 Ry

     The total energy is the sum of the following terms:

     one-electron contribution =  -19371.14053500 Ry
     hartree contribution      =    9718.70500338 Ry
     xc contribution           =    -294.65306136 Ry
     ewald contribution        =    8351.38232192 Ry
     Hubbard energy            =       1.77004995 Ry
     smearing contrib. (-TS)   =       0.00037205 Ry

     convergence has been achieved in  10 iterations

     Forces acting on atoms (Ry/au):

     negative rho (up, down):  0.335E-02 0.000E+00
     atom    1 type  1   force =     0.00175389   -0.00024760    0.00057211
     atom    2 type  1   force =    -0.00062669   -0.00028024    0.00007395
     atom    3 type  2   force =     0.01253599    0.00056882    0.00094414
     atom    4 type  2   force =    -0.00443876   -0.00031431    0.00001951
     atom    5 type  1   force =    -0.00331241   -0.01394423   -0.00009289
     atom    6 type  1   force =    -0.00221114    0.01433897   -0.00008741
     atom    7 type  1   force =    -0.00017175    0.00096996   -0.00083839
     atom    8 type  1   force =     0.00174389    0.00031978   -0.00043965
     atom    9 type  2   force =     0.00039994    0.00140915   -0.00007557
     atom   10 type  2   force =     0.00018089   -0.00044190    0.00012441
     atom   11 type  1   force =    -0.01528032   -0.01232108   -0.00024470
     atom   12 type  1   force =    -0.01487749    0.01250359   -0.00047428
     atom   13 type  1   force =     0.00037387   -0.00093907    0.00013782
     atom   14 type  1   force =     0.00099155    0.00012350    0.00062278
     atom   15 type  1   force =    -0.00066876   -0.00006360    0.00013471
     atom   16 type  2   force =    -0.01071838    0.00059640    0.00094138
     atom   17 type  2   force =    -0.00428512   -0.00020209    0.00001755
     atom   18 type  1   force =     0.00447243   -0.01383144   -0.00008960
     atom   19 type  1   force =     0.00315101    0.01421389   -0.00007886
     atom   20 type  1   force =    -0.00003248   -0.00823334    0.00026230
     atom   21 type  1   force =     0.00182957   -0.00001594    0.00007945
     atom   22 type  2   force =    -0.00093765    0.00140123   -0.00008569
     atom   23 type  2   force =     0.00008244    0.00860601    0.00095320
     atom   24 type  1   force =     0.01526491   -0.01233172   -0.00024456
     atom   25 type  1   force =     0.01486656    0.01251371   -0.00047121
     atom   26 type  1   force =     0.00041942   -0.00370321    0.00017315
     atom   27 type  3   force =     0.00000039    0.00015628   -0.00093852
     atom   28 type  3   force =     0.00000192   -0.00043559   -0.00059483
     atom   29 type  3   force =    -0.00025810    0.00000434    0.00025099
     atom   30 type  3   force =    -0.00024467   -0.00002882    0.00023090
     atom   31 type  1   force =    -0.00000633   -0.00057513   -0.00086599
     atom   32 type  1   force =     0.00000323   -0.00007062    0.00002406
     atom   33 type  3   force =    -0.00000186    0.00025432    0.00005972

     Total force =     0.002814     Total SCF correction =     0.000163

     entering subroutine stress ...

     negative rho (up, down):  0.335E-02 0.000E+00
          total   stress  (Ry/bohr**3)                   (kbar)     P=   -3.52
  -0.00002007  -0.00000006   0.00000187         -2.95     -0.01      0.27
  -0.00000006  -0.00001795   0.00000191         -0.01     -2.64      0.28
   0.00000187   0.00000191  -0.00003374          0.27      0.28     -4.96

     bfgs converged in  15 scf cycles and  14 bfgs steps
     (criteria: energy < 0.10E-03, force < 0.10E-02)

     End of BFGS Geometry Optimization

     Final energy   =   -1593.9358490570 Ry
Begin final coordinates

ATOMIC_POSITIONS (crystal)
O0       0.000000000   0.000000000   0.372348989    0   0   1
O0       0.000000000   0.500000000   0.388220416    0   0   1
Nb1      0.250000000   0.500000000   0.443496642    0   0   1
Nb1      0.000000000   0.000000000   0.445015660    0   0   1
O0       0.250000000   0.790000000   0.446914816    0   0   1
O0       0.250000000   0.210000000   0.446860656    0   0   1
O0       0.000000000   0.500000000   0.500227307    0   0   1
O0       0.000000000   0.000000000   0.523516953    0   0   1
Nb1      0.250000000   0.000000000   0.577585155    0   0   1
Nb1      0.000000000   0.500000000   0.569234539    0   0   1
O0       0.250000000   0.710000000   0.576303503    0   0   1
O0       0.250000000   0.290000000   0.576381023    0   0   1
O0       0.000000000   0.000000000   0.621920635    0   0   1
O0       0.500000000   0.000000000   0.372526085    0   0   1
O0       0.500000000   0.500000000   0.388922541    0   0   1
Nb1      0.750000000   0.500000000   0.443509457    0   0   1
Nb1      0.500000000   0.000000000   0.445354058    0   0   1
O0       0.750000000   0.790000000   0.446895756    0   0   1
O0       0.750000000   0.210000000   0.446865482    0   0   1
O0       0.500000000   0.500000000   0.500417401    0   0   1
O0       0.500000000   0.000000000   0.523360038    0   0   1
Nb1      0.750000000   0.000000000   0.577580038    0   0   1
Nb1      0.500000000   0.500000000   0.575581741    0   0   1
O0       0.750000000   0.710000000   0.576305179    0   0   1
O0       0.750000000   0.290000000   0.576388968    0   0   1
O0       0.500000000   0.000000000   0.621641958    0   0   1
H2      -0.000507696   0.505331684   0.351979408
H2       0.499485054   0.499596008   0.352646313
H2       0.150707812   0.000841067   0.356559068
H2       0.650281750   0.000544305   0.356584891
O0       0.499981361   0.503006328   0.648876535
O0       0.500004873   0.346563050   0.684131729
H2       0.499992499   0.421144820   0.715107058
End final coordinates

     General routines

     Parallel routines
     Hubbard U routines

   This run was terminated on:  19:57:58   1Jun2014

   JOB DONE.