     Program PWSCF v.5.0.2 (svn rev. 9656) starts on  9May2014 at 19:29:31

     Current dimensions of program PWSCF are:
     Max number of different atomic species (ntypx) = 10
     Max number of k-points (npk) =  40000
     Max angular momentum in pseudopotentials (lmaxx) =  3
     Reading input from pwscf.in
Warning: card &CELL ignored
Warning: card / ignored

     Subspace diagonalization in iterative solution of the eigenvalue problem:
     a serial algorithm will be used

     bravais-lattice index     =            0
     lattice parameter (alat)  =      10.9604  a.u.
     unit-cell volume          =    6350.6732 (a.u.)^3
     number of atoms/cell      =           30
     number of atomic types    =            3
     number of electrons       =       224.00 (up: 120.00, down: 104.00)
     number of Kohn-Sham states=          324
     kinetic-energy cutoff     =      40.0000  Ry
     charge density cutoff     =     500.0000  Ry
     convergence threshold     =      1.0E-06
     mixing beta               =       0.7000
     number of iterations used =            8  plain     mixing
     Exchange-correlation      = SLA  PW   PBE  PBE ( 1 4 3 4 0)
     EXX-fraction              =        0.00
     nstep                     =           50

     celldm(1)=  10.960412  celldm(2)=   0.000000  celldm(3)=   0.000000
     celldm(4)=   0.000000  celldm(5)=   0.000000  celldm(6)=   0.000000

     crystal axes: (cart. coord. in units of alat)
               a(1) = (   1.000000   0.000000   0.000000 )
               a(2) = (   0.000000   1.067975   0.000000 )
               a(3) = (   0.000000   0.000000   4.516251 )

     reciprocal axes: (cart. coord. in units 2 pi/alat)
               b(1) = (  1.000000  0.000000  0.000000 )
               b(2) = (  0.000000  0.936351  0.000000 )
               b(3) = (  0.000000  0.000000  0.221423 )

     PseudoPot. # 1 for O  read from file:
     /home/camp/zhonxu/pseudo/o_pbe_v1.01.uspp.F.UPF
     MD5 check sum: 2bcb18d16ea4b960afae9ec6d52f22d2
     Pseudo is Ultrasoft + core correction, Zval =  6.0
     Generated by new atomic code, or converted to UPF format
     Using radial grid of  737 points,  5 beta functions with:
                l(1) =   0
                l(2) =   0
                l(3) =   1
                l(4) =   1
                l(5) =   2
     Q(r) pseudized with  8 coefficients,  rinner =    0.900   0.900   0.900
                                                       0.900   0.900

     PseudoPot. # 2 for Cr read from file:
     /home/camp/zhonxu/pseudo/cr_pbe_v1.uspp.F.UPF
     MD5 check sum: 68b6f918d1762dccfb11451fe85b0e0e
     Pseudo is Ultrasoft + core correction, Zval = 14.0
     Generated by new atomic code, or converted to UPF format
     Using radial grid of  857 points,  6 beta functions with:
                l(1) =   0
                l(2) =   0
                l(3) =   1
                l(4) =   1
                l(5) =   2
                l(6) =   2
     Q(r) pseudized with  6 coefficients,  rinner =    1.000   1.000   1.000
                                                       1.000   1.000

     PseudoPot. # 3 for H  read from file:
     /home/camp/zhonxu/pseudo/h_pbe_v1.uspp.F.UPF
     MD5 check sum: 3408e3ff4ec8b0a4e358431e7e038a48
     Pseudo is Ultrasoft, Zval =  1.0
     Generated by new atomic code, or converted to UPF format
     Using radial grid of  615 points,  2 beta functions with:
                l(1) =   0
                l(2) =   0
     Q(r) pseudized with  8 coefficients,  rinner =    0.700

     atomic species   valence    mass     pseudopotential
        O0             6.00    15.99940     O ( 1.00)
        Cr1           14.00    51.99600     Cr( 1.00)
        H2             1.00     1.00794     H ( 1.00)

     Starting magnetic structure
     atomic species   magnetization
        O0           0.000
        Cr1          0.600
        H2           0.000

     Simplified LDA+U calculation (l_max = 2) with parameters (eV):
     atomic species    L          U    alpha       J0     beta
        Cr1            2     3.5000   0.0000   0.0000   0.0000

     No symmetry found

   Cartesian axes

     site n.     atom                  positions (alat units)
         1           O0  tau(   1) = (   0.0000000   0.0000000   1.7181625  )
         2           O0  tau(   2) = (   0.0000000   0.5339875   1.8008551  )
         3           Cr1 tau(   3) = (   0.2500000   0.5339875   2.0300096  )
         4           Cr1 tau(   4) = (   0.0000000   0.0000000   2.0413454  )
         5           O0  tau(   5) = (   0.2500000   0.8543801   2.0369195  )
         6           O0  tau(   6) = (   0.2500000   0.2135950   2.0378227  )
         7           O0  tau(   7) = (   0.0000000   0.5339875   2.2471058  )
         8           O0  tau(   8) = (   0.0000000   0.0000000   2.3700833  )
         9           Cr1 tau(   9) = (   0.2500000   0.0000000   2.6079543  )
        10           Cr1 tau(  10) = (   0.0000000   0.5339875   2.5535334  )
        11           O0  tau(  11) = (   0.2500000   0.7475825   2.5983798  )
        12           O0  tau(  12) = (   0.2500000   0.3203925   2.5982895  )
        13           O0  tau(  13) = (   0.0000000   0.0000000   2.7910882  )
        14           O0  tau(  14) = (   0.5000000   0.0000000   1.7181625  )
        15           O0  tau(  15) = (   0.5000000   0.5339875   1.8008551  )
        16           Cr1 tau(  16) = (   0.7500000   0.5339875   2.0300096  )
        17           Cr1 tau(  17) = (   0.5000000   0.0000000   2.0413454  )
        18           O0  tau(  18) = (   0.7500000   0.8543801   2.0369195  )
        19           O0  tau(  19) = (   0.7500000   0.2135950   2.0378227  )
        20           O0  tau(  20) = (   0.5000000   0.5339875   2.2471058  )
        21           O0  tau(  21) = (   0.5000000   0.0000000   2.3700833  )
        22           Cr1 tau(  22) = (   0.7500000   0.0000000   2.6079543  )
        23           Cr1 tau(  23) = (   0.5000000   0.5339875   2.5535334  )
        24           O0  tau(  24) = (   0.7500000   0.7475825   2.5983798  )
        25           O0  tau(  25) = (   0.7500000   0.3203925   2.5982895  )
        26           O0  tau(  26) = (   0.5000000   0.0000000   2.7910882  )
        27           H2  tau(  27) = (  -0.0006900   0.6851274   1.7196980  )
        28           H2  tau(  28) = (   0.4993100   0.6851274   1.7196980  )
        29           H2  tau(  29) = (   0.1573400   0.0316548   1.6594512  )
        30           H2  tau(  30) = (   0.6573500   0.0316548   1.6594512  )

     number of k points=    20  Methfessel-Paxton smearing, width (Ry)=  0.0100
                       cart. coord. in units 2pi/alat
        k(    1) = (   0.0000000   0.0000000   0.0000000), wk =   0.0625000
        k(    2) = (   0.0000000   0.2340879   0.0000000), wk =   0.1250000
        k(    3) = (   0.0000000  -0.4681757   0.0000000), wk =   0.0625000
        k(    4) = (   0.2500000   0.0000000   0.0000000), wk =   0.1250000
        k(    5) = (   0.2500000   0.2340879   0.0000000), wk =   0.1250000
        k(    6) = (   0.2500000  -0.4681757   0.0000000), wk =   0.1250000
        k(    7) = (  -0.5000000   0.0000000   0.0000000), wk =   0.0625000
        k(    8) = (  -0.5000000   0.2340879   0.0000000), wk =   0.1250000
        k(    9) = (  -0.5000000  -0.4681757   0.0000000), wk =   0.0625000
        k(   10) = (  -0.2500000   0.2340879   0.0000000), wk =   0.1250000
        k(   11) = (   0.0000000   0.0000000   0.0000000), wk =   0.0625000
        k(   12) = (   0.0000000   0.2340879   0.0000000), wk =   0.1250000
        k(   13) = (   0.0000000  -0.4681757   0.0000000), wk =   0.0625000
        k(   14) = (   0.2500000   0.0000000   0.0000000), wk =   0.1250000
        k(   15) = (   0.2500000   0.2340879   0.0000000), wk =   0.1250000
        k(   16) = (   0.2500000  -0.4681757   0.0000000), wk =   0.1250000
        k(   17) = (  -0.5000000   0.0000000   0.0000000), wk =   0.0625000
        k(   18) = (  -0.5000000   0.2340879   0.0000000), wk =   0.1250000
        k(   19) = (  -0.5000000  -0.4681757   0.0000000), wk =   0.0625000
        k(   20) = (  -0.2500000   0.2340879   0.0000000), wk =   0.1250000

     Largest allocated arrays     est. size (Mb)     dimensions
     Largest temporary arrays     est. size (Mb)     dimensions

     Check: negative/imaginary core charge=   -0.000012    0.000000

     Initial potential from superposition of free atoms
     Check: negative starting charge=(component1):   -0.001590
     Check: negative starting charge=(component2):   -0.000511

     starting charge  215.99984, renormalised to  224.00000

     negative rho (up, down):  0.165E-02 0.530E-03
     Number of +U iterations with fixed ns =  0
     Starting occupations:
 --- enter write_ns ---
 LDA+U parameters:
U( 2)     =  3.50000000
alpha( 2) =  0.00000000
atom    3   Tr[ns(na)] (up, down, total) =   5.00000  0.00000  5.00000
   spin  1
    eigenvalues:
  1.000  1.000  1.000  1.000  1.000
    eigenvectors:
  1.000  0.000  0.000  0.000  0.000
  0.000  1.000  0.000  0.000  0.000
  0.000  0.000  1.000  0.000  0.000
  0.000  0.000  0.000  1.000  0.000
  0.000  0.000  0.000  0.000  1.000
    occupations:
  1.000  0.000  0.000  0.000  0.000
  0.000  1.000  0.000  0.000  0.000
  0.000  0.000  1.000  0.000  0.000
  0.000  0.000  0.000  1.000  0.000
  0.000  0.000  0.000  0.000  1.000
   spin  2
    eigenvalues:
  0.000  0.000  0.000  0.000  0.000
    eigenvectors:
  1.000  0.000  0.000  0.000  0.000
  0.000  1.000  0.000  0.000  0.000
  0.000  0.000  1.000  0.000  0.000
  0.000  0.000  0.000  1.000  0.000
  0.000  0.000  0.000  0.000  1.000
    occupations:
  0.000  0.000  0.000  0.000  0.000
  0.000  0.000  0.000  0.000  0.000
  0.000  0.000  0.000  0.000  0.000
  0.000  0.000  0.000  0.000  0.000
  0.000  0.000  0.000  0.000  0.000
atomic mag. moment =     5.000000
atom    4   Tr[ns(na)] (up, down, total) =   5.00000  0.00000  5.00000
   spin  1
    eigenvalues:
  1.000  1.000  1.000  1.000  1.000
    eigenvectors:
  1.000  0.000  0.000  0.000  0.000
  0.000  1.000  0.000  0.000  0.000
  0.000  0.000  1.000  0.000  0.000
  0.000  0.000  0.000  1.000  0.000
  0.000  0.000  0.000  0.000  1.000
    occupations:
  1.000  0.000  0.000  0.000  0.000
  0.000  1.000  0.000  0.000  0.000
  0.000  0.000  1.000  0.000  0.000
  0.000  0.000  0.000  1.000  0.000
  0.000  0.000  0.000  0.000  1.000
   spin  2
    eigenvalues:
  0.000  0.000  0.000  0.000  0.000
    eigenvectors:
  1.000  0.000  0.000  0.000  0.000
  0.000  1.000  0.000  0.000  0.000
  0.000  0.000  1.000  0.000  0.000
  0.000  0.000  0.000  1.000  0.000
  0.000  0.000  0.000  0.000  1.000
    occupations:
  0.000  0.000  0.000  0.000  0.000
  0.000  0.000  0.000  0.000  0.000
  0.000  0.000  0.000  0.000  0.000
  0.000  0.000  0.000  0.000  0.000
  0.000  0.000  0.000  0.000  0.000
atomic mag. moment =     5.000000
atom    9   Tr[ns(na)] (up, down, total) =   5.00000  0.00000  5.00000
   spin  1
    eigenvalues:
  1.000  1.000  1.000  1.000  1.000
    eigenvectors:
  1.000  0.000  0.000  0.000  0.000
  0.000  1.000  0.000  0.000  0.000
  0.000  0.000  1.000  0.000  0.000
[...]
   spin  2
    eigenvalues:
  0.087  0.107  0.127  0.328  0.360
    eigenvectors:
  0.751  0.000  0.024  0.000  0.225
  0.000  0.002  0.000  0.998  0.000
  0.027  0.000  0.972  0.000  0.000
  0.222  0.000  0.004  0.000  0.774
  0.000  0.998  0.000  0.002  0.000
    occupations:
  0.149 -0.000 -0.004  0.114 -0.000
 -0.000  0.327 -0.000 -0.000  0.010
 -0.004 -0.000  0.126  0.007  0.000
  0.114 -0.000  0.007  0.298 -0.000
 -0.000  0.010  0.000 -0.000  0.107
atomic mag. moment =     2.606590
atom    4   Tr[ns(na)] (up, down, total) =   3.54082  1.09634  4.63717
   spin  1
    eigenvalues:
  0.486  0.536  0.653  0.878  0.987
    eigenvectors:
  0.001  0.993  0.000  0.001  0.004
  0.000  0.001  0.015  0.984  0.000
  0.000  0.000  0.985  0.015  0.000
  0.000  0.004  0.000  0.000  0.996
  0.999  0.001  0.000  0.000  0.000
    occupations:
  0.539 -0.011 -0.003  0.028  0.002
 -0.011  0.874  0.027  0.001  0.000
 -0.003  0.027  0.657  0.001  0.000
  0.028  0.001  0.001  0.985  0.000
  0.002  0.000  0.000  0.000  0.486
   spin  2
    eigenvalues:
  0.096  0.119  0.144  0.358  0.379
    eigenvectors:
  0.003  0.002  0.000  0.002  0.993
  0.002  0.943  0.052  0.000  0.002
  0.000  0.052  0.948  0.000  0.000
  0.994  0.002  0.000  0.000  0.003
  0.000  0.000  0.000  0.998  0.002
    occupations:
  0.378  0.012  0.003 -0.016  0.001
  0.012  0.121 -0.005  0.000 -0.000
  0.003 -0.005  0.142  0.000  0.000
 -0.016  0.000  0.000  0.097 -0.000
  0.001 -0.000  0.000 -0.000  0.358
atomic mag. moment =     2.444484
atom    9   Tr[ns(na)] (up, down, total) =   3.50750  1.18936  4.69687
   spin  1
    eigenvalues:
  0.531  0.543  0.686  0.870  0.878
    eigenvectors:
  0.001  0.163  0.000  0.009  0.827
  0.995  0.005  0.000  0.000  0.000
  0.000  0.000  0.999  0.000  0.000
  0.004  0.832  0.000  0.002  0.162
  0.000  0.000  0.000  0.989  0.011
    occupations:
  0.823  0.001 -0.004 -0.124 -0.001
  0.001  0.531  0.002  0.000  0.000
 -0.004  0.002  0.686  0.001 -0.000
 -0.124  0.000  0.001  0.598  0.000
 -0.001  0.000 -0.000  0.000  0.870
   spin  2
    eigenvalues:
  0.136  0.144  0.144  0.378  0.387
    eigenvectors:
  0.840  0.000  0.000  0.000  0.160
  0.000  0.000  0.000  1.000  0.000
  0.000  0.987  0.012  0.000  0.000
  0.160  0.000  0.000  0.000  0.840
  0.000  0.013  0.987  0.000  0.000
    occupations:
  0.176 -0.000  0.000  0.092  0.000
 -0.000  0.378 -0.000 -0.000  0.000
  0.000 -0.000  0.144  0.000  0.000
  0.092 -0.000  0.000  0.347 -0.000
  0.000  0.000  0.000 -0.000  0.144
atomic mag. moment =     2.318139
atom   10   Tr[ns(na)] (up, down, total) =   3.67084  0.92722  4.59806
   spin  1
    eigenvalues:
  0.457  0.474  0.837  0.920  0.983
    eigenvectors:
  0.998  0.000  0.000  0.000  0.002
  0.000  0.000  0.000  1.000  0.000
  0.000  0.000  1.000  0.000  0.000
  0.002  0.000  0.000  0.000  0.998
  0.000  1.000  0.000  0.000  0.000
    occupations:
  0.458  0.000  0.000  0.022 -0.000
  0.000  0.920 -0.002  0.000 -0.001
  0.000 -0.002  0.837 -0.000 -0.000
  0.022  0.000 -0.000  0.982  0.000
 -0.000 -0.001 -0.000  0.000  0.474
   spin  2
    eigenvalues:
  0.087  0.121  0.122  0.262  0.336
    eigenvectors:
  0.009  0.000  0.000  0.991  0.000
  0.000  0.999  0.001  0.000  0.000
  0.000  0.001  0.999  0.000  0.000
  0.991  0.000  0.000  0.009  0.000
  0.000  0.000  0.000  0.000  1.000
    occupations:
  0.261 -0.000 -0.000 -0.016 -0.000
 -0.000  0.121  0.000 -0.000  0.000
 -0.000  0.000  0.122 -0.000  0.000
 -0.016 -0.000 -0.000  0.088 -0.000
 -0.000  0.000  0.000 -0.000  0.336
atomic mag. moment =     2.743621
atom   16   Tr[ns(na)] (up, down, total) =   3.61492  1.00826  4.62318
   spin  1
    eigenvalues:
  0.457  0.503  0.722  0.948  0.985
    eigenvectors:
  0.000  0.226  0.002  0.000  0.771
  0.999  0.000  0.000  0.001  0.000
  0.000  0.000  0.997  0.000  0.003
  0.000  0.774  0.001  0.000  0.226
  0.001  0.000  0.000  0.999  0.000
    occupations:
  0.876 -0.000  0.014 -0.202 -0.000
 -0.000  0.457  0.000 -0.000 -0.011
  0.014  0.000  0.722 -0.007  0.001
 -0.202 -0.000 -0.007  0.612 -0.000
 -0.000 -0.011  0.001 -0.000  0.948
   spin  2
    eigenvalues:
  0.087  0.107  0.127  0.328  0.360
    eigenvectors:
  0.751  0.000  0.024  0.000  0.225
  0.000  0.002  0.000  0.998  0.000
  0.027  0.000  0.972  0.000  0.000
  0.222  0.000  0.004  0.000  0.774
  0.000  0.998  0.000  0.002  0.000
    occupations:
  0.149 -0.000 -0.004  0.114 -0.000
 -0.000  0.327 -0.000 -0.000  0.010
 -0.004 -0.000  0.126  0.007  0.000
  0.114 -0.000  0.007  0.298 -0.000
 -0.000  0.010  0.000 -0.000  0.107
atomic mag. moment =     2.606655
atom   17   Tr[ns(na)] (up, down, total) =   3.54084  1.09634  4.63718
   spin  1
    eigenvalues:
  0.486  0.536  0.653  0.878  0.987
    eigenvectors:
  0.001  0.993  0.000  0.001  0.004
  0.000  0.001  0.015  0.984  0.000
  0.000  0.000  0.985  0.015  0.000
  0.000  0.004  0.000  0.000  0.996
  0.999  0.001  0.000  0.000  0.000
    occupations:
  0.539 -0.011 -0.003  0.028  0.002
 -0.011  0.874  0.027  0.001  0.000
 -0.003  0.027  0.657  0.001  0.000
  0.028  0.001  0.001  0.985  0.000
  0.002  0.000  0.000  0.000  0.486
   spin  2
    eigenvalues:
  0.096  0.119  0.144  0.358  0.379
    eigenvectors:
  0.003  0.002  0.000  0.002  0.993
  0.002  0.943  0.052  0.000  0.002
  0.000  0.052  0.948  0.000  0.000
  0.994  0.002  0.000  0.000  0.003
  0.000  0.000  0.000  0.998  0.002
    occupations:
  0.378  0.012  0.003 -0.016  0.001
  0.012  0.121 -0.005  0.000 -0.000
  0.003 -0.005  0.142  0.000  0.000
 -0.016  0.000  0.000  0.097 -0.000
  0.001 -0.000  0.000 -0.000  0.358
atomic mag. moment =     2.444493
atom   22   Tr[ns(na)] (up, down, total) =   3.50924  1.18709  4.69634
   spin  1
    eigenvalues:
  0.531  0.543  0.684  0.870  0.882
    eigenvectors:
  0.001  0.164  0.000  0.006  0.829
  0.995  0.005  0.000  0.000  0.000
  0.000  0.000  0.999  0.000  0.000
  0.004  0.832  0.000  0.001  0.163
  0.000  0.000  0.000  0.993  0.007
    occupations:
  0.826  0.001 -0.004 -0.126 -0.001
  0.001  0.531  0.002  0.000  0.000
 -0.004  0.002  0.684  0.001 -0.000
 -0.126  0.000  0.001  0.598  0.000
 -0.001  0.000 -0.000  0.000  0.870
   spin  2
    eigenvalues:
  0.135  0.144  0.144  0.378  0.387
    eigenvectors:
  0.839  0.000  0.000  0.000  0.161
  0.000  0.000  0.000  1.000  0.000
  0.000  0.029  0.971  0.000  0.000
  0.161  0.000  0.000  0.000  0.839
  0.000  0.971  0.029  0.000  0.000
    occupations:
  0.175 -0.000  0.000  0.093  0.000
 -0.000  0.378 -0.000 -0.000  0.000
  0.000 -0.000  0.144  0.000  0.000
  0.093 -0.000  0.000  0.347 -0.000
  0.000  0.000  0.000 -0.000  0.144
atomic mag. moment =     2.322146
atom   23   Tr[ns(na)] (up, down, total) =   3.67086  0.92722  4.59809
   spin  1
    eigenvalues:
  0.457  0.474  0.837  0.920  0.983
    eigenvectors:
  0.998  0.000  0.000  0.000  0.002
  0.000  0.000  0.000  1.000  0.000
  0.000  0.000  1.000  0.000  0.000
  0.002  0.000  0.000  0.000  0.998
  0.000  1.000  0.000  0.000  0.000
    occupations:
  0.458  0.000  0.000  0.022 -0.000
  0.000  0.920 -0.002 -0.000 -0.001
  0.000 -0.002  0.837 -0.000 -0.000
  0.022 -0.000 -0.000  0.982  0.000
 -0.000 -0.001 -0.000  0.000  0.474
   spin  2
    eigenvalues:
  0.087  0.121  0.122  0.262  0.336
    eigenvectors:
  0.009  0.000  0.000  0.991  0.000
  0.000  0.999  0.001  0.000  0.000
  0.000  0.001  0.999  0.000  0.000
  0.991  0.000  0.000  0.009  0.000
  0.000  0.000  0.000  0.000  1.000
    occupations:
  0.261 -0.000 -0.000 -0.016 -0.000
 -0.000  0.121  0.000  0.000  0.000
 -0.000  0.000  0.122 -0.000  0.000
 -0.016  0.000 -0.000  0.088 -0.000
 -0.000  0.000  0.000 -0.000  0.336
atomic mag. moment =     2.743638
N of occupied +U levels =  37.1100533
 --- exit write_ns ---

 ------ SPIN UP ------------

[...]

 ------ SPIN DOWN ----------

[...]

          k = 0.2500-0.4682 0.0000 ( 27150 PWs)   bands (ev):

[...]

          k =-0.2500 0.2341 0.0000 ( 27132 PWs)   bands (ev):

   -72.8083 -72.7933 -72.6479 -72.6365 -72.3974 -72.3866 -72.2545 -72.2431
   -44.3086 -44.2973 -44.1974 -44.1858 -44.1640 -44.1391 -44.1059 -44.0561
   -44.0322 -43.9622 -43.9558 -43.9501 -43.8754 -43.8522 -43.8373 -43.8259
   -43.8244 -43.6902 -43.5897 -43.5613 -43.5490 -43.5224 -43.4488 -43.4295
   -21.2584 -20.7801 -20.7309 -20.5903 -20.2971 -20.2789 -20.0706 -20.0191
   -20.0149 -19.8705 -19.8576 -19.7214 -19.6971 -19.6946 -19.5230 -19.4982
   -19.4210 -19.3218  -8.6954  -8.4701  -8.1410  -7.9467  -7.9124  -7.5640
    -7.4261  -7.3219  -7.3200  -7.2615  -7.0918  -7.0593  -6.9464  -6.9088
    -6.7567  -6.7358  -6.5617  -6.4532  -6.4393  -6.3740  -6.2486  -6.1956
    -5.9993  -5.8985  -5.8047  -5.7563  -5.5410  -5.4286  -5.3487  -5.3367
    -5.2799  -5.1298  -5.1105  -5.0730  -5.0093  -4.9478  -4.8645  -4.5903
    -4.5754  -4.4465  -4.3128  -4.2588  -4.1629  -4.1527  -4.0510  -4.0155
    -3.9733  -3.8245  -3.7504  -3.7254  -3.5430  -3.3161  -3.3121  -3.0751
     0.7457   0.8564   0.8958   1.0307   1.0693   1.1159   1.1807   1.2161
     1.2613   1.2736   1.3437   1.4353   1.4634   1.4865   1.5725   1.6712
     1.6871   1.7224   1.8490   1.9068   1.9518   2.0253   2.0521   2.1946
     2.1974   2.2318   2.3013   2.5246   2.5760   2.6408   2.8435   2.8768
     3.0303   3.1756   3.2403   3.2648   3.3970   3.7123   3.7541   3.7551
     3.8480   4.0258   4.2995   4.7643   5.2851   5.6719   5.7818   5.9182
     5.9929   6.1500   6.3442   6.4609   6.6863   6.8309   6.8413   7.2032
     7.3785   7.5614   7.7453   7.9265   7.9888   8.2056   8.3054   8.4345
     8.6017   8.7347   8.9461   8.9487   9.1813   9.2337   9.2418   9.4019
     9.4671   9.6730   9.7919   9.8791  10.0477  10.0572  10.2204  10.2403
    10.4019  10.4647  10.6143  10.7048  10.7860  10.9226  11.0270  11.0914
    11.1652  11.3133  11.4863  11.5229  11.6029  11.6120  11.7701  11.8145
    11.8820  11.9803  12.0718  12.1472  12.2806  12.2954  12.3787  12.5506
    12.6683  12.6975  12.7882  12.9211  12.9222  12.9303  12.9554  13.0978
    13.1026  13.1942  13.2567  13.2983  13.4996  13.6451  13.6524  13.7323
    13.8383  13.8816  13.9307  14.0136  14.0692  14.2678  14.2895  14.4082
    14.4874  14.5156  14.5345  14.6351  14.7304  14.8283  14.8666  15.0062
    15.1154  15.2474  15.2670  15.3731  15.3848  15.4283  15.5711  15.5715
    15.7435  15.7801  15.8676  15.9557  15.9858  16.0554  16.1490  16.1626
    16.2500  16.2659  16.3785  16.5559  16.5615  16.6197  16.7915  16.8499
    16.8587  16.9213  16.9799  17.0943  17.1785  17.2051  17.3691  17.3811
    17.4194  17.4295  17.5511  17.6231  17.6590  17.7269  17.7543  17.8485
    17.9344  18.0067  18.0274  18.1565  18.2343  18.2908  18.3466  18.3799
    18.4226  18.5960  18.6242  18.7496  18.7774  18.8659  18.9539  19.0126
    19.1083  19.1391  19.2936  19.3286  19.3949  19.4251  19.5148  19.5961
    19.6369  19.6577  19.7744  19.8059  19.8420  19.9555  20.1050  20.1080
    20.2242  20.3491  20.4125  20.4722  20.4997  20.6535  20.6613  20.8208
    20.8281  20.9103  21.0779  21.1065

     the spin up/dw Fermi energies are    -1.9962   -2.9173 ev

!    total energy              =   -1991.94339058 Ry
     Harris-Foulkes estimate   =   -1991.94339059 Ry
     estimated scf accuracy    <          9.6E-09 Ry

     The total energy is the sum of the following terms:

     one-electron contribution =  -23335.53772941 Ry
     hartree contribution      =   11684.93695990 Ry
     xc contribution           =    -315.27563427 Ry
     ewald contribution        =    9972.30540473 Ry
     Hubbard energy            =       1.62688944 Ry
     smearing contrib. (-TS)   =       0.00071904 Ry

     total magnetization       =    16.00 Bohr mag/cell
     absolute magnetization    =    24.72 Bohr mag/cell

     convergence has been achieved in  19 iterations

     Forces acting on atoms (Ry/au):

     negative rho (up, down):  0.558E-02 0.183E-02
     atom    1 type  1   force =    -0.00578577   -0.01296173   -0.00004965
     atom    2 type  1   force =     0.00002195    0.00953215    0.00026286
     atom    3 type  2   force =    -0.00030731   -0.00057186    0.00010315
     atom    4 type  2   force =     0.00412890    0.00621283   -0.00015513
     atom    5 type  1   force =     0.00116949    0.00562887   -0.00006435
     atom    6 type  1   force =     0.00092259   -0.00543550   -0.00021519
     atom    7 type  1   force =     0.00000628   -0.00195165   -0.00013672
     atom    8 type  1   force =    -0.00045725   -0.00001268    0.00038772
     atom    9 type  2   force =     0.00080355   -0.00068593    0.00072855
     atom   10 type  2   force =    -0.00007021   -0.00039008   -0.00037430
     atom   11 type  1   force =    -0.00031586   -0.04277290   -0.00032448
     atom   12 type  1   force =     0.00047759    0.04338398   -0.00033295
     atom   13 type  1   force =    -0.00039440    0.00021925   -0.00008070
     atom   14 type  1   force =    -0.00578650   -0.01296617   -0.00005307
     atom   15 type  1   force =     0.00001129    0.00953168    0.00026339
     atom   16 type  2   force =    -0.00029925   -0.00057449    0.00009574
     atom   17 type  2   force =     0.00413230    0.00622193   -0.00015748
     atom   18 type  1   force =     0.00117353    0.00563612   -0.00006463
     atom   19 type  1   force =     0.00092610   -0.00544108   -0.00021863
     atom   20 type  1   force =     0.00001321   -0.00195285   -0.00014423
     atom   21 type  1   force =    -0.00079949   -0.00002382    0.00038271
     atom   22 type  2   force =     0.00077679   -0.00067202    0.00007736
     atom   23 type  2   force =     0.00001859   -0.00038449   -0.00036931
     atom   24 type  1   force =    -0.00030587   -0.04287268   -0.00037079
     atom   25 type  1   force =     0.00048104    0.04348194   -0.00037749
     atom   26 type  1   force =    -0.00120142    0.00024204   -0.00008179
     atom   27 type  3   force =    -0.00002202   -0.00027682   -0.00022423
     atom   28 type  3   force =    -0.00002341   -0.00027732   -0.00022469
     atom   29 type  3   force =     0.00035233    0.00006626    0.00085846
     atom   30 type  3   force =     0.00035320    0.00006703    0.00085986

     Total force =     0.001991     Total SCF correction =     0.000108

     bfgs converged in  15 scf cycles and  14 bfgs steps
     (criteria: energy < 0.10E-03, force < 0.10E-02)

     End of BFGS Geometry Optimization

     Final energy   =   -1991.9433905812 Ry
Begin final coordinates

ATOMIC_POSITIONS (crystal)
O0       0.000000000   0.000000000   0.379274848    0   0   1
O0       0.000000000   0.500000000   0.396912018    0   0   1
Cr1      0.250000000   0.500000000   0.448442189    0   0   1
Cr1      0.000000000   0.000000000   0.451954954    0   0   1
O0       0.250000000   0.800000000   0.450548917    0   0   1
O0       0.250000000   0.200000000   0.450634752    0   0   1
O0       0.000000000   0.500000000   0.497078972    0   0   1
O0       0.000000000   0.000000000   0.525816412    0   0   1
Cr1      0.250000000   0.000000000   0.579062870    0   0   1
Cr1      0.000000000   0.500000000   0.566603275    0   0   1
O0       0.250000000   0.700000000   0.575950880    0   0   1
O0       0.250000000   0.300000000   0.576064514    0   0   1
O0       0.000000000   0.000000000   0.621627502    0   0   1
O0       0.500000000   0.000000000   0.379274437    0   0   1
O0       0.500000000   0.500000000   0.396911882    0   0   1
Cr1      0.750000000   0.500000000   0.448441323    0   0   1
Cr1      0.500000000   0.000000000   0.451954392    0   0   1
O0       0.750000000   0.800000000   0.450548879    0   0   1
O0       0.750000000   0.200000000   0.450634448    0   0   1
O0       0.500000000   0.500000000   0.497078992    0   0   1
O0       0.500000000   0.000000000   0.525816393    0   0   1
Cr1      0.750000000   0.000000000   0.578998914    0   0   1
Cr1      0.500000000   0.500000000   0.566603202    0   0   1
O0       0.750000000   0.700000000   0.575946465    0   0   1
O0       0.750000000   0.300000000   0.576060325    0   0   1
O0       0.500000000   0.000000000   0.621629088    0   0   1
H2      -0.000593310   0.640131563   0.378607126
H2       0.499405933   0.640131749   0.378607051
H2       0.157712132   0.029790435   0.366487468
H2       0.657713469   0.029790129   0.366487513
End final coordinates

     General routines

     Parallel routines
     Hubbard U routines

   This run was terminated on:  21:11:17  10May2014

   JOB DONE.
Running PBS batch system epilogue script
Job id: 340917.audhumbla.fysik.dtu.dk
Username: zhonxu
Groupname: campgst
Jobname: CrO2/Eads-2-layers/bare-U-3.5
Sessionid: 17242
Queuename: verylong
Accounting:
This job has allocated the following 16 nodes:
c131 c131 c131 c131 c131 c131 c131 c131 c002 c002 c002 c002 c002 c002 c002 c002
Finished epilogue job 340917.audhumbla.fysik.dtu.dk for zhonxu