     Program PWSCF v.5.0.2 (svn rev. 9656) starts on 30Apr2014 at  2:57:47

     Current dimensions of program PWSCF are:
     Max number of different atomic species (ntypx) = 10
     Max number of k-points (npk) =  40000
     Max angular momentum in pseudopotentials (lmaxx) =  3
     Reading input from pwscf.in
Warning: card &CELL ignored
Warning: card / ignored

     Subspace diagonalization in iterative solution of the eigenvalue problem:
     a serial algorithm will be used

     bravais-lattice index     =            0
     lattice parameter (alat)  =      11.2250  a.u.
     unit-cell volume          =    7005.5484 (a.u.)^3
     number of atoms/cell      =           32
     number of atomic types    =            3
     number of electrons       =       215.00
     number of Kohn-Sham states=          310
     kinetic-energy cutoff     =      40.0000  Ry
     charge density cutoff     =     500.0000  Ry
     convergence threshold     =      1.0E-06
     mixing beta               =       0.7000
     number of iterations used =            8  plain     mixing
     Exchange-correlation      = SLA  PW   PBE  PBE ( 1 4 3 4 0)
     EXX-fraction              =        0.00
     nstep                     =           50

     celldm(1)=  11.224973  celldm(2)=   0.000000  celldm(3)=   0.000000
     celldm(4)=   0.000000  celldm(5)=   0.000000  celldm(6)=   0.000000

     crystal axes: (cart. coord. in units of alat)
               a(1) = (   1.000000   0.000000   0.000000 )
               a(2) = (   0.000000   1.107086   0.000000 )
               a(3) = (   0.000000   0.000000   4.474090 )

     reciprocal axes: (cart. coord. in units 2 pi/alat)
               b(1) = (  1.000000  0.000000  0.000000 )
               b(2) = (  0.000000  0.903272  0.000000 )
               b(3) = (  0.000000  0.000000  0.223509 )

     PseudoPot. # 1 for O  read from file:
     /home/camp/zhonxu/pseudo/o_pbe_v1.01.uspp.F.UPF
     MD5 check sum: 2bcb18d16ea4b960afae9ec6d52f22d2
     Pseudo is Ultrasoft + core correction, Zval =  6.0
     Generated by new atomic code, or converted to UPF format
     Using radial grid of  737 points,  5 beta functions with:
                l(1) =   0
                l(2) =   0
                l(3) =   1
                l(4) =   1
                l(5) =   2
     Q(r) pseudized with  8 coefficients,  rinner =    0.900   0.900   0.900
                                                       0.900   0.900

     PseudoPot. # 2 for Ti read from file:
     /home/camp/zhonxu/pseudo/ti_pbe_v1.uspp.F.UPF
     MD5 check sum: bcc8f6961b3b91f0cac3ca967d22d0fb
     Pseudo is Ultrasoft + core correction, Zval = 12.0
     Generated by new atomic code, or converted to UPF format
     Using radial grid of  851 points,  6 beta functions with:
                l(1) =   0
                l(2) =   0
                l(3) =   1
                l(4) =   1
                l(5) =   2
                l(6) =   2
     Q(r) pseudized with  6 coefficients,  rinner =    1.000   1.000   1.000
                                                       1.000   1.000

     PseudoPot. # 3 for H  read from file:
     /home/camp/zhonxu/pseudo/h_pbe_v1.uspp.F.UPF
     MD5 check sum: 3408e3ff4ec8b0a4e358431e7e038a48
     Pseudo is Ultrasoft, Zval =  1.0
     Generated by new atomic code, or converted to UPF format
     Using radial grid of  615 points,  2 beta functions with:
                l(1) =   0
                l(2) =   0
     Q(r) pseudized with  8 coefficients,  rinner =    0.700

     atomic species   valence    mass     pseudopotential
        O0             6.00    15.99940     O ( 1.00)
        Ti1           12.00    47.88000     Ti( 1.00)
        H2             1.00     1.00794     H ( 1.00)

     Simplified LDA+U calculation (l_max = 2) with parameters (eV):
     atomic species    L          U    alpha       J0     beta
        Ti1            2     2.5000   0.0000   0.0000   0.0000

     No symmetry found

   Cartesian axes

     site n.     atom                  positions (alat units)
         1           O0  tau(   1) = (   0.0000000   0.0000000   1.6864186  )
         2           O0  tau(   2) = (   0.0000000   0.5535432   1.7740213  )
         3           Ti1 tau(   3) = (   0.2500000   0.5535432   2.0074793  )
         4           Ti1 tau(   4) = (   0.0000000   0.0000000   2.0324447  )
         5           O0  tau(   5) = (   0.2500000   0.8967400   2.0044817  )
         6           O0  tau(   6) = (   0.2500000   0.2103464   2.0092242  )
         7           O0  tau(   7) = (   0.0000000   0.5535432   2.2196854  )
         8           O0  tau(   8) = (   0.0000000   0.0000000   2.3507315  )
         9           Ti1 tau(   9) = (   0.2500000   0.0000000   2.6021753  )
        10           Ti1 tau(  10) = (   0.0000000   0.5535432   2.5345718  )
        11           O0  tau(  11) = (   0.2500000   0.7638896   2.5931377  )
        12           O0  tau(  12) = (   0.2500000   0.3431968   2.5930482  )
        13           O0  tau(  13) = (   0.0000000   0.0000000   2.7844945  )
        14           O0  tau(  14) = (   0.5000000   0.0000000   1.6873582  )
        15           O0  tau(  15) = (   0.5000000   0.5535432   1.7709789  )
        16           Ti1 tau(  16) = (   0.7500000   0.5535432   2.0079715  )
        17           Ti1 tau(  17) = (   0.5000000   0.0000000   2.0352187  )
        18           O0  tau(  18) = (   0.7500000   0.8967400   2.0040790  )
        19           O0  tau(  19) = (   0.7500000   0.2103464   2.0094479  )
        20           O0  tau(  20) = (   0.5000000   0.5535432   2.1971360  )
        21           O0  tau(  21) = (   0.5000000   0.0000000   2.3514026  )
        22           Ti1 tau(  22) = (   0.7500000   0.0000000   2.6024885  )
        23           Ti1 tau(  23) = (   0.5000000   0.5535432   2.6568935  )
        24           O0  tau(  24) = (   0.7500000   0.7638896   2.5904532  )
        25           O0  tau(  25) = (   0.7500000   0.3431968   2.5901848  )
        26           O0  tau(  26) = (   0.5000000   0.0000000   2.7844945  )
        27           H2  tau(  27) = (  -0.0007700   0.6889399   1.6773810  )
        28           H2  tau(  28) = (   0.4993300   0.6850208   1.6695513  )
        29           H2  tau(  29) = (   0.1496500   0.0435638   1.6275396  )
        30           H2  tau(  30) = (   0.6495100   0.0435638   1.6281213  )
        31           O0  tau(  31) = (   0.5047900   0.5534214   2.9586261  )
        32           H2  tau(  32) = (   0.3766100   0.5530007   3.0621118  )

     number of k points=    10  Methfessel-Paxton smearing, width (Ry)=  0.0100
                       cart. coord. in units 2pi/alat
        k(    1) = (   0.0000000   0.0000000   0.0000000), wk =   0.1250000
        k(    2) = (   0.0000000   0.2258180   0.0000000), wk =   0.2500000
        k(    3) = (   0.0000000  -0.4516359   0.0000000), wk =   0.1250000
        k(    4) = (   0.2500000   0.0000000   0.0000000), wk =   0.2500000
        k(    5) = (   0.2500000   0.2258180   0.0000000), wk =   0.2500000
        k(    6) = (   0.2500000  -0.4516359   0.0000000), wk =   0.2500000
        k(    7) = (  -0.5000000   0.0000000   0.0000000), wk =   0.1250000
        k(    8) = (  -0.5000000   0.2258180   0.0000000), wk =   0.2500000
        k(    9) = (  -0.5000000  -0.4516359   0.0000000), wk =   0.1250000
        k(   10) = (  -0.2500000   0.2258180   0.0000000), wk =   0.2500000

     Largest allocated arrays     est. size (Mb)     dimensions
     Largest temporary arrays     est. size (Mb)     dimensions

     Check: negative/imaginary core charge=   -0.000006    0.000000

     Initial potential from superposition of free atoms
     Check: negative starting charge=   -0.102331

     starting charge  206.99957, renormalised to  215.00000

     negative rho (up, down):  0.106E+00 0.000E+00
     Number of +U iterations with fixed ns =  0
     Starting occupations:
 --- enter write_ns ---
 LDA+U parameters:
U( 2)     =  2.50000000
alpha( 2) =  0.00000000
atom    3   Tr[ns(na)] =   2.00000
    eigenvalues:
  0.200  0.200  0.200  0.200  0.200
    eigenvectors:
  1.000  0.000  0.000  0.000  0.000
  0.000  1.000  0.000  0.000  0.000
  0.000  0.000  1.000  0.000  0.000
  0.000  0.000  0.000  1.000  0.000
  0.000  0.000  0.000  0.000  1.000
    occupations:
  0.200  0.000  0.000  0.000  0.000
  0.000  0.200  0.000  0.000  0.000
  0.000  0.000  0.200  0.000  0.000
  0.000  0.000  0.000  0.200  0.000
  0.000  0.000  0.000  0.000  0.200
atom    4   Tr[ns(na)] =   2.00000
    eigenvalues:
  0.200  0.200  0.200  0.200  0.200
    eigenvectors:
  1.000  0.000  0.000  0.000  0.000
  0.000  1.000  0.000  0.000  0.000
  0.000  0.000  1.000  0.000  0.000
  0.000  0.000  0.000  1.000  0.000
  0.000  0.000  0.000  0.000  1.000
    occupations:
  0.200  0.000  0.000  0.000  0.000
  0.000  0.200  0.000  0.000  0.000
  0.000  0.000  0.200  0.000  0.000
  0.000  0.000  0.000  0.200  0.000
  0.000  0.000  0.000  0.000  0.200
atom    9   Tr[ns(na)] =   2.00000
    eigenvalues:
  0.200  0.200  0.200  0.200  0.200
    eigenvectors:
  1.000  0.000  0.000  0.000  0.000
  0.000  1.000  0.000  0.000  0.000
  0.000  0.000  1.000  0.000  0.000
  0.000  0.000  0.000  1.000  0.000
  0.000  0.000  0.000  0.000  1.000
    occupations:
  0.200  0.000  0.000  0.000  0.000
  0.000  0.200  0.000  0.000  0.000
  0.000  0.000  0.200  0.000  0.000
  0.000  0.000  0.000  0.200  0.000
  0.000  0.000  0.000  0.000  0.200
atom   10   Tr[ns(na)] =   2.00000
    eigenvalues:
  0.200  0.200  0.200  0.200  0.200
    eigenvectors:
  1.000  0.000  0.000  0.000  0.000
  0.000  1.000  0.000  0.000  0.000
  0.000  0.000  1.000  0.000  0.000
  0.000  0.000  0.000  1.000  0.000
  0.000  0.000  0.000  0.000  1.000
    occupations:
  0.200  0.000  0.000  0.000  0.000
  0.000  0.200  0.000  0.000  0.000
  0.000  0.000  0.200  0.000  0.000
  0.000  0.000  0.000  0.200  0.000
  0.000  0.000  0.000  0.000  0.200
atom   16   Tr[ns(na)] =   2.00000
    eigenvalues:
  0.200  0.200  0.200  0.200  0.200
    eigenvectors:
  1.000  0.000  0.000  0.000  0.000
  0.000  1.000  0.000  0.000  0.000
  0.000  0.000  1.000  0.000  0.000
  0.000  0.000  0.000  1.000  0.000
  0.000  0.000  0.000  0.000  1.000
    occupations:
  0.200  0.000  0.000  0.000  0.000
  0.000  0.200  0.000  0.000  0.000
  0.000  0.000  0.200  0.000  0.000
  0.000  0.000  0.000  0.200  0.000
  0.000  0.000  0.000  0.000  0.200
atom   17   Tr[ns(na)] =   2.00000
    eigenvalues:
  0.200  0.200  0.200  0.200  0.200
    eigenvectors:
  1.000  0.000  0.000  0.000  0.000
  0.000  1.000  0.000  0.000  0.000
  0.000  0.000  1.000  0.000  0.000
  0.000  0.000  0.000  1.000  0.000
  0.000  0.000  0.000  0.000  1.000
    occupations:
  0.200  0.000  0.000  0.000  0.000
  0.000  0.200  0.000  0.000  0.000
  0.000  0.000  0.200  0.000  0.000
  0.000  0.000  0.000  0.200  0.000
  0.000  0.000  0.000  0.000  0.200
atom   22   Tr[ns(na)] =   2.00000
    eigenvalues:
  0.200  0.200  0.200  0.200  0.200
    eigenvectors:
  1.000  0.000  0.000  0.000  0.000
  0.000  1.000  0.000  0.000  0.000
  0.000  0.000  1.000  0.000  0.000
  0.000  0.000  0.000  1.000  0.000
  0.000  0.000  0.000  0.000  1.000
[...]
  0.000  0.000  0.000  1.000  0.000
    occupations:
  0.427  0.010  0.004 -0.020 -0.000
  0.010  0.205 -0.005 -0.000 -0.002
  0.004 -0.005  0.216  0.000 -0.000
 -0.020 -0.000  0.000  0.166 -0.000
 -0.000 -0.002 -0.000 -0.000  0.419
atom    9   Tr[ns(na)] =   2.85190
    eigenvalues:
  0.170  0.213  0.231  0.382  0.431
    eigenvectors:
  0.000  0.000  0.920  0.080  0.000
  0.000  0.000  0.000  0.000  1.000
  0.998  0.002  0.000  0.000  0.000
  0.000  0.000  0.080  0.920  0.000
  0.002  0.998  0.000  0.000  0.000
    occupations:
  0.243 -0.000 -0.000  0.041  0.000
 -0.000  0.431  0.000  0.000 -0.000
 -0.000  0.000  0.170  0.000  0.002
  0.041  0.000  0.000  0.370 -0.000
  0.000 -0.000  0.002 -0.000  0.212
atom   10   Tr[ns(na)] =   2.78209
    eigenvalues:
  0.168  0.227  0.232  0.332  0.433
    eigenvectors:
  0.018  0.000  0.000  0.982  0.000
  0.000  0.000  1.000  0.000  0.000
  0.000  1.000  0.000  0.000  0.000
  0.982  0.000  0.000  0.018  0.000
  0.000  0.000  0.000  0.000  1.000
    occupations:
  0.329  0.001 -0.000 -0.022 -0.000
  0.001  0.232 -0.000  0.000 -0.000
 -0.000 -0.000  0.227 -0.000 -0.001
 -0.022  0.000 -0.000  0.170  0.000
 -0.000 -0.000 -0.001  0.000  0.433
atom   16   Tr[ns(na)] =   2.77973
    eigenvalues:
  0.174  0.187  0.209  0.389  0.430
    eigenvectors:
  0.081  0.685  0.053  0.167  0.013
  0.004  0.003  0.003  0.181  0.810
  0.572  0.008  0.419  0.001  0.000
  0.023  0.143  0.009  0.650  0.175
  0.321  0.161  0.516  0.001  0.002
    occupations:
  0.224 -0.010 -0.004  0.079 -0.002
 -0.010  0.421 -0.003  0.022  0.011
 -0.004 -0.003  0.189  0.007  0.016
  0.079  0.022  0.007  0.361  0.001
 -0.002  0.011  0.016  0.001  0.195
atom   17   Tr[ns(na)] =   2.86121
    eigenvalues:
  0.163  0.203  0.218  0.416  0.430
    eigenvectors:
  0.006  0.002  0.000  0.000  0.992
  0.000  0.892  0.106  0.000  0.002
  0.000  0.105  0.894  0.000  0.000
  0.993  0.001  0.000  0.000  0.006
  0.000  0.000  0.000  1.000  0.000
    occupations:
  0.428  0.010  0.004 -0.020 -0.000
  0.010  0.205 -0.004 -0.000 -0.002
  0.004 -0.004  0.217  0.000 -0.000
 -0.020 -0.000  0.000  0.165 -0.000
 -0.000 -0.002 -0.000 -0.000  0.416
atom   22   Tr[ns(na)] =   2.85149
    eigenvalues:
  0.170  0.213  0.231  0.382  0.431
    eigenvectors:
  0.000  0.000  0.921  0.079  0.000
  0.000  0.000  0.000  0.000  1.000
  0.998  0.002  0.000  0.000  0.000
  0.000  0.000  0.079  0.921  0.000
  0.002  0.998  0.000  0.000  0.000
    occupations:
  0.243 -0.000 -0.000  0.041  0.000
 -0.000  0.431  0.000 -0.000 -0.000
 -0.000  0.000  0.170 -0.000 -0.002
  0.041 -0.000 -0.000  0.370 -0.000
  0.000 -0.000 -0.002 -0.000  0.213
atom   23   Tr[ns(na)] =   2.81429
    eigenvalues:
  0.148  0.220  0.255  0.379  0.406
    eigenvectors:
  0.012  0.032  0.000  0.956  0.000
  0.001  0.965  0.000  0.034  0.000
  0.000  0.000  1.000  0.000  0.000
  0.987  0.003  0.000  0.010  0.000
  0.000  0.000  0.000  0.000  1.000
    occupations:
  0.371  0.029  0.000 -0.023 -0.000
  0.029  0.226 -0.000 -0.000 -0.000
  0.000 -0.000  0.255 -0.000 -0.001
 -0.023 -0.000 -0.000  0.151 -0.000
 -0.000 -0.000 -0.001 -0.000  0.406
N of occupied +U levels =  22.5871547
 --- exit write_ns ---

     Threshold (ethr) on eigenvalues was too large:
     Diagonalizing with lowered threshold

     Davidson diagonalization with overlap
     ethr =  6.96E-08,  avg # of iterations =  1.1

[...]

     total energy              =   -1566.89243671 Ry
     Harris-Foulkes estimate   =   -1566.89243672 Ry
     estimated scf accuracy    <       0.00000001 Ry

     iteration # 11     ecut=    40.00 Ry     beta=0.70
     Davidson diagonalization with overlap
     ethr =  6.21E-12,  avg # of iterations =  1.0

     negative rho (up, down):  0.104E+00 0.000E+00

     End of self-consistent calculation
 --- enter write_ns ---
 LDA+U parameters:
U( 2)     =  2.50000000
alpha( 2) =  0.00000000
atom    3   Tr[ns(na)] =   2.77852
    eigenvalues:
  0.173  0.187  0.209  0.389  0.431
    eigenvectors:
  0.088  0.677  0.053  0.168  0.013
  0.004  0.002  0.003  0.178  0.813
  0.565  0.010  0.425  0.001  0.000
  0.024  0.143  0.008  0.652  0.172
  0.319  0.167  0.511  0.000  0.002
    occupations:
  0.224  0.010 -0.004  0.079  0.002
  0.010  0.421  0.003 -0.022  0.012
 -0.004  0.003  0.189  0.007 -0.016
  0.079 -0.022  0.007  0.361 -0.001
  0.002  0.012 -0.016 -0.001  0.195
atom    4   Tr[ns(na)] =   2.86758
    eigenvalues:
  0.164  0.203  0.218  0.419  0.429
    eigenvectors:
  0.006  0.002  0.000  0.000  0.991
  0.000  0.879  0.118  0.000  0.002
  0.000  0.118  0.881  0.000  0.000
  0.993  0.001  0.000  0.000  0.006
  0.000  0.000  0.000  1.000  0.000
    occupations:
  0.427  0.010  0.004 -0.020 -0.000
  0.010  0.205 -0.005 -0.000 -0.002
  0.004 -0.005  0.216  0.000 -0.000
 -0.020 -0.000  0.000  0.166 -0.000
 -0.000 -0.002 -0.000 -0.000  0.419
atom    9   Tr[ns(na)] =   2.85155
    eigenvalues:
  0.170  0.212  0.231  0.382  0.431
    eigenvectors:
  0.000  0.000  0.920  0.080  0.000
  0.000  0.000  0.000  0.000  1.000
  0.998  0.002  0.000  0.000  0.000
  0.000  0.000  0.080  0.920  0.000
  0.002  0.998  0.000  0.000  0.000
    occupations:
  0.243 -0.000 -0.000  0.041  0.000
 -0.000  0.431  0.000  0.000 -0.000
 -0.000  0.000  0.170  0.000  0.002
  0.041  0.000  0.000  0.370 -0.000
  0.000 -0.000  0.002 -0.000  0.212
atom   10   Tr[ns(na)] =   2.78257
    eigenvalues:
  0.168  0.227  0.232  0.332  0.433
    eigenvectors:
  0.018  0.000  0.000  0.982  0.000
  0.000  0.000  1.000  0.000  0.000
  0.000  1.000  0.000  0.000  0.000
  0.982  0.000  0.000  0.018  0.000
  0.000  0.000  0.000  0.000  1.000
    occupations:
  0.329  0.001 -0.000 -0.022 -0.000
  0.001  0.232 -0.000  0.000 -0.000
 -0.000 -0.000  0.227 -0.000 -0.001
 -0.022  0.000 -0.000  0.170  0.000
 -0.000 -0.000 -0.001  0.000  0.433
atom   16   Tr[ns(na)] =   2.77912
    eigenvalues:
  0.174  0.187  0.209  0.389  0.430
    eigenvectors:
  0.081  0.685  0.054  0.167  0.013
  0.004  0.003  0.003  0.181  0.810
  0.571  0.008  0.420  0.001  0.000
  0.023  0.143  0.009  0.651  0.175
  0.321  0.162  0.515  0.001  0.002
    occupations:
  0.224 -0.010 -0.004  0.079 -0.002
 -0.010  0.421 -0.003  0.022  0.011
 -0.004 -0.003  0.189  0.007  0.016
  0.079  0.022  0.007  0.361  0.001
 -0.002  0.011  0.016  0.001  0.195
atom   17   Tr[ns(na)] =   2.86144
    eigenvalues:
  0.163  0.203  0.218  0.416  0.431
    eigenvectors:
  0.006  0.002  0.000  0.000  0.992
  0.000  0.892  0.105  0.000  0.002
  0.000  0.105  0.895  0.000  0.000
  0.993  0.001  0.000  0.000  0.006
  0.000  0.000  0.000  1.000  0.000
    occupations:
  0.428  0.010  0.004 -0.020 -0.000
  0.010  0.205 -0.004 -0.000 -0.002
  0.004 -0.004  0.217  0.000 -0.000
 -0.020 -0.000  0.000  0.165 -0.000
 -0.000 -0.002 -0.000 -0.000  0.416
atom   22   Tr[ns(na)] =   2.85097
    eigenvalues:
  0.170  0.213  0.231  0.382  0.431
    eigenvectors:
  0.000  0.000  0.921  0.079  0.000
  0.000  0.000  0.000  0.000  1.000
  0.998  0.002  0.000  0.000  0.000
  0.000  0.000  0.079  0.921  0.000
  0.002  0.998  0.000  0.000  0.000
    occupations:
  0.243 -0.000 -0.000  0.041  0.000
 -0.000  0.431  0.000 -0.000 -0.000
 -0.000  0.000  0.170 -0.000 -0.002
  0.041 -0.000 -0.000  0.370 -0.000
  0.000 -0.000 -0.002 -0.000  0.212
atom   23   Tr[ns(na)] =   2.81567
    eigenvalues:
  0.148  0.220  0.255  0.379  0.406
    eigenvectors:
  0.012  0.032  0.000  0.956  0.000
  0.001  0.965  0.000  0.034  0.000
  0.000  0.000  1.000  0.000  0.000
  0.987  0.003  0.000  0.010  0.000
  0.000  0.000  0.000  0.000  1.000
    occupations:
  0.371  0.029  0.000 -0.023 -0.000
  0.029  0.226 -0.000 -0.000 -0.000
  0.000 -0.000  0.255 -0.000 -0.000
 -0.023 -0.000 -0.000  0.151 -0.000
 -0.000 -0.000 -0.000 -0.000  0.406
N of occupied +U levels =  22.5874217
 --- exit write_ns ---

[...]

          k = 0.2500-0.4516 0.0000 ( 29882 PWs)   bands (ev):

[...]

          k =-0.2500 0.2258 0.0000 ( 29912 PWs)   bands (ev):

   -60.5397 -60.5129 -60.2930 -59.8633 -59.5808 -59.5528 -59.1799 -59.1492
   -36.9901 -36.7742 -36.7335 -36.6905 -36.6678 -36.6541 -36.6303 -36.5225
   -36.4486 -36.1532 -36.1126 -36.0900 -36.0479 -35.8902 -35.8179 -35.8010
   -35.6827 -35.6603 -35.5729 -35.4666 -35.4391 -35.4159 -35.3446 -35.2509
   -21.4475 -21.2085 -20.5142 -20.3906 -20.1533 -19.7747 -19.6289 -19.5813
   -19.5134 -19.3785 -19.3043 -19.2338 -19.1496 -19.1130 -19.0718 -18.7014
   -18.4559 -18.1271 -18.0953  -9.2149  -8.9549  -8.2664  -7.7934  -7.6501
    -7.4760  -7.2377  -7.1916  -7.0598  -6.8793  -6.7841  -6.7204  -6.6695
    -6.6311  -6.4803  -6.4469  -6.3700  -6.2726  -6.1652  -6.0869  -5.9772
    -5.9302  -5.7411  -5.6181  -5.4062  -5.3207  -5.2668  -5.1745  -5.0850
    -5.0354  -4.9929  -4.8842  -4.8559  -4.7702  -4.7072  -4.6435  -4.5912
    -4.5274  -4.4449  -4.3278  -4.2613  -4.2066  -4.1415  -4.0205  -3.8634
    -3.7627  -3.6609  -3.5127  -3.4786  -3.4412  -3.3046  -3.2123  -3.1797
    -3.0338  -2.9565  -2.8482  -2.7032  -0.4117  -0.2972  -0.2553  -0.1063
     0.1105   0.1953   0.2723   0.3883   0.4267   0.5451   0.6199   0.7350
     0.8580   0.9294   0.9833   1.0383   1.1245   1.2213   1.2691   1.3960
     1.5027   1.6389   1.6486   1.7563   1.9513   1.9822   2.0869   2.2510
     2.2980   2.5258   2.5812   3.0239   3.0821   3.2552   3.4190   3.5770
     3.6255   3.6519   3.7506   3.9328   4.1310   4.2278   4.3274   4.5891
     5.0233   5.2398   5.2743   5.5822   5.8333   5.8793   6.1025   6.2036
     6.2984   6.4652   6.5455   6.8632   6.9638   7.2859   7.3468   7.4703
     7.6585   7.8074   7.9058   7.9797   8.0683   8.1140   8.1972   8.3945
     8.4938   8.5874   8.7716   8.8322   8.9389   9.0617   9.2546   9.3222
     9.4166   9.5157   9.5638   9.6215   9.7602   9.8886  10.0209  10.0724
    10.1407  10.2509  10.3942  10.4572  10.5755  10.6492  10.7582  10.8065
    10.9387  10.9733  11.0302  11.1398  11.2666  11.2890  11.4173  11.4734
    11.4854  11.5642  11.6357  11.7368  11.8245  11.9221  11.9684  12.0155
    12.1185  12.1781  12.1980  12.3415  12.3926  12.4488  12.5002  12.5803
    12.6949  12.8001  12.8502  12.8838  12.9615  13.0110  13.0401  13.1207
    13.3329  13.3799  13.4723  13.5904  13.6119  13.6702  13.8042  13.8603
    13.8787  13.9502  14.1136  14.1273  14.2139  14.2615  14.4023  14.4515
    14.5183  14.5714  14.6311  14.6524  14.7181  14.8320  14.9260  14.9798
    15.0131  15.1859  15.2584  15.2818  15.3464  15.4015  15.4807  15.5494
    15.5904  15.6709  15.7833  15.8259  15.8462  15.9379  16.0030  16.0621
    16.2019  16.2456  16.3338  16.3628  16.4248  16.5057  16.6410  16.6948
    16.7511  16.7874  16.8230  16.8424  16.9202  17.0199  17.0641  17.1143
    17.2050  17.2838  17.3530  17.3784  17.4677  17.5225  17.6093  17.6805
    17.7633  17.8419  17.9123  17.9409  18.0694  18.1077  18.2212  18.2818
    18.3850  18.4453  18.4816  18.5449  18.6167  18.7052

     the Fermi energy is    -2.7229 ev

!    total energy              =   -1566.89243671 Ry
     Harris-Foulkes estimate   =   -1566.89243672 Ry
     estimated scf accuracy    <          5.0E-09 Ry

     The total energy is the sum of the following terms:

     one-electron contribution =  -18596.29865017 Ry
     hartree contribution      =    9316.59024995 Ry
     xc contribution           =    -277.49445154 Ry
     ewald contribution        =    7988.90200024 Ry
     Hubbard energy            =       1.40767417 Ry
     smearing contrib. (-TS)   =       0.00074064 Ry

     convergence has been achieved in  11 iterations

     Forces acting on atoms (Ry/au):

     negative rho (up, down):  0.104E+00 0.000E+00
     atom    1 type  1   force =    -0.00113055   -0.01105655    0.00036712
     atom    2 type  1   force =     0.00000641    0.01604459    0.00008253
     atom    3 type  2   force =     0.06061518   -0.00888851    0.00012712
     atom    4 type  2   force =    -0.00244299    0.00528431   -0.00003798
     atom    5 type  1   force =    -0.00305660   -0.07089871   -0.00069022
     atom    6 type  1   force =    -0.00495358    0.07207005   -0.00054912
     atom    7 type  1   force =     0.00124905    0.00060890   -0.00013170
     atom    8 type  1   force =     0.00218259   -0.00113733    0.00089089
     atom    9 type  2   force =    -0.00069822   -0.00005141   -0.00066060
     atom   10 type  2   force =    -0.00467685    0.00017226    0.00028699
     atom   11 type  1   force =    -0.01683533   -0.02346004    0.00034390
     atom   12 type  1   force =    -0.01706762    0.02334422    0.00034597
     atom   13 type  1   force =     0.00138445    0.00011711   -0.00054589
     atom   14 type  1   force =    -0.00208687   -0.01066014    0.00007921
     atom   15 type  1   force =     0.00011480    0.01234888   -0.00033055
     atom   16 type  2   force =    -0.06055093   -0.00912413    0.00014691
     atom   17 type  2   force =    -0.00209084    0.00467732    0.00010977
     atom   18 type  1   force =     0.00692780   -0.07041509   -0.00066785
     atom   19 type  1   force =     0.00569060    0.07233639   -0.00058823
     atom   20 type  1   force =    -0.00067242   -0.00005147    0.00018275
     atom   21 type  1   force =     0.00112957   -0.00093555    0.00099258
     atom   22 type  2   force =     0.00008473    0.00000193   -0.00070480
     atom   23 type  2   force =    -0.00085203    0.00006004    0.00022001
     atom   24 type  1   force =     0.01929585   -0.02159832    0.00005046
     atom   25 type  1   force =     0.01885027    0.02152465    0.00003946
     atom   26 type  1   force =    -0.00092892    0.00005473   -0.00052079
     atom   27 type  3   force =     0.00004664    0.00005302    0.00053580
     atom   28 type  3   force =     0.00005046    0.00060699    0.00089309
     atom   29 type  3   force =    -0.00015281   -0.00059685   -0.00037827
     atom   30 type  3   force =    -0.00007779   -0.00039969   -0.00042776
     atom   31 type  1   force =     0.00003755    0.00001459    0.00045964
     atom   32 type  3   force =     0.00060839   -0.00004621    0.00007953

     Total force =     0.002917     Total SCF correction =     0.000139

     bfgs converged in  10 scf cycles and   9 bfgs steps
     (criteria: energy < 0.10E-03, force < 0.10E-02)

     End of BFGS Geometry Optimization

     Final energy   =   -1566.8924367108 Ry
Begin final coordinates

ATOMIC_POSITIONS (crystal)
O0       0.000000000   0.000000000   0.377110695    0   0   1
O0       0.000000000   0.500000000   0.396019110    0   0   1
Ti1      0.250000000   0.500000000   0.448442285    0   0   1
Ti1      0.000000000   0.000000000   0.452319362    0   0   1
O0       0.250000000   0.810000000   0.448527723    0   0   1
O0       0.250000000   0.190000000   0.449332609    0   0   1
O0       0.000000000   0.500000000   0.496079857    0   0   1
O0       0.000000000   0.000000000   0.525579502    0   0   1
Ti1      0.250000000   0.000000000   0.581396026    0   0   1
Ti1      0.000000000   0.500000000   0.566814890    0   0   1
O0       0.250000000   0.690000000   0.579570802    0   0   1
O0       0.250000000   0.310000000   0.579569059    0   0   1
O0       0.000000000   0.000000000   0.622903804    0   0   1
O0       0.500000000   0.000000000   0.377423390    0   0   1
O0       0.500000000   0.500000000   0.395492361    0   0   1
Ti1      0.750000000   0.500000000   0.448526834    0   0   1
Ti1      0.500000000   0.000000000   0.452882518    0   0   1
O0       0.750000000   0.810000000   0.448480656    0   0   1
O0       0.750000000   0.190000000   0.449364064    0   0   1
O0       0.500000000   0.500000000   0.491536548    0   0   1
O0       0.500000000   0.000000000   0.525661849    0   0   1
Ti1      0.750000000   0.000000000   0.581487813    0   0   1
Ti1      0.500000000   0.500000000   0.593977872    0   0   1
O0       0.750000000   0.690000000   0.579064994    0   0   1
O0       0.750000000   0.310000000   0.578985312    0   0   1
O0       0.500000000   0.000000000   0.622897189    0   0   1
H2      -0.000649131   0.624392299   0.375066537
H2       0.499522047   0.621414582   0.373586235
H2       0.149511450   0.038638922   0.363824520
H2       0.649037855   0.038985812   0.363984663
O0       0.507352099   0.499932614   0.661945792
H2       0.376725028   0.499440746   0.684395130
End final coordinates

     General routines

     Parallel routines
     Hubbard U routines

   This run was terminated on:   9:22: 6  30Apr2014

   JOB DONE.
Running PBS batch system epilogue script
Job id: 340523.audhumbla.fysik.dtu.dk
Username: zhonxu
Groupname: campgst
Jobname: TiO2/Eads-2-layers/OH-U-2.5
Sessionid: 31088
Queuename: verylong
Accounting:
This job has allocated the following 16 nodes:
c026 c026 c026 c026 c026 c026 c026 c026 c019 c019 c019 c019 c019 c019 c019 c019
Finished epilogue job 340523.audhumbla.fysik.dtu.dk for zhonxu