     Program PWSCF v.5.0.2 (svn rev. 9656) starts on 24Mar2014 at 18:48:30

     Current dimensions of program PWSCF are:
     Max number of different atomic species (ntypx) = 10
     Max number of k-points (npk) =  40000
     Max angular momentum in pseudopotentials (lmaxx) =  3
     Reading input from pwscf.in
Warning: card &CELL ignored
Warning: card / ignored

     Subspace diagonalization in iterative solution of the eigenvalue problem:
     a serial algorithm will be used

     bravais-lattice index     =            0
     lattice parameter (alat)  =      12.2076  a.u.
     unit-cell volume          =    7496.5096 (a.u.)^3
     number of atoms/cell      =           31
     number of atomic types    =            3
     number of electrons       =       246.00
     number of Kohn-Sham states=          369
     kinetic-energy cutoff     =      40.0000  Ry
     charge density cutoff     =     500.0000  Ry
     convergence threshold     =      1.0E-06
     mixing beta               =       0.3000
     number of iterations used =            8  plain     mixing
     Exchange-correlation      = SLA  PW   PBE  PBE ( 1 4 3 4 0)
     EXX-fraction              =        0.00
     nstep                     =           50

     celldm(1)=  12.207631  celldm(2)=   0.000000  celldm(3)=   0.000000
     celldm(4)=   0.000000  celldm(5)=   0.000000  celldm(6)=   0.000000

     crystal axes: (cart. coord. in units of alat)
               a(1) = (   1.000000   0.000000   0.000000 )
               a(2) = (   0.000000   1.004836   0.000000 )
               a(3) = (   0.000000   0.000000   4.100811 )

     reciprocal axes: (cart. coord. in units 2 pi/alat)
               b(1) = (  1.000000  0.000000  0.000000 )
               b(2) = (  0.000000  0.995187  0.000000 )
               b(3) = (  0.000000  0.000000  0.243854 )

     PseudoPot. # 1 for O  read from file:
     /home/camp/zhonxu/pseudo/o_pbe_v1.01.uspp.F.UPF
     MD5 check sum: 2bcb18d16ea4b960afae9ec6d52f22d2
     Pseudo is Ultrasoft + core correction, Zval =  6.0
     Generated by new atomic code, or converted to UPF format
     Using radial grid of  737 points,  5 beta functions with:
                l(1) =   0
                l(2) =   0
                l(3) =   1
                l(4) =   1
                l(5) =   2
     Q(r) pseudized with  8 coefficients,  rinner =    0.900   0.900   0.900
                                                       0.900   0.900

     PseudoPot. # 2 for Pt read from file:
     /home/camp/zhonxu/pseudo/pt_pbe_v1.uspp.F.UPF
     MD5 check sum: 4c71d6ad5ef119f1eb26a4d0b7884226
     Pseudo is Ultrasoft + core correction, Zval = 16.0
     Generated by new atomic code, or converted to UPF format
     Using radial grid of  985 points,  6 beta functions with:
                l(1) =   0
                l(2) =   0
                l(3) =   1
                l(4) =   1
                l(5) =   2
                l(6) =   2
     Q(r) pseudized with  8 coefficients,  rinner =    1.300   1.300   1.300
                                                       1.300   1.300

     PseudoPot. # 3 for H  read from file:
     /home/camp/zhonxu/pseudo/h_pbe_v1.uspp.F.UPF
     MD5 check sum: 3408e3ff4ec8b0a4e358431e7e038a48
     Pseudo is Ultrasoft, Zval =  1.0
     Generated by new atomic code, or converted to UPF format
     Using radial grid of  615 points,  2 beta functions with:
                l(1) =   0
                l(2) =   0
     Q(r) pseudized with  8 coefficients,  rinner =    0.700

     atomic species   valence    mass     pseudopotential
        O0             6.00    15.99940     O ( 1.00)
        Pt1           16.00   195.08000     Pt( 1.00)
        H2             1.00     1.00794     H ( 1.00)

     Starting magnetic structure
     atomic species   magnetization
        O0           0.000
        Pt1          0.000
        H2           0.000

     No symmetry found

   Cartesian axes

     site n.     atom                  positions (alat units)
         1           O0  tau(   1) = (   0.0000000   0.0000000   1.5457188  )
         2           O0  tau(   2) = (   0.0000000   0.5024180   1.6369208  )
         3           Pt1 tau(   3) = (   0.2500000   0.5024180   1.8413872  )
         4           Pt1 tau(   4) = (   0.0000000   0.0000000   1.8534436  )
         5           O0  tau(   5) = (   0.2500000   0.8139171   1.8157162  )
         6           O0  tau(   6) = (   0.2500000   0.1909188   1.8824364  )
         7           O0  tau(   7) = (   0.0000000   0.5024180   2.0315829  )
         8           O0  tau(   8) = (   0.0000000   0.0000000   2.1708464  )
         9           Pt1 tau(   9) = (   0.2500000   0.0000000   2.3625593  )
        10           Pt1 tau(  10) = (   0.0000000   0.5024180   2.3549318  )
        11           O0  tau(  11) = (   0.2500000   0.6933368   2.3911010  )
        12           O0  tau(  12) = (   0.2500000   0.3114991   2.3934384  )
        13           O0  tau(  13) = (   0.0000000   0.0000000   2.5491052  )
        14           O0  tau(  14) = (   0.5000000   0.0000000   1.5457188  )
        15           O0  tau(  15) = (   0.5000000   0.5024180   1.6369208  )
        16           Pt1 tau(  16) = (   0.7500000   0.5024180   1.8413872  )
        17           Pt1 tau(  17) = (   0.5000000   0.0000000   1.8534436  )
        18           O0  tau(  18) = (   0.7500000   0.8139171   1.8157162  )
        19           O0  tau(  19) = (   0.7500000   0.1909188   1.8824364  )
        20           O0  tau(  20) = (   0.5000000   0.5024180   2.0315829  )
        21           O0  tau(  21) = (   0.5000000   0.0000000   2.1708464  )
        22           Pt1 tau(  22) = (   0.7500000   0.0000000   2.3625593  )
        23           Pt1 tau(  23) = (   0.5000000   0.5024180   2.3549318  )
        24           O0  tau(  24) = (   0.7500000   0.6933368   2.3911010  )
        25           O0  tau(  25) = (   0.7500000   0.3114991   2.3934384  )
        26           O0  tau(  26) = (   0.5000000   0.0000000   2.5491052  )
        27           H2  tau(  27) = (  -0.0000500   0.6431553   1.5728661  )
        28           H2  tau(  28) = (   0.4999500   0.6431553   1.5728661  )
        29           H2  tau(  29) = (   0.1440700   0.0315318   1.5048747  )
        30           H2  tau(  30) = (   0.6440700   0.0315318   1.5048747  )
        31           O0  tau(  31) = (   0.5000000   0.5024180   2.5591112  )

     number of k points=    20  Methfessel-Paxton smearing, width (Ry)=  0.0100
                       cart. coord. in units 2pi/alat
        k(    1) = (   0.0000000   0.0000000   0.0000000), wk =   0.0625000
        k(    2) = (   0.0000000   0.2487968   0.0000000), wk =   0.1250000
        k(    3) = (   0.0000000  -0.4975937   0.0000000), wk =   0.0625000
        k(    4) = (   0.2500000   0.0000000   0.0000000), wk =   0.1250000
        k(    5) = (   0.2500000   0.2487968   0.0000000), wk =   0.1250000
        k(    6) = (   0.2500000  -0.4975937   0.0000000), wk =   0.1250000
        k(    7) = (  -0.5000000   0.0000000   0.0000000), wk =   0.0625000
        k(    8) = (  -0.5000000   0.2487968   0.0000000), wk =   0.1250000
        k(    9) = (  -0.5000000  -0.4975937   0.0000000), wk =   0.0625000
        k(   10) = (  -0.2500000   0.2487968   0.0000000), wk =   0.1250000
        k(   11) = (   0.0000000   0.0000000   0.0000000), wk =   0.0625000
        k(   12) = (   0.0000000   0.2487968   0.0000000), wk =   0.1250000
        k(   13) = (   0.0000000  -0.4975937   0.0000000), wk =   0.0625000
        k(   14) = (   0.2500000   0.0000000   0.0000000), wk =   0.1250000
        k(   15) = (   0.2500000   0.2487968   0.0000000), wk =   0.1250000
        k(   16) = (   0.2500000  -0.4975937   0.0000000), wk =   0.1250000
        k(   17) = (  -0.5000000   0.0000000   0.0000000), wk =   0.0625000
        k(   18) = (  -0.5000000   0.2487968   0.0000000), wk =   0.1250000
        k(   19) = (  -0.5000000  -0.4975937   0.0000000), wk =   0.0625000
        k(   20) = (  -0.2500000   0.2487968   0.0000000), wk =   0.1250000

     Largest allocated arrays     est. size (Mb)     dimensions
     Largest temporary arrays     est. size (Mb)     dimensions

     Check: negative/imaginary core charge=   -0.000003    0.000000

     Initial potential from superposition of free atoms
     Check: negative starting charge=(component1):   -0.767504
     Check: negative starting charge=(component2):   -0.767504

     starting charge  241.99985, renormalised to  246.00000

     negative rho (up, down):  0.780E+00 0.780E+00
     Starting wfc are  176 randomized atomic wfcs

     Self-consistent Calculation

     iteration #  1     ecut=    40.00 Ry     beta=0.30
     Davidson diagonalization with overlap
     ethr =  1.00E-02,  avg # of iterations =  5.1

     negative rho (up, down):  0.770E+00 0.770E+00

     total energy              =   -2274.31979254 Ry
     Harris-Foulkes estimate   =   -2286.24149933 Ry
     estimated scf accuracy    <      25.72896048 Ry

     total magnetization       =     0.00 Bohr mag/cell
     absolute magnetization    =     0.01 Bohr mag/cell

[...]

     End of self-consistent calculation

 ------ SPIN UP ------------

          k = 0.0000 0.0000 0.0000 ( 32157 PWs)   bands (ev):

   -61.1072 -57.9169 -57.7733 -55.6607 -55.6104 -55.6087 -55.5766 -55.5555
   -55.5206 -55.4769 -55.4718 -55.4517 -55.4483 -55.3546 -55.3277 -55.2956
   -55.2876 -55.2745 -55.2510 -55.1939 -55.1867 -54.7539 -54.5232 -54.2815
   -24.4082 -21.9104 -21.4979 -21.1676 -21.0017 -20.3565 -20.3090 -20.2950
   -20.2082 -20.0920 -20.0597 -20.0539 -19.9486 -19.9094 -19.6805 -19.6504
   -19.6285 -18.7032 -18.5550 -12.9644 -12.9143 -11.5534 -10.3268 -10.2866
    -9.7784  -9.3239  -9.2818  -8.9928  -8.9527  -8.8892  -8.8282  -8.7460
    -8.6417  -8.6018  -8.4710  -8.4475  -8.3731  -8.1214  -8.0605  -7.9836
    -7.6048  -7.4026  -7.3646  -7.1907  -7.0622  -6.8894  -6.8766  -6.5296
    -6.4247  -6.0824  -5.9067  -5.9008  -5.8299  -5.7793  -5.6121  -5.5982
    -5.5614  -5.3985  -5.3640  -5.2460  -5.1088  -5.1007  -5.0267  -4.8983
    -4.8871  -4.6962  -4.6528  -4.5932  -4.5623  -4.5367  -4.5313  -4.4554
    -4.4335  -4.3512  -4.2433  -4.1417  -4.0927  -3.9923  -3.8835  -3.8379
    -3.7734  -3.6576  -3.3788  -3.3357  -3.1831  -2.8639  -2.8271  -2.6532
    -2.6193  -2.5659  -2.3636  -2.3045  -2.0936  -1.9482  -1.8434  -1.7178
    -1.5226  -1.3579  -1.2418  -1.1711  -0.9623  -0.6726  -0.6132  -0.2916
    -0.2322  -0.1896   0.0540   0.3639   0.7539   1.0464   1.3520   1.5329
     1.5467   1.6097   2.1506   2.4143   3.1913   4.0979   4.2904   4.7465
     4.8560   5.6450   5.7516   5.9273   5.9756   6.3813   6.6161   6.6884
     6.8882   7.0056   7.0675   7.1653   7.3146   7.4749   7.5891   7.6311
     7.7322   7.8302   7.8325   7.8918   7.9268   7.9748   8.0232   8.0626
     8.1305   8.2229   8.3266   8.4108   8.4906   8.5520   8.6173   8.8134
     8.9318   8.9768   9.0335   9.1527   9.2155   9.4397   9.6164   9.6409
     9.7473   9.8676   9.9723   9.9936  10.0298  10.2063  10.3220  10.3700
    10.5180  10.5394  10.6423  10.8108  10.9059  10.9272  11.0114  11.0244
[...]
     atom   17 type  2   force =     0.01051058    0.00298972   -0.00415932
     atom   18 type  1   force =     0.00160513   -0.00163204    0.00011626
     atom   19 type  1   force =    -0.00006749   -0.00038034   -0.00077475
     atom   20 type  1   force =     0.00001186    0.00299391    0.03155349
     atom   21 type  1   force =    -0.00398335   -0.00680401   -0.00233934
     atom   22 type  2   force =     0.01390543    0.00074403   -0.00137310
     atom   23 type  2   force =     0.00009467    0.00058690   -2.42908807
     atom   24 type  1   force =     0.04934308    0.03110416   -0.03369943
     atom   25 type  1   force =     0.05046113   -0.03150550   -0.03245673
     atom   26 type  1   force =    -0.00111155    0.00006520    0.00497504
     atom   27 type  3   force =     0.00006067    0.00161570    0.00029714
     atom   28 type  3   force =    -0.00000186   -0.00142440   -0.00002072
     atom   29 type  3   force =    -0.00069256    0.00033747   -0.00024718
     atom   30 type  3   force =    -0.00046980    0.00048183   -0.00020099
     atom   31 type  1   force =    -0.00006386    0.00010342    2.51926027

     Total force =     2.519260     Total SCF correction =     0.000448

     BFGS Geometry Optimization

     number of scf cycles    =   1
     number of bfgs steps    =   0

     energy   new            =   -2280.0414159518 Ry

     new trust radius        =       0.5000000000 bohr
     new conv_thr            =       0.0000010000 Ry

ATOMIC_POSITIONS (crystal)
O0       0.000000000   0.000000000   0.376930000    0   0   0
O0       0.000000000   0.500000000   0.399170000    0   0   0
Pt1      0.250000000   0.500000000   0.449030000    0   0   0
Pt1      0.000000000   0.000000000   0.451970000    0   0   0
O0       0.250000000   0.810000000   0.442770000    0   0   0
O0       0.250000000   0.190000000   0.459040000    0   0   0
O0       0.000000000   0.500000000   0.495410000    0   0   0
O0       0.000000000   0.000000000   0.529370000    0   0   0
Pt1      0.250000000   0.000000000   0.576120000    0   0   0
Pt1      0.000000000   0.500000000   0.574260000    0   0   0
O0       0.250000000   0.690000000   0.583080000    0   0   0
O0       0.250000000   0.310000000   0.583650000    0   0   0
O0       0.000000000   0.000000000   0.621610000    0   0   0
O0       0.500000000   0.000000000   0.376930000    0   0   0
O0       0.500000000   0.500000000   0.399170000    0   0   0
Pt1      0.750000000   0.500000000   0.449030000    0   0   0
Pt1      0.500000000   0.000000000   0.451970000    0   0   0
O0       0.750000000   0.810000000   0.442770000    0   0   0
O0       0.750000000   0.190000000   0.459040000    0   0   0
O0       0.500000000   0.500000000   0.495410000    0   0   0
O0       0.500000000   0.000000000   0.529370000    0   0   0
Pt1      0.750000000   0.000000000   0.576120000    0   0   0
Pt1      0.500000000   0.500000000   0.574260000    0   0   0
O0       0.750000000   0.690000000   0.583080000    0   0   0
O0       0.750000000   0.310000000   0.583650000    0   0   0
O0       0.500000000   0.000000000   0.621610000    0   0   0
H2      -0.000050000   0.640060000   0.383550000    0   0   0
H2       0.499950000   0.640060000   0.383550000    0   0   0
H2       0.144070000   0.031380000   0.366970000    0   0   0
H2       0.644070000   0.031380000   0.366970000    0   0   0
O0       0.499998962   0.500001673   0.634037777

     Check: negative starting charge=(component1):   -1.535007
     NEW-OLD atomic charge density approx. for the potential

     Check: negative/imaginary core charge=   -0.000003    0.000000
     Check: negative starting charge=(component1):   -1.536565

[...]

     energy   old            =   -2280.0414159518 Ry
     energy   new            =   -2280.7109780649 Ry

     CASE: energy  _new < energy  _old

[...]

     Total force =     0.001321     Total SCF correction =     0.000020

     number of scf cycles    =   7
     number of bfgs steps    =   6

     energy   old            =   -2280.8160319404 Ry
     energy   new            =   -2280.8161340773 Ry

     CASE: energy  _new < energy  _old

     new trust radius        =       0.0025251377 bohr
     new conv_thr            =       0.0000000102 Ry

ATOMIC_POSITIONS (crystal)
O0       0.000000000   0.000000000   0.376930000    0   0   0
O0       0.000000000   0.500000000   0.399170000    0   0   0
Pt1      0.250000000   0.500000000   0.449030000    0   0   0
Pt1      0.000000000   0.000000000   0.451970000    0   0   0
O0       0.250000000   0.810000000   0.442770000    0   0   0
O0       0.250000000   0.190000000   0.459040000    0   0   0
O0       0.000000000   0.500000000   0.495410000    0   0   0
O0       0.000000000   0.000000000   0.529370000    0   0   0
Pt1      0.250000000   0.000000000   0.576120000    0   0   0
Pt1      0.000000000   0.500000000   0.574260000    0   0   0
O0       0.250000000   0.690000000   0.583080000    0   0   0
O0       0.250000000   0.310000000   0.583650000    0   0   0
O0       0.000000000   0.000000000   0.621610000    0   0   0
O0       0.500000000   0.000000000   0.376930000    0   0   0
O0       0.500000000   0.500000000   0.399170000    0   0   0
Pt1      0.750000000   0.500000000   0.449030000    0   0   0
Pt1      0.500000000   0.000000000   0.451970000    0   0   0
O0       0.750000000   0.810000000   0.442770000    0   0   0
O0       0.750000000   0.190000000   0.459040000    0   0   0
O0       0.500000000   0.500000000   0.495410000    0   0   0
O0       0.500000000   0.000000000   0.529370000    0   0   0
Pt1      0.750000000   0.000000000   0.576120000    0   0   0
Pt1      0.500000000   0.500000000   0.574260000    0   0   0
O0       0.750000000   0.690000000   0.583080000    0   0   0
O0       0.750000000   0.310000000   0.583650000    0   0   0
O0       0.500000000   0.000000000   0.621610000    0   0   0
H2      -0.000050000   0.640060000   0.383550000    0   0   0
H2       0.499950000   0.640060000   0.383550000    0   0   0
H2       0.144070000   0.031380000   0.366970000    0   0   0
H2       0.644070000   0.031380000   0.366970000    0   0   0
O0       0.499986987   0.500188940   0.643813331

     Check: negative starting charge=(component1):   -1.536998
     NEW-OLD atomic charge density approx. for the potential

     Check: negative/imaginary core charge=   -0.000003    0.000000
     Check: negative starting charge=(component1):   -1.536999

[...]

     Self-consistent Calculation

[...]

     Threshold (ethr) on eigenvalues was too large:
     Diagonalizing with lowered threshold

     Davidson diagonalization with overlap
     ethr =  7.03E-09,  avg # of iterations =  1.0

[...]

     total energy              =   -2280.81613575 Ry
     Harris-Foulkes estimate   =   -2280.81613579 Ry
     estimated scf accuracy    <       0.00000002 Ry

[...]

     iteration # 48     ecut=    40.00 Ry     beta=0.30
     Davidson diagonalization with overlap
     ethr =  4.43E-12,  avg # of iterations =  2.0

     negative rho (up, down):  0.791E+00 0.791E+00

     End of self-consistent calculation

 ------ SPIN UP ------------

[...]

 ------ SPIN DOWN ----------

[...]

          k = 0.2500-0.4976 0.0000 ( 32026 PWs)   bands (ev):

[...]

          k =-0.2500 0.2488 0.0000 ( 32025 PWs)   bands (ev):

   -56.2997 -56.2842 -56.1020 -56.0982 -56.0625 -56.0618 -56.0253 -55.9882
   -55.9869 -55.9847 -55.9478 -55.8758 -55.8723 -55.7776 -55.7540 -55.7209
   -55.7167 -55.7157 -55.7117 -55.6962 -55.6762 -55.2836 -55.0497 -54.8090
   -22.2295 -21.9587 -21.3324 -21.1023 -20.8414 -20.6495 -20.6164 -20.5266
   -20.5053 -20.4382 -20.3466 -20.3208 -20.2479 -20.1770 -20.1054 -20.0268
   -19.1700 -19.0444 -18.5675 -10.3034 -10.0623  -9.9194  -9.8764  -9.4508
    -9.3827  -9.2761  -9.1993  -9.1359  -9.0809  -8.9031  -8.8940  -8.8251
    -8.6771  -8.5996  -8.5737  -8.4286  -8.3038  -8.0921  -7.9698  -7.8524
    -7.7298  -7.6313  -7.4274  -7.2052  -7.1382  -6.9748  -6.9124  -6.8620
    -6.8129  -6.7437  -6.6460  -6.5567  -6.4795  -6.4301  -6.3081  -6.1766
    -6.1237  -5.9579  -5.8712  -5.7637  -5.6459  -5.5952  -5.5389  -5.3171
    -5.2756  -5.1151  -5.0415  -4.9625  -4.8263  -4.7822  -4.5225  -4.4643
    -4.3880  -4.2743  -4.2065  -4.0636  -4.0095  -3.9131  -3.8569  -3.7897
    -3.7288  -3.6069  -3.5788  -3.5389  -3.4860  -3.3440  -3.2465  -3.1762
    -2.9189  -2.7586  -2.6271  -2.4856  -2.3717  -2.2847  -2.2140  -2.1056
    -1.9499  -1.8329  -1.7906  -1.6669  -1.5565  -1.2187  -0.9628  -0.7683
    -0.4403  -0.2918   0.1214   0.2927   0.5150   0.6722   0.7325   0.8932
     1.0696   1.2195   1.2686   1.7783   2.8781   3.8280   4.6382   4.8855
     4.9779   5.1184   5.3569   5.6458   5.7353   6.0583   6.1653   6.2239
     6.4465   6.4753   6.6739   6.8452   6.9182   7.0209   7.0952   7.1879
     7.3403   7.3891   7.4523   7.5257   7.6144   7.8277   7.8837   7.9183
     8.0527   8.1343   8.2846   8.3627   8.5110   8.6025   8.7047   8.7530
     8.8542   8.9785   9.0869   9.3219   9.3759   9.4458   9.4827   9.6082
     9.6514   9.7539   9.9761  10.0724  10.1921  10.2452  10.3831  10.4611
    10.5324  10.5758  10.7350  10.8108  10.8383  10.9255  11.0509  11.1223
    11.2513  11.3079  11.3472  11.4484  11.4710  11.6368  11.7239  11.7654
    11.8068  11.8978  11.9328  12.0301  12.0957  12.1140  12.2619  12.3170
    12.3855  12.4801  12.5206  12.5761  12.6628  12.7407  12.7954  12.8484
    12.9082  12.9952  13.0779  13.1172  13.2289  13.3337  13.4258  13.5032
    13.6426  13.6786  13.7771  13.8550  13.9039  13.9778  13.9983  14.0832
    14.1257  14.2248  14.4064  14.4872  14.5564  14.6297  14.6793  14.8214
    14.8674  14.9531  15.0311  15.0954  15.2722  15.3086  15.3690  15.4403
    15.5075  15.5878  15.6064  15.6902  15.7216  15.7926  15.8631  15.8742
    15.9139  15.9964  16.0605  16.1000  16.1089  16.1472  16.2186  16.2361
    16.2785  16.2955  16.3059  16.3220  16.3312  16.3510  16.4454  16.5326
    16.6173  16.7635  16.8437  16.8715  16.9305  16.9508  17.0360  17.0692
    17.1366  17.1896  17.2161  17.2288  17.2567  17.2903  17.4319  17.4983
    17.5615  17.6080  17.6394  17.6814  17.7524  17.8273  17.9179  18.0261
    18.0744  18.1386  18.1553  18.2552  18.3314  18.3889  18.4325  18.4957
    18.6110  18.6480  18.7008  18.7331  18.8581  18.9047  18.9160  19.0095
    19.0684  19.1489  19.1799  19.2662  19.2714  19.4289  19.5191  19.5558
    19.6170  19.7289  19.7745  19.8953  19.9274  19.9471  19.9896  20.0306
    20.0598  20.1641  20.2670  20.2791  20.3746  20.4061  20.4999  20.5805
    20.6201  20.7063  20.7804  20.8267  20.8826  21.0023  21.0442  21.0748
    21.1801  21.2838  21.3343  21.4129  21.4668  21.5225  21.5579  21.5737
    21.6346  21.6781  21.7875  21.8113  21.8703  21.9040  22.0198  22.0530
    22.0878

     the Fermi energy is    -1.7269 ev

!    total energy              =   -2280.81613578 Ry
     Harris-Foulkes estimate   =   -2280.81613577 Ry
     estimated scf accuracy    <          5.2E-09 Ry

     The total energy is the sum of the following terms:

     one-electron contribution =  -23443.50398553 Ry
     hartree contribution      =   11761.19837528 Ry
     xc contribution           =    -571.97755269 Ry
     ewald contribution        =    9973.46747563 Ry
     smearing contrib. (-TS)   =      -0.00044846 Ry

     total magnetization       =    -0.00 Bohr mag/cell
     absolute magnetization    =     0.00 Bohr mag/cell

     convergence has been achieved in  48 iterations

     Forces acting on atoms (Ry/au):

     negative rho (up, down):  0.791E+00 0.791E+00
     atom    1 type  1   force =    -0.00757632   -0.00539360    0.00085742
     atom    2 type  1   force =     0.00010234    0.00278226    0.00834518
     atom    3 type  2   force =     0.00596720    0.00300901    0.00531199
     atom    4 type  2   force =     0.01064957    0.00238119    0.00170150
     atom    5 type  1   force =     0.00080769   -0.00211173   -0.00032944
     atom    6 type  1   force =    -0.00016399   -0.00012154   -0.00100117
     atom    7 type  1   force =     0.00005980    0.00418567    0.00782603
     atom    8 type  1   force =    -0.00397423   -0.00732662    0.00170671
     atom    9 type  2   force =     0.00057805    0.00104533    0.00024358
     atom   10 type  2   force =    -0.00003590   -0.00148063    0.00113996
     atom   11 type  1   force =    -0.01693185    0.00545522   -0.02584208
     atom   12 type  1   force =    -0.01718383   -0.00533324   -0.02427444
     atom   13 type  1   force =    -0.00106638   -0.00004071   -0.00453709
     atom   14 type  1   force =    -0.00769197   -0.00468793    0.00213842
     atom   15 type  1   force =     0.00010387    0.00549221   -0.00800370
     atom   16 type  2   force =    -0.00685150    0.00284339    0.00532776
     atom   17 type  2   force =     0.01054442    0.00273345   -0.00105987
     atom   18 type  1   force =     0.00123810   -0.00210692   -0.00028491
     atom   19 type  1   force =     0.00005427   -0.00002963   -0.00103957
     atom   20 type  1   force =     0.00004401    0.00358169    0.01339176
     atom   21 type  1   force =    -0.00397378   -0.00689228   -0.00123185
     atom   22 type  2   force =     0.00295560    0.00111705    0.00022464
     atom   23 type  2   force =    -0.00001877   -0.00069944    0.07330837
     atom   24 type  1   force =     0.01690795    0.00545755   -0.02584579
     atom   25 type  1   force =     0.01736958   -0.00534761   -0.02424326
     atom   26 type  1   force =    -0.00111358    0.00009757   -0.00286492
     atom   27 type  3   force =     0.00004400    0.00106148    0.00032324
     atom   28 type  3   force =    -0.00000724   -0.00066497   -0.00024533
     atom   29 type  3   force =    -0.00051135    0.00038574   -0.00052216
     atom   30 type  3   force =    -0.00032225    0.00047674   -0.00054555
     atom   31 type  1   force =    -0.00000349    0.00013130    0.00002459

     Total force =     0.000134     Total SCF correction =     0.000014
     SCF correction compared to forces is large: reduce conv_thr to get better values

     bfgs converged in   8 scf cycles and   7 bfgs steps
     (criteria: energy < 0.10E-03, force < 0.10E-02)

     End of BFGS Geometry Optimization

     Final energy   =   -2280.8161357757 Ry
Begin final coordinates

ATOMIC_POSITIONS (crystal)
O0       0.000000000   0.000000000   0.376930000    0   0   0
O0       0.000000000   0.500000000   0.399170000    0   0   0
Pt1      0.250000000   0.500000000   0.449030000    0   0   0
Pt1      0.000000000   0.000000000   0.451970000    0   0   0
O0       0.250000000   0.810000000   0.442770000    0   0   0
O0       0.250000000   0.190000000   0.459040000    0   0   0
O0       0.000000000   0.500000000   0.495410000    0   0   0
O0       0.000000000   0.000000000   0.529370000    0   0   0
Pt1      0.250000000   0.000000000   0.576120000    0   0   0
Pt1      0.000000000   0.500000000   0.574260000    0   0   0
O0       0.250000000   0.690000000   0.583080000    0   0   0
O0       0.250000000   0.310000000   0.583650000    0   0   0
O0       0.000000000   0.000000000   0.621610000    0   0   0
O0       0.500000000   0.000000000   0.376930000    0   0   0
O0       0.500000000   0.500000000   0.399170000    0   0   0
Pt1      0.750000000   0.500000000   0.449030000    0   0   0
Pt1      0.500000000   0.000000000   0.451970000    0   0   0
O0       0.750000000   0.810000000   0.442770000    0   0   0
O0       0.750000000   0.190000000   0.459040000    0   0   0
O0       0.500000000   0.500000000   0.495410000    0   0   0
O0       0.500000000   0.000000000   0.529370000    0   0   0
Pt1      0.750000000   0.000000000   0.576120000    0   0   0
Pt1      0.500000000   0.500000000   0.574260000    0   0   0
O0       0.750000000   0.690000000   0.583080000    0   0   0
O0       0.750000000   0.310000000   0.583650000    0   0   0
O0       0.500000000   0.000000000   0.621610000    0   0   0
H2      -0.000050000   0.640060000   0.383550000    0   0   0
H2       0.499950000   0.640060000   0.383550000    0   0   0
H2       0.144070000   0.031380000   0.366970000    0   0   0
H2       0.644070000   0.031380000   0.366970000    0   0   0
O0       0.499986987   0.500188940   0.643813331
End final coordinates

     General routines

     Parallel routines

   This run was terminated on:  22:25: 1  25Mar2014

   JOB DONE.
Running PBS batch system epilogue script
Job id: 312954.audhumbla.fysik.dtu.dk
Username: zhonxu
Groupname: campgst
Jobname: PtO2/Eads-2-layers/O
Sessionid: 20631
Queuename: verylong
Accounting:
This job has allocated the following 16 nodes:
b123 b123 b123 b123 b123 b123 b123 b123 b087 b087 b087 b087 b087 b087 b087 b087
Finished epilogue job 312954.audhumbla.fysik.dtu.dk for zhonxu