     Program PWSCF v.5.0.2 (svn rev. 9656) starts on  9Aug2014 at 11:15: 9

     Current dimensions of program PWSCF are:
     Max number of different atomic species (ntypx) = 10
     Max number of k-points (npk) =  40000
     Max angular momentum in pseudopotentials (lmaxx) =  3
     Reading input from pwscf.in
Warning: card &CELL ignored
Warning: card / ignored

     Subspace diagonalization in iterative solution of the eigenvalue problem:
     a serial algorithm will be used

     bravais-lattice index     =            0
     lattice parameter (alat)  =      10.3179  a.u.
     unit-cell volume          =    6964.3238 (a.u.)^3
     number of atoms/cell      =           32
     number of atomic types    =            3
     number of electrons       =       231.00
     number of Kohn-Sham states=          346
     kinetic-energy cutoff     =      40.0000  Ry
     charge density cutoff     =     500.0000  Ry
     convergence threshold     =      1.0E-06
     mixing beta               =       0.7000
     number of iterations used =            8  plain     mixing
     Exchange-correlation      = SLA  PW   PBE  PBE ( 1 4 3 4 0)
     EXX-fraction              =        0.00
     nstep                     =           50

     celldm(1)=  10.317905  celldm(2)=   0.000000  celldm(3)=   0.000000
     celldm(4)=   0.000000  celldm(5)=   0.000000  celldm(6)=   0.000000

     crystal axes: (cart. coord. in units of alat)
               a(1) = (   1.000000   0.000000   0.000000 )
               a(2) = (   0.000000   1.282117   0.000000 )
               a(3) = (   0.000000   0.000000   4.945120 )

     reciprocal axes: (cart. coord. in units 2 pi/alat)
               b(1) = (  1.000000  0.000000  0.000000 )
               b(2) = (  0.000000  0.779960  0.000000 )
               b(3) = (  0.000000  0.000000  0.202220 )

     PseudoPot. # 1 for O  read from file:
     /home-research/zhongnanxu/gbrv_espresso_pseudo_v1.01/o_pbe_v1.01.uspp.F.UPF
     MD5 check sum: 2bcb18d16ea4b960afae9ec6d52f22d2
     Pseudo is Ultrasoft + core correction, Zval =  6.0
     Generated by new atomic code, or converted to UPF format
     Using radial grid of  737 points,  5 beta functions with:
                l(1) =   0
                l(2) =   0
                l(3) =   1
                l(4) =   1
                l(5) =   2
     Q(r) pseudized with  8 coefficients,  rinner =    0.900   0.900   0.900
                                                       0.900   0.900

     PseudoPot. # 2 for Mo read from file:
     /home-research/zhongnanxu/gbrv_espresso_pseudo_v1.01/mo_pbe_v1.uspp.F.UPF
     MD5 check sum: 30c4dcd161f5d35cd49bb5239c51a633
     Pseudo is Ultrasoft + core correction, Zval = 14.0
     Generated by new atomic code, or converted to UPF format
     Using radial grid of  889 points,  6 beta functions with:
                l(1) =   0
                l(2) =   0
                l(3) =   1
                l(4) =   1
                l(5) =   2
                l(6) =   2
     Q(r) pseudized with  6 coefficients,  rinner =    1.000   1.000   1.000
                                                       1.000   1.000

     PseudoPot. # 3 for H  read from file:
     /home-research/zhongnanxu/gbrv_espresso_pseudo_v1.01/h_pbe_v1.uspp.F.UPF
     MD5 check sum: 3408e3ff4ec8b0a4e358431e7e038a48
     Pseudo is Ultrasoft, Zval =  1.0
     Generated by new atomic code, or converted to UPF format
     Using radial grid of  615 points,  2 beta functions with:
                l(1) =   0
                l(2) =   0
     Q(r) pseudized with  8 coefficients,  rinner =    0.700

     atomic species   valence    mass     pseudopotential
        O0             6.00    15.99940     O ( 1.00)
        Mo1           14.00    95.94000     Mo( 1.00)
        H2             1.00     1.00794     H ( 1.00)

     Simplified LDA+U calculation (l_max = 2) with parameters (eV):
     atomic species    L          U    alpha       J0     beta
        Mo1            2     6.0000   0.0000   0.0000   0.0000

     No symmetry found

   Cartesian axes

     site n.     atom                  positions (alat units)
         1           O0  tau(   1) = (   0.0000000   0.0000000   1.8362221  )
         2           O0  tau(   2) = (   0.0000000   0.6410583   1.8932888  )
         3           Mo1 tau(   3) = (   0.2500000   0.6410583   2.1787211  )
         4           Mo1 tau(   4) = (   0.0000000   0.0000000   2.1942488  )
         5           O0  tau(   5) = (   0.2500000   1.0000510   2.1917762  )
         6           O0  tau(   6) = (   0.2500000   0.2820657   2.1916279  )
         7           O0  tau(   7) = (   0.0000000   0.6410583   2.4619282  )
         8           O0  tau(   8) = (   0.0000000   0.0000000   2.5552920  )
         9           Mo1 tau(   9) = (   0.2500000   0.0000000   2.8451750  )
        10           Mo1 tau(  10) = (   0.0000000   0.6410583   2.7951798  )
        11           O0  tau(  11) = (   0.2500000   0.9231240   2.8229220  )
        12           O0  tau(  12) = (   0.2500000   0.3589927   2.8238121  )
        13           O0  tau(  13) = (   0.0000000   0.0000000   3.0959420  )
        14           O0  tau(  14) = (   0.5000000   0.0000000   1.8365188  )
        15           O0  tau(  15) = (   0.5000000   0.6410583   1.8939316  )
        16           Mo1 tau(  16) = (   0.7500000   0.6410583   2.1784244  )
        17           Mo1 tau(  17) = (   0.5000000   0.0000000   2.1964741  )
        18           O0  tau(  18) = (   0.7500000   1.0000510   2.1920730  )
        19           O0  tau(  19) = (   0.7500000   0.2820657   2.1913806  )
        20           O0  tau(  20) = (   0.5000000   0.6410583   2.4641535  )
        21           O0  tau(  21) = (   0.5000000   0.0000000   2.5544514  )
        22           Mo1 tau(  22) = (   0.7500000   0.0000000   2.8455212  )
        23           Mo1 tau(  23) = (   0.5000000   0.6410583   2.8262846  )
        24           O0  tau(  24) = (   0.7500000   0.9231240   2.8210923  )
        25           O0  tau(  25) = (   0.7500000   0.3589927   2.8208450  )
        26           O0  tau(  26) = (   0.5000000   0.0000000   3.0950519  )
        27           H2  tau(  27) = (  -0.0007600   0.7828861   1.7821225  )
        28           H2  tau(  28) = (   0.4995000   0.7914763   1.7941391  )
        29           H2  tau(  29) = (   0.1669200   0.0220268   1.7647651  )
        30           H2  tau(  30) = (   0.6653100   0.0245269   1.7632816  )
        31           O0  tau(  31) = (   0.5147600   0.6413532   3.1767948  )
        32           H2  tau(  32) = (   0.3891500   0.6353401   3.3044778  )

     number of k points=    10  Methfessel-Paxton smearing, width (Ry)=  0.0100
                       cart. coord. in units 2pi/alat
        k(    1) = (   0.0000000   0.0000000   0.0000000), wk =   0.1250000
        k(    2) = (   0.0000000   0.1949901   0.0000000), wk =   0.2500000
        k(    3) = (   0.0000000  -0.3899801   0.0000000), wk =   0.1250000
        k(    4) = (   0.2500000   0.0000000   0.0000000), wk =   0.2500000
        k(    5) = (   0.2500000   0.1949901   0.0000000), wk =   0.2500000
        k(    6) = (   0.2500000  -0.3899801   0.0000000), wk =   0.2500000
        k(    7) = (  -0.5000000   0.0000000   0.0000000), wk =   0.1250000
        k(    8) = (  -0.5000000   0.1949901   0.0000000), wk =   0.2500000
        k(    9) = (  -0.5000000  -0.3899801   0.0000000), wk =   0.1250000
        k(   10) = (  -0.2500000   0.1949901   0.0000000), wk =   0.2500000

     Largest allocated arrays     est. size (Mb)     dimensions
     Largest temporary arrays     est. size (Mb)     dimensions

     Check: negative/imaginary core charge=   -0.000003    0.000000

     Initial potential from superposition of free atoms
     Check: negative starting charge=   -0.002345

     starting charge  230.99142, renormalised to  231.00000

     negative rho (up, down):  0.235E-02 0.000E+00
     Number of +U iterations with fixed ns =  0
     Starting occupations:
 --- enter write_ns ---
 LDA+U parameters:
U( 2)     =  6.00000000
alpha( 2) =  0.00000000
atom    3   Tr[ns(na)] =   5.00000
    eigenvalues:
  0.500  0.500  0.500  0.500  0.500
    eigenvectors:
  1.000  0.000  0.000  0.000  0.000
  0.000  1.000  0.000  0.000  0.000
  0.000  0.000  1.000  0.000  0.000
  0.000  0.000  0.000  1.000  0.000
  0.000  0.000  0.000  0.000  1.000
    occupations:
  0.500  0.000  0.000  0.000  0.000
  0.000  0.500  0.000  0.000  0.000
  0.000  0.000  0.500  0.000  0.000
  0.000  0.000  0.000  0.500  0.000
  0.000  0.000  0.000  0.000  0.500
atom    4   Tr[ns(na)] =   5.00000
    eigenvalues:
  0.500  0.500  0.500  0.500  0.500
    eigenvectors:
  1.000  0.000  0.000  0.000  0.000
  0.000  1.000  0.000  0.000  0.000
  0.000  0.000  1.000  0.000  0.000
  0.000  0.000  0.000  1.000  0.000
  0.000  0.000  0.000  0.000  1.000
    occupations:
  0.500  0.000  0.000  0.000  0.000
  0.000  0.500  0.000  0.000  0.000
  0.000  0.000  0.500  0.000  0.000
  0.000  0.000  0.000  0.500  0.000
  0.000  0.000  0.000  0.000  0.500
atom    9   Tr[ns(na)] =   5.00000
    eigenvalues:
  0.500  0.500  0.500  0.500  0.500
    eigenvectors:
  1.000  0.000  0.000  0.000  0.000
  0.000  1.000  0.000  0.000  0.000
  0.000  0.000  1.000  0.000  0.000
  0.000  0.000  0.000  1.000  0.000
  0.000  0.000  0.000  0.000  1.000
    occupations:
  0.500  0.000  0.000  0.000  0.000
  0.000  0.500  0.000  0.000  0.000
  0.000  0.000  0.500  0.000  0.000
  0.000  0.000  0.000  0.500  0.000
  0.000  0.000  0.000  0.000  0.500
atom   10   Tr[ns(na)] =   5.00000
    eigenvalues:
  0.500  0.500  0.500  0.500  0.500
    eigenvectors:
  1.000  0.000  0.000  0.000  0.000
  0.000  1.000  0.000  0.000  0.000
  0.000  0.000  1.000  0.000  0.000
  0.000  0.000  0.000  1.000  0.000
  0.000  0.000  0.000  0.000  1.000
    occupations:
  0.500  0.000  0.000  0.000  0.000
  0.000  0.500  0.000  0.000  0.000
  0.000  0.000  0.500  0.000  0.000
  0.000  0.000  0.000  0.500  0.000
  0.000  0.000  0.000  0.000  0.500
atom   16   Tr[ns(na)] =   5.00000
    eigenvalues:
  0.500  0.500  0.500  0.500  0.500
    eigenvectors:
  1.000  0.000  0.000  0.000  0.000
  0.000  1.000  0.000  0.000  0.000
  0.000  0.000  1.000  0.000  0.000
  0.000  0.000  0.000  1.000  0.000
  0.000  0.000  0.000  0.000  1.000
    occupations:
  0.500  0.000  0.000  0.000  0.000
  0.000  0.500  0.000  0.000  0.000
  0.000  0.000  0.500  0.000  0.000
  0.000  0.000  0.000  0.500  0.000
  0.000  0.000  0.000  0.000  0.500
atom   17   Tr[ns(na)] =   5.00000
    eigenvalues:
  0.500  0.500  0.500  0.500  0.500
    eigenvectors:
  1.000  0.000  0.000  0.000  0.000
  0.000  1.000  0.000  0.000  0.000
  0.000  0.000  1.000  0.000  0.000
  0.000  0.000  0.000  1.000  0.000
  0.000  0.000  0.000  0.000  1.000
    occupations:
  0.500  0.000  0.000  0.000  0.000
  0.000  0.500  0.000  0.000  0.000
  0.000  0.000  0.500  0.000  0.000
  0.000  0.000  0.000  0.500  0.000
  0.000  0.000  0.000  0.000  0.500
atom   22   Tr[ns(na)] =   5.00000
    eigenvalues:
  0.500  0.500  0.500  0.500  0.500
    eigenvectors:
  1.000  0.000  0.000  0.000  0.000
  0.000  1.000  0.000  0.000  0.000
[...]
  0.000  0.000  0.000  0.006  0.994
  0.000  1.000  0.000  0.000  0.000
    occupations:
  0.589  0.003  0.002  0.001  0.000
  0.003  0.653  0.003 -0.010 -0.001
  0.002  0.003  0.362  0.001 -0.001
  0.001 -0.010  0.001  0.784  0.000
  0.000 -0.001 -0.001  0.000  0.521
atom    9   Tr[ns(na)] =   5.81524
    eigenvalues:
  0.427  0.471  0.593  0.605  0.811
    eigenvectors:
  0.000  0.000  0.001  0.244  0.755
  0.000  0.000  0.996  0.004  0.000
  0.144  0.856  0.000  0.000  0.000
  0.000  0.000  0.003  0.752  0.245
  0.856  0.144  0.000  0.000  0.000
    occupations:
  0.760 -0.001  0.000 -0.089 -0.001
 -0.001  0.593 -0.001  0.000  0.000
  0.000 -0.001  0.465  0.000  0.016
 -0.089  0.000  0.000  0.655  0.000
 -0.001  0.000  0.016  0.000  0.433
atom   10   Tr[ns(na)] =   5.71033
    eigenvalues:
  0.300  0.444  0.510  0.713  0.889
    eigenvectors:
  0.000  0.983  0.000  0.016  0.000
  0.000  0.000  0.000  0.001  0.999
  0.999  0.000  0.000  0.000  0.000
  0.000  0.016  0.000  0.983  0.001
  0.000  0.000  1.000  0.000  0.000
    occupations:
  0.448 -0.004 -0.003  0.034  0.000
 -0.004  0.888 -0.002 -0.004 -0.001
 -0.003 -0.002  0.300 -0.003  0.004
  0.034 -0.004 -0.003  0.709  0.000
  0.000 -0.001  0.004  0.000  0.510
atom   16   Tr[ns(na)] =   5.81287
    eigenvalues:
  0.414  0.508  0.577  0.619  0.788
    eigenvectors:
  0.009  0.015  0.301  0.000  0.675
  0.000  0.969  0.028  0.002  0.001
  0.908  0.000  0.000  0.082  0.010
  0.001  0.015  0.664  0.006  0.314
  0.082  0.001  0.007  0.909  0.000
    occupations:
  0.717 -0.014  0.032 -0.098 -0.003
 -0.014  0.511 -0.003 -0.005 -0.004
  0.032 -0.003  0.435 -0.015  0.056
 -0.098 -0.005 -0.015  0.642  0.003
 -0.003 -0.004  0.056  0.003  0.601
atom   17   Tr[ns(na)] =   5.81584
    eigenvalues:
  0.375  0.518  0.584  0.659  0.773
    eigenvectors:
  0.000  0.000  0.967  0.033  0.000
  0.000  0.000  0.031  0.952  0.017
  0.999  0.000  0.000  0.000  0.000
  0.000  0.000  0.002  0.016  0.983
  0.000  0.999  0.000  0.000  0.000
    occupations:
  0.586  0.013  0.002  0.006  0.000
  0.013  0.658  0.004 -0.015 -0.002
  0.002  0.004  0.375 -0.002  0.003
  0.006 -0.015 -0.002  0.771  0.000
  0.000 -0.002  0.003  0.000  0.518
atom   22   Tr[ns(na)] =   5.84777
    eigenvalues:
  0.481  0.511  0.610  0.622  0.699
    eigenvectors:
  0.000  0.000  0.158  0.001  0.841
  0.000  0.000  0.007  0.993  0.000
  0.185  0.815  0.000  0.000  0.000
  0.000  0.000  0.835  0.006  0.158
  0.814  0.185  0.000  0.000  0.000
    occupations:
  0.685  0.001 -0.001 -0.032 -0.003
  0.001  0.622  0.000  0.001  0.000
 -0.001  0.000  0.506  0.001 -0.012
 -0.032  0.001  0.001  0.624  0.002
 -0.003  0.000 -0.012  0.002  0.487
atom   23   Tr[ns(na)] =   5.85826
    eigenvalues:
  0.452  0.504  0.531  0.610  0.833
    eigenvectors:
  0.012  0.000  0.000  0.977  0.011
  0.988  0.000  0.000  0.012  0.000
  0.000  0.971  0.029  0.000  0.000
  0.000  0.000  0.000  0.011  0.989
  0.000  0.029  0.971  0.000  0.000
    occupations:
  0.610  0.017  0.000 -0.024  0.000
  0.017  0.454  0.000 -0.001  0.000
  0.000  0.000  0.504  0.000 -0.005
 -0.024 -0.001  0.000  0.831  0.000
  0.000  0.000 -0.005  0.000  0.530
N of occupied +U levels =  46.4977696
 --- exit write_ns ---

     Threshold (ethr) on eigenvalues was too large:
     Diagonalizing with lowered threshold

     Davidson diagonalization with overlap
     ethr =  1.97E-08,  avg # of iterations =  2.7

[...]

     total energy              =   -1729.58987375 Ry
     Harris-Foulkes estimate   =   -1729.58987376 Ry
     estimated scf accuracy    <       0.00000003 Ry

     iteration # 21     ecut=    40.00 Ry     beta=0.70
     Davidson diagonalization with overlap
     ethr =  1.15E-11,  avg # of iterations =  2.0

     negative rho (up, down):  0.349E-02 0.000E+00

     End of self-consistent calculation
 --- enter write_ns ---
 LDA+U parameters:
U( 2)     =  6.00000000
alpha( 2) =  0.00000000
atom    3   Tr[ns(na)] =   5.82006
    eigenvalues:
  0.383  0.508  0.574  0.671  0.774
    eigenvectors:
  0.010  0.013  0.279  0.000  0.697
  0.000  0.970  0.027  0.002  0.001
  0.956  0.000  0.001  0.033  0.011
  0.001  0.015  0.692  0.001  0.291
  0.034  0.002  0.001  0.964  0.000
    occupations:
  0.711  0.013  0.035 -0.090  0.003
  0.013  0.510  0.002  0.005 -0.007
  0.035  0.002  0.396 -0.016 -0.052
 -0.090  0.005 -0.016  0.631 -0.002
  0.003 -0.007 -0.052 -0.002  0.661
atom    4   Tr[ns(na)] =   5.81709
    eigenvalues:
  0.362  0.521  0.589  0.652  0.785
    eigenvectors:
  0.000  0.000  0.997  0.002  0.000
  0.000  0.000  0.002  0.991  0.006
  1.000  0.000  0.000  0.000  0.000
  0.000  0.000  0.000  0.006  0.994
  0.000  1.000  0.000  0.000  0.000
    occupations:
  0.589  0.003  0.002  0.001  0.000
  0.003  0.652  0.003 -0.010 -0.001
  0.002  0.003  0.362  0.001 -0.001
  0.001 -0.010  0.001  0.784  0.000
  0.000 -0.001 -0.001  0.000  0.521
atom    9   Tr[ns(na)] =   5.81295
    eigenvalues:
  0.426  0.471  0.593  0.605  0.812
    eigenvectors:
  0.000  0.000  0.001  0.245  0.754
  0.000  0.000  0.996  0.004  0.000
  0.144  0.856  0.000  0.000  0.000
  0.000  0.000  0.003  0.751  0.246
  0.856  0.144  0.000  0.000  0.000
    occupations:
  0.761 -0.001  0.000 -0.089 -0.001
 -0.001  0.593 -0.001  0.000  0.000
  0.000 -0.001  0.464  0.000  0.016
 -0.089  0.000  0.000  0.656  0.000
 -0.001  0.000  0.016  0.000  0.433
atom   10   Tr[ns(na)] =   5.71017
    eigenvalues:
  0.300  0.444  0.510  0.713  0.888
    eigenvectors:
  0.000  0.983  0.000  0.016  0.000
  0.000  0.000  0.000  0.001  0.999
  0.999  0.000  0.000  0.000  0.000
  0.000  0.016  0.000  0.983  0.001
  0.000  0.000  1.000  0.000  0.000
    occupations:
  0.448 -0.004 -0.003  0.034  0.000
 -0.004  0.888 -0.002 -0.004 -0.001
 -0.003 -0.002  0.301 -0.003  0.004
  0.034 -0.004 -0.003  0.709  0.000
  0.000 -0.001  0.004  0.000  0.509
atom   16   Tr[ns(na)] =   5.81228
    eigenvalues:
  0.415  0.508  0.577  0.618  0.788
    eigenvectors:
  0.009  0.015  0.301  0.000  0.674
  0.000  0.969  0.028  0.002  0.001
  0.906  0.000  0.000  0.084  0.010
  0.001  0.015  0.663  0.007  0.314
  0.084  0.001  0.007  0.907  0.000
    occupations:
  0.717 -0.014  0.032 -0.098 -0.003
 -0.014  0.511 -0.003 -0.005 -0.004
  0.032 -0.003  0.436 -0.015  0.056
 -0.098 -0.005 -0.015  0.643  0.003
 -0.003 -0.004  0.056  0.003  0.600
atom   17   Tr[ns(na)] =   5.81559
    eigenvalues:
  0.374  0.518  0.583  0.659  0.773
    eigenvectors:
  0.000  0.000  0.966  0.033  0.000
  0.000  0.000  0.032  0.950  0.018
  0.999  0.000  0.000  0.000  0.000
  0.000  0.000  0.002  0.017  0.981
  0.000  0.999  0.000  0.000  0.000
    occupations:
  0.586  0.013  0.002  0.006  0.000
  0.013  0.659  0.004 -0.016 -0.002
  0.002  0.004  0.375 -0.002  0.003
  0.006 -0.016 -0.002  0.771  0.000
  0.000 -0.002  0.003  0.000  0.518
atom   22   Tr[ns(na)] =   5.85165
    eigenvalues:
  0.482  0.513  0.610  0.623  0.698
    eigenvectors:
  0.000  0.000  0.156  0.001  0.843
  0.000  0.000  0.007  0.993  0.000
  0.185  0.815  0.000  0.000  0.000
  0.000  0.000  0.837  0.006  0.157
  0.814  0.185  0.000  0.000  0.000
    occupations:
  0.684  0.001 -0.001 -0.032 -0.003
  0.001  0.623  0.000  0.001  0.000
 -0.001  0.000  0.507  0.001 -0.012
 -0.032  0.001  0.001  0.624  0.002
 -0.003  0.000 -0.012  0.002  0.488
atom   23   Tr[ns(na)] =   5.85736
    eigenvalues:
  0.452  0.503  0.531  0.610  0.833
    eigenvectors:
  0.012  0.000  0.000  0.977  0.011
  0.988  0.000  0.000  0.012  0.000
  0.000  0.971  0.029  0.000  0.000
  0.000  0.000  0.000  0.011  0.989
  0.000  0.029  0.971  0.000  0.000
    occupations:
  0.610  0.017  0.000 -0.024  0.000
  0.017  0.454  0.000 -0.001  0.000
  0.000  0.000  0.504  0.000 -0.005
 -0.024 -0.001  0.000  0.831  0.000
  0.000  0.000 -0.005  0.000  0.530
N of occupied +U levels =  46.4971451
 --- exit write_ns ---

[...]

          k = 0.2500-0.3900 0.0000 ( 29726 PWs)   bands (ev):

[...]

          k =-0.2500 0.1950 0.0000 ( 29746 PWs)   bands (ev):

   -62.4267 -62.3228 -62.1692 -61.8172 -61.8021 -61.7211 -61.6919 -61.4847
   -36.9349 -36.9074 -36.7896 -36.7107 -36.4274 -36.2959 -36.2169 -36.1812
   -36.1453 -36.1093 -36.0860 -36.0815 -36.0527 -36.0132 -35.9828 -35.9173
   -35.9029 -35.8951 -35.8516 -35.8275 -35.7701 -35.3017 -35.2833 -35.1346
   -20.2816 -20.0125 -19.8286 -19.6057 -19.4808 -19.3217 -19.2240 -19.1682
   -19.0725 -19.0199 -18.9101 -18.7604 -18.7352 -18.6660 -18.5394 -18.4517
   -18.3230 -18.1591 -17.9628  -8.6405  -8.3597  -8.1461  -8.1235  -7.8219
    -7.6677  -7.5410  -7.5043  -7.4127  -7.2635  -7.1406  -6.9904  -6.7692
    -6.7109  -6.4415  -6.3749  -6.2776  -6.1766  -6.0667  -5.8945  -5.8363
    -5.7437  -5.6097  -5.3742  -5.3574  -5.1490  -5.0339  -4.9288  -4.7681
    -4.6678  -4.5698  -4.4730  -4.3774  -4.3321  -4.2456  -4.1807  -4.1710
    -4.1217  -4.0904  -3.9933  -3.8169  -3.7127  -3.5751  -3.5113  -3.4853
    -3.4291  -3.3206  -3.2373  -3.1600  -3.1217  -2.9926  -2.9116  -2.7764
    -2.6965  -2.5854  -2.5324  -2.2517  -1.9427  -1.8184  -1.7138  -0.7783
    -0.7301  -0.4462  -0.2823   0.4893   0.7185   0.7855   0.9134   1.0177
     1.2400   1.3162   1.4776   1.5567   1.6127   1.7160   1.7854   1.8558
     2.0273   2.1716   2.3486   2.5255   2.8871   3.5879   3.7097   3.7964
     4.0022   4.1595   4.2150   4.3946   4.5821   4.6025   4.6923   4.8740
     4.8933   4.9734   5.1006   5.3434   5.7244   5.9295   5.9615   6.1169
     6.2280   6.3661   6.4172   6.5194   6.5690   6.8333   7.0993   7.1233
     7.2586   7.3832   7.6242   7.6929   8.0099   8.1390   8.3163   8.3858
     8.5147   8.6410   8.7679   8.8918   8.9656   9.0898   9.1092   9.3025
     9.4419   9.4853   9.5727   9.6505   9.7250   9.8598   9.9129   9.9776
    10.1500  10.3625  10.4091  10.4874  10.5570  10.7274  10.7917  10.8839
    10.9439  11.0417  11.1971  11.2520  11.4067  11.5563  11.6787  11.7063
    11.8182  11.8957  11.9378  12.0478  12.0979  12.1972  12.2854  12.3487
    12.4122  12.4792  12.5148  12.6618  12.7671  12.8954  12.9841  13.0474
    13.1253  13.2028  13.2879  13.3660  13.3855  13.4662  13.5213  13.5573
    13.6962  13.8073  13.8567  13.9255  13.9812  14.0144  14.0712  14.1345
    14.2208  14.2375  14.2808  14.3514  14.4197  14.4932  14.5525  14.6383
    14.7355  14.7779  14.8650  14.9490  15.0196  15.1251  15.1799  15.3040
    15.3712  15.4534  15.5372  15.5980  15.6506  15.7476  15.8049  15.9588
    15.9855  16.0749  16.1049  16.1595  16.2413  16.3500  16.4253  16.4549
    16.4915  16.5499  16.6007  16.6711  16.7935  16.8471  16.8889  16.9827
    17.0713  17.1130  17.1973  17.2594  17.3069  17.3768  17.4483  17.4948
    17.5358  17.6060  17.6897  17.8324  17.9360  17.9641  18.0803  18.1182
    18.2027  18.2720  18.3450  18.3734  18.4439  18.5728  18.6102  18.7324
    18.8095  18.8922  18.9793  19.0252  19.0693  19.1462  19.2789  19.3044
    19.3860  19.4498  19.5438  19.6159  19.7896  19.8180  19.9589  19.9967
    20.0436  20.1073  20.1388  20.1830  20.2232  20.2712  20.3312  20.3732
    20.4084  20.4944  20.5190  20.5979  20.6448  20.7630  20.7975  20.8454
    20.9187  21.0238  21.0666  21.1440  21.2377  21.3050  21.3624  21.3849
    21.4802  21.5009  21.5257  21.6041  21.6409  21.6919  21.7332  21.7793
    21.8260  21.9035

     the Fermi energy is     0.0960 ev

!    total energy              =   -1729.58987376 Ry
     Harris-Foulkes estimate   =   -1729.58987377 Ry
     estimated scf accuracy    <          8.8E-09 Ry

     The total energy is the sum of the following terms:

     one-electron contribution =  -22232.17267667 Ry
     hartree contribution      =   11142.84631683 Ry
     xc contribution           =    -294.64866003 Ry
     ewald contribution        =    9650.43559220 Ry
     Hubbard energy            =       3.94952004 Ry
     smearing contrib. (-TS)   =       0.00003386 Ry

     convergence has been achieved in  21 iterations

     Forces acting on atoms (Ry/au):

     negative rho (up, down):  0.349E-02 0.000E+00
     atom    1 type  1   force =     0.00153284   -0.00573805    0.00055926
     atom    2 type  1   force =    -0.00018853    0.01008246   -0.00024024
     atom    3 type  2   force =     0.02518414   -0.00586854    0.00003334
     atom    4 type  2   force =    -0.01682686    0.00441010   -0.00032026
     atom    5 type  1   force =     0.00406013   -0.01340949   -0.00076570
     atom    6 type  1   force =     0.00326165    0.01067971   -0.00078489
     atom    7 type  1   force =    -0.00030044    0.00329608   -0.00021982
     atom    8 type  1   force =    -0.00062604   -0.00003030   -0.00020827
     atom    9 type  2   force =     0.00409001   -0.00001325   -0.00062107
     atom   10 type  2   force =    -0.00422943    0.00015136    0.00055554
     atom   11 type  1   force =    -0.01155972    0.01234692    0.00040486
     atom   12 type  1   force =    -0.01112001   -0.01276444    0.00038745
     atom   13 type  1   force =    -0.00956854    0.00014071   -0.00048876
     atom   14 type  1   force =    -0.00317990   -0.00480345    0.00098392
     atom   15 type  1   force =    -0.00029366    0.00690860    0.00019747
     atom   16 type  2   force =    -0.02126667   -0.00838341   -0.00020004
     atom   17 type  2   force =     0.01454308    0.00502536    0.00026761
     atom   18 type  1   force =    -0.00129512   -0.02686807   -0.00078276
     atom   19 type  1   force =    -0.00363086    0.02539791   -0.00083284
     atom   20 type  1   force =    -0.00689484   -0.00069782   -0.00033499
     atom   21 type  1   force =     0.00572686    0.00067632    0.00065327
     atom   22 type  2   force =    -0.01011270   -0.00037875    0.00029344
     atom   23 type  2   force =     0.00879757    0.00132875    0.00007107
     atom   24 type  1   force =     0.01124146    0.00794595    0.00071562
     atom   25 type  1   force =     0.01130990   -0.00794323    0.00071662
     atom   26 type  1   force =     0.01240974    0.00012100   -0.00062581
     atom   27 type  3   force =    -0.00004469   -0.00071376   -0.00092831
     atom   28 type  3   force =     0.00009665   -0.00016100    0.00016107
     atom   29 type  3   force =    -0.00047891   -0.00012963   -0.00012788
     atom   30 type  3   force =    -0.00049160   -0.00010411    0.00017566
     atom   31 type  1   force =     0.00032229    0.00022700    0.00063892
     atom   32 type  3   force =    -0.00046780   -0.00073096    0.00066654

     Total force =     0.003262     Total SCF correction =     0.000171

     bfgs converged in  26 scf cycles and  25 bfgs steps
     (criteria: energy < 0.10E-03, force < 0.10E-02)

     End of BFGS Geometry Optimization

     Final energy   =   -1729.5898737631 Ry
Begin final coordinates

ATOMIC_POSITIONS (crystal)
O0       0.000000000   0.000000000   0.370627608    0   0   1
O0       0.000000000   0.500000000   0.383459232    0   0   1
Mo1      0.250000000   0.500000000   0.441682715    0   0   1
Mo1      0.000000000   0.000000000   0.442592211    0   0   1
O0       0.250000000   0.780000000   0.443109570    0   0   1
O0       0.250000000   0.220000000   0.443042244    0   0   1
O0       0.000000000   0.500000000   0.496967171    0   0   1
O0       0.000000000   0.000000000   0.516129094    0   0   1
Mo1      0.250000000   0.000000000   0.570941731    0   0   1
Mo1      0.000000000   0.500000000   0.567775341    0   0   1
O0       0.250000000   0.720000000   0.570983522    0   0   1
O0       0.250000000   0.280000000   0.571058501    0   0   1
O0       0.000000000   0.000000000   0.624834434    0   0   1
O0       0.500000000   0.000000000   0.369954206    0   0   1
O0       0.500000000   0.500000000   0.383405398    0   0   1
Mo1      0.750000000   0.500000000   0.441550564    0   0   1
Mo1      0.500000000   0.000000000   0.441777679    0   0   1
O0       0.750000000   0.780000000   0.442875040    0   0   1
O0       0.750000000   0.220000000   0.442784917    0   0   1
O0       0.500000000   0.500000000   0.501602803    0   0   1
O0       0.500000000   0.000000000   0.515867194    0   0   1
Mo1      0.750000000   0.000000000   0.577377891    0   0   1
Mo1      0.500000000   0.500000000   0.571412982    0   0   1
O0       0.750000000   0.720000000   0.571936366    0   0   1
O0       0.750000000   0.280000000   0.571926107    0   0   1
O0       0.500000000   0.000000000   0.624731156    0   0   1
H2      -0.000925956   0.620091857   0.364422536
H2       0.500107447   0.608092201   0.360216645
H2       0.164441734   0.019991184   0.355345479
H2       0.666967531   0.018930813   0.355526097
O0       0.499173885   0.500230000   0.641516616    1   0   1
H2       0.403277205   0.495540000   0.671916953    1   0   1
End final coordinates

     General routines

     Parallel routines
     Hubbard U routines

   This run was terminated on:  23:54:43  10Aug2014

   JOB DONE.