     Program PWSCF v.5.0.2 (svn rev. 9656) starts on 12Feb2014 at  5:39:57

     Current dimensions of program PWSCF are:
     Max number of different atomic species (ntypx) = 10
     Max number of k-points (npk) =  40000
     Max angular momentum in pseudopotentials (lmaxx) =  3
     Reading input from alpha_0.07/alpha_0.07.in
Warning: card &IONS ignored
Warning: card / ignored
Warning: card &CELL ignored
Warning: card / ignored

     Subspace diagonalization in iterative solution of the eigenvalue problem:
     a serial algorithm will be used

     bravais-lattice index     =            0
     lattice parameter (alat)  =      17.3477  a.u.
     unit-cell volume          =    3673.7913 (a.u.)^3
     number of atoms/cell      =           48
     number of atomic types    =            3
     number of electrons       =       448.00
     number of Kohn-Sham states=          672
     kinetic-energy cutoff     =      40.0000  Ry
     charge density cutoff     =     500.0000  Ry
     convergence threshold     =      1.0E-06
     mixing beta               =       0.7000
     number of iterations used =            8  plain     mixing
     Exchange-correlation      = SLA  PW   PBE  PBE ( 1 4 3 4 0)
     EXX-fraction              =        0.00

     celldm(1)=  17.347686  celldm(2)=   0.000000  celldm(3)=   0.000000
     celldm(4)=   0.000000  celldm(5)=   0.000000  celldm(6)=   0.000000

     crystal axes: (cart. coord. in units of alat)
               a(1) = (   1.000000   0.000000   0.000000 )
               a(2) = (   0.000000   1.000000   0.000000 )
               a(3) = (   0.000000   0.000000   0.703704 )

     reciprocal axes: (cart. coord. in units 2 pi/alat)
               b(1) = (  1.000000  0.000000  0.000000 )
               b(2) = (  0.000000  1.000000  0.000000 )
               b(3) = (  0.000000  0.000000  1.421053 )

     PseudoPot. # 1 for Pt read from file:
     /home/camp/zhonxu/pseudo/pt_pbe_v1.uspp.F.UPF
     MD5 check sum: 4c71d6ad5ef119f1eb26a4d0b7884226
     Pseudo is Ultrasoft + core correction, Zval = 16.0
     Generated by new atomic code, or converted to UPF format
     Using radial grid of  985 points,  6 beta functions with:
                l(1) =   0
                l(2) =   0
                l(3) =   1
                l(4) =   1
                l(5) =   2
                l(6) =   2
     Q(r) pseudized with  8 coefficients,  rinner =    1.300   1.300   1.300
                                                       1.300   1.300

     PseudoPot. # 2 for O  read from file:
     /home/camp/zhonxu/pseudo/o_pbe_v1.01.uspp.F.UPF
     MD5 check sum: 2bcb18d16ea4b960afae9ec6d52f22d2
     Pseudo is Ultrasoft + core correction, Zval =  6.0
     Generated by new atomic code, or converted to UPF format
     Using radial grid of  737 points,  5 beta functions with:
                l(1) =   0
                l(2) =   0
                l(3) =   1
                l(4) =   1
                l(5) =   2
     Q(r) pseudized with  8 coefficients,  rinner =    0.900   0.900   0.900
                                                       0.900   0.900

     PseudoPot. # 3 for O  read from file:
     /home/camp/zhonxu/pseudo/o_pbe_v1.01.uspp.F.UPF
     MD5 check sum: 2bcb18d16ea4b960afae9ec6d52f22d2
     Pseudo is Ultrasoft + core correction, Zval =  6.0
     Generated by new atomic code, or converted to UPF format
     Using radial grid of  737 points,  5 beta functions with:
                l(1) =   0
                l(2) =   0
                l(3) =   1
                l(4) =   1
                l(5) =   2
     Q(r) pseudized with  8 coefficients,  rinner =    0.900   0.900   0.900
                                                       0.900   0.900

     atomic species   valence    mass     pseudopotential
        Pt0           16.00   195.08000     Pt( 1.00)
        O1             6.00    15.99940     O ( 1.00)
        O2             6.00    15.99940     O ( 1.00)

     Starting magnetic structure
     atomic species   magnetization
        Pt0          0.000
        O1           0.000
        O2           0.000

     Simplified LDA+U calculation (l_max = 2) with parameters (eV):
     atomic species    L          U    alpha       J0     beta
        Pt0            2     0.0000   0.0000   0.0000   0.0000
        O1             1     0.0000   0.0700   0.0000   0.0000
        O2             1     0.0000   0.0000   0.0000   0.0000

      4 Sym. Ops. (no inversion) found

   Cartesian axes

     site n.     atom                  positions (alat units)
         1           Pt0 tau(   1) = (  -0.1550000  -0.1550000   0.0000000  )
         2           Pt0 tau(   2) = (   0.0950000   0.0950000   0.1759259  )
         3           Pt0 tau(   3) = (  -0.1550000  -0.1550000   0.3518519  )
         4           Pt0 tau(   4) = (   0.0950000   0.0950000   0.5277778  )
         5           Pt0 tau(   5) = (  -0.1550000   0.3450000   0.0000000  )
         6           Pt0 tau(   6) = (   0.0950000   0.5950000   0.1759259  )
         7           Pt0 tau(   7) = (  -0.1550000   0.3450000   0.3518519  )
         8           Pt0 tau(   8) = (   0.0950000   0.5950000   0.5277778  )
         9           Pt0 tau(   9) = (   0.3450000  -0.1550000   0.0000000  )
        10           Pt0 tau(  10) = (   0.5950000   0.0950000   0.1759259  )
        11           Pt0 tau(  11) = (   0.3450000  -0.1550000   0.3518519  )
        12           Pt0 tau(  12) = (   0.5950000   0.0950000   0.5277778  )
        13           Pt0 tau(  13) = (   0.3450000   0.3450000   0.0000000  )
        14           Pt0 tau(  14) = (   0.5950000   0.5950000   0.1759259  )
        15           Pt0 tau(  15) = (   0.3450000   0.3450000   0.3518519  )
        16           Pt0 tau(  16) = (   0.5950000   0.5950000   0.5277778  )
        17           O1  tau(  17) = (   0.0000000   0.0000000   0.0000000  )
        18           O2  tau(  18) = (  -0.3100000  -0.3100000   0.0000000  )
        19           O2  tau(  19) = (   0.2500000  -0.0600000   0.1759259  )
        20           O2  tau(  20) = (  -0.0600000   0.2500000   0.1759259  )
        21           O2  tau(  21) = (   0.0000000   0.0000000   0.3518519  )
        22           O2  tau(  22) = (  -0.3100000  -0.3100000   0.3518519  )
        23           O2  tau(  23) = (   0.2500000  -0.0600000   0.5277778  )
        24           O2  tau(  24) = (  -0.0600000   0.2500000   0.5277778  )
        25           O2  tau(  25) = (   0.0000000   0.5000000   0.0000000  )
        26           O2  tau(  26) = (  -0.3100000   0.1900000   0.0000000  )
        27           O2  tau(  27) = (   0.2500000   0.4400000   0.1759259  )
        28           O2  tau(  28) = (  -0.0600000   0.7500000   0.1759259  )
        29           O2  tau(  29) = (   0.0000000   0.5000000   0.3518519  )
        30           O2  tau(  30) = (  -0.3100000   0.1900000   0.3518519  )
        31           O2  tau(  31) = (   0.2500000   0.4400000   0.5277778  )
        32           O2  tau(  32) = (  -0.0600000   0.7500000   0.5277778  )
        33           O2  tau(  33) = (   0.5000000   0.0000000   0.0000000  )
        34           O2  tau(  34) = (   0.1900000  -0.3100000   0.0000000  )
        35           O2  tau(  35) = (   0.7500000  -0.0600000   0.1759259  )
        36           O2  tau(  36) = (   0.4400000   0.2500000   0.1759259  )
        37           O2  tau(  37) = (   0.5000000   0.0000000   0.3518519  )
        38           O2  tau(  38) = (   0.1900000  -0.3100000   0.3518519  )
        39           O2  tau(  39) = (   0.7500000  -0.0600000   0.5277778  )
        40           O2  tau(  40) = (   0.4400000   0.2500000   0.5277778  )
        41           O2  tau(  41) = (   0.5000000   0.5000000   0.0000000  )
        42           O2  tau(  42) = (   0.1900000   0.1900000   0.0000000  )
        43           O2  tau(  43) = (   0.7500000   0.4400000   0.1759259  )
        44           O2  tau(  44) = (   0.4400000   0.7500000   0.1759259  )
        45           O2  tau(  45) = (   0.5000000   0.5000000   0.3518519  )
        46           O2  tau(  46) = (   0.1900000   0.1900000   0.3518519  )
        47           O2  tau(  47) = (   0.7500000   0.4400000   0.5277778  )
        48           O2  tau(  48) = (   0.4400000   0.7500000   0.5277778  )

     number of k points=    42  Methfessel-Paxton smearing, width (Ry)=  0.0100
                       cart. coord. in units 2pi/alat
        k(    1) = (   0.0000000   0.0000000   0.0000000), wk =   0.0156250
        k(    2) = (   0.0000000   0.0000000   0.3552632), wk =   0.0312500
        k(    3) = (   0.0000000   0.0000000  -0.7105263), wk =   0.0156250
        k(    4) = (   0.0000000   0.2500000   0.0000000), wk =   0.0625000
        k(    5) = (   0.0000000   0.2500000   0.3552632), wk =   0.1250000
        k(    6) = (   0.0000000   0.2500000  -0.7105263), wk =   0.0625000
        k(    7) = (   0.0000000  -0.5000000   0.0000000), wk =   0.0312500
        k(    8) = (   0.0000000  -0.5000000   0.3552632), wk =   0.0625000
        k(    9) = (   0.0000000  -0.5000000  -0.7105263), wk =   0.0312500
        k(   10) = (   0.2500000   0.2500000   0.0000000), wk =   0.0312500
        k(   11) = (   0.2500000   0.2500000   0.3552632), wk =   0.0625000
        k(   12) = (   0.2500000   0.2500000  -0.7105263), wk =   0.0312500
        k(   13) = (   0.2500000  -0.5000000   0.0000000), wk =   0.0625000
        k(   14) = (   0.2500000  -0.5000000   0.3552632), wk =   0.1250000
        k(   15) = (   0.2500000  -0.5000000  -0.7105263), wk =   0.0625000
        k(   16) = (  -0.5000000  -0.5000000   0.0000000), wk =   0.0156250
        k(   17) = (  -0.5000000  -0.5000000   0.3552632), wk =   0.0312500
        k(   18) = (  -0.5000000  -0.5000000  -0.7105263), wk =   0.0156250
        k(   19) = (   0.2500000  -0.2500000   0.0000000), wk =   0.0312500
        k(   20) = (   0.2500000  -0.2500000   0.3552632), wk =   0.0625000
        k(   21) = (   0.2500000  -0.2500000  -0.7105263), wk =   0.0312500
        k(   22) = (   0.0000000   0.0000000   0.0000000), wk =   0.0156250
        k(   23) = (   0.0000000   0.0000000   0.3552632), wk =   0.0312500
        k(   24) = (   0.0000000   0.0000000  -0.7105263), wk =   0.0156250
        k(   25) = (   0.0000000   0.2500000   0.0000000), wk =   0.0625000
        k(   26) = (   0.0000000   0.2500000   0.3552632), wk =   0.1250000
        k(   27) = (   0.0000000   0.2500000  -0.7105263), wk =   0.0625000
        k(   28) = (   0.0000000  -0.5000000   0.0000000), wk =   0.0312500
        k(   29) = (   0.0000000  -0.5000000   0.3552632), wk =   0.0625000
        k(   30) = (   0.0000000  -0.5000000  -0.7105263), wk =   0.0312500
        k(   31) = (   0.2500000   0.2500000   0.0000000), wk =   0.0312500
        k(   32) = (   0.2500000   0.2500000   0.3552632), wk =   0.0625000
        k(   33) = (   0.2500000   0.2500000  -0.7105263), wk =   0.0312500
        k(   34) = (   0.2500000  -0.5000000   0.0000000), wk =   0.0625000
        k(   35) = (   0.2500000  -0.5000000   0.3552632), wk =   0.1250000
        k(   36) = (   0.2500000  -0.5000000  -0.7105263), wk =   0.0625000
[...]
    eigenvectors:
  0.000  1.000  0.000
  0.500  0.000  0.500
  0.500  0.000  0.500
    occupations:
  0.848 -0.000 -0.000
 -0.000  0.910 -0.064
 -0.000 -0.064  0.910
   spin  2
    eigenvalues:
  0.845  0.848  0.974
    eigenvectors:
  0.000  1.000  0.000
  0.500  0.000  0.500
  0.500  0.000  0.500
    occupations:
  0.848 -0.000 -0.000
 -0.000  0.910 -0.064
 -0.000 -0.064  0.910
atomic mag. moment =    -0.000000
atom   42   Tr[ns(na)] (up, down, total) =   2.66736  2.66736  5.33473
   spin  1
    eigenvalues:
  0.845  0.848  0.974
    eigenvectors:
  0.000  1.000  0.000
  0.500  0.000  0.500
  0.500  0.000  0.500
    occupations:
  0.848 -0.000 -0.000
 -0.000  0.910 -0.064
 -0.000 -0.064  0.910
   spin  2
    eigenvalues:
  0.845  0.848  0.974
    eigenvectors:
  0.000  1.000  0.000
  0.500  0.000  0.500
  0.500  0.000  0.500
    occupations:
  0.848 -0.000 -0.000
 -0.000  0.910 -0.064
 -0.000 -0.064  0.910
atomic mag. moment =    -0.000000
atom   43   Tr[ns(na)] (up, down, total) =   2.66726  2.66726  5.33451
   spin  1
    eigenvalues:
  0.845  0.848  0.974
    eigenvectors:
  0.000  1.000  0.000
  0.500  0.000  0.500
  0.500  0.000  0.500
    occupations:
  0.848  0.000  0.000
  0.000  0.910  0.064
  0.000  0.064  0.910
   spin  2
    eigenvalues:
  0.845  0.848  0.974
    eigenvectors:
  0.000  1.000  0.000
  0.500  0.000  0.500
  0.500  0.000  0.500
    occupations:
  0.848  0.000  0.000
  0.000  0.910  0.064
  0.000  0.064  0.910
atomic mag. moment =    -0.000000
atom   44   Tr[ns(na)] (up, down, total) =   2.66726  2.66726  5.33451
   spin  1
    eigenvalues:
  0.845  0.848  0.974
    eigenvectors:
  0.000  1.000  0.000
  0.500  0.000  0.500
  0.500  0.000  0.500
    occupations:
  0.848  0.000  0.000
  0.000  0.910  0.064
  0.000  0.064  0.910
   spin  2
    eigenvalues:
  0.845  0.848  0.974
    eigenvectors:
  0.000  1.000  0.000
  0.500  0.000  0.500
  0.500  0.000  0.500
    occupations:
  0.848  0.000  0.000
  0.000  0.910  0.064
  0.000  0.064  0.910
atomic mag. moment =    -0.000000
atom   45   Tr[ns(na)] (up, down, total) =   2.66726  2.66726  5.33452
   spin  1
    eigenvalues:
  0.845  0.848  0.974
    eigenvectors:
  0.000  1.000  0.000
  0.500  0.000  0.500
  0.500  0.000  0.500
    occupations:
  0.848 -0.000 -0.000
 -0.000  0.910 -0.064
 -0.000 -0.064  0.910
   spin  2
    eigenvalues:
  0.845  0.848  0.974
    eigenvectors:
  0.000  1.000  0.000
  0.500  0.000  0.500
  0.500  0.000  0.500
    occupations:
  0.848 -0.000 -0.000
 -0.000  0.910 -0.064
 -0.000 -0.064  0.910
atomic mag. moment =    -0.000000
atom   46   Tr[ns(na)] (up, down, total) =   2.66702  2.66702  5.33404
   spin  1
    eigenvalues:
  0.845  0.848  0.974
    eigenvectors:
  0.000  1.000  0.000
  0.500  0.000  0.500
  0.500  0.000  0.500
    occupations:
  0.848 -0.000 -0.000
 -0.000  0.910 -0.064
 -0.000 -0.064  0.910
   spin  2
    eigenvalues:
  0.845  0.848  0.974
    eigenvectors:
  0.000  1.000  0.000
  0.500  0.000  0.500
  0.500  0.000  0.500
    occupations:
  0.848 -0.000 -0.000
 -0.000  0.910 -0.064
 -0.000 -0.064  0.910
atomic mag. moment =    -0.000000
atom   47   Tr[ns(na)] (up, down, total) =   2.66726  2.66726  5.33451
   spin  1
    eigenvalues:
  0.845  0.848  0.974
    eigenvectors:
  0.000  1.000  0.000
  0.500  0.000  0.500
  0.500  0.000  0.500
    occupations:
  0.848 -0.000 -0.000
 -0.000  0.910  0.064
 -0.000  0.064  0.910
   spin  2
    eigenvalues:
  0.845  0.848  0.974
    eigenvectors:
  0.000  1.000  0.000
  0.500  0.000  0.500
  0.500  0.000  0.500
    occupations:
  0.848 -0.000 -0.000
 -0.000  0.910  0.064
 -0.000  0.064  0.910
atomic mag. moment =    -0.000000
atom   48   Tr[ns(na)] (up, down, total) =   2.66726  2.66726  5.33451
   spin  1
    eigenvalues:
  0.845  0.848  0.974
    eigenvectors:
  0.000  1.000  0.000
  0.500  0.000  0.500
  0.500  0.000  0.500
    occupations:
  0.848 -0.000 -0.000
 -0.000  0.910  0.064
 -0.000  0.064  0.910
   spin  2
    eigenvalues:
  0.845  0.848  0.974
    eigenvectors:
  0.000  1.000  0.000
  0.500  0.000  0.500
  0.500  0.000  0.500
    occupations:
  0.848 -0.000 -0.000
 -0.000  0.910  0.064
 -0.000  0.064  0.910
atomic mag. moment =    -0.000000
N of occupied +U levels = 308.8067047
 --- exit write_ns ---

 ------ SPIN UP ------------

          k = 0.0000 0.0000 0.0000 ( 15677 PWs)   bands (ev):

   -41.9281 -41.9278 -41.9278 -41.9278 -41.9277 -41.9277 -41.9275 -41.9275
   -41.8765 -41.8729 -41.8726 -41.8726 -41.8726 -41.8726 -41.8726 -41.8688
   -41.7116 -41.7110 -41.7108 -41.7107 -41.7101 -41.7098 -41.7097 -41.7097
   -41.7075 -41.7065 -41.7064 -41.7062 -41.7062 -41.7061 -41.7061 -41.7060
   -41.6051 -41.6049 -41.6047 -41.6046 -41.6039 -41.6038 -41.6036 -41.6035
   -41.5976 -41.5973 -41.5973 -41.5972 -41.5972 -41.5972 -41.5971 -41.5971
    -7.8184  -7.1795  -7.1772  -7.0877  -7.0833  -7.0832  -7.0830  -6.6866
    -6.5537  -6.5480  -6.5480  -6.5478  -6.5432  -6.5420  -6.4285  -6.4264
    -6.2871  -6.2849  -6.1966  -6.1938  -6.1809  -6.1772  -6.1771  -6.1771
    -6.0431  -6.0389  -6.0388  -6.0388  -5.8645  -5.8623  -5.7427  -5.7406
     3.2724   3.3588   3.3612   3.4296   4.4736   4.4738   4.4744   4.4775
     4.5694   4.5696   4.5698   4.5730   4.6528   4.6532   4.7429   4.7443
     4.7945   4.7959   4.8100   4.8115   4.9113   4.9113   4.9115   4.9139
     5.0581   5.0582   5.0584   5.0608   5.3098   5.3100   5.4166   5.4181
     5.4276   5.6725   5.6733   5.9929   5.9935   6.1729   6.1733   6.1734
     6.1759   6.8742   6.8744   6.8754   6.8780   6.8953   6.8954   6.8958
     6.8985   7.0143   7.0155   7.0383   7.0397   7.3256   7.3258   7.3262
     7.3272   7.4942   7.4956   7.5439   7.5444   7.5445   7.5467   7.5614
     7.5625   7.8589   7.9713   7.9718   7.9718   7.9745   8.0726   8.0737
     8.2545   8.2549   8.3480   8.3488   8.6491   8.6510   8.9680   8.9686
     9.0503   9.0505   9.0509   9.0510   9.0738   9.1711   9.1714   9.1865
     9.1866   9.1965   9.1967   9.3570   9.3860   9.4845   9.4847   9.5463
     9.5465   9.5567   9.5568   9.5686   9.5691   9.5692   9.5694   9.5785
     9.6223   9.6232   9.9666   9.9667   9.9668   9.9696   9.9891   9.9894
     9.9896   9.9911  10.2296  10.2297  10.2298  10.2314  10.2765  10.2773
    10.4697  10.4702  10.4703  10.4711  10.9737  11.1922  11.1932  11.4169
    11.4177  11.5753  11.5760  11.7036  11.7040  11.7041  11.7053  11.8573
    12.0826  12.0835  12.0836  12.0837  12.3054  12.3058  12.3542  12.3548
    12.5703  12.5703  12.5705  12.5714  12.9288  13.5221  13.5221  13.5479
    13.5480  13.6624  13.6632  14.0216  14.0217  14.5146  14.5147  14.8826
    14.8832  14.8832  14.8834  15.0578  15.0578  15.0580  15.0581  15.4974
    15.4976  15.5129  15.5131  15.8697  15.8699  15.8699  15.8700  16.2522
    16.7708  19.3329  19.3340  19.3343  19.3348  20.7985  20.7990  21.1052
    21.1053  21.2855  21.2861  21.3129  21.3131  21.3622  21.3626  22.1046
    22.1055  22.1064  22.1066  22.1281  22.1288  22.1288  22.1292  22.1517
    22.1517  22.1525  22.1526  22.2148  22.2150  23.0234  24.2394  24.2394
    24.3540  24.3543  24.6832  24.6836  25.1669  25.1672  25.2118  25.2119
    25.4748  25.7233  25.7372  25.7373  25.7384  25.7386  25.7582  25.7584
    25.7586  25.7588  26.2565  26.2566  26.2568  26.2570  26.6512  26.6517
    26.7214  26.7215  27.2519  27.2522  27.2524  27.2525  27.2726  27.2727
    27.5324  27.5331  27.5334  27.5339  27.5787  28.0530  28.3261  28.5494
    28.5495  28.8834  28.8837  28.8844  28.8845  29.0966  29.0975  29.8173
    29.8185  29.8187  29.8193  29.8547  29.8550  29.9784  29.9787  30.0560
    30.0560  30.1027  30.1029  30.1036  30.1036  30.3919  30.3919  30.3961
    30.3962  30.3963  30.3963  30.3968  30.4121  30.4233  30.4233  30.4234
    30.4234  30.4242  30.4243  30.7879  30.7880  30.8005  31.0362  31.0370
    31.0373  31.0375  31.7055  31.7055  31.7888  31.7888  32.2836  32.2842
    32.2845  32.2845  32.7951  32.7953  32.9356  32.9359  33.3496  33.3505
    33.8696  33.8697  33.9337  33.9338  34.3426  34.3433  34.3434  34.3439
    34.7982  34.7987  34.8618  34.8623  34.8909  34.8915  34.8916  34.8918
    35.0778  35.0778  35.3348  35.3349  35.5518  36.1784  36.1791  36.1824
    36.1825  36.1825  36.1831  36.2437  36.2441  36.2441  36.2446  36.9244
    36.9246  37.0009  37.0012  37.0017  37.0020  37.2758  37.4692  37.4693
    37.4695  37.4698  37.5243  37.5250  37.5395  37.5399  37.8339  38.0340
    38.0341  38.3533  38.3535  38.3539  38.3541  38.6278  38.6283  38.7320
    38.7326  38.8321  38.8325  38.8326  38.8328  38.9478  38.9482  39.1024
    39.1031  39.1428  39.1644  39.1647  39.1648  39.1650  39.5732  39.6514
    40.1917  40.1919  40.3608  40.3612  40.6113  41.0893  41.0895  41.0897
    41.0899  41.1077  41.1079  41.2910  41.2911  41.2915  41.2916  41.3861
    41.3863  41.8744  41.8745  42.0510  42.1631  42.1640  42.1642  42.1643
[...]
    47.1396  47.2071  47.2446  47.2448  47.6963  47.6965  47.7642  47.7648
    47.7649  47.7651  47.8395  47.8400  48.1801  48.1808  48.3353  48.3359
    48.4828  48.4829  48.4925  48.4927  48.5423  48.5426  48.5432  48.5432
    48.8139  48.8145  49.1242  49.1252  49.1254  49.1256  49.2174  49.2176
    49.3034  49.3035  49.5495  49.5498  49.5499  49.5500  49.6873  50.1036
    50.1038  50.3039  50.3046  50.3769  50.3769  50.4857  50.6069  50.6070
    50.7694  50.7695  50.7696  50.7697  51.1624  51.1627  51.1627  51.1630
    51.2612  51.2615  51.5652  51.5652  51.6239  51.6240  51.6266  51.6268
    51.6269  51.6269  51.9402  52.0653  52.0660  52.1140  52.1142  52.1143
    52.1144  52.2204  52.2207  52.6726  52.6727  52.8765  52.8769  52.8772
    52.8776  53.0182  53.0894  53.0895  53.1321  53.4404  53.4405  53.4613
    53.7652  54.2385  54.2386  54.2634  54.2637  54.2638  54.2640  54.2991
    54.2995  54.2996  54.3000  54.5296  54.5297  54.5299  54.5304  54.8271
    54.8274  54.9601  54.9603  55.3564  55.3567  55.4288  55.4293  55.4294
    55.4298  55.4482  55.4484  55.4486  55.4490  55.5388  55.5390  55.8652

[...]

          k =-0.5000-0.5000 0.0000 ( 15760 PWs)   bands (ev):

[...]

 ------ SPIN DOWN ----------

[...]

          k =-0.5000-0.5000-0.7105 ( 15672 PWs)   bands (ev):

[...]

          k = 0.2500-0.2500-0.7105 ( 15684 PWs)   bands (ev):

   -41.9026 -41.9026 -41.9014 -41.9014 -41.9013 -41.9012 -41.9006 -41.9006
   -41.8999 -41.8998 -41.8995 -41.8994 -41.8993 -41.8992 -41.8979 -41.8979
   -41.7095 -41.7094 -41.7091 -41.7087 -41.7085 -41.7084 -41.7084 -41.7083
   -41.7082 -41.7082 -41.7082 -41.7082 -41.7080 -41.7080 -41.7077 -41.7076
   -41.6020 -41.6012 -41.6009 -41.6009 -41.6009 -41.6009 -41.6009 -41.6008
   -41.6006 -41.6006 -41.6006 -41.6005 -41.6004 -41.6004 -41.6003 -41.6003
    -7.2550  -7.2523  -6.9609  -6.9578  -6.9577  -6.9575  -6.8812  -6.8771
    -6.7146  -6.7146  -6.5435  -6.5361  -6.5361  -6.5359  -6.4551  -6.4533
    -6.2694  -6.2626  -6.2625  -6.2625  -6.1587  -6.1586  -6.1075  -6.1063
    -6.1062  -6.1062  -6.0998  -6.0998  -6.0686  -6.0642  -5.9940  -5.9900
     3.9524   3.9556   3.9676   3.9724   4.3016   4.3016   4.3103   4.3104
     4.3106   4.3107   4.3182   4.3184   4.8775   4.8775   4.8796   4.8803
     5.0094   5.0115   5.1298   5.1307   5.2117   5.2135   5.2216   5.2217
     5.2218   5.2234   5.3868   5.3869   5.3869   5.3940   5.4276   5.4279
     5.6143   5.6145   5.6146   5.6201   5.9477   5.9485   6.1798   6.1799
     6.1801   6.1806   6.1953   6.1956   6.2198   6.2215   6.7056   6.7091
     6.8358   6.8387   6.9383   6.9383   6.9395   6.9403   7.1494   7.1497
     7.1506   7.1523   7.2848   7.2857   7.7570   7.7570   7.7571   7.7577
     7.7695   7.7696   7.7809   7.7810   7.8083   7.8089   7.8383   7.8387
     7.9327   7.9327   7.9331   7.9344   8.1681   8.1689   8.3783   8.3795
     8.4469   8.4485   8.6101   8.6110   8.7020   8.7020   8.7024   8.7024
     9.1668   9.1678   9.2295   9.2299   9.2300   9.2305   9.2907   9.2909
     9.7425   9.7426   9.7709   9.7710  10.2956  10.2957  10.2957  10.2962
    10.3013  10.3015  10.3808  10.3810  10.4643  10.4643  10.4644  10.4670
    10.5071  10.5083  10.6105  10.6107  10.6108  10.6114  10.6913  10.6916
    10.8306  10.8324  10.9732  10.9734  10.9735  10.9741  11.2461  11.2478
    11.6750  11.6753  11.7802  11.7804  11.7804  11.7821  11.8354  11.8362
    11.9037  11.9042  12.0095  12.0096  12.0096  12.0107  12.3469  12.3475
    13.3119  13.3131  13.3131  13.3141  13.3690  13.3693  13.7043  13.7043
    13.7045  13.7045  13.7357  13.7357  13.9239  13.9240  14.2842  14.2845
    14.3662  14.3668  14.3964  14.3970  14.8107  14.8109  14.8111  14.8112
    15.0678  15.0679  15.6653  15.6654  15.6655  15.6656  15.6972  15.6973
    18.6307  18.6313  19.7593  19.7601  19.7603  19.7611  20.4543  20.4552
    21.2295  21.2301  21.2856  21.2867  21.2868  21.2874  22.2562  22.2571
    22.3491  22.3499  22.5945  22.5955  22.8245  22.8246  22.8604  22.8610
    22.8612  22.8620  22.9849  22.9854  23.0350  23.0351  23.0361  23.0362
    24.4278  24.4279  24.6504  24.6505  24.6519  24.6529  24.6530  24.6533
    25.1462  25.1465  25.6232  25.6237  25.6241  25.6245  25.9551  25.9566
    26.2109  26.2119  26.2733  26.2735  26.6897  26.6901  26.6906  26.6908
    26.9943  26.9959  26.9960  26.9961  27.0170  27.0175  27.1289  27.1289
    27.3455  27.3457  27.4217  27.4221  27.4226  27.4228  27.5167  27.5172
    27.7476  27.7486  28.3639  28.3643  28.3646  28.3646  28.5775  28.5781
    28.5830  28.5835  29.1641  29.1643  29.1646  29.1650  30.3770  30.3772
    30.3830  30.3834  30.3834  30.3834  30.3920  30.3920  30.3960  30.3961
    30.4073  30.4073  30.4074  30.4074  30.4184  30.4185  30.7101  30.7106
    30.7107  30.7112  30.8323  30.8327  31.1419  31.1424  31.6198  31.6204
    31.6209  31.6210  31.7774  31.7778  32.2745  32.2754  32.2881  32.2883
    33.0404  33.0410  33.0416  33.0417  33.1918  33.1918  33.6817  33.6818
    33.7804  33.7817  34.5157  34.5162  34.5162  34.5164  34.5979  34.5990
    34.6467  34.6469  34.6618  34.6624  34.7246  34.7255  34.8147  34.8152
    34.8154  34.8158  35.6439  35.6445  35.6686  35.6688  35.6692  35.6693
    35.7537  35.7538  35.7543  35.7543  35.9577  35.9581  37.2267  37.2271
    37.2274  37.2276  37.3208  37.3212  37.4383  37.4384  37.4838  37.4841
    37.5243  37.5250  37.5253  37.5254  37.5540  37.5547  37.8346  37.8352
    37.8484  37.8486  38.0597  38.0602  38.1194  38.1197  38.3628  38.3629
    38.3634  38.3639  38.5174  38.5176  38.5179  38.5181  38.7022  38.7024
    39.2310  39.2313  39.3698  39.3710  39.3712  39.3713  39.8323  39.8325
    40.3879  40.3890  40.4818  40.4821  40.7076  40.7077  40.8645  40.8646
    40.8646  40.8648  40.9341  40.9346  41.5107  41.5113  41.6155  41.6157
    41.6159  41.6161  41.6300  41.6300  41.8746  41.8750  41.8752  41.8754
[...]
    47.7277  47.7284  47.8581  47.8584  47.8587  47.8587  48.0481  48.0482
    48.0637  48.0639  48.1936  48.1941  48.1944  48.1945  48.3605  48.3608
    48.4063  48.4065  48.6649  48.6658  48.6659  48.6662  49.0305  49.0309
    49.1711  49.1717  49.2603  49.2604  49.2609  49.2611  49.4941  49.4942
    49.6365  49.6369  49.6370  49.6373  49.7314  49.7316  49.7783  49.7787
    49.9135  49.9140  49.9777  49.9779  49.9780  49.9781  50.5887  50.5893
    50.5894  50.5895  50.6208  50.6218  50.8410  50.8414  51.0429  51.0430
    51.1538  51.1544  51.3107  51.3110  51.3110  51.3114  51.7430  51.7434
    52.1125  52.1132  52.2377  52.2380  52.2381  52.2383  52.3524  52.3526
    52.5473  52.5473  52.8860  52.8862  52.9226  52.9231  52.9236  52.9237
    52.9655  52.9661  53.1268  53.1273  53.5649  53.5653  53.7402  53.7403
    53.7404  53.7405  53.7797  53.7801  53.7802  53.7802  53.9630  53.9631
    54.0228  54.0229  54.4504  54.4505  54.4543  54.4543  54.4546  54.4551
    54.7703  54.7704  54.7707  54.7711  54.7913  54.7917  55.2213  55.2215
    55.2827  55.2829  55.3921  55.3924  55.6158  55.6161  55.6161  55.6163

     the Fermi energy is    12.4882 ev

!    total energy              =   -4359.49261318 Ry
     Harris-Foulkes estimate   =   -4359.49261354 Ry
     estimated scf accuracy    <       0.00000040 Ry

     The total energy is the sum of the following terms:

     one-electron contribution =   -1092.72671806 Ry
     hartree contribution      =     841.62656290 Ry
     xc contribution           =   -1097.30356644 Ry
     ewald contribution        =   -3011.11594880 Ry
     Hubbard energy            =       0.02742128 Ry
     smearing contrib. (-TS)   =      -0.00036406 Ry

     total magnetization       =    -0.00 Bohr mag/cell
     absolute magnetization    =     0.00 Bohr mag/cell

     convergence has been achieved in   7 iterations

     Writing output data file pwscf.save

     General routines

     Parallel routines
     Hubbard U routines

   This run was terminated on:  10:38:30  12Feb2014

   JOB DONE.