     Program PWSCF v.5.0.2 (svn rev. 9656) starts on 11Feb2014 at 20:16:46

     Current dimensions of program PWSCF are:
     Max number of different atomic species (ntypx) = 10
     Max number of k-points (npk) =  40000
     Max angular momentum in pseudopotentials (lmaxx) =  3
     Reading input from alpha_-0.07/alpha_-0.07.in
Warning: card &IONS ignored
Warning: card / ignored
Warning: card &CELL ignored
Warning: card / ignored

     Subspace diagonalization in iterative solution of the eigenvalue problem:
     a serial algorithm will be used

     bravais-lattice index     =            0
     lattice parameter (alat)  =      17.3477  a.u.
     unit-cell volume          =    3673.7913 (a.u.)^3
     number of atoms/cell      =           48
     number of atomic types    =            3
     number of electrons       =       448.00
     number of Kohn-Sham states=          672
     kinetic-energy cutoff     =      40.0000  Ry
     charge density cutoff     =     500.0000  Ry
     convergence threshold     =      1.0E-06
     mixing beta               =       0.7000
     number of iterations used =            8  plain     mixing
     Exchange-correlation      = SLA  PW   PBE  PBE ( 1 4 3 4 0)
     EXX-fraction              =        0.00

     celldm(1)=  17.347686  celldm(2)=   0.000000  celldm(3)=   0.000000
     celldm(4)=   0.000000  celldm(5)=   0.000000  celldm(6)=   0.000000

     crystal axes: (cart. coord. in units of alat)
               a(1) = (   1.000000   0.000000   0.000000 )
               a(2) = (   0.000000   1.000000   0.000000 )
               a(3) = (   0.000000   0.000000   0.703704 )

     reciprocal axes: (cart. coord. in units 2 pi/alat)
               b(1) = (  1.000000  0.000000  0.000000 )
               b(2) = (  0.000000  1.000000  0.000000 )
               b(3) = (  0.000000  0.000000  1.421053 )

     PseudoPot. # 1 for Pt read from file:
     /home/camp/zhonxu/pseudo/pt_pbe_v1.uspp.F.UPF
     MD5 check sum: 4c71d6ad5ef119f1eb26a4d0b7884226
     Pseudo is Ultrasoft + core correction, Zval = 16.0
     Generated by new atomic code, or converted to UPF format
     Using radial grid of  985 points,  6 beta functions with:
                l(1) =   0
                l(2) =   0
                l(3) =   1
                l(4) =   1
                l(5) =   2
                l(6) =   2
     Q(r) pseudized with  8 coefficients,  rinner =    1.300   1.300   1.300
                                                       1.300   1.300

     PseudoPot. # 2 for O  read from file:
     /home/camp/zhonxu/pseudo/o_pbe_v1.01.uspp.F.UPF
     MD5 check sum: 2bcb18d16ea4b960afae9ec6d52f22d2
     Pseudo is Ultrasoft + core correction, Zval =  6.0
     Generated by new atomic code, or converted to UPF format
     Using radial grid of  737 points,  5 beta functions with:
                l(1) =   0
                l(2) =   0
                l(3) =   1
                l(4) =   1
                l(5) =   2
     Q(r) pseudized with  8 coefficients,  rinner =    0.900   0.900   0.900
                                                       0.900   0.900

     PseudoPot. # 3 for O  read from file:
     /home/camp/zhonxu/pseudo/o_pbe_v1.01.uspp.F.UPF
     MD5 check sum: 2bcb18d16ea4b960afae9ec6d52f22d2
     Pseudo is Ultrasoft + core correction, Zval =  6.0
     Generated by new atomic code, or converted to UPF format
     Using radial grid of  737 points,  5 beta functions with:
                l(1) =   0
                l(2) =   0
                l(3) =   1
                l(4) =   1
                l(5) =   2
     Q(r) pseudized with  8 coefficients,  rinner =    0.900   0.900   0.900
                                                       0.900   0.900

     atomic species   valence    mass     pseudopotential
        Pt0           16.00   195.08000     Pt( 1.00)
        O1             6.00    15.99940     O ( 1.00)
        O2             6.00    15.99940     O ( 1.00)

     Starting magnetic structure
     atomic species   magnetization
        Pt0          0.000
        O1           0.000
        O2           0.000

     Simplified LDA+U calculation (l_max = 2) with parameters (eV):
     atomic species    L          U    alpha       J0     beta
        Pt0            2     0.0000   0.0000   0.0000   0.0000
        O1             1     0.0000  -0.0700   0.0000   0.0000
        O2             1     0.0000   0.0000   0.0000   0.0000

      4 Sym. Ops. (no inversion) found

   Cartesian axes

     site n.     atom                  positions (alat units)
         1           Pt0 tau(   1) = (  -0.1550000  -0.1550000   0.0000000  )
         2           Pt0 tau(   2) = (   0.0950000   0.0950000   0.1759259  )
         3           Pt0 tau(   3) = (  -0.1550000  -0.1550000   0.3518519  )
         4           Pt0 tau(   4) = (   0.0950000   0.0950000   0.5277778  )
         5           Pt0 tau(   5) = (  -0.1550000   0.3450000   0.0000000  )
         6           Pt0 tau(   6) = (   0.0950000   0.5950000   0.1759259  )
         7           Pt0 tau(   7) = (  -0.1550000   0.3450000   0.3518519  )
         8           Pt0 tau(   8) = (   0.0950000   0.5950000   0.5277778  )
         9           Pt0 tau(   9) = (   0.3450000  -0.1550000   0.0000000  )
        10           Pt0 tau(  10) = (   0.5950000   0.0950000   0.1759259  )
        11           Pt0 tau(  11) = (   0.3450000  -0.1550000   0.3518519  )
        12           Pt0 tau(  12) = (   0.5950000   0.0950000   0.5277778  )
        13           Pt0 tau(  13) = (   0.3450000   0.3450000   0.0000000  )
        14           Pt0 tau(  14) = (   0.5950000   0.5950000   0.1759259  )
        15           Pt0 tau(  15) = (   0.3450000   0.3450000   0.3518519  )
        16           Pt0 tau(  16) = (   0.5950000   0.5950000   0.5277778  )
        17           O1  tau(  17) = (   0.0000000   0.0000000   0.0000000  )
        18           O2  tau(  18) = (  -0.3100000  -0.3100000   0.0000000  )
        19           O2  tau(  19) = (   0.2500000  -0.0600000   0.1759259  )
        20           O2  tau(  20) = (  -0.0600000   0.2500000   0.1759259  )
        21           O2  tau(  21) = (   0.0000000   0.0000000   0.3518519  )
        22           O2  tau(  22) = (  -0.3100000  -0.3100000   0.3518519  )
        23           O2  tau(  23) = (   0.2500000  -0.0600000   0.5277778  )
        24           O2  tau(  24) = (  -0.0600000   0.2500000   0.5277778  )
        25           O2  tau(  25) = (   0.0000000   0.5000000   0.0000000  )
        26           O2  tau(  26) = (  -0.3100000   0.1900000   0.0000000  )
        27           O2  tau(  27) = (   0.2500000   0.4400000   0.1759259  )
        28           O2  tau(  28) = (  -0.0600000   0.7500000   0.1759259  )
        29           O2  tau(  29) = (   0.0000000   0.5000000   0.3518519  )
        30           O2  tau(  30) = (  -0.3100000   0.1900000   0.3518519  )
        31           O2  tau(  31) = (   0.2500000   0.4400000   0.5277778  )
        32           O2  tau(  32) = (  -0.0600000   0.7500000   0.5277778  )
        33           O2  tau(  33) = (   0.5000000   0.0000000   0.0000000  )
        34           O2  tau(  34) = (   0.1900000  -0.3100000   0.0000000  )
        35           O2  tau(  35) = (   0.7500000  -0.0600000   0.1759259  )
        36           O2  tau(  36) = (   0.4400000   0.2500000   0.1759259  )
        37           O2  tau(  37) = (   0.5000000   0.0000000   0.3518519  )
        38           O2  tau(  38) = (   0.1900000  -0.3100000   0.3518519  )
        39           O2  tau(  39) = (   0.7500000  -0.0600000   0.5277778  )
        40           O2  tau(  40) = (   0.4400000   0.2500000   0.5277778  )
        41           O2  tau(  41) = (   0.5000000   0.5000000   0.0000000  )
        42           O2  tau(  42) = (   0.1900000   0.1900000   0.0000000  )
        43           O2  tau(  43) = (   0.7500000   0.4400000   0.1759259  )
        44           O2  tau(  44) = (   0.4400000   0.7500000   0.1759259  )
        45           O2  tau(  45) = (   0.5000000   0.5000000   0.3518519  )
        46           O2  tau(  46) = (   0.1900000   0.1900000   0.3518519  )
        47           O2  tau(  47) = (   0.7500000   0.4400000   0.5277778  )
        48           O2  tau(  48) = (   0.4400000   0.7500000   0.5277778  )

     number of k points=    42  Methfessel-Paxton smearing, width (Ry)=  0.0100
                       cart. coord. in units 2pi/alat
        k(    1) = (   0.0000000   0.0000000   0.0000000), wk =   0.0156250
        k(    2) = (   0.0000000   0.0000000   0.3552632), wk =   0.0312500
        k(    3) = (   0.0000000   0.0000000  -0.7105263), wk =   0.0156250
        k(    4) = (   0.0000000   0.2500000   0.0000000), wk =   0.0625000
        k(    5) = (   0.0000000   0.2500000   0.3552632), wk =   0.1250000
        k(    6) = (   0.0000000   0.2500000  -0.7105263), wk =   0.0625000
        k(    7) = (   0.0000000  -0.5000000   0.0000000), wk =   0.0312500
        k(    8) = (   0.0000000  -0.5000000   0.3552632), wk =   0.0625000
        k(    9) = (   0.0000000  -0.5000000  -0.7105263), wk =   0.0312500
        k(   10) = (   0.2500000   0.2500000   0.0000000), wk =   0.0312500
        k(   11) = (   0.2500000   0.2500000   0.3552632), wk =   0.0625000
        k(   12) = (   0.2500000   0.2500000  -0.7105263), wk =   0.0312500
        k(   13) = (   0.2500000  -0.5000000   0.0000000), wk =   0.0625000
        k(   14) = (   0.2500000  -0.5000000   0.3552632), wk =   0.1250000
        k(   15) = (   0.2500000  -0.5000000  -0.7105263), wk =   0.0625000
        k(   16) = (  -0.5000000  -0.5000000   0.0000000), wk =   0.0156250
        k(   17) = (  -0.5000000  -0.5000000   0.3552632), wk =   0.0312500
        k(   18) = (  -0.5000000  -0.5000000  -0.7105263), wk =   0.0156250
        k(   19) = (   0.2500000  -0.2500000   0.0000000), wk =   0.0312500
        k(   20) = (   0.2500000  -0.2500000   0.3552632), wk =   0.0625000
        k(   21) = (   0.2500000  -0.2500000  -0.7105263), wk =   0.0312500
        k(   22) = (   0.0000000   0.0000000   0.0000000), wk =   0.0156250
        k(   23) = (   0.0000000   0.0000000   0.3552632), wk =   0.0312500
        k(   24) = (   0.0000000   0.0000000  -0.7105263), wk =   0.0156250
        k(   25) = (   0.0000000   0.2500000   0.0000000), wk =   0.0625000
        k(   26) = (   0.0000000   0.2500000   0.3552632), wk =   0.1250000
        k(   27) = (   0.0000000   0.2500000  -0.7105263), wk =   0.0625000
        k(   28) = (   0.0000000  -0.5000000   0.0000000), wk =   0.0312500
        k(   29) = (   0.0000000  -0.5000000   0.3552632), wk =   0.0625000
        k(   30) = (   0.0000000  -0.5000000  -0.7105263), wk =   0.0312500
        k(   31) = (   0.2500000   0.2500000   0.0000000), wk =   0.0312500
        k(   32) = (   0.2500000   0.2500000   0.3552632), wk =   0.0625000
        k(   33) = (   0.2500000   0.2500000  -0.7105263), wk =   0.0312500
        k(   34) = (   0.2500000  -0.5000000   0.0000000), wk =   0.0625000
        k(   35) = (   0.2500000  -0.5000000   0.3552632), wk =   0.1250000
        k(   36) = (   0.2500000  -0.5000000  -0.7105263), wk =   0.0625000
[...]
    eigenvectors:
  0.000  1.000  0.000
  0.500  0.000  0.500
  0.500  0.000  0.500
    occupations:
  0.848 -0.000 -0.000
 -0.000  0.910 -0.064
 -0.000 -0.064  0.910
   spin  2
    eigenvalues:
  0.845  0.848  0.974
    eigenvectors:
  0.000  1.000  0.000
  0.500  0.000  0.500
  0.500  0.000  0.500
    occupations:
  0.848 -0.000 -0.000
 -0.000  0.910 -0.064
 -0.000 -0.064  0.910
atomic mag. moment =    -0.000000
atom   42   Tr[ns(na)] (up, down, total) =   2.66714  2.66714  5.33429
   spin  1
    eigenvalues:
  0.845  0.848  0.974
    eigenvectors:
  0.000  1.000  0.000
  0.500  0.000  0.500
  0.500  0.000  0.500
    occupations:
  0.848 -0.000 -0.000
 -0.000  0.910 -0.064
 -0.000 -0.064  0.910
   spin  2
    eigenvalues:
  0.845  0.848  0.974
    eigenvectors:
  0.000  1.000  0.000
  0.500  0.000  0.500
  0.500  0.000  0.500
    occupations:
  0.848 -0.000 -0.000
 -0.000  0.910 -0.064
 -0.000 -0.064  0.910
atomic mag. moment =    -0.000000
atom   43   Tr[ns(na)] (up, down, total) =   2.66725  2.66725  5.33451
   spin  1
    eigenvalues:
  0.845  0.848  0.974
    eigenvectors:
  0.000  1.000  0.000
  0.500  0.000  0.500
  0.500  0.000  0.500
    occupations:
  0.848 -0.000  0.000
 -0.000  0.910  0.064
  0.000  0.064  0.910
   spin  2
    eigenvalues:
  0.845  0.848  0.974
    eigenvectors:
  0.000  1.000  0.000
  0.500  0.000  0.500
  0.500  0.000  0.500
    occupations:
  0.848 -0.000  0.000
 -0.000  0.910  0.064
  0.000  0.064  0.910
atomic mag. moment =    -0.000000
atom   44   Tr[ns(na)] (up, down, total) =   2.66725  2.66725  5.33451
   spin  1
    eigenvalues:
  0.845  0.848  0.974
    eigenvectors:
  0.000  1.000  0.000
  0.500  0.000  0.500
  0.500  0.000  0.500
    occupations:
  0.848  0.000 -0.000
  0.000  0.910  0.064
 -0.000  0.064  0.910
   spin  2
    eigenvalues:
  0.845  0.848  0.974
    eigenvectors:
  0.000  1.000  0.000
  0.500  0.000  0.500
  0.500  0.000  0.500
    occupations:
  0.848  0.000 -0.000
  0.000  0.910  0.064
 -0.000  0.064  0.910
atomic mag. moment =    -0.000000
atom   45   Tr[ns(na)] (up, down, total) =   2.66722  2.66722  5.33444
   spin  1
    eigenvalues:
  0.845  0.848  0.974
    eigenvectors:
  0.000  1.000  0.000
  0.500  0.000  0.500
  0.500  0.000  0.500
    occupations:
  0.848 -0.000 -0.000
 -0.000  0.910 -0.064
 -0.000 -0.064  0.910
   spin  2
    eigenvalues:
  0.845  0.848  0.974
    eigenvectors:
  0.000  1.000  0.000
  0.500  0.000  0.500
  0.500  0.000  0.500
    occupations:
  0.848 -0.000 -0.000
 -0.000  0.910 -0.064
 -0.000 -0.064  0.910
atomic mag. moment =    -0.000000
atom   46   Tr[ns(na)] (up, down, total) =   2.66747  2.66747  5.33494
   spin  1
    eigenvalues:
  0.845  0.848  0.974
    eigenvectors:
  0.000  1.000  0.000
  0.500  0.000  0.500
  0.500  0.000  0.500
    occupations:
  0.848 -0.000 -0.000
 -0.000  0.910 -0.064
 -0.000 -0.064  0.910
   spin  2
    eigenvalues:
  0.845  0.848  0.974
    eigenvectors:
  0.000  1.000  0.000
  0.500  0.000  0.500
  0.500  0.000  0.500
    occupations:
  0.848 -0.000 -0.000
 -0.000  0.910 -0.064
 -0.000 -0.064  0.910
atomic mag. moment =    -0.000000
atom   47   Tr[ns(na)] (up, down, total) =   2.66725  2.66725  5.33451
   spin  1
    eigenvalues:
  0.845  0.848  0.974
    eigenvectors:
  0.000  1.000  0.000
  0.500  0.000  0.500
  0.500  0.000  0.500
    occupations:
  0.848  0.000 -0.000
  0.000  0.910  0.064
 -0.000  0.064  0.910
   spin  2
    eigenvalues:
  0.845  0.848  0.974
    eigenvectors:
  0.000  1.000  0.000
  0.500  0.000  0.500
  0.500  0.000  0.500
    occupations:
  0.848  0.000 -0.000
  0.000  0.910  0.064
 -0.000  0.064  0.910
atomic mag. moment =    -0.000000
atom   48   Tr[ns(na)] (up, down, total) =   2.66725  2.66725  5.33451
   spin  1
    eigenvalues:
  0.845  0.848  0.974
    eigenvectors:
  0.000  1.000  0.000
  0.500  0.000  0.500
  0.500  0.000  0.500
    occupations:
  0.848 -0.000  0.000
 -0.000  0.910  0.064
  0.000  0.064  0.910
   spin  2
    eigenvalues:
  0.845  0.848  0.974
    eigenvectors:
  0.000  1.000  0.000
  0.500  0.000  0.500
  0.500  0.000  0.500
    occupations:
  0.848 -0.000  0.000
 -0.000  0.910  0.064
  0.000  0.064  0.910
atomic mag. moment =    -0.000000
N of occupied +U levels = 308.8080927
 --- exit write_ns ---

 ------ SPIN UP ------------

          k = 0.0000 0.0000 0.0000 ( 15677 PWs)   bands (ev):

   -41.9298 -41.9298 -41.9297 -41.9296 -41.9295 -41.9295 -41.9292 -41.9292
   -41.8783 -41.8746 -41.8746 -41.8745 -41.8744 -41.8743 -41.8742 -41.8705
   -41.7129 -41.7128 -41.7125 -41.7124 -41.7118 -41.7117 -41.7113 -41.7109
   -41.7084 -41.7084 -41.7082 -41.7081 -41.7081 -41.7079 -41.7077 -41.7070
   -41.6066 -41.6066 -41.6065 -41.6061 -41.6056 -41.6056 -41.6052 -41.6050
   -41.5994 -41.5992 -41.5992 -41.5991 -41.5991 -41.5990 -41.5987 -41.5984
    -7.8178  -7.1788  -7.1768  -7.0852  -7.0850  -7.0848  -7.0807  -6.6860
    -6.5495  -6.5494  -6.5494  -6.5469  -6.5437  -6.5400  -6.4278  -6.4256
    -6.2863  -6.2842  -6.1952  -6.1935  -6.1787  -6.1787  -6.1786  -6.1737
    -6.0404  -6.0403  -6.0402  -6.0356  -5.8640  -5.8615  -5.7420  -5.7396
     3.2680   3.3551   3.3575   3.4267   4.4681   4.4714   4.4721   4.4723
     4.5642   4.5676   4.5679   4.5681   4.6496   4.6499   4.7401   4.7416
     4.7900   4.7912   4.8074   4.8087   4.9073   4.9098   4.9098   4.9101
     5.0541   5.0565   5.0567   5.0567   5.3061   5.3061   5.4136   5.4151
     5.4240   5.6682   5.6690   5.9901   5.9906   6.1691   6.1716   6.1717
     6.1720   6.8688   6.8717   6.8728   6.8728   6.8910   6.8938   6.8943
     6.8943   7.0117   7.0129   7.0358   7.0369   7.3226   7.3237   7.3241
     7.3243   7.4918   7.4932   7.5405   7.5428   7.5428   7.5432   7.5592
     7.5603   7.8552   7.9666   7.9692   7.9693   7.9698   8.0686   8.0697
     8.2510   8.2513   8.3462   8.3469   8.6458   8.6478   8.9650   8.9655
     9.0492   9.0494   9.0496   9.0500   9.0726   9.1701   9.1702   9.1853
     9.1854   9.1954   9.1955   9.3559   9.3830   9.4833   9.4835   9.5451
     9.5453   9.5537   9.5538   9.5676   9.5676   9.5680   9.5683   9.5771
     9.6197   9.6205   9.9616   9.9650   9.9652   9.9653   9.9866   9.9878
     9.9878   9.9881  10.2265  10.2282  10.2282  10.2283  10.2737  10.2744
    10.4678  10.4685  10.4686  10.4690  10.9709  11.1900  11.1910  11.4148
    11.4156  11.5731  11.5739  11.7011  11.7024  11.7025  11.7028  11.8562
    12.0818  12.0818  12.0821  12.0829  12.3033  12.3038  12.3521  12.3528
    12.5678  12.5688  12.5689  12.5690  12.9268  13.5205  13.5206  13.5463
    13.5464  13.6611  13.6619  14.0200  14.0202  14.5131  14.5132  14.8814
    14.8814  14.8816  14.8820  15.0560  15.0562  15.0563  15.0564  15.4957
    15.4959  15.5112  15.5114  15.8682  15.8683  15.8683  15.8684  16.2520
    16.7695  19.3333  19.3340  19.3341  19.3353  20.7983  20.7989  21.1052
    21.1053  21.2856  21.2862  21.3126  21.3128  21.3626  21.3629  22.1050
    22.1051  22.1061  22.1068  22.1281  22.1285  22.1285  22.1292  22.1519
    22.1521  22.1528  22.1528  22.2150  22.2153  23.0231  24.2397  24.2398
    24.3539  24.3542  24.6833  24.6837  25.1672  25.1674  25.2119  25.2119
    25.4748  25.7238  25.7374  25.7377  25.7386  25.7389  25.7583  25.7585
    25.7587  25.7590  26.2566  26.2568  26.2570  26.2571  26.6515  26.6520
    26.7214  26.7215  27.2519  27.2520  27.2523  27.2525  27.2725  27.2726
    27.5325  27.5331  27.5333  27.5340  27.5788  28.0527  28.3263  28.5495
    28.5496  28.8834  28.8835  28.8843  28.8845  29.0967  29.0976  29.8177
    29.8183  29.8184  29.8196  29.8546  29.8548  29.9783  29.9786  30.0547
    30.0548  30.1027  30.1028  30.1035  30.1037  30.3897  30.3898  30.3940
    30.3940  30.3941  30.3943  30.3947  30.4099  30.4211  30.4212  30.4212
    30.4214  30.4220  30.4222  30.7868  30.7870  30.8008  31.0364  31.0367
    31.0370  31.0378  31.7054  31.7055  31.7890  31.7890  32.2837  32.2837
    32.2841  32.2847  32.7950  32.7953  32.9356  32.9359  33.3496  33.3505
    33.8697  33.8698  33.9336  33.9337  34.3428  34.3432  34.3433  34.3441
    34.7984  34.7988  34.8619  34.8623  34.8910  34.8913  34.8914  34.8919
    35.0777  35.0777  35.3348  35.3349  35.5520  36.1784  36.1789  36.1820
    36.1826  36.1827  36.1829  36.2435  36.2440  36.2440  36.2444  36.9244
    36.9245  37.0009  37.0012  37.0016  37.0020  37.2755  37.4691  37.4694
    37.4696  37.4697  37.5242  37.5248  37.5395  37.5399  37.8337  38.0340
    38.0341  38.3533  38.3535  38.3538  38.3541  38.6279  38.6283  38.7320
    38.7325  38.8323  38.8325  38.8326  38.8330  38.9477  38.9480  39.1026
    39.1033  39.1428  39.1646  39.1648  39.1649  39.1652  39.5733  39.6512
    40.1916  40.1918  40.3607  40.3611  40.6111  41.0893  41.0896  41.0897
    41.0900  41.1076  41.1079  41.2911  41.2912  41.2917  41.2917  41.3863
    41.3866  41.8743  41.8744  42.0511  42.1636  42.1637  42.1639  42.1648
[...]
    47.1398  47.2066  47.2443  47.2444  47.6962  47.6964  47.7647  47.7648
    47.7649  47.7655  47.8395  47.8400  48.1804  48.1811  48.3353  48.3359
    48.4829  48.4830  48.4924  48.4927  48.5423  48.5424  48.5429  48.5433
    48.8138  48.8144  49.1245  49.1246  49.1247  49.1258  49.2175  49.2176
    49.3036  49.3037  49.5497  49.5498  49.5499  49.5503  49.6870  50.1033
    50.1036  50.3037  50.3044  50.3771  50.3771  50.4855  50.6068  50.6070
    50.7692  50.7694  50.7695  50.7696  51.1626  51.1629  51.1629  51.1631
    51.2612  51.2615  51.5651  51.5651  51.6239  51.6240  51.6265  51.6265
    51.6266  51.6268  51.9404  52.0654  52.0661  52.1143  52.1143  52.1144
    52.1146  52.2205  52.2208  52.6726  52.6728  52.8765  52.8768  52.8772
    52.8775  53.0185  53.0894  53.0896  53.1321  53.4405  53.4406  53.4613
    53.7650  54.2384  54.2385  54.2634  54.2637  54.2637  54.2641  54.2990
    54.2994  54.2995  54.2999  54.5292  54.5297  54.5299  54.5300  54.8270
    54.8273  54.9600  54.9601  55.3564  55.3566  55.4287  55.4291  55.4291
    55.4296  55.4483  55.4487  55.4488  55.4491  55.5386  55.5387  55.8649

[...]

          k =-0.5000-0.5000 0.0000 ( 15760 PWs)   bands (ev):

[...]

 ------ SPIN DOWN ----------

[...]

          k =-0.5000-0.5000-0.7105 ( 15672 PWs)   bands (ev):

[...]

          k = 0.2500-0.2500-0.7105 ( 15684 PWs)   bands (ev):

   -41.9045 -41.9044 -41.9034 -41.9031 -41.9030 -41.9030 -41.9025 -41.9023
   -41.9017 -41.9015 -41.9013 -41.9011 -41.9010 -41.9010 -41.8996 -41.8996
   -41.7110 -41.7104 -41.7103 -41.7103 -41.7103 -41.7102 -41.7102 -41.7102
   -41.7102 -41.7102 -41.7101 -41.7095 -41.7095 -41.7093 -41.7091 -41.7090
   -41.6030 -41.6030 -41.6029 -41.6029 -41.6029 -41.6029 -41.6026 -41.6024
   -41.6024 -41.6024 -41.6023 -41.6023 -41.6023 -41.6020 -41.6020 -41.6013
    -7.2540  -7.2518  -6.9597  -6.9594  -6.9592  -6.9567  -6.8787  -6.8750
    -6.7160  -6.7160  -6.5381  -6.5378  -6.5375  -6.5312  -6.4547  -6.4529
    -6.2643  -6.2641  -6.2639  -6.2575  -6.1599  -6.1598  -6.1077  -6.1077
    -6.1076  -6.1066  -6.1012  -6.1011  -6.0657  -6.0614  -5.9914  -5.9866
     3.9452   3.9507   3.9628   3.9660   4.3002   4.3002   4.3090   4.3091
     4.3092   4.3092   4.3167   4.3169   4.8727   4.8735   4.8757   4.8759
     5.0048   5.0071   5.1274   5.1283   5.2073   5.2092   5.2185   5.2202
     5.2202   5.2204   5.3780   5.3851   5.3853   5.3854   5.4259   5.4262
     5.6071   5.6128   5.6128   5.6131   5.9451   5.9459   6.1775   6.1783
     6.1784   6.1786   6.1937   6.1940   6.2166   6.2183   6.7003   6.7042
     6.8311   6.8340   6.9347   6.9357   6.9368   6.9369   7.1450   7.1465
     7.1475   7.1478   7.2825   7.2835   7.7549   7.7555   7.7555   7.7556
     7.7680   7.7681   7.7793   7.7793   7.8067   7.8072   7.8363   7.8370
     7.9297   7.9312   7.9315   7.9315   8.1657   8.1665   8.3755   8.3769
     8.4440   8.4456   8.6063   8.6074   8.7001   8.7002   8.7004   8.7005
     9.1632   9.1643   9.2277   9.2283   9.2284   9.2287   9.2889   9.2892
     9.7412   9.7413   9.7696   9.7696  10.2936  10.2940  10.2942  10.2942
    10.3000  10.3000  10.3794  10.3795  10.4599  10.4628  10.4630  10.4631
    10.5045  10.5058  10.6083  10.6090  10.6090  10.6092  10.6898  10.6900
    10.8276  10.8295  10.9711  10.9718  10.9718  10.9721  11.2432  11.2450
    11.6733  11.6736  11.7771  11.7789  11.7790  11.7791  11.8331  11.8340
    11.9018  11.9024  12.0071  12.0081  12.0082  12.0083  12.3448  12.3455
    13.3103  13.3113  13.3113  13.3125  13.3676  13.3678  13.7027  13.7029
    13.7030  13.7030  13.7342  13.7343  13.9226  13.9226  14.2830  14.2831
    14.3643  14.3650  14.3944  14.3951  14.8092  14.8093  14.8095  14.8095
    15.0663  15.0663  15.6638  15.6638  15.6638  15.6640  15.6957  15.6958
    18.6308  18.6313  19.7596  19.7603  19.7606  19.7613  20.4542  20.4549
    21.2296  21.2301  21.2859  21.2865  21.2867  21.2876  22.2565  22.2573
    22.3489  22.3496  22.5947  22.5956  22.8248  22.8249  22.8605  22.8612
    22.8613  22.8620  22.9848  22.9853  23.0349  23.0350  23.0360  23.0362
    24.4277  24.4278  24.6502  24.6502  24.6525  24.6528  24.6529  24.6539
    25.1466  25.1469  25.6232  25.6236  25.6240  25.6245  25.9557  25.9571
    26.2112  26.2120  26.2731  26.2733  26.6899  26.6902  26.6905  26.6910
    26.9951  26.9951  26.9953  26.9967  27.0170  27.0175  27.1289  27.1289
    27.3456  27.3457  27.4220  27.4222  27.4227  27.4231  27.5165  27.5170
    27.7480  27.7490  28.3641  28.3641  28.3645  28.3648  28.5775  28.5780
    28.5831  28.5835  29.1637  29.1641  29.1644  29.1646  30.3747  30.3752
    30.3808  30.3814  30.3816  30.3817  30.3897  30.3899  30.3939  30.3941
    30.4051  30.4051  30.4053  30.4053  30.4161  30.4165  30.7100  30.7105
    30.7106  30.7110  30.8323  30.8326  31.1419  31.1424  31.6201  31.6201
    31.6207  31.6212  31.7773  31.7776  32.2745  32.2753  32.2882  32.2883
    33.0407  33.0407  33.0413  33.0419  33.1915  33.1915  33.6812  33.6812
    33.7808  33.7820  34.5157  34.5159  34.5160  34.5164  34.5983  34.5992
    34.6467  34.6469  34.6616  34.6621  34.7250  34.7257  34.8149  34.8152
    34.8154  34.8159  35.6442  35.6448  35.6687  35.6688  35.6691  35.6693
    35.7537  35.7537  35.7541  35.7543  35.9576  35.9579  37.2270  37.2271
    37.2274  37.2278  37.3207  37.3211  37.4383  37.4385  37.4835  37.4838
    37.5247  37.5249  37.5251  37.5258  37.5537  37.5543  37.8348  37.8353
    37.8483  37.8485  38.0600  38.0605  38.1193  38.1196  38.3628  38.3633
    38.3637  38.3637  38.5174  38.5176  38.5178  38.5181  38.7021  38.7022
    39.2308  39.2310  39.3704  39.3705  39.3706  39.3718  39.8324  39.8325
    40.3883  40.3894  40.4820  40.4822  40.7077  40.7078  40.8643  40.8644
    40.8645  40.8646  40.9341  40.9345  41.5110  41.5114  41.6154  41.6154
    41.6158  41.6159  41.6301  41.6301  41.8747  41.8749  41.8751  41.8755
[...]
    47.7274  47.7280  47.8581  47.8581  47.8584  47.8587  48.0486  48.0487
    48.0635  48.0636  48.1938  48.1939  48.1942  48.1946  48.3602  48.3606
    48.4060  48.4061  48.6652  48.6654  48.6655  48.6663  49.0304  49.0308
    49.1715  49.1721  49.2604  49.2605  49.2610  49.2611  49.4937  49.4937
    49.6367  49.6370  49.6371  49.6375  49.7312  49.7313  49.7781  49.7784
    49.9136  49.9141  49.9775  49.9777  49.9777  49.9780  50.5891  50.5891
    50.5892  50.5897  50.6209  50.6218  50.8414  50.8418  51.0429  51.0429
    51.1539  51.1543  51.3105  51.3109  51.3109  51.3113  51.7428  51.7431
    52.1126  52.1132  52.2377  52.2378  52.2379  52.2382  52.3522  52.3523
    52.5472  52.5472  52.8860  52.8861  52.9228  52.9230  52.9233  52.9239
    52.9658  52.9662  53.1269  53.1273  53.5645  53.5649  53.7401  53.7402
    53.7402  53.7403  53.7799  53.7799  53.7800  53.7804  53.9628  53.9629
    54.0224  54.0225  54.4507  54.4508  54.4541  54.4546  54.4549  54.4550
    54.7702  54.7705  54.7709  54.7709  54.7911  54.7915  55.2215  55.2216
    55.2830  55.2832  55.3920  55.3922  55.6157  55.6159  55.6160  55.6162

     the Fermi energy is    12.4864 ev

!    total energy              =   -4359.54750381 Ry
     Harris-Foulkes estimate   =   -4359.54750446 Ry
     estimated scf accuracy    <       0.00000069 Ry

     The total energy is the sum of the following terms:

     one-electron contribution =   -1092.71503437 Ry
     hartree contribution      =     841.61500196 Ry
     xc contribution           =   -1097.30369765 Ry
     ewald contribution        =   -3011.11594880 Ry
     Hubbard energy            =      -0.02747038 Ry
     smearing contrib. (-TS)   =      -0.00035458 Ry

     total magnetization       =    -0.00 Bohr mag/cell
     absolute magnetization    =     0.00 Bohr mag/cell

     convergence has been achieved in   7 iterations

     Writing output data file pwscf.save

     General routines

     Parallel routines
     Hubbard U routines

   This run was terminated on:   1: 8:13  12Feb2014

   JOB DONE.