     Program PWSCF v.5.0.2 (svn rev. 9656) starts on 11Feb2014 at 14:53: 9

     Current dimensions of program PWSCF are:
     Max number of different atomic species (ntypx) = 10
     Max number of k-points (npk) =  40000
     Max angular momentum in pseudopotentials (lmaxx) =  3
     Reading input from alpha_-0.15/alpha_-0.15.in
Warning: card &IONS ignored
Warning: card / ignored
Warning: card &CELL ignored
Warning: card / ignored

     Subspace diagonalization in iterative solution of the eigenvalue problem:
     a serial algorithm will be used

     bravais-lattice index     =            0
     lattice parameter (alat)  =      17.3477  a.u.
     unit-cell volume          =    3673.7913 (a.u.)^3
     number of atoms/cell      =           48
     number of atomic types    =            3
     number of electrons       =       448.00
     number of Kohn-Sham states=          672
     kinetic-energy cutoff     =      40.0000  Ry
     charge density cutoff     =     500.0000  Ry
     convergence threshold     =      1.0E-06
     mixing beta               =       0.7000
     number of iterations used =            8  plain     mixing
     Exchange-correlation      = SLA  PW   PBE  PBE ( 1 4 3 4 0)
     EXX-fraction              =        0.00

     celldm(1)=  17.347686  celldm(2)=   0.000000  celldm(3)=   0.000000
     celldm(4)=   0.000000  celldm(5)=   0.000000  celldm(6)=   0.000000

     crystal axes: (cart. coord. in units of alat)
               a(1) = (   1.000000   0.000000   0.000000 )
               a(2) = (   0.000000   1.000000   0.000000 )
               a(3) = (   0.000000   0.000000   0.703704 )

     reciprocal axes: (cart. coord. in units 2 pi/alat)
               b(1) = (  1.000000  0.000000  0.000000 )
               b(2) = (  0.000000  1.000000  0.000000 )
               b(3) = (  0.000000  0.000000  1.421053 )

     PseudoPot. # 1 for Pt read from file:
     /home/camp/zhonxu/pseudo/pt_pbe_v1.uspp.F.UPF
     MD5 check sum: 4c71d6ad5ef119f1eb26a4d0b7884226
     Pseudo is Ultrasoft + core correction, Zval = 16.0
     Generated by new atomic code, or converted to UPF format
     Using radial grid of  985 points,  6 beta functions with:
                l(1) =   0
                l(2) =   0
                l(3) =   1
                l(4) =   1
                l(5) =   2
                l(6) =   2
     Q(r) pseudized with  8 coefficients,  rinner =    1.300   1.300   1.300
                                                       1.300   1.300

     PseudoPot. # 2 for O  read from file:
     /home/camp/zhonxu/pseudo/o_pbe_v1.01.uspp.F.UPF
     MD5 check sum: 2bcb18d16ea4b960afae9ec6d52f22d2
     Pseudo is Ultrasoft + core correction, Zval =  6.0
     Generated by new atomic code, or converted to UPF format
     Using radial grid of  737 points,  5 beta functions with:
                l(1) =   0
                l(2) =   0
                l(3) =   1
                l(4) =   1
                l(5) =   2
     Q(r) pseudized with  8 coefficients,  rinner =    0.900   0.900   0.900
                                                       0.900   0.900

     PseudoPot. # 3 for O  read from file:
     /home/camp/zhonxu/pseudo/o_pbe_v1.01.uspp.F.UPF
     MD5 check sum: 2bcb18d16ea4b960afae9ec6d52f22d2
     Pseudo is Ultrasoft + core correction, Zval =  6.0
     Generated by new atomic code, or converted to UPF format
     Using radial grid of  737 points,  5 beta functions with:
                l(1) =   0
                l(2) =   0
                l(3) =   1
                l(4) =   1
                l(5) =   2
     Q(r) pseudized with  8 coefficients,  rinner =    0.900   0.900   0.900
                                                       0.900   0.900

     atomic species   valence    mass     pseudopotential
        Pt0           16.00   195.08000     Pt( 1.00)
        O1             6.00    15.99940     O ( 1.00)
        O2             6.00    15.99940     O ( 1.00)

     Starting magnetic structure
     atomic species   magnetization
        Pt0          0.000
        O1           0.000
        O2           0.000

     Simplified LDA+U calculation (l_max = 2) with parameters (eV):
     atomic species    L          U    alpha       J0     beta
        Pt0            2     0.0000   0.0000   0.0000   0.0000
        O1             1     0.0000  -0.1500   0.0000   0.0000
        O2             1     0.0000   0.0000   0.0000   0.0000

      4 Sym. Ops. (no inversion) found

   Cartesian axes

     site n.     atom                  positions (alat units)
         1           Pt0 tau(   1) = (  -0.1550000  -0.1550000   0.0000000  )
         2           Pt0 tau(   2) = (   0.0950000   0.0950000   0.1759259  )
         3           Pt0 tau(   3) = (  -0.1550000  -0.1550000   0.3518519  )
         4           Pt0 tau(   4) = (   0.0950000   0.0950000   0.5277778  )
         5           Pt0 tau(   5) = (  -0.1550000   0.3450000   0.0000000  )
         6           Pt0 tau(   6) = (   0.0950000   0.5950000   0.1759259  )
         7           Pt0 tau(   7) = (  -0.1550000   0.3450000   0.3518519  )
         8           Pt0 tau(   8) = (   0.0950000   0.5950000   0.5277778  )
         9           Pt0 tau(   9) = (   0.3450000  -0.1550000   0.0000000  )
        10           Pt0 tau(  10) = (   0.5950000   0.0950000   0.1759259  )
        11           Pt0 tau(  11) = (   0.3450000  -0.1550000   0.3518519  )
        12           Pt0 tau(  12) = (   0.5950000   0.0950000   0.5277778  )
        13           Pt0 tau(  13) = (   0.3450000   0.3450000   0.0000000  )
        14           Pt0 tau(  14) = (   0.5950000   0.5950000   0.1759259  )
        15           Pt0 tau(  15) = (   0.3450000   0.3450000   0.3518519  )
        16           Pt0 tau(  16) = (   0.5950000   0.5950000   0.5277778  )
        17           O1  tau(  17) = (   0.0000000   0.0000000   0.0000000  )
        18           O2  tau(  18) = (  -0.3100000  -0.3100000   0.0000000  )
        19           O2  tau(  19) = (   0.2500000  -0.0600000   0.1759259  )
        20           O2  tau(  20) = (  -0.0600000   0.2500000   0.1759259  )
        21           O2  tau(  21) = (   0.0000000   0.0000000   0.3518519  )
        22           O2  tau(  22) = (  -0.3100000  -0.3100000   0.3518519  )
        23           O2  tau(  23) = (   0.2500000  -0.0600000   0.5277778  )
        24           O2  tau(  24) = (  -0.0600000   0.2500000   0.5277778  )
        25           O2  tau(  25) = (   0.0000000   0.5000000   0.0000000  )
        26           O2  tau(  26) = (  -0.3100000   0.1900000   0.0000000  )
        27           O2  tau(  27) = (   0.2500000   0.4400000   0.1759259  )
        28           O2  tau(  28) = (  -0.0600000   0.7500000   0.1759259  )
        29           O2  tau(  29) = (   0.0000000   0.5000000   0.3518519  )
        30           O2  tau(  30) = (  -0.3100000   0.1900000   0.3518519  )
        31           O2  tau(  31) = (   0.2500000   0.4400000   0.5277778  )
        32           O2  tau(  32) = (  -0.0600000   0.7500000   0.5277778  )
        33           O2  tau(  33) = (   0.5000000   0.0000000   0.0000000  )
        34           O2  tau(  34) = (   0.1900000  -0.3100000   0.0000000  )
        35           O2  tau(  35) = (   0.7500000  -0.0600000   0.1759259  )
        36           O2  tau(  36) = (   0.4400000   0.2500000   0.1759259  )
        37           O2  tau(  37) = (   0.5000000   0.0000000   0.3518519  )
        38           O2  tau(  38) = (   0.1900000  -0.3100000   0.3518519  )
        39           O2  tau(  39) = (   0.7500000  -0.0600000   0.5277778  )
        40           O2  tau(  40) = (   0.4400000   0.2500000   0.5277778  )
        41           O2  tau(  41) = (   0.5000000   0.5000000   0.0000000  )
        42           O2  tau(  42) = (   0.1900000   0.1900000   0.0000000  )
        43           O2  tau(  43) = (   0.7500000   0.4400000   0.1759259  )
        44           O2  tau(  44) = (   0.4400000   0.7500000   0.1759259  )
        45           O2  tau(  45) = (   0.5000000   0.5000000   0.3518519  )
        46           O2  tau(  46) = (   0.1900000   0.1900000   0.3518519  )
        47           O2  tau(  47) = (   0.7500000   0.4400000   0.5277778  )
        48           O2  tau(  48) = (   0.4400000   0.7500000   0.5277778  )

     number of k points=    42  Methfessel-Paxton smearing, width (Ry)=  0.0100
                       cart. coord. in units 2pi/alat
        k(    1) = (   0.0000000   0.0000000   0.0000000), wk =   0.0156250
        k(    2) = (   0.0000000   0.0000000   0.3552632), wk =   0.0312500
        k(    3) = (   0.0000000   0.0000000  -0.7105263), wk =   0.0156250
        k(    4) = (   0.0000000   0.2500000   0.0000000), wk =   0.0625000
        k(    5) = (   0.0000000   0.2500000   0.3552632), wk =   0.1250000
        k(    6) = (   0.0000000   0.2500000  -0.7105263), wk =   0.0625000
        k(    7) = (   0.0000000  -0.5000000   0.0000000), wk =   0.0312500
        k(    8) = (   0.0000000  -0.5000000   0.3552632), wk =   0.0625000
        k(    9) = (   0.0000000  -0.5000000  -0.7105263), wk =   0.0312500
        k(   10) = (   0.2500000   0.2500000   0.0000000), wk =   0.0312500
        k(   11) = (   0.2500000   0.2500000   0.3552632), wk =   0.0625000
        k(   12) = (   0.2500000   0.2500000  -0.7105263), wk =   0.0312500
        k(   13) = (   0.2500000  -0.5000000   0.0000000), wk =   0.0625000
        k(   14) = (   0.2500000  -0.5000000   0.3552632), wk =   0.1250000
        k(   15) = (   0.2500000  -0.5000000  -0.7105263), wk =   0.0625000
        k(   16) = (  -0.5000000  -0.5000000   0.0000000), wk =   0.0156250
        k(   17) = (  -0.5000000  -0.5000000   0.3552632), wk =   0.0312500
        k(   18) = (  -0.5000000  -0.5000000  -0.7105263), wk =   0.0156250
        k(   19) = (   0.2500000  -0.2500000   0.0000000), wk =   0.0312500
        k(   20) = (   0.2500000  -0.2500000   0.3552632), wk =   0.0625000
        k(   21) = (   0.2500000  -0.2500000  -0.7105263), wk =   0.0312500
        k(   22) = (   0.0000000   0.0000000   0.0000000), wk =   0.0156250
        k(   23) = (   0.0000000   0.0000000   0.3552632), wk =   0.0312500
        k(   24) = (   0.0000000   0.0000000  -0.7105263), wk =   0.0156250
        k(   25) = (   0.0000000   0.2500000   0.0000000), wk =   0.0625000
        k(   26) = (   0.0000000   0.2500000   0.3552632), wk =   0.1250000
        k(   27) = (   0.0000000   0.2500000  -0.7105263), wk =   0.0625000
        k(   28) = (   0.0000000  -0.5000000   0.0000000), wk =   0.0312500
        k(   29) = (   0.0000000  -0.5000000   0.3552632), wk =   0.0625000
        k(   30) = (   0.0000000  -0.5000000  -0.7105263), wk =   0.0312500
        k(   31) = (   0.2500000   0.2500000   0.0000000), wk =   0.0312500
        k(   32) = (   0.2500000   0.2500000   0.3552632), wk =   0.0625000
        k(   33) = (   0.2500000   0.2500000  -0.7105263), wk =   0.0312500
        k(   34) = (   0.2500000  -0.5000000   0.0000000), wk =   0.0625000
        k(   35) = (   0.2500000  -0.5000000   0.3552632), wk =   0.1250000
        k(   36) = (   0.2500000  -0.5000000  -0.7105263), wk =   0.0625000
[...]
    eigenvectors:
  0.000  1.000  0.000
  0.500  0.000  0.500
  0.500  0.000  0.500
    occupations:
  0.848 -0.000 -0.000
 -0.000  0.910 -0.064
 -0.000 -0.064  0.910
   spin  2
    eigenvalues:
  0.845  0.848  0.974
    eigenvectors:
  0.000  1.000  0.000
  0.500  0.000  0.500
  0.500  0.000  0.500
    occupations:
  0.848 -0.000 -0.000
 -0.000  0.910 -0.064
 -0.000 -0.064  0.910
atomic mag. moment =    -0.000000
atom   42   Tr[ns(na)] (up, down, total) =   2.66700  2.66700  5.33401
   spin  1
    eigenvalues:
  0.845  0.848  0.974
    eigenvectors:
  0.000  1.000  0.000
  0.500  0.000  0.500
  0.500  0.000  0.500
    occupations:
  0.848 -0.000 -0.000
 -0.000  0.910 -0.064
 -0.000 -0.064  0.910
   spin  2
    eigenvalues:
  0.845  0.848  0.974
    eigenvectors:
  0.000  1.000  0.000
  0.500  0.000  0.500
  0.500  0.000  0.500
    occupations:
  0.848 -0.000 -0.000
 -0.000  0.910 -0.064
 -0.000 -0.064  0.910
atomic mag. moment =    -0.000000
atom   43   Tr[ns(na)] (up, down, total) =   2.66721  2.66721  5.33442
   spin  1
    eigenvalues:
  0.845  0.848  0.974
    eigenvectors:
  0.000  1.000  0.000
  0.500  0.000  0.500
  0.500  0.000  0.500
    occupations:
  0.848 -0.000 -0.000
 -0.000  0.910  0.064
 -0.000  0.064  0.910
   spin  2
    eigenvalues:
  0.845  0.848  0.974
    eigenvectors:
  0.000  1.000  0.000
  0.500  0.000  0.500
  0.500  0.000  0.500
    occupations:
  0.848 -0.000 -0.000
 -0.000  0.910  0.064
 -0.000  0.064  0.910
atomic mag. moment =    -0.000000
atom   44   Tr[ns(na)] (up, down, total) =   2.66721  2.66721  5.33442
   spin  1
    eigenvalues:
  0.845  0.848  0.974
    eigenvectors:
  0.000  1.000  0.000
  0.500  0.000  0.500
  0.500  0.000  0.500
    occupations:
  0.848 -0.000 -0.000
 -0.000  0.910  0.064
 -0.000  0.064  0.910
   spin  2
    eigenvalues:
  0.845  0.848  0.974
    eigenvectors:
  0.000  1.000  0.000
  0.500  0.000  0.500
  0.500  0.000  0.500
    occupations:
  0.848 -0.000 -0.000
 -0.000  0.910  0.064
 -0.000  0.064  0.910
atomic mag. moment =    -0.000000
atom   45   Tr[ns(na)] (up, down, total) =   2.66732  2.66732  5.33464
   spin  1
    eigenvalues:
  0.845  0.848  0.974
    eigenvectors:
  0.000  1.000  0.000
  0.500  0.000  0.500
  0.500  0.000  0.500
    occupations:
  0.848 -0.000 -0.000
 -0.000  0.910 -0.064
 -0.000 -0.064  0.910
   spin  2
    eigenvalues:
  0.845  0.848  0.974
    eigenvectors:
  0.000  1.000  0.000
  0.500  0.000  0.500
  0.500  0.000  0.500
    occupations:
  0.848 -0.000 -0.000
 -0.000  0.910 -0.064
 -0.000 -0.064  0.910
atomic mag. moment =    -0.000000
atom   46   Tr[ns(na)] (up, down, total) =   2.66749  2.66749  5.33497
   spin  1
    eigenvalues:
  0.845  0.848  0.974
    eigenvectors:
  0.000  1.000  0.000
  0.500  0.000  0.500
  0.500  0.000  0.500
    occupations:
  0.848 -0.000 -0.000
 -0.000  0.910 -0.064
 -0.000 -0.064  0.910
   spin  2
    eigenvalues:
  0.845  0.848  0.974
    eigenvectors:
  0.000  1.000  0.000
  0.500  0.000  0.500
  0.500  0.000  0.500
    occupations:
  0.848 -0.000 -0.000
 -0.000  0.910 -0.064
 -0.000 -0.064  0.910
atomic mag. moment =    -0.000000
atom   47   Tr[ns(na)] (up, down, total) =   2.66721  2.66721  5.33442
   spin  1
    eigenvalues:
  0.845  0.848  0.974
    eigenvectors:
  0.000  1.000  0.000
  0.500  0.000  0.500
  0.500  0.000  0.500
    occupations:
  0.848  0.000  0.000
  0.000  0.910  0.064
  0.000  0.064  0.910
   spin  2
    eigenvalues:
  0.845  0.848  0.974
    eigenvectors:
  0.000  1.000  0.000
  0.500  0.000  0.500
  0.500  0.000  0.500
    occupations:
  0.848  0.000  0.000
  0.000  0.910  0.064
  0.000  0.064  0.910
atomic mag. moment =    -0.000000
atom   48   Tr[ns(na)] (up, down, total) =   2.66721  2.66721  5.33442
   spin  1
    eigenvalues:
  0.845  0.848  0.974
    eigenvectors:
  0.000  1.000  0.000
  0.500  0.000  0.500
  0.500  0.000  0.500
    occupations:
  0.848  0.000  0.000
  0.000  0.910  0.064
  0.000  0.064  0.910
   spin  2
    eigenvalues:
  0.845  0.848  0.974
    eigenvectors:
  0.000  1.000  0.000
  0.500  0.000  0.500
  0.500  0.000  0.500
    occupations:
  0.848  0.000  0.000
  0.000  0.910  0.064
  0.000  0.064  0.910
atomic mag. moment =    -0.000000
N of occupied +U levels = 308.8087334
 --- exit write_ns ---

 ------ SPIN UP ------------

          k = 0.0000 0.0000 0.0000 ( 15677 PWs)   bands (ev):

   -41.9310 -41.9310 -41.9309 -41.9308 -41.9307 -41.9306 -41.9304 -41.9302
   -41.8795 -41.8758 -41.8758 -41.8757 -41.8755 -41.8753 -41.8752 -41.8716
   -41.7141 -41.7137 -41.7135 -41.7135 -41.7130 -41.7126 -41.7125 -41.7117
   -41.7097 -41.7094 -41.7093 -41.7092 -41.7089 -41.7088 -41.7088 -41.7076
   -41.6080 -41.6079 -41.6074 -41.6072 -41.6070 -41.6066 -41.6063 -41.6061
   -41.6009 -41.6007 -41.6005 -41.6005 -41.6000 -41.5997 -41.5997 -41.5990
    -7.8175  -7.1797  -7.1758  -7.0863  -7.0860  -7.0856  -7.0770  -6.6859
    -6.5505  -6.5503  -6.5500  -6.5471  -6.5445  -6.5348  -6.4285  -6.4239
    -6.2870  -6.2829  -6.1959  -6.1933  -6.1797  -6.1797  -6.1791  -6.1678
    -6.0413  -6.0413  -6.0407  -6.0304  -5.8648  -5.8593  -5.7427  -5.7372
     3.2653   3.3515   3.3567   3.4250   4.4621   4.4697   4.4712   4.4714
     4.5586   4.5665   4.5670   4.5672   4.6477   4.6480   4.7374   4.7409
     4.7868   4.7891   4.8052   4.8080   4.9037   4.9087   4.9091   4.9093
     5.0504   5.0555   5.0557   5.0561   5.3039   5.3039   5.4111   5.4143
     5.4219   5.6654   5.6671   5.9882   5.9892   6.1652   6.1705   6.1707
     6.1715   6.8636   6.8694   6.8718   6.8723   6.8863   6.8929   6.8936
     6.8939   7.0094   7.0122   7.0338   7.0362   7.3200   7.3220   7.3231
     7.3236   7.4896   7.4925   7.5368   7.5418   7.5419   7.5429   7.5574
     7.5597   7.8531   7.9624   7.9677   7.9679   7.9689   8.0657   8.0682
     8.2489   8.2495   8.3448   8.3461   8.6429   8.6471   8.9630   8.9641
     9.0483   9.0484   9.0490   9.0495   9.0719   9.1694   9.1694   9.1845
     9.1847   9.1947   9.1948   9.3552   9.3814   9.4825   9.4826   9.5443
     9.5444   9.5519   9.5522   9.5663   9.5670   9.5671   9.5678   9.5762
     9.6177   9.6194   9.9565   9.9643   9.9644   9.9645   9.9847   9.9866
     9.9872   9.9876  10.2236  10.2270  10.2276  10.2276  10.2719  10.2733
    10.4658  10.4675  10.4676  10.4685  10.9694  11.1882  11.1902  11.4132
    11.4148  11.5713  11.5732  11.6986  11.7014  11.7019  11.7023  11.8555
    12.0807  12.0810  12.0810  12.0828  12.3018  12.3030  12.3506  12.3521
    12.5658  12.5679  12.5681  12.5683  12.9256  13.5194  13.5198  13.5452
    13.5456  13.6598  13.6615  14.0188  14.0194  14.5120  14.5125  14.8800
    14.8803  14.8808  14.8817  15.0546  15.0551  15.0554  15.0558  15.4945
    15.4951  15.5100  15.5106  15.8672  15.8673  15.8674  15.8677  16.2519
    16.7688  19.3326  19.3338  19.3343  19.3364  20.7980  20.7990  21.1052
    21.1054  21.2854  21.2864  21.3124  21.3128  21.3626  21.3633  22.1040
    22.1046  22.1062  22.1080  22.1275  22.1283  22.1284  22.1298  22.1515
    22.1519  22.1535  22.1536  22.2149  22.2156  23.0229  24.2399  24.2400
    24.3537  24.3544  24.6831  24.6839  25.1672  25.1677  25.2119  25.2120
    25.4748  25.7238  25.7368  25.7372  25.7391  25.7401  25.7581  25.7584
    25.7588  25.7598  26.2563  26.2568  26.2572  26.2574  26.6513  26.6525
    26.7213  26.7217  27.2517  27.2518  27.2523  27.2528  27.2725  27.2726
    27.5318  27.5329  27.5333  27.5349  27.5788  28.0525  28.3264  28.5495
    28.5497  28.8829  28.8829  28.8845  28.8852  29.0963  29.0982  29.8170
    29.8180  29.8184  29.8206  29.8545  29.8549  29.9781  29.9787  30.0537
    30.0542  30.1023  30.1024  30.1038  30.1041  30.3879  30.3887  30.3918
    30.3926  30.3927  30.3934  30.3935  30.4085  30.4188  30.4197  30.4198
    30.4205  30.4206  30.4212  30.7859  30.7864  30.8010  31.0359  31.0364
    31.0370  31.0385  31.7054  31.7056  31.7891  31.7891  32.2832  32.2833
    32.2839  32.2853  32.7948  32.7955  32.9353  32.9361  33.3491  33.3510
    33.8697  33.8699  33.9334  33.9337  34.3422  34.3432  34.3433  34.3449
    34.7983  34.7992  34.8617  34.8626  34.8905  34.8911  34.8912  34.8924
    35.0776  35.0777  35.3348  35.3350  35.5521  36.1780  36.1787  36.1814
    36.1826  36.1830  36.1836  36.2429  36.2439  36.2439  36.2448  36.9244
    36.9245  37.0003  37.0009  37.0019  37.0025  37.2752  37.4688  37.4693
    37.4697  37.4700  37.5237  37.5250  37.5394  37.5400  37.8337  38.0340
    38.0341  38.3529  38.3533  38.3540  38.3544  38.6276  38.6286  38.7316
    38.7328  38.8320  38.8324  38.8326  38.8335  38.9474  38.9481  39.1023
    39.1039  39.1428  39.1644  39.1648  39.1649  39.1657  39.5734  39.6511
    40.1915  40.1918  40.3604  40.3612  40.6110  41.0890  41.0896  41.0898
    41.0902  41.1073  41.1081  41.2909  41.2912  41.2919  41.2921  41.3863
    41.3869  41.8741  41.8744  42.0511  42.1631  42.1634  42.1638  42.1657
[...]
    47.1404  47.2063  47.2440  47.2443  47.6959  47.6966  47.7644  47.7649
    47.7649  47.7662  47.8393  47.8404  48.1802  48.1817  48.3350  48.3362
    48.4829  48.4831  48.4922  48.4929  48.5418  48.5419  48.5431  48.5438
    48.8134  48.8146  49.1237  49.1240  49.1246  49.1266  49.2174  49.2177
    49.3037  49.3040  49.5496  49.5498  49.5501  49.5507  49.6867  50.1030
    50.1035  50.3033  50.3045  50.3771  50.3771  50.4854  50.6067  50.6070
    50.7690  50.7693  50.7694  50.7696  51.1623  51.1629  51.1630  51.1635
    51.2611  51.2617  51.5649  51.5650  51.6237  51.6240  51.6261  51.6264
    51.6265  51.6269  51.9406  52.0651  52.0665  52.1142  52.1143  52.1145
    52.1149  52.2204  52.2210  52.6726  52.6729  52.8758  52.8767  52.8772
    52.8780  53.0187  53.0894  53.0896  53.1320  53.4406  53.4408  53.4613
    53.7650  54.2383  54.2385  54.2631  54.2637  54.2637  54.2645  54.2985
    54.2993  54.2996  54.3003  54.5286  54.5294  54.5299  54.5302  54.8268
    54.8274  54.9597  54.9602  55.3562  55.3567  55.4281  55.4289  55.4289
    55.4301  55.4478  55.4487  55.4492  55.4495  55.5383  55.5386  55.8646

[...]

          k =-0.5000-0.5000 0.0000 ( 15760 PWs)   bands (ev):

[...]

 ------ SPIN DOWN ----------

[...]

          k =-0.5000-0.5000-0.7105 ( 15672 PWs)   bands (ev):

[...]

          k = 0.2500-0.2500-0.7105 ( 15684 PWs)   bands (ev):

   -41.9058 -41.9056 -41.9044 -41.9043 -41.9043 -41.9040 -41.9037 -41.9035
   -41.9029 -41.9026 -41.9024 -41.9024 -41.9022 -41.9018 -41.9009 -41.9005
   -41.7120 -41.7117 -41.7116 -41.7116 -41.7116 -41.7116 -41.7115 -41.7113
   -41.7113 -41.7110 -41.7109 -41.7105 -41.7102 -41.7101 -41.7098 -41.7096
   -41.6045 -41.6044 -41.6042 -41.6042 -41.6042 -41.6040 -41.6040 -41.6037
   -41.6037 -41.6037 -41.6037 -41.6035 -41.6030 -41.6027 -41.6027 -41.6013
    -7.2552  -7.2500  -6.9606  -6.9605  -6.9601  -6.9549  -6.8799  -6.8713
    -6.7168  -6.7167  -6.5390  -6.5386  -6.5386  -6.5253  -6.4557  -6.4511
    -6.2652  -6.2649  -6.2647  -6.2509  -6.1607  -6.1603  -6.1086  -6.1083
    -6.1082  -6.1064  -6.1018  -6.1018  -6.0669  -6.0565  -5.9927  -5.9796
     3.9362   3.9494   3.9606   3.9647   4.2993   4.2995   4.3078   4.3080
     4.3087   4.3087   4.3157   4.3161   4.8682   4.8695   4.8747   4.8749
     5.0010   5.0056   5.1254   5.1274   5.2039   5.2072   5.2159   5.2193
     5.2194   5.2197   5.3693   5.3840   5.3843   5.3844   5.4248   5.4255
     5.5998   5.6114   5.6122   5.6123   5.9433   5.9449   6.1757   6.1772
     6.1775   6.1779   6.1926   6.1932   6.2142   6.2173   6.6952   6.7031
     6.8271   6.8328   6.9316   6.9336   6.9359   6.9361   7.1410   7.1442
     7.1463   7.1468   7.2807   7.2827   7.7532   7.7545   7.7547   7.7549
     7.7672   7.7673   7.7783   7.7785   7.8055   7.8067   7.8352   7.8360
     7.9271   7.9299   7.9306   7.9310   8.1639   8.1655   8.3733   8.3759
     8.4416   8.4447   8.6038   8.6056   8.6987   8.6988   8.6996   8.6998
     9.1608   9.1628   9.2262   9.2271   9.2276   9.2282   9.2879   9.2881
     9.7401   9.7404   9.7685   9.7688  10.2918  10.2932  10.2932  10.2938
    10.2989  10.2996  10.3783  10.3790  10.4557  10.4620  10.4622  10.4623
    10.5029  10.5049  10.6064  10.6079  10.6080  10.6082  10.6888  10.6894
    10.8249  10.8287  10.9694  10.9708  10.9711  10.9713  11.2407  11.2440
    11.6721  11.6729  11.7742  11.7780  11.7783  11.7784  11.8318  11.8330
    11.9004  11.9015  12.0050  12.0072  12.0075  12.0076  12.3435  12.3445
    13.3080  13.3103  13.3103  13.3127  13.3665  13.3672  13.7018  13.7021
    13.7021  13.7023  13.7334  13.7334  13.9218  13.9219  14.2819  14.2827
    14.3627  14.3641  14.3929  14.3942  14.8079  14.8082  14.8086  14.8090
    15.0654  15.0654  15.6627  15.6627  15.6630  15.6634  15.6948  15.6948
    18.6304  18.6318  19.7587  19.7605  19.7606  19.7625  20.4534  20.4554
    21.2292  21.2306  21.2850  21.2864  21.2867  21.2888  22.2561  22.2581
    22.3482  22.3501  22.5941  22.5964  22.8248  22.8252  22.8596  22.8611
    22.8617  22.8631  22.9843  22.9856  23.0342  23.0345  23.0365  23.0369
    24.4275  24.4278  24.6499  24.6501  24.6520  24.6528  24.6529  24.6551
    25.1467  25.1473  25.6224  25.6234  25.6240  25.6254  25.9550  25.9584
    26.2106  26.2128  26.2729  26.2733  26.6893  26.6898  26.6909  26.6918
    26.9944  26.9948  26.9949  26.9982  27.0167  27.0180  27.1289  27.1289
    27.3455  27.3458  27.4215  27.4220  27.4230  27.4239  27.5160  27.5173
    27.7475  27.7499  28.3639  28.3640  28.3645  28.3653  28.5770  28.5784
    28.5828  28.5840  29.1632  29.1638  29.1644  29.1648  30.3737  30.3738
    30.3797  30.3802  30.3802  30.3811  30.3881  30.3881  30.3925  30.3926
    30.4032  30.4032  30.4039  30.4039  30.4149  30.4150  30.7091  30.7104
    30.7104  30.7117  30.8320  30.8328  31.1416  31.1427  31.6195  31.6198
    31.6207  31.6220  31.7769  31.7778  32.2739  32.2760  32.2881  32.2884
    33.0402  33.0402  33.0414  33.0427  33.1912  33.1913  33.6808  33.6809
    33.7802  33.7831  34.5153  34.5157  34.5158  34.5167  34.5977  34.6001
    34.6466  34.6470  34.6610  34.6623  34.7245  34.7266  34.8143  34.8150
    34.8157  34.8167  35.6440  35.6453  35.6683  35.6685  35.6693  35.6697
    35.7532  35.7534  35.7543  35.7547  35.9573  35.9581  37.2266  37.2269
    37.2275  37.2284  37.3203  37.3213  37.4383  37.4386  37.4832  37.4837
    37.5242  37.5246  37.5254  37.5267  37.5531  37.5546  37.8345  37.8357
    37.8480  37.8487  38.0598  38.0610  38.1189  38.1198  38.3621  38.3631
    38.3642  38.3644  38.5170  38.5174  38.5179  38.5184  38.7018  38.7023
    39.2304  39.2310  39.3698  39.3700  39.3707  39.3730  39.8322  39.8326
    40.3878  40.3904  40.4818  40.4826  40.7077  40.7079  40.8641  40.8643
    40.8645  40.8645  40.9338  40.9348  41.5108  41.5119  41.6149  41.6152
    41.6158  41.6160  41.6302  41.6302  41.8742  41.8748  41.8751  41.8760
[...]
    47.7267  47.7283  47.8578  47.8578  47.8584  47.8589  48.0488  48.0490
    48.0632  48.0636  48.1934  48.1936  48.1941  48.1952  48.3599  48.3607
    48.4057  48.4061  48.6644  48.6650  48.6655  48.6673  49.0300  49.0311
    49.1713  49.1727  49.2599  49.2603  49.2613  49.2615  49.4933  49.4936
    49.6363  49.6369  49.6373  49.6382  49.7309  49.7312  49.7776  49.7786
    49.9133  49.9144  49.9772  49.9776  49.9776  49.9781  50.5888  50.5890
    50.5892  50.5904  50.6202  50.6225  50.8413  50.8422  51.0428  51.0429
    51.1535  51.1547  51.3100  51.3107  51.3108  51.3116  51.7424  51.7431
    52.1121  52.1136  52.2372  52.2376  52.2378  52.2385  52.3519  52.3523
    52.5471  52.5471  52.8859  52.8862  52.9221  52.9224  52.9236  52.9247
    52.9655  52.9667  53.1266  53.1276  53.5641  53.5650  53.7398  53.7401
    53.7402  53.7404  53.7797  53.7798  53.7799  53.7808  53.9626  53.9628
    54.0221  54.0223  54.4506  54.4511  54.4536  54.4547  54.4552  54.4554
    54.7697  54.7705  54.7711  54.7713  54.7907  54.7917  55.2215  55.2218
    55.2831  55.2835  55.3917  55.3923  55.6153  55.6158  55.6158  55.6164

     the Fermi energy is    12.4854 ev

!    total energy              =   -4359.57891437 Ry
     Harris-Foulkes estimate   =   -4359.57891474 Ry
     estimated scf accuracy    <       0.00000040 Ry

     The total energy is the sum of the following terms:

     one-electron contribution =   -1092.71103418 Ry
     hartree contribution      =     841.61128701 Ry
     xc contribution           =   -1097.30394440 Ry
     ewald contribution        =   -3011.11594880 Ry
     Hubbard energy            =      -0.05892373 Ry
     smearing contrib. (-TS)   =      -0.00035027 Ry

     total magnetization       =    -0.00 Bohr mag/cell
     absolute magnetization    =     0.00 Bohr mag/cell

     convergence has been achieved in   8 iterations

     Writing output data file pwscf.save

     General routines

     Parallel routines
     Hubbard U routines

   This run was terminated on:  20:12:36  11Feb2014

   JOB DONE.