     Program PWSCF v.5.0.2 (svn rev. 9656) starts on  9May2014 at 23:51:41

     Current dimensions of program PWSCF are:
     Max number of different atomic species (ntypx) = 10
     Max number of k-points (npk) =  40000
     Max angular momentum in pseudopotentials (lmaxx) =  3
     Reading input from pwscf.in
Warning: card &CELL ignored
Warning: card / ignored

     Subspace diagonalization in iterative solution of the eigenvalue problem:
     a serial algorithm will be used

     bravais-lattice index     =            0
     lattice parameter (alat)  =      10.3179  a.u.
     unit-cell volume          =    6964.3238 (a.u.)^3
     number of atoms/cell      =           32
     number of atomic types    =            3
     number of electrons       =       231.00
     number of Kohn-Sham states=          346
     kinetic-energy cutoff     =      40.0000  Ry
     charge density cutoff     =     500.0000  Ry
     convergence threshold     =      1.0E-06
     mixing beta               =       0.7000
     number of iterations used =            8  plain     mixing
     Exchange-correlation      = SLA  PW   PBE  PBE ( 1 4 3 4 0)
     EXX-fraction              =        0.00
     nstep                     =           50

     celldm(1)=  10.317905  celldm(2)=   0.000000  celldm(3)=   0.000000
     celldm(4)=   0.000000  celldm(5)=   0.000000  celldm(6)=   0.000000

     crystal axes: (cart. coord. in units of alat)
               a(1) = (   1.000000   0.000000   0.000000 )
               a(2) = (   0.000000   1.282117   0.000000 )
               a(3) = (   0.000000   0.000000   4.945120 )

     reciprocal axes: (cart. coord. in units 2 pi/alat)
               b(1) = (  1.000000  0.000000  0.000000 )
               b(2) = (  0.000000  0.779960  0.000000 )
               b(3) = (  0.000000  0.000000  0.202220 )

     PseudoPot. # 1 for O  read from file:
     /home/camp/zhonxu/pseudo/o_pbe_v1.01.uspp.F.UPF
     MD5 check sum: 2bcb18d16ea4b960afae9ec6d52f22d2
     Pseudo is Ultrasoft + core correction, Zval =  6.0
     Generated by new atomic code, or converted to UPF format
     Using radial grid of  737 points,  5 beta functions with:
                l(1) =   0
                l(2) =   0
                l(3) =   1
                l(4) =   1
                l(5) =   2
     Q(r) pseudized with  8 coefficients,  rinner =    0.900   0.900   0.900
                                                       0.900   0.900

     PseudoPot. # 2 for Mo read from file:
     /home/camp/zhonxu/pseudo/mo_pbe_v1.uspp.F.UPF
     MD5 check sum: 30c4dcd161f5d35cd49bb5239c51a633
     Pseudo is Ultrasoft + core correction, Zval = 14.0
     Generated by new atomic code, or converted to UPF format
     Using radial grid of  889 points,  6 beta functions with:
                l(1) =   0
                l(2) =   0
                l(3) =   1
                l(4) =   1
                l(5) =   2
                l(6) =   2
     Q(r) pseudized with  6 coefficients,  rinner =    1.000   1.000   1.000
                                                       1.000   1.000

     PseudoPot. # 3 for H  read from file:
     /home/camp/zhonxu/pseudo/h_pbe_v1.uspp.F.UPF
     MD5 check sum: 3408e3ff4ec8b0a4e358431e7e038a48
     Pseudo is Ultrasoft, Zval =  1.0
     Generated by new atomic code, or converted to UPF format
     Using radial grid of  615 points,  2 beta functions with:
                l(1) =   0
                l(2) =   0
     Q(r) pseudized with  8 coefficients,  rinner =    0.700

     atomic species   valence    mass     pseudopotential
        O0             6.00    15.99940     O ( 1.00)
        Mo1           14.00    95.94000     Mo( 1.00)
        H2             1.00     1.00794     H ( 1.00)

     Simplified LDA+U calculation (l_max = 2) with parameters (eV):
     atomic species    L          U    alpha       J0     beta
        Mo1            2     0.0000   0.0000   0.0000   0.0000

     No symmetry found

   Cartesian axes

     site n.     atom                  positions (alat units)
         1           O0  tau(   1) = (   0.0000000   0.0000000   1.8362221  )
         2           O0  tau(   2) = (   0.0000000   0.6410583   1.8932888  )
         3           Mo1 tau(   3) = (   0.2500000   0.6410583   2.1787211  )
         4           Mo1 tau(   4) = (   0.0000000   0.0000000   2.1942488  )
         5           O0  tau(   5) = (   0.2500000   1.0000510   2.1917762  )
         6           O0  tau(   6) = (   0.2500000   0.2820657   2.1916279  )
         7           O0  tau(   7) = (   0.0000000   0.6410583   2.4619282  )
         8           O0  tau(   8) = (   0.0000000   0.0000000   2.5552920  )
         9           Mo1 tau(   9) = (   0.2500000   0.0000000   2.8451750  )
        10           Mo1 tau(  10) = (   0.0000000   0.6410583   2.7951798  )
        11           O0  tau(  11) = (   0.2500000   0.9231240   2.8229220  )
        12           O0  tau(  12) = (   0.2500000   0.3589927   2.8238121  )
        13           O0  tau(  13) = (   0.0000000   0.0000000   3.0959420  )
        14           O0  tau(  14) = (   0.5000000   0.0000000   1.8365188  )
        15           O0  tau(  15) = (   0.5000000   0.6410583   1.8939316  )
        16           Mo1 tau(  16) = (   0.7500000   0.6410583   2.1784244  )
        17           Mo1 tau(  17) = (   0.5000000   0.0000000   2.1964741  )
        18           O0  tau(  18) = (   0.7500000   1.0000510   2.1920730  )
        19           O0  tau(  19) = (   0.7500000   0.2820657   2.1913806  )
        20           O0  tau(  20) = (   0.5000000   0.6410583   2.4641535  )
        21           O0  tau(  21) = (   0.5000000   0.0000000   2.5544514  )
        22           Mo1 tau(  22) = (   0.7500000   0.0000000   2.8455212  )
        23           Mo1 tau(  23) = (   0.5000000   0.6410583   2.8262846  )
        24           O0  tau(  24) = (   0.7500000   0.9231240   2.8210923  )
        25           O0  tau(  25) = (   0.7500000   0.3589927   2.8208450  )
        26           O0  tau(  26) = (   0.5000000   0.0000000   3.0950519  )
        27           H2  tau(  27) = (  -0.0007600   0.7828861   1.7821225  )
        28           H2  tau(  28) = (   0.4995000   0.7914763   1.7941391  )
        29           H2  tau(  29) = (   0.1669200   0.0220268   1.7647651  )
        30           H2  tau(  30) = (   0.6653100   0.0245269   1.7632816  )
        31           O0  tau(  31) = (   0.5147600   0.6413532   3.1767948  )
        32           H2  tau(  32) = (   0.3891500   0.6353401   3.3044778  )

     number of k points=    10  Methfessel-Paxton smearing, width (Ry)=  0.0100
                       cart. coord. in units 2pi/alat
        k(    1) = (   0.0000000   0.0000000   0.0000000), wk =   0.1250000
        k(    2) = (   0.0000000   0.1949901   0.0000000), wk =   0.2500000
        k(    3) = (   0.0000000  -0.3899801   0.0000000), wk =   0.1250000
        k(    4) = (   0.2500000   0.0000000   0.0000000), wk =   0.2500000
        k(    5) = (   0.2500000   0.1949901   0.0000000), wk =   0.2500000
        k(    6) = (   0.2500000  -0.3899801   0.0000000), wk =   0.2500000
        k(    7) = (  -0.5000000   0.0000000   0.0000000), wk =   0.1250000
        k(    8) = (  -0.5000000   0.1949901   0.0000000), wk =   0.2500000
        k(    9) = (  -0.5000000  -0.3899801   0.0000000), wk =   0.1250000
        k(   10) = (  -0.2500000   0.1949901   0.0000000), wk =   0.2500000

     Largest allocated arrays     est. size (Mb)     dimensions
     Largest temporary arrays     est. size (Mb)     dimensions

     Check: negative/imaginary core charge=   -0.000003    0.000000

     Initial potential from superposition of free atoms
     Check: negative starting charge=   -0.002345

     starting charge  230.99142, renormalised to  231.00000

     negative rho (up, down):  0.235E-02 0.000E+00
     Number of +U iterations with fixed ns =  0
     Starting occupations:
 --- enter write_ns ---
 LDA+U parameters:
U( 2)     =  0.00000000
alpha( 2) =  0.00000000
atom    3   Tr[ns(na)] =   5.00000
    eigenvalues:
  0.500  0.500  0.500  0.500  0.500
    eigenvectors:
  1.000  0.000  0.000  0.000  0.000
  0.000  1.000  0.000  0.000  0.000
  0.000  0.000  1.000  0.000  0.000
  0.000  0.000  0.000  1.000  0.000
  0.000  0.000  0.000  0.000  1.000
    occupations:
  0.500  0.000  0.000  0.000  0.000
  0.000  0.500  0.000  0.000  0.000
  0.000  0.000  0.500  0.000  0.000
  0.000  0.000  0.000  0.500  0.000
  0.000  0.000  0.000  0.000  0.500
atom    4   Tr[ns(na)] =   5.00000
    eigenvalues:
  0.500  0.500  0.500  0.500  0.500
    eigenvectors:
  1.000  0.000  0.000  0.000  0.000
  0.000  1.000  0.000  0.000  0.000
  0.000  0.000  1.000  0.000  0.000
  0.000  0.000  0.000  1.000  0.000
  0.000  0.000  0.000  0.000  1.000
    occupations:
  0.500  0.000  0.000  0.000  0.000
  0.000  0.500  0.000  0.000  0.000
  0.000  0.000  0.500  0.000  0.000
  0.000  0.000  0.000  0.500  0.000
  0.000  0.000  0.000  0.000  0.500
atom    9   Tr[ns(na)] =   5.00000
    eigenvalues:
  0.500  0.500  0.500  0.500  0.500
    eigenvectors:
  1.000  0.000  0.000  0.000  0.000
  0.000  1.000  0.000  0.000  0.000
  0.000  0.000  1.000  0.000  0.000
  0.000  0.000  0.000  1.000  0.000
  0.000  0.000  0.000  0.000  1.000
    occupations:
  0.500  0.000  0.000  0.000  0.000
  0.000  0.500  0.000  0.000  0.000
  0.000  0.000  0.500  0.000  0.000
  0.000  0.000  0.000  0.500  0.000
  0.000  0.000  0.000  0.000  0.500
atom   10   Tr[ns(na)] =   5.00000
    eigenvalues:
  0.500  0.500  0.500  0.500  0.500
    eigenvectors:
  1.000  0.000  0.000  0.000  0.000
  0.000  1.000  0.000  0.000  0.000
  0.000  0.000  1.000  0.000  0.000
  0.000  0.000  0.000  1.000  0.000
  0.000  0.000  0.000  0.000  1.000
    occupations:
  0.500  0.000  0.000  0.000  0.000
  0.000  0.500  0.000  0.000  0.000
  0.000  0.000  0.500  0.000  0.000
  0.000  0.000  0.000  0.500  0.000
  0.000  0.000  0.000  0.000  0.500
atom   16   Tr[ns(na)] =   5.00000
    eigenvalues:
  0.500  0.500  0.500  0.500  0.500
    eigenvectors:
  1.000  0.000  0.000  0.000  0.000
  0.000  1.000  0.000  0.000  0.000
  0.000  0.000  1.000  0.000  0.000
  0.000  0.000  0.000  1.000  0.000
  0.000  0.000  0.000  0.000  1.000
    occupations:
  0.500  0.000  0.000  0.000  0.000
  0.000  0.500  0.000  0.000  0.000
  0.000  0.000  0.500  0.000  0.000
  0.000  0.000  0.000  0.500  0.000
  0.000  0.000  0.000  0.000  0.500
atom   17   Tr[ns(na)] =   5.00000
    eigenvalues:
  0.500  0.500  0.500  0.500  0.500
    eigenvectors:
  1.000  0.000  0.000  0.000  0.000
  0.000  1.000  0.000  0.000  0.000
  0.000  0.000  1.000  0.000  0.000
  0.000  0.000  0.000  1.000  0.000
  0.000  0.000  0.000  0.000  1.000
    occupations:
  0.500  0.000  0.000  0.000  0.000
  0.000  0.500  0.000  0.000  0.000
  0.000  0.000  0.500  0.000  0.000
  0.000  0.000  0.000  0.500  0.000
  0.000  0.000  0.000  0.000  0.500
atom   22   Tr[ns(na)] =   5.00000
    eigenvalues:
  0.500  0.500  0.500  0.500  0.500
    eigenvectors:
  1.000  0.000  0.000  0.000  0.000
  0.000  1.000  0.000  0.000  0.000
  0.000  0.000  1.000  0.000  0.000
  0.000  0.000  0.000  1.000  0.000
  0.000  0.000  0.000  0.000  1.000
[...]
U( 2)     =  0.00000000
alpha( 2) =  0.00000000
atom    3   Tr[ns(na)] =   5.81174
    eigenvalues:
  0.512  0.513  0.562  0.603  0.716
    eigenvectors:
  0.007  0.009  0.343  0.000  0.641
  0.207  0.789  0.003  0.000  0.000
  0.773  0.195  0.005  0.019  0.008
  0.000  0.001  0.648  0.000  0.350
  0.013  0.006  0.000  0.981  0.000
    occupations:
  0.660 -0.004  0.017 -0.073 -0.001
 -0.004  0.513 -0.001 -0.000 -0.002
  0.017 -0.001  0.516 -0.008  0.012
 -0.073 -0.000 -0.008  0.616  0.000
 -0.001 -0.002  0.012  0.000  0.601
atom    4   Tr[ns(na)] =   5.80015
    eigenvalues:
  0.475  0.524  0.578  0.609  0.713
    eigenvectors:
  0.000  0.000  0.984  0.014  0.002
  0.001  0.000  0.014  0.986  0.000
  0.999  0.000  0.000  0.001  0.000
  0.000  0.000  0.002  0.000  0.998
  0.000  1.000  0.000  0.000  0.000
    occupations:
  0.579  0.004  0.001 -0.006  0.000
  0.004  0.609  0.003 -0.001 -0.000
  0.001  0.003  0.475 -0.000  0.000
 -0.006 -0.001 -0.000  0.713  0.000
  0.000 -0.000  0.000  0.000  0.524
atom    9   Tr[ns(na)] =   5.80824
    eigenvalues:
  0.523  0.539  0.583  0.587  0.673
    eigenvectors:
  0.000  0.000  0.228  0.003  0.769
  0.000  0.000  0.013  0.987  0.000
  0.314  0.686  0.000  0.000  0.000
  0.000  0.000  0.760  0.010  0.231
  0.686  0.314  0.000  0.000  0.000
    occupations:
  0.652 -0.000 -0.001 -0.038 -0.001
 -0.000  0.587 -0.000 -0.001 -0.000
 -0.001 -0.000  0.534  0.000  0.008
 -0.038 -0.001  0.000  0.603  0.000
 -0.001 -0.000  0.008  0.000  0.528
atom   10   Tr[ns(na)] =   5.75476
    eigenvalues:
  0.505  0.523  0.524  0.610  0.716
    eigenvectors:
  0.991  0.000  0.006  0.001  0.001
  0.002  0.000  0.000  0.998  0.000
  0.006  0.001  0.992  0.000  0.000
  0.001  0.000  0.000  0.000  0.999
  0.000  0.999  0.001  0.000  0.000
    occupations:
  0.505 -0.004 -0.002 -0.008 -0.000
 -0.004  0.610 -0.001  0.000  0.000
 -0.002 -0.001  0.524 -0.000 -0.000
 -0.008  0.000 -0.000  0.715  0.000
 -0.000  0.000 -0.000  0.000  0.523
atom   16   Tr[ns(na)] =   5.81269
    eigenvalues:
  0.511  0.512  0.561  0.603  0.719
    eigenvectors:
  0.006  0.008  0.345  0.000  0.641
  0.207  0.789  0.003  0.001  0.000
  0.773  0.195  0.004  0.020  0.008
  0.000  0.001  0.647  0.000  0.351
  0.013  0.007  0.000  0.980  0.000
    occupations:
  0.662  0.004  0.017 -0.075  0.001
  0.004  0.512  0.001  0.001 -0.002
  0.017  0.001  0.515 -0.008 -0.013
 -0.075  0.001 -0.008  0.617 -0.001
  0.001 -0.002 -0.013 -0.001  0.601
atom   17   Tr[ns(na)] =   5.80857
    eigenvalues:
  0.486  0.524  0.578  0.603  0.714
    eigenvectors:
  0.000  0.000  0.968  0.029  0.003
  0.001  0.000  0.030  0.969  0.000
  0.999  0.000  0.000  0.001  0.000
  0.000  0.000  0.003  0.000  0.997
  0.000  1.000  0.000  0.000  0.000
    occupations:
  0.579  0.004  0.000 -0.007  0.000
  0.004  0.602  0.003 -0.001 -0.000
  0.000  0.003  0.486  0.001  0.000
 -0.007 -0.001  0.001  0.714  0.000
  0.000 -0.000  0.000  0.000  0.524
atom   22   Tr[ns(na)] =   5.80575
    eigenvalues:
  0.521  0.540  0.583  0.587  0.673
    eigenvectors:
  0.000  0.000  0.221  0.007  0.773
  0.000  0.000  0.026  0.974  0.000
  0.311  0.689  0.000  0.000  0.000
  0.000  0.000  0.753  0.020  0.227
  0.689  0.311  0.000  0.000  0.000
    occupations:
  0.652 -0.000 -0.001 -0.038 -0.001
 -0.000  0.587 -0.000  0.001 -0.000
 -0.001 -0.000  0.534  0.000 -0.009
 -0.038  0.001  0.000  0.603  0.000
 -0.001 -0.000 -0.009  0.000  0.527
atom   23   Tr[ns(na)] =   5.81322
    eigenvalues:
  0.507  0.531  0.564  0.582  0.723
    eigenvectors:
  0.000  0.000  0.208  0.786  0.005
  0.000  0.000  0.791  0.209  0.000
  0.998  0.002  0.000  0.000  0.000
  0.000  0.000  0.001  0.005  0.994
  0.002  0.998  0.000  0.000  0.000
    occupations:
  0.579  0.007 -0.000 -0.011  0.000
  0.007  0.568  0.001 -0.001 -0.000
 -0.000  0.001  0.507 -0.000 -0.001
 -0.011 -0.001 -0.000  0.722 -0.000
  0.000 -0.000 -0.001 -0.000  0.531
N of occupied +U levels =  46.4151205
 --- exit write_ns ---

          k = 0.0000 0.0000 0.0000 ( 29769 PWs)   bands (ev):

   -62.4091 -62.3810 -62.2589 -62.2341 -62.2111 -62.1701 -62.1068 -62.0537
   -37.0924 -36.8597 -36.7661 -36.7267 -36.7174 -36.7044 -36.6370 -36.5856
   -36.5004 -36.4818 -36.4353 -36.3583 -36.3361 -36.3354 -36.3318 -36.3051
   -36.1999 -36.1649 -36.1149 -36.1116 -35.9947 -35.8261 -35.6915 -35.6539
   -20.7238 -20.3618 -19.9533 -19.7914 -19.6656 -19.4926 -19.4537 -19.0071
   -18.9901 -18.9694 -18.9489 -18.7729 -18.7233 -18.7058 -18.6160 -18.5995
   -18.5340 -17.9369 -17.7075  -8.7915  -8.5070  -8.3271  -8.2148  -8.1197
    -7.8635  -7.4167  -7.3401  -7.2316  -7.0482  -6.9024  -6.8374  -6.7634
    -6.7313  -6.5483  -6.3532  -6.3031  -6.1993  -6.1218  -6.0740  -6.0051
    -5.9321  -5.7586  -5.6206  -5.1686  -5.1135  -5.0586  -5.0503  -4.9845
    -4.7819  -4.7271  -4.5160  -4.4510  -4.4030  -4.3741  -4.2626  -4.1894
    -4.0298  -3.9675  -3.8775  -3.7977  -3.7060  -3.5743  -3.4215  -3.3909
    -3.2614  -3.0837  -3.0244  -3.0165  -2.9914  -2.9047  -2.8622  -2.8163
    -2.7696  -2.5971  -2.4004  -2.3521  -2.2979  -2.2304  -1.9617  -0.4327
    -0.2434  -0.0645   0.2525   0.3426   0.4674   0.5830   0.7371   0.8607
     0.8742   1.0575   1.0833   1.4012   1.5434   1.5765   1.9454   2.1881
     2.7818   3.0164   3.1395   3.1868   3.1875   3.2570   3.5779   3.8466
     4.0423   4.1261   4.3644   4.4000   4.5232   4.6669   4.6684   4.7651
     4.8914   4.9109   5.0457   5.1318   5.2569   5.3556   5.3774   5.7868
     6.0469   6.3240   6.3878   6.6629   7.0453   7.3184   7.3694   7.4328
     7.4672   7.6247   7.7784   7.9529   7.9665   7.9898   8.1964   8.5104
     8.6742   8.8469   8.8878   8.9210   9.0919   9.2366   9.2802   9.4103
     9.4377   9.4801   9.6828   9.7103   9.7360   9.8193   9.8574   9.9883
    10.0307  10.1491  10.1762  10.3375  10.4576  10.4918  10.5930  10.6424
    10.7655  10.9255  10.9741  11.1592  11.2943  11.3286  11.5753  11.6350
    11.6954  11.7339  11.8121  11.8992  11.9966  12.0151  12.1935  12.2904
    12.3688  12.4266  12.4968  12.5234  12.5289  12.5691  12.6701  12.7159
    12.7854  12.7914  12.8211  12.9883  13.0558  13.0693  13.2870  13.3607
    13.3745  13.4266  13.4862  13.5462  13.6449  13.7144  13.7723  13.8104
    13.8388  13.8789  14.0320  14.0694  14.0978  14.2209  14.2740  14.3407
    14.5425  14.5658  14.7757  14.8390  14.9308  14.9434  14.9982  15.0806
    15.2252  15.3013  15.3584  15.4316  15.4995  15.6912  15.7705  15.8363
    15.8567  15.9050  15.9617  16.0519  16.0962  16.1394  16.1884  16.2157
    16.2622  16.3332  16.3746  16.5210  16.5693  16.6757  16.7396  16.7765
    16.7855  16.8023  16.8950  17.0176  17.0906  17.1547  17.2809  17.3192
    17.3792  17.4612  17.5711  17.7487  17.8194  17.8783  17.9555  18.0723
    18.1999  18.2962  18.3777  18.4048  18.4499  18.5871  18.7187  18.7887
    18.8811  18.9150  19.0731  19.1067  19.1949  19.3011  19.3326  19.3943
    19.5450  19.5640  19.5891  19.6396  19.6780  19.7731  19.8565  19.9676
    19.9873  20.0631  20.1237  20.2196  20.2528  20.3699  20.4234  20.4660
    20.6237  20.7053  20.8009  20.8736  21.0381  21.0867  21.1294  21.2215
    21.2598  21.3534  21.3833  21.4496  21.4878  21.6022  21.6505  21.6559
    21.6979  21.7416  21.7718  21.7892  21.8340  21.9193  21.9642  21.9991
    22.0927  22.1289

[...]

          k = 0.2500-0.3900 0.0000 ( 29726 PWs)   bands (ev):

[...]

          k =-0.5000 0.0000 0.0000 ( 29752 PWs)   bands (ev):

[...]

          k =-0.2500 0.1950 0.0000 ( 29746 PWs)   bands (ev):

   -62.4006 -62.3636 -62.2769 -62.2198 -62.2193 -62.1533 -62.1221 -62.0710
   -36.9421 -36.7669 -36.7151 -36.6889 -36.6722 -36.5949 -36.5878 -36.5412
   -36.4661 -36.4564 -36.4270 -36.3711 -36.3510 -36.3278 -36.3107 -36.2820
   -36.2218 -36.1908 -36.1700 -36.1416 -36.1380 -35.9779 -35.8506 -35.8148
   -20.6283 -20.3700 -19.8004 -19.6502 -19.5670 -19.4235 -19.3385 -19.2393
   -19.2088 -19.0725 -18.8899 -18.7645 -18.7460 -18.7106 -18.6061 -18.5700
   -18.5202 -17.9998 -17.8505  -8.6180  -8.4992  -7.9972  -7.9118  -7.6153
    -7.5290  -7.5075  -7.4443  -7.2754  -7.1230  -7.0485  -6.9317  -6.7931
    -6.7492  -6.5567  -6.2897  -6.2054  -6.1167  -6.0578  -5.9505  -5.8540
    -5.6709  -5.6537  -5.5065  -5.4075  -5.2837  -5.2007  -5.0728  -4.9847
    -4.8543  -4.6485  -4.6060  -4.4569  -4.4017  -4.3649  -4.2719  -4.2514
    -4.1822  -4.0978  -4.0030  -3.9125  -3.8604  -3.7711  -3.6400  -3.5055
    -3.4087  -3.3119  -3.2650  -3.1793  -3.1033  -3.0745  -2.9690  -2.8788
    -2.6959  -2.6532  -2.5977  -2.3478  -1.3936  -1.2802  -1.1954  -0.5002
    -0.3600  -0.1892  -0.1583   0.3039   0.3786   0.7644   0.8676   0.9255
     0.9701   1.1584   1.3168   1.4657   1.5793   1.6177   1.7843   1.9038
     2.0822   2.1015   2.1979   2.3395   2.5434   3.4618   3.6678   3.7559
     3.8222   3.9663   4.0495   4.1557   4.4631   4.6344   4.7388   4.8308
     4.8848   5.0467   5.1050   5.3699   5.6942   5.8447   5.9346   6.0651
     6.1556   6.2537   6.4253   6.4981   6.6343   6.8108   7.0992   7.1790
     7.3038   7.3650   7.6254   7.7174   8.0137   8.1243   8.2712   8.3575
     8.5347   8.6288   8.7398   8.8628   8.9822   9.0593   9.1649   9.3182
     9.4079   9.5106   9.5555   9.6482   9.7152   9.7473   9.8284   9.9827
    10.0861  10.3320  10.3643  10.4460  10.5192  10.6590  10.7290  10.8081
    10.8839  10.9999  11.1265  11.1940  11.3688  11.4968  11.5862  11.6406
    11.7661  11.8807  11.9127  12.0262  12.0932  12.2021  12.3117  12.3685
    12.4072  12.4315  12.5131  12.6252  12.7608  12.8216  12.9325  13.0056
    13.0758  13.1446  13.2389  13.3253  13.3742  13.4629  13.4868  13.5547
    13.6316  13.7127  13.8080  13.8340  13.9282  14.0250  14.0564  14.0986
    14.1633  14.1958  14.2930  14.3479  14.4126  14.4971  14.5310  14.6359
    14.6871  14.7478  14.8628  14.9377  15.0187  15.0723  15.1199  15.2147
    15.3232  15.4303  15.5060  15.5862  15.6036  15.6981  15.7671  15.9234
    15.9489  16.0145  16.0614  16.1388  16.2326  16.3048  16.3589  16.3913
    16.4359  16.4769  16.5570  16.6508  16.7627  16.8098  16.8470  16.9727
    17.0762  17.1409  17.1890  17.2281  17.2574  17.3224  17.4056  17.4922
    17.5442  17.5909  17.7012  17.8206  17.8692  17.9701  18.0577  18.1332
    18.2075  18.2376  18.2782  18.3104  18.4125  18.5301  18.5605  18.6917
    18.7588  18.8264  18.9227  18.9826  19.0404  19.1373  19.1949  19.2490
    19.3758  19.4168  19.5199  19.5935  19.7870  19.8074  19.9102  19.9448
    19.9477  20.0496  20.1162  20.1733  20.2588  20.2882  20.3413  20.3630
    20.3823  20.4522  20.5176  20.5893  20.6469  20.7198  20.7662  20.8188
    20.9151  21.0012  21.0371  21.1263  21.1974  21.2664  21.3150  21.3451
    21.4285  21.4863  21.5436  21.6201  21.6500  21.7398  21.7574  21.8026
    21.8488  21.8767

     the Fermi energy is     0.2210 ev

!    total energy              =   -1733.70438142 Ry
     Harris-Foulkes estimate   =   -1733.70438207 Ry
     estimated scf accuracy    <       0.00000066 Ry

     The total energy is the sum of the following terms:

     one-electron contribution =  -22245.36826690 Ry
     hartree contribution      =   11147.44971700 Ry
     xc contribution           =    -294.49922907 Ry
     ewald contribution        =    9658.71336796 Ry
     Hubbard energy            =       0.00000000 Ry
     smearing contrib. (-TS)   =       0.00002959 Ry

     convergence has been achieved in  27 iterations

     Forces acting on atoms (Ry/au):

     negative rho (up, down):  0.342E-02 0.000E+00
     atom    1 type  1   force =    -0.00033687   -0.00503327    0.00032482
     atom    2 type  1   force =    -0.00024068    0.00816736    0.00070559
     atom    3 type  2   force =    -0.00406562   -0.00560742    0.00047590
     atom    4 type  2   force =    -0.00007252    0.00596159   -0.00010304
     atom    5 type  1   force =     0.00106969    0.00246660   -0.00029759
     atom    6 type  1   force =    -0.00116963   -0.00666271   -0.00034717
     atom    7 type  1   force =     0.00016884    0.00017993   -0.00070479
     atom    8 type  1   force =     0.00363325    0.00045237    0.00013392
     atom    9 type  2   force =    -0.00021130    0.00002480    0.00015515
     atom   10 type  2   force =    -0.00281746   -0.00001243   -0.00047148
     atom   11 type  1   force =    -0.01281004   -0.02735144   -0.00053079
     atom   12 type  1   force =    -0.01350211    0.02674326   -0.00049374
     atom   13 type  1   force =     0.00033417    0.00013112    0.00033329
     atom   14 type  1   force =    -0.00361114   -0.00641444    0.00019931
     atom   15 type  1   force =    -0.00030093    0.01010929    0.00051662
     atom   16 type  2   force =     0.00826934   -0.00661556   -0.00002096
     atom   17 type  2   force =    -0.00044553    0.00488636    0.00003033
     atom   18 type  1   force =     0.00150795    0.00235088   -0.00024743
     atom   19 type  1   force =     0.00099433   -0.00642422   -0.00030686
     atom   20 type  1   force =    -0.00588149    0.00143322   -0.00078387
     atom   21 type  1   force =     0.00231267    0.00019681    0.00010098
     atom   22 type  2   force =    -0.00495021   -0.00053827   -0.00053362
     atom   23 type  2   force =     0.00137354    0.00168006    0.00046131
     atom   24 type  1   force =     0.01406711   -0.02556753    0.00020078
     atom   25 type  1   force =     0.01496015    0.02577897    0.00024534
     atom   26 type  1   force =     0.00078202    0.00045289    0.00014512
     atom   27 type  3   force =    -0.00001265   -0.00017785    0.00041043
     atom   28 type  3   force =     0.00000577   -0.00024618    0.00020287
     atom   29 type  3   force =    -0.00004925    0.00006069    0.00024575
     atom   30 type  3   force =    -0.00000439    0.00003356    0.00030892
     atom   31 type  1   force =     0.00014308    0.00000685    0.00005852
     atom   32 type  3   force =     0.00085990   -0.00046526   -0.00041362

     Total force =     0.002402     Total SCF correction =     0.004094
     SCF correction compared to forces is large: reduce conv_thr to get better values

     BFGS Geometry Optimization

     bfgs converged in   1 scf cycles and   0 bfgs steps
     (criteria: energy < 0.10E-03, force < 0.10E-02)

     End of BFGS Geometry Optimization

     Final energy   =   -1733.7043814151 Ry
Begin final coordinates

ATOMIC_POSITIONS (crystal)
O0       0.000000000   0.000000000   0.371320000    0   0   1
O0       0.000000000   0.500000000   0.382860000    0   0   1
Mo1      0.250000000   0.500000000   0.440580000    0   0   1
Mo1      0.000000000   0.000000000   0.443720000    0   0   1
O0       0.250000000   0.780000000   0.443220000    0   0   1
O0       0.250000000   0.220000000   0.443190000    0   0   1
O0       0.000000000   0.500000000   0.497850000    0   0   1
O0       0.000000000   0.000000000   0.516730000    0   0   1
Mo1      0.250000000   0.000000000   0.575350000    0   0   1
Mo1      0.000000000   0.500000000   0.565240000    0   0   1
O0       0.250000000   0.720000000   0.570850000    0   0   1
O0       0.250000000   0.280000000   0.571030000    0   0   1
O0       0.000000000   0.000000000   0.626060000    0   0   1
O0       0.500000000   0.000000000   0.371380000    0   0   1
O0       0.500000000   0.500000000   0.382990000    0   0   1
Mo1      0.750000000   0.500000000   0.440520000    0   0   1
Mo1      0.500000000   0.000000000   0.444170000    0   0   1
O0       0.750000000   0.780000000   0.443280000    0   0   1
O0       0.750000000   0.220000000   0.443140000    0   0   1
O0       0.500000000   0.500000000   0.498300000    0   0   1
O0       0.500000000   0.000000000   0.516560000    0   0   1
Mo1      0.750000000   0.000000000   0.575420000    0   0   1
Mo1      0.500000000   0.500000000   0.571530000    0   0   1
O0       0.750000000   0.720000000   0.570480000    0   0   1
O0       0.750000000   0.280000000   0.570430000    0   0   1
O0       0.500000000   0.000000000   0.625880000    0   0   1
H2      -0.000760000   0.610620000   0.360380000
H2       0.499500000   0.617320000   0.362810000
H2       0.166920000   0.017180000   0.356870000
H2       0.665310000   0.019130000   0.356570000
O0       0.514760000   0.500230000   0.642410000
H2       0.389150000   0.495540000   0.668230000
End final coordinates

     General routines

     Parallel routines
     Hubbard U routines

   This run was terminated on:   1:26:49  10May2014

   JOB DONE.
Running PBS batch system epilogue script
Job id: 351053.audhumbla.fysik.dtu.dk
Username: zhonxu
Groupname: campgst
Jobname: MoO2/Eads-2-layers/OH-U-0.0
Sessionid: 19436
Queuename: verylong
Accounting:
This job has allocated the following 16 nodes:
b035 b035 b035 b035 b035 b035 b035 b035 b013 b013 b013 b013 b013 b013 b013 b013
Finished epilogue job 351053.audhumbla.fysik.dtu.dk for zhonxu