     Program PWSCF v.5.0.2 (svn rev. 9656) starts on 30Apr2014 at  4:48:32

     Current dimensions of program PWSCF are:
     Max number of different atomic species (ntypx) = 10
     Max number of k-points (npk) =  40000
     Max angular momentum in pseudopotentials (lmaxx) =  3
     Reading input from pwscf.in
Warning: card &CELL ignored
Warning: card / ignored

     Subspace diagonalization in iterative solution of the eigenvalue problem:
     a serial algorithm will be used

     bravais-lattice index     =            0
     lattice parameter (alat)  =      11.7541  a.u.
     unit-cell volume          =    7139.8207 (a.u.)^3
     number of atoms/cell      =           31
     number of atomic types    =            3
     number of electrons       =       238.00
     number of Kohn-Sham states=          357
     kinetic-energy cutoff     =      40.0000  Ry
     charge density cutoff     =     500.0000  Ry
     convergence threshold     =      1.0E-06
     mixing beta               =       0.7000
     number of iterations used =            8  plain     mixing
     Exchange-correlation      = SLA  PW   PBE  PBE ( 1 4 3 4 0)
     EXX-fraction              =        0.00
     nstep                     =           50

     celldm(1)=  11.754097  celldm(2)=   0.000000  celldm(3)=   0.000000
     celldm(4)=   0.000000  celldm(5)=   0.000000  celldm(6)=   0.000000

     crystal axes: (cart. coord. in units of alat)
               a(1) = (   1.000000   0.000000   0.000000 )
               a(2) = (   0.000000   1.034513   0.000000 )
               a(3) = (   0.000000   0.000000   4.249947 )

     reciprocal axes: (cart. coord. in units 2 pi/alat)
               b(1) = (  1.000000  0.000000  0.000000 )
               b(2) = (  0.000000  0.966638  0.000000 )
               b(3) = (  0.000000  0.000000  0.235297 )

     PseudoPot. # 1 for O  read from file:
     /home/camp/zhonxu/pseudo/o_pbe_v1.01.uspp.F.UPF
     MD5 check sum: 2bcb18d16ea4b960afae9ec6d52f22d2
     Pseudo is Ultrasoft + core correction, Zval =  6.0
     Generated by new atomic code, or converted to UPF format
     Using radial grid of  737 points,  5 beta functions with:
                l(1) =   0
                l(2) =   0
                l(3) =   1
                l(4) =   1
                l(5) =   2
     Q(r) pseudized with  8 coefficients,  rinner =    0.900   0.900   0.900
                                                       0.900   0.900

     PseudoPot. # 2 for Rh read from file:
     /home/camp/zhonxu/pseudo/rh_pbe_v1.uspp.F.UPF
     MD5 check sum: 37b626987ad0dd8ec6bf4cc9ef289918
     Pseudo is Ultrasoft + core correction, Zval = 15.0
     Generated by new atomic code, or converted to UPF format
     Using radial grid of  969 points,  7 beta functions with:
                l(1) =   0
                l(2) =   0
                l(3) =   1
                l(4) =   1
                l(5) =   2
                l(6) =   2
                l(7) =   2
     Q(r) pseudized with  6 coefficients,  rinner =    1.050   1.050   1.050
                                                       1.050   1.050

     PseudoPot. # 3 for H  read from file:
     /home/camp/zhonxu/pseudo/h_pbe_v1.uspp.F.UPF
     MD5 check sum: 3408e3ff4ec8b0a4e358431e7e038a48
     Pseudo is Ultrasoft, Zval =  1.0
     Generated by new atomic code, or converted to UPF format
     Using radial grid of  615 points,  2 beta functions with:
                l(1) =   0
                l(2) =   0
     Q(r) pseudized with  8 coefficients,  rinner =    0.700

     atomic species   valence    mass     pseudopotential
        O0             6.00    15.99940     O ( 1.00)
        Rh1           15.00   102.90550     Rh( 1.00)
        H2             1.00     1.00794     H ( 1.00)

     Simplified LDA+U calculation (l_max = 2) with parameters (eV):
     atomic species    L          U    alpha       J0     beta
        Rh1            2     6.5000   0.0000   0.0000   0.0000

     No symmetry found

   Cartesian axes

     site n.     atom                  positions (alat units)
         1           O0  tau(   1) = (   0.0000000   0.0000000   1.6064375  )
         2           O0  tau(   2) = (   0.0000000   0.5172566   1.7091588  )
         3           Rh1 tau(   3) = (   0.2500000   0.5172566   1.9262886  )
         4           Rh1 tau(   4) = (   0.0000000   0.0000000   1.9228036  )
         5           O0  tau(   5) = (   0.2500000   0.8379556   1.9220386  )
         6           O0  tau(   6) = (   0.2500000   0.1965575   1.9215286  )
         7           O0  tau(   7) = (   0.0000000   0.5172566   2.1200437  )
         8           O0  tau(   8) = (   0.0000000   0.0000000   2.2432071  )
         9           Rh1 tau(   9) = (   0.2500000   0.0000000   2.4439746  )
        10           Rh1 tau(  10) = (   0.0000000   0.5172566   2.4253174  )
        11           O0  tau(  11) = (   0.2500000   0.7138141   2.4432947  )
        12           O0  tau(  12) = (   0.2500000   0.3206991   2.4432097  )
        13           O0  tau(  13) = (   0.0000000   0.0000000   2.6356898  )
        14           O0  tau(  14) = (   0.5000000   0.0000000   1.6064375  )
        15           O0  tau(  15) = (   0.5000000   0.5172566   1.7079263  )
        16           Rh1 tau(  16) = (   0.7500000   0.5172566   1.9262886  )
        17           Rh1 tau(  17) = (   0.5000000   0.0000000   1.9227611  )
        18           O0  tau(  18) = (   0.7500000   0.8379556   1.9219536  )
        19           O0  tau(  19) = (   0.7500000   0.1965575   1.9216136  )
        20           O0  tau(  20) = (   0.5000000   0.5172566   2.1284161  )
        21           O0  tau(  21) = (   0.5000000   0.0000000   2.2423572  )
        22           Rh1 tau(  22) = (   0.7500000   0.0000000   2.4439321  )
        23           Rh1 tau(  23) = (   0.5000000   0.5172566   2.4652244  )
        24           O0  tau(  24) = (   0.7500000   0.7138141   2.4431672  )
        25           O0  tau(  25) = (   0.7500000   0.3206991   2.4432097  )
        26           O0  tau(  26) = (   0.5000000   0.0000000   2.6354348  )
        27           H2  tau(  27) = (  -0.0000700   0.6590056   1.6354222  )
        28           H2  tau(  28) = (   0.4999300   0.6605366   1.6368247  )
        29           H2  tau(  29) = (   0.1480800   0.0354838   1.5606656  )
        30           H2  tau(  30) = (   0.6481100   0.0354321   1.5605806  )
        31           O0  tau(  31) = (   0.5000800   0.5160462   2.7479734  )

     number of k points=    10  Methfessel-Paxton smearing, width (Ry)=  0.0100
                       cart. coord. in units 2pi/alat
        k(    1) = (   0.0000000   0.0000000   0.0000000), wk =   0.1250000
        k(    2) = (   0.0000000   0.2416596   0.0000000), wk =   0.2500000
        k(    3) = (   0.0000000  -0.4833191   0.0000000), wk =   0.1250000
        k(    4) = (   0.2500000   0.0000000   0.0000000), wk =   0.2500000
        k(    5) = (   0.2500000   0.2416596   0.0000000), wk =   0.2500000
        k(    6) = (   0.2500000  -0.4833191   0.0000000), wk =   0.2500000
        k(    7) = (  -0.5000000   0.0000000   0.0000000), wk =   0.1250000
        k(    8) = (  -0.5000000   0.2416596   0.0000000), wk =   0.2500000
        k(    9) = (  -0.5000000  -0.4833191   0.0000000), wk =   0.1250000
        k(   10) = (  -0.2500000   0.2416596   0.0000000), wk =   0.2500000

     Largest allocated arrays     est. size (Mb)     dimensions
     Largest temporary arrays     est. size (Mb)     dimensions

     Check: negative/imaginary core charge=   -0.000003    0.000000

     Initial potential from superposition of free atoms
     Check: negative starting charge=   -0.645358

     starting charge  233.99915, renormalised to  238.00000

     negative rho (up, down):  0.656E+00 0.000E+00
     Number of +U iterations with fixed ns =  0
     Starting occupations:
 --- enter write_ns ---
 LDA+U parameters:
U( 2)     =  6.50000000
alpha( 2) =  0.00000000
atom    3   Tr[ns(na)] =   7.00000
    eigenvalues:
  0.700  0.700  0.700  0.700  0.700
    eigenvectors:
  1.000  0.000  0.000  0.000  0.000
  0.000  1.000  0.000  0.000  0.000
  0.000  0.000  1.000  0.000  0.000
  0.000  0.000  0.000  1.000  0.000
  0.000  0.000  0.000  0.000  1.000
    occupations:
  0.700  0.000  0.000  0.000  0.000
  0.000  0.700  0.000  0.000  0.000
  0.000  0.000  0.700  0.000  0.000
  0.000  0.000  0.000  0.700  0.000
  0.000  0.000  0.000  0.000  0.700
atom    4   Tr[ns(na)] =   7.00000
    eigenvalues:
  0.700  0.700  0.700  0.700  0.700
    eigenvectors:
  1.000  0.000  0.000  0.000  0.000
  0.000  1.000  0.000  0.000  0.000
  0.000  0.000  1.000  0.000  0.000
  0.000  0.000  0.000  1.000  0.000
  0.000  0.000  0.000  0.000  1.000
    occupations:
  0.700  0.000  0.000  0.000  0.000
  0.000  0.700  0.000  0.000  0.000
  0.000  0.000  0.700  0.000  0.000
  0.000  0.000  0.000  0.700  0.000
  0.000  0.000  0.000  0.000  0.700
atom    9   Tr[ns(na)] =   7.00000
    eigenvalues:
  0.700  0.700  0.700  0.700  0.700
    eigenvectors:
  1.000  0.000  0.000  0.000  0.000
  0.000  1.000  0.000  0.000  0.000
  0.000  0.000  1.000  0.000  0.000
  0.000  0.000  0.000  1.000  0.000
  0.000  0.000  0.000  0.000  1.000
    occupations:
  0.700  0.000  0.000  0.000  0.000
  0.000  0.700  0.000  0.000  0.000
  0.000  0.000  0.700  0.000  0.000
  0.000  0.000  0.000  0.700  0.000
  0.000  0.000  0.000  0.000  0.700
atom   10   Tr[ns(na)] =   7.00000
    eigenvalues:
  0.700  0.700  0.700  0.700  0.700
    eigenvectors:
  1.000  0.000  0.000  0.000  0.000
  0.000  1.000  0.000  0.000  0.000
  0.000  0.000  1.000  0.000  0.000
  0.000  0.000  0.000  1.000  0.000
  0.000  0.000  0.000  0.000  1.000
    occupations:
  0.700  0.000  0.000  0.000  0.000
  0.000  0.700  0.000  0.000  0.000
  0.000  0.000  0.700  0.000  0.000
  0.000  0.000  0.000  0.700  0.000
  0.000  0.000  0.000  0.000  0.700
atom   16   Tr[ns(na)] =   7.00000
    eigenvalues:
  0.700  0.700  0.700  0.700  0.700
    eigenvectors:
  1.000  0.000  0.000  0.000  0.000
  0.000  1.000  0.000  0.000  0.000
  0.000  0.000  1.000  0.000  0.000
  0.000  0.000  0.000  1.000  0.000
  0.000  0.000  0.000  0.000  1.000
    occupations:
  0.700  0.000  0.000  0.000  0.000
  0.000  0.700  0.000  0.000  0.000
  0.000  0.000  0.700  0.000  0.000
  0.000  0.000  0.000  0.700  0.000
  0.000  0.000  0.000  0.000  0.700
atom   17   Tr[ns(na)] =   7.00000
    eigenvalues:
  0.700  0.700  0.700  0.700  0.700
    eigenvectors:
  1.000  0.000  0.000  0.000  0.000
  0.000  1.000  0.000  0.000  0.000
  0.000  0.000  1.000  0.000  0.000
  0.000  0.000  0.000  1.000  0.000
  0.000  0.000  0.000  0.000  1.000
    occupations:
  0.700  0.000  0.000  0.000  0.000
  0.000  0.700  0.000  0.000  0.000
  0.000  0.000  0.700  0.000  0.000
  0.000  0.000  0.000  0.700  0.000
  0.000  0.000  0.000  0.000  0.700
atom   22   Tr[ns(na)] =   7.00000
    eigenvalues:
  0.700  0.700  0.700  0.700  0.700
    eigenvectors:
  1.000  0.000  0.000  0.000  0.000
  0.000  1.000  0.000  0.000  0.000
  0.000  0.000  1.000  0.000  0.000
  0.000  0.000  0.000  1.000  0.000
  0.000  0.000  0.000  0.000  1.000
    occupations:
  0.700  0.000  0.000  0.000  0.000
[...]
    eigenvectors:
  0.008  0.144  0.000  0.000  0.848
  0.953  0.047  0.000  0.000  0.000
  0.000  0.000  0.928  0.072  0.000
  0.039  0.808  0.000  0.000  0.152
  0.000  0.000  0.072  0.928  0.000
    occupations:
  0.929  0.002 -0.000 -0.123 -0.000
  0.002  0.634  0.001  0.001 -0.000
 -0.000  0.001  0.887  0.000 -0.008
 -0.123  0.001  0.000  0.692  0.001
 -0.000 -0.000 -0.008  0.001  0.914
atom   10   Tr[ns(na)] =   8.07860
    eigenvalues:
  0.580  0.590  0.942  0.947  0.981
    eigenvectors:
  0.991  0.000  0.000  0.000  0.009
  0.000  0.000  0.001  0.999  0.000
  0.000  0.000  0.999  0.001  0.000
  0.009  0.000  0.000  0.000  0.991
  0.000  1.000  0.000  0.000  0.000
    occupations:
  0.583  0.000  0.001  0.038 -0.000
  0.000  0.947 -0.000 -0.000 -0.000
  0.001 -0.000  0.942  0.000  0.000
  0.038 -0.000  0.000  0.977 -0.000
 -0.000 -0.000  0.000 -0.000  0.590
atom   16   Tr[ns(na)] =   8.09434
    eigenvalues:
  0.578  0.599  0.921  0.968  0.981
    eigenvectors:
  0.008  0.194  0.002  0.000  0.796
  0.966  0.034  0.000  0.000  0.000
  0.000  0.000  0.985  0.013  0.002
  0.026  0.772  0.000  0.000  0.201
  0.000  0.000  0.013  0.986  0.001
    occupations:
  0.904  0.004  0.001 -0.153  0.001
  0.004  0.579  0.000  0.002 -0.006
  0.001  0.000  0.922 -0.004 -0.005
 -0.153  0.002 -0.004  0.676  0.000
  0.001 -0.006 -0.005  0.000  0.967
atom   17   Tr[ns(na)] =   8.10763
    eigenvalues:
  0.597  0.650  0.891  0.935  0.981
    eigenvectors:
  0.001  0.991  0.000  0.000  0.008
  0.000  0.000  0.085  0.914  0.000
  0.000  0.000  0.915  0.085  0.000
  0.000  0.008  0.000  0.000  0.992
  0.999  0.001  0.000  0.000  0.000
    occupations:
  0.652 -0.004 -0.001  0.029  0.002
 -0.004  0.931  0.012  0.001 -0.001
 -0.001  0.012  0.895 -0.000  0.001
  0.029  0.001 -0.000  0.979  0.000
  0.002 -0.001  0.001  0.000  0.597
atom   22   Tr[ns(na)] =   8.11086
    eigenvalues:
  0.634  0.640  0.885  0.916  0.981
    eigenvectors:
  0.001  0.152  0.000  0.000  0.848
  0.997  0.003  0.000  0.000  0.000
  0.000  0.000  0.933  0.067  0.000
  0.002  0.845  0.000  0.000  0.152
  0.000  0.000  0.067  0.933  0.000
    occupations:
  0.929 -0.001  0.000 -0.123 -0.000
 -0.001  0.634  0.001 -0.000 -0.000
  0.000  0.001  0.887 -0.000  0.008
 -0.123 -0.000 -0.000  0.692  0.001
 -0.000 -0.000  0.008  0.001  0.914
atom   23   Tr[ns(na)] =   8.10125
    eigenvalues:
  0.641  0.705  0.836  0.885  0.983
    eigenvectors:
  0.000  0.993  0.000  0.000  0.007
  0.000  0.000  0.000  1.000  0.000
  0.000  0.000  1.000  0.000  0.000
  0.000  0.007  0.000  0.000  0.993
  1.000  0.000  0.000  0.000  0.000
    occupations:
  0.707  0.000 -0.001  0.024 -0.000
  0.000  0.885 -0.000 -0.000  0.000
 -0.001 -0.000  0.836  0.001  0.000
  0.024 -0.000  0.001  0.981  0.000
 -0.000  0.000  0.000  0.000  0.641
N of occupied +U levels =  64.8064086
 --- exit write_ns ---

     Threshold (ethr) on eigenvalues was too large:
     Diagonalizing with lowered threshold

     Davidson diagonalization with overlap
     ethr =  3.19E-08,  avg # of iterations =  2.2

[...]

     total energy              =   -1977.73084309 Ry
     Harris-Foulkes estimate   =   -1977.73084309 Ry
     estimated scf accuracy    <       0.00000002 Ry

     iteration # 19     ecut=    40.00 Ry     beta=0.70
     Davidson diagonalization with overlap
     ethr =  7.50E-12,  avg # of iterations =  1.0

     negative rho (up, down):  0.687E+00 0.000E+00

     End of self-consistent calculation
 --- enter write_ns ---
 LDA+U parameters:
U( 2)     =  6.50000000
alpha( 2) =  0.00000000
atom    3   Tr[ns(na)] =   8.09390
    eigenvalues:
  0.578  0.599  0.921  0.968  0.981
    eigenvectors:
  0.009  0.193  0.002  0.000  0.796
  0.962  0.038  0.000  0.000  0.000
  0.000  0.000  0.979  0.019  0.002
  0.029  0.769  0.000  0.000  0.201
  0.000  0.000  0.019  0.981  0.001
    occupations:
  0.904 -0.004  0.001 -0.153 -0.001
 -0.004  0.579 -0.001 -0.002 -0.006
  0.001 -0.001  0.922 -0.004  0.006
 -0.153 -0.002 -0.004  0.676 -0.000
 -0.001 -0.006  0.006 -0.000  0.967
atom    4   Tr[ns(na)] =   8.10797
    eigenvalues:
  0.597  0.650  0.890  0.936  0.981
    eigenvectors:
  0.001  0.991  0.000  0.000  0.008
  0.000  0.000  0.061  0.939  0.000
  0.000  0.000  0.939  0.061  0.000
  0.000  0.008  0.000  0.000  0.992
  0.999  0.001  0.000  0.000  0.000
    occupations:
  0.653 -0.004 -0.001  0.029  0.001
 -0.004  0.934  0.011  0.001 -0.001
 -0.001  0.011  0.893 -0.000  0.001
  0.029  0.001 -0.000  0.978  0.000
  0.001 -0.001  0.001  0.000  0.597
atom    9   Tr[ns(na)] =   8.11140
    eigenvalues:
  0.634  0.640  0.885  0.916  0.981
    eigenvectors:
  0.008  0.144  0.000  0.000  0.848
  0.953  0.047  0.000  0.000  0.000
  0.000  0.000  0.928  0.072  0.000
  0.039  0.809  0.000  0.000  0.152
  0.000  0.000  0.072  0.928  0.000
    occupations:
  0.929  0.002 -0.000 -0.123 -0.000
  0.002  0.634  0.001  0.001 -0.000
 -0.000  0.001  0.887  0.000 -0.008
 -0.123  0.001  0.000  0.692  0.001
 -0.000 -0.000 -0.008  0.001  0.914
atom   10   Tr[ns(na)] =   8.07924
    eigenvalues:
  0.580  0.590  0.942  0.947  0.981
    eigenvectors:
  0.991  0.000  0.000  0.000  0.009
  0.000  0.000  0.001  0.999  0.000
  0.000  0.000  0.999  0.001  0.000
  0.009  0.000  0.000  0.000  0.991
  0.000  1.000  0.000  0.000  0.000
    occupations:
  0.583  0.000  0.001  0.038 -0.000
  0.000  0.947 -0.000 -0.000 -0.000
  0.001 -0.000  0.942  0.000  0.000
  0.038 -0.000  0.000  0.977 -0.000
 -0.000 -0.000  0.000 -0.000  0.590
atom   16   Tr[ns(na)] =   8.09390
    eigenvalues:
  0.579  0.599  0.921  0.967  0.981
    eigenvectors:
  0.008  0.193  0.002  0.000  0.796
  0.965  0.035  0.000  0.000  0.000
  0.000  0.000  0.985  0.013  0.002
  0.027  0.772  0.000  0.000  0.201
  0.000  0.000  0.013  0.986  0.001
    occupations:
  0.904  0.004  0.001 -0.153  0.001
  0.004  0.579  0.000  0.002 -0.006
  0.001  0.000  0.921 -0.004 -0.005
 -0.153  0.002 -0.004  0.676  0.000
  0.001 -0.006 -0.005  0.000  0.967
atom   17   Tr[ns(na)] =   8.10687
    eigenvalues:
  0.597  0.650  0.891  0.935  0.981
    eigenvectors:
  0.001  0.991  0.000  0.000  0.008
  0.000  0.000  0.085  0.915  0.000
  0.000  0.000  0.915  0.085  0.000
  0.000  0.008  0.000  0.000  0.992
  0.999  0.001  0.000  0.000  0.000
    occupations:
  0.652 -0.004 -0.001  0.029  0.002
 -0.004  0.931  0.012  0.001 -0.001
 -0.001  0.012  0.894 -0.000  0.001
  0.029  0.001 -0.000  0.979  0.000
  0.002 -0.001  0.001  0.000  0.597
atom   22   Tr[ns(na)] =   8.11142
    eigenvalues:
  0.634  0.640  0.885  0.916  0.981
    eigenvectors:
  0.000  0.152  0.000  0.000  0.848
  0.997  0.003  0.000  0.000  0.000
  0.000  0.000  0.933  0.067  0.000
  0.002  0.846  0.000  0.000  0.152
  0.000  0.000  0.067  0.933  0.000
    occupations:
  0.929 -0.001  0.000 -0.123 -0.000
 -0.001  0.634  0.001 -0.000 -0.000
  0.000  0.001  0.887 -0.000  0.008
 -0.123 -0.000 -0.000  0.692  0.001
 -0.000 -0.000  0.008  0.001  0.914
atom   23   Tr[ns(na)] =   8.10165
    eigenvalues:
  0.641  0.705  0.836  0.885  0.983
    eigenvectors:
  0.000  0.993  0.000  0.000  0.007
  0.000  0.000  0.000  1.000  0.000
  0.000  0.000  1.000  0.000  0.000
  0.000  0.007  0.000  0.000  0.993
  1.000  0.000  0.000  0.000  0.000
    occupations:
  0.707  0.000 -0.001  0.024 -0.000
  0.000  0.885 -0.000  0.000  0.000
 -0.001 -0.000  0.836  0.001  0.000
  0.024  0.000  0.001  0.981  0.000
 -0.000  0.000  0.000  0.000  0.641
N of occupied +U levels =  64.8063452
 --- exit write_ns ---

[...]

          k = 0.2500-0.4833 0.0000 ( 30510 PWs)   bands (ev):

[...]

          k =-0.2500 0.2417 0.0000 ( 30481 PWs)   bands (ev):

   -49.8385 -49.5147 -49.4409 -48.7454 -48.7434 -48.7280 -48.6705 -48.6640
   -48.6525 -48.6393 -48.6290 -48.6065 -48.5274 -48.5231 -48.5176 -48.4336
   -48.3740 -48.3693 -48.3680 -48.2906 -48.2677 -48.2669 -48.2549 -48.2539
   -21.4949 -21.2194 -21.2081 -21.0857 -20.7768 -20.7079 -20.6622 -20.6004
   -20.5029 -20.4111 -20.3569 -20.3346 -20.2877 -20.1303 -20.0892 -20.0546
   -19.5582 -19.3577 -19.2245 -10.6931 -10.5306 -10.2733 -10.1361 -10.0068
    -9.8803  -9.8036  -9.7915  -9.4938  -9.1958  -9.1043  -9.0146  -8.8757
    -8.7815  -8.6906  -8.5246  -8.4832  -8.4421  -8.3252  -8.0514  -7.9631
    -7.8486  -7.7338  -7.6199  -7.5195  -7.4390  -7.3638  -7.3261  -7.2504
    -7.1001  -7.0282  -6.9483  -6.8705  -6.7986  -6.7483  -6.6594  -6.5908
    -6.5316  -6.4160  -6.3700  -6.2335  -6.1058  -5.7475  -5.5495  -5.5012
    -5.3985  -5.2347  -5.1539  -5.0567  -5.0180  -4.8938  -4.7845  -4.6909
    -4.6342  -4.4559  -4.3914  -4.2402  -4.1626  -4.0145  -3.9432  -3.9144
    -3.8563  -3.7926  -3.7423  -3.6412  -3.5968  -3.5291  -3.4582  -3.3721
    -3.2718  -2.9446  -2.8109  -2.7293  -2.6620  -2.4855  -2.3525  -2.2481
    -2.2260  -2.0834  -2.0145  -1.9061  -0.9259  -0.6484  -0.3466   0.0195
     0.2354   0.5228   0.7042   0.9824   1.1732   1.3256   1.3994   1.5415
     1.6105   1.7582   1.8105   2.1828   3.5022   4.4488   4.5653   5.0379
     5.3111   5.3239   5.4783   6.0602   6.3689   6.3979   6.4458   6.5215
     6.6367   6.7625   6.9059   7.1234   7.2941   7.4819   7.6179   7.7079
     7.8935   8.0097   8.0945   8.1875   8.2503   8.3270   8.4472   8.5252
     8.7593   8.8720   8.8993   9.0078   9.2210   9.3980   9.5127   9.5744
     9.6505   9.7735   9.8163   9.8794   9.9536  10.1044  10.1528  10.2615
    10.3370  10.4238  10.4458  10.6203  10.7433  10.8137  10.8472  10.9821
    11.0050  11.1284  11.2045  11.2683  11.3685  11.4755  11.5061  11.5675
    11.5942  11.7402  11.7656  11.8159  11.8777  12.0373  12.1700  12.2108
    12.2626  12.3200  12.3440  12.4638  12.5098  12.6259  12.6829  12.7410
    12.8003  12.8579  12.9803  13.0690  13.1180  13.1777  13.2195  13.2874
    13.3824  13.4435  13.5373  13.5833  13.7545  13.8183  13.8845  13.9261
    13.9621  14.1513  14.2101  14.2299  14.2991  14.3765  14.4187  14.5091
    14.6211  14.6684  14.7463  14.8172  15.0285  15.1593  15.3114  15.3267
    15.3757  15.4368  15.5076  15.5314  15.5937  15.6623  15.7216  15.7836
    15.8748  15.9274  16.0247  16.0611  16.1370  16.2165  16.2874  16.3556
    16.3919  16.4432  16.4745  16.5138  16.5855  16.6366  16.6657  16.7431
    16.8215  16.9009  16.9981  17.0578  17.1287  17.2092  17.2464  17.3335
    17.3960  17.4962  17.5295  17.5941  17.6397  17.7363  17.7999  17.8452
    17.9435  18.0142  18.0719  18.1476  18.1642  18.2905  18.3158  18.4046
    18.4524  18.5669  18.6480  18.7098  18.8288  18.8564  18.9037  18.9565
    19.0171  19.0711  19.1371  19.2178  19.2761  19.3103  19.3568  19.4950
    19.5488  19.6312  19.7029  19.7496  19.8002  19.9124  20.0291  20.0753
    20.2079  20.2806  20.2883  20.3520  20.5235  20.5717  20.6192  20.6784
    20.7214  20.7959  20.8758  20.9261  20.9472  21.0494  21.0972  21.1983
    21.3045  21.3390  21.3794  21.4094  21.4517  21.5409  21.6713  21.7513
    21.7647  21.8374  21.8722  21.9217  21.9492  22.0559  22.1087  22.1878
    22.2300  22.3229  22.4048  22.4590  22.5466

     the Fermi energy is    -2.3701 ev

!    total energy              =   -1977.73084309 Ry
     Harris-Foulkes estimate   =   -1977.73084309 Ry
     estimated scf accuracy    <          1.2E-09 Ry

     The total energy is the sum of the following terms:

     one-electron contribution =  -23311.29929725 Ry
     hartree contribution      =   11704.16819872 Ry
     xc contribution           =    -372.21090014 Ry
     ewald contribution        =    9999.16280732 Ry
     Hubbard energy            =       2.44869095 Ry
     smearing contrib. (-TS)   =      -0.00034269 Ry

     convergence has been achieved in  19 iterations

     Forces acting on atoms (Ry/au):

     negative rho (up, down):  0.687E+00 0.000E+00
     atom    1 type  1   force =    -0.00710866   -0.01179353    0.00018632
     atom    2 type  1   force =     0.00004241    0.00260621    0.00035114
     atom    3 type  2   force =     0.03486840    0.00851094   -0.00009343
     atom    4 type  2   force =     0.00843880    0.00886303    0.00008190
     atom    5 type  1   force =    -0.00348862   -0.02757876    0.00005274
     atom    6 type  1   force =     0.00412720    0.02425179    0.00014850
     atom    7 type  1   force =    -0.00032701   -0.00232852   -0.00050115
     atom    8 type  1   force =    -0.00311432   -0.00109012   -0.00039145
     atom    9 type  2   force =     0.00224932    0.00043570   -0.00015703
     atom   10 type  2   force =    -0.00004001   -0.00111414   -0.00068988
     atom   11 type  1   force =     0.00287414    0.01236945   -0.00038616
     atom   12 type  1   force =     0.00226985   -0.01317360   -0.00050201
     atom   13 type  1   force =    -0.00069007    0.00009185    0.00021154
     atom   14 type  1   force =    -0.00656144   -0.01180672    0.00018637
     atom   15 type  1   force =     0.00010974    0.00206262   -0.00029643
     atom   16 type  2   force =    -0.03508852    0.00696727   -0.00008416
     atom   17 type  2   force =     0.00820672    0.00903070   -0.00004290
     atom   18 type  1   force =    -0.00279837   -0.02715472    0.00006910
     atom   19 type  1   force =     0.00467057    0.02485292    0.00014101
     atom   20 type  1   force =    -0.00018398   -0.00499572    0.00095793
     atom   21 type  1   force =    -0.00296991   -0.00068889   -0.00034419
     atom   22 type  2   force =     0.00025992    0.00064291   -0.00014597
     atom   23 type  2   force =    -0.00011137    0.00139726    0.00044628
     atom   24 type  1   force =    -0.00337158    0.01245099   -0.00037754
     atom   25 type  1   force =    -0.00133758   -0.01321418   -0.00050777
     atom   26 type  1   force =    -0.00063715    0.00000208    0.00011056
     atom   27 type  3   force =    -0.00000865   -0.00004406    0.00059674
     atom   28 type  3   force =    -0.00000313    0.00030530    0.00042191
     atom   29 type  3   force =    -0.00008636    0.00012940    0.00012155
     atom   30 type  3   force =    -0.00017667    0.00026608    0.00007580
     atom   31 type  1   force =    -0.00001367   -0.00025354    0.00036066

     Total force =     0.002084     Total SCF correction =     0.000066

     bfgs converged in   9 scf cycles and   8 bfgs steps
     (criteria: energy < 0.10E-03, force < 0.10E-02)

     End of BFGS Geometry Optimization

     Final energy   =   -1977.7308430891 Ry
Begin final coordinates

ATOMIC_POSITIONS (crystal)
O0       0.000000000   0.000000000   0.378222263    0   0   1
O0       0.000000000   0.500000000   0.402560249    0   0   1
Rh1      0.250000000   0.500000000   0.453375795    0   0   1
Rh1      0.000000000   0.000000000   0.452412157    0   0   1
O0       0.250000000   0.810000000   0.452520296    0   0   1
O0       0.250000000   0.190000000   0.452237165    0   0   1
O0       0.000000000   0.500000000   0.499734843    0   0   1
O0       0.000000000   0.000000000   0.527539353    0   0   1
Rh1      0.250000000   0.000000000   0.574586699    0   0   1
Rh1      0.000000000   0.500000000   0.571057232    0   0   1
O0       0.250000000   0.690000000   0.574666121    0   0   1
O0       0.250000000   0.310000000   0.574593413    0   0   1
O0       0.000000000   0.000000000   0.619865758    0   0   1
O0       0.500000000   0.000000000   0.378127375    0   0   1
O0       0.500000000   0.500000000   0.402419042    0   0   1
Rh1      0.750000000   0.500000000   0.453378596    0   0   1
Rh1      0.500000000   0.000000000   0.452298509    0   0   1
O0       0.750000000   0.810000000   0.452489096    0   0   1
O0       0.750000000   0.190000000   0.452252624    0   0   1
O0       0.500000000   0.500000000   0.501794082    0   0   1
O0       0.500000000   0.000000000   0.527446810    0   0   1
Rh1      0.750000000   0.000000000   0.574584172    0   0   1
Rh1      0.500000000   0.500000000   0.578836051    0   0   1
O0       0.750000000   0.690000000   0.574629500    0   0   1
O0       0.750000000   0.310000000   0.574619179    0   0   1
O0       0.500000000   0.000000000   0.619991814    0   0   1
H2      -0.000219429   0.636217186   0.385028947
H2       0.499762012   0.637384514   0.385421409
H2       0.147966632   0.034662470   0.367393019
H2       0.647983790   0.034911005   0.367325076
O0       0.500063217   0.498260339   0.645413356
End final coordinates

     General routines

     Parallel routines
     Hubbard U routines

   This run was terminated on:  16:59:19  30Apr2014

   JOB DONE.
Running PBS batch system epilogue script
Job id: 340548.audhumbla.fysik.dtu.dk
Username: zhonxu
Groupname: campgst
Jobname: RhO2/Eads-2-layers/O-U-6.5
Sessionid: 2827
Queuename: verylong
Accounting:
This job has allocated the following 16 nodes:
b036 b036 b036 b036 b036 b036 b036 b036 b028 b028 b028 b028 b028 b028 b028 b028
Finished epilogue job 340548.audhumbla.fysik.dtu.dk for zhonxu