     Program PWSCF v.5.0.2 (svn rev. 9656) starts on  1Jun2014 at  8:21:23

     Current dimensions of program PWSCF are:
     Max number of different atomic species (ntypx) = 10
     Max number of k-points (npk) =  40000
     Max angular momentum in pseudopotentials (lmaxx) =  3
     Reading input from pwscf.in
Warning: card &CELL ignored
Warning: card / ignored

     Subspace diagonalization in iterative solution of the eigenvalue problem:
     a serial algorithm will be used

     bravais-lattice index     =            0
     lattice parameter (alat)  =      11.1872  a.u.
     unit-cell volume          =    7531.8600 (a.u.)^3
     number of atoms/cell      =           33
     number of atomic types    =            3
     number of electrons       =       229.00
     number of Kohn-Sham states=          343
     kinetic-energy cutoff     =      40.0000  Ry
     charge density cutoff     =     500.0000  Ry
     convergence threshold     =      1.0E-06
     mixing beta               =       0.7000
     number of iterations used =            8  plain     mixing
     Exchange-correlation      = SLA  PW   PBE  PBE ( 1 4 3 4 0)
     EXX-fraction              =        0.00
     nstep                     =           50

     celldm(1)=  11.187179  celldm(2)=   0.000000  celldm(3)=   0.000000
     celldm(4)=   0.000000  celldm(5)=   0.000000  celldm(6)=   0.000000

     crystal axes: (cart. coord. in units of alat)
               a(1) = (   1.000000   0.000000   0.000000 )
               a(2) = (   0.000000   1.180104   0.000000 )
               a(3) = (   0.000000   0.000000   4.558482 )

     reciprocal axes: (cart. coord. in units 2 pi/alat)
               b(1) = (  1.000000  0.000000  0.000000 )
               b(2) = (  0.000000  0.847383  0.000000 )
               b(3) = (  0.000000  0.000000  0.219371 )

     PseudoPot. # 1 for O  read from file:
     /home/camp/zhonxu/pseudo/o_pbe_v1.01.uspp.F.UPF
     MD5 check sum: 2bcb18d16ea4b960afae9ec6d52f22d2
     Pseudo is Ultrasoft + core correction, Zval =  6.0
     Generated by new atomic code, or converted to UPF format
     Using radial grid of  737 points,  5 beta functions with:
                l(1) =   0
                l(2) =   0
                l(3) =   1
                l(4) =   1
                l(5) =   2
     Q(r) pseudized with  8 coefficients,  rinner =    0.900   0.900   0.900
                                                       0.900   0.900

     PseudoPot. # 2 for Nb read from file:
     /home/camp/zhonxu/pseudo/nb_pbe_v1.uspp.F.UPF
     MD5 check sum: 573aab8a2fa660278ed4a62cd769473f
     Pseudo is Ultrasoft + core correction, Zval = 13.0
     Generated by new atomic code, or converted to UPF format
     Using radial grid of  887 points,  6 beta functions with:
                l(1) =   0
                l(2) =   0
                l(3) =   1
                l(4) =   1
                l(5) =   2
                l(6) =   2
     Q(r) pseudized with  6 coefficients,  rinner =    1.000   1.000   1.000
                                                       1.000   1.000

     PseudoPot. # 3 for H  read from file:
     /home/camp/zhonxu/pseudo/h_pbe_v1.uspp.F.UPF
     MD5 check sum: 3408e3ff4ec8b0a4e358431e7e038a48
     Pseudo is Ultrasoft, Zval =  1.0
     Generated by new atomic code, or converted to UPF format
     Using radial grid of  615 points,  2 beta functions with:
                l(1) =   0
                l(2) =   0
     Q(r) pseudized with  8 coefficients,  rinner =    0.700

     atomic species   valence    mass     pseudopotential
        O0             6.00    15.99940     O ( 1.00)
        Nb1           13.00    92.90640     Nb( 1.00)
        H2             1.00     1.00794     H ( 1.00)

     Simplified LDA+U calculation (l_max = 2) with parameters (eV):
     atomic species    L          U    alpha       J0     beta
        Nb1            2     6.0000   0.0000   0.0000   0.0000

     No symmetry found

   Cartesian axes

     site n.     atom                  positions (alat units)
         1           O0  tau(   1) = (   0.0000000   0.0000000   1.6962113  )
         2           O0  tau(   2) = (   0.0000000   0.5900519   1.7723835  )
         3           Nb1 tau(   3) = (   0.2500000   0.5900519   2.0257895  )
         4           Nb1 tau(   4) = (   0.0000000   0.0000000   2.0274306  )
         5           O0  tau(   5) = (   0.2500000   0.9322821   2.0383253  )
         6           O0  tau(   6) = (   0.2500000   0.2478218   2.0381886  )
         7           O0  tau(   7) = (   0.0000000   0.5900519   2.2790132  )
         8           O0  tau(   8) = (   0.0000000   0.0000000   2.3853170  )
         9           Nb1 tau(   9) = (   0.2500000   0.0000000   2.6318397  )
        10           Nb1 tau(  10) = (   0.0000000   0.5900519   2.5956910  )
        11           O0  tau(  11) = (   0.2500000   0.8378738   2.6232242  )
        12           O0  tau(  12) = (   0.2500000   0.3422301   2.6255034  )
        13           O0  tau(  13) = (   0.0000000   0.0000000   2.8344187  )
        14           O0  tau(  14) = (   0.5000000   0.0000000   1.6974420  )
        15           O0  tau(  15) = (   0.5000000   0.5900519   1.7789021  )
        16           Nb1 tau(  16) = (   0.7500000   0.5900519   2.0259719  )
        17           Nb1 tau(  17) = (   0.5000000   0.0000000   2.0298010  )
        18           O0  tau(  18) = (   0.7500000   0.9322821   2.0382798  )
        19           O0  tau(  19) = (   0.7500000   0.2478218   2.0381886  )
        20           O0  tau(  20) = (   0.5000000   0.5900519   2.2737254  )
        21           O0  tau(  21) = (   0.5000000   0.0000000   2.3845421  )
        22           Nb1 tau(  22) = (   0.7500000   0.0000000   2.6318397  )
        23           Nb1 tau(  23) = (   0.5000000   0.5900519   2.6269166  )
        24           O0  tau(  24) = (   0.7500000   0.8378738   2.6231786  )
        25           O0  tau(  25) = (   0.7500000   0.3422301   2.6254579  )
        26           O0  tau(  26) = (   0.5000000   0.0000000   2.8332335  )
        27           H2  tau(  27) = (  -0.0005200   0.5958463   1.6070929  )
        28           H2  tau(  28) = (   0.4994400   0.5914445   1.6138395  )
        29           H2  tau(  29) = (   0.1507700   0.0008261   1.6243240  )
        30           H2  tau(  30) = (   0.6503900   0.0006019   1.6249166  )
        31           O0  tau(  31) = (   0.5000000   0.6010623   2.9587285  )
        32           O0  tau(  32) = (   0.5000000   0.4103103   3.1155403  )
        33           H2  tau(  33) = (   0.5000000   0.4955964   3.2584031  )

     number of k points=    10  Methfessel-Paxton smearing, width (Ry)=  0.0100
                       cart. coord. in units 2pi/alat
        k(    1) = (   0.0000000   0.0000000   0.0000000), wk =   0.1250000
        k(    2) = (   0.0000000   0.2118458   0.0000000), wk =   0.2500000
        k(    3) = (   0.0000000  -0.4236915   0.0000000), wk =   0.1250000
        k(    4) = (   0.2500000   0.0000000   0.0000000), wk =   0.2500000
        k(    5) = (   0.2500000   0.2118458   0.0000000), wk =   0.2500000
        k(    6) = (   0.2500000  -0.4236915   0.0000000), wk =   0.2500000
        k(    7) = (  -0.5000000   0.0000000   0.0000000), wk =   0.1250000
        k(    8) = (  -0.5000000   0.2118458   0.0000000), wk =   0.2500000
        k(    9) = (  -0.5000000  -0.4236915   0.0000000), wk =   0.1250000
        k(   10) = (  -0.2500000   0.2118458   0.0000000), wk =   0.2500000

     Largest allocated arrays     est. size (Mb)     dimensions
     Largest temporary arrays     est. size (Mb)     dimensions

     Check: negative/imaginary core charge=   -0.000003    0.000000

     Initial potential from superposition of free atoms
     Check: negative starting charge=   -0.003307

     starting charge  228.97806, renormalised to  229.00000

     negative rho (up, down):  0.331E-02 0.000E+00
     Number of +U iterations with fixed ns =  0
     Starting occupations:
 --- enter write_ns ---
 LDA+U parameters:
U( 2)     =  6.00000000
alpha( 2) =  0.00000000
atom    3   Tr[ns(na)] =   3.00000
    eigenvalues:
  0.300  0.300  0.300  0.300  0.300
    eigenvectors:
  1.000  0.000  0.000  0.000  0.000
  0.000  1.000  0.000  0.000  0.000
  0.000  0.000  1.000  0.000  0.000
  0.000  0.000  0.000  1.000  0.000
  0.000  0.000  0.000  0.000  1.000
    occupations:
  0.300  0.000  0.000  0.000  0.000
  0.000  0.300  0.000  0.000  0.000
  0.000  0.000  0.300  0.000  0.000
  0.000  0.000  0.000  0.300  0.000
  0.000  0.000  0.000  0.000  0.300
atom    4   Tr[ns(na)] =   3.00000
    eigenvalues:
  0.300  0.300  0.300  0.300  0.300
    eigenvectors:
  1.000  0.000  0.000  0.000  0.000
  0.000  1.000  0.000  0.000  0.000
  0.000  0.000  1.000  0.000  0.000
  0.000  0.000  0.000  1.000  0.000
  0.000  0.000  0.000  0.000  1.000
    occupations:
  0.300  0.000  0.000  0.000  0.000
  0.000  0.300  0.000  0.000  0.000
  0.000  0.000  0.300  0.000  0.000
  0.000  0.000  0.000  0.300  0.000
  0.000  0.000  0.000  0.000  0.300
atom    9   Tr[ns(na)] =   3.00000
    eigenvalues:
  0.300  0.300  0.300  0.300  0.300
    eigenvectors:
  1.000  0.000  0.000  0.000  0.000
  0.000  1.000  0.000  0.000  0.000
  0.000  0.000  1.000  0.000  0.000
  0.000  0.000  0.000  1.000  0.000
  0.000  0.000  0.000  0.000  1.000
    occupations:
  0.300  0.000  0.000  0.000  0.000
  0.000  0.300  0.000  0.000  0.000
  0.000  0.000  0.300  0.000  0.000
  0.000  0.000  0.000  0.300  0.000
  0.000  0.000  0.000  0.000  0.300
atom   10   Tr[ns(na)] =   3.00000
    eigenvalues:
  0.300  0.300  0.300  0.300  0.300
    eigenvectors:
  1.000  0.000  0.000  0.000  0.000
  0.000  1.000  0.000  0.000  0.000
  0.000  0.000  1.000  0.000  0.000
  0.000  0.000  0.000  1.000  0.000
  0.000  0.000  0.000  0.000  1.000
    occupations:
  0.300  0.000  0.000  0.000  0.000
  0.000  0.300  0.000  0.000  0.000
  0.000  0.000  0.300  0.000  0.000
  0.000  0.000  0.000  0.300  0.000
  0.000  0.000  0.000  0.000  0.300
atom   16   Tr[ns(na)] =   3.00000
    eigenvalues:
  0.300  0.300  0.300  0.300  0.300
    eigenvectors:
  1.000  0.000  0.000  0.000  0.000
  0.000  1.000  0.000  0.000  0.000
  0.000  0.000  1.000  0.000  0.000
  0.000  0.000  0.000  1.000  0.000
  0.000  0.000  0.000  0.000  1.000
    occupations:
  0.300  0.000  0.000  0.000  0.000
  0.000  0.300  0.000  0.000  0.000
  0.000  0.000  0.300  0.000  0.000
  0.000  0.000  0.000  0.300  0.000
  0.000  0.000  0.000  0.000  0.300
atom   17   Tr[ns(na)] =   3.00000
    eigenvalues:
  0.300  0.300  0.300  0.300  0.300
    eigenvectors:
  1.000  0.000  0.000  0.000  0.000
  0.000  1.000  0.000  0.000  0.000
  0.000  0.000  1.000  0.000  0.000
  0.000  0.000  0.000  1.000  0.000
  0.000  0.000  0.000  0.000  1.000
    occupations:
  0.300  0.000  0.000  0.000  0.000
  0.000  0.300  0.000  0.000  0.000
  0.000  0.000  0.300  0.000  0.000
  0.000  0.000  0.000  0.300  0.000
  0.000  0.000  0.000  0.000  0.300
atom   22   Tr[ns(na)] =   3.00000
    eigenvalues:
  0.300  0.300  0.300  0.300  0.300
    eigenvectors:
  1.000  0.000  0.000  0.000  0.000
  0.000  1.000  0.000  0.000  0.000
  0.000  0.000  1.000  0.000  0.000
[...]
  0.000  0.000  1.000  0.000  0.000
  0.000  1.000  0.000  0.000  0.000
  1.000  0.000  0.000  0.000  0.000
  0.000  0.000  0.000  0.000  1.000
  0.000  0.000  0.000  1.000  0.000
    occupations:
  0.503  0.000  0.000 -0.001  0.000
  0.000  0.346 -0.000  0.001  0.001
  0.000 -0.000  0.322 -0.002 -0.000
 -0.001  0.001 -0.002  0.820 -0.000
  0.000  0.001 -0.000 -0.000  0.532
atom   16   Tr[ns(na)] =   5.10559
    eigenvalues:
  0.330  0.335  0.515  0.597  0.775
    eigenvectors:
  0.000  0.000  0.001  0.340  0.659
  0.000  0.000  0.999  0.000  0.000
  0.652  0.348  0.000  0.000  0.000
  0.000  0.000  0.000  0.659  0.341
  0.348  0.652  0.000  0.000  0.000
    occupations:
  0.714  0.004  0.001 -0.084  0.003
  0.004  0.515  0.001 -0.001  0.001
  0.001  0.001  0.332 -0.001  0.002
 -0.084 -0.001 -0.001  0.658 -0.002
  0.003  0.001  0.002 -0.002  0.334
atom   17   Tr[ns(na)] =   5.14692
    eigenvalues:
  0.330  0.355  0.553  0.585  0.752
    eigenvectors:
  0.003  0.000  0.000  0.997  0.000
  0.996  0.000  0.000  0.003  0.001
  0.000  1.000  0.000  0.000  0.000
  0.001  0.000  0.000  0.000  0.999
  0.000  0.000  1.000  0.000  0.000
    occupations:
  0.584  0.014  0.000 -0.002 -0.000
  0.014  0.331 -0.000 -0.013  0.000
  0.000 -0.000  0.355 -0.000  0.001
 -0.002 -0.013 -0.000  0.751  0.000
 -0.000  0.000  0.001  0.000  0.553
atom   22   Tr[ns(na)] =   5.24539
    eigenvalues:
  0.427  0.456  0.474  0.632  0.633
    eigenvectors:
  0.000  0.871  0.000  0.105  0.023
  0.000  0.000  0.000  0.184  0.816
  0.998  0.001  0.001  0.000  0.000
  0.000  0.128  0.000  0.711  0.161
  0.001  0.000  0.998  0.000  0.000
    occupations:
  0.479 -0.000 -0.000  0.059 -0.000
 -0.000  0.633 -0.000  0.001  0.000
 -0.000 -0.000  0.427  0.001 -0.002
  0.059  0.001  0.001  0.610  0.000
 -0.000  0.000 -0.002  0.000  0.474
atom   23   Tr[ns(na)] =   5.19279
    eigenvalues:
  0.326  0.477  0.561  0.603  0.629
    eigenvectors:
  0.001  0.000  0.000  0.847  0.152
  0.000  0.996  0.004  0.000  0.000
  0.998  0.000  0.000  0.001  0.001
  0.000  0.000  0.000  0.152  0.847
  0.000  0.004  0.996  0.000  0.000
    occupations:
  0.607 -0.000  0.011  0.009 -0.000
 -0.000  0.477 -0.000 -0.000 -0.006
  0.011 -0.000  0.326  0.005  0.000
  0.009 -0.000  0.005  0.625 -0.000
 -0.000 -0.006  0.000 -0.000  0.561
N of occupied +U levels =  41.2393726
 --- exit write_ns ---

     Threshold (ethr) on eigenvalues was too large:
     Diagonalizing with lowered threshold

     Davidson diagonalization with overlap
     ethr =  3.64E-09,  avg # of iterations =  3.0

[...]

     total energy              =   -1591.51030567 Ry
     Harris-Foulkes estimate   =   -1591.51030567 Ry
     estimated scf accuracy    <       0.00000002 Ry

     iteration #  9     ecut=    40.00 Ry     beta=0.70
     Davidson diagonalization with overlap
     ethr =  1.02E-11,  avg # of iterations =  1.0

     negative rho (up, down):  0.342E-02 0.000E+00

     End of self-consistent calculation
 --- enter write_ns ---
 LDA+U parameters:
U( 2)     =  6.00000000
alpha( 2) =  0.00000000
atom    3   Tr[ns(na)] =   5.10571
    eigenvalues:
  0.330  0.335  0.515  0.597  0.775
    eigenvectors:
  0.000  0.000  0.001  0.340  0.659
  0.000  0.000  0.999  0.000  0.000
  0.636  0.364  0.000  0.000  0.000
  0.000  0.000  0.000  0.659  0.341
  0.364  0.636  0.000  0.000  0.000
    occupations:
  0.714 -0.004  0.001 -0.084 -0.003
 -0.004  0.515 -0.001  0.001  0.001
  0.001 -0.001  0.332 -0.000 -0.002
 -0.084  0.001 -0.000  0.658  0.002
 -0.003  0.001 -0.002  0.002  0.334
atom    4   Tr[ns(na)] =   5.15164
    eigenvalues:
  0.328  0.355  0.553  0.584  0.756
    eigenvectors:
  0.003  0.000  0.000  0.997  0.000
  0.996  0.000  0.000  0.003  0.001
  0.000  1.000  0.000  0.000  0.000
  0.001  0.000  0.000  0.000  0.999
  0.000  0.000  1.000  0.000  0.000
    occupations:
  0.583  0.014  0.000 -0.002 -0.000
  0.014  0.329 -0.000 -0.013  0.000
  0.000 -0.000  0.355 -0.000  0.001
 -0.002 -0.013 -0.000  0.755  0.000
 -0.000  0.000  0.001  0.000  0.553
atom    9   Tr[ns(na)] =   5.24549
    eigenvalues:
  0.427  0.456  0.474  0.632  0.633
    eigenvectors:
  0.000  0.871  0.000  0.105  0.024
  0.000  0.000  0.000  0.187  0.813
  0.998  0.001  0.002  0.000  0.000
  0.000  0.128  0.000  0.708  0.164
  0.002  0.000  0.998  0.000  0.000
    occupations:
  0.479  0.000 -0.000  0.059  0.000
  0.000  0.633  0.000 -0.001  0.000
 -0.000  0.000  0.427  0.001  0.002
  0.059 -0.001  0.001  0.610 -0.000
  0.000  0.000  0.002 -0.000  0.474
atom   10   Tr[ns(na)] =   5.04672
    eigenvalues:
  0.322  0.346  0.503  0.532  0.820
    eigenvectors:
  0.000  0.000  1.000  0.000  0.000
  0.000  1.000  0.000  0.000  0.000
  1.000  0.000  0.000  0.000  0.000
  0.000  0.000  0.000  0.000  1.000
  0.000  0.000  0.000  1.000  0.000
    occupations:
  0.503  0.000  0.000 -0.001 -0.000
  0.000  0.346 -0.000  0.001  0.001
  0.000 -0.000  0.322 -0.002 -0.000
 -0.001  0.001 -0.002  0.820 -0.000
 -0.000  0.001 -0.000 -0.000  0.532
atom   16   Tr[ns(na)] =   5.10585
    eigenvalues:
  0.330  0.335  0.515  0.597  0.775
    eigenvectors:
  0.000  0.000  0.001  0.340  0.659
  0.000  0.000  0.999  0.000  0.000
  0.652  0.348  0.000  0.000  0.000
  0.000  0.000  0.000  0.659  0.341
  0.348  0.652  0.000  0.000  0.000
    occupations:
  0.714  0.004  0.001 -0.084  0.003
  0.004  0.515  0.001 -0.001  0.001
  0.001  0.001  0.332 -0.001  0.002
 -0.084 -0.001 -0.001  0.658 -0.002
  0.003  0.001  0.002 -0.002  0.334
atom   17   Tr[ns(na)] =   5.14667
    eigenvalues:
  0.330  0.355  0.553  0.585  0.752
    eigenvectors:
  0.003  0.000  0.000  0.997  0.000
  0.996  0.000  0.000  0.003  0.001
  0.000  1.000  0.000  0.000  0.000
  0.001  0.000  0.000  0.000  0.999
  0.000  0.000  1.000  0.000  0.000
    occupations:
  0.584  0.014  0.000 -0.002 -0.000
  0.014  0.331 -0.000 -0.013  0.000
  0.000 -0.000  0.355 -0.000  0.001
 -0.002 -0.013 -0.000  0.751  0.000
 -0.000  0.000  0.001  0.000  0.553
atom   22   Tr[ns(na)] =   5.24580
    eigenvalues:
  0.427  0.456  0.474  0.632  0.633
    eigenvectors:
  0.000  0.871  0.000  0.104  0.024
  0.000  0.000  0.000  0.190  0.810
  0.998  0.001  0.001  0.000  0.000
  0.000  0.128  0.000  0.705  0.166
  0.001  0.000  0.998  0.000  0.000
    occupations:
  0.479 -0.000 -0.000  0.059 -0.000
 -0.000  0.633 -0.000  0.001  0.000
 -0.000 -0.000  0.427  0.001 -0.002
  0.059  0.001  0.001  0.610  0.000
 -0.000  0.000 -0.002  0.000  0.474
atom   23   Tr[ns(na)] =   5.19191
    eigenvalues:
  0.326  0.477  0.561  0.603  0.629
    eigenvectors:
  0.001  0.000  0.000  0.844  0.155
  0.000  0.996  0.004  0.000  0.000
  0.998  0.000  0.000  0.001  0.001
  0.000  0.000  0.000  0.155  0.844
  0.000  0.004  0.996  0.000  0.000
    occupations:
  0.607 -0.000  0.010  0.009 -0.000
 -0.000  0.477 -0.000 -0.000 -0.006
  0.010 -0.000  0.326  0.005  0.000
  0.009 -0.000  0.005  0.625 -0.000
 -0.000 -0.006  0.000 -0.000  0.561
N of occupied +U levels =  41.2397955
 --- exit write_ns ---

[...]

          k = 0.2500-0.4237 0.0000 ( 32188 PWs)   bands (ev):

[...]

          k =-0.2500 0.2118 0.0000 ( 32165 PWs)   bands (ev):

   -56.3641 -56.2949 -55.7644 -55.7052 -55.6829 -55.5275 -55.4599 -55.4045
   -33.0866 -32.5895 -32.4473 -32.3942 -32.3879 -32.3391 -32.2750 -32.2236
   -32.1736 -32.0411 -32.0088 -31.9782 -31.9545 -31.9055 -31.8553 -31.6830
   -31.6471 -31.5344 -31.4502 -31.4006 -31.2684 -31.2509 -31.2129 -31.1712
   -22.4827 -20.1203 -19.9611 -19.1995 -19.1140 -18.8135 -18.7446 -18.7417
   -18.6600 -18.6343 -18.6104 -18.5730 -17.8763 -17.8584 -17.8308 -17.7870
   -17.7609 -17.7047 -17.6393 -16.0869  -8.7963  -8.3115  -7.7414  -7.2656
    -7.0674  -6.9948  -6.7821  -6.5140  -6.3822  -6.2871  -6.2518  -6.1179
    -6.0909  -6.0500  -5.8332  -5.7854  -5.6943  -5.4228  -5.3352  -5.3259
    -5.2700  -5.0748  -4.8726  -4.8612  -4.6919  -4.4601  -4.3873  -4.3636
    -4.2415  -4.1274  -4.0249  -3.9629  -3.9289  -3.9085  -3.8102  -3.7475
    -3.6945  -3.6307  -3.6103  -3.5373  -3.4038  -3.3193  -3.2569  -3.2339
    -3.1586  -3.0141  -2.9792  -2.8888  -2.8423  -2.8133  -2.7272  -2.5583
    -2.4899  -2.4438  -2.3218  -2.3075  -2.0430  -1.8639  -0.9555  -0.7453
     0.0550   0.0636   1.4382   1.7101   1.8569   1.9252   1.9546   1.9699
     2.1065   2.3421   2.4320   2.5313   2.6407   2.7080   2.7726   2.8429
     2.8779   2.9669   3.0533   3.1391   3.2675   3.3052   3.4107   3.6166
     3.9305   4.2198   4.3742   4.4214   4.7112   4.7901   4.9520   5.1101
     5.1771   5.2186   5.3016   5.4163   5.4555   5.6808   5.7937   5.8448
     5.9291   6.0267   6.0515   6.1534   6.3834   6.4537   6.5411   6.6877
     6.7217   6.7831   6.8457   6.9782   7.0856   7.2713   7.3494   7.4357
     7.5100   7.7827   7.8827   8.0098   8.0608   8.1463   8.2926   8.3366
     8.5154   8.5909   8.7275   8.8086   8.9385   8.9661   9.0621   9.2591
     9.3056   9.4267   9.4851   9.5651   9.6754   9.8140   9.8692   9.9559
    10.0648  10.1407  10.2250  10.3342  10.4316  10.4655  10.6131  10.7964
    10.8622  10.9898  11.0359  11.1206  11.1729  11.2312  11.3085  11.3868
    11.4793  11.5918  11.6104  11.6510  11.7017  11.8782  11.9170  12.0095
    12.1199  12.1905  12.2350  12.3320  12.4554  12.5530  12.6003  12.7105
    12.7487  12.7941  12.8555  12.9273  12.9513  13.0016  13.0589  13.1811
    13.2143  13.2973  13.3508  13.4261  13.5384  13.5967  13.6538  13.7201
    13.7723  13.8591  13.9080  14.0030  14.0500  14.0759  14.1377  14.2387
    14.3162  14.4027  14.4276  14.4954  14.6532  14.7488  14.7873  14.8801
    14.9533  15.0714  15.1696  15.2494  15.3139  15.3215  15.4056  15.4512
    15.5005  15.5523  15.5839  15.7078  15.7722  15.8122  15.8776  15.9034
    15.9871  16.0664  16.1242  16.2055  16.2844  16.3733  16.3887  16.4385
    16.5568  16.6702  16.7098  16.7414  16.7900  16.8789  16.9228  17.0409
    17.0714  17.1266  17.1845  17.2405  17.3229  17.3824  17.4971  17.5167
    17.5696  17.6306  17.6945  17.8319  17.8742  17.9413  17.9665  18.0688
    18.1255  18.2212  18.2922  18.3473  18.4166  18.5577  18.5864  18.6482
    18.6581  18.7647  18.8308  18.8780  18.9724  19.0129  19.0816  19.1005
    19.2064  19.2831  19.2972  19.3830  19.4392  19.4616  19.5139  19.5851
    19.6744  19.7516  19.7789  19.8140  19.8797  19.9162  19.9792  20.0353
    20.0606  20.1226  20.1717  20.2401  20.2902  20.3654  20.4206

     the Fermi energy is     1.1577 ev

!    total energy              =   -1591.51030567 Ry
     Harris-Foulkes estimate   =   -1591.51030567 Ry
     estimated scf accuracy    <          3.9E-09 Ry

     The total energy is the sum of the following terms:

     one-electron contribution =  -19280.43739817 Ry
     hartree contribution      =    9673.57625119 Ry
     xc contribution           =    -294.74232371 Ry
     ewald contribution        =    8306.05294897 Ry
     Hubbard energy            =       4.03999529 Ry
     smearing contrib. (-TS)   =       0.00022076 Ry

     convergence has been achieved in   9 iterations

     Forces acting on atoms (Ry/au):

     negative rho (up, down):  0.342E-02 0.000E+00
     atom    1 type  1   force =     0.00045125   -0.00031162   -0.00000757
     atom    2 type  1   force =    -0.00006767    0.00042315    0.00015386
     atom    3 type  2   force =     0.03040119   -0.00009884   -0.00017559
     atom    4 type  2   force =    -0.00178883    0.00000989    0.00003262
     atom    5 type  1   force =    -0.00132394   -0.02877779    0.00013513
     atom    6 type  1   force =    -0.00116582    0.02870809    0.00014586
     atom    7 type  1   force =    -0.00017379   -0.00018509   -0.00025021
     atom    8 type  1   force =     0.00089624    0.00110499    0.00017587
     atom    9 type  2   force =     0.00219367   -0.00076591    0.00022753
     atom   10 type  2   force =     0.00038181   -0.00038620   -0.00036928
     atom   11 type  1   force =     0.00093016    0.01154489   -0.00041129
     atom   12 type  1   force =     0.00359077   -0.00600318   -0.00020472
     atom   13 type  1   force =     0.00019061   -0.00150014    0.00036123
     atom   14 type  1   force =     0.00044437   -0.00000876    0.00001034
     atom   15 type  1   force =    -0.00007801    0.00015969   -0.00019880
     atom   16 type  2   force =    -0.03008761   -0.00015521   -0.00017213
     atom   17 type  2   force =    -0.00236812   -0.00006601   -0.00009432
     atom   18 type  1   force =     0.00191827   -0.02870036    0.00012013
     atom   19 type  1   force =     0.00166894    0.02864420    0.00013774
     atom   20 type  1   force =    -0.00013464   -0.00343620   -0.00018940
     atom   21 type  1   force =     0.00076494    0.00085421    0.00009602
     atom   22 type  2   force =    -0.00209304   -0.00076412    0.00028991
     atom   23 type  2   force =    -0.00021115   -0.00061610   -0.00044487
     atom   24 type  1   force =    -0.00104321    0.01149174   -0.00049448
     atom   25 type  1   force =    -0.00368788   -0.00596961   -0.00029359
     atom   26 type  1   force =     0.00009029   -0.00474047    0.00045731
     atom   27 type  3   force =     0.00000982    0.00008829    0.00080312
     atom   28 type  3   force =     0.00000655   -0.00025913   -0.00016003
     atom   29 type  3   force =     0.00011620    0.00004120    0.00027632
     atom   30 type  3   force =     0.00013004    0.00000890    0.00033458
     atom   31 type  1   force =     0.00003434    0.00077158    0.00076847
     atom   32 type  1   force =     0.00000584   -0.00079989   -0.00059369
     atom   33 type  3   force =    -0.00000157   -0.00030618   -0.00046609

     Total force =     0.002270     Total SCF correction =     0.000135

     entering subroutine stress ...

     negative rho (up, down):  0.342E-02 0.000E+00
          total   stress  (Ry/bohr**3)                   (kbar)     P=   -1.55
  -0.00001148  -0.00000003   0.00000065         -1.69     -0.00      0.10
  -0.00000003   0.00001399  -0.00000089         -0.00      2.06     -0.13
   0.00000065  -0.00000089  -0.00003403          0.10     -0.13     -5.01

     bfgs converged in  15 scf cycles and  14 bfgs steps
     (criteria: energy < 0.10E-03, force < 0.10E-02)

     End of BFGS Geometry Optimization

     Final energy   =   -1591.5103056717 Ry
Begin final coordinates

ATOMIC_POSITIONS (crystal)
O0       0.000000000   0.000000000   0.370974736    0   0   1
O0       0.000000000   0.500000000   0.387318336    0   0   1
Nb1      0.250000000   0.500000000   0.443024854    0   0   1
Nb1      0.000000000   0.000000000   0.443848841    0   0   1
O0       0.250000000   0.790000000   0.447460361    0   0   1
O0       0.250000000   0.210000000   0.447431428    0   0   1
O0       0.000000000   0.500000000   0.499123366    0   0   1
O0       0.000000000   0.000000000   0.524600669    0   0   1
Nb1      0.250000000   0.000000000   0.577792009    0   0   1
Nb1      0.000000000   0.500000000   0.568328556    0   0   1
O0       0.250000000   0.710000000   0.578277687    0   0   1
O0       0.250000000   0.290000000   0.578883324    0   0   1
O0       0.000000000   0.000000000   0.622334910    0   0   1
O0       0.500000000   0.000000000   0.371181569    0   0   1
O0       0.500000000   0.500000000   0.387667158    0   0   1
Nb1      0.750000000   0.500000000   0.443027636    0   0   1
Nb1      0.500000000   0.000000000   0.444075168    0   0   1
O0       0.750000000   0.790000000   0.447443878    0   0   1
O0       0.750000000   0.210000000   0.447428289    0   0   1
O0       0.500000000   0.500000000   0.500738052    0   0   1
O0       0.500000000   0.000000000   0.524704482    0   0   1
Nb1      0.750000000   0.000000000   0.577844955    0   0   1
Nb1      0.500000000   0.500000000   0.575673220    0   0   1
O0       0.750000000   0.710000000   0.578216756    0   0   1
O0       0.750000000   0.290000000   0.578822603    0   0   1
O0       0.500000000   0.000000000   0.621936973    0   0   1
H2      -0.000425952   0.505401180   0.351161313
H2       0.499588427   0.500304438   0.351488044
H2       0.151803489   0.000928781   0.355877222
H2       0.651626254   0.000636849   0.355998006
O0       0.500054870   0.512831633   0.649645023
O0       0.500009572   0.348948480   0.682478998
H2       0.499991238   0.416991220   0.714451575
End final coordinates

     General routines

     Parallel routines
     Hubbard U routines

   This run was terminated on:  22:53:16   1Jun2014

   JOB DONE.
Running PBS batch system epilogue script
Job id: 373370.audhumbla.fysik.dtu.dk
Username: zhonxu
Groupname: campgst
Jobname: NbO2/Eads-2-layers/OOH-U-6.0
Sessionid: 20225
Queuename: verylong
Accounting:
This job has allocated the following 16 nodes:
b050 b050 b050 b050 b050 b050 b050 b050 b029 b029 b029 b029 b029 b029 b029 b029
Finished epilogue job 373370.audhumbla.fysik.dtu.dk for zhonxu