     Program PWSCF v.5.0.2 (svn rev. 9656) starts on 30Apr2014 at  3:31:36

     Current dimensions of program PWSCF are:
     Max number of different atomic species (ntypx) = 10
     Max number of k-points (npk) =  40000
     Max angular momentum in pseudopotentials (lmaxx) =  3
     Reading input from pwscf.in
Warning: card &CELL ignored
Warning: card / ignored

     Subspace diagonalization in iterative solution of the eigenvalue problem:
     a serial algorithm will be used

     bravais-lattice index     =            0
     lattice parameter (alat)  =      11.7541  a.u.
     unit-cell volume          =    7139.8207 (a.u.)^3
     number of atoms/cell      =           31
     number of atomic types    =            3
     number of electrons       =       238.00
     number of Kohn-Sham states=          357
     kinetic-energy cutoff     =      40.0000  Ry
     charge density cutoff     =     500.0000  Ry
     convergence threshold     =      1.0E-06
     mixing beta               =       0.7000
     number of iterations used =            8  plain     mixing
     Exchange-correlation      = SLA  PW   PBE  PBE ( 1 4 3 4 0)
     EXX-fraction              =        0.00
     nstep                     =           50

     celldm(1)=  11.754097  celldm(2)=   0.000000  celldm(3)=   0.000000
     celldm(4)=   0.000000  celldm(5)=   0.000000  celldm(6)=   0.000000

     crystal axes: (cart. coord. in units of alat)
               a(1) = (   1.000000   0.000000   0.000000 )
               a(2) = (   0.000000   1.034513   0.000000 )
               a(3) = (   0.000000   0.000000   4.249947 )

     reciprocal axes: (cart. coord. in units 2 pi/alat)
               b(1) = (  1.000000  0.000000  0.000000 )
               b(2) = (  0.000000  0.966638  0.000000 )
               b(3) = (  0.000000  0.000000  0.235297 )

     PseudoPot. # 1 for O  read from file:
     /home/camp/zhonxu/pseudo/o_pbe_v1.01.uspp.F.UPF
     MD5 check sum: 2bcb18d16ea4b960afae9ec6d52f22d2
     Pseudo is Ultrasoft + core correction, Zval =  6.0
     Generated by new atomic code, or converted to UPF format
     Using radial grid of  737 points,  5 beta functions with:
                l(1) =   0
                l(2) =   0
                l(3) =   1
                l(4) =   1
                l(5) =   2
     Q(r) pseudized with  8 coefficients,  rinner =    0.900   0.900   0.900
                                                       0.900   0.900

     PseudoPot. # 2 for Rh read from file:
     /home/camp/zhonxu/pseudo/rh_pbe_v1.uspp.F.UPF
     MD5 check sum: 37b626987ad0dd8ec6bf4cc9ef289918
     Pseudo is Ultrasoft + core correction, Zval = 15.0
     Generated by new atomic code, or converted to UPF format
     Using radial grid of  969 points,  7 beta functions with:
                l(1) =   0
                l(2) =   0
                l(3) =   1
                l(4) =   1
                l(5) =   2
                l(6) =   2
                l(7) =   2
     Q(r) pseudized with  6 coefficients,  rinner =    1.050   1.050   1.050
                                                       1.050   1.050

     PseudoPot. # 3 for H  read from file:
     /home/camp/zhonxu/pseudo/h_pbe_v1.uspp.F.UPF
     MD5 check sum: 3408e3ff4ec8b0a4e358431e7e038a48
     Pseudo is Ultrasoft, Zval =  1.0
     Generated by new atomic code, or converted to UPF format
     Using radial grid of  615 points,  2 beta functions with:
                l(1) =   0
                l(2) =   0
     Q(r) pseudized with  8 coefficients,  rinner =    0.700

     atomic species   valence    mass     pseudopotential
        O0             6.00    15.99940     O ( 1.00)
        Rh1           15.00   102.90550     Rh( 1.00)
        H2             1.00     1.00794     H ( 1.00)

     Simplified LDA+U calculation (l_max = 2) with parameters (eV):
     atomic species    L          U    alpha       J0     beta
        Rh1            2     0.5000   0.0000   0.0000   0.0000

     No symmetry found

   Cartesian axes

     site n.     atom                  positions (alat units)
         1           O0  tau(   1) = (   0.0000000   0.0000000   1.6064375  )
         2           O0  tau(   2) = (   0.0000000   0.5172566   1.7091588  )
         3           Rh1 tau(   3) = (   0.2500000   0.5172566   1.9262886  )
         4           Rh1 tau(   4) = (   0.0000000   0.0000000   1.9228036  )
         5           O0  tau(   5) = (   0.2500000   0.8379556   1.9220386  )
         6           O0  tau(   6) = (   0.2500000   0.1965575   1.9215286  )
         7           O0  tau(   7) = (   0.0000000   0.5172566   2.1200437  )
         8           O0  tau(   8) = (   0.0000000   0.0000000   2.2432071  )
         9           Rh1 tau(   9) = (   0.2500000   0.0000000   2.4439746  )
        10           Rh1 tau(  10) = (   0.0000000   0.5172566   2.4253174  )
        11           O0  tau(  11) = (   0.2500000   0.7138141   2.4432947  )
        12           O0  tau(  12) = (   0.2500000   0.3206991   2.4432097  )
        13           O0  tau(  13) = (   0.0000000   0.0000000   2.6356898  )
        14           O0  tau(  14) = (   0.5000000   0.0000000   1.6064375  )
        15           O0  tau(  15) = (   0.5000000   0.5172566   1.7079263  )
        16           Rh1 tau(  16) = (   0.7500000   0.5172566   1.9262886  )
        17           Rh1 tau(  17) = (   0.5000000   0.0000000   1.9227611  )
        18           O0  tau(  18) = (   0.7500000   0.8379556   1.9219536  )
        19           O0  tau(  19) = (   0.7500000   0.1965575   1.9216136  )
        20           O0  tau(  20) = (   0.5000000   0.5172566   2.1284161  )
        21           O0  tau(  21) = (   0.5000000   0.0000000   2.2423572  )
        22           Rh1 tau(  22) = (   0.7500000   0.0000000   2.4439321  )
        23           Rh1 tau(  23) = (   0.5000000   0.5172566   2.4652244  )
        24           O0  tau(  24) = (   0.7500000   0.7138141   2.4431672  )
        25           O0  tau(  25) = (   0.7500000   0.3206991   2.4432097  )
        26           O0  tau(  26) = (   0.5000000   0.0000000   2.6354348  )
        27           H2  tau(  27) = (  -0.0000700   0.6590056   1.6354222  )
        28           H2  tau(  28) = (   0.4999300   0.6605366   1.6368247  )
        29           H2  tau(  29) = (   0.1480800   0.0354838   1.5606656  )
        30           H2  tau(  30) = (   0.6481100   0.0354321   1.5605806  )
        31           O0  tau(  31) = (   0.5000800   0.5160462   2.7479734  )

     number of k points=    10  Methfessel-Paxton smearing, width (Ry)=  0.0100
                       cart. coord. in units 2pi/alat
        k(    1) = (   0.0000000   0.0000000   0.0000000), wk =   0.1250000
        k(    2) = (   0.0000000   0.2416596   0.0000000), wk =   0.2500000
        k(    3) = (   0.0000000  -0.4833191   0.0000000), wk =   0.1250000
        k(    4) = (   0.2500000   0.0000000   0.0000000), wk =   0.2500000
        k(    5) = (   0.2500000   0.2416596   0.0000000), wk =   0.2500000
        k(    6) = (   0.2500000  -0.4833191   0.0000000), wk =   0.2500000
        k(    7) = (  -0.5000000   0.0000000   0.0000000), wk =   0.1250000
        k(    8) = (  -0.5000000   0.2416596   0.0000000), wk =   0.2500000
        k(    9) = (  -0.5000000  -0.4833191   0.0000000), wk =   0.1250000
        k(   10) = (  -0.2500000   0.2416596   0.0000000), wk =   0.2500000

     Largest allocated arrays     est. size (Mb)     dimensions
     Largest temporary arrays     est. size (Mb)     dimensions

     Check: negative/imaginary core charge=   -0.000003    0.000000

     Initial potential from superposition of free atoms
     Check: negative starting charge=   -0.645358

     starting charge  233.99915, renormalised to  238.00000

     negative rho (up, down):  0.656E+00 0.000E+00
     Number of +U iterations with fixed ns =  0
     Starting occupations:
 --- enter write_ns ---
 LDA+U parameters:
U( 2)     =  0.50000000
alpha( 2) =  0.00000000
atom    3   Tr[ns(na)] =   7.00000
    eigenvalues:
  0.700  0.700  0.700  0.700  0.700
    eigenvectors:
  1.000  0.000  0.000  0.000  0.000
  0.000  1.000  0.000  0.000  0.000
  0.000  0.000  1.000  0.000  0.000
  0.000  0.000  0.000  1.000  0.000
  0.000  0.000  0.000  0.000  1.000
    occupations:
  0.700  0.000  0.000  0.000  0.000
  0.000  0.700  0.000  0.000  0.000
  0.000  0.000  0.700  0.000  0.000
  0.000  0.000  0.000  0.700  0.000
  0.000  0.000  0.000  0.000  0.700
atom    4   Tr[ns(na)] =   7.00000
    eigenvalues:
  0.700  0.700  0.700  0.700  0.700
    eigenvectors:
  1.000  0.000  0.000  0.000  0.000
  0.000  1.000  0.000  0.000  0.000
  0.000  0.000  1.000  0.000  0.000
  0.000  0.000  0.000  1.000  0.000
  0.000  0.000  0.000  0.000  1.000
    occupations:
  0.700  0.000  0.000  0.000  0.000
  0.000  0.700  0.000  0.000  0.000
  0.000  0.000  0.700  0.000  0.000
  0.000  0.000  0.000  0.700  0.000
  0.000  0.000  0.000  0.000  0.700
atom    9   Tr[ns(na)] =   7.00000
    eigenvalues:
  0.700  0.700  0.700  0.700  0.700
    eigenvectors:
  1.000  0.000  0.000  0.000  0.000
  0.000  1.000  0.000  0.000  0.000
  0.000  0.000  1.000  0.000  0.000
  0.000  0.000  0.000  1.000  0.000
  0.000  0.000  0.000  0.000  1.000
    occupations:
  0.700  0.000  0.000  0.000  0.000
  0.000  0.700  0.000  0.000  0.000
  0.000  0.000  0.700  0.000  0.000
  0.000  0.000  0.000  0.700  0.000
  0.000  0.000  0.000  0.000  0.700
atom   10   Tr[ns(na)] =   7.00000
    eigenvalues:
  0.700  0.700  0.700  0.700  0.700
    eigenvectors:
  1.000  0.000  0.000  0.000  0.000
  0.000  1.000  0.000  0.000  0.000
  0.000  0.000  1.000  0.000  0.000
  0.000  0.000  0.000  1.000  0.000
  0.000  0.000  0.000  0.000  1.000
    occupations:
  0.700  0.000  0.000  0.000  0.000
  0.000  0.700  0.000  0.000  0.000
  0.000  0.000  0.700  0.000  0.000
  0.000  0.000  0.000  0.700  0.000
  0.000  0.000  0.000  0.000  0.700
atom   16   Tr[ns(na)] =   7.00000
    eigenvalues:
  0.700  0.700  0.700  0.700  0.700
    eigenvectors:
  1.000  0.000  0.000  0.000  0.000
  0.000  1.000  0.000  0.000  0.000
  0.000  0.000  1.000  0.000  0.000
  0.000  0.000  0.000  1.000  0.000
  0.000  0.000  0.000  0.000  1.000
    occupations:
  0.700  0.000  0.000  0.000  0.000
  0.000  0.700  0.000  0.000  0.000
  0.000  0.000  0.700  0.000  0.000
  0.000  0.000  0.000  0.700  0.000
  0.000  0.000  0.000  0.000  0.700
atom   17   Tr[ns(na)] =   7.00000
    eigenvalues:
  0.700  0.700  0.700  0.700  0.700
    eigenvectors:
  1.000  0.000  0.000  0.000  0.000
  0.000  1.000  0.000  0.000  0.000
  0.000  0.000  1.000  0.000  0.000
  0.000  0.000  0.000  1.000  0.000
  0.000  0.000  0.000  0.000  1.000
    occupations:
  0.700  0.000  0.000  0.000  0.000
  0.000  0.700  0.000  0.000  0.000
  0.000  0.000  0.700  0.000  0.000
  0.000  0.000  0.000  0.700  0.000
  0.000  0.000  0.000  0.000  0.700
atom   22   Tr[ns(na)] =   7.00000
    eigenvalues:
  0.700  0.700  0.700  0.700  0.700
    eigenvectors:
  1.000  0.000  0.000  0.000  0.000
  0.000  1.000  0.000  0.000  0.000
  0.000  0.000  1.000  0.000  0.000
  0.000  0.000  0.000  1.000  0.000
  0.000  0.000  0.000  0.000  1.000
    occupations:
  0.700  0.000  0.000  0.000  0.000
[...]
  1.000  0.000  0.000  0.000  0.000
    occupations:
  0.653 -0.004 -0.001  0.026  0.001
 -0.004  0.899  0.010  0.001 -0.000
 -0.001  0.010  0.855 -0.001  0.001
  0.026  0.001 -0.001  0.968  0.000
  0.001 -0.000  0.001  0.000  0.604
atom    9   Tr[ns(na)] =   7.95257
    eigenvalues:
  0.639  0.650  0.841  0.876  0.970
    eigenvectors:
  0.002  0.149  0.000  0.000  0.848
  0.988  0.012  0.000  0.000  0.000
  0.000  0.000  0.934  0.066  0.000
  0.010  0.838  0.000  0.000  0.152
  0.000  0.000  0.066  0.934  0.000
    occupations:
  0.921  0.001 -0.000 -0.115 -0.000
  0.001  0.639  0.000  0.001 -0.000
 -0.000  0.000  0.843  0.000 -0.009
 -0.115  0.001  0.000  0.699  0.001
 -0.000 -0.000 -0.009  0.001  0.874
atom   10   Tr[ns(na)] =   7.96089
    eigenvalues:
  0.597  0.608  0.894  0.912  0.970
    eigenvectors:
  0.000  0.990  0.000  0.000  0.010
  0.000  0.000  0.000  1.000  0.000
  0.000  0.000  1.000  0.000  0.000
  0.000  0.010  0.000  0.000  0.990
  1.000  0.000  0.000  0.000  0.000
    occupations:
  0.612  0.000  0.001  0.036 -0.000
  0.000  0.912 -0.000  0.000 -0.000
  0.001 -0.000  0.894  0.000  0.000
  0.036  0.000  0.000  0.966 -0.000
 -0.000 -0.000  0.000 -0.000  0.597
atom   16   Tr[ns(na)] =   7.97454
    eigenvalues:
  0.592  0.614  0.874  0.942  0.965
    eigenvectors:
  0.012  0.191  0.002  0.000  0.794
  0.952  0.047  0.000  0.000  0.000
  0.000  0.000  0.981  0.017  0.002
  0.035  0.762  0.000  0.000  0.202
  0.000  0.000  0.017  0.982  0.001
    occupations:
  0.894  0.007  0.003 -0.142  0.001
  0.007  0.593  0.001  0.002 -0.006
  0.003  0.001  0.876 -0.004 -0.009
 -0.142  0.002 -0.004  0.684  0.000
  0.001 -0.006 -0.009  0.000  0.941
atom   17   Tr[ns(na)] =   7.96445
    eigenvalues:
  0.605  0.651  0.854  0.900  0.971
    eigenvectors:
  0.000  0.992  0.000  0.000  0.007
  0.000  0.000  0.055  0.944  0.000
  0.000  0.000  0.945  0.055  0.000
  0.000  0.007  0.000  0.000  0.993
  0.999  0.000  0.000  0.000  0.000
    occupations:
  0.654 -0.004 -0.001  0.026  0.001
 -0.004  0.897  0.010  0.001 -0.000
 -0.001  0.010  0.857 -0.000  0.001
  0.026  0.001 -0.000  0.969  0.000
  0.001 -0.000  0.001  0.000  0.605
atom   22   Tr[ns(na)] =   7.95100
    eigenvalues:
  0.639  0.650  0.841  0.876  0.970
    eigenvectors:
  0.000  0.152  0.000  0.000  0.848
  0.999  0.001  0.000  0.000  0.000
  0.000  0.000  0.940  0.060  0.000
  0.001  0.847  0.000  0.000  0.152
  0.000  0.000  0.060  0.940  0.000
    occupations:
  0.921 -0.000  0.000 -0.115 -0.000
 -0.000  0.639  0.000 -0.000 -0.000
  0.000  0.000  0.843 -0.000  0.008
 -0.115 -0.000 -0.000  0.699  0.000
 -0.000 -0.000  0.008  0.000  0.874
atom   23   Tr[ns(na)] =   7.93369
    eigenvalues:
  0.635  0.696  0.811  0.849  0.976
    eigenvectors:
  0.000  0.994  0.000  0.000  0.006
  0.000  0.000  0.000  1.000  0.000
  0.000  0.000  1.000  0.000  0.000
  0.000  0.006  0.000  0.000  0.994
  1.000  0.000  0.000  0.000  0.000
    occupations:
  0.697  0.000 -0.000  0.022 -0.000
  0.000  0.849 -0.000  0.000 -0.000
 -0.000 -0.000  0.811  0.000  0.000
  0.022  0.000  0.000  0.974  0.000
 -0.000 -0.000  0.000  0.000  0.635
N of occupied +U levels =  63.6663349
 --- exit write_ns ---

     Threshold (ethr) on eigenvalues was too large:
     Diagonalizing with lowered threshold

     Davidson diagonalization with overlap
     ethr =  7.78E-08,  avg # of iterations =  1.0

[...]

     total energy              =   -1980.10513684 Ry
     Harris-Foulkes estimate   =   -1980.10513685 Ry
     estimated scf accuracy    <       0.00000004 Ry

     iteration # 17     ecut=    40.00 Ry     beta=0.70
     Davidson diagonalization with overlap
     ethr =  4.29E-12,  avg # of iterations =  1.0

     negative rho (up, down):  0.695E+00 0.000E+00

     End of self-consistent calculation
 --- enter write_ns ---
 LDA+U parameters:
U( 2)     =  0.50000000
alpha( 2) =  0.00000000
atom    3   Tr[ns(na)] =   7.97341
    eigenvalues:
  0.591  0.614  0.874  0.942  0.965
    eigenvectors:
  0.013  0.190  0.002  0.000  0.794
  0.949  0.050  0.000  0.000  0.000
  0.000  0.000  0.975  0.023  0.002
  0.037  0.760  0.000  0.000  0.203
  0.000  0.000  0.022  0.976  0.001
    occupations:
  0.893 -0.007  0.003 -0.142 -0.002
 -0.007  0.593 -0.001 -0.002 -0.006
  0.003 -0.001  0.876 -0.004  0.010
 -0.142 -0.002 -0.004  0.684 -0.000
 -0.002 -0.006  0.010 -0.000  0.940
atom    4   Tr[ns(na)] =   7.96100
    eigenvalues:
  0.604  0.650  0.853  0.902  0.971
    eigenvectors:
  0.000  0.992  0.000  0.000  0.007
  0.000  0.000  0.044  0.956  0.000
  0.000  0.000  0.956  0.044  0.000
  0.000  0.007  0.000  0.000  0.993
  1.000  0.000  0.000  0.000  0.000
    occupations:
  0.653 -0.004 -0.001  0.026  0.001
 -0.004  0.900  0.010  0.001 -0.000
 -0.001  0.010  0.855 -0.001  0.001
  0.026  0.001 -0.001  0.968  0.000
  0.001 -0.000  0.001  0.000  0.604
atom    9   Tr[ns(na)] =   7.95029
    eigenvalues:
  0.639  0.650  0.841  0.876  0.970
    eigenvectors:
  0.002  0.150  0.000  0.000  0.848
  0.988  0.012  0.000  0.000  0.000
  0.000  0.000  0.935  0.065  0.000
  0.010  0.838  0.000  0.000  0.152
  0.000  0.000  0.065  0.935  0.000
    occupations:
  0.921  0.001 -0.000 -0.115 -0.000
  0.001  0.639  0.000  0.001 -0.000
 -0.000  0.000  0.843  0.000 -0.009
 -0.115  0.001  0.000  0.698  0.001
 -0.000 -0.000 -0.009  0.001  0.874
atom   10   Tr[ns(na)] =   7.96077
    eigenvalues:
  0.597  0.608  0.893  0.912  0.970
    eigenvectors:
  0.000  0.990  0.000  0.000  0.010
  0.000  0.000  0.000  1.000  0.000
  0.000  0.000  1.000  0.000  0.000
  0.000  0.010  0.000  0.000  0.990
  1.000  0.000  0.000  0.000  0.000
    occupations:
  0.612  0.000  0.001  0.036 -0.000
  0.000  0.912 -0.000  0.000 -0.000
  0.001 -0.000  0.893  0.000  0.000
  0.036  0.000  0.000  0.966 -0.000
 -0.000 -0.000  0.000 -0.000  0.597
atom   16   Tr[ns(na)] =   7.97334
    eigenvalues:
  0.592  0.614  0.874  0.942  0.965
    eigenvectors:
  0.012  0.191  0.002  0.000  0.794
  0.952  0.047  0.000  0.000  0.000
  0.000  0.000  0.981  0.017  0.002
  0.035  0.762  0.000  0.000  0.203
  0.000  0.000  0.017  0.982  0.001
    occupations:
  0.894  0.007  0.003 -0.142  0.001
  0.007  0.593  0.001  0.002 -0.006
  0.003  0.001  0.875 -0.004 -0.009
 -0.142  0.002 -0.004  0.684  0.000
  0.001 -0.006 -0.009  0.000  0.941
atom   17   Tr[ns(na)] =   7.95825
    eigenvalues:
  0.605  0.651  0.853  0.899  0.971
    eigenvectors:
  0.000  0.992  0.000  0.000  0.007
  0.000  0.000  0.054  0.946  0.000
  0.000  0.000  0.946  0.054  0.000
  0.000  0.007  0.000  0.000  0.993
  1.000  0.000  0.000  0.000  0.000
    occupations:
  0.653 -0.004 -0.001  0.026  0.001
 -0.004  0.896  0.010  0.001 -0.000
 -0.001  0.010  0.855 -0.000  0.001
  0.026  0.001 -0.000  0.969  0.000
  0.001 -0.000  0.001  0.000  0.605
atom   22   Tr[ns(na)] =   7.95025
    eigenvalues:
  0.639  0.650  0.841  0.876  0.970
    eigenvectors:
  0.000  0.152  0.000  0.000  0.848
  0.999  0.001  0.000  0.000  0.000
  0.000  0.000  0.940  0.060  0.000
  0.001  0.847  0.000  0.000  0.152
  0.000  0.000  0.060  0.940  0.000
    occupations:
  0.921 -0.000  0.000 -0.115 -0.000
 -0.000  0.639  0.000 -0.000 -0.000
  0.000  0.000  0.843 -0.000  0.008
 -0.115 -0.000 -0.000  0.698  0.000
 -0.000 -0.000  0.008  0.000  0.874
atom   23   Tr[ns(na)] =   7.93541
    eigenvalues:
  0.635  0.696  0.812  0.849  0.976
    eigenvectors:
  0.000  0.994  0.000  0.000  0.006
  0.000  0.000  0.000  1.000  0.000
  0.000  0.000  1.000  0.000  0.000
  0.000  0.006  0.000  0.000  0.994
  1.000  0.000  0.000  0.000  0.000
    occupations:
  0.697  0.000 -0.000  0.022 -0.000
  0.000  0.849 -0.000  0.000 -0.000
 -0.000 -0.000  0.812  0.000  0.000
  0.022  0.000  0.000  0.974  0.000
 -0.000 -0.000  0.000  0.000  0.635
N of occupied +U levels =  63.6627341
 --- exit write_ns ---

[...]

          k = 0.2500-0.4833 0.0000 ( 30510 PWs)   bands (ev):

[...]

          k =-0.2500 0.2417 0.0000 ( 30481 PWs)   bands (ev):

   -50.6356 -50.3091 -50.2030 -49.6341 -49.6288 -49.5917 -49.5711 -49.5439
   -49.5098 -49.5083 -49.5040 -49.4772 -49.4285 -49.4190 -49.4041 -49.3156
   -49.3113 -49.2586 -49.2150 -49.2086 -49.1970 -49.1923 -49.1819 -49.1794
   -21.6586 -21.3606 -21.1967 -21.0551 -20.9075 -20.6596 -20.5937 -20.4842
   -20.4001 -20.3552 -20.2192 -20.2112 -20.1519 -20.0629 -20.0453 -19.9580
   -19.2715 -19.1940 -19.0945  -9.7885  -9.6734  -9.5443  -9.3481  -9.0188
    -8.9384  -8.9109  -8.8566  -8.8359  -8.8077  -8.6524  -8.6226  -8.4717
    -8.3163  -8.2151  -8.1209  -8.0348  -7.9701  -7.7153  -7.6391  -7.5170
    -7.4216  -7.3045  -7.1090  -7.0085  -6.8359  -6.6792  -6.5880  -6.5134
    -6.4576  -6.3866  -6.3012  -6.2551  -6.1954  -6.1419  -6.0837  -5.9431
    -5.8256  -5.7754  -5.6809  -5.4676  -5.4514  -5.2818  -5.1716  -5.1043
    -5.0503  -4.8458  -4.7785  -4.6951  -4.6270  -4.5589  -4.4464  -4.2425
    -4.0396  -3.9007  -3.8010  -3.7434  -3.6230  -3.5260  -3.4690  -3.4243
    -3.3573  -3.2762  -3.2042  -3.1649  -3.1314  -3.0588  -3.0335  -2.9087
    -2.8378  -2.5352  -2.4232  -2.3422  -2.1745  -2.0720  -1.9408  -1.8709
    -1.8154  -1.6935  -1.6334  -1.5195  -1.1427  -0.7834  -0.6210  -0.1826
     0.0950   0.2574   0.5194   0.6955   0.9759   1.1266   1.1743   1.2990
     1.3912   1.6001   1.6242   1.9847   3.4757   4.4531   4.6185   5.0843
     5.2858   5.3463   5.4925   6.0820   6.3585   6.4103   6.4677   6.5776
     6.7125   6.8289   6.9715   7.1736   7.3113   7.4683   7.5735   7.7180
     7.8274   7.9654   8.0530   8.1359   8.2598   8.3554   8.4298   8.5336
     8.7586   8.7813   8.8784   8.9935   9.2158   9.3639   9.4524   9.5343
     9.6157   9.7201   9.7752   9.8137   9.9156  10.1047  10.1827  10.2184
    10.3267  10.4230  10.4780  10.5906  10.6964  10.7486  10.8310  10.8952
    10.9558  11.0673  11.0983  11.1613  11.3146  11.4298  11.5032  11.5470
    11.5923  11.6958  11.7318  11.7670  11.8701  11.9937  12.0373  12.1501
    12.2087  12.2302  12.3655  12.4259  12.5049  12.6305  12.6857  12.7595
    12.7943  12.8386  12.9276  12.9736  13.0481  13.0812  13.1380  13.2150
    13.2737  13.3885  13.4728  13.5359  13.6738  13.7295  13.7919  13.8264
    13.9135  14.0496  14.1152  14.1697  14.2162  14.3404  14.3844  14.4807
    14.5613  14.5712  14.7034  14.8036  14.9659  15.0949  15.2234  15.2757
    15.3522  15.4202  15.4963  15.5180  15.5568  15.6176  15.7197  15.7544
    15.8714  15.9412  16.0109  16.0357  16.0892  16.1311  16.2274  16.2914
    16.3618  16.4182  16.4555  16.4787  16.5337  16.6068  16.6604  16.7225
    16.7977  16.8747  17.0004  17.0436  17.1207  17.2126  17.2704  17.3354
    17.3783  17.4773  17.5519  17.5954  17.6294  17.7566  17.8311  17.8499
    17.9017  18.0189  18.1011  18.1401  18.1686  18.2909  18.3128  18.3746
    18.4667  18.5725  18.6554  18.7090  18.7384  18.8311  18.8903  18.9793
    19.0018  19.0492  19.0705  19.1741  19.2126  19.2602  19.3295  19.4601
    19.5182  19.5788  19.6232  19.7058  19.7658  19.8742  20.0105  20.0585
    20.1767  20.2140  20.2620  20.3187  20.4817  20.5435  20.6236  20.6739
    20.6914  20.7693  20.8259  20.8800  20.9242  21.0026  21.0904  21.1950
    21.2475  21.2900  21.3470  21.3760  21.4276  21.5182  21.6733  21.7293
    21.7849  21.8552  21.8866  21.9249  21.9430  22.0049  22.0693  22.1665
    22.1999  22.2955  22.4006  22.4615  22.4953

     the Fermi energy is    -1.9642 ev

!    total energy              =   -1980.10513684 Ry
     Harris-Foulkes estimate   =   -1980.10513685 Ry
     estimated scf accuracy    <          7.6E-09 Ry

     The total energy is the sum of the following terms:

     one-electron contribution =  -23251.37364049 Ry
     hartree contribution      =   11670.69024785 Ry
     xc contribution           =    -371.91902825 Ry
     ewald contribution        =    9972.28915781 Ry
     Hubbard energy            =       0.20818735 Ry
     smearing contrib. (-TS)   =      -0.00006111 Ry

     convergence has been achieved in  17 iterations

     Forces acting on atoms (Ry/au):

     negative rho (up, down):  0.695E+00 0.000E+00
     atom    1 type  1   force =    -0.00714109   -0.01351061    0.00015750
     atom    2 type  1   force =     0.00010468    0.00476634   -0.00017997
     atom    3 type  2   force =     0.04067602    0.00622165    0.00037439
     atom    4 type  2   force =     0.00871274    0.00959657    0.00007240
     atom    5 type  1   force =    -0.00155674   -0.03076811    0.00012053
     atom    6 type  1   force =     0.00143438    0.02755376    0.00009377
     atom    7 type  1   force =    -0.00020148   -0.00117191   -0.00036645
     atom    8 type  1   force =    -0.00298417   -0.00105494   -0.00027245
     atom    9 type  2   force =     0.00382601    0.00027955    0.00001216
     atom   10 type  2   force =    -0.00000589   -0.00131641    0.00017687
     atom   11 type  1   force =    -0.00426349    0.00783772    0.00004211
     atom   12 type  1   force =    -0.00480536   -0.00839355    0.00002140
     atom   13 type  1   force =    -0.00088944    0.00018307   -0.00024452
     atom   14 type  1   force =    -0.00672400   -0.01352874   -0.00006397
     atom   15 type  1   force =     0.00015166    0.00533471    0.00038699
     atom   16 type  2   force =    -0.04125371    0.00532871    0.00037435
     atom   17 type  2   force =     0.00856604    0.00984355    0.00011525
     atom   18 type  1   force =    -0.00028278   -0.03063492    0.00012719
     atom   19 type  1   force =     0.00239241    0.02779641    0.00008324
     atom   20 type  1   force =    -0.00012399   -0.00442215    0.00020543
     atom   21 type  1   force =    -0.00298018   -0.00069175   -0.00016191
     atom   22 type  2   force =    -0.00103814    0.00047580    0.00002828
     atom   23 type  2   force =    -0.00013537    0.00068905   -0.00049321
     atom   24 type  1   force =     0.00406693    0.00788341    0.00003733
     atom   25 type  1   force =     0.00545520   -0.00850967    0.00002207
     atom   26 type  1   force =    -0.00082975   -0.00005888   -0.00012459
     atom   27 type  3   force =     0.00000018    0.00024923    0.00004994
     atom   28 type  3   force =    -0.00000459   -0.00007296    0.00019658
     atom   29 type  3   force =    -0.00008097    0.00007469   -0.00010811
     atom   30 type  3   force =    -0.00008045    0.00005624   -0.00010446
     atom   31 type  1   force =    -0.00000465   -0.00003588   -0.00057813

     Total force =     0.001295     Total SCF correction =     0.000137
     SCF correction compared to forces is large: reduce conv_thr to get better values

     bfgs converged in   3 scf cycles and   2 bfgs steps
     (criteria: energy < 0.10E-03, force < 0.10E-02)

     End of BFGS Geometry Optimization

     Final energy   =   -1980.1051368393 Ry
Begin final coordinates

ATOMIC_POSITIONS (crystal)
O0       0.000000000   0.000000000   0.378006069    0   0   1
O0       0.000000000   0.500000000   0.402144160    0   0   1
Rh1      0.250000000   0.500000000   0.453223141    0   0   1
Rh1      0.000000000   0.000000000   0.452427723    0   0   1
O0       0.250000000   0.810000000   0.452259988    0   0   1
O0       0.250000000   0.190000000   0.452138393    0   0   1
O0       0.000000000   0.500000000   0.498906179    0   0   1
O0       0.000000000   0.000000000   0.527810636    0   0   1
Rh1      0.250000000   0.000000000   0.575030470    0   0   1
Rh1      0.000000000   0.500000000   0.570623833    0   0   1
O0       0.250000000   0.690000000   0.574905856    0   0   1
O0       0.250000000   0.310000000   0.574884813    0   0   1
O0       0.000000000   0.000000000   0.620175696    0   0   1
O0       0.500000000   0.000000000   0.378006823    0   0   1
O0       0.500000000   0.500000000   0.401896958    0   0   1
Rh1      0.750000000   0.500000000   0.453226053    0   0   1
Rh1      0.500000000   0.000000000   0.452396991    0   0   1
O0       0.750000000   0.810000000   0.452240057    0   0   1
O0       0.750000000   0.190000000   0.452157455    0   0   1
O0       0.500000000   0.500000000   0.500858503    0   0   1
O0       0.500000000   0.000000000   0.527632350    0   0   1
Rh1      0.750000000   0.000000000   0.575023864    0   0   1
Rh1      0.500000000   0.500000000   0.580015324    0   0   1
O0       0.750000000   0.690000000   0.574875214    0   0   1
O0       0.750000000   0.310000000   0.574884475    0   0   1
O0       0.500000000   0.000000000   0.620115619    0   0   1
H2      -0.000070041   0.637027399   0.384819113
H2       0.499928502   0.638431672   0.385157516
H2       0.148049326   0.034310956   0.367214681
H2       0.648076879   0.034257482   0.367195118
O0       0.500078195   0.498822290   0.646566929
End final coordinates

     General routines

     Parallel routines
     Hubbard U routines

   This run was terminated on:   7:39:27  30Apr2014

   JOB DONE.