     Program PWSCF v.5.0.2 (svn rev. 9656) starts on 10May2014 at  1: 2:31

     Current dimensions of program PWSCF are:
     Max number of different atomic species (ntypx) = 10
     Max number of k-points (npk) =  40000
     Max angular momentum in pseudopotentials (lmaxx) =  3
     Reading input from pwscf.in
Warning: card &CELL ignored
Warning: card / ignored

     Subspace diagonalization in iterative solution of the eigenvalue problem:
     a serial algorithm will be used

     bravais-lattice index     =            0
     lattice parameter (alat)  =      12.0187  a.u.
     unit-cell volume          =    7280.5819 (a.u.)^3
     number of atoms/cell      =           31
     number of atomic types    =            3
     number of electrons       =       238.00
     number of Kohn-Sham states=          357
     kinetic-energy cutoff     =      40.0000  Ry
     charge density cutoff     =     500.0000  Ry
     convergence threshold     =      1.0E-06
     mixing beta               =       0.7000
     number of iterations used =            8  plain     mixing
     Exchange-correlation      = SLA  PW   PBE  PBE ( 1 4 3 4 0)
     EXX-fraction              =        0.00
     nstep                     =           50

     celldm(1)=  12.018658  celldm(2)=   0.000000  celldm(3)=   0.000000
     celldm(4)=   0.000000  celldm(5)=   0.000000  celldm(6)=   0.000000

     crystal axes: (cart. coord. in units of alat)
               a(1) = (   1.000000   0.000000   0.000000 )
               a(2) = (   0.000000   1.009517   0.000000 )
               a(3) = (   0.000000   0.000000   4.154171 )

     reciprocal axes: (cart. coord. in units 2 pi/alat)
               b(1) = (  1.000000  0.000000  0.000000 )
               b(2) = (  0.000000  0.990572  0.000000 )
               b(3) = (  0.000000  0.000000  0.240722 )

     PseudoPot. # 1 for O  read from file:
     /home/camp/zhonxu/pseudo/o_pbe_v1.01.uspp.F.UPF
     MD5 check sum: 2bcb18d16ea4b960afae9ec6d52f22d2
     Pseudo is Ultrasoft + core correction, Zval =  6.0
     Generated by new atomic code, or converted to UPF format
     Using radial grid of  737 points,  5 beta functions with:
                l(1) =   0
                l(2) =   0
                l(3) =   1
                l(4) =   1
                l(5) =   2
     Q(r) pseudized with  8 coefficients,  rinner =    0.900   0.900   0.900
                                                       0.900   0.900

     PseudoPot. # 2 for Ir read from file:
     /home/camp/zhonxu/pseudo/ir_pbe_v1.uspp.F.UPF
     MD5 check sum: abf987a9674477536ede83817f8f8b70
     Pseudo is Ultrasoft + core correction, Zval = 15.0
     Generated by new atomic code, or converted to UPF format
     Using radial grid of  983 points,  7 beta functions with:
                l(1) =   0
                l(2) =   0
                l(3) =   1
                l(4) =   1
                l(5) =   1
                l(6) =   2
                l(7) =   2
     Q(r) pseudized with  8 coefficients,  rinner =    1.350   1.350   1.350
                                                       1.350   1.350

     PseudoPot. # 3 for H  read from file:
     /home/camp/zhonxu/pseudo/h_pbe_v1.uspp.F.UPF
     MD5 check sum: 3408e3ff4ec8b0a4e358431e7e038a48
     Pseudo is Ultrasoft, Zval =  1.0
     Generated by new atomic code, or converted to UPF format
     Using radial grid of  615 points,  2 beta functions with:
                l(1) =   0
                l(2) =   0
     Q(r) pseudized with  8 coefficients,  rinner =    0.700

     atomic species   valence    mass     pseudopotential
        O0             6.00    15.99940     O ( 1.00)
        Ir1           15.00   192.22000     Ir( 1.00)
        H2             1.00     1.00794     H ( 1.00)

     Simplified LDA+U calculation (l_max = 2) with parameters (eV):
     atomic species    L          U    alpha       J0     beta
        Ir1            2     0.0000   0.0000   0.0000   0.0000

     No symmetry found

   Cartesian axes

     site n.     atom                  positions (alat units)
         1           O0  tau(   1) = (   0.0000000   0.0000000   1.5706091  )
         2           O0  tau(   2) = (   0.0000000   0.5047586   1.6747957  )
         3           Ir1 tau(   3) = (   0.2500000   0.5047586   1.8830443  )
         4           Ir1 tau(   4) = (   0.0000000   0.0000000   1.8812580  )
         5           O0  tau(   5) = (   0.2500000   0.8177090   1.8812996  )
         6           O0  tau(   6) = (   0.2500000   0.1918083   1.8799287  )
         7           O0  tau(   7) = (   0.0000000   0.5047586   2.0722253  )
         8           O0  tau(   8) = (   0.0000000   0.0000000   2.1948149  )
         9           Ir1 tau(   9) = (   0.2500000   0.0000000   2.3898532  )
        10           Ir1 tau(  10) = (   0.0000000   0.5047586   2.3761029  )
        11           O0  tau(  11) = (   0.2500000   0.6965669   2.3876930  )
        12           O0  tau(  12) = (   0.2500000   0.3129503   2.3878177  )
        13           O0  tau(  13) = (   0.0000000   0.0000000   2.5742569  )
        14           O0  tau(  14) = (   0.5000000   0.0000000   1.5702768  )
        15           O0  tau(  15) = (   0.5000000   0.5047586   1.6724694  )
        16           Ir1 tau(  16) = (   0.7500000   0.5047586   1.8830859  )
        17           Ir1 tau(  17) = (   0.5000000   0.0000000   1.8811334  )
        18           O0  tau(  18) = (   0.7500000   0.8177090   1.8813411  )
        19           O0  tau(  19) = (   0.7500000   0.1918083   1.8799702  )
        20           O0  tau(  20) = (   0.5000000   0.5047586   2.0802013  )
        21           O0  tau(  21) = (   0.5000000   0.0000000   2.1944825  )
        22           Ir1 tau(  22) = (   0.7500000   0.0000000   2.3898532  )
        23           Ir1 tau(  23) = (   0.5000000   0.5047586   2.4038943  )
        24           O0  tau(  24) = (   0.7500000   0.6965669   2.3876515  )
        25           O0  tau(  25) = (   0.7500000   0.3129503   2.3878177  )
        26           O0  tau(  26) = (   0.5000000   0.0000000   2.5734260  )
        27           H2  tau(  27) = (  -0.0000700   0.6394282   1.5957418  )
        28           H2  tau(  28) = (   0.4999700   0.6419823   1.5977358  )
        29           H2  tau(  29) = (   0.1436200   0.0342933   1.5227115  )
        30           H2  tau(  30) = (   0.6432900   0.0353230   1.5222545  )
        31           O0  tau(  31) = (   0.5000100   0.5042640   2.6822238  )

     number of k points=    10  Methfessel-Paxton smearing, width (Ry)=  0.0100
                       cart. coord. in units 2pi/alat
        k(    1) = (   0.0000000   0.0000000   0.0000000), wk =   0.1250000
        k(    2) = (   0.0000000   0.2476431   0.0000000), wk =   0.2500000
        k(    3) = (   0.0000000  -0.4952862   0.0000000), wk =   0.1250000
        k(    4) = (   0.2500000   0.0000000   0.0000000), wk =   0.2500000
        k(    5) = (   0.2500000   0.2476431   0.0000000), wk =   0.2500000
        k(    6) = (   0.2500000  -0.4952862   0.0000000), wk =   0.2500000
        k(    7) = (  -0.5000000   0.0000000   0.0000000), wk =   0.1250000
        k(    8) = (  -0.5000000   0.2476431   0.0000000), wk =   0.2500000
        k(    9) = (  -0.5000000  -0.4952862   0.0000000), wk =   0.1250000
        k(   10) = (  -0.2500000   0.2476431   0.0000000), wk =   0.2500000

     Largest allocated arrays     est. size (Mb)     dimensions
     Largest temporary arrays     est. size (Mb)     dimensions

     Check: negative/imaginary core charge=   -0.000003    0.000000

     Initial potential from superposition of free atoms
     Check: negative starting charge=   -3.336659

     starting charge  233.99968, renormalised to  238.00000

     negative rho (up, down):  0.339E+01 0.000E+00
     Number of +U iterations with fixed ns =  0
     Starting occupations:
 --- enter write_ns ---
 LDA+U parameters:
U( 2)     =  0.00000000
alpha( 2) =  0.00000000
atom    3   Tr[ns(na)] =   7.00000
    eigenvalues:
  0.700  0.700  0.700  0.700  0.700
    eigenvectors:
  1.000  0.000  0.000  0.000  0.000
  0.000  1.000  0.000  0.000  0.000
  0.000  0.000  1.000  0.000  0.000
  0.000  0.000  0.000  1.000  0.000
  0.000  0.000  0.000  0.000  1.000
    occupations:
  0.700  0.000  0.000  0.000  0.000
  0.000  0.700  0.000  0.000  0.000
  0.000  0.000  0.700  0.000  0.000
  0.000  0.000  0.000  0.700  0.000
  0.000  0.000  0.000  0.000  0.700
atom    4   Tr[ns(na)] =   7.00000
    eigenvalues:
  0.700  0.700  0.700  0.700  0.700
    eigenvectors:
  1.000  0.000  0.000  0.000  0.000
  0.000  1.000  0.000  0.000  0.000
  0.000  0.000  1.000  0.000  0.000
  0.000  0.000  0.000  1.000  0.000
  0.000  0.000  0.000  0.000  1.000
    occupations:
  0.700  0.000  0.000  0.000  0.000
  0.000  0.700  0.000  0.000  0.000
  0.000  0.000  0.700  0.000  0.000
  0.000  0.000  0.000  0.700  0.000
  0.000  0.000  0.000  0.000  0.700
atom    9   Tr[ns(na)] =   7.00000
    eigenvalues:
  0.700  0.700  0.700  0.700  0.700
    eigenvectors:
  1.000  0.000  0.000  0.000  0.000
  0.000  1.000  0.000  0.000  0.000
  0.000  0.000  1.000  0.000  0.000
  0.000  0.000  0.000  1.000  0.000
  0.000  0.000  0.000  0.000  1.000
    occupations:
  0.700  0.000  0.000  0.000  0.000
  0.000  0.700  0.000  0.000  0.000
  0.000  0.000  0.700  0.000  0.000
  0.000  0.000  0.000  0.700  0.000
  0.000  0.000  0.000  0.000  0.700
atom   10   Tr[ns(na)] =   7.00000
    eigenvalues:
  0.700  0.700  0.700  0.700  0.700
    eigenvectors:
  1.000  0.000  0.000  0.000  0.000
  0.000  1.000  0.000  0.000  0.000
  0.000  0.000  1.000  0.000  0.000
  0.000  0.000  0.000  1.000  0.000
  0.000  0.000  0.000  0.000  1.000
    occupations:
  0.700  0.000  0.000  0.000  0.000
  0.000  0.700  0.000  0.000  0.000
  0.000  0.000  0.700  0.000  0.000
  0.000  0.000  0.000  0.700  0.000
  0.000  0.000  0.000  0.000  0.700
atom   16   Tr[ns(na)] =   7.00000
    eigenvalues:
  0.700  0.700  0.700  0.700  0.700
    eigenvectors:
  1.000  0.000  0.000  0.000  0.000
  0.000  1.000  0.000  0.000  0.000
  0.000  0.000  1.000  0.000  0.000
  0.000  0.000  0.000  1.000  0.000
  0.000  0.000  0.000  0.000  1.000
    occupations:
  0.700  0.000  0.000  0.000  0.000
  0.000  0.700  0.000  0.000  0.000
  0.000  0.000  0.700  0.000  0.000
  0.000  0.000  0.000  0.700  0.000
  0.000  0.000  0.000  0.000  0.700
atom   17   Tr[ns(na)] =   7.00000
    eigenvalues:
  0.700  0.700  0.700  0.700  0.700
    eigenvectors:
  1.000  0.000  0.000  0.000  0.000
  0.000  1.000  0.000  0.000  0.000
  0.000  0.000  1.000  0.000  0.000
  0.000  0.000  0.000  1.000  0.000
  0.000  0.000  0.000  0.000  1.000
    occupations:
  0.700  0.000  0.000  0.000  0.000
  0.000  0.700  0.000  0.000  0.000
  0.000  0.000  0.700  0.000  0.000
  0.000  0.000  0.000  0.700  0.000
  0.000  0.000  0.000  0.000  0.700
atom   22   Tr[ns(na)] =   7.00000
    eigenvalues:
  0.700  0.700  0.700  0.700  0.700
    eigenvectors:
  1.000  0.000  0.000  0.000  0.000
  0.000  1.000  0.000  0.000  0.000
  0.000  0.000  1.000  0.000  0.000
  0.000  0.000  0.000  1.000  0.000
  0.000  0.000  0.000  0.000  1.000
    occupations:
  0.700  0.000  0.000  0.000  0.000
[...]

     iteration # 29     ecut=    40.00 Ry     beta=0.70
     Davidson diagonalization with overlap
     ethr =  4.63E-10,  avg # of iterations =  1.0

     negative rho (up, down):  0.312E+01 0.000E+00

     End of self-consistent calculation
 --- enter write_ns ---
 LDA+U parameters:
U( 2)     =  0.00000000
alpha( 2) =  0.00000000
atom    3   Tr[ns(na)] =   8.04350
    eigenvalues:
  0.605  0.631  0.869  0.948  0.968
    eigenvectors:
  0.003  0.186  0.003  0.001  0.808
  0.990  0.010  0.000  0.000  0.000
  0.000  0.000  0.983  0.014  0.003
  0.007  0.804  0.000  0.000  0.188
  0.000  0.000  0.014  0.984  0.001
    occupations:
  0.904 -0.005  0.004 -0.132 -0.002
 -0.005  0.606 -0.001 -0.000 -0.005
  0.004 -0.001  0.870 -0.004  0.009
 -0.132 -0.000 -0.004  0.695 -0.000
 -0.002 -0.005  0.009 -0.000  0.947
atom    4   Tr[ns(na)] =   8.01880
    eigenvalues:
  0.618  0.663  0.848  0.903  0.977
    eigenvectors:
  0.000  0.990  0.000  0.000  0.010
  0.000  0.000  0.033  0.967  0.000
  0.000  0.000  0.967  0.033  0.000
  0.000  0.010  0.000  0.000  0.990
  1.000  0.000  0.000  0.000  0.000
    occupations:
  0.666 -0.003 -0.001  0.031  0.001
 -0.003  0.901  0.010  0.000 -0.001
 -0.001  0.010  0.850 -0.000  0.000
  0.031  0.000 -0.000  0.974  0.000
  0.001 -0.001  0.000  0.000  0.618
atom    9   Tr[ns(na)] =   7.99644
    eigenvalues:
  0.650  0.664  0.835  0.877  0.973
    eigenvectors:
  0.000  0.141  0.000  0.000  0.859
  0.999  0.001  0.000  0.000  0.000
  0.000  0.000  0.977  0.023  0.000
  0.001  0.858  0.000  0.000  0.141
  0.000  0.000  0.023  0.977  0.000
    occupations:
  0.929  0.001 -0.000 -0.107 -0.001
  0.001  0.650  0.000  0.000 -0.000
 -0.000  0.000  0.836 -0.000 -0.006
 -0.107  0.000 -0.000  0.708  0.001
 -0.001 -0.000 -0.006  0.001  0.876
atom   10   Tr[ns(na)] =   8.00452
    eigenvalues:
  0.597  0.606  0.909  0.915  0.975
    eigenvectors:
  0.992  0.000  0.000  0.000  0.008
  0.000  0.000  0.001  0.999  0.000
  0.000  0.000  0.999  0.001  0.000
  0.008  0.000  0.000  0.000  0.992
  0.000  1.000  0.000  0.000  0.000
    occupations:
  0.600  0.000  0.001  0.034 -0.000
  0.000  0.915 -0.000  0.000 -0.000
  0.001 -0.000  0.909  0.000  0.000
  0.034  0.000  0.000  0.972 -0.000
 -0.000 -0.000  0.000 -0.000  0.606
atom   16   Tr[ns(na)] =   8.04318
    eigenvalues:
  0.605  0.631  0.869  0.947  0.969
    eigenvectors:
  0.003  0.186  0.003  0.001  0.808
  0.990  0.009  0.000  0.000  0.000
  0.000  0.000  0.986  0.011  0.003
  0.007  0.805  0.000  0.000  0.188
  0.000  0.000  0.011  0.987  0.002
    occupations:
  0.905  0.005  0.004 -0.132  0.001
  0.005  0.606  0.000  0.000 -0.005
  0.004  0.000  0.870 -0.004 -0.008
 -0.132  0.000 -0.004  0.695 -0.000
  0.001 -0.005 -0.008 -0.000  0.947
atom   17   Tr[ns(na)] =   8.01647
    eigenvalues:
  0.618  0.663  0.851  0.899  0.978
    eigenvectors:
  0.000  0.990  0.000  0.000  0.009
  0.000  0.000  0.050  0.950  0.000
  0.000  0.000  0.950  0.050  0.000
  0.000  0.009  0.000  0.000  0.991
  1.000  0.000  0.000  0.000  0.000
    occupations:
  0.666 -0.003 -0.001  0.030  0.001
 -0.003  0.896  0.010  0.000 -0.001
 -0.001  0.010  0.853 -0.000  0.000
  0.030  0.000 -0.000  0.975  0.000
  0.001 -0.001  0.000  0.000  0.618
atom   22   Tr[ns(na)] =   7.99608
    eigenvalues:
  0.650  0.664  0.835  0.876  0.973
    eigenvectors:
  0.000  0.141  0.000  0.000  0.859
  1.000  0.000  0.000  0.000  0.000
  0.000  0.000  0.979  0.021  0.000
  0.000  0.859  0.000  0.000  0.141
  0.000  0.000  0.021  0.979  0.000
    occupations:
  0.929  0.000 -0.000 -0.107 -0.000
  0.000  0.650  0.000  0.000 -0.000
 -0.000  0.000  0.836 -0.000  0.006
 -0.107  0.000 -0.000  0.708  0.000
 -0.000 -0.000  0.006  0.000  0.876
atom   23   Tr[ns(na)] =   7.97507
    eigenvalues:
  0.644  0.708  0.801  0.854  0.981
    eigenvectors:
  0.000  0.991  0.000  0.000  0.009
  0.000  0.000  0.000  1.000  0.000
  0.000  0.000  1.000  0.000  0.000
  0.000  0.009  0.000  0.000  0.991
  1.000  0.000  0.000  0.000  0.000
    occupations:
  0.711  0.000 -0.000  0.026 -0.000
  0.000  0.854 -0.000  0.000 -0.000
 -0.000 -0.000  0.801  0.000  0.000
  0.026  0.000  0.000  0.978  0.000
 -0.000 -0.000  0.000  0.000  0.644
N of occupied +U levels =  64.0940543
 --- exit write_ns ---

          k = 0.0000 0.0000 0.0000 ( 31045 PWs)   bands (ev):

   -52.5008 -52.2069 -52.0863 -51.4941 -51.4877 -51.3931 -51.3583 -51.3443
   -51.3330 -51.2905 -51.2541 -51.1764 -51.1622 -51.1566 -51.1513 -51.1289
   -51.1245 -51.1108 -51.0163 -51.0048 -50.9902 -50.9829 -50.9680 -50.8245
   -21.9444 -21.5734 -21.3475 -21.3335 -20.8031 -20.6683 -20.6036 -20.5814
   -20.4831 -20.4279 -20.3029 -20.2279 -19.9938 -19.9694 -19.9032 -19.7379
   -18.9477 -18.8583 -18.7765 -10.5725 -10.4753 -10.0586  -9.2251  -9.1115
    -9.0357  -8.9842  -8.9482  -8.9117  -8.8830  -8.7900  -8.7063  -8.6674
    -8.4142  -8.3626  -8.2794  -8.2474  -8.1677  -7.9936  -7.8508  -7.5219
    -7.4186  -7.2512  -7.2373  -6.7862  -6.6956  -6.6106  -6.2912  -6.0128
    -5.9460  -5.8996  -5.8888  -5.7253  -5.6766  -5.5743  -5.4845  -5.4511
    -5.3434  -5.2633  -5.2441  -5.1059  -5.0625  -4.8358  -4.8013  -4.7695
    -4.6355  -4.4400  -4.3725  -4.2520  -4.1838  -4.1196  -4.0545  -3.8983
    -3.7395  -3.7252  -3.6114  -3.3856  -3.3741  -3.3657  -3.1431  -3.1340
    -2.8988  -2.8328  -2.7769  -2.6177  -2.5048  -2.4035  -2.2211  -2.0838
    -1.9688  -1.8465  -1.8313  -1.6844  -1.6809  -1.2228  -1.0712  -0.8616
    -0.8210  -0.6495  -0.6089  -0.3391  -0.0785   0.6232   0.9173   1.0410
     1.1564   1.1982   1.3579   1.7912   2.0542   2.3110   2.6489   2.8210
     2.9474   2.9574   3.1026   3.5479   3.7325   4.0442   4.4301   4.9504
     5.1145   5.8486   5.9836   6.0720   6.1319   6.7162   6.8536   7.0751
     7.4291   7.5763   7.6437   7.6727   7.6958   7.7626   7.7691   7.9473
     7.9848   8.0634   8.1266   8.1579   8.2464   8.2532   8.4064   8.4538
     8.4856   8.5706   8.5757   8.5960   8.5965   8.6221   8.6864   8.7000
     8.7421   8.7435   8.7451   8.7837   8.9904   9.0216   9.1447   9.2010
     9.2657   9.2723   9.3740   9.4534   9.5494   9.8271   9.8666   9.8967
    10.0456  10.1962  10.2635  10.3013  10.4489  10.5454  10.6731  10.7099
    10.8794  10.9755  11.0746  11.1320  11.1508  11.1644  11.1907  11.2217
    11.3317  11.5207  11.6195  11.6649  11.7351  11.7760  11.8395  11.9553
    12.0204  12.0647  12.1138  12.1752  12.2001  12.3265  12.3756  12.4121
    12.5088  12.5231  12.5415  12.6325  12.7822  12.8262  12.8680  12.8830
    12.9713  13.1120  13.2160  13.3335  13.4354  13.6566  13.6792  13.7422
    13.7492  13.8940  13.9029  14.0571  14.1385  14.1753  14.3733  14.3805
    14.5022  14.5791  14.6036  14.6315  14.7010  14.8851  14.9460  15.0682
    15.2287  15.3444  15.3726  15.4751  15.5227  15.7038  15.7187  15.7768
    15.8274  15.9643  16.0410  16.0608  16.2190  16.2301  16.3167  16.4573
    16.5551  16.6765  16.7658  16.8609  17.0517  17.1086  17.2227  17.2324
    17.2922  17.3547  17.4006  17.5372  17.6128  17.6171  17.6652  17.8580
    17.9383  17.9631  18.0878  18.2463  18.3296  18.4298  18.5191  18.5337
    18.6182  18.6468  18.7443  18.7811  18.8996  18.9510  19.0273  19.0555
    19.1058  19.1766  19.2121  19.2577  19.2893  19.3994  19.4603  19.4912
    19.6191  19.6701  19.6821  19.7471  19.8019  19.8365  19.8732  19.8776
    19.9144  20.0234  20.0304  20.1135  20.2709  20.3275  20.4502  20.4588
    20.4965  20.5334  20.5977  20.6871  20.7358  20.7765  20.8687  20.9497
    21.0550  21.1032  21.1885  21.2253  21.2779  21.3473  21.3964  21.5436
    21.5654  21.6678  21.6796  21.7480  21.7935  21.8856  21.9186  21.9798
    21.9829  22.0919  22.1633  22.1905  22.2480

[...]

          k = 0.2500-0.4953 0.0000 ( 31088 PWs)   bands (ev):

[...]

          k =-0.5000 0.0000 0.0000 ( 31104 PWs)   bands (ev):

[...]

          k =-0.2500 0.2476 0.0000 ( 31099 PWs)   bands (ev):

   -52.5009 -52.2059 -52.0862 -51.4932 -51.4887 -51.3795 -51.3464 -51.3426
   -51.3320 -51.3041 -51.2691 -51.1712 -51.1634 -51.1564 -51.1535 -51.1294
   -51.1274 -51.0969 -51.0301 -51.0029 -50.9925 -50.9807 -50.9702 -50.8246
   -21.7625 -21.3738 -21.3535 -21.2065 -20.9115 -20.7650 -20.7135 -20.5683
   -20.4495 -20.4101 -20.2776 -20.2325 -20.1512 -20.1296 -19.9383 -19.7689
   -18.9481 -18.8988 -18.8324  -9.9702  -9.9320  -9.7824  -9.4496  -9.2321
    -9.0225  -8.9898  -8.8820  -8.8504  -8.8162  -8.7281  -8.6473  -8.5511
    -8.4159  -8.2548  -8.1741  -8.0586  -7.8947  -7.8333  -7.5867  -7.5548
    -7.3584  -7.2703  -7.1074  -6.8319  -6.6867  -6.5812  -6.4941  -6.4632
    -6.3831  -6.3119  -6.2329  -6.1853  -6.1379  -6.0110  -5.9095  -5.7925
    -5.6358  -5.5660  -5.4477  -5.2369  -5.1846  -5.0282  -4.9524  -4.8458
    -4.7533  -4.5728  -4.4904  -4.3812  -4.3120  -4.2770  -4.1597  -3.8874
    -3.6259  -3.5442  -3.4305  -3.2981  -3.1372  -2.7769  -2.7443  -2.7015
    -2.6137  -2.5260  -2.5104  -2.4273  -2.3784  -2.3247  -2.2780  -2.1494
    -1.9781  -1.7707  -1.6810  -1.5249  -1.3365  -1.1984  -1.0238  -0.9515
    -0.8776  -0.7416  -0.6592  -0.4498  -0.2483   0.4547   0.6497   0.9938
     1.3616   1.4535   1.8162   1.9277   2.2890   2.4284   2.4783   2.6468
     2.7971   3.0236   3.0577   3.5202   3.5982   4.5053   4.8697   5.3403
     5.3664   5.5168   5.5936   6.1666   6.4510   6.5118   6.6855   6.7860
     6.9005   6.9585   7.1947   7.2685   7.3302   7.3491   7.5344   7.6438
     7.8167   7.8707   7.9445   8.0291   8.1660   8.2294   8.3517   8.4342
     8.5446   8.5711   8.5763   8.5962   8.5966   8.6987   8.7422   8.7443
     8.7469   8.8166   8.9116   8.9355   9.0370   9.0839   9.2358   9.3882
     9.4489   9.5908   9.6380   9.7288   9.7829   9.8725   9.9962  10.1126
    10.1511  10.2538  10.3941  10.4588  10.5043  10.5715  10.6558  10.8503
    10.8969  10.9381  11.0440  11.0916  11.1625  11.3007  11.4197  11.5558
    11.6173  11.6485  11.7355  11.8067  11.8391  12.0215  12.0450  12.1649
    12.2320  12.2558  12.3847  12.4733  12.5394  12.6510  12.6780  12.7201
    12.7869  12.8537  12.9088  12.9504  13.0358  13.0587  13.1576  13.2134
    13.2618  13.3902  13.4365  13.4842  13.6035  13.7854  13.8824  13.9065
    13.9825  14.0594  14.1698  14.2032  14.2612  14.3964  14.4390  14.5847
    14.6510  14.7322  14.7801  14.9166  15.0188  15.0691  15.1852  15.2539
    15.3418  15.3991  15.5346  15.6018  15.6502  15.7281  15.8075  15.8256
    15.9257  15.9807  16.0282  16.1219  16.1340  16.2102  16.3020  16.3292
    16.3985  16.4150  16.5232  16.5686  16.6282  16.6814  16.7281  16.7747
    16.8470  16.9966  17.1382  17.1913  17.2441  17.3007  17.3468  17.4675
    17.4933  17.5373  17.5847  17.6613  17.7189  17.7926  17.8655  17.9130
    17.9653  18.0206  18.0843  18.1752  18.1884  18.2420  18.3747  18.4162
    18.5202  18.5945  18.6216  18.7148  18.7665  18.8961  18.9888  19.0240
    19.0489  19.0953  19.1743  19.2065  19.2554  19.3381  19.3795  19.4652
    19.5793  19.6167  19.6630  19.7108  19.8356  19.9181  19.9622  20.0560
    20.1681  20.2684  20.2938  20.3542  20.4223  20.4737  20.5703  20.6838
    20.7057  20.7516  20.7939  20.8112  20.8356  20.9247  21.0517  21.1230
    21.2017  21.2745  21.3592  21.4081  21.4664  21.5204  21.5661  21.6664
    21.7401  21.7878  21.8444  21.8678  21.9165

     the Fermi energy is    -1.0589 ev

!    total energy              =   -2106.16569081 Ry
     Harris-Foulkes estimate   =   -2106.16569125 Ry
     estimated scf accuracy    <       0.00000047 Ry

     The total energy is the sum of the following terms:

     one-electron contribution =  -22669.87800003 Ry
     hartree contribution      =   11375.09086925 Ry
     xc contribution           =    -576.24864945 Ry
     ewald contribution        =    9764.87006855 Ry
     Hubbard energy            =       0.00000000 Ry
     smearing contrib. (-TS)   =       0.00002087 Ry

     convergence has been achieved in  29 iterations

     Forces acting on atoms (Ry/au):

     negative rho (up, down):  0.312E+01 0.000E+00
     atom    1 type  1   force =    -0.00707269   -0.01391638    0.00000292
     atom    2 type  1   force =     0.00001769    0.00461803    0.00006833
     atom    3 type  2   force =     0.03881730    0.00674714   -0.00035367
     atom    4 type  2   force =     0.00946571    0.00864646   -0.00003776
     atom    5 type  1   force =    -0.00214583   -0.01700641   -0.00007842
     atom    6 type  1   force =     0.00351523    0.01473336   -0.00004984
     atom    7 type  1   force =    -0.00028486   -0.00170128   -0.00036613
     atom    8 type  1   force =    -0.00341364   -0.00076191    0.00013815
     atom    9 type  2   force =     0.00684815    0.00065299    0.00049184
     atom   10 type  2   force =     0.00000250   -0.00102244   -0.00022015
     atom   11 type  1   force =     0.00033113    0.00377675   -0.00010476
     atom   12 type  1   force =    -0.00005067   -0.00424143   -0.00006171
     atom   13 type  1   force =    -0.00105773    0.00002775    0.00019863
     atom   14 type  1   force =    -0.00741113   -0.01431810   -0.00025565
     atom   15 type  1   force =     0.00017798    0.00559902    0.00019462
     atom   16 type  2   force =    -0.03909167    0.00582778   -0.00055928
     atom   17 type  2   force =     0.00948928    0.00879627   -0.00002443
     atom   18 type  1   force =    -0.00204914   -0.01659995   -0.00003107
     atom   19 type  1   force =     0.00276511    0.01518239   -0.00002684
     atom   20 type  1   force =    -0.00012529   -0.00494063   -0.00068717
     atom   21 type  1   force =    -0.00320758   -0.00051840    0.00028611
     atom   22 type  2   force =    -0.00426415    0.00048552    0.00047623
     atom   23 type  2   force =    -0.00005816    0.00023053    0.00061222
     atom   24 type  1   force =    -0.00037992    0.00382149   -0.00007429
     atom   25 type  1   force =     0.00034598   -0.00436353   -0.00011033
     atom   26 type  1   force =    -0.00089590   -0.00013810    0.00025347
     atom   27 type  3   force =    -0.00000279    0.00016700    0.00048408
     atom   28 type  3   force =     0.00001596    0.00008613    0.00056011
     atom   29 type  3   force =    -0.00011390   -0.00000405   -0.00068457
     atom   30 type  3   force =    -0.00018187    0.00012146   -0.00062496
     atom   31 type  1   force =     0.00001488    0.00001256    0.00058432

     Total force =     0.002034     Total SCF correction =     0.001730
     SCF correction compared to forces is large: reduce conv_thr to get better values

     BFGS Geometry Optimization

     bfgs converged in   1 scf cycles and   0 bfgs steps
     (criteria: energy < 0.10E-03, force < 0.10E-02)

     End of BFGS Geometry Optimization

     Final energy   =   -2106.1656908094 Ry
Begin final coordinates

ATOMIC_POSITIONS (crystal)
O0       0.000000000   0.000000000   0.378080000    0   0   1
O0       0.000000000   0.500000000   0.403160000    0   0   1
Ir1      0.250000000   0.500000000   0.453290000    0   0   1
Ir1      0.000000000   0.000000000   0.452860000    0   0   1
O0       0.250000000   0.810000000   0.452870000    0   0   1
O0       0.250000000   0.190000000   0.452540000    0   0   1
O0       0.000000000   0.500000000   0.498830000    0   0   1
O0       0.000000000   0.000000000   0.528340000    0   0   1
Ir1      0.250000000   0.000000000   0.575290000    0   0   1
Ir1      0.000000000   0.500000000   0.571980000    0   0   1
O0       0.250000000   0.690000000   0.574770000    0   0   1
O0       0.250000000   0.310000000   0.574800000    0   0   1
O0       0.000000000   0.000000000   0.619680000    0   0   1
O0       0.500000000   0.000000000   0.378000000    0   0   1
O0       0.500000000   0.500000000   0.402600000    0   0   1
Ir1      0.750000000   0.500000000   0.453300000    0   0   1
Ir1      0.500000000   0.000000000   0.452830000    0   0   1
O0       0.750000000   0.810000000   0.452880000    0   0   1
O0       0.750000000   0.190000000   0.452550000    0   0   1
O0       0.500000000   0.500000000   0.500750000    0   0   1
O0       0.500000000   0.000000000   0.528260000    0   0   1
Ir1      0.750000000   0.000000000   0.575290000    0   0   1
Ir1      0.500000000   0.500000000   0.578670000    0   0   1
O0       0.750000000   0.690000000   0.574760000    0   0   1
O0       0.750000000   0.310000000   0.574800000    0   0   1
O0       0.500000000   0.000000000   0.619480000    0   0   1
H2      -0.000070000   0.633400000   0.384130000
H2       0.499970000   0.635930000   0.384610000
H2       0.143620000   0.033970000   0.366550000
H2       0.643290000   0.034990000   0.366440000
O0       0.500010000   0.499510000   0.645670000
End final coordinates

     General routines

     Parallel routines
     Hubbard U routines

   This run was terminated on:   2:45:26  10May2014

   JOB DONE.