     Program PWSCF v.5.0.2 (svn rev. 9656) starts on  9May2014 at  6:32:23

     Current dimensions of program PWSCF are:
     Max number of different atomic species (ntypx) = 10
     Max number of k-points (npk) =  40000
     Max angular momentum in pseudopotentials (lmaxx) =  3
     Reading input from pwscf.in
Warning: card &CELL ignored
Warning: card / ignored

     Subspace diagonalization in iterative solution of the eigenvalue problem:
     a serial algorithm will be used

     bravais-lattice index     =            0
     lattice parameter (alat)  =      10.1289  a.u.
     unit-cell volume          =    6836.7721 (a.u.)^3
     number of atoms/cell      =           30
     number of atomic types    =            3
     number of electrons       =       232.00
     number of Kohn-Sham states=          348
     kinetic-energy cutoff     =      40.0000  Ry
     charge density cutoff     =     500.0000  Ry
     convergence threshold     =      1.0E-06
     mixing beta               =       0.7000
     number of iterations used =            8  plain     mixing
     Exchange-correlation      = SLA  PW   PBE  PBE ( 1 4 3 4 0)
     EXX-fraction              =        0.00
     nstep                     =           50

     celldm(1)=  10.128932  celldm(2)=   0.000000  celldm(3)=   0.000000
     celldm(4)=   0.000000  celldm(5)=   0.000000  celldm(6)=   0.000000

     crystal axes: (cart. coord. in units of alat)
               a(1) = (   1.000000   0.000000   0.000000 )
               a(2) = (   0.000000   1.306037   0.000000 )
               a(3) = (   0.000000   0.000000   5.037380 )

     reciprocal axes: (cart. coord. in units 2 pi/alat)
               b(1) = (  1.000000  0.000000  0.000000 )
               b(2) = (  0.000000  0.765675  0.000000 )
               b(3) = (  0.000000  0.000000  0.198516 )

     PseudoPot. # 1 for O  read from file:
     /home/camp/zhonxu/pseudo/o_pbe_v1.01.uspp.F.UPF
     MD5 check sum: 2bcb18d16ea4b960afae9ec6d52f22d2
     Pseudo is Ultrasoft + core correction, Zval =  6.0
     Generated by new atomic code, or converted to UPF format
     Using radial grid of  737 points,  5 beta functions with:
                l(1) =   0
                l(2) =   0
                l(3) =   1
                l(4) =   1
                l(5) =   2
     Q(r) pseudized with  8 coefficients,  rinner =    0.900   0.900   0.900
                                                       0.900   0.900

     PseudoPot. # 2 for Re read from file:
     /home/camp/zhonxu/pseudo/re_pbe_v1.uspp.F.UPF
     MD5 check sum: 6f5a5dcaf9c96c20d0ffdde0de57afc6
     Pseudo is Ultrasoft + core correction, Zval = 15.0
     Generated by new atomic code, or converted to UPF format
     Using radial grid of  981 points,  8 beta functions with:
                l(1) =   0
                l(2) =   0
                l(3) =   1
                l(4) =   1
                l(5) =   2
                l(6) =   2
                l(7) =   3
                l(8) =   3
     Q(r) pseudized with  8 coefficients,  rinner =    1.000   1.000   1.000
                                                       1.000   1.000   1.000
                                                       1.000

     PseudoPot. # 3 for H  read from file:
     /home/camp/zhonxu/pseudo/h_pbe_v1.uspp.F.UPF
     MD5 check sum: 3408e3ff4ec8b0a4e358431e7e038a48
     Pseudo is Ultrasoft, Zval =  1.0
     Generated by new atomic code, or converted to UPF format
     Using radial grid of  615 points,  2 beta functions with:
                l(1) =   0
                l(2) =   0
     Q(r) pseudized with  8 coefficients,  rinner =    0.700

     atomic species   valence    mass     pseudopotential
        O0             6.00    15.99940     O ( 1.00)
        Re1           15.00   186.20700     Re( 1.00)
        H2             1.00     1.00794     H ( 1.00)

     Simplified LDA+U calculation (l_max = 2) with parameters (eV):
     atomic species    L          U    alpha       J0     beta
        Re1            2     1.5000   0.0000   0.0000   0.0000

     No symmetry found

   Cartesian axes

     site n.     atom                  positions (alat units)
         1           O0  tau(   1) = (   0.0000000   0.0000000   1.8688176  )
         2           O0  tau(   2) = (   0.0000000   0.6530184   1.9243296  )
         3           Re1 tau(   3) = (   0.2500000   0.6530184   2.2228951  )
         4           Re1 tau(   4) = (   0.0000000   0.0000000   2.2352367  )
         5           O0  tau(   5) = (   0.2500000   1.0187087   2.2249100  )
         6           O0  tau(   6) = (   0.2500000   0.2873281   2.2250611  )
         7           O0  tau(   7) = (   0.0000000   0.6530184   2.5071041  )
         8           O0  tau(   8) = (   0.0000000   0.0000000   2.5966183  )
         9           Re1 tau(   9) = (   0.2500000   0.0000000   2.8989619  )
        10           Re1 tau(  10) = (   0.0000000   0.6530184   2.8608793  )
        11           O0  tau(  11) = (   0.2500000   0.9403465   2.8908013  )
        12           O0  tau(  12) = (   0.2500000   0.3656903   2.8907005  )
        13           O0  tau(  13) = (   0.0000000   0.0000000   3.1620138  )
        14           O0  tau(  14) = (   0.5000000   0.0000000   1.8688176  )
        15           O0  tau(  15) = (   0.5000000   0.6530184   1.9243296  )
        16           Re1 tau(  16) = (   0.7500000   0.6530184   2.2228951  )
        17           Re1 tau(  17) = (   0.5000000   0.0000000   2.2352367  )
        18           O0  tau(  18) = (   0.7500000   1.0187087   2.2249604  )
        19           O0  tau(  19) = (   0.7500000   0.2873281   2.2250611  )
        20           O0  tau(  20) = (   0.5000000   0.6530184   2.5071041  )
        21           O0  tau(  21) = (   0.5000000   0.0000000   2.5966183  )
        22           Re1 tau(  22) = (   0.7500000   0.0000000   2.8989619  )
        23           Re1 tau(  23) = (   0.5000000   0.6530184   2.8609296  )
        24           O0  tau(  24) = (   0.7500000   0.9403465   2.8908013  )
        25           O0  tau(  25) = (   0.7500000   0.3656903   2.8907005  )
        26           O0  tau(  26) = (   0.5000000   0.0000000   3.1620138  )
        27           H2  tau(  27) = (  -0.0003800   0.8172395   1.8403061  )
        28           H2  tau(  28) = (   0.4996200   0.8172395   1.8403061  )
        29           H2  tau(  29) = (   0.1698700   0.0284977   1.7974380  )
        30           H2  tau(  30) = (   0.6698800   0.0284977   1.7974380  )

     number of k points=    10  Methfessel-Paxton smearing, width (Ry)=  0.0100
                       cart. coord. in units 2pi/alat
        k(    1) = (   0.0000000   0.0000000   0.0000000), wk =   0.1250000
        k(    2) = (   0.0000000   0.1914188   0.0000000), wk =   0.2500000
        k(    3) = (   0.0000000  -0.3828376   0.0000000), wk =   0.1250000
        k(    4) = (   0.2500000   0.0000000   0.0000000), wk =   0.2500000
        k(    5) = (   0.2500000   0.1914188   0.0000000), wk =   0.2500000
        k(    6) = (   0.2500000  -0.3828376   0.0000000), wk =   0.2500000
        k(    7) = (  -0.5000000   0.0000000   0.0000000), wk =   0.1250000
        k(    8) = (  -0.5000000   0.1914188   0.0000000), wk =   0.2500000
        k(    9) = (  -0.5000000  -0.3828376   0.0000000), wk =   0.1250000
        k(   10) = (  -0.2500000   0.1914188   0.0000000), wk =   0.2500000

     Largest allocated arrays     est. size (Mb)     dimensions
     Largest temporary arrays     est. size (Mb)     dimensions

     Check: negative/imaginary core charge=   -0.000003    0.000000

     Initial potential from superposition of free atoms
     Check: negative starting charge=   -0.237311

     starting charge  227.99958, renormalised to  232.00000

     negative rho (up, down):  0.241E+00 0.000E+00
     Number of +U iterations with fixed ns =  0
     Starting occupations:
 --- enter write_ns ---
 LDA+U parameters:
U( 2)     =  1.50000000
alpha( 2) =  0.00000000
atom    3   Tr[ns(na)] =   5.00000
    eigenvalues:
  0.500  0.500  0.500  0.500  0.500
    eigenvectors:
  1.000  0.000  0.000  0.000  0.000
  0.000  1.000  0.000  0.000  0.000
  0.000  0.000  1.000  0.000  0.000
  0.000  0.000  0.000  1.000  0.000
  0.000  0.000  0.000  0.000  1.000
    occupations:
  0.500  0.000  0.000  0.000  0.000
  0.000  0.500  0.000  0.000  0.000
  0.000  0.000  0.500  0.000  0.000
  0.000  0.000  0.000  0.500  0.000
  0.000  0.000  0.000  0.000  0.500
atom    4   Tr[ns(na)] =   5.00000
    eigenvalues:
  0.500  0.500  0.500  0.500  0.500
    eigenvectors:
  1.000  0.000  0.000  0.000  0.000
  0.000  1.000  0.000  0.000  0.000
  0.000  0.000  1.000  0.000  0.000
  0.000  0.000  0.000  1.000  0.000
  0.000  0.000  0.000  0.000  1.000
    occupations:
  0.500  0.000  0.000  0.000  0.000
  0.000  0.500  0.000  0.000  0.000
  0.000  0.000  0.500  0.000  0.000
  0.000  0.000  0.000  0.500  0.000
  0.000  0.000  0.000  0.000  0.500
atom    9   Tr[ns(na)] =   5.00000
    eigenvalues:
  0.500  0.500  0.500  0.500  0.500
    eigenvectors:
  1.000  0.000  0.000  0.000  0.000
  0.000  1.000  0.000  0.000  0.000
  0.000  0.000  1.000  0.000  0.000
  0.000  0.000  0.000  1.000  0.000
  0.000  0.000  0.000  0.000  1.000
    occupations:
  0.500  0.000  0.000  0.000  0.000
  0.000  0.500  0.000  0.000  0.000
  0.000  0.000  0.500  0.000  0.000
  0.000  0.000  0.000  0.500  0.000
  0.000  0.000  0.000  0.000  0.500
atom   10   Tr[ns(na)] =   5.00000
    eigenvalues:
  0.500  0.500  0.500  0.500  0.500
    eigenvectors:
  1.000  0.000  0.000  0.000  0.000
  0.000  1.000  0.000  0.000  0.000
  0.000  0.000  1.000  0.000  0.000
  0.000  0.000  0.000  1.000  0.000
  0.000  0.000  0.000  0.000  1.000
    occupations:
  0.500  0.000  0.000  0.000  0.000
  0.000  0.500  0.000  0.000  0.000
  0.000  0.000  0.500  0.000  0.000
  0.000  0.000  0.000  0.500  0.000
  0.000  0.000  0.000  0.000  0.500
atom   16   Tr[ns(na)] =   5.00000
    eigenvalues:
  0.500  0.500  0.500  0.500  0.500
    eigenvectors:
  1.000  0.000  0.000  0.000  0.000
  0.000  1.000  0.000  0.000  0.000
  0.000  0.000  1.000  0.000  0.000
  0.000  0.000  0.000  1.000  0.000
  0.000  0.000  0.000  0.000  1.000
    occupations:
  0.500  0.000  0.000  0.000  0.000
  0.000  0.500  0.000  0.000  0.000
  0.000  0.000  0.500  0.000  0.000
  0.000  0.000  0.000  0.500  0.000
  0.000  0.000  0.000  0.000  0.500
atom   17   Tr[ns(na)] =   5.00000
    eigenvalues:
  0.500  0.500  0.500  0.500  0.500
    eigenvectors:
  1.000  0.000  0.000  0.000  0.000
  0.000  1.000  0.000  0.000  0.000
  0.000  0.000  1.000  0.000  0.000
  0.000  0.000  0.000  1.000  0.000
  0.000  0.000  0.000  0.000  1.000
    occupations:
  0.500  0.000  0.000  0.000  0.000
  0.000  0.500  0.000  0.000  0.000
  0.000  0.000  0.500  0.000  0.000
  0.000  0.000  0.000  0.500  0.000
  0.000  0.000  0.000  0.000  0.500
atom   22   Tr[ns(na)] =   5.00000
    eigenvalues:
  0.500  0.500  0.500  0.500  0.500
    eigenvectors:
  1.000  0.000  0.000  0.000  0.000
  0.000  1.000  0.000  0.000  0.000
  0.000  0.000  1.000  0.000  0.000
  0.000  0.000  0.000  1.000  0.000
  0.000  0.000  0.000  0.000  1.000
    occupations:
[...]
  0.000  0.005  0.616  0.001 -0.000
 -0.021 -0.000  0.001  0.771 -0.000
  0.000 -0.001 -0.000 -0.000  0.565
atom    9   Tr[ns(na)] =   6.52174
    eigenvalues:
  0.590  0.603  0.619  0.709  0.741
    eigenvectors:
  0.264  0.000  0.000  0.002  0.734
  0.000  1.000  0.000  0.000  0.000
  0.000  0.000  1.000  0.000  0.000
  0.735  0.000  0.000  0.001  0.264
  0.000  0.000  0.000  0.998  0.002
    occupations:
  0.701  0.000 -0.001 -0.066  0.001
  0.000  0.603  0.000  0.000  0.000
 -0.001  0.000  0.619  0.000  0.000
 -0.066  0.000  0.000  0.630 -0.001
  0.001  0.000  0.000 -0.001  0.709
atom   10   Tr[ns(na)] =   6.51539
    eigenvalues:
  0.488  0.539  0.697  0.755  0.778
    eigenvectors:
  0.995  0.000  0.000  0.005  0.000
  0.000  0.000  0.000  0.000  1.000
  0.000  0.000  1.000  0.000  0.000
  0.005  0.000  0.000  0.995  0.000
  0.000  1.000  0.000  0.000  0.000
    occupations:
  0.490  0.000  0.001 -0.019 -0.000
  0.000  0.778  0.000  0.000  0.001
  0.001  0.000  0.697  0.000  0.000
 -0.019  0.000  0.000  0.754 -0.000
 -0.000  0.001  0.000 -0.000  0.539
atom   16   Tr[ns(na)] =   6.56091
    eigenvalues:
  0.534  0.569  0.655  0.751  0.773
    eigenvectors:
  0.000  0.383  0.007  0.610  0.000
  0.999  0.000  0.000  0.000  0.001
  0.000  0.000  0.987  0.013  0.000
  0.000  0.617  0.006  0.377  0.000
  0.001  0.000  0.000  0.000  0.999
    occupations:
  0.680  0.000  0.009 -0.088 -0.000
  0.000  0.534  0.000 -0.000 -0.008
  0.009  0.000  0.656 -0.006  0.001
 -0.088 -0.000 -0.006  0.638  0.000
 -0.000 -0.008  0.001  0.000  0.772
atom   17   Tr[ns(na)] =   6.51325
    eigenvalues:
  0.565  0.603  0.616  0.698  0.774
    eigenvectors:
  0.000  0.983  0.000  0.001  0.016
  0.000  0.001  0.004  0.995  0.000
  0.000  0.000  0.995  0.004  0.000
  0.000  0.016  0.000  0.000  0.984
  1.000  0.000  0.000  0.000  0.000
    occupations:
  0.606  0.003  0.000 -0.021  0.000
  0.003  0.698  0.005 -0.000 -0.001
  0.000  0.005  0.616  0.001 -0.000
 -0.021 -0.000  0.001  0.771 -0.000
  0.000 -0.001 -0.000 -0.000  0.565
atom   22   Tr[ns(na)] =   6.52108
    eigenvalues:
  0.590  0.603  0.618  0.709  0.741
    eigenvectors:
  0.264  0.000  0.000  0.002  0.734
  0.000  1.000  0.000  0.000  0.000
  0.000  0.000  1.000  0.000  0.000
  0.735  0.000  0.000  0.001  0.264
  0.000  0.000  0.000  0.998  0.002
    occupations:
  0.701  0.000 -0.001 -0.066  0.001
  0.000  0.603  0.000  0.000  0.000
 -0.001  0.000  0.618  0.000  0.000
 -0.066  0.000  0.000  0.630 -0.001
  0.001  0.000  0.000 -0.001  0.709
atom   23   Tr[ns(na)] =   6.51465
    eigenvalues:
  0.488  0.539  0.697  0.755  0.778
    eigenvectors:
  0.995  0.000  0.000  0.005  0.000
  0.000  0.000  0.000  0.000  1.000
  0.000  0.000  1.000  0.000  0.000
  0.005  0.000  0.000  0.995  0.000
  0.000  1.000  0.000  0.000  0.000
    occupations:
  0.490  0.000  0.001 -0.019 -0.000
  0.000  0.778  0.000 -0.000  0.001
  0.001  0.000  0.697  0.000  0.000
 -0.019 -0.000  0.000  0.754 -0.000
 -0.000  0.001  0.000 -0.000  0.539
N of occupied +U levels =  52.2219665
 --- exit write_ns ---

     Threshold (ethr) on eigenvalues was too large:
     Diagonalizing with lowered threshold

     Davidson diagonalization with overlap
     ethr =  2.90E-09,  avg # of iterations =  2.4

[...]

     total energy              =   -2142.08184257 Ry
     Harris-Foulkes estimate   =   -2142.08184258 Ry
     estimated scf accuracy    <       0.00000004 Ry

     iteration # 12     ecut=    40.00 Ry     beta=0.70
     Davidson diagonalization with overlap
     ethr =  1.33E-11,  avg # of iterations =  1.0

     negative rho (up, down):  0.241E+00 0.000E+00

     End of self-consistent calculation
 --- enter write_ns ---
 LDA+U parameters:
U( 2)     =  1.50000000
alpha( 2) =  0.00000000
atom    3   Tr[ns(na)] =   6.56075
    eigenvalues:
  0.534  0.569  0.655  0.751  0.773
    eigenvectors:
  0.000  0.383  0.007  0.610  0.000
  0.999  0.000  0.000  0.000  0.001
  0.000  0.000  0.987  0.013  0.000
  0.000  0.617  0.006  0.377  0.000
  0.001  0.000  0.000  0.000  0.999
    occupations:
  0.680  0.000  0.009 -0.088 -0.000
  0.000  0.534  0.000 -0.000 -0.008
  0.009  0.000  0.656 -0.006  0.001
 -0.088 -0.000 -0.006  0.638  0.000
 -0.000 -0.008  0.001  0.000  0.772
atom    4   Tr[ns(na)] =   6.51327
    eigenvalues:
  0.565  0.603  0.616  0.698  0.774
    eigenvectors:
  0.000  0.983  0.000  0.001  0.016
  0.000  0.001  0.004  0.995  0.000
  0.000  0.000  0.996  0.004  0.000
  0.000  0.016  0.000  0.000  0.984
  1.000  0.000  0.000  0.000  0.000
    occupations:
  0.606  0.003  0.000 -0.021  0.000
  0.003  0.698  0.005 -0.000 -0.001
  0.000  0.005  0.616  0.001 -0.000
 -0.021 -0.000  0.001  0.771 -0.000
  0.000 -0.001 -0.000 -0.000  0.565
atom    9   Tr[ns(na)] =   6.52114
    eigenvalues:
  0.590  0.603  0.618  0.709  0.741
    eigenvectors:
  0.264  0.000  0.000  0.002  0.734
  0.000  1.000  0.000  0.000  0.000
  0.000  0.000  1.000  0.000  0.000
  0.735  0.000  0.000  0.001  0.264
  0.000  0.000  0.000  0.998  0.002
    occupations:
  0.701  0.000 -0.001 -0.066  0.001
  0.000  0.603  0.000  0.000  0.000
 -0.001  0.000  0.618  0.000  0.000
 -0.066  0.000  0.000  0.630 -0.001
  0.001  0.000  0.000 -0.001  0.709
atom   10   Tr[ns(na)] =   6.51525
    eigenvalues:
  0.488  0.539  0.697  0.755  0.778
    eigenvectors:
  0.995  0.000  0.000  0.005  0.000
  0.000  0.000  0.000  0.000  1.000
  0.000  0.000  1.000  0.000  0.000
  0.005  0.000  0.000  0.995  0.000
  0.000  1.000  0.000  0.000  0.000
    occupations:
  0.490  0.000  0.001 -0.019 -0.000
  0.000  0.778  0.000  0.000  0.001
  0.001  0.000  0.697  0.000  0.000
 -0.019  0.000  0.000  0.754 -0.000
 -0.000  0.001  0.000 -0.000  0.539
atom   16   Tr[ns(na)] =   6.56079
    eigenvalues:
  0.534  0.569  0.655  0.751  0.773
    eigenvectors:
  0.000  0.383  0.007  0.610  0.000
  0.999  0.000  0.000  0.000  0.001
  0.000  0.000  0.987  0.013  0.000
  0.000  0.617  0.006  0.377  0.000
  0.001  0.000  0.000  0.000  0.999
    occupations:
  0.680  0.000  0.009 -0.088 -0.000
  0.000  0.534  0.000 -0.000 -0.008
  0.009  0.000  0.656 -0.006  0.001
 -0.088 -0.000 -0.006  0.638  0.000
 -0.000 -0.008  0.001  0.000  0.772
atom   17   Tr[ns(na)] =   6.51324
    eigenvalues:
  0.565  0.603  0.616  0.698  0.774
    eigenvectors:
  0.000  0.983  0.000  0.001  0.016
  0.000  0.001  0.004  0.995  0.000
  0.000  0.000  0.996  0.004  0.000
  0.000  0.016  0.000  0.000  0.984
  1.000  0.000  0.000  0.000  0.000
    occupations:
  0.606  0.003  0.000 -0.021  0.000
  0.003  0.698  0.005 -0.000 -0.001
  0.000  0.005  0.616  0.001 -0.000
 -0.021 -0.000  0.001  0.771 -0.000
  0.000 -0.001 -0.000 -0.000  0.565
atom   22   Tr[ns(na)] =   6.52122
    eigenvalues:
  0.590  0.603  0.618  0.709  0.741
    eigenvectors:
  0.264  0.000  0.000  0.002  0.734
  0.000  1.000  0.000  0.000  0.000
  0.000  0.000  1.000  0.000  0.000
  0.735  0.000  0.000  0.001  0.264
  0.000  0.000  0.000  0.998  0.002
    occupations:
  0.701  0.000 -0.001 -0.066  0.001
  0.000  0.603  0.000  0.000  0.000
 -0.001  0.000  0.618  0.000  0.000
 -0.066  0.000  0.000  0.630 -0.001
  0.001  0.000  0.000 -0.001  0.709
atom   23   Tr[ns(na)] =   6.51519
    eigenvalues:
  0.488  0.539  0.697  0.755  0.778
    eigenvectors:
  0.995  0.000  0.000  0.005  0.000
  0.000  0.000  0.000  0.000  1.000
  0.000  0.000  1.000  0.000  0.000
  0.005  0.000  0.000  0.995  0.000
  0.000  1.000  0.000  0.000  0.000
    occupations:
  0.490  0.000  0.001 -0.019 -0.000
  0.000  0.778  0.000 -0.000  0.001
  0.001  0.000  0.697  0.000  0.000
 -0.019 -0.000  0.000  0.754 -0.000
 -0.000  0.001  0.000 -0.000  0.539
N of occupied +U levels =  52.2208419
 --- exit write_ns ---

[...]

          k = 0.2500-0.3828 0.0000 ( 29202 PWs)   bands (ev):

[...]

          k =-0.2500 0.1914 0.0000 ( 29229 PWs)   bands (ev):

   -81.3540 -81.3150 -81.0865 -81.0466 -80.8623 -80.8230 -80.7714 -80.7318
   -43.4502 -43.2678 -43.2548 -43.2445 -43.2042 -43.1536 -43.0759 -43.0145
   -42.9907 -42.9220 -42.9196 -42.9055 -42.8348 -42.8136 -42.8008 -42.7572
   -42.7273 -42.7046 -42.6973 -42.6657 -42.6111 -42.6047 -42.3704 -42.3007
   -20.8933 -20.4542 -20.3597 -20.1988 -20.0781 -19.9558 -19.7594 -19.7430
   -19.7345 -19.4895 -19.4473 -19.3704 -19.3132 -19.1098 -19.0914 -18.8805
   -18.2667 -18.0600  -9.0247  -8.7294  -8.7112  -8.6373  -8.4687  -8.3104
    -8.2761  -8.0948  -7.8947  -7.8785  -7.7965  -7.6986  -7.4582  -7.3376
    -7.2987  -6.9766  -6.7721  -6.6697  -6.5264  -6.4761  -6.4296  -6.1408
    -5.9692  -5.9582  -5.7632  -5.6602  -5.5617  -5.5414  -5.4973  -5.1778
    -5.0959  -5.0114  -4.8863  -4.8607  -4.7453  -4.6622  -4.6512  -4.5738
    -4.4714  -4.4014  -4.2348  -4.0256  -3.9778  -3.8970  -3.7302  -3.6005
    -3.5863  -3.3809  -3.3158  -3.1617  -3.0942  -2.8561  -2.7682  -2.6165
    -2.2163  -2.1145  -1.9336  -1.2620  -1.0400  -0.8885  -0.8320  -0.2571
    -0.0792   0.3673   0.4099   0.4899   0.7558   0.7790   0.8764   1.1220
     1.2222   1.2803   1.3651   1.5413   1.5920   1.7025   1.8697   1.9405
     2.2662   2.3760   3.6427   3.6757   3.8152   3.8899   4.0474   4.1949
     4.4626   4.5482   4.6876   4.7212   4.8674   4.9056   5.2330   5.4085
     5.7840   5.7905   6.0089   6.1645   6.2322   6.4257   6.6130   6.7227
     6.8744   6.9863   7.2415   7.2601   7.4408   7.6989   7.7642   8.0299
     8.1269   8.2937   8.3315   8.4608   8.5666   8.6241   8.7324   8.8880
     9.0803   9.3449   9.3938   9.3990   9.5977   9.6608   9.7227   9.7457
     9.8106   9.9146   9.9475  10.1208  10.1588  10.2583  10.3119  10.3753
    10.3916  10.6244  10.7201  10.8055  10.9255  11.0152  11.0371  11.1758
    11.3885  11.4280  11.4462  11.6617  11.7769  11.8675  11.9627  12.1083
    12.3226  12.3400  12.4907  12.5139  12.6179  12.6505  12.6763  12.7979
    12.8557  12.9754  12.9953  13.1877  13.2244  13.3360  13.4785  13.5392
    13.6145  13.6650  13.7804  13.8029  13.8878  13.8916  13.9677  14.0343
    14.0822  14.2114  14.2450  14.3122  14.4416  14.5068  14.5524  14.5562
    14.6793  14.7820  14.7829  14.8542  14.8792  14.9301  14.9929  15.0141
    15.1005  15.2071  15.2771  15.3950  15.4921  15.5607  15.6322  15.7297
    15.8592  15.9444  16.0770  16.0986  16.1745  16.2206  16.2639  16.4100
    16.5302  16.5570  16.6046  16.6792  16.7671  16.8361  16.8568  16.9979
    17.1219  17.1321  17.1918  17.2953  17.3591  17.4557  17.5539  17.6679
    17.6918  17.7147  17.7383  17.8831  17.9599  18.0456  18.0495  18.2077
    18.2108  18.2839  18.3042  18.3693  18.4885  18.5145  18.6340  18.6597
    18.7645  18.8660  18.8830  18.9796  19.0505  19.0619  19.1388  19.3019
    19.4261  19.4987  19.5663  19.6467  19.7529  19.8771  19.9558  19.9880
    20.0340  20.0863  20.2105  20.2148  20.4284  20.4583  20.5632  20.5650
    20.6043  20.7196  20.7486  20.8005  20.8395  20.9068  20.9605  21.0655
    21.1433  21.1792  21.2743  21.3101  21.3735  21.4581  21.4936  21.5031
    21.6126  21.6386  21.7545  21.8218  21.9172  21.9251  22.0830  22.1042
    22.1584  22.2537  22.2557  22.3540  22.3711  22.4040  22.4499  22.5241
    22.5404  22.6336  22.6378  22.6987

     the Fermi energy is     0.5022 ev

!    total energy              =   -2142.08184257 Ry
     Harris-Foulkes estimate   =   -2142.08184258 Ry
     estimated scf accuracy    <          7.4E-09 Ry

     The total energy is the sum of the following terms:

     one-electron contribution =  -23488.37628453 Ry
     hartree contribution      =   11759.07138247 Ry
     xc contribution           =    -587.14533938 Ry
     ewald contribution        =   10173.40625424 Ry
     Hubbard energy            =       0.96424373 Ry
     smearing contrib. (-TS)   =      -0.00209910 Ry

     convergence has been achieved in  12 iterations

     Forces acting on atoms (Ry/au):

     negative rho (up, down):  0.241E+00 0.000E+00
     atom    1 type  1   force =    -0.00409348   -0.00703040   -0.00019145
     atom    2 type  1   force =     0.00004214    0.00706771    0.00040455
     atom    3 type  2   force =    -0.00008237   -0.00517546   -0.00016810
     atom    4 type  2   force =     0.00157789    0.00840546    0.00039821
     atom    5 type  1   force =     0.00192455    0.01525863    0.00046024
     atom    6 type  1   force =     0.00021178   -0.01689111    0.00030663
     atom    7 type  1   force =    -0.00019585    0.00007082   -0.00041453
     atom    8 type  1   force =     0.00278356   -0.00112878    0.00064621
     atom    9 type  2   force =    -0.00154329    0.00066985   -0.00073191
     atom   10 type  2   force =     0.00000476   -0.00043875    0.00044637
     atom   11 type  1   force =     0.00009901   -0.01529284   -0.00069089
     atom   12 type  1   force =    -0.00012289    0.01433282   -0.00055991
     atom   13 type  1   force =    -0.00048995    0.00049603   -0.00031942
     atom   14 type  1   force =    -0.00409103   -0.00703084   -0.00018703
     atom   15 type  1   force =     0.00003984    0.00706068    0.00040074
     atom   16 type  2   force =    -0.00006850   -0.00517270   -0.00017389
     atom   17 type  2   force =     0.00157506    0.00840386    0.00040232
     atom   18 type  1   force =     0.00192405    0.01526003    0.00043228
     atom   19 type  1   force =     0.00020895   -0.01689621    0.00030885
     atom   20 type  1   force =    -0.00021045    0.00007168   -0.00040832
     atom   21 type  1   force =     0.00276739   -0.00112989    0.00065807
     atom   22 type  2   force =    -0.00160002    0.00066733   -0.00070937
     atom   23 type  2   force =     0.00001620   -0.00043879    0.00047670
     atom   24 type  1   force =     0.00007596   -0.01530811   -0.00069689
     atom   25 type  1   force =    -0.00014662    0.01434902   -0.00056596
     atom   26 type  1   force =    -0.00050263    0.00049846   -0.00033355
     atom   27 type  3   force =     0.00000761   -0.00046501   -0.00018448
     atom   28 type  3   force =     0.00000744   -0.00046822   -0.00018327
     atom   29 type  3   force =    -0.00006877    0.00012505    0.00059485
     atom   30 type  3   force =    -0.00005035    0.00012968    0.00058295

     Total force =     0.002658     Total SCF correction =     0.000195

     bfgs converged in   4 scf cycles and   3 bfgs steps
     (criteria: energy < 0.10E-03, force < 0.10E-02)

     End of BFGS Geometry Optimization

     Final energy   =   -2142.0818425726 Ry
Begin final coordinates

ATOMIC_POSITIONS (crystal)
O0       0.000000000   0.000000000   0.371151255    0   0   1
O0       0.000000000   0.500000000   0.382093865    0   0   1
Re1      0.250000000   0.500000000   0.441351200    0   0   1
Re1      0.000000000   0.000000000   0.443738329    0   0   1
O0       0.250000000   0.780000000   0.441741488    0   0   1
O0       0.250000000   0.220000000   0.441745423    0   0   1
O0       0.000000000   0.500000000   0.497680526    0   0   1
O0       0.000000000   0.000000000   0.515305452    0   0   1
Re1      0.250000000   0.000000000   0.575481201    0   0   1
Re1      0.000000000   0.500000000   0.567790062    0   0   1
O0       0.250000000   0.720000000   0.573829207    0   0   1
O0       0.250000000   0.280000000   0.573826812    0   0   1
O0       0.000000000   0.000000000   0.627643012    0   0   1
O0       0.500000000   0.000000000   0.371151490    0   0   1
O0       0.500000000   0.500000000   0.382094203    0   0   1
Re1      0.750000000   0.500000000   0.441351612    0   0   1
Re1      0.500000000   0.000000000   0.443738115    0   0   1
O0       0.750000000   0.780000000   0.441746262    0   0   1
O0       0.750000000   0.220000000   0.441745048    0   0   1
O0       0.500000000   0.500000000   0.497680192    0   0   1
O0       0.500000000   0.000000000   0.515304107    0   0   1
Re1      0.750000000   0.000000000   0.575477788    0   0   1
Re1      0.500000000   0.500000000   0.567788710    0   0   1
O0       0.750000000   0.720000000   0.573829487    0   0   1
O0       0.750000000   0.280000000   0.573827012    0   0   1
O0       0.500000000   0.000000000   0.627644214    0   0   1
H2      -0.000373270   0.625419810   0.365315438
H2       0.499625874   0.625419658   0.365315576
H2       0.169714907   0.021859906   0.356886057
H2       0.669714056   0.021859159   0.356886857
End final coordinates

     General routines

     Parallel routines
     Hubbard U routines

   This run was terminated on:  10:59:55   9May2014

   JOB DONE.
Running PBS batch system epilogue script
Job id: 340862.audhumbla.fysik.dtu.dk
Username: zhonxu
Groupname: campgst
Jobname: ReO2/Eads-2-layers/bare-U-1.5
Sessionid: 11258
Queuename: verylong
Accounting:
This job has allocated the following 16 nodes:
b131 b131 b131 b131 b131 b131 b131 b131 b111 b111 b111 b111 b111 b111 b111 b111
Finished epilogue job 340862.audhumbla.fysik.dtu.dk for zhonxu