     Program PWSCF v.5.0.2 (svn rev. 9656) starts on  9May2014 at  8: 5:54

     Current dimensions of program PWSCF are:
     Max number of different atomic species (ntypx) = 10
     Max number of k-points (npk) =  40000
     Max angular momentum in pseudopotentials (lmaxx) =  3
     Reading input from pwscf.in
Warning: card &CELL ignored
Warning: card / ignored

     Subspace diagonalization in iterative solution of the eigenvalue problem:
     a serial algorithm will be used

     bravais-lattice index     =            0
     lattice parameter (alat)  =      10.1289  a.u.
     unit-cell volume          =    6836.7721 (a.u.)^3
     number of atoms/cell      =           30
     number of atomic types    =            3
     number of electrons       =       232.00
     number of Kohn-Sham states=          348
     kinetic-energy cutoff     =      40.0000  Ry
     charge density cutoff     =     500.0000  Ry
     convergence threshold     =      1.0E-06
     mixing beta               =       0.7000
     number of iterations used =            8  plain     mixing
     Exchange-correlation      = SLA  PW   PBE  PBE ( 1 4 3 4 0)
     EXX-fraction              =        0.00
     nstep                     =           50

     celldm(1)=  10.128932  celldm(2)=   0.000000  celldm(3)=   0.000000
     celldm(4)=   0.000000  celldm(5)=   0.000000  celldm(6)=   0.000000

     crystal axes: (cart. coord. in units of alat)
               a(1) = (   1.000000   0.000000   0.000000 )
               a(2) = (   0.000000   1.306037   0.000000 )
               a(3) = (   0.000000   0.000000   5.037380 )

     reciprocal axes: (cart. coord. in units 2 pi/alat)
               b(1) = (  1.000000  0.000000  0.000000 )
               b(2) = (  0.000000  0.765675  0.000000 )
               b(3) = (  0.000000  0.000000  0.198516 )

     PseudoPot. # 1 for O  read from file:
     /home/camp/zhonxu/pseudo/o_pbe_v1.01.uspp.F.UPF
     MD5 check sum: 2bcb18d16ea4b960afae9ec6d52f22d2
     Pseudo is Ultrasoft + core correction, Zval =  6.0
     Generated by new atomic code, or converted to UPF format
     Using radial grid of  737 points,  5 beta functions with:
                l(1) =   0
                l(2) =   0
                l(3) =   1
                l(4) =   1
                l(5) =   2
     Q(r) pseudized with  8 coefficients,  rinner =    0.900   0.900   0.900
                                                       0.900   0.900

     PseudoPot. # 2 for Re read from file:
     /home/camp/zhonxu/pseudo/re_pbe_v1.uspp.F.UPF
     MD5 check sum: 6f5a5dcaf9c96c20d0ffdde0de57afc6
     Pseudo is Ultrasoft + core correction, Zval = 15.0
     Generated by new atomic code, or converted to UPF format
     Using radial grid of  981 points,  8 beta functions with:
                l(1) =   0
                l(2) =   0
                l(3) =   1
                l(4) =   1
                l(5) =   2
                l(6) =   2
                l(7) =   3
                l(8) =   3
     Q(r) pseudized with  8 coefficients,  rinner =    1.000   1.000   1.000
                                                       1.000   1.000   1.000
                                                       1.000

     PseudoPot. # 3 for H  read from file:
     /home/camp/zhonxu/pseudo/h_pbe_v1.uspp.F.UPF
     MD5 check sum: 3408e3ff4ec8b0a4e358431e7e038a48
     Pseudo is Ultrasoft, Zval =  1.0
     Generated by new atomic code, or converted to UPF format
     Using radial grid of  615 points,  2 beta functions with:
                l(1) =   0
                l(2) =   0
     Q(r) pseudized with  8 coefficients,  rinner =    0.700

     atomic species   valence    mass     pseudopotential
        O0             6.00    15.99940     O ( 1.00)
        Re1           15.00   186.20700     Re( 1.00)
        H2             1.00     1.00794     H ( 1.00)

     Simplified LDA+U calculation (l_max = 2) with parameters (eV):
     atomic species    L          U    alpha       J0     beta
        Re1            2     5.5000   0.0000   0.0000   0.0000

     No symmetry found

   Cartesian axes

     site n.     atom                  positions (alat units)
         1           O0  tau(   1) = (   0.0000000   0.0000000   1.8688176  )
         2           O0  tau(   2) = (   0.0000000   0.6530184   1.9243296  )
         3           Re1 tau(   3) = (   0.2500000   0.6530184   2.2228951  )
         4           Re1 tau(   4) = (   0.0000000   0.0000000   2.2352367  )
         5           O0  tau(   5) = (   0.2500000   1.0187087   2.2249100  )
         6           O0  tau(   6) = (   0.2500000   0.2873281   2.2250611  )
         7           O0  tau(   7) = (   0.0000000   0.6530184   2.5071041  )
         8           O0  tau(   8) = (   0.0000000   0.0000000   2.5966183  )
         9           Re1 tau(   9) = (   0.2500000   0.0000000   2.8989619  )
        10           Re1 tau(  10) = (   0.0000000   0.6530184   2.8608793  )
        11           O0  tau(  11) = (   0.2500000   0.9403465   2.8908013  )
        12           O0  tau(  12) = (   0.2500000   0.3656903   2.8907005  )
        13           O0  tau(  13) = (   0.0000000   0.0000000   3.1620138  )
        14           O0  tau(  14) = (   0.5000000   0.0000000   1.8688176  )
        15           O0  tau(  15) = (   0.5000000   0.6530184   1.9243296  )
        16           Re1 tau(  16) = (   0.7500000   0.6530184   2.2228951  )
        17           Re1 tau(  17) = (   0.5000000   0.0000000   2.2352367  )
        18           O0  tau(  18) = (   0.7500000   1.0187087   2.2249604  )
        19           O0  tau(  19) = (   0.7500000   0.2873281   2.2250611  )
        20           O0  tau(  20) = (   0.5000000   0.6530184   2.5071041  )
        21           O0  tau(  21) = (   0.5000000   0.0000000   2.5966183  )
        22           Re1 tau(  22) = (   0.7500000   0.0000000   2.8989619  )
        23           Re1 tau(  23) = (   0.5000000   0.6530184   2.8609296  )
        24           O0  tau(  24) = (   0.7500000   0.9403465   2.8908013  )
        25           O0  tau(  25) = (   0.7500000   0.3656903   2.8907005  )
        26           O0  tau(  26) = (   0.5000000   0.0000000   3.1620138  )
        27           H2  tau(  27) = (  -0.0003800   0.8172395   1.8403061  )
        28           H2  tau(  28) = (   0.4996200   0.8172395   1.8403061  )
        29           H2  tau(  29) = (   0.1698700   0.0284977   1.7974380  )
        30           H2  tau(  30) = (   0.6698800   0.0284977   1.7974380  )

     number of k points=    10  Methfessel-Paxton smearing, width (Ry)=  0.0100
                       cart. coord. in units 2pi/alat
        k(    1) = (   0.0000000   0.0000000   0.0000000), wk =   0.1250000
        k(    2) = (   0.0000000   0.1914188   0.0000000), wk =   0.2500000
        k(    3) = (   0.0000000  -0.3828376   0.0000000), wk =   0.1250000
        k(    4) = (   0.2500000   0.0000000   0.0000000), wk =   0.2500000
        k(    5) = (   0.2500000   0.1914188   0.0000000), wk =   0.2500000
        k(    6) = (   0.2500000  -0.3828376   0.0000000), wk =   0.2500000
        k(    7) = (  -0.5000000   0.0000000   0.0000000), wk =   0.1250000
        k(    8) = (  -0.5000000   0.1914188   0.0000000), wk =   0.2500000
        k(    9) = (  -0.5000000  -0.3828376   0.0000000), wk =   0.1250000
        k(   10) = (  -0.2500000   0.1914188   0.0000000), wk =   0.2500000

     Largest allocated arrays     est. size (Mb)     dimensions
     Largest temporary arrays     est. size (Mb)     dimensions

     Check: negative/imaginary core charge=   -0.000003    0.000000

     Initial potential from superposition of free atoms
     Check: negative starting charge=   -0.237311

     starting charge  227.99958, renormalised to  232.00000

     negative rho (up, down):  0.241E+00 0.000E+00
     Number of +U iterations with fixed ns =  0
     Starting occupations:
 --- enter write_ns ---
 LDA+U parameters:
U( 2)     =  5.50000000
alpha( 2) =  0.00000000
atom    3   Tr[ns(na)] =   5.00000
    eigenvalues:
  0.500  0.500  0.500  0.500  0.500
    eigenvectors:
  1.000  0.000  0.000  0.000  0.000
  0.000  1.000  0.000  0.000  0.000
  0.000  0.000  1.000  0.000  0.000
  0.000  0.000  0.000  1.000  0.000
  0.000  0.000  0.000  0.000  1.000
    occupations:
  0.500  0.000  0.000  0.000  0.000
  0.000  0.500  0.000  0.000  0.000
  0.000  0.000  0.500  0.000  0.000
  0.000  0.000  0.000  0.500  0.000
  0.000  0.000  0.000  0.000  0.500
atom    4   Tr[ns(na)] =   5.00000
    eigenvalues:
  0.500  0.500  0.500  0.500  0.500
    eigenvectors:
  1.000  0.000  0.000  0.000  0.000
  0.000  1.000  0.000  0.000  0.000
  0.000  0.000  1.000  0.000  0.000
  0.000  0.000  0.000  1.000  0.000
  0.000  0.000  0.000  0.000  1.000
    occupations:
  0.500  0.000  0.000  0.000  0.000
  0.000  0.500  0.000  0.000  0.000
  0.000  0.000  0.500  0.000  0.000
  0.000  0.000  0.000  0.500  0.000
  0.000  0.000  0.000  0.000  0.500
atom    9   Tr[ns(na)] =   5.00000
    eigenvalues:
  0.500  0.500  0.500  0.500  0.500
    eigenvectors:
  1.000  0.000  0.000  0.000  0.000
  0.000  1.000  0.000  0.000  0.000
  0.000  0.000  1.000  0.000  0.000
  0.000  0.000  0.000  1.000  0.000
  0.000  0.000  0.000  0.000  1.000
    occupations:
  0.500  0.000  0.000  0.000  0.000
  0.000  0.500  0.000  0.000  0.000
  0.000  0.000  0.500  0.000  0.000
  0.000  0.000  0.000  0.500  0.000
  0.000  0.000  0.000  0.000  0.500
atom   10   Tr[ns(na)] =   5.00000
    eigenvalues:
  0.500  0.500  0.500  0.500  0.500
    eigenvectors:
  1.000  0.000  0.000  0.000  0.000
  0.000  1.000  0.000  0.000  0.000
  0.000  0.000  1.000  0.000  0.000
  0.000  0.000  0.000  1.000  0.000
  0.000  0.000  0.000  0.000  1.000
    occupations:
  0.500  0.000  0.000  0.000  0.000
  0.000  0.500  0.000  0.000  0.000
  0.000  0.000  0.500  0.000  0.000
  0.000  0.000  0.000  0.500  0.000
  0.000  0.000  0.000  0.000  0.500
atom   16   Tr[ns(na)] =   5.00000
    eigenvalues:
  0.500  0.500  0.500  0.500  0.500
    eigenvectors:
  1.000  0.000  0.000  0.000  0.000
  0.000  1.000  0.000  0.000  0.000
  0.000  0.000  1.000  0.000  0.000
  0.000  0.000  0.000  1.000  0.000
  0.000  0.000  0.000  0.000  1.000
    occupations:
  0.500  0.000  0.000  0.000  0.000
  0.000  0.500  0.000  0.000  0.000
  0.000  0.000  0.500  0.000  0.000
  0.000  0.000  0.000  0.500  0.000
  0.000  0.000  0.000  0.000  0.500
atom   17   Tr[ns(na)] =   5.00000
    eigenvalues:
  0.500  0.500  0.500  0.500  0.500
    eigenvectors:
  1.000  0.000  0.000  0.000  0.000
  0.000  1.000  0.000  0.000  0.000
  0.000  0.000  1.000  0.000  0.000
  0.000  0.000  0.000  1.000  0.000
  0.000  0.000  0.000  0.000  1.000
    occupations:
  0.500  0.000  0.000  0.000  0.000
  0.000  0.500  0.000  0.000  0.000
  0.000  0.000  0.500  0.000  0.000
  0.000  0.000  0.000  0.500  0.000
  0.000  0.000  0.000  0.000  0.500
atom   22   Tr[ns(na)] =   5.00000
    eigenvalues:
  0.500  0.500  0.500  0.500  0.500
    eigenvectors:
  1.000  0.000  0.000  0.000  0.000
  0.000  1.000  0.000  0.000  0.000
  0.000  0.000  1.000  0.000  0.000
  0.000  0.000  0.000  1.000  0.000
  0.000  0.000  0.000  0.000  1.000
    occupations:
[...]
  0.001  0.014  0.598  0.001 -0.000
 -0.017 -0.000  0.001  0.790 -0.000
  0.001 -0.002 -0.000 -0.000  0.570
atom    9   Tr[ns(na)] =   6.59706
    eigenvalues:
  0.556  0.589  0.603  0.768  0.783
    eigenvectors:
  0.000  0.226  0.000  0.757  0.017
  0.000  0.000  1.000  0.000  0.000
  1.000  0.000  0.000  0.000  0.000
  0.000  0.774  0.000  0.221  0.005
  0.000  0.000  0.000  0.022  0.978
    occupations:
  0.727  0.000 -0.002 -0.075  0.002
  0.000  0.603  0.000  0.000  0.000
 -0.002  0.000  0.556  0.001 -0.000
 -0.075  0.000  0.001  0.629 -0.001
  0.002  0.000 -0.000 -0.001  0.782
atom   10   Tr[ns(na)] =   6.53672
    eigenvalues:
  0.465  0.534  0.552  0.778  0.940
    eigenvectors:
  1.000  0.000  0.000  0.000  0.000
  0.000  0.000  0.000  0.000  1.000
  0.000  0.000  1.000  0.000  0.000
  0.000  0.000  0.000  1.000  0.000
  0.000  1.000  0.000  0.000  0.000
    occupations:
  0.465  0.000 -0.001 -0.000  0.000
  0.000  0.940  0.001 -0.000  0.001
 -0.001  0.001  0.552  0.000  0.000
 -0.000 -0.000  0.000  0.778 -0.000
  0.000  0.001  0.000 -0.000  0.534
atom   16   Tr[ns(na)] =   6.63734
    eigenvalues:
  0.535  0.565  0.596  0.772  0.851
    eigenvectors:
  0.000  0.336  0.001  0.663  0.000
  0.999  0.000  0.000  0.000  0.001
  0.000  0.006  0.985  0.009  0.000
  0.000  0.658  0.014  0.328  0.000
  0.001  0.000  0.000  0.000  0.999
    occupations:
  0.702  0.000  0.015 -0.097  0.000
  0.000  0.535 -0.000 -0.000 -0.008
  0.015 -0.000  0.598 -0.008  0.000
 -0.097 -0.000 -0.008  0.633  0.000
  0.000 -0.008  0.000  0.000  0.850
atom   17   Tr[ns(na)] =   6.60586
    eigenvalues:
  0.569  0.597  0.611  0.735  0.791
    eigenvectors:
  0.000  0.001  0.989  0.001  0.009
  0.000  0.010  0.001  0.989  0.000
  0.000  0.989  0.001  0.010  0.000
  0.000  0.000  0.009  0.000  0.990
  0.999  0.000  0.000  0.000  0.000
    occupations:
  0.613  0.003  0.001 -0.017  0.001
  0.003  0.733  0.014 -0.000 -0.002
  0.001  0.014  0.598  0.001 -0.000
 -0.017 -0.000  0.001  0.790 -0.000
  0.001 -0.002 -0.000 -0.000  0.570
atom   22   Tr[ns(na)] =   6.59734
    eigenvalues:
  0.556  0.589  0.603  0.768  0.783
    eigenvectors:
  0.000  0.226  0.000  0.757  0.017
  0.000  0.000  1.000  0.000  0.000
  1.000  0.000  0.000  0.000  0.000
  0.000  0.774  0.000  0.221  0.005
  0.000  0.000  0.000  0.022  0.978
    occupations:
  0.727  0.000 -0.002 -0.075  0.002
  0.000  0.603  0.000  0.000  0.000
 -0.002  0.000  0.556  0.001 -0.000
 -0.075  0.000  0.001  0.629 -0.001
  0.002  0.000 -0.000 -0.001  0.782
atom   23   Tr[ns(na)] =   6.53682
    eigenvalues:
  0.465  0.534  0.552  0.778  0.940
    eigenvectors:
  1.000  0.000  0.000  0.000  0.000
  0.000  0.000  0.000  0.000  1.000
  0.000  0.000  1.000  0.000  0.000
  0.000  0.000  0.000  1.000  0.000
  0.000  1.000  0.000  0.000  0.000
    occupations:
  0.465  0.000 -0.001 -0.000  0.000
  0.000  0.940  0.001 -0.000  0.001
 -0.001  0.001  0.552  0.000  0.000
 -0.000 -0.000  0.000  0.778 -0.000
  0.000  0.001  0.000 -0.000  0.534
N of occupied +U levels =  52.7542750
 --- exit write_ns ---

     Threshold (ethr) on eigenvalues was too large:
     Diagonalizing with lowered threshold

     Davidson diagonalization with overlap
     ethr =  2.46E-08,  avg # of iterations =  2.0

[...]

     total energy              =   -2139.55781011 Ry
     Harris-Foulkes estimate   =   -2139.55781012 Ry
     estimated scf accuracy    <       0.00000002 Ry

     iteration # 14     ecut=    40.00 Ry     beta=0.70
     Davidson diagonalization with overlap
     ethr =  9.12E-12,  avg # of iterations =  1.0

     negative rho (up, down):  0.234E+00 0.000E+00

     End of self-consistent calculation
 --- enter write_ns ---
 LDA+U parameters:
U( 2)     =  5.50000000
alpha( 2) =  0.00000000
atom    3   Tr[ns(na)] =   6.63580
    eigenvalues:
  0.535  0.565  0.596  0.772  0.851
    eigenvectors:
  0.000  0.336  0.001  0.663  0.000
  0.999  0.000  0.000  0.000  0.001
  0.000  0.007  0.984  0.009  0.000
  0.000  0.657  0.015  0.328  0.000
  0.001  0.000  0.000  0.000  0.999
    occupations:
  0.702  0.000  0.015 -0.097  0.000
  0.000  0.535 -0.000 -0.000 -0.008
  0.015 -0.000  0.597 -0.008  0.000
 -0.097 -0.000 -0.008  0.633  0.000
  0.000 -0.008  0.000  0.000  0.850
atom    4   Tr[ns(na)] =   6.60477
    eigenvalues:
  0.569  0.596  0.611  0.734  0.791
    eigenvectors:
  0.000  0.001  0.989  0.001  0.009
  0.000  0.010  0.001  0.989  0.000
  0.000  0.989  0.000  0.010  0.000
  0.000  0.000  0.009  0.000  0.990
  0.999  0.000  0.000  0.000  0.000
    occupations:
  0.613  0.003  0.001 -0.017  0.001
  0.003  0.733  0.014 -0.000 -0.002
  0.001  0.014  0.598  0.001 -0.000
 -0.017 -0.000  0.001  0.790 -0.000
  0.001 -0.002 -0.000 -0.000  0.570
atom    9   Tr[ns(na)] =   6.59734
    eigenvalues:
  0.556  0.589  0.603  0.768  0.783
    eigenvectors:
  0.000  0.226  0.000  0.758  0.016
  0.000  0.000  1.000  0.000  0.000
  1.000  0.000  0.000  0.000  0.000
  0.000  0.774  0.000  0.221  0.005
  0.000  0.000  0.000  0.021  0.979
    occupations:
  0.727  0.000 -0.002 -0.075  0.002
  0.000  0.603  0.000  0.000  0.000
 -0.002  0.000  0.556  0.001 -0.000
 -0.075  0.000  0.001  0.629 -0.001
  0.002  0.000 -0.000 -0.001  0.783
atom   10   Tr[ns(na)] =   6.53981
    eigenvalues:
  0.465  0.534  0.553  0.778  0.940
    eigenvectors:
  1.000  0.000  0.000  0.000  0.000
  0.000  0.000  0.000  0.000  1.000
  0.000  0.000  1.000  0.000  0.000
  0.000  0.000  0.000  1.000  0.000
  0.000  1.000  0.000  0.000  0.000
    occupations:
  0.465  0.000 -0.001 -0.000  0.000
  0.000  0.940  0.001 -0.000  0.001
 -0.001  0.001  0.553  0.000  0.000
 -0.000 -0.000  0.000  0.778 -0.000
  0.000  0.001  0.000 -0.000  0.534
atom   16   Tr[ns(na)] =   6.63581
    eigenvalues:
  0.535  0.565  0.596  0.772  0.851
    eigenvectors:
  0.000  0.336  0.001  0.663  0.000
  0.999  0.000  0.000  0.000  0.001
  0.000  0.007  0.984  0.009  0.000
  0.000  0.657  0.015  0.328  0.000
  0.001  0.000  0.000  0.000  0.999
    occupations:
  0.702  0.000  0.015 -0.097  0.000
  0.000  0.535 -0.000 -0.000 -0.008
  0.015 -0.000  0.597 -0.008  0.000
 -0.097 -0.000 -0.008  0.633  0.000
  0.000 -0.008  0.000  0.000  0.850
atom   17   Tr[ns(na)] =   6.60476
    eigenvalues:
  0.569  0.596  0.611  0.734  0.791
    eigenvectors:
  0.000  0.001  0.989  0.001  0.009
  0.000  0.010  0.001  0.989  0.000
  0.000  0.989  0.000  0.010  0.000
  0.000  0.000  0.009  0.000  0.990
  0.999  0.000  0.000  0.000  0.000
    occupations:
  0.613  0.003  0.001 -0.017  0.001
  0.003  0.733  0.014 -0.000 -0.002
  0.001  0.014  0.598  0.001 -0.000
 -0.017 -0.000  0.001  0.790 -0.000
  0.001 -0.002 -0.000 -0.000  0.570
atom   22   Tr[ns(na)] =   6.59734
    eigenvalues:
  0.556  0.589  0.603  0.768  0.783
    eigenvectors:
  0.000  0.226  0.000  0.758  0.016
  0.000  0.000  1.000  0.000  0.000
  1.000  0.000  0.000  0.000  0.000
  0.000  0.774  0.000  0.221  0.005
  0.000  0.000  0.000  0.021  0.979
    occupations:
  0.727  0.000 -0.002 -0.075  0.002
  0.000  0.603  0.000  0.000  0.000
 -0.002  0.000  0.556  0.001 -0.000
 -0.075  0.000  0.001  0.629 -0.001
  0.002  0.000 -0.000 -0.001  0.783
atom   23   Tr[ns(na)] =   6.53980
    eigenvalues:
  0.465  0.534  0.553  0.778  0.940
    eigenvectors:
  1.000  0.000  0.000  0.000  0.000
  0.000  0.000  0.000  0.000  1.000
  0.000  0.000  1.000  0.000  0.000
  0.000  0.000  0.000  1.000  0.000
  0.000  1.000  0.000  0.000  0.000
    occupations:
  0.465  0.000 -0.001 -0.000  0.000
  0.000  0.940  0.001 -0.000  0.001
 -0.001  0.001  0.553  0.000  0.000
 -0.000 -0.000  0.000  0.778 -0.000
  0.000  0.001  0.000 -0.000  0.534
N of occupied +U levels =  52.7554244
 --- exit write_ns ---

[...]

          k = 0.2500-0.3828 0.0000 ( 29202 PWs)   bands (ev):

[...]

          k =-0.2500 0.1914 0.0000 ( 29229 PWs)   bands (ev):

   -80.9238 -80.8850 -80.6306 -80.5910 -80.3372 -80.3083 -80.2994 -80.2698
   -43.0055 -42.9011 -42.8836 -42.8380 -42.7773 -42.6908 -42.6744 -42.6068
   -42.5985 -42.5497 -42.4940 -42.4915 -42.4541 -42.3889 -42.3829 -42.3811
   -42.3517 -42.3178 -42.2454 -42.2255 -42.1630 -42.0540 -41.7194 -41.6190
   -20.8140 -20.3724 -20.3484 -20.2420 -20.0983 -19.9877 -19.8990 -19.8325
   -19.7879 -19.6825 -19.4931 -19.3834 -19.3608 -19.1361 -19.1139 -18.9919
   -18.2995 -18.1140  -9.1099  -9.0660  -8.8912  -8.8125  -8.7239  -8.6871
    -8.5506  -8.2623  -8.1833  -8.0245  -8.0038  -7.9057  -7.7516  -7.4286
    -7.4010  -7.1385  -6.8841  -6.7570  -6.6707  -6.6460  -6.5529  -6.2837
    -6.2404  -6.0643  -5.8469  -5.8268  -5.6559  -5.6215  -5.5567  -5.3696
    -5.2578  -5.0732  -4.9680  -4.9085  -4.8974  -4.8238  -4.7295  -4.6992
    -4.6672  -4.6132  -4.2436  -4.0987  -4.0218  -3.8796  -3.8138  -3.7038
    -3.6954  -3.4474  -3.3818  -3.2647  -3.1832  -2.9463  -2.8681  -2.7268
    -2.4838  -2.4165  -2.2409  -1.7152  -1.4288  -1.1877  -1.0867  -0.5479
    -0.3304  -0.0598   0.0859   0.3956   0.4200   0.6942   0.7442   1.1196
     1.2699   1.2868   1.3676   1.4849   1.5799   1.6827   1.7408   1.8686
     2.4341   2.5002   3.7055   3.7894   3.8899   3.9793   4.1186   4.3606
     4.6003   4.6318   4.7942   4.9261   4.9415   4.9824   5.2266   5.4201
     5.7849   5.9491   5.9960   6.2442   6.2589   6.5375   6.7045   6.7115
     6.8455   6.9842   7.2570   7.3664   7.4175   7.6813   7.7721   7.9987
     8.1413   8.3057   8.3559   8.4709   8.5984   8.6384   8.7889   8.8866
     9.1013   9.3372   9.3909   9.4254   9.5994   9.6930   9.7637   9.7758
     9.8426   9.9376   9.9598  10.1648  10.1662  10.3069  10.3119  10.4527
    10.4720  10.6484  10.7625  10.7904  10.9262  11.0535  11.0610  11.2467
    11.3984  11.4511  11.4829  11.7061  11.7932  11.9143  11.9649  12.0894
    12.3084  12.4450  12.4996  12.5166  12.6452  12.7026  12.7070  12.8413
    12.8469  12.9604  13.0456  13.1949  13.2282  13.3239  13.4993  13.5763
    13.6161  13.6708  13.7924  13.8137  13.9063  13.9166  13.9737  14.0576
    14.1355  14.2445  14.2872  14.3441  14.4171  14.5355  14.5639  14.6031
    14.7747  14.7787  14.8180  14.8697  14.8841  14.9501  15.0258  15.0389
    15.1139  15.2353  15.3144  15.3932  15.5061  15.5649  15.6555  15.7201
    15.8893  15.9545  16.1023  16.1223  16.1813  16.2273  16.2809  16.4232
    16.5244  16.5723  16.6322  16.6968  16.7863  16.8610  16.8851  17.0185
    17.1161  17.1223  17.2090  17.3314  17.3431  17.4930  17.5466  17.6607
    17.7133  17.7384  17.7830  17.9035  17.9910  18.0495  18.1506  18.1973
    18.2411  18.3301  18.3418  18.4146  18.5338  18.5728  18.6651  18.6840
    18.7874  18.8922  18.8963  18.9823  19.0794  19.0876  19.1936  19.3287
    19.4707  19.5288  19.5962  19.6570  19.8116  19.9478  19.9768  20.0072
    20.0949  20.1757  20.2461  20.2618  20.4785  20.5120  20.5419  20.6202
    20.6632  20.7779  20.7789  20.8249  20.8781  20.9030  20.9691  21.0427
    21.1416  21.1872  21.2708  21.3132  21.4388  21.4511  21.5251  21.5356
    21.6589  21.6620  21.7605  21.8404  21.9191  21.9604  22.1056  22.1434
    22.1934  22.2522  22.2775  22.3358  22.3580  22.4359  22.4738  22.5437
    22.5456  22.6158  22.6276  22.7191

     the Fermi energy is     0.3081 ev

!    total energy              =   -2139.55781011 Ry
     Harris-Foulkes estimate   =   -2139.55781011 Ry
     estimated scf accuracy    <          9.4E-10 Ry

     The total energy is the sum of the following terms:

     one-electron contribution =  -23555.91479685 Ry
     hartree contribution      =   11794.62160880 Ry
     xc contribution           =    -587.35977858 Ry
     ewald contribution        =   10205.72034273 Ry
     Hubbard energy            =       3.37369392 Ry
     smearing contrib. (-TS)   =       0.00111987 Ry

     convergence has been achieved in  14 iterations

     Forces acting on atoms (Ry/au):

     negative rho (up, down):  0.234E+00 0.000E+00
     atom    1 type  1   force =    -0.00389639   -0.00612127   -0.00019214
     atom    2 type  1   force =     0.00000738    0.00488510    0.00015545
     atom    3 type  2   force =    -0.00033563   -0.00219810    0.00021916
     atom    4 type  2   force =     0.00138275    0.00637320    0.00011665
     atom    5 type  1   force =     0.00176692    0.00818156   -0.00006697
     atom    6 type  1   force =     0.00014011   -0.00857720   -0.00026201
     atom    7 type  1   force =     0.00011935   -0.00142077    0.00029488
     atom    8 type  1   force =     0.00255618   -0.00106232    0.00086262
     atom    9 type  2   force =    -0.00162874    0.00050735    0.00022525
     atom   10 type  2   force =     0.00000976   -0.00097656   -0.00064294
     atom   11 type  1   force =     0.00024943   -0.00757442    0.00011174
     atom   12 type  1   force =    -0.00025382    0.00793884    0.00007980
     atom   13 type  1   force =    -0.00030349    0.00017072    0.00005749
     atom   14 type  1   force =    -0.00387911   -0.00611943   -0.00019831
     atom   15 type  1   force =     0.00000964    0.00488194    0.00015546
     atom   16 type  2   force =    -0.00035195   -0.00219704    0.00021627
     atom   17 type  2   force =     0.00138239    0.00637302    0.00011741
     atom   18 type  1   force =     0.00175796    0.00818089   -0.00007804
     atom   19 type  1   force =     0.00013055   -0.00857846   -0.00026182
     atom   20 type  1   force =     0.00011660   -0.00142020    0.00028640
     atom   21 type  1   force =     0.00255673   -0.00106303    0.00086592
     atom   22 type  2   force =    -0.00162598    0.00050685    0.00022612
     atom   23 type  2   force =     0.00000951   -0.00097660   -0.00066205
     atom   24 type  1   force =     0.00024110   -0.00757411    0.00011106
     atom   25 type  1   force =    -0.00026024    0.00793853    0.00007831
     atom   26 type  1   force =    -0.00030178    0.00017146    0.00005910
     atom   27 type  3   force =     0.00000795   -0.00031139   -0.00027721
     atom   28 type  3   force =     0.00000767   -0.00031453   -0.00027538
     atom   29 type  3   force =     0.00019482    0.00018804   -0.00066217
     atom   30 type  3   force =     0.00019035    0.00018795   -0.00066003

     Total force =     0.002103     Total SCF correction =     0.000163

     bfgs converged in  14 scf cycles and  13 bfgs steps
     (criteria: energy < 0.10E-03, force < 0.10E-02)

     End of BFGS Geometry Optimization

     Final energy   =   -2139.5578101141 Ry
Begin final coordinates

ATOMIC_POSITIONS (crystal)
O0       0.000000000   0.000000000   0.372443182    0   0   1
O0       0.000000000   0.500000000   0.381655038    0   0   1
Re1      0.250000000   0.500000000   0.440833787    0   0   1
Re1      0.000000000   0.000000000   0.444570247    0   0   1
O0       0.250000000   0.780000000   0.442409612    0   0   1
O0       0.250000000   0.220000000   0.442273773    0   0   1
O0       0.000000000   0.500000000   0.496858750    0   0   1
O0       0.000000000   0.000000000   0.515505342    0   0   1
Re1      0.250000000   0.000000000   0.575838855    0   0   1
Re1      0.000000000   0.500000000   0.566356367    0   0   1
O0       0.250000000   0.720000000   0.573170079    0   0   1
O0       0.250000000   0.280000000   0.573185716    0   0   1
O0       0.000000000   0.000000000   0.628005718    0   0   1
O0       0.500000000   0.000000000   0.372443466    0   0   1
O0       0.500000000   0.500000000   0.381655282    0   0   1
Re1      0.750000000   0.500000000   0.440834073    0   0   1
Re1      0.500000000   0.000000000   0.444570213    0   0   1
O0       0.750000000   0.780000000   0.442411341    0   0   1
O0       0.750000000   0.220000000   0.442273750    0   0   1
O0       0.500000000   0.500000000   0.496860072    0   0   1
O0       0.500000000   0.000000000   0.515504987    0   0   1
Re1      0.750000000   0.000000000   0.575838892    0   0   1
Re1      0.500000000   0.500000000   0.566358031    0   0   1
O0       0.750000000   0.720000000   0.573170290    0   0   1
O0       0.750000000   0.280000000   0.573185981    0   0   1
O0       0.500000000   0.000000000   0.628005764    0   0   1
H2      -0.000428208   0.623910500   0.364305101
H2       0.499572245   0.623909790   0.364304886
H2       0.169546139   0.022663252   0.358165628
H2       0.669547213   0.022661732   0.358165779
End final coordinates

     General routines

     Parallel routines
     Hubbard U routines

   This run was terminated on:   2: 1:56  10May2014

   JOB DONE.
Running PBS batch system epilogue script
Job id: 340870.audhumbla.fysik.dtu.dk
Username: zhonxu
Groupname: campgst
Jobname: ReO2/Eads-2-layers/bare-U-5.5
Sessionid: 32740
Queuename: verylong
Accounting:
This job has allocated the following 16 nodes:
b036 b036 b036 b036 b036 b036 b036 b036 b032 b032 b032 b032 b032 b032 b032 b032
Finished epilogue job 340870.audhumbla.fysik.dtu.dk for zhonxu