     Program PWSCF v.5.0.2 (svn rev. 9656) starts on 24Jan2014 at 10:35:22

     Current dimensions of program PWSCF are:
     Max number of different atomic species (ntypx) = 10
     Max number of k-points (npk) =  40000
     Max angular momentum in pseudopotentials (lmaxx) =  3
     Reading input from MoO2-v-0.90.in

     Subspace diagonalization in iterative solution of the eigenvalue problem:
     a serial algorithm will be used

     bravais-lattice index     =            0
     lattice parameter (alat)  =       8.5383  a.u.
     unit-cell volume          =     401.1426 (a.u.)^3
     number of atoms/cell      =            6
     number of atomic types    =            2
     number of electrons       =        52.00
     number of Kohn-Sham states=           78
     kinetic-energy cutoff     =      40.0000  Ry
     charge density cutoff     =     500.0000  Ry
     convergence threshold     =      1.0E-06
     mixing beta               =       0.3000
     number of iterations used =            8  plain     mixing
     Exchange-correlation      = SLA  PW   PBE  PBE ( 1 4 3 4 0)
     EXX-fraction              =        0.00
     nstep                     =           50

     celldm(1)=   8.538294  celldm(2)=   0.000000  celldm(3)=   0.000000
     celldm(4)=   0.000000  celldm(5)=   0.000000  celldm(6)=   0.000000

     crystal axes: (cart. coord. in units of alat)
               a(1) = (   1.000000   0.000000   0.000000 )
               a(2) = (   0.000000   1.000000   0.000000 )
               a(3) = (   0.000000   0.000000   0.644444 )

     reciprocal axes: (cart. coord. in units 2 pi/alat)
               b(1) = (  1.000000  0.000000  0.000000 )
               b(2) = (  0.000000  1.000000  0.000000 )
               b(3) = (  0.000000  0.000000  1.551724 )

     PseudoPot. # 1 for Mo read from file:
     /home/camp/zhonxu/pseudo/mo_pbe_v1.uspp.F.UPF
     MD5 check sum: 30c4dcd161f5d35cd49bb5239c51a633
     Pseudo is Ultrasoft + core correction, Zval = 14.0
     Generated by new atomic code, or converted to UPF format
     Using radial grid of  889 points,  6 beta functions with:
                l(1) =   0
                l(2) =   0
                l(3) =   1
                l(4) =   1
                l(5) =   2
                l(6) =   2
     Q(r) pseudized with  6 coefficients,  rinner =    1.000   1.000   1.000
                                                       1.000   1.000

     PseudoPot. # 2 for O  read from file:
     /home/camp/zhonxu/pseudo/o_pbe_v1.01.uspp.F.UPF
     MD5 check sum: 2bcb18d16ea4b960afae9ec6d52f22d2
     Pseudo is Ultrasoft + core correction, Zval =  6.0
     Generated by new atomic code, or converted to UPF format
     Using radial grid of  737 points,  5 beta functions with:
                l(1) =   0
                l(2) =   0
                l(3) =   1
                l(4) =   1
                l(5) =   2
     Q(r) pseudized with  8 coefficients,  rinner =    0.900   0.900   0.900
                                                       0.900   0.900

     atomic species   valence    mass     pseudopotential
        Mo0           14.00    95.94000     Mo( 1.00)
        O1             6.00    15.99940     O ( 1.00)

     Starting magnetic structure
     atomic species   magnetization
        Mo0          0.600
        O1           0.000

     16 Sym. Ops., with inversion, found ( 8 have fractional translation)

   Cartesian axes

     site n.     atom                  positions (alat units)
         1           Mo0 tau(   1) = (   0.0000000   0.0000000   0.0000000  )
         2           Mo0 tau(   2) = (   0.5000000   0.5000000   0.3222222  )
         3           O1  tau(   3) = (   0.3050000   0.3050000   0.0000000  )
         4           O1  tau(   4) = (  -0.3050000  -0.3050000   0.0000000  )
         5           O1  tau(   5) = (   0.8050000   0.1950000   0.3222222  )
         6           O1  tau(   6) = (   0.1950000   0.8050000   0.3222222  )

     number of k points=    36  Methfessel-Paxton smearing, width (Ry)=  0.0100
                       cart. coord. in units 2pi/alat
        k(    1) = (   0.0000000   0.0000000   0.0000000), wk =   0.0080000
        k(    2) = (   0.0000000   0.0000000   0.3103448), wk =   0.0160000
        k(    3) = (   0.0000000   0.0000000   0.6206897), wk =   0.0160000
        k(    4) = (   0.0000000   0.2000000   0.0000000), wk =   0.0320000
        k(    5) = (   0.0000000   0.2000000   0.3103448), wk =   0.0640000
        k(    6) = (   0.0000000   0.2000000   0.6206897), wk =   0.0640000
        k(    7) = (   0.0000000   0.4000000   0.0000000), wk =   0.0320000
        k(    8) = (   0.0000000   0.4000000   0.3103448), wk =   0.0640000
        k(    9) = (   0.0000000   0.4000000   0.6206897), wk =   0.0640000
        k(   10) = (   0.2000000   0.2000000   0.0000000), wk =   0.0320000
        k(   11) = (   0.2000000   0.2000000   0.3103448), wk =   0.0640000
        k(   12) = (   0.2000000   0.2000000   0.6206897), wk =   0.0640000
        k(   13) = (   0.2000000   0.4000000   0.0000000), wk =   0.0640000
        k(   14) = (   0.2000000   0.4000000   0.3103448), wk =   0.1280000
        k(   15) = (   0.2000000   0.4000000   0.6206897), wk =   0.1280000
        k(   16) = (   0.4000000   0.4000000   0.0000000), wk =   0.0320000
        k(   17) = (   0.4000000   0.4000000   0.3103448), wk =   0.0640000
        k(   18) = (   0.4000000   0.4000000   0.6206897), wk =   0.0640000
        k(   19) = (   0.0000000   0.0000000   0.0000000), wk =   0.0080000
        k(   20) = (   0.0000000   0.0000000   0.3103448), wk =   0.0160000
        k(   21) = (   0.0000000   0.0000000   0.6206897), wk =   0.0160000
        k(   22) = (   0.0000000   0.2000000   0.0000000), wk =   0.0320000
        k(   23) = (   0.0000000   0.2000000   0.3103448), wk =   0.0640000
        k(   24) = (   0.0000000   0.2000000   0.6206897), wk =   0.0640000
        k(   25) = (   0.0000000   0.4000000   0.0000000), wk =   0.0320000
        k(   26) = (   0.0000000   0.4000000   0.3103448), wk =   0.0640000
        k(   27) = (   0.0000000   0.4000000   0.6206897), wk =   0.0640000
        k(   28) = (   0.2000000   0.2000000   0.0000000), wk =   0.0320000
        k(   29) = (   0.2000000   0.2000000   0.3103448), wk =   0.0640000
        k(   30) = (   0.2000000   0.2000000   0.6206897), wk =   0.0640000
        k(   31) = (   0.2000000   0.4000000   0.0000000), wk =   0.0640000
        k(   32) = (   0.2000000   0.4000000   0.3103448), wk =   0.1280000
        k(   33) = (   0.2000000   0.4000000   0.6206897), wk =   0.1280000
        k(   34) = (   0.4000000   0.4000000   0.0000000), wk =   0.0320000
        k(   35) = (   0.4000000   0.4000000   0.3103448), wk =   0.0640000
        k(   36) = (   0.4000000   0.4000000   0.6206897), wk =   0.0640000

     Largest allocated arrays     est. size (Mb)     dimensions
     Largest temporary arrays     est. size (Mb)     dimensions

     Check: negative/imaginary core charge=   -0.000008    0.000000

     Initial potential from superposition of free atoms

     starting charge   51.99787, renormalised to   52.00000
     Starting wfc are   42 randomized atomic wfcs

     Self-consistent Calculation

     iteration #  1     ecut=    40.00 Ry     beta=0.30
     Davidson diagonalization with overlap
     ethr =  1.00E-02,  avg # of iterations =  5.1

     negative rho (up, down):  0.000E+00 0.182E-03

     total energy              =    -406.82216880 Ry
     Harris-Foulkes estimate   =    -406.99947981 Ry
     estimated scf accuracy    <       2.44565315 Ry

     total magnetization       =     4.00 Bohr mag/cell
     absolute magnetization    =     4.84 Bohr mag/cell

[...]

     End of self-consistent calculation

 ------ SPIN UP ------------

          k = 0.0000 0.0000 0.0000 (  1715 PWs)   bands (ev):

   -46.5511 -46.5226 -20.9116 -20.9116 -20.7285 -20.6568 -20.6065 -20.6065
    -5.8080  -5.0108  -3.3746  -3.3746   5.8211   6.0958   6.8854   7.7671
     7.7671  10.2519  10.2519  10.8531  11.8294  11.9431  11.9431  12.5866
    14.6121  15.0783  15.5660  15.5758  15.5758  19.2102  19.2605  20.9269
    22.3889  22.3889  23.9903  24.6658  24.6658  28.2533  30.4725  31.2117
    31.4746  31.9559  33.1207  33.1207  35.6956  35.8489  36.4208  36.4208
    37.2831  37.2831  38.5477  42.5634  42.5634  42.9525  43.1911  43.8507
    45.6452  46.4909  46.4909  46.9123  47.2121  47.2121  47.5194  47.6424
    49.1922  49.4846  49.4846  49.7612  51.5578  53.5559  54.2097  54.2097
    54.8599  55.1377  55.4075  55.4075  56.3725  56.5253

[...]

 ------ SPIN DOWN ----------

[...]

     the Fermi energy is    16.1140 ev

!    total energy              =    -407.67092419 Ry
     Harris-Foulkes estimate   =    -407.67092289 Ry
     estimated scf accuracy    <       0.00000052 Ry

     The total energy is the sum of the following terms:

     one-electron contribution =     -94.25323043 Ry
     hartree contribution      =      80.48512724 Ry
     xc contribution           =     -68.12611563 Ry
     ewald contribution        =    -325.77675580 Ry
     smearing contrib. (-TS)   =       0.00005042 Ry

[...]

     convergence has been achieved in  17 iterations

     Forces acting on atoms (Ry/au):

     negative rho (up, down):  0.000E+00 0.570E-04
     atom    1 type  1   force =     0.00000000    0.00000000    0.00000000
     atom    2 type  1   force =     0.00000000    0.00000000    0.00000000
     atom    3 type  2   force =    -0.06958485   -0.06958485   -0.00000000
     atom    4 type  2   force =     0.06958485    0.06958485   -0.00000000
     atom    5 type  2   force =    -0.06958485    0.06958485    0.00000000
     atom    6 type  2   force =     0.06958485   -0.06958485    0.00000000

     Total force =     0.196816     Total SCF correction =     0.001038

     entering subroutine stress ...

     negative rho (up, down):  0.000E+00 0.570E-04
          total   stress  (Ry/bohr**3)                   (kbar)     P=  482.93
   0.00328994   0.00000000   0.00000000        483.97      0.00      0.00
   0.00000000   0.00328994   0.00000000          0.00    483.97      0.00
   0.00000000   0.00000000   0.00326879          0.00      0.00    480.86

     Volume is kept fixed: isostatic pressure set to zero

     BFGS Geometry Optimization

     number of scf cycles    =   1
     number of bfgs steps    =   0

     enthalpy new            =    -407.6709241895 Ry

     new trust radius        =       0.0984078448 bohr
     new conv_thr            =       0.0000010000 Ry

     new unit-cell volume =    401.14260 a.u.^3 (    59.44320 Ang^3 )

CELL_PARAMETERS (alat=  8.53829393)
   1.000176301   0.000000000   0.000000000
   0.000000000   1.000176301   0.000000000
   0.000000000   0.000000000   0.644217272

ATOMIC_POSITIONS (crystal)
Mo0      0.000000000   0.000000000   0.000000000    0   0   0
Mo0      0.500000000   0.500000000   0.500000000    0   0   0
O1       0.296850262   0.296850262   0.000000000    1   1   0
O1      -0.296850262  -0.296850262   0.000000000    1   1   0
O1       0.796850262   0.203149738   0.500000000    1   1   0
O1       0.203149738   0.796850262   0.500000000    1   1   0

[...]
        k(   22) = (   0.0000000   0.1999647   0.0000000), wk =   0.0320000
        k(   23) = (   0.0000000   0.1999647   0.3104543), wk =   0.0640000
        k(   24) = (   0.0000000   0.1999647   0.6209085), wk =   0.0640000
        k(   25) = (   0.0000000   0.3999295   0.0000000), wk =   0.0320000
        k(   26) = (   0.0000000   0.3999295   0.3104543), wk =   0.0640000
        k(   27) = (   0.0000000   0.3999295   0.6209085), wk =   0.0640000
        k(   28) = (   0.1999647   0.1999647   0.0000000), wk =   0.0320000
        k(   29) = (   0.1999647   0.1999647   0.3104543), wk =   0.0640000
        k(   30) = (   0.1999647   0.1999647   0.6209085), wk =   0.0640000
        k(   31) = (   0.1999647   0.3999295   0.0000000), wk =   0.0640000
        k(   32) = (   0.1999647   0.3999295   0.3104543), wk =   0.1280000
        k(   33) = (   0.1999647   0.3999295   0.6209085), wk =   0.1280000
        k(   34) = (   0.3999295   0.3999295   0.0000000), wk =   0.0320000
        k(   35) = (   0.3999295   0.3999295   0.3104543), wk =   0.0640000
        k(   36) = (   0.3999295   0.3999295   0.6209085), wk =   0.0640000

[...]

     enthalpy old            =    -407.6709241895 Ry
     enthalpy new            =    -407.6973404179 Ry

     CASE: enthalpy_new < enthalpy_old

[...]

     Total force =     0.006850     Total SCF correction =     0.000137

[...]

     number of scf cycles    =   6
     number of bfgs steps    =   5

     enthalpy old            =    -407.7657146137 Ry
     enthalpy new            =    -407.7717071496 Ry

     CASE: enthalpy_new < enthalpy_old

     new trust radius        =       0.0034022110 bohr
     new conv_thr            =       0.0000000242 Ry

     new unit-cell volume =    401.14260 a.u.^3 (    59.44320 Ang^3 )

[...]

ATOMIC_POSITIONS (crystal)
Mo0      0.000000000   0.000000000   0.000000000    0   0   0
Mo0      0.500000000   0.500000000   0.500000000    0   0   0
O1       0.279339647   0.279339647   0.000000000    1   1   0
O1      -0.279339647  -0.279339647   0.000000000    1   1   0
O1       0.779339647   0.220660353   0.500000000    1   1   0
O1       0.220660353   0.779339647   0.500000000    1   1   0

     NEW-OLD atomic charge density approx. for the potential
     NEW k-points:
        k(    1) = (   0.0000000   0.0000000   0.0000000), wk =   0.0080000
        k(    2) = (   0.0000000   0.0000000   0.3476618), wk =   0.0160000
        k(    3) = (   0.0000000   0.0000000   0.6953236), wk =   0.0160000
        k(    4) = (   0.0000000   0.1889617   0.0000000), wk =   0.0320000
        k(    5) = (   0.0000000   0.1889617   0.3476618), wk =   0.0640000
        k(    6) = (   0.0000000   0.1889617   0.6953236), wk =   0.0640000
        k(    7) = (   0.0000000   0.3779234   0.0000000), wk =   0.0320000
        k(    8) = (   0.0000000   0.3779234   0.3476618), wk =   0.0640000
        k(    9) = (   0.0000000   0.3779234   0.6953236), wk =   0.0640000
        k(   10) = (   0.1889617   0.1889617   0.0000000), wk =   0.0320000
        k(   11) = (   0.1889617   0.1889617   0.3476618), wk =   0.0640000
        k(   12) = (   0.1889617   0.1889617   0.6953236), wk =   0.0640000
        k(   13) = (   0.1889617   0.3779234   0.0000000), wk =   0.0640000
        k(   14) = (   0.1889617   0.3779234   0.3476618), wk =   0.1280000
        k(   15) = (   0.1889617   0.3779234   0.6953236), wk =   0.1280000
        k(   16) = (   0.3779234   0.3779234   0.0000000), wk =   0.0320000
        k(   17) = (   0.3779234   0.3779234   0.3476618), wk =   0.0640000
        k(   18) = (   0.3779234   0.3779234   0.6953236), wk =   0.0640000
        k(   19) = (   0.0000000   0.0000000   0.0000000), wk =   0.0080000
        k(   20) = (   0.0000000   0.0000000   0.3476618), wk =   0.0160000
        k(   21) = (   0.0000000   0.0000000   0.6953236), wk =   0.0160000
        k(   22) = (   0.0000000   0.1889617   0.0000000), wk =   0.0320000
        k(   23) = (   0.0000000   0.1889617   0.3476618), wk =   0.0640000
        k(   24) = (   0.0000000   0.1889617   0.6953236), wk =   0.0640000
        k(   25) = (   0.0000000   0.3779234   0.0000000), wk =   0.0320000
        k(   26) = (   0.0000000   0.3779234   0.3476618), wk =   0.0640000
        k(   27) = (   0.0000000   0.3779234   0.6953236), wk =   0.0640000
        k(   28) = (   0.1889617   0.1889617   0.0000000), wk =   0.0320000
        k(   29) = (   0.1889617   0.1889617   0.3476618), wk =   0.0640000
        k(   30) = (   0.1889617   0.1889617   0.6953236), wk =   0.0640000
        k(   31) = (   0.1889617   0.3779234   0.0000000), wk =   0.0640000
        k(   32) = (   0.1889617   0.3779234   0.3476618), wk =   0.1280000
        k(   33) = (   0.1889617   0.3779234   0.6953236), wk =   0.1280000
        k(   34) = (   0.3779234   0.3779234   0.0000000), wk =   0.0320000
        k(   35) = (   0.3779234   0.3779234   0.3476618), wk =   0.0640000
        k(   36) = (   0.3779234   0.3779234   0.6953236), wk =   0.0640000

[...]

     Threshold (ethr) on eigenvalues was too large:
     Diagonalizing with lowered threshold

     Davidson diagonalization with overlap
     ethr =  2.06E-08,  avg # of iterations =  1.1

[...]

     Total force =     0.000062     Total SCF correction =     0.000034
     SCF correction compared to forces is large: reduce conv_thr to get better values

[...]

     Volume is kept fixed: isostatic pressure set to zero

     bfgs converged in   7 scf cycles and   6 bfgs steps
     (criteria: energy < 0.10E-03, force < 0.10E-02, cell < 0.50E+00)

     End of BFGS Geometry Optimization

     Final enthalpy =    -407.7717376161 Ry
Begin final coordinates
     new unit-cell volume =    401.14260 a.u.^3 (    59.44320 Ang^3 )

CELL_PARAMETERS (alat=  8.53829393)
   1.058415585   0.000000000   0.000000000
   0.000000000   1.058415585   0.000000000
   0.000000000   0.000000000   0.575271729

ATOMIC_POSITIONS (crystal)
Mo0      0.000000000   0.000000000   0.000000000    0   0   0
Mo0      0.500000000   0.500000000   0.500000000    0   0   0
O1       0.279339647   0.279339647   0.000000000    1   1   0
O1      -0.279339647  -0.279339647   0.000000000    1   1   0
O1       0.779339647   0.220660353   0.500000000    1   1   0
O1       0.220660353   0.779339647   0.500000000    1   1   0
End final coordinates

     A final scf calculation at the relaxed structure.
     The G-vectors are recalculated for the final unit cell
     Results may differ from those at the preceding step.

     bravais-lattice index     =            0
     lattice parameter (alat)  =       8.5383  a.u.
     unit-cell volume          =     401.1426 (a.u.)^3
     number of atoms/cell      =            6
     number of atomic types    =            2
     number of electrons       =        52.00
     number of Kohn-Sham states=           78
     kinetic-energy cutoff     =      40.0000  Ry
     charge density cutoff     =     500.0000  Ry
     convergence threshold     =      2.4E-08
     mixing beta               =       0.3000
     number of iterations used =            8  plain     mixing
     Exchange-correlation      = SLA  PW   PBE  PBE ( 1 4 3 4 0)
     EXX-fraction              =        0.00

     celldm(1)=   8.538294  celldm(2)=   0.000000  celldm(3)=   0.000000
     celldm(4)=   0.000000  celldm(5)=   0.000000  celldm(6)=   0.000000

     crystal axes: (cart. coord. in units of alat)
               a(1) = (   1.058416   0.000000   0.000000 )
               a(2) = (   0.000000   1.058416   0.000000 )
               a(3) = (   0.000000   0.000000   0.575272 )

     reciprocal axes: (cart. coord. in units 2 pi/alat)
               b(1) = (  0.944808  0.000000  0.000000 )
               b(2) = (  0.000000  0.944808  0.000000 )
               b(3) = (  0.000000  0.000000  1.738309 )

     PseudoPot. # 1 for Mo read from file:
     /home/camp/zhonxu/pseudo/mo_pbe_v1.uspp.F.UPF
     MD5 check sum: 30c4dcd161f5d35cd49bb5239c51a633
     Pseudo is Ultrasoft + core correction, Zval = 14.0
     Generated by new atomic code, or converted to UPF format
     Using radial grid of  889 points,  6 beta functions with:
                l(1) =   0
                l(2) =   0
                l(3) =   1
                l(4) =   1
                l(5) =   2
                l(6) =   2
     Q(r) pseudized with  6 coefficients,  rinner =    1.000   1.000   1.000
                                                       1.000   1.000

     PseudoPot. # 2 for O  read from file:
     /home/camp/zhonxu/pseudo/o_pbe_v1.01.uspp.F.UPF
     MD5 check sum: 2bcb18d16ea4b960afae9ec6d52f22d2
     Pseudo is Ultrasoft + core correction, Zval =  6.0
     Generated by new atomic code, or converted to UPF format
     Using radial grid of  737 points,  5 beta functions with:
                l(1) =   0
                l(2) =   0
                l(3) =   1
                l(4) =   1
                l(5) =   2
     Q(r) pseudized with  8 coefficients,  rinner =    0.900   0.900   0.900
                                                       0.900   0.900

     atomic species   valence    mass     pseudopotential
        Mo0           14.00    95.94000     Mo( 1.00)
        O1             6.00    15.99940     O ( 1.00)

     Starting magnetic structure
     atomic species   magnetization
        Mo0          0.600
        O1           0.000

     16 Sym. Ops., with inversion, found ( 8 have fractional translation)

   Cartesian axes

     site n.     atom                  positions (alat units)
         1           Mo0 tau(   1) = (   0.0000000   0.0000000   0.0000000  )
         2           Mo0 tau(   2) = (   0.5292078   0.5292078   0.2876359  )
         3           O1  tau(   3) = (   0.2956574   0.2956574   0.0000000  )
         4           O1  tau(   4) = (  -0.2956574  -0.2956574   0.0000000  )
         5           O1  tau(   5) = (   0.8248652   0.2335504   0.2876359  )
         6           O1  tau(   6) = (   0.2335504   0.8248652   0.2876359  )

     number of k points=    36  Methfessel-Paxton smearing, width (Ry)=  0.0100
                       cart. coord. in units 2pi/alat
        k(    1) = (   0.0000000   0.0000000   0.0000000), wk =   0.0080000
        k(    2) = (   0.0000000   0.0000000   0.3476618), wk =   0.0160000
        k(    3) = (   0.0000000   0.0000000   0.6953236), wk =   0.0160000
        k(    4) = (   0.0000000   0.1889617   0.0000000), wk =   0.0320000
        k(    5) = (   0.0000000   0.1889617   0.3476618), wk =   0.0640000
        k(    6) = (   0.0000000   0.1889617   0.6953236), wk =   0.0640000
        k(    7) = (   0.0000000   0.3779234   0.0000000), wk =   0.0320000
        k(    8) = (   0.0000000   0.3779234   0.3476618), wk =   0.0640000
        k(    9) = (   0.0000000   0.3779234   0.6953236), wk =   0.0640000
        k(   10) = (   0.1889617   0.1889617   0.0000000), wk =   0.0320000
        k(   11) = (   0.1889617   0.1889617   0.3476618), wk =   0.0640000
        k(   12) = (   0.1889617   0.1889617   0.6953236), wk =   0.0640000
        k(   13) = (   0.1889617   0.3779234   0.0000000), wk =   0.0640000
        k(   14) = (   0.1889617   0.3779234   0.3476618), wk =   0.1280000
        k(   15) = (   0.1889617   0.3779234   0.6953236), wk =   0.1280000
        k(   16) = (   0.3779234   0.3779234   0.0000000), wk =   0.0320000
        k(   17) = (   0.3779234   0.3779234   0.3476618), wk =   0.0640000
        k(   18) = (   0.3779234   0.3779234   0.6953236), wk =   0.0640000
        k(   19) = (   0.0000000   0.0000000   0.0000000), wk =   0.0080000
        k(   20) = (   0.0000000   0.0000000   0.3476618), wk =   0.0160000
        k(   21) = (   0.0000000   0.0000000   0.6953236), wk =   0.0160000
        k(   22) = (   0.0000000   0.1889617   0.0000000), wk =   0.0320000
        k(   23) = (   0.0000000   0.1889617   0.3476618), wk =   0.0640000
        k(   24) = (   0.0000000   0.1889617   0.6953236), wk =   0.0640000
        k(   25) = (   0.0000000   0.3779234   0.0000000), wk =   0.0320000
        k(   26) = (   0.0000000   0.3779234   0.3476618), wk =   0.0640000
        k(   27) = (   0.0000000   0.3779234   0.6953236), wk =   0.0640000
        k(   28) = (   0.1889617   0.1889617   0.0000000), wk =   0.0320000
        k(   29) = (   0.1889617   0.1889617   0.3476618), wk =   0.0640000
        k(   30) = (   0.1889617   0.1889617   0.6953236), wk =   0.0640000
        k(   31) = (   0.1889617   0.3779234   0.0000000), wk =   0.0640000
        k(   32) = (   0.1889617   0.3779234   0.3476618), wk =   0.1280000
        k(   33) = (   0.1889617   0.3779234   0.6953236), wk =   0.1280000
        k(   34) = (   0.3779234   0.3779234   0.0000000), wk =   0.0320000
        k(   35) = (   0.3779234   0.3779234   0.3476618), wk =   0.0640000
        k(   36) = (   0.3779234   0.3779234   0.6953236), wk =   0.0640000

     Largest allocated arrays     est. size (Mb)     dimensions
     Largest temporary arrays     est. size (Mb)     dimensions

     Check: negative/imaginary core charge=   -0.000008    0.000000

     Initial potential from superposition of free atoms

     starting charge   51.99787, renormalised to   52.00000
     Starting wfc are   42 randomized atomic wfcs

     Self-consistent Calculation

[...]

     total energy              =    -407.77202941 Ry
     Harris-Foulkes estimate   =    -407.77202911 Ry
     estimated scf accuracy    <       0.00000003 Ry

[...]

     iteration # 14     ecut=    40.00 Ry     beta=0.30
     Davidson diagonalization with overlap
     ethr =  6.42E-11,  avg # of iterations =  2.0

     negative rho (up, down):  0.785E-05 0.788E-05

     End of self-consistent calculation

 ------ SPIN UP ------------

[...]

 ------ SPIN DOWN ----------

[...]

          k = 0.3779 0.3779 0.6953 (  1719 PWs)   bands (ev):

   -46.7357 -46.7351 -21.7106 -21.7070 -21.2324 -21.2264 -20.8085 -20.8073
    -4.5632  -4.2591  -4.0276  -3.6789   6.9579   7.3288   7.5943   7.9305
     8.3127   8.6467   8.9169   9.8691  10.4874  10.7240  11.7735  11.9062
    15.0054  15.2302  16.2135  16.6232  18.2773  18.3911  20.2694  21.2755
    21.7056  22.4662  25.0184  25.2280  26.7499  26.8115  29.6650  29.7555
    31.9460  32.2383  32.9000  33.0223  34.3617  34.7022  35.6811  36.1758
    39.4806  39.6828  39.9666  40.4985  42.1105  42.8733  43.7206  44.1691
    45.4845  45.8091  46.2463  46.8435  47.3524  47.8549  48.3618  48.7154
    49.2496  49.5819  49.8859  50.6113  51.1950  51.3042  51.9019  51.9918
    53.4819  54.5881  57.1803  57.5693  57.9052  58.2946

     the Fermi energy is    15.2555 ev

!    total energy              =    -407.77202972 Ry
     Harris-Foulkes estimate   =    -407.77202945 Ry
     estimated scf accuracy    <          6.2E-09 Ry

     The total energy is the sum of the following terms:

     one-electron contribution =     -97.81636131 Ry
     hartree contribution      =      81.87309096 Ry
     xc contribution           =     -68.03791359 Ry
     ewald contribution        =    -323.79074691 Ry
     smearing contrib. (-TS)   =      -0.00009887 Ry

     total magnetization       =     0.00 Bohr mag/cell
     absolute magnetization    =     0.00 Bohr mag/cell

     convergence has been achieved in  14 iterations

     Forces acting on atoms (Ry/au):

     negative rho (up, down):  0.785E-05 0.788E-05
     atom    1 type  1   force =     0.00000000    0.00000000    0.00000000
     atom    2 type  1   force =     0.00000000    0.00000000    0.00000000
     atom    3 type  2   force =    -0.00003100   -0.00003100   -0.00000000
     atom    4 type  2   force =     0.00003100    0.00003100    0.00000000
     atom    5 type  2   force =    -0.00003100    0.00003100    0.00000000
     atom    6 type  2   force =     0.00003100   -0.00003100    0.00000000

     Total force =     0.000088     Total SCF correction =     0.000058
     SCF correction compared to forces is large: reduce conv_thr to get better values

     entering subroutine stress ...

     negative rho (up, down):  0.785E-05 0.788E-05
          total   stress  (Ry/bohr**3)                   (kbar)     P=  382.53
   0.00260698   0.00000000   0.00000000        383.50      0.00      0.00
   0.00000000   0.00260698   0.00000000          0.00    383.50      0.00
   0.00000000   0.00000000   0.00258725          0.00      0.00    380.60

     General routines

     Parallel routines

   This run was terminated on:  11: 5:20  24Jan2014

   JOB DONE.
Running PBS batch system epilogue script
Job id: 251887.audhumbla.fysik.dtu.dk
Username: zhonxu
Groupname: campgst
Jobname: MoO2/fine-EOS/ferro/MoO2-v-0.90
Sessionid: 1766
Queuename: verylong
Accounting:
This job has allocated the following 4 nodes:
q006 q006 q006 q006
Finished epilogue job 251887.audhumbla.fysik.dtu.dk for zhonxu