     Program PWSCF v.5.0.2 (svn rev. 9656) starts on 11Feb2014 at 13: 3:25

     Current dimensions of program PWSCF are:
     Max number of different atomic species (ntypx) = 10
     Max number of k-points (npk) =  40000
     Max angular momentum in pseudopotentials (lmaxx) =  3
     Reading input from alpha_0.15/alpha_0.15.in
Warning: card &IONS ignored
Warning: card / ignored
Warning: card &CELL ignored
Warning: card / ignored

     Subspace diagonalization in iterative solution of the eigenvalue problem:
     a serial algorithm will be used

     bravais-lattice index     =            0
     lattice parameter (alat)  =      17.1209  a.u.
     unit-cell volume          =    3456.5082 (a.u.)^3
     number of atoms/cell      =           48
     number of atomic types    =            3
     number of electrons       =       448.00
     number of Kohn-Sham states=          648
     kinetic-energy cutoff     =      40.0000  Ry
     charge density cutoff     =     500.0000  Ry
     convergence threshold     =      1.0E-06
     mixing beta               =       0.7000
     number of iterations used =            8  plain     mixing
     Exchange-correlation      = SLA  PW   PBE  PBE ( 1 4 3 4 0)
     EXX-fraction              =        0.00

     celldm(1)=  17.120919  celldm(2)=   0.000000  celldm(3)=   0.000000
     celldm(4)=   0.000000  celldm(5)=   0.000000  celldm(6)=   0.000000

     crystal axes: (cart. coord. in units of alat)
               a(1) = (   1.000000   0.000000   0.000000 )
               a(2) = (   0.000000   1.000000   0.000000 )
               a(3) = (   0.000000   0.000000   0.688742 )

     reciprocal axes: (cart. coord. in units 2 pi/alat)
               b(1) = (  1.000000  0.000000  0.000000 )
               b(2) = (  0.000000  1.000000  0.000000 )
               b(3) = (  0.000000  0.000000  1.451923 )

     PseudoPot. # 1 for Ru read from file:
     /home/camp/zhonxu/pseudo/ru_pbe_v1.uspp.F.UPF
     MD5 check sum: df00be1c11b23341d9806d8f1dfa10cf
     Pseudo is Ultrasoft + core correction, Zval = 16.0
     Generated by new atomic code, or converted to UPF format
     Using radial grid of  967 points,  6 beta functions with:
                l(1) =   0
                l(2) =   0
                l(3) =   1
                l(4) =   1
                l(5) =   2
                l(6) =   2
     Q(r) pseudized with  8 coefficients,  rinner =    1.300   1.300   1.300
                                                       1.300   1.300

     PseudoPot. # 2 for O  read from file:
     /home/camp/zhonxu/pseudo/o_pbe_v1.01.uspp.F.UPF
     MD5 check sum: 2bcb18d16ea4b960afae9ec6d52f22d2
     Pseudo is Ultrasoft + core correction, Zval =  6.0
     Generated by new atomic code, or converted to UPF format
     Using radial grid of  737 points,  5 beta functions with:
                l(1) =   0
                l(2) =   0
                l(3) =   1
                l(4) =   1
                l(5) =   2
     Q(r) pseudized with  8 coefficients,  rinner =    0.900   0.900   0.900
                                                       0.900   0.900

     PseudoPot. # 3 for O  read from file:
     /home/camp/zhonxu/pseudo/o_pbe_v1.01.uspp.F.UPF
     MD5 check sum: 2bcb18d16ea4b960afae9ec6d52f22d2
     Pseudo is Ultrasoft + core correction, Zval =  6.0
     Generated by new atomic code, or converted to UPF format
     Using radial grid of  737 points,  5 beta functions with:
                l(1) =   0
                l(2) =   0
                l(3) =   1
                l(4) =   1
                l(5) =   2
     Q(r) pseudized with  8 coefficients,  rinner =    0.900   0.900   0.900
                                                       0.900   0.900

     atomic species   valence    mass     pseudopotential
        Ru0           16.00   101.07000     Ru( 1.00)
        O1             6.00    15.99940     O ( 1.00)
        O2             6.00    15.99940     O ( 1.00)

     Starting magnetic structure
     atomic species   magnetization
        Ru0          0.000
        O1           0.000
        O2           0.000

     Simplified LDA+U calculation (l_max = 2) with parameters (eV):
     atomic species    L          U    alpha       J0     beta
        Ru0            2     0.0000   0.0000   0.0000   0.0000
        O1             1     0.0000   0.1500   0.0000   0.0000
        O2             1     0.0000   0.0000   0.0000   0.0000

      4 Sym. Ops. (no inversion) found

   Cartesian axes

     site n.     atom                  positions (alat units)
         1           Ru0 tau(   1) = (  -0.1550000  -0.1550000   0.0000000  )
         2           Ru0 tau(   2) = (   0.0950000   0.0950000   0.1721854  )
         3           Ru0 tau(   3) = (  -0.1550000  -0.1550000   0.3443709  )
         4           Ru0 tau(   4) = (   0.0950000   0.0950000   0.5165563  )
         5           Ru0 tau(   5) = (  -0.1550000   0.3450000   0.0000000  )
         6           Ru0 tau(   6) = (   0.0950000   0.5950000   0.1721854  )
         7           Ru0 tau(   7) = (  -0.1550000   0.3450000   0.3443709  )
         8           Ru0 tau(   8) = (   0.0950000   0.5950000   0.5165563  )
         9           Ru0 tau(   9) = (   0.3450000  -0.1550000   0.0000000  )
        10           Ru0 tau(  10) = (   0.5950000   0.0950000   0.1721854  )
        11           Ru0 tau(  11) = (   0.3450000  -0.1550000   0.3443709  )
        12           Ru0 tau(  12) = (   0.5950000   0.0950000   0.5165563  )
        13           Ru0 tau(  13) = (   0.3450000   0.3450000   0.0000000  )
        14           Ru0 tau(  14) = (   0.5950000   0.5950000   0.1721854  )
        15           Ru0 tau(  15) = (   0.3450000   0.3450000   0.3443709  )
        16           Ru0 tau(  16) = (   0.5950000   0.5950000   0.5165563  )
        17           O1  tau(  17) = (   0.0000000   0.0000000   0.0000000  )
        18           O2  tau(  18) = (  -0.3100000  -0.3100000   0.0000000  )
        19           O2  tau(  19) = (   0.2500000  -0.0600000   0.1721854  )
        20           O2  tau(  20) = (  -0.0600000   0.2500000   0.1721854  )
        21           O2  tau(  21) = (   0.0000000   0.0000000   0.3443709  )
        22           O2  tau(  22) = (  -0.3100000  -0.3100000   0.3443709  )
        23           O2  tau(  23) = (   0.2500000  -0.0600000   0.5165563  )
        24           O2  tau(  24) = (  -0.0600000   0.2500000   0.5165563  )
        25           O2  tau(  25) = (   0.0000000   0.5000000   0.0000000  )
        26           O2  tau(  26) = (  -0.3100000   0.1900000   0.0000000  )
        27           O2  tau(  27) = (   0.2500000   0.4400000   0.1721854  )
        28           O2  tau(  28) = (  -0.0600000   0.7500000   0.1721854  )
        29           O2  tau(  29) = (   0.0000000   0.5000000   0.3443709  )
        30           O2  tau(  30) = (  -0.3100000   0.1900000   0.3443709  )
        31           O2  tau(  31) = (   0.2500000   0.4400000   0.5165563  )
        32           O2  tau(  32) = (  -0.0600000   0.7500000   0.5165563  )
        33           O2  tau(  33) = (   0.5000000   0.0000000   0.0000000  )
        34           O2  tau(  34) = (   0.1900000  -0.3100000   0.0000000  )
        35           O2  tau(  35) = (   0.7500000  -0.0600000   0.1721854  )
        36           O2  tau(  36) = (   0.4400000   0.2500000   0.1721854  )
        37           O2  tau(  37) = (   0.5000000   0.0000000   0.3443709  )
        38           O2  tau(  38) = (   0.1900000  -0.3100000   0.3443709  )
        39           O2  tau(  39) = (   0.7500000  -0.0600000   0.5165563  )
        40           O2  tau(  40) = (   0.4400000   0.2500000   0.5165563  )
        41           O2  tau(  41) = (   0.5000000   0.5000000   0.0000000  )
        42           O2  tau(  42) = (   0.1900000   0.1900000   0.0000000  )
        43           O2  tau(  43) = (   0.7500000   0.4400000   0.1721854  )
        44           O2  tau(  44) = (   0.4400000   0.7500000   0.1721854  )
        45           O2  tau(  45) = (   0.5000000   0.5000000   0.3443709  )
        46           O2  tau(  46) = (   0.1900000   0.1900000   0.3443709  )
        47           O2  tau(  47) = (   0.7500000   0.4400000   0.5165563  )
        48           O2  tau(  48) = (   0.4400000   0.7500000   0.5165563  )

     number of k points=    42  Methfessel-Paxton smearing, width (Ry)=  0.0100
                       cart. coord. in units 2pi/alat
        k(    1) = (   0.0000000   0.0000000   0.0000000), wk =   0.0156250
        k(    2) = (   0.0000000   0.0000000   0.3629808), wk =   0.0312500
        k(    3) = (   0.0000000   0.0000000  -0.7259615), wk =   0.0156250
        k(    4) = (   0.0000000   0.2500000   0.0000000), wk =   0.0625000
        k(    5) = (   0.0000000   0.2500000   0.3629808), wk =   0.1250000
        k(    6) = (   0.0000000   0.2500000  -0.7259615), wk =   0.0625000
        k(    7) = (   0.0000000  -0.5000000   0.0000000), wk =   0.0312500
        k(    8) = (   0.0000000  -0.5000000   0.3629808), wk =   0.0625000
        k(    9) = (   0.0000000  -0.5000000  -0.7259615), wk =   0.0312500
        k(   10) = (   0.2500000   0.2500000   0.0000000), wk =   0.0312500
        k(   11) = (   0.2500000   0.2500000   0.3629808), wk =   0.0625000
        k(   12) = (   0.2500000   0.2500000  -0.7259615), wk =   0.0312500
        k(   13) = (   0.2500000  -0.5000000   0.0000000), wk =   0.0625000
        k(   14) = (   0.2500000  -0.5000000   0.3629808), wk =   0.1250000
        k(   15) = (   0.2500000  -0.5000000  -0.7259615), wk =   0.0625000
        k(   16) = (  -0.5000000  -0.5000000   0.0000000), wk =   0.0156250
        k(   17) = (  -0.5000000  -0.5000000   0.3629808), wk =   0.0312500
        k(   18) = (  -0.5000000  -0.5000000  -0.7259615), wk =   0.0156250
        k(   19) = (   0.2500000  -0.2500000   0.0000000), wk =   0.0312500
        k(   20) = (   0.2500000  -0.2500000   0.3629808), wk =   0.0625000
        k(   21) = (   0.2500000  -0.2500000  -0.7259615), wk =   0.0312500
        k(   22) = (   0.0000000   0.0000000   0.0000000), wk =   0.0156250
        k(   23) = (   0.0000000   0.0000000   0.3629808), wk =   0.0312500
        k(   24) = (   0.0000000   0.0000000  -0.7259615), wk =   0.0156250
        k(   25) = (   0.0000000   0.2500000   0.0000000), wk =   0.0625000
        k(   26) = (   0.0000000   0.2500000   0.3629808), wk =   0.1250000
        k(   27) = (   0.0000000   0.2500000  -0.7259615), wk =   0.0625000
        k(   28) = (   0.0000000  -0.5000000   0.0000000), wk =   0.0312500
        k(   29) = (   0.0000000  -0.5000000   0.3629808), wk =   0.0625000
        k(   30) = (   0.0000000  -0.5000000  -0.7259615), wk =   0.0312500
        k(   31) = (   0.2500000   0.2500000   0.0000000), wk =   0.0312500
        k(   32) = (   0.2500000   0.2500000   0.3629808), wk =   0.0625000
        k(   33) = (   0.2500000   0.2500000  -0.7259615), wk =   0.0312500
        k(   34) = (   0.2500000  -0.5000000   0.0000000), wk =   0.0625000
        k(   35) = (   0.2500000  -0.5000000   0.3629808), wk =   0.1250000
        k(   36) = (   0.2500000  -0.5000000  -0.7259615), wk =   0.0625000
[...]
    eigenvectors:
  0.000  0.000  1.000
  0.500  0.500  0.000
  0.500  0.500  0.000
    occupations:
  0.894 -0.000 -0.000
 -0.000  0.882  0.004
 -0.000  0.004  0.882
   spin  2
    eigenvalues:
  0.878  0.886  0.894
    eigenvectors:
  0.000  0.000  1.000
  0.500  0.500  0.000
  0.500  0.500  0.000
    occupations:
  0.894 -0.000 -0.000
 -0.000  0.882  0.004
 -0.000  0.004  0.882
atomic mag. moment =     0.000000
atom   42   Tr[ns(na)] (up, down, total) =   2.65822  2.65822  5.31645
   spin  1
    eigenvalues:
  0.878  0.886  0.894
    eigenvectors:
  0.000  0.000  1.000
  0.500  0.500  0.000
  0.500  0.500  0.000
    occupations:
  0.894 -0.000 -0.000
 -0.000  0.882  0.004
 -0.000  0.004  0.882
   spin  2
    eigenvalues:
  0.878  0.886  0.894
    eigenvectors:
  0.000  0.000  1.000
  0.500  0.500  0.000
  0.500  0.500  0.000
    occupations:
  0.894 -0.000 -0.000
 -0.000  0.882  0.004
 -0.000  0.004  0.882
atomic mag. moment =     0.000000
atom   43   Tr[ns(na)] (up, down, total) =   2.65809  2.65809  5.31617
   spin  1
    eigenvalues:
  0.878  0.886  0.894
    eigenvectors:
  0.000  0.000  1.000
  0.500  0.500  0.000
  0.500  0.500  0.000
    occupations:
  0.894 -0.000 -0.000
 -0.000  0.882 -0.004
 -0.000 -0.004  0.882
   spin  2
    eigenvalues:
  0.878  0.886  0.894
    eigenvectors:
  0.000  0.000  1.000
  0.500  0.500  0.000
  0.500  0.500  0.000
    occupations:
  0.894 -0.000 -0.000
 -0.000  0.882 -0.004
 -0.000 -0.004  0.882
atomic mag. moment =    -0.000000
atom   44   Tr[ns(na)] (up, down, total) =   2.65809  2.65809  5.31617
   spin  1
    eigenvalues:
  0.878  0.886  0.894
    eigenvectors:
  0.000  0.000  1.000
  0.500  0.500  0.000
  0.500  0.500  0.000
    occupations:
  0.894 -0.000 -0.000
 -0.000  0.882 -0.004
 -0.000 -0.004  0.882
   spin  2
    eigenvalues:
  0.878  0.886  0.894
    eigenvectors:
  0.000  0.000  1.000
  0.500  0.500  0.000
  0.500  0.500  0.000
    occupations:
  0.894 -0.000 -0.000
 -0.000  0.882 -0.004
 -0.000 -0.004  0.882
atomic mag. moment =    -0.000000
atom   45   Tr[ns(na)] (up, down, total) =   2.65808  2.65808  5.31616
   spin  1
    eigenvalues:
  0.878  0.886  0.894
    eigenvectors:
  0.000  0.000  1.000
  0.500  0.500  0.000
  0.500  0.500  0.000
    occupations:
  0.894 -0.000 -0.000
 -0.000  0.882  0.004
 -0.000  0.004  0.882
   spin  2
    eigenvalues:
  0.878  0.886  0.894
    eigenvectors:
  0.000  0.000  1.000
  0.500  0.500  0.000
  0.500  0.500  0.000
    occupations:
  0.894 -0.000 -0.000
 -0.000  0.882  0.004
 -0.000  0.004  0.882
atomic mag. moment =     0.000000
atom   46   Tr[ns(na)] (up, down, total) =   2.65821  2.65821  5.31641
   spin  1
    eigenvalues:
  0.878  0.886  0.894
    eigenvectors:
  0.000  0.000  1.000
  0.500  0.500  0.000
  0.500  0.500  0.000
    occupations:
  0.894 -0.000 -0.000
 -0.000  0.882  0.004
 -0.000  0.004  0.882
   spin  2
    eigenvalues:
  0.878  0.886  0.894
    eigenvectors:
  0.000  0.000  1.000
  0.500  0.500  0.000
  0.500  0.500  0.000
    occupations:
  0.894 -0.000 -0.000
 -0.000  0.882  0.004
 -0.000  0.004  0.882
atomic mag. moment =     0.000000
atom   47   Tr[ns(na)] (up, down, total) =   2.65809  2.65809  5.31617
   spin  1
    eigenvalues:
  0.878  0.886  0.894
    eigenvectors:
  0.000  0.000  1.000
  0.500  0.500  0.000
  0.500  0.500  0.000
    occupations:
  0.894  0.000  0.000
  0.000  0.882 -0.004
  0.000 -0.004  0.882
   spin  2
    eigenvalues:
  0.878  0.886  0.894
    eigenvectors:
  0.000  0.000  1.000
  0.500  0.500  0.000
  0.500  0.500  0.000
    occupations:
  0.894  0.000  0.000
  0.000  0.882 -0.004
  0.000 -0.004  0.882
atomic mag. moment =    -0.000000
atom   48   Tr[ns(na)] (up, down, total) =   2.65809  2.65809  5.31617
   spin  1
    eigenvalues:
  0.878  0.886  0.894
    eigenvectors:
  0.000  0.000  1.000
  0.500  0.500  0.000
  0.500  0.500  0.000
    occupations:
  0.894  0.000  0.000
  0.000  0.882 -0.004
  0.000 -0.004  0.882
   spin  2
    eigenvalues:
  0.878  0.886  0.894
    eigenvectors:
  0.000  0.000  1.000
  0.500  0.500  0.000
  0.500  0.500  0.000
    occupations:
  0.894  0.000  0.000
  0.000  0.882 -0.004
  0.000 -0.004  0.882
atomic mag. moment =    -0.000000
N of occupied +U levels = 284.5818133
 --- exit write_ns ---

 ------ SPIN UP ------------

          k = 0.0000 0.0000 0.0000 ( 14779 PWs)   bands (ev):

   -60.7977 -60.7951 -60.7951 -60.7950 -60.7948 -60.7941 -60.7935 -60.7909
   -60.7849 -60.7848 -60.7846 -60.7846 -60.7845 -60.7844 -60.7824 -60.7817
   -30.9984 -30.9984 -30.9966 -30.9966 -30.9944 -30.9943 -30.9937 -30.9935
   -30.9871 -30.9869 -30.9867 -30.9866 -30.9829 -30.9828 -30.9819 -30.9817
   -30.8227 -30.8225 -30.8223 -30.8220 -30.8189 -30.8187 -30.8184 -30.8177
   -30.6533 -30.6419 -30.6419 -30.6419 -30.6417 -30.6412 -30.6408 -30.6302
   -30.6096 -30.6096 -30.6095 -30.6093 -30.6060 -30.6059 -30.6057 -30.6055
   -30.5785 -30.5784 -30.5779 -30.5778 -30.5775 -30.5774 -30.5767 -30.5759
    -7.4042  -6.8122  -6.8066  -6.7006  -6.6907  -6.6905  -6.6902  -6.4020
    -6.3274  -6.3175  -6.3173  -6.3172  -6.1319  -6.1262  -6.0727  -6.0679
    -6.0113  -6.0063  -5.9721  -5.9682  -5.7712  -5.7578  -5.7578  -5.7577
    -5.7479  -5.7435  -5.7433  -5.7433  -5.5620  -5.5575  -5.4274  -5.4232
     4.4156   4.4756   4.4801   4.5063   5.3582   5.3584   5.3611   5.3658
     5.4699   5.4702   5.4716   5.4779   5.6449   5.6454   5.7362   5.8236
     5.8263   5.8643   5.8649   5.9024   5.9056   5.9900   5.9941   5.9976
     5.9976   5.9978   6.0048   6.2331   6.2334   6.2335   6.2391   6.5255
     6.5295   6.7408   6.7416   6.9361   6.9377   7.2382   7.2385   7.2408
     7.2421   7.4275   7.4281   7.4309   7.4335   7.5674   7.5676   7.5705
     7.5749   7.9792   7.9817   8.0034   8.0065   8.1036   8.1072   8.1512
     8.1553   8.2980   8.3004   8.3119   8.3122   8.3138   8.3168   8.4618
     8.4637   8.4639   8.4669   8.5513   8.5529   8.5535   8.6017   8.6019
     8.6021   8.6089   9.2427   9.2455   9.2893   9.2931   9.4465   9.4472
     9.9135   9.9138   9.9147   9.9186   9.9249   9.9253   9.9445  10.1172
    10.1177  10.1180  10.1237  10.1447  10.1453  10.4330  10.4334  10.8483
    11.0238  11.0240  11.0243  11.0244  11.2480  11.3889  11.3890  11.3978
    11.3982  11.4187  11.4187  11.4441  11.9871  12.0222  12.0228  12.0979
    12.0990  12.0991  12.0991  12.1007  12.1011  12.1139  12.1147  12.2690
    12.2693  12.2695  12.2699  12.3096  12.3101  12.3102  12.3108  12.5828
    12.5835  13.0046  13.0052  13.1061  13.1063  13.1065  13.1077  13.5085
    13.5091  13.6087  13.6090  13.8187  13.8189  13.8189  13.8199  14.0503
    14.3864  14.6349  14.6366  14.6366  14.6369  15.7773  15.7782  15.7786
    15.7786  15.8107  15.8111  16.0262  16.0275  16.1855  16.1858  16.5817
    16.5821  16.5823  16.5824  16.9059  16.9062  16.9062  16.9063  17.3473
    17.3473  17.3608  17.3609  17.5327  17.5330  17.5330  17.5330  18.2637
    18.7597  20.9923  20.9947  20.9963  20.9971  22.1975  22.1981  22.3823
    22.3827  22.7191  22.7197  23.0024  23.0027  23.0040  23.0045  23.2951
    23.2958  23.6924  23.6933  24.2396  24.2407  24.2413  24.2416  25.0649
    25.0659  25.0666  25.0674  25.1940  25.1941  25.4080  25.4086  25.7209
    25.7210  25.9895  25.9904  26.0443  26.6868  26.7053  26.7062  26.8195
    26.8201  26.8204  26.8209  27.0680  27.0699  27.0756  27.0757  27.0763
    27.0779  27.8624  27.8626  27.9496  28.1226  28.1227  28.1653  28.1654
    28.1660  28.1662  29.0190  29.0460  29.0474  29.0491  29.0494  29.0577
    29.0845  29.0846  29.2696  29.2709  29.2711  29.2723  29.9761  29.9763
    29.9778  29.9784  30.2395  30.2399  30.4167  30.4184  30.7461  30.7467
    30.8718  31.0564  31.0564  31.0582  31.0583  31.2111  31.2115  31.2150
    31.2150  32.1335  32.1336  32.3089  32.4278  32.4279  32.6829  32.6829
    32.9241  32.9246  33.0512  33.0521  33.0529  33.0537  33.9263  33.9277
    33.9283  33.9288  34.3567  34.3571  34.3674  34.3680  34.4736  34.4756
    34.9118  34.9124  34.9556  34.9557  35.7025  35.7036  35.7776  35.7787
    35.7788  35.7801  35.9164  35.9174  36.1804  36.1807  36.3345  36.3499
    36.3518  36.3519  36.3523  37.3166  37.3169  37.7481  37.7486  37.7490
    37.7497  37.9305  37.9308  37.9324  37.9339  37.9342  37.9346  38.1568
    38.1572  38.1585  38.1589  38.4204  38.4215  38.6546  38.6562  38.6567
    38.6570  38.9060  38.9068  39.3008  39.3020  39.5252  39.8372  39.8374
    39.8385  39.8391  39.8461  39.8462  39.9213  39.9226  40.0125  40.0134
    40.0146  40.0154  40.0166  40.0167  40.1025  40.1029  40.3018  40.3020
    40.3021  40.3021  40.6314  40.8754  40.8771  40.9697  41.1000  41.4212
    41.5276  42.0301  42.0311  42.0314  42.0315  42.1338  42.1345  42.7023
    42.7024  42.7036  42.7038  42.7088  42.7095  42.8904  42.8907  42.8911
    42.8913  43.1650  43.1656  43.3271  43.6567  43.6586  43.6590  43.6594
[...]
    47.5831  47.5858  47.5869  47.5870  47.5975  47.5986  47.5990  47.5992
    47.6696  47.6699  48.0360  48.0364  48.1072  48.1079  48.1231  48.3542
    48.3559  48.3567  48.3567  48.4574  48.4578  48.5046  48.5051  48.5108
    48.5119  48.6613  48.6628  48.6640  48.6643  49.1347  49.1939  49.1945
    49.2227  49.2228  49.2235  49.2237  49.3177  49.3192  49.3703  49.3715
    49.5305  49.5307  49.7653  49.7661  49.8124  49.8131  49.8142  49.8143
    50.4681  50.4695  50.6322  50.6355  50.6355  50.6358  50.8820  50.8821
    51.0575  51.1000  51.1406  51.1413  51.2318  51.2320  51.3300  51.3306
    51.3308  51.3309  51.5382  51.5398  51.9432  51.9432  52.0116  52.0118
    52.0120  52.0120  52.3648  52.3650  52.3651  52.3655  52.5313  52.5314
    52.5594  52.5601  52.7650  52.7652  52.7735  52.7740  52.7740  52.7747
    53.0760  53.0761  53.0778  53.5135  53.7543  53.7550  53.7550  53.7552
    53.8370  53.8373  54.0061  54.0067  54.0560  54.0567  54.0573  54.0579
    54.3546  54.4597  54.4602  54.9217  54.9218  54.9219  55.1713  55.1723
    55.1724  55.1730  55.2472  55.2473  55.5664  55.5667  55.5672  55.5679

[...]

          k =-0.5000-0.5000 0.0000 ( 14712 PWs)   bands (ev):

[...]

 ------ SPIN DOWN ----------

[...]

          k =-0.5000-0.5000-0.7260 ( 14752 PWs)   bands (ev):

[...]

          k = 0.2500-0.2500-0.7260 ( 14788 PWs)   bands (ev):

   -60.7915 -60.7914 -60.7906 -60.7904 -60.7904 -60.7902 -60.7899 -60.7896
   -60.7894 -60.7893 -60.7891 -60.7884 -60.7884 -60.7882 -60.7865 -60.7849
   -30.9908 -30.9906 -30.9905 -30.9905 -30.9901 -30.9901 -30.9901 -30.9899
   -30.9898 -30.9898 -30.9898 -30.9897 -30.9897 -30.9889 -30.9886 -30.9873
   -30.7394 -30.7392 -30.7352 -30.7348 -30.7348 -30.7348 -30.7337 -30.7334
   -30.7313 -30.7310 -30.7294 -30.7291 -30.7288 -30.7287 -30.7257 -30.7256
   -30.5933 -30.5933 -30.5933 -30.5932 -30.5930 -30.5929 -30.5928 -30.5928
   -30.5926 -30.5926 -30.5925 -30.5922 -30.5922 -30.5919 -30.5909 -30.5907
    -6.8270  -6.8204  -6.5562  -6.5482  -6.5480  -6.5477  -6.4824  -6.4730
    -6.3245  -6.3244  -6.1740  -6.1546  -6.1539  -6.1539  -6.1205  -6.1172
    -6.0038  -5.9906  -5.9903  -5.9900  -5.8902  -5.8897  -5.8356  -5.8323
    -5.8322  -5.8321  -5.8163  -5.8163  -5.8107  -5.8023  -5.7286  -5.7206
     5.0806   5.0862   5.1308   5.1406   5.4377   5.4377   5.4377   5.4380
     5.4519   5.4520   5.4654   5.4668   5.7780   5.7821   5.9089   5.9109
     5.9130   5.9144   5.9180   5.9184   6.0045   6.0048   6.0054   6.0085
     6.0141   6.0149   6.2447   6.2448   6.2470   6.2559   6.3217   6.3227
     6.6103   6.6105   6.6159   6.6198   6.7365   6.7390   6.9876   6.9886
     7.1354   7.1354   7.1360   7.1378   7.2094   7.2100   7.6378   7.6379
     7.6391   7.6427   7.6860   7.6932   7.8131   7.8193   8.0021   8.0045
     8.1080   8.1082   8.1122   8.1163   8.5667   8.5669   8.5677   8.5705
     8.6430   8.6437   8.6746   8.6751   8.7061   8.7063   8.7253   8.7255
     8.8538   8.8538   8.8543   8.8563   9.0277   9.0307   9.1457   9.1496
     9.2366   9.2398   9.2531   9.2560   9.5194   9.5197   9.5210   9.5212
     9.6942   9.6960  10.0611  10.0614  10.0616  10.0674  10.3364  10.3390
    11.2871  11.2872  11.5794  11.5797  11.5799  11.5808  11.9827  11.9829
    12.0017  12.0020  12.0409  12.0410  12.1999  12.2001  12.2003  12.2005
    12.4001  12.4002  12.4626  12.4634  12.4710  12.4710  12.4777  12.4778
    12.4779  12.4780  12.6520  12.6530  12.7559  12.7564  12.7565  12.7569
    12.8862  12.8865  12.9246  12.9251  13.1248  13.1250  13.1250  13.1258
    13.1437  13.1441  13.3985  13.3986  13.3987  13.3999  13.7288  13.7292
    15.2266  15.2271  15.2977  15.2999  15.2999  15.3008  15.6690  15.6692
    15.6692  15.6695  15.6933  15.6936  15.9448  15.9452  16.2036  16.2039
    16.3751  16.3761  16.3809  16.3818  16.6095  16.6099  16.6100  16.6101
    16.8541  16.8542  17.3357  17.3359  17.3359  17.3360  17.4029  17.4030
    20.5947  20.5965  21.5452  21.5486  21.5498  21.5509  22.2022  22.2046
    22.9094  22.9133  22.9144  22.9152  22.9790  22.9815  24.0190  24.0197
    24.1334  24.1359  24.3335  24.3360  24.8378  24.8393  24.8410  24.8420
    25.0734  25.0750  25.7776  25.7780  25.7800  25.7809  25.8093  25.8093
    25.8630  25.8636  26.1013  26.1015  26.2918  26.2928  26.2934  26.2942
    26.4421  26.4451  26.6726  26.6741  26.6748  26.6759  27.5236  27.5247
    27.8048  27.8065  27.8073  27.8084  27.9319  27.9328  28.1297  28.1299
    28.2998  28.3014  28.4727  28.4756  28.4766  28.4770  28.4802  28.4804
    28.8670  28.8683  28.9447  28.9464  28.9467  28.9470  29.2682  29.2690
    29.3076  29.3080  29.7781  29.7802  29.9824  29.9834  29.9841  29.9842
    30.2115  30.2126  31.0780  31.0792  31.0794  31.0800  31.7134  31.7137
    32.1650  32.1660  32.1664  32.1678  32.8533  32.8550  33.0329  33.0344
    33.1937  33.1945  33.1956  33.1965  33.6890  33.6894  33.7588  33.7594
    34.3873  34.3873  34.5937  34.5947  34.5961  34.5962  35.1782  35.1788
    35.4980  35.5015  35.7157  35.7181  35.7193  35.7199  35.7206  35.7206
    35.7404  35.7421  35.8883  35.8885  35.9883  35.9892  35.9900  35.9902
    36.6735  36.6749  36.9294  36.9295  36.9307  36.9307  37.1039  37.1049
    37.1713  37.1721  37.1727  37.1727  37.9299  37.9303  38.4110  38.4130
    38.4133  38.4139  38.4472  38.4474  38.4642  38.4656  38.8561  38.8569
    38.8573  38.8582  38.8754  38.8768  39.0388  39.0398  39.0839  39.0839
    39.2447  39.2459  39.3230  39.3244  39.5957  39.5961  39.5969  39.5979
    39.6683  39.6687  39.7146  39.7155  39.8396  39.8401  39.8414  39.8415
    40.1498  40.1505  40.6744  40.6761  40.6765  40.6772  41.1742  41.1766
    41.6269  41.6274  41.9741  41.9744  42.0467  42.0476  42.2695  42.2696
    42.2700  42.2701  42.4269  42.4282  42.8037  42.8047  43.2777  43.2792
    43.2798  43.2801  43.8678  43.8679  43.8687  43.8689  43.9037  43.9053
[...]
    47.0788  47.0788  47.3230  47.3239  47.8511  47.8521  47.8528  47.8534
    48.0106  48.0110  48.2378  48.2386  48.2481  48.2496  48.2500  48.2502
    48.3612  48.3634  48.5205  48.5212  48.7686  48.7696  48.7699  48.7703
    49.1493  49.1509  49.1521  49.1532  49.1534  49.1537  49.4408  49.4411
    49.4945  49.4951  49.4960  49.4965  49.4971  49.4972  49.5222  49.5225
    49.7177  49.7180  49.8958  49.8966  50.0027  50.0040  50.0044  50.0050
    50.4609  50.4621  50.8172  50.8173  50.8182  50.8183  50.8633  50.8635
    50.9184  50.9194  50.9196  50.9202  51.0534  51.0551  51.1216  51.1220
    51.3437  51.3452  51.5531  51.5537  51.5539  51.5547  51.9624  51.9629
    52.0329  52.0337  52.0340  52.0341  52.2320  52.2332  52.2988  52.3011
    52.5862  52.5868  52.5872  52.5880  52.6052  52.6055  52.8635  52.8644
    53.0593  53.0599  53.3124  53.3129  53.3130  53.3138  53.3810  53.3818
    54.1077  54.1078  54.1943  54.1958  54.2784  54.2785  54.3878  54.3885
    54.4865  54.4879  54.4881  54.4885  55.1674  55.1675  55.1681  55.1686
    55.2774  55.2785  55.3924  55.3933  55.3935  55.3937  55.5287  55.5288

     the Fermi energy is    12.7157 ev

!    total energy              =   -4124.67166141 Ry
     Harris-Foulkes estimate   =   -4124.67166174 Ry
     estimated scf accuracy    <       0.00000035 Ry

     The total energy is the sum of the following terms:

     one-electron contribution =   -1365.42014276 Ry
     hartree contribution      =     934.05001534 Ry
     xc contribution           =    -627.48466044 Ry
     ewald contribution        =   -3065.87288853 Ry
     Hubbard energy            =       0.05849579 Ry
     smearing contrib. (-TS)   =      -0.00248081 Ry

     total magnetization       =     0.00 Bohr mag/cell
     absolute magnetization    =     0.00 Bohr mag/cell

     convergence has been achieved in  11 iterations

     Writing output data file pwscf.save

     General routines

     Parallel routines
     Hubbard U routines

   This run was terminated on:  19:28: 3  11Feb2014

   JOB DONE.