     Program PWSCF v.5.0.2 (svn rev. 9656) starts on 10Feb2014 at 14:13:32

     Current dimensions of program PWSCF are:
     Max number of different atomic species (ntypx) = 10
     Max number of k-points (npk) =  40000
     Max angular momentum in pseudopotentials (lmaxx) =  3
     Reading input from alpha_-0.15/alpha_-0.15.in
Warning: card &IONS ignored
Warning: card / ignored
Warning: card &CELL ignored
Warning: card / ignored

     Subspace diagonalization in iterative solution of the eigenvalue problem:
     a serial algorithm will be used

     bravais-lattice index     =            0
     lattice parameter (alat)  =      17.1209  a.u.
     unit-cell volume          =    3456.5082 (a.u.)^3
     number of atoms/cell      =           48
     number of atomic types    =            3
     number of electrons       =       448.00
     number of Kohn-Sham states=          648
     kinetic-energy cutoff     =      40.0000  Ry
     charge density cutoff     =     500.0000  Ry
     convergence threshold     =      1.0E-06
     mixing beta               =       0.7000
     number of iterations used =            8  plain     mixing
     Exchange-correlation      = SLA  PW   PBE  PBE ( 1 4 3 4 0)
     EXX-fraction              =        0.00

     celldm(1)=  17.120919  celldm(2)=   0.000000  celldm(3)=   0.000000
     celldm(4)=   0.000000  celldm(5)=   0.000000  celldm(6)=   0.000000

     crystal axes: (cart. coord. in units of alat)
               a(1) = (   1.000000   0.000000   0.000000 )
               a(2) = (   0.000000   1.000000   0.000000 )
               a(3) = (   0.000000   0.000000   0.688742 )

     reciprocal axes: (cart. coord. in units 2 pi/alat)
               b(1) = (  1.000000  0.000000  0.000000 )
               b(2) = (  0.000000  1.000000  0.000000 )
               b(3) = (  0.000000  0.000000  1.451923 )

     PseudoPot. # 1 for Ru read from file:
     /home/camp/zhonxu/pseudo/ru_pbe_v1.uspp.F.UPF
     MD5 check sum: df00be1c11b23341d9806d8f1dfa10cf
     Pseudo is Ultrasoft + core correction, Zval = 16.0
     Generated by new atomic code, or converted to UPF format
     Using radial grid of  967 points,  6 beta functions with:
                l(1) =   0
                l(2) =   0
                l(3) =   1
                l(4) =   1
                l(5) =   2
                l(6) =   2
     Q(r) pseudized with  8 coefficients,  rinner =    1.300   1.300   1.300
                                                       1.300   1.300

     PseudoPot. # 2 for O  read from file:
     /home/camp/zhonxu/pseudo/o_pbe_v1.01.uspp.F.UPF
     MD5 check sum: 2bcb18d16ea4b960afae9ec6d52f22d2
     Pseudo is Ultrasoft + core correction, Zval =  6.0
     Generated by new atomic code, or converted to UPF format
     Using radial grid of  737 points,  5 beta functions with:
                l(1) =   0
                l(2) =   0
                l(3) =   1
                l(4) =   1
                l(5) =   2
     Q(r) pseudized with  8 coefficients,  rinner =    0.900   0.900   0.900
                                                       0.900   0.900

     PseudoPot. # 3 for O  read from file:
     /home/camp/zhonxu/pseudo/o_pbe_v1.01.uspp.F.UPF
     MD5 check sum: 2bcb18d16ea4b960afae9ec6d52f22d2
     Pseudo is Ultrasoft + core correction, Zval =  6.0
     Generated by new atomic code, or converted to UPF format
     Using radial grid of  737 points,  5 beta functions with:
                l(1) =   0
                l(2) =   0
                l(3) =   1
                l(4) =   1
                l(5) =   2
     Q(r) pseudized with  8 coefficients,  rinner =    0.900   0.900   0.900
                                                       0.900   0.900

     atomic species   valence    mass     pseudopotential
        Ru0           16.00   101.07000     Ru( 1.00)
        O1             6.00    15.99940     O ( 1.00)
        O2             6.00    15.99940     O ( 1.00)

     Starting magnetic structure
     atomic species   magnetization
        Ru0          0.000
        O1           0.000
        O2           0.000

     Simplified LDA+U calculation (l_max = 2) with parameters (eV):
     atomic species    L          U    alpha       J0     beta
        Ru0            2     0.0000   0.0000   0.0000   0.0000
        O1             1     0.0000  -0.1500   0.0000   0.0000
        O2             1     0.0000   0.0000   0.0000   0.0000

      4 Sym. Ops. (no inversion) found

   Cartesian axes

     site n.     atom                  positions (alat units)
         1           Ru0 tau(   1) = (  -0.1550000  -0.1550000   0.0000000  )
         2           Ru0 tau(   2) = (   0.0950000   0.0950000   0.1721854  )
         3           Ru0 tau(   3) = (  -0.1550000  -0.1550000   0.3443709  )
         4           Ru0 tau(   4) = (   0.0950000   0.0950000   0.5165563  )
         5           Ru0 tau(   5) = (  -0.1550000   0.3450000   0.0000000  )
         6           Ru0 tau(   6) = (   0.0950000   0.5950000   0.1721854  )
         7           Ru0 tau(   7) = (  -0.1550000   0.3450000   0.3443709  )
         8           Ru0 tau(   8) = (   0.0950000   0.5950000   0.5165563  )
         9           Ru0 tau(   9) = (   0.3450000  -0.1550000   0.0000000  )
        10           Ru0 tau(  10) = (   0.5950000   0.0950000   0.1721854  )
        11           Ru0 tau(  11) = (   0.3450000  -0.1550000   0.3443709  )
        12           Ru0 tau(  12) = (   0.5950000   0.0950000   0.5165563  )
        13           Ru0 tau(  13) = (   0.3450000   0.3450000   0.0000000  )
        14           Ru0 tau(  14) = (   0.5950000   0.5950000   0.1721854  )
        15           Ru0 tau(  15) = (   0.3450000   0.3450000   0.3443709  )
        16           Ru0 tau(  16) = (   0.5950000   0.5950000   0.5165563  )
        17           O1  tau(  17) = (   0.0000000   0.0000000   0.0000000  )
        18           O2  tau(  18) = (  -0.3100000  -0.3100000   0.0000000  )
        19           O2  tau(  19) = (   0.2500000  -0.0600000   0.1721854  )
        20           O2  tau(  20) = (  -0.0600000   0.2500000   0.1721854  )
        21           O2  tau(  21) = (   0.0000000   0.0000000   0.3443709  )
        22           O2  tau(  22) = (  -0.3100000  -0.3100000   0.3443709  )
        23           O2  tau(  23) = (   0.2500000  -0.0600000   0.5165563  )
        24           O2  tau(  24) = (  -0.0600000   0.2500000   0.5165563  )
        25           O2  tau(  25) = (   0.0000000   0.5000000   0.0000000  )
        26           O2  tau(  26) = (  -0.3100000   0.1900000   0.0000000  )
        27           O2  tau(  27) = (   0.2500000   0.4400000   0.1721854  )
        28           O2  tau(  28) = (  -0.0600000   0.7500000   0.1721854  )
        29           O2  tau(  29) = (   0.0000000   0.5000000   0.3443709  )
        30           O2  tau(  30) = (  -0.3100000   0.1900000   0.3443709  )
        31           O2  tau(  31) = (   0.2500000   0.4400000   0.5165563  )
        32           O2  tau(  32) = (  -0.0600000   0.7500000   0.5165563  )
        33           O2  tau(  33) = (   0.5000000   0.0000000   0.0000000  )
        34           O2  tau(  34) = (   0.1900000  -0.3100000   0.0000000  )
        35           O2  tau(  35) = (   0.7500000  -0.0600000   0.1721854  )
        36           O2  tau(  36) = (   0.4400000   0.2500000   0.1721854  )
        37           O2  tau(  37) = (   0.5000000   0.0000000   0.3443709  )
        38           O2  tau(  38) = (   0.1900000  -0.3100000   0.3443709  )
        39           O2  tau(  39) = (   0.7500000  -0.0600000   0.5165563  )
        40           O2  tau(  40) = (   0.4400000   0.2500000   0.5165563  )
        41           O2  tau(  41) = (   0.5000000   0.5000000   0.0000000  )
        42           O2  tau(  42) = (   0.1900000   0.1900000   0.0000000  )
        43           O2  tau(  43) = (   0.7500000   0.4400000   0.1721854  )
        44           O2  tau(  44) = (   0.4400000   0.7500000   0.1721854  )
        45           O2  tau(  45) = (   0.5000000   0.5000000   0.3443709  )
        46           O2  tau(  46) = (   0.1900000   0.1900000   0.3443709  )
        47           O2  tau(  47) = (   0.7500000   0.4400000   0.5165563  )
        48           O2  tau(  48) = (   0.4400000   0.7500000   0.5165563  )

     number of k points=    42  Methfessel-Paxton smearing, width (Ry)=  0.0100
                       cart. coord. in units 2pi/alat
        k(    1) = (   0.0000000   0.0000000   0.0000000), wk =   0.0156250
        k(    2) = (   0.0000000   0.0000000   0.3629808), wk =   0.0312500
        k(    3) = (   0.0000000   0.0000000  -0.7259615), wk =   0.0156250
        k(    4) = (   0.0000000   0.2500000   0.0000000), wk =   0.0625000
        k(    5) = (   0.0000000   0.2500000   0.3629808), wk =   0.1250000
        k(    6) = (   0.0000000   0.2500000  -0.7259615), wk =   0.0625000
        k(    7) = (   0.0000000  -0.5000000   0.0000000), wk =   0.0312500
        k(    8) = (   0.0000000  -0.5000000   0.3629808), wk =   0.0625000
        k(    9) = (   0.0000000  -0.5000000  -0.7259615), wk =   0.0312500
        k(   10) = (   0.2500000   0.2500000   0.0000000), wk =   0.0312500
        k(   11) = (   0.2500000   0.2500000   0.3629808), wk =   0.0625000
        k(   12) = (   0.2500000   0.2500000  -0.7259615), wk =   0.0312500
        k(   13) = (   0.2500000  -0.5000000   0.0000000), wk =   0.0625000
        k(   14) = (   0.2500000  -0.5000000   0.3629808), wk =   0.1250000
        k(   15) = (   0.2500000  -0.5000000  -0.7259615), wk =   0.0625000
        k(   16) = (  -0.5000000  -0.5000000   0.0000000), wk =   0.0156250
        k(   17) = (  -0.5000000  -0.5000000   0.3629808), wk =   0.0312500
        k(   18) = (  -0.5000000  -0.5000000  -0.7259615), wk =   0.0156250
        k(   19) = (   0.2500000  -0.2500000   0.0000000), wk =   0.0312500
        k(   20) = (   0.2500000  -0.2500000   0.3629808), wk =   0.0625000
        k(   21) = (   0.2500000  -0.2500000  -0.7259615), wk =   0.0312500
        k(   22) = (   0.0000000   0.0000000   0.0000000), wk =   0.0156250
        k(   23) = (   0.0000000   0.0000000   0.3629808), wk =   0.0312500
        k(   24) = (   0.0000000   0.0000000  -0.7259615), wk =   0.0156250
        k(   25) = (   0.0000000   0.2500000   0.0000000), wk =   0.0625000
        k(   26) = (   0.0000000   0.2500000   0.3629808), wk =   0.1250000
        k(   27) = (   0.0000000   0.2500000  -0.7259615), wk =   0.0625000
        k(   28) = (   0.0000000  -0.5000000   0.0000000), wk =   0.0312500
        k(   29) = (   0.0000000  -0.5000000   0.3629808), wk =   0.0625000
        k(   30) = (   0.0000000  -0.5000000  -0.7259615), wk =   0.0312500
        k(   31) = (   0.2500000   0.2500000   0.0000000), wk =   0.0312500
        k(   32) = (   0.2500000   0.2500000   0.3629808), wk =   0.0625000
        k(   33) = (   0.2500000   0.2500000  -0.7259615), wk =   0.0312500
        k(   34) = (   0.2500000  -0.5000000   0.0000000), wk =   0.0625000
        k(   35) = (   0.2500000  -0.5000000   0.3629808), wk =   0.1250000
        k(   36) = (   0.2500000  -0.5000000  -0.7259615), wk =   0.0625000
[...]
    eigenvectors:
  0.000  0.000  1.000
  0.500  0.500  0.000
  0.500  0.500  0.000
    occupations:
  0.894 -0.000 -0.000
 -0.000  0.882  0.004
 -0.000  0.004  0.882
   spin  2
    eigenvalues:
  0.878  0.886  0.894
    eigenvectors:
  0.000  0.000  1.000
  0.500  0.500  0.000
  0.500  0.500  0.000
    occupations:
  0.894 -0.000 -0.000
 -0.000  0.882  0.004
 -0.000  0.004  0.882
atomic mag. moment =     0.000000
atom   42   Tr[ns(na)] (up, down, total) =   2.65797  2.65797  5.31594
   spin  1
    eigenvalues:
  0.878  0.886  0.894
    eigenvectors:
  0.000  0.000  1.000
  0.500  0.500  0.000
  0.500  0.500  0.000
    occupations:
  0.894 -0.000 -0.000
 -0.000  0.882  0.004
 -0.000  0.004  0.882
   spin  2
    eigenvalues:
  0.878  0.886  0.894
    eigenvectors:
  0.000  0.000  1.000
  0.500  0.500  0.000
  0.500  0.500  0.000
    occupations:
  0.894 -0.000 -0.000
 -0.000  0.882  0.004
 -0.000  0.004  0.882
atomic mag. moment =     0.000000
atom   43   Tr[ns(na)] (up, down, total) =   2.65810  2.65810  5.31620
   spin  1
    eigenvalues:
  0.878  0.886  0.894
    eigenvectors:
  0.000  0.000  1.000
  0.500  0.500  0.000
  0.500  0.500  0.000
    occupations:
  0.894  0.000  0.000
  0.000  0.882 -0.004
  0.000 -0.004  0.882
   spin  2
    eigenvalues:
  0.878  0.886  0.894
    eigenvectors:
  0.000  0.000  1.000
  0.500  0.500  0.000
  0.500  0.500  0.000
    occupations:
  0.894  0.000  0.000
  0.000  0.882 -0.004
  0.000 -0.004  0.882
atomic mag. moment =    -0.000000
atom   44   Tr[ns(na)] (up, down, total) =   2.65810  2.65810  5.31620
   spin  1
    eigenvalues:
  0.878  0.886  0.894
    eigenvectors:
  0.000  0.000  1.000
  0.500  0.500  0.000
  0.500  0.500  0.000
    occupations:
  0.894  0.000  0.000
  0.000  0.882 -0.004
  0.000 -0.004  0.882
   spin  2
    eigenvalues:
  0.878  0.886  0.894
    eigenvectors:
  0.000  0.000  1.000
  0.500  0.500  0.000
  0.500  0.500  0.000
    occupations:
  0.894  0.000  0.000
  0.000  0.882 -0.004
  0.000 -0.004  0.882
atomic mag. moment =    -0.000000
atom   45   Tr[ns(na)] (up, down, total) =   2.65813  2.65813  5.31625
   spin  1
    eigenvalues:
  0.878  0.886  0.894
    eigenvectors:
  0.000  0.000  1.000
  0.500  0.500  0.000
  0.500  0.500  0.000
    occupations:
  0.894 -0.000 -0.000
 -0.000  0.882  0.004
 -0.000  0.004  0.882
   spin  2
    eigenvalues:
  0.878  0.886  0.894
    eigenvectors:
  0.000  0.000  1.000
  0.500  0.500  0.000
  0.500  0.500  0.000
    occupations:
  0.894 -0.000 -0.000
 -0.000  0.882  0.004
 -0.000  0.004  0.882
atomic mag. moment =     0.000000
atom   46   Tr[ns(na)] (up, down, total) =   2.65798  2.65798  5.31595
   spin  1
    eigenvalues:
  0.878  0.886  0.894
    eigenvectors:
  0.000  0.000  1.000
  0.500  0.500  0.000
  0.500  0.500  0.000
    occupations:
  0.894 -0.000 -0.000
 -0.000  0.882  0.004
 -0.000  0.004  0.882
   spin  2
    eigenvalues:
  0.878  0.886  0.894
    eigenvectors:
  0.000  0.000  1.000
  0.500  0.500  0.000
  0.500  0.500  0.000
    occupations:
  0.894 -0.000 -0.000
 -0.000  0.882  0.004
 -0.000  0.004  0.882
atomic mag. moment =     0.000000
atom   47   Tr[ns(na)] (up, down, total) =   2.65810  2.65810  5.31620
   spin  1
    eigenvalues:
  0.878  0.886  0.894
    eigenvectors:
  0.000  0.000  1.000
  0.500  0.500  0.000
  0.500  0.500  0.000
    occupations:
  0.894 -0.000 -0.000
 -0.000  0.882 -0.004
 -0.000 -0.004  0.882
   spin  2
    eigenvalues:
  0.878  0.886  0.894
    eigenvectors:
  0.000  0.000  1.000
  0.500  0.500  0.000
  0.500  0.500  0.000
    occupations:
  0.894 -0.000 -0.000
 -0.000  0.882 -0.004
 -0.000 -0.004  0.882
atomic mag. moment =    -0.000000
atom   48   Tr[ns(na)] (up, down, total) =   2.65810  2.65810  5.31620
   spin  1
    eigenvalues:
  0.878  0.886  0.894
    eigenvectors:
  0.000  0.000  1.000
  0.500  0.500  0.000
  0.500  0.500  0.000
    occupations:
  0.894 -0.000 -0.000
 -0.000  0.882 -0.004
 -0.000 -0.004  0.882
   spin  2
    eigenvalues:
  0.878  0.886  0.894
    eigenvectors:
  0.000  0.000  1.000
  0.500  0.500  0.000
  0.500  0.500  0.000
    occupations:
  0.894 -0.000 -0.000
 -0.000  0.882 -0.004
 -0.000 -0.004  0.882
atomic mag. moment =    -0.000000
N of occupied +U levels = 284.5814761
 --- exit write_ns ---

 ------ SPIN UP ------------

          k = 0.0000 0.0000 0.0000 ( 14779 PWs)   bands (ev):

   -60.8019 -60.8013 -60.7993 -60.7988 -60.7987 -60.7986 -60.7984 -60.7961
   -60.7911 -60.7894 -60.7885 -60.7883 -60.7883 -60.7883 -60.7880 -60.7880
   -31.0028 -31.0027 -31.0008 -31.0005 -30.9987 -30.9986 -30.9980 -30.9977
   -30.9913 -30.9911 -30.9906 -30.9904 -30.9871 -30.9870 -30.9861 -30.9858
   -30.8272 -30.8267 -30.8262 -30.8260 -30.8233 -30.8229 -30.8225 -30.8222
   -30.6575 -30.6464 -30.6459 -30.6455 -30.6455 -30.6454 -30.6452 -30.6341
   -30.6138 -30.6135 -30.6132 -30.6130 -30.6101 -30.6099 -30.6096 -30.6094
   -30.5834 -30.5825 -30.5817 -30.5817 -30.5815 -30.5813 -30.5811 -30.5809
    -7.4024  -6.8099  -6.8059  -6.6945  -6.6940  -6.6938  -6.6851  -6.4002
    -6.3204  -6.3203  -6.3202  -6.3117  -6.1295  -6.1253  -6.0707  -6.0663
    -6.0092  -6.0049  -5.9710  -5.9655  -5.7608  -5.7607  -5.7607  -5.7561
    -5.7465  -5.7465  -5.7462  -5.7306  -5.5610  -5.5552  -5.4261  -5.4204
     4.4091   4.4671   4.4727   4.4970   5.3469   5.3523   5.3554   5.3555
     5.4586   5.4655   5.4671   5.4672   5.6377   5.6380   5.7275   5.8169
     5.8206   5.8556   5.8559   5.8965   5.8994   5.9814   5.9834   5.9904
     5.9946   5.9946   5.9946   6.2243   6.2298   6.2299   6.2301   6.5187
     6.5226   6.7341   6.7348   6.9276   6.9289   7.2313   7.2326   7.2352
     7.2355   7.4195   7.4221   7.4251   7.4257   7.5573   7.5613   7.5643
     7.5644   7.9731   7.9761   7.9979   8.0004   8.0967   8.1014   8.1427
     8.1468   8.2918   8.2955   8.3059   8.3069   8.3088   8.3091   8.4532
     8.4570   8.4571   8.4590   8.5439   8.5454   8.5460   8.5931   8.5990
     8.5991   8.5993   9.2373   9.2401   9.2827   9.2865   9.4401   9.4407
     9.9045   9.9099   9.9109   9.9111   9.9181   9.9197   9.9386  10.1086
    10.1143  10.1147  10.1152  10.1387  10.1397  10.4275  10.4278  10.8432
    11.0211  11.0212  11.0213  11.0215  11.2452  11.3860  11.3861  11.3950
    11.3955  11.4158  11.4159  11.4408  11.9840  12.0193  12.0199  12.0955
    12.0956  12.0957  12.0962  12.0976  12.0985  12.1103  12.1112  12.2654
    12.2660  12.2663  12.2664  12.3062  12.3069  12.3070  12.3073  12.5792
    12.5799  13.0009  13.0014  13.1018  13.1032  13.1034  13.1034  13.5049
    13.5055  13.6051  13.6054  13.8146  13.8157  13.8158  13.8158  14.0475
    14.3826  14.6327  14.6330  14.6331  14.6346  15.7745  15.7747  15.7748
    15.7758  15.8076  15.8080  16.0231  16.0243  16.1822  16.1825  16.5785
    16.5788  16.5790  16.5793  16.9026  16.9026  16.9029  16.9030  17.3439
    17.3440  17.3574  17.3576  17.5296  17.5297  17.5297  17.5297  18.2616
    18.7590  20.9940  20.9947  20.9963  20.9986  22.1985  22.1992  22.3825
    22.3828  22.7197  22.7202  23.0031  23.0036  23.0048  23.0051  23.2959
    23.2965  23.6926  23.6935  24.2399  24.2401  24.2408  24.2418  25.0658
    25.0665  25.0672  25.0681  25.1950  25.1951  25.4077  25.4083  25.7210
    25.7212  25.9896  25.9905  26.0453  26.6860  26.7058  26.7068  26.8200
    26.8205  26.8206  26.8213  27.0695  27.0699  27.0750  27.0766  27.0772
    27.0789  27.8621  27.8623  27.9496  28.1227  28.1227  28.1652  28.1654
    28.1661  28.1661  29.0194  29.0467  29.0469  29.0485  29.0491  29.0582
    29.0843  29.0843  29.2697  29.2708  29.2710  29.2723  29.9755  29.9760
    29.9774  29.9776  30.2398  30.2402  30.4169  30.4186  30.7458  30.7463
    30.8712  31.0564  31.0564  31.0582  31.0583  31.2117  31.2118  31.2152
    31.2156  32.1334  32.1334  32.3096  32.4275  32.4276  32.6833  32.6834
    32.9235  32.9240  33.0509  33.0517  33.0524  33.0533  33.9264  33.9269
    33.9274  33.9287  34.3569  34.3571  34.3672  34.3681  34.4736  34.4756
    34.9116  34.9122  34.9553  34.9554  35.7025  35.7036  35.7777  35.7789
    35.7791  35.7801  35.9168  35.9179  36.1803  36.1806  36.3350  36.3503
    36.3507  36.3508  36.3526  37.3163  37.3166  37.7478  37.7485  37.7489
    37.7493  37.9303  37.9306  37.9327  37.9331  37.9334  37.9349  38.1567
    38.1570  38.1583  38.1587  38.4202  38.4213  38.6551  38.6553  38.6558
    38.6575  38.9059  38.9068  39.3006  39.3018  39.5251  39.8375  39.8381
    39.8390  39.8393  39.8462  39.8463  39.9214  39.9227  40.0134  40.0135
    40.0137  40.0154  40.0156  40.0182  40.1019  40.1023  40.3019  40.3019
    40.3020  40.3022  40.6309  40.8751  40.8768  40.9689  41.1000  41.4206
    41.5270  42.0299  42.0304  42.0306  42.0313  42.1336  42.1342  42.7025
    42.7026  42.7039  42.7040  42.7094  42.7101  42.8905  42.8907  42.8911
    42.8914  43.1649  43.1654  43.3272  43.6575  43.6580  43.6583  43.6602
[...]
    47.5841  47.5841  47.5853  47.5879  47.5981  47.5984  47.5988  47.5999
    47.6688  47.6691  48.0363  48.0367  48.1062  48.1069  48.1237  48.3544
    48.3545  48.3552  48.3567  48.4563  48.4568  48.5042  48.5046  48.5108
    48.5119  48.6616  48.6620  48.6631  48.6646  49.1335  49.1938  49.1945
    49.2229  49.2230  49.2238  49.2238  49.3184  49.3200  49.3703  49.3714
    49.5307  49.5309  49.7650  49.7658  49.8124  49.8124  49.8135  49.8141
    50.4676  50.4689  50.6331  50.6334  50.6334  50.6366  50.8820  50.8821
    51.0565  51.0993  51.1398  51.1404  51.2323  51.2325  51.3305  51.3306
    51.3308  51.3314  51.5375  51.5391  51.9436  51.9436  52.0112  52.0112
    52.0114  52.0116  52.3639  52.3643  52.3644  52.3645  52.5309  52.5309
    52.5593  52.5601  52.7653  52.7653  52.7737  52.7743  52.7745  52.7747
    53.0759  53.0776  53.0777  53.5131  53.7548  53.7550  53.7550  53.7557
    53.8370  53.8373  54.0063  54.0069  54.0560  54.0565  54.0570  54.0577
    54.3553  54.4590  54.4595  54.9214  54.9217  54.9219  55.1714  55.1719
    55.1721  55.1730  55.2476  55.2477  55.5659  55.5667  55.5672  55.5674

[...]

          k =-0.5000-0.5000 0.0000 ( 14712 PWs)   bands (ev):

[...]

 ------ SPIN DOWN ----------

[...]

          k =-0.5000-0.5000-0.7260 ( 14752 PWs)   bands (ev):

[...]

          k = 0.2500-0.2500-0.7260 ( 14788 PWs)   bands (ev):

   -60.7974 -60.7968 -60.7959 -60.7948 -60.7946 -60.7941 -60.7939 -60.7938
   -60.7937 -60.7933 -60.7929 -60.7929 -60.7928 -60.7925 -60.7919 -60.7917
   -30.9964 -30.9951 -30.9948 -30.9944 -30.9942 -30.9940 -30.9940 -30.9936
   -30.9936 -30.9935 -30.9935 -30.9933 -30.9933 -30.9932 -30.9932 -30.9932
   -30.7437 -30.7434 -30.7393 -30.7392 -30.7390 -30.7386 -30.7379 -30.7378
   -30.7352 -30.7350 -30.7335 -30.7334 -30.7331 -30.7329 -30.7298 -30.7296
   -30.5984 -30.5981 -30.5972 -30.5967 -30.5967 -30.5967 -30.5966 -30.5965
   -30.5965 -30.5963 -30.5963 -30.5962 -30.5961 -30.5961 -30.5956 -30.5956
    -6.8244  -6.8192  -6.5519  -6.5516  -6.5514  -6.5461  -6.4768  -6.4680
    -6.3274  -6.3273  -6.1582  -6.1582  -6.1575  -6.1450  -6.1203  -6.1146
    -5.9939  -5.9936  -5.9933  -5.9789  -5.8926  -5.8921  -5.8352  -5.8352
    -5.8351  -5.8331  -5.8191  -5.8191  -5.8058  -5.7946  -5.7241  -5.7107
     5.0681   5.0770   5.1191   5.1270   5.4345   5.4347   5.4348   5.4348
     5.4488   5.4488   5.4607   5.4621   5.7680   5.7730   5.9017   5.9032
     5.9043   5.9061   5.9093   5.9098   5.9950   6.0001   6.0002   6.0013
     6.0038   6.0062   6.2306   6.2392   6.2415   6.2416   6.3174   6.3184
     6.5974   6.6020   6.6071   6.6073   6.7282   6.7310   6.9821   6.9831
     7.1299   7.1319   7.1325   7.1325   7.2055   7.2060   7.6303   7.6336
     7.6353   7.6354   7.6751   7.6828   7.8029   7.8084   7.9959   7.9984
     8.0972   8.1005   8.1047   8.1048   8.5597   8.5629   8.5635   8.5637
     8.6393   8.6400   8.6712   8.6717   8.7022   8.7024   8.7223   8.7225
     8.8482   8.8503   8.8508   8.8508   9.0205   9.0237   9.1384   9.1425
     9.2301   9.2331   9.2439   9.2466   9.5145   9.5147   9.5160   9.5163
     9.6873   9.6891  10.0522  10.0578  10.0580  10.0583  10.3311  10.3335
    11.2840  11.2841  11.5758  11.5766  11.5768  11.5771  11.9800  11.9801
    11.9984  11.9988  12.0383  12.0385  12.1967  12.1970  12.1971  12.1973
    12.3966  12.3967  12.4587  12.4596  12.4675  12.4675  12.4741  12.4743
    12.4744  12.4744  12.6480  12.6490  12.7524  12.7530  12.7531  12.7535
    12.8829  12.8832  12.9208  12.9213  13.1207  13.1217  13.1217  13.1218
    13.1403  13.1407  13.3941  13.3954  13.3955  13.3955  13.7251  13.7256
    15.2235  15.2239  15.2954  15.2966  15.2966  15.2985  15.6654  15.6657
    15.6657  15.6659  15.6899  15.6902  15.9416  15.9420  16.2007  16.2011
    16.3719  16.3729  16.3776  16.3786  16.6062  16.6064  16.6065  16.6069
    16.8507  16.8508  17.3325  17.3327  17.3327  17.3328  17.3995  17.3996
    20.5953  20.5971  21.5473  21.5483  21.5495  21.5528  22.2031  22.2054
    22.9118  22.9126  22.9137  22.9172  22.9797  22.9824  24.0199  24.0205
    24.1330  24.1354  24.3334  24.3359  24.8387  24.8397  24.8414  24.8429
    25.0739  25.0756  25.7776  25.7784  25.7802  25.7804  25.8093  25.8094
    25.8630  25.8635  26.1022  26.1024  26.2917  26.2926  26.2931  26.2941
    26.4432  26.4462  26.6730  26.6741  26.6748  26.6763  27.5241  27.5251
    27.8058  27.8069  27.8077  27.8094  27.9320  27.9330  28.1293  28.1295
    28.2996  28.3012  28.4740  28.4745  28.4754  28.4767  28.4793  28.4810
    28.8668  28.8681  28.9457  28.9460  28.9463  28.9479  29.2687  29.2695
    29.3075  29.3079  29.7781  29.7802  29.9826  29.9826  29.9833  29.9842
    30.2114  30.2124  31.0775  31.0781  31.0782  31.0794  31.7133  31.7136
    32.1649  32.1663  32.1666  32.1676  32.8531  32.8548  33.0329  33.0344
    33.1938  33.1947  33.1957  33.1966  33.6889  33.6893  33.7582  33.7587
    34.3864  34.3865  34.5940  34.5941  34.5954  34.5964  35.1767  35.1773
    35.4993  35.5027  35.7163  35.7175  35.7189  35.7196  35.7198  35.7202
    35.7410  35.7429  35.8885  35.8886  35.9887  35.9889  35.9897  35.9906
    36.6731  36.6744  36.9291  36.9291  36.9303  36.9304  37.1047  37.1056
    37.1719  37.1719  37.1725  37.1733  37.9295  37.9298  38.4120  38.4125
    38.4128  38.4148  38.4473  38.4475  38.4635  38.4649  38.8564  38.8572
    38.8576  38.8584  38.8753  38.8767  39.0385  39.0396  39.0833  39.0833
    39.2452  39.2463  39.3233  39.3247  39.5955  39.5966  39.5973  39.5977
    39.6681  39.6685  39.7136  39.7145  39.8399  39.8400  39.8412  39.8418
    40.1492  40.1498  40.6745  40.6751  40.6756  40.6773  41.1749  41.1774
    41.6264  41.6270  41.9743  41.9745  42.0469  42.0478  42.2690  42.2691
    42.2695  42.2697  42.4275  42.4287  42.8039  42.8049  43.2782  43.2785
    43.2791  43.2806  43.8673  43.8674  43.8682  43.8683  43.9041  43.9056
[...]
    47.0778  47.0778  47.3222  47.3231  47.8518  47.8524  47.8531  47.8541
    48.0091  48.0096  48.2381  48.2389  48.2485  48.2487  48.2493  48.2508
    48.3617  48.3639  48.5199  48.5205  48.7683  48.7687  48.7690  48.7699
    49.1482  49.1496  49.1517  49.1521  49.1522  49.1533  49.4402  49.4405
    49.4938  49.4944  49.4957  49.4958  49.4965  49.4969  49.5232  49.5236
    49.7166  49.7169  49.8955  49.8963  50.0029  50.0036  50.0040  50.0052
    50.4615  50.4626  50.8171  50.8173  50.8182  50.8183  50.8623  50.8624
    50.9186  50.9193  50.9195  50.9205  51.0540  51.0556  51.1205  51.1209
    51.3432  51.3446  51.5526  51.5534  51.5535  51.5542  51.9629  51.9633
    52.0331  52.0332  52.0335  52.0343  52.2317  52.2330  52.2987  52.3010
    52.5857  52.5864  52.5869  52.5875  52.6046  52.6050  52.8631  52.8640
    53.0586  53.0592  53.3119  53.3127  53.3128  53.3133  53.3810  53.3817
    54.1071  54.1072  54.1946  54.1961  54.2783  54.2784  54.3877  54.3884
    54.4867  54.4871  54.4873  54.4887  55.1668  55.1673  55.1679  55.1680
    55.2767  55.2778  55.3925  55.3927  55.3929  55.3938  55.5282  55.5283

     the Fermi energy is    12.7123 ev

!    total energy              =   -4124.78888013 Ry
     Harris-Foulkes estimate   =   -4124.78888090 Ry
     estimated scf accuracy    <       0.00000079 Ry

     The total energy is the sum of the following terms:

     one-electron contribution =   -1365.39471436 Ry
     hartree contribution      =     934.02542771 Ry
     xc contribution           =    -627.48550352 Ry
     ewald contribution        =   -3065.87288853 Ry
     Hubbard energy            =      -0.05872207 Ry
     smearing contrib. (-TS)   =      -0.00247937 Ry

     total magnetization       =     0.00 Bohr mag/cell
     absolute magnetization    =     0.00 Bohr mag/cell

     convergence has been achieved in  11 iterations

     Writing output data file pwscf.save

     General routines

     Parallel routines
     Hubbard U routines

   This run was terminated on:  20:20:54  10Feb2014

   JOB DONE.