     Program PWSCF v.5.0.2 (svn rev. 9656) starts on 24Jan2014 at 16: 8:40

     Current dimensions of program PWSCF are:
     Max number of different atomic species (ntypx) = 10
     Max number of k-points (npk) =  40000
     Max angular momentum in pseudopotentials (lmaxx) =  3
     Reading input from RuO2-v-1.05.in

     Subspace diagonalization in iterative solution of the eigenvalue problem:
     a serial algorithm will be used

     bravais-lattice index     =            0
     lattice parameter (alat)  =       8.9003  a.u.
     unit-cell volume          =     454.3525 (a.u.)^3
     number of atoms/cell      =            6
     number of atomic types    =            2
     number of electrons       =        56.00
     number of Kohn-Sham states=           81
     kinetic-energy cutoff     =      40.0000  Ry
     charge density cutoff     =     500.0000  Ry
     convergence threshold     =      1.0E-06
     mixing beta               =       0.3000
     number of iterations used =            8  plain     mixing
     Exchange-correlation      = SLA  PW   PBE  PBE ( 1 4 3 4 0)
     EXX-fraction              =        0.00
     nstep                     =           50

     celldm(1)=   8.900256  celldm(2)=   0.000000  celldm(3)=   0.000000
     celldm(4)=   0.000000  celldm(5)=   0.000000  celldm(6)=   0.000000

     crystal axes: (cart. coord. in units of alat)
               a(1) = (   1.000000   0.000000   0.000000 )
               a(2) = (   0.000000   1.000000   0.000000 )
               a(3) = (   0.000000   0.000000   0.644444 )

     reciprocal axes: (cart. coord. in units 2 pi/alat)
               b(1) = (  1.000000  0.000000  0.000000 )
               b(2) = (  0.000000  1.000000  0.000000 )
               b(3) = (  0.000000  0.000000  1.551724 )

     PseudoPot. # 1 for Ru read from file:
     /home/camp/zhonxu/pseudo/ru_pbe_v1.uspp.F.UPF
     MD5 check sum: df00be1c11b23341d9806d8f1dfa10cf
     Pseudo is Ultrasoft + core correction, Zval = 16.0
     Generated by new atomic code, or converted to UPF format
     Using radial grid of  967 points,  6 beta functions with:
                l(1) =   0
                l(2) =   0
                l(3) =   1
                l(4) =   1
                l(5) =   2
                l(6) =   2
     Q(r) pseudized with  8 coefficients,  rinner =    1.300   1.300   1.300
                                                       1.300   1.300

     PseudoPot. # 2 for O  read from file:
     /home/camp/zhonxu/pseudo/o_pbe_v1.01.uspp.F.UPF
     MD5 check sum: 2bcb18d16ea4b960afae9ec6d52f22d2
     Pseudo is Ultrasoft + core correction, Zval =  6.0
     Generated by new atomic code, or converted to UPF format
     Using radial grid of  737 points,  5 beta functions with:
                l(1) =   0
                l(2) =   0
                l(3) =   1
                l(4) =   1
                l(5) =   2
     Q(r) pseudized with  8 coefficients,  rinner =    0.900   0.900   0.900
                                                       0.900   0.900

     atomic species   valence    mass     pseudopotential
        Ru0           16.00   101.07000     Ru( 1.00)
        O1             6.00    15.99940     O ( 1.00)

     Starting magnetic structure
     atomic species   magnetization
        Ru0          0.000
        O1           0.000

      8 Sym. Ops., with inversion, found
          (note:  8 additional sym.ops. were found but ignored
           their fractional translations are incommensurate with FFT grid)

   Cartesian axes

     site n.     atom                  positions (alat units)
         1           Ru0 tau(   1) = (   0.0000000   0.0000000   0.0000000  )
         2           Ru0 tau(   2) = (   0.5000000   0.5000000   0.3222222  )
         3           O1  tau(   3) = (   0.3050000   0.3050000   0.0000000  )
         4           O1  tau(   4) = (  -0.3050000  -0.3050000   0.0000000  )
         5           O1  tau(   5) = (   0.8050000   0.1950000   0.3222222  )
         6           O1  tau(   6) = (   0.1950000   0.8050000   0.3222222  )

     number of k points=    54  Methfessel-Paxton smearing, width (Ry)=  0.0100
                       cart. coord. in units 2pi/alat
        k(    1) = (   0.0000000   0.0000000   0.0000000), wk =   0.0080000
        k(    2) = (   0.0000000   0.0000000   0.3103448), wk =   0.0160000
        k(    3) = (   0.0000000   0.0000000   0.6206897), wk =   0.0160000
        k(    4) = (   0.0000000   0.2000000   0.0000000), wk =   0.0320000
        k(    5) = (   0.0000000   0.2000000   0.3103448), wk =   0.0640000
        k(    6) = (   0.0000000   0.2000000   0.6206897), wk =   0.0640000
        k(    7) = (   0.0000000   0.4000000   0.0000000), wk =   0.0320000
        k(    8) = (   0.0000000   0.4000000   0.3103448), wk =   0.0640000
        k(    9) = (   0.0000000   0.4000000   0.6206897), wk =   0.0640000
        k(   10) = (   0.2000000   0.2000000   0.0000000), wk =   0.0160000
        k(   11) = (   0.2000000   0.2000000   0.3103448), wk =   0.0320000
        k(   12) = (   0.2000000   0.2000000   0.6206897), wk =   0.0320000
        k(   13) = (   0.2000000   0.4000000   0.0000000), wk =   0.0320000
        k(   14) = (   0.2000000   0.4000000   0.3103448), wk =   0.0640000
        k(   15) = (   0.2000000   0.4000000   0.6206897), wk =   0.0640000
        k(   16) = (   0.4000000   0.4000000   0.0000000), wk =   0.0160000
        k(   17) = (   0.4000000   0.4000000   0.3103448), wk =   0.0320000
        k(   18) = (   0.4000000   0.4000000   0.6206897), wk =   0.0320000
        k(   19) = (  -0.2000000   0.2000000   0.0000000), wk =   0.0160000
        k(   20) = (  -0.2000000   0.2000000  -0.3103448), wk =   0.0320000
        k(   21) = (  -0.2000000   0.2000000  -0.6206897), wk =   0.0320000
        k(   22) = (  -0.2000000   0.4000000   0.0000000), wk =   0.0320000
        k(   23) = (  -0.2000000   0.4000000  -0.3103448), wk =   0.0640000
        k(   24) = (  -0.2000000   0.4000000  -0.6206897), wk =   0.0640000
        k(   25) = (  -0.4000000   0.4000000   0.0000000), wk =   0.0160000
        k(   26) = (  -0.4000000   0.4000000  -0.3103448), wk =   0.0320000
        k(   27) = (  -0.4000000   0.4000000  -0.6206897), wk =   0.0320000
        k(   28) = (   0.0000000   0.0000000   0.0000000), wk =   0.0080000
        k(   29) = (   0.0000000   0.0000000   0.3103448), wk =   0.0160000
        k(   30) = (   0.0000000   0.0000000   0.6206897), wk =   0.0160000
        k(   31) = (   0.0000000   0.2000000   0.0000000), wk =   0.0320000
        k(   32) = (   0.0000000   0.2000000   0.3103448), wk =   0.0640000
        k(   33) = (   0.0000000   0.2000000   0.6206897), wk =   0.0640000
        k(   34) = (   0.0000000   0.4000000   0.0000000), wk =   0.0320000
        k(   35) = (   0.0000000   0.4000000   0.3103448), wk =   0.0640000
        k(   36) = (   0.0000000   0.4000000   0.6206897), wk =   0.0640000
        k(   37) = (   0.2000000   0.2000000   0.0000000), wk =   0.0160000
        k(   38) = (   0.2000000   0.2000000   0.3103448), wk =   0.0320000
        k(   39) = (   0.2000000   0.2000000   0.6206897), wk =   0.0320000
        k(   40) = (   0.2000000   0.4000000   0.0000000), wk =   0.0320000
        k(   41) = (   0.2000000   0.4000000   0.3103448), wk =   0.0640000
        k(   42) = (   0.2000000   0.4000000   0.6206897), wk =   0.0640000
        k(   43) = (   0.4000000   0.4000000   0.0000000), wk =   0.0160000
        k(   44) = (   0.4000000   0.4000000   0.3103448), wk =   0.0320000
        k(   45) = (   0.4000000   0.4000000   0.6206897), wk =   0.0320000
        k(   46) = (  -0.2000000   0.2000000   0.0000000), wk =   0.0160000
        k(   47) = (  -0.2000000   0.2000000  -0.3103448), wk =   0.0320000
        k(   48) = (  -0.2000000   0.2000000  -0.6206897), wk =   0.0320000
        k(   49) = (  -0.2000000   0.4000000   0.0000000), wk =   0.0320000
        k(   50) = (  -0.2000000   0.4000000  -0.3103448), wk =   0.0640000
        k(   51) = (  -0.2000000   0.4000000  -0.6206897), wk =   0.0640000
        k(   52) = (  -0.4000000   0.4000000   0.0000000), wk =   0.0160000
        k(   53) = (  -0.4000000   0.4000000  -0.3103448), wk =   0.0320000
        k(   54) = (  -0.4000000   0.4000000  -0.6206897), wk =   0.0320000

     Largest allocated arrays     est. size (Mb)     dimensions
     Largest temporary arrays     est. size (Mb)     dimensions

     Check: negative/imaginary core charge=   -0.000008    0.000000

     Initial potential from superposition of free atoms
     Check: negative starting charge=(component1):   -0.064520
     Check: negative starting charge=(component2):   -0.064520

     starting charge   53.99996, renormalised to   56.00000

     negative rho (up, down):  0.669E-01 0.669E-01
     Starting wfc are   42 randomized atomic wfcs

     Self-consistent Calculation

     iteration #  1     ecut=    40.00 Ry     beta=0.30
     Davidson diagonalization with overlap
     ethr =  1.00E-02,  avg # of iterations =  5.2

     negative rho (up, down):  0.713E-01 0.713E-01

     total energy              =    -514.79097623 Ry
     Harris-Foulkes estimate   =    -516.46292414 Ry
     estimated scf accuracy    <       3.57600753 Ry

     total magnetization       =     0.00 Bohr mag/cell
     absolute magnetization    =     0.00 Bohr mag/cell

[...]

     End of self-consistent calculation

 ------ SPIN UP ------------

          k = 0.0000 0.0000 0.0000 (  1955 PWs)   bands (ev):

   -61.7590 -61.7553 -31.9017 -31.9016 -31.6461 -31.6458 -31.5193 -31.5044
    -7.9931  -7.0466  -6.3369  -6.3366   3.8687   3.8974   5.0872   5.4326
     5.4327   7.5599   7.5599   8.0539   9.1929   9.4661   9.4662   9.7237
    10.0883  10.5971  10.5973  10.6129  10.7198  12.7437  13.2727  15.9557
    15.9558  16.9066  17.3946  21.3861  21.3862  24.5746  25.5742  25.8772
    27.1211  28.4276  28.4276  29.0364  30.3025  31.9704  32.9804  32.9804
    34.0877  34.0877  35.3032  36.8666  37.1873  37.1874  38.1521  40.1291
    40.1643  40.1890  40.5506  41.5087  41.8685  41.8686  42.6007  42.6008
    43.2131  43.2132  43.5344  45.5823  46.7559  48.3925  48.3925  48.7924
    49.3021  49.6334  49.6334  50.3485  50.3503  50.4793  50.4793  50.6565
    52.1694

[...]

          k =-0.2000 0.2000 0.0000 (  1951 PWs)   bands (ev):

[...]

 ------ SPIN DOWN ----------

[...]

     the Fermi energy is    11.7595 ev

!    total energy              =    -515.57562355 Ry
     Harris-Foulkes estimate   =    -515.57562187 Ry
     estimated scf accuracy    <       0.00000014 Ry

     The total energy is the sum of the following terms:

     one-electron contribution =    -184.21868395 Ry
     hartree contribution      =     121.67664717 Ry
     xc contribution           =     -78.25081355 Ry
     ewald contribution        =    -374.78196562 Ry
     smearing contrib. (-TS)   =      -0.00080760 Ry

[...]

     convergence has been achieved in  10 iterations

     Forces acting on atoms (Ry/au):

     negative rho (up, down):  0.716E-01 0.716E-01
     atom    1 type  1   force =     0.00000000    0.00000000    0.00000000
     atom    2 type  1   force =     0.00000000    0.00000000    0.00000000
[...]
        k(    7) = (  -0.0000052   0.4074792   0.0000000), wk =   0.0320000
        k(    8) = (  -0.0000052   0.4074792   0.2990568), wk =   0.0640000
        k(    9) = (  -0.0000052   0.4074792   0.5981135), wk =   0.0640000
        k(   10) = (   0.2037370   0.2037370   0.0000000), wk =   0.0160000
        k(   11) = (   0.2037370   0.2037370   0.2990568), wk =   0.0320000
        k(   12) = (   0.2037370   0.2037370   0.5981135), wk =   0.0320000
        k(   13) = (   0.2037344   0.4074766   0.0000000), wk =   0.0320000
        k(   14) = (   0.2037344   0.4074766   0.2990568), wk =   0.0640000
        k(   15) = (   0.2037344   0.4074766   0.5981135), wk =   0.0640000
        k(   16) = (   0.4074740   0.4074740   0.0000000), wk =   0.0160000
        k(   17) = (   0.4074740   0.4074740   0.2990568), wk =   0.0320000
        k(   18) = (   0.4074740   0.4074740   0.5981135), wk =   0.0320000
        k(   19) = (  -0.2037422   0.2037422   0.0000000), wk =   0.0160000
        k(   20) = (  -0.2037422   0.2037422  -0.2990568), wk =   0.0320000
        k(   21) = (  -0.2037422   0.2037422  -0.5981135), wk =   0.0320000
        k(   22) = (  -0.2037448   0.4074818   0.0000000), wk =   0.0320000
        k(   23) = (  -0.2037448   0.4074818  -0.2990568), wk =   0.0640000
        k(   24) = (  -0.2037448   0.4074818  -0.5981135), wk =   0.0640000
        k(   25) = (  -0.4074844   0.4074844   0.0000000), wk =   0.0160000
        k(   26) = (  -0.4074844   0.4074844  -0.2990568), wk =   0.0320000
        k(   27) = (  -0.4074844   0.4074844  -0.5981135), wk =   0.0320000
        k(   28) = (   0.0000000   0.0000000   0.0000000), wk =   0.0080000
        k(   29) = (   0.0000000   0.0000000   0.2990568), wk =   0.0160000
        k(   30) = (   0.0000000   0.0000000   0.5981135), wk =   0.0160000
        k(   31) = (  -0.0000026   0.2037396   0.0000000), wk =   0.0320000
        k(   32) = (  -0.0000026   0.2037396   0.2990568), wk =   0.0640000
        k(   33) = (  -0.0000026   0.2037396   0.5981135), wk =   0.0640000
        k(   34) = (  -0.0000052   0.4074792   0.0000000), wk =   0.0320000
        k(   35) = (  -0.0000052   0.4074792   0.2990568), wk =   0.0640000
        k(   36) = (  -0.0000052   0.4074792   0.5981135), wk =   0.0640000
        k(   37) = (   0.2037370   0.2037370   0.0000000), wk =   0.0160000
        k(   38) = (   0.2037370   0.2037370   0.2990568), wk =   0.0320000
        k(   39) = (   0.2037370   0.2037370   0.5981135), wk =   0.0320000
        k(   40) = (   0.2037344   0.4074766   0.0000000), wk =   0.0320000
        k(   41) = (   0.2037344   0.4074766   0.2990568), wk =   0.0640000
        k(   42) = (   0.2037344   0.4074766   0.5981135), wk =   0.0640000
        k(   43) = (   0.4074740   0.4074740   0.0000000), wk =   0.0160000
        k(   44) = (   0.4074740   0.4074740   0.2990568), wk =   0.0320000
        k(   45) = (   0.4074740   0.4074740   0.5981135), wk =   0.0320000
        k(   46) = (  -0.2037422   0.2037422   0.0000000), wk =   0.0160000
        k(   47) = (  -0.2037422   0.2037422  -0.2990568), wk =   0.0320000
        k(   48) = (  -0.2037422   0.2037422  -0.5981135), wk =   0.0320000
        k(   49) = (  -0.2037448   0.4074818   0.0000000), wk =   0.0320000
        k(   50) = (  -0.2037448   0.4074818  -0.2990568), wk =   0.0640000
        k(   51) = (  -0.2037448   0.4074818  -0.5981135), wk =   0.0640000
        k(   52) = (  -0.4074844   0.4074844   0.0000000), wk =   0.0160000
        k(   53) = (  -0.4074844   0.4074844  -0.2990568), wk =   0.0320000
        k(   54) = (  -0.4074844   0.4074844  -0.5981135), wk =   0.0320000

     Check: negative/imaginary core charge=   -0.000008    0.000000
     Check: negative starting charge=(component1):   -0.129648

[...]

     Threshold (ethr) on eigenvalues was too large:
     Diagonalizing with lowered threshold

     Davidson diagonalization with overlap
     ethr =  2.49E-10,  avg # of iterations =  3.0

[...]

     Volume is kept fixed: isostatic pressure set to zero

     bfgs converged in   7 scf cycles and   6 bfgs steps
     (criteria: energy < 0.10E-03, force < 0.10E-02, cell < 0.50E+00)

     End of BFGS Geometry Optimization

     Final enthalpy =    -515.5841556825 Ry
Begin final coordinates
     new unit-cell volume =    454.35255 a.u.^3 (    67.32810 Ang^3 )

CELL_PARAMETERS (alat=  8.90025590)
   0.981645235   0.000012585   0.000000000
   0.000012585   0.981645235   0.000000000
   0.000000000   0.000000000   0.668769346

ATOMIC_POSITIONS (crystal)
Ru0      0.000000000   0.000000000   0.000000000    0   0   0
Ru0      0.500000000   0.500000000   0.500000000    0   0   0
O1       0.306333846   0.306333846   0.000000000    1   1   0
O1      -0.306333846  -0.306333846   0.000000000    1   1   0
O1       0.806335564   0.193664436   0.500000000    1   1   0
O1       0.193664436   0.806335564   0.500000000    1   1   0
End final coordinates

     A final scf calculation at the relaxed structure.
     The G-vectors are recalculated for the final unit cell
     Results may differ from those at the preceding step.

     bravais-lattice index     =            0
     lattice parameter (alat)  =       8.9003  a.u.
     unit-cell volume          =     454.3525 (a.u.)^3
     number of atoms/cell      =            6
     number of atomic types    =            2
     number of electrons       =        56.00
     number of Kohn-Sham states=           81
     kinetic-energy cutoff     =      40.0000  Ry
     charge density cutoff     =     500.0000  Ry
     convergence threshold     =      1.0E-08
     mixing beta               =       0.3000
     number of iterations used =            8  plain     mixing
     Exchange-correlation      = SLA  PW   PBE  PBE ( 1 4 3 4 0)
     EXX-fraction              =        0.00

     celldm(1)=   8.900256  celldm(2)=   0.000000  celldm(3)=   0.000000
     celldm(4)=   0.000000  celldm(5)=   0.000000  celldm(6)=   0.000000

     crystal axes: (cart. coord. in units of alat)
               a(1) = (   0.981645   0.000013   0.000000 )
               a(2) = (   0.000013   0.981645   0.000000 )
               a(3) = (   0.000000   0.000000   0.668769 )

     reciprocal axes: (cart. coord. in units 2 pi/alat)
               b(1) = (  1.018698 -0.000013  0.000000 )
               b(2) = ( -0.000013  1.018698  0.000000 )
               b(3) = (  0.000000  0.000000  1.495284 )

     PseudoPot. # 1 for Ru read from file:
     /home/camp/zhonxu/pseudo/ru_pbe_v1.uspp.F.UPF
     MD5 check sum: df00be1c11b23341d9806d8f1dfa10cf
     Pseudo is Ultrasoft + core correction, Zval = 16.0
     Generated by new atomic code, or converted to UPF format
     Using radial grid of  967 points,  6 beta functions with:
                l(1) =   0
                l(2) =   0
                l(3) =   1
                l(4) =   1
                l(5) =   2
                l(6) =   2
     Q(r) pseudized with  8 coefficients,  rinner =    1.300   1.300   1.300
                                                       1.300   1.300

     PseudoPot. # 2 for O  read from file:
     /home/camp/zhonxu/pseudo/o_pbe_v1.01.uspp.F.UPF
     MD5 check sum: 2bcb18d16ea4b960afae9ec6d52f22d2
     Pseudo is Ultrasoft + core correction, Zval =  6.0
     Generated by new atomic code, or converted to UPF format
     Using radial grid of  737 points,  5 beta functions with:
                l(1) =   0
                l(2) =   0
                l(3) =   1
                l(4) =   1
                l(5) =   2
     Q(r) pseudized with  8 coefficients,  rinner =    0.900   0.900   0.900
                                                       0.900   0.900

     atomic species   valence    mass     pseudopotential
        Ru0           16.00   101.07000     Ru( 1.00)
        O1             6.00    15.99940     O ( 1.00)

     Starting magnetic structure
     atomic species   magnetization
        Ru0          0.000
        O1           0.000

      8 Sym. Ops., with inversion, found
          (note:  8 additional sym.ops. were found but ignored
           their fractional translations are incommensurate with FFT grid)

   Cartesian axes

     site n.     atom                  positions (alat units)
         1           Ru0 tau(   1) = (   0.0000000   0.0000000   0.0000000  )
         2           Ru0 tau(   2) = (   0.4908289   0.4908289   0.3343847  )
         3           O1  tau(   3) = (   0.3007150   0.3007150   0.0000000  )
         4           O1  tau(   4) = (  -0.3007150  -0.3007150   0.0000000  )
         5           O1  tau(   5) = (   0.7915379   0.1901199   0.3343847  )
         6           O1  tau(   6) = (   0.1901199   0.7915379   0.3343847  )

     number of k points=    54  Methfessel-Paxton smearing, width (Ry)=  0.0100
                       cart. coord. in units 2pi/alat
        k(    1) = (   0.0000000   0.0000000   0.0000000), wk =   0.0080000
        k(    2) = (   0.0000000   0.0000000   0.2990568), wk =   0.0160000
        k(    3) = (   0.0000000   0.0000000   0.5981135), wk =   0.0160000
        k(    4) = (  -0.0000026   0.2037396   0.0000000), wk =   0.0320000
        k(    5) = (  -0.0000026   0.2037396   0.2990568), wk =   0.0640000
        k(    6) = (  -0.0000026   0.2037396   0.5981135), wk =   0.0640000
        k(    7) = (  -0.0000052   0.4074792   0.0000000), wk =   0.0320000
        k(    8) = (  -0.0000052   0.4074792   0.2990568), wk =   0.0640000
        k(    9) = (  -0.0000052   0.4074792   0.5981135), wk =   0.0640000
        k(   10) = (   0.2037370   0.2037370   0.0000000), wk =   0.0160000
        k(   11) = (   0.2037370   0.2037370   0.2990568), wk =   0.0320000
        k(   12) = (   0.2037370   0.2037370   0.5981135), wk =   0.0320000
        k(   13) = (   0.2037344   0.4074766   0.0000000), wk =   0.0320000
        k(   14) = (   0.2037344   0.4074766   0.2990568), wk =   0.0640000
        k(   15) = (   0.2037344   0.4074766   0.5981135), wk =   0.0640000
        k(   16) = (   0.4074740   0.4074740   0.0000000), wk =   0.0160000
        k(   17) = (   0.4074740   0.4074740   0.2990568), wk =   0.0320000
        k(   18) = (   0.4074740   0.4074740   0.5981135), wk =   0.0320000
        k(   19) = (  -0.2037422   0.2037422   0.0000000), wk =   0.0160000
        k(   20) = (  -0.2037422   0.2037422  -0.2990568), wk =   0.0320000
        k(   21) = (  -0.2037422   0.2037422  -0.5981135), wk =   0.0320000
        k(   22) = (  -0.2037448   0.4074818   0.0000000), wk =   0.0320000
        k(   23) = (  -0.2037448   0.4074818  -0.2990568), wk =   0.0640000
        k(   24) = (  -0.2037448   0.4074818  -0.5981135), wk =   0.0640000
        k(   25) = (  -0.4074844   0.4074844   0.0000000), wk =   0.0160000
        k(   26) = (  -0.4074844   0.4074844  -0.2990568), wk =   0.0320000
        k(   27) = (  -0.4074844   0.4074844  -0.5981135), wk =   0.0320000
        k(   28) = (   0.0000000   0.0000000   0.0000000), wk =   0.0080000
        k(   29) = (   0.0000000   0.0000000   0.2990568), wk =   0.0160000
        k(   30) = (   0.0000000   0.0000000   0.5981135), wk =   0.0160000
        k(   31) = (  -0.0000026   0.2037396   0.0000000), wk =   0.0320000
        k(   32) = (  -0.0000026   0.2037396   0.2990568), wk =   0.0640000
        k(   33) = (  -0.0000026   0.2037396   0.5981135), wk =   0.0640000
        k(   34) = (  -0.0000052   0.4074792   0.0000000), wk =   0.0320000
        k(   35) = (  -0.0000052   0.4074792   0.2990568), wk =   0.0640000
        k(   36) = (  -0.0000052   0.4074792   0.5981135), wk =   0.0640000
        k(   37) = (   0.2037370   0.2037370   0.0000000), wk =   0.0160000
        k(   38) = (   0.2037370   0.2037370   0.2990568), wk =   0.0320000
        k(   39) = (   0.2037370   0.2037370   0.5981135), wk =   0.0320000
        k(   40) = (   0.2037344   0.4074766   0.0000000), wk =   0.0320000
        k(   41) = (   0.2037344   0.4074766   0.2990568), wk =   0.0640000
        k(   42) = (   0.2037344   0.4074766   0.5981135), wk =   0.0640000
        k(   43) = (   0.4074740   0.4074740   0.0000000), wk =   0.0160000
        k(   44) = (   0.4074740   0.4074740   0.2990568), wk =   0.0320000
        k(   45) = (   0.4074740   0.4074740   0.5981135), wk =   0.0320000
        k(   46) = (  -0.2037422   0.2037422   0.0000000), wk =   0.0160000
        k(   47) = (  -0.2037422   0.2037422  -0.2990568), wk =   0.0320000
        k(   48) = (  -0.2037422   0.2037422  -0.5981135), wk =   0.0320000
        k(   49) = (  -0.2037448   0.4074818   0.0000000), wk =   0.0320000
        k(   50) = (  -0.2037448   0.4074818  -0.2990568), wk =   0.0640000
        k(   51) = (  -0.2037448   0.4074818  -0.5981135), wk =   0.0640000
        k(   52) = (  -0.4074844   0.4074844   0.0000000), wk =   0.0160000
        k(   53) = (  -0.4074844   0.4074844  -0.2990568), wk =   0.0320000
        k(   54) = (  -0.4074844   0.4074844  -0.5981135), wk =   0.0320000

     Largest allocated arrays     est. size (Mb)     dimensions
     Largest temporary arrays     est. size (Mb)     dimensions

     Check: negative/imaginary core charge=   -0.000008    0.000000

     Initial potential from superposition of free atoms
     Check: negative starting charge=(component1):   -0.064824
     Check: negative starting charge=(component2):   -0.064824

     starting charge   53.99996, renormalised to   56.00000

     negative rho (up, down):  0.672E-01 0.672E-01
     Starting wfc are   42 randomized atomic wfcs

     Self-consistent Calculation

[...]

     total energy              =    -515.58429232 Ry
     Harris-Foulkes estimate   =    -515.58429194 Ry
     estimated scf accuracy    <       0.00000003 Ry

[...]

     iteration # 12     ecut=    40.00 Ry     beta=0.30
     Davidson diagonalization with overlap
     ethr =  5.57E-11,  avg # of iterations =  1.3

     negative rho (up, down):  0.722E-01 0.722E-01

     End of self-consistent calculation

 ------ SPIN UP ------------

[...]

 ------ SPIN DOWN ----------

[...]

          k = 0.4075 0.4075 0.5981 (  1964 PWs)   bands (ev):

[...]

          k =-0.4075 0.4075-0.5981 (  1964 PWs)   bands (ev):

   -61.7501 -61.7500 -31.9359 -31.9353 -31.6828 -31.6819 -31.5510 -31.5509
    -6.9042  -6.8177  -6.7273  -6.6467   5.0193   5.1282   5.2776   5.3470
     5.9809   6.2901   7.2212   7.3116   8.1457   8.3309   9.0296   9.2689
    10.8519  11.2075  11.2682  11.3900  11.7915  12.2351  14.0020  14.5930
    15.0334  15.5949  21.6317  22.0050  23.1719  23.7780  24.2906  24.6647
    25.5450  25.9591  28.7095  28.8143  30.2393  30.7248  32.4075  33.1693
    34.0161  34.2612  34.4846  35.5035  38.0797  38.1705  38.7719  39.2361
    40.3807  40.7920  41.5794  42.5930  42.6863  43.4198  43.5980  44.3675
    44.4213  44.5934  45.2287  45.7138  46.4059  47.0271  47.3607  48.3792
    48.8864  49.0236  49.2106  49.7641  50.1372  51.1301  51.6307  52.1598
    53.4774

     the Fermi energy is    11.7013 ev

!    total energy              =    -515.58429271 Ry
     Harris-Foulkes estimate   =    -515.58429233 Ry
     estimated scf accuracy    <          3.2E-09 Ry

     The total energy is the sum of the following terms:

     one-electron contribution =    -180.20452435 Ry
     hartree contribution      =     119.68390816 Ry
     xc contribution           =     -78.20271109 Ry
     ewald contribution        =    -376.86021378 Ry
     smearing contrib. (-TS)   =      -0.00075165 Ry

     total magnetization       =     0.00 Bohr mag/cell
     absolute magnetization    =     0.00 Bohr mag/cell

     convergence has been achieved in  12 iterations

     Forces acting on atoms (Ry/au):

     negative rho (up, down):  0.722E-01 0.722E-01
     atom    1 type  1   force =     0.00000000    0.00000000    0.00000000
     atom    2 type  1   force =     0.00000000    0.00000000    0.00000000
     atom    3 type  2   force =     0.00014761    0.00014761    0.00000000
     atom    4 type  2   force =    -0.00014761   -0.00014761    0.00000000
     atom    5 type  2   force =     0.00014229   -0.00014229    0.00000000
     atom    6 type  2   force =    -0.00014229    0.00014229    0.00000000

     Total force =     0.000410     Total SCF correction =     0.000081
     SCF correction compared to forces is large: reduce conv_thr to get better values

     entering subroutine stress ...

     negative rho (up, down):  0.722E-01 0.722E-01
          total   stress  (Ry/bohr**3)                   (kbar)     P= -127.79
  -0.00087445  -0.00000030   0.00000000       -128.64     -0.04      0.00
  -0.00000030  -0.00087445   0.00000000         -0.04   -128.64      0.00
   0.00000000   0.00000000  -0.00085730          0.00      0.00   -126.11

     General routines

     Parallel routines

   This run was terminated on:  16:48:35  24Jan2014

   JOB DONE.