     Program PWSCF v.5.0.2 (svn rev. 9656) starts on 23Jan2014 at 20:40:27

     Current dimensions of program PWSCF are:
     Max number of different atomic species (ntypx) = 10
     Max number of k-points (npk) =  40000
     Max angular momentum in pseudopotentials (lmaxx) =  3
     Reading input from CrO2-v-1.2.in

     Subspace diagonalization in iterative solution of the eigenvalue problem:
     a serial algorithm will be used

     bravais-lattice index     =            0
     lattice parameter (alat)  =       9.2016  a.u.
     unit-cell volume          =     502.0761 (a.u.)^3
     number of atoms/cell      =            6
     number of atomic types    =            2
     number of electrons       =        52.00
     number of Kohn-Sham states=           75
     kinetic-energy cutoff     =      40.0000  Ry
     charge density cutoff     =     500.0000  Ry
     convergence threshold     =      1.0E-06
     mixing beta               =       0.7000
     number of iterations used =            8  plain     mixing
     Exchange-correlation      = SLA  PW   PBE  PBE ( 1 4 3 4 0)
     EXX-fraction              =        0.00
     nstep                     =           50

     celldm(1)=   9.201558  celldm(2)=   0.000000  celldm(3)=   0.000000
     celldm(4)=   0.000000  celldm(5)=   0.000000  celldm(6)=   0.000000

     crystal axes: (cart. coord. in units of alat)
               a(1) = (   1.000000   0.000000   0.000000 )
               a(2) = (   0.000000   1.000000   0.000000 )
               a(3) = (   0.000000   0.000000   0.644444 )

     reciprocal axes: (cart. coord. in units 2 pi/alat)
               b(1) = (  1.000000  0.000000  0.000000 )
               b(2) = (  0.000000  1.000000  0.000000 )
               b(3) = (  0.000000  0.000000  1.551724 )

     PseudoPot. # 1 for Cr read from file:
     /home/camp/zhonxu/pseudo/cr_pbe_v1.uspp.F.UPF
     MD5 check sum: 68b6f918d1762dccfb11451fe85b0e0e
     Pseudo is Ultrasoft + core correction, Zval = 14.0
     Generated by new atomic code, or converted to UPF format
     Using radial grid of  857 points,  6 beta functions with:
                l(1) =   0
                l(2) =   0
                l(3) =   1
                l(4) =   1
                l(5) =   2
                l(6) =   2
     Q(r) pseudized with  6 coefficients,  rinner =    1.000   1.000   1.000
                                                       1.000   1.000

     PseudoPot. # 2 for O  read from file:
     /home/camp/zhonxu/pseudo/o_pbe_v1.01.uspp.F.UPF
     MD5 check sum: 2bcb18d16ea4b960afae9ec6d52f22d2
     Pseudo is Ultrasoft + core correction, Zval =  6.0
     Generated by new atomic code, or converted to UPF format
     Using radial grid of  737 points,  5 beta functions with:
                l(1) =   0
                l(2) =   0
                l(3) =   1
                l(4) =   1
                l(5) =   2
     Q(r) pseudized with  8 coefficients,  rinner =    0.900   0.900   0.900
                                                       0.900   0.900

     atomic species   valence    mass     pseudopotential
        Cr0           14.00    51.99600     Cr( 1.00)
        O1             6.00    15.99940     O ( 1.00)

     Starting magnetic structure
     atomic species   magnetization
        Cr0          0.600
        O1           0.000

      8 Sym. Ops., with inversion, found
          (note:  8 additional sym.ops. were found but ignored
           their fractional translations are incommensurate with FFT grid)

   Cartesian axes

     site n.     atom                  positions (alat units)
         1           Cr0 tau(   1) = (   0.0000000   0.0000000   0.0000000  )
         2           Cr0 tau(   2) = (   0.5000000   0.5000000   0.3222222  )
         3           O1  tau(   3) = (   0.3050000   0.3050000   0.0000000  )
         4           O1  tau(   4) = (  -0.3050000  -0.3050000   0.0000000  )
         5           O1  tau(   5) = (   0.8050000   0.1950000   0.3222222  )
         6           O1  tau(   6) = (   0.1950000   0.8050000   0.3222222  )

     number of k points=    54  Methfessel-Paxton smearing, width (Ry)=  0.0100
                       cart. coord. in units 2pi/alat
        k(    1) = (   0.0000000   0.0000000   0.0000000), wk =   0.0080000
        k(    2) = (   0.0000000   0.0000000   0.3103448), wk =   0.0160000
        k(    3) = (   0.0000000   0.0000000   0.6206897), wk =   0.0160000
        k(    4) = (   0.0000000   0.2000000   0.0000000), wk =   0.0320000
        k(    5) = (   0.0000000   0.2000000   0.3103448), wk =   0.0640000
        k(    6) = (   0.0000000   0.2000000   0.6206897), wk =   0.0640000
        k(    7) = (   0.0000000   0.4000000   0.0000000), wk =   0.0320000
        k(    8) = (   0.0000000   0.4000000   0.3103448), wk =   0.0640000
        k(    9) = (   0.0000000   0.4000000   0.6206897), wk =   0.0640000
        k(   10) = (   0.2000000   0.2000000   0.0000000), wk =   0.0160000
        k(   11) = (   0.2000000   0.2000000   0.3103448), wk =   0.0320000
        k(   12) = (   0.2000000   0.2000000   0.6206897), wk =   0.0320000
        k(   13) = (   0.2000000   0.4000000   0.0000000), wk =   0.0320000
        k(   14) = (   0.2000000   0.4000000   0.3103448), wk =   0.0640000
        k(   15) = (   0.2000000   0.4000000   0.6206897), wk =   0.0640000
        k(   16) = (   0.4000000   0.4000000   0.0000000), wk =   0.0160000
        k(   17) = (   0.4000000   0.4000000   0.3103448), wk =   0.0320000
        k(   18) = (   0.4000000   0.4000000   0.6206897), wk =   0.0320000
        k(   19) = (  -0.2000000   0.2000000   0.0000000), wk =   0.0160000
        k(   20) = (  -0.2000000   0.2000000  -0.3103448), wk =   0.0320000
        k(   21) = (  -0.2000000   0.2000000  -0.6206897), wk =   0.0320000
        k(   22) = (  -0.2000000   0.4000000   0.0000000), wk =   0.0320000
        k(   23) = (  -0.2000000   0.4000000  -0.3103448), wk =   0.0640000
        k(   24) = (  -0.2000000   0.4000000  -0.6206897), wk =   0.0640000
        k(   25) = (  -0.4000000   0.4000000   0.0000000), wk =   0.0160000
        k(   26) = (  -0.4000000   0.4000000  -0.3103448), wk =   0.0320000
        k(   27) = (  -0.4000000   0.4000000  -0.6206897), wk =   0.0320000
        k(   28) = (   0.0000000   0.0000000   0.0000000), wk =   0.0080000
        k(   29) = (   0.0000000   0.0000000   0.3103448), wk =   0.0160000
        k(   30) = (   0.0000000   0.0000000   0.6206897), wk =   0.0160000
        k(   31) = (   0.0000000   0.2000000   0.0000000), wk =   0.0320000
        k(   32) = (   0.0000000   0.2000000   0.3103448), wk =   0.0640000
        k(   33) = (   0.0000000   0.2000000   0.6206897), wk =   0.0640000
        k(   34) = (   0.0000000   0.4000000   0.0000000), wk =   0.0320000
        k(   35) = (   0.0000000   0.4000000   0.3103448), wk =   0.0640000
        k(   36) = (   0.0000000   0.4000000   0.6206897), wk =   0.0640000
        k(   37) = (   0.2000000   0.2000000   0.0000000), wk =   0.0160000
        k(   38) = (   0.2000000   0.2000000   0.3103448), wk =   0.0320000
        k(   39) = (   0.2000000   0.2000000   0.6206897), wk =   0.0320000
        k(   40) = (   0.2000000   0.4000000   0.0000000), wk =   0.0320000
        k(   41) = (   0.2000000   0.4000000   0.3103448), wk =   0.0640000
        k(   42) = (   0.2000000   0.4000000   0.6206897), wk =   0.0640000
        k(   43) = (   0.4000000   0.4000000   0.0000000), wk =   0.0160000
        k(   44) = (   0.4000000   0.4000000   0.3103448), wk =   0.0320000
        k(   45) = (   0.4000000   0.4000000   0.6206897), wk =   0.0320000
        k(   46) = (  -0.2000000   0.2000000   0.0000000), wk =   0.0160000
        k(   47) = (  -0.2000000   0.2000000  -0.3103448), wk =   0.0320000
        k(   48) = (  -0.2000000   0.2000000  -0.6206897), wk =   0.0320000
        k(   49) = (  -0.2000000   0.4000000   0.0000000), wk =   0.0320000
        k(   50) = (  -0.2000000   0.4000000  -0.3103448), wk =   0.0640000
        k(   51) = (  -0.2000000   0.4000000  -0.6206897), wk =   0.0640000
        k(   52) = (  -0.4000000   0.4000000   0.0000000), wk =   0.0160000
        k(   53) = (  -0.4000000   0.4000000  -0.3103448), wk =   0.0320000
        k(   54) = (  -0.4000000   0.4000000  -0.6206897), wk =   0.0320000

     Largest allocated arrays     est. size (Mb)     dimensions
     Largest temporary arrays     est. size (Mb)     dimensions

     Check: negative/imaginary core charge=   -0.000029    0.000000

     Initial potential from superposition of free atoms

     starting charge   49.99997, renormalised to   52.00000
     Starting wfc are   36 randomized atomic wfcs

     Self-consistent Calculation

     iteration #  1     ecut=    40.00 Ry     beta=0.70
     Davidson diagonalization with overlap
     ethr =  1.00E-02,  avg # of iterations =  5.1

     total energy              =    -479.96291248 Ry
     Harris-Foulkes estimate   =    -480.11376569 Ry
     estimated scf accuracy    <       3.02136802 Ry

     total magnetization       =     4.00 Bohr mag/cell
     absolute magnetization    =     6.46 Bohr mag/cell

[...]

     End of self-consistent calculation

 ------ SPIN UP ------------

          k = 0.0000 0.0000 0.0000 (  2127 PWs)   bands (ev):

   -66.9951 -66.9941 -38.3079 -38.3079 -38.2145 -38.2145 -38.1497 -38.1458
   -11.3032 -10.2034 -10.0278 -10.0277   0.7242   1.4108   2.1598   2.6269
     2.6269   3.7835   3.7835   4.1966   5.1489   5.2715   5.4482   5.4483
     5.4500   5.4775   5.9105   5.9105   6.4928   6.7393   7.1878   9.2656
     9.2656   9.6673  12.2079  16.2805  16.2806  18.6060  19.4814  19.9942
    21.0051  22.1394  22.1394  23.1452  25.1365  26.2454  27.9965  28.4864
    28.4864  29.1260  29.1260  29.2386  29.7951  29.7952  30.6672  31.2072
    31.9212  32.5873  34.9600  35.3039  35.3039  35.4496  35.4496  37.7970
    38.4572  38.9313  38.9314  40.8346  41.0644  41.6371  41.7441  41.7442
    41.8531  43.1609  43.1609

[...]

          k =-0.2000 0.2000 0.0000 (  2131 PWs)   bands (ev):

[...]

 ------ SPIN DOWN ----------

[...]

     the Fermi energy is     6.4979 ev

!    total energy              =    -481.01823378 Ry
     Harris-Foulkes estimate   =    -481.01823405 Ry
     estimated scf accuracy    <       0.00000055 Ry

     The total energy is the sum of the following terms:

     one-electron contribution =    -248.78901686 Ry
     hartree contribution      =     143.69940160 Ry
     xc contribution           =     -73.63423952 Ry
     ewald contribution        =    -302.29421942 Ry
     smearing contrib. (-TS)   =      -0.00015958 Ry

[...]

     convergence has been achieved in  12 iterations

     Forces acting on atoms (Ry/au):

     atom    1 type  1   force =     0.00000000    0.00000000    0.00000000
     atom    2 type  1   force =     0.00000000    0.00000000    0.00000000
     atom    3 type  2   force =     0.01804459    0.01804459    0.00000000
     atom    4 type  2   force =    -0.01804459   -0.01804459    0.00000000
     atom    5 type  2   force =     0.01805912   -0.01805912    0.00000000
     atom    6 type  2   force =    -0.01805912    0.01805912    0.00000000

[...]
        k(    6) = (  -0.0000379   0.1938334   0.6608111), wk =   0.0640000
        k(    7) = (  -0.0000757   0.3876668   0.0000000), wk =   0.0320000
        k(    8) = (  -0.0000757   0.3876668   0.3304055), wk =   0.0640000
        k(    9) = (  -0.0000757   0.3876668   0.6608111), wk =   0.0640000
        k(   10) = (   0.1937955   0.1937955   0.0000000), wk =   0.0160000
        k(   11) = (   0.1937955   0.1937955   0.3304055), wk =   0.0320000
        k(   12) = (   0.1937955   0.1937955   0.6608111), wk =   0.0320000
        k(   13) = (   0.1937577   0.3876289   0.0000000), wk =   0.0320000
        k(   14) = (   0.1937577   0.3876289   0.3304055), wk =   0.0640000
        k(   15) = (   0.1937577   0.3876289   0.6608111), wk =   0.0640000
        k(   16) = (   0.3875911   0.3875911   0.0000000), wk =   0.0160000
        k(   17) = (   0.3875911   0.3875911   0.3304055), wk =   0.0320000
        k(   18) = (   0.3875911   0.3875911   0.6608111), wk =   0.0320000
        k(   19) = (  -0.1938713   0.1938713   0.0000000), wk =   0.0160000
        k(   20) = (  -0.1938713   0.1938713  -0.3304055), wk =   0.0320000
        k(   21) = (  -0.1938713   0.1938713  -0.6608111), wk =   0.0320000
        k(   22) = (  -0.1939091   0.3877046   0.0000000), wk =   0.0320000
        k(   23) = (  -0.1939091   0.3877046  -0.3304055), wk =   0.0640000
        k(   24) = (  -0.1939091   0.3877046  -0.6608111), wk =   0.0640000
        k(   25) = (  -0.3877425   0.3877425   0.0000000), wk =   0.0160000
        k(   26) = (  -0.3877425   0.3877425  -0.3304055), wk =   0.0320000
        k(   27) = (  -0.3877425   0.3877425  -0.6608111), wk =   0.0320000
        k(   28) = (   0.0000000   0.0000000   0.0000000), wk =   0.0080000
        k(   29) = (   0.0000000   0.0000000   0.3304055), wk =   0.0160000
        k(   30) = (   0.0000000   0.0000000   0.6608111), wk =   0.0160000
        k(   31) = (  -0.0000379   0.1938334   0.0000000), wk =   0.0320000
        k(   32) = (  -0.0000379   0.1938334   0.3304055), wk =   0.0640000
        k(   33) = (  -0.0000379   0.1938334   0.6608111), wk =   0.0640000
        k(   34) = (  -0.0000757   0.3876668   0.0000000), wk =   0.0320000
        k(   35) = (  -0.0000757   0.3876668   0.3304055), wk =   0.0640000
        k(   36) = (  -0.0000757   0.3876668   0.6608111), wk =   0.0640000
        k(   37) = (   0.1937955   0.1937955   0.0000000), wk =   0.0160000
        k(   38) = (   0.1937955   0.1937955   0.3304055), wk =   0.0320000
        k(   39) = (   0.1937955   0.1937955   0.6608111), wk =   0.0320000
        k(   40) = (   0.1937577   0.3876289   0.0000000), wk =   0.0320000
        k(   41) = (   0.1937577   0.3876289   0.3304055), wk =   0.0640000
        k(   42) = (   0.1937577   0.3876289   0.6608111), wk =   0.0640000
        k(   43) = (   0.3875911   0.3875911   0.0000000), wk =   0.0160000
        k(   44) = (   0.3875911   0.3875911   0.3304055), wk =   0.0320000
        k(   45) = (   0.3875911   0.3875911   0.6608111), wk =   0.0320000
        k(   46) = (  -0.1938713   0.1938713   0.0000000), wk =   0.0160000
        k(   47) = (  -0.1938713   0.1938713  -0.3304055), wk =   0.0320000
        k(   48) = (  -0.1938713   0.1938713  -0.6608111), wk =   0.0320000
        k(   49) = (  -0.1939091   0.3877046   0.0000000), wk =   0.0320000
        k(   50) = (  -0.1939091   0.3877046  -0.3304055), wk =   0.0640000
        k(   51) = (  -0.1939091   0.3877046  -0.6608111), wk =   0.0640000
        k(   52) = (  -0.3877425   0.3877425   0.0000000), wk =   0.0160000
        k(   53) = (  -0.3877425   0.3877425  -0.3304055), wk =   0.0320000
        k(   54) = (  -0.3877425   0.3877425  -0.6608111), wk =   0.0320000

[...]

     Threshold (ethr) on eigenvalues was too large:
     Diagonalizing with lowered threshold

     Davidson diagonalization with overlap
     ethr =  2.51E-09,  avg # of iterations =  2.0

[...]

     Total force =     0.000040     Total SCF correction =     0.000003

[...]

     Volume is kept fixed: isostatic pressure set to zero

     bfgs converged in   9 scf cycles and   8 bfgs steps
     (criteria: energy < 0.10E-03, force < 0.10E-02, cell < 0.50E+00)

     End of BFGS Geometry Optimization

     Final enthalpy =    -481.0433488049 Ry
Begin final coordinates
     new unit-cell volume =    502.07609 a.u.^3 (    74.40000 Ang^3 )

CELL_PARAMETERS (alat=  9.20155768)
   1.031814002   0.000201551   0.000000000
   0.000201551   1.031814002   0.000000000
   0.000000000   0.000000000   0.605316715

ATOMIC_POSITIONS (crystal)
Cr0      0.000000000   0.000000000   0.000000000    0   0   0
Cr0      0.500000000   0.500000000   0.500000000    0   0   0
O1       0.324170507   0.324170507   0.000000000    1   1   0
O1      -0.324170507  -0.324170507   0.000000000    1   1   0
O1       0.824083613   0.175916387   0.500000000    1   1   0
O1       0.175916387   0.824083613   0.500000000    1   1   0
End final coordinates

     A final scf calculation at the relaxed structure.
     The G-vectors are recalculated for the final unit cell
     Results may differ from those at the preceding step.

     bravais-lattice index     =            0
     lattice parameter (alat)  =       9.2016  a.u.
     unit-cell volume          =     502.0761 (a.u.)^3
     number of atoms/cell      =            6
     number of atomic types    =            2
     number of electrons       =        52.00
     number of Kohn-Sham states=           75
     kinetic-energy cutoff     =      40.0000  Ry
     charge density cutoff     =     500.0000  Ry
     convergence threshold     =      1.0E-08
     mixing beta               =       0.7000
     number of iterations used =            8  plain     mixing
     Exchange-correlation      = SLA  PW   PBE  PBE ( 1 4 3 4 0)
     EXX-fraction              =        0.00

     celldm(1)=   9.201558  celldm(2)=   0.000000  celldm(3)=   0.000000
     celldm(4)=   0.000000  celldm(5)=   0.000000  celldm(6)=   0.000000

     crystal axes: (cart. coord. in units of alat)
               a(1) = (   1.031814   0.000202   0.000000 )
               a(2) = (   0.000202   1.031814   0.000000 )
               a(3) = (   0.000000   0.000000   0.605317 )

     reciprocal axes: (cart. coord. in units 2 pi/alat)
               b(1) = (  0.969167 -0.000189  0.000000 )
               b(2) = ( -0.000189  0.969167  0.000000 )
               b(3) = (  0.000000  0.000000  1.652028 )

     PseudoPot. # 1 for Cr read from file:
     /home/camp/zhonxu/pseudo/cr_pbe_v1.uspp.F.UPF
     MD5 check sum: 68b6f918d1762dccfb11451fe85b0e0e
     Pseudo is Ultrasoft + core correction, Zval = 14.0
     Generated by new atomic code, or converted to UPF format
     Using radial grid of  857 points,  6 beta functions with:
                l(1) =   0
                l(2) =   0
                l(3) =   1
                l(4) =   1
                l(5) =   2
                l(6) =   2
     Q(r) pseudized with  6 coefficients,  rinner =    1.000   1.000   1.000
                                                       1.000   1.000

     PseudoPot. # 2 for O  read from file:
     /home/camp/zhonxu/pseudo/o_pbe_v1.01.uspp.F.UPF
     MD5 check sum: 2bcb18d16ea4b960afae9ec6d52f22d2
     Pseudo is Ultrasoft + core correction, Zval =  6.0
     Generated by new atomic code, or converted to UPF format
     Using radial grid of  737 points,  5 beta functions with:
                l(1) =   0
                l(2) =   0
                l(3) =   1
                l(4) =   1
                l(5) =   2
     Q(r) pseudized with  8 coefficients,  rinner =    0.900   0.900   0.900
                                                       0.900   0.900

     atomic species   valence    mass     pseudopotential
        Cr0           14.00    51.99600     Cr( 1.00)
        O1             6.00    15.99940     O ( 1.00)

     Starting magnetic structure
     atomic species   magnetization
        Cr0          0.600
        O1           0.000

      8 Sym. Ops., with inversion, found
          (note:  8 additional sym.ops. were found but ignored
           their fractional translations are incommensurate with FFT grid)

   Cartesian axes

     site n.     atom                  positions (alat units)
         1           Cr0 tau(   1) = (   0.0000000   0.0000000   0.0000000  )
         2           Cr0 tau(   2) = (   0.5160078   0.5160078   0.3026584  )
         3           O1  tau(   3) = (   0.3345490   0.3345490   0.0000000  )
         4           O1  tau(   4) = (  -0.3345490  -0.3345490   0.0000000  )
         5           O1  tau(   5) = (   0.8503365   0.1816791   0.3026584  )
         6           O1  tau(   6) = (   0.1816791   0.8503365   0.3026584  )

     number of k points=    54  Methfessel-Paxton smearing, width (Ry)=  0.0100
                       cart. coord. in units 2pi/alat
        k(    1) = (   0.0000000   0.0000000   0.0000000), wk =   0.0080000
        k(    2) = (   0.0000000   0.0000000   0.3304055), wk =   0.0160000
        k(    3) = (   0.0000000   0.0000000   0.6608111), wk =   0.0160000
        k(    4) = (  -0.0000379   0.1938334   0.0000000), wk =   0.0320000
        k(    5) = (  -0.0000379   0.1938334   0.3304055), wk =   0.0640000
        k(    6) = (  -0.0000379   0.1938334   0.6608111), wk =   0.0640000
        k(    7) = (  -0.0000757   0.3876668   0.0000000), wk =   0.0320000
        k(    8) = (  -0.0000757   0.3876668   0.3304055), wk =   0.0640000
        k(    9) = (  -0.0000757   0.3876668   0.6608111), wk =   0.0640000
        k(   10) = (   0.1937955   0.1937955   0.0000000), wk =   0.0160000
        k(   11) = (   0.1937955   0.1937955   0.3304055), wk =   0.0320000
        k(   12) = (   0.1937955   0.1937955   0.6608111), wk =   0.0320000
        k(   13) = (   0.1937577   0.3876289   0.0000000), wk =   0.0320000
        k(   14) = (   0.1937577   0.3876289   0.3304055), wk =   0.0640000
        k(   15) = (   0.1937577   0.3876289   0.6608111), wk =   0.0640000
        k(   16) = (   0.3875911   0.3875911   0.0000000), wk =   0.0160000
        k(   17) = (   0.3875911   0.3875911   0.3304055), wk =   0.0320000
        k(   18) = (   0.3875911   0.3875911   0.6608111), wk =   0.0320000
        k(   19) = (  -0.1938713   0.1938713   0.0000000), wk =   0.0160000
        k(   20) = (  -0.1938713   0.1938713  -0.3304055), wk =   0.0320000
        k(   21) = (  -0.1938713   0.1938713  -0.6608111), wk =   0.0320000
        k(   22) = (  -0.1939091   0.3877046   0.0000000), wk =   0.0320000
        k(   23) = (  -0.1939091   0.3877046  -0.3304055), wk =   0.0640000
        k(   24) = (  -0.1939091   0.3877046  -0.6608111), wk =   0.0640000
        k(   25) = (  -0.3877425   0.3877425   0.0000000), wk =   0.0160000
        k(   26) = (  -0.3877425   0.3877425  -0.3304055), wk =   0.0320000
        k(   27) = (  -0.3877425   0.3877425  -0.6608111), wk =   0.0320000
        k(   28) = (   0.0000000   0.0000000   0.0000000), wk =   0.0080000
        k(   29) = (   0.0000000   0.0000000   0.3304055), wk =   0.0160000
        k(   30) = (   0.0000000   0.0000000   0.6608111), wk =   0.0160000
        k(   31) = (  -0.0000379   0.1938334   0.0000000), wk =   0.0320000
        k(   32) = (  -0.0000379   0.1938334   0.3304055), wk =   0.0640000
        k(   33) = (  -0.0000379   0.1938334   0.6608111), wk =   0.0640000
        k(   34) = (  -0.0000757   0.3876668   0.0000000), wk =   0.0320000
        k(   35) = (  -0.0000757   0.3876668   0.3304055), wk =   0.0640000
        k(   36) = (  -0.0000757   0.3876668   0.6608111), wk =   0.0640000
        k(   37) = (   0.1937955   0.1937955   0.0000000), wk =   0.0160000
        k(   38) = (   0.1937955   0.1937955   0.3304055), wk =   0.0320000
        k(   39) = (   0.1937955   0.1937955   0.6608111), wk =   0.0320000
        k(   40) = (   0.1937577   0.3876289   0.0000000), wk =   0.0320000
        k(   41) = (   0.1937577   0.3876289   0.3304055), wk =   0.0640000
        k(   42) = (   0.1937577   0.3876289   0.6608111), wk =   0.0640000
        k(   43) = (   0.3875911   0.3875911   0.0000000), wk =   0.0160000
        k(   44) = (   0.3875911   0.3875911   0.3304055), wk =   0.0320000
        k(   45) = (   0.3875911   0.3875911   0.6608111), wk =   0.0320000
        k(   46) = (  -0.1938713   0.1938713   0.0000000), wk =   0.0160000
        k(   47) = (  -0.1938713   0.1938713  -0.3304055), wk =   0.0320000
        k(   48) = (  -0.1938713   0.1938713  -0.6608111), wk =   0.0320000
        k(   49) = (  -0.1939091   0.3877046   0.0000000), wk =   0.0320000
        k(   50) = (  -0.1939091   0.3877046  -0.3304055), wk =   0.0640000
        k(   51) = (  -0.1939091   0.3877046  -0.6608111), wk =   0.0640000
        k(   52) = (  -0.3877425   0.3877425   0.0000000), wk =   0.0160000
        k(   53) = (  -0.3877425   0.3877425  -0.3304055), wk =   0.0320000
        k(   54) = (  -0.3877425   0.3877425  -0.6608111), wk =   0.0320000

     Largest allocated arrays     est. size (Mb)     dimensions
     Largest temporary arrays     est. size (Mb)     dimensions

     Check: negative/imaginary core charge=   -0.000029    0.000000

     Initial potential from superposition of free atoms

     starting charge   49.99997, renormalised to   52.00000
     Starting wfc are   36 randomized atomic wfcs

     Self-consistent Calculation

[...]

     total energy              =    -481.04311094 Ry
     Harris-Foulkes estimate   =    -481.04311101 Ry
     estimated scf accuracy    <       0.00000053 Ry

[...]

     iteration # 13     ecut=    40.00 Ry     beta=0.70
     Davidson diagonalization with overlap
     ethr =  1.02E-09,  avg # of iterations =  1.3

     End of self-consistent calculation

 ------ SPIN UP ------------

[...]

 ------ SPIN DOWN ----------

[...]

          k = 0.3876 0.3876 0.6608 (  2126 PWs)   bands (ev):

[...]

          k =-0.3877 0.3877-0.6608 (  2124 PWs)   bands (ev):

   -64.2661 -64.2642 -35.6871 -35.6852 -35.5767 -35.5745 -35.5564 -35.5547
   -10.8032 -10.7654 -10.7087 -10.6957   1.7177   1.8247   2.1171   2.1769
     2.8173   2.8343   3.5822   3.6315   4.3871   4.3983   4.7301   4.8949
     7.9809   8.0812   8.6886   8.7433   8.8650   8.9245   9.4042   9.5244
    10.6764  10.8184  16.8920  17.2513  18.3823  18.8757  19.7973  19.9721
    20.8757  21.0267  22.2607  22.4919  23.7843  24.4831  25.6505  26.6262
    28.4827  28.5874  29.0522  29.8153  31.3732  31.6561  33.1920  33.7344
    35.2681  35.4104  36.3921  36.8736  37.2351  37.7256  38.6473  39.0074
    39.4914  39.9217  40.3662  40.5258  40.7220  41.7082  42.7520  43.3516
    44.1692  44.2631  45.5051

     the Fermi energy is     6.7132 ev

!    total energy              =    -481.04311105 Ry
     Harris-Foulkes estimate   =    -481.04311104 Ry
     estimated scf accuracy    <          4.2E-09 Ry

     The total energy is the sum of the following terms:

     one-electron contribution =    -266.98278974 Ry
     hartree contribution      =     152.78000468 Ry
     xc contribution           =     -73.83776881 Ry
     ewald contribution        =    -293.00249313 Ry
     smearing contrib. (-TS)   =      -0.00006405 Ry

     total magnetization       =     4.00 Bohr mag/cell
     absolute magnetization    =     5.44 Bohr mag/cell

     convergence has been achieved in  13 iterations

     Forces acting on atoms (Ry/au):

     atom    1 type  1   force =     0.00000000    0.00000000    0.00000000
     atom    2 type  1   force =     0.00000000    0.00000000    0.00000000
     atom    3 type  2   force =     0.00001302    0.00001302    0.00000000
     atom    4 type  2   force =    -0.00001302   -0.00001302    0.00000000
     atom    5 type  2   force =     0.00005236   -0.00005236    0.00000000
     atom    6 type  2   force =    -0.00005236    0.00005236    0.00000000

     Total force =     0.000108     Total SCF correction =     0.000012
     SCF correction compared to forces is large: reduce conv_thr to get better values

     entering subroutine stress ...

          total   stress  (Ry/bohr**3)                   (kbar)     P= -232.00
  -0.00157438  -0.00000007   0.00000000       -231.60     -0.01      0.00
  -0.00000007  -0.00157438   0.00000000         -0.01   -231.60      0.00
   0.00000000   0.00000000  -0.00158258          0.00      0.00   -232.81

     General routines

     Parallel routines

   This run was terminated on:  21:47:43  23Jan2014

   JOB DONE.
Running PBS batch system epilogue script
Job id: 251235.audhumbla.fysik.dtu.dk
Username: zhonxu
Groupname: campgst
Jobname: CrO2/coarse-EOS/CrO2-v-1.2
Sessionid: 28351
Queuename: verylong
Accounting:
This job has allocated the following 4 nodes:
q092 q092 q092 q092
Finished epilogue job 251235.audhumbla.fysik.dtu.dk for zhonxu