     Program PWSCF v.5.0.2 (svn rev. 9656) starts on 25Mar2014 at  4:29:20

     Current dimensions of program PWSCF are:
     Max number of different atomic species (ntypx) = 10
     Max number of k-points (npk) =  40000
     Max angular momentum in pseudopotentials (lmaxx) =  3
     Reading input from pwscf.in
Warning: card &CELL ignored
Warning: card / ignored

     Subspace diagonalization in iterative solution of the eigenvalue problem:
     a serial algorithm will be used

     bravais-lattice index     =            0
     lattice parameter (alat)  =      11.7541  a.u.
     unit-cell volume          =    7139.8207 (a.u.)^3
     number of atoms/cell      =           31
     number of atomic types    =            3
     number of electrons       =       238.00
     number of Kohn-Sham states=          357
     kinetic-energy cutoff     =      40.0000  Ry
     charge density cutoff     =     500.0000  Ry
     convergence threshold     =      1.0E-06
     mixing beta               =       0.3000
     number of iterations used =            8  plain     mixing
     Exchange-correlation      = SLA  PW   PBE  PBE ( 1 4 3 4 0)
     EXX-fraction              =        0.00
     nstep                     =           50

     celldm(1)=  11.754097  celldm(2)=   0.000000  celldm(3)=   0.000000
     celldm(4)=   0.000000  celldm(5)=   0.000000  celldm(6)=   0.000000

     crystal axes: (cart. coord. in units of alat)
               a(1) = (   1.000000   0.000000   0.000000 )
               a(2) = (   0.000000   1.034513   0.000000 )
               a(3) = (   0.000000   0.000000   4.249947 )

     reciprocal axes: (cart. coord. in units 2 pi/alat)
               b(1) = (  1.000000  0.000000  0.000000 )
               b(2) = (  0.000000  0.966638  0.000000 )
               b(3) = (  0.000000  0.000000  0.235297 )

     PseudoPot. # 1 for O  read from file:
     /home/camp/zhonxu/pseudo/o_pbe_v1.01.uspp.F.UPF
     MD5 check sum: 2bcb18d16ea4b960afae9ec6d52f22d2
     Pseudo is Ultrasoft + core correction, Zval =  6.0
     Generated by new atomic code, or converted to UPF format
     Using radial grid of  737 points,  5 beta functions with:
                l(1) =   0
                l(2) =   0
                l(3) =   1
                l(4) =   1
                l(5) =   2
     Q(r) pseudized with  8 coefficients,  rinner =    0.900   0.900   0.900
                                                       0.900   0.900

     PseudoPot. # 2 for Rh read from file:
     /home/camp/zhonxu/pseudo/rh_pbe_v1.uspp.F.UPF
     MD5 check sum: 37b626987ad0dd8ec6bf4cc9ef289918
     Pseudo is Ultrasoft + core correction, Zval = 15.0
     Generated by new atomic code, or converted to UPF format
     Using radial grid of  969 points,  7 beta functions with:
                l(1) =   0
                l(2) =   0
                l(3) =   1
                l(4) =   1
                l(5) =   2
                l(6) =   2
                l(7) =   2
     Q(r) pseudized with  6 coefficients,  rinner =    1.050   1.050   1.050
                                                       1.050   1.050

     PseudoPot. # 3 for H  read from file:
     /home/camp/zhonxu/pseudo/h_pbe_v1.uspp.F.UPF
     MD5 check sum: 3408e3ff4ec8b0a4e358431e7e038a48
     Pseudo is Ultrasoft, Zval =  1.0
     Generated by new atomic code, or converted to UPF format
     Using radial grid of  615 points,  2 beta functions with:
                l(1) =   0
                l(2) =   0
     Q(r) pseudized with  8 coefficients,  rinner =    0.700

     atomic species   valence    mass     pseudopotential
        O0             6.00    15.99940     O ( 1.00)
        Rh1           15.00   102.90550     Rh( 1.00)
        H2             1.00     1.00794     H ( 1.00)

     Starting magnetic structure
     atomic species   magnetization
        O0           0.000
        Rh1          0.000
        H2           0.000

     No symmetry found

   Cartesian axes

     site n.     atom                  positions (alat units)
         1           O0  tau(   1) = (   0.0000000   0.0000000   1.6092425  )
         2           O0  tau(   2) = (   0.0000000   0.5172566   1.7020614  )
         3           Rh1 tau(   3) = (   0.2500000   0.5172566   1.9209336  )
         4           Rh1 tau(   4) = (   0.0000000   0.0000000   1.9260761  )
         5           O0  tau(   5) = (   0.2500000   0.8379556   1.9243336  )
         6           O0  tau(   6) = (   0.2500000   0.1965575   1.9234411  )
         7           O0  tau(   7) = (   0.0000000   0.5172566   2.1185137  )
         8           O0  tau(   8) = (   0.0000000   0.0000000   2.2473721  )
         9           Rh1 tau(   9) = (   0.2500000   0.0000000   2.4498821  )
        10           Rh1 tau(  10) = (   0.0000000   0.5172566   2.4276124  )
        11           O0  tau(  11) = (   0.2500000   0.7138141   2.4560020  )
        12           O0  tau(  12) = (   0.2500000   0.3206991   2.4560870  )
        13           O0  tau(  13) = (   0.0000000   0.0000000   2.6421072  )
        14           O0  tau(  14) = (   0.5000000   0.0000000   1.6092425  )
        15           O0  tau(  15) = (   0.5000000   0.5172566   1.7020614  )
        16           Rh1 tau(  16) = (   0.7500000   0.5172566   1.9209336  )
        17           Rh1 tau(  17) = (   0.5000000   0.0000000   1.9260761  )
        18           O0  tau(  18) = (   0.7500000   0.8379556   1.9243336  )
        19           O0  tau(  19) = (   0.7500000   0.1965575   1.9234411  )
        20           O0  tau(  20) = (   0.5000000   0.5172566   2.1185137  )
        21           O0  tau(  21) = (   0.5000000   0.0000000   2.2473721  )
        22           Rh1 tau(  22) = (   0.7500000   0.0000000   2.4498821  )
        23           Rh1 tau(  23) = (   0.5000000   0.5172566   2.4276124  )
        24           O0  tau(  24) = (   0.7500000   0.7138141   2.4560020  )
        25           O0  tau(  25) = (   0.7500000   0.3206991   2.4560870  )
        26           O0  tau(  26) = (   0.5000000   0.0000000   2.6421072  )
        27           H2  tau(  27) = (  -0.0000700   0.6610229   1.6318947  )
        28           H2  tau(  28) = (   0.4999300   0.6610125   1.6318947  )
        29           H2  tau(  29) = (   0.1484400   0.0336527   1.5632581  )
        30           H2  tau(  30) = (   0.6484400   0.0336527   1.5632581  )
        31           O0  tau(  31) = (   0.5000100   0.5171324   2.6661619  )

     number of k points=    20  Methfessel-Paxton smearing, width (Ry)=  0.0100
                       cart. coord. in units 2pi/alat
        k(    1) = (   0.0000000   0.0000000   0.0000000), wk =   0.0625000
        k(    2) = (   0.0000000   0.2416596   0.0000000), wk =   0.1250000
        k(    3) = (   0.0000000  -0.4833191   0.0000000), wk =   0.0625000
        k(    4) = (   0.2500000   0.0000000   0.0000000), wk =   0.1250000
        k(    5) = (   0.2500000   0.2416596   0.0000000), wk =   0.1250000
        k(    6) = (   0.2500000  -0.4833191   0.0000000), wk =   0.1250000
        k(    7) = (  -0.5000000   0.0000000   0.0000000), wk =   0.0625000
        k(    8) = (  -0.5000000   0.2416596   0.0000000), wk =   0.1250000
        k(    9) = (  -0.5000000  -0.4833191   0.0000000), wk =   0.0625000
        k(   10) = (  -0.2500000   0.2416596   0.0000000), wk =   0.1250000
        k(   11) = (   0.0000000   0.0000000   0.0000000), wk =   0.0625000
        k(   12) = (   0.0000000   0.2416596   0.0000000), wk =   0.1250000
        k(   13) = (   0.0000000  -0.4833191   0.0000000), wk =   0.0625000
        k(   14) = (   0.2500000   0.0000000   0.0000000), wk =   0.1250000
        k(   15) = (   0.2500000   0.2416596   0.0000000), wk =   0.1250000
        k(   16) = (   0.2500000  -0.4833191   0.0000000), wk =   0.1250000
        k(   17) = (  -0.5000000   0.0000000   0.0000000), wk =   0.0625000
        k(   18) = (  -0.5000000   0.2416596   0.0000000), wk =   0.1250000
        k(   19) = (  -0.5000000  -0.4833191   0.0000000), wk =   0.0625000
        k(   20) = (  -0.2500000   0.2416596   0.0000000), wk =   0.1250000

     Largest allocated arrays     est. size (Mb)     dimensions
     Largest temporary arrays     est. size (Mb)     dimensions

     Check: negative/imaginary core charge=   -0.000003    0.000000

     Initial potential from superposition of free atoms
     Check: negative starting charge=(component1):   -0.321229
     Check: negative starting charge=(component2):   -0.321229

     starting charge  233.99915, renormalised to  238.00000

     negative rho (up, down):  0.327E+00 0.327E+00
     Starting wfc are  176 randomized atomic wfcs

     Self-consistent Calculation

     iteration #  1     ecut=    40.00 Ry     beta=0.30
     Davidson diagonalization with overlap
     ethr =  1.00E-02,  avg # of iterations =  6.0

     negative rho (up, down):  0.331E+00 0.331E+00

     total energy              =   -1974.44901554 Ry
     Harris-Foulkes estimate   =   -1983.50773646 Ry
     estimated scf accuracy    <      19.37691871 Ry

     total magnetization       =     0.00 Bohr mag/cell
     absolute magnetization    =     0.01 Bohr mag/cell

[...]

     End of self-consistent calculation

 ------ SPIN UP ------------

          k = 0.0000 0.0000 0.0000 ( 30479 PWs)   bands (ev):

   -52.4721 -50.9994 -50.8991 -49.5305 -49.5200 -49.5120 -49.4879 -49.4745
   -49.4178 -49.3955 -49.3482 -49.3306 -49.2833 -49.2833 -49.2540 -49.2247
   -49.2194 -49.1920 -49.0966 -49.0927 -49.0847 -49.0794 -49.0752 -48.9844
   -21.9429 -21.5366 -21.1748 -21.1226 -20.9989 -20.5968 -20.3762 -20.3475
   -20.3057 -20.2738 -20.2567 -20.1789 -20.0547 -20.0439 -19.8041 -19.7497
   -19.7231 -18.9961 -18.8771 -10.2787  -9.9550  -9.8626  -9.8170  -9.6184
    -9.2663  -9.0047  -8.9001  -8.7901  -8.7220  -8.6602  -8.6378  -8.3505
    -8.3245  -8.2736  -8.1761  -8.0906  -8.0026  -7.9661  -7.6923  -7.5553
    -7.4481  -7.2911  -7.1267  -7.0650  -6.7862  -6.6481  -6.5861  -6.4648
    -6.2946  -6.0204  -5.9859  -5.8503  -5.5595  -5.5542  -5.4776  -5.4176
    -5.3886  -5.3706  -5.2936  -5.1623  -4.9749  -4.9284  -4.9064  -4.8009
    -4.7832  -4.7638  -4.6324  -4.5563  -4.4923  -4.3558  -4.3168  -4.0946
    -4.0039  -3.9640  -3.8249  -3.7867  -3.7515  -3.6832  -3.5342  -3.4976
    -3.4864  -3.2413  -3.2312  -3.1466  -3.1322  -2.9066  -2.7203  -2.6368
    -2.5095  -2.4610  -2.3170  -2.2440  -2.2035  -1.8754  -1.7464  -1.6084
    -1.5093  -1.3913  -1.3417  -1.2003  -1.0965  -0.3252  -0.1970   0.0656
     0.1827   0.2352   0.4426   0.6062   0.7750   1.0803   1.5221   1.6649
     1.8062   1.8304   2.0911   2.9753   3.4262   4.0147   4.1748   4.6835
     4.9758   5.7773   5.9217   6.0493   6.1531   6.8210   6.8277   7.0717
     7.3662   7.6373   7.7309   7.8404   7.8800   7.8914   7.9260   7.9367
     7.9439   8.1155   8.1360   8.1723   8.2609   8.3030   8.3995   8.4233
     8.4808   8.6241   8.6934   8.9394   8.9589   9.0098   9.1202   9.2322
     9.3572   9.4787   9.5386   9.7163   9.7324   9.8412  10.0374  10.0809
    10.3804  10.4498  10.5462  10.5946  10.6375  10.9026  10.9914  11.0241
    11.0818  11.1241  11.1362  11.1804  11.2200  11.2238  11.3545  11.5754
[...]
     atom    8 type  1   force =    -0.00283927   -0.00075219    0.00352722
     atom    9 type  2   force =     0.00377347    0.00022414   -0.00722752
     atom   10 type  2   force =     0.00000232   -0.00112314   -0.00947935
     atom   11 type  1   force =    -0.03608277    0.02735189   -0.03498276
     atom   12 type  1   force =    -0.03621915   -0.02762936   -0.03491598
     atom   13 type  1   force =    -0.00088537    0.00012215   -0.00083145
     atom   14 type  1   force =    -0.00740435   -0.01464572    0.00057779
     atom   15 type  1   force =     0.00014689    0.00687045   -0.00159447
     atom   16 type  2   force =    -0.02151672    0.00538378   -0.01157706
     atom   17 type  2   force =     0.00885736    0.00935639   -0.00016627
     atom   18 type  1   force =    -0.00092851   -0.02934988   -0.00099678
     atom   19 type  1   force =     0.00106114    0.02610980   -0.00047142
     atom   20 type  1   force =     0.00007911   -0.00587817   -0.02639431
     atom   21 type  1   force =    -0.00289065   -0.00053303   -0.00122382
     atom   22 type  2   force =    -0.00100585    0.00011699   -0.00730187
     atom   23 type  2   force =    -0.00030239    0.00270363   -0.56640321
     atom   24 type  1   force =     0.03603571    0.02745545   -0.03498389
     atom   25 type  1   force =     0.03675876   -0.02768397   -0.03489917
     atom   26 type  1   force =    -0.00088746   -0.00005703    0.00084707
     atom   27 type  3   force =    -0.00002835   -0.00097532    0.00083678
     atom   28 type  3   force =    -0.00004547   -0.00028000    0.00011561
     atom   29 type  3   force =    -0.00010598    0.00056461    0.00026210
     atom   30 type  3   force =     0.00027195    0.00069153    0.00019662
     atom   31 type  1   force =     0.00009358   -0.00141954    0.76563508

     Total force =     0.765636     Total SCF correction =     0.000199

     BFGS Geometry Optimization

     number of scf cycles    =   1
     number of bfgs steps    =   0

     energy   new            =   -1980.1048120584 Ry

     new trust radius        =       0.5000000000 bohr
     new conv_thr            =       0.0000010000 Ry

ATOMIC_POSITIONS (crystal)
O0       0.000000000   0.000000000   0.378650000    0   0   0
O0       0.000000000   0.500000000   0.400490000    0   0   0
Rh1      0.250000000   0.500000000   0.451990000    0   0   0
Rh1      0.000000000   0.000000000   0.453200000    0   0   0
O0       0.250000000   0.810000000   0.452790000    0   0   0
O0       0.250000000   0.190000000   0.452580000    0   0   0
O0       0.000000000   0.500000000   0.498480000    0   0   0
O0       0.000000000   0.000000000   0.528800000    0   0   0
Rh1      0.250000000   0.000000000   0.576450000    0   0   0
Rh1      0.000000000   0.500000000   0.571210000    0   0   0
O0       0.250000000   0.690000000   0.577890000    0   0   0
O0       0.250000000   0.310000000   0.577910000    0   0   0
O0       0.000000000   0.000000000   0.621680000    0   0   0
O0       0.500000000   0.000000000   0.378650000    0   0   0
O0       0.500000000   0.500000000   0.400490000    0   0   0
Rh1      0.750000000   0.500000000   0.451990000    0   0   0
Rh1      0.500000000   0.000000000   0.453200000    0   0   0
O0       0.750000000   0.810000000   0.452790000    0   0   0
O0       0.750000000   0.190000000   0.452580000    0   0   0
O0       0.500000000   0.500000000   0.498480000    0   0   0
O0       0.500000000   0.000000000   0.528800000    0   0   0
Rh1      0.750000000   0.000000000   0.576450000    0   0   0
Rh1      0.500000000   0.500000000   0.571210000    0   0   0
O0       0.750000000   0.690000000   0.577890000    0   0   0
O0       0.750000000   0.310000000   0.577910000    0   0   0
O0       0.500000000   0.000000000   0.621680000    0   0   0
H2      -0.000070000   0.638970000   0.383980000    0   0   0
H2       0.499930000   0.638960000   0.383980000    0   0   0
H2       0.148440000   0.032530000   0.367830000    0   0   0
H2       0.648440000   0.032530000   0.367830000    0   0   0
O0       0.500015199   0.499803763   0.637349133

     Check: negative starting charge=(component1):   -0.642458
     NEW-OLD atomic charge density approx. for the potential

     Check: negative/imaginary core charge=   -0.000003    0.000000
     Check: negative starting charge=(component1):   -0.642803

[...]

     energy   old            =   -1980.1048120584 Ry
     energy   new            =   -1980.2716741400 Ry

     CASE: energy  _new < energy  _old

[...]

     number of scf cycles    =   4
     number of bfgs steps    =   3

     energy   old            =   -1980.2729979281 Ry
     energy   new            =   -1980.2735983718 Ry

     CASE: energy  _new < energy  _old

     new trust radius        =       0.0085179265 bohr
     new conv_thr            =       0.0000000489 Ry

ATOMIC_POSITIONS (crystal)
O0       0.000000000   0.000000000   0.378650000    0   0   0
O0       0.000000000   0.500000000   0.400490000    0   0   0
Rh1      0.250000000   0.500000000   0.451990000    0   0   0
Rh1      0.000000000   0.000000000   0.453200000    0   0   0
O0       0.250000000   0.810000000   0.452790000    0   0   0
O0       0.250000000   0.190000000   0.452580000    0   0   0
O0       0.000000000   0.500000000   0.498480000    0   0   0
O0       0.000000000   0.000000000   0.528800000    0   0   0
Rh1      0.250000000   0.000000000   0.576450000    0   0   0
Rh1      0.000000000   0.500000000   0.571210000    0   0   0
O0       0.250000000   0.690000000   0.577890000    0   0   0
O0       0.250000000   0.310000000   0.577910000    0   0   0
O0       0.000000000   0.000000000   0.621680000    0   0   0
O0       0.500000000   0.000000000   0.378650000    0   0   0
O0       0.500000000   0.500000000   0.400490000    0   0   0
Rh1      0.750000000   0.500000000   0.451990000    0   0   0
Rh1      0.500000000   0.000000000   0.453200000    0   0   0
O0       0.750000000   0.810000000   0.452790000    0   0   0
O0       0.750000000   0.190000000   0.452580000    0   0   0
O0       0.500000000   0.500000000   0.498480000    0   0   0
O0       0.500000000   0.000000000   0.528800000    0   0   0
Rh1      0.750000000   0.000000000   0.576450000    0   0   0
Rh1      0.500000000   0.500000000   0.571210000    0   0   0
O0       0.750000000   0.690000000   0.577890000    0   0   0
O0       0.750000000   0.310000000   0.577910000    0   0   0
O0       0.500000000   0.000000000   0.621680000    0   0   0
H2      -0.000070000   0.638970000   0.383980000    0   0   0
H2       0.499930000   0.638960000   0.383980000    0   0   0
H2       0.148440000   0.032530000   0.367830000    0   0   0
H2       0.648440000   0.032530000   0.367830000    0   0   0
O0       0.500029802   0.499603251   0.638976952

     Check: negative starting charge=(component1):   -0.642825
     NEW-OLD atomic charge density approx. for the potential

     Check: negative/imaginary core charge=   -0.000003    0.000000
     Check: negative starting charge=(component1):   -0.642827

[...]

     Self-consistent Calculation

[...]

     Threshold (ethr) on eigenvalues was too large:
     Diagonalizing with lowered threshold

     Davidson diagonalization with overlap
     ethr =  5.41E-08,  avg # of iterations =  1.0

[...]

     total energy              =   -1980.27362040 Ry
     Harris-Foulkes estimate   =   -1980.27362041 Ry
     estimated scf accuracy    <       0.00000006 Ry

[...]

     iteration # 79     ecut=    40.00 Ry     beta=0.30
     Davidson diagonalization with overlap
     ethr =  2.51E-11,  avg # of iterations =  2.0

     negative rho (up, down):  0.346E+00 0.346E+00

     End of self-consistent calculation

 ------ SPIN UP ------------

[...]

 ------ SPIN DOWN ----------

[...]

          k = 0.2500-0.4833 0.0000 ( 30510 PWs)   bands (ev):

[...]

          k =-0.2500 0.2417 0.0000 ( 30481 PWs)   bands (ev):

   -50.5996 -50.2492 -50.1976 -49.7935 -49.7884 -49.7449 -49.7132 -49.7037
   -49.6617 -49.6337 -49.5821 -49.5705 -49.5567 -49.5545 -49.5341 -49.4818
   -49.4773 -49.4322 -49.3651 -49.3629 -49.3528 -49.3510 -49.3324 -49.2551
   -21.7594 -21.4418 -21.2298 -21.1104 -20.9826 -20.8301 -20.6781 -20.5915
   -20.4739 -20.4657 -20.3121 -20.2631 -20.2418 -20.1902 -20.0470 -20.0063
   -19.2615 -19.1461 -18.8590  -9.8568  -9.6248  -9.5501  -9.3921  -9.0219
    -8.9514  -8.9161  -8.8831  -8.8531  -8.7791  -8.7360  -8.6862  -8.6218
    -8.3847  -8.2986  -8.2117  -8.0774  -8.0268  -7.8037  -7.6895  -7.5657
    -7.4526  -7.3540  -7.1341  -6.9411  -6.8647  -6.7120  -6.6178  -6.5399
    -6.4994  -6.3944  -6.3405  -6.2583  -6.2376  -6.0797  -6.0041  -5.9859
    -5.8920  -5.6976  -5.6469  -5.5380  -5.4371  -5.2856  -5.1715  -5.1296
    -5.0576  -4.8788  -4.8070  -4.7503  -4.6452  -4.5413  -4.3340  -4.1666
    -4.0057  -3.8766  -3.8100  -3.6929  -3.6114  -3.5051  -3.4860  -3.4116
    -3.3801  -3.2621  -3.1694  -3.1477  -3.1165  -3.0680  -3.0117  -2.8856
    -2.8349  -2.6324  -2.4327  -2.1847  -2.1738  -2.1084  -2.0289  -1.9460
    -1.8630  -1.7736  -1.6717  -1.6011  -1.2012  -0.7606  -0.6941  -0.2725
    -0.0138   0.1201   0.4325   0.5808   0.8804   1.0574   1.0871   1.2637
     1.3189   1.4994   1.5537   2.1219   3.3902   4.5660   4.6478   5.1107
     5.2030   5.3378   5.4589   6.1699   6.2537   6.3744   6.4737   6.6518
     6.7475   6.9056   7.0192   7.2038   7.2340   7.3692   7.4808   7.7167
     7.8022   7.8266   8.0236   8.1043   8.2401   8.3009   8.4608   8.5730
     8.6980   8.7413   8.8979   8.9678   9.2253   9.3612   9.4316   9.4840
     9.6418   9.6531   9.7209   9.7849   9.8759  10.0682  10.1670  10.2676
    10.3111  10.3914  10.5060  10.6076  10.6751  10.7702  10.8278  10.8756
    10.9409  11.0229  11.0848  11.1956  11.2931  11.4024  11.4708  11.5755
    11.6030  11.6928  11.7466  11.8298  11.8696  11.9015  11.9981  12.0966
    12.1862  12.2946  12.3418  12.4289  12.5773  12.6550  12.7144  12.7699
    12.7981  12.8360  12.8819  12.9249  12.9980  13.0302  13.1022  13.1815
    13.3185  13.3786  13.4389  13.5666  13.6194  13.7290  13.8317  13.8714
    13.9532  14.0112  14.0444  14.1591  14.2537  14.3392  14.4331  14.5187
    14.5494  14.5881  14.7180  14.8744  15.0021  15.0609  15.2113  15.2542
    15.3785  15.4094  15.4931  15.5294  15.5724  15.6804  15.7326  15.8090
    15.9333  16.0086  16.0450  16.0707  16.1087  16.1713  16.2248  16.3202
    16.4092  16.4500  16.4652  16.5238  16.5496  16.6425  16.6905  16.7688
    16.8240  16.9305  17.0039  17.0706  17.1451  17.2812  17.3235  17.3515
    17.4386  17.5038  17.5754  17.6219  17.6703  17.7925  17.8620  17.8877
    17.9140  18.0265  18.1428  18.1714  18.2267  18.3177  18.3591  18.4325
    18.4907  18.5817  18.6555  18.6675  18.7559  18.8780  18.9269  18.9893
    19.0407  19.0842  19.1269  19.1648  19.2100  19.2807  19.3881  19.4993
    19.5546  19.5686  19.6283  19.7870  19.7959  19.8864  20.0132  20.1164
    20.1959  20.2596  20.3050  20.3391  20.4738  20.5629  20.6196  20.6566
    20.6781  20.7391  20.8143  20.8749  20.9117  20.9925  21.0516  21.1608
    21.2330  21.2971  21.3380  21.3823  21.4620  21.5478  21.6887  21.7310
    21.7867  21.8451  21.8758  21.8984  21.9743  22.0323  22.0795  22.1593
    22.2140  22.2909  22.3652  22.4236  22.4838

     the Fermi energy is    -2.0189 ev

!    total energy              =   -1980.27362042 Ry
     Harris-Foulkes estimate   =   -1980.27362042 Ry
     estimated scf accuracy    <       0.00000004 Ry

     The total energy is the sum of the following terms:

     one-electron contribution =  -23273.69376250 Ry
     hartree contribution      =   11681.10173570 Ry
     xc contribution           =    -371.89280525 Ry
     ewald contribution        =    9984.21114265 Ry
     smearing contrib. (-TS)   =       0.00006899 Ry

     total magnetization       =     0.00 Bohr mag/cell
     absolute magnetization    =     0.01 Bohr mag/cell

     convergence has been achieved in  79 iterations

     Forces acting on atoms (Ry/au):

     negative rho (up, down):  0.346E+00 0.346E+00
     atom    1 type  1   force =    -0.00736335   -0.01448200    0.00129001
     atom    2 type  1   force =     0.00012821    0.00753685    0.00905387
     atom    3 type  2   force =     0.02085615    0.00621129   -0.00703137
     atom    4 type  2   force =     0.00892344    0.00927215   -0.00200450
     atom    5 type  1   force =    -0.00085610   -0.02928244   -0.00134490
     atom    6 type  1   force =     0.00175335    0.02555212   -0.00091721
     atom    7 type  1   force =    -0.00013650   -0.00110626    0.00429329
     atom    8 type  1   force =    -0.00295186   -0.00074950    0.00182126
     atom    9 type  2   force =     0.00534442    0.00012165    0.00535355
     atom   10 type  2   force =    -0.00000271   -0.00135298    0.00614147
     atom   11 type  1   force =    -0.02610351    0.01835343   -0.03303659
     atom   12 type  1   force =    -0.02632106   -0.01849652   -0.03304324
     atom   13 type  1   force =    -0.00091467    0.00007056   -0.00366916
     atom   14 type  1   force =    -0.00728485   -0.01469953    0.00081779
     atom   15 type  1   force =     0.00013171    0.00658321   -0.00043076
     atom   16 type  2   force =    -0.02163471    0.00529784   -0.00695389
     atom   17 type  2   force =     0.00880928    0.00936515   -0.00192898
     atom   18 type  1   force =    -0.00045159   -0.02904326   -0.00144440
     atom   19 type  1   force =     0.00147997    0.02576607   -0.00078539
     atom   20 type  1   force =    -0.00000676   -0.00539645   -0.01720445
     atom   21 type  1   force =    -0.00282807   -0.00054675   -0.00092218
     atom   22 type  2   force =    -0.00262920    0.00017940    0.00543979
     atom   23 type  2   force =    -0.00019985    0.00119992    0.14500815
     atom   24 type  1   force =     0.02600885    0.01842171   -0.03307177
     atom   25 type  1   force =     0.02687436   -0.01862137   -0.03300956
     atom   26 type  1   force =    -0.00081385    0.00001591   -0.00290535
     atom   27 type  3   force =    -0.00003282   -0.00091603    0.00007415
     atom   28 type  3   force =    -0.00004353   -0.00005217    0.00004262
     atom   29 type  3   force =     0.00006543    0.00052203    0.00004830
     atom   30 type  3   force =     0.00017150    0.00072416    0.00001276
     atom   31 type  1   force =     0.00002834   -0.00044820    0.00030667

     Total force =     0.000544     Total SCF correction =     0.000034

     bfgs converged in   5 scf cycles and   4 bfgs steps
     (criteria: energy < 0.10E-03, force < 0.10E-02)

     End of BFGS Geometry Optimization

     Final energy   =   -1980.2736204227 Ry
Begin final coordinates

ATOMIC_POSITIONS (crystal)
O0       0.000000000   0.000000000   0.378650000    0   0   0
O0       0.000000000   0.500000000   0.400490000    0   0   0
Rh1      0.250000000   0.500000000   0.451990000    0   0   0
Rh1      0.000000000   0.000000000   0.453200000    0   0   0
O0       0.250000000   0.810000000   0.452790000    0   0   0
O0       0.250000000   0.190000000   0.452580000    0   0   0
O0       0.000000000   0.500000000   0.498480000    0   0   0
O0       0.000000000   0.000000000   0.528800000    0   0   0
Rh1      0.250000000   0.000000000   0.576450000    0   0   0
Rh1      0.000000000   0.500000000   0.571210000    0   0   0
O0       0.250000000   0.690000000   0.577890000    0   0   0
O0       0.250000000   0.310000000   0.577910000    0   0   0
O0       0.000000000   0.000000000   0.621680000    0   0   0
O0       0.500000000   0.000000000   0.378650000    0   0   0
O0       0.500000000   0.500000000   0.400490000    0   0   0
Rh1      0.750000000   0.500000000   0.451990000    0   0   0
Rh1      0.500000000   0.000000000   0.453200000    0   0   0
O0       0.750000000   0.810000000   0.452790000    0   0   0
O0       0.750000000   0.190000000   0.452580000    0   0   0
O0       0.500000000   0.500000000   0.498480000    0   0   0
O0       0.500000000   0.000000000   0.528800000    0   0   0
Rh1      0.750000000   0.000000000   0.576450000    0   0   0
Rh1      0.500000000   0.500000000   0.571210000    0   0   0
O0       0.750000000   0.690000000   0.577890000    0   0   0
O0       0.750000000   0.310000000   0.577910000    0   0   0
O0       0.500000000   0.000000000   0.621680000    0   0   0
H2      -0.000070000   0.638970000   0.383980000    0   0   0
H2       0.499930000   0.638960000   0.383980000    0   0   0
H2       0.148440000   0.032530000   0.367830000    0   0   0
H2       0.648440000   0.032530000   0.367830000    0   0   0
O0       0.500029802   0.499603251   0.638976952
End final coordinates

     General routines

     Parallel routines

   This run was terminated on:  11:12: 8  26Mar2014

   JOB DONE.