     Program PWSCF v.5.0.2 (svn rev. 9656) starts on 28Apr2014 at  6:15:30

     Current dimensions of program PWSCF are:
     Max number of different atomic species (ntypx) = 10
     Max number of k-points (npk) =  40000
     Max angular momentum in pseudopotentials (lmaxx) =  3
     Reading input from pwscf.in
Warning: card &CELL ignored
Warning: card / ignored

     Subspace diagonalization in iterative solution of the eigenvalue problem:
     a serial algorithm will be used

     bravais-lattice index     =            0
     lattice parameter (alat)  =      12.2076  a.u.
     unit-cell volume          =    7496.5096 (a.u.)^3
     number of atoms/cell      =           32
     number of atomic types    =            3
     number of electrons       =       247.00
     number of Kohn-Sham states=          370
     kinetic-energy cutoff     =      40.0000  Ry
     charge density cutoff     =     500.0000  Ry
     convergence threshold     =      1.0E-06
     mixing beta               =       0.7000
     number of iterations used =            8  plain     mixing
     Exchange-correlation      = SLA  PW   PBE  PBE ( 1 4 3 4 0)
     EXX-fraction              =        0.00
     nstep                     =           50

     celldm(1)=  12.207631  celldm(2)=   0.000000  celldm(3)=   0.000000
     celldm(4)=   0.000000  celldm(5)=   0.000000  celldm(6)=   0.000000

     crystal axes: (cart. coord. in units of alat)
               a(1) = (   1.000000   0.000000   0.000000 )
               a(2) = (   0.000000   1.004836   0.000000 )
               a(3) = (   0.000000   0.000000   4.100811 )

     reciprocal axes: (cart. coord. in units 2 pi/alat)
               b(1) = (  1.000000  0.000000  0.000000 )
               b(2) = (  0.000000  0.995187  0.000000 )
               b(3) = (  0.000000  0.000000  0.243854 )

     PseudoPot. # 1 for O  read from file:
     /home/camp/zhonxu/pseudo/o_pbe_v1.01.uspp.F.UPF
     MD5 check sum: 2bcb18d16ea4b960afae9ec6d52f22d2
     Pseudo is Ultrasoft + core correction, Zval =  6.0
     Generated by new atomic code, or converted to UPF format
     Using radial grid of  737 points,  5 beta functions with:
                l(1) =   0
                l(2) =   0
                l(3) =   1
                l(4) =   1
                l(5) =   2
     Q(r) pseudized with  8 coefficients,  rinner =    0.900   0.900   0.900
                                                       0.900   0.900

     PseudoPot. # 2 for Pt read from file:
     /home/camp/zhonxu/pseudo/pt_pbe_v1.uspp.F.UPF
     MD5 check sum: 4c71d6ad5ef119f1eb26a4d0b7884226
     Pseudo is Ultrasoft + core correction, Zval = 16.0
     Generated by new atomic code, or converted to UPF format
     Using radial grid of  985 points,  6 beta functions with:
                l(1) =   0
                l(2) =   0
                l(3) =   1
                l(4) =   1
                l(5) =   2
                l(6) =   2
     Q(r) pseudized with  8 coefficients,  rinner =    1.300   1.300   1.300
                                                       1.300   1.300

     PseudoPot. # 3 for H  read from file:
     /home/camp/zhonxu/pseudo/h_pbe_v1.uspp.F.UPF
     MD5 check sum: 3408e3ff4ec8b0a4e358431e7e038a48
     Pseudo is Ultrasoft, Zval =  1.0
     Generated by new atomic code, or converted to UPF format
     Using radial grid of  615 points,  2 beta functions with:
                l(1) =   0
                l(2) =   0
     Q(r) pseudized with  8 coefficients,  rinner =    0.700

     atomic species   valence    mass     pseudopotential
        O0             6.00    15.99940     O ( 1.00)
        Pt1           16.00   195.08000     Pt( 1.00)
        H2             1.00     1.00794     H ( 1.00)

     Simplified LDA+U calculation (l_max = 2) with parameters (eV):
     atomic species    L          U    alpha       J0     beta
        Pt1            2     8.0000   0.0000   0.0000   0.0000

     No symmetry found

   Cartesian axes

     site n.     atom                  positions (alat units)
         1           O0  tau(   1) = (   0.0000000   0.0000000   1.5486303  )
         2           O0  tau(   2) = (   0.0000000   0.5024180   1.6456145  )
         3           Pt1 tau(   3) = (   0.2500000   0.5024180   1.8492198  )
         4           Pt1 tau(   4) = (   0.0000000   0.0000000   1.8561502  )
         5           O0  tau(   5) = (   0.2500000   0.8139171   1.8185047  )
         6           O0  tau(   6) = (   0.2500000   0.1909188   1.8850199  )
         7           O0  tau(   7) = (   0.0000000   0.5024180   2.0364218  )
         8           O0  tau(   8) = (   0.0000000   0.0000000   2.1712565  )
         9           Pt1 tau(   9) = (   0.2500000   0.0000000   2.3611651  )
        10           Pt1 tau(  10) = (   0.0000000   0.5024180   2.3568182  )
        11           O0  tau(  11) = (   0.2500000   0.6933368   2.3352889  )
        12           O0  tau(  12) = (   0.2500000   0.3114991   2.3978263  )
        13           O0  tau(  13) = (   0.0000000   0.0000000   2.5469728  )
        14           O0  tau(  14) = (   0.5000000   0.0000000   1.5487944  )
        15           O0  tau(  15) = (   0.5000000   0.5024180   1.6432360  )
        16           Pt1 tau(  16) = (   0.7500000   0.5024180   1.8492608  )
        17           Pt1 tau(  17) = (   0.5000000   0.0000000   1.8561092  )
        18           O0  tau(  18) = (   0.7500000   0.8139171   1.8183407  )
        19           O0  tau(  19) = (   0.7500000   0.1909188   1.8850199  )
        20           O0  tau(  20) = (   0.5000000   0.5024180   2.0398255  )
        21           O0  tau(  21) = (   0.5000000   0.0000000   2.1711335  )
        22           Pt1 tau(  22) = (   0.7500000   0.0000000   2.3611651  )
        23           Pt1 tau(  23) = (   0.5000000   0.5024180   2.3633795  )
        24           O0  tau(  24) = (   0.7500000   0.6933368   2.3343868  )
        25           O0  tau(  25) = (   0.7500000   0.3114991   2.3965141  )
        26           O0  tau(  26) = (   0.5000000   0.0000000   2.5473419  )
        27           H2  tau(  27) = (   0.0000800   0.6431151   1.5815188  )
        28           H2  tau(  28) = (   0.4999900   0.6432457   1.5795915  )
        29           H2  tau(  29) = (   0.1433600   0.0342348   1.5075812  )
        30           H2  tau(  30) = (   0.6432100   0.0348377   1.5077042  )
        31           O0  tau(  31) = (   0.5002800   0.5276996   2.6647891  )
        32           H2  tau(  32) = (   0.4897800   0.3840985   2.7162543  )

     number of k points=    10  Methfessel-Paxton smearing, width (Ry)=  0.0100
                       cart. coord. in units 2pi/alat
        k(    1) = (   0.0000000   0.0000000   0.0000000), wk =   0.1250000
        k(    2) = (   0.0000000   0.2487968   0.0000000), wk =   0.2500000
        k(    3) = (   0.0000000  -0.4975937   0.0000000), wk =   0.1250000
        k(    4) = (   0.2500000   0.0000000   0.0000000), wk =   0.2500000
        k(    5) = (   0.2500000   0.2487968   0.0000000), wk =   0.2500000
        k(    6) = (   0.2500000  -0.4975937   0.0000000), wk =   0.2500000
        k(    7) = (  -0.5000000   0.0000000   0.0000000), wk =   0.1250000
        k(    8) = (  -0.5000000   0.2487968   0.0000000), wk =   0.2500000
        k(    9) = (  -0.5000000  -0.4975937   0.0000000), wk =   0.1250000
        k(   10) = (  -0.2500000   0.2487968   0.0000000), wk =   0.2500000

     Largest allocated arrays     est. size (Mb)     dimensions
     Largest temporary arrays     est. size (Mb)     dimensions

     Check: negative/imaginary core charge=   -0.000003    0.000000

     Initial potential from superposition of free atoms
     Check: negative starting charge=   -1.535574

     starting charge  242.99984, renormalised to  247.00000

     negative rho (up, down):  0.156E+01 0.000E+00
     Number of +U iterations with fixed ns =  0
     Starting occupations:
 --- enter write_ns ---
 LDA+U parameters:
U( 2)     =  8.00000000
alpha( 2) =  0.00000000
atom    3   Tr[ns(na)] =   8.00000
    eigenvalues:
  0.800  0.800  0.800  0.800  0.800
    eigenvectors:
  1.000  0.000  0.000  0.000  0.000
  0.000  1.000  0.000  0.000  0.000
  0.000  0.000  1.000  0.000  0.000
  0.000  0.000  0.000  1.000  0.000
  0.000  0.000  0.000  0.000  1.000
    occupations:
  0.800  0.000  0.000  0.000  0.000
  0.000  0.800  0.000  0.000  0.000
  0.000  0.000  0.800  0.000  0.000
  0.000  0.000  0.000  0.800  0.000
  0.000  0.000  0.000  0.000  0.800
atom    4   Tr[ns(na)] =   8.00000
    eigenvalues:
  0.800  0.800  0.800  0.800  0.800
    eigenvectors:
  1.000  0.000  0.000  0.000  0.000
  0.000  1.000  0.000  0.000  0.000
  0.000  0.000  1.000  0.000  0.000
  0.000  0.000  0.000  1.000  0.000
  0.000  0.000  0.000  0.000  1.000
    occupations:
  0.800  0.000  0.000  0.000  0.000
  0.000  0.800  0.000  0.000  0.000
  0.000  0.000  0.800  0.000  0.000
  0.000  0.000  0.000  0.800  0.000
  0.000  0.000  0.000  0.000  0.800
atom    9   Tr[ns(na)] =   8.00000
    eigenvalues:
  0.800  0.800  0.800  0.800  0.800
    eigenvectors:
  1.000  0.000  0.000  0.000  0.000
  0.000  1.000  0.000  0.000  0.000
  0.000  0.000  1.000  0.000  0.000
  0.000  0.000  0.000  1.000  0.000
  0.000  0.000  0.000  0.000  1.000
    occupations:
  0.800  0.000  0.000  0.000  0.000
  0.000  0.800  0.000  0.000  0.000
  0.000  0.000  0.800  0.000  0.000
  0.000  0.000  0.000  0.800  0.000
  0.000  0.000  0.000  0.000  0.800
atom   10   Tr[ns(na)] =   8.00000
    eigenvalues:
  0.800  0.800  0.800  0.800  0.800
    eigenvectors:
  1.000  0.000  0.000  0.000  0.000
  0.000  1.000  0.000  0.000  0.000
  0.000  0.000  1.000  0.000  0.000
  0.000  0.000  0.000  1.000  0.000
  0.000  0.000  0.000  0.000  1.000
    occupations:
  0.800  0.000  0.000  0.000  0.000
  0.000  0.800  0.000  0.000  0.000
  0.000  0.000  0.800  0.000  0.000
  0.000  0.000  0.000  0.800  0.000
  0.000  0.000  0.000  0.000  0.800
atom   16   Tr[ns(na)] =   8.00000
    eigenvalues:
  0.800  0.800  0.800  0.800  0.800
    eigenvectors:
  1.000  0.000  0.000  0.000  0.000
  0.000  1.000  0.000  0.000  0.000
  0.000  0.000  1.000  0.000  0.000
  0.000  0.000  0.000  1.000  0.000
  0.000  0.000  0.000  0.000  1.000
    occupations:
  0.800  0.000  0.000  0.000  0.000
  0.000  0.800  0.000  0.000  0.000
  0.000  0.000  0.800  0.000  0.000
  0.000  0.000  0.000  0.800  0.000
  0.000  0.000  0.000  0.000  0.800
atom   17   Tr[ns(na)] =   8.00000
    eigenvalues:
  0.800  0.800  0.800  0.800  0.800
    eigenvectors:
  1.000  0.000  0.000  0.000  0.000
  0.000  1.000  0.000  0.000  0.000
  0.000  0.000  1.000  0.000  0.000
  0.000  0.000  0.000  1.000  0.000
  0.000  0.000  0.000  0.000  1.000
    occupations:
  0.800  0.000  0.000  0.000  0.000
  0.000  0.800  0.000  0.000  0.000
  0.000  0.000  0.800  0.000  0.000
  0.000  0.000  0.000  0.800  0.000
  0.000  0.000  0.000  0.000  0.800
atom   22   Tr[ns(na)] =   8.00000
    eigenvalues:
  0.800  0.800  0.800  0.800  0.800
    eigenvectors:
  1.000  0.000  0.000  0.000  0.000
  0.000  1.000  0.000  0.000  0.000
  0.000  0.000  1.000  0.000  0.000
  0.000  0.000  0.000  1.000  0.000
  0.000  0.000  0.000  0.000  1.000
[...]
 -0.084  0.000 -0.024  0.777  0.001
  0.000 -0.003  0.001  0.001  0.967
atom   10   Tr[ns(na)] =   8.87296
    eigenvalues:
  0.681  0.786  0.988  0.989  0.992
    eigenvectors:
  0.000  0.977  0.000  0.014  0.008
  0.014  0.000  0.947  0.039  0.000
  0.000  0.000  0.011  0.222  0.767
  0.000  0.022  0.029  0.725  0.225
  0.986  0.000  0.014  0.001  0.000
    occupations:
  0.791 -0.001 -0.005  0.030 -0.000
 -0.001  0.984 -0.000  0.000 -0.036
 -0.005 -0.000  0.991 -0.001  0.000
  0.030  0.000 -0.001  0.985  0.000
 -0.000 -0.036  0.000  0.000  0.686
atom   16   Tr[ns(na)] =   8.82008
    eigenvalues:
  0.712  0.726  0.989  0.991  0.993
    eigenvectors:
  0.009  0.158  0.832  0.000  0.002
  0.950  0.050  0.000  0.000  0.000
  0.000  0.006  0.006  0.001  0.987
  0.042  0.786  0.162  0.000  0.011
  0.000  0.000  0.000  0.999  0.001
    occupations:
  0.945 -0.001  0.008 -0.098 -0.000
 -0.001  0.713 -0.001 -0.003 -0.002
  0.008 -0.001  0.991  0.019 -0.000
 -0.098 -0.003  0.019  0.771 -0.000
 -0.000 -0.002 -0.000 -0.000  0.991
atom   17   Tr[ns(na)] =   8.81645
    eigenvalues:
  0.710  0.732  0.987  0.989  0.990
    eigenvectors:
  0.000  0.984  0.010  0.004  0.002
  0.014  0.000  0.067  0.834  0.085
  0.000  0.006  0.783  0.011  0.200
  0.000  0.010  0.140  0.139  0.711
  0.986  0.000  0.001  0.012  0.001
    occupations:
  0.736 -0.004 -0.019  0.025 -0.001
 -0.004  0.985  0.000  0.000  0.032
 -0.019  0.000  0.986  0.003 -0.000
  0.025  0.000  0.003  0.987  0.000
 -0.001  0.032 -0.000  0.000  0.714
atom   22   Tr[ns(na)] =   8.81119
    eigenvalues:
  0.731  0.742  0.967  0.976  0.989
    eigenvectors:
  0.001  0.132  0.000  0.014  0.853
  0.996  0.004  0.000  0.000  0.000
  0.000  0.011  0.008  0.973  0.007
  0.003  0.853  0.000  0.004  0.140
  0.000  0.000  0.991  0.009  0.000
    occupations:
  0.956  0.001 -0.008 -0.084 -0.000
  0.001  0.731  0.000  0.000 -0.003
 -0.008  0.000  0.973 -0.023 -0.001
 -0.084  0.000 -0.023  0.777 -0.001
 -0.000 -0.003 -0.001 -0.001  0.967
atom   23   Tr[ns(na)] =   8.80574
    eigenvalues:
  0.708  0.735  0.981  0.988  0.990
    eigenvectors:
  0.000  0.967  0.000  0.001  0.032
  0.020  0.000  0.978  0.002  0.001
  0.000  0.023  0.002  0.410  0.564
  0.000  0.009  0.000  0.587  0.403
  0.980  0.000  0.020  0.000  0.000
    occupations:
  0.744 -0.001  0.038  0.024  0.000
 -0.001  0.975  0.001 -0.000 -0.038
  0.038  0.001  0.984 -0.003  0.000
  0.024 -0.000 -0.003  0.987 -0.000
  0.000 -0.038  0.000 -0.000  0.713
N of occupied +U levels =  70.5759794
 --- exit write_ns ---

     Threshold (ethr) on eigenvalues was too large:
     Diagonalizing with lowered threshold

     Davidson diagonalization with overlap
     ethr =  1.94E-08,  avg # of iterations =  2.0

[...]

     total energy              =   -2280.00059321 Ry
     Harris-Foulkes estimate   =   -2280.00059321 Ry
     estimated scf accuracy    <       0.00000004 Ry

     iteration # 15     ecut=    40.00 Ry     beta=0.70
     Davidson diagonalization with overlap
     ethr =  4.28E-12,  avg # of iterations =  1.1

     negative rho (up, down):  0.157E+01 0.000E+00

     End of self-consistent calculation
 --- enter write_ns ---
 LDA+U parameters:
U( 2)     =  8.00000000
alpha( 2) =  0.00000000
atom    3   Tr[ns(na)] =   8.81948
    eigenvalues:
  0.711  0.726  0.989  0.991  0.993
    eigenvectors:
  0.009  0.158  0.828  0.003  0.002
  0.949  0.051  0.000  0.000  0.000
  0.000  0.006  0.008  0.000  0.986
  0.042  0.786  0.161  0.001  0.011
  0.000  0.000  0.003  0.996  0.000
    occupations:
  0.945  0.002  0.008 -0.098  0.000
  0.002  0.712  0.001  0.003 -0.002
  0.008  0.001  0.991  0.019  0.000
 -0.098  0.003  0.019  0.771  0.001
  0.000 -0.002  0.000  0.001  0.991
atom    4   Tr[ns(na)] =   8.81841
    eigenvalues:
  0.710  0.732  0.988  0.989  0.990
    eigenvectors:
  0.000  0.984  0.011  0.004  0.001
  0.013  0.000  0.068  0.803  0.116
  0.000  0.006  0.735  0.003  0.256
  0.000  0.010  0.185  0.179  0.625
  0.986  0.000  0.001  0.011  0.002
    occupations:
  0.736 -0.004 -0.019  0.025 -0.001
 -0.004  0.985  0.000  0.000  0.032
 -0.019  0.000  0.987  0.003 -0.000
  0.025  0.000  0.003  0.987  0.000
 -0.001  0.032 -0.000  0.000  0.714
atom    9   Tr[ns(na)] =   8.81187
    eigenvalues:
  0.731  0.742  0.967  0.976  0.989
    eigenvectors:
  0.000  0.133  0.000  0.014  0.853
  0.999  0.000  0.000  0.000  0.000
  0.000  0.011  0.005  0.976  0.007
  0.000  0.856  0.000  0.005  0.139
  0.000  0.000  0.994  0.005  0.000
    occupations:
  0.956  0.000 -0.008 -0.084  0.000
  0.000  0.731 -0.000  0.000 -0.003
 -0.008 -0.000  0.974 -0.024  0.001
 -0.084  0.000 -0.024  0.777  0.001
  0.000 -0.003  0.001  0.001  0.967
atom   10   Tr[ns(na)] =   8.87021
    eigenvalues:
  0.681  0.785  0.988  0.989  0.992
    eigenvectors:
  0.000  0.977  0.000  0.014  0.008
  0.014  0.000  0.945  0.040  0.000
  0.000  0.001  0.011  0.221  0.767
  0.000  0.022  0.030  0.724  0.225
  0.986  0.000  0.014  0.001  0.000
    occupations:
  0.790 -0.001 -0.005  0.030 -0.000
 -0.001  0.984 -0.000  0.000 -0.036
 -0.005 -0.000  0.991 -0.001  0.000
  0.030  0.000 -0.001  0.985  0.000
 -0.000 -0.036  0.000  0.000  0.685
atom   16   Tr[ns(na)] =   8.81967
    eigenvalues:
  0.712  0.726  0.989  0.991  0.993
    eigenvectors:
  0.008  0.158  0.832  0.000  0.002
  0.951  0.049  0.000  0.000  0.000
  0.000  0.006  0.006  0.001  0.987
  0.041  0.787  0.162  0.000  0.011
  0.000  0.000  0.000  0.999  0.001
    occupations:
  0.945 -0.001  0.008 -0.098 -0.000
 -0.001  0.712 -0.001 -0.003 -0.002
  0.008 -0.001  0.991  0.019 -0.000
 -0.098 -0.003  0.019  0.771 -0.000
 -0.000 -0.002 -0.000 -0.000  0.991
atom   17   Tr[ns(na)] =   8.81650
    eigenvalues:
  0.710  0.732  0.987  0.989  0.990
    eigenvectors:
  0.000  0.984  0.010  0.004  0.002
  0.014  0.000  0.068  0.834  0.085
  0.000  0.006  0.780  0.011  0.204
  0.000  0.010  0.142  0.140  0.708
  0.986  0.000  0.001  0.012  0.001
    occupations:
  0.736 -0.004 -0.019  0.025 -0.001
 -0.004  0.985  0.000  0.000  0.032
 -0.019  0.000  0.986  0.003 -0.000
  0.025  0.000  0.003  0.987  0.000
 -0.001  0.032 -0.000  0.000  0.714
atom   22   Tr[ns(na)] =   8.81171
    eigenvalues:
  0.731  0.742  0.967  0.976  0.989
    eigenvectors:
  0.001  0.132  0.000  0.014  0.853
  0.996  0.004  0.000  0.000  0.000
  0.000  0.011  0.008  0.973  0.007
  0.003  0.853  0.000  0.004  0.140
  0.000  0.000  0.991  0.008  0.000
    occupations:
  0.956  0.001 -0.008 -0.084 -0.000
  0.001  0.731  0.000  0.000 -0.003
 -0.008  0.000  0.973 -0.023 -0.001
 -0.084  0.000 -0.023  0.777 -0.001
 -0.000 -0.003 -0.001 -0.001  0.967
atom   23   Tr[ns(na)] =   8.80555
    eigenvalues:
  0.708  0.735  0.981  0.988  0.990
    eigenvectors:
  0.000  0.967  0.000  0.001  0.032
  0.020  0.000  0.978  0.002  0.001
  0.000  0.023  0.002  0.412  0.562
  0.000  0.009  0.000  0.585  0.405
  0.980  0.000  0.020  0.000  0.000
    occupations:
  0.744 -0.000  0.038  0.024  0.000
 -0.000  0.976  0.001 -0.000 -0.038
  0.038  0.001  0.984 -0.003  0.000
  0.024 -0.000 -0.003  0.987 -0.000
  0.000 -0.038  0.000 -0.000  0.713
N of occupied +U levels =  70.5734075
 --- exit write_ns ---

[...]

          k = 0.2500-0.4976 0.0000 ( 32026 PWs)   bands (ev):

[...]

          k =-0.2500 0.2488 0.0000 ( 32025 PWs)   bands (ev):

   -54.9344 -54.8941 -54.8358 -54.7936 -54.7743 -54.7465 -54.7421 -54.7338
   -54.6612 -54.6558 -54.6251 -54.5750 -54.5695 -54.5666 -54.5601 -54.4417
   -54.4365 -54.4322 -54.3983 -54.3916 -54.3127 -54.1355 -53.9180 -53.5769
   -22.1269 -21.9736 -21.2988 -21.1341 -20.9700 -20.9357 -20.7686 -20.7023
   -20.6752 -20.4349 -20.3690 -20.2945 -20.1579 -20.0884 -20.0298 -19.9981
   -19.8261 -19.4185 -19.1511 -11.5988 -11.4757 -11.4651 -11.1831 -11.0216
   -10.9095 -10.8123 -10.4994 -10.4927 -10.1003  -9.9136  -9.8373  -9.6722
    -9.6255  -9.4920  -9.4650  -9.3242  -9.2103  -9.1287  -9.0332  -8.8493
    -8.6766  -8.6387  -8.5559  -8.5031  -8.3270  -8.2125  -8.1355  -7.9590
    -7.8829  -7.8451  -7.7926  -7.6896  -7.5761  -7.4957  -7.4096  -7.3721
    -7.2249  -7.1684  -7.0652  -6.9092  -6.7006  -6.4379  -6.1896  -6.0286
    -5.7663  -5.7501  -5.6870  -5.5254  -5.4552  -5.4296  -5.2785  -5.0746
    -4.9678  -4.8848  -4.6896  -4.4705  -4.4236  -4.3634  -4.1810  -4.1165
    -4.0137  -3.9019  -3.8615  -3.7349  -3.6364  -3.5014  -3.4816  -3.2093
    -3.1845  -2.9588  -2.8138  -2.7206  -2.6043  -2.5813  -2.5337  -2.4727
    -2.3861  -2.2001  -2.0352  -1.9286  -1.8284  -1.1677  -0.8796  -0.7042
    -0.3603  -0.2137   0.2147   0.4822   0.7052   0.7833   0.9295   1.0388
     1.2514   1.3823   1.4612   1.8002   3.2750   3.9667   4.6026   5.0321
     5.0924   5.2152   5.2751   5.5516   6.0042   6.1862   6.3006   6.3271
     6.4489   6.5924   6.6812   6.7799   6.8561   6.9331   7.1396   7.2299
     7.3946   7.5231   7.5454   7.7141   7.7573   7.8661   7.9645   8.0619
     8.2505   8.3394   8.3799   8.4916   8.5417   8.6438   8.6879   8.8060
     8.9560   9.0017   9.0775   9.1988   9.3462   9.4309   9.6173   9.6526
     9.7671   9.8365   9.9130  10.0621  10.1146  10.1900  10.2326  10.3695
    10.5142  10.5515  10.6109  10.7045  10.7360  10.9463  11.0241  11.0974
    11.1824  11.2192  11.3760  11.4424  11.4906  11.6534  11.7594  11.7924
    11.8539  11.9531  12.0147  12.0402  12.1175  12.2242  12.2987  12.3660
    12.4110  12.4834  12.5337  12.6035  12.6742  12.7406  12.7994  12.9767
    13.0202  13.0607  13.1337  13.2289  13.3046  13.4982  13.5757  13.5965
    13.6347  13.6974  13.7477  13.8491  13.9664  14.0083  14.0897  14.1147
    14.2343  14.3236  14.3688  14.5510  14.5903  14.6675  14.7613  14.8712
    14.9178  15.0267  15.0963  15.2132  15.2618  15.3120  15.3253  15.4200
    15.4616  15.5113  15.6039  15.6252  15.7022  15.7392  15.7869  15.8644
    15.8864  15.9850  16.0164  16.0669  16.1301  16.2516  16.3342  16.4085
    16.4852  16.5236  16.6476  16.7352  16.7954  16.8330  16.9296  16.9593
    17.0327  17.0852  17.1344  17.1995  17.2344  17.2982  17.3467  17.3859
    17.4743  17.4897  17.5395  17.5672  17.5972  17.6210  17.6314  17.6669
    17.6738  17.7365  17.7476  17.7778  17.8370  17.9228  17.9600  18.0115
    18.0643  18.1447  18.1815  18.2801  18.3595  18.4703  18.5092  18.5296
    18.5975  18.6272  18.6380  18.7355  18.8063  18.8857  18.9258  18.9818
    19.0400  19.1524  19.1928  19.2750  19.3198  19.3827  19.4686  19.5728
    19.6539  19.7020  19.8301  19.8925  19.9626  19.9985  20.0587  20.0971
    20.1530  20.1819  20.2795  20.3560  20.3691  20.4389  20.5366  20.5760
    20.6675  20.7134  20.7464  20.8192  20.9196  20.9484  20.9844  21.0293
    21.0959  21.2272  21.2565  21.3040  21.3400  21.3644  21.4636  21.5115
    21.5863  21.6262  21.7187  21.7576  21.8123  21.9083  22.0006  22.0834
    22.1581  22.2007

     the Fermi energy is    -1.9294 ev

!    total energy              =   -2280.00059321 Ry
     Harris-Foulkes estimate   =   -2280.00059321 Ry
     estimated scf accuracy    <          4.0E-09 Ry

     The total energy is the sum of the following terms:

     one-electron contribution =  -23727.01293146 Ry
     hartree contribution      =   11909.34659880 Ry
     xc contribution           =    -573.10731251 Ry
     ewald contribution        =   10108.71621193 Ry
     Hubbard energy            =       2.05660340 Ry
     smearing contrib. (-TS)   =       0.00023664 Ry

     convergence has been achieved in  15 iterations

     Forces acting on atoms (Ry/au):

     negative rho (up, down):  0.157E+01 0.000E+00
     atom    1 type  1   force =    -0.00784703   -0.00320018   -0.00042672
     atom    2 type  1   force =     0.00032782    0.00342767    0.00060469
     atom    3 type  2   force =     0.01428149    0.00732388   -0.00012567
     atom    4 type  2   force =     0.00985028    0.00345998   -0.00015829
     atom    5 type  1   force =     0.00148342   -0.00264977   -0.00012342
     atom    6 type  1   force =     0.00014212   -0.00312916    0.00039591
     atom    7 type  1   force =     0.00026205   -0.00049521   -0.00033935
     atom    8 type  1   force =    -0.00412142   -0.00064778    0.00004241
     atom    9 type  2   force =     0.00361929    0.00219299    0.00031574
     atom   10 type  2   force =    -0.00048507   -0.02378310   -0.00005361
     atom   11 type  1   force =     0.00394511    0.00224896    0.00009995
     atom   12 type  1   force =    -0.01212293    0.00745376   -0.00022087
     atom   13 type  1   force =    -0.00109106   -0.00676656    0.00030635
     atom   14 type  1   force =    -0.00745121   -0.00290786   -0.00035616
     atom   15 type  1   force =     0.00010389    0.00099823   -0.00013176
     atom   16 type  2   force =    -0.01545888    0.00726495   -0.00009243
     atom   17 type  2   force =     0.00944869    0.00472943   -0.00018147
     atom   18 type  1   force =     0.00103108   -0.00272171   -0.00019835
     atom   19 type  1   force =     0.00013621   -0.00299540    0.00043860
     atom   20 type  1   force =     0.00023836   -0.00233037   -0.00037301
     atom   21 type  1   force =    -0.00385959    0.00205774   -0.00009884
     atom   22 type  2   force =     0.00020425    0.00236132    0.00037712
     atom   23 type  2   force =    -0.00030271    0.00388135    0.00014945
     atom   24 type  1   force =    -0.00389162    0.00272359    0.00007352
     atom   25 type  1   force =     0.01225739    0.00770861   -0.00032911
     atom   26 type  1   force =    -0.00111600   -0.00592589    0.00015438
     atom   27 type  3   force =     0.00000119   -0.00039262    0.00003466
     atom   28 type  3   force =    -0.00000099   -0.00004097   -0.00005090
     atom   29 type  3   force =     0.00012086    0.00002958   -0.00022469
     atom   30 type  3   force =     0.00007577    0.00001838   -0.00026237
     atom   31 type  1   force =     0.00013522    0.00031751   -0.00012140
     atom   32 type  3   force =     0.00008402   -0.00021136    0.00087563

     Total force =     0.001804     Total SCF correction =     0.000184
     SCF correction compared to forces is large: reduce conv_thr to get better values

     bfgs converged in  23 scf cycles and  22 bfgs steps
     (criteria: energy < 0.10E-03, force < 0.10E-02)

     End of BFGS Geometry Optimization

     Final energy   =   -2280.0005932055 Ry
Begin final coordinates

ATOMIC_POSITIONS (crystal)
O0       0.000000000   0.000000000   0.377547189    0   0   1
O0       0.000000000   0.500000000   0.401382924    0   0   1
Pt1      0.250000000   0.500000000   0.450985368    0   0   1
Pt1      0.000000000   0.000000000   0.452623685    0   0   1
O0       0.250000000   0.810000000   0.442204223    0   0   1
O0       0.250000000   0.190000000   0.461191486    0   0   1
O0       0.000000000   0.500000000   0.496527434    0   0   1
O0       0.000000000   0.000000000   0.529674832    0   0   1
Pt1      0.250000000   0.000000000   0.575679229    0   0   1
Pt1      0.000000000   0.500000000   0.574624611    0   0   1
O0       0.250000000   0.690000000   0.565967547    0   0   1
O0       0.250000000   0.310000000   0.586301271    0   0   1
O0       0.000000000   0.000000000   0.621174877    0   0   1
O0       0.500000000   0.000000000   0.377591485    0   0   1
O0       0.500000000   0.500000000   0.401061852    0   0   1
Pt1      0.750000000   0.500000000   0.450985706    0   0   1
Pt1      0.500000000   0.000000000   0.452654779    0   0   1
O0       0.750000000   0.810000000   0.442225074    0   0   1
O0       0.750000000   0.190000000   0.461181926    0   0   1
O0       0.500000000   0.500000000   0.497210695    0   0   1
O0       0.500000000   0.000000000   0.529643466    0   0   1
Pt1      0.750000000   0.000000000   0.575675671    0   0   1
Pt1      0.500000000   0.500000000   0.575841259    0   0   1
O0       0.750000000   0.690000000   0.566016413    0   0   1
O0       0.750000000   0.310000000   0.586196660    0   0   1
O0       0.500000000   0.000000000   0.621188652    0   0   1
H2       0.000056446   0.641578087   0.386587837
H2       0.499994308   0.641799867   0.386405210
H2       0.143797086   0.034357086   0.367968031
H2       0.643878416   0.034167822   0.368017595
O0       0.499446927   0.536720378   0.649343846
H2       0.492601583   0.395289783   0.662939168
End final coordinates

     General routines

     Parallel routines
     Hubbard U routines

   This run was terminated on:   3:58: 6  29Apr2014

   JOB DONE.
Running PBS batch system epilogue script
Job id: 340500.audhumbla.fysik.dtu.dk
Username: zhonxu
Groupname: campgst
Jobname: PtO2/Eads-2-layers/OH-U-8.0
Sessionid: 3460
Queuename: verylong
Accounting:
This job has allocated the following 16 nodes:
b026 b026 b026 b026 b026 b026 b026 b026 b004 b004 b004 b004 b004 b004 b004 b004
Finished epilogue job 340500.audhumbla.fysik.dtu.dk for zhonxu