     Program PWSCF v.5.0.2 (svn rev. 9656) starts on  8May2014 at 23:14:28

     Current dimensions of program PWSCF are:
     Max number of different atomic species (ntypx) = 10
     Max number of k-points (npk) =  40000
     Max angular momentum in pseudopotentials (lmaxx) =  3
     Reading input from pwscf.in
Warning: card &CELL ignored
Warning: card / ignored

     Subspace diagonalization in iterative solution of the eigenvalue problem:
     a serial algorithm will be used

     bravais-lattice index     =            0
     lattice parameter (alat)  =      11.7541  a.u.
     unit-cell volume          =    7139.8207 (a.u.)^3
     number of atoms/cell      =           30
     number of atomic types    =            3
     number of electrons       =       232.00
     number of Kohn-Sham states=          348
     kinetic-energy cutoff     =      40.0000  Ry
     charge density cutoff     =     500.0000  Ry
     convergence threshold     =      1.0E-06
     mixing beta               =       0.7000
     number of iterations used =            8  plain     mixing
     Exchange-correlation      = SLA  PW   PBE  PBE ( 1 4 3 4 0)
     EXX-fraction              =        0.00
     nstep                     =           50

     celldm(1)=  11.754097  celldm(2)=   0.000000  celldm(3)=   0.000000
     celldm(4)=   0.000000  celldm(5)=   0.000000  celldm(6)=   0.000000

     crystal axes: (cart. coord. in units of alat)
               a(1) = (   1.000000   0.000000   0.000000 )
               a(2) = (   0.000000   1.034513   0.000000 )
               a(3) = (   0.000000   0.000000   4.249947 )

     reciprocal axes: (cart. coord. in units 2 pi/alat)
               b(1) = (  1.000000  0.000000  0.000000 )
               b(2) = (  0.000000  0.966638  0.000000 )
               b(3) = (  0.000000  0.000000  0.235297 )

     PseudoPot. # 1 for O  read from file:
     /home/camp/zhonxu/pseudo/o_pbe_v1.01.uspp.F.UPF
     MD5 check sum: 2bcb18d16ea4b960afae9ec6d52f22d2
     Pseudo is Ultrasoft + core correction, Zval =  6.0
     Generated by new atomic code, or converted to UPF format
     Using radial grid of  737 points,  5 beta functions with:
                l(1) =   0
                l(2) =   0
                l(3) =   1
                l(4) =   1
                l(5) =   2
     Q(r) pseudized with  8 coefficients,  rinner =    0.900   0.900   0.900
                                                       0.900   0.900

     PseudoPot. # 2 for Rh read from file:
     /home/camp/zhonxu/pseudo/rh_pbe_v1.uspp.F.UPF
     MD5 check sum: 37b626987ad0dd8ec6bf4cc9ef289918
     Pseudo is Ultrasoft + core correction, Zval = 15.0
     Generated by new atomic code, or converted to UPF format
     Using radial grid of  969 points,  7 beta functions with:
                l(1) =   0
                l(2) =   0
                l(3) =   1
                l(4) =   1
                l(5) =   2
                l(6) =   2
                l(7) =   2
     Q(r) pseudized with  6 coefficients,  rinner =    1.050   1.050   1.050
                                                       1.050   1.050

     PseudoPot. # 3 for H  read from file:
     /home/camp/zhonxu/pseudo/h_pbe_v1.uspp.F.UPF
     MD5 check sum: 3408e3ff4ec8b0a4e358431e7e038a48
     Pseudo is Ultrasoft, Zval =  1.0
     Generated by new atomic code, or converted to UPF format
     Using radial grid of  615 points,  2 beta functions with:
                l(1) =   0
                l(2) =   0
     Q(r) pseudized with  8 coefficients,  rinner =    0.700

     atomic species   valence    mass     pseudopotential
        O0             6.00    15.99940     O ( 1.00)
        Rh1           15.00   102.90550     Rh( 1.00)
        H2             1.00     1.00794     H ( 1.00)

     Simplified LDA+U calculation (l_max = 2) with parameters (eV):
     atomic species    L          U    alpha       J0     beta
        Rh1            2     1.0000   0.0000   0.0000   0.0000

     No symmetry found

   Cartesian axes

     site n.     atom                  positions (alat units)
         1           O0  tau(   1) = (   0.0000000   0.0000000   1.6092425  )
         2           O0  tau(   2) = (   0.0000000   0.5172566   1.7020614  )
         3           Rh1 tau(   3) = (   0.2500000   0.5172566   1.9209336  )
         4           Rh1 tau(   4) = (   0.0000000   0.0000000   1.9260761  )
         5           O0  tau(   5) = (   0.2500000   0.8379556   1.9243336  )
         6           O0  tau(   6) = (   0.2500000   0.1965575   1.9234411  )
         7           O0  tau(   7) = (   0.0000000   0.5172566   2.1185137  )
         8           O0  tau(   8) = (   0.0000000   0.0000000   2.2473721  )
         9           Rh1 tau(   9) = (   0.2500000   0.0000000   2.4498821  )
        10           Rh1 tau(  10) = (   0.0000000   0.5172566   2.4276124  )
        11           O0  tau(  11) = (   0.2500000   0.7138141   2.4560020  )
        12           O0  tau(  12) = (   0.2500000   0.3206991   2.4560870  )
        13           O0  tau(  13) = (   0.0000000   0.0000000   2.6421072  )
        14           O0  tau(  14) = (   0.5000000   0.0000000   1.6092425  )
        15           O0  tau(  15) = (   0.5000000   0.5172566   1.7020614  )
        16           Rh1 tau(  16) = (   0.7500000   0.5172566   1.9209336  )
        17           Rh1 tau(  17) = (   0.5000000   0.0000000   1.9260761  )
        18           O0  tau(  18) = (   0.7500000   0.8379556   1.9243336  )
        19           O0  tau(  19) = (   0.7500000   0.1965575   1.9234411  )
        20           O0  tau(  20) = (   0.5000000   0.5172566   2.1185137  )
        21           O0  tau(  21) = (   0.5000000   0.0000000   2.2473721  )
        22           Rh1 tau(  22) = (   0.7500000   0.0000000   2.4498821  )
        23           Rh1 tau(  23) = (   0.5000000   0.5172566   2.4276124  )
        24           O0  tau(  24) = (   0.7500000   0.7138141   2.4560020  )
        25           O0  tau(  25) = (   0.7500000   0.3206991   2.4560870  )
        26           O0  tau(  26) = (   0.5000000   0.0000000   2.6421072  )
        27           H2  tau(  27) = (  -0.0000700   0.6610229   1.6318947  )
        28           H2  tau(  28) = (   0.4999300   0.6610125   1.6318947  )
        29           H2  tau(  29) = (   0.1484400   0.0336527   1.5632581  )
        30           H2  tau(  30) = (   0.6484400   0.0336527   1.5632581  )

     number of k points=    10  Methfessel-Paxton smearing, width (Ry)=  0.0100
                       cart. coord. in units 2pi/alat
        k(    1) = (   0.0000000   0.0000000   0.0000000), wk =   0.1250000
        k(    2) = (   0.0000000   0.2416596   0.0000000), wk =   0.2500000
        k(    3) = (   0.0000000  -0.4833191   0.0000000), wk =   0.1250000
        k(    4) = (   0.2500000   0.0000000   0.0000000), wk =   0.2500000
        k(    5) = (   0.2500000   0.2416596   0.0000000), wk =   0.2500000
        k(    6) = (   0.2500000  -0.4833191   0.0000000), wk =   0.2500000
        k(    7) = (  -0.5000000   0.0000000   0.0000000), wk =   0.1250000
        k(    8) = (  -0.5000000   0.2416596   0.0000000), wk =   0.2500000
        k(    9) = (  -0.5000000  -0.4833191   0.0000000), wk =   0.1250000
        k(   10) = (  -0.2500000   0.2416596   0.0000000), wk =   0.2500000

     Largest allocated arrays     est. size (Mb)     dimensions
     Largest temporary arrays     est. size (Mb)     dimensions

     Check: negative/imaginary core charge=   -0.000002    0.000000

     Initial potential from superposition of free atoms
     Check: negative starting charge=   -0.642992

     starting charge  227.99915, renormalised to  232.00000

     negative rho (up, down):  0.654E+00 0.000E+00
     Number of +U iterations with fixed ns =  0
     Starting occupations:
 --- enter write_ns ---
 LDA+U parameters:
U( 2)     =  1.00000000
alpha( 2) =  0.00000000
atom    3   Tr[ns(na)] =   7.00000
    eigenvalues:
  0.700  0.700  0.700  0.700  0.700
    eigenvectors:
  1.000  0.000  0.000  0.000  0.000
  0.000  1.000  0.000  0.000  0.000
  0.000  0.000  1.000  0.000  0.000
  0.000  0.000  0.000  1.000  0.000
  0.000  0.000  0.000  0.000  1.000
    occupations:
  0.700  0.000  0.000  0.000  0.000
  0.000  0.700  0.000  0.000  0.000
  0.000  0.000  0.700  0.000  0.000
  0.000  0.000  0.000  0.700  0.000
  0.000  0.000  0.000  0.000  0.700
atom    4   Tr[ns(na)] =   7.00000
    eigenvalues:
  0.700  0.700  0.700  0.700  0.700
    eigenvectors:
  1.000  0.000  0.000  0.000  0.000
  0.000  1.000  0.000  0.000  0.000
  0.000  0.000  1.000  0.000  0.000
  0.000  0.000  0.000  1.000  0.000
  0.000  0.000  0.000  0.000  1.000
    occupations:
  0.700  0.000  0.000  0.000  0.000
  0.000  0.700  0.000  0.000  0.000
  0.000  0.000  0.700  0.000  0.000
  0.000  0.000  0.000  0.700  0.000
  0.000  0.000  0.000  0.000  0.700
atom    9   Tr[ns(na)] =   7.00000
    eigenvalues:
  0.700  0.700  0.700  0.700  0.700
    eigenvectors:
  1.000  0.000  0.000  0.000  0.000
  0.000  1.000  0.000  0.000  0.000
  0.000  0.000  1.000  0.000  0.000
  0.000  0.000  0.000  1.000  0.000
  0.000  0.000  0.000  0.000  1.000
    occupations:
  0.700  0.000  0.000  0.000  0.000
  0.000  0.700  0.000  0.000  0.000
  0.000  0.000  0.700  0.000  0.000
  0.000  0.000  0.000  0.700  0.000
  0.000  0.000  0.000  0.000  0.700
atom   10   Tr[ns(na)] =   7.00000
    eigenvalues:
  0.700  0.700  0.700  0.700  0.700
    eigenvectors:
  1.000  0.000  0.000  0.000  0.000
  0.000  1.000  0.000  0.000  0.000
  0.000  0.000  1.000  0.000  0.000
  0.000  0.000  0.000  1.000  0.000
  0.000  0.000  0.000  0.000  1.000
    occupations:
  0.700  0.000  0.000  0.000  0.000
  0.000  0.700  0.000  0.000  0.000
  0.000  0.000  0.700  0.000  0.000
  0.000  0.000  0.000  0.700  0.000
  0.000  0.000  0.000  0.000  0.700
atom   16   Tr[ns(na)] =   7.00000
    eigenvalues:
  0.700  0.700  0.700  0.700  0.700
    eigenvectors:
  1.000  0.000  0.000  0.000  0.000
  0.000  1.000  0.000  0.000  0.000
  0.000  0.000  1.000  0.000  0.000
  0.000  0.000  0.000  1.000  0.000
  0.000  0.000  0.000  0.000  1.000
    occupations:
  0.700  0.000  0.000  0.000  0.000
  0.000  0.700  0.000  0.000  0.000
  0.000  0.000  0.700  0.000  0.000
  0.000  0.000  0.000  0.700  0.000
  0.000  0.000  0.000  0.000  0.700
atom   17   Tr[ns(na)] =   7.00000
    eigenvalues:
  0.700  0.700  0.700  0.700  0.700
    eigenvectors:
  1.000  0.000  0.000  0.000  0.000
  0.000  1.000  0.000  0.000  0.000
  0.000  0.000  1.000  0.000  0.000
  0.000  0.000  0.000  1.000  0.000
  0.000  0.000  0.000  0.000  1.000
    occupations:
  0.700  0.000  0.000  0.000  0.000
  0.000  0.700  0.000  0.000  0.000
  0.000  0.000  0.700  0.000  0.000
  0.000  0.000  0.000  0.700  0.000
  0.000  0.000  0.000  0.000  0.700
atom   22   Tr[ns(na)] =   7.00000
    eigenvalues:
  0.700  0.700  0.700  0.700  0.700
    eigenvectors:
  1.000  0.000  0.000  0.000  0.000
  0.000  1.000  0.000  0.000  0.000
  0.000  0.000  1.000  0.000  0.000
  0.000  0.000  0.000  1.000  0.000
  0.000  0.000  0.000  0.000  1.000
    occupations:
  0.700  0.000  0.000  0.000  0.000
  0.000  0.700  0.000  0.000  0.000
  0.000  0.000  0.700  0.000  0.000
[...]
 -0.001  0.010  0.857 -0.001  0.001
  0.027  0.001 -0.001  0.970  0.000
  0.001 -0.001  0.001  0.000  0.604
atom    9   Tr[ns(na)] =   7.96557
    eigenvalues:
  0.636  0.650  0.848  0.874  0.974
    eigenvectors:
  0.000  0.155  0.000  0.000  0.844
  0.999  0.001  0.000  0.000  0.000
  0.000  0.000  1.000  0.000  0.000
  0.001  0.844  0.000  0.000  0.156
  0.000  0.000  0.000  1.000  0.000
    occupations:
  0.924  0.001 -0.000 -0.117 -0.001
  0.001  0.636  0.000  0.000 -0.000
 -0.000  0.000  0.848 -0.000 -0.000
 -0.117  0.000 -0.000  0.701  0.001
 -0.001 -0.000 -0.000  0.001  0.874
atom   10   Tr[ns(na)] =   7.97753
    eigenvalues:
  0.597  0.612  0.902  0.909  0.969
    eigenvectors:
  0.000  0.995  0.000  0.000  0.005
  0.000  0.000  0.001  0.999  0.000
  0.000  0.000  0.999  0.001  0.000
  0.000  0.005  0.000  0.000  0.995
  1.000  0.000  0.000  0.000  0.000
    occupations:
  0.614  0.000  0.002  0.024 -0.000
  0.000  0.909 -0.000  0.000 -0.001
  0.002 -0.000  0.902  0.000  0.000
  0.024  0.000  0.000  0.967  0.000
 -0.000 -0.001  0.000  0.000  0.597
atom   16   Tr[ns(na)] =   7.99193
    eigenvalues:
  0.590  0.606  0.888  0.951  0.962
    eigenvectors:
  0.000  0.211  0.003  0.000  0.786
  1.000  0.000  0.000  0.000  0.000
  0.000  0.000  0.997  0.000  0.003
  0.000  0.788  0.000  0.000  0.211
  0.000  0.000  0.000  0.999  0.000
    occupations:
  0.886 -0.000  0.002 -0.145 -0.000
 -0.000  0.590 -0.000 -0.000 -0.007
  0.002 -0.000  0.888 -0.005  0.001
 -0.145 -0.000 -0.005  0.682 -0.000
 -0.000 -0.007  0.001 -0.000  0.950
atom   17   Tr[ns(na)] =   7.97109
    eigenvalues:
  0.604  0.651  0.855  0.904  0.972
    eigenvectors:
  0.000  0.992  0.000  0.000  0.007
  0.000  0.000  0.046  0.953  0.000
  0.000  0.000  0.954  0.046  0.000
  0.000  0.007  0.000  0.000  0.993
  1.000  0.000  0.000  0.000  0.000
    occupations:
  0.653 -0.004 -0.001  0.027  0.001
 -0.004  0.902  0.010  0.001 -0.001
 -0.001  0.010  0.858 -0.001  0.001
  0.027  0.001 -0.001  0.970  0.000
  0.001 -0.001  0.001  0.000  0.604
atom   22   Tr[ns(na)] =   7.96538
    eigenvalues:
  0.636  0.650  0.848  0.874  0.974
    eigenvectors:
  0.000  0.155  0.000  0.000  0.844
  0.999  0.001  0.000  0.000  0.000
  0.000  0.000  1.000  0.000  0.000
  0.001  0.844  0.000  0.000  0.156
  0.000  0.000  0.000  1.000  0.000
    occupations:
  0.924  0.001 -0.000 -0.117 -0.001
  0.001  0.636  0.000  0.000 -0.000
 -0.000  0.000  0.848 -0.000 -0.000
 -0.117  0.000 -0.000  0.701  0.001
 -0.001 -0.000 -0.000  0.001  0.874
atom   23   Tr[ns(na)] =   7.97724
    eigenvalues:
  0.597  0.612  0.902  0.909  0.969
    eigenvectors:
  0.000  0.995  0.000  0.000  0.005
  0.000  0.000  0.001  0.999  0.000
  0.000  0.000  0.999  0.001  0.000
  0.000  0.005  0.000  0.000  0.995
  1.000  0.000  0.000  0.000  0.000
    occupations:
  0.614  0.000  0.002  0.024 -0.000
  0.000  0.909 -0.000  0.000 -0.001
  0.002 -0.000  0.902  0.000  0.000
  0.024  0.000  0.000  0.967  0.000
 -0.000 -0.001  0.000  0.000  0.597
N of occupied +U levels =  63.8116896
 --- exit write_ns ---

     Threshold (ethr) on eigenvalues was too large:
     Diagonalizing with lowered threshold

     Davidson diagonalization with overlap
     ethr =  7.99E-09,  avg # of iterations =  2.0

[...]

     total energy              =   -1947.84049291 Ry
     Harris-Foulkes estimate   =   -1947.84049291 Ry
     estimated scf accuracy    <       0.00000003 Ry

     iteration # 18     ecut=    40.00 Ry     beta=0.70
     Davidson diagonalization with overlap
     ethr =  6.67E-12,  avg # of iterations =  1.0

     negative rho (up, down):  0.689E+00 0.000E+00

     End of self-consistent calculation
 --- enter write_ns ---
 LDA+U parameters:
U( 2)     =  1.00000000
alpha( 2) =  0.00000000
atom    3   Tr[ns(na)] =   7.99285
    eigenvalues:
  0.590  0.606  0.888  0.951  0.962
    eigenvectors:
  0.000  0.212  0.003  0.000  0.786
  1.000  0.000  0.000  0.000  0.000
  0.000  0.000  0.997  0.000  0.003
  0.000  0.788  0.000  0.000  0.211
  0.000  0.000  0.000  0.999  0.000
    occupations:
  0.886 -0.000  0.002 -0.145 -0.000
 -0.000  0.590 -0.000 -0.000 -0.007
  0.002 -0.000  0.888 -0.005  0.001
 -0.145 -0.000 -0.005  0.682 -0.000
 -0.000 -0.007  0.001 -0.000  0.950
atom    4   Tr[ns(na)] =   7.97132
    eigenvalues:
  0.604  0.651  0.855  0.904  0.972
    eigenvectors:
  0.000  0.992  0.000  0.000  0.007
  0.000  0.000  0.046  0.953  0.000
  0.000  0.000  0.954  0.046  0.000
  0.000  0.007  0.000  0.000  0.993
  1.000  0.000  0.000  0.000  0.000
    occupations:
  0.653 -0.004 -0.001  0.027  0.001
 -0.004  0.902  0.010  0.001 -0.001
 -0.001  0.010  0.858 -0.001  0.001
  0.027  0.001 -0.001  0.970  0.000
  0.001 -0.001  0.001  0.000  0.604
atom    9   Tr[ns(na)] =   7.96523
    eigenvalues:
  0.636  0.650  0.848  0.874  0.974
    eigenvectors:
  0.000  0.155  0.000  0.000  0.844
  0.999  0.001  0.000  0.000  0.000
  0.000  0.000  1.000  0.000  0.000
  0.001  0.844  0.000  0.000  0.156
  0.000  0.000  0.000  1.000  0.000
    occupations:
  0.924  0.001 -0.000 -0.117 -0.001
  0.001  0.636  0.000  0.000 -0.000
 -0.000  0.000  0.848 -0.000 -0.000
 -0.117  0.000 -0.000  0.701  0.001
 -0.001 -0.000 -0.000  0.001  0.874
atom   10   Tr[ns(na)] =   7.97703
    eigenvalues:
  0.597  0.612  0.902  0.909  0.969
    eigenvectors:
  0.000  0.995  0.000  0.000  0.005
  0.000  0.000  0.001  0.999  0.000
  0.000  0.000  0.999  0.001  0.000
  0.000  0.005  0.000  0.000  0.995
  1.000  0.000  0.000  0.000  0.000
    occupations:
  0.614  0.000  0.002  0.024 -0.000
  0.000  0.909 -0.000  0.000 -0.001
  0.002 -0.000  0.902  0.000  0.000
  0.024  0.000  0.000  0.967  0.000
 -0.000 -0.001  0.000  0.000  0.597
atom   16   Tr[ns(na)] =   7.99286
    eigenvalues:
  0.590  0.606  0.888  0.951  0.962
    eigenvectors:
  0.000  0.212  0.003  0.000  0.786
  1.000  0.000  0.000  0.000  0.000
  0.000  0.000  0.997  0.000  0.003
  0.000  0.788  0.000  0.000  0.211
  0.000  0.000  0.000  0.999  0.000
    occupations:
  0.886 -0.000  0.002 -0.145 -0.000
 -0.000  0.590 -0.000 -0.000 -0.007
  0.002 -0.000  0.888 -0.005  0.001
 -0.145 -0.000 -0.005  0.682 -0.000
 -0.000 -0.007  0.001 -0.000  0.950
atom   17   Tr[ns(na)] =   7.97133
    eigenvalues:
  0.604  0.651  0.855  0.904  0.972
    eigenvectors:
  0.000  0.992  0.000  0.000  0.007
  0.000  0.000  0.046  0.953  0.000
  0.000  0.000  0.954  0.046  0.000
  0.000  0.007  0.000  0.000  0.993
  1.000  0.000  0.000  0.000  0.000
    occupations:
  0.653 -0.004 -0.001  0.027  0.001
 -0.004  0.902  0.010  0.001 -0.001
 -0.001  0.010  0.858 -0.001  0.001
  0.027  0.001 -0.001  0.970  0.000
  0.001 -0.001  0.001  0.000  0.604
atom   22   Tr[ns(na)] =   7.96524
    eigenvalues:
  0.636  0.650  0.848  0.874  0.974
    eigenvectors:
  0.000  0.155  0.000  0.000  0.844
  0.999  0.001  0.000  0.000  0.000
  0.000  0.000  1.000  0.000  0.000
  0.001  0.844  0.000  0.000  0.156
  0.000  0.000  0.000  1.000  0.000
    occupations:
  0.924  0.001 -0.000 -0.117 -0.001
  0.001  0.636  0.000  0.000 -0.000
 -0.000  0.000  0.848 -0.000 -0.000
 -0.117  0.000 -0.000  0.701  0.001
 -0.001 -0.000 -0.000  0.001  0.874
atom   23   Tr[ns(na)] =   7.97704
    eigenvalues:
  0.597  0.612  0.902  0.909  0.969
    eigenvectors:
  0.000  0.995  0.000  0.000  0.005
  0.000  0.000  0.001  0.999  0.000
  0.000  0.000  0.999  0.001  0.000
  0.000  0.005  0.000  0.000  0.995
  1.000  0.000  0.000  0.000  0.000
    occupations:
  0.614  0.000  0.002  0.024 -0.000
  0.000  0.909 -0.000  0.000 -0.001
  0.002 -0.000  0.902  0.000  0.000
  0.024  0.000  0.000  0.967  0.000
 -0.000 -0.001  0.000  0.000  0.597
N of occupied +U levels =  63.8129104
 --- exit write_ns ---

[...]

          k = 0.2500-0.4833 0.0000 ( 30510 PWs)   bands (ev):

[...]

          k =-0.2500 0.2417 0.0000 ( 30481 PWs)   bands (ev):

   -49.3024 -49.2685 -49.2587 -49.2504 -49.2453 -49.2204 -49.1331 -49.1242
   -49.1190 -49.0786 -49.0742 -49.0685 -49.0388 -48.9966 -48.9750 -48.9699
   -48.9464 -48.9063 -48.8953 -48.8700 -48.8242 -48.8115 -48.8100 -48.7975
   -21.4434 -21.1593 -20.9312 -20.8136 -20.5869 -20.4861 -20.3694 -20.3524
   -20.1873 -20.1777 -20.0724 -20.0109 -19.9660 -19.8902 -19.8004 -19.7322
   -18.9303 -18.8283  -9.6070  -9.3980  -9.3343  -9.1567  -8.7551  -8.6583
    -8.6227  -8.6169  -8.5677  -8.4410  -8.3982  -8.3628  -8.3261  -8.1325
    -8.0243  -7.9587  -7.8057  -7.7451  -7.4212  -7.3993  -7.2313  -7.2229
    -7.0476  -6.7200  -6.6937  -6.5402  -6.4882  -6.2869  -6.2798  -6.1519
    -6.1406  -6.0732  -5.9759  -5.9614  -5.7966  -5.7606  -5.6798  -5.6571
    -5.3996  -5.2974  -5.2552  -5.0562  -5.0125  -4.8176  -4.7831  -4.7442
    -4.5923  -4.4922  -4.3731  -4.1722  -4.0207  -3.8521  -3.7130  -3.6309
    -3.5809  -3.4496  -3.4217  -3.2850  -3.2671  -3.1880  -3.1817  -3.0847
    -3.0513  -2.9464  -2.8590  -2.7919  -2.6850  -2.6502  -2.4550  -2.2750
    -1.9617  -1.9243  -1.8828  -1.8110  -1.7690  -1.5747  -1.4026  -1.3526
    -1.0333  -0.7716  -0.3902  -0.1985   0.3389   0.4533   0.4724   0.7983
     1.0087   1.2821   1.4326   1.5131   1.6934   1.7437   1.8487   2.0648
     3.6144   3.9771   4.5148   4.9113   5.2793   5.4302   5.5089   5.7709
     5.9680   6.2127   6.3382   6.4088   6.4177   6.6708   6.8185   6.9701
     7.1949   7.3605   7.4202   7.6203   7.6895   7.8248   8.0096   8.0179
     8.0671   8.2526   8.3789   8.3975   8.6302   8.7655   8.7859   8.8581
     8.8942   9.1787   9.3402   9.3957   9.5264   9.6413   9.6608   9.7015
     9.8315   9.9020  10.1220  10.1630  10.2461  10.2759  10.3398  10.4933
    10.5860  10.6319  10.7654  10.8105  10.8635  10.9717  11.0038  11.1503
    11.3058  11.3087  11.3984  11.4592  11.5059  11.5878  11.6719  11.6914
    11.8142  11.9983  12.0733  12.0964  12.1526  12.1988  12.2164  12.3467
    12.4263  12.5081  12.5812  12.6032  12.7001  12.7772  12.8682  12.9854
    13.0170  13.0864  13.1831  13.2232  13.2747  13.3552  13.4220  13.5316
    13.6091  13.7009  13.7846  13.7987  13.8441  14.0405  14.0447  14.0869
    14.1564  14.2627  14.3505  14.4536  14.5394  14.5745  14.6398  14.6992
    14.7730  15.0407  15.2134  15.2772  15.3478  15.4149  15.4601  15.4809
    15.5183  15.6093  15.6857  15.7054  15.7885  15.8031  15.9637  15.9831
    16.0556  16.0605  16.1821  16.2413  16.3039  16.3598  16.3796  16.4752
    16.5233  16.5698  16.5939  16.6094  16.7150  16.8025  16.9732  16.9852
    17.1314  17.2105  17.2256  17.3161  17.3317  17.4291  17.4847  17.5367
    17.5668  17.6234  17.7453  17.7705  17.8733  17.8784  18.0635  18.0686
    18.0907  18.1491  18.2432  18.3524  18.4132  18.4780  18.5015  18.6590
    18.6936  18.8407  18.8758  18.9197  18.9808  19.0316  19.0519  19.1248
    19.2035  19.2097  19.2989  19.4311  19.4456  19.5579  19.6498  19.7205
    19.7399  19.8930  19.8961  20.0329  20.1349  20.2023  20.2898  20.3254
    20.4585  20.5242  20.6000  20.6423  20.6668  20.7230  20.8241  20.8871
    20.9368  21.0141  21.1001  21.1239  21.1693  21.2606  21.3135  21.3266
    21.3882  21.4356  21.5536  21.6401  21.6684  21.7184  21.7928  21.8316
    21.8491  21.9139  22.0091  22.0772

     the Fermi energy is    -1.7809 ev

!    total energy              =   -1947.84049290 Ry
     Harris-Foulkes estimate   =   -1947.84049291 Ry
     estimated scf accuracy    <          4.6E-09 Ry

     The total energy is the sum of the following terms:

     one-electron contribution =  -22583.72345133 Ry
     hartree contribution      =   11337.38617964 Ry
     xc contribution           =    -365.04369020 Ry
     ewald contribution        =    9663.13420709 Ry
     Hubbard energy            =       0.40736794 Ry
     smearing contrib. (-TS)   =      -0.00110604 Ry

     convergence has been achieved in  18 iterations

     Forces acting on atoms (Ry/au):

     negative rho (up, down):  0.689E+00 0.000E+00
     atom    1 type  1   force =    -0.00703265   -0.01376252   -0.00014358
     atom    2 type  1   force =     0.00012841    0.00625099    0.00076463
     atom    3 type  2   force =    -0.00019214    0.00389472   -0.00024378
     atom    4 type  2   force =     0.00842063    0.00891374   -0.00018318
     atom    5 type  1   force =    -0.00100544   -0.03043863    0.00033844
     atom    6 type  1   force =     0.00208166    0.02739992    0.00036753
     atom    7 type  1   force =    -0.00025215   -0.00031650   -0.00040391
     atom    8 type  1   force =    -0.00284445   -0.00062805   -0.00027891
     atom    9 type  2   force =     0.00125324   -0.00021190   -0.00049368
     atom   10 type  2   force =     0.00003076   -0.00200365   -0.00079584
     atom   11 type  1   force =    -0.00014078    0.00426534    0.00031099
     atom   12 type  1   force =     0.00028739   -0.00353364    0.00033819
     atom   13 type  1   force =    -0.00077980   -0.00004967   -0.00046399
     atom   14 type  1   force =    -0.00703537   -0.01376301   -0.00016058
     atom   15 type  1   force =     0.00012763    0.00624521    0.00076907
     atom   16 type  2   force =    -0.00019255    0.00389534   -0.00024457
     atom   17 type  2   force =     0.00842049    0.00891333   -0.00018576
     atom   18 type  1   force =    -0.00099940   -0.03043780    0.00033288
     atom   19 type  1   force =     0.00208797    0.02739888    0.00036304
     atom   20 type  1   force =    -0.00025829   -0.00031651   -0.00041803
     atom   21 type  1   force =    -0.00285144   -0.00062794   -0.00027168
     atom   22 type  2   force =     0.00126436   -0.00021225   -0.00049727
     atom   23 type  2   force =     0.00002710   -0.00200368   -0.00078571
     atom   24 type  1   force =    -0.00013699    0.00426689    0.00031491
     atom   25 type  1   force =     0.00029118   -0.00353520    0.00034186
     atom   26 type  1   force =    -0.00078127   -0.00004968   -0.00043603
     atom   27 type  3   force =    -0.00001119   -0.00015874    0.00077012
     atom   28 type  3   force =    -0.00001124   -0.00015437    0.00076920
     atom   29 type  3   force =     0.00005147    0.00037946    0.00011252
     atom   30 type  3   force =     0.00005288    0.00037991    0.00011310

     Total force =     0.002553     Total SCF correction =     0.000226

     bfgs converged in   6 scf cycles and   5 bfgs steps
     (criteria: energy < 0.10E-03, force < 0.10E-02)

     End of BFGS Geometry Optimization

     Final energy   =   -1947.8404929013 Ry
Begin final coordinates

ATOMIC_POSITIONS (crystal)
O0       0.000000000   0.000000000   0.378688435    0   0   1
O0       0.000000000   0.500000000   0.400764977    0   0   1
Rh1      0.250000000   0.500000000   0.452201224    0   0   1
Rh1      0.000000000   0.000000000   0.453164962    0   0   1
O0       0.250000000   0.810000000   0.452713013    0   0   1
O0       0.250000000   0.190000000   0.452554641    0   0   1
O0       0.000000000   0.500000000   0.498837229    0   0   1
O0       0.000000000   0.000000000   0.528759991    0   0   1
Rh1      0.250000000   0.000000000   0.576294554    0   0   1
Rh1      0.000000000   0.500000000   0.571332864    0   0   1
O0       0.250000000   0.690000000   0.577457186    0   0   1
O0       0.250000000   0.310000000   0.577472832    0   0   1
O0       0.000000000   0.000000000   0.621625688    0   0   1
O0       0.500000000   0.000000000   0.378689819    0   0   1
O0       0.500000000   0.500000000   0.400764746    0   0   1
Rh1      0.750000000   0.500000000   0.452201402    0   0   1
Rh1      0.500000000   0.000000000   0.453165594    0   0   1
O0       0.750000000   0.810000000   0.452713998    0   0   1
O0       0.750000000   0.190000000   0.452555444    0   0   1
O0       0.500000000   0.500000000   0.498837613    0   0   1
O0       0.500000000   0.000000000   0.528759635    0   0   1
Rh1      0.750000000   0.000000000   0.576294595    0   0   1
Rh1      0.500000000   0.500000000   0.571332722    0   0   1
O0       0.750000000   0.690000000   0.577456388    0   0   1
O0       0.750000000   0.310000000   0.577472091    0   0   1
O0       0.500000000   0.000000000   0.621623951    0   0   1
H2      -0.000112876   0.638646872   0.384134251
H2       0.499887054   0.638645854   0.384133779
H2       0.148425353   0.032989751   0.367927901
H2       0.648424317   0.032989108   0.367928477
End final coordinates

     General routines

     Parallel routines
     Hubbard U routines

   This run was terminated on:   7:52:27   9May2014

   JOB DONE.
Running PBS batch system epilogue script
Job id: 340827.audhumbla.fysik.dtu.dk
Username: zhonxu
Groupname: campgst
Jobname: RhO2/Eads-2-layers/bare-U-1.0
Sessionid: 16490
Queuename: verylong
Accounting:
This job has allocated the following 16 nodes:
c067 c067 c067 c067 c067 c067 c067 c067 c042 c042 c042 c042 c042 c042 c042 c042
Finished epilogue job 340827.audhumbla.fysik.dtu.dk for zhonxu