     Program PWSCF v.5.0.2 (svn rev. 9656) starts on 28Apr2014 at  5:18:21

     Current dimensions of program PWSCF are:
     Max number of different atomic species (ntypx) = 10
     Max number of k-points (npk) =  40000
     Max angular momentum in pseudopotentials (lmaxx) =  3
     Reading input from pwscf.in
Warning: card &CELL ignored
Warning: card / ignored

     Subspace diagonalization in iterative solution of the eigenvalue problem:
     a serial algorithm will be used

     bravais-lattice index     =            0
     lattice parameter (alat)  =      12.2076  a.u.
     unit-cell volume          =    7496.5096 (a.u.)^3
     number of atoms/cell      =           32
     number of atomic types    =            3
     number of electrons       =       247.00
     number of Kohn-Sham states=          370
     kinetic-energy cutoff     =      40.0000  Ry
     charge density cutoff     =     500.0000  Ry
     convergence threshold     =      1.0E-06
     mixing beta               =       0.7000
     number of iterations used =            8  plain     mixing
     Exchange-correlation      = SLA  PW   PBE  PBE ( 1 4 3 4 0)
     EXX-fraction              =        0.00
     nstep                     =           50

     celldm(1)=  12.207631  celldm(2)=   0.000000  celldm(3)=   0.000000
     celldm(4)=   0.000000  celldm(5)=   0.000000  celldm(6)=   0.000000

     crystal axes: (cart. coord. in units of alat)
               a(1) = (   1.000000   0.000000   0.000000 )
               a(2) = (   0.000000   1.004836   0.000000 )
               a(3) = (   0.000000   0.000000   4.100811 )

     reciprocal axes: (cart. coord. in units 2 pi/alat)
               b(1) = (  1.000000  0.000000  0.000000 )
               b(2) = (  0.000000  0.995187  0.000000 )
               b(3) = (  0.000000  0.000000  0.243854 )

     PseudoPot. # 1 for O  read from file:
     /home/camp/zhonxu/pseudo/o_pbe_v1.01.uspp.F.UPF
     MD5 check sum: 2bcb18d16ea4b960afae9ec6d52f22d2
     Pseudo is Ultrasoft + core correction, Zval =  6.0
     Generated by new atomic code, or converted to UPF format
     Using radial grid of  737 points,  5 beta functions with:
                l(1) =   0
                l(2) =   0
                l(3) =   1
                l(4) =   1
                l(5) =   2
     Q(r) pseudized with  8 coefficients,  rinner =    0.900   0.900   0.900
                                                       0.900   0.900

     PseudoPot. # 2 for Pt read from file:
     /home/camp/zhonxu/pseudo/pt_pbe_v1.uspp.F.UPF
     MD5 check sum: 4c71d6ad5ef119f1eb26a4d0b7884226
     Pseudo is Ultrasoft + core correction, Zval = 16.0
     Generated by new atomic code, or converted to UPF format
     Using radial grid of  985 points,  6 beta functions with:
                l(1) =   0
                l(2) =   0
                l(3) =   1
                l(4) =   1
                l(5) =   2
                l(6) =   2
     Q(r) pseudized with  8 coefficients,  rinner =    1.300   1.300   1.300
                                                       1.300   1.300

     PseudoPot. # 3 for H  read from file:
     /home/camp/zhonxu/pseudo/h_pbe_v1.uspp.F.UPF
     MD5 check sum: 3408e3ff4ec8b0a4e358431e7e038a48
     Pseudo is Ultrasoft, Zval =  1.0
     Generated by new atomic code, or converted to UPF format
     Using radial grid of  615 points,  2 beta functions with:
                l(1) =   0
                l(2) =   0
     Q(r) pseudized with  8 coefficients,  rinner =    0.700

     atomic species   valence    mass     pseudopotential
        O0             6.00    15.99940     O ( 1.00)
        Pt1           16.00   195.08000     Pt( 1.00)
        H2             1.00     1.00794     H ( 1.00)

     Simplified LDA+U calculation (l_max = 2) with parameters (eV):
     atomic species    L          U    alpha       J0     beta
        Pt1            2     5.5000   0.0000   0.0000   0.0000

     No symmetry found

   Cartesian axes

     site n.     atom                  positions (alat units)
         1           O0  tau(   1) = (   0.0000000   0.0000000   1.5486303  )
         2           O0  tau(   2) = (   0.0000000   0.5024180   1.6456145  )
         3           Pt1 tau(   3) = (   0.2500000   0.5024180   1.8492198  )
         4           Pt1 tau(   4) = (   0.0000000   0.0000000   1.8561502  )
         5           O0  tau(   5) = (   0.2500000   0.8139171   1.8185047  )
         6           O0  tau(   6) = (   0.2500000   0.1909188   1.8850199  )
         7           O0  tau(   7) = (   0.0000000   0.5024180   2.0364218  )
         8           O0  tau(   8) = (   0.0000000   0.0000000   2.1712565  )
         9           Pt1 tau(   9) = (   0.2500000   0.0000000   2.3611651  )
        10           Pt1 tau(  10) = (   0.0000000   0.5024180   2.3568182  )
        11           O0  tau(  11) = (   0.2500000   0.6933368   2.3352889  )
        12           O0  tau(  12) = (   0.2500000   0.3114991   2.3978263  )
        13           O0  tau(  13) = (   0.0000000   0.0000000   2.5469728  )
        14           O0  tau(  14) = (   0.5000000   0.0000000   1.5487944  )
        15           O0  tau(  15) = (   0.5000000   0.5024180   1.6432360  )
        16           Pt1 tau(  16) = (   0.7500000   0.5024180   1.8492608  )
        17           Pt1 tau(  17) = (   0.5000000   0.0000000   1.8561092  )
        18           O0  tau(  18) = (   0.7500000   0.8139171   1.8183407  )
        19           O0  tau(  19) = (   0.7500000   0.1909188   1.8850199  )
        20           O0  tau(  20) = (   0.5000000   0.5024180   2.0398255  )
        21           O0  tau(  21) = (   0.5000000   0.0000000   2.1711335  )
        22           Pt1 tau(  22) = (   0.7500000   0.0000000   2.3611651  )
        23           Pt1 tau(  23) = (   0.5000000   0.5024180   2.3633795  )
        24           O0  tau(  24) = (   0.7500000   0.6933368   2.3343868  )
        25           O0  tau(  25) = (   0.7500000   0.3114991   2.3965141  )
        26           O0  tau(  26) = (   0.5000000   0.0000000   2.5473419  )
        27           H2  tau(  27) = (   0.0000800   0.6431151   1.5815188  )
        28           H2  tau(  28) = (   0.4999900   0.6432457   1.5795915  )
        29           H2  tau(  29) = (   0.1433600   0.0342348   1.5075812  )
        30           H2  tau(  30) = (   0.6432100   0.0348377   1.5077042  )
        31           O0  tau(  31) = (   0.5002800   0.5276996   2.6647891  )
        32           H2  tau(  32) = (   0.4897800   0.3840985   2.7162543  )

     number of k points=    10  Methfessel-Paxton smearing, width (Ry)=  0.0100
                       cart. coord. in units 2pi/alat
        k(    1) = (   0.0000000   0.0000000   0.0000000), wk =   0.1250000
        k(    2) = (   0.0000000   0.2487968   0.0000000), wk =   0.2500000
        k(    3) = (   0.0000000  -0.4975937   0.0000000), wk =   0.1250000
        k(    4) = (   0.2500000   0.0000000   0.0000000), wk =   0.2500000
        k(    5) = (   0.2500000   0.2487968   0.0000000), wk =   0.2500000
        k(    6) = (   0.2500000  -0.4975937   0.0000000), wk =   0.2500000
        k(    7) = (  -0.5000000   0.0000000   0.0000000), wk =   0.1250000
        k(    8) = (  -0.5000000   0.2487968   0.0000000), wk =   0.2500000
        k(    9) = (  -0.5000000  -0.4975937   0.0000000), wk =   0.1250000
        k(   10) = (  -0.2500000   0.2487968   0.0000000), wk =   0.2500000

     Largest allocated arrays     est. size (Mb)     dimensions
     Largest temporary arrays     est. size (Mb)     dimensions

     Check: negative/imaginary core charge=   -0.000003    0.000000

     Initial potential from superposition of free atoms
     Check: negative starting charge=   -1.535574

     starting charge  242.99984, renormalised to  247.00000

     negative rho (up, down):  0.156E+01 0.000E+00
     Number of +U iterations with fixed ns =  0
     Starting occupations:
 --- enter write_ns ---
 LDA+U parameters:
U( 2)     =  5.50000000
alpha( 2) =  0.00000000
atom    3   Tr[ns(na)] =   8.00000
    eigenvalues:
  0.800  0.800  0.800  0.800  0.800
    eigenvectors:
  1.000  0.000  0.000  0.000  0.000
  0.000  1.000  0.000  0.000  0.000
  0.000  0.000  1.000  0.000  0.000
  0.000  0.000  0.000  1.000  0.000
  0.000  0.000  0.000  0.000  1.000
    occupations:
  0.800  0.000  0.000  0.000  0.000
  0.000  0.800  0.000  0.000  0.000
  0.000  0.000  0.800  0.000  0.000
  0.000  0.000  0.000  0.800  0.000
  0.000  0.000  0.000  0.000  0.800
atom    4   Tr[ns(na)] =   8.00000
    eigenvalues:
  0.800  0.800  0.800  0.800  0.800
    eigenvectors:
  1.000  0.000  0.000  0.000  0.000
  0.000  1.000  0.000  0.000  0.000
  0.000  0.000  1.000  0.000  0.000
  0.000  0.000  0.000  1.000  0.000
  0.000  0.000  0.000  0.000  1.000
    occupations:
  0.800  0.000  0.000  0.000  0.000
  0.000  0.800  0.000  0.000  0.000
  0.000  0.000  0.800  0.000  0.000
  0.000  0.000  0.000  0.800  0.000
  0.000  0.000  0.000  0.000  0.800
atom    9   Tr[ns(na)] =   8.00000
    eigenvalues:
  0.800  0.800  0.800  0.800  0.800
    eigenvectors:
  1.000  0.000  0.000  0.000  0.000
  0.000  1.000  0.000  0.000  0.000
  0.000  0.000  1.000  0.000  0.000
  0.000  0.000  0.000  1.000  0.000
  0.000  0.000  0.000  0.000  1.000
    occupations:
  0.800  0.000  0.000  0.000  0.000
  0.000  0.800  0.000  0.000  0.000
  0.000  0.000  0.800  0.000  0.000
  0.000  0.000  0.000  0.800  0.000
  0.000  0.000  0.000  0.000  0.800
atom   10   Tr[ns(na)] =   8.00000
    eigenvalues:
  0.800  0.800  0.800  0.800  0.800
    eigenvectors:
  1.000  0.000  0.000  0.000  0.000
  0.000  1.000  0.000  0.000  0.000
  0.000  0.000  1.000  0.000  0.000
  0.000  0.000  0.000  1.000  0.000
  0.000  0.000  0.000  0.000  1.000
    occupations:
  0.800  0.000  0.000  0.000  0.000
  0.000  0.800  0.000  0.000  0.000
  0.000  0.000  0.800  0.000  0.000
  0.000  0.000  0.000  0.800  0.000
  0.000  0.000  0.000  0.000  0.800
atom   16   Tr[ns(na)] =   8.00000
    eigenvalues:
  0.800  0.800  0.800  0.800  0.800
    eigenvectors:
  1.000  0.000  0.000  0.000  0.000
  0.000  1.000  0.000  0.000  0.000
  0.000  0.000  1.000  0.000  0.000
  0.000  0.000  0.000  1.000  0.000
  0.000  0.000  0.000  0.000  1.000
    occupations:
  0.800  0.000  0.000  0.000  0.000
  0.000  0.800  0.000  0.000  0.000
  0.000  0.000  0.800  0.000  0.000
  0.000  0.000  0.000  0.800  0.000
  0.000  0.000  0.000  0.000  0.800
atom   17   Tr[ns(na)] =   8.00000
    eigenvalues:
  0.800  0.800  0.800  0.800  0.800
    eigenvectors:
  1.000  0.000  0.000  0.000  0.000
  0.000  1.000  0.000  0.000  0.000
  0.000  0.000  1.000  0.000  0.000
  0.000  0.000  0.000  1.000  0.000
  0.000  0.000  0.000  0.000  1.000
    occupations:
  0.800  0.000  0.000  0.000  0.000
  0.000  0.800  0.000  0.000  0.000
  0.000  0.000  0.800  0.000  0.000
  0.000  0.000  0.000  0.800  0.000
  0.000  0.000  0.000  0.000  0.800
atom   22   Tr[ns(na)] =   8.00000
    eigenvalues:
  0.800  0.800  0.800  0.800  0.800
    eigenvectors:
  1.000  0.000  0.000  0.000  0.000
  0.000  1.000  0.000  0.000  0.000
  0.000  0.000  1.000  0.000  0.000
  0.000  0.000  0.000  1.000  0.000
  0.000  0.000  0.000  0.000  1.000
[...]
  0.000  0.720 -0.000  0.000 -0.003
 -0.008 -0.000  0.969 -0.023  0.001
 -0.088  0.000 -0.023  0.768  0.001
  0.000 -0.003  0.001  0.001  0.962
atom   10   Tr[ns(na)] =   8.79863
    eigenvalues:
  0.675  0.761  0.986  0.987  0.990
    eigenvectors:
  0.000  0.981  0.000  0.012  0.007
  0.012  0.000  0.986  0.003  0.000
  0.000  0.000  0.001  0.245  0.753
  0.000  0.019  0.002  0.740  0.239
  0.988  0.000  0.012  0.000  0.000
    occupations:
  0.765 -0.001 -0.005  0.031 -0.000
 -0.001  0.982 -0.000  0.000 -0.033
 -0.005 -0.000  0.989 -0.001  0.000
  0.031  0.000 -0.001  0.983  0.000
 -0.000 -0.033  0.000  0.000  0.679
atom   16   Tr[ns(na)] =   8.76017
    eigenvalues:
  0.699  0.713  0.987  0.989  0.992
    eigenvectors:
  0.006  0.163  0.827  0.000  0.004
  0.964  0.036  0.000  0.000  0.000
  0.000  0.005  0.011  0.001  0.984
  0.030  0.795  0.163  0.000  0.012
  0.000  0.000  0.000  0.999  0.001
    occupations:
  0.941 -0.001  0.008 -0.103 -0.000
 -0.001  0.699 -0.001 -0.003 -0.002
  0.008 -0.001  0.990  0.018 -0.000
 -0.103 -0.003  0.018  0.761 -0.000
 -0.000 -0.002 -0.000 -0.000  0.989
atom   17   Tr[ns(na)] =   8.75515
    eigenvalues:
  0.697  0.720  0.985  0.987  0.988
    eigenvectors:
  0.000  0.985  0.008  0.003  0.003
  0.012  0.000  0.064  0.869  0.055
  0.000  0.005  0.833  0.024  0.138
  0.000  0.009  0.093  0.094  0.803
  0.988  0.000  0.001  0.010  0.001
    occupations:
  0.724 -0.004 -0.019  0.026 -0.001
 -0.004  0.984  0.000  0.000  0.031
 -0.019  0.000  0.984  0.003  0.000
  0.026  0.000  0.003  0.985  0.000
 -0.001  0.031  0.000  0.000  0.701
atom   22   Tr[ns(na)] =   8.74435
    eigenvalues:
  0.720  0.731  0.962  0.971  0.988
    eigenvectors:
  0.001  0.135  0.000  0.013  0.852
  0.996  0.004  0.000  0.000  0.000
  0.000  0.010  0.009  0.974  0.007
  0.003  0.851  0.000  0.004  0.141
  0.000  0.000  0.991  0.009  0.000
    occupations:
  0.953  0.001 -0.007 -0.088 -0.000
  0.001  0.721  0.000  0.000 -0.003
 -0.007  0.000  0.968 -0.023 -0.001
 -0.088  0.000 -0.023  0.768 -0.001
 -0.000 -0.003 -0.001 -0.001  0.962
atom   23   Tr[ns(na)] =   8.74354
    eigenvalues:
  0.696  0.724  0.976  0.987  0.989
    eigenvectors:
  0.000  0.973  0.000  0.000  0.027
  0.017  0.000  0.981  0.001  0.001
  0.000  0.019  0.002  0.383  0.596
  0.000  0.009  0.000  0.615  0.376
  0.983  0.000  0.017  0.000  0.000
    occupations:
  0.731 -0.001  0.036  0.024  0.000
 -0.001  0.972  0.001 -0.000 -0.036
  0.036  0.001  0.983 -0.002  0.000
  0.024 -0.000 -0.002  0.985 -0.000
  0.000 -0.036  0.000 -0.000  0.701
N of occupied +U levels =  70.0636408
 --- exit write_ns ---

     Threshold (ethr) on eigenvalues was too large:
     Diagonalizing with lowered threshold

     Davidson diagonalization with overlap
     ethr =  9.73E-09,  avg # of iterations =  2.0

[...]

     total energy              =   -2280.65651384 Ry
     Harris-Foulkes estimate   =   -2280.65651384 Ry
     estimated scf accuracy    <       0.00000001 Ry

     iteration # 12     ecut=    40.00 Ry     beta=0.70
     Davidson diagonalization with overlap
     ethr =  5.44E-12,  avg # of iterations =  1.0

     negative rho (up, down):  0.158E+01 0.000E+00

     End of self-consistent calculation
 --- enter write_ns ---
 LDA+U parameters:
U( 2)     =  5.50000000
alpha( 2) =  0.00000000
atom    3   Tr[ns(na)] =   8.75985
    eigenvalues:
  0.699  0.714  0.987  0.989  0.992
    eigenvectors:
  0.006  0.163  0.823  0.003  0.005
  0.963  0.037  0.000  0.000  0.000
  0.000  0.005  0.013  0.000  0.982
  0.031  0.795  0.161  0.001  0.012
  0.000  0.000  0.004  0.996  0.000
    occupations:
  0.941  0.001  0.008 -0.103  0.000
  0.001  0.699  0.001  0.003 -0.002
  0.008  0.001  0.990  0.018  0.000
 -0.103  0.003  0.018  0.761  0.001
  0.000 -0.002  0.000  0.001  0.989
atom    4   Tr[ns(na)] =   8.75761
    eigenvalues:
  0.698  0.720  0.985  0.987  0.988
    eigenvectors:
  0.000  0.985  0.009  0.004  0.002
  0.012  0.000  0.069  0.839  0.081
  0.000  0.005  0.796  0.015  0.184
  0.000  0.009  0.125  0.133  0.732
  0.988  0.000  0.001  0.010  0.001
    occupations:
  0.724 -0.004 -0.019  0.026 -0.001
 -0.004  0.984  0.000  0.000  0.031
 -0.019  0.000  0.984  0.003  0.000
  0.026  0.000  0.003  0.985  0.000
 -0.001  0.031  0.000  0.000  0.701
atom    9   Tr[ns(na)] =   8.74475
    eigenvalues:
  0.720  0.731  0.962  0.971  0.988
    eigenvectors:
  0.000  0.135  0.000  0.013  0.852
  0.999  0.000  0.000  0.000  0.000
  0.000  0.010  0.005  0.978  0.007
  0.000  0.854  0.000  0.004  0.141
  0.000  0.000  0.994  0.005  0.000
    occupations:
  0.953  0.000 -0.008 -0.088  0.000
  0.000  0.720 -0.000  0.000 -0.003
 -0.008 -0.000  0.969 -0.023  0.001
 -0.088  0.000 -0.023  0.768  0.001
  0.000 -0.003  0.001  0.001  0.962
atom   10   Tr[ns(na)] =   8.79651
    eigenvalues:
  0.675  0.760  0.986  0.987  0.990
    eigenvectors:
  0.000  0.981  0.000  0.012  0.007
  0.012  0.000  0.986  0.003  0.000
  0.000  0.000  0.001  0.245  0.753
  0.000  0.019  0.002  0.740  0.239
  0.988  0.000  0.012  0.000  0.000
    occupations:
  0.765 -0.001 -0.005  0.031 -0.000
 -0.001  0.982 -0.000  0.000 -0.033
 -0.005 -0.000  0.989 -0.001  0.000
  0.031  0.000 -0.001  0.983  0.000
 -0.000 -0.033  0.000  0.000  0.679
atom   16   Tr[ns(na)] =   8.76007
    eigenvalues:
  0.699  0.713  0.987  0.989  0.992
    eigenvectors:
  0.006  0.163  0.826  0.000  0.004
  0.965  0.035  0.000  0.000  0.000
  0.000  0.005  0.011  0.001  0.984
  0.030  0.796  0.163  0.000  0.012
  0.000  0.000  0.000  0.999  0.001
    occupations:
  0.941 -0.001  0.008 -0.103 -0.000
 -0.001  0.699 -0.001 -0.003 -0.002
  0.008 -0.001  0.990  0.018 -0.000
 -0.103 -0.003  0.018  0.761 -0.000
 -0.000 -0.002 -0.000 -0.000  0.989
atom   17   Tr[ns(na)] =   8.75552
    eigenvalues:
  0.697  0.720  0.985  0.987  0.988
    eigenvectors:
  0.000  0.985  0.008  0.003  0.003
  0.012  0.000  0.065  0.869  0.054
  0.000  0.005  0.831  0.024  0.139
  0.000  0.009  0.095  0.094  0.802
  0.988  0.000  0.001  0.010  0.001
    occupations:
  0.724 -0.004 -0.019  0.026 -0.001
 -0.004  0.984  0.000  0.000  0.031
 -0.019  0.000  0.984  0.003  0.000
  0.026  0.000  0.003  0.985  0.000
 -0.001  0.031  0.000  0.000  0.701
atom   22   Tr[ns(na)] =   8.74449
    eigenvalues:
  0.720  0.731  0.962  0.971  0.988
    eigenvectors:
  0.001  0.135  0.000  0.013  0.852
  0.996  0.004  0.000  0.000  0.000
  0.000  0.010  0.009  0.975  0.007
  0.003  0.852  0.000  0.004  0.141
  0.000  0.000  0.991  0.009  0.000
    occupations:
  0.953  0.001 -0.007 -0.088 -0.000
  0.001  0.720  0.000  0.000 -0.003
 -0.007  0.000  0.969 -0.023 -0.001
 -0.088  0.000 -0.023  0.768 -0.001
 -0.000 -0.003 -0.001 -0.001  0.962
atom   23   Tr[ns(na)] =   8.74371
    eigenvalues:
  0.696  0.724  0.976  0.987  0.989
    eigenvectors:
  0.000  0.973  0.000  0.000  0.027
  0.017  0.000  0.981  0.001  0.001
  0.000  0.019  0.002  0.384  0.596
  0.000  0.009  0.000  0.615  0.376
  0.983  0.000  0.017  0.000  0.000
    occupations:
  0.731 -0.001  0.036  0.024  0.000
 -0.001  0.972  0.001 -0.000 -0.036
  0.036  0.001  0.983 -0.002  0.000
  0.024 -0.000 -0.002  0.985 -0.000
  0.000 -0.036  0.000 -0.000  0.701
N of occupied +U levels =  70.0625088
 --- exit write_ns ---

[...]

          k = 0.2500-0.4976 0.0000 ( 32026 PWs)   bands (ev):

[...]

          k =-0.2500 0.2488 0.0000 ( 32025 PWs)   bands (ev):

   -55.2393 -55.1997 -55.1506 -55.1095 -55.0719 -55.0440 -55.0396 -55.0319
   -54.9882 -54.9823 -54.9416 -54.8789 -54.8736 -54.8584 -54.8511 -54.7428
   -54.7412 -54.7370 -54.7154 -54.7084 -54.6185 -54.5091 -54.2856 -53.9959
   -22.0758 -21.8828 -21.1817 -21.0215 -20.7825 -20.7187 -20.6234 -20.5802
   -20.4812 -20.3092 -20.2761 -20.1895 -20.0934 -20.0044 -19.9367 -19.9200
   -19.7541 -19.2606 -19.0317 -10.9964 -10.8142 -10.7028 -10.5747 -10.1970
   -10.1745 -10.0806  -9.7669  -9.6965  -9.6251  -9.4852  -9.4438  -9.2629
    -9.1931  -9.1345  -9.0215  -8.9102  -8.7800  -8.6611  -8.4671  -8.2717
    -8.2139  -8.1596  -8.0218  -7.8978  -7.8196  -7.7287  -7.6248  -7.4977
    -7.4223  -7.3631  -7.2441  -7.2089  -7.1135  -7.0182  -6.9765  -6.9181
    -6.8479  -6.7472  -6.6513  -6.5238  -6.3855  -6.1805  -5.9525  -5.8191
    -5.5908  -5.5396  -5.4945  -5.3525  -5.2829  -5.2373  -5.0752  -4.9653
    -4.8038  -4.7522  -4.5607  -4.3708  -4.3440  -4.2570  -4.0485  -3.9847
    -3.8952  -3.7962  -3.7730  -3.6417  -3.5664  -3.4432  -3.4077  -3.1339
    -3.1181  -2.8547  -2.7103  -2.6201  -2.4848  -2.4586  -2.4179  -2.3572
    -2.2739  -2.0818  -1.9012  -1.8074  -1.6927  -1.0782  -0.8147  -0.6288
    -0.2713  -0.1346   0.2775   0.5273   0.7590   0.8411   0.9901   1.0695
     1.3051   1.4395   1.5076   1.8540   3.2608   3.9494   4.6217   5.0451
     5.1085   5.2107   5.2790   5.5499   6.0223   6.1958   6.2921   6.3320
     6.4673   6.5980   6.6796   6.7816   6.8686   6.9462   7.1419   7.2303
     7.3975   7.5173   7.5441   7.6967   7.7512   7.8565   7.9610   8.0604
     8.2385   8.3310   8.3714   8.4684   8.5291   8.6232   8.6873   8.7950
     8.9369   8.9877   9.0629   9.1949   9.3471   9.4338   9.6035   9.6475
     9.7598   9.8192   9.9219  10.0761  10.1270  10.1909  10.2426  10.3749
    10.5160  10.5546  10.6133  10.7086  10.7444  10.9536  11.0109  11.0965
    11.1878  11.2112  11.3723  11.4350  11.4970  11.6500  11.7502  11.7949
    11.8679  11.9355  12.0202  12.0371  12.1048  12.2327  12.2997  12.3590
    12.4012  12.4675  12.5286  12.5864  12.6618  12.7332  12.7954  12.9515
    13.0033  13.0409  13.1223  13.2208  13.2716  13.4812  13.5533  13.5865
    13.6274  13.6808  13.7390  13.8387  13.9499  13.9993  14.0747  14.0978
    14.2021  14.3076  14.3680  14.5180  14.5744  14.6574  14.7399  14.8567
    14.9092  15.0095  15.0851  15.1959  15.2581  15.3023  15.3248  15.4096
    15.4608  15.5119  15.5888  15.6260  15.7045  15.7366  15.7794  15.8576
    15.8878  15.9890  16.0139  16.0612  16.1276  16.2442  16.3260  16.3946
    16.4798  16.5254  16.6404  16.7299  16.7922  16.8258  16.9210  16.9586
    17.0183  17.0754  17.1319  17.1736  17.2056  17.2152  17.2251  17.2488
    17.2715  17.3224  17.3385  17.3574  17.3875  17.4080  17.4490  17.4977
    17.5280  17.5599  17.6287  17.6572  17.7722  17.9114  17.9502  18.0000
    18.0411  18.0714  18.1506  18.1886  18.2614  18.3555  18.4758  18.5145
    18.5883  18.6118  18.6343  18.7298  18.8015  18.8702  18.9077  18.9788
    19.0260  19.1393  19.1848  19.2527  19.3040  19.3679  19.4566  19.5581
    19.6549  19.6951  19.8242  19.8822  19.9486  20.0004  20.0509  20.0843
    20.1354  20.1685  20.2734  20.3522  20.3633  20.4238  20.5258  20.5682
    20.6632  20.7011  20.7390  20.8140  20.9119  20.9580  20.9892  21.0290
    21.0927  21.2180  21.2617  21.3045  21.3397  21.3647  21.4649  21.5081
    21.5812  21.6300  21.7085  21.7584  21.8037  21.9069  21.9986  22.0793
    22.1502  22.1915

     the Fermi energy is    -1.8008 ev

!    total energy              =   -2280.65651384 Ry
     Harris-Foulkes estimate   =   -2280.65651384 Ry
     estimated scf accuracy    <          7.3E-09 Ry

     The total energy is the sum of the following terms:

     one-electron contribution =  -23733.70128860 Ry
     hartree contribution      =   11911.52291322 Ry
     xc contribution           =    -573.06531798 Ry
     ewald contribution        =   10113.11455454 Ry
     Hubbard energy            =       1.47245844 Ry
     smearing contrib. (-TS)   =       0.00016654 Ry

     convergence has been achieved in  12 iterations

     Forces acting on atoms (Ry/au):

     negative rho (up, down):  0.158E+01 0.000E+00
     atom    1 type  1   force =    -0.00827670   -0.00374576    0.00018253
     atom    2 type  1   force =     0.00037625    0.00255856   -0.00093652
     atom    3 type  2   force =     0.01496377    0.00778527   -0.00013359
     atom    4 type  2   force =     0.01057798    0.00420197   -0.00005540
     atom    5 type  1   force =     0.00139475   -0.00316554   -0.00082239
     atom    6 type  1   force =     0.00001378   -0.00316965   -0.00020236
     atom    7 type  1   force =     0.00025687   -0.00071327    0.00060653
     atom    8 type  1   force =    -0.00424007   -0.00071842    0.00010004
     atom    9 type  2   force =     0.00318449    0.00254375   -0.00030918
     atom   10 type  2   force =    -0.00044241   -0.02422712    0.00067932
     atom   11 type  1   force =     0.00395996    0.00202291    0.00059246
     atom   12 type  1   force =    -0.01290189    0.00763515   -0.00010572
     atom   13 type  1   force =    -0.00107192   -0.00663952   -0.00020035
     atom   14 type  1   force =    -0.00803874   -0.00349962    0.00015075
     atom   15 type  1   force =     0.00011790    0.00151306    0.00012719
     atom   16 type  2   force =    -0.01618694    0.00776391   -0.00018824
     atom   17 type  2   force =     0.01028044    0.00545982    0.00003159
     atom   18 type  1   force =     0.00097056   -0.00324876   -0.00069432
     atom   19 type  1   force =     0.00008164   -0.00306919   -0.00025507
     atom   20 type  1   force =     0.00033551   -0.00214335   -0.00008652
     atom   21 type  1   force =    -0.00392893    0.00173942    0.00027781
     atom   22 type  2   force =     0.00071002    0.00280427   -0.00042712
     atom   23 type  2   force =    -0.00054804    0.00117120   -0.00007634
     atom   24 type  1   force =    -0.00388238    0.00254357    0.00044051
     atom   25 type  1   force =     0.01303369    0.00789139   -0.00003849
     atom   26 type  1   force =    -0.00117949   -0.00527798   -0.00004070
     atom   27 type  3   force =    -0.00002042    0.00049712   -0.00015623
     atom   28 type  3   force =     0.00002145   -0.00003475   -0.00004118
     atom   29 type  3   force =     0.00004111   -0.00003368    0.00052451
     atom   30 type  3   force =     0.00006541   -0.00007246    0.00045637
     atom   31 type  1   force =     0.00011836    0.00081670    0.00033546
     atom   32 type  3   force =     0.00021398    0.00081102    0.00026467

     Total force =     0.002533     Total SCF correction =     0.000231

     bfgs converged in  17 scf cycles and  16 bfgs steps
     (criteria: energy < 0.10E-03, force < 0.10E-02)

     End of BFGS Geometry Optimization

     Final energy   =   -2280.6565138365 Ry
Begin final coordinates

ATOMIC_POSITIONS (crystal)
O0       0.000000000   0.000000000   0.377491018    0   0   1
O0       0.000000000   0.500000000   0.401669336    0   0   1
Pt1      0.250000000   0.500000000   0.451138548    0   0   1
Pt1      0.000000000   0.000000000   0.452590098    0   0   1
O0       0.250000000   0.810000000   0.442656175    0   0   1
O0       0.250000000   0.190000000   0.460942223    0   0   1
O0       0.000000000   0.500000000   0.496697727    0   0   1
O0       0.000000000   0.000000000   0.529625740    0   0   1
Pt1      0.250000000   0.000000000   0.575710539    0   0   1
Pt1      0.000000000   0.500000000   0.574295540    0   0   1
O0       0.250000000   0.690000000   0.566429953    0   0   1
O0       0.250000000   0.310000000   0.585879073    0   0   1
O0       0.000000000   0.000000000   0.621167765    0   0   1
O0       0.500000000   0.000000000   0.377552352    0   0   1
O0       0.500000000   0.500000000   0.401191987    0   0   1
Pt1      0.750000000   0.500000000   0.451139892    0   0   1
Pt1      0.500000000   0.000000000   0.452629710    0   0   1
O0       0.750000000   0.810000000   0.442645337    0   0   1
O0       0.750000000   0.190000000   0.460947097    0   0   1
O0       0.500000000   0.500000000   0.497310465    0   0   1
O0       0.500000000   0.000000000   0.529590241    0   0   1
Pt1      0.750000000   0.000000000   0.575716061    0   0   1
Pt1      0.500000000   0.500000000   0.575958952    0   0   1
O0       0.750000000   0.690000000   0.566530538    0   0   1
O0       0.750000000   0.310000000   0.585765323    0   0   1
O0       0.500000000   0.000000000   0.621175667    0   0   1
H2       0.000079425   0.640788375   0.386474325
H2       0.499995221   0.641393021   0.386284091
H2       0.143523007   0.034126127   0.367621068
H2       0.643541842   0.034128779   0.367681376
O0       0.499270815   0.531910504   0.649500398
H2       0.492364486   0.389611712   0.662611385
End final coordinates

     General routines

     Parallel routines
     Hubbard U routines

   This run was terminated on:  21:15:26  28Apr2014

   JOB DONE.
Running PBS batch system epilogue script
Job id: 340495.audhumbla.fysik.dtu.dk
Username: zhonxu
Groupname: campgst
Jobname: PtO2/Eads-2-layers/OH-U-5.5
Sessionid: 13568
Queuename: verylong
Accounting:
This job has allocated the following 16 nodes:
d037 d037 d037 d037 d037 d037 d037 d037 d026 d026 d026 d026 d026 d026 d026 d026
Finished epilogue job 340495.audhumbla.fysik.dtu.dk for zhonxu