     Program PWSCF v.5.0.2 (svn rev. 9656) starts on 10Feb2014 at 20: 4: 1

     Current dimensions of program PWSCF are:
     Max number of different atomic species (ntypx) = 10
     Max number of k-points (npk) =  40000
     Max angular momentum in pseudopotentials (lmaxx) =  3
     Reading input from alpha_-0.07/alpha_-0.07.in
Warning: card &IONS ignored
Warning: card / ignored
Warning: card &CELL ignored
Warning: card / ignored

     Subspace diagonalization in iterative solution of the eigenvalue problem:
     a serial algorithm will be used

     bravais-lattice index     =            0
     lattice parameter (alat)  =      17.1587  a.u.
     unit-cell volume          =    3538.5507 (a.u.)^3
     number of atoms/cell      =           48
     number of atomic types    =            3
     number of electrons       =       432.00
     number of Kohn-Sham states=          624
     kinetic-energy cutoff     =      40.0000  Ry
     charge density cutoff     =     500.0000  Ry
     convergence threshold     =      1.0E-06
     mixing beta               =       0.7000
     number of iterations used =            8  plain     mixing
     Exchange-correlation      = SLA  PW   PBE  PBE ( 1 4 3 4 0)
     EXX-fraction              =        0.00

     celldm(1)=  17.158713  celldm(2)=   0.000000  celldm(3)=   0.000000
     celldm(4)=   0.000000  celldm(5)=   0.000000  celldm(6)=   0.000000

     crystal axes: (cart. coord. in units of alat)
               a(1) = (   1.000000   0.000000   0.000000 )
               a(2) = (   0.000000   1.000000   0.000000 )
               a(3) = (   0.000000   0.000000   0.700441 )

     reciprocal axes: (cart. coord. in units 2 pi/alat)
               b(1) = (  1.000000  0.000000  0.000000 )
               b(2) = (  0.000000  1.000000  0.000000 )
               b(3) = (  0.000000  0.000000  1.427673 )

     PseudoPot. # 1 for Ir read from file:
     /home/camp/zhonxu/pseudo/ir_pbe_v1.uspp.F.UPF
     MD5 check sum: abf987a9674477536ede83817f8f8b70
     Pseudo is Ultrasoft + core correction, Zval = 15.0
     Generated by new atomic code, or converted to UPF format
     Using radial grid of  983 points,  7 beta functions with:
                l(1) =   0
                l(2) =   0
                l(3) =   1
                l(4) =   1
                l(5) =   1
                l(6) =   2
                l(7) =   2
     Q(r) pseudized with  8 coefficients,  rinner =    1.350   1.350   1.350
                                                       1.350   1.350

     PseudoPot. # 2 for Ir read from file:
     /home/camp/zhonxu/pseudo/ir_pbe_v1.uspp.F.UPF
     MD5 check sum: abf987a9674477536ede83817f8f8b70
     Pseudo is Ultrasoft + core correction, Zval = 15.0
     Generated by new atomic code, or converted to UPF format
     Using radial grid of  983 points,  7 beta functions with:
                l(1) =   0
                l(2) =   0
                l(3) =   1
                l(4) =   1
                l(5) =   1
                l(6) =   2
                l(7) =   2
     Q(r) pseudized with  8 coefficients,  rinner =    1.350   1.350   1.350
                                                       1.350   1.350

     PseudoPot. # 3 for O  read from file:
     /home/camp/zhonxu/pseudo/o_pbe_v1.01.uspp.F.UPF
     MD5 check sum: 2bcb18d16ea4b960afae9ec6d52f22d2
     Pseudo is Ultrasoft + core correction, Zval =  6.0
     Generated by new atomic code, or converted to UPF format
     Using radial grid of  737 points,  5 beta functions with:
                l(1) =   0
                l(2) =   0
                l(3) =   1
                l(4) =   1
                l(5) =   2
     Q(r) pseudized with  8 coefficients,  rinner =    0.900   0.900   0.900
                                                       0.900   0.900

     atomic species   valence    mass     pseudopotential
        Ir0           15.00   192.22000     Ir( 1.00)
        Ir1           15.00   192.22000     Ir( 1.00)
        O2             6.00    15.99940     O ( 1.00)

     Starting magnetic structure
     atomic species   magnetization
        Ir0          0.000
        Ir1          0.000
        O2           0.000

     Simplified LDA+U calculation (l_max = 2) with parameters (eV):
     atomic species    L          U    alpha       J0     beta
        Ir0            2     0.0000  -0.0700   0.0000   0.0000
        Ir1            2     0.0000   0.0000   0.0000   0.0000
        O2             1     0.0000   0.0000   0.0000   0.0000

      8 Sym. Ops., with inversion, found

   Cartesian axes

     site n.     atom                  positions (alat units)
         1           Ir0 tau(   1) = (   0.0000000   0.0000000   0.0000000  )
         2           Ir1 tau(   2) = (   0.2500000   0.2500000   0.1751101  )
         3           Ir1 tau(   3) = (   0.0000000   0.0000000   0.3502203  )
         4           Ir1 tau(   4) = (   0.2500000   0.2500000   0.5253304  )
         5           Ir1 tau(   5) = (   0.0000000   0.5000000   0.0000000  )
         6           Ir1 tau(   6) = (   0.2500000   0.7500000   0.1751101  )
         7           Ir1 tau(   7) = (   0.0000000   0.5000000   0.3502203  )
         8           Ir1 tau(   8) = (   0.2500000   0.7500000   0.5253304  )
         9           Ir1 tau(   9) = (   0.5000000   0.0000000   0.0000000  )
        10           Ir1 tau(  10) = (   0.7500000   0.2500000   0.1751101  )
        11           Ir1 tau(  11) = (   0.5000000   0.0000000   0.3502203  )
        12           Ir1 tau(  12) = (   0.7500000   0.2500000   0.5253304  )
        13           Ir1 tau(  13) = (   0.5000000   0.5000000   0.0000000  )
        14           Ir1 tau(  14) = (   0.7500000   0.7500000   0.1751101  )
        15           Ir1 tau(  15) = (   0.5000000   0.5000000   0.3502203  )
        16           Ir1 tau(  16) = (   0.7500000   0.7500000   0.5253304  )
        17           O2  tau(  17) = (   0.1550000   0.1550000   0.0000000  )
        18           O2  tau(  18) = (  -0.1550000  -0.1550000   0.0000000  )
        19           O2  tau(  19) = (   0.4050000   0.0950000   0.1751101  )
        20           O2  tau(  20) = (   0.0950000   0.4050000   0.1751101  )
        21           O2  tau(  21) = (   0.1550000   0.1550000   0.3502203  )
        22           O2  tau(  22) = (  -0.1550000  -0.1550000   0.3502203  )
        23           O2  tau(  23) = (   0.4050000   0.0950000   0.5253304  )
        24           O2  tau(  24) = (   0.0950000   0.4050000   0.5253304  )
        25           O2  tau(  25) = (   0.1550000   0.6550000   0.0000000  )
        26           O2  tau(  26) = (  -0.1550000   0.3450000   0.0000000  )
        27           O2  tau(  27) = (   0.4050000   0.5950000   0.1751101  )
        28           O2  tau(  28) = (   0.0950000   0.9050000   0.1751101  )
        29           O2  tau(  29) = (   0.1550000   0.6550000   0.3502203  )
        30           O2  tau(  30) = (  -0.1550000   0.3450000   0.3502203  )
        31           O2  tau(  31) = (   0.4050000   0.5950000   0.5253304  )
        32           O2  tau(  32) = (   0.0950000   0.9050000   0.5253304  )
        33           O2  tau(  33) = (   0.6550000   0.1550000   0.0000000  )
        34           O2  tau(  34) = (   0.3450000  -0.1550000   0.0000000  )
        35           O2  tau(  35) = (   0.9050000   0.0950000   0.1751101  )
        36           O2  tau(  36) = (   0.5950000   0.4050000   0.1751101  )
        37           O2  tau(  37) = (   0.6550000   0.1550000   0.3502203  )
        38           O2  tau(  38) = (   0.3450000  -0.1550000   0.3502203  )
        39           O2  tau(  39) = (   0.9050000   0.0950000   0.5253304  )
        40           O2  tau(  40) = (   0.5950000   0.4050000   0.5253304  )
        41           O2  tau(  41) = (   0.6550000   0.6550000   0.0000000  )
        42           O2  tau(  42) = (   0.3450000   0.3450000   0.0000000  )
        43           O2  tau(  43) = (   0.9050000   0.5950000   0.1751101  )
        44           O2  tau(  44) = (   0.5950000   0.9050000   0.1751101  )
        45           O2  tau(  45) = (   0.6550000   0.6550000   0.3502203  )
        46           O2  tau(  46) = (   0.3450000   0.3450000   0.3502203  )
        47           O2  tau(  47) = (   0.9050000   0.5950000   0.5253304  )
        48           O2  tau(  48) = (   0.5950000   0.9050000   0.5253304  )

     number of k points=    42  Methfessel-Paxton smearing, width (Ry)=  0.0100
                       cart. coord. in units 2pi/alat
        k(    1) = (   0.0000000   0.0000000   0.0000000), wk =   0.0156250
        k(    2) = (   0.0000000   0.0000000   0.3569182), wk =   0.0312500
        k(    3) = (   0.0000000   0.0000000  -0.7138365), wk =   0.0156250
        k(    4) = (   0.0000000   0.2500000   0.0000000), wk =   0.0625000
        k(    5) = (   0.0000000   0.2500000   0.3569182), wk =   0.1250000
        k(    6) = (   0.0000000   0.2500000  -0.7138365), wk =   0.0625000
        k(    7) = (   0.0000000  -0.5000000   0.0000000), wk =   0.0312500
        k(    8) = (   0.0000000  -0.5000000   0.3569182), wk =   0.0625000
        k(    9) = (   0.0000000  -0.5000000  -0.7138365), wk =   0.0312500
        k(   10) = (   0.2500000   0.2500000   0.0000000), wk =   0.0312500
        k(   11) = (   0.2500000   0.2500000   0.3569182), wk =   0.0625000
        k(   12) = (   0.2500000   0.2500000  -0.7138365), wk =   0.0312500
        k(   13) = (   0.2500000  -0.5000000   0.0000000), wk =   0.0625000
        k(   14) = (   0.2500000  -0.5000000   0.3569182), wk =   0.1250000
        k(   15) = (   0.2500000  -0.5000000  -0.7138365), wk =   0.0625000
        k(   16) = (  -0.5000000  -0.5000000   0.0000000), wk =   0.0156250
        k(   17) = (  -0.5000000  -0.5000000   0.3569182), wk =   0.0312500
        k(   18) = (  -0.5000000  -0.5000000  -0.7138365), wk =   0.0156250
        k(   19) = (  -0.2500000   0.2500000   0.0000000), wk =   0.0312500
        k(   20) = (  -0.2500000   0.2500000  -0.3569182), wk =   0.0625000
        k(   21) = (  -0.2500000   0.2500000   0.7138365), wk =   0.0312500
        k(   22) = (   0.0000000   0.0000000   0.0000000), wk =   0.0156250
        k(   23) = (   0.0000000   0.0000000   0.3569182), wk =   0.0312500
        k(   24) = (   0.0000000   0.0000000  -0.7138365), wk =   0.0156250
        k(   25) = (   0.0000000   0.2500000   0.0000000), wk =   0.0625000
        k(   26) = (   0.0000000   0.2500000   0.3569182), wk =   0.1250000
        k(   27) = (   0.0000000   0.2500000  -0.7138365), wk =   0.0625000
        k(   28) = (   0.0000000  -0.5000000   0.0000000), wk =   0.0312500
        k(   29) = (   0.0000000  -0.5000000   0.3569182), wk =   0.0625000
        k(   30) = (   0.0000000  -0.5000000  -0.7138365), wk =   0.0312500
        k(   31) = (   0.2500000   0.2500000   0.0000000), wk =   0.0312500
        k(   32) = (   0.2500000   0.2500000   0.3569182), wk =   0.0625000
        k(   33) = (   0.2500000   0.2500000  -0.7138365), wk =   0.0312500
        k(   34) = (   0.2500000  -0.5000000   0.0000000), wk =   0.0625000
        k(   35) = (   0.2500000  -0.5000000   0.3569182), wk =   0.1250000
[...]
    eigenvectors:
  0.000  1.000  0.000
  0.500  0.000  0.500
  0.500  0.000  0.500
    occupations:
  0.884 -0.000 -0.000
 -0.000  0.900 -0.021
 -0.000 -0.021  0.900
   spin  2
    eigenvalues:
  0.879  0.884  0.921
    eigenvectors:
  0.000  1.000  0.000
  0.500  0.000  0.500
  0.500  0.000  0.500
    occupations:
  0.884 -0.000 -0.000
 -0.000  0.900 -0.021
 -0.000 -0.021  0.900
atomic mag. moment =     0.000000
atom   42   Tr[ns(na)] (up, down, total) =   2.68355  2.68355  5.36710
   spin  1
    eigenvalues:
  0.879  0.884  0.921
    eigenvectors:
  0.000  1.000  0.000
  0.500  0.000  0.500
  0.500  0.000  0.500
    occupations:
  0.884 -0.000 -0.000
 -0.000  0.900 -0.021
 -0.000 -0.021  0.900
   spin  2
    eigenvalues:
  0.879  0.884  0.921
    eigenvectors:
  0.000  1.000  0.000
  0.500  0.000  0.500
  0.500  0.000  0.500
    occupations:
  0.884 -0.000 -0.000
 -0.000  0.900 -0.021
 -0.000 -0.021  0.900
atomic mag. moment =     0.000000
atom   43   Tr[ns(na)] (up, down, total) =   2.68354  2.68354  5.36707
   spin  1
    eigenvalues:
  0.879  0.884  0.921
    eigenvectors:
  0.000  1.000  0.000
  0.500  0.000  0.500
  0.500  0.000  0.500
    occupations:
  0.884  0.000 -0.000
  0.000  0.900  0.021
 -0.000  0.021  0.900
   spin  2
    eigenvalues:
  0.879  0.884  0.921
    eigenvectors:
  0.000  1.000  0.000
  0.500  0.000  0.500
  0.500  0.000  0.500
    occupations:
  0.884  0.000 -0.000
  0.000  0.900  0.021
 -0.000  0.021  0.900
atomic mag. moment =    -0.000000
atom   44   Tr[ns(na)] (up, down, total) =   2.68354  2.68354  5.36707
   spin  1
    eigenvalues:
  0.879  0.884  0.921
    eigenvectors:
  0.000  1.000  0.000
  0.500  0.000  0.500
  0.500  0.000  0.500
    occupations:
  0.884 -0.000  0.000
 -0.000  0.900  0.021
  0.000  0.021  0.900
   spin  2
    eigenvalues:
  0.879  0.884  0.921
    eigenvectors:
  0.000  1.000  0.000
  0.500  0.000  0.500
  0.500  0.000  0.500
    occupations:
  0.884 -0.000  0.000
 -0.000  0.900  0.021
  0.000  0.021  0.900
atomic mag. moment =    -0.000000
atom   45   Tr[ns(na)] (up, down, total) =   2.68352  2.68352  5.36704
   spin  1
    eigenvalues:
  0.879  0.884  0.921
    eigenvectors:
  0.000  1.000  0.000
  0.500  0.000  0.500
  0.500  0.000  0.500
    occupations:
  0.884 -0.000 -0.000
 -0.000  0.900 -0.021
 -0.000 -0.021  0.900
   spin  2
    eigenvalues:
  0.879  0.884  0.921
    eigenvectors:
  0.000  1.000  0.000
  0.500  0.000  0.500
  0.500  0.000  0.500
    occupations:
  0.884 -0.000 -0.000
 -0.000  0.900 -0.021
 -0.000 -0.021  0.900
atomic mag. moment =     0.000000
atom   46   Tr[ns(na)] (up, down, total) =   2.68352  2.68352  5.36704
   spin  1
    eigenvalues:
  0.879  0.884  0.921
    eigenvectors:
  0.000  1.000  0.000
  0.500  0.000  0.500
  0.500  0.000  0.500
    occupations:
  0.884 -0.000 -0.000
 -0.000  0.900 -0.021
 -0.000 -0.021  0.900
   spin  2
    eigenvalues:
  0.879  0.884  0.921
    eigenvectors:
  0.000  1.000  0.000
  0.500  0.000  0.500
  0.500  0.000  0.500
    occupations:
  0.884 -0.000 -0.000
 -0.000  0.900 -0.021
 -0.000 -0.021  0.900
atomic mag. moment =     0.000000
atom   47   Tr[ns(na)] (up, down, total) =   2.68354  2.68354  5.36707
   spin  1
    eigenvalues:
  0.879  0.884  0.921
    eigenvectors:
  0.000  1.000  0.000
  0.500  0.000  0.500
  0.500  0.000  0.500
    occupations:
  0.884 -0.000  0.000
 -0.000  0.900  0.021
  0.000  0.021  0.900
   spin  2
    eigenvalues:
  0.879  0.884  0.921
    eigenvectors:
  0.000  1.000  0.000
  0.500  0.000  0.500
  0.500  0.000  0.500
    occupations:
  0.884 -0.000  0.000
 -0.000  0.900  0.021
  0.000  0.021  0.900
atomic mag. moment =    -0.000000
atom   48   Tr[ns(na)] (up, down, total) =   2.68354  2.68354  5.36707
   spin  1
    eigenvalues:
  0.879  0.884  0.921
    eigenvectors:
  0.000  1.000  0.000
  0.500  0.000  0.500
  0.500  0.000  0.500
    occupations:
  0.884  0.000 -0.000
  0.000  0.900  0.021
 -0.000  0.021  0.900
   spin  2
    eigenvalues:
  0.879  0.884  0.921
    eigenvectors:
  0.000  1.000  0.000
  0.500  0.000  0.500
  0.500  0.000  0.500
    occupations:
  0.884  0.000 -0.000
  0.000  0.900  0.021
 -0.000  0.021  0.900
atomic mag. moment =    -0.000000
N of occupied +U levels = 300.4469393
 --- exit write_ns ---

 ------ SPIN UP ------------

          k = 0.0000 0.0000 0.0000 ( 15109 PWs)   bands (ev):

   -36.8075 -36.8075 -36.8067 -36.8049 -36.7985 -36.7984 -36.7984 -36.7924
   -36.7919 -36.7915 -36.7910 -36.7903 -36.7902 -36.7900 -36.7878 -36.7875
   -36.7840 -36.7836 -36.7835 -36.7779 -36.7750 -36.7748 -36.7704 -36.7357
   -36.7023 -36.6957 -36.6957 -36.6956 -36.6956 -36.6956 -36.6896 -36.6664
   -36.5463 -36.5461 -36.5460 -36.5453 -36.5445 -36.5442 -36.5442 -36.5399
   -36.5312 -36.5309 -36.5309 -36.5308 -36.5307 -36.5306 -36.5306 -36.4879
    -7.4307  -6.7717  -6.7694  -6.6465  -6.6464  -6.6461  -6.6457  -6.2769
    -6.1526  -6.1489  -6.1476  -6.1474  -6.0407  -6.0395  -5.9149  -5.9135
    -5.8531  -5.8498  -5.7538  -5.7510  -5.6247  -5.6244  -5.6238  -5.6232
    -5.5707  -5.5678  -5.5677  -5.5668  -5.3482  -5.3481  -5.2153  -5.2152
     3.9749   4.1093   4.1115   4.2227   5.1587   5.1628   5.1632   5.1635
     5.3394   5.3442   5.3446   5.3457   5.4907   5.4931   5.5205   5.5205
     5.6620   5.6646   5.7425   5.7450   5.8476   5.8529   5.8530   5.8534
     5.9449   5.9493   5.9538   5.9818   5.9826   5.9836   5.9838   6.3168
     6.3187   6.3947   6.3952   6.7758   6.7799   7.0694   7.0709   7.0710
     7.0719   7.5572   7.5578   7.5583   7.5587   7.5810   7.5868   7.5869
     7.5871   7.9937   7.9952   8.0208   8.0221   8.2337   8.2344   8.2358
     8.2364   8.2782   8.2811   8.4777   8.4805   8.4814   8.4816   8.5221
     8.5245   8.5247   8.5259   8.5418   8.5789   8.5790   8.5794   8.5802
     8.7912   8.7915   9.3259   9.3264   9.4136   9.4156   9.6422   9.6428
    10.0360  10.1036  10.1037  10.3107  10.3109  10.3114  10.3115  10.3547
    10.3553  10.5059  10.5061  10.5063  10.5066  10.7221  10.7222  10.8909
    10.8934  10.8954  10.8956  11.0732  11.1758  11.1784  11.2151  11.2232
    11.2258  11.2591  11.2614  11.4294  11.4922  11.7091  11.7120  11.7941
    11.7970  11.8212  11.8256  11.8257  11.8258  12.0101  12.0130  12.0131
    12.0135  12.2534  12.2561  12.2562  12.2568  12.3395  12.3408  12.8421
    12.8428  13.1548  13.1554  13.2966  13.2975  13.2976  13.2976  13.7691
    13.7696  13.8417  13.8423  14.0979  14.0979  14.0980  14.0981  14.2349
    14.6565  14.6577  14.6577  14.6578  14.7549  15.7936  15.7941  15.8399
    15.8402  15.9463  15.9474  16.1880  16.1881  16.6216  16.6218  17.0434
    17.0434  17.0435  17.0441  17.1880  17.1880  17.1885  17.1892  17.6601
    17.7114  17.7117  17.7248  17.7252  17.9902  17.9902  17.9905  17.9915
    19.0858  20.5844  20.5848  20.5854  20.5864  22.0932  22.0939  22.2195
    22.2200  22.6149  22.6160  22.7936  22.7946  22.8784  22.8791  22.9730
    22.9737  22.9740  22.9741  23.1486  23.1491  23.1517  23.1523  23.1523
    23.1523  23.1527  23.1527  23.1530  23.1532  23.1532  23.1538  23.1539
    23.1540  23.1542  23.2030  23.3064  23.3082  23.4717  23.4722  23.4734
    23.4740  23.8948  23.8948  23.8950  23.8983  25.1473  25.1482  25.2136
    25.7893  25.7896  25.8520  25.8526  25.8771  25.8781  26.2877  26.2879
    26.5738  26.6963  26.6965  26.6967  26.6980  26.8530  26.8730  26.8733
    26.8739  26.8740  27.4240  27.4243  27.4251  27.4253  27.5680  27.5687
    27.8762  27.8779  28.4218  28.4220  28.4223  28.4230  28.6485  28.6489
    28.8776  28.9083  28.9087  28.9101  28.9104  28.9285  29.8831  29.9352
    29.9359  30.1971  30.1979  30.3915  30.3919  30.3930  30.3943  31.0090
    31.0090  31.0096  31.0101  31.1568  31.1570  31.1572  31.1581  31.1605
    31.1607  31.5918  31.5936  31.9646  32.2830  32.2833  32.4902  32.4904
    32.4906  32.4928  32.8327  32.8332  32.8721  32.8728  33.6489  33.6501
    33.6505  33.6511  34.4016  34.4029  34.4130  34.4148  34.4919  34.4925
    34.9059  34.9060  35.1715  35.1727  35.4345  35.4351  35.4357  35.4364
    35.6118  35.6134  35.9422  35.9423  36.2586  36.2587  36.4706  36.4718
    36.4718  36.4726  36.5268  36.9255  36.9269  37.4470  37.4470  37.4480
    37.4494  37.8269  37.8283  37.9176  37.9176  37.9183  37.9192  38.3851
    38.3860  38.3861  38.3870  38.5678  38.5692  38.8064  38.8067  38.8312
    38.8316  38.8323  38.8323  39.5895  39.5901  39.5905  39.6310  39.6320
    39.6489  39.6496  39.6500  39.6500  39.6707  39.7322  39.7330  40.1742
    40.1747  40.1747  40.1748  40.2150  40.2161  40.2730  40.2738  40.3982
    40.3986  40.3993  40.3998  40.4117  40.4120  40.5947  41.0564  41.5289
    41.6480  41.7918  41.7925  41.8387  41.8388  42.0818  42.0835  42.6023
    42.6027  42.6528  42.6530  42.6533  42.6537  42.6573  42.6574  42.6577
    42.6590  43.3595  43.3599  43.6955  43.6956  43.6968  43.6969  43.7636
[...]
    45.3088  45.6765  45.6772  45.6774  45.6797  45.9543  45.9555  46.0034
    46.0037  46.1791  46.1801  46.3101  46.8254  46.8269  47.3182  47.3186
    47.3454  47.3460  47.3461  47.3482  47.4941  47.4944  47.4957  47.4961
    47.7122  47.7127  47.7131  47.7153  47.7400  47.7401  47.7405  47.7409
    48.0104  48.0637  48.0641  48.0939  48.0950  48.1669  48.1689  48.3262
    48.3275  48.5734  48.5736  48.5738  48.5772  48.8222  48.8227  48.8229
    48.8250  48.8529  48.8533  48.9785  48.9898  48.9909  49.0152  49.0174
    49.2152  49.2154  49.2157  49.2160  49.5439  49.5447  49.5536  49.5540
    49.7830  49.7835  50.0111  50.0121  50.2303  50.2304  50.2323  50.2324
    50.5396  50.5403  50.7132  50.7132  50.7374  50.7379  50.8674  50.8679
    50.8681  50.8713  50.9171  50.9173  50.9180  50.9182  51.2340  51.7298
    51.8969  51.8980  51.9042  51.9066  52.0759  52.0763  52.2752  52.2755
    52.2758  52.2771  52.5418  52.5419  52.7422  52.7425  52.7426  52.7429
    52.9969  52.9972  53.0372  53.0376  53.0379  53.0385  53.0432  53.0439
    53.3757  53.3758  53.5043  53.5043  53.5044  53.5052  53.5181  53.5181

[...]

          k =-0.5000-0.5000 0.0000 ( 15136 PWs)   bands (ev):

[...]

 ------ SPIN DOWN ----------

[...]

          k = 0.2500-0.5000-0.7138 ( 15100 PWs)   bands (ev):

[...]

          k =-0.2500 0.2500 0.7138 ( 15148 PWs)   bands (ev):

   -36.7904 -36.7897 -36.7891 -36.7890 -36.7890 -36.7889 -36.7888 -36.7887
   -36.7887 -36.7886 -36.7886 -36.7882 -36.7880 -36.7880 -36.7873 -36.7514
   -36.7507 -36.7505 -36.7480 -36.7478 -36.7477 -36.7471 -36.7462 -36.7460
   -36.7460 -36.7443 -36.7439 -36.7436 -36.7427 -36.7426 -36.7329 -36.6992
   -36.5390 -36.5386 -36.5386 -36.5384 -36.5384 -36.5384 -36.5382 -36.5382
   -36.5378 -36.5378 -36.5376 -36.5376 -36.5375 -36.5375 -36.5375 -36.4889
    -6.8098  -6.8090  -6.5000  -6.4997  -6.4996  -6.4989  -6.4202  -6.4196
    -6.2502  -6.2488  -6.0505  -6.0502  -6.0497  -6.0494  -5.9898  -5.9871
    -5.8226  -5.8186  -5.8186  -5.8181  -5.6976  -5.6948  -5.6422  -5.6376
    -5.6376  -5.6375  -5.6301  -5.6281  -5.5904  -5.5894  -5.5097  -5.5087
     4.7397   4.7404   4.7639   4.7652   5.1147   5.1159   5.1264   5.1286
     5.1288   5.1288   5.1368   5.1380   5.7750   5.7784   5.7786   5.7816
     5.7819   5.7819   5.8954   5.8965   6.0004   6.0020   6.0023   6.0032
     6.0165   6.0186   6.1789   6.1794   6.1798   6.1815   6.2784   6.2795
     6.3675   6.3740   6.3742   6.3744   6.7468   6.7468   6.8809   6.8845
     7.0109   7.0111   7.0113   7.0117   7.0550   7.0553   7.5402   7.5409
     7.6426   7.6429   7.6863   7.6901   7.6903   7.6904   8.0332   8.0336
     8.0343   8.0344   8.1495   8.1500   8.5738   8.5748   8.5751   8.5756
     8.6264   8.6266   8.6709   8.6717   8.8301   8.8325   8.8609   8.8633
     8.9211   8.9212   8.9221   8.9225   9.1374   9.1390   9.2876   9.2889
     9.3361   9.3372   9.3584   9.3585   9.7013   9.7026   9.7028   9.7030
     9.8999   9.9007  10.3499  10.3500  10.3502  10.3510  10.6280  10.6284
    11.3375  11.3379  11.5642  11.5663  11.5667  11.5670  11.7877  11.7878
    11.8077  11.8078  12.0634  12.0646  12.1932  12.1951  12.1962  12.1964
    12.2331  12.2362  12.2899  12.2931  12.3134  12.3157  12.3164  12.3165
    12.4593  12.4595  12.6477  12.6482  12.6483  12.6488  12.7184  12.7189
    13.0639  13.0645  13.1624  13.1632  13.2996  13.2999  13.3000  13.3001
    13.3724  13.3727  13.6373  13.6375  13.6375  13.6378  14.0356  14.0358
    15.4997  15.4997  15.5000  15.5001  15.5661  15.5661  15.9009  15.9010
    15.9011  15.9013  15.9206  15.9207  16.1043  16.1045  16.4643  16.4649
    16.5714  16.5717  16.5805  16.5808  16.8972  16.8973  16.8976  16.8983
    17.1835  17.1839  17.7964  17.7967  17.7967  17.7982  17.8791  17.8797
    20.0011  20.0026  21.1217  21.1222  21.1225  21.1241  21.9019  21.9032
    22.6455  22.6460  22.6461  22.6479  23.0147  23.0166  23.0969  23.0984
    23.1520  23.1527  23.1529  23.1530  23.1530  23.1531  23.1532  23.1532
    23.1532  23.1532  23.1533  23.1537  23.1538  23.1563  23.1564  23.2043
    23.7424  23.7450  23.8713  23.8726  23.8818  23.8824  24.1244  24.1246
    24.1249  24.1268  24.5276  24.5278  24.5281  24.5329  24.7044  24.7062
    25.4694  25.4708  25.8062  25.8063  25.8075  25.8083  26.0614  26.0623
    26.1379  26.1382  26.6040  26.6041  26.6048  26.6055  26.8563  26.8580
    27.4336  27.4353  27.5912  27.5917  27.8051  27.8057  27.8059  27.8070
    28.0777  28.0778  28.1650  28.1656  28.1669  28.1670  28.2828  28.2836
    28.5171  28.5187  28.6369  28.6375  28.6489  28.6489  28.6499  28.6499
    28.9669  28.9681  29.5727  29.5729  29.5743  29.5743  29.7013  29.7034
    29.9187  29.9198  30.7065  30.7069  30.7069  30.7097  32.0103  32.0110
    32.0287  32.0289  32.0290  32.0311  32.6928  32.6931  33.1260  33.1266
    33.1270  33.1271  33.3660  33.3679  33.4467  33.4493  33.5152  33.5154
    34.4376  34.4388  34.4389  34.4393  34.6325  34.6327  35.0800  35.0809
    35.3158  35.3164  35.6599  35.6602  35.6609  35.6610  35.7241  35.7259
    35.7549  35.7563  35.9437  35.9442  35.9446  35.9462  36.0412  36.0420
    36.3850  36.3854  36.9011  36.9012  36.9016  36.9022  37.0117  37.0121
    37.0124  37.0129  37.0981  37.0983  37.6375  37.6384  38.4944  38.4944
    38.4950  38.4951  38.5742  38.5742  38.6787  38.6802  38.7448  38.7453
    38.7453  38.7460  38.8897  38.8902  39.0008  39.0013  39.0183  39.0184
    39.2389  39.2390  39.2978  39.2987  39.4057  39.4059  39.7151  39.7153
    39.7159  39.7162  39.8663  39.8680  39.9606  39.9607  39.9614  39.9618
    40.3509  40.3515  40.7336  40.7338  40.7352  40.7362  41.2125  41.2129
    41.5772  41.5786  41.9065  41.9068  42.0025  42.0052  42.3927  42.3938
    42.4112  42.4114  42.4121  42.4124  42.5693  42.5705  43.2634  43.2635
    43.2642  43.2646  43.3589  43.3590  43.3593  43.3625  43.5433  43.5440
[...]
    45.8225  45.8229  45.9242  45.9244  46.0803  46.0804  46.0806  46.0806
    46.5113  46.5115  46.5918  46.5925  46.5928  46.5935  46.6706  46.6726
    46.8375  46.8383  47.1303  47.1308  47.1619  47.1622  47.1631  47.1639
    47.3740  47.3770  47.6745  47.6746  47.7985  47.7985  47.7996  47.7998
    48.1579  48.1587  48.3530  48.3544  48.4948  48.4948  48.4956  48.4959
    48.6329  48.6355  48.8327  48.8343  48.9979  48.9985  48.9988  49.0002
    49.2882  49.2908  49.3300  49.3306  49.3312  49.3326  49.6087  49.6087
    49.7452  49.7460  49.8030  49.8035  49.8035  49.8038  49.8521  49.8527
    50.0249  50.0256  50.3334  50.3335  50.3351  50.3367  50.5263  50.5266
    50.6046  50.6062  51.0012  51.0014  51.0017  51.0019  51.0837  51.0851
    51.1467  51.1467  51.1475  51.1486  51.2986  51.2990  51.4710  51.4721
    51.5153  51.5155  51.7254  51.7257  51.7264  51.7274  52.1888  52.1892
    52.1897  52.1898  52.2489  52.2494  52.5480  52.5498  52.6625  52.6644
    52.7663  52.7667  52.8556  52.8558  52.8560  52.8567  53.2099  53.2107
    53.4825  53.4827  53.7326  53.7328  53.7329  53.7343  53.8133  53.8136

     the Fermi energy is    13.5777 ev

!    total energy              =   -4010.25536733 Ry
     Harris-Foulkes estimate   =   -4010.25536797 Ry
     estimated scf accuracy    <       0.00000068 Ry

     The total energy is the sum of the following terms:

     one-electron contribution =    -827.29035630 Ry
     hartree contribution      =     708.74794175 Ry
     xc contribution           =   -1105.22986566 Ry
     ewald contribution        =   -2786.44204143 Ry
     Hubbard energy            =      -0.04143318 Ry
     smearing contrib. (-TS)   =       0.00038748 Ry

     total magnetization       =     0.00 Bohr mag/cell
     absolute magnetization    =     0.00 Bohr mag/cell

     convergence has been achieved in   8 iterations

     Writing output data file pwscf.save

     General routines

     Parallel routines
     Hubbard U routines

   This run was terminated on:   0:50:32  11Feb2014

   JOB DONE.