     Program PWSCF v.5.0.2 (svn rev. 9656) starts on 11Feb2014 at  4:28: 8

     Current dimensions of program PWSCF are:
     Max number of different atomic species (ntypx) = 10
     Max number of k-points (npk) =  40000
     Max angular momentum in pseudopotentials (lmaxx) =  3
     Reading input from alpha_0.07/alpha_0.07.in
Warning: card &IONS ignored
Warning: card / ignored
Warning: card &CELL ignored
Warning: card / ignored

     Subspace diagonalization in iterative solution of the eigenvalue problem:
     a serial algorithm will be used

     bravais-lattice index     =            0
     lattice parameter (alat)  =      17.1587  a.u.
     unit-cell volume          =    3538.5507 (a.u.)^3
     number of atoms/cell      =           48
     number of atomic types    =            3
     number of electrons       =       432.00
     number of Kohn-Sham states=          624
     kinetic-energy cutoff     =      40.0000  Ry
     charge density cutoff     =     500.0000  Ry
     convergence threshold     =      1.0E-06
     mixing beta               =       0.7000
     number of iterations used =            8  plain     mixing
     Exchange-correlation      = SLA  PW   PBE  PBE ( 1 4 3 4 0)
     EXX-fraction              =        0.00

     celldm(1)=  17.158713  celldm(2)=   0.000000  celldm(3)=   0.000000
     celldm(4)=   0.000000  celldm(5)=   0.000000  celldm(6)=   0.000000

     crystal axes: (cart. coord. in units of alat)
               a(1) = (   1.000000   0.000000   0.000000 )
               a(2) = (   0.000000   1.000000   0.000000 )
               a(3) = (   0.000000   0.000000   0.700441 )

     reciprocal axes: (cart. coord. in units 2 pi/alat)
               b(1) = (  1.000000  0.000000  0.000000 )
               b(2) = (  0.000000  1.000000  0.000000 )
               b(3) = (  0.000000  0.000000  1.427673 )

     PseudoPot. # 1 for Ir read from file:
     /home/camp/zhonxu/pseudo/ir_pbe_v1.uspp.F.UPF
     MD5 check sum: abf987a9674477536ede83817f8f8b70
     Pseudo is Ultrasoft + core correction, Zval = 15.0
     Generated by new atomic code, or converted to UPF format
     Using radial grid of  983 points,  7 beta functions with:
                l(1) =   0
                l(2) =   0
                l(3) =   1
                l(4) =   1
                l(5) =   1
                l(6) =   2
                l(7) =   2
     Q(r) pseudized with  8 coefficients,  rinner =    1.350   1.350   1.350
                                                       1.350   1.350

     PseudoPot. # 2 for Ir read from file:
     /home/camp/zhonxu/pseudo/ir_pbe_v1.uspp.F.UPF
     MD5 check sum: abf987a9674477536ede83817f8f8b70
     Pseudo is Ultrasoft + core correction, Zval = 15.0
     Generated by new atomic code, or converted to UPF format
     Using radial grid of  983 points,  7 beta functions with:
                l(1) =   0
                l(2) =   0
                l(3) =   1
                l(4) =   1
                l(5) =   1
                l(6) =   2
                l(7) =   2
     Q(r) pseudized with  8 coefficients,  rinner =    1.350   1.350   1.350
                                                       1.350   1.350

     PseudoPot. # 3 for O  read from file:
     /home/camp/zhonxu/pseudo/o_pbe_v1.01.uspp.F.UPF
     MD5 check sum: 2bcb18d16ea4b960afae9ec6d52f22d2
     Pseudo is Ultrasoft + core correction, Zval =  6.0
     Generated by new atomic code, or converted to UPF format
     Using radial grid of  737 points,  5 beta functions with:
                l(1) =   0
                l(2) =   0
                l(3) =   1
                l(4) =   1
                l(5) =   2
     Q(r) pseudized with  8 coefficients,  rinner =    0.900   0.900   0.900
                                                       0.900   0.900

     atomic species   valence    mass     pseudopotential
        Ir0           15.00   192.22000     Ir( 1.00)
        Ir1           15.00   192.22000     Ir( 1.00)
        O2             6.00    15.99940     O ( 1.00)

     Starting magnetic structure
     atomic species   magnetization
        Ir0          0.000
        Ir1          0.000
        O2           0.000

     Simplified LDA+U calculation (l_max = 2) with parameters (eV):
     atomic species    L          U    alpha       J0     beta
        Ir0            2     0.0000   0.0700   0.0000   0.0000
        Ir1            2     0.0000   0.0000   0.0000   0.0000
        O2             1     0.0000   0.0000   0.0000   0.0000

      8 Sym. Ops., with inversion, found

   Cartesian axes

     site n.     atom                  positions (alat units)
         1           Ir0 tau(   1) = (   0.0000000   0.0000000   0.0000000  )
         2           Ir1 tau(   2) = (   0.2500000   0.2500000   0.1751101  )
         3           Ir1 tau(   3) = (   0.0000000   0.0000000   0.3502203  )
         4           Ir1 tau(   4) = (   0.2500000   0.2500000   0.5253304  )
         5           Ir1 tau(   5) = (   0.0000000   0.5000000   0.0000000  )
         6           Ir1 tau(   6) = (   0.2500000   0.7500000   0.1751101  )
         7           Ir1 tau(   7) = (   0.0000000   0.5000000   0.3502203  )
         8           Ir1 tau(   8) = (   0.2500000   0.7500000   0.5253304  )
         9           Ir1 tau(   9) = (   0.5000000   0.0000000   0.0000000  )
        10           Ir1 tau(  10) = (   0.7500000   0.2500000   0.1751101  )
        11           Ir1 tau(  11) = (   0.5000000   0.0000000   0.3502203  )
        12           Ir1 tau(  12) = (   0.7500000   0.2500000   0.5253304  )
        13           Ir1 tau(  13) = (   0.5000000   0.5000000   0.0000000  )
        14           Ir1 tau(  14) = (   0.7500000   0.7500000   0.1751101  )
        15           Ir1 tau(  15) = (   0.5000000   0.5000000   0.3502203  )
        16           Ir1 tau(  16) = (   0.7500000   0.7500000   0.5253304  )
        17           O2  tau(  17) = (   0.1550000   0.1550000   0.0000000  )
        18           O2  tau(  18) = (  -0.1550000  -0.1550000   0.0000000  )
        19           O2  tau(  19) = (   0.4050000   0.0950000   0.1751101  )
        20           O2  tau(  20) = (   0.0950000   0.4050000   0.1751101  )
        21           O2  tau(  21) = (   0.1550000   0.1550000   0.3502203  )
        22           O2  tau(  22) = (  -0.1550000  -0.1550000   0.3502203  )
        23           O2  tau(  23) = (   0.4050000   0.0950000   0.5253304  )
        24           O2  tau(  24) = (   0.0950000   0.4050000   0.5253304  )
        25           O2  tau(  25) = (   0.1550000   0.6550000   0.0000000  )
        26           O2  tau(  26) = (  -0.1550000   0.3450000   0.0000000  )
        27           O2  tau(  27) = (   0.4050000   0.5950000   0.1751101  )
        28           O2  tau(  28) = (   0.0950000   0.9050000   0.1751101  )
        29           O2  tau(  29) = (   0.1550000   0.6550000   0.3502203  )
        30           O2  tau(  30) = (  -0.1550000   0.3450000   0.3502203  )
        31           O2  tau(  31) = (   0.4050000   0.5950000   0.5253304  )
        32           O2  tau(  32) = (   0.0950000   0.9050000   0.5253304  )
        33           O2  tau(  33) = (   0.6550000   0.1550000   0.0000000  )
        34           O2  tau(  34) = (   0.3450000  -0.1550000   0.0000000  )
        35           O2  tau(  35) = (   0.9050000   0.0950000   0.1751101  )
        36           O2  tau(  36) = (   0.5950000   0.4050000   0.1751101  )
        37           O2  tau(  37) = (   0.6550000   0.1550000   0.3502203  )
        38           O2  tau(  38) = (   0.3450000  -0.1550000   0.3502203  )
        39           O2  tau(  39) = (   0.9050000   0.0950000   0.5253304  )
        40           O2  tau(  40) = (   0.5950000   0.4050000   0.5253304  )
        41           O2  tau(  41) = (   0.6550000   0.6550000   0.0000000  )
        42           O2  tau(  42) = (   0.3450000   0.3450000   0.0000000  )
        43           O2  tau(  43) = (   0.9050000   0.5950000   0.1751101  )
        44           O2  tau(  44) = (   0.5950000   0.9050000   0.1751101  )
        45           O2  tau(  45) = (   0.6550000   0.6550000   0.3502203  )
        46           O2  tau(  46) = (   0.3450000   0.3450000   0.3502203  )
        47           O2  tau(  47) = (   0.9050000   0.5950000   0.5253304  )
        48           O2  tau(  48) = (   0.5950000   0.9050000   0.5253304  )

     number of k points=    42  Methfessel-Paxton smearing, width (Ry)=  0.0100
                       cart. coord. in units 2pi/alat
        k(    1) = (   0.0000000   0.0000000   0.0000000), wk =   0.0156250
        k(    2) = (   0.0000000   0.0000000   0.3569182), wk =   0.0312500
        k(    3) = (   0.0000000   0.0000000  -0.7138365), wk =   0.0156250
        k(    4) = (   0.0000000   0.2500000   0.0000000), wk =   0.0625000
        k(    5) = (   0.0000000   0.2500000   0.3569182), wk =   0.1250000
        k(    6) = (   0.0000000   0.2500000  -0.7138365), wk =   0.0625000
        k(    7) = (   0.0000000  -0.5000000   0.0000000), wk =   0.0312500
        k(    8) = (   0.0000000  -0.5000000   0.3569182), wk =   0.0625000
        k(    9) = (   0.0000000  -0.5000000  -0.7138365), wk =   0.0312500
        k(   10) = (   0.2500000   0.2500000   0.0000000), wk =   0.0312500
        k(   11) = (   0.2500000   0.2500000   0.3569182), wk =   0.0625000
        k(   12) = (   0.2500000   0.2500000  -0.7138365), wk =   0.0312500
        k(   13) = (   0.2500000  -0.5000000   0.0000000), wk =   0.0625000
        k(   14) = (   0.2500000  -0.5000000   0.3569182), wk =   0.1250000
        k(   15) = (   0.2500000  -0.5000000  -0.7138365), wk =   0.0625000
        k(   16) = (  -0.5000000  -0.5000000   0.0000000), wk =   0.0156250
        k(   17) = (  -0.5000000  -0.5000000   0.3569182), wk =   0.0312500
        k(   18) = (  -0.5000000  -0.5000000  -0.7138365), wk =   0.0156250
        k(   19) = (  -0.2500000   0.2500000   0.0000000), wk =   0.0312500
        k(   20) = (  -0.2500000   0.2500000  -0.3569182), wk =   0.0625000
        k(   21) = (  -0.2500000   0.2500000   0.7138365), wk =   0.0312500
        k(   22) = (   0.0000000   0.0000000   0.0000000), wk =   0.0156250
        k(   23) = (   0.0000000   0.0000000   0.3569182), wk =   0.0312500
        k(   24) = (   0.0000000   0.0000000  -0.7138365), wk =   0.0156250
        k(   25) = (   0.0000000   0.2500000   0.0000000), wk =   0.0625000
        k(   26) = (   0.0000000   0.2500000   0.3569182), wk =   0.1250000
        k(   27) = (   0.0000000   0.2500000  -0.7138365), wk =   0.0625000
        k(   28) = (   0.0000000  -0.5000000   0.0000000), wk =   0.0312500
        k(   29) = (   0.0000000  -0.5000000   0.3569182), wk =   0.0625000
        k(   30) = (   0.0000000  -0.5000000  -0.7138365), wk =   0.0312500
        k(   31) = (   0.2500000   0.2500000   0.0000000), wk =   0.0312500
        k(   32) = (   0.2500000   0.2500000   0.3569182), wk =   0.0625000
        k(   33) = (   0.2500000   0.2500000  -0.7138365), wk =   0.0312500
        k(   34) = (   0.2500000  -0.5000000   0.0000000), wk =   0.0625000
        k(   35) = (   0.2500000  -0.5000000   0.3569182), wk =   0.1250000
[...]
    eigenvectors:
  0.000  1.000  0.000
  0.500  0.000  0.500
  0.500  0.000  0.500
    occupations:
  0.884 -0.000 -0.000
 -0.000  0.900 -0.021
 -0.000 -0.021  0.900
   spin  2
    eigenvalues:
  0.879  0.884  0.921
    eigenvectors:
  0.000  1.000  0.000
  0.500  0.000  0.500
  0.500  0.000  0.500
    occupations:
  0.884 -0.000 -0.000
 -0.000  0.900 -0.021
 -0.000 -0.021  0.900
atomic mag. moment =     0.000000
atom   42   Tr[ns(na)] (up, down, total) =   2.68353  2.68353  5.36705
   spin  1
    eigenvalues:
  0.879  0.884  0.921
    eigenvectors:
  0.000  1.000  0.000
  0.500  0.000  0.500
  0.500  0.000  0.500
    occupations:
  0.884 -0.000 -0.000
 -0.000  0.900 -0.021
 -0.000 -0.021  0.900
   spin  2
    eigenvalues:
  0.879  0.884  0.921
    eigenvectors:
  0.000  1.000  0.000
  0.500  0.000  0.500
  0.500  0.000  0.500
    occupations:
  0.884 -0.000 -0.000
 -0.000  0.900 -0.021
 -0.000 -0.021  0.900
atomic mag. moment =     0.000000
atom   43   Tr[ns(na)] (up, down, total) =   2.68355  2.68355  5.36711
   spin  1
    eigenvalues:
  0.879  0.884  0.921
    eigenvectors:
  0.000  1.000  0.000
  0.500  0.000  0.500
  0.500  0.000  0.500
    occupations:
  0.884 -0.000  0.000
 -0.000  0.900  0.021
  0.000  0.021  0.900
   spin  2
    eigenvalues:
  0.879  0.884  0.921
    eigenvectors:
  0.000  1.000  0.000
  0.500  0.000  0.500
  0.500  0.000  0.500
    occupations:
  0.884 -0.000  0.000
 -0.000  0.900  0.021
  0.000  0.021  0.900
atomic mag. moment =    -0.000000
atom   44   Tr[ns(na)] (up, down, total) =   2.68355  2.68355  5.36711
   spin  1
    eigenvalues:
  0.879  0.884  0.921
    eigenvectors:
  0.000  1.000  0.000
  0.500  0.000  0.500
  0.500  0.000  0.500
    occupations:
  0.884  0.000 -0.000
  0.000  0.900  0.021
 -0.000  0.021  0.900
   spin  2
    eigenvalues:
  0.879  0.884  0.921
    eigenvectors:
  0.000  1.000  0.000
  0.500  0.000  0.500
  0.500  0.000  0.500
    occupations:
  0.884  0.000 -0.000
  0.000  0.900  0.021
 -0.000  0.021  0.900
atomic mag. moment =    -0.000000
atom   45   Tr[ns(na)] (up, down, total) =   2.68359  2.68359  5.36718
   spin  1
    eigenvalues:
  0.879  0.884  0.921
    eigenvectors:
  0.000  1.000  0.000
  0.500  0.000  0.500
  0.500  0.000  0.500
    occupations:
  0.884 -0.000 -0.000
 -0.000  0.900 -0.021
 -0.000 -0.021  0.900
   spin  2
    eigenvalues:
  0.879  0.884  0.921
    eigenvectors:
  0.000  1.000  0.000
  0.500  0.000  0.500
  0.500  0.000  0.500
    occupations:
  0.884 -0.000 -0.000
 -0.000  0.900 -0.021
 -0.000 -0.021  0.900
atomic mag. moment =     0.000000
atom   46   Tr[ns(na)] (up, down, total) =   2.68359  2.68359  5.36718
   spin  1
    eigenvalues:
  0.879  0.884  0.921
    eigenvectors:
  0.000  1.000  0.000
  0.500  0.000  0.500
  0.500  0.000  0.500
    occupations:
  0.884 -0.000 -0.000
 -0.000  0.900 -0.021
 -0.000 -0.021  0.900
   spin  2
    eigenvalues:
  0.879  0.884  0.921
    eigenvectors:
  0.000  1.000  0.000
  0.500  0.000  0.500
  0.500  0.000  0.500
    occupations:
  0.884 -0.000 -0.000
 -0.000  0.900 -0.021
 -0.000 -0.021  0.900
atomic mag. moment =     0.000000
atom   47   Tr[ns(na)] (up, down, total) =   2.68355  2.68355  5.36711
   spin  1
    eigenvalues:
  0.879  0.884  0.921
    eigenvectors:
  0.000  1.000  0.000
  0.500  0.000  0.500
  0.500  0.000  0.500
    occupations:
  0.884  0.000 -0.000
  0.000  0.900  0.021
 -0.000  0.021  0.900
   spin  2
    eigenvalues:
  0.879  0.884  0.921
    eigenvectors:
  0.000  1.000  0.000
  0.500  0.000  0.500
  0.500  0.000  0.500
    occupations:
  0.884  0.000 -0.000
  0.000  0.900  0.021
 -0.000  0.021  0.900
atomic mag. moment =    -0.000000
atom   48   Tr[ns(na)] (up, down, total) =   2.68355  2.68355  5.36711
   spin  1
    eigenvalues:
  0.879  0.884  0.921
    eigenvectors:
  0.000  1.000  0.000
  0.500  0.000  0.500
  0.500  0.000  0.500
    occupations:
  0.884 -0.000  0.000
 -0.000  0.900  0.021
  0.000  0.021  0.900
   spin  2
    eigenvalues:
  0.879  0.884  0.921
    eigenvectors:
  0.000  1.000  0.000
  0.500  0.000  0.500
  0.500  0.000  0.500
    occupations:
  0.884 -0.000  0.000
 -0.000  0.900  0.021
  0.000  0.021  0.900
atomic mag. moment =    -0.000000
N of occupied +U levels = 300.4403830
 --- exit write_ns ---

 ------ SPIN UP ------------

          k = 0.0000 0.0000 0.0000 ( 15109 PWs)   bands (ev):

   -36.8373 -36.8273 -36.8047 -36.8044 -36.8023 -36.8001 -36.7958 -36.7954
   -36.7951 -36.7893 -36.7890 -36.7881 -36.7881 -36.7875 -36.7869 -36.7866
   -36.7822 -36.7809 -36.7805 -36.7800 -36.7737 -36.7736 -36.7720 -36.7718
   -36.7118 -36.6987 -36.6930 -36.6928 -36.6926 -36.6924 -36.6923 -36.6861
   -36.5861 -36.5435 -36.5431 -36.5425 -36.5423 -36.5417 -36.5413 -36.5407
   -36.5333 -36.5283 -36.5281 -36.5279 -36.5279 -36.5277 -36.5273 -36.5272
    -7.4294  -6.7674  -6.7651  -6.6446  -6.6440  -6.6439  -6.6437  -6.2711
    -6.1450  -6.1449  -6.1437  -6.1401  -6.0383  -6.0369  -5.9122  -5.9107
    -5.8482  -5.8451  -5.7493  -5.7464  -5.6235  -5.6230  -5.6221  -5.6220
    -5.5663  -5.5653  -5.5653  -5.5624  -5.3468  -5.3467  -5.2139  -5.2138
     3.9793   4.1142   4.1162   4.2290   5.1661   5.1663   5.1667   5.1707
     5.3458   5.3471   5.3473   5.3520   5.4948   5.4971   5.5217   5.5217
     5.6678   5.6699   5.7480   5.7502   5.8551   5.8555   5.8558   5.8610
     5.9507   5.9550   5.9616   5.9863   5.9864   5.9877   5.9882   6.3207
     6.3225   6.3958   6.3963   6.7815   6.7855   7.0728   7.0737   7.0737
     7.0751   7.5582   7.5586   7.5592   7.5598   7.5889   7.5890   7.5891
     7.5946   7.9965   7.9979   8.0234   8.0247   8.2379   8.2384   8.2398
     8.2401   8.2831   8.2861   8.4826   8.4828   8.4828   8.4855   8.5258
     8.5272   8.5272   8.5296   8.5429   8.5797   8.5804   8.5808   8.5811
     8.7924   8.7927   9.3271   9.3277   9.4178   9.4197   9.6438   9.6445
    10.0374  10.1050  10.1051  10.3123  10.3124  10.3130  10.3131  10.3565
    10.3570  10.5077  10.5079  10.5081  10.5085  10.7237  10.7238  10.8980
    10.8981  10.9002  10.9025  11.0788  11.1814  11.1837  11.2191  11.2290
    11.2310  11.2645  11.2669  11.4327  11.4967  11.7148  11.7170  11.7998
    11.8017  11.8283  11.8283  11.8288  11.8336  12.0153  12.0156  12.0161
    12.0189  12.2585  12.2588  12.2590  12.2615  12.3432  12.3443  12.8454
    12.8460  13.1577  13.1581  13.3000  13.3000  13.3002  13.3008  13.7721
    13.7724  13.8446  13.8449  14.1006  14.1006  14.1007  14.1007  14.2383
    14.6603  14.6604  14.6607  14.6615  14.7571  15.7966  15.7969  15.8427
    15.8427  15.9487  15.9496  16.1899  16.1903  16.6235  16.6240  17.0450
    17.0459  17.0459  17.0460  17.1894  17.1903  17.1906  17.1910  17.6605
    17.7130  17.7137  17.7266  17.7271  17.9914  17.9926  17.9928  17.9929
    19.0873  20.5847  20.5859  20.5864  20.5868  22.0932  22.0940  22.2202
    22.2207  22.6153  22.6165  22.7940  22.7952  22.8788  22.8796  22.9738
    22.9740  22.9742  22.9750  23.1040  23.1520  23.1521  23.1547  23.1556
    23.1557  23.1559  23.1560  23.1560  23.1560  23.1564  23.1566  23.1568
    23.1573  23.1574  23.1576  23.3060  23.3078  23.4715  23.4721  23.4733
    23.4738  23.8935  23.8970  23.8970  23.8971  25.1481  25.1490  25.2136
    25.7894  25.7897  25.8521  25.8527  25.8769  25.8780  26.2882  26.2885
    26.5747  26.6959  26.6973  26.6975  26.6977  26.8530  26.8738  26.8738
    26.8744  26.8747  27.4242  27.4244  27.4252  27.4255  27.5685  27.5692
    27.8761  27.8780  28.4214  28.4222  28.4225  28.4226  28.6483  28.6487
    28.8777  28.9083  28.9087  28.9100  28.9105  28.9287  29.8826  29.9353
    29.9361  30.1975  30.1984  30.3907  30.3922  30.3932  30.3937  31.0090
    31.0096  31.0102  31.0102  31.1565  31.1572  31.1574  31.1578  31.1601
    31.1607  31.5915  31.5934  31.9651  32.2826  32.2829  32.4889  32.4911
    32.4914  32.4916  32.8331  32.8336  32.8720  32.8728  33.6488  33.6495
    33.6499  33.6511  34.4017  34.4032  34.4127  34.4147  34.4918  34.4925
    34.9057  34.9058  35.1716  35.1728  35.4345  35.4352  35.4358  35.4365
    35.6117  35.6135  35.9425  35.9427  36.2585  36.2586  36.4705  36.4713
    36.4714  36.4726  36.5272  36.9252  36.9267  37.4461  37.4475  37.4485
    37.4486  37.8266  37.8281  37.9168  37.9178  37.9185  37.9185  38.3850
    38.3859  38.3859  38.3869  38.5677  38.5691  38.8064  38.8068  38.8314
    38.8314  38.8321  38.8325  39.5895  39.5902  39.5903  39.6306  39.6320
    39.6491  39.6494  39.6496  39.6504  39.6701  39.7321  39.7329  40.1747
    40.1748  40.1749  40.1754  40.2151  40.2163  40.2726  40.2734  40.3978
    40.3987  40.3995  40.3999  40.4121  40.4121  40.5946  41.0567  41.5285
    41.6477  41.7915  41.7923  41.8383  41.8384  42.0816  42.0834  42.6027
    42.6032  42.6527  42.6532  42.6534  42.6537  42.6568  42.6582  42.6586
    42.6586  43.3594  43.3598  43.6955  43.6957  43.6969  43.6970  43.7634
[...]
    45.3091  45.6752  45.6778  45.6778  45.6786  45.9539  45.9552  46.0028
    46.0031  46.1788  46.1799  46.3101  46.8255  46.8271  47.3184  47.3189
    47.3444  47.3465  47.3467  47.3475  47.4941  47.4944  47.4958  47.4961
    47.7109  47.7133  47.7136  47.7143  47.7400  47.7404  47.7409  47.7409
    48.0109  48.0639  48.0644  48.0932  48.0943  48.1663  48.1684  48.3262
    48.3276  48.5713  48.5750  48.5751  48.5752  48.8210  48.8233  48.8234
    48.8239  48.8530  48.8534  48.9776  48.9891  48.9902  49.0149  49.0172
    49.2155  49.2158  49.2160  49.2163  49.5444  49.5453  49.5535  49.5539
    49.7832  49.7836  50.0110  50.0120  50.2299  50.2299  50.2320  50.2320
    50.5393  50.5401  50.7132  50.7133  50.7377  50.7383  50.8656  50.8688
    50.8692  50.8697  50.9173  50.9175  50.9182  50.9184  51.2335  51.7293
    51.8964  51.8975  51.9037  51.9063  52.0761  52.0765  52.2743  52.2756
    52.2760  52.2763  52.5419  52.5420  52.7424  52.7427  52.7428  52.7431
    52.9968  52.9972  53.0366  53.0373  53.0376  53.0380  53.0429  53.0437
    53.3758  53.3760  53.5042  53.5050  53.5050  53.5050  53.5182  53.5183

[...]

          k =-0.5000-0.5000 0.0000 ( 15136 PWs)   bands (ev):

[...]

 ------ SPIN DOWN ----------

[...]

          k = 0.2500-0.5000-0.7138 ( 15100 PWs)   bands (ev):

[...]

          k =-0.2500 0.2500 0.7138 ( 15148 PWs)   bands (ev):

   -36.8365 -36.7970 -36.7872 -36.7863 -36.7863 -36.7858 -36.7855 -36.7855
   -36.7855 -36.7854 -36.7854 -36.7852 -36.7851 -36.7851 -36.7847 -36.7841
   -36.7799 -36.7479 -36.7477 -36.7449 -36.7447 -36.7446 -36.7446 -36.7441
   -36.7434 -36.7424 -36.7412 -36.7410 -36.7409 -36.7404 -36.7399 -36.7392
   -36.5851 -36.5359 -36.5358 -36.5354 -36.5354 -36.5352 -36.5350 -36.5349
   -36.5349 -36.5348 -36.5348 -36.5347 -36.5346 -36.5343 -36.5341 -36.5341
    -6.8081  -6.8074  -6.4985  -6.4978  -6.4977  -6.4973  -6.4168  -6.4161
    -6.2469  -6.2456  -6.0486  -6.0482  -6.0478  -6.0474  -5.9851  -5.9826
    -5.8163  -5.8160  -5.8157  -5.8117  -5.6925  -5.6902  -5.6351  -5.6350
    -5.6349  -5.6320  -5.6265  -5.6225  -5.5888  -5.5878  -5.5081  -5.5071
     4.7431   4.7436   4.7679   4.7693   5.1189   5.1197   5.1315   5.1316
     5.1316   5.1336   5.1409   5.1426   5.7804   5.7833   5.7840   5.7842
     5.7849   5.7873   5.8999   5.9009   6.0058   6.0067   6.0070   6.0087
     6.0214   6.0234   6.1802   6.1821   6.1824   6.1827   6.2835   6.2847
     6.3761   6.3765   6.3767   6.3831   6.7494   6.7494   6.8870   6.8905
     7.0142   7.0147   7.0149   7.0150   7.0584   7.0586   7.5423   7.5430
     7.6446   7.6450   7.6923   7.6926   7.6927   7.6965   8.0365   8.0367
     8.0374   8.0377   8.1536   8.1541   8.5763   8.5770   8.5774   8.5783
     8.6285   8.6286   8.6735   8.6744   8.8366   8.8389   8.8666   8.8689
     8.9243   8.9247   8.9257   8.9257   9.1401   9.1416   9.2900   9.2913
     9.3375   9.3386   9.3608   9.3609   9.7048   9.7050   9.7053   9.7066
     9.9018   9.9025  10.3522  10.3530  10.3533  10.3534  10.6309  10.6313
    11.3421  11.3425  11.5693  11.5696  11.5700  11.5721  11.7906  11.7907
    11.8106  11.8107  12.0676  12.0687  12.1986  12.1988  12.2000  12.2012
    12.2388  12.2416  12.2956  12.2984  12.3187  12.3188  12.3196  12.3233
    12.4616  12.4619  12.6504  12.6511  12.6512  12.6516  12.7209  12.7214
    13.0675  13.0682  13.1662  13.1670  13.3025  13.3025  13.3027  13.3030
    13.3751  13.3754  13.6400  13.6403  13.6404  13.6405  14.0382  14.0384
    15.5020  15.5021  15.5026  15.5027  15.5686  15.5687  15.9032  15.9034
    15.9036  15.9037  15.9231  15.9231  16.1066  16.1068  16.4666  16.4672
    16.5737  16.5739  16.5827  16.5830  16.8988  16.8995  16.8998  16.8999
    17.1856  17.1859  17.7975  17.7990  17.7990  17.7993  17.8808  17.8813
    20.0014  20.0030  21.1219  21.1235  21.1238  21.1243  21.9022  21.9035
    22.6454  22.6473  22.6474  22.6479  23.0146  23.0167  23.0978  23.0993
    23.1050  23.1554  23.1555  23.1561  23.1563  23.1563  23.1564  23.1565
    23.1566  23.1566  23.1567  23.1569  23.1569  23.1571  23.1592  23.1600
    23.7418  23.7445  23.8719  23.8732  23.8827  23.8833  24.1242  24.1260
    24.1264  24.1266  24.5246  24.5294  24.5298  24.5301  24.7048  24.7066
    25.4698  25.4712  25.8060  25.8068  25.8080  25.8081  26.0617  26.0626
    26.1383  26.1385  26.6043  26.6049  26.6056  26.6058  26.8566  26.8583
    27.4337  27.4353  27.5910  27.5915  27.8051  27.8062  27.8064  27.8069
    28.0779  28.0781  28.1649  28.1651  28.1664  28.1670  28.2828  28.2836
    28.5165  28.5181  28.6370  28.6379  28.6496  28.6498  28.6504  28.6505
    28.9677  28.9689  29.5726  29.5726  29.5741  29.5742  29.7006  29.7028
    29.9192  29.9203  30.7047  30.7075  30.7075  30.7079  32.0107  32.0115
    32.0278  32.0299  32.0300  32.0302  32.6928  32.6930  33.1263  33.1265
    33.1269  33.1275  33.3655  33.3674  33.4460  33.4486  33.5153  33.5155
    34.4379  34.4384  34.4384  34.4396  34.6320  34.6322  35.0791  35.0800
    35.3163  35.3169  35.6601  35.6602  35.6610  35.6613  35.7242  35.7260
    35.7553  35.7568  35.9428  35.9444  35.9448  35.9453  36.0413  36.0422
    36.3847  36.3851  36.9010  36.9016  36.9020  36.9021  37.0116  37.0121
    37.0124  37.0128  37.0978  37.0981  37.6379  37.6388  38.4945  38.4947
    38.4952  38.4953  38.5737  38.5737  38.6789  38.6804  38.7449  38.7455
    38.7456  38.7460  38.8890  38.8895  39.0004  39.0008  39.0189  39.0190
    39.2393  39.2393  39.2972  39.2982  39.4062  39.4064  39.7145  39.7149
    39.7154  39.7156  39.8659  39.8677  39.9607  39.9610  39.9617  39.9619
    40.3515  40.3521  40.7325  40.7336  40.7350  40.7352  41.2128  41.2133
    41.5774  41.5788  41.9068  41.9071  42.0018  42.0045  42.3925  42.3937
    42.4113  42.4116  42.4123  42.4125  42.5693  42.5704  43.2638  43.2643
    43.2649  43.2649  43.3568  43.3601  43.3603  43.3605  43.5436  43.5442
[...]
    45.8231  45.8235  45.9245  45.9247  46.0806  46.0806  46.0809  46.0809
    46.5110  46.5112  46.5917  46.5924  46.5928  46.5934  46.6700  46.6720
    46.8376  46.8384  47.1299  47.1304  47.1613  47.1622  47.1630  47.1634
    47.3731  47.3761  47.6743  47.6744  47.7987  47.7989  47.8000  47.8000
    48.1583  48.1591  48.3533  48.3547  48.4947  48.4950  48.4958  48.4959
    48.6324  48.6349  48.8320  48.8335  48.9975  48.9989  48.9993  48.9998
    49.2870  49.2899  49.3297  49.3309  49.3315  49.3321  49.6102  49.6102
    49.7446  49.7454  49.8029  49.8032  49.8033  49.8038  49.8519  49.8525
    50.0248  50.0254  50.3319  50.3335  50.3350  50.3351  50.5273  50.5276
    50.6040  50.6056  51.0014  51.0016  51.0018  51.0021  51.0832  51.0846
    51.1459  51.1470  51.1478  51.1478  51.2982  51.2986  51.4709  51.4720
    51.5152  51.5153  51.7249  51.7259  51.7266  51.7269  52.1884  52.1885
    52.1891  52.1894  52.2493  52.2497  52.5476  52.5495  52.6619  52.6638
    52.7674  52.7677  52.8551  52.8559  52.8560  52.8562  53.2097  53.2105
    53.4822  53.4824  53.7321  53.7336  53.7336  53.7339  53.8130  53.8134

     the Fermi energy is    13.5805 ev

!    total energy              =   -4010.17260061 Ry
     Harris-Foulkes estimate   =   -4010.17260153 Ry
     estimated scf accuracy    <       0.00000099 Ry

     The total energy is the sum of the following terms:

     one-electron contribution =    -827.27165894 Ry
     hartree contribution      =     708.72948043 Ry
     xc contribution           =   -1105.23010339 Ry
     ewald contribution        =   -2786.44204143 Ry
     Hubbard energy            =       0.04133575 Ry
     smearing contrib. (-TS)   =       0.00038698 Ry

     total magnetization       =     0.00 Bohr mag/cell
     absolute magnetization    =     0.00 Bohr mag/cell

     convergence has been achieved in   8 iterations

     Writing output data file pwscf.save

     General routines

     Parallel routines
     Hubbard U routines

   This run was terminated on:   9:24:33  11Feb2014

   JOB DONE.