     Program PWSCF v.5.0.2 (svn rev. 9656) starts on 11Feb2014 at  9:28:21

     Current dimensions of program PWSCF are:
     Max number of different atomic species (ntypx) = 10
     Max number of k-points (npk) =  40000
     Max angular momentum in pseudopotentials (lmaxx) =  3
     Reading input from alpha_0.15/alpha_0.15.in
Warning: card &IONS ignored
Warning: card / ignored
Warning: card &CELL ignored
Warning: card / ignored

     Subspace diagonalization in iterative solution of the eigenvalue problem:
     a serial algorithm will be used

     bravais-lattice index     =            0
     lattice parameter (alat)  =      17.1587  a.u.
     unit-cell volume          =    3538.5507 (a.u.)^3
     number of atoms/cell      =           48
     number of atomic types    =            3
     number of electrons       =       432.00
     number of Kohn-Sham states=          624
     kinetic-energy cutoff     =      40.0000  Ry
     charge density cutoff     =     500.0000  Ry
     convergence threshold     =      1.0E-06
     mixing beta               =       0.7000
     number of iterations used =            8  plain     mixing
     Exchange-correlation      = SLA  PW   PBE  PBE ( 1 4 3 4 0)
     EXX-fraction              =        0.00

     celldm(1)=  17.158713  celldm(2)=   0.000000  celldm(3)=   0.000000
     celldm(4)=   0.000000  celldm(5)=   0.000000  celldm(6)=   0.000000

     crystal axes: (cart. coord. in units of alat)
               a(1) = (   1.000000   0.000000   0.000000 )
               a(2) = (   0.000000   1.000000   0.000000 )
               a(3) = (   0.000000   0.000000   0.700441 )

     reciprocal axes: (cart. coord. in units 2 pi/alat)
               b(1) = (  1.000000  0.000000  0.000000 )
               b(2) = (  0.000000  1.000000  0.000000 )
               b(3) = (  0.000000  0.000000  1.427673 )

     PseudoPot. # 1 for Ir read from file:
     /home/camp/zhonxu/pseudo/ir_pbe_v1.uspp.F.UPF
     MD5 check sum: abf987a9674477536ede83817f8f8b70
     Pseudo is Ultrasoft + core correction, Zval = 15.0
     Generated by new atomic code, or converted to UPF format
     Using radial grid of  983 points,  7 beta functions with:
                l(1) =   0
                l(2) =   0
                l(3) =   1
                l(4) =   1
                l(5) =   1
                l(6) =   2
                l(7) =   2
     Q(r) pseudized with  8 coefficients,  rinner =    1.350   1.350   1.350
                                                       1.350   1.350

     PseudoPot. # 2 for Ir read from file:
     /home/camp/zhonxu/pseudo/ir_pbe_v1.uspp.F.UPF
     MD5 check sum: abf987a9674477536ede83817f8f8b70
     Pseudo is Ultrasoft + core correction, Zval = 15.0
     Generated by new atomic code, or converted to UPF format
     Using radial grid of  983 points,  7 beta functions with:
                l(1) =   0
                l(2) =   0
                l(3) =   1
                l(4) =   1
                l(5) =   1
                l(6) =   2
                l(7) =   2
     Q(r) pseudized with  8 coefficients,  rinner =    1.350   1.350   1.350
                                                       1.350   1.350

     PseudoPot. # 3 for O  read from file:
     /home/camp/zhonxu/pseudo/o_pbe_v1.01.uspp.F.UPF
     MD5 check sum: 2bcb18d16ea4b960afae9ec6d52f22d2
     Pseudo is Ultrasoft + core correction, Zval =  6.0
     Generated by new atomic code, or converted to UPF format
     Using radial grid of  737 points,  5 beta functions with:
                l(1) =   0
                l(2) =   0
                l(3) =   1
                l(4) =   1
                l(5) =   2
     Q(r) pseudized with  8 coefficients,  rinner =    0.900   0.900   0.900
                                                       0.900   0.900

     atomic species   valence    mass     pseudopotential
        Ir0           15.00   192.22000     Ir( 1.00)
        Ir1           15.00   192.22000     Ir( 1.00)
        O2             6.00    15.99940     O ( 1.00)

     Starting magnetic structure
     atomic species   magnetization
        Ir0          0.000
        Ir1          0.000
        O2           0.000

     Simplified LDA+U calculation (l_max = 2) with parameters (eV):
     atomic species    L          U    alpha       J0     beta
        Ir0            2     0.0000   0.1500   0.0000   0.0000
        Ir1            2     0.0000   0.0000   0.0000   0.0000
        O2             1     0.0000   0.0000   0.0000   0.0000

      8 Sym. Ops., with inversion, found

   Cartesian axes

     site n.     atom                  positions (alat units)
         1           Ir0 tau(   1) = (   0.0000000   0.0000000   0.0000000  )
         2           Ir1 tau(   2) = (   0.2500000   0.2500000   0.1751101  )
         3           Ir1 tau(   3) = (   0.0000000   0.0000000   0.3502203  )
         4           Ir1 tau(   4) = (   0.2500000   0.2500000   0.5253304  )
         5           Ir1 tau(   5) = (   0.0000000   0.5000000   0.0000000  )
         6           Ir1 tau(   6) = (   0.2500000   0.7500000   0.1751101  )
         7           Ir1 tau(   7) = (   0.0000000   0.5000000   0.3502203  )
         8           Ir1 tau(   8) = (   0.2500000   0.7500000   0.5253304  )
         9           Ir1 tau(   9) = (   0.5000000   0.0000000   0.0000000  )
        10           Ir1 tau(  10) = (   0.7500000   0.2500000   0.1751101  )
        11           Ir1 tau(  11) = (   0.5000000   0.0000000   0.3502203  )
        12           Ir1 tau(  12) = (   0.7500000   0.2500000   0.5253304  )
        13           Ir1 tau(  13) = (   0.5000000   0.5000000   0.0000000  )
        14           Ir1 tau(  14) = (   0.7500000   0.7500000   0.1751101  )
        15           Ir1 tau(  15) = (   0.5000000   0.5000000   0.3502203  )
        16           Ir1 tau(  16) = (   0.7500000   0.7500000   0.5253304  )
        17           O2  tau(  17) = (   0.1550000   0.1550000   0.0000000  )
        18           O2  tau(  18) = (  -0.1550000  -0.1550000   0.0000000  )
        19           O2  tau(  19) = (   0.4050000   0.0950000   0.1751101  )
        20           O2  tau(  20) = (   0.0950000   0.4050000   0.1751101  )
        21           O2  tau(  21) = (   0.1550000   0.1550000   0.3502203  )
        22           O2  tau(  22) = (  -0.1550000  -0.1550000   0.3502203  )
        23           O2  tau(  23) = (   0.4050000   0.0950000   0.5253304  )
        24           O2  tau(  24) = (   0.0950000   0.4050000   0.5253304  )
        25           O2  tau(  25) = (   0.1550000   0.6550000   0.0000000  )
        26           O2  tau(  26) = (  -0.1550000   0.3450000   0.0000000  )
        27           O2  tau(  27) = (   0.4050000   0.5950000   0.1751101  )
        28           O2  tau(  28) = (   0.0950000   0.9050000   0.1751101  )
        29           O2  tau(  29) = (   0.1550000   0.6550000   0.3502203  )
        30           O2  tau(  30) = (  -0.1550000   0.3450000   0.3502203  )
        31           O2  tau(  31) = (   0.4050000   0.5950000   0.5253304  )
        32           O2  tau(  32) = (   0.0950000   0.9050000   0.5253304  )
        33           O2  tau(  33) = (   0.6550000   0.1550000   0.0000000  )
        34           O2  tau(  34) = (   0.3450000  -0.1550000   0.0000000  )
        35           O2  tau(  35) = (   0.9050000   0.0950000   0.1751101  )
        36           O2  tau(  36) = (   0.5950000   0.4050000   0.1751101  )
        37           O2  tau(  37) = (   0.6550000   0.1550000   0.3502203  )
        38           O2  tau(  38) = (   0.3450000  -0.1550000   0.3502203  )
        39           O2  tau(  39) = (   0.9050000   0.0950000   0.5253304  )
        40           O2  tau(  40) = (   0.5950000   0.4050000   0.5253304  )
        41           O2  tau(  41) = (   0.6550000   0.6550000   0.0000000  )
        42           O2  tau(  42) = (   0.3450000   0.3450000   0.0000000  )
        43           O2  tau(  43) = (   0.9050000   0.5950000   0.1751101  )
        44           O2  tau(  44) = (   0.5950000   0.9050000   0.1751101  )
        45           O2  tau(  45) = (   0.6550000   0.6550000   0.3502203  )
        46           O2  tau(  46) = (   0.3450000   0.3450000   0.3502203  )
        47           O2  tau(  47) = (   0.9050000   0.5950000   0.5253304  )
        48           O2  tau(  48) = (   0.5950000   0.9050000   0.5253304  )

     number of k points=    42  Methfessel-Paxton smearing, width (Ry)=  0.0100
                       cart. coord. in units 2pi/alat
        k(    1) = (   0.0000000   0.0000000   0.0000000), wk =   0.0156250
        k(    2) = (   0.0000000   0.0000000   0.3569182), wk =   0.0312500
        k(    3) = (   0.0000000   0.0000000  -0.7138365), wk =   0.0156250
        k(    4) = (   0.0000000   0.2500000   0.0000000), wk =   0.0625000
        k(    5) = (   0.0000000   0.2500000   0.3569182), wk =   0.1250000
        k(    6) = (   0.0000000   0.2500000  -0.7138365), wk =   0.0625000
        k(    7) = (   0.0000000  -0.5000000   0.0000000), wk =   0.0312500
        k(    8) = (   0.0000000  -0.5000000   0.3569182), wk =   0.0625000
        k(    9) = (   0.0000000  -0.5000000  -0.7138365), wk =   0.0312500
        k(   10) = (   0.2500000   0.2500000   0.0000000), wk =   0.0312500
        k(   11) = (   0.2500000   0.2500000   0.3569182), wk =   0.0625000
        k(   12) = (   0.2500000   0.2500000  -0.7138365), wk =   0.0312500
        k(   13) = (   0.2500000  -0.5000000   0.0000000), wk =   0.0625000
        k(   14) = (   0.2500000  -0.5000000   0.3569182), wk =   0.1250000
        k(   15) = (   0.2500000  -0.5000000  -0.7138365), wk =   0.0625000
        k(   16) = (  -0.5000000  -0.5000000   0.0000000), wk =   0.0156250
        k(   17) = (  -0.5000000  -0.5000000   0.3569182), wk =   0.0312500
        k(   18) = (  -0.5000000  -0.5000000  -0.7138365), wk =   0.0156250
        k(   19) = (  -0.2500000   0.2500000   0.0000000), wk =   0.0312500
        k(   20) = (  -0.2500000   0.2500000  -0.3569182), wk =   0.0625000
        k(   21) = (  -0.2500000   0.2500000   0.7138365), wk =   0.0312500
        k(   22) = (   0.0000000   0.0000000   0.0000000), wk =   0.0156250
        k(   23) = (   0.0000000   0.0000000   0.3569182), wk =   0.0312500
        k(   24) = (   0.0000000   0.0000000  -0.7138365), wk =   0.0156250
        k(   25) = (   0.0000000   0.2500000   0.0000000), wk =   0.0625000
        k(   26) = (   0.0000000   0.2500000   0.3569182), wk =   0.1250000
        k(   27) = (   0.0000000   0.2500000  -0.7138365), wk =   0.0625000
        k(   28) = (   0.0000000  -0.5000000   0.0000000), wk =   0.0312500
        k(   29) = (   0.0000000  -0.5000000   0.3569182), wk =   0.0625000
        k(   30) = (   0.0000000  -0.5000000  -0.7138365), wk =   0.0312500
        k(   31) = (   0.2500000   0.2500000   0.0000000), wk =   0.0312500
        k(   32) = (   0.2500000   0.2500000   0.3569182), wk =   0.0625000
        k(   33) = (   0.2500000   0.2500000  -0.7138365), wk =   0.0312500
        k(   34) = (   0.2500000  -0.5000000   0.0000000), wk =   0.0625000
        k(   35) = (   0.2500000  -0.5000000   0.3569182), wk =   0.1250000
[...]
    eigenvectors:
  0.000  1.000  0.000
  0.500  0.000  0.500
  0.500  0.000  0.500
    occupations:
  0.884 -0.000 -0.000
 -0.000  0.900 -0.021
 -0.000 -0.021  0.900
   spin  2
    eigenvalues:
  0.879  0.884  0.921
    eigenvectors:
  0.000  1.000  0.000
  0.500  0.000  0.500
  0.500  0.000  0.500
    occupations:
  0.884 -0.000 -0.000
 -0.000  0.900 -0.021
 -0.000 -0.021  0.900
atomic mag. moment =     0.000000
atom   42   Tr[ns(na)] (up, down, total) =   2.68356  2.68356  5.36713
   spin  1
    eigenvalues:
  0.879  0.884  0.921
    eigenvectors:
  0.000  1.000  0.000
  0.500  0.000  0.500
  0.500  0.000  0.500
    occupations:
  0.884 -0.000 -0.000
 -0.000  0.900 -0.021
 -0.000 -0.021  0.900
   spin  2
    eigenvalues:
  0.879  0.884  0.921
    eigenvectors:
  0.000  1.000  0.000
  0.500  0.000  0.500
  0.500  0.000  0.500
    occupations:
  0.884 -0.000 -0.000
 -0.000  0.900 -0.021
 -0.000 -0.021  0.900
atomic mag. moment =     0.000000
atom   43   Tr[ns(na)] (up, down, total) =   2.68358  2.68358  5.36717
   spin  1
    eigenvalues:
  0.879  0.884  0.921
    eigenvectors:
  0.000  1.000  0.000
  0.500  0.000  0.500
  0.500  0.000  0.500
    occupations:
  0.884  0.000  0.000
  0.000  0.900  0.021
  0.000  0.021  0.900
   spin  2
    eigenvalues:
  0.879  0.884  0.921
    eigenvectors:
  0.000  1.000  0.000
  0.500  0.000  0.500
  0.500  0.000  0.500
    occupations:
  0.884  0.000  0.000
  0.000  0.900  0.021
  0.000  0.021  0.900
atomic mag. moment =    -0.000000
atom   44   Tr[ns(na)] (up, down, total) =   2.68358  2.68358  5.36717
   spin  1
    eigenvalues:
  0.879  0.884  0.921
    eigenvectors:
  0.000  1.000  0.000
  0.500  0.000  0.500
  0.500  0.000  0.500
    occupations:
  0.884  0.000  0.000
  0.000  0.900  0.021
  0.000  0.021  0.900
   spin  2
    eigenvalues:
  0.879  0.884  0.921
    eigenvectors:
  0.000  1.000  0.000
  0.500  0.000  0.500
  0.500  0.000  0.500
    occupations:
  0.884  0.000  0.000
  0.000  0.900  0.021
  0.000  0.021  0.900
atomic mag. moment =    -0.000000
atom   45   Tr[ns(na)] (up, down, total) =   2.68355  2.68355  5.36710
   spin  1
    eigenvalues:
  0.879  0.884  0.921
    eigenvectors:
  0.000  1.000  0.000
  0.500  0.000  0.500
  0.500  0.000  0.500
    occupations:
  0.884 -0.000 -0.000
 -0.000  0.900 -0.021
 -0.000 -0.021  0.900
   spin  2
    eigenvalues:
  0.879  0.884  0.921
    eigenvectors:
  0.000  1.000  0.000
  0.500  0.000  0.500
  0.500  0.000  0.500
    occupations:
  0.884 -0.000 -0.000
 -0.000  0.900 -0.021
 -0.000 -0.021  0.900
atomic mag. moment =     0.000000
atom   46   Tr[ns(na)] (up, down, total) =   2.68355  2.68355  5.36710
   spin  1
    eigenvalues:
  0.879  0.884  0.921
    eigenvectors:
  0.000  1.000  0.000
  0.500  0.000  0.500
  0.500  0.000  0.500
    occupations:
  0.884 -0.000 -0.000
 -0.000  0.900 -0.021
 -0.000 -0.021  0.900
   spin  2
    eigenvalues:
  0.879  0.884  0.921
    eigenvectors:
  0.000  1.000  0.000
  0.500  0.000  0.500
  0.500  0.000  0.500
    occupations:
  0.884 -0.000 -0.000
 -0.000  0.900 -0.021
 -0.000 -0.021  0.900
atomic mag. moment =     0.000000
atom   47   Tr[ns(na)] (up, down, total) =   2.68358  2.68358  5.36717
   spin  1
    eigenvalues:
  0.879  0.884  0.921
    eigenvectors:
  0.000  1.000  0.000
  0.500  0.000  0.500
  0.500  0.000  0.500
    occupations:
  0.884 -0.000 -0.000
 -0.000  0.900  0.021
 -0.000  0.021  0.900
   spin  2
    eigenvalues:
  0.879  0.884  0.921
    eigenvectors:
  0.000  1.000  0.000
  0.500  0.000  0.500
  0.500  0.000  0.500
    occupations:
  0.884 -0.000 -0.000
 -0.000  0.900  0.021
 -0.000  0.021  0.900
atomic mag. moment =    -0.000000
atom   48   Tr[ns(na)] (up, down, total) =   2.68358  2.68358  5.36717
   spin  1
    eigenvalues:
  0.879  0.884  0.921
    eigenvectors:
  0.000  1.000  0.000
  0.500  0.000  0.500
  0.500  0.000  0.500
    occupations:
  0.884 -0.000 -0.000
 -0.000  0.900  0.021
 -0.000  0.021  0.900
   spin  2
    eigenvalues:
  0.879  0.884  0.921
    eigenvectors:
  0.000  1.000  0.000
  0.500  0.000  0.500
  0.500  0.000  0.500
    occupations:
  0.884 -0.000 -0.000
 -0.000  0.900  0.021
 -0.000  0.021  0.900
atomic mag. moment =    -0.000000
N of occupied +U levels = 300.4365360
 --- exit write_ns ---

 ------ SPIN UP ------------

          k = 0.0000 0.0000 0.0000 ( 15109 PWs)   bands (ev):

   -36.8932 -36.8681 -36.8030 -36.8027 -36.8016 -36.7991 -36.7942 -36.7939
   -36.7934 -36.7876 -36.7875 -36.7867 -36.7866 -36.7856 -36.7855 -36.7849
   -36.7814 -36.7791 -36.7790 -36.7783 -36.7729 -36.7727 -36.7702 -36.7702
   -36.7222 -36.6974 -36.6914 -36.6913 -36.6911 -36.6910 -36.6906 -36.6847
   -36.6403 -36.5418 -36.5416 -36.5410 -36.5407 -36.5402 -36.5398 -36.5389
   -36.5333 -36.5267 -36.5266 -36.5265 -36.5264 -36.5263 -36.5255 -36.5253
    -7.4285  -6.7661  -6.7613  -6.6436  -6.6425  -6.6423  -6.6423  -6.2678
    -6.1436  -6.1433  -6.1404  -6.1329  -6.0375  -6.0345  -5.9114  -5.9080
    -5.8470  -5.8405  -5.7481  -5.7418  -5.6233  -5.6221  -5.6207  -5.6205
    -5.5657  -5.5641  -5.5636  -5.5572  -5.3459  -5.3455  -5.2130  -5.2126
     3.9818   4.1159   4.1200   4.2326   5.1677   5.1680   5.1688   5.1774
     5.3460   5.3486   5.3490   5.3593   5.4957   5.5009   5.5225   5.5226
     5.6696   5.6738   5.7498   5.7544   5.8561   5.8570   5.8574   5.8690
     5.9515   5.9607   5.9660   5.9879   5.9880   5.9911   5.9918   6.3219
     6.3258   6.3962   6.3973   6.7825   6.7910   7.0735   7.0751   7.0754
     7.0785   7.5582   7.5590   7.5603   7.5612   7.5901   7.5901   7.5905
     7.6021   7.9972   8.0002   8.0243   8.0270   8.2389   8.2399   8.2429
     8.2434   8.2842   8.2911   8.4833   8.4839   8.4841   8.4902   8.5258
     8.5285   8.5289   8.5340   8.5439   8.5796   8.5811   8.5819   8.5825
     8.7930   8.7937   9.3276   9.3289   9.4190   9.4233   9.6445   9.6460
    10.0384  10.1059  10.1061  10.3132  10.3132  10.3143  10.3144  10.3573
    10.3586  10.5086  10.5091  10.5093  10.5100  10.7247  10.7249  10.8995
    10.8995  10.9038  10.9087  11.0816  11.1828  11.1880  11.2215  11.2306
    11.2348  11.2661  11.2718  11.4347  11.4990  11.7161  11.7209  11.8012
    11.8049  11.8294  11.8301  11.8305  11.8415  12.0161  12.0172  12.0177
    12.0243  12.2595  12.2603  12.2605  12.2659  12.3444  12.3471  12.8467
    12.8483  13.1589  13.1600  13.3012  13.3016  13.3017  13.3031  13.7735
    13.7743  13.8459  13.8468  14.1020  14.1021  14.1021  14.1022  14.2401
    14.6617  14.6618  14.6623  14.6641  14.7583  15.7979  15.7987  15.8441
    15.8443  15.9493  15.9514  16.1909  16.1914  16.6245  16.6252  17.0453
    17.0471  17.0474  17.0476  17.1893  17.1912  17.1922  17.1927  17.6607
    17.7136  17.7149  17.7274  17.7285  17.9914  17.9939  17.9941  17.9945
    19.0882  20.5838  20.5863  20.5873  20.5884  22.0928  22.0944  22.2205
    22.2215  22.6149  22.6174  22.7938  22.7962  22.8786  22.8803  22.9737
    22.9742  22.9746  22.9762  23.0473  23.1535  23.1535  23.1566  23.1568
    23.1569  23.1572  23.1574  23.1577  23.1577  23.1580  23.1581  23.1583
    23.1585  23.1589  23.1592  23.3048  23.3086  23.4701  23.4714  23.4740
    23.4751  23.8910  23.8983  23.8983  23.8984  25.1482  25.1500  25.2135
    25.7893  25.7900  25.8518  25.8531  25.8763  25.8784  26.2884  26.2890
    26.5753  26.6947  26.6978  26.6982  26.6985  26.8528  26.8738  26.8739
    26.8750  26.8757  27.4237  27.4240  27.4257  27.4264  27.5686  27.5699
    27.8752  27.8789  28.4204  28.4222  28.4228  28.4231  28.6480  28.6487
    28.8778  28.9070  28.9080  28.9108  28.9118  28.9289  29.8822  29.9350
    29.9367  30.1972  30.1991  30.3884  30.3918  30.3939  30.3950  31.0084
    31.0096  31.0109  31.0110  31.1556  31.1568  31.1576  31.1584  31.1597
    31.1614  31.5903  31.5943  31.9655  32.2822  32.2829  32.4867  32.4915
    32.4918  32.4925  32.8330  32.8341  32.8716  32.8731  33.6474  33.6490
    33.6497  33.6523  34.4010  34.4041  34.4115  34.4157  34.4914  34.4928
    34.9054  34.9056  35.1709  35.1735  35.4334  35.4350  35.4362  35.4378
    35.6108  35.6144  35.9427  35.9429  36.2583  36.2586  36.4692  36.4710
    36.4713  36.4737  36.5274  36.9243  36.9273  37.4442  37.4471  37.4494
    37.4496  37.8257  37.8288  37.9153  37.9175  37.9189  37.9190  38.3837
    38.3857  38.3858  38.3881  38.5669  38.5699  38.8062  38.8069  38.8307
    38.8308  38.8324  38.8334  39.5892  39.5901  39.5906  39.6292  39.6326
    39.6484  39.6495  39.6497  39.6513  39.6699  39.7316  39.7333  40.1746
    40.1748  40.1751  40.1762  40.2145  40.2170  40.2719  40.2736  40.3962
    40.3985  40.4000  40.4008  40.4124  40.4127  40.5946  41.0569  41.5282
    41.6475  41.7908  41.7925  41.8380  41.8382  42.0806  42.0842  42.6026
    42.6038  42.6521  42.6533  42.6537  42.6543  42.6555  42.6586  42.6593
    42.6593  43.3590  43.3601  43.6947  43.6950  43.6976  43.6980  43.7626
[...]
    45.3101  45.6726  45.6780  45.6782  45.6797  45.9530  45.9556  46.0023
    46.0030  46.1782  46.1803  46.3101  46.8248  46.8281  47.3183  47.3193
    47.3423  47.3468  47.3471  47.3487  47.4930  47.4937  47.4965  47.4972
    47.7083  47.7133  47.7142  47.7155  47.7396  47.7404  47.7414  47.7414
    48.0112  48.0639  48.0648  48.0922  48.0945  48.1648  48.1693  48.3254
    48.3283  48.5677  48.5757  48.5757  48.5764  48.8186  48.8236  48.8240
    48.8248  48.8528  48.8537  48.9768  48.9883  48.9903  49.0136  49.0183
    49.2153  49.2160  49.2164  49.2169  49.5443  49.5462  49.5532  49.5540
    49.7830  49.7840  50.0104  50.0125  50.2284  50.2284  50.2329  50.2330
    50.5387  50.5404  50.7132  50.7134  50.7377  50.7388  50.8624  50.8692
    50.8699  50.8710  50.9168  50.9173  50.9187  50.9192  51.2331  51.7290
    51.8954  51.8977  51.9020  51.9075  52.0760  52.0769  52.2726  52.2755
    52.2763  52.2770  52.5419  52.5421  52.7422  52.7427  52.7430  52.7435
    52.9967  52.9974  53.0354  53.0369  53.0376  53.0385  53.0424  53.0440
    53.3758  53.3762  53.5036  53.5052  53.5054  53.5055  53.5184  53.5184

[...]

          k =-0.5000-0.5000 0.0000 ( 15136 PWs)   bands (ev):

[...]

 ------ SPIN DOWN ----------

[...]

          k = 0.2500-0.5000-0.7138 ( 15100 PWs)   bands (ev):

[...]

          k =-0.2500 0.2500 0.7138 ( 15148 PWs)   bands (ev):

   -36.8929 -36.8470 -36.7853 -36.7851 -36.7848 -36.7841 -36.7841 -36.7840
   -36.7840 -36.7839 -36.7837 -36.7835 -36.7834 -36.7834 -36.7834 -36.7830
   -36.7813 -36.7466 -36.7460 -36.7433 -36.7432 -36.7431 -36.7431 -36.7431
   -36.7417 -36.7413 -36.7398 -36.7395 -36.7394 -36.7391 -36.7382 -36.7380
   -36.6398 -36.5342 -36.5342 -36.5341 -36.5338 -36.5337 -36.5337 -36.5335
   -36.5335 -36.5334 -36.5334 -36.5332 -36.5330 -36.5330 -36.5322 -36.5322
    -6.8075  -6.8058  -6.4981  -6.4967  -6.4965  -6.4957  -6.4148  -6.4137
    -6.2458  -6.2430  -6.0484  -6.0469  -6.0458  -6.0456  -5.9837  -5.9786
    -5.8149  -5.8142  -5.8137  -5.8056  -5.6912  -5.6867  -5.6338  -5.6336
    -5.6335  -5.6292  -5.6252  -5.6139  -5.5884  -5.5858  -5.5076  -5.5052
     4.7448   4.7458   4.7696   4.7725   5.1200   5.1217   5.1329   5.1330
     5.1332   5.1365   5.1431   5.1480   5.7817   5.7852   5.7857   5.7859
     5.7888   5.7922   5.9016   5.9039   6.0074   6.0095   6.0095   6.0135
     6.0231   6.0273   6.1791   6.1838   6.1840   6.1855   6.2858   6.2884
     6.3774   6.3782   6.3782   6.3920   6.7508   6.7511   6.8885   6.8959
     7.0158   7.0166   7.0171   7.0172   7.0604   7.0608   7.5431   7.5449
     7.6456   7.6466   7.6935   7.6939   7.6943   7.7023   8.0376   8.0382
     8.0398   8.0406   8.1557   8.1568   8.5766   8.5782   8.5787   8.5809
     8.6298   8.6299   8.6745   8.6766   8.8386   8.8437   8.8687   8.8739
     8.9253   8.9262   8.9284   8.9285   9.1407   9.1443   9.2907   9.2936
     9.3379   9.3404   9.3622   9.3625   9.7059   9.7062   9.7070   9.7098
     9.9025   9.9043  10.3528  10.3551  10.3555  10.3555  10.6324  10.6333
    11.3443  11.3453  11.5706  11.5712  11.5718  11.5767  11.7920  11.7923
    11.8120  11.8123  12.0690  12.0719  12.1998  12.2003  12.2028  12.2047
    12.2397  12.2463  12.2966  12.3026  12.3198  12.3200  12.3218  12.3319
    12.4627  12.4634  12.6512  12.6528  12.6528  12.6537  12.7219  12.7231
    13.0690  13.0709  13.1677  13.1699  13.3037  13.3039  13.3042  13.3050
    13.3763  13.3771  13.6415  13.6417  13.6418  13.6423  14.0396  14.0399
    15.5027  15.5033  15.5043  15.5043  15.5700  15.5700  15.9039  15.9050
    15.9051  15.9051  15.9241  15.9247  16.1075  16.1083  16.4678  16.4686
    16.5746  16.5753  16.5839  16.5844  16.8990  16.9006  16.9013  16.9014
    17.1865  17.1872  17.7969  17.8003  17.8006  17.8007  17.8815  17.8825
    20.0009  20.0042  21.1208  21.1242  21.1249  21.1259  21.9016  21.9045
    22.6442  22.6481  22.6483  22.6493  23.0130  23.0177  23.0490  23.0977
    23.1008  23.1570  23.1575  23.1576  23.1576  23.1576  23.1577  23.1578
    23.1580  23.1580  23.1583  23.1583  23.1586  23.1586  23.1609  23.1613
    23.7400  23.7456  23.8715  23.8742  23.8829  23.8842  24.1229  24.1268
    24.1273  24.1278  24.5199  24.5299  24.5311  24.5314  24.7043  24.7077
    25.4694  25.4721  25.8047  25.8066  25.8090  25.8092  26.0614  26.0632
    26.1384  26.1388  26.6037  26.6049  26.6065  26.6067  26.8559  26.8595
    27.4329  27.4363  27.5905  27.5917  27.8040  27.8064  27.8069  27.8080
    28.0779  28.0783  28.1637  28.1642  28.1669  28.1681  28.2824  28.2840
    28.5154  28.5186  28.6364  28.6384  28.6494  28.6502  28.6512  28.6514
    28.9675  28.9701  29.5715  29.5716  29.5748  29.5752  29.6992  29.7036
    29.9189  29.9211  30.7019  30.7077  30.7078  30.7089  32.0105  32.0121
    32.0258  32.0304  32.0308  32.0309  32.6926  32.6931  33.1257  33.1262
    33.1269  33.1284  33.3641  33.3681  33.4443  33.4496  33.5153  33.5156
    34.4370  34.4381  34.4383  34.4407  34.6316  34.6319  35.0781  35.0799
    35.3163  35.3176  35.6595  35.6598  35.6615  35.6621  35.7232  35.7270
    35.7548  35.7578  35.9409  35.9442  35.9452  35.9461  36.0410  36.0427
    36.3842  36.3851  36.9004  36.9016  36.9024  36.9027  37.0110  37.0120
    37.0126  37.0134  37.0976  37.0981  37.6377  37.6394  38.4941  38.4945
    38.4957  38.4958  38.5734  38.5734  38.6781  38.6813  38.7443  38.7455
    38.7458  38.7467  38.8883  38.8894  39.0000  39.0008  39.0192  39.0194
    39.2394  39.2395  39.2965  39.2984  39.4064  39.4068  39.7136  39.7144
    39.7155  39.7159  39.8649  39.8684  39.9601  39.9608  39.9622  39.9626
    40.3514  40.3527  40.7305  40.7327  40.7355  40.7360  41.2128  41.2137
    41.5768  41.5796  41.9068  41.9074  42.0000  42.0055  42.3917  42.3942
    42.4107  42.4114  42.4128  42.4133  42.5686  42.5710  43.2632  43.2644
    43.2656  43.2658  43.3536  43.3607  43.3610  43.3613  43.5434  43.5448
[...]
    45.8232  45.8241  45.9247  45.9251  46.0806  46.0806  46.0812  46.0812
    46.5106  46.5111  46.5906  46.5921  46.5930  46.5944  46.6686  46.6727
    46.8373  46.8389  47.1293  47.1305  47.1599  47.1618  47.1635  47.1642
    47.3710  47.3772  47.6741  47.6744  47.7980  47.7986  47.8007  47.8010
    48.1581  48.1598  48.3526  48.3555  48.4940  48.4947  48.4963  48.4965
    48.6309  48.6360  48.8307  48.8339  48.9960  48.9991  48.9997  49.0008
    49.2846  49.2908  49.3284  49.3306  49.3320  49.3333  49.6111  49.6111
    49.7439  49.7455  49.8023  49.8029  49.8032  49.8041  49.8516  49.8528
    50.0243  50.0257  50.3293  50.3326  50.3359  50.3359  50.5277  50.5284
    50.6028  50.6061  51.0011  51.0015  51.0021  51.0025  51.0822  51.0851
    51.1444  51.1468  51.1484  51.1485  51.2977  51.2985  51.4703  51.4724
    51.5150  51.5154  51.7234  51.7256  51.7272  51.7279  52.1876  52.1879
    52.1889  52.1897  52.2492  52.2502  52.5465  52.5503  52.6605  52.6644
    52.7678  52.7685  52.8542  52.8558  52.8561  52.8565  53.2091  53.2108
    53.4820  53.4824  53.7309  53.7340  53.7340  53.7345  53.8127  53.8134

     the Fermi energy is    13.5821 ev

!    total energy              =   -4010.12539453 Ry
     Harris-Foulkes estimate   =   -4010.12539533 Ry
     estimated scf accuracy    <       0.00000087 Ry

     The total energy is the sum of the following terms:

     one-electron contribution =    -827.26325102 Ry
     hartree contribution      =     708.72112620 Ry
     xc contribution           =   -1105.23006982 Ry
     ewald contribution        =   -2786.44204143 Ry
     Hubbard energy            =       0.08845489 Ry
     smearing contrib. (-TS)   =       0.00038665 Ry

     total magnetization       =     0.00 Bohr mag/cell
     absolute magnetization    =     0.00 Bohr mag/cell

     convergence has been achieved in  10 iterations

     Writing output data file pwscf.save

     General routines

     Parallel routines
     Hubbard U routines

   This run was terminated on:  15:35:52  11Feb2014

   JOB DONE.