     Program PWSCF v.5.0.2 (svn rev. 9656) starts on  1Apr2014 at  9: 8: 4

     Current dimensions of program PWSCF are:
     Max number of different atomic species (ntypx) = 10
     Max number of k-points (npk) =  40000
     Max angular momentum in pseudopotentials (lmaxx) =  3
     Reading input from pwscf.in
Warning: card &CELL ignored
Warning: card / ignored

     Subspace diagonalization in iterative solution of the eigenvalue problem:
     a serial algorithm will be used

     bravais-lattice index     =            0
     lattice parameter (alat)  =      10.3179  a.u.
     unit-cell volume          =    6964.3238 (a.u.)^3
     number of atoms/cell      =           32
     number of atomic types    =            3
     number of electrons       =       231.00
     number of Kohn-Sham states=          346
     kinetic-energy cutoff     =      40.0000  Ry
     charge density cutoff     =     500.0000  Ry
     convergence threshold     =      1.0E-06
     mixing beta               =       0.7000
     number of iterations used =            8  plain     mixing
     Exchange-correlation      = SLA  PW   PBE  PBE ( 1 4 3 4 0)
     EXX-fraction              =        0.00
     nstep                     =           50

     celldm(1)=  10.317905  celldm(2)=   0.000000  celldm(3)=   0.000000
     celldm(4)=   0.000000  celldm(5)=   0.000000  celldm(6)=   0.000000

     crystal axes: (cart. coord. in units of alat)
               a(1) = (   1.000000   0.000000   0.000000 )
               a(2) = (   0.000000   1.282117   0.000000 )
               a(3) = (   0.000000   0.000000   4.945120 )

     reciprocal axes: (cart. coord. in units 2 pi/alat)
               b(1) = (  1.000000  0.000000  0.000000 )
               b(2) = (  0.000000  0.779960  0.000000 )
               b(3) = (  0.000000  0.000000  0.202220 )

     PseudoPot. # 1 for O  read from file:
     /home/camp/zhonxu/pseudo/o_pbe_v1.01.uspp.F.UPF
     MD5 check sum: 2bcb18d16ea4b960afae9ec6d52f22d2
     Pseudo is Ultrasoft + core correction, Zval =  6.0
     Generated by new atomic code, or converted to UPF format
     Using radial grid of  737 points,  5 beta functions with:
                l(1) =   0
                l(2) =   0
                l(3) =   1
                l(4) =   1
                l(5) =   2
     Q(r) pseudized with  8 coefficients,  rinner =    0.900   0.900   0.900
                                                       0.900   0.900

     PseudoPot. # 2 for Mo read from file:
     /home/camp/zhonxu/pseudo/mo_pbe_v1.uspp.F.UPF
     MD5 check sum: 30c4dcd161f5d35cd49bb5239c51a633
     Pseudo is Ultrasoft + core correction, Zval = 14.0
     Generated by new atomic code, or converted to UPF format
     Using radial grid of  889 points,  6 beta functions with:
                l(1) =   0
                l(2) =   0
                l(3) =   1
                l(4) =   1
                l(5) =   2
                l(6) =   2
     Q(r) pseudized with  6 coefficients,  rinner =    1.000   1.000   1.000
                                                       1.000   1.000

     PseudoPot. # 3 for H  read from file:
     /home/camp/zhonxu/pseudo/h_pbe_v1.uspp.F.UPF
     MD5 check sum: 3408e3ff4ec8b0a4e358431e7e038a48
     Pseudo is Ultrasoft, Zval =  1.0
     Generated by new atomic code, or converted to UPF format
     Using radial grid of  615 points,  2 beta functions with:
                l(1) =   0
                l(2) =   0
     Q(r) pseudized with  8 coefficients,  rinner =    0.700

     atomic species   valence    mass     pseudopotential
        O0             6.00    15.99940     O ( 1.00)
        Mo1           14.00    95.94000     Mo( 1.00)
        H2             1.00     1.00794     H ( 1.00)

     Starting magnetic structure
     atomic species   magnetization
        O0           0.000
        Mo1          0.000
        H2           0.000

     No symmetry found

   Cartesian axes

     site n.     atom                  positions (alat units)
         1           O0  tau(   1) = (   0.0000000   0.0000000   1.8465574  )
         2           O0  tau(   2) = (   0.0000000   0.6410583   1.8808271  )
         3           Mo1 tau(   3) = (   0.2500000   0.6410583   2.1650231  )
         4           Mo1 tau(   4) = (   0.0000000   0.0000000   2.2064633  )
         5           O0  tau(   5) = (   0.2500000   1.0000510   2.1927158  )
         6           O0  tau(   6) = (   0.2500000   0.2820657   2.1921224  )
         7           O0  tau(   7) = (   0.0000000   0.6410583   2.4520379  )
         8           O0  tau(   8) = (   0.0000000   0.0000000   2.5658746  )
         9           Mo1 tau(   9) = (   0.2500000   0.0000000   2.8596642  )
        10           Mo1 tau(  10) = (   0.0000000   0.6410583   2.7884050  )
        11           O0  tau(  11) = (   0.2500000   0.9231240   2.8369661  )
        12           O0  tau(  12) = (   0.2500000   0.3589927   2.8372628  )
        13           O0  tau(  13) = (   0.0000000   0.0000000   3.1104807  )
        14           O0  tau(  14) = (   0.5000000   0.0000000   1.8465574  )
        15           O0  tau(  15) = (   0.5000000   0.6410583   1.8808271  )
        16           Mo1 tau(  16) = (   0.7500000   0.6410583   2.1650231  )
        17           Mo1 tau(  17) = (   0.5000000   0.0000000   2.2064633  )
        18           O0  tau(  18) = (   0.7500000   1.0000510   2.1927158  )
        19           O0  tau(  19) = (   0.7500000   0.2820657   2.1921224  )
        20           O0  tau(  20) = (   0.5000000   0.6410583   2.4520379  )
        21           O0  tau(  21) = (   0.5000000   0.0000000   2.5658746  )
        22           Mo1 tau(  22) = (   0.7500000   0.0000000   2.8596642  )
        23           Mo1 tau(  23) = (   0.5000000   0.6410583   2.7884050  )
        24           O0  tau(  24) = (   0.7500000   0.9231240   2.8369661  )
        25           O0  tau(  25) = (   0.7500000   0.3589927   2.8372628  )
        26           O0  tau(  26) = (   0.5000000   0.0000000   3.1104807  )
        27           H2  tau(  27) = (  -0.0004900   0.7868222   1.7746059  )
        28           H2  tau(  28) = (   0.4995100   0.7868222   1.7746059  )
        29           H2  tau(  29) = (   0.1657500   0.0265270   1.7749026  )
        30           H2  tau(  30) = (   0.6657500   0.0265270   1.7749026  )
        31           O0  tau(  31) = (   0.5140200   0.6414686   3.1469757  )
        32           H2  tau(  32) = (   0.3871300   0.6393660   3.2731752  )

     number of k points=    20  Methfessel-Paxton smearing, width (Ry)=  0.0100
                       cart. coord. in units 2pi/alat
        k(    1) = (   0.0000000   0.0000000   0.0000000), wk =   0.0625000
        k(    2) = (   0.0000000   0.1949901   0.0000000), wk =   0.1250000
        k(    3) = (   0.0000000  -0.3899801   0.0000000), wk =   0.0625000
        k(    4) = (   0.2500000   0.0000000   0.0000000), wk =   0.1250000
        k(    5) = (   0.2500000   0.1949901   0.0000000), wk =   0.1250000
        k(    6) = (   0.2500000  -0.3899801   0.0000000), wk =   0.1250000
        k(    7) = (  -0.5000000   0.0000000   0.0000000), wk =   0.0625000
        k(    8) = (  -0.5000000   0.1949901   0.0000000), wk =   0.1250000
        k(    9) = (  -0.5000000  -0.3899801   0.0000000), wk =   0.0625000
        k(   10) = (  -0.2500000   0.1949901   0.0000000), wk =   0.1250000
        k(   11) = (   0.0000000   0.0000000   0.0000000), wk =   0.0625000
        k(   12) = (   0.0000000   0.1949901   0.0000000), wk =   0.1250000
        k(   13) = (   0.0000000  -0.3899801   0.0000000), wk =   0.0625000
        k(   14) = (   0.2500000   0.0000000   0.0000000), wk =   0.1250000
        k(   15) = (   0.2500000   0.1949901   0.0000000), wk =   0.1250000
        k(   16) = (   0.2500000  -0.3899801   0.0000000), wk =   0.1250000
        k(   17) = (  -0.5000000   0.0000000   0.0000000), wk =   0.0625000
        k(   18) = (  -0.5000000   0.1949901   0.0000000), wk =   0.1250000
        k(   19) = (  -0.5000000  -0.3899801   0.0000000), wk =   0.0625000
        k(   20) = (  -0.2500000   0.1949901   0.0000000), wk =   0.1250000

     Largest allocated arrays     est. size (Mb)     dimensions
     Largest temporary arrays     est. size (Mb)     dimensions

     Check: negative/imaginary core charge=   -0.000003    0.000000

     Initial potential from superposition of free atoms
     Check: negative starting charge=(component1):   -0.001180
     Check: negative starting charge=(component2):   -0.001180

     starting charge  230.99142, renormalised to  231.00000

     negative rho (up, down):  0.118E-02 0.118E-02
     Starting wfc are  185 randomized atomic wfcs

     Self-consistent Calculation

     iteration #  1     ecut=    40.00 Ry     beta=0.70
     Davidson diagonalization with overlap
     ethr =  1.00E-02,  avg # of iterations =  6.3

     negative rho (up, down):  0.163E-02 0.163E-02

     total energy              =   -1728.93595875 Ry
     Harris-Foulkes estimate   =   -1735.65845543 Ry
     estimated scf accuracy    <       8.72329934 Ry

     total magnetization       =    -0.00 Bohr mag/cell
     absolute magnetization    =     0.01 Bohr mag/cell

[...]

     End of self-consistent calculation

 ------ SPIN UP ------------

          k = 0.0000 0.0000 0.0000 ( 29769 PWs)   bands (ev):

   -62.5302 -62.4941 -62.4088 -62.3807 -62.3391 -62.2820 -62.2559 -62.1654
   -37.2259 -36.9365 -36.9097 -36.8747 -36.8613 -36.8299 -36.7588 -36.7359
   -36.6175 -36.6113 -36.5258 -36.4938 -36.4738 -36.4706 -36.4389 -36.4260
   -36.3395 -36.3143 -36.2600 -36.2549 -36.1374 -35.8947 -35.8408 -35.7636
   -20.9407 -20.5991 -20.0722 -19.8651 -19.7538 -19.5443 -19.4941 -19.0864
   -19.0781 -19.0624 -18.9834 -18.8613 -18.8357 -18.7078 -18.6988 -18.6861
   -18.6638 -18.0550 -17.8269  -9.0041  -8.7322  -8.3939  -8.2458  -8.2215
    -7.8475  -7.6130  -7.3933  -7.3038  -7.1502  -6.9837  -6.9442  -6.8804
    -6.8144  -6.6809  -6.5485  -6.3750  -6.2910  -6.2189  -6.1725  -6.1280
    -6.0270  -5.8679  -5.7739  -5.3447  -5.2926  -5.1690  -5.0400  -5.0240
    -4.9112  -4.8584  -4.6905  -4.6555  -4.5674  -4.4817  -4.4438  -4.2377
    -4.1479  -4.1412  -4.0466  -3.9442  -3.8135  -3.6717  -3.6661  -3.4487
    -3.3966  -3.1784  -3.1333  -3.1131  -3.1036  -3.0619  -2.8622  -2.8091
    -2.5981  -2.5849  -2.4705  -2.4261  -2.3457  -2.1086  -1.9485  -0.5737
    -0.3429  -0.1555   0.0731   0.2324   0.2729   0.5114   0.5976   0.7226
     0.7582   1.0940   1.1443   1.3103   1.4483   1.5103   1.9097   2.0054
     2.6368   2.8407   2.9561   3.0302   3.0380   3.1215   3.4180   3.7904
     3.8665   4.0839   4.2011   4.2041   4.3686   4.4623   4.4987   4.6050
     4.7018   4.7760   4.8682   5.0393   5.1412   5.1894   5.2514   5.7214
     5.9361   6.1555   6.3329   6.6803   6.9627   7.1517   7.4433   7.5853
     7.6106   7.7039   7.8193   7.8524   7.9843   8.0782   8.2658   8.5721
     8.6730   8.7252   8.8490   8.9120   9.1572   9.1924   9.2378   9.3552
     9.4674   9.5735   9.6510   9.6601   9.7491   9.8048   9.8231   9.9193
     9.9875  10.0638  10.1494  10.3155  10.3765  10.4330  10.5934  10.6640
[...]
O0       0.750000000   0.720000000   0.573051667    0   0   1
O0       0.750000000   0.280000000   0.573109493    0   0   1
O0       0.500000000   0.000000000   0.628839684    0   0   1
H2      -0.000509327   0.613696627   0.358863437
H2       0.499520065   0.613725673   0.358863754
H2       0.165924514   0.020641183   0.358925812
H2       0.665816550   0.020657856   0.358925278
O0       0.513987486   0.500315646   0.636365204
H2       0.387151493   0.498656241   0.661893870

     Check: negative starting charge=(component1):   -0.002360
     NEW-OLD atomic charge density approx. for the potential

     Check: negative/imaginary core charge=   -0.000003    0.000000
     Check: negative starting charge=(component1):   -0.002397

[...]

     iteration #  1     ecut=    40.00 Ry     beta=0.70
     Davidson diagonalization with overlap
     c_bands:  1 eigenvalues not converged
     c_bands:  1 eigenvalues not converged
     ethr =  1.00E-06,  avg # of iterations =  6.8

[...]

     energy   old            =   -1733.6692810855 Ry
     energy   new            =   -1733.6871193988 Ry

     CASE: energy  _new < energy  _old

[...]

     Threshold (ethr) on eigenvalues was too large:
     Diagonalizing with lowered threshold

     Davidson diagonalization with overlap
     ethr =  8.15E-08,  avg # of iterations =  2.0

[...]

     Total force =     0.003430     Total SCF correction =     0.000362
     SCF correction compared to forces is large: reduce conv_thr to get better values

[...]

     Total force =     0.002689     Total SCF correction =     0.000210

[...]

     number of scf cycles    =  24
     number of bfgs steps    =  23

     energy   old            =   -1733.7044059668 Ry
     energy   new            =   -1733.7044173370 Ry

     CASE: energy  _new < energy  _old

     new trust radius        =       0.0076351090 bohr
     new conv_thr            =       0.0000000100 Ry

ATOMIC_POSITIONS (crystal)
O0       0.000000000   0.000000000   0.371319179    0   0   1
O0       0.000000000   0.500000000   0.382864062    0   0   1
Mo1      0.250000000   0.500000000   0.440581646    0   0   1
Mo1      0.000000000   0.000000000   0.443723368    0   0   1
O0       0.250000000   0.780000000   0.443216771    0   0   1
O0       0.250000000   0.220000000   0.443187535    0   0   1
O0       0.000000000   0.500000000   0.497847942    0   0   1
O0       0.000000000   0.000000000   0.516725751    0   0   1
Mo1      0.250000000   0.000000000   0.575347192    0   0   1
Mo1      0.000000000   0.500000000   0.565243976    0   0   1
O0       0.250000000   0.720000000   0.570845126    0   0   1
O0       0.250000000   0.280000000   0.571032389    0   0   1
O0       0.000000000   0.000000000   0.626059104    0   0   1
O0       0.500000000   0.000000000   0.371382756    0   0   1
O0       0.500000000   0.500000000   0.382992808    0   0   1
Mo1      0.750000000   0.500000000   0.440521692    0   0   1
Mo1      0.500000000   0.000000000   0.444166023    0   0   1
O0       0.750000000   0.780000000   0.443276941    0   0   1
O0       0.750000000   0.220000000   0.443139173    0   0   1
O0       0.500000000   0.500000000   0.498301477    0   0   1
O0       0.500000000   0.000000000   0.516563671    0   0   1
Mo1      0.750000000   0.000000000   0.575416204    0   0   1
Mo1      0.500000000   0.500000000   0.571534920    0   0   1
O0       0.750000000   0.720000000   0.570475755    0   0   1
O0       0.750000000   0.280000000   0.570430129    0   0   1
O0       0.500000000   0.000000000   0.625880200    0   0   1
H2      -0.000756698   0.610623389   0.360384833
H2       0.499496159   0.617321576   0.362814752
H2       0.166920707   0.017181992   0.356868969
H2       0.665305254   0.019132570   0.356571517
O0       0.514762121   0.500227348   0.642414215
H2       0.389152814   0.495535309   0.668229924

     Check: negative starting charge=(component1):   -0.002345
     NEW-OLD atomic charge density approx. for the potential

[...]

     Threshold (ethr) on eigenvalues was too large:
     Diagonalizing with lowered threshold

     Davidson diagonalization with overlap
     ethr =  3.63E-09,  avg # of iterations =  2.6

[...]

     Total force =     0.002162     Total SCF correction =     0.000450
     SCF correction compared to forces is large: reduce conv_thr to get better values
Begin final coordinates

ATOMIC_POSITIONS (crystal)
O0       0.000000000   0.000000000   0.371319179    0   0   1
O0       0.000000000   0.500000000   0.382864062    0   0   1
Mo1      0.250000000   0.500000000   0.440581646    0   0   1
Mo1      0.000000000   0.000000000   0.443723368    0   0   1
O0       0.250000000   0.780000000   0.443216771    0   0   1
O0       0.250000000   0.220000000   0.443187535    0   0   1
O0       0.000000000   0.500000000   0.497847942    0   0   1
O0       0.000000000   0.000000000   0.516725751    0   0   1
Mo1      0.250000000   0.000000000   0.575347192    0   0   1
Mo1      0.000000000   0.500000000   0.565243976    0   0   1
O0       0.250000000   0.720000000   0.570845126    0   0   1
O0       0.250000000   0.280000000   0.571032389    0   0   1
O0       0.000000000   0.000000000   0.626059104    0   0   1
O0       0.500000000   0.000000000   0.371382756    0   0   1
O0       0.500000000   0.500000000   0.382992808    0   0   1
Mo1      0.750000000   0.500000000   0.440521692    0   0   1
Mo1      0.500000000   0.000000000   0.444166023    0   0   1
O0       0.750000000   0.780000000   0.443276941    0   0   1
O0       0.750000000   0.220000000   0.443139173    0   0   1
O0       0.500000000   0.500000000   0.498301477    0   0   1
O0       0.500000000   0.000000000   0.516563671    0   0   1
Mo1      0.750000000   0.000000000   0.575416204    0   0   1
Mo1      0.500000000   0.500000000   0.571534920    0   0   1
O0       0.750000000   0.720000000   0.570475755    0   0   1
O0       0.750000000   0.280000000   0.570430129    0   0   1
O0       0.500000000   0.000000000   0.625880200    0   0   1
H2      -0.000756698   0.610623389   0.360384833
H2       0.499496159   0.617321576   0.362814752
H2       0.166920707   0.017181992   0.356868969
H2       0.665305254   0.019132570   0.356571517
O0       0.514762121   0.500227348   0.642414215
H2       0.389152814   0.495535309   0.668229924
End final coordinates

     lsda relaxation :  a final configuration with zero
                        absolute magnetization has been found

     the program is checking if it is really the minimum energy structure
     by performing a new scf iteration without any "electronic" history

     Initial potential from superposition of free atoms
     Check: negative starting charge=(component1):   -0.001173
     Check: negative starting charge=(component2):   -0.001173

     starting charge  230.99142, renormalised to  231.00000

     negative rho (up, down):  0.117E-02 0.117E-02
     Starting wfc are  185 randomized atomic wfcs
     Check: negative starting charge=(component1):   -0.002345
     NEW-OLD atomic charge density approx. for the potential

     Check: negative/imaginary core charge=   -0.000003    0.000000
     Check: negative starting charge=(component1):   -0.002345

[...]

     Self-consistent Calculation

[...]

     total energy              =   -1733.70442668 Ry
     Harris-Foulkes estimate   =   -1733.70442669 Ry
     estimated scf accuracy    <       0.00000002 Ry

[...]

     iteration # 32     ecut=    40.00 Ry     beta=0.70
     Davidson diagonalization with overlap
     ethr =  6.68E-12,  avg # of iterations =  1.0

     negative rho (up, down):  0.171E-02 0.171E-02

     End of self-consistent calculation

 ------ SPIN UP ------------

[...]

 ------ SPIN DOWN ----------

[...]

          k = 0.2500-0.3900 0.0000 ( 29726 PWs)   bands (ev):

[...]

          k =-0.2500 0.1950 0.0000 ( 29746 PWs)   bands (ev):

   -62.4000 -62.3632 -62.2765 -62.2195 -62.2192 -62.1533 -62.1220 -62.0709
   -36.9416 -36.7662 -36.7145 -36.6885 -36.6716 -36.5945 -36.5879 -36.5412
   -36.4663 -36.4564 -36.4265 -36.3710 -36.3510 -36.3278 -36.3103 -36.2820
   -36.2213 -36.1907 -36.1695 -36.1415 -36.1376 -35.9774 -35.8506 -35.8148
   -20.6287 -20.3704 -19.8001 -19.6501 -19.5668 -19.4234 -19.3385 -19.2390
   -19.2089 -19.0726 -18.8897 -18.7641 -18.7458 -18.7102 -18.6059 -18.5696
   -18.5202 -17.9991 -17.8498  -8.6183  -8.4995  -7.9974  -7.9116  -7.6149
    -7.5290  -7.5072  -7.4442  -7.2751  -7.1231  -7.0481  -6.9314  -6.7928
    -6.7490  -6.5566  -6.2894  -6.2052  -6.1165  -6.0577  -5.9504  -5.8539
    -5.6707  -5.6535  -5.5062  -5.4071  -5.2834  -5.2005  -5.0725  -4.9846
    -4.8541  -4.6482  -4.6057  -4.4568  -4.4016  -4.3648  -4.2716  -4.2512
    -4.1820  -4.0975  -4.0028  -3.9124  -3.8604  -3.7711  -3.6398  -3.5050
    -3.4085  -3.3116  -3.2648  -3.1790  -3.1030  -3.0741  -2.9687  -2.8786
    -2.6957  -2.6530  -2.5979  -2.3477  -1.3933  -1.2797  -1.1954  -0.5000
    -0.3598  -0.1890  -0.1581   0.3043   0.3787   0.7648   0.8677   0.9256
     0.9704   1.1586   1.3169   1.4658   1.5795   1.6179   1.7845   1.9039
     2.0825   2.1015   2.1984   2.3397   2.5435   3.4638   3.6683   3.7565
     3.8223   3.9669   4.0499   4.1576   4.4654   4.6353   4.7456   4.8422
     4.8875   5.0585   5.1086   5.3875   5.7044   5.8481   5.9450   6.0771
     6.1580   6.2572   6.4301   6.5187   6.6513   6.8264   7.1104   7.1963
     7.3208   7.3825   7.6434   7.7324   8.0309   8.1412   8.2831   8.3689
     8.5505   8.6411   8.7520   8.8761   8.9973   9.0743   9.1773   9.3299
     9.4239   9.5307   9.5671   9.6647   9.7300   9.7569   9.8396  10.0032
    10.1006  10.3437  10.3783  10.4572  10.5362  10.6677  10.7419  10.8181
    10.8907  11.0082  11.1357  11.2071  11.3777  11.5088  11.5970  11.6529
    11.7758  11.8916  11.9310  12.0382  12.1128  12.2139  12.3286  12.3889
    12.4224  12.4460  12.5307  12.6347  12.7757  12.8353  12.9419  13.0146
    13.0885  13.1572  13.2544  13.3371  13.3883  13.4749  13.4983  13.5666
    13.6430  13.7239  13.8215  13.8421  13.9437  14.0419  14.0739  14.1121
    14.1765  14.2080  14.3105  14.3644  14.4297  14.5130  14.5457  14.6527
    14.7020  14.7618  14.8782  14.9507  15.0323  15.0806  15.1324  15.2279
    15.3340  15.4447  15.5167  15.5974  15.6187  15.7077  15.7788  15.9340
    15.9608  16.0261  16.0727  16.1529  16.2456  16.3171  16.3692  16.4005
    16.4486  16.4944  16.5705  16.6681  16.7773  16.8253  16.8643  16.9848
    17.0957  17.1556  17.2026  17.2439  17.2705  17.3375  17.4208  17.5102
    17.5608  17.6037  17.7184  17.8355  17.8805  17.9844  18.0730  18.1490
    18.2202  18.2528  18.2863  18.3224  18.4258  18.5405  18.5727  18.7046
    18.7717  18.8396  18.9312  18.9988  19.0508  19.1520  19.2062  19.2624
    19.3911  19.4305  19.5321  19.6086  19.8002  19.8202  19.9238  19.9549
    19.9610  20.0629  20.1301  20.1910  20.2756  20.3057  20.3575  20.3790
    20.3974  20.4647  20.5331  20.6008  20.6639  20.7327  20.7789  20.8361
    20.9318  21.0153  21.0517  21.1393  21.2085  21.2809  21.3295  21.3561
    21.4428  21.5014  21.5614  21.6379  21.6702  21.7592  21.7735  21.8207
    21.8649  21.8927

     the Fermi energy is     0.2213 ev

!    total energy              =   -1733.70442668 Ry
     Harris-Foulkes estimate   =   -1733.70442669 Ry
     estimated scf accuracy    <          8.5E-09 Ry

     The total energy is the sum of the following terms:

     one-electron contribution =  -22245.42324444 Ry
     hartree contribution      =   11147.47800733 Ry
     xc contribution           =    -294.49940728 Ry
     ewald contribution        =    9658.74018854 Ry
     smearing contrib. (-TS)   =       0.00002917 Ry

     total magnetization       =    -0.00 Bohr mag/cell
     absolute magnetization    =     0.00 Bohr mag/cell

     convergence has been achieved in  32 iterations

     Forces acting on atoms (Ry/au):

     negative rho (up, down):  0.171E-02 0.171E-02
     atom    1 type  1   force =    -0.00044798   -0.00503769    0.00023244
     atom    2 type  1   force =    -0.00027546    0.00804558    0.00059443
     atom    3 type  2   force =    -0.00400209   -0.00560624    0.00053030
     atom    4 type  2   force =    -0.00004878    0.00597106   -0.00021757
     atom    5 type  1   force =     0.00112533    0.00247255   -0.00021730
     atom    6 type  1   force =    -0.00111168   -0.00664961   -0.00027310
     atom    7 type  1   force =     0.00013512    0.00018342   -0.00043928
     atom    8 type  1   force =     0.00363492    0.00046680    0.00032503
     atom    9 type  2   force =    -0.00016209    0.00002547    0.00028104
     atom   10 type  2   force =    -0.00281008   -0.00000498   -0.00062412
     atom   11 type  1   force =    -0.01278124   -0.02737605   -0.00045630
     atom   12 type  1   force =    -0.01347849    0.02679875   -0.00046390
     atom   13 type  1   force =     0.00034086    0.00013045    0.00010700
     atom   14 type  1   force =    -0.00370744   -0.00641463    0.00007618
     atom   15 type  1   force =    -0.00024892    0.00995869    0.00044750
     atom   16 type  2   force =     0.00822710   -0.00662282    0.00002933
     atom   17 type  2   force =    -0.00045152    0.00489683    0.00013992
     atom   18 type  1   force =     0.00147082    0.00229790   -0.00017094
     atom   19 type  1   force =     0.00095853   -0.00635101   -0.00024666
     atom   20 type  1   force =    -0.00583044    0.00143659   -0.00064086
     atom   21 type  1   force =     0.00233123    0.00021153    0.00008784
     atom   22 type  2   force =    -0.00498455   -0.00053233   -0.00040697
     atom   23 type  2   force =     0.00139247    0.00169065    0.00038731
     atom   24 type  1   force =     0.01405969   -0.02560018    0.00026448
     atom   25 type  1   force =     0.01495523    0.02583371    0.00027864
     atom   26 type  1   force =     0.00079355    0.00045303   -0.00010218
     atom   27 type  3   force =    -0.00000553   -0.00016289    0.00036461
     atom   28 type  3   force =     0.00001655   -0.00019609    0.00012762
     atom   29 type  3   force =    -0.00005195    0.00007091    0.00021207
     atom   30 type  3   force =     0.00006276    0.00004711    0.00024869
     atom   31 type  1   force =     0.00012474    0.00002562   -0.00013722
     atom   32 type  3   force =     0.00076934   -0.00046214   -0.00033805

     Total force =     0.002135     Total SCF correction =     0.000291
     SCF correction compared to forces is large: reduce conv_thr to get better values

     bfgs converged in  25 scf cycles and  24 bfgs steps
     (criteria: energy < 0.10E-03, force < 0.10E-02)

     End of BFGS Geometry Optimization

     Final energy   =   -1733.7044266842 Ry
Begin final coordinates

ATOMIC_POSITIONS (crystal)
O0       0.000000000   0.000000000   0.371319179    0   0   1
O0       0.000000000   0.500000000   0.382864062    0   0   1
Mo1      0.250000000   0.500000000   0.440581646    0   0   1
Mo1      0.000000000   0.000000000   0.443723368    0   0   1
O0       0.250000000   0.780000000   0.443216771    0   0   1
O0       0.250000000   0.220000000   0.443187535    0   0   1
O0       0.000000000   0.500000000   0.497847942    0   0   1
O0       0.000000000   0.000000000   0.516725751    0   0   1
Mo1      0.250000000   0.000000000   0.575347192    0   0   1
Mo1      0.000000000   0.500000000   0.565243976    0   0   1
O0       0.250000000   0.720000000   0.570845126    0   0   1
O0       0.250000000   0.280000000   0.571032389    0   0   1
O0       0.000000000   0.000000000   0.626059104    0   0   1
O0       0.500000000   0.000000000   0.371382756    0   0   1
O0       0.500000000   0.500000000   0.382992808    0   0   1
Mo1      0.750000000   0.500000000   0.440521692    0   0   1
Mo1      0.500000000   0.000000000   0.444166023    0   0   1
O0       0.750000000   0.780000000   0.443276941    0   0   1
O0       0.750000000   0.220000000   0.443139173    0   0   1
O0       0.500000000   0.500000000   0.498301477    0   0   1
O0       0.500000000   0.000000000   0.516563671    0   0   1
Mo1      0.750000000   0.000000000   0.575416204    0   0   1
Mo1      0.500000000   0.500000000   0.571534920    0   0   1
O0       0.750000000   0.720000000   0.570475755    0   0   1
O0       0.750000000   0.280000000   0.570430129    0   0   1
O0       0.500000000   0.000000000   0.625880200    0   0   1
H2      -0.000756698   0.610623389   0.360384833
H2       0.499496159   0.617321576   0.362814752
H2       0.166920707   0.017181992   0.356868969
H2       0.665305254   0.019132570   0.356571517
O0       0.514762121   0.500227348   0.642414215
H2       0.389152814   0.495535309   0.668229924
End final coordinates

     General routines

     Parallel routines

   This run was terminated on:   7:51:57   3Apr2014

   JOB DONE.