     Program PWSCF v.5.0.2 (svn rev. 9656) starts on 28May2014 at  1:56:21

     Current dimensions of program PWSCF are:
     Max number of different atomic species (ntypx) = 10
     Max number of k-points (npk) =  40000
     Max angular momentum in pseudopotentials (lmaxx) =  3
     Reading input from pwscf.in
Warning: card &CELL ignored
Warning: card / ignored

     Subspace diagonalization in iterative solution of the eigenvalue problem:
     a serial algorithm will be used

     bravais-lattice index     =            0
     lattice parameter (alat)  =      10.3179  a.u.
     unit-cell volume          =    6964.3238 (a.u.)^3
     number of atoms/cell      =           33
     number of atomic types    =            3
     number of electrons       =       237.00
     number of Kohn-Sham states=          355
     kinetic-energy cutoff     =      40.0000  Ry
     charge density cutoff     =     500.0000  Ry
     convergence threshold     =      1.0E-06
     mixing beta               =       0.7000
     number of iterations used =            8  plain     mixing
     Exchange-correlation      = SLA  PW   PBE  PBE ( 1 4 3 4 0)
     EXX-fraction              =        0.00
     nstep                     =           50

     celldm(1)=  10.317905  celldm(2)=   0.000000  celldm(3)=   0.000000
     celldm(4)=   0.000000  celldm(5)=   0.000000  celldm(6)=   0.000000

     crystal axes: (cart. coord. in units of alat)
               a(1) = (   1.000000   0.000000   0.000000 )
               a(2) = (   0.000000   1.282117   0.000000 )
               a(3) = (   0.000000   0.000000   4.945120 )

     reciprocal axes: (cart. coord. in units 2 pi/alat)
               b(1) = (  1.000000  0.000000  0.000000 )
               b(2) = (  0.000000  0.779960  0.000000 )
               b(3) = (  0.000000  0.000000  0.202220 )

     PseudoPot. # 1 for O  read from file:
     /home/camp/zhonxu/pseudo/o_pbe_v1.01.uspp.F.UPF
     MD5 check sum: 2bcb18d16ea4b960afae9ec6d52f22d2
     Pseudo is Ultrasoft + core correction, Zval =  6.0
     Generated by new atomic code, or converted to UPF format
     Using radial grid of  737 points,  5 beta functions with:
                l(1) =   0
                l(2) =   0
                l(3) =   1
                l(4) =   1
                l(5) =   2
     Q(r) pseudized with  8 coefficients,  rinner =    0.900   0.900   0.900
                                                       0.900   0.900

     PseudoPot. # 2 for Mo read from file:
     /home/camp/zhonxu/pseudo/mo_pbe_v1.uspp.F.UPF
     MD5 check sum: 30c4dcd161f5d35cd49bb5239c51a633
     Pseudo is Ultrasoft + core correction, Zval = 14.0
     Generated by new atomic code, or converted to UPF format
     Using radial grid of  889 points,  6 beta functions with:
                l(1) =   0
                l(2) =   0
                l(3) =   1
                l(4) =   1
                l(5) =   2
                l(6) =   2
     Q(r) pseudized with  6 coefficients,  rinner =    1.000   1.000   1.000
                                                       1.000   1.000

     PseudoPot. # 3 for H  read from file:
     /home/camp/zhonxu/pseudo/h_pbe_v1.uspp.F.UPF
     MD5 check sum: 3408e3ff4ec8b0a4e358431e7e038a48
     Pseudo is Ultrasoft, Zval =  1.0
     Generated by new atomic code, or converted to UPF format
     Using radial grid of  615 points,  2 beta functions with:
                l(1) =   0
                l(2) =   0
     Q(r) pseudized with  8 coefficients,  rinner =    0.700

     atomic species   valence    mass     pseudopotential
        O0             6.00    15.99940     O ( 1.00)
        Mo1           14.00    95.94000     Mo( 1.00)
        H2             1.00     1.00794     H ( 1.00)

     Simplified LDA+U calculation (l_max = 2) with parameters (eV):
     atomic species    L          U    alpha       J0     beta
        Mo1            2     3.5000   0.0000   0.0000   0.0000

     No symmetry found

   Cartesian axes

     site n.     atom                  positions (alat units)
         1           O0  tau(   1) = (   0.0000000   0.0000000   1.8345407  )
         2           O0  tau(   2) = (   0.0000000   0.6410583   1.8924976  )
         3           Mo1 tau(   3) = (   0.2500000   0.6410583   2.1781772  )
         4           Mo1 tau(   4) = (   0.0000000   0.0000000   2.1929631  )
         5           O0  tau(   5) = (   0.2500000   1.0000510   2.1897982  )
         6           O0  tau(   6) = (   0.2500000   0.2820657   2.1891553  )
         7           O0  tau(   7) = (   0.0000000   0.6410583   2.4607413  )
         8           O0  tau(   8) = (   0.0000000   0.0000000   2.5556382  )
         9           Mo1 tau(   9) = (   0.2500000   0.0000000   2.8453728  )
        10           Mo1 tau(  10) = (   0.0000000   0.6410583   2.7952787  )
        11           O0  tau(  11) = (   0.2500000   0.9231240   2.8196582  )
        12           O0  tau(  12) = (   0.2500000   0.3589927   2.8248011  )
        13           O0  tau(  13) = (   0.0000000   0.0000000   3.0952003  )
        14           O0  tau(  14) = (   0.5000000   0.0000000   1.8353814  )
        15           O0  tau(  15) = (   0.5000000   0.6410583   1.8936349  )
        16           Mo1 tau(  16) = (   0.7500000   0.6410583   2.1781277  )
        17           Mo1 tau(  17) = (   0.5000000   0.0000000   2.1954851  )
        18           O0  tau(  18) = (   0.7500000   1.0000510   2.1899960  )
        19           O0  tau(  19) = (   0.7500000   0.2820657   2.1890564  )
        20           O0  tau(  20) = (   0.5000000   0.6410583   2.4612853  )
        21           O0  tau(  21) = (   0.5000000   0.0000000   2.5539074  )
        22           Mo1 tau(  22) = (   0.7500000   0.0000000   2.8439387  )
        23           Mo1 tau(  23) = (   0.5000000   0.6410583   2.8209934  )
        24           O0  tau(  24) = (   0.7500000   0.9231240   2.8195098  )
        25           O0  tau(  25) = (   0.7500000   0.3589927   2.8246033  )
        26           O0  tau(  26) = (   0.5000000   0.0000000   3.0932717  )
        27           H2  tau(  27) = (  -0.0005800   0.7846554   1.7836060  )
        28           H2  tau(  28) = (   0.4995100   0.7915788   1.7940402  )
        29           H2  tau(  29) = (   0.1672700   0.0232576   1.7642706  )
        30           H2  tau(  30) = (   0.6659000   0.0248346   1.7633310  )
        31           O0  tau(  31) = (   0.5002100   0.6666879   3.1760530  )
        32           O0  tau(  32) = (   0.4999400   0.4570233   3.3393409  )
        33           H2  tau(  33) = (   0.5000100   0.5446560   3.4973869  )

     number of k points=    10  Methfessel-Paxton smearing, width (Ry)=  0.0100
                       cart. coord. in units 2pi/alat
        k(    1) = (   0.0000000   0.0000000   0.0000000), wk =   0.1250000
        k(    2) = (   0.0000000   0.1949901   0.0000000), wk =   0.2500000
        k(    3) = (   0.0000000  -0.3899801   0.0000000), wk =   0.1250000
        k(    4) = (   0.2500000   0.0000000   0.0000000), wk =   0.2500000
        k(    5) = (   0.2500000   0.1949901   0.0000000), wk =   0.2500000
        k(    6) = (   0.2500000  -0.3899801   0.0000000), wk =   0.2500000
        k(    7) = (  -0.5000000   0.0000000   0.0000000), wk =   0.1250000
        k(    8) = (  -0.5000000   0.1949901   0.0000000), wk =   0.2500000
        k(    9) = (  -0.5000000  -0.3899801   0.0000000), wk =   0.1250000
        k(   10) = (  -0.2500000   0.1949901   0.0000000), wk =   0.2500000

     Largest allocated arrays     est. size (Mb)     dimensions
     Largest temporary arrays     est. size (Mb)     dimensions

     Check: negative/imaginary core charge=   -0.000003    0.000000

     Initial potential from superposition of free atoms
     Check: negative starting charge=   -0.002157

     starting charge  236.99142, renormalised to  237.00000

     negative rho (up, down):  0.216E-02 0.000E+00
     Number of +U iterations with fixed ns =  0
     Starting occupations:
 --- enter write_ns ---
 LDA+U parameters:
U( 2)     =  3.50000000
alpha( 2) =  0.00000000
atom    3   Tr[ns(na)] =   5.00000
    eigenvalues:
  0.500  0.500  0.500  0.500  0.500
    eigenvectors:
  1.000  0.000  0.000  0.000  0.000
  0.000  1.000  0.000  0.000  0.000
  0.000  0.000  1.000  0.000  0.000
  0.000  0.000  0.000  1.000  0.000
  0.000  0.000  0.000  0.000  1.000
    occupations:
  0.500  0.000  0.000  0.000  0.000
  0.000  0.500  0.000  0.000  0.000
  0.000  0.000  0.500  0.000  0.000
  0.000  0.000  0.000  0.500  0.000
  0.000  0.000  0.000  0.000  0.500
atom    4   Tr[ns(na)] =   5.00000
    eigenvalues:
  0.500  0.500  0.500  0.500  0.500
    eigenvectors:
  1.000  0.000  0.000  0.000  0.000
  0.000  1.000  0.000  0.000  0.000
  0.000  0.000  1.000  0.000  0.000
  0.000  0.000  0.000  1.000  0.000
  0.000  0.000  0.000  0.000  1.000
    occupations:
  0.500  0.000  0.000  0.000  0.000
  0.000  0.500  0.000  0.000  0.000
  0.000  0.000  0.500  0.000  0.000
  0.000  0.000  0.000  0.500  0.000
  0.000  0.000  0.000  0.000  0.500
atom    9   Tr[ns(na)] =   5.00000
    eigenvalues:
  0.500  0.500  0.500  0.500  0.500
    eigenvectors:
  1.000  0.000  0.000  0.000  0.000
  0.000  1.000  0.000  0.000  0.000
  0.000  0.000  1.000  0.000  0.000
  0.000  0.000  0.000  1.000  0.000
  0.000  0.000  0.000  0.000  1.000
    occupations:
  0.500  0.000  0.000  0.000  0.000
  0.000  0.500  0.000  0.000  0.000
  0.000  0.000  0.500  0.000  0.000
  0.000  0.000  0.000  0.500  0.000
  0.000  0.000  0.000  0.000  0.500
atom   10   Tr[ns(na)] =   5.00000
    eigenvalues:
  0.500  0.500  0.500  0.500  0.500
    eigenvectors:
  1.000  0.000  0.000  0.000  0.000
  0.000  1.000  0.000  0.000  0.000
  0.000  0.000  1.000  0.000  0.000
  0.000  0.000  0.000  1.000  0.000
  0.000  0.000  0.000  0.000  1.000
    occupations:
  0.500  0.000  0.000  0.000  0.000
  0.000  0.500  0.000  0.000  0.000
  0.000  0.000  0.500  0.000  0.000
  0.000  0.000  0.000  0.500  0.000
  0.000  0.000  0.000  0.000  0.500
atom   16   Tr[ns(na)] =   5.00000
    eigenvalues:
  0.500  0.500  0.500  0.500  0.500
    eigenvectors:
  1.000  0.000  0.000  0.000  0.000
  0.000  1.000  0.000  0.000  0.000
  0.000  0.000  1.000  0.000  0.000
  0.000  0.000  0.000  1.000  0.000
  0.000  0.000  0.000  0.000  1.000
    occupations:
  0.500  0.000  0.000  0.000  0.000
  0.000  0.500  0.000  0.000  0.000
  0.000  0.000  0.500  0.000  0.000
  0.000  0.000  0.000  0.500  0.000
  0.000  0.000  0.000  0.000  0.500
atom   17   Tr[ns(na)] =   5.00000
    eigenvalues:
  0.500  0.500  0.500  0.500  0.500
    eigenvectors:
  1.000  0.000  0.000  0.000  0.000
  0.000  1.000  0.000  0.000  0.000
  0.000  0.000  1.000  0.000  0.000
  0.000  0.000  0.000  1.000  0.000
  0.000  0.000  0.000  0.000  1.000
    occupations:
  0.500  0.000  0.000  0.000  0.000
  0.000  0.500  0.000  0.000  0.000
  0.000  0.000  0.500  0.000  0.000
  0.000  0.000  0.000  0.500  0.000
  0.000  0.000  0.000  0.000  0.500
atom   22   Tr[ns(na)] =   5.00000
    eigenvalues:
  0.500  0.500  0.500  0.500  0.500
    eigenvectors:
  1.000  0.000  0.000  0.000  0.000
  0.000  1.000  0.000  0.000  0.000
  0.000  0.000  1.000  0.000  0.000
[...]
 -0.051 -0.002 -0.001  0.620 -0.000
 -0.001 -0.000  0.024 -0.000  0.485
atom   10   Tr[ns(na)] =   5.78592
    eigenvalues:
  0.465  0.487  0.514  0.692  0.735
    eigenvectors:
  0.025  0.975  0.000  0.000  0.000
  0.000  0.000  0.000  1.000  0.000
  0.975  0.025  0.000  0.000  0.000
  0.000  0.000  0.000  0.000  1.000
  0.000  0.000  1.000  0.000  0.000
    occupations:
  0.486  0.000 -0.003 -0.001  0.000
  0.000  0.692 -0.001  0.000 -0.001
 -0.003 -0.001  0.466 -0.001 -0.000
 -0.001  0.000 -0.001  0.735 -0.000
  0.000 -0.001 -0.000 -0.000  0.514
atom   16   Tr[ns(na)] =   5.83460
    eigenvalues:
  0.469  0.509  0.567  0.614  0.759
    eigenvectors:
  0.012  0.000  0.323  0.000  0.664
  0.000  0.997  0.000  0.002  0.000
  0.977  0.000  0.002  0.010  0.010
  0.000  0.000  0.674  0.000  0.326
  0.010  0.002  0.000  0.988  0.000
    occupations:
  0.693  0.001  0.027 -0.089  0.000
  0.001  0.509  0.001 -0.000 -0.004
  0.027  0.001  0.474 -0.013 -0.014
 -0.089 -0.000 -0.013  0.629  0.000
  0.000 -0.004 -0.014  0.000  0.612
atom   17   Tr[ns(na)] =   5.83734
    eigenvalues:
  0.436  0.521  0.586  0.624  0.751
    eigenvectors:
  0.000  0.000  0.987  0.012  0.001
  0.000  0.000  0.012  0.987  0.000
  1.000  0.000  0.000  0.000  0.000
  0.000  0.000  0.001  0.000  0.999
  0.000  1.000  0.000  0.000  0.000
    occupations:
  0.587  0.004  0.001 -0.004  0.000
  0.004  0.624  0.004 -0.001 -0.001
  0.001  0.004  0.436 -0.002  0.000
 -0.004 -0.001 -0.002  0.751  0.000
  0.000 -0.001  0.000  0.000  0.521
atom   22   Tr[ns(na)] =   5.83728
    eigenvalues:
  0.472  0.535  0.591  0.597  0.723
    eigenvectors:
  0.000  0.000  0.186  0.041  0.774
  0.000  0.000  0.189  0.811  0.000
  0.169  0.831  0.000  0.000  0.000
  0.000  0.000  0.626  0.148  0.226
  0.831  0.169  0.000  0.000  0.000
    occupations:
  0.693  0.002  0.000 -0.055 -0.002
  0.002  0.596  0.000  0.002 -0.000
  0.000  0.000  0.525 -0.000 -0.024
 -0.055  0.002 -0.000  0.622  0.002
 -0.002 -0.000 -0.024  0.002  0.483
atom   23   Tr[ns(na)] =   5.85589
    eigenvalues:
  0.503  0.522  0.540  0.586  0.777
    eigenvectors:
  0.003  0.000  0.000  0.986  0.011
  0.000  0.049  0.951  0.000  0.000
  0.997  0.000  0.000  0.003  0.000
  0.001  0.000  0.000  0.011  0.988
  0.000  0.951  0.049  0.000  0.000
    occupations:
  0.588 -0.000  0.004 -0.020  0.000
 -0.000  0.539 -0.000 -0.000 -0.004
  0.004 -0.000  0.503  0.005  0.000
 -0.020 -0.000  0.005  0.775 -0.000
  0.000 -0.004  0.000 -0.000  0.523
N of occupied +U levels =  46.6473144
 --- exit write_ns ---

     Threshold (ethr) on eigenvalues was too large:
     Diagonalizing with lowered threshold

     Davidson diagonalization with overlap
     ethr =  7.31E-09,  avg # of iterations =  2.9

[...]

     total energy              =   -1763.28320944 Ry
     Harris-Foulkes estimate   =   -1763.28320945 Ry
     estimated scf accuracy    <       0.00000003 Ry

     iteration # 13     ecut=    40.00 Ry     beta=0.70
     Davidson diagonalization with overlap
     ethr =  8.58E-12,  avg # of iterations =  1.0

     negative rho (up, down):  0.333E-02 0.000E+00

     End of self-consistent calculation
 --- enter write_ns ---
 LDA+U parameters:
U( 2)     =  3.50000000
alpha( 2) =  0.00000000
atom    3   Tr[ns(na)] =   5.83490
    eigenvalues:
  0.471  0.508  0.567  0.613  0.758
    eigenvectors:
  0.013  0.000  0.323  0.000  0.664
  0.000  0.998  0.000  0.002  0.000
  0.978  0.000  0.003  0.009  0.010
  0.000  0.000  0.673  0.001  0.326
  0.009  0.002  0.000  0.988  0.000
    occupations:
  0.693 -0.001  0.026 -0.089  0.000
 -0.001  0.509 -0.001 -0.000 -0.004
  0.026 -0.001  0.475 -0.012  0.014
 -0.089 -0.000 -0.012  0.629 -0.000
  0.000 -0.004  0.014 -0.000  0.612
atom    4   Tr[ns(na)] =   5.82392
    eigenvalues:
  0.414  0.521  0.582  0.648  0.747
    eigenvectors:
  0.000  0.000  0.996  0.004  0.000
  0.000  0.000  0.004  0.995  0.000
  1.000  0.000  0.000  0.000  0.000
  0.000  0.000  0.000  0.000  1.000
  0.000  1.000  0.000  0.000  0.000
    occupations:
  0.582  0.004  0.001 -0.001  0.000
  0.004  0.648  0.005 -0.002  0.000
  0.001  0.005  0.414  0.000  0.001
 -0.001 -0.002  0.000  0.747  0.000
  0.000  0.000  0.001  0.000  0.521
atom    9   Tr[ns(na)] =   5.83851
    eigenvalues:
  0.475  0.538  0.592  0.599  0.716
    eigenvectors:
  0.000  0.000  0.202  0.020  0.778
  0.000  0.000  0.099  0.900  0.000
  0.167  0.832  0.000  0.000  0.000
  0.000  0.000  0.699  0.079  0.222
  0.832  0.167  0.000  0.000  0.000
    occupations:
  0.688 -0.002  0.001 -0.051 -0.001
 -0.002  0.598 -0.001 -0.002 -0.000
  0.001 -0.001  0.527 -0.001  0.024
 -0.051 -0.002 -0.001  0.620 -0.000
 -0.001 -0.000  0.024 -0.000  0.485
atom   10   Tr[ns(na)] =   5.78381
    eigenvalues:
  0.465  0.487  0.514  0.691  0.735
    eigenvectors:
  0.024  0.976  0.000  0.000  0.000
  0.000  0.000  0.000  1.000  0.000
  0.976  0.024  0.000  0.000  0.000
  0.000  0.000  0.000  0.000  1.000
  0.000  0.000  1.000  0.000  0.000
    occupations:
  0.486  0.000 -0.003 -0.001  0.000
  0.000  0.691 -0.001  0.000 -0.001
 -0.003 -0.001  0.466 -0.001 -0.000
 -0.001  0.000 -0.001  0.735 -0.000
  0.000 -0.001 -0.000 -0.000  0.514
atom   16   Tr[ns(na)] =   5.83421
    eigenvalues:
  0.469  0.509  0.567  0.614  0.759
    eigenvectors:
  0.012  0.000  0.323  0.000  0.664
  0.000  0.997  0.000  0.002  0.000
  0.977  0.000  0.002  0.010  0.010
  0.000  0.000  0.674  0.000  0.326
  0.010  0.002  0.000  0.988  0.000
    occupations:
  0.693  0.001  0.027 -0.089  0.000
  0.001  0.509  0.001 -0.000 -0.004
  0.027  0.001  0.474 -0.013 -0.014
 -0.089 -0.000 -0.013  0.629  0.000
  0.000 -0.004 -0.014  0.000  0.612
atom   17   Tr[ns(na)] =   5.83823
    eigenvalues:
  0.436  0.521  0.586  0.625  0.751
    eigenvectors:
  0.000  0.000  0.988  0.012  0.001
  0.000  0.000  0.012  0.988  0.000
  1.000  0.000  0.000  0.000  0.000
  0.000  0.000  0.001  0.000  0.999
  0.000  1.000  0.000  0.000  0.000
    occupations:
  0.586  0.004  0.001 -0.004  0.000
  0.004  0.624  0.004 -0.001 -0.001
  0.001  0.004  0.436 -0.002  0.000
 -0.004 -0.001 -0.002  0.751  0.000
  0.000 -0.001  0.000  0.000  0.521
atom   22   Tr[ns(na)] =   5.83783
    eigenvalues:
  0.472  0.535  0.591  0.597  0.723
    eigenvectors:
  0.000  0.000  0.186  0.041  0.774
  0.000  0.000  0.188  0.812  0.000
  0.168  0.831  0.000  0.000  0.000
  0.000  0.000  0.626  0.148  0.226
  0.831  0.168  0.000  0.000  0.000
    occupations:
  0.693  0.002  0.000 -0.055 -0.002
  0.002  0.596  0.000  0.002 -0.000
  0.000  0.000  0.525 -0.000 -0.024
 -0.055  0.002 -0.000  0.622  0.002
 -0.002 -0.000 -0.024  0.002  0.483
atom   23   Tr[ns(na)] =   5.85664
    eigenvalues:
  0.503  0.522  0.540  0.586  0.777
    eigenvectors:
  0.003  0.000  0.000  0.986  0.011
  0.000  0.048  0.952  0.000  0.000
  0.997  0.000  0.000  0.003  0.000
  0.001  0.000  0.000  0.011  0.988
  0.000  0.952  0.048  0.000  0.000
    occupations:
  0.588 -0.000  0.004 -0.020  0.000
 -0.000  0.540 -0.000 -0.000 -0.004
  0.004 -0.000  0.503  0.005  0.000
 -0.020 -0.000  0.005  0.775 -0.000
  0.000 -0.004  0.000 -0.000  0.523
N of occupied +U levels =  46.6480355
 --- exit write_ns ---

[...]

          k = 0.2500-0.3900 0.0000 ( 29726 PWs)   bands (ev):

[...]

          k =-0.2500 0.1950 0.0000 ( 29746 PWs)   bands (ev):

   -62.0256 -61.9353 -61.9112 -61.7115 -61.7083 -61.6301 -61.6262 -61.6241
   -36.6193 -36.4291 -36.3517 -36.3334 -36.1646 -36.1132 -36.0625 -36.0268
   -36.0212 -36.0186 -35.9482 -35.9362 -35.9203 -35.9046 -35.8813 -35.8416
   -35.8349 -35.7395 -35.7383 -35.7155 -35.7064 -35.3424 -35.2992 -35.2680
   -22.8852 -20.2685 -20.0127 -19.4518 -19.3476 -19.2428 -19.0957 -19.0461
   -18.9375 -18.8870 -18.7529 -18.6555 -18.5327 -18.4509 -18.4159 -18.3343
   -18.1976 -17.8444 -17.6853 -16.5695  -8.3785  -8.1997  -8.1266  -7.8426
    -7.5214  -7.3574  -7.3074  -7.1842  -7.0334  -7.0109  -6.9626  -6.8932
    -6.7908  -6.6082  -6.4327  -6.3619  -6.0747  -6.0125  -5.9449  -5.8603
    -5.7006  -5.6402  -5.5540  -5.3861  -5.3518  -5.2312  -4.9735  -4.9500
    -4.8861  -4.7072  -4.6434  -4.5789  -4.4089  -4.2801  -4.1629  -4.1129
    -4.0552  -4.0036  -3.9702  -3.9074  -3.8201  -3.7593  -3.7191  -3.5728
    -3.4470  -3.3814  -3.2579  -3.1411  -3.0357  -3.0229  -2.9393  -2.8291
    -2.7204  -2.6803  -2.5286  -2.4251  -2.3407  -2.1288  -1.5190  -1.3776
    -1.3239  -1.2578  -0.3136  -0.1542  -0.1102   0.0623   0.6399   0.6541
     0.9992   1.0930   1.1923   1.2995   1.4959   1.5230   1.7413   1.8590
     1.9388   1.9762   2.1409   2.1624   2.2389   2.2611   2.6709   2.8868
     3.6818   3.7750   4.0586   4.1434   4.2397   4.3388   4.4162   4.5279
     4.7367   4.8152   4.9139   4.9613   5.1726   5.2286   5.3379   5.5591
     5.9071   6.0745   6.1777   6.2460   6.3595   6.4649   6.5133   6.6123
     6.7279   6.9566   7.0073   7.2720   7.3332   7.4276   7.7307   7.7785
     8.0821   8.2323   8.4532   8.4905   8.6467   8.7281   8.8637   8.9649
     9.0022   9.1988   9.2418   9.3799   9.4995   9.6171   9.6939   9.7737
     9.8287   9.9394   9.9753  10.0886  10.2349  10.4262  10.5359  10.6107
    10.6991  10.8038  10.9184  10.9491  11.0308  11.1428  11.2921  11.3852
    11.4990  11.6759  11.7507  11.8472  11.9132  11.9410  12.0152  12.1777
    12.1966  12.2561  12.3572  12.3671  12.4551  12.5568  12.6225  12.8174
    12.9049  12.9868  13.0426  13.1628  13.2025  13.2680  13.4036  13.4417
    13.5366  13.5635  13.6415  13.7055  13.7631  13.8474  13.8974  13.9507
    14.0471  14.0852  14.1313  14.2081  14.2542  14.3007  14.3667  14.3868
    14.4772  14.5212  14.6173  14.7541  14.7814  14.8840  14.9159  15.0694
    15.1381  15.2421  15.3034  15.4354  15.4778  15.5071  15.6383  15.6942
    15.8015  15.8842  15.9245  16.0172  16.0874  16.1689  16.2682  16.2988
    16.3432  16.4364  16.5149  16.5661  16.5962  16.6339  16.7371  16.7661
    16.8508  16.9173  16.9644  17.0903  17.1071  17.2075  17.2826  17.3097
    17.3417  17.3998  17.5102  17.5919  17.6852  17.7556  17.8002  17.9046
    18.0559  18.1047  18.1403  18.2006  18.2309  18.3653  18.4075  18.4957
    18.5809  18.6148  18.6914  18.7812  18.9215  18.9470  19.0294  19.0691
    19.2049  19.2556  19.3871  19.4120  19.4344  19.5433  19.6070  19.6983
    19.8167  19.9008  19.9872  20.0456  20.1176  20.1656  20.2092  20.2538
    20.2762  20.3373  20.4400  20.4752  20.4950  20.5508  20.6034  20.6802
    20.7643  20.8331  20.8864  20.9539  21.0060  21.1018  21.1410  21.2354
    21.2872  21.3665  21.4089  21.4676  21.5331  21.5554  21.6105  21.6244
    21.6586  21.7410  21.8114  21.8721  21.8981  21.9505  21.9925  22.0785
    22.1383  22.2063  22.2951

     the Fermi energy is     0.4575 ev

!    total energy              =   -1763.28320944 Ry
     Harris-Foulkes estimate   =   -1763.28320944 Ry
     estimated scf accuracy    <          6.5E-09 Ry

     The total energy is the sum of the following terms:

     one-electron contribution =  -22656.55100164 Ry
     hartree contribution      =   11358.28946553 Ry
     xc contribution           =    -301.58415062 Ry
     ewald contribution        =    9834.16264039 Ry
     Hubbard energy            =       2.39904170 Ry
     smearing contrib. (-TS)   =       0.00079520 Ry

     convergence has been achieved in  13 iterations

     Forces acting on atoms (Ry/au):

     negative rho (up, down):  0.333E-02 0.000E+00
     atom    1 type  1   force =    -0.00098291   -0.00488272   -0.00031202
     atom    2 type  1   force =    -0.00014359    0.00820933    0.00017992
     atom    3 type  2   force =     0.00537217   -0.00878503    0.00013050
     atom    4 type  2   force =     0.00148403    0.00439257   -0.00017637
     atom    5 type  1   force =    -0.00022937   -0.01343304   -0.00004339
     atom    6 type  1   force =    -0.00217987    0.01180281   -0.00004856
     atom    7 type  1   force =     0.00023733   -0.00025675    0.00001984
     atom    8 type  1   force =     0.00308879    0.00209862    0.00042893
     atom    9 type  2   force =    -0.00239436   -0.00345707    0.00034380
     atom   10 type  2   force =    -0.00004856    0.00286201    0.00015336
     atom   11 type  1   force =    -0.01477014   -0.01528592   -0.00018444
     atom   12 type  1   force =    -0.01134837    0.02091086   -0.00033163
     atom   13 type  1   force =     0.00015348   -0.00163344    0.00020153
     atom   14 type  1   force =    -0.00258544   -0.00592132   -0.00024584
     atom   15 type  1   force =     0.00003205    0.01161159    0.00083881
     atom   16 type  2   force =    -0.00588990   -0.00853416    0.00012988
     atom   17 type  2   force =    -0.00248124    0.00387076   -0.00011834
     atom   18 type  1   force =     0.00313455   -0.01378379   -0.00001551
     atom   19 type  1   force =     0.00204918    0.01148801   -0.00005378
     atom   20 type  1   force =     0.00009348    0.00001116    0.00096690
     atom   21 type  1   force =     0.00369901    0.00269966   -0.00012741
     atom   22 type  2   force =    -0.00156753   -0.00393905    0.00009919
     atom   23 type  2   force =     0.00027243    0.00216781   -0.00036119
     atom   24 type  1   force =     0.01466855   -0.01461685   -0.00024064
     atom   25 type  1   force =     0.01125432    0.02088615   -0.00038276
     atom   26 type  1   force =    -0.00077646   -0.00676258    0.00046706
     atom   27 type  3   force =    -0.00000726   -0.00026588   -0.00075740
     atom   28 type  3   force =    -0.00000026   -0.00095110   -0.00074045
     atom   29 type  3   force =    -0.00003694   -0.00025602   -0.00011329
     atom   30 type  3   force =    -0.00010636   -0.00010454   -0.00016240
     atom   31 type  1   force =     0.00002007   -0.00024676   -0.00010095
     atom   32 type  1   force =    -0.00002381    0.00009418    0.00042113
     atom   33 type  3   force =     0.00001292    0.00001049    0.00013553

     Total force =     0.002347     Total SCF correction =     0.000283
     SCF correction compared to forces is large: reduce conv_thr to get better values

     entering subroutine stress ...

     negative rho (up, down):  0.333E-02 0.000E+00
          total   stress  (Ry/bohr**3)                   (kbar)     P=   -5.99
  -0.00002410  -0.00000092   0.00000107         -3.54     -0.14      0.16
  -0.00000092  -0.00006428  -0.00000197         -0.14     -9.46     -0.29
   0.00000107  -0.00000197  -0.00003380          0.16     -0.29     -4.97

     bfgs converged in   8 scf cycles and   7 bfgs steps
     (criteria: energy < 0.10E-03, force < 0.10E-02)

     End of BFGS Geometry Optimization

     Final energy   =   -1763.2832094374 Ry
Begin final coordinates

ATOMIC_POSITIONS (crystal)
O0       0.000000000   0.000000000   0.371115919    0   0   1
O0       0.000000000   0.500000000   0.382947335    0   0   1
Mo1      0.250000000   0.500000000   0.440490918    0   0   1
Mo1      0.000000000   0.000000000   0.443152672    0   0   1
O0       0.250000000   0.780000000   0.443089621    0   0   1
O0       0.250000000   0.220000000   0.442899177    0   0   1
O0       0.000000000   0.500000000   0.497653131    0   0   1
O0       0.000000000   0.000000000   0.516707001    0   0   1
Mo1      0.250000000   0.000000000   0.575189716    0   0   1
Mo1      0.000000000   0.500000000   0.565557557    0   0   1
O0       0.250000000   0.720000000   0.570718772    0   0   1
O0       0.250000000   0.280000000   0.571726705    0   0   1
O0       0.000000000   0.000000000   0.625431915    0   0   1
O0       0.500000000   0.000000000   0.371418298    0   0   1
O0       0.500000000   0.500000000   0.382516272    0   0   1
Mo1      0.750000000   0.500000000   0.440482548    0   0   1
Mo1      0.500000000   0.000000000   0.443810185    0   0   1
O0       0.750000000   0.780000000   0.443149833    0   0   1
O0       0.750000000   0.220000000   0.442880765    0   0   1
O0       0.500000000   0.500000000   0.498385212    0   0   1
O0       0.500000000   0.000000000   0.515944064    0   0   1
Mo1      0.750000000   0.000000000   0.574796214    0   0   1
Mo1      0.500000000   0.500000000   0.570050520    0   0   1
O0       0.750000000   0.720000000   0.570663703    0   0   1
O0       0.750000000   0.280000000   0.571672462    0   0   1
O0       0.500000000   0.000000000   0.625134918    0   0   1
H2      -0.000587956   0.610803212   0.360565826
H2       0.499506981   0.616863561   0.362213215
H2       0.167156301   0.017755171   0.356755469
H2       0.665381312   0.019199473   0.356553984
O0       0.500211180   0.518123685   0.641867835
O0       0.499899636   0.356443758   0.675209509
H2       0.500033386   0.425901717   0.706998731
End final coordinates

     General routines

     Parallel routines
     Hubbard U routines

   This run was terminated on:  10:48:29  28May2014

   JOB DONE.