     Program PWSCF v.5.0.2 (svn rev. 9656) starts on 30Apr2014 at  3:27:51

     Current dimensions of program PWSCF are:
     Max number of different atomic species (ntypx) = 10
     Max number of k-points (npk) =  40000
     Max angular momentum in pseudopotentials (lmaxx) =  3
     Reading input from pwscf.in
Warning: card &CELL ignored
Warning: card / ignored

     Subspace diagonalization in iterative solution of the eigenvalue problem:
     a serial algorithm will be used

     bravais-lattice index     =            0
     lattice parameter (alat)  =      11.2250  a.u.
     unit-cell volume          =    7005.5484 (a.u.)^3
     number of atoms/cell      =           32
     number of atomic types    =            3
     number of electrons       =       215.00
     number of Kohn-Sham states=          310
     kinetic-energy cutoff     =      40.0000  Ry
     charge density cutoff     =     500.0000  Ry
     convergence threshold     =      1.0E-06
     mixing beta               =       0.7000
     number of iterations used =            8  plain     mixing
     Exchange-correlation      = SLA  PW   PBE  PBE ( 1 4 3 4 0)
     EXX-fraction              =        0.00
     nstep                     =           50

     celldm(1)=  11.224973  celldm(2)=   0.000000  celldm(3)=   0.000000
     celldm(4)=   0.000000  celldm(5)=   0.000000  celldm(6)=   0.000000

     crystal axes: (cart. coord. in units of alat)
               a(1) = (   1.000000   0.000000   0.000000 )
               a(2) = (   0.000000   1.107086   0.000000 )
               a(3) = (   0.000000   0.000000   4.474090 )

     reciprocal axes: (cart. coord. in units 2 pi/alat)
               b(1) = (  1.000000  0.000000  0.000000 )
               b(2) = (  0.000000  0.903272  0.000000 )
               b(3) = (  0.000000  0.000000  0.223509 )

     PseudoPot. # 1 for O  read from file:
     /home/camp/zhonxu/pseudo/o_pbe_v1.01.uspp.F.UPF
     MD5 check sum: 2bcb18d16ea4b960afae9ec6d52f22d2
     Pseudo is Ultrasoft + core correction, Zval =  6.0
     Generated by new atomic code, or converted to UPF format
     Using radial grid of  737 points,  5 beta functions with:
                l(1) =   0
                l(2) =   0
                l(3) =   1
                l(4) =   1
                l(5) =   2
     Q(r) pseudized with  8 coefficients,  rinner =    0.900   0.900   0.900
                                                       0.900   0.900

     PseudoPot. # 2 for Ti read from file:
     /home/camp/zhonxu/pseudo/ti_pbe_v1.uspp.F.UPF
     MD5 check sum: bcc8f6961b3b91f0cac3ca967d22d0fb
     Pseudo is Ultrasoft + core correction, Zval = 12.0
     Generated by new atomic code, or converted to UPF format
     Using radial grid of  851 points,  6 beta functions with:
                l(1) =   0
                l(2) =   0
                l(3) =   1
                l(4) =   1
                l(5) =   2
                l(6) =   2
     Q(r) pseudized with  6 coefficients,  rinner =    1.000   1.000   1.000
                                                       1.000   1.000

     PseudoPot. # 3 for H  read from file:
     /home/camp/zhonxu/pseudo/h_pbe_v1.uspp.F.UPF
     MD5 check sum: 3408e3ff4ec8b0a4e358431e7e038a48
     Pseudo is Ultrasoft, Zval =  1.0
     Generated by new atomic code, or converted to UPF format
     Using radial grid of  615 points,  2 beta functions with:
                l(1) =   0
                l(2) =   0
     Q(r) pseudized with  8 coefficients,  rinner =    0.700

     atomic species   valence    mass     pseudopotential
        O0             6.00    15.99940     O ( 1.00)
        Ti1           12.00    47.88000     Ti( 1.00)
        H2             1.00     1.00794     H ( 1.00)

     Simplified LDA+U calculation (l_max = 2) with parameters (eV):
     atomic species    L          U    alpha       J0     beta
        Ti1            2     7.5000   0.0000   0.0000   0.0000

     No symmetry found

   Cartesian axes

     site n.     atom                  positions (alat units)
         1           O0  tau(   1) = (   0.0000000   0.0000000   1.6864186  )
         2           O0  tau(   2) = (   0.0000000   0.5535432   1.7740213  )
         3           Ti1 tau(   3) = (   0.2500000   0.5535432   2.0074793  )
         4           Ti1 tau(   4) = (   0.0000000   0.0000000   2.0324447  )
         5           O0  tau(   5) = (   0.2500000   0.8967400   2.0044817  )
         6           O0  tau(   6) = (   0.2500000   0.2103464   2.0092242  )
         7           O0  tau(   7) = (   0.0000000   0.5535432   2.2196854  )
         8           O0  tau(   8) = (   0.0000000   0.0000000   2.3507315  )
         9           Ti1 tau(   9) = (   0.2500000   0.0000000   2.6021753  )
        10           Ti1 tau(  10) = (   0.0000000   0.5535432   2.5345718  )
        11           O0  tau(  11) = (   0.2500000   0.7638896   2.5931377  )
        12           O0  tau(  12) = (   0.2500000   0.3431968   2.5930482  )
        13           O0  tau(  13) = (   0.0000000   0.0000000   2.7844945  )
        14           O0  tau(  14) = (   0.5000000   0.0000000   1.6873582  )
        15           O0  tau(  15) = (   0.5000000   0.5535432   1.7709789  )
        16           Ti1 tau(  16) = (   0.7500000   0.5535432   2.0079715  )
        17           Ti1 tau(  17) = (   0.5000000   0.0000000   2.0352187  )
        18           O0  tau(  18) = (   0.7500000   0.8967400   2.0040790  )
        19           O0  tau(  19) = (   0.7500000   0.2103464   2.0094479  )
        20           O0  tau(  20) = (   0.5000000   0.5535432   2.1971360  )
        21           O0  tau(  21) = (   0.5000000   0.0000000   2.3514026  )
        22           Ti1 tau(  22) = (   0.7500000   0.0000000   2.6024885  )
        23           Ti1 tau(  23) = (   0.5000000   0.5535432   2.6568935  )
        24           O0  tau(  24) = (   0.7500000   0.7638896   2.5904532  )
        25           O0  tau(  25) = (   0.7500000   0.3431968   2.5901848  )
        26           O0  tau(  26) = (   0.5000000   0.0000000   2.7844945  )
        27           H2  tau(  27) = (  -0.0007700   0.6889399   1.6773810  )
        28           H2  tau(  28) = (   0.4993300   0.6850208   1.6695513  )
        29           H2  tau(  29) = (   0.1496500   0.0435638   1.6275396  )
        30           H2  tau(  30) = (   0.6495100   0.0435638   1.6281213  )
        31           O0  tau(  31) = (   0.5047900   0.5534214   2.9586261  )
        32           H2  tau(  32) = (   0.3766100   0.5530007   3.0621118  )

     number of k points=    10  Methfessel-Paxton smearing, width (Ry)=  0.0100
                       cart. coord. in units 2pi/alat
        k(    1) = (   0.0000000   0.0000000   0.0000000), wk =   0.1250000
        k(    2) = (   0.0000000   0.2258180   0.0000000), wk =   0.2500000
        k(    3) = (   0.0000000  -0.4516359   0.0000000), wk =   0.1250000
        k(    4) = (   0.2500000   0.0000000   0.0000000), wk =   0.2500000
        k(    5) = (   0.2500000   0.2258180   0.0000000), wk =   0.2500000
        k(    6) = (   0.2500000  -0.4516359   0.0000000), wk =   0.2500000
        k(    7) = (  -0.5000000   0.0000000   0.0000000), wk =   0.1250000
        k(    8) = (  -0.5000000   0.2258180   0.0000000), wk =   0.2500000
        k(    9) = (  -0.5000000  -0.4516359   0.0000000), wk =   0.1250000
        k(   10) = (  -0.2500000   0.2258180   0.0000000), wk =   0.2500000

     Largest allocated arrays     est. size (Mb)     dimensions
     Largest temporary arrays     est. size (Mb)     dimensions

     Check: negative/imaginary core charge=   -0.000006    0.000000

     Initial potential from superposition of free atoms
     Check: negative starting charge=   -0.102331

     starting charge  206.99957, renormalised to  215.00000

     negative rho (up, down):  0.106E+00 0.000E+00
     Number of +U iterations with fixed ns =  0
     Starting occupations:
 --- enter write_ns ---
 LDA+U parameters:
U( 2)     =  7.50000000
alpha( 2) =  0.00000000
atom    3   Tr[ns(na)] =   2.00000
    eigenvalues:
  0.200  0.200  0.200  0.200  0.200
    eigenvectors:
  1.000  0.000  0.000  0.000  0.000
  0.000  1.000  0.000  0.000  0.000
  0.000  0.000  1.000  0.000  0.000
  0.000  0.000  0.000  1.000  0.000
  0.000  0.000  0.000  0.000  1.000
    occupations:
  0.200  0.000  0.000  0.000  0.000
  0.000  0.200  0.000  0.000  0.000
  0.000  0.000  0.200  0.000  0.000
  0.000  0.000  0.000  0.200  0.000
  0.000  0.000  0.000  0.000  0.200
atom    4   Tr[ns(na)] =   2.00000
    eigenvalues:
  0.200  0.200  0.200  0.200  0.200
    eigenvectors:
  1.000  0.000  0.000  0.000  0.000
  0.000  1.000  0.000  0.000  0.000
  0.000  0.000  1.000  0.000  0.000
  0.000  0.000  0.000  1.000  0.000
  0.000  0.000  0.000  0.000  1.000
    occupations:
  0.200  0.000  0.000  0.000  0.000
  0.000  0.200  0.000  0.000  0.000
  0.000  0.000  0.200  0.000  0.000
  0.000  0.000  0.000  0.200  0.000
  0.000  0.000  0.000  0.000  0.200
atom    9   Tr[ns(na)] =   2.00000
    eigenvalues:
  0.200  0.200  0.200  0.200  0.200
    eigenvectors:
  1.000  0.000  0.000  0.000  0.000
  0.000  1.000  0.000  0.000  0.000
  0.000  0.000  1.000  0.000  0.000
  0.000  0.000  0.000  1.000  0.000
  0.000  0.000  0.000  0.000  1.000
    occupations:
  0.200  0.000  0.000  0.000  0.000
  0.000  0.200  0.000  0.000  0.000
  0.000  0.000  0.200  0.000  0.000
  0.000  0.000  0.000  0.200  0.000
  0.000  0.000  0.000  0.000  0.200
atom   10   Tr[ns(na)] =   2.00000
    eigenvalues:
  0.200  0.200  0.200  0.200  0.200
    eigenvectors:
  1.000  0.000  0.000  0.000  0.000
  0.000  1.000  0.000  0.000  0.000
  0.000  0.000  1.000  0.000  0.000
  0.000  0.000  0.000  1.000  0.000
  0.000  0.000  0.000  0.000  1.000
    occupations:
  0.200  0.000  0.000  0.000  0.000
  0.000  0.200  0.000  0.000  0.000
  0.000  0.000  0.200  0.000  0.000
  0.000  0.000  0.000  0.200  0.000
  0.000  0.000  0.000  0.000  0.200
atom   16   Tr[ns(na)] =   2.00000
    eigenvalues:
  0.200  0.200  0.200  0.200  0.200
    eigenvectors:
  1.000  0.000  0.000  0.000  0.000
  0.000  1.000  0.000  0.000  0.000
  0.000  0.000  1.000  0.000  0.000
  0.000  0.000  0.000  1.000  0.000
  0.000  0.000  0.000  0.000  1.000
    occupations:
  0.200  0.000  0.000  0.000  0.000
  0.000  0.200  0.000  0.000  0.000
  0.000  0.000  0.200  0.000  0.000
  0.000  0.000  0.000  0.200  0.000
  0.000  0.000  0.000  0.000  0.200
atom   17   Tr[ns(na)] =   2.00000
    eigenvalues:
  0.200  0.200  0.200  0.200  0.200
    eigenvectors:
  1.000  0.000  0.000  0.000  0.000
  0.000  1.000  0.000  0.000  0.000
  0.000  0.000  1.000  0.000  0.000
  0.000  0.000  0.000  1.000  0.000
  0.000  0.000  0.000  0.000  1.000
    occupations:
  0.200  0.000  0.000  0.000  0.000
  0.000  0.200  0.000  0.000  0.000
  0.000  0.000  0.200  0.000  0.000
  0.000  0.000  0.000  0.200  0.000
  0.000  0.000  0.000  0.000  0.200
atom   22   Tr[ns(na)] =   2.00000
    eigenvalues:
  0.200  0.200  0.200  0.200  0.200
    eigenvectors:
  1.000  0.000  0.000  0.000  0.000
  0.000  1.000  0.000  0.000  0.000
  0.000  0.000  1.000  0.000  0.000
  0.000  0.000  0.000  1.000  0.000
  0.000  0.000  0.000  0.000  1.000
[...]
  0.119  0.141  0.151  0.447  0.452
    eigenvectors:
  0.008  0.002  0.000  0.001  0.989
  0.003  0.643  0.352  0.000  0.002
  0.002  0.350  0.647  0.000  0.000
  0.988  0.005  0.000  0.000  0.007
  0.000  0.000  0.000  0.999  0.001
    occupations:
  0.449  0.015  0.006 -0.028 -0.000
  0.015  0.145 -0.005 -0.000 -0.003
  0.006 -0.005  0.147  0.001 -0.000
 -0.028 -0.000  0.001  0.121 -0.000
 -0.000 -0.003 -0.000 -0.000  0.447
atom    9   Tr[ns(na)] =   2.60238
    eigenvalues:
  0.113  0.155  0.165  0.394  0.474
    eigenvectors:
  0.000  0.000  0.890  0.110  0.000
  0.000  0.000  0.000  0.001  0.999
  0.999  0.001  0.000  0.000  0.000
  0.000  0.000  0.110  0.889  0.001
  0.001  0.999  0.000  0.000  0.000
    occupations:
  0.191  0.002 -0.000  0.071 -0.000
  0.002  0.474 -0.000 -0.003 -0.000
 -0.000 -0.000  0.113 -0.000 -0.002
  0.071 -0.003 -0.000  0.369  0.000
 -0.000 -0.000 -0.002  0.000  0.155
atom   10   Tr[ns(na)] =   2.53374
    eigenvalues:
  0.118  0.166  0.180  0.325  0.478
    eigenvectors:
  0.023  0.000  0.000  0.977  0.000
  0.000  0.000  1.000  0.000  0.000
  0.000  1.000  0.000  0.000  0.000
  0.977  0.000  0.000  0.023  0.000
  0.000  0.000  0.000  0.000  1.000
    occupations:
  0.320  0.001 -0.001 -0.031 -0.000
  0.001  0.180 -0.000 -0.000  0.000
 -0.001 -0.000  0.166 -0.000 -0.002
 -0.031 -0.000 -0.000  0.123  0.000
 -0.000  0.000 -0.002  0.000  0.478
atom   16   Tr[ns(na)] =   2.53409
    eigenvalues:
  0.115  0.129  0.148  0.410  0.465
    eigenvectors:
  0.070  0.703  0.045  0.161  0.022
  0.002  0.002  0.002  0.227  0.766
  0.603  0.009  0.388  0.000  0.000
  0.019  0.151  0.008  0.612  0.211
  0.306  0.135  0.557  0.000  0.001
    occupations:
  0.181 -0.010 -0.003  0.111 -0.002
 -0.010  0.451 -0.002  0.030  0.014
 -0.003 -0.002  0.128  0.006  0.015
  0.111  0.030  0.006  0.372  0.001
 -0.002  0.014  0.015  0.001  0.136
atom   17   Tr[ns(na)] =   2.61531
    eigenvalues:
  0.117  0.143  0.152  0.441  0.455
    eigenvectors:
  0.007  0.002  0.000  0.001  0.990
  0.002  0.655  0.341  0.000  0.002
  0.001  0.339  0.659  0.000  0.000
  0.990  0.003  0.000  0.000  0.007
  0.000  0.000  0.000  0.999  0.001
    occupations:
  0.452  0.014  0.006 -0.028 -0.000
  0.014  0.146 -0.004 -0.000 -0.003
  0.006 -0.004  0.149  0.001 -0.000
 -0.028 -0.000  0.001  0.120 -0.000
 -0.000 -0.003 -0.000 -0.000  0.441
atom   22   Tr[ns(na)] =   2.60034
    eigenvalues:
  0.113  0.155  0.164  0.394  0.473
    eigenvectors:
  0.000  0.000  0.887  0.113  0.000
  0.000  0.000  0.000  0.001  0.999
  0.999  0.001  0.000  0.000  0.000
  0.000  0.000  0.113  0.886  0.001
  0.001  0.999  0.000  0.000  0.000
    occupations:
  0.190 -0.002 -0.000  0.073  0.000
 -0.002  0.473 -0.000  0.003 -0.000
 -0.000 -0.000  0.113 -0.000  0.001
  0.073  0.003 -0.000  0.369  0.000
  0.000 -0.000  0.001  0.000  0.155
atom   23   Tr[ns(na)] =   2.57147
    eigenvalues:
  0.100  0.167  0.202  0.394  0.423
    eigenvectors:
  0.012  0.017  0.000  0.971  0.000
  0.001  0.981  0.000  0.018  0.000
  0.000  0.000  1.000  0.000  0.000
  0.987  0.002  0.000  0.011  0.000
  0.000  0.000  0.000  0.000  1.000
    occupations:
  0.386  0.030  0.000 -0.031 -0.000
  0.030  0.171 -0.000 -0.002  0.000
  0.000 -0.000  0.202  0.000 -0.000
 -0.031 -0.002  0.000  0.103  0.000
 -0.000  0.000 -0.000  0.000  0.423
N of occupied +U levels =  20.6099101
 --- exit write_ns ---

[...]

     total energy              =   -1564.22164631 Ry
     Harris-Foulkes estimate   =   -1564.22164631 Ry
     estimated scf accuracy    <       0.00000002 Ry

     iteration # 16     ecut=    40.00 Ry     beta=0.70
     Davidson diagonalization with overlap
     ethr =  6.36E-12,  avg # of iterations =  1.0

     negative rho (up, down):  0.108E+00 0.000E+00

     End of self-consistent calculation
 --- enter write_ns ---
 LDA+U parameters:
U( 2)     =  7.50000000
alpha( 2) =  0.00000000
atom    3   Tr[ns(na)] =   2.53326
    eigenvalues:
  0.115  0.128  0.148  0.410  0.466
    eigenvectors:
  0.072  0.699  0.047  0.161  0.021
  0.002  0.002  0.002  0.225  0.768
  0.601  0.009  0.390  0.000  0.000
  0.019  0.151  0.008  0.613  0.209
  0.306  0.139  0.553  0.000  0.002
    occupations:
  0.181  0.010 -0.003  0.111  0.001
  0.010  0.451  0.002 -0.031  0.014
 -0.003  0.002  0.128  0.007 -0.015
  0.111 -0.031  0.007  0.371 -0.002
  0.001  0.014 -0.015 -0.002  0.136
atom    4   Tr[ns(na)] =   2.61926
    eigenvalues:
  0.119  0.141  0.151  0.447  0.452
    eigenvectors:
  0.008  0.002  0.000  0.001  0.989
  0.003  0.649  0.346  0.000  0.002
  0.002  0.344  0.653  0.000  0.000
  0.988  0.005  0.000  0.000  0.007
  0.000  0.000  0.000  0.999  0.001
    occupations:
  0.449  0.015  0.006 -0.028 -0.000
  0.015  0.145 -0.005 -0.000 -0.003
  0.006 -0.005  0.148  0.001 -0.000
 -0.028 -0.000  0.001  0.121 -0.000
 -0.000 -0.003 -0.000 -0.000  0.447
atom    9   Tr[ns(na)] =   2.60241
    eigenvalues:
  0.113  0.155  0.165  0.394  0.474
    eigenvectors:
  0.000  0.000  0.889  0.111  0.000
  0.000  0.000  0.000  0.001  0.999
  0.999  0.001  0.000  0.000  0.000
  0.000  0.000  0.110  0.888  0.001
  0.001  0.999  0.000  0.000  0.000
    occupations:
  0.190  0.002 -0.000  0.072  0.000
  0.002  0.474 -0.000 -0.003 -0.000
 -0.000 -0.000  0.113 -0.000 -0.001
  0.072 -0.003 -0.000  0.368  0.000
  0.000 -0.000 -0.001  0.000  0.155
atom   10   Tr[ns(na)] =   2.53490
    eigenvalues:
  0.118  0.167  0.180  0.325  0.477
    eigenvectors:
  0.023  0.000  0.000  0.977  0.000
  0.000  0.000  1.000  0.000  0.000
  0.000  1.000  0.000  0.000  0.000
  0.977  0.000  0.000  0.023  0.000
  0.000  0.000  0.000  0.000  1.000
    occupations:
  0.320  0.001 -0.001 -0.031 -0.000
  0.001  0.180 -0.000 -0.000  0.000
 -0.001 -0.000  0.167 -0.000 -0.002
 -0.031 -0.000 -0.000  0.123  0.000
 -0.000  0.000 -0.002  0.000  0.477
atom   16   Tr[ns(na)] =   2.53332
    eigenvalues:
  0.115  0.129  0.148  0.410  0.465
    eigenvectors:
  0.069  0.703  0.046  0.161  0.021
  0.002  0.002  0.002  0.227  0.766
  0.603  0.009  0.388  0.000  0.000
  0.019  0.151  0.008  0.612  0.211
  0.307  0.135  0.557  0.000  0.001
    occupations:
  0.181 -0.010 -0.003  0.111 -0.002
 -0.010  0.450 -0.002  0.030  0.014
 -0.003 -0.002  0.128  0.006  0.015
  0.111  0.030  0.006  0.372  0.001
 -0.002  0.014  0.015  0.001  0.136
atom   17   Tr[ns(na)] =   2.61614
    eigenvalues:
  0.117  0.143  0.152  0.441  0.455
    eigenvectors:
  0.007  0.002  0.000  0.001  0.990
  0.002  0.658  0.339  0.000  0.002
  0.001  0.337  0.661  0.000  0.000
  0.990  0.003  0.000  0.000  0.007
  0.000  0.000  0.000  0.999  0.001
    occupations:
  0.452  0.014  0.006 -0.028 -0.000
  0.014  0.146 -0.004 -0.000 -0.003
  0.006 -0.004  0.149  0.001 -0.000
 -0.028 -0.000  0.001  0.120 -0.000
 -0.000 -0.003 -0.000 -0.000  0.441
atom   22   Tr[ns(na)] =   2.60026
    eigenvalues:
  0.114  0.155  0.164  0.394  0.473
    eigenvectors:
  0.000  0.000  0.887  0.113  0.000
  0.000  0.000  0.000  0.001  0.999
  0.999  0.001  0.000  0.000  0.000
  0.000  0.000  0.113  0.886  0.001
  0.001  0.999  0.000  0.000  0.000
    occupations:
  0.190 -0.002 -0.000  0.073  0.000
 -0.002  0.473 -0.000  0.003 -0.000
 -0.000 -0.000  0.114 -0.000  0.001
  0.073  0.003 -0.000  0.368  0.000
  0.000 -0.000  0.001  0.000  0.155
atom   23   Tr[ns(na)] =   2.57311
    eigenvalues:
  0.100  0.167  0.202  0.394  0.423
    eigenvectors:
  0.012  0.017  0.000  0.970  0.000
  0.001  0.981  0.000  0.018  0.000
  0.000  0.000  1.000  0.000  0.000
  0.987  0.002  0.000  0.011  0.000
  0.000  0.000  0.000  0.000  1.000
    occupations:
  0.387  0.030  0.000 -0.031 -0.000
  0.030  0.172 -0.000 -0.002  0.000
  0.000 -0.000  0.202  0.000 -0.000
 -0.031 -0.002  0.000  0.103  0.000
 -0.000  0.000 -0.000  0.000  0.423
N of occupied +U levels =  20.6126568
 --- exit write_ns ---

[...]

          k = 0.2500-0.4516 0.0000 ( 29882 PWs)   bands (ev):

[...]

          k =-0.2500 0.2258 0.0000 ( 29912 PWs)   bands (ev):

   -61.7391 -61.7147 -61.6673 -61.1117 -60.7850 -60.7566 -60.3292 -60.3033
   -38.0968 -37.9960 -37.8948 -37.8892 -37.8620 -37.8415 -37.7745 -37.7637
   -37.7623 -37.3226 -37.2689 -37.2621 -37.2275 -37.0581 -36.9917 -36.9348
   -36.8223 -36.7946 -36.6130 -36.5904 -36.5812 -36.4931 -36.4327 -36.3006
   -21.6242 -21.4017 -20.5529 -20.2728 -20.2588 -19.9583 -19.7324 -19.6507
   -19.5835 -19.5420 -19.4151 -19.3723 -19.3601 -19.2973 -19.1981 -18.7546
   -18.5335 -18.0876 -18.0414  -9.2554  -9.0377  -8.0041  -7.7664  -7.7101
    -7.5352  -7.2809  -7.2537  -7.1159  -6.9804  -6.9211  -6.8765  -6.7872
    -6.7528  -6.7264  -6.5512  -6.4731  -6.4070  -6.2939  -6.2011  -5.9641
    -5.8969  -5.7506  -5.6380  -5.4803  -5.3382  -5.3177  -5.1801  -5.1349
    -5.0869  -5.0186  -5.0003  -4.9053  -4.8806  -4.7807  -4.7312  -4.7078
    -4.5873  -4.4926  -4.3624  -4.2658  -4.2226  -4.1654  -3.9385  -3.8509
    -3.6782  -3.5713  -3.5257  -3.4252  -3.3673  -3.2741  -3.1797  -3.0103
    -2.9189  -2.8991  -2.8323  -2.7042   0.0361   0.3395   0.3867   0.4952
     0.5321   0.6031   0.7561   0.8261   0.9103   0.9788   1.0561   1.0933
     1.1529   1.2615   1.3119   1.3809   1.4472   1.4969   1.5131   1.6100
     1.6952   1.7091   1.8066   1.8527   1.9005   2.0223   2.0591   2.1146
     2.2013   2.3672   2.5113   2.5631   2.6436   2.6784   2.8580   2.9144
     3.1685   3.2338   3.4036   3.4433   3.4624   3.7373   4.2606   4.6800
     5.0738   5.2413   5.3121   5.6498   5.8688   6.0076   6.1898   6.2533
     6.3283   6.5884   6.6241   6.9187   7.0254   7.2895   7.3301   7.4649
     7.6831   7.7500   7.8402   7.9552   8.0134   8.1290   8.1899   8.3756
     8.5234   8.5912   8.7286   8.7711   8.8733   8.9725   9.2525   9.3607
     9.4017   9.4625   9.5737   9.6002   9.6845   9.8204   9.9540  10.0512
    10.1326  10.2278  10.2870  10.4327  10.5385  10.6236  10.7454  10.8005
    10.8207  10.9266  11.0522  11.0947  11.1326  11.2317  11.2579  11.4061
    11.4475  11.5483  11.5874  11.6335  11.7550  11.7590  11.8474  11.9521
    12.0041  12.0688  12.1825  12.2479  12.3625  12.3937  12.4675  12.5102
    12.6275  12.7012  12.7662  12.8254  12.8472  12.9279  13.0085  13.0349
    13.1694  13.3108  13.3697  13.4359  13.4967  13.5712  13.6665  13.6829
    13.7452  13.8256  13.8635  13.9634  14.0491  14.1118  14.2303  14.3032
    14.3590  14.4226  14.5143  14.5778  14.6576  14.6774  14.8397  14.9218
    14.9638  15.0319  15.1529  15.2083  15.2786  15.3486  15.3886  15.4571
    15.5201  15.6481  15.7067  15.7429  15.8148  15.8988  15.9351  16.0429
    16.0713  16.1539  16.2846  16.3250  16.3953  16.5337  16.5866  16.6674
    16.7285  16.7589  16.8301  16.9254  16.9351  16.9925  17.0835  17.1091
    17.1580  17.2447  17.3343  17.3765  17.4486  17.5154  17.5630  17.6288
    17.7115  17.7680  17.8991  17.9332  18.0477  18.1106  18.1710  18.2287
    18.4015  18.4764  18.5182  18.5812  18.6278  18.7074

     the Fermi energy is    -2.7129 ev

!    total energy              =   -1564.22164631 Ry
     Harris-Foulkes estimate   =   -1564.22164631 Ry
     estimated scf accuracy    <          2.3E-09 Ry

     The total energy is the sum of the following terms:

     one-electron contribution =  -18369.60900897 Ry
     hartree contribution      =    9199.52638763 Ry
     xc contribution           =    -277.25735035 Ry
     ewald contribution        =    7879.36517040 Ry
     Hubbard energy            =       3.75199389 Ry
     smearing contrib. (-TS)   =       0.00116109 Ry

     convergence has been achieved in  16 iterations

     Forces acting on atoms (Ry/au):

     negative rho (up, down):  0.108E+00 0.000E+00
     atom    1 type  1   force =    -0.00315626   -0.01360737    0.00080170
     atom    2 type  1   force =    -0.00008277    0.01412920   -0.00003858
     atom    3 type  2   force =     0.05709504   -0.00521997    0.00012843
     atom    4 type  2   force =     0.00267477    0.00943757   -0.00076137
     atom    5 type  1   force =    -0.00367981   -0.07578493    0.00011084
     atom    6 type  1   force =    -0.00555201    0.07369058   -0.00047800
     atom    7 type  1   force =     0.00163972    0.00022435    0.00016742
     atom    8 type  1   force =     0.00113119   -0.00199716   -0.00047716
     atom    9 type  2   force =     0.00590284    0.00011987    0.00005652
     atom   10 type  2   force =    -0.00390231   -0.00027898   -0.00064166
     atom   11 type  1   force =    -0.01700442   -0.02040163   -0.00016079
     atom   12 type  1   force =    -0.01720448    0.02041638   -0.00010977
     atom   13 type  1   force =     0.00014121    0.00001708   -0.00003476
     atom   14 type  1   force =    -0.00497623   -0.01383461    0.00040379
     atom   15 type  1   force =     0.00028565    0.01415994   -0.00018415
     atom   16 type  2   force =    -0.05705325   -0.00588414    0.00009373
     atom   17 type  2   force =     0.00300630    0.00901315   -0.00064242
     atom   18 type  1   force =     0.00609864   -0.07561106    0.00013743
     atom   19 type  1   force =     0.00577750    0.07401818   -0.00051421
     atom   20 type  1   force =    -0.00103110   -0.00013279   -0.00009889
     atom   21 type  1   force =    -0.00081088   -0.00186434   -0.00036143
     atom   22 type  2   force =    -0.00524057    0.00024726    0.00048386
     atom   23 type  2   force =     0.00111885   -0.00012669    0.00041669
     atom   24 type  1   force =     0.01771778   -0.01768950    0.00092209
     atom   25 type  1   force =     0.01746408    0.01770597    0.00095384
     atom   26 type  1   force =    -0.00023478   -0.00004875    0.00037163
     atom   27 type  3   force =    -0.00003671   -0.00013424   -0.00027133
     atom   28 type  3   force =    -0.00003956   -0.00035650   -0.00081899
     atom   29 type  3   force =    -0.00037098   -0.00006165    0.00033191
     atom   30 type  3   force =    -0.00018979   -0.00009401    0.00023248
     atom   31 type  1   force =     0.00054931    0.00000415   -0.00050169
     atom   32 type  3   force =    -0.00003697   -0.00005534    0.00048284

     Total force =     0.002752     Total SCF correction =     0.000173

     bfgs converged in  20 scf cycles and  19 bfgs steps
     (criteria: energy < 0.10E-03, force < 0.10E-02)

     End of BFGS Geometry Optimization

     Final energy   =   -1564.2216463113 Ry
Begin final coordinates

ATOMIC_POSITIONS (crystal)
O0       0.000000000   0.000000000   0.374039461    0   0   1
O0       0.000000000   0.500000000   0.394859609    0   0   1
Ti1      0.250000000   0.500000000   0.448034426    0   0   1
Ti1      0.000000000   0.000000000   0.448951595    0   0   1
O0       0.250000000   0.810000000   0.447228057    0   0   1
O0       0.250000000   0.190000000   0.448424106    0   0   1
O0       0.000000000   0.500000000   0.496676078    0   0   1
O0       0.000000000   0.000000000   0.525878594    0   0   1
Ti1      0.250000000   0.000000000   0.579837993    0   0   1
Ti1      0.000000000   0.500000000   0.568797127    0   0   1
O0       0.250000000   0.690000000   0.582089681    0   0   1
O0       0.250000000   0.310000000   0.582114053    0   0   1
O0       0.000000000   0.000000000   0.624337957    0   0   1
O0       0.500000000   0.000000000   0.374811982    0   0   1
O0       0.500000000   0.500000000   0.394556556    0   0   1
Ti1      0.750000000   0.500000000   0.448104809    0   0   1
Ti1      0.500000000   0.000000000   0.450441333    0   0   1
O0       0.750000000   0.810000000   0.447182253    0   0   1
O0       0.750000000   0.190000000   0.448479223    0   0   1
O0       0.500000000   0.500000000   0.493015605    0   0   1
O0       0.500000000   0.000000000   0.525859778    0   0   1
Ti1      0.750000000   0.000000000   0.579767054    0   0   1
Ti1      0.500000000   0.500000000   0.596927218    0   0   1
O0       0.750000000   0.690000000   0.580922147    0   0   1
O0       0.750000000   0.310000000   0.580913119    0   0   1
O0       0.500000000   0.000000000   0.623596382    0   0   1
H2      -0.000239543   0.628540871   0.375398889
H2       0.499949849   0.630320876   0.375792318
H2       0.151420980   0.034653132   0.361163373
H2       0.650339259   0.036289861   0.361661905
O0       0.511842105   0.500094584   0.666192616
H2       0.373436219   0.499230098   0.686194701
End final coordinates

     General routines

     Parallel routines
     Hubbard U routines

   This run was terminated on:  19:45: 8  30Apr2014

   JOB DONE.
Running PBS batch system epilogue script
Job id: 340533.audhumbla.fysik.dtu.dk
Username: zhonxu
Groupname: campgst
Jobname: TiO2/Eads-2-layers/OH-U-7.5
Sessionid: 5750
Queuename: verylong
Accounting:
This job has allocated the following 16 nodes:
a082 a082 a082 a082 a082 a082 a082 a082 a050 a050 a050 a050 a050 a050 a050 a050
Finished epilogue job 340533.audhumbla.fysik.dtu.dk for zhonxu