     Program PWSCF v.5.0.2 (svn rev. 9656) starts on  8Aug2014 at 14:13: 6

     Current dimensions of program PWSCF are:
     Max number of different atomic species (ntypx) = 10
     Max number of k-points (npk) =  40000
     Max angular momentum in pseudopotentials (lmaxx) =  3
     Reading input from pwscf.in
Warning: card &CELL ignored
Warning: card / ignored

     Subspace diagonalization in iterative solution of the eigenvalue problem:
     a serial algorithm will be used

     bravais-lattice index     =            0
     lattice parameter (alat)  =      11.2250  a.u.
     unit-cell volume          =    7005.5484 (a.u.)^3
     number of atoms/cell      =           33
     number of atomic types    =            3
     number of electrons       =       221.00
     number of Kohn-Sham states=          319
     kinetic-energy cutoff     =      40.0000  Ry
     charge density cutoff     =     500.0000  Ry
     convergence threshold     =      1.0E-06
     mixing beta               =       0.7000
     number of iterations used =            8  plain     mixing
     Exchange-correlation      = SLA  PW   PBE  PBE ( 1 4 3 4 0)
     EXX-fraction              =        0.00
     nstep                     =           50

     celldm(1)=  11.224973  celldm(2)=   0.000000  celldm(3)=   0.000000
     celldm(4)=   0.000000  celldm(5)=   0.000000  celldm(6)=   0.000000

     crystal axes: (cart. coord. in units of alat)
               a(1) = (   1.000000   0.000000   0.000000 )
               a(2) = (   0.000000   1.107086   0.000000 )
               a(3) = (   0.000000   0.000000   4.474090 )

     reciprocal axes: (cart. coord. in units 2 pi/alat)
               b(1) = (  1.000000  0.000000  0.000000 )
               b(2) = (  0.000000  0.903272  0.000000 )
               b(3) = (  0.000000  0.000000  0.223509 )

     PseudoPot. # 1 for O  read from file:
     /home-research/zhongnanxu/gbrv_espresso_pseudo_v1.01/o_pbe_v1.01.uspp.F.UPF
     MD5 check sum: 2bcb18d16ea4b960afae9ec6d52f22d2
     Pseudo is Ultrasoft + core correction, Zval =  6.0
     Generated by new atomic code, or converted to UPF format
     Using radial grid of  737 points,  5 beta functions with:
                l(1) =   0
                l(2) =   0
                l(3) =   1
                l(4) =   1
                l(5) =   2
     Q(r) pseudized with  8 coefficients,  rinner =    0.900   0.900   0.900
                                                       0.900   0.900

     PseudoPot. # 2 for Ti read from file:
     /home-research/zhongnanxu/gbrv_espresso_pseudo_v1.01/ti_pbe_v1.uspp.F.UPF
     MD5 check sum: bcc8f6961b3b91f0cac3ca967d22d0fb
     Pseudo is Ultrasoft + core correction, Zval = 12.0
     Generated by new atomic code, or converted to UPF format
     Using radial grid of  851 points,  6 beta functions with:
                l(1) =   0
                l(2) =   0
                l(3) =   1
                l(4) =   1
                l(5) =   2
                l(6) =   2
     Q(r) pseudized with  6 coefficients,  rinner =    1.000   1.000   1.000
                                                       1.000   1.000

     PseudoPot. # 3 for H  read from file:
     /home-research/zhongnanxu/gbrv_espresso_pseudo_v1.01/h_pbe_v1.uspp.F.UPF
     MD5 check sum: 3408e3ff4ec8b0a4e358431e7e038a48
     Pseudo is Ultrasoft, Zval =  1.0
     Generated by new atomic code, or converted to UPF format
     Using radial grid of  615 points,  2 beta functions with:
                l(1) =   0
                l(2) =   0
     Q(r) pseudized with  8 coefficients,  rinner =    0.700

     atomic species   valence    mass     pseudopotential
        O0             6.00    15.99940     O ( 1.00)
        Ti1           12.00    47.88000     Ti( 1.00)
        H2             1.00     1.00794     H ( 1.00)

     Simplified LDA+U calculation (l_max = 2) with parameters (eV):
     atomic species    L          U    alpha       J0     beta
        Ti1            2     3.0000   0.0000   0.0000   0.0000

     No symmetry found

   Cartesian axes

     site n.     atom                  positions (alat units)
         1           O0  tau(   1) = (   0.0000000   0.0000000   1.6912954  )
         2           O0  tau(   2) = (   0.0000000   0.5535432   1.7865040  )
         3           Ti1 tau(   3) = (   0.2500000   0.5535432   2.0182619  )
         4           Ti1 tau(   4) = (   0.0000000   0.0000000   2.0215280  )
         5           O0  tau(   5) = (   0.2500000   0.8967400   2.0132062  )
         6           O0  tau(   6) = (   0.2500000   0.2103464   2.0173223  )
         7           O0  tau(   7) = (   0.0000000   0.5535432   2.2297074  )
         8           O0  tau(   8) = (   0.0000000   0.0000000   2.3520737  )
         9           Ti1 tau(   9) = (   0.2500000   0.0000000   2.5974328  )
        10           Ti1 tau(  10) = (   0.0000000   0.5535432   2.5411040  )
        11           O0  tau(  11) = (   0.2500000   0.7638896   2.5876345  )
        12           O0  tau(  12) = (   0.2500000   0.3431968   2.5923323  )
        13           O0  tau(  13) = (   0.0000000   0.0000000   2.7826601  )
        14           O0  tau(  14) = (   0.5000000   0.0000000   1.6946510  )
        15           O0  tau(  15) = (   0.5000000   0.5535432   1.7849381  )
        16           Ti1 tau(  16) = (   0.7500000   0.5535432   2.0183066  )
        17           Ti1 tau(  17) = (   0.5000000   0.0000000   2.0277470  )
        18           O0  tau(  18) = (   0.7500000   0.8967400   2.0129377  )
        19           O0  tau(  19) = (   0.7500000   0.2103464   2.0175013  )
        20           O0  tau(  20) = (   0.5000000   0.5535432   2.2179405  )
        21           O0  tau(  21) = (   0.5000000   0.0000000   2.3528791  )
        22           Ti1 tau(  22) = (   0.7500000   0.0000000   2.5974328  )
        23           Ti1 tau(  23) = (   0.5000000   0.5535432   2.6181478  )
        24           O0  tau(  24) = (   0.7500000   0.7638896   2.5875898  )
        25           O0  tau(  25) = (   0.7500000   0.3431968   2.5922429  )
        26           O0  tau(  26) = (   0.5000000   0.0000000   2.7811837  )
        27           H2  tau(  27) = (  -0.0004600   0.6930693   1.6949194  )
        28           H2  tau(  28) = (   0.4997200   0.6918293   1.6916086  )
        29           H2  tau(  29) = (   0.1490000   0.0365781   1.6268238  )
        30           H2  tau(  30) = (   0.6482800   0.0381834   1.6297319  )
        31           O0  tau(  31) = (   0.5003100   0.5833902   2.9430115  )
        32           O0  tau(  32) = (   0.4991200   0.3876242   3.0783974  )
        33           H2  tau(  33) = (   0.5003600   0.4575034   3.2295322  )

     number of k points=    10  Methfessel-Paxton smearing, width (Ry)=  0.0100
                       cart. coord. in units 2pi/alat
        k(    1) = (   0.0000000   0.0000000   0.0000000), wk =   0.1250000
        k(    2) = (   0.0000000   0.2258180   0.0000000), wk =   0.2500000
        k(    3) = (   0.0000000  -0.4516359   0.0000000), wk =   0.1250000
        k(    4) = (   0.2500000   0.0000000   0.0000000), wk =   0.2500000
        k(    5) = (   0.2500000   0.2258180   0.0000000), wk =   0.2500000
        k(    6) = (   0.2500000  -0.4516359   0.0000000), wk =   0.2500000
        k(    7) = (  -0.5000000   0.0000000   0.0000000), wk =   0.1250000
        k(    8) = (  -0.5000000   0.2258180   0.0000000), wk =   0.2500000
        k(    9) = (  -0.5000000  -0.4516359   0.0000000), wk =   0.1250000
        k(   10) = (  -0.2500000   0.2258180   0.0000000), wk =   0.2500000

     Largest allocated arrays     est. size (Mb)     dimensions
     Largest temporary arrays     est. size (Mb)     dimensions

     Check: negative/imaginary core charge=   -0.000006    0.000000

     Initial potential from superposition of free atoms
     Check: negative starting charge=   -0.102033

     starting charge  212.99957, renormalised to  221.00000

     negative rho (up, down):  0.106E+00 0.000E+00
     Number of +U iterations with fixed ns =  0
     Starting occupations:
 --- enter write_ns ---
 LDA+U parameters:
U( 2)     =  3.00000000
alpha( 2) =  0.00000000
atom    3   Tr[ns(na)] =   2.00000
    eigenvalues:
  0.200  0.200  0.200  0.200  0.200
    eigenvectors:
  1.000  0.000  0.000  0.000  0.000
  0.000  1.000  0.000  0.000  0.000
  0.000  0.000  1.000  0.000  0.000
  0.000  0.000  0.000  1.000  0.000
  0.000  0.000  0.000  0.000  1.000
    occupations:
  0.200  0.000  0.000  0.000  0.000
  0.000  0.200  0.000  0.000  0.000
  0.000  0.000  0.200  0.000  0.000
  0.000  0.000  0.000  0.200  0.000
  0.000  0.000  0.000  0.000  0.200
atom    4   Tr[ns(na)] =   2.00000
    eigenvalues:
  0.200  0.200  0.200  0.200  0.200
    eigenvectors:
  1.000  0.000  0.000  0.000  0.000
  0.000  1.000  0.000  0.000  0.000
  0.000  0.000  1.000  0.000  0.000
  0.000  0.000  0.000  1.000  0.000
  0.000  0.000  0.000  0.000  1.000
    occupations:
  0.200  0.000  0.000  0.000  0.000
  0.000  0.200  0.000  0.000  0.000
  0.000  0.000  0.200  0.000  0.000
  0.000  0.000  0.000  0.200  0.000
  0.000  0.000  0.000  0.000  0.200
atom    9   Tr[ns(na)] =   2.00000
    eigenvalues:
  0.200  0.200  0.200  0.200  0.200
    eigenvectors:
  1.000  0.000  0.000  0.000  0.000
  0.000  1.000  0.000  0.000  0.000
  0.000  0.000  1.000  0.000  0.000
  0.000  0.000  0.000  1.000  0.000
  0.000  0.000  0.000  0.000  1.000
    occupations:
  0.200  0.000  0.000  0.000  0.000
  0.000  0.200  0.000  0.000  0.000
  0.000  0.000  0.200  0.000  0.000
  0.000  0.000  0.000  0.200  0.000
  0.000  0.000  0.000  0.000  0.200
atom   10   Tr[ns(na)] =   2.00000
    eigenvalues:
  0.200  0.200  0.200  0.200  0.200
    eigenvectors:
  1.000  0.000  0.000  0.000  0.000
  0.000  1.000  0.000  0.000  0.000
  0.000  0.000  1.000  0.000  0.000
  0.000  0.000  0.000  1.000  0.000
  0.000  0.000  0.000  0.000  1.000
    occupations:
  0.200  0.000  0.000  0.000  0.000
  0.000  0.200  0.000  0.000  0.000
  0.000  0.000  0.200  0.000  0.000
  0.000  0.000  0.000  0.200  0.000
  0.000  0.000  0.000  0.000  0.200
atom   16   Tr[ns(na)] =   2.00000
    eigenvalues:
  0.200  0.200  0.200  0.200  0.200
    eigenvectors:
  1.000  0.000  0.000  0.000  0.000
  0.000  1.000  0.000  0.000  0.000
  0.000  0.000  1.000  0.000  0.000
  0.000  0.000  0.000  1.000  0.000
  0.000  0.000  0.000  0.000  1.000
    occupations:
  0.200  0.000  0.000  0.000  0.000
  0.000  0.200  0.000  0.000  0.000
  0.000  0.000  0.200  0.000  0.000
  0.000  0.000  0.000  0.200  0.000
  0.000  0.000  0.000  0.000  0.200
atom   17   Tr[ns(na)] =   2.00000
    eigenvalues:
  0.200  0.200  0.200  0.200  0.200
    eigenvectors:
  1.000  0.000  0.000  0.000  0.000
  0.000  1.000  0.000  0.000  0.000
  0.000  0.000  1.000  0.000  0.000
  0.000  0.000  0.000  1.000  0.000
  0.000  0.000  0.000  0.000  1.000
    occupations:
  0.200  0.000  0.000  0.000  0.000
  0.000  0.200  0.000  0.000  0.000
  0.000  0.000  0.200  0.000  0.000
  0.000  0.000  0.000  0.200  0.000
  0.000  0.000  0.000  0.000  0.200
atom   22   Tr[ns(na)] =   2.00000
    eigenvalues:
  0.200  0.200  0.200  0.200  0.200
    eigenvectors:
[...]
  0.093 -0.011  0.007  0.358 -0.001
  0.001  0.012 -0.009 -0.001  0.185
atom    4   Tr[ns(na)] =   2.84393
    eigenvalues:
  0.161  0.193  0.214  0.421  0.433
    eigenvectors:
  0.006  0.003  0.000  0.000  0.990
  0.002  0.911  0.084  0.000  0.003
  0.001  0.083  0.916  0.000  0.000
  0.991  0.002  0.000  0.000  0.006
  0.000  0.000  0.000  1.000  0.000
    occupations:
  0.431  0.013  0.004 -0.021  0.000
  0.013  0.196 -0.006  0.000 -0.002
  0.004 -0.006  0.212  0.001  0.000
 -0.021  0.000  0.001  0.162  0.000
  0.000 -0.002  0.000  0.000  0.421
atom    9   Tr[ns(na)] =   2.83975
    eigenvalues:
  0.167  0.210  0.226  0.377  0.440
    eigenvectors:
  0.000  0.001  0.914  0.085  0.000
  0.000  0.000  0.000  0.000  1.000
  1.000  0.000  0.000  0.000  0.000
  0.000  0.000  0.085  0.914  0.000
  0.000  0.999  0.001  0.000  0.000
    occupations:
  0.239  0.001  0.001  0.042  0.000
  0.001  0.440  0.000 -0.001  0.000
  0.001  0.000  0.167  0.002 -0.001
  0.042 -0.001  0.002  0.364  0.000
  0.000  0.000 -0.001  0.000  0.210
atom   10   Tr[ns(na)] =   2.77809
    eigenvalues:
  0.171  0.212  0.228  0.335  0.442
    eigenvectors:
  0.018  0.000  0.000  0.982  0.000
  0.000  0.000  1.000  0.000  0.000
  0.001  0.999  0.000  0.000  0.000
  0.982  0.001  0.000  0.018  0.000
  0.000  0.000  0.000  0.000  1.000
    occupations:
  0.333  0.000 -0.001 -0.022  0.000
  0.000  0.228  0.000  0.000  0.003
 -0.001  0.000  0.212 -0.001  0.000
 -0.022  0.000 -0.001  0.174  0.000
  0.000  0.003  0.000  0.000  0.442
atom   16   Tr[ns(na)] =   2.73616
    eigenvalues:
  0.165  0.179  0.200  0.400  0.425
    eigenvectors:
  0.733  0.037  0.038  0.172  0.019
  0.001  0.002  0.001  0.133  0.863
  0.081  0.211  0.707  0.000  0.000
  0.178  0.007  0.006  0.693  0.116
  0.006  0.743  0.248  0.000  0.002
    occupations:
  0.212 -0.002 -0.005  0.093 -0.001
 -0.002  0.421 -0.001  0.011  0.012
 -0.005 -0.001  0.193  0.007  0.009
  0.093  0.011  0.007  0.358  0.000
 -0.001  0.012  0.009  0.000  0.185
atom   17   Tr[ns(na)] =   2.84379
    eigenvalues:
  0.159  0.196  0.215  0.418  0.435
    eigenvectors:
  0.006  0.002  0.000  0.000  0.991
  0.001  0.922  0.075  0.000  0.003
  0.000  0.074  0.925  0.000  0.000
  0.993  0.001  0.000  0.000  0.006
  0.000  0.000  0.000  1.000  0.000
    occupations:
  0.432  0.012  0.004 -0.021  0.000
  0.012  0.198 -0.005  0.000 -0.002
  0.004 -0.005  0.213  0.001  0.000
 -0.021  0.000  0.001  0.161  0.000
  0.000 -0.002  0.000  0.000  0.417
atom   22   Tr[ns(na)] =   2.83979
    eigenvalues:
  0.167  0.210  0.226  0.377  0.440
    eigenvectors:
  0.000  0.000  0.915  0.085  0.000
  0.000  0.000  0.000  0.000  1.000
  1.000  0.000  0.000  0.000  0.000
  0.000  0.000  0.085  0.915  0.000
  0.000  1.000  0.000  0.000  0.000
    occupations:
  0.239 -0.001  0.001  0.042  0.000
 -0.001  0.440  0.000  0.001  0.000
  0.001  0.000  0.167  0.002  0.001
  0.042  0.001  0.002  0.364  0.000
  0.000  0.000  0.001  0.000  0.210
atom   23   Tr[ns(na)] =   2.75706
    eigenvalues:
  0.163  0.174  0.223  0.371  0.448
    eigenvectors:
  0.000  0.008  0.000  0.992  0.000
  0.000  0.000  1.000  0.000  0.000
  0.997  0.003  0.000  0.000  0.000
  0.003  0.989  0.000  0.008  0.000
  0.000  0.000  0.000  0.000  1.000
    occupations:
  0.369  0.000 -0.004 -0.018  0.000
  0.000  0.223  0.000  0.000  0.002
 -0.004  0.000  0.163  0.001  0.000
 -0.018  0.000  0.001  0.176  0.000
  0.000  0.002  0.000  0.000  0.448
N of occupied +U levels =  22.3744709
 --- exit write_ns ---

[...]

     total energy              =   -1598.61983006 Ry
     Harris-Foulkes estimate   =   -1598.61983008 Ry
     estimated scf accuracy    <       0.00000038 Ry

     iteration # 12     ecut=    40.00 Ry     beta=0.70
     Davidson diagonalization with overlap
     ethr =  1.71E-10,  avg # of iterations =  1.0

     negative rho (up, down):  0.105E+00 0.000E+00

     End of self-consistent calculation
 --- enter write_ns ---
 LDA+U parameters:
U( 2)     =  3.00000000
alpha( 2) =  0.00000000
atom    3   Tr[ns(na)] =   2.73637
    eigenvalues:
  0.165  0.179  0.200  0.400  0.425
    eigenvectors:
  0.727  0.044  0.038  0.172  0.019
  0.001  0.002  0.001  0.135  0.862
  0.087  0.216  0.697  0.000  0.000
  0.177  0.008  0.006  0.692  0.116
  0.008  0.731  0.259  0.000  0.002
    occupations:
  0.212  0.002 -0.005  0.093  0.001
  0.002  0.421  0.001 -0.011  0.012
 -0.005  0.001  0.192  0.007 -0.009
  0.093 -0.011  0.007  0.358 -0.001
  0.001  0.012 -0.009 -0.001  0.185
atom    4   Tr[ns(na)] =   2.84367
    eigenvalues:
  0.161  0.193  0.214  0.421  0.433
    eigenvectors:
  0.006  0.003  0.000  0.000  0.990
  0.002  0.912  0.083  0.000  0.003
  0.001  0.083  0.916  0.000  0.000
  0.991  0.002  0.000  0.000  0.006
  0.000  0.000  0.000  1.000  0.000
    occupations:
  0.430  0.013  0.004 -0.021  0.000
  0.013  0.195 -0.006  0.000 -0.002
  0.004 -0.006  0.212  0.001  0.000
 -0.021  0.000  0.001  0.162  0.000
  0.000 -0.002  0.000  0.000  0.421
atom    9   Tr[ns(na)] =   2.83859
    eigenvalues:
  0.167  0.210  0.226  0.377  0.440
    eigenvectors:
  0.000  0.001  0.914  0.086  0.000
  0.000  0.000  0.000  0.000  1.000
  1.000  0.000  0.000  0.000  0.000
  0.000  0.000  0.085  0.914  0.000
  0.000  0.999  0.001  0.000  0.000
    occupations:
  0.239  0.001  0.001  0.042  0.000
  0.001  0.440  0.000 -0.001  0.000
  0.001  0.000  0.167  0.002 -0.001
  0.042 -0.001  0.002  0.364  0.000
  0.000  0.000 -0.001  0.000  0.210
atom   10   Tr[ns(na)] =   2.77847
    eigenvalues:
  0.171  0.213  0.228  0.336  0.442
    eigenvectors:
  0.018  0.000  0.000  0.982  0.000
  0.000  0.000  1.000  0.000  0.000
  0.001  0.999  0.000  0.000  0.000
  0.982  0.001  0.000  0.017  0.000
  0.000  0.000  0.000  0.000  1.000
    occupations:
  0.333  0.000 -0.001 -0.022  0.000
  0.000  0.228  0.000  0.000  0.003
 -0.001  0.000  0.213 -0.001  0.000
 -0.022  0.000 -0.001  0.174  0.000
  0.000  0.003  0.000  0.000  0.442
atom   16   Tr[ns(na)] =   2.73662
    eigenvalues:
  0.165  0.179  0.200  0.400  0.425
    eigenvectors:
  0.732  0.039  0.038  0.172  0.019
  0.001  0.002  0.001  0.134  0.862
  0.082  0.215  0.703  0.000  0.000
  0.178  0.007  0.006  0.693  0.116
  0.007  0.738  0.253  0.000  0.002
    occupations:
  0.212 -0.002 -0.005  0.093 -0.001
 -0.002  0.421 -0.001  0.011  0.012
 -0.005 -0.001  0.193  0.007  0.009
  0.093  0.011  0.007  0.358  0.000
 -0.001  0.012  0.009  0.000  0.185
atom   17   Tr[ns(na)] =   2.84349
    eigenvalues:
  0.159  0.196  0.215  0.417  0.435
    eigenvectors:
  0.006  0.002  0.000  0.000  0.991
  0.001  0.922  0.074  0.000  0.003
  0.000  0.074  0.926  0.000  0.000
  0.993  0.001  0.000  0.000  0.006
  0.000  0.000  0.000  1.000  0.000
    occupations:
  0.432  0.012  0.004 -0.021  0.000
  0.012  0.198 -0.005  0.000 -0.002
  0.004 -0.005  0.213  0.001  0.000
 -0.021  0.000  0.001  0.161  0.000
  0.000 -0.002  0.000  0.000  0.417
atom   22   Tr[ns(na)] =   2.83862
    eigenvalues:
  0.167  0.210  0.226  0.377  0.440
    eigenvectors:
  0.000  0.000  0.914  0.085  0.000
  0.000  0.000  0.000  0.000  1.000
  1.000  0.000  0.000  0.000  0.000
  0.000  0.000  0.085  0.914  0.000
  0.000  1.000  0.000  0.000  0.000
    occupations:
  0.239 -0.001  0.001  0.042  0.000
 -0.001  0.440  0.000  0.001  0.000
  0.001  0.000  0.167  0.002  0.001
  0.042  0.001  0.002  0.364  0.000
  0.000  0.000  0.001  0.000  0.210
atom   23   Tr[ns(na)] =   2.75730
    eigenvalues:
  0.163  0.174  0.223  0.370  0.448
    eigenvectors:
  0.000  0.008  0.000  0.992  0.000
  0.000  0.000  1.000  0.000  0.000
  0.997  0.003  0.000  0.000  0.000
  0.003  0.989  0.000  0.008  0.000
  0.000  0.000  0.000  0.000  1.000
    occupations:
  0.369  0.000 -0.004 -0.018  0.000
  0.000  0.223  0.000  0.000  0.002
 -0.004  0.000  0.163  0.001  0.000
 -0.018  0.000  0.001  0.176  0.000
  0.000  0.002  0.000  0.000  0.448
N of occupied +U levels =  22.3731410
 --- exit write_ns ---

[...]

          k = 0.2500-0.4516 0.0000 ( 29882 PWs)   bands (ev):

[...]

          k =-0.2500 0.2258 0.0000 ( 29912 PWs)   bands (ev):

   -60.3935 -60.3676 -60.1232 -59.9230 -59.1674 -59.1346 -58.7693 -58.7417
   -36.8455 -36.6160 -36.5895 -36.5112 -36.4998 -36.4777 -36.4679 -36.4076
   -36.2805 -36.1494 -36.1238 -36.0827 -35.6979 -35.4755 -35.4009 -35.3866
   -35.2513 -35.2224 -35.1372 -35.0854 -35.0632 -34.9873 -34.9180 -34.8209
   -24.8512 -21.1932 -20.9705 -20.1968 -19.6618 -19.5871 -19.2278 -19.1502
   -19.0419 -19.0061 -18.9242 -18.9112 -18.8356 -18.7010 -18.6568 -18.1844
   -17.8626 -17.6885 -17.5522 -17.5119  -9.5680  -8.9033  -8.6413  -7.9257
    -7.2850  -7.2357  -7.0955  -7.0688  -7.0047  -6.6875  -6.6327  -6.4716
    -6.4425  -6.3808  -6.3627  -6.2984  -6.2173  -6.1541  -6.0968  -5.8847
    -5.8235  -5.6956  -5.5452  -5.5250  -5.3894  -5.1057  -4.9668  -4.8751
    -4.8584  -4.7937  -4.6721  -4.6564  -4.5583  -4.5051  -4.4245  -4.3413
    -4.2772  -4.2329  -4.2255  -4.1034  -4.0771  -3.8981  -3.8495  -3.7716
    -3.6817  -3.5462  -3.3466  -3.1982  -3.0138  -2.9160  -2.8847  -2.7794
    -2.6780  -2.6331  -2.5715  -2.3972  -2.2885  -2.1770  -2.1342  -0.1448
    -0.0106   0.0907   0.2252   0.3534   0.5224   0.5438   0.6083   0.7367
     0.7966   0.9134   1.0039   1.1218   1.3095   1.4647   1.5064   1.5526
     1.6053   1.8433   1.9257   1.9536   2.0481   2.1421   2.1738   2.3151
     2.3760   2.5031   2.5822   2.6541   2.7096   2.7674   3.0668   3.4548
     3.5607   3.6728   3.7528   3.9138   4.0065   4.0669   4.1468   4.2254
     4.4123   4.6276   4.7134   4.7977   5.1502   5.2125   5.5414   5.6584
     5.6788   5.9518   6.0518   6.2298   6.4088   6.5857   6.6889   7.0241
     7.1150   7.2915   7.4947   7.5655   7.7229   7.9311   8.0024   8.1108
     8.2080   8.3311   8.4811   8.5328   8.6819   8.7940   8.8942   8.9917
     9.1178   9.2058   9.2483   9.3642   9.4939   9.6571   9.7212   9.7583
     9.8498   9.9976  10.1611  10.2777  10.3289  10.3982  10.4632  10.5470
    10.6402  10.8058  10.8839  10.9595  11.0069  11.1211  11.1971  11.3019
    11.3814  11.4283  11.5094  11.5945  11.6400  11.7501  11.7983  11.9054
    12.0026  12.1181  12.1702  12.2313  12.2714  12.3092  12.4082  12.4813
    12.5330  12.6067  12.6966  12.7577  12.8010  12.9738  12.9875  13.0654
    13.1078  13.2453  13.2658  13.3419  13.4627  13.5713  13.6454  13.7839
    13.8337  13.9298  13.9695  14.0639  14.1129  14.2174  14.2793  14.3073
    14.3427  14.4110  14.5240  14.5952  14.6325  14.6865  14.7852  14.8626
    14.9147  15.0553  15.0845  15.1611  15.2108  15.3204  15.3677  15.4037
    15.4958  15.5553  15.6396  15.6836  15.6956  15.7832  15.8537  15.9360
    15.9935  16.1162  16.1561  16.1814  16.2574  16.3198  16.4287  16.4789
    16.5110  16.5712  16.6465  16.7145  16.7895  16.8240  16.8842  16.9531
    17.0577  17.1314  17.1784  17.2516  17.3218  17.3311  17.4354  17.4692
    17.5604  17.5994  17.6701  17.8174  17.9054  17.9762  18.0301  18.0801
    18.1629  18.2076  18.3071  18.3694  18.4235  18.4976  18.5765  18.6249
    18.6643  18.7445  18.8004  18.8743  18.9614  19.0850  19.1130

     the Fermi energy is    -2.1188 ev

!    total energy              =   -1598.61983007 Ry
     Harris-Foulkes estimate   =   -1598.61983007 Ry
     estimated scf accuracy    <          4.1E-09 Ry

     The total energy is the sum of the following terms:

     one-electron contribution =  -19186.09373694 Ry
     hartree contribution      =    9616.05167160 Ry
     xc contribution           =    -284.56217808 Ry
     ewald contribution        =    8254.31798091 Ry
     Hubbard energy            =       1.66803753 Ry
     smearing contrib. (-TS)   =      -0.00160509 Ry

     convergence has been achieved in  12 iterations

     Forces acting on atoms (Ry/au):

     negative rho (up, down):  0.105E+00 0.000E+00
     atom    1 type  1   force =    -0.00088197   -0.01358692    0.00031658
     atom    2 type  1   force =     0.00007984    0.01737567   -0.00028905
     atom    3 type  2   force =     0.04924751   -0.01073888    0.00026938
     atom    4 type  2   force =    -0.00208569    0.00821226    0.00043509
     atom    5 type  1   force =    -0.00107690   -0.08581931   -0.00029913
     atom    6 type  1   force =    -0.00508853    0.08560291   -0.00028568
     atom    7 type  1   force =     0.00010767   -0.00093763    0.00057964
     atom    8 type  1   force =     0.00176929   -0.00046227   -0.00041463
     atom    9 type  2   force =    -0.00020885   -0.00011409    0.00040464
     atom   10 type  2   force =    -0.00003663    0.00016496    0.00007527
     atom   11 type  1   force =    -0.02171203   -0.01639716    0.00012657
     atom   12 type  1   force =    -0.01777807    0.02159079   -0.00031147
     atom   13 type  1   force =     0.00027970   -0.00244959    0.00001333
     atom   14 type  1   force =    -0.00285501   -0.01362136    0.00044134
     atom   15 type  1   force =     0.00008039    0.01730656   -0.00037595
     atom   16 type  2   force =    -0.04904290   -0.01150720    0.00027389
     atom   17 type  2   force =    -0.00222373    0.00760231    0.00027358
     atom   18 type  1   force =     0.00662784   -0.08579806   -0.00027062
     atom   19 type  1   force =     0.00405752    0.08613887   -0.00032303
     atom   20 type  1   force =    -0.00011599   -0.00023180    0.00086990
     atom   21 type  1   force =     0.00175896    0.00015974   -0.00047069
     atom   22 type  2   force =    -0.00066851   -0.00004559    0.00040365
     atom   23 type  2   force =    -0.00002483   -0.00276488   -0.00019865
     atom   24 type  1   force =     0.02190212   -0.01632644    0.00013999
     atom   25 type  1   force =     0.01767570    0.02147728   -0.00031656
     atom   26 type  1   force =     0.00032050   -0.00517066    0.00019459
     atom   27 type  3   force =    -0.00001819    0.00029857   -0.00018121
     atom   28 type  3   force =     0.00000219    0.00013991   -0.00055479
     atom   29 type  3   force =    -0.00001302    0.00002056    0.00018737
     atom   30 type  3   force =    -0.00007397   -0.00003305    0.00019369
     atom   31 type  1   force =     0.00012006   -0.00059439   -0.00098724
     atom   32 type  1   force =    -0.00014527    0.00010673    0.00013668
     atom   33 type  3   force =     0.00002080    0.00040216   -0.00005650

     Total force =     0.002337     Total SCF correction =     0.000109

     bfgs converged in  21 scf cycles and  20 bfgs steps
     (criteria: energy < 0.10E-03, force < 0.10E-02)

     End of BFGS Geometry Optimization

     Final energy   =   -1598.6198300652 Ry
Begin final coordinates

ATOMIC_POSITIONS (crystal)
O0       0.000000000   0.000000000   0.377231664    0   0   1
O0       0.000000000   0.500000000   0.399075403    0   0   1
Ti1      0.250000000   0.500000000   0.451084898    0   0   1
Ti1      0.000000000   0.000000000   0.450974152    0   0   1
O0       0.250000000   0.810000000   0.449875188    0   0   1
O0       0.250000000   0.190000000   0.450866006    0   0   1
O0       0.000000000   0.500000000   0.498447961    0   0   1
O0       0.000000000   0.000000000   0.526179143    0   0   1
Ti1      0.250000000   0.000000000   0.580800249    0   0   1
Ti1      0.000000000   0.500000000   0.569031889    0   0   1
O0       0.250000000   0.690000000   0.578463355    0   0   1
O0       0.250000000   0.310000000   0.580045147    0   0   1
O0       0.000000000   0.000000000   0.623004433    0   0   1
O0       0.500000000   0.000000000   0.378079475    0   0   1
O0       0.500000000   0.500000000   0.398985893    0   0   1
Ti1      0.750000000   0.500000000   0.451092847    0   0   1
Ti1      0.500000000   0.000000000   0.452934470    0   0   1
O0       0.750000000   0.810000000   0.449808094    0   0   1
O0       0.750000000   0.190000000   0.450966237    0   0   1
O0       0.500000000   0.500000000   0.497289952    0   0   1
O0       0.500000000   0.000000000   0.526401620    0   0   1
Ti1      0.750000000   0.000000000   0.580805075    0   0   1
Ti1      0.500000000   0.500000000   0.582297007    0   0   1
O0       0.750000000   0.690000000   0.578448948    0   0   1
O0       0.750000000   0.310000000   0.580036939    0   0   1
O0       0.500000000   0.000000000   0.622581229    0   0   1
H2      -0.000372368   0.627799814   0.379226119
H2       0.499668392   0.628943951   0.379563754
H2       0.151012503   0.030146822   0.363482192
H2       0.650089202   0.031702586   0.364106234
O0       0.500310000   0.535934733   0.657481963    0   1   1
O0       0.499120000   0.356268261   0.686213286    0   1   1
H2       0.500360000   0.414053267   0.720589179    0   1   1
End final coordinates

     General routines

     Parallel routines
     Hubbard U routines

   This run was terminated on:  10:15: 9   9Aug2014

   JOB DONE.