     Program PWSCF v.5.0.2 (svn rev. 9656) starts on 25May2014 at  4: 5:19

     Current dimensions of program PWSCF are:
     Max number of different atomic species (ntypx) = 10
     Max number of k-points (npk) =  40000
     Max angular momentum in pseudopotentials (lmaxx) =  3
     Reading input from pwscf.in
Warning: card &CELL ignored
Warning: card / ignored

     Subspace diagonalization in iterative solution of the eigenvalue problem:
     a serial algorithm will be used

     Found symmetry operation: I + ( -0.5000  0.0000  0.0000)
     This is a supercell, fractional translations are disabled

     bravais-lattice index     =            0
     lattice parameter (alat)  =      11.2250  a.u.
     unit-cell volume          =    7005.5484 (a.u.)^3
     number of atoms/cell      =           30
     number of atomic types    =            3
     number of electrons       =       208.00
     number of Kohn-Sham states=          300
     kinetic-energy cutoff     =      40.0000  Ry
     charge density cutoff     =     500.0000  Ry
     convergence threshold     =      1.0E-06
     mixing beta               =       0.7000
     number of iterations used =            8  plain     mixing
     Exchange-correlation      = SLA  PW   PBE  PBE ( 1 4 3 4 0)
     EXX-fraction              =        0.00
     nstep                     =           50

     celldm(1)=  11.224973  celldm(2)=   0.000000  celldm(3)=   0.000000
     celldm(4)=   0.000000  celldm(5)=   0.000000  celldm(6)=   0.000000

     crystal axes: (cart. coord. in units of alat)
               a(1) = (   1.000000   0.000000   0.000000 )
               a(2) = (   0.000000   1.107086   0.000000 )
               a(3) = (   0.000000   0.000000   4.474090 )

     reciprocal axes: (cart. coord. in units 2 pi/alat)
               b(1) = (  1.000000  0.000000  0.000000 )
               b(2) = (  0.000000  0.903272  0.000000 )
               b(3) = (  0.000000  0.000000  0.223509 )

     PseudoPot. # 1 for O  read from file:
     /home/camp/zhonxu/pseudo/o_pbe_v1.01.uspp.F.UPF
     MD5 check sum: 2bcb18d16ea4b960afae9ec6d52f22d2
     Pseudo is Ultrasoft + core correction, Zval =  6.0
     Generated by new atomic code, or converted to UPF format
     Using radial grid of  737 points,  5 beta functions with:
                l(1) =   0
                l(2) =   0
                l(3) =   1
                l(4) =   1
                l(5) =   2
     Q(r) pseudized with  8 coefficients,  rinner =    0.900   0.900   0.900
                                                       0.900   0.900

     PseudoPot. # 2 for Ti read from file:
     /home/camp/zhonxu/pseudo/ti_pbe_v1.uspp.F.UPF
     MD5 check sum: bcc8f6961b3b91f0cac3ca967d22d0fb
     Pseudo is Ultrasoft + core correction, Zval = 12.0
     Generated by new atomic code, or converted to UPF format
     Using radial grid of  851 points,  6 beta functions with:
                l(1) =   0
                l(2) =   0
                l(3) =   1
                l(4) =   1
                l(5) =   2
                l(6) =   2
     Q(r) pseudized with  6 coefficients,  rinner =    1.000   1.000   1.000
                                                       1.000   1.000

     PseudoPot. # 3 for H  read from file:
     /home/camp/zhonxu/pseudo/h_pbe_v1.uspp.F.UPF
     MD5 check sum: 3408e3ff4ec8b0a4e358431e7e038a48
     Pseudo is Ultrasoft, Zval =  1.0
     Generated by new atomic code, or converted to UPF format
     Using radial grid of  615 points,  2 beta functions with:
                l(1) =   0
                l(2) =   0
     Q(r) pseudized with  8 coefficients,  rinner =    0.700

     atomic species   valence    mass     pseudopotential
        O0             6.00    15.99940     O ( 1.00)
        Ti1           12.00    47.88000     Ti( 1.00)
        H2             1.00     1.00794     H ( 1.00)

     Simplified LDA+U calculation (l_max = 2) with parameters (eV):
     atomic species    L          U    alpha       J0     beta
        Ti1            2     4.5000   0.0000   0.0000   0.0000

     No symmetry found

   Cartesian axes

     site n.     atom                  positions (alat units)
         1           O0  tau(   1) = (   0.0000000   0.0000000   1.6932193  )
         2           O0  tau(   2) = (   0.0000000   0.5535432   1.7846697  )
         3           Ti1 tau(   3) = (   0.2500000   0.5535432   2.0143694  )
         4           Ti1 tau(   4) = (   0.0000000   0.0000000   2.0220201  )
         5           O0  tau(   5) = (   0.2500000   0.8967400   2.0171434  )
         6           O0  tau(   6) = (   0.2500000   0.2103464   2.0218412  )
         7           O0  tau(   7) = (   0.0000000   0.5535432   2.2318997  )
         8           O0  tau(   8) = (   0.0000000   0.0000000   2.3593665  )
         9           Ti1 tau(   9) = (   0.2500000   0.0000000   2.6007436  )
        10           Ti1 tau(  10) = (   0.0000000   0.5535432   2.5540789  )
        11           O0  tau(  11) = (   0.2500000   0.7638896   2.5990435  )
        12           O0  tau(  12) = (   0.2500000   0.3431968   2.5991777  )
        13           O0  tau(  13) = (   0.0000000   0.0000000   2.7908924  )
        14           O0  tau(  14) = (   0.5000000   0.0000000   1.6932193  )
        15           O0  tau(  15) = (   0.5000000   0.5535432   1.7846697  )
        16           Ti1 tau(  16) = (   0.7500000   0.5535432   2.0143694  )
        17           Ti1 tau(  17) = (   0.5000000   0.0000000   2.0220201  )
        18           O0  tau(  18) = (   0.7500000   0.8967400   2.0171434  )
        19           O0  tau(  19) = (   0.7500000   0.2103464   2.0218412  )
        20           O0  tau(  20) = (   0.5000000   0.5535432   2.2318997  )
        21           O0  tau(  21) = (   0.5000000   0.0000000   2.3593665  )
        22           Ti1 tau(  22) = (   0.7500000   0.0000000   2.6007436  )
        23           Ti1 tau(  23) = (   0.5000000   0.5535432   2.5540789  )
        24           O0  tau(  24) = (   0.7500000   0.7638896   2.5990435  )
        25           O0  tau(  25) = (   0.7500000   0.3431968   2.5991777  )
        26           O0  tau(  26) = (   0.5000000   0.0000000   2.7908924  )
        27           H2  tau(  27) = (  -0.0004100   0.7007746   1.7035097  )
        28           H2  tau(  28) = (   0.4995900   0.7007746   1.7035097  )
        29           H2  tau(  29) = (   0.1521900   0.0256733   1.6312084  )
        30           H2  tau(  30) = (   0.6521900   0.0256733   1.6312084  )

     number of k points=    10  Methfessel-Paxton smearing, width (Ry)=  0.0100
                       cart. coord. in units 2pi/alat
        k(    1) = (   0.0000000   0.0000000   0.0000000), wk =   0.1250000
        k(    2) = (   0.0000000   0.2258180   0.0000000), wk =   0.2500000
        k(    3) = (   0.0000000  -0.4516359   0.0000000), wk =   0.1250000
        k(    4) = (   0.2500000   0.0000000   0.0000000), wk =   0.2500000
        k(    5) = (   0.2500000   0.2258180   0.0000000), wk =   0.2500000
        k(    6) = (   0.2500000  -0.4516359   0.0000000), wk =   0.2500000
        k(    7) = (  -0.5000000   0.0000000   0.0000000), wk =   0.1250000
        k(    8) = (  -0.5000000   0.2258180   0.0000000), wk =   0.2500000
        k(    9) = (  -0.5000000  -0.4516359   0.0000000), wk =   0.1250000
        k(   10) = (  -0.2500000   0.2258180   0.0000000), wk =   0.2500000

     Largest allocated arrays     est. size (Mb)     dimensions
     Largest temporary arrays     est. size (Mb)     dimensions

     Check: negative/imaginary core charge=   -0.000005    0.000000

     Initial potential from superposition of free atoms
     Check: negative starting charge=   -0.102152

     starting charge  199.99958, renormalised to  208.00000

     negative rho (up, down):  0.106E+00 0.000E+00
     Number of +U iterations with fixed ns =  0
     Starting occupations:
 --- enter write_ns ---
 LDA+U parameters:
U( 2)     =  4.50000000
alpha( 2) =  0.00000000
atom    3   Tr[ns(na)] =   2.00000
    eigenvalues:
  0.200  0.200  0.200  0.200  0.200
    eigenvectors:
  1.000  0.000  0.000  0.000  0.000
  0.000  1.000  0.000  0.000  0.000
  0.000  0.000  1.000  0.000  0.000
  0.000  0.000  0.000  1.000  0.000
  0.000  0.000  0.000  0.000  1.000
    occupations:
  0.200  0.000  0.000  0.000  0.000
  0.000  0.200  0.000  0.000  0.000
  0.000  0.000  0.200  0.000  0.000
  0.000  0.000  0.000  0.200  0.000
  0.000  0.000  0.000  0.000  0.200
atom    4   Tr[ns(na)] =   2.00000
    eigenvalues:
  0.200  0.200  0.200  0.200  0.200
    eigenvectors:
  1.000  0.000  0.000  0.000  0.000
  0.000  1.000  0.000  0.000  0.000
  0.000  0.000  1.000  0.000  0.000
  0.000  0.000  0.000  1.000  0.000
  0.000  0.000  0.000  0.000  1.000
    occupations:
  0.200  0.000  0.000  0.000  0.000
  0.000  0.200  0.000  0.000  0.000
  0.000  0.000  0.200  0.000  0.000
  0.000  0.000  0.000  0.200  0.000
  0.000  0.000  0.000  0.000  0.200
atom    9   Tr[ns(na)] =   2.00000
    eigenvalues:
  0.200  0.200  0.200  0.200  0.200
    eigenvectors:
  1.000  0.000  0.000  0.000  0.000
  0.000  1.000  0.000  0.000  0.000
  0.000  0.000  1.000  0.000  0.000
  0.000  0.000  0.000  1.000  0.000
  0.000  0.000  0.000  0.000  1.000
    occupations:
  0.200  0.000  0.000  0.000  0.000
  0.000  0.200  0.000  0.000  0.000
  0.000  0.000  0.200  0.000  0.000
  0.000  0.000  0.000  0.200  0.000
  0.000  0.000  0.000  0.000  0.200
atom   10   Tr[ns(na)] =   2.00000
    eigenvalues:
  0.200  0.200  0.200  0.200  0.200
    eigenvectors:
  1.000  0.000  0.000  0.000  0.000
  0.000  1.000  0.000  0.000  0.000
  0.000  0.000  1.000  0.000  0.000
  0.000  0.000  0.000  1.000  0.000
  0.000  0.000  0.000  0.000  1.000
    occupations:
  0.200  0.000  0.000  0.000  0.000
  0.000  0.200  0.000  0.000  0.000
  0.000  0.000  0.200  0.000  0.000
  0.000  0.000  0.000  0.200  0.000
  0.000  0.000  0.000  0.000  0.200
atom   16   Tr[ns(na)] =   2.00000
    eigenvalues:
  0.200  0.200  0.200  0.200  0.200
    eigenvectors:
  1.000  0.000  0.000  0.000  0.000
  0.000  1.000  0.000  0.000  0.000
  0.000  0.000  1.000  0.000  0.000
  0.000  0.000  0.000  1.000  0.000
  0.000  0.000  0.000  0.000  1.000
    occupations:
  0.200  0.000  0.000  0.000  0.000
  0.000  0.200  0.000  0.000  0.000
  0.000  0.000  0.200  0.000  0.000
  0.000  0.000  0.000  0.200  0.000
  0.000  0.000  0.000  0.000  0.200
atom   17   Tr[ns(na)] =   2.00000
    eigenvalues:
  0.200  0.200  0.200  0.200  0.200
    eigenvectors:
  1.000  0.000  0.000  0.000  0.000
  0.000  1.000  0.000  0.000  0.000
  0.000  0.000  1.000  0.000  0.000
  0.000  0.000  0.000  1.000  0.000
  0.000  0.000  0.000  0.000  1.000
    occupations:
  0.200  0.000  0.000  0.000  0.000
  0.000  0.200  0.000  0.000  0.000
  0.000  0.000  0.200  0.000  0.000
  0.000  0.000  0.000  0.200  0.000
  0.000  0.000  0.000  0.000  0.200
atom   22   Tr[ns(na)] =   2.00000
    eigenvalues:
  0.200  0.200  0.200  0.200  0.200
    eigenvectors:
  1.000  0.000  0.000  0.000  0.000
  0.000  1.000  0.000  0.000  0.000
  0.000  0.000  1.000  0.000  0.000
  0.000  0.000  0.000  1.000  0.000
  0.000  0.000  0.000  0.000  1.000
    occupations:
[...]
  0.991  0.003  0.000  0.000  0.006
  0.000  0.000  0.000  1.000  0.000
    occupations:
  0.443  0.016  0.004 -0.023 -0.000
  0.016  0.180 -0.005  0.000 -0.003
  0.004 -0.005  0.202  0.001 -0.000
 -0.023  0.000  0.001  0.146 -0.000
 -0.000 -0.003 -0.000 -0.000  0.421
atom    9   Tr[ns(na)] =   2.78055
    eigenvalues:
  0.154  0.197  0.212  0.375  0.453
    eigenvectors:
  0.000  0.000  0.915  0.085  0.000
  0.000  0.000  0.000  0.000  1.000
  1.000  0.000  0.000  0.000  0.000
  0.000  0.000  0.085  0.915  0.000
  0.000  1.000  0.000  0.000  0.000
    occupations:
  0.225 -0.000 -0.000  0.046  0.000
 -0.000  0.453  0.000 -0.000 -0.000
 -0.000  0.000  0.154  0.000  0.000
  0.046 -0.000  0.000  0.361 -0.000
  0.000 -0.000  0.000 -0.000  0.197
atom   10   Tr[ns(na)] =   2.69337
    eigenvalues:
  0.156  0.198  0.210  0.326  0.457
    eigenvectors:
  0.025  0.000  0.000  0.975  0.000
  0.000  0.000  1.000  0.000  0.000
  0.000  1.000  0.000  0.000  0.000
  0.975  0.000  0.000  0.025  0.000
  0.000  0.000  0.000  0.000  1.000
    occupations:
  0.322 -0.000 -0.000 -0.027 -0.000
 -0.000  0.210 -0.000 -0.000  0.000
 -0.000 -0.000  0.198 -0.000  0.000
 -0.027 -0.000 -0.000  0.160 -0.000
 -0.000  0.000  0.000 -0.000  0.457
atom   16   Tr[ns(na)] =   2.65348
    eigenvalues:
  0.140  0.162  0.191  0.416  0.417
    eigenvectors:
  0.783  0.000  0.019  0.000  0.198
  0.000  0.002  0.000  0.998  0.000
  0.021  0.000  0.978  0.000  0.000
  0.196  0.000  0.002  0.000  0.802
  0.000  0.998  0.000  0.002  0.000
    occupations:
  0.196 -0.000 -0.005  0.110 -0.000
 -0.000  0.415  0.000  0.000  0.012
 -0.005  0.000  0.190  0.007 -0.000
  0.110  0.000  0.007  0.362 -0.000
 -0.000  0.012 -0.000 -0.000  0.163
atom   17   Tr[ns(na)] =   2.78304
    eigenvalues:
  0.144  0.177  0.204  0.421  0.446
    eigenvectors:
  0.006  0.003  0.000  0.000  0.990
  0.002  0.946  0.048  0.000  0.004
  0.001  0.048  0.951  0.000  0.000
  0.991  0.003  0.000  0.000  0.006
  0.000  0.000  0.000  1.000  0.000
    occupations:
  0.443  0.016  0.004 -0.023 -0.000
  0.016  0.180 -0.005  0.000 -0.003
  0.004 -0.005  0.202  0.001 -0.000
 -0.023  0.000  0.001  0.146 -0.000
 -0.000 -0.003 -0.000 -0.000  0.421
atom   22   Tr[ns(na)] =   2.78055
    eigenvalues:
  0.154  0.197  0.212  0.375  0.453
    eigenvectors:
  0.000  0.000  0.915  0.085  0.000
  0.000  0.000  0.000  0.000  1.000
  1.000  0.000  0.000  0.000  0.000
  0.000  0.000  0.085  0.915  0.000
  0.000  1.000  0.000  0.000  0.000
    occupations:
  0.225 -0.000 -0.000  0.046  0.000
 -0.000  0.453  0.000 -0.000 -0.000
 -0.000  0.000  0.154  0.000  0.000
  0.046 -0.000  0.000  0.361 -0.000
  0.000 -0.000  0.000 -0.000  0.197
atom   23   Tr[ns(na)] =   2.69337
    eigenvalues:
  0.156  0.198  0.210  0.326  0.457
    eigenvectors:
  0.025  0.000  0.000  0.975  0.000
  0.000  0.000  1.000  0.000  0.000
  0.000  1.000  0.000  0.000  0.000
  0.975  0.000  0.000  0.025  0.000
  0.000  0.000  0.000  0.000  1.000
    occupations:
  0.322 -0.000 -0.000 -0.027 -0.000
 -0.000  0.210 -0.000 -0.000  0.000
 -0.000 -0.000  0.198 -0.000  0.000
 -0.027 -0.000 -0.000  0.160 -0.000
 -0.000  0.000  0.000 -0.000  0.457
N of occupied +U levels =  21.8208760
 --- exit write_ns ---

     Threshold (ethr) on eigenvalues was too large:
     Diagonalizing with lowered threshold

     Davidson diagonalization with overlap
     ethr =  4.50E-11,  avg # of iterations =  1.0

[...]

     total energy              =   -1532.44546481 Ry
     Harris-Foulkes estimate   =   -1532.44546500 Ry
     estimated scf accuracy    <       0.00000055 Ry

     iteration #  3     ecut=    40.00 Ry     beta=0.70
     Davidson diagonalization with overlap
     ethr =  4.68E-11,  avg # of iterations =  2.0

     negative rho (up, down):  0.106E+00 0.000E+00

     End of self-consistent calculation
 --- enter write_ns ---
 LDA+U parameters:
U( 2)     =  4.50000000
alpha( 2) =  0.00000000
atom    3   Tr[ns(na)] =   2.65356
    eigenvalues:
  0.140  0.162  0.191  0.416  0.417
    eigenvectors:
  0.783  0.000  0.020  0.000  0.198
  0.000  0.002  0.000  0.998  0.000
  0.021  0.000  0.978  0.000  0.000
  0.196  0.000  0.002  0.000  0.802
  0.000  0.998  0.000  0.002  0.000
    occupations:
  0.196 -0.000 -0.005  0.110 -0.000
 -0.000  0.415  0.000  0.000  0.012
 -0.005  0.000  0.190  0.007 -0.000
  0.110  0.000  0.007  0.362 -0.000
 -0.000  0.012 -0.000 -0.000  0.163
atom    4   Tr[ns(na)] =   2.78305
    eigenvalues:
  0.144  0.177  0.204  0.421  0.446
    eigenvectors:
  0.006  0.003  0.000  0.000  0.990
  0.002  0.946  0.048  0.000  0.004
  0.001  0.048  0.951  0.000  0.000
  0.991  0.003  0.000  0.000  0.006
  0.000  0.000  0.000  1.000  0.000
    occupations:
  0.443  0.016  0.004 -0.023 -0.000
  0.016  0.180 -0.005  0.000 -0.003
  0.004 -0.005  0.202  0.001 -0.000
 -0.023  0.000  0.001  0.146 -0.000
 -0.000 -0.003 -0.000 -0.000  0.421
atom    9   Tr[ns(na)] =   2.78047
    eigenvalues:
  0.154  0.197  0.212  0.375  0.453
    eigenvectors:
  0.000  0.000  0.915  0.085  0.000
  0.000  0.000  0.000  0.000  1.000
  1.000  0.000  0.000  0.000  0.000
  0.000  0.000  0.085  0.915  0.000
  0.000  1.000  0.000  0.000  0.000
    occupations:
  0.225 -0.000 -0.000  0.046  0.000
 -0.000  0.453  0.000 -0.000 -0.000
 -0.000  0.000  0.154  0.000  0.000
  0.046 -0.000  0.000  0.361 -0.000
  0.000 -0.000  0.000 -0.000  0.197
atom   10   Tr[ns(na)] =   2.69341
    eigenvalues:
  0.156  0.198  0.210  0.326  0.457
    eigenvectors:
  0.025  0.000  0.000  0.975  0.000
  0.000  0.000  1.000  0.000  0.000
  0.000  1.000  0.000  0.000  0.000
  0.975  0.000  0.000  0.025  0.000
  0.000  0.000  0.000  0.000  1.000
    occupations:
  0.322 -0.000 -0.000 -0.027 -0.000
 -0.000  0.210 -0.000 -0.000  0.000
 -0.000 -0.000  0.198 -0.000  0.000
 -0.027 -0.000 -0.000  0.160 -0.000
 -0.000  0.000  0.000 -0.000  0.457
atom   16   Tr[ns(na)] =   2.65356
    eigenvalues:
  0.140  0.162  0.191  0.416  0.417
    eigenvectors:
  0.783  0.000  0.020  0.000  0.198
  0.000  0.002  0.000  0.998  0.000
  0.021  0.000  0.978  0.000  0.000
  0.196  0.000  0.002  0.000  0.802
  0.000  0.998  0.000  0.002  0.000
    occupations:
  0.196 -0.000 -0.005  0.110 -0.000
 -0.000  0.415  0.000  0.000  0.012
 -0.005  0.000  0.190  0.007 -0.000
  0.110  0.000  0.007  0.362 -0.000
 -0.000  0.012 -0.000 -0.000  0.163
atom   17   Tr[ns(na)] =   2.78305
    eigenvalues:
  0.144  0.177  0.204  0.421  0.446
    eigenvectors:
  0.006  0.003  0.000  0.000  0.990
  0.002  0.946  0.048  0.000  0.004
  0.001  0.048  0.951  0.000  0.000
  0.991  0.003  0.000  0.000  0.006
  0.000  0.000  0.000  1.000  0.000
    occupations:
  0.443  0.016  0.004 -0.023 -0.000
  0.016  0.180 -0.005  0.000 -0.003
  0.004 -0.005  0.202  0.001 -0.000
 -0.023  0.000  0.001  0.146 -0.000
 -0.000 -0.003 -0.000 -0.000  0.421
atom   22   Tr[ns(na)] =   2.78047
    eigenvalues:
  0.154  0.197  0.212  0.375  0.453
    eigenvectors:
  0.000  0.000  0.915  0.085  0.000
  0.000  0.000  0.000  0.000  1.000
  1.000  0.000  0.000  0.000  0.000
  0.000  0.000  0.085  0.915  0.000
  0.000  1.000  0.000  0.000  0.000
    occupations:
  0.225 -0.000 -0.000  0.046  0.000
 -0.000  0.453  0.000 -0.000 -0.000
 -0.000  0.000  0.154  0.000  0.000
  0.046 -0.000  0.000  0.361 -0.000
  0.000 -0.000  0.000 -0.000  0.197
atom   23   Tr[ns(na)] =   2.69341
    eigenvalues:
  0.156  0.198  0.210  0.326  0.457
    eigenvectors:
  0.025  0.000  0.000  0.975  0.000
  0.000  0.000  1.000  0.000  0.000
  0.000  1.000  0.000  0.000  0.000
  0.975  0.000  0.000  0.025  0.000
  0.000  0.000  0.000  0.000  1.000
    occupations:
  0.322 -0.000 -0.000 -0.027 -0.000
 -0.000  0.210 -0.000 -0.000  0.000
 -0.000 -0.000  0.198 -0.000  0.000
 -0.027 -0.000 -0.000  0.160 -0.000
 -0.000  0.000  0.000 -0.000  0.457
N of occupied +U levels =  21.8209805
 --- exit write_ns ---

[...]

          k = 0.2500-0.4516 0.0000 ( 29882 PWs)   bands (ev):

[...]

          k =-0.2500 0.2258 0.0000 ( 29912 PWs)   bands (ev):

   -61.7839 -61.7590 -61.3451 -61.3193 -60.1158 -60.0881 -59.5866 -59.5596
   -38.2309 -37.9947 -37.9622 -37.9284 -37.8201 -37.7988 -37.6660 -37.6590
   -37.6416 -37.4880 -37.4254 -37.3711 -36.6463 -36.4270 -36.3556 -36.3389
   -36.1532 -36.1308 -35.9280 -35.9061 -35.9033 -35.7781 -35.7115 -35.5965
   -22.2705 -22.0536 -20.9839 -20.7938 -20.3629 -20.2934 -19.9592 -19.7836
   -19.7496 -19.6446 -19.5626 -19.5362 -19.3984 -19.2777 -18.6370 -18.3055
   -17.9670 -17.9237  -9.8968  -9.6398  -8.1510  -7.9538  -7.8694  -7.8534
    -7.7912  -7.7812  -7.4314  -7.3909  -7.2004  -7.1253  -7.0941  -7.0721
    -6.9714  -6.8266  -6.7826  -6.6583  -6.5037  -6.4489  -6.1295  -6.0863
    -6.0101  -5.8122  -5.7639  -5.6567  -5.6320  -5.4572  -5.3536  -5.3416
    -5.2636  -5.1563  -5.1121  -5.0855  -5.0233  -5.0048  -4.8499  -4.7302
    -4.6760  -4.5307  -4.4407  -4.4199  -3.9107  -3.7217  -3.5090  -3.4429
    -3.3485  -3.2900  -3.1275  -3.0862  -3.0522  -2.8788  -2.8052  -2.6816
    -1.0556  -0.7948  -0.6905  -0.5950  -0.5698  -0.4103  -0.3660  -0.2703
     0.0064   0.0491   0.1205   0.1737   0.3019   0.4734   0.7341   0.8144
     0.9877   1.0619   1.1493   1.2820   1.3478   1.4188   1.4514   1.5271
     1.5463   1.6256   1.6282   1.7577   1.8142   2.0578   2.1458   2.3988
     2.8500   2.9462   3.0863   3.1264   3.3474   3.4516   3.5602   3.8123
     3.9987   4.1574   4.1904   4.5867   4.9431   4.9737   5.2478   5.7085
     5.7838   5.8933   5.9969   6.1098   6.1702   6.4845   6.5058   6.8204
     6.8637   7.1353   7.2559   7.3819   7.5057   7.6744   7.6885   7.8339
     7.8901   8.0240   8.0244   8.2210   8.4668   8.4855   8.6194   8.6551
     8.8067   8.9716   9.2597   9.2999   9.3074   9.3920   9.4661   9.4701
     9.5044   9.6501   9.8387   9.9970  10.0089  10.1141  10.2151  10.3908
    10.4272  10.5910  10.5952  10.7113  10.8162  10.9238  10.9273  10.9753
    11.0908  11.2385  11.2829  11.3506  11.3652  11.4674  11.5125  11.6473
    11.6503  11.7393  11.8736  11.9537  11.9570  11.9832  12.1079  12.2416
    12.2964  12.3580  12.5181  12.6058  12.6384  12.6473  12.7313  12.8676
    12.8731  12.9766  13.0311  13.2229  13.2336  13.3433  13.3674  13.4465
    13.5564  13.6229  13.6903  13.7009  13.7633  13.8068  13.9040  14.0161
    14.0588  14.1770  14.1953  14.2994  14.3897  14.4787  14.5805  14.5851
    14.6599  14.6638  14.7731  14.9387  14.9691  15.0124  15.0911  15.2522
    15.3240  15.3415  15.4813  15.5012  15.6408  15.7008  15.7165  15.7445
    15.8213  15.8888  15.9409  16.0351  16.1131  16.1293  16.2371  16.3147
    16.3948  16.5714  16.6283  16.6469  16.7620  16.8172  16.8434  16.8645
    16.9105  16.9924  17.0741  17.0814  17.2207  17.2471  17.3019  17.3997
    17.4194  17.4896  17.4936  17.6001  17.7045  17.7806  17.8212  17.9674
    18.0331  18.1678  18.2003  18.2492

     the Fermi energy is    -2.5947 ev

!    total energy              =   -1532.44546489 Ry
     Harris-Foulkes estimate   =   -1532.44546490 Ry
     estimated scf accuracy    <          1.0E-08 Ry

     The total energy is the sum of the following terms:

     one-electron contribution =  -18290.52507521 Ry
     hartree contribution      =    9157.35556633 Ry
     xc contribution           =    -269.71622883 Ry
     ewald contribution        =    7868.00421795 Ry
     Hubbard energy            =       2.43448388 Ry
     smearing contrib. (-TS)   =       0.00157099 Ry

     convergence has been achieved in   3 iterations

     Forces acting on atoms (Ry/au):

     negative rho (up, down):  0.106E+00 0.000E+00
     atom    1 type  1   force =    -0.00202973   -0.01738918   -0.00115868
     atom    2 type  1   force =    -0.00000011    0.02379637   -0.00108353
     atom    3 type  2   force =     0.00014465   -0.01327320    0.00109255
     atom    4 type  2   force =    -0.00092028    0.01015347    0.00389585
     atom    5 type  1   force =     0.00285027   -0.10890197   -0.00149902
     atom    6 type  1   force =    -0.00102632    0.10716434   -0.00147625
     atom    7 type  1   force =    -0.00003803    0.00084473   -0.00258646
     atom    8 type  1   force =     0.00145157   -0.00178337   -0.00302879
     atom    9 type  2   force =    -0.00038032    0.00013510    0.00395529
     atom   10 type  2   force =    -0.00003282   -0.00037619    0.00203010
     atom   11 type  1   force =     0.00007009   -0.04321615    0.00082900
     atom   12 type  1   force =    -0.00002046    0.04327119    0.00079648
     atom   13 type  1   force =     0.00026438   -0.00004317   -0.00004709
     atom   14 type  1   force =    -0.00202974   -0.01738918   -0.00115868
     atom   15 type  1   force =    -0.00000010    0.02379637   -0.00108352
     atom   16 type  2   force =     0.00014466   -0.01327320    0.00109253
     atom   17 type  2   force =    -0.00092027    0.01015347    0.00389584
     atom   18 type  1   force =     0.00285027   -0.10890197   -0.00149903
     atom   19 type  1   force =    -0.00102631    0.10716434   -0.00147625
     atom   20 type  1   force =    -0.00003804    0.00084473   -0.00258643
     atom   21 type  1   force =     0.00145156   -0.00178337   -0.00302877
     atom   22 type  2   force =    -0.00038039    0.00013510    0.00395528
     atom   23 type  2   force =    -0.00003282   -0.00037619    0.00203012
     atom   24 type  1   force =     0.00007008   -0.04321615    0.00082901
     atom   25 type  1   force =    -0.00002046    0.04327119    0.00079649
     atom   26 type  1   force =     0.00026437   -0.00004318   -0.00004718
     atom   27 type  3   force =     0.00003878   -0.00079628   -0.00115579
     atom   28 type  3   force =     0.00003878   -0.00079629   -0.00115578
     atom   29 type  3   force =    -0.00037165    0.00041432   -0.00056364
     atom   30 type  3   force =    -0.00037164    0.00041432   -0.00056364

     Total force =     0.011213     Total SCF correction =     0.000174

     entering subroutine stress ...

     negative rho (up, down):  0.106E+00 0.000E+00
          total   stress  (Ry/bohr**3)                   (kbar)     P=    6.72
   0.00015657  -0.00000243   0.00000399         23.03     -0.36      0.59
  -0.00000243  -0.00000172   0.00000062         -0.36     -0.25      0.09
   0.00000399   0.00000062  -0.00001781          0.59      0.09     -2.62

     The maximum number of steps has been reached.

     End of BFGS Geometry Optimization
Begin final coordinates

ATOMIC_POSITIONS (crystal)
O0       0.000000000   0.000000000   0.378441046    0   0   1
O0       0.000000000   0.500000000   0.398854996    0   0   1
Ti1      0.250000000   0.500000000   0.450162179    0   0   1
Ti1      0.000000000   0.000000000   0.451973933    0   0   1
O0       0.250000000   0.810000000   0.450752909    0   0   1
O0       0.250000000   0.190000000   0.451796826    0   0   1
O0       0.000000000   0.500000000   0.498839495    0   0   1
O0       0.000000000   0.000000000   0.527346522    0   0   1
Ti1      0.250000000   0.000000000   0.581410241    0   0   1
Ti1      0.000000000   0.500000000   0.570812751    0   0   1
O0       0.250000000   0.690000000   0.581052554    0   0   1
O0       0.250000000   0.310000000   0.581082555    0   0   1
O0       0.000000000   0.000000000   0.623889033    0   0   1
O0       0.500000000   0.000000000   0.378441048    0   0   1
O0       0.500000000   0.500000000   0.398854994    0   0   1
Ti1      0.750000000   0.500000000   0.450162181    0   0   1
Ti1      0.500000000   0.000000000   0.451973936    0   0   1
O0       0.750000000   0.810000000   0.450752911    0   0   1
O0       0.750000000   0.190000000   0.451796826    0   0   1
O0       0.500000000   0.500000000   0.498839493    0   0   1
O0       0.500000000   0.000000000   0.527346522    0   0   1
Ti1      0.750000000   0.000000000   0.581410242    0   0   1
Ti1      0.500000000   0.500000000   0.570812749    0   0   1
O0       0.750000000   0.690000000   0.581052554    0   0   1
O0       0.750000000   0.310000000   0.581082553    0   0   1
O0       0.500000000   0.000000000   0.623889038    0   0   1
H2      -0.000386299   0.632813871   0.380633970
H2       0.499613701   0.632813874   0.380633970
H2       0.152077748   0.023256558   0.364530986
H2       0.652077743   0.023256561   0.364530987
End final coordinates

     General routines

     Parallel routines
     Hubbard U routines

   This run was terminated on:   9:16: 3  25May2014

   JOB DONE.
Running PBS batch system epilogue script
Job id: 366666.audhumbla.fysik.dtu.dk
Username: zhonxu
Groupname: campgst
Jobname: TiO2/Eads-2-layers/bare-U-4.5
Sessionid: 4975
Queuename: verylong
Accounting:
This job has allocated the following 16 nodes:
b063 b063 b063 b063 b063 b063 b063 b063 b054 b054 b054 b054 b054 b054 b054 b054
Finished epilogue job 366666.audhumbla.fysik.dtu.dk for zhonxu