     Program PWSCF v.5.0.2 (svn rev. 9656) starts on 25May2014 at 20:32:38

     Current dimensions of program PWSCF are:
     Max number of different atomic species (ntypx) = 10
     Max number of k-points (npk) =  40000
     Max angular momentum in pseudopotentials (lmaxx) =  3
     Reading input from pwscf.in
Warning: card &CELL ignored
Warning: card / ignored

     Subspace diagonalization in iterative solution of the eigenvalue problem:
     a serial algorithm will be used

     Found symmetry operation: I + ( -0.5000  0.0000  0.0000)
     This is a supercell, fractional translations are disabled

     bravais-lattice index     =            0
     lattice parameter (alat)  =      11.2250  a.u.
     unit-cell volume          =    7005.5484 (a.u.)^3
     number of atoms/cell      =           30
     number of atomic types    =            3
     number of electrons       =       208.00
     number of Kohn-Sham states=          300
     kinetic-energy cutoff     =      40.0000  Ry
     charge density cutoff     =     500.0000  Ry
     convergence threshold     =      1.0E-06
     mixing beta               =       0.7000
     number of iterations used =            8  plain     mixing
     Exchange-correlation      = SLA  PW   PBE  PBE ( 1 4 3 4 0)
     EXX-fraction              =        0.00
     nstep                     =           50

     celldm(1)=  11.224973  celldm(2)=   0.000000  celldm(3)=   0.000000
     celldm(4)=   0.000000  celldm(5)=   0.000000  celldm(6)=   0.000000

     crystal axes: (cart. coord. in units of alat)
               a(1) = (   1.000000   0.000000   0.000000 )
               a(2) = (   0.000000   1.107086   0.000000 )
               a(3) = (   0.000000   0.000000   4.474090 )

     reciprocal axes: (cart. coord. in units 2 pi/alat)
               b(1) = (  1.000000  0.000000  0.000000 )
               b(2) = (  0.000000  0.903272  0.000000 )
               b(3) = (  0.000000  0.000000  0.223509 )

     PseudoPot. # 1 for O  read from file:
     /home/camp/zhonxu/pseudo/o_pbe_v1.01.uspp.F.UPF
     MD5 check sum: 2bcb18d16ea4b960afae9ec6d52f22d2
     Pseudo is Ultrasoft + core correction, Zval =  6.0
     Generated by new atomic code, or converted to UPF format
     Using radial grid of  737 points,  5 beta functions with:
                l(1) =   0
                l(2) =   0
                l(3) =   1
                l(4) =   1
                l(5) =   2
     Q(r) pseudized with  8 coefficients,  rinner =    0.900   0.900   0.900
                                                       0.900   0.900

     PseudoPot. # 2 for Ti read from file:
     /home/camp/zhonxu/pseudo/ti_pbe_v1.uspp.F.UPF
     MD5 check sum: bcc8f6961b3b91f0cac3ca967d22d0fb
     Pseudo is Ultrasoft + core correction, Zval = 12.0
     Generated by new atomic code, or converted to UPF format
     Using radial grid of  851 points,  6 beta functions with:
                l(1) =   0
                l(2) =   0
                l(3) =   1
                l(4) =   1
                l(5) =   2
                l(6) =   2
     Q(r) pseudized with  6 coefficients,  rinner =    1.000   1.000   1.000
                                                       1.000   1.000

     PseudoPot. # 3 for H  read from file:
     /home/camp/zhonxu/pseudo/h_pbe_v1.uspp.F.UPF
     MD5 check sum: 3408e3ff4ec8b0a4e358431e7e038a48
     Pseudo is Ultrasoft, Zval =  1.0
     Generated by new atomic code, or converted to UPF format
     Using radial grid of  615 points,  2 beta functions with:
                l(1) =   0
                l(2) =   0
     Q(r) pseudized with  8 coefficients,  rinner =    0.700

     atomic species   valence    mass     pseudopotential
        O0             6.00    15.99940     O ( 1.00)
        Ti1           12.00    47.88000     Ti( 1.00)
        H2             1.00     1.00794     H ( 1.00)

     Simplified LDA+U calculation (l_max = 2) with parameters (eV):
     atomic species    L          U    alpha       J0     beta
        Ti1            2     4.5000   0.0000   0.0000   0.0000

     No symmetry found

   Cartesian axes

     site n.     atom                  positions (alat units)
         1           O0  tau(   1) = (   0.0000000   0.0000000   1.6931745  )
         2           O0  tau(   2) = (   0.0000000   0.5535432   1.7844907  )
         3           Ti1 tau(   3) = (   0.2500000   0.5535432   2.0140562  )
         4           Ti1 tau(   4) = (   0.0000000   0.0000000   2.0221543  )
         5           O0  tau(   5) = (   0.2500000   0.8967400   2.0166960  )
         6           O0  tau(   6) = (   0.2500000   0.2103464   2.0213937  )
         7           O0  tau(   7) = (   0.0000000   0.5535432   2.2318549  )
         8           O0  tau(   8) = (   0.0000000   0.0000000   2.3594112  )
         9           Ti1 tau(   9) = (   0.2500000   0.0000000   2.6012805  )
        10           Ti1 tau(  10) = (   0.0000000   0.5535432   2.5538552  )
        11           O0  tau(  11) = (   0.2500000   0.7638896   2.5996698  )
        12           O0  tau(  12) = (   0.2500000   0.3431968   2.5998041  )
        13           O0  tau(  13) = (   0.0000000   0.0000000   2.7913398  )
        14           O0  tau(  14) = (   0.5000000   0.0000000   1.6931745  )
        15           O0  tau(  15) = (   0.5000000   0.5535432   1.7844907  )
        16           Ti1 tau(  16) = (   0.7500000   0.5535432   2.0140562  )
        17           Ti1 tau(  17) = (   0.5000000   0.0000000   2.0221543  )
        18           O0  tau(  18) = (   0.7500000   0.8967400   2.0166960  )
        19           O0  tau(  19) = (   0.7500000   0.2103464   2.0213937  )
        20           O0  tau(  20) = (   0.5000000   0.5535432   2.2318549  )
        21           O0  tau(  21) = (   0.5000000   0.0000000   2.3594112  )
        22           Ti1 tau(  22) = (   0.7500000   0.0000000   2.6012805  )
        23           Ti1 tau(  23) = (   0.5000000   0.5535432   2.5538552  )
        24           O0  tau(  24) = (   0.7500000   0.7638896   2.5996698  )
        25           O0  tau(  25) = (   0.7500000   0.3431968   2.5998041  )
        26           O0  tau(  26) = (   0.5000000   0.0000000   2.7913398  )
        27           H2  tau(  27) = (  -0.0003900   0.7005753   1.7029728  )
        28           H2  tau(  28) = (   0.4996100   0.7005753   1.7029728  )
        29           H2  tau(  29) = (   0.1520800   0.0257508   1.6309399  )
        30           H2  tau(  30) = (   0.6520800   0.0257508   1.6309399  )

     number of k points=    10  Methfessel-Paxton smearing, width (Ry)=  0.0100
                       cart. coord. in units 2pi/alat
        k(    1) = (   0.0000000   0.0000000   0.0000000), wk =   0.1250000
        k(    2) = (   0.0000000   0.2258180   0.0000000), wk =   0.2500000
        k(    3) = (   0.0000000  -0.4516359   0.0000000), wk =   0.1250000
        k(    4) = (   0.2500000   0.0000000   0.0000000), wk =   0.2500000
        k(    5) = (   0.2500000   0.2258180   0.0000000), wk =   0.2500000
        k(    6) = (   0.2500000  -0.4516359   0.0000000), wk =   0.2500000
        k(    7) = (  -0.5000000   0.0000000   0.0000000), wk =   0.1250000
        k(    8) = (  -0.5000000   0.2258180   0.0000000), wk =   0.2500000
        k(    9) = (  -0.5000000  -0.4516359   0.0000000), wk =   0.1250000
        k(   10) = (  -0.2500000   0.2258180   0.0000000), wk =   0.2500000

     Largest allocated arrays     est. size (Mb)     dimensions
     Largest temporary arrays     est. size (Mb)     dimensions

     Check: negative/imaginary core charge=   -0.000005    0.000000

     Initial potential from superposition of free atoms
     Check: negative starting charge=   -0.102058

     starting charge  199.99958, renormalised to  208.00000

     negative rho (up, down):  0.106E+00 0.000E+00
     Number of +U iterations with fixed ns =  0
     Starting occupations:
 --- enter write_ns ---
 LDA+U parameters:
U( 2)     =  4.50000000
alpha( 2) =  0.00000000
atom    3   Tr[ns(na)] =   2.00000
    eigenvalues:
  0.200  0.200  0.200  0.200  0.200
    eigenvectors:
  1.000  0.000  0.000  0.000  0.000
  0.000  1.000  0.000  0.000  0.000
  0.000  0.000  1.000  0.000  0.000
  0.000  0.000  0.000  1.000  0.000
  0.000  0.000  0.000  0.000  1.000
    occupations:
  0.200  0.000  0.000  0.000  0.000
  0.000  0.200  0.000  0.000  0.000
  0.000  0.000  0.200  0.000  0.000
  0.000  0.000  0.000  0.200  0.000
  0.000  0.000  0.000  0.000  0.200
atom    4   Tr[ns(na)] =   2.00000
    eigenvalues:
  0.200  0.200  0.200  0.200  0.200
    eigenvectors:
  1.000  0.000  0.000  0.000  0.000
  0.000  1.000  0.000  0.000  0.000
  0.000  0.000  1.000  0.000  0.000
  0.000  0.000  0.000  1.000  0.000
  0.000  0.000  0.000  0.000  1.000
    occupations:
  0.200  0.000  0.000  0.000  0.000
  0.000  0.200  0.000  0.000  0.000
  0.000  0.000  0.200  0.000  0.000
  0.000  0.000  0.000  0.200  0.000
  0.000  0.000  0.000  0.000  0.200
atom    9   Tr[ns(na)] =   2.00000
    eigenvalues:
  0.200  0.200  0.200  0.200  0.200
    eigenvectors:
  1.000  0.000  0.000  0.000  0.000
  0.000  1.000  0.000  0.000  0.000
  0.000  0.000  1.000  0.000  0.000
  0.000  0.000  0.000  1.000  0.000
  0.000  0.000  0.000  0.000  1.000
    occupations:
  0.200  0.000  0.000  0.000  0.000
  0.000  0.200  0.000  0.000  0.000
  0.000  0.000  0.200  0.000  0.000
  0.000  0.000  0.000  0.200  0.000
  0.000  0.000  0.000  0.000  0.200
atom   10   Tr[ns(na)] =   2.00000
    eigenvalues:
  0.200  0.200  0.200  0.200  0.200
    eigenvectors:
  1.000  0.000  0.000  0.000  0.000
  0.000  1.000  0.000  0.000  0.000
  0.000  0.000  1.000  0.000  0.000
  0.000  0.000  0.000  1.000  0.000
  0.000  0.000  0.000  0.000  1.000
    occupations:
  0.200  0.000  0.000  0.000  0.000
  0.000  0.200  0.000  0.000  0.000
  0.000  0.000  0.200  0.000  0.000
  0.000  0.000  0.000  0.200  0.000
  0.000  0.000  0.000  0.000  0.200
atom   16   Tr[ns(na)] =   2.00000
    eigenvalues:
  0.200  0.200  0.200  0.200  0.200
    eigenvectors:
  1.000  0.000  0.000  0.000  0.000
  0.000  1.000  0.000  0.000  0.000
  0.000  0.000  1.000  0.000  0.000
  0.000  0.000  0.000  1.000  0.000
  0.000  0.000  0.000  0.000  1.000
    occupations:
  0.200  0.000  0.000  0.000  0.000
  0.000  0.200  0.000  0.000  0.000
  0.000  0.000  0.200  0.000  0.000
  0.000  0.000  0.000  0.200  0.000
  0.000  0.000  0.000  0.000  0.200
atom   17   Tr[ns(na)] =   2.00000
    eigenvalues:
  0.200  0.200  0.200  0.200  0.200
    eigenvectors:
  1.000  0.000  0.000  0.000  0.000
  0.000  1.000  0.000  0.000  0.000
  0.000  0.000  1.000  0.000  0.000
  0.000  0.000  0.000  1.000  0.000
  0.000  0.000  0.000  0.000  1.000
    occupations:
  0.200  0.000  0.000  0.000  0.000
  0.000  0.200  0.000  0.000  0.000
  0.000  0.000  0.200  0.000  0.000
  0.000  0.000  0.000  0.200  0.000
  0.000  0.000  0.000  0.000  0.200
atom   22   Tr[ns(na)] =   2.00000
    eigenvalues:
  0.200  0.200  0.200  0.200  0.200
    eigenvectors:
  1.000  0.000  0.000  0.000  0.000
  0.000  1.000  0.000  0.000  0.000
  0.000  0.000  1.000  0.000  0.000
  0.000  0.000  0.000  1.000  0.000
  0.000  0.000  0.000  0.000  1.000
    occupations:
[...]
  0.991  0.003  0.000  0.000  0.006
  0.000  0.000  0.000  1.000  0.000
    occupations:
  0.443  0.016  0.004 -0.023 -0.000
  0.016  0.179 -0.005  0.000 -0.003
  0.004 -0.005  0.202  0.001 -0.000
 -0.023  0.000  0.001  0.146 -0.000
 -0.000 -0.003 -0.000 -0.000  0.421
atom    9   Tr[ns(na)] =   2.77993
    eigenvalues:
  0.153  0.197  0.212  0.375  0.453
    eigenvectors:
  0.000  0.000  0.915  0.085  0.000
  0.000  0.000  0.000  0.000  1.000
  1.000  0.000  0.000  0.000  0.000
  0.000  0.000  0.085  0.915  0.000
  0.000  1.000  0.000  0.000  0.000
    occupations:
  0.225 -0.000 -0.000  0.046  0.000
 -0.000  0.453  0.000 -0.000 -0.000
 -0.000  0.000  0.153  0.000  0.000
  0.046 -0.000  0.000  0.361 -0.000
  0.000 -0.000  0.000 -0.000  0.197
atom   10   Tr[ns(na)] =   2.69195
    eigenvalues:
  0.156  0.198  0.210  0.326  0.457
    eigenvectors:
  0.026  0.000  0.000  0.974  0.000
  0.000  0.000  1.000  0.000  0.000
  0.000  1.000  0.000  0.000  0.000
  0.974  0.000  0.000  0.026  0.000
  0.000  0.000  0.000  0.000  1.000
    occupations:
  0.321 -0.000 -0.000 -0.027 -0.000
 -0.000  0.210 -0.000 -0.000  0.000
 -0.000 -0.000  0.198 -0.000  0.000
 -0.027 -0.000 -0.000  0.160 -0.000
 -0.000  0.000  0.000 -0.000  0.457
atom   16   Tr[ns(na)] =   2.65302
    eigenvalues:
  0.140  0.162  0.192  0.416  0.417
    eigenvectors:
  0.782  0.000  0.020  0.000  0.198
  0.000  0.002  0.000  0.997  0.000
  0.021  0.000  0.978  0.000  0.000
  0.196  0.000  0.002  0.000  0.801
  0.000  0.998  0.000  0.002  0.000
    occupations:
  0.196 -0.000 -0.005  0.110 -0.000
 -0.000  0.415  0.000  0.000  0.012
 -0.005  0.000  0.191  0.007 -0.000
  0.110  0.000  0.007  0.362 -0.000
 -0.000  0.012 -0.000 -0.000  0.163
atom   17   Tr[ns(na)] =   2.78213
    eigenvalues:
  0.144  0.177  0.203  0.421  0.446
    eigenvectors:
  0.006  0.003  0.000  0.000  0.990
  0.002  0.945  0.049  0.000  0.004
  0.001  0.048  0.951  0.000  0.000
  0.991  0.003  0.000  0.000  0.006
  0.000  0.000  0.000  1.000  0.000
    occupations:
  0.443  0.016  0.004 -0.023 -0.000
  0.016  0.179 -0.005  0.000 -0.003
  0.004 -0.005  0.202  0.001 -0.000
 -0.023  0.000  0.001  0.146 -0.000
 -0.000 -0.003 -0.000 -0.000  0.421
atom   22   Tr[ns(na)] =   2.77993
    eigenvalues:
  0.153  0.197  0.212  0.375  0.453
    eigenvectors:
  0.000  0.000  0.915  0.085  0.000
  0.000  0.000  0.000  0.000  1.000
  1.000  0.000  0.000  0.000  0.000
  0.000  0.000  0.085  0.915  0.000
  0.000  1.000  0.000  0.000  0.000
    occupations:
  0.225 -0.000 -0.000  0.046  0.000
 -0.000  0.453  0.000 -0.000 -0.000
 -0.000  0.000  0.153  0.000  0.000
  0.046 -0.000  0.000  0.361 -0.000
  0.000 -0.000  0.000 -0.000  0.197
atom   23   Tr[ns(na)] =   2.69195
    eigenvalues:
  0.156  0.198  0.210  0.326  0.457
    eigenvectors:
  0.026  0.000  0.000  0.974  0.000
  0.000  0.000  1.000  0.000  0.000
  0.000  1.000  0.000  0.000  0.000
  0.974  0.000  0.000  0.026  0.000
  0.000  0.000  0.000  0.000  1.000
    occupations:
  0.321 -0.000 -0.000 -0.027 -0.000
 -0.000  0.210 -0.000 -0.000  0.000
 -0.000 -0.000  0.198 -0.000  0.000
 -0.027 -0.000 -0.000  0.160 -0.000
 -0.000  0.000  0.000 -0.000  0.457
N of occupied +U levels =  21.8140711
 --- exit write_ns ---

     Threshold (ethr) on eigenvalues was too large:
     Diagonalizing with lowered threshold

     Davidson diagonalization with overlap
     ethr =  2.10E-11,  avg # of iterations =  1.0

[...]

     total energy              =   -1532.44556889 Ry
     Harris-Foulkes estimate   =   -1532.44556898 Ry
     estimated scf accuracy    <       0.00000033 Ry

     iteration #  3     ecut=    40.00 Ry     beta=0.70
     Davidson diagonalization with overlap
     ethr =  2.16E-11,  avg # of iterations =  2.0

     negative rho (up, down):  0.106E+00 0.000E+00

     End of self-consistent calculation
 --- enter write_ns ---
 LDA+U parameters:
U( 2)     =  4.50000000
alpha( 2) =  0.00000000
atom    3   Tr[ns(na)] =   2.65303
    eigenvalues:
  0.140  0.162  0.192  0.416  0.417
    eigenvectors:
  0.782  0.000  0.020  0.000  0.198
  0.000  0.002  0.000  0.997  0.000
  0.021  0.000  0.978  0.000  0.000
  0.196  0.000  0.002  0.000  0.801
  0.000  0.998  0.000  0.002  0.000
    occupations:
  0.196 -0.000 -0.005  0.110 -0.000
 -0.000  0.415  0.000  0.000  0.012
 -0.005  0.000  0.191  0.007 -0.000
  0.110  0.000  0.007  0.362 -0.000
 -0.000  0.012 -0.000 -0.000  0.163
atom    4   Tr[ns(na)] =   2.78206
    eigenvalues:
  0.144  0.177  0.203  0.421  0.446
    eigenvectors:
  0.006  0.003  0.000  0.000  0.990
  0.002  0.945  0.049  0.000  0.004
  0.001  0.048  0.951  0.000  0.000
  0.991  0.003  0.000  0.000  0.006
  0.000  0.000  0.000  1.000  0.000
    occupations:
  0.443  0.016  0.004 -0.023 -0.000
  0.016  0.179 -0.005  0.000 -0.003
  0.004 -0.005  0.202  0.001 -0.000
 -0.023  0.000  0.001  0.146 -0.000
 -0.000 -0.003 -0.000 -0.000  0.421
atom    9   Tr[ns(na)] =   2.77993
    eigenvalues:
  0.153  0.197  0.212  0.375  0.453
    eigenvectors:
  0.000  0.000  0.915  0.085  0.000
  0.000  0.000  0.000  0.000  1.000
  1.000  0.000  0.000  0.000  0.000
  0.000  0.000  0.085  0.915  0.000
  0.000  1.000  0.000  0.000  0.000
    occupations:
  0.225 -0.000 -0.000  0.046  0.000
 -0.000  0.453  0.000 -0.000 -0.000
 -0.000  0.000  0.153  0.000  0.000
  0.046 -0.000  0.000  0.361 -0.000
  0.000 -0.000  0.000 -0.000  0.197
atom   10   Tr[ns(na)] =   2.69181
    eigenvalues:
  0.156  0.198  0.210  0.326  0.457
    eigenvectors:
  0.026  0.000  0.000  0.974  0.000
  0.000  0.000  1.000  0.000  0.000
  0.000  1.000  0.000  0.000  0.000
  0.974  0.000  0.000  0.026  0.000
  0.000  0.000  0.000  0.000  1.000
    occupations:
  0.321 -0.000 -0.000 -0.027 -0.000
 -0.000  0.210 -0.000 -0.000  0.000
 -0.000 -0.000  0.198 -0.000  0.000
 -0.027 -0.000 -0.000  0.160 -0.000
 -0.000  0.000  0.000 -0.000  0.457
atom   16   Tr[ns(na)] =   2.65303
    eigenvalues:
  0.140  0.162  0.192  0.416  0.417
    eigenvectors:
  0.782  0.000  0.020  0.000  0.198
  0.000  0.002  0.000  0.997  0.000
  0.021  0.000  0.978  0.000  0.000
  0.196  0.000  0.002  0.000  0.801
  0.000  0.998  0.000  0.002  0.000
    occupations:
  0.196 -0.000 -0.005  0.110 -0.000
 -0.000  0.415  0.000  0.000  0.012
 -0.005  0.000  0.191  0.007 -0.000
  0.110  0.000  0.007  0.362 -0.000
 -0.000  0.012 -0.000 -0.000  0.163
atom   17   Tr[ns(na)] =   2.78206
    eigenvalues:
  0.144  0.177  0.203  0.421  0.446
    eigenvectors:
  0.006  0.003  0.000  0.000  0.990
  0.002  0.945  0.049  0.000  0.004
  0.001  0.048  0.951  0.000  0.000
  0.991  0.003  0.000  0.000  0.006
  0.000  0.000  0.000  1.000  0.000
    occupations:
  0.443  0.016  0.004 -0.023 -0.000
  0.016  0.179 -0.005  0.000 -0.003
  0.004 -0.005  0.202  0.001 -0.000
 -0.023  0.000  0.001  0.146 -0.000
 -0.000 -0.003 -0.000 -0.000  0.421
atom   22   Tr[ns(na)] =   2.77993
    eigenvalues:
  0.153  0.197  0.212  0.375  0.453
    eigenvectors:
  0.000  0.000  0.915  0.085  0.000
  0.000  0.000  0.000  0.000  1.000
  1.000  0.000  0.000  0.000  0.000
  0.000  0.000  0.085  0.915  0.000
  0.000  1.000  0.000  0.000  0.000
    occupations:
  0.225 -0.000 -0.000  0.046  0.000
 -0.000  0.453  0.000 -0.000 -0.000
 -0.000  0.000  0.153  0.000  0.000
  0.046 -0.000  0.000  0.361 -0.000
  0.000 -0.000  0.000 -0.000  0.197
atom   23   Tr[ns(na)] =   2.69181
    eigenvalues:
  0.156  0.198  0.210  0.326  0.457
    eigenvectors:
  0.026  0.000  0.000  0.974  0.000
  0.000  0.000  1.000  0.000  0.000
  0.000  1.000  0.000  0.000  0.000
  0.974  0.000  0.000  0.026  0.000
  0.000  0.000  0.000  0.000  1.000
    occupations:
  0.321 -0.000 -0.000 -0.027 -0.000
 -0.000  0.210 -0.000 -0.000  0.000
 -0.000 -0.000  0.198 -0.000  0.000
 -0.027 -0.000 -0.000  0.160 -0.000
 -0.000  0.000  0.000 -0.000  0.457
N of occupied +U levels =  21.8136484
 --- exit write_ns ---

[...]

          k = 0.2500-0.4516 0.0000 ( 29882 PWs)   bands (ev):

[...]

          k =-0.2500 0.2258 0.0000 ( 29912 PWs)   bands (ev):

   -61.7848 -61.7599 -61.3505 -61.3247 -60.1186 -60.0909 -59.5884 -59.5615
   -38.2314 -37.9950 -37.9630 -37.9288 -37.8208 -37.7995 -37.6699 -37.6634
   -37.6456 -37.4932 -37.4308 -37.3761 -36.6486 -36.4296 -36.3583 -36.3413
   -36.1551 -36.1327 -35.9298 -35.9080 -35.9048 -35.7795 -35.7129 -35.5982
   -22.2677 -22.0511 -20.9801 -20.7895 -20.3631 -20.2925 -19.9592 -19.7832
   -19.7507 -19.6455 -19.5623 -19.5329 -19.3982 -19.2748 -18.6323 -18.2989
   -17.9681 -17.9237  -9.8971  -9.6404  -8.1459  -7.9487  -7.8683  -7.8488
    -7.7903  -7.7776  -7.4258  -7.3895  -7.2000  -7.1222  -7.0915  -7.0700
    -6.9721  -6.8236  -6.7814  -6.6593  -6.5018  -6.4482  -6.1257  -6.0818
    -6.0074  -5.8110  -5.7591  -5.6561  -5.6281  -5.4585  -5.3532  -5.3402
    -5.2632  -5.1578  -5.1119  -5.0860  -5.0222  -5.0044  -4.8504  -4.7292
    -4.6739  -4.5304  -4.4407  -4.4181  -3.9103  -3.7194  -3.5068  -3.4416
    -3.3448  -3.2866  -3.1278  -3.0844  -3.0521  -2.8759  -2.8047  -2.6791
    -1.0574  -0.7954  -0.6909  -0.5986  -0.5723  -0.4128  -0.3676  -0.2766
     0.0046   0.0451   0.1162   0.1708   0.2958   0.4695   0.7303   0.8121
     0.9852   1.0588   1.1472   1.2780   1.3431   1.4154   1.4456   1.5242
     1.5434   1.6238   1.6253   1.7549   1.8119   2.0546   2.1416   2.3915
     2.8441   2.9414   3.0829   3.1240   3.3447   3.4474   3.5559   3.8123
     3.9919   4.1556   4.1863   4.5866   4.9403   4.9728   5.2449   5.7102
     5.7896   5.8903   5.9929   6.1097   6.1686   6.4846   6.5066   6.8203
     6.8637   7.1331   7.2547   7.3835   7.5057   7.6687   7.6791   7.8325
     7.8913   8.0227   8.0244   8.2213   8.4667   8.4864   8.6176   8.6530
     8.8072   8.9729   9.2580   9.2999   9.3073   9.3914   9.4634   9.4717
     9.5029   9.6481   9.8350   9.9967  10.0081  10.1094  10.2166  10.3892
    10.4250  10.5916  10.5938  10.7123  10.8109  10.9241  10.9268  10.9742
    11.0880  11.2381  11.2849  11.3504  11.3617  11.4651  11.5113  11.6440
    11.6446  11.7378  11.8718  11.9549  11.9570  11.9818  12.1060  12.2408
    12.2956  12.3576  12.5181  12.6051  12.6346  12.6447  12.7303  12.8685
    12.8720  12.9754  13.0274  13.2221  13.2322  13.3420  13.3661  13.4454
    13.5539  13.6196  13.6884  13.6999  13.7592  13.7990  13.8990  14.0145
    14.0548  14.1759  14.1958  14.2976  14.3831  14.4756  14.5794  14.5851
    14.6577  14.6620  14.7681  14.9381  14.9655  15.0102  15.0917  15.2498
    15.3256  15.3407  15.4805  15.5006  15.6412  15.6992  15.7166  15.7434
    15.8209  15.8869  15.9416  16.0331  16.1077  16.1289  16.2367  16.3131
    16.3939  16.5704  16.6275  16.6449  16.7601  16.8193  16.8439  16.8624
    16.9095  16.9927  17.0736  17.0825  17.2206  17.2454  17.3015  17.4007
    17.4180  17.4913  17.4931  17.6016  17.7045  17.7812  17.8183  17.9676
    18.0346  18.1659  18.2007  18.2476

     the Fermi energy is    -2.5913 ev

!    total energy              =   -1532.44556893 Ry
     Harris-Foulkes estimate   =   -1532.44556893 Ry
     estimated scf accuracy    <          1.7E-09 Ry

     The total energy is the sum of the following terms:

     one-electron contribution =  -18278.42080990 Ry
     hartree contribution      =    9151.29780366 Ry
     xc contribution           =    -269.70526953 Ry
     ewald contribution        =    7861.94707595 Ry
     Hubbard energy            =       2.43407758 Ry
     smearing contrib. (-TS)   =       0.00155331 Ry

     convergence has been achieved in   3 iterations

     Forces acting on atoms (Ry/au):

     negative rho (up, down):  0.106E+00 0.000E+00
     atom    1 type  1   force =    -0.00227109   -0.01736028   -0.00109807
     atom    2 type  1   force =     0.00001539    0.02353567   -0.00085849
     atom    3 type  2   force =     0.00014770   -0.01307503    0.00114110
     atom    4 type  2   force =    -0.00084423    0.01003542    0.00389913
     atom    5 type  1   force =     0.00286777   -0.10875310   -0.00105216
     atom    6 type  1   force =    -0.00103889    0.10705563   -0.00101954
     atom    7 type  1   force =    -0.00003689    0.00083079   -0.00194457
     atom    8 type  1   force =     0.00144204   -0.00175801   -0.00308902
     atom    9 type  2   force =    -0.00037720    0.00013412    0.00337291
     atom   10 type  2   force =    -0.00003252   -0.00037611    0.00173507
     atom   11 type  1   force =     0.00007036   -0.04360630    0.00029529
     atom   12 type  1   force =    -0.00002082    0.04366268    0.00025779
     atom   13 type  1   force =     0.00026217   -0.00004450   -0.00039564
     atom   14 type  1   force =    -0.00227109   -0.01736028   -0.00109807
     atom   15 type  1   force =     0.00001539    0.02353567   -0.00085849
     atom   16 type  2   force =     0.00014766   -0.01307503    0.00114110
     atom   17 type  2   force =    -0.00084421    0.01003542    0.00389914
     atom   18 type  1   force =     0.00286776   -0.10875310   -0.00105215
     atom   19 type  1   force =    -0.00103890    0.10705563   -0.00101953
     atom   20 type  1   force =    -0.00003689    0.00083079   -0.00194463
     atom   21 type  1   force =     0.00144203   -0.00175801   -0.00308906
     atom   22 type  2   force =    -0.00037712    0.00013412    0.00337281
     atom   23 type  2   force =    -0.00003250   -0.00037611    0.00173501
     atom   24 type  1   force =     0.00007039   -0.04360632    0.00029529
     atom   25 type  1   force =    -0.00002080    0.04366268    0.00025781
     atom   26 type  1   force =     0.00026209   -0.00004450   -0.00039552
     atom   27 type  3   force =     0.00001796   -0.00069628   -0.00086485
     atom   28 type  3   force =     0.00001797   -0.00069628   -0.00086485
     atom   29 type  3   force =    -0.00020176    0.00041529   -0.00037893
     atom   30 type  3   force =    -0.00020177    0.00041529   -0.00037892

     Total force =     0.010020     Total SCF correction =     0.000089

     entering subroutine stress ...

     negative rho (up, down):  0.106E+00 0.000E+00
          total   stress  (Ry/bohr**3)                   (kbar)     P=    6.35
   0.00015476  -0.00000245   0.00000403         22.77     -0.36      0.59
  -0.00000245  -0.00000254   0.00000067         -0.36     -0.37      0.10
   0.00000403   0.00000067  -0.00002277          0.59      0.10     -3.35

     The maximum number of steps has been reached.

     End of BFGS Geometry Optimization
Begin final coordinates

ATOMIC_POSITIONS (crystal)
O0       0.000000000   0.000000000   0.378413677    0   0   1
O0       0.000000000   0.500000000   0.398769192    0   0   1
Ti1      0.250000000   0.500000000   0.450095416    0   0   1
Ti1      0.000000000   0.000000000   0.451958993    0   0   1
O0       0.250000000   0.810000000   0.450664890    0   0   1
O0       0.250000000   0.190000000   0.451703947    0   0   1
O0       0.000000000   0.500000000   0.498801617    0   0   1
O0       0.000000000   0.000000000   0.527411787    0   0   1
Ti1      0.250000000   0.000000000   0.581535482    0   0   1
Ti1      0.000000000   0.500000000   0.570844179    0   0   1
O0       0.250000000   0.690000000   0.581203369    0   0   1
O0       0.250000000   0.310000000   0.581234314    0   0   1
O0       0.000000000   0.000000000   0.624019421    0   0   1
O0       0.500000000   0.000000000   0.378413676    0   0   1
O0       0.500000000   0.500000000   0.398769192    0   0   1
Ti1      0.750000000   0.500000000   0.450095416    0   0   1
Ti1      0.500000000   0.000000000   0.451958992    0   0   1
O0       0.750000000   0.810000000   0.450664889    0   0   1
O0       0.750000000   0.190000000   0.451703944    0   0   1
O0       0.500000000   0.500000000   0.498801622    0   0   1
O0       0.500000000   0.000000000   0.527411788    0   0   1
Ti1      0.750000000   0.000000000   0.581535496    0   0   1
Ti1      0.500000000   0.500000000   0.570844185    0   0   1
O0       0.750000000   0.690000000   0.581203371    0   0   1
O0       0.750000000   0.310000000   0.581234309    0   0   1
O0       0.500000000   0.000000000   0.624019415    0   0   1
H2      -0.000355210   0.632570752   0.380446789
H2       0.499644790   0.632570751   0.380446789
H2       0.151960622   0.023337990   0.364456922
H2       0.651960625   0.023337988   0.364456922
End final coordinates

     General routines

     Parallel routines
     Hubbard U routines

   This run was terminated on:   5: 7:36  26May2014

   JOB DONE.
Running PBS batch system epilogue script
Job id: 369783.audhumbla.fysik.dtu.dk
Username: zhonxu
Groupname: campgst
Jobname: TiO2/Eads-2-layers/bare-U-4.5
Sessionid: 6722
Queuename: verylong
Accounting:
This job has allocated the following 16 nodes:
a049 a049 a049 a049 a049 a049 a049 a049 a048 a048 a048 a048 a048 a048 a048 a048
Finished epilogue job 369783.audhumbla.fysik.dtu.dk for zhonxu