     Program PWSCF v.5.0.2 (svn rev. 9656) starts on 21May2014 at  6: 7:41

     Current dimensions of program PWSCF are:
     Max number of different atomic species (ntypx) = 10
     Max number of k-points (npk) =  40000
     Max angular momentum in pseudopotentials (lmaxx) =  3
     Reading input from pwscf.in
Warning: card &CELL ignored
Warning: card / ignored

     Subspace diagonalization in iterative solution of the eigenvalue problem:
     a serial algorithm will be used

     Found symmetry operation: I + ( -0.5000  0.0000  0.0000)
     This is a supercell, fractional translations are disabled

     bravais-lattice index     =            0
     lattice parameter (alat)  =      11.2250  a.u.
     unit-cell volume          =    7005.5484 (a.u.)^3
     number of atoms/cell      =           30
     number of atomic types    =            3
     number of electrons       =       208.00
     number of Kohn-Sham states=          300
     kinetic-energy cutoff     =      40.0000  Ry
     charge density cutoff     =     500.0000  Ry
     convergence threshold     =      1.0E-06
     mixing beta               =       0.7000
     number of iterations used =            8  plain     mixing
     Exchange-correlation      = SLA  PW   PBE  PBE ( 1 4 3 4 0)
     EXX-fraction              =        0.00
     nstep                     =           50

     celldm(1)=  11.224973  celldm(2)=   0.000000  celldm(3)=   0.000000
     celldm(4)=   0.000000  celldm(5)=   0.000000  celldm(6)=   0.000000

     crystal axes: (cart. coord. in units of alat)
               a(1) = (   1.000000   0.000000   0.000000 )
               a(2) = (   0.000000   1.107086   0.000000 )
               a(3) = (   0.000000   0.000000   4.474090 )

     reciprocal axes: (cart. coord. in units 2 pi/alat)
               b(1) = (  1.000000  0.000000  0.000000 )
               b(2) = (  0.000000  0.903272  0.000000 )
               b(3) = (  0.000000  0.000000  0.223509 )

     PseudoPot. # 1 for O  read from file:
     /home/camp/zhonxu/pseudo/o_pbe_v1.01.uspp.F.UPF
     MD5 check sum: 2bcb18d16ea4b960afae9ec6d52f22d2
     Pseudo is Ultrasoft + core correction, Zval =  6.0
     Generated by new atomic code, or converted to UPF format
     Using radial grid of  737 points,  5 beta functions with:
                l(1) =   0
                l(2) =   0
                l(3) =   1
                l(4) =   1
                l(5) =   2
     Q(r) pseudized with  8 coefficients,  rinner =    0.900   0.900   0.900
                                                       0.900   0.900

     PseudoPot. # 2 for Ti read from file:
     /home/camp/zhonxu/pseudo/ti_pbe_v1.uspp.F.UPF
     MD5 check sum: bcc8f6961b3b91f0cac3ca967d22d0fb
     Pseudo is Ultrasoft + core correction, Zval = 12.0
     Generated by new atomic code, or converted to UPF format
     Using radial grid of  851 points,  6 beta functions with:
                l(1) =   0
                l(2) =   0
                l(3) =   1
                l(4) =   1
                l(5) =   2
                l(6) =   2
     Q(r) pseudized with  6 coefficients,  rinner =    1.000   1.000   1.000
                                                       1.000   1.000

     PseudoPot. # 3 for H  read from file:
     /home/camp/zhonxu/pseudo/h_pbe_v1.uspp.F.UPF
     MD5 check sum: 3408e3ff4ec8b0a4e358431e7e038a48
     Pseudo is Ultrasoft, Zval =  1.0
     Generated by new atomic code, or converted to UPF format
     Using radial grid of  615 points,  2 beta functions with:
                l(1) =   0
                l(2) =   0
     Q(r) pseudized with  8 coefficients,  rinner =    0.700

     atomic species   valence    mass     pseudopotential
        O0             6.00    15.99940     O ( 1.00)
        Ti1           12.00    47.88000     Ti( 1.00)
        H2             1.00     1.00794     H ( 1.00)

     Simplified LDA+U calculation (l_max = 2) with parameters (eV):
     atomic species    L          U    alpha       J0     beta
        Ti1            2     4.5000   0.0000   0.0000   0.0000

     No symmetry found

   Cartesian axes

     site n.     atom                  positions (alat units)
         1           O0  tau(   1) = (   0.0000000   0.0000000   1.6989461  )
         2           O0  tau(   2) = (   0.0000000   0.5535432   1.7901728  )
         3           Ti1 tau(   3) = (   0.2500000   0.5535432   2.0162933  )
         4           Ti1 tau(   4) = (   0.0000000   0.0000000   2.0248388  )
         5           O0  tau(   5) = (   0.2500000   0.8967400   2.0178145  )
         6           O0  tau(   6) = (   0.2500000   0.2103464   2.0226912  )
         7           O0  tau(   7) = (   0.0000000   0.5535432   2.2326603  )
         8           O0  tau(   8) = (   0.0000000   0.0000000   2.3559662  )
         9           Ti1 tau(   9) = (   0.2500000   0.0000000   2.5995804  )
        10           Ti1 tau(  10) = (   0.0000000   0.5535432   2.5483968  )
        11           O0  tau(  11) = (   0.2500000   0.7638896   2.5964932  )
        12           O0  tau(  12) = (   0.2500000   0.3431968   2.5965380  )
        13           O0  tau(  13) = (   0.0000000   0.0000000   2.7842708  )
        14           O0  tau(  14) = (   0.5000000   0.0000000   1.6989461  )
        15           O0  tau(  15) = (   0.5000000   0.5535432   1.7901728  )
        16           Ti1 tau(  16) = (   0.7500000   0.5535432   2.0162933  )
        17           Ti1 tau(  17) = (   0.5000000   0.0000000   2.0248388  )
        18           O0  tau(  18) = (   0.7500000   0.8967400   2.0178145  )
        19           O0  tau(  19) = (   0.7500000   0.2103464   2.0226912  )
        20           O0  tau(  20) = (   0.5000000   0.5535432   2.2326603  )
        21           O0  tau(  21) = (   0.5000000   0.0000000   2.3559662  )
        22           Ti1 tau(  22) = (   0.7500000   0.0000000   2.5995804  )
        23           Ti1 tau(  23) = (   0.5000000   0.5535432   2.5483968  )
        24           O0  tau(  24) = (   0.7500000   0.7638896   2.5964932  )
        25           O0  tau(  25) = (   0.7500000   0.3431968   2.5965380  )
        26           O0  tau(  26) = (   0.5000000   0.0000000   2.7842708  )
        27           H2  tau(  27) = (  -0.0005400   0.6991915   1.7063283  )
        28           H2  tau(  28) = (   0.4994600   0.6991915   1.7063283  )
        29           H2  tau(  29) = (   0.1501800   0.0252084   1.6321479  )
        30           H2  tau(  30) = (   0.6501800   0.0252084   1.6321479  )

     number of k points=    10  Methfessel-Paxton smearing, width (Ry)=  0.0100
                       cart. coord. in units 2pi/alat
        k(    1) = (   0.0000000   0.0000000   0.0000000), wk =   0.1250000
        k(    2) = (   0.0000000   0.2258180   0.0000000), wk =   0.2500000
        k(    3) = (   0.0000000  -0.4516359   0.0000000), wk =   0.1250000
        k(    4) = (   0.2500000   0.0000000   0.0000000), wk =   0.2500000
        k(    5) = (   0.2500000   0.2258180   0.0000000), wk =   0.2500000
        k(    6) = (   0.2500000  -0.4516359   0.0000000), wk =   0.2500000
        k(    7) = (  -0.5000000   0.0000000   0.0000000), wk =   0.1250000
        k(    8) = (  -0.5000000   0.2258180   0.0000000), wk =   0.2500000
        k(    9) = (  -0.5000000  -0.4516359   0.0000000), wk =   0.1250000
        k(   10) = (  -0.2500000   0.2258180   0.0000000), wk =   0.2500000

     Largest allocated arrays     est. size (Mb)     dimensions
     Largest temporary arrays     est. size (Mb)     dimensions

     Check: negative/imaginary core charge=   -0.000005    0.000000

     Initial potential from superposition of free atoms
     Check: negative starting charge=   -0.102816

     starting charge  199.99958, renormalised to  208.00000

     negative rho (up, down):  0.107E+00 0.000E+00
     Number of +U iterations with fixed ns =  0
     Starting occupations:
 --- enter write_ns ---
 LDA+U parameters:
U( 2)     =  4.50000000
alpha( 2) =  0.00000000
atom    3   Tr[ns(na)] =   2.00000
    eigenvalues:
  0.200  0.200  0.200  0.200  0.200
    eigenvectors:
  1.000  0.000  0.000  0.000  0.000
  0.000  1.000  0.000  0.000  0.000
  0.000  0.000  1.000  0.000  0.000
  0.000  0.000  0.000  1.000  0.000
  0.000  0.000  0.000  0.000  1.000
    occupations:
  0.200  0.000  0.000  0.000  0.000
  0.000  0.200  0.000  0.000  0.000
  0.000  0.000  0.200  0.000  0.000
  0.000  0.000  0.000  0.200  0.000
  0.000  0.000  0.000  0.000  0.200
atom    4   Tr[ns(na)] =   2.00000
    eigenvalues:
  0.200  0.200  0.200  0.200  0.200
    eigenvectors:
  1.000  0.000  0.000  0.000  0.000
  0.000  1.000  0.000  0.000  0.000
  0.000  0.000  1.000  0.000  0.000
  0.000  0.000  0.000  1.000  0.000
  0.000  0.000  0.000  0.000  1.000
    occupations:
  0.200  0.000  0.000  0.000  0.000
  0.000  0.200  0.000  0.000  0.000
  0.000  0.000  0.200  0.000  0.000
  0.000  0.000  0.000  0.200  0.000
  0.000  0.000  0.000  0.000  0.200
atom    9   Tr[ns(na)] =   2.00000
    eigenvalues:
  0.200  0.200  0.200  0.200  0.200
    eigenvectors:
  1.000  0.000  0.000  0.000  0.000
  0.000  1.000  0.000  0.000  0.000
  0.000  0.000  1.000  0.000  0.000
  0.000  0.000  0.000  1.000  0.000
  0.000  0.000  0.000  0.000  1.000
    occupations:
  0.200  0.000  0.000  0.000  0.000
  0.000  0.200  0.000  0.000  0.000
  0.000  0.000  0.200  0.000  0.000
  0.000  0.000  0.000  0.200  0.000
  0.000  0.000  0.000  0.000  0.200
atom   10   Tr[ns(na)] =   2.00000
    eigenvalues:
  0.200  0.200  0.200  0.200  0.200
    eigenvectors:
  1.000  0.000  0.000  0.000  0.000
  0.000  1.000  0.000  0.000  0.000
  0.000  0.000  1.000  0.000  0.000
  0.000  0.000  0.000  1.000  0.000
  0.000  0.000  0.000  0.000  1.000
    occupations:
  0.200  0.000  0.000  0.000  0.000
  0.000  0.200  0.000  0.000  0.000
  0.000  0.000  0.200  0.000  0.000
  0.000  0.000  0.000  0.200  0.000
  0.000  0.000  0.000  0.000  0.200
atom   16   Tr[ns(na)] =   2.00000
    eigenvalues:
  0.200  0.200  0.200  0.200  0.200
    eigenvectors:
  1.000  0.000  0.000  0.000  0.000
  0.000  1.000  0.000  0.000  0.000
  0.000  0.000  1.000  0.000  0.000
  0.000  0.000  0.000  1.000  0.000
  0.000  0.000  0.000  0.000  1.000
    occupations:
  0.200  0.000  0.000  0.000  0.000
  0.000  0.200  0.000  0.000  0.000
  0.000  0.000  0.200  0.000  0.000
  0.000  0.000  0.000  0.200  0.000
  0.000  0.000  0.000  0.000  0.200
atom   17   Tr[ns(na)] =   2.00000
    eigenvalues:
  0.200  0.200  0.200  0.200  0.200
    eigenvectors:
  1.000  0.000  0.000  0.000  0.000
  0.000  1.000  0.000  0.000  0.000
  0.000  0.000  1.000  0.000  0.000
  0.000  0.000  0.000  1.000  0.000
  0.000  0.000  0.000  0.000  1.000
    occupations:
  0.200  0.000  0.000  0.000  0.000
  0.000  0.200  0.000  0.000  0.000
  0.000  0.000  0.200  0.000  0.000
  0.000  0.000  0.000  0.200  0.000
  0.000  0.000  0.000  0.000  0.200
atom   22   Tr[ns(na)] =   2.00000
    eigenvalues:
  0.200  0.200  0.200  0.200  0.200
    eigenvectors:
  1.000  0.000  0.000  0.000  0.000
  0.000  1.000  0.000  0.000  0.000
  0.000  0.000  1.000  0.000  0.000
  0.000  0.000  0.000  1.000  0.000
  0.000  0.000  0.000  0.000  1.000
    occupations:
[...]
  0.991  0.003  0.000  0.000  0.006
  0.000  0.000  0.000  1.000  0.000
    occupations:
  0.443  0.016  0.004 -0.023 -0.000
  0.016  0.180 -0.005  0.000 -0.003
  0.004 -0.005  0.202  0.001 -0.000
 -0.023  0.000  0.001  0.146 -0.000
 -0.000 -0.003 -0.000 -0.000  0.421
atom    9   Tr[ns(na)] =   2.78041
    eigenvalues:
  0.154  0.197  0.211  0.374  0.454
    eigenvectors:
  0.000  0.000  0.915  0.085  0.000
  0.000  0.000  0.000  0.000  1.000
  1.000  0.000  0.000  0.000  0.000
  0.000  0.000  0.085  0.915  0.000
  0.000  1.000  0.000  0.000  0.000
    occupations:
  0.225 -0.000 -0.000  0.046  0.000
 -0.000  0.454  0.000 -0.000 -0.000
 -0.000  0.000  0.154  0.000  0.000
  0.046 -0.000  0.000  0.361 -0.000
  0.000 -0.000  0.000 -0.000  0.197
atom   10   Tr[ns(na)] =   2.69407
    eigenvalues:
  0.156  0.197  0.210  0.326  0.458
    eigenvectors:
  0.025  0.000  0.000  0.975  0.000
  0.000  0.000  1.000  0.000  0.000
  0.000  1.000  0.000  0.000  0.000
  0.975  0.000  0.000  0.025  0.000
  0.000  0.000  0.000  0.000  1.000
    occupations:
  0.322 -0.000 -0.000 -0.027 -0.000
 -0.000  0.210 -0.000 -0.000  0.000
 -0.000 -0.000  0.197 -0.000  0.000
 -0.027 -0.000 -0.000  0.161 -0.000
 -0.000  0.000  0.000 -0.000  0.458
atom   16   Tr[ns(na)] =   2.65364
    eigenvalues:
  0.140  0.162  0.191  0.416  0.417
    eigenvectors:
  0.782  0.000  0.020  0.000  0.198
  0.000  0.002  0.000  0.997  0.000
  0.022  0.000  0.978  0.000  0.000
  0.196  0.000  0.002  0.000  0.802
  0.000  0.998  0.000  0.002  0.000
    occupations:
  0.196 -0.000 -0.005  0.110 -0.000
 -0.000  0.416  0.000  0.000  0.012
 -0.005  0.000  0.190  0.007 -0.000
  0.110  0.000  0.007  0.362 -0.000
 -0.000  0.012 -0.000 -0.000  0.163
atom   17   Tr[ns(na)] =   2.78359
    eigenvalues:
  0.144  0.177  0.204  0.421  0.446
    eigenvectors:
  0.006  0.003  0.000  0.000  0.990
  0.002  0.946  0.048  0.000  0.003
  0.001  0.048  0.951  0.000  0.000
  0.991  0.003  0.000  0.000  0.006
  0.000  0.000  0.000  1.000  0.000
    occupations:
  0.443  0.016  0.004 -0.023 -0.000
  0.016  0.180 -0.005  0.000 -0.003
  0.004 -0.005  0.202  0.001 -0.000
 -0.023  0.000  0.001  0.146 -0.000
 -0.000 -0.003 -0.000 -0.000  0.421
atom   22   Tr[ns(na)] =   2.78041
    eigenvalues:
  0.154  0.197  0.211  0.374  0.454
    eigenvectors:
  0.000  0.000  0.915  0.085  0.000
  0.000  0.000  0.000  0.000  1.000
  1.000  0.000  0.000  0.000  0.000
  0.000  0.000  0.085  0.915  0.000
  0.000  1.000  0.000  0.000  0.000
    occupations:
  0.225 -0.000 -0.000  0.046  0.000
 -0.000  0.454  0.000 -0.000 -0.000
 -0.000  0.000  0.154  0.000  0.000
  0.046 -0.000  0.000  0.361 -0.000
  0.000 -0.000  0.000 -0.000  0.197
atom   23   Tr[ns(na)] =   2.69407
    eigenvalues:
  0.156  0.197  0.210  0.326  0.458
    eigenvectors:
  0.025  0.000  0.000  0.975  0.000
  0.000  0.000  1.000  0.000  0.000
  0.000  1.000  0.000  0.000  0.000
  0.975  0.000  0.000  0.025  0.000
  0.000  0.000  0.000  0.000  1.000
    occupations:
  0.322 -0.000 -0.000 -0.027 -0.000
 -0.000  0.210 -0.000 -0.000  0.000
 -0.000 -0.000  0.197 -0.000  0.000
 -0.027 -0.000 -0.000  0.161 -0.000
 -0.000  0.000  0.000 -0.000  0.458
N of occupied +U levels =  21.8234153
 --- exit write_ns ---

     Threshold (ethr) on eigenvalues was too large:
     Diagonalizing with lowered threshold

     Davidson diagonalization with overlap
     ethr =  4.89E-09,  avg # of iterations =  2.0

[...]

     total energy              =   -1532.44530854 Ry
     Harris-Foulkes estimate   =   -1532.44530854 Ry
     estimated scf accuracy    <       0.00000001 Ry

     iteration #  8     ecut=    40.00 Ry     beta=0.70
     Davidson diagonalization with overlap
     ethr =  5.15E-12,  avg # of iterations =  1.0

     negative rho (up, down):  0.106E+00 0.000E+00

     End of self-consistent calculation
 --- enter write_ns ---
 LDA+U parameters:
U( 2)     =  4.50000000
alpha( 2) =  0.00000000
atom    3   Tr[ns(na)] =   2.65385
    eigenvalues:
  0.140  0.162  0.191  0.416  0.417
    eigenvectors:
  0.782  0.000  0.020  0.000  0.198
  0.000  0.002  0.000  0.997  0.000
  0.022  0.000  0.978  0.000  0.000
  0.196  0.000  0.002  0.000  0.802
  0.000  0.998  0.000  0.002  0.000
    occupations:
  0.196 -0.000 -0.005  0.110 -0.000
 -0.000  0.416  0.000  0.000  0.012
 -0.005  0.000  0.190  0.007 -0.000
  0.110  0.000  0.007  0.362 -0.000
 -0.000  0.012 -0.000 -0.000  0.163
atom    4   Tr[ns(na)] =   2.78328
    eigenvalues:
  0.144  0.177  0.204  0.421  0.446
    eigenvectors:
  0.006  0.003  0.000  0.000  0.990
  0.002  0.946  0.048  0.000  0.003
  0.001  0.048  0.951  0.000  0.000
  0.991  0.003  0.000  0.000  0.006
  0.000  0.000  0.000  1.000  0.000
    occupations:
  0.443  0.016  0.004 -0.023 -0.000
  0.016  0.180 -0.005  0.000 -0.003
  0.004 -0.005  0.202  0.001 -0.000
 -0.023  0.000  0.001  0.146 -0.000
 -0.000 -0.003 -0.000 -0.000  0.421
atom    9   Tr[ns(na)] =   2.78107
    eigenvalues:
  0.154  0.197  0.211  0.375  0.454
    eigenvectors:
  0.000  0.000  0.915  0.085  0.000
  0.000  0.000  0.000  0.000  1.000
  1.000  0.000  0.000  0.000  0.000
  0.000  0.000  0.085  0.915  0.000
  0.000  1.000  0.000  0.000  0.000
    occupations:
  0.225 -0.000 -0.000  0.046  0.000
 -0.000  0.454  0.000 -0.000 -0.000
 -0.000  0.000  0.154  0.000  0.000
  0.046 -0.000  0.000  0.361 -0.000
  0.000 -0.000  0.000 -0.000  0.197
atom   10   Tr[ns(na)] =   2.69378
    eigenvalues:
  0.156  0.197  0.210  0.326  0.458
    eigenvectors:
  0.025  0.000  0.000  0.975  0.000
  0.000  0.000  1.000  0.000  0.000
  0.000  1.000  0.000  0.000  0.000
  0.975  0.000  0.000  0.025  0.000
  0.000  0.000  0.000  0.000  1.000
    occupations:
  0.322 -0.000 -0.000 -0.027 -0.000
 -0.000  0.210 -0.000 -0.000  0.000
 -0.000 -0.000  0.197 -0.000  0.000
 -0.027 -0.000 -0.000  0.161 -0.000
 -0.000  0.000  0.000 -0.000  0.458
atom   16   Tr[ns(na)] =   2.65385
    eigenvalues:
  0.140  0.162  0.191  0.416  0.417
    eigenvectors:
  0.782  0.000  0.020  0.000  0.198
  0.000  0.002  0.000  0.997  0.000
  0.022  0.000  0.978  0.000  0.000
  0.196  0.000  0.002  0.000  0.802
  0.000  0.998  0.000  0.002  0.000
    occupations:
  0.196 -0.000 -0.005  0.110 -0.000
 -0.000  0.416  0.000  0.000  0.012
 -0.005  0.000  0.190  0.007 -0.000
  0.110  0.000  0.007  0.362 -0.000
 -0.000  0.012 -0.000 -0.000  0.163
atom   17   Tr[ns(na)] =   2.78328
    eigenvalues:
  0.144  0.177  0.204  0.421  0.446
    eigenvectors:
  0.006  0.003  0.000  0.000  0.990
  0.002  0.946  0.048  0.000  0.003
  0.001  0.048  0.951  0.000  0.000
  0.991  0.003  0.000  0.000  0.006
  0.000  0.000  0.000  1.000  0.000
    occupations:
  0.443  0.016  0.004 -0.023 -0.000
  0.016  0.180 -0.005  0.000 -0.003
  0.004 -0.005  0.202  0.001 -0.000
 -0.023  0.000  0.001  0.146 -0.000
 -0.000 -0.003 -0.000 -0.000  0.421
atom   22   Tr[ns(na)] =   2.78107
    eigenvalues:
  0.154  0.197  0.211  0.375  0.454
    eigenvectors:
  0.000  0.000  0.915  0.085  0.000
  0.000  0.000  0.000  0.000  1.000
  1.000  0.000  0.000  0.000  0.000
  0.000  0.000  0.085  0.915  0.000
  0.000  1.000  0.000  0.000  0.000
    occupations:
  0.225 -0.000 -0.000  0.046  0.000
 -0.000  0.454  0.000 -0.000 -0.000
 -0.000  0.000  0.154  0.000  0.000
  0.046 -0.000  0.000  0.361 -0.000
  0.000 -0.000  0.000 -0.000  0.197
atom   23   Tr[ns(na)] =   2.69378
    eigenvalues:
  0.156  0.197  0.210  0.326  0.458
    eigenvectors:
  0.025  0.000  0.000  0.975  0.000
  0.000  0.000  1.000  0.000  0.000
  0.000  1.000  0.000  0.000  0.000
  0.975  0.000  0.000  0.025  0.000
  0.000  0.000  0.000  0.000  1.000
    occupations:
  0.322 -0.000 -0.000 -0.027 -0.000
 -0.000  0.210 -0.000 -0.000  0.000
 -0.000 -0.000  0.197 -0.000  0.000
 -0.027 -0.000 -0.000  0.161 -0.000
 -0.000  0.000  0.000 -0.000  0.458
N of occupied +U levels =  21.8239623
 --- exit write_ns ---

[...]

          k = 0.2500-0.4516 0.0000 ( 29882 PWs)   bands (ev):

[...]

          k =-0.2500 0.2258 0.0000 ( 29912 PWs)   bands (ev):

   -61.7820 -61.7570 -61.3415 -61.3156 -60.1182 -60.0905 -59.5728 -59.5458
   -38.2285 -37.9929 -37.9596 -37.9265 -37.8192 -37.7979 -37.6632 -37.6557
   -37.6388 -37.4843 -37.4216 -37.3674 -36.6487 -36.4293 -36.3579 -36.3413
   -36.1562 -36.1338 -35.9153 -35.8934 -35.8893 -35.7645 -35.6979 -35.5824
   -22.2677 -22.0505 -20.9824 -20.7920 -20.3611 -20.2970 -19.9584 -19.7860
   -19.7475 -19.6420 -19.5671 -19.5520 -19.4013 -19.2925 -18.6311 -18.3027
   -17.9499 -17.9087  -9.8916  -9.6351  -8.1506  -7.9527  -7.8711  -7.8508
    -7.7939  -7.7903  -7.4322  -7.3918  -7.1987  -7.1299  -7.0957  -7.0739
    -6.9681  -6.8263  -6.7909  -6.6550  -6.5030  -6.4499  -6.1273  -6.0875
    -6.0067  -5.8095  -5.7632  -5.6531  -5.6297  -5.4521  -5.3509  -5.3340
    -5.2602  -5.1535  -5.1106  -5.0849  -5.0230  -5.0055  -4.8482  -4.7252
    -4.6785  -4.5307  -4.4397  -4.4216  -3.9037  -3.7224  -3.5117  -3.4404
    -3.3449  -3.2868  -3.1199  -3.0824  -3.0436  -2.8823  -2.8035  -2.6871
    -1.0531  -0.7935  -0.6891  -0.5917  -0.5668  -0.4065  -0.3623  -0.2631
     0.0069   0.0500   0.1221   0.1742   0.3070   0.4765   0.7333   0.8153
     0.9869   1.0648   1.1551   1.2848   1.3518   1.4212   1.4609   1.5290
     1.5481   1.6253   1.6361   1.7668   1.8242   2.0689   2.1575   2.4117
     2.8581   2.9474   3.0896   3.1259   3.3464   3.4638   3.5648   3.8186
     4.0085   4.1581   4.2023   4.5867   4.9423   4.9736   5.2473   5.7075
     5.7789   5.8973   6.0016   6.1112   6.1688   6.4833   6.5046   6.8203
     6.8625   7.1377   7.2550   7.3797   7.5050   7.6809   7.6995   7.8330
     7.8908   8.0227   8.0236   8.2201   8.4666   8.4838   8.6215   8.6559
     8.8054   8.9713   9.2617   9.2991   9.3077   9.3921   9.4667   9.4703
     9.5061   9.6523   9.8435   9.9953  10.0112  10.1185  10.2134  10.3930
    10.4275  10.5906  10.5973  10.7103  10.8214  10.9238  10.9280  10.9771
    11.0930  11.2417  11.2808  11.3512  11.3659  11.4690  11.5131  11.6516
    11.6573  11.7416  11.8760  11.9524  11.9584  11.9867  12.1090  12.2440
    12.2963  12.3585  12.5170  12.6071  12.6409  12.6497  12.7312  12.8670
    12.8742  12.9785  13.0349  13.2234  13.2359  13.3429  13.3685  13.4478
    13.5603  13.6257  13.6911  13.7002  13.7675  13.8135  13.9088  14.0181
    14.0634  14.1777  14.1909  14.3008  14.3950  14.4796  14.5831  14.5837
    14.6626  14.6651  14.7797  14.9396  14.9733  15.0149  15.0901  15.2551
    15.3222  15.3427  15.4808  15.5023  15.6391  15.7034  15.7163  15.7439
    15.8217  15.8907  15.9406  16.0367  16.1183  16.1296  16.2370  16.3147
    16.3946  16.5708  16.6285  16.6479  16.7649  16.8150  16.8428  16.8654
    16.9124  16.9925  17.0741  17.0806  17.2205  17.2492  17.3031  17.3990
    17.4213  17.4879  17.4939  17.5989  17.7052  17.7800  17.8244  17.9681
    18.0316  18.1684  18.1996  18.2509

     the Fermi energy is    -2.6047 ev

!    total energy              =   -1532.44530854 Ry
     Harris-Foulkes estimate   =   -1532.44530854 Ry
     estimated scf accuracy    <          9.8E-10 Ry

     The total energy is the sum of the following terms:

     one-electron contribution =  -18299.02909932 Ry
     hartree contribution      =    9161.62726761 Ry
     xc contribution           =    -269.72320435 Ry
     ewald contribution        =    7872.24359562 Ry
     Hubbard energy            =       2.43444031 Ry
     smearing contrib. (-TS)   =       0.00169158 Ry

     convergence has been achieved in   8 iterations

     Forces acting on atoms (Ry/au):

     negative rho (up, down):  0.106E+00 0.000E+00
     atom    1 type  1   force =    -0.00191328   -0.01740435   -0.00140278
     atom    2 type  1   force =    -0.00001227    0.02391602   -0.00085923
     atom    3 type  2   force =     0.00014167   -0.01338858    0.00094668
     atom    4 type  2   force =    -0.00097832    0.01026653    0.00547345
     atom    5 type  1   force =     0.00282440   -0.10860504   -0.00211940
     atom    6 type  1   force =    -0.00102022    0.10686538   -0.00215130
     atom    7 type  1   force =    -0.00003923    0.00086551   -0.00242373
     atom    8 type  1   force =     0.00143391   -0.00181835   -0.00447457
     atom    9 type  2   force =    -0.00036309    0.00013494    0.00542984
     atom   10 type  2   force =    -0.00003260   -0.00036750    0.00091650
     atom   11 type  1   force =     0.00007426   -0.04301214    0.00151739
     atom   12 type  1   force =    -0.00002523    0.04305564    0.00149109
     atom   13 type  1   force =     0.00025496   -0.00003359   -0.00011825
     atom   14 type  1   force =    -0.00191327   -0.01740436   -0.00140278
     atom   15 type  1   force =    -0.00001227    0.02391602   -0.00085923
     atom   16 type  2   force =     0.00014170   -0.01338858    0.00094668
     atom   17 type  2   force =    -0.00097832    0.01026653    0.00547345
     atom   18 type  1   force =     0.00282440   -0.10860504   -0.00211941
     atom   19 type  1   force =    -0.00102023    0.10686538   -0.00215130
     atom   20 type  1   force =    -0.00003923    0.00086551   -0.00242370
     atom   21 type  1   force =     0.00143391   -0.00181835   -0.00447458
     atom   22 type  2   force =    -0.00036312    0.00013494    0.00542984
     atom   23 type  2   force =    -0.00003261   -0.00036750    0.00091653
     atom   24 type  1   force =     0.00007425   -0.04301214    0.00151740
     atom   25 type  1   force =    -0.00002524    0.04305564    0.00149110
     atom   26 type  1   force =     0.00025497   -0.00003359   -0.00011828
     atom   27 type  3   force =     0.00005414   -0.00096392   -0.00134888
     atom   28 type  3   force =     0.00005413   -0.00096391   -0.00134889
     atom   29 type  3   force =    -0.00039909    0.00048945   -0.00087682
     atom   30 type  3   force =    -0.00039909    0.00048945   -0.00087682

     Total force =     0.014653     Total SCF correction =     0.000122

     entering subroutine stress ...

     negative rho (up, down):  0.106E+00 0.000E+00
          total   stress  (Ry/bohr**3)                   (kbar)     P=    6.95
   0.00015725  -0.00000239   0.00000388         23.13     -0.35      0.57
  -0.00000239  -0.00000005   0.00000060         -0.35     -0.01      0.09
   0.00000388   0.00000060  -0.00001541          0.57      0.09     -2.27

     The maximum number of steps has been reached.

     End of BFGS Geometry Optimization
Begin final coordinates

ATOMIC_POSITIONS (crystal)
O0       0.000000000   0.000000000   0.378447357    0   0   1
O0       0.000000000   0.500000000   0.398892050    0   0   1
Ti1      0.250000000   0.500000000   0.450234604    0   0   1
Ti1      0.000000000   0.000000000   0.451942245    0   0   1
O0       0.250000000   0.810000000   0.450846775    0   0   1
O0       0.250000000   0.190000000   0.451898222    0   0   1
O0       0.000000000   0.500000000   0.498853044    0   0   1
O0       0.000000000   0.000000000   0.527336393    0   0   1
Ti1      0.250000000   0.000000000   0.581285181    0   0   1
Ti1      0.000000000   0.500000000   0.570860156    0   0   1
O0       0.250000000   0.690000000   0.580908366    0   0   1
O0       0.250000000   0.310000000   0.580935636    0   0   1
O0       0.000000000   0.000000000   0.623790500    0   0   1
O0       0.500000000   0.000000000   0.378447357    0   0   1
O0       0.500000000   0.500000000   0.398892051    0   0   1
Ti1      0.750000000   0.500000000   0.450234604    0   0   1
Ti1      0.500000000   0.000000000   0.451942245    0   0   1
O0       0.750000000   0.810000000   0.450846777    0   0   1
O0       0.750000000   0.190000000   0.451898220    0   0   1
O0       0.500000000   0.500000000   0.498853042    0   0   1
O0       0.500000000   0.000000000   0.527336394    0   0   1
Ti1      0.750000000   0.000000000   0.581285180    0   0   1
Ti1      0.500000000   0.500000000   0.570860153    0   0   1
O0       0.750000000   0.690000000   0.580908365    0   0   1
O0       0.750000000   0.310000000   0.580935635    0   0   1
O0       0.500000000   0.000000000   0.623790502    0   0   1
H2      -0.000412873   0.632986214   0.380749551
H2       0.499587127   0.632986213   0.380749552
H2       0.152186129   0.023189296   0.364589922
H2       0.652186129   0.023189298   0.364589922
End final coordinates

     General routines

     Parallel routines
     Hubbard U routines

   This run was terminated on:  11:59:46  22May2014

   JOB DONE.
Running PBS batch system epilogue script
Job id: 363699.audhumbla.fysik.dtu.dk
Username: zhonxu
Groupname: campgst
Jobname: TiO2/Eads-2-layers/bare-U-4.5
Sessionid: 25622
Queuename: verylong
Accounting:
This job has allocated the following 16 nodes:
b063 b063 b063 b063 b063 b063 b063 b063 b054 b054 b054 b054 b054 b054 b054 b054
Finished epilogue job 363699.audhumbla.fysik.dtu.dk for zhonxu