     Program PWSCF v.5.0.2 (svn rev. 9656) starts on  2Jun2014 at  2: 9:14

     Current dimensions of program PWSCF are:
     Max number of different atomic species (ntypx) = 10
     Max number of k-points (npk) =  40000
     Max angular momentum in pseudopotentials (lmaxx) =  3
     Reading input from pwscf.in
Warning: card &CELL ignored
Warning: card / ignored

     Subspace diagonalization in iterative solution of the eigenvalue problem:
     a serial algorithm will be used

     Found symmetry operation: I + ( -0.5000  0.0000  0.0000)
     This is a supercell, fractional translations are disabled

     bravais-lattice index     =            0
     lattice parameter (alat)  =      11.2250  a.u.
     unit-cell volume          =    7005.5484 (a.u.)^3
     number of atoms/cell      =           30
     number of atomic types    =            3
     number of electrons       =       208.00
     number of Kohn-Sham states=          300
     kinetic-energy cutoff     =      40.0000  Ry
     charge density cutoff     =     500.0000  Ry
     convergence threshold     =      1.0E-06
     mixing beta               =       0.7000
     number of iterations used =            8  plain     mixing
     Exchange-correlation      = SLA  PW   PBE  PBE ( 1 4 3 4 0)
     EXX-fraction              =        0.00
     nstep                     =           50

     celldm(1)=  11.224973  celldm(2)=   0.000000  celldm(3)=   0.000000
     celldm(4)=   0.000000  celldm(5)=   0.000000  celldm(6)=   0.000000

     crystal axes: (cart. coord. in units of alat)
               a(1) = (   1.000000   0.000000   0.000000 )
               a(2) = (   0.000000   1.107086   0.000000 )
               a(3) = (   0.000000   0.000000   4.474090 )

     reciprocal axes: (cart. coord. in units 2 pi/alat)
               b(1) = (  1.000000  0.000000  0.000000 )
               b(2) = (  0.000000  0.903272  0.000000 )
               b(3) = (  0.000000  0.000000  0.223509 )

     PseudoPot. # 1 for O  read from file:
     /home/camp/zhonxu/pseudo/o_pbe_v1.01.uspp.F.UPF
     MD5 check sum: 2bcb18d16ea4b960afae9ec6d52f22d2
     Pseudo is Ultrasoft + core correction, Zval =  6.0
     Generated by new atomic code, or converted to UPF format
     Using radial grid of  737 points,  5 beta functions with:
                l(1) =   0
                l(2) =   0
                l(3) =   1
                l(4) =   1
                l(5) =   2
     Q(r) pseudized with  8 coefficients,  rinner =    0.900   0.900   0.900
                                                       0.900   0.900

     PseudoPot. # 2 for Ti read from file:
     /home/camp/zhonxu/pseudo/ti_pbe_v1.uspp.F.UPF
     MD5 check sum: bcc8f6961b3b91f0cac3ca967d22d0fb
     Pseudo is Ultrasoft + core correction, Zval = 12.0
     Generated by new atomic code, or converted to UPF format
     Using radial grid of  851 points,  6 beta functions with:
                l(1) =   0
                l(2) =   0
                l(3) =   1
                l(4) =   1
                l(5) =   2
                l(6) =   2
     Q(r) pseudized with  6 coefficients,  rinner =    1.000   1.000   1.000
                                                       1.000   1.000

     PseudoPot. # 3 for H  read from file:
     /home/camp/zhonxu/pseudo/h_pbe_v1.uspp.F.UPF
     MD5 check sum: 3408e3ff4ec8b0a4e358431e7e038a48
     Pseudo is Ultrasoft, Zval =  1.0
     Generated by new atomic code, or converted to UPF format
     Using radial grid of  615 points,  2 beta functions with:
                l(1) =   0
                l(2) =   0
     Q(r) pseudized with  8 coefficients,  rinner =    0.700

     atomic species   valence    mass     pseudopotential
        O0             6.00    15.99940     O ( 1.00)
        Ti1           12.00    47.88000     Ti( 1.00)
        H2             1.00     1.00794     H ( 1.00)

     Simplified LDA+U calculation (l_max = 2) with parameters (eV):
     atomic species    L          U    alpha       J0     beta
        Ti1            2     4.5000   0.0000   0.0000   0.0000

     No symmetry found

   Cartesian axes

     site n.     atom                  positions (alat units)
         1           O0  tau(   1) = (   0.0000000   0.0000000   1.6930403  )
         2           O0  tau(   2) = (   0.0000000   0.5535432   1.7841328  )
         3           Ti1 tau(   3) = (   0.2500000   0.5535432   2.0137878  )
         4           Ti1 tau(   4) = (   0.0000000   0.0000000   2.0221096  )
         5           O0  tau(   5) = (   0.2500000   0.8967400   2.0162933  )
         6           O0  tau(   6) = (   0.2500000   0.2103464   2.0209463  )
         7           O0  tau(   7) = (   0.0000000   0.5535432   2.2316760  )
         8           O0  tau(   8) = (   0.0000000   0.0000000   2.3596797  )
         9           Ti1 tau(   9) = (   0.2500000   0.0000000   2.6018621  )
        10           Ti1 tau(  10) = (   0.0000000   0.5535432   2.5539894  )
        11           O0  tau(  11) = (   0.2500000   0.7638896   2.6003410  )
        12           O0  tau(  12) = (   0.2500000   0.3431968   2.6004752  )
        13           O0  tau(  13) = (   0.0000000   0.0000000   2.7919215  )
        14           O0  tau(  14) = (   0.5000000   0.0000000   1.6930403  )
        15           O0  tau(  15) = (   0.5000000   0.5535432   1.7841328  )
        16           Ti1 tau(  16) = (   0.7500000   0.5535432   2.0137878  )
        17           Ti1 tau(  17) = (   0.5000000   0.0000000   2.0221096  )
        18           O0  tau(  18) = (   0.7500000   0.8967400   2.0162933  )
        19           O0  tau(  19) = (   0.7500000   0.2103464   2.0209463  )
        20           O0  tau(  20) = (   0.5000000   0.5535432   2.2316760  )
        21           O0  tau(  21) = (   0.5000000   0.0000000   2.3596797  )
        22           Ti1 tau(  22) = (   0.7500000   0.0000000   2.6018621  )
        23           Ti1 tau(  23) = (   0.5000000   0.5535432   2.5539894  )
        24           O0  tau(  24) = (   0.7500000   0.7638896   2.6003410  )
        25           O0  tau(  25) = (   0.7500000   0.3431968   2.6004752  )
        26           O0  tau(  26) = (   0.5000000   0.0000000   2.7919215  )
        27           H2  tau(  27) = (  -0.0003600   0.7003096   1.7021674  )
        28           H2  tau(  28) = (   0.4996400   0.7003096   1.7021674  )
        29           H2  tau(  29) = (   0.1519600   0.0258394   1.6306267  )
        30           H2  tau(  30) = (   0.6519600   0.0258394   1.6306267  )

     number of k points=    10  Methfessel-Paxton smearing, width (Ry)=  0.0100
                       cart. coord. in units 2pi/alat
        k(    1) = (   0.0000000   0.0000000   0.0000000), wk =   0.1250000
        k(    2) = (   0.0000000   0.2258180   0.0000000), wk =   0.2500000
        k(    3) = (   0.0000000  -0.4516359   0.0000000), wk =   0.1250000
        k(    4) = (   0.2500000   0.0000000   0.0000000), wk =   0.2500000
        k(    5) = (   0.2500000   0.2258180   0.0000000), wk =   0.2500000
        k(    6) = (   0.2500000  -0.4516359   0.0000000), wk =   0.2500000
        k(    7) = (  -0.5000000   0.0000000   0.0000000), wk =   0.1250000
        k(    8) = (  -0.5000000   0.2258180   0.0000000), wk =   0.2500000
        k(    9) = (  -0.5000000  -0.4516359   0.0000000), wk =   0.1250000
        k(   10) = (  -0.2500000   0.2258180   0.0000000), wk =   0.2500000

     Largest allocated arrays     est. size (Mb)     dimensions
     Largest temporary arrays     est. size (Mb)     dimensions

     Check: negative/imaginary core charge=   -0.000005    0.000000

     Initial potential from superposition of free atoms
     Check: negative starting charge=   -0.102090

     starting charge  199.99958, renormalised to  208.00000

     negative rho (up, down):  0.106E+00 0.000E+00
     Number of +U iterations with fixed ns =  0
     Starting occupations:
 --- enter write_ns ---
 LDA+U parameters:
U( 2)     =  4.50000000
alpha( 2) =  0.00000000
atom    3   Tr[ns(na)] =   2.00000
    eigenvalues:
  0.200  0.200  0.200  0.200  0.200
    eigenvectors:
  1.000  0.000  0.000  0.000  0.000
  0.000  1.000  0.000  0.000  0.000
  0.000  0.000  1.000  0.000  0.000
  0.000  0.000  0.000  1.000  0.000
  0.000  0.000  0.000  0.000  1.000
    occupations:
  0.200  0.000  0.000  0.000  0.000
  0.000  0.200  0.000  0.000  0.000
  0.000  0.000  0.200  0.000  0.000
  0.000  0.000  0.000  0.200  0.000
  0.000  0.000  0.000  0.000  0.200
atom    4   Tr[ns(na)] =   2.00000
    eigenvalues:
  0.200  0.200  0.200  0.200  0.200
    eigenvectors:
  1.000  0.000  0.000  0.000  0.000
  0.000  1.000  0.000  0.000  0.000
  0.000  0.000  1.000  0.000  0.000
  0.000  0.000  0.000  1.000  0.000
  0.000  0.000  0.000  0.000  1.000
    occupations:
  0.200  0.000  0.000  0.000  0.000
  0.000  0.200  0.000  0.000  0.000
  0.000  0.000  0.200  0.000  0.000
  0.000  0.000  0.000  0.200  0.000
  0.000  0.000  0.000  0.000  0.200
atom    9   Tr[ns(na)] =   2.00000
    eigenvalues:
  0.200  0.200  0.200  0.200  0.200
    eigenvectors:
  1.000  0.000  0.000  0.000  0.000
  0.000  1.000  0.000  0.000  0.000
  0.000  0.000  1.000  0.000  0.000
  0.000  0.000  0.000  1.000  0.000
  0.000  0.000  0.000  0.000  1.000
    occupations:
  0.200  0.000  0.000  0.000  0.000
  0.000  0.200  0.000  0.000  0.000
  0.000  0.000  0.200  0.000  0.000
  0.000  0.000  0.000  0.200  0.000
  0.000  0.000  0.000  0.000  0.200
atom   10   Tr[ns(na)] =   2.00000
    eigenvalues:
  0.200  0.200  0.200  0.200  0.200
    eigenvectors:
  1.000  0.000  0.000  0.000  0.000
  0.000  1.000  0.000  0.000  0.000
  0.000  0.000  1.000  0.000  0.000
  0.000  0.000  0.000  1.000  0.000
  0.000  0.000  0.000  0.000  1.000
    occupations:
  0.200  0.000  0.000  0.000  0.000
  0.000  0.200  0.000  0.000  0.000
  0.000  0.000  0.200  0.000  0.000
  0.000  0.000  0.000  0.200  0.000
  0.000  0.000  0.000  0.000  0.200
atom   16   Tr[ns(na)] =   2.00000
    eigenvalues:
  0.200  0.200  0.200  0.200  0.200
    eigenvectors:
  1.000  0.000  0.000  0.000  0.000
  0.000  1.000  0.000  0.000  0.000
  0.000  0.000  1.000  0.000  0.000
  0.000  0.000  0.000  1.000  0.000
  0.000  0.000  0.000  0.000  1.000
    occupations:
  0.200  0.000  0.000  0.000  0.000
  0.000  0.200  0.000  0.000  0.000
  0.000  0.000  0.200  0.000  0.000
  0.000  0.000  0.000  0.200  0.000
  0.000  0.000  0.000  0.000  0.200
atom   17   Tr[ns(na)] =   2.00000
    eigenvalues:
  0.200  0.200  0.200  0.200  0.200
    eigenvectors:
  1.000  0.000  0.000  0.000  0.000
  0.000  1.000  0.000  0.000  0.000
  0.000  0.000  1.000  0.000  0.000
  0.000  0.000  0.000  1.000  0.000
  0.000  0.000  0.000  0.000  1.000
    occupations:
  0.200  0.000  0.000  0.000  0.000
  0.000  0.200  0.000  0.000  0.000
  0.000  0.000  0.200  0.000  0.000
  0.000  0.000  0.000  0.200  0.000
  0.000  0.000  0.000  0.000  0.200
atom   22   Tr[ns(na)] =   2.00000
    eigenvalues:
  0.200  0.200  0.200  0.200  0.200
    eigenvectors:
  1.000  0.000  0.000  0.000  0.000
  0.000  1.000  0.000  0.000  0.000
  0.000  0.000  1.000  0.000  0.000
  0.000  0.000  0.000  1.000  0.000
  0.000  0.000  0.000  0.000  1.000
    occupations:
[...]
  0.000  0.000  1.000  0.000  0.000
    occupations:
  0.229 -0.000 -0.000  0.009 -0.000
 -0.000  0.331 -0.000  0.000  0.000
 -0.000 -0.000  0.121 -0.001  0.000
  0.009  0.000 -0.001  0.526 -0.000
 -0.000  0.000  0.000 -0.000  0.286
N of occupied +U levels =  17.4977260
 --- exit write_ns ---

     negative rho (up, down):  0.114E+00 0.000E+00

     total energy              =   -1519.14070352 Ry
     Harris-Foulkes estimate   =   -1534.33119698 Ry
     estimated scf accuracy    <      17.87335569 Ry

     iteration #  2     ecut=    40.00 Ry     beta=0.70
     Davidson diagonalization with overlap
     ethr =  8.59E-03,  avg # of iterations =  5.0

[...]

     total energy              =   -1532.44612780 Ry
     Harris-Foulkes estimate   =   -1532.44612832 Ry
     estimated scf accuracy    <       0.00000148 Ry

     iteration # 21     ecut=    40.00 Ry     beta=0.70
     Davidson diagonalization with overlap
     ethr =  7.13E-10,  avg # of iterations =  1.5

     negative rho (up, down):  0.106E+00 0.000E+00

     End of self-consistent calculation
 --- enter write_ns ---
 LDA+U parameters:
U( 2)     =  4.50000000
alpha( 2) =  0.00000000
atom    3   Tr[ns(na)] =   2.65300
    eigenvalues:
  0.140  0.162  0.192  0.416  0.417
    eigenvectors:
  0.782  0.000  0.019  0.000  0.198
  0.000  0.002  0.000  0.997  0.000
  0.021  0.000  0.978  0.000  0.000
  0.196  0.000  0.002  0.000  0.801
  0.000  0.998  0.000  0.002  0.000
    occupations:
  0.196 -0.000 -0.005  0.110 -0.000
 -0.000  0.415  0.000  0.000  0.012
 -0.005  0.000  0.191  0.007 -0.000
  0.110  0.000  0.007  0.362 -0.000
 -0.000  0.012 -0.000 -0.000  0.163
atom    4   Tr[ns(na)] =   2.78276
    eigenvalues:
  0.144  0.177  0.204  0.421  0.446
    eigenvectors:
  0.006  0.003  0.000  0.000  0.990
  0.002  0.944  0.050  0.000  0.004
  0.001  0.050  0.950  0.000  0.000
  0.991  0.003  0.000  0.000  0.006
  0.000  0.000  0.000  1.000  0.000
    occupations:
  0.443  0.016  0.004 -0.023 -0.000
  0.016  0.179 -0.006  0.000 -0.003
  0.004 -0.006  0.202  0.001 -0.000
 -0.023  0.000  0.001  0.146 -0.000
 -0.000 -0.003 -0.000 -0.000  0.421
atom    9   Tr[ns(na)] =   2.78002
    eigenvalues:
  0.154  0.197  0.211  0.375  0.453
    eigenvectors:
  0.000  0.000  0.914  0.086  0.000
  0.000  0.000  0.000  0.000  1.000
  1.000  0.000  0.000  0.000  0.000
  0.000  0.000  0.086  0.914  0.000
  0.000  1.000  0.000  0.000  0.000
    occupations:
  0.225 -0.000  0.000  0.046 -0.000
 -0.000  0.453 -0.000 -0.000 -0.000
  0.000 -0.000  0.154  0.000  0.000
  0.046 -0.000  0.000  0.361 -0.000
 -0.000 -0.000  0.000 -0.000  0.197
atom   10   Tr[ns(na)] =   2.69204
    eigenvalues:
  0.155  0.198  0.210  0.326  0.457
    eigenvectors:
  0.026  0.000  0.000  0.974  0.000
  0.000  0.000  1.000  0.000  0.000
  0.000  1.000  0.000  0.000  0.000
  0.974  0.000  0.000  0.026  0.000
  0.000  0.000  0.000  0.000  1.000
    occupations:
  0.322 -0.000 -0.000 -0.027 -0.000
 -0.000  0.210 -0.000 -0.000  0.000
 -0.000 -0.000  0.198 -0.000  0.000
 -0.027 -0.000 -0.000  0.160 -0.000
 -0.000  0.000  0.000 -0.000  0.457
atom   16   Tr[ns(na)] =   2.65300
    eigenvalues:
  0.140  0.162  0.192  0.416  0.417
    eigenvectors:
  0.782  0.000  0.019  0.000  0.198
  0.000  0.002  0.000  0.997  0.000
  0.021  0.000  0.978  0.000  0.000
  0.196  0.000  0.002  0.000  0.801
  0.000  0.998  0.000  0.002  0.000
    occupations:
  0.196 -0.000 -0.005  0.110 -0.000
 -0.000  0.415  0.000  0.000  0.012
 -0.005  0.000  0.191  0.007 -0.000
  0.110  0.000  0.007  0.362 -0.000
 -0.000  0.012 -0.000 -0.000  0.163
atom   17   Tr[ns(na)] =   2.78276
    eigenvalues:
  0.144  0.177  0.204  0.421  0.446
    eigenvectors:
  0.006  0.003  0.000  0.000  0.990
  0.002  0.944  0.050  0.000  0.004
  0.001  0.050  0.950  0.000  0.000
  0.991  0.003  0.000  0.000  0.006
  0.000  0.000  0.000  1.000  0.000
    occupations:
  0.443  0.016  0.004 -0.023 -0.000
  0.016  0.179 -0.006  0.000 -0.003
  0.004 -0.006  0.202  0.001 -0.000
 -0.023  0.000  0.001  0.146 -0.000
 -0.000 -0.003 -0.000 -0.000  0.421
atom   22   Tr[ns(na)] =   2.78002
    eigenvalues:
  0.154  0.197  0.211  0.375  0.453
    eigenvectors:
  0.000  0.000  0.914  0.086  0.000
  0.000  0.000  0.000  0.000  1.000
  1.000  0.000  0.000  0.000  0.000
  0.000  0.000  0.086  0.914  0.000
  0.000  1.000  0.000  0.000  0.000
    occupations:
  0.225 -0.000  0.000  0.046 -0.000
 -0.000  0.453 -0.000 -0.000 -0.000
  0.000 -0.000  0.154  0.000  0.000
  0.046 -0.000  0.000  0.361 -0.000
 -0.000 -0.000  0.000 -0.000  0.197
atom   23   Tr[ns(na)] =   2.69204
    eigenvalues:
  0.155  0.198  0.210  0.326  0.457
    eigenvectors:
  0.026  0.000  0.000  0.974  0.000
  0.000  0.000  1.000  0.000  0.000
  0.000  1.000  0.000  0.000  0.000
  0.974  0.000  0.000  0.026  0.000
  0.000  0.000  0.000  0.000  1.000
    occupations:
  0.322 -0.000 -0.000 -0.027 -0.000
 -0.000  0.210 -0.000 -0.000  0.000
 -0.000 -0.000  0.198 -0.000  0.000
 -0.027 -0.000 -0.000  0.160 -0.000
 -0.000  0.000  0.000 -0.000  0.457
N of occupied +U levels =  21.8156347
 --- exit write_ns ---

          k = 0.0000 0.0000 0.0000 ( 29975 PWs)   bands (ev):

   -61.7712 -61.7361 -61.3693 -61.3330 -60.1057 -60.0667 -59.6296 -59.5917
   -38.2698 -37.9910 -37.8980 -37.8910 -37.8080 -37.7755 -37.7320 -37.6866
   -37.6589 -37.5222 -37.4323 -37.3330 -36.6943 -36.4235 -36.3246 -36.2596
   -36.1438 -36.1133 -36.0028 -35.9674 -35.9386 -35.8266 -35.7376 -35.5749
   -22.3146 -22.0053 -21.0332 -20.7228 -20.5488 -20.4120 -19.9036 -19.7810
   -19.6814 -19.5443 -19.4976 -19.4894 -19.2403 -19.2133 -18.7947 -18.3515
   -17.9186 -17.9156  -9.9396  -9.5550  -8.3038  -8.2224  -8.1642  -7.9823
    -7.9594  -7.7446  -7.5360  -7.1677  -7.1509  -7.1228  -7.0358  -7.0269
    -6.9961  -6.8983  -6.7648  -6.7312  -6.6446  -6.4950  -6.1298  -5.9424
    -5.9343  -5.8875  -5.6726  -5.6700  -5.5893  -5.5144  -5.4560  -5.3693
    -5.3500  -5.2501  -5.1380  -4.7808  -4.7747  -4.7380  -4.7054  -4.6748
    -4.6739  -4.3170  -4.2282  -4.1582  -3.7757  -3.7697  -3.4759  -3.3802
    -3.3636  -3.1881  -3.1190  -2.9113  -2.8913  -2.8570  -2.7853  -2.6448
    -1.2127  -0.7269  -0.6900  -0.6018  -0.5803  -0.4089  -0.3895  -0.2859
    -0.1988  -0.1072   0.0385   0.0642   0.3778   0.4103   0.6787   0.7799
     0.9496   1.1551   1.1647   1.2405   1.2621   1.3730   1.4128   1.4186
     1.5752   1.6036   1.6637   1.6654   1.9989   2.0847   2.2650   2.6149
     2.6492   2.7809   2.8279   3.0388   3.0559   3.2768   3.6605   3.6826
     3.6995   4.0016   4.1749   4.3482   4.5375   5.2458   5.5006   5.6490
     5.8411   6.4810   6.5699   6.6820   6.8238   6.8976   6.9725   7.1719
     7.2123   7.3878   7.4130   7.6393   7.6515   7.8037   7.8041   7.8828
     7.9823   8.0335   8.0919   8.1149   8.3272   8.3891   8.4300   8.5348
     8.5951   8.7379   8.8473   8.8541   9.0869   9.1133   9.2088   9.3036
     9.3120   9.5710   9.7744   9.8674   9.8838   9.9024  10.0727  10.5532
    10.5944  10.6336  10.6517  10.6577  10.7356  10.7579  10.8402  10.9037
    10.9845  11.0398  11.1026  11.1522  11.1572  11.3620  11.4154  11.4241
    11.4283  11.4590  11.5399  11.6704  11.7451  11.8351  11.8560  11.8863
    11.9828  12.0791  12.1924  12.2551  12.2715  12.3328  12.3642  12.4496
    12.5567  12.6390  12.6983  12.7962  12.8692  12.9920  13.0516  13.2428
    13.3330  13.3701  13.4596  13.4714  13.5263  13.5520  13.6398  13.6914
    13.7583  14.0124  14.0624  14.1174  14.1815  14.3291  14.3818  14.4056
    14.6205  14.6714  14.7100  14.7713  14.8236  14.9434  14.9857  15.0606
    15.1659  15.3877  15.4154  15.4811  15.5260  15.5685  15.7061  15.9633
    16.0629  16.1157  16.2260  16.3440  16.3675  16.4406  16.4884  16.4980
    16.5475  16.8996  16.9079  16.9366  17.0544  17.3054  17.3356  17.3587
    17.4003  17.4317  17.5105  17.5639  17.6173  17.6293  17.6806  17.8124
    17.9766  18.0273  18.0639  18.0723  18.1043  18.1650  18.1903  18.2209
    18.2816  18.3643  18.3834  18.5245

[...]

          k = 0.2500-0.4516 0.0000 ( 29882 PWs)   bands (ev):

[...]

          k =-0.5000 0.0000 0.0000 ( 29982 PWs)   bands (ev):

[...]

          k =-0.2500 0.2258 0.0000 ( 29912 PWs)   bands (ev):

   -61.7671 -61.7421 -61.3649 -61.3391 -60.1009 -60.0732 -59.6249 -59.5980
   -38.2147 -37.9781 -37.9461 -37.9115 -37.8019 -37.7807 -37.6821 -37.6782
   -37.6587 -37.5081 -37.4456 -37.3915 -36.6301 -36.4108 -36.3394 -36.3229
   -36.1393 -36.1170 -35.9640 -35.9431 -35.9422 -35.8156 -35.7491 -35.6366
   -22.2450 -22.0276 -20.9756 -20.7842 -20.3792 -20.2673 -19.9772 -19.7770
   -19.7485 -19.6640 -19.5368 -19.4915 -19.3735 -19.2342 -18.6620 -18.3222
   -18.0158 -17.9640  -9.8750  -9.6169  -8.1358  -7.9436  -7.8555  -7.8374
    -7.8016  -7.7407  -7.4105  -7.3703  -7.2183  -7.1372  -7.0801  -7.0522
    -6.9873  -6.8108  -6.7530  -6.6756  -6.4915  -6.4291  -6.1297  -6.0716
    -6.0075  -5.8018  -5.7601  -5.6522  -5.6327  -5.4740  -5.3715  -5.3525
    -5.2799  -5.1656  -5.1211  -5.0746  -5.0088  -4.9959  -4.8522  -4.7450
    -4.6583  -4.5294  -4.4315  -4.4049  -3.9366  -3.7210  -3.5139  -3.4461
    -3.3635  -3.2992  -3.1527  -3.0895  -3.0775  -2.8585  -2.8046  -2.6568
    -1.0469  -0.7899  -0.6728  -0.6017  -0.5595  -0.4079  -0.3573  -0.2839
    -0.0077   0.0433   0.1124   0.1801   0.2904   0.4594   0.7268   0.8253
     0.9940   1.0580   1.1361   1.2848   1.3530   1.4148   1.4389   1.5324
     1.5548   1.6044   1.6273   1.7378   1.7902   2.0243   2.1162   2.3693
     2.8358   2.9515   3.0903   3.1412   3.3638   3.4200   3.5498   3.7834
     3.9777   4.1494   4.1709   4.5871   4.9694   4.9777   5.2627   5.7038
     5.7641   5.8861   5.9937   6.1059   6.1860   6.4895   6.5057   6.8226
     6.8666   7.1329   7.2655   7.3857   7.5076   7.6691   7.6822   7.8438
     7.8843   8.0310   8.0358   8.2239   8.4699   8.4891   8.6160   8.6613
     8.8073   8.9670   9.2560   9.3040   9.3061   9.3938   9.4640   9.4730
     9.5026   9.6494   9.8327  10.0062  10.0067  10.1146  10.2195  10.3862
    10.4340  10.5944  10.5947  10.7098  10.8108  10.9206  10.9301  10.9715
    11.0926  11.2259  11.2877  11.3504  11.3710  11.4681  11.5130  11.6422
    11.6431  11.7371  11.8702  11.9529  11.9575  11.9804  12.1106  12.2377
    12.3006  12.3565  12.5196  12.6036  12.6416  12.6448  12.7336  12.8705
    12.8717  12.9745  13.0264  13.2234  13.2301  13.3459  13.3606  13.4445
    13.5486  13.6201  13.6941  13.7025  13.7579  13.8015  13.8991  14.0132
    14.0537  14.1770  14.2101  14.2992  14.3828  14.4773  14.5777  14.5876
    14.6519  14.6626  14.7661  14.9377  14.9681  15.0077  15.0962  15.2465
    15.3267  15.3393  15.4880  15.4987  15.6438  15.6992  15.7134  15.7508
    15.8186  15.8877  15.9369  16.0321  16.1079  16.1301  16.2357  16.3212
    16.3966  16.5750  16.6316  16.6465  16.7579  16.8169  16.8445  16.8633
    16.9102  16.9895  17.0736  17.0805  17.2202  17.2433  17.2989  17.3999
    17.4131  17.4900  17.4931  17.6007  17.7038  17.7811  17.8166  17.9628
    18.0328  18.1680  18.1998  18.2483

     the Fermi energy is    -1.9282 ev

!    total energy              =   -1532.44612765 Ry
     Harris-Foulkes estimate   =   -1532.44612819 Ry
     estimated scf accuracy    <       0.00000061 Ry

     The total energy is the sum of the following terms:

     one-electron contribution =  -18278.51852103 Ry
     hartree contribution      =    9151.37010497 Ry
     xc contribution           =    -269.70476941 Ry
     ewald contribution        =    7861.97279196 Ry
     Hubbard energy            =       2.43426586 Ry
     smearing contrib. (-TS)   =       0.00000000 Ry

     convergence has been achieved in  21 iterations

     Forces acting on atoms (Ry/au):

     negative rho (up, down):  0.106E+00 0.000E+00
     atom    1 type  1   force =    -0.00234073   -0.01680372   -0.00009119
     atom    2 type  1   force =     0.00000642    0.02332257   -0.00041100
     atom    3 type  2   force =     0.00014272   -0.01246603   -0.00034409
     atom    4 type  2   force =    -0.00076394    0.00933191   -0.00034154
     atom    5 type  1   force =     0.00298264   -0.10920680   -0.00031638
     atom    6 type  1   force =    -0.00122679    0.10710320   -0.00037636
     atom    7 type  1   force =    -0.00005379    0.00076443   -0.00022663
     atom    8 type  1   force =     0.00129845   -0.00154698    0.00050868
     atom    9 type  2   force =    -0.00022332    0.00013519    0.00034526
     atom   10 type  2   force =    -0.00003488   -0.00041973    0.00029318
     atom   11 type  1   force =     0.00001931   -0.04312825    0.00078930
     atom   12 type  1   force =     0.00001007    0.04326460    0.00080802
     atom   13 type  1   force =     0.00016739   -0.00006416    0.00071144
     atom   14 type  1   force =    -0.00234074   -0.01680373   -0.00009124
     atom   15 type  1   force =     0.00000626    0.02332257   -0.00041097
     atom   16 type  2   force =     0.00014270   -0.01246603   -0.00034406
     atom   17 type  2   force =    -0.00076397    0.00933192   -0.00034158
     atom   18 type  1   force =     0.00298260   -0.10920677   -0.00031643
     atom   19 type  1   force =    -0.00122685    0.10710312   -0.00037645
     atom   20 type  1   force =    -0.00005410    0.00076445   -0.00022654
     atom   21 type  1   force =     0.00129786   -0.00154699    0.00050883
     atom   22 type  2   force =    -0.00022328    0.00013517    0.00034546
     atom   23 type  2   force =    -0.00003489   -0.00041972    0.00029330
     atom   24 type  1   force =     0.00001884   -0.04312822    0.00078934
     atom   25 type  1   force =     0.00000964    0.04326461    0.00080824
     atom   26 type  1   force =     0.00016692   -0.00006412    0.00071111
     atom   27 type  3   force =     0.00003952   -0.00033225   -0.00094553
     atom   28 type  3   force =     0.00003952   -0.00033225   -0.00094554
     atom   29 type  3   force =    -0.00002179    0.00004602   -0.00040331
     atom   30 type  3   force =    -0.00002179    0.00004602   -0.00040331

     Total force =     0.002872     Total SCF correction =     0.004042
     SCF correction compared to forces is large: reduce conv_thr to get better values

     entering subroutine stress ...

     negative rho (up, down):  0.106E+00 0.000E+00
          total   stress  (Ry/bohr**3)                   (kbar)     P=    6.71
   0.00015819  -0.00000266   0.00000383         23.27     -0.39      0.56
  -0.00000266  -0.00000108   0.00000055         -0.39     -0.16      0.08
   0.00000383   0.00000055  -0.00002020          0.56      0.08     -2.97

     BFGS Geometry Optimization

     bfgs converged in   1 scf cycles and   0 bfgs steps
     (criteria: energy < 0.10E-03, force < 0.10E-02)

     End of BFGS Geometry Optimization

     Final energy   =   -1532.4461276502 Ry
Begin final coordinates

ATOMIC_POSITIONS (crystal)
O0       0.000000000   0.000000000   0.378410000    0   0   1
O0       0.000000000   0.500000000   0.398770000    0   0   1
Ti1      0.250000000   0.500000000   0.450100000    0   0   1
Ti1      0.000000000   0.000000000   0.451960000    0   0   1
O0       0.250000000   0.810000000   0.450660000    0   0   1
O0       0.250000000   0.190000000   0.451700000    0   0   1
O0       0.000000000   0.500000000   0.498800000    0   0   1
O0       0.000000000   0.000000000   0.527410000    0   0   1
Ti1      0.250000000   0.000000000   0.581540000    0   0   1
Ti1      0.000000000   0.500000000   0.570840000    0   0   1
O0       0.250000000   0.690000000   0.581200000    0   0   1
O0       0.250000000   0.310000000   0.581230000    0   0   1
O0       0.000000000   0.000000000   0.624020000    0   0   1
O0       0.500000000   0.000000000   0.378410000    0   0   1
O0       0.500000000   0.500000000   0.398770000    0   0   1
Ti1      0.750000000   0.500000000   0.450100000    0   0   1
Ti1      0.500000000   0.000000000   0.451960000    0   0   1
O0       0.750000000   0.810000000   0.450660000    0   0   1
O0       0.750000000   0.190000000   0.451700000    0   0   1
O0       0.500000000   0.500000000   0.498800000    0   0   1
O0       0.500000000   0.000000000   0.527410000    0   0   1
Ti1      0.750000000   0.000000000   0.581540000    0   0   1
Ti1      0.500000000   0.500000000   0.570840000    0   0   1
O0       0.750000000   0.690000000   0.581200000    0   0   1
O0       0.750000000   0.310000000   0.581230000    0   0   1
O0       0.500000000   0.000000000   0.624020000    0   0   1
H2      -0.000360000   0.632570000   0.380450000
H2       0.499640000   0.632570000   0.380450000
H2       0.151960000   0.023340000   0.364460000
H2       0.651960000   0.023340000   0.364460000
End final coordinates

     General routines

     Parallel routines
     Hubbard U routines

   This run was terminated on:   3:38:15   2Jun2014

   JOB DONE.