     Program PWSCF v.5.0.2 (svn rev. 9656) starts on 30Apr2014 at  5:45:12

     Current dimensions of program PWSCF are:
     Max number of different atomic species (ntypx) = 10
     Max number of k-points (npk) =  40000
     Max angular momentum in pseudopotentials (lmaxx) =  3
     Reading input from pwscf.in
Warning: card &CELL ignored
Warning: card / ignored

     Subspace diagonalization in iterative solution of the eigenvalue problem:
     a serial algorithm will be used

     bravais-lattice index     =            0
     lattice parameter (alat)  =      11.7541  a.u.
     unit-cell volume          =    7139.8207 (a.u.)^3
     number of atoms/cell      =           32
     number of atomic types    =            3
     number of electrons       =       239.00
     number of Kohn-Sham states=          358
     kinetic-energy cutoff     =      40.0000  Ry
     charge density cutoff     =     500.0000  Ry
     convergence threshold     =      1.0E-06
     mixing beta               =       0.7000
     number of iterations used =            8  plain     mixing
     Exchange-correlation      = SLA  PW   PBE  PBE ( 1 4 3 4 0)
     EXX-fraction              =        0.00
     nstep                     =           50

     celldm(1)=  11.754097  celldm(2)=   0.000000  celldm(3)=   0.000000
     celldm(4)=   0.000000  celldm(5)=   0.000000  celldm(6)=   0.000000

     crystal axes: (cart. coord. in units of alat)
               a(1) = (   1.000000   0.000000   0.000000 )
               a(2) = (   0.000000   1.034513   0.000000 )
               a(3) = (   0.000000   0.000000   4.249947 )

     reciprocal axes: (cart. coord. in units 2 pi/alat)
               b(1) = (  1.000000  0.000000  0.000000 )
               b(2) = (  0.000000  0.966638  0.000000 )
               b(3) = (  0.000000  0.000000  0.235297 )

     PseudoPot. # 1 for O  read from file:
     /home/camp/zhonxu/pseudo/o_pbe_v1.01.uspp.F.UPF
     MD5 check sum: 2bcb18d16ea4b960afae9ec6d52f22d2
     Pseudo is Ultrasoft + core correction, Zval =  6.0
     Generated by new atomic code, or converted to UPF format
     Using radial grid of  737 points,  5 beta functions with:
                l(1) =   0
                l(2) =   0
                l(3) =   1
                l(4) =   1
                l(5) =   2
     Q(r) pseudized with  8 coefficients,  rinner =    0.900   0.900   0.900
                                                       0.900   0.900

     PseudoPot. # 2 for Rh read from file:
     /home/camp/zhonxu/pseudo/rh_pbe_v1.uspp.F.UPF
     MD5 check sum: 37b626987ad0dd8ec6bf4cc9ef289918
     Pseudo is Ultrasoft + core correction, Zval = 15.0
     Generated by new atomic code, or converted to UPF format
     Using radial grid of  969 points,  7 beta functions with:
                l(1) =   0
                l(2) =   0
                l(3) =   1
                l(4) =   1
                l(5) =   2
                l(6) =   2
                l(7) =   2
     Q(r) pseudized with  6 coefficients,  rinner =    1.050   1.050   1.050
                                                       1.050   1.050

     PseudoPot. # 3 for H  read from file:
     /home/camp/zhonxu/pseudo/h_pbe_v1.uspp.F.UPF
     MD5 check sum: 3408e3ff4ec8b0a4e358431e7e038a48
     Pseudo is Ultrasoft, Zval =  1.0
     Generated by new atomic code, or converted to UPF format
     Using radial grid of  615 points,  2 beta functions with:
                l(1) =   0
                l(2) =   0
     Q(r) pseudized with  8 coefficients,  rinner =    0.700

     atomic species   valence    mass     pseudopotential
        O0             6.00    15.99940     O ( 1.00)
        Rh1           15.00   102.90550     Rh( 1.00)
        H2             1.00     1.00794     H ( 1.00)

     Simplified LDA+U calculation (l_max = 2) with parameters (eV):
     atomic species    L          U    alpha       J0     beta
        Rh1            2     1.5000   0.0000   0.0000   0.0000

     No symmetry found

   Cartesian axes

     site n.     atom                  positions (alat units)
         1           O0  tau(   1) = (   0.0000000   0.0000000   1.6077125  )
         2           O0  tau(   2) = (   0.0000000   0.5172566   1.7060138  )
         3           Rh1 tau(   3) = (   0.2500000   0.5172566   1.9233561  )
         4           Rh1 tau(   4) = (   0.0000000   0.0000000   1.9242061  )
         5           O0  tau(   5) = (   0.2500000   0.8379556   1.9221236  )
         6           O0  tau(   6) = (   0.2500000   0.1965575   1.9218261  )
         7           O0  tau(   7) = (   0.0000000   0.5172566   2.1180887  )
         8           O0  tau(   8) = (   0.0000000   0.0000000   2.2452046  )
         9           Rh1 tau(   9) = (   0.2500000   0.0000000   2.4467796  )
        10           Rh1 tau(  10) = (   0.0000000   0.5172566   2.4248074  )
        11           O0  tau(  11) = (   0.2500000   0.7138141   2.4490746  )
        12           O0  tau(  12) = (   0.2500000   0.3206991   2.4494996  )
        13           O0  tau(  13) = (   0.0000000   0.0000000   2.6392597  )
        14           O0  tau(  14) = (   0.5000000   0.0000000   1.6071175  )
        15           O0  tau(  15) = (   0.5000000   0.5172566   1.7046963  )
        16           Rh1 tau(  16) = (   0.7500000   0.5172566   1.9233561  )
        17           Rh1 tau(  17) = (   0.5000000   0.0000000   1.9236961  )
        18           O0  tau(  18) = (   0.7500000   0.8379556   1.9222086  )
        19           O0  tau(  19) = (   0.7500000   0.1965575   1.9219111  )
        20           O0  tau(  20) = (   0.5000000   0.5172566   2.1234861  )
        21           O0  tau(  21) = (   0.5000000   0.0000000   2.2446521  )
        22           Rh1 tau(  22) = (   0.7500000   0.0000000   2.4466946  )
        23           Rh1 tau(  23) = (   0.5000000   0.5172566   2.4467371  )
        24           O0  tau(  24) = (   0.7500000   0.7138141   2.4449521  )
        25           O0  tau(  25) = (   0.7500000   0.3206991   2.4452921  )
        26           O0  tau(  26) = (   0.5000000   0.0000000   2.6379847  )
        27           H2  tau(  27) = (  -0.0000100   0.6596573   1.6332972  )
        28           H2  tau(  28) = (   0.4999400   0.6612505   1.6349547  )
        29           H2  tau(  29) = (   0.1484100   0.0351631   1.5627056  )
        30           H2  tau(  30) = (   0.6482100   0.0356700   1.5619406  )
        31           O0  tau(  31) = (   0.5154200   0.5168841   2.7565583  )
        32           H2  tau(  32) = (   0.3686900   0.5167083   2.8162275  )

     number of k points=    10  Methfessel-Paxton smearing, width (Ry)=  0.0100
                       cart. coord. in units 2pi/alat
        k(    1) = (   0.0000000   0.0000000   0.0000000), wk =   0.1250000
        k(    2) = (   0.0000000   0.2416596   0.0000000), wk =   0.2500000
        k(    3) = (   0.0000000  -0.4833191   0.0000000), wk =   0.1250000
        k(    4) = (   0.2500000   0.0000000   0.0000000), wk =   0.2500000
        k(    5) = (   0.2500000   0.2416596   0.0000000), wk =   0.2500000
        k(    6) = (   0.2500000  -0.4833191   0.0000000), wk =   0.2500000
        k(    7) = (  -0.5000000   0.0000000   0.0000000), wk =   0.1250000
        k(    8) = (  -0.5000000   0.2416596   0.0000000), wk =   0.2500000
        k(    9) = (  -0.5000000  -0.4833191   0.0000000), wk =   0.1250000
        k(   10) = (  -0.2500000   0.2416596   0.0000000), wk =   0.2500000

     Largest allocated arrays     est. size (Mb)     dimensions
     Largest temporary arrays     est. size (Mb)     dimensions

     Check: negative/imaginary core charge=   -0.000003    0.000000

     Initial potential from superposition of free atoms
     Check: negative starting charge=   -0.644969

     starting charge  234.99914, renormalised to  239.00000

     negative rho (up, down):  0.656E+00 0.000E+00
     Number of +U iterations with fixed ns =  0
     Starting occupations:
 --- enter write_ns ---
 LDA+U parameters:
U( 2)     =  1.50000000
alpha( 2) =  0.00000000
atom    3   Tr[ns(na)] =   7.00000
    eigenvalues:
  0.700  0.700  0.700  0.700  0.700
    eigenvectors:
  1.000  0.000  0.000  0.000  0.000
  0.000  1.000  0.000  0.000  0.000
  0.000  0.000  1.000  0.000  0.000
  0.000  0.000  0.000  1.000  0.000
  0.000  0.000  0.000  0.000  1.000
    occupations:
  0.700  0.000  0.000  0.000  0.000
  0.000  0.700  0.000  0.000  0.000
  0.000  0.000  0.700  0.000  0.000
  0.000  0.000  0.000  0.700  0.000
  0.000  0.000  0.000  0.000  0.700
atom    4   Tr[ns(na)] =   7.00000
    eigenvalues:
  0.700  0.700  0.700  0.700  0.700
    eigenvectors:
  1.000  0.000  0.000  0.000  0.000
  0.000  1.000  0.000  0.000  0.000
  0.000  0.000  1.000  0.000  0.000
  0.000  0.000  0.000  1.000  0.000
  0.000  0.000  0.000  0.000  1.000
    occupations:
  0.700  0.000  0.000  0.000  0.000
  0.000  0.700  0.000  0.000  0.000
  0.000  0.000  0.700  0.000  0.000
  0.000  0.000  0.000  0.700  0.000
  0.000  0.000  0.000  0.000  0.700
atom    9   Tr[ns(na)] =   7.00000
    eigenvalues:
  0.700  0.700  0.700  0.700  0.700
    eigenvectors:
  1.000  0.000  0.000  0.000  0.000
  0.000  1.000  0.000  0.000  0.000
  0.000  0.000  1.000  0.000  0.000
  0.000  0.000  0.000  1.000  0.000
  0.000  0.000  0.000  0.000  1.000
    occupations:
  0.700  0.000  0.000  0.000  0.000
  0.000  0.700  0.000  0.000  0.000
  0.000  0.000  0.700  0.000  0.000
  0.000  0.000  0.000  0.700  0.000
  0.000  0.000  0.000  0.000  0.700
atom   10   Tr[ns(na)] =   7.00000
    eigenvalues:
  0.700  0.700  0.700  0.700  0.700
    eigenvectors:
  1.000  0.000  0.000  0.000  0.000
  0.000  1.000  0.000  0.000  0.000
  0.000  0.000  1.000  0.000  0.000
  0.000  0.000  0.000  1.000  0.000
  0.000  0.000  0.000  0.000  1.000
    occupations:
  0.700  0.000  0.000  0.000  0.000
  0.000  0.700  0.000  0.000  0.000
  0.000  0.000  0.700  0.000  0.000
  0.000  0.000  0.000  0.700  0.000
  0.000  0.000  0.000  0.000  0.700
atom   16   Tr[ns(na)] =   7.00000
    eigenvalues:
  0.700  0.700  0.700  0.700  0.700
    eigenvectors:
  1.000  0.000  0.000  0.000  0.000
  0.000  1.000  0.000  0.000  0.000
  0.000  0.000  1.000  0.000  0.000
  0.000  0.000  0.000  1.000  0.000
  0.000  0.000  0.000  0.000  1.000
    occupations:
  0.700  0.000  0.000  0.000  0.000
  0.000  0.700  0.000  0.000  0.000
  0.000  0.000  0.700  0.000  0.000
  0.000  0.000  0.000  0.700  0.000
  0.000  0.000  0.000  0.000  0.700
atom   17   Tr[ns(na)] =   7.00000
    eigenvalues:
  0.700  0.700  0.700  0.700  0.700
    eigenvectors:
  1.000  0.000  0.000  0.000  0.000
  0.000  1.000  0.000  0.000  0.000
  0.000  0.000  1.000  0.000  0.000
  0.000  0.000  0.000  1.000  0.000
  0.000  0.000  0.000  0.000  1.000
    occupations:
  0.700  0.000  0.000  0.000  0.000
  0.000  0.700  0.000  0.000  0.000
  0.000  0.000  0.700  0.000  0.000
  0.000  0.000  0.000  0.700  0.000
  0.000  0.000  0.000  0.000  0.700
atom   22   Tr[ns(na)] =   7.00000
    eigenvalues:
  0.700  0.700  0.700  0.700  0.700
    eigenvectors:
  1.000  0.000  0.000  0.000  0.000
  0.000  1.000  0.000  0.000  0.000
  0.000  0.000  1.000  0.000  0.000
  0.000  0.000  0.000  1.000  0.000
[...]
  0.924  0.000 -0.000 -0.117 -0.001
  0.000  0.639  0.000  0.001 -0.000
 -0.000  0.000  0.846 -0.000 -0.003
 -0.117  0.001 -0.000  0.698  0.001
 -0.001 -0.000 -0.003  0.001  0.882
atom   10   Tr[ns(na)] =   7.98965
    eigenvalues:
  0.597  0.612  0.905  0.906  0.975
    eigenvectors:
  0.000  0.992  0.000  0.000  0.008
  0.000  0.000  0.999  0.001  0.000
  0.000  0.000  0.001  0.999  0.000
  0.000  0.008  0.000  0.000  0.992
  1.000  0.000  0.000  0.000  0.000
    occupations:
  0.615 -0.003  0.001  0.032 -0.000
 -0.003  0.905 -0.000  0.000 -0.000
  0.001 -0.000  0.906  0.000  0.003
  0.032  0.000  0.000  0.972  0.000
 -0.000 -0.000  0.003  0.000  0.597
atom   16   Tr[ns(na)] =   7.99950
    eigenvalues:
  0.588  0.610  0.880  0.950  0.970
    eigenvectors:
  0.007  0.195  0.002  0.001  0.795
  0.973  0.026  0.000  0.000  0.000
  0.000  0.000  0.974  0.024  0.002
  0.019  0.779  0.000  0.000  0.201
  0.000  0.000  0.023  0.975  0.001
    occupations:
  0.897  0.006  0.003 -0.144  0.002
  0.006  0.589  0.001  0.001 -0.006
  0.003  0.001  0.882 -0.004 -0.010
 -0.144  0.001 -0.004  0.683  0.000
  0.002 -0.006 -0.010  0.000  0.949
atom   17   Tr[ns(na)] =   7.98566
    eigenvalues:
  0.602  0.650  0.861  0.906  0.973
    eigenvectors:
  0.001  0.992  0.000  0.000  0.007
  0.000  0.000  0.066  0.934  0.000
  0.000  0.000  0.934  0.066  0.000
  0.000  0.007  0.000  0.000  0.993
  0.999  0.001  0.000  0.000  0.000
    occupations:
  0.652 -0.004 -0.001  0.027  0.001
 -0.004  0.903  0.011  0.001 -0.000
 -0.001  0.011  0.864 -0.001  0.001
  0.027  0.001 -0.001  0.971  0.000
  0.001 -0.000  0.001  0.000  0.602
atom   22   Tr[ns(na)] =   7.97370
    eigenvalues:
  0.639  0.650  0.838  0.885  0.974
    eigenvectors:
  0.000  0.151  0.000  0.000  0.849
  1.000  0.000  0.000  0.000  0.000
  0.000  0.000  0.996  0.004  0.000
  0.000  0.849  0.000  0.000  0.151
  0.000  0.000  0.004  0.996  0.000
    occupations:
  0.925  0.001 -0.000 -0.116 -0.000
  0.001  0.639  0.000 -0.001 -0.000
 -0.000  0.000  0.838 -0.000  0.003
 -0.116 -0.001 -0.000  0.699  0.001
 -0.000 -0.000  0.003  0.001  0.885
atom   23   Tr[ns(na)] =   7.97707
    eigenvalues:
  0.607  0.652  0.842  0.915  0.972
    eigenvectors:
  0.000  0.992  0.000  0.000  0.008
  0.000  0.000  0.000  0.999  0.000
  0.000  0.000  1.000  0.000  0.000
  0.000  0.008  0.000  0.000  0.992
  1.000  0.000  0.000  0.000  0.000
    occupations:
  0.655  0.006  0.000  0.028 -0.000
  0.006  0.915 -0.000 -0.000 -0.000
  0.000 -0.000  0.842  0.000 -0.002
  0.028 -0.000  0.000  0.970  0.000
 -0.000 -0.000 -0.002  0.000  0.607
N of occupied +U levels =  63.8889406
 --- exit write_ns ---

     Threshold (ethr) on eigenvalues was too large:
     Diagonalizing with lowered threshold

     Davidson diagonalization with overlap
     ethr =  2.78E-09,  avg # of iterations =  4.0

[...]

     total energy              =   -1981.01658114 Ry
     Harris-Foulkes estimate   =   -1981.01658115 Ry
     estimated scf accuracy    <       0.00000014 Ry

     iteration # 16     ecut=    40.00 Ry     beta=0.70
     Davidson diagonalization with overlap
     ethr =  1.86E-11,  avg # of iterations =  1.0

     negative rho (up, down):  0.694E+00 0.000E+00

     End of self-consistent calculation
 --- enter write_ns ---
 LDA+U parameters:
U( 2)     =  1.50000000
alpha( 2) =  0.00000000
atom    3   Tr[ns(na)] =   7.99987
    eigenvalues:
  0.588  0.610  0.881  0.951  0.970
    eigenvectors:
  0.006  0.195  0.002  0.001  0.795
  0.976  0.024  0.000  0.000  0.000
  0.000  0.000  0.969  0.029  0.002
  0.017  0.781  0.000  0.000  0.201
  0.000  0.000  0.029  0.970  0.001
    occupations:
  0.897 -0.006  0.003 -0.145 -0.002
 -0.006  0.589 -0.001 -0.001 -0.006
  0.003 -0.001  0.883 -0.004  0.012
 -0.145 -0.001 -0.004  0.682 -0.000
 -0.002 -0.006  0.012 -0.000  0.948
atom    4   Tr[ns(na)] =   7.98640
    eigenvalues:
  0.603  0.650  0.859  0.908  0.973
    eigenvectors:
  0.000  0.992  0.000  0.000  0.007
  0.000  0.000  0.045  0.954  0.000
  0.000  0.000  0.955  0.045  0.000
  0.000  0.007  0.000  0.000  0.993
  1.000  0.000  0.000  0.000  0.000
    occupations:
  0.652 -0.004 -0.001  0.027  0.001
 -0.004  0.906  0.010  0.001 -0.000
 -0.001  0.010  0.861 -0.001  0.001
  0.027  0.001 -0.001  0.971  0.000
  0.001 -0.000  0.001  0.000  0.603
atom    9   Tr[ns(na)] =   7.97742
    eigenvalues:
  0.638  0.649  0.845  0.882  0.974
    eigenvectors:
  0.001  0.151  0.000  0.000  0.847
  0.992  0.008  0.000  0.000  0.000
  0.000  0.000  0.995  0.005  0.000
  0.007  0.840  0.000  0.000  0.153
  0.000  0.000  0.005  0.995  0.000
    occupations:
  0.924  0.000 -0.000 -0.117 -0.001
  0.000  0.639  0.000  0.001 -0.000
 -0.000  0.000  0.846 -0.000 -0.003
 -0.117  0.001 -0.000  0.698  0.001
 -0.001 -0.000 -0.003  0.001  0.882
atom   10   Tr[ns(na)] =   7.98916
    eigenvalues:
  0.597  0.612  0.905  0.906  0.975
    eigenvectors:
  0.000  0.992  0.000  0.000  0.008
  0.000  0.000  0.998  0.001  0.000
  0.000  0.000  0.001  0.998  0.000
  0.000  0.008  0.000  0.000  0.992
  1.000  0.000  0.000  0.000  0.000
    occupations:
  0.615 -0.003  0.001  0.032 -0.000
 -0.003  0.905 -0.000  0.000 -0.000
  0.001 -0.000  0.906  0.000  0.003
  0.032  0.000  0.000  0.972  0.000
 -0.000 -0.000  0.003  0.000  0.597
atom   16   Tr[ns(na)] =   7.99950
    eigenvalues:
  0.588  0.610  0.880  0.950  0.970
    eigenvectors:
  0.007  0.195  0.002  0.001  0.795
  0.973  0.026  0.000  0.000  0.000
  0.000  0.000  0.974  0.023  0.002
  0.019  0.779  0.000  0.000  0.201
  0.000  0.000  0.023  0.975  0.001
    occupations:
  0.897  0.006  0.003 -0.144  0.002
  0.006  0.589  0.001  0.001 -0.006
  0.003  0.001  0.882 -0.004 -0.010
 -0.144  0.001 -0.004  0.683  0.000
  0.002 -0.006 -0.010  0.000  0.949
atom   17   Tr[ns(na)] =   7.98583
    eigenvalues:
  0.602  0.650  0.861  0.906  0.973
    eigenvectors:
  0.001  0.992  0.000  0.000  0.007
  0.000  0.000  0.066  0.934  0.000
  0.000  0.000  0.934  0.066  0.000
  0.000  0.007  0.000  0.000  0.993
  0.999  0.001  0.000  0.000  0.000
    occupations:
  0.652 -0.004 -0.001  0.027  0.001
 -0.004  0.903  0.011  0.001 -0.000
 -0.001  0.011  0.864 -0.001  0.001
  0.027  0.001 -0.001  0.971  0.000
  0.001 -0.000  0.001  0.000  0.602
atom   22   Tr[ns(na)] =   7.97396
    eigenvalues:
  0.639  0.650  0.838  0.886  0.974
    eigenvectors:
  0.000  0.151  0.000  0.000  0.849
  1.000  0.000  0.000  0.000  0.000
  0.000  0.000  0.996  0.004  0.000
  0.000  0.849  0.000  0.000  0.151
  0.000  0.000  0.004  0.996  0.000
    occupations:
  0.925  0.001 -0.000 -0.116 -0.000
  0.001  0.639  0.000 -0.001 -0.000
 -0.000  0.000  0.838 -0.000  0.003
 -0.116 -0.001 -0.000  0.699  0.001
 -0.000 -0.000  0.003  0.001  0.885
atom   23   Tr[ns(na)] =   7.97664
    eigenvalues:
  0.607  0.652  0.842  0.915  0.972
    eigenvectors:
  0.000  0.992  0.000  0.000  0.008
  0.000  0.000  0.000  0.999  0.000
  0.000  0.000  1.000  0.000  0.000
  0.000  0.008  0.000  0.000  0.992
  1.000  0.000  0.000  0.000  0.000
    occupations:
  0.655  0.006  0.000  0.028 -0.000
  0.006  0.915 -0.000 -0.000 -0.000
  0.000 -0.000  0.842  0.000 -0.002
  0.028 -0.000  0.000  0.969  0.000
 -0.000 -0.000 -0.002  0.000  0.607
N of occupied +U levels =  63.8887880
 --- exit write_ns ---

[...]

          k = 0.2500-0.4833 0.0000 ( 30510 PWs)   bands (ev):

[...]

          k =-0.2500 0.2417 0.0000 ( 30481 PWs)   bands (ev):

   -49.2914 -49.2532 -49.2318 -49.2148 -49.1810 -49.1507 -49.1432 -49.1305
   -49.1216 -49.0983 -49.0914 -49.0805 -49.0109 -49.0085 -48.9878 -48.9092
   -48.9037 -48.8632 -48.8265 -48.8084 -48.8070 -48.7979 -48.7906 -48.7747
   -21.3943 -21.1090 -20.9399 -20.8087 -20.5943 -20.4113 -20.3483 -20.2995
   -20.1926 -20.1398 -20.0774 -20.0275 -19.9730 -19.9569 -19.8378 -19.8013
   -19.7176 -18.9742 -18.8521  -9.6282  -9.4713  -9.3982  -9.1750  -8.7883
    -8.7722  -8.7238  -8.6522  -8.5904  -8.5216  -8.4993  -8.4241  -8.3817
    -8.2510  -8.0576  -7.9821  -7.8317  -7.8087  -7.5881  -7.4109  -7.2986
    -7.2486  -7.1725  -7.0453  -6.7707  -6.6644  -6.6051  -6.4643  -6.2822
    -6.2501  -6.1971  -6.1662  -6.0713  -5.9926  -5.9437  -5.8490  -5.7974
    -5.7179  -5.6463  -5.5133  -5.3503  -5.2784  -5.1589  -5.0221  -4.8993
    -4.8326  -4.7329  -4.6347  -4.5126  -4.4208  -4.3636  -4.2053  -4.0183
    -3.9386  -3.7357  -3.6506  -3.5767  -3.5155  -3.4610  -3.3389  -3.2991
    -3.2278  -3.1767  -3.0889  -3.0574  -3.0164  -2.9559  -2.9209  -2.8328
    -2.7817  -2.6906  -2.3925  -2.2158  -2.0336  -1.9097  -1.7811  -1.7536
    -1.7102  -1.5396  -1.4432  -1.3505  -0.8936  -0.3561  -0.2844   0.0110
     0.3536   0.5304   0.8333   0.9773   1.3109   1.3673   1.5275   1.5625
     1.6981   1.8320   1.8877   2.2279   3.6792   3.9178   4.6069   4.9967
     5.3695   5.4955   5.5717   5.8834   6.1497   6.3789   6.4699   6.4952
     6.5443   6.7900   6.9061   7.1029   7.2670   7.4610   7.5519   7.7044
     7.8903   7.9377   8.0706   8.1658   8.2006   8.3539   8.4456   8.5574
     8.7415   8.8306   8.9073   8.9624   9.0939   9.2525   9.4589   9.5521
     9.6183   9.7287   9.7926   9.8955   9.9232  10.0036  10.1942  10.2166
    10.3411  10.3662  10.4177  10.5806  10.7030  10.7363  10.8379  10.9362
    11.0086  11.0668  11.1840  11.2021  11.3202  11.3695  11.4889  11.5577
    11.5842  11.6973  11.7716  11.7837  11.8911  12.0299  12.1225  12.1884
    12.2323  12.2790  12.3234  12.4168  12.4987  12.5379  12.6349  12.6956
    12.7789  12.8300  12.9106  12.9866  13.0968  13.1590  13.2370  13.2735
    13.3403  13.3945  13.4958  13.5409  13.7061  13.7843  13.8340  13.9228
    13.9498  14.0144  14.1385  14.1783  14.2638  14.3122  14.4004  14.4489
    14.5810  14.6246  14.6940  14.7904  14.9674  15.0543  15.1928  15.3081
    15.3530  15.3914  15.4818  15.5328  15.5799  15.5872  15.6959  15.7728
    15.8048  15.8490  15.9278  16.0337  16.0831  16.1272  16.1901  16.2970
    16.3471  16.4074  16.4263  16.4754  16.5095  16.5781  16.6241  16.7211
    16.7556  16.8497  16.9405  17.0109  17.0885  17.1936  17.2245  17.2588
    17.3581  17.4037  17.4852  17.5181  17.5779  17.6477  17.7458  17.8392
    17.8817  17.9563  18.0316  18.0908  18.1095  18.2423  18.2754  18.3179
    18.4398  18.5214  18.6008  18.6786  18.7549  18.8106  18.8366  18.9308
    18.9832  19.0258  19.1119  19.1306  19.2361  19.2726  19.3140  19.4576
    19.5273  19.5869  19.6275  19.7157  19.7761  19.8697  19.9465  20.0474
    20.1385  20.2042  20.2722  20.3650  20.4846  20.5611  20.5821  20.6538
    20.7184  20.7809  20.8377  20.9019  20.9676  21.0553  21.1673  21.1815
    21.2342  21.2856  21.3098  21.3809  21.4179  21.4683  21.5281  21.6696
    21.7250  21.7967  21.8323  21.8653  21.9260  21.9805  22.0602  22.1173
    22.1961  22.2493  22.3644  22.4188  22.4883  22.5446

     the Fermi energy is    -1.7773 ev

!    total energy              =   -1981.01658114 Ry
     Harris-Foulkes estimate   =   -1981.01658115 Ry
     estimated scf accuracy    <          7.6E-09 Ry

     The total energy is the sum of the following terms:

     one-electron contribution =  -23338.18294673 Ry
     hartree contribution      =   11717.38504307 Ry
     xc contribution           =    -372.86122619 Ry
     ewald contribution        =   10012.03381674 Ry
     Hubbard energy            =       0.61002420 Ry
     smearing contrib. (-TS)   =      -0.00129224 Ry

     convergence has been achieved in  16 iterations

     Forces acting on atoms (Ry/au):

     negative rho (up, down):  0.694E+00 0.000E+00
     atom    1 type  1   force =    -0.00699919   -0.01331310   -0.00027860
     atom    2 type  1   force =     0.00044759    0.00489791   -0.00015208
     atom    3 type  2   force =     0.03108827    0.00674775   -0.00037926
     atom    4 type  2   force =     0.00837696    0.00925299   -0.00012973
     atom    5 type  1   force =    -0.00211806   -0.02994941    0.00021695
     atom    6 type  1   force =     0.00176729    0.02646057    0.00029711
     atom    7 type  1   force =     0.00200957   -0.00116121    0.00021184
     atom    8 type  1   force =    -0.00140293   -0.00093739    0.00000262
     atom    9 type  2   force =     0.00475276   -0.00016780   -0.00020148
     atom   10 type  2   force =    -0.00614243   -0.00158133   -0.00045768
     atom   11 type  1   force =    -0.01124760    0.00981548    0.00025746
     atom   12 type  1   force =    -0.01143350   -0.00959594    0.00026710
     atom   13 type  1   force =    -0.00114005    0.00001633   -0.00009230
     atom   14 type  1   force =    -0.00688596   -0.01348616    0.00000463
     atom   15 type  1   force =     0.00025259    0.00530581   -0.00019970
     atom   16 type  2   force =    -0.03235621    0.00574089   -0.00038225
     atom   17 type  2   force =     0.00857871    0.00934545   -0.00018086
     atom   18 type  1   force =    -0.00046767   -0.02985447    0.00021019
     atom   19 type  1   force =     0.00287423    0.02710213    0.00028341
     atom   20 type  1   force =    -0.00156464   -0.00460731   -0.00001888
     atom   21 type  1   force =    -0.00430169   -0.00058531   -0.00000683
     atom   22 type  2   force =    -0.00124380    0.00046318   -0.00022673
     atom   23 type  2   force =     0.00279391    0.00001719    0.00012819
     atom   24 type  1   force =     0.01169437    0.01484219    0.00015147
     atom   25 type  1   force =     0.01246784   -0.01499275    0.00015598
     atom   26 type  1   force =    -0.00092431   -0.00016365   -0.00032022
     atom   27 type  3   force =    -0.00000473    0.00010022    0.00028689
     atom   28 type  3   force =     0.00000891    0.00013550    0.00031258
     atom   29 type  3   force =     0.00006163    0.00009846    0.00005939
     atom   30 type  3   force =    -0.00007614    0.00013363   -0.00005550
     atom   31 type  1   force =     0.00065762   -0.00003223    0.00024990
     atom   32 type  3   force =     0.00047669   -0.00004764   -0.00001360

     Total force =     0.001542     Total SCF correction =     0.000378
     SCF correction compared to forces is large: reduce conv_thr to get better values

     bfgs converged in   8 scf cycles and   7 bfgs steps
     (criteria: energy < 0.10E-03, force < 0.10E-02)

     End of BFGS Geometry Optimization

     Final energy   =   -1981.0165811409 Ry
Begin final coordinates

ATOMIC_POSITIONS (crystal)
O0       0.000000000   0.000000000   0.378366331    0   0   1
O0       0.000000000   0.500000000   0.401794275    0   0   1
Rh1      0.250000000   0.500000000   0.452702700    0   0   1
Rh1      0.000000000   0.000000000   0.452752025    0   0   1
O0       0.250000000   0.810000000   0.452294897    0   0   1
O0       0.250000000   0.190000000   0.452166277    0   0   1
O0       0.000000000   0.500000000   0.498728225    0   0   1
O0       0.000000000   0.000000000   0.528270455    0   0   1
Rh1      0.250000000   0.000000000   0.575672685    0   0   1
Rh1      0.000000000   0.500000000   0.570599733    0   0   1
O0       0.250000000   0.690000000   0.576167484    0   0   1
O0       0.250000000   0.310000000   0.576250760    0   0   1
O0       0.000000000   0.000000000   0.620988652    0   0   1
O0       0.500000000   0.000000000   0.378137967    0   0   1
O0       0.500000000   0.500000000   0.401428018    0   0   1
Rh1      0.750000000   0.500000000   0.452702242    0   0   1
Rh1      0.500000000   0.000000000   0.452531440    0   0   1
O0       0.750000000   0.810000000   0.452305918    0   0   1
O0       0.750000000   0.190000000   0.452182805    0   0   1
O0       0.500000000   0.500000000   0.499831346    0   0   1
O0       0.500000000   0.000000000   0.528138435    0   0   1
Rh1      0.750000000   0.000000000   0.575609351    0   0   1
Rh1      0.500000000   0.500000000   0.575479447    0   0   1
O0       0.750000000   0.690000000   0.575009924    0   0   1
O0       0.750000000   0.310000000   0.575073925    0   0   1
O0       0.500000000   0.000000000   0.620747544    0   0   1
H2      -0.000064411   0.636934014   0.384426238
H2       0.499912794   0.638639422   0.384825545
H2       0.148169986   0.034184622   0.367627178
H2       0.648069187   0.034841491   0.367449795
O0       0.516452362   0.499590114   0.648281981
H2       0.370171812   0.499394435   0.662576400
End final coordinates

     General routines

     Parallel routines
     Hubbard U routines

   This run was terminated on:  15:15:25  30Apr2014

   JOB DONE.
Running PBS batch system epilogue script
Job id: 340555.audhumbla.fysik.dtu.dk
Username: zhonxu
Groupname: campgst
Jobname: RhO2/Eads-2-layers/OH-U-1.5
Sessionid: 5821
Queuename: verylong
Accounting:
This job has allocated the following 16 nodes:
d115 d115 d115 d115 d115 d115 d115 d115 d114 d114 d114 d114 d114 d114 d114 d114
Finished epilogue job 340555.audhumbla.fysik.dtu.dk for zhonxu