     Program PWSCF v.5.0.2 (svn rev. 9656) starts on  2May2014 at  0:58:57

     Current dimensions of program PWSCF are:
     Max number of different atomic species (ntypx) = 10
     Max number of k-points (npk) =  40000
     Max angular momentum in pseudopotentials (lmaxx) =  3
     Reading input from pwscf.in
Warning: card &CELL ignored
Warning: card / ignored

     Subspace diagonalization in iterative solution of the eigenvalue problem:
     a serial algorithm will be used

     bravais-lattice index     =            0
     lattice parameter (alat)  =      10.1289  a.u.
     unit-cell volume          =    6836.7721 (a.u.)^3
     number of atoms/cell      =           32
     number of atomic types    =            3
     number of electrons       =       239.00
     number of Kohn-Sham states=          358
     kinetic-energy cutoff     =      40.0000  Ry
     charge density cutoff     =     500.0000  Ry
     convergence threshold     =      1.0E-06
     mixing beta               =       0.7000
     number of iterations used =            8  plain     mixing
     Exchange-correlation      = SLA  PW   PBE  PBE ( 1 4 3 4 0)
     EXX-fraction              =        0.00
     nstep                     =           50

     celldm(1)=  10.128932  celldm(2)=   0.000000  celldm(3)=   0.000000
     celldm(4)=   0.000000  celldm(5)=   0.000000  celldm(6)=   0.000000

     crystal axes: (cart. coord. in units of alat)
               a(1) = (   1.000000   0.000000   0.000000 )
               a(2) = (   0.000000   1.306037   0.000000 )
               a(3) = (   0.000000   0.000000   5.037380 )

     reciprocal axes: (cart. coord. in units 2 pi/alat)
               b(1) = (  1.000000  0.000000  0.000000 )
               b(2) = (  0.000000  0.765675  0.000000 )
               b(3) = (  0.000000  0.000000  0.198516 )

     PseudoPot. # 1 for O  read from file:
     /home/camp/zhonxu/pseudo/o_pbe_v1.01.uspp.F.UPF
     MD5 check sum: 2bcb18d16ea4b960afae9ec6d52f22d2
     Pseudo is Ultrasoft + core correction, Zval =  6.0
     Generated by new atomic code, or converted to UPF format
     Using radial grid of  737 points,  5 beta functions with:
                l(1) =   0
                l(2) =   0
                l(3) =   1
                l(4) =   1
                l(5) =   2
     Q(r) pseudized with  8 coefficients,  rinner =    0.900   0.900   0.900
                                                       0.900   0.900

     PseudoPot. # 2 for Re read from file:
     /home/camp/zhonxu/pseudo/re_pbe_v1.uspp.F.UPF
     MD5 check sum: 6f5a5dcaf9c96c20d0ffdde0de57afc6
     Pseudo is Ultrasoft + core correction, Zval = 15.0
     Generated by new atomic code, or converted to UPF format
     Using radial grid of  981 points,  8 beta functions with:
                l(1) =   0
                l(2) =   0
                l(3) =   1
                l(4) =   1
                l(5) =   2
                l(6) =   2
                l(7) =   3
                l(8) =   3
     Q(r) pseudized with  8 coefficients,  rinner =    1.000   1.000   1.000
                                                       1.000   1.000   1.000
                                                       1.000

     PseudoPot. # 3 for H  read from file:
     /home/camp/zhonxu/pseudo/h_pbe_v1.uspp.F.UPF
     MD5 check sum: 3408e3ff4ec8b0a4e358431e7e038a48
     Pseudo is Ultrasoft, Zval =  1.0
     Generated by new atomic code, or converted to UPF format
     Using radial grid of  615 points,  2 beta functions with:
                l(1) =   0
                l(2) =   0
     Q(r) pseudized with  8 coefficients,  rinner =    0.700

     atomic species   valence    mass     pseudopotential
        O0             6.00    15.99940     O ( 1.00)
        Re1           15.00   186.20700     Re( 1.00)
        H2             1.00     1.00794     H ( 1.00)

     Simplified LDA+U calculation (l_max = 2) with parameters (eV):
     atomic species    L          U    alpha       J0     beta
        Re1            2     7.5000   0.0000   0.0000   0.0000

     No symmetry found

   Cartesian axes

     site n.     atom                  positions (alat units)
         1           O0  tau(   1) = (   0.0000000   0.0000000   1.8669538  )
         2           O0  tau(   2) = (   0.0000000   0.6530184   1.9246318  )
         3           Re1 tau(   3) = (   0.2500000   0.6530184   2.2252626  )
         4           Re1 tau(   4) = (   0.0000000   0.0000000   2.2335239  )
         5           O0  tau(   5) = (   0.2500000   1.0187087   2.2252626  )
         6           O0  tau(   6) = (   0.2500000   0.2873281   2.2245574  )
         7           O0  tau(   7) = (   0.0000000   0.6530184   2.5039809  )
         8           O0  tau(   8) = (   0.0000000   0.0000000   2.5944019  )
         9           Re1 tau(   9) = (   0.2500000   0.0000000   2.8956372  )
        10           Re1 tau(  10) = (   0.0000000   0.6530184   2.8532728  )
        11           O0  tau(  11) = (   0.2500000   0.9403465   2.8863684  )
        12           O0  tau(  12) = (   0.2500000   0.3656903   2.8866706  )
        13           O0  tau(  13) = (   0.0000000   0.0000000   3.1589410  )
        14           O0  tau(  14) = (   0.5000000   0.0000000   1.8671553  )
        15           O0  tau(  15) = (   0.5000000   0.6530184   1.9260926  )
        16           Re1 tau(  16) = (   0.7500000   0.6530184   2.2254138  )
        17           Re1 tau(  17) = (   0.5000000   0.0000000   2.2327683  )
        18           O0  tau(  18) = (   0.7500000   1.0187087   2.2250108  )
        19           O0  tau(  19) = (   0.7500000   0.2873281   2.2249100  )
        20           O0  tau(  20) = (   0.5000000   0.6530184   2.5136527  )
        21           O0  tau(  21) = (   0.5000000   0.0000000   2.5937470  )
        22           Re1 tau(  22) = (   0.7500000   0.0000000   2.8949319  )
        23           Re1 tau(  23) = (   0.5000000   0.6530184   2.8846557  )
        24           O0  tau(  24) = (   0.7500000   0.9403465   2.8822881  )
        25           O0  tau(  25) = (   0.7500000   0.3656903   2.8822881  )
        26           O0  tau(  26) = (   0.5000000   0.0000000   3.1556667  )
        27           H2  tau(  27) = (  -0.0003600   0.8163644   1.8395505  )
        28           H2  tau(  28) = (   0.4996200   0.8138568   1.8363769  )
        29           H2  tau(  29) = (   0.1695000   0.0302217   1.7958260  )
        30           H2  tau(  30) = (   0.6704500   0.0285761   1.7967327  )
        31           O0  tau(  31) = (   0.5277600   0.6525874   3.2436194  )
        32           H2  tau(  32) = (   0.3788200   0.6519344   3.3501096  )

     number of k points=    10  Methfessel-Paxton smearing, width (Ry)=  0.0100
                       cart. coord. in units 2pi/alat
        k(    1) = (   0.0000000   0.0000000   0.0000000), wk =   0.1250000
        k(    2) = (   0.0000000   0.1914188   0.0000000), wk =   0.2500000
        k(    3) = (   0.0000000  -0.3828376   0.0000000), wk =   0.1250000
        k(    4) = (   0.2500000   0.0000000   0.0000000), wk =   0.2500000
        k(    5) = (   0.2500000   0.1914188   0.0000000), wk =   0.2500000
        k(    6) = (   0.2500000  -0.3828376   0.0000000), wk =   0.2500000
        k(    7) = (  -0.5000000   0.0000000   0.0000000), wk =   0.1250000
        k(    8) = (  -0.5000000   0.1914188   0.0000000), wk =   0.2500000
        k(    9) = (  -0.5000000  -0.3828376   0.0000000), wk =   0.1250000
        k(   10) = (  -0.2500000   0.1914188   0.0000000), wk =   0.2500000

     Largest allocated arrays     est. size (Mb)     dimensions
     Largest temporary arrays     est. size (Mb)     dimensions

     Check: negative/imaginary core charge=   -0.000003    0.000000

     Initial potential from superposition of free atoms
     Check: negative starting charge=   -0.237247

     starting charge  234.99957, renormalised to  239.00000

     negative rho (up, down):  0.241E+00 0.000E+00
     Number of +U iterations with fixed ns =  0
     Starting occupations:
 --- enter write_ns ---
 LDA+U parameters:
U( 2)     =  7.50000000
alpha( 2) =  0.00000000
atom    3   Tr[ns(na)] =   5.00000
    eigenvalues:
  0.500  0.500  0.500  0.500  0.500
    eigenvectors:
  1.000  0.000  0.000  0.000  0.000
  0.000  1.000  0.000  0.000  0.000
  0.000  0.000  1.000  0.000  0.000
  0.000  0.000  0.000  1.000  0.000
  0.000  0.000  0.000  0.000  1.000
    occupations:
  0.500  0.000  0.000  0.000  0.000
  0.000  0.500  0.000  0.000  0.000
  0.000  0.000  0.500  0.000  0.000
  0.000  0.000  0.000  0.500  0.000
  0.000  0.000  0.000  0.000  0.500
atom    4   Tr[ns(na)] =   5.00000
    eigenvalues:
  0.500  0.500  0.500  0.500  0.500
    eigenvectors:
  1.000  0.000  0.000  0.000  0.000
  0.000  1.000  0.000  0.000  0.000
  0.000  0.000  1.000  0.000  0.000
  0.000  0.000  0.000  1.000  0.000
  0.000  0.000  0.000  0.000  1.000
    occupations:
  0.500  0.000  0.000  0.000  0.000
  0.000  0.500  0.000  0.000  0.000
  0.000  0.000  0.500  0.000  0.000
  0.000  0.000  0.000  0.500  0.000
  0.000  0.000  0.000  0.000  0.500
atom    9   Tr[ns(na)] =   5.00000
    eigenvalues:
  0.500  0.500  0.500  0.500  0.500
    eigenvectors:
  1.000  0.000  0.000  0.000  0.000
  0.000  1.000  0.000  0.000  0.000
  0.000  0.000  1.000  0.000  0.000
  0.000  0.000  0.000  1.000  0.000
  0.000  0.000  0.000  0.000  1.000
    occupations:
  0.500  0.000  0.000  0.000  0.000
  0.000  0.500  0.000  0.000  0.000
  0.000  0.000  0.500  0.000  0.000
  0.000  0.000  0.000  0.500  0.000
  0.000  0.000  0.000  0.000  0.500
atom   10   Tr[ns(na)] =   5.00000
    eigenvalues:
  0.500  0.500  0.500  0.500  0.500
    eigenvectors:
  1.000  0.000  0.000  0.000  0.000
  0.000  1.000  0.000  0.000  0.000
  0.000  0.000  1.000  0.000  0.000
  0.000  0.000  0.000  1.000  0.000
  0.000  0.000  0.000  0.000  1.000
    occupations:
  0.500  0.000  0.000  0.000  0.000
  0.000  0.500  0.000  0.000  0.000
  0.000  0.000  0.500  0.000  0.000
  0.000  0.000  0.000  0.500  0.000
  0.000  0.000  0.000  0.000  0.500
atom   16   Tr[ns(na)] =   5.00000
    eigenvalues:
  0.500  0.500  0.500  0.500  0.500
    eigenvectors:
  1.000  0.000  0.000  0.000  0.000
  0.000  1.000  0.000  0.000  0.000
  0.000  0.000  1.000  0.000  0.000
  0.000  0.000  0.000  1.000  0.000
  0.000  0.000  0.000  0.000  1.000
    occupations:
  0.500  0.000  0.000  0.000  0.000
  0.000  0.500  0.000  0.000  0.000
  0.000  0.000  0.500  0.000  0.000
  0.000  0.000  0.000  0.500  0.000
  0.000  0.000  0.000  0.000  0.500
atom   17   Tr[ns(na)] =   5.00000
    eigenvalues:
  0.500  0.500  0.500  0.500  0.500
    eigenvectors:
  1.000  0.000  0.000  0.000  0.000
  0.000  1.000  0.000  0.000  0.000
  0.000  0.000  1.000  0.000  0.000
  0.000  0.000  0.000  1.000  0.000
  0.000  0.000  0.000  0.000  1.000
    occupations:
  0.500  0.000  0.000  0.000  0.000
  0.000  0.500  0.000  0.000  0.000
  0.000  0.000  0.500  0.000  0.000
  0.000  0.000  0.000  0.500  0.000
  0.000  0.000  0.000  0.000  0.500
atom   22   Tr[ns(na)] =   5.00000
    eigenvalues:
  0.500  0.500  0.500  0.500  0.500
    eigenvectors:
  1.000  0.000  0.000  0.000  0.000
[...]
  0.624  0.002  0.001 -0.008  0.000
  0.002  0.787  0.008 -0.001 -0.001
  0.001  0.008  0.500  0.001  0.000
 -0.008 -0.001  0.001  0.805 -0.000
  0.000 -0.001  0.000 -0.000  0.582
atom    9   Tr[ns(na)] =   6.59756
    eigenvalues:
  0.526  0.593  0.625  0.695  0.859
    eigenvectors:
  0.000  0.102  0.000  0.897  0.001
  0.000  0.000  1.000  0.000  0.000
  0.999  0.000  0.000  0.000  0.001
  0.000  0.898  0.000  0.102  0.000
  0.001  0.000  0.000  0.001  0.998
    occupations:
  0.685 -0.000  0.001 -0.031  0.004
 -0.000  0.625  0.000  0.000 -0.000
  0.001  0.000  0.526 -0.000 -0.009
 -0.031  0.000 -0.000  0.604 -0.003
  0.004 -0.000 -0.009 -0.003  0.859
atom   10   Tr[ns(na)] =   6.41085
    eigenvalues:
  0.381  0.476  0.562  0.814  0.971
    eigenvectors:
  0.002  0.992  0.000  0.005  0.000
  0.000  0.000  0.000  0.000  1.000
  0.996  0.002  0.002  0.000  0.000
  0.000  0.005  0.000  0.994  0.000
  0.002  0.000  0.998  0.000  0.000
    occupations:
  0.478 -0.008 -0.005  0.025 -0.000
 -0.008  0.971 -0.001 -0.001  0.001
 -0.005 -0.001  0.382  0.001 -0.007
  0.025 -0.001  0.001  0.812 -0.000
 -0.000  0.001 -0.007 -0.000  0.562
atom   16   Tr[ns(na)] =   6.53433
    eigenvalues:
  0.392  0.550  0.581  0.796  0.948
    eigenvectors:
  0.006  0.023  0.229  0.742  0.000
  0.000  0.940  0.058  0.001  0.001
  0.976  0.000  0.000  0.006  0.018
  0.001  0.036  0.713  0.250  0.000
  0.018  0.001  0.000  0.000  0.982
    occupations:
  0.739  0.011  0.029 -0.093  0.004
  0.011  0.552  0.003  0.002 -0.009
  0.029  0.003  0.405 -0.013 -0.073
 -0.093  0.002 -0.013  0.633 -0.002
  0.004 -0.009 -0.073 -0.002  0.938
atom   17   Tr[ns(na)] =   6.60161
    eigenvalues:
  0.518  0.581  0.624  0.771  0.807
    eigenvectors:
  0.000  0.000  0.996  0.000  0.003
  0.002  0.000  0.000  0.997  0.000
  0.998  0.000  0.000  0.002  0.000
  0.000  0.000  0.003  0.001  0.996
  0.000  1.000  0.000  0.000  0.000
    occupations:
  0.625  0.003  0.001 -0.010  0.001
  0.003  0.770  0.010 -0.001 -0.001
  0.001  0.010  0.518  0.001  0.000
 -0.010 -0.001  0.001  0.806 -0.000
  0.001 -0.001  0.000 -0.000  0.581
atom   22   Tr[ns(na)] =   6.61814
    eigenvalues:
  0.456  0.579  0.587  0.821  0.866
    eigenvectors:
  0.000  0.001  0.226  0.770  0.003
  0.000  0.998  0.002  0.000  0.000
  0.999  0.000  0.000  0.000  0.001
  0.000  0.001  0.772  0.226  0.001
  0.001  0.000  0.000  0.004  0.995
    occupations:
  0.768  0.001 -0.001 -0.098  0.002
  0.001  0.579  0.000 -0.000  0.000
 -0.001  0.000  0.457  0.000  0.016
 -0.098 -0.000  0.000  0.640 -0.002
  0.002  0.000  0.016 -0.002  0.865
atom   23   Tr[ns(na)] =   6.52074
    eigenvalues:
  0.382  0.554  0.581  0.784  0.961
    eigenvectors:
  0.000  0.000  0.997  0.002  0.002
  0.000  0.000  0.002  0.000  0.998
  1.000  0.000  0.000  0.000  0.000
  0.000  0.000  0.002  0.998  0.000
  0.000  1.000  0.000  0.000  0.000
    occupations:
  0.582  0.015 -0.001  0.008  0.000
  0.015  0.960  0.001  0.002  0.000
 -0.001  0.001  0.382  0.000  0.002
  0.008  0.002  0.000  0.783  0.000
  0.000  0.000  0.002  0.000  0.554
N of occupied +U levels =  52.4090723
 --- exit write_ns ---

     Threshold (ethr) on eigenvalues was too large:
     Diagonalizing with lowered threshold

     Davidson diagonalization with overlap
     ethr =  2.97E-09,  avg # of iterations =  2.0

[...]

     total energy              =   -2171.86522797 Ry
     Harris-Foulkes estimate   =   -2171.86522797 Ry
     estimated scf accuracy    <       0.00000001 Ry

     iteration # 12     ecut=    40.00 Ry     beta=0.70
     Davidson diagonalization with overlap
     ethr =  4.84E-12,  avg # of iterations =  2.0

     negative rho (up, down):  0.236E+00 0.000E+00

     End of self-consistent calculation
 --- enter write_ns ---
 LDA+U parameters:
U( 2)     =  7.50000000
alpha( 2) =  0.00000000
atom    3   Tr[ns(na)] =   6.52836
    eigenvalues:
  0.385  0.551  0.582  0.798  0.949
    eigenvectors:
  0.006  0.023  0.227  0.743  0.000
  0.000  0.937  0.061  0.001  0.001
  0.975  0.000  0.000  0.007  0.018
  0.001  0.039  0.711  0.249  0.000
  0.018  0.001  0.000  0.000  0.981
    occupations:
  0.740 -0.011  0.031 -0.093 -0.004
 -0.011  0.554 -0.003 -0.002 -0.009
  0.031 -0.003  0.398 -0.014  0.075
 -0.093 -0.002 -0.014  0.634  0.002
 -0.004 -0.009  0.075  0.002  0.938
atom    4   Tr[ns(na)] =   6.59748
    eigenvalues:
  0.500  0.582  0.624  0.788  0.806
    eigenvectors:
  0.000  0.000  0.997  0.000  0.002
  0.001  0.000  0.000  0.993  0.006
  0.999  0.000  0.000  0.001  0.000
  0.000  0.000  0.002  0.006  0.991
  0.000  1.000  0.000  0.000  0.000
    occupations:
  0.624  0.002  0.001 -0.008  0.000
  0.002  0.787  0.007 -0.001 -0.000
  0.001  0.007  0.500  0.001  0.000
 -0.008 -0.001  0.001  0.805 -0.000
  0.000 -0.000  0.000 -0.000  0.582
atom    9   Tr[ns(na)] =   6.59769
    eigenvalues:
  0.526  0.593  0.625  0.695  0.859
    eigenvectors:
  0.000  0.102  0.000  0.897  0.001
  0.000  0.000  1.000  0.000  0.000
  0.999  0.000  0.000  0.000  0.001
  0.000  0.898  0.000  0.102  0.000
  0.001  0.000  0.000  0.001  0.998
    occupations:
  0.685 -0.000  0.001 -0.031  0.004
 -0.000  0.625  0.000  0.000 -0.000
  0.001  0.000  0.526 -0.000 -0.009
 -0.031  0.000 -0.000  0.604 -0.003
  0.004 -0.000 -0.009 -0.003  0.859
atom   10   Tr[ns(na)] =   6.41114
    eigenvalues:
  0.381  0.476  0.562  0.814  0.971
    eigenvectors:
  0.002  0.992  0.000  0.005  0.000
  0.000  0.000  0.000  0.000  1.000
  0.996  0.002  0.002  0.000  0.000
  0.000  0.005  0.000  0.994  0.000
  0.002  0.000  0.998  0.000  0.000
    occupations:
  0.478 -0.008 -0.005  0.025 -0.000
 -0.008  0.971 -0.001 -0.001  0.001
 -0.005 -0.001  0.382  0.001 -0.007
  0.025 -0.001  0.001  0.812 -0.000
 -0.000  0.001 -0.007 -0.000  0.562
atom   16   Tr[ns(na)] =   6.53453
    eigenvalues:
  0.392  0.550  0.581  0.796  0.948
    eigenvectors:
  0.006  0.023  0.229  0.742  0.000
  0.000  0.940  0.058  0.001  0.001
  0.975  0.000  0.000  0.006  0.018
  0.001  0.037  0.713  0.250  0.000
  0.018  0.001  0.000  0.000  0.982
    occupations:
  0.739  0.011  0.029 -0.093  0.004
  0.011  0.552  0.003  0.002 -0.009
  0.029  0.003  0.405 -0.013 -0.073
 -0.093  0.002 -0.013  0.633 -0.002
  0.004 -0.009 -0.073 -0.002  0.938
atom   17   Tr[ns(na)] =   6.60177
    eigenvalues:
  0.518  0.581  0.624  0.771  0.807
    eigenvectors:
  0.000  0.000  0.996  0.000  0.003
  0.002  0.000  0.000  0.997  0.000
  0.998  0.000  0.000  0.002  0.000
  0.000  0.000  0.003  0.001  0.996
  0.000  1.000  0.000  0.000  0.000
    occupations:
  0.625  0.003  0.001 -0.010  0.001
  0.003  0.770  0.010 -0.001 -0.001
  0.001  0.010  0.518  0.001  0.000
 -0.010 -0.001  0.001  0.806 -0.000
  0.001 -0.001  0.000 -0.000  0.581
atom   22   Tr[ns(na)] =   6.61775
    eigenvalues:
  0.456  0.579  0.587  0.821  0.866
    eigenvectors:
  0.000  0.001  0.226  0.770  0.003
  0.000  0.998  0.002  0.000  0.000
  0.999  0.000  0.000  0.000  0.001
  0.000  0.001  0.772  0.226  0.001
  0.001  0.000  0.000  0.004  0.995
    occupations:
  0.768  0.001 -0.001 -0.098  0.002
  0.001  0.579  0.000 -0.000  0.000
 -0.001  0.000  0.457  0.000  0.016
 -0.098 -0.000  0.000  0.640 -0.002
  0.002  0.000  0.016 -0.002  0.865
atom   23   Tr[ns(na)] =   6.52037
    eigenvalues:
  0.382  0.554  0.581  0.784  0.961
    eigenvectors:
  0.000  0.000  0.997  0.002  0.002
  0.000  0.000  0.002  0.000  0.998
  1.000  0.000  0.000  0.000  0.000
  0.000  0.000  0.002  0.998  0.000
  0.000  1.000  0.000  0.000  0.000
    occupations:
  0.582  0.015 -0.001  0.008  0.000
  0.015  0.960  0.001  0.002  0.000
 -0.001  0.001  0.382  0.000  0.002
  0.008  0.002  0.000  0.783  0.000
  0.000  0.000  0.002  0.000  0.554
N of occupied +U levels =  52.4090896
 --- exit write_ns ---

[...]

          k = 0.2500-0.3828 0.0000 ( 29202 PWs)   bands (ev):

[...]

          k =-0.2500 0.1914 0.0000 ( 29229 PWs)   bands (ev):

   -80.8668 -80.8259 -80.5366 -80.5339 -80.3394 -80.2998 -80.1286 -80.0671
   -42.9133 -42.9007 -42.8479 -42.8240 -42.7859 -42.7642 -42.7213 -42.6784
   -42.6441 -42.5958 -42.4622 -42.4316 -42.3992 -42.3233 -42.2573 -42.2392
   -42.1928 -42.1919 -42.0955 -42.0874 -41.9415 -41.6020 -41.4737 -41.3842
   -20.7892 -20.4337 -20.3436 -20.0696 -20.0278 -19.8767 -19.8335 -19.7585
   -19.6200 -19.5259 -19.3104 -19.2298 -19.1356 -19.1179 -18.9551 -18.8639
   -18.8485 -18.3963 -18.2211  -9.6351  -9.2649  -9.1900  -9.1560  -8.9985
    -8.9659  -8.6040  -8.3773  -8.2369  -8.1121  -7.9983  -7.8944  -7.7215
    -7.4215  -7.2531  -7.1101  -7.0209  -6.8815  -6.8323  -6.6928  -6.5607
    -6.5312  -6.1658  -6.0526  -5.8423  -5.8236  -5.6407  -5.5475  -5.4551
    -5.3665  -5.2054  -5.0723  -5.0162  -4.9410  -4.8714  -4.7971  -4.7372
    -4.6571  -4.5991  -4.4799  -4.3604  -4.1778  -4.0203  -3.9544  -3.8910
    -3.8107  -3.7777  -3.6049  -3.4328  -3.3477  -3.2743  -3.1841  -3.0918
    -2.8638  -2.8582  -2.7624  -2.5036  -2.3186  -2.2588  -2.1875  -1.7100
    -1.4438  -1.3460  -1.0697  -0.6095  -0.4948  -0.4063  -0.0486   0.3157
     0.8577   1.0530   1.0842   1.2356   1.4027   1.6088   1.6188   1.6809
     1.8591   2.0234   2.1442   2.2705   2.9236   3.6445   3.7534   3.9313
     3.9946   4.1889   4.3163   4.4708   4.6400   4.6483   4.8961   4.9648
     5.0371   5.2553   5.3348   5.6493   5.8591   6.0099   6.0927   6.3668
     6.4431   6.6309   6.7447   6.8259   7.0161   7.1579   7.3177   7.5066
     7.6322   7.7392   7.9616   8.0376   8.2873   8.4094   8.4461   8.5785
     8.7223   8.7859   8.9645   9.0562   9.1397   9.3627   9.4531   9.5865
     9.6589   9.7061   9.8236   9.9132   9.9616  10.0036  10.0650  10.2356
    10.2752  10.3952  10.4968  10.5898  10.6559  10.7674  10.8053  10.8553
    11.0348  11.1309  11.2311  11.3341  11.4515  11.6231  11.6797  11.7429
    11.8157  12.0220  12.0823  12.2033  12.3398  12.4826  12.5633  12.6291
    12.6966  12.7918  12.8562  12.9070  12.9833  13.0393  13.1157  13.2660
    13.3409  13.4362  13.5489  13.6591  13.7026  13.7681  13.8095  13.9192
    13.9514  13.9975  14.0575  14.1458  14.1791  14.2554  14.3445  14.4055
    14.5005  14.5618  14.5908  14.6938  14.7224  14.8527  14.8853  14.9385
    14.9818  15.0267  15.0600  15.1318  15.1997  15.2344  15.3669  15.4237
    15.5529  15.6292  15.6469  15.7566  15.8881  15.9953  16.0663  16.1680
    16.1898  16.2562  16.3511  16.4720  16.5595  16.5866  16.6256  16.7343
    16.7715  16.8676  16.9421  17.0559  17.1385  17.2101  17.2722  17.2910
    17.4108  17.5149  17.5936  17.6809  17.7266  17.8102  17.8314  17.9644
    18.0119  18.0518  18.1471  18.2522  18.2891  18.3781  18.4249  18.5024
    18.5787  18.6185  18.6647  18.7229  18.8088  18.8952  18.9334  19.0525
    19.1536  19.2263  19.3253  19.4194  19.4588  19.5805  19.6298  19.6773
    19.7995  19.8472  19.9835  20.0492  20.1565  20.2505  20.3132  20.4140
    20.4735  20.5412  20.5523  20.6664  20.7075  20.7964  20.8448  20.8809
    20.9316  20.9945  21.0074  21.0806  21.1538  21.2007  21.2699  21.3509
    21.3948  21.4956  21.5471  21.6089  21.6892  21.7585  21.7890  21.8593
    21.9365  21.9741  22.0921  22.1444  22.2365  22.2890  22.3199  22.3629
    22.4185  22.4410  22.5334  22.5521  22.6186  22.6376  22.7135  22.7893
    22.8326  22.8612  22.8907  22.9758  23.0159  23.0767

     the Fermi energy is     0.1980 ev

!    total energy              =   -2171.86522798 Ry
     Harris-Foulkes estimate   =   -2171.86522798 Ry
     estimated scf accuracy    <          7.5E-09 Ry

     The total energy is the sum of the following terms:

     one-electron contribution =  -24301.05368943 Ry
     hartree contribution      =   12171.22617066 Ry
     xc contribution           =    -595.38391924 Ry
     ewald contribution        =   10548.99597255 Ry
     Hubbard energy            =       4.34967239 Ry
     smearing contrib. (-TS)   =       0.00056509 Ry

     convergence has been achieved in  12 iterations

     Forces acting on atoms (Ry/au):

     negative rho (up, down):  0.236E+00 0.000E+00
     atom    1 type  1   force =    -0.00402586   -0.00417746    0.00001748
     atom    2 type  1   force =    -0.00043802    0.00359194    0.00025907
     atom    3 type  2   force =     0.03797910    0.00011266   -0.00012501
     atom    4 type  2   force =    -0.00163651    0.00507680    0.00027771
     atom    5 type  1   force =     0.00215270    0.01971016    0.00025078
     atom    6 type  1   force =     0.00167591   -0.02163957    0.00035549
     atom    7 type  1   force =     0.00380681   -0.00278083   -0.00055568
     atom    8 type  1   force =     0.01889310   -0.00051557    0.00059026
     atom    9 type  2   force =    -0.00599415    0.00115402   -0.00020247
     atom   10 type  2   force =    -0.01428559   -0.00168295   -0.00074639
     atom   11 type  1   force =    -0.00782474   -0.00328106   -0.00040284
     atom   12 type  1   force =    -0.00779878    0.00402321   -0.00041227
     atom   13 type  1   force =     0.00983549   -0.00109685   -0.00011183
     atom   14 type  1   force =    -0.00412791   -0.00490033   -0.00019070
     atom   15 type  1   force =     0.00030048    0.00423540    0.00028603
     atom   16 type  2   force =    -0.03781973   -0.00012101   -0.00017564
     atom   17 type  2   force =     0.00567827    0.00638532    0.00013837
     atom   18 type  1   force =     0.00032005    0.02064382    0.00015146
     atom   19 type  1   force =    -0.00041958   -0.02184893    0.00018387
     atom   20 type  1   force =    -0.00535772   -0.00209223   -0.00048354
     atom   21 type  1   force =    -0.01232386   -0.00115697    0.00055651
     atom   22 type  2   force =     0.00057484    0.00049859    0.00007750
     atom   23 type  2   force =     0.01393191   -0.00044537    0.00012448
     atom   24 type  1   force =     0.00797070   -0.00734951    0.00025645
     atom   25 type  1   force =     0.00879258    0.00854192    0.00024694
     atom   26 type  1   force =    -0.01104763    0.00014159   -0.00037844
     atom   27 type  3   force =    -0.00002458   -0.00050814   -0.00041533
     atom   28 type  3   force =     0.00001364   -0.00021062    0.00011001
     atom   29 type  3   force =     0.00017095   -0.00022436   -0.00001420
     atom   30 type  3   force =     0.00024338   -0.00006544   -0.00002552
     atom   31 type  1   force =     0.00033464    0.00001002   -0.00014534
     atom   32 type  3   force =     0.00045013   -0.00002825    0.00050279

     Total force =     0.002057     Total SCF correction =     0.000148

     bfgs converged in  16 scf cycles and  15 bfgs steps
     (criteria: energy < 0.10E-03, force < 0.10E-02)

     End of BFGS Geometry Optimization

     Final energy   =   -2171.8652279799 Ry
Begin final coordinates

ATOMIC_POSITIONS (crystal)
O0       0.000000000   0.000000000   0.372432930    0   0   1
O0       0.000000000   0.500000000   0.382770611    0   0   1
Re1      0.250000000   0.500000000   0.441639824    0   0   1
Re1      0.000000000   0.000000000   0.444148592    0   0   1
O0       0.250000000   0.780000000   0.441601712    0   0   1
O0       0.250000000   0.220000000   0.441694314    0   0   1
O0       0.000000000   0.500000000   0.497180679    0   0   1
O0       0.000000000   0.000000000   0.514424653    0   0   1
Re1      0.250000000   0.000000000   0.577613632    0   0   1
Re1      0.000000000   0.500000000   0.566346478    0   0   1
O0       0.250000000   0.720000000   0.572398777    0   0   1
O0       0.250000000   0.280000000   0.572387093    0   0   1
O0       0.000000000   0.000000000   0.627001785    0   0   1
O0       0.500000000   0.000000000   0.372236255    0   0   1
O0       0.500000000   0.500000000   0.382200380    0   0   1
Re1      0.750000000   0.500000000   0.441646688    0   0   1
Re1      0.500000000   0.000000000   0.443878129    0   0   1
O0       0.750000000   0.780000000   0.441749810    0   0   1
O0       0.750000000   0.220000000   0.441845014    0   0   1
O0       0.500000000   0.500000000   0.496943992    0   0   1
O0       0.500000000   0.000000000   0.514139175    0   0   1
Re1      0.750000000   0.000000000   0.572684270    0   0   1
Re1      0.500000000   0.500000000   0.573483946    0   0   1
O0       0.750000000   0.720000000   0.570146927    0   0   1
O0       0.750000000   0.280000000   0.570157145    0   0   1
O0       0.500000000   0.000000000   0.626823550    0   0   1
H2      -0.000318716   0.620174384   0.363823944
H2       0.499540711   0.624776534   0.365291980
H2       0.169571701   0.020038869   0.357762568
H2       0.669574434   0.020734467   0.357625578
O0       0.533629300   0.499603700   0.644436340
H2       0.380766565   0.499119832   0.664513232
End final coordinates

     General routines

     Parallel routines
     Hubbard U routines

   This run was terminated on:  21:59:38   2May2014

   JOB DONE.