     Program PWSCF v.5.0.2 (svn rev. 9656) starts on 13May2014 at  1:28:33

     Current dimensions of program PWSCF are:
     Max number of different atomic species (ntypx) = 10
     Max number of k-points (npk) =  40000
     Max angular momentum in pseudopotentials (lmaxx) =  3
     Reading input from pwscf.in
Warning: card &CELL ignored
Warning: card / ignored

     Subspace diagonalization in iterative solution of the eigenvalue problem:
     a serial algorithm will be used

     bravais-lattice index     =            0
     lattice parameter (alat)  =      10.9604  a.u.
     unit-cell volume          =    6350.6732 (a.u.)^3
     number of atoms/cell      =           32
     number of atomic types    =            3
     number of electrons       =       231.00 (up: 123.00, down: 108.00)
     number of Kohn-Sham states=          334
     kinetic-energy cutoff     =      40.0000  Ry
     charge density cutoff     =     500.0000  Ry
     convergence threshold     =      1.0E-06
     mixing beta               =       0.7000
     number of iterations used =            8  plain     mixing
     Exchange-correlation      = SLA  PW   PBE  PBE ( 1 4 3 4 0)
     EXX-fraction              =        0.00
     nstep                     =           50

     celldm(1)=  10.960412  celldm(2)=   0.000000  celldm(3)=   0.000000
     celldm(4)=   0.000000  celldm(5)=   0.000000  celldm(6)=   0.000000

     crystal axes: (cart. coord. in units of alat)
               a(1) = (   1.000000   0.000000   0.000000 )
               a(2) = (   0.000000   1.067975   0.000000 )
               a(3) = (   0.000000   0.000000   4.516251 )

     reciprocal axes: (cart. coord. in units 2 pi/alat)
               b(1) = (  1.000000  0.000000  0.000000 )
               b(2) = (  0.000000  0.936351  0.000000 )
               b(3) = (  0.000000  0.000000  0.221423 )

     PseudoPot. # 1 for O  read from file:
     /home/camp/zhonxu/pseudo/o_pbe_v1.01.uspp.F.UPF
     MD5 check sum: 2bcb18d16ea4b960afae9ec6d52f22d2
     Pseudo is Ultrasoft + core correction, Zval =  6.0
     Generated by new atomic code, or converted to UPF format
     Using radial grid of  737 points,  5 beta functions with:
                l(1) =   0
                l(2) =   0
                l(3) =   1
                l(4) =   1
                l(5) =   2
     Q(r) pseudized with  8 coefficients,  rinner =    0.900   0.900   0.900
                                                       0.900   0.900

     PseudoPot. # 2 for Cr read from file:
     /home/camp/zhonxu/pseudo/cr_pbe_v1.uspp.F.UPF
     MD5 check sum: 68b6f918d1762dccfb11451fe85b0e0e
     Pseudo is Ultrasoft + core correction, Zval = 14.0
     Generated by new atomic code, or converted to UPF format
     Using radial grid of  857 points,  6 beta functions with:
                l(1) =   0
                l(2) =   0
                l(3) =   1
                l(4) =   1
                l(5) =   2
                l(6) =   2
     Q(r) pseudized with  6 coefficients,  rinner =    1.000   1.000   1.000
                                                       1.000   1.000

     PseudoPot. # 3 for H  read from file:
     /home/camp/zhonxu/pseudo/h_pbe_v1.uspp.F.UPF
     MD5 check sum: 3408e3ff4ec8b0a4e358431e7e038a48
     Pseudo is Ultrasoft, Zval =  1.0
     Generated by new atomic code, or converted to UPF format
     Using radial grid of  615 points,  2 beta functions with:
                l(1) =   0
                l(2) =   0
     Q(r) pseudized with  8 coefficients,  rinner =    0.700

     atomic species   valence    mass     pseudopotential
        O0             6.00    15.99940     O ( 1.00)
        Cr1           14.00    51.99600     Cr( 1.00)
        H2             1.00     1.00794     H ( 1.00)

     Starting magnetic structure
     atomic species   magnetization
        O0           0.000
        Cr1          0.600
        H2           0.000

     Simplified LDA+U calculation (l_max = 2) with parameters (eV):
     atomic species    L          U    alpha       J0     beta
        Cr1            2     6.0000   0.0000   0.0000   0.0000

     No symmetry found

   Cartesian axes

     site n.     atom                  positions (alat units)
         1           O0  tau(   1) = (   0.0000000   0.0000000   1.7072332  )
         2           O0  tau(   2) = (   0.0000000   0.5339875   1.8068165  )
         3           Cr1 tau(   3) = (   0.2500000   0.5339875   2.0386808  )
         4           Cr1 tau(   4) = (   0.0000000   0.0000000   2.0275709  )
         5           O0  tau(   5) = (   0.2500000   0.8543801   2.0319968  )
         6           O0  tau(   6) = (   0.2500000   0.2135950   2.0327194  )
         7           O0  tau(   7) = (   0.0000000   0.5339875   2.2464284  )
         8           O0  tau(   8) = (   0.0000000   0.0000000   2.3629476  )
         9           Cr1 tau(   9) = (   0.2500000   0.0000000   2.5576884  )
        10           Cr1 tau(  10) = (   0.0000000   0.5339875   2.5509140  )
        11           O0  tau(  11) = (   0.2500000   0.7475825   2.5906119  )
        12           O0  tau(  12) = (   0.2500000   0.3203925   2.5906119  )
        13           O0  tau(  13) = (   0.0000000   0.0000000   2.7911334  )
        14           O0  tau(  14) = (   0.5000000   0.0000000   1.7073235  )
        15           O0  tau(  15) = (   0.5000000   0.5339875   1.8079456  )
        16           Cr1 tau(  16) = (   0.7500000   0.5339875   2.0392228  )
        17           Cr1 tau(  17) = (   0.5000000   0.0000000   2.0278870  )
        18           O0  tau(  18) = (   0.7500000   0.8543801   2.0322226  )
        19           O0  tau(  19) = (   0.7500000   0.2135950   2.0329904  )
        20           O0  tau(  20) = (   0.5000000   0.5339875   2.2544673  )
        21           O0  tau(  21) = (   0.5000000   0.0000000   2.3630380  )
        22           Cr1 tau(  22) = (   0.7500000   0.0000000   2.6360002  )
        23           Cr1 tau(  23) = (   0.5000000   0.5339875   2.6018573  )
        24           O0  tau(  24) = (   0.7500000   0.7475825   2.5939087  )
        25           O0  tau(  25) = (   0.7500000   0.3203925   2.5936377  )
        26           O0  tau(  26) = (   0.5000000   0.0000000   2.7879720  )
        27           H2  tau(  27) = (  -0.0006000   0.6814001   1.7205110  )
        28           H2  tau(  28) = (   0.4996600   0.6814535   1.7215045  )
        29           H2  tau(  29) = (   0.1566500   0.0338121   1.6478896  )
        30           H2  tau(  30) = (   0.6567200   0.0335237   1.6481606  )
        31           O0  tau(  31) = (   0.5143900   0.5336458   2.9144271  )
        32           H2  tau(  32) = (   0.3645400   0.5319370   2.9931001  )

     number of k points=    20  Methfessel-Paxton smearing, width (Ry)=  0.0100
                       cart. coord. in units 2pi/alat
        k(    1) = (   0.0000000   0.0000000   0.0000000), wk =   0.0625000
        k(    2) = (   0.0000000   0.2340879   0.0000000), wk =   0.1250000
        k(    3) = (   0.0000000  -0.4681757   0.0000000), wk =   0.0625000
        k(    4) = (   0.2500000   0.0000000   0.0000000), wk =   0.1250000
        k(    5) = (   0.2500000   0.2340879   0.0000000), wk =   0.1250000
        k(    6) = (   0.2500000  -0.4681757   0.0000000), wk =   0.1250000
        k(    7) = (  -0.5000000   0.0000000   0.0000000), wk =   0.0625000
        k(    8) = (  -0.5000000   0.2340879   0.0000000), wk =   0.1250000
        k(    9) = (  -0.5000000  -0.4681757   0.0000000), wk =   0.0625000
        k(   10) = (  -0.2500000   0.2340879   0.0000000), wk =   0.1250000
        k(   11) = (   0.0000000   0.0000000   0.0000000), wk =   0.0625000
        k(   12) = (   0.0000000   0.2340879   0.0000000), wk =   0.1250000
        k(   13) = (   0.0000000  -0.4681757   0.0000000), wk =   0.0625000
        k(   14) = (   0.2500000   0.0000000   0.0000000), wk =   0.1250000
        k(   15) = (   0.2500000   0.2340879   0.0000000), wk =   0.1250000
        k(   16) = (   0.2500000  -0.4681757   0.0000000), wk =   0.1250000
        k(   17) = (  -0.5000000   0.0000000   0.0000000), wk =   0.0625000
        k(   18) = (  -0.5000000   0.2340879   0.0000000), wk =   0.1250000
        k(   19) = (  -0.5000000  -0.4681757   0.0000000), wk =   0.0625000
        k(   20) = (  -0.2500000   0.2340879   0.0000000), wk =   0.1250000

     Largest allocated arrays     est. size (Mb)     dimensions
     Largest temporary arrays     est. size (Mb)     dimensions

     Check: negative/imaginary core charge=   -0.000012    0.000000

     Initial potential from superposition of free atoms
     Check: negative starting charge=(component1):   -0.001476
     Check: negative starting charge=(component2):   -0.000504

     starting charge  222.99983, renormalised to  231.00000

     negative rho (up, down):  0.153E-02 0.522E-03
     Number of +U iterations with fixed ns =  0
     Starting occupations:
 --- enter write_ns ---
 LDA+U parameters:
U( 2)     =  6.00000000
alpha( 2) =  0.00000000
atom    3   Tr[ns(na)] (up, down, total) =   5.00000  0.00000  5.00000
   spin  1
    eigenvalues:
  1.000  1.000  1.000  1.000  1.000
    eigenvectors:
  1.000  0.000  0.000  0.000  0.000
  0.000  1.000  0.000  0.000  0.000
  0.000  0.000  1.000  0.000  0.000
  0.000  0.000  0.000  1.000  0.000
  0.000  0.000  0.000  0.000  1.000
    occupations:
  1.000  0.000  0.000  0.000  0.000
  0.000  1.000  0.000  0.000  0.000
  0.000  0.000  1.000  0.000  0.000
  0.000  0.000  0.000  1.000  0.000
  0.000  0.000  0.000  0.000  1.000
   spin  2
    eigenvalues:
  0.000  0.000  0.000  0.000  0.000
    eigenvectors:
  1.000  0.000  0.000  0.000  0.000
  0.000  1.000  0.000  0.000  0.000
  0.000  0.000  1.000  0.000  0.000
  0.000  0.000  0.000  1.000  0.000
  0.000  0.000  0.000  0.000  1.000
    occupations:
  0.000  0.000  0.000  0.000  0.000
  0.000  0.000  0.000  0.000  0.000
  0.000  0.000  0.000  0.000  0.000
  0.000  0.000  0.000  0.000  0.000
  0.000  0.000  0.000  0.000  0.000
atomic mag. moment =     5.000000
atom    4   Tr[ns(na)] (up, down, total) =   5.00000  0.00000  5.00000
   spin  1
    eigenvalues:
  1.000  1.000  1.000  1.000  1.000
    eigenvectors:
  1.000  0.000  0.000  0.000  0.000
  0.000  1.000  0.000  0.000  0.000
  0.000  0.000  1.000  0.000  0.000
  0.000  0.000  0.000  1.000  0.000
  0.000  0.000  0.000  0.000  1.000
    occupations:
  1.000  0.000  0.000  0.000  0.000
  0.000  1.000  0.000  0.000  0.000
  0.000  0.000  1.000  0.000  0.000
  0.000  0.000  0.000  1.000  0.000
  0.000  0.000  0.000  0.000  1.000
   spin  2
    eigenvalues:
  0.000  0.000  0.000  0.000  0.000
    eigenvectors:
  1.000  0.000  0.000  0.000  0.000
  0.000  1.000  0.000  0.000  0.000
  0.000  0.000  1.000  0.000  0.000
  0.000  0.000  0.000  1.000  0.000
  0.000  0.000  0.000  0.000  1.000
    occupations:
  0.000  0.000  0.000  0.000  0.000
  0.000  0.000  0.000  0.000  0.000
  0.000  0.000  0.000  0.000  0.000
  0.000  0.000  0.000  0.000  0.000
  0.000  0.000  0.000  0.000  0.000
atomic mag. moment =     5.000000
atom    9   Tr[ns(na)] (up, down, total) =   5.00000  0.00000  5.00000
   spin  1
    eigenvalues:
  1.000  1.000  1.000  1.000  1.000
[...]
 -0.002 -0.000  0.087  0.006  0.002
  0.110  0.004  0.006  0.269  0.000
 -0.000  0.009  0.002  0.000  0.081
atomic mag. moment =     2.869014
atom    4   Tr[ns(na)] (up, down, total) =   3.70245  0.88176  4.58422
   spin  1
    eigenvalues:
  0.483  0.529  0.770  0.930  0.991
    eigenvectors:
  0.001  0.994  0.000  0.001  0.004
  0.000  0.001  0.009  0.989  0.000
  0.000  0.000  0.991  0.009  0.000
  0.000  0.004  0.000  0.000  0.996
  0.999  0.001  0.000  0.000  0.000
    occupations:
  0.531 -0.014 -0.001  0.028  0.001
 -0.014  0.928  0.015  0.002 -0.000
 -0.001  0.015  0.771  0.000  0.001
  0.028  0.002  0.000  0.989 -0.000
  0.001 -0.000  0.001 -0.000  0.483
   spin  2
    eigenvalues:
  0.074  0.082  0.087  0.317  0.321
    eigenvectors:
  0.006  0.001  0.000  0.978  0.015
  0.009  0.748  0.242  0.001  0.000
  0.002  0.240  0.758  0.000  0.000
  0.983  0.012  0.000  0.006  0.000
  0.000  0.000  0.000  0.015  0.985
    occupations:
  0.315  0.009  0.001 -0.018  0.001
  0.009  0.084 -0.002  0.000 -0.000
  0.001 -0.002  0.086  0.000  0.000
 -0.018  0.000  0.000  0.076  0.000
  0.001 -0.000  0.000  0.000  0.321
atomic mag. moment =     2.820692
atom    9   Tr[ns(na)] (up, down, total) =   3.70581  0.91164  4.61746
   spin  1
    eigenvalues:
  0.520  0.533  0.752  0.907  0.993
    eigenvectors:
  0.001  0.201  0.000  0.000  0.798
  0.996  0.004  0.000  0.000  0.000
  0.000  0.000  0.951  0.049  0.000
  0.003  0.795  0.000  0.000  0.202
  0.000  0.000  0.049  0.951  0.000
    occupations:
  0.900  0.003 -0.000 -0.185 -0.000
  0.003  0.520  0.001 -0.000 -0.000
 -0.000  0.001  0.760 -0.000 -0.034
 -0.185 -0.000 -0.000  0.626  0.001
 -0.000 -0.000 -0.034  0.001  0.900
   spin  2
    eigenvalues:
  0.080  0.089  0.091  0.311  0.340
    eigenvectors:
  0.807  0.000  0.000  0.000  0.193
  0.000  0.000  0.000  0.999  0.001
  0.000  0.191  0.809  0.000  0.000
  0.193  0.000  0.000  0.001  0.806
  0.000  0.809  0.191  0.000  0.000
    occupations:
  0.130  0.000  0.000  0.102 -0.000
  0.000  0.311 -0.000  0.001  0.000
  0.000 -0.000  0.091  0.000  0.001
  0.102  0.001  0.000  0.289 -0.000
 -0.000  0.000  0.001 -0.000  0.089
atomic mag. moment =     2.794168
atom   10   Tr[ns(na)] (up, down, total) =   3.77596  0.77887  4.55483
   spin  1
    eigenvalues:
  0.484  0.502  0.865  0.933  0.991
    eigenvectors:
  0.000  0.996  0.000  0.000  0.004
  0.000  0.000  0.000  1.000  0.000
  0.000  0.000  1.000  0.000  0.000
  0.000  0.004  0.000  0.000  0.996
  1.000  0.000  0.000  0.000  0.000
    occupations:
  0.504 -0.003 -0.003  0.031 -0.000
 -0.003  0.933 -0.000 -0.000  0.000
 -0.003 -0.000  0.865  0.000  0.006
  0.031 -0.000  0.000  0.989 -0.000
 -0.000  0.000  0.006 -0.000  0.484
   spin  2
    eigenvalues:
  0.069  0.087  0.092  0.225  0.305
    eigenvectors:
  0.011  0.000  0.000  0.989  0.000
  0.000  0.000  1.000  0.000  0.000
  0.000  1.000  0.000  0.000  0.000
  0.989  0.000  0.000  0.011  0.000
  0.000  0.000  0.000  0.000  1.000
    occupations:
  0.223  0.000 -0.000 -0.016 -0.000
  0.000  0.092 -0.000 -0.000  0.000
 -0.000 -0.000  0.087 -0.000 -0.003
 -0.016 -0.000 -0.000  0.071  0.000
 -0.000  0.000 -0.003  0.000  0.305
atomic mag. moment =     2.997099
atom   16   Tr[ns(na)] (up, down, total) =   3.71921  0.85012  4.56933
   spin  1
    eigenvalues:
  0.455  0.502  0.815  0.956  0.992
    eigenvectors:
  0.000  0.242  0.001  0.000  0.756
  0.998  0.002  0.000  0.000  0.000
  0.000  0.000  0.998  0.000  0.001
  0.002  0.756  0.000  0.000  0.242
  0.000  0.000  0.000  0.999  0.000
    occupations:
  0.873 -0.002  0.004 -0.210 -0.000
 -0.002  0.455 -0.000  0.003 -0.008
  0.004 -0.000  0.815 -0.005  0.003
 -0.210  0.003 -0.005  0.620  0.000
 -0.000 -0.008  0.003  0.000  0.956
   spin  2
    eigenvalues:
  0.065  0.080  0.088  0.288  0.329
    eigenvectors:
  0.739  0.003  0.030  0.003  0.225
  0.000  0.002  0.000  0.991  0.007
  0.039  0.038  0.922  0.000  0.000
  0.221  0.001  0.006  0.004  0.768
  0.000  0.956  0.042  0.002  0.000
    occupations:
  0.126  0.001 -0.002  0.110  0.000
  0.001  0.287  0.000 -0.005  0.008
 -0.002  0.000  0.087  0.006 -0.002
  0.110 -0.005  0.006  0.269 -0.000
  0.000  0.008 -0.002 -0.000  0.081
atomic mag. moment =     2.869094
atom   17   Tr[ns(na)] (up, down, total) =   3.71166  0.87063  4.58229
   spin  1
    eigenvalues:
  0.478  0.524  0.790  0.928  0.991
    eigenvectors:
  0.001  0.995  0.000  0.001  0.003
  0.000  0.001  0.009  0.990  0.000
  0.000  0.000  0.991  0.009  0.000
  0.000  0.003  0.000  0.000  0.997
  0.999  0.001  0.000  0.000  0.000
    occupations:
  0.526 -0.014 -0.001  0.027  0.001
 -0.014  0.926  0.013  0.001 -0.000
 -0.001  0.013  0.791  0.000  0.001
  0.027  0.001  0.000  0.989 -0.000
  0.001 -0.000  0.001 -0.000  0.478
   spin  2
    eigenvalues:
  0.074  0.081  0.085  0.312  0.319
    eigenvectors:
  0.007  0.001  0.000  0.989  0.003
  0.011  0.690  0.297  0.001  0.000
  0.003  0.295  0.702  0.000  0.000
  0.980  0.014  0.000  0.006  0.000
  0.000  0.000  0.000  0.003  0.997
    occupations:
  0.310  0.008  0.001 -0.018  0.000
  0.008  0.082 -0.002  0.000 -0.000
  0.001 -0.002  0.084  0.000  0.000
 -0.018  0.000  0.000  0.075  0.000
  0.000 -0.000  0.000  0.000  0.319
atomic mag. moment =     2.841031
atom   22   Tr[ns(na)] (up, down, total) =   3.70388  0.91323  4.61711
   spin  1
    eigenvalues:
  0.520  0.534  0.750  0.907  0.993
    eigenvectors:
  0.000  0.201  0.000  0.000  0.799
  0.999  0.001  0.000  0.000  0.000
  0.000  0.000  0.954  0.046  0.000
  0.001  0.798  0.000  0.000  0.201
  0.000  0.000  0.046  0.954  0.000
    occupations:
  0.900 -0.002 -0.001 -0.184 -0.001
 -0.002  0.520  0.001  0.001  0.000
 -0.001  0.001  0.757  0.000  0.033
 -0.184  0.001  0.000  0.627  0.001
 -0.001  0.000  0.033  0.001  0.899
   spin  2
    eigenvalues:
  0.081  0.089  0.092  0.312  0.339
    eigenvectors:
  0.808  0.000  0.000  0.000  0.192
  0.000  0.000  0.000  0.999  0.001
  0.000  0.151  0.849  0.000  0.000
  0.192  0.000  0.000  0.001  0.807
  0.000  0.849  0.151  0.000  0.000
    occupations:
  0.131 -0.000 -0.000  0.102 -0.000
 -0.000  0.312 -0.000 -0.001  0.000
 -0.000 -0.000  0.091 -0.000 -0.001
  0.102 -0.001 -0.000  0.290 -0.000
 -0.000  0.000 -0.001 -0.000  0.090
atomic mag. moment =     2.790656
atom   23   Tr[ns(na)] (up, down, total) =   3.71024  0.86084  4.57108
   spin  1
    eigenvalues:
  0.478  0.517  0.775  0.952  0.989
    eigenvectors:
  0.000  0.995  0.000  0.000  0.004
  0.000  0.000  0.000  0.999  0.001
  0.000  0.000  0.999  0.000  0.000
  0.000  0.004  0.000  0.001  0.995
  1.000  0.000  0.000  0.000  0.000
    occupations:
  0.519  0.006 -0.002  0.031  0.000
  0.006  0.952  0.002  0.001 -0.000
 -0.002  0.002  0.775  0.000 -0.006
  0.031  0.001  0.000  0.987 -0.000
  0.000 -0.000 -0.006 -0.000  0.478
   spin  2
    eigenvalues:
  0.073  0.080  0.086  0.303  0.318
    eigenvectors:
  0.006  0.000  0.000  0.994  0.000
  0.000  0.997  0.003  0.000  0.000
  0.000  0.003  0.997  0.000  0.000
  0.994  0.000  0.000  0.006  0.000
  0.000  0.000  0.000  0.000  1.000
    occupations:
  0.302 -0.000  0.000 -0.018  0.000
 -0.000  0.080 -0.000  0.000  0.000
  0.000 -0.000  0.086 -0.000  0.003
 -0.018  0.000 -0.000  0.074  0.000
  0.000  0.000  0.003  0.000  0.318
atomic mag. moment =     2.849394
N of occupied +U levels =  36.6659517
 --- exit write_ns ---

 ------ SPIN UP ------------

[...]

 ------ SPIN DOWN ----------

[...]

          k = 0.2500-0.4682 0.0000 ( 27150 PWs)   bands (ev):

[...]

          k =-0.2500 0.2341 0.0000 ( 27132 PWs)   bands (ev):

   -72.2161 -72.2114 -72.1984 -72.1426 -72.1287 -72.1061 -72.0713 -72.0604
   -43.8043 -43.7815 -43.7692 -43.6843 -43.6630 -43.6436 -43.6312 -43.6127
   -43.5988 -43.5961 -43.5608 -43.5356 -43.4928 -43.4923 -43.4838 -43.4635
   -43.4588 -43.4099 -43.3899 -43.3514 -43.3114 -43.3038 -43.1920 -43.1842
   -21.2373 -20.9254 -20.6293 -20.5821 -20.4955 -20.3215 -20.2524 -20.2090
   -20.1835 -20.0353 -19.9712 -19.9295 -19.8553 -19.8346 -19.6741 -19.6302
   -19.5701 -19.4898 -19.3925  -8.4986  -8.3619  -8.0802  -7.9853  -7.8049
    -7.7657  -7.4911  -7.3733  -7.2573  -7.1427  -7.0712  -6.8824  -6.8433
    -6.8061  -6.7488  -6.7281  -6.5543  -6.5017  -6.2640  -6.2256  -6.1049
    -5.9954  -5.8834  -5.8041  -5.7278  -5.6757  -5.5723  -5.5044  -5.3936
    -5.3710  -5.3421  -5.2819  -5.1732  -5.1504  -5.0637  -4.9879  -4.9577
    -4.8325  -4.5598  -4.5311  -4.4422  -4.3531  -4.3038  -4.2475  -4.2165
    -4.1685  -4.0989  -4.0549  -4.0100  -3.9737  -3.8975  -3.8289  -3.8003
    -3.6231  -3.5309  -3.5010  -3.3453   1.8533   2.2188   2.2759   2.3093
     2.3440   2.3760   2.4017   2.4657   2.4901   2.5029   2.5737   2.6096
     2.6831   2.7164   2.7915   2.8225   2.8890   2.9069   2.9376   3.0417
     3.1027   3.1472   3.2120   3.2656   3.3000   3.3269   3.4252   3.4406
     3.4720   3.5189   3.5897   3.6422   3.7049   3.8506   3.9129   3.9394
     3.9565   4.0079   4.0728   4.2400   4.2974   4.3905   4.4700   4.8716
     5.3879   5.7156   5.8248   5.9916   6.2394   6.3375   6.4961   6.6236
     6.7955   6.9093   7.0427   7.3303   7.4745   7.7175   7.8629   7.9524
     8.1096   8.3305   8.4381   8.5788   8.6705   8.8467   8.9096   9.0527
     9.1897   9.2412   9.3515   9.4688   9.5509   9.7104   9.8055  10.0313
    10.1485  10.2023  10.2317  10.3527  10.4234  10.6661  10.6876  10.7985
    10.8608  11.0104  11.0656  11.1418  11.2973  11.3408  11.4546  11.5898
    11.6137  11.7490  11.7862  11.9081  11.9855  12.0739  12.1431  12.2411
    12.3244  12.3932  12.5002  12.5920  12.7137  12.7744  12.8295  12.8834
    12.9253  12.9829  13.0476  13.1346  13.1599  13.2490  13.3165  13.3726
    13.5024  13.5708  13.6300  13.6783  13.7921  13.8566  13.8867  13.9951
    14.1388  14.1713  14.2488  14.3483  14.4270  14.5690  14.5993  14.6598
    14.7025  14.7983  14.8434  14.9403  14.9875  15.1217  15.2080  15.2891
    15.3570  15.3923  15.5263  15.5876  15.6714  15.7502  15.8503  15.9922
    16.0072  16.0949  16.1586  16.2218  16.2966  16.3218  16.4095  16.4544
    16.5166  16.6789  16.7132  16.8033  16.8635  16.9323  17.0172  17.0642
    17.1583  17.1920  17.2658  17.3413  17.4077  17.5079  17.5454  17.6073
    17.7176  17.7749  17.8095  17.8528  17.9214  17.9972  18.0894  18.1630
    18.2356  18.2887  18.3482  18.4001  18.4386  18.6127  18.7152  18.7514
    18.8391  18.8841  18.9488  19.0023  19.0502  19.1995  19.2309  19.3269
    19.3995  19.4397  19.5541  19.6444  19.6837  19.7062  19.7850  19.9028
    19.9261  19.9751  20.1159  20.1644  20.2667  20.3033  20.4000  20.4962
    20.5665  20.6360  20.6794  20.8526  20.8999  20.9419  21.0441  21.0900
    21.1696  21.2504  21.3278  21.3918  21.4381  21.5056

     the spin up/dw Fermi energies are    -2.2570   -2.2807 ev

!    total energy              =   -2024.18585438 Ry
     Harris-Foulkes estimate   =   -2024.18585439 Ry
     estimated scf accuracy    <          8.8E-09 Ry

     The total energy is the sum of the following terms:

     one-electron contribution =  -23775.74193522 Ry
     hartree contribution      =   11908.59372730 Ry
     xc contribution           =    -323.37168100 Ry
     ewald contribution        =   10163.89246526 Ry
     Hubbard energy            =       2.44046458 Ry
     smearing contrib. (-TS)   =       0.00110470 Ry

     total magnetization       =    15.00 Bohr mag/cell
     absolute magnetization    =    30.47 Bohr mag/cell

     convergence has been achieved in  19 iterations

     Forces acting on atoms (Ry/au):

     negative rho (up, down):  0.560E-02 0.178E-02
     atom    1 type  1   force =    -0.00373070   -0.01017710   -0.00091061
     atom    2 type  1   force =     0.00000134    0.00270501   -0.00023048
     atom    3 type  2   force =     0.02451892    0.00248863   -0.00005426
     atom    4 type  2   force =     0.00393448    0.00518661    0.00063151
     atom    5 type  1   force =     0.00056230    0.00856192    0.00014941
     atom    6 type  1   force =     0.00105043   -0.00677566    0.00014271
     atom    7 type  1   force =     0.00169714   -0.00260648   -0.00048614
     atom    8 type  1   force =     0.00004519   -0.00003059   -0.00017839
     atom    9 type  2   force =     0.00774884    0.00076439    0.00024622
     atom   10 type  2   force =    -0.00175376   -0.00003259   -0.00009789
     atom   11 type  1   force =    -0.02401042   -0.03534826    0.00062948
     atom   12 type  1   force =    -0.02364125    0.03511124    0.00065721
     atom   13 type  1   force =    -0.00096677   -0.00015418   -0.00050728
     atom   14 type  1   force =    -0.00509465   -0.01097441   -0.00081716
     atom   15 type  1   force =     0.00012572    0.00386928    0.00008314
     atom   16 type  2   force =    -0.02409674    0.00336206   -0.00004065
     atom   17 type  2   force =     0.00451073    0.00541673    0.00061311
     atom   18 type  1   force =     0.00024298    0.00841525    0.00013380
     atom   19 type  1   force =     0.00054752   -0.00709862    0.00017563
     atom   20 type  1   force =    -0.00135488   -0.00358506   -0.00068688
     atom   21 type  1   force =    -0.00299269   -0.00018068   -0.00009134
     atom   22 type  2   force =    -0.00374059   -0.00013529    0.00003583
     atom   23 type  2   force =    -0.00029426    0.00075757   -0.00081815
     atom   24 type  1   force =     0.02266943   -0.02818835    0.00024477
     atom   25 type  1   force =     0.02315943    0.02827908    0.00021229
     atom   26 type  1   force =    -0.00004820    0.00002298    0.00009068
     atom   27 type  3   force =     0.00002118    0.00023576    0.00046613
     atom   28 type  3   force =     0.00000680    0.00004910    0.00050985
     atom   29 type  3   force =     0.00000013    0.00006751   -0.00039269
     atom   30 type  3   force =    -0.00007987    0.00005541   -0.00030469
     atom   31 type  1   force =     0.00095357    0.00000073    0.00041432
     atom   32 type  3   force =     0.00000867   -0.00006200    0.00018054

     Total force =     0.002651     Total SCF correction =     0.000216

     bfgs converged in  25 scf cycles and  24 bfgs steps
     (criteria: energy < 0.10E-03, force < 0.10E-02)

     End of BFGS Geometry Optimization

     Final energy   =   -2024.1858543826 Ry
Begin final coordinates

ATOMIC_POSITIONS (crystal)
O0       0.000000000   0.000000000   0.374942684    0   0   1
O0       0.000000000   0.500000000   0.396007866    0   0   1
Cr1      0.250000000   0.500000000   0.448542595    0   0   1
Cr1      0.000000000   0.000000000   0.448915593    0   0   1
O0       0.250000000   0.800000000   0.448620578    0   0   1
O0       0.250000000   0.200000000   0.448619314    0   0   1
O0       0.000000000   0.500000000   0.496768805    0   0   1
O0       0.000000000   0.000000000   0.524207959    0   0   1
Cr1      0.250000000   0.000000000   0.575730772    0   0   1
Cr1      0.000000000   0.500000000   0.566647792    0   0   1
O0       0.250000000   0.700000000   0.576465530    0   0   1
O0       0.250000000   0.300000000   0.576581151    0   0   1
O0       0.000000000   0.000000000   0.623472117    0   0   1
O0       0.500000000   0.000000000   0.374877057    0   0   1
O0       0.500000000   0.500000000   0.396213623    0   0   1
Cr1      0.750000000   0.500000000   0.448554889    0   0   1
Cr1      0.500000000   0.000000000   0.449109259    0   0   1
O0       0.750000000   0.800000000   0.448625931    0   0   1
O0       0.750000000   0.200000000   0.448608524    0   0   1
O0       0.500000000   0.500000000   0.500162186    0   0   1
O0       0.500000000   0.000000000   0.524623930    0   0   1
Cr1      0.750000000   0.000000000   0.575981017    0   0   1
Cr1      0.500000000   0.500000000   0.578964874    0   0   1
O0       0.750000000   0.700000000   0.575082964    0   0   1
O0       0.750000000   0.300000000   0.575080260    0   0   1
O0       0.500000000   0.000000000   0.623667398    0   0   1
H2      -0.000835222   0.636131824   0.376361377
H2       0.499366646   0.636977530   0.376841793
H2       0.159071911   0.027152633   0.362501999
H2       0.658727111   0.027689420   0.362374970
O0       0.521492335   0.499936938   0.650902170
H2       0.372176536   0.497511272   0.668673023
End final coordinates

     General routines

     Parallel routines
     Hubbard U routines

   This run was terminated on:  19:40:17  14May2014

   JOB DONE.
Running PBS batch system epilogue script
Job id: 351135.audhumbla.fysik.dtu.dk
Username: zhonxu
Groupname: campgst
Jobname: CrO2/Eads-2-layers/OH-U-6.0
Sessionid: 11000
Queuename: verylong
Accounting:
This job has allocated the following 16 nodes:
a102 a102 a102 a102 a102 a102 a102 a102 a101 a101 a101 a101 a101 a101 a101 a101
Finished epilogue job 351135.audhumbla.fysik.dtu.dk for zhonxu