     Program PWSCF v.5.0.2 (svn rev. 9656) starts on  5Jun2014 at 21:17:11

     Current dimensions of program PWSCF are:
     Max number of different atomic species (ntypx) = 10
     Max number of k-points (npk) =  40000
     Max angular momentum in pseudopotentials (lmaxx) =  3
     Reading input from pwscf.in
Warning: card &CELL ignored
Warning: card / ignored

     Subspace diagonalization in iterative solution of the eigenvalue problem:
     a serial algorithm will be used

     bravais-lattice index     =            0
     lattice parameter (alat)  =      11.7541  a.u.
     unit-cell volume          =    7139.8207 (a.u.)^3
     number of atoms/cell      =           33
     number of atomic types    =            3
     number of electrons       =       245.00
     number of Kohn-Sham states=          367
     kinetic-energy cutoff     =      40.0000  Ry
     charge density cutoff     =     500.0000  Ry
     convergence threshold     =      1.0E-06
     mixing beta               =       0.3000
     number of iterations used =            8  plain     mixing
     Exchange-correlation      = SLA  PW   PBE  PBE ( 1 4 3 4 0)
     EXX-fraction              =        0.00
     nstep                     =           50

     celldm(1)=  11.754097  celldm(2)=   0.000000  celldm(3)=   0.000000
     celldm(4)=   0.000000  celldm(5)=   0.000000  celldm(6)=   0.000000

     crystal axes: (cart. coord. in units of alat)
               a(1) = (   1.000000   0.000000   0.000000 )
               a(2) = (   0.000000   1.034513   0.000000 )
               a(3) = (   0.000000   0.000000   4.249947 )

     reciprocal axes: (cart. coord. in units 2 pi/alat)
               b(1) = (  1.000000  0.000000  0.000000 )
               b(2) = (  0.000000  0.966638  0.000000 )
               b(3) = (  0.000000  0.000000  0.235297 )

     PseudoPot. # 1 for O  read from file:
     /home/camp/zhonxu/pseudo/o_pbe_v1.01.uspp.F.UPF
     MD5 check sum: 2bcb18d16ea4b960afae9ec6d52f22d2
     Pseudo is Ultrasoft + core correction, Zval =  6.0
     Generated by new atomic code, or converted to UPF format
     Using radial grid of  737 points,  5 beta functions with:
                l(1) =   0
                l(2) =   0
                l(3) =   1
                l(4) =   1
                l(5) =   2
     Q(r) pseudized with  8 coefficients,  rinner =    0.900   0.900   0.900
                                                       0.900   0.900

     PseudoPot. # 2 for Rh read from file:
     /home/camp/zhonxu/pseudo/rh_pbe_v1.uspp.F.UPF
     MD5 check sum: 37b626987ad0dd8ec6bf4cc9ef289918
     Pseudo is Ultrasoft + core correction, Zval = 15.0
     Generated by new atomic code, or converted to UPF format
     Using radial grid of  969 points,  7 beta functions with:
                l(1) =   0
                l(2) =   0
                l(3) =   1
                l(4) =   1
                l(5) =   2
                l(6) =   2
                l(7) =   2
     Q(r) pseudized with  6 coefficients,  rinner =    1.050   1.050   1.050
                                                       1.050   1.050

     PseudoPot. # 3 for H  read from file:
     /home/camp/zhonxu/pseudo/h_pbe_v1.uspp.F.UPF
     MD5 check sum: 3408e3ff4ec8b0a4e358431e7e038a48
     Pseudo is Ultrasoft, Zval =  1.0
     Generated by new atomic code, or converted to UPF format
     Using radial grid of  615 points,  2 beta functions with:
                l(1) =   0
                l(2) =   0
     Q(r) pseudized with  8 coefficients,  rinner =    0.700

     atomic species   valence    mass     pseudopotential
        O0             6.00    15.99940     O ( 1.00)
        Rh1           15.00   102.90550     Rh( 1.00)
        H2             1.00     1.00794     H ( 1.00)

     Simplified LDA+U calculation (l_max = 2) with parameters (eV):
     atomic species    L          U    alpha       J0     beta
        Rh1            2     0.0000   0.0000   0.0000   0.0000

     No symmetry found

   Cartesian axes

     site n.     atom                  positions (alat units)
         1           O0  tau(   1) = (   0.0000000   0.0000000   1.6055876  )
         2           O0  tau(   2) = (   0.0000000   0.5172566   1.7058013  )
         3           Rh1 tau(   3) = (   0.2500000   0.5172566   1.9245886  )
         4           Rh1 tau(   4) = (   0.0000000   0.0000000   1.9225486  )
         5           O0  tau(   5) = (   0.2500000   0.8379556   1.9216561  )
         6           O0  tau(   6) = (   0.2500000   0.1965575   1.9210611  )
         7           O0  tau(   7) = (   0.0000000   0.5172566   2.1183012  )
         8           O0  tau(   8) = (   0.0000000   0.0000000   2.2433346  )
         9           Rh1 tau(   9) = (   0.2500000   0.0000000   2.4442296  )
        10           Rh1 tau(  10) = (   0.0000000   0.5172566   2.4248924  )
        11           O0  tau(  11) = (   0.2500000   0.7138141   2.4423597  )
        12           O0  tau(  12) = (   0.2500000   0.3206991   2.4526445  )
        13           O0  tau(  13) = (   0.0000000   0.0000000   2.6373472  )
        14           O0  tau(  14) = (   0.5000000   0.0000000   1.6058426  )
        15           O0  tau(  15) = (   0.5000000   0.5172566   1.7065663  )
        16           Rh1 tau(  16) = (   0.7500000   0.5172566   1.9245461  )
        17           Rh1 tau(  17) = (   0.5000000   0.0000000   1.9225486  )
        18           O0  tau(  18) = (   0.7500000   0.8379556   1.9215286  )
        19           O0  tau(  19) = (   0.7500000   0.1965575   1.9212311  )
        20           O0  tau(  20) = (   0.5000000   0.5172566   2.1254411  )
        21           O0  tau(  21) = (   0.5000000   0.0000000   2.2428246  )
        22           Rh1 tau(  22) = (   0.7500000   0.0000000   2.4442296  )
        23           Rh1 tau(  23) = (   0.5000000   0.5172566   2.4566820  )
        24           O0  tau(  24) = (   0.7500000   0.7138141   2.4423172  )
        25           O0  tau(  25) = (   0.7500000   0.3206991   2.4526445  )
        26           O0  tau(  26) = (   0.5000000   0.0000000   2.6350523  )
        27           H2  tau(  27) = (   0.0000500   0.6607849   1.6355072  )
        28           H2  tau(  28) = (   0.4999200   0.6608884   1.6361872  )
        29           H2  tau(  29) = (   0.1477700   0.0372011   1.5603681  )
        30           H2  tau(  30) = (   0.6484400   0.0346148   1.5604531  )
        31           O0  tau(  31) = (   0.4997300   0.5556577   2.7651007  )
        32           O0  tau(  32) = (   0.5003300   0.3573415   2.8834192  )
        33           H2  tau(  33) = (   0.4999300   0.4160398   3.0312324  )

     number of k points=    10  Methfessel-Paxton smearing, width (Ry)=  0.0100
                       cart. coord. in units 2pi/alat
        k(    1) = (   0.0000000   0.0000000   0.0000000), wk =   0.1250000
        k(    2) = (   0.0000000   0.2416596   0.0000000), wk =   0.2500000
        k(    3) = (   0.0000000  -0.4833191   0.0000000), wk =   0.1250000
        k(    4) = (   0.2500000   0.0000000   0.0000000), wk =   0.2500000
        k(    5) = (   0.2500000   0.2416596   0.0000000), wk =   0.2500000
        k(    6) = (   0.2500000  -0.4833191   0.0000000), wk =   0.2500000
        k(    7) = (  -0.5000000   0.0000000   0.0000000), wk =   0.1250000
        k(    8) = (  -0.5000000   0.2416596   0.0000000), wk =   0.2500000
        k(    9) = (  -0.5000000  -0.4833191   0.0000000), wk =   0.1250000
        k(   10) = (  -0.2500000   0.2416596   0.0000000), wk =   0.2500000

     Largest allocated arrays     est. size (Mb)     dimensions
     Largest temporary arrays     est. size (Mb)     dimensions

     Check: negative/imaginary core charge=   -0.000003    0.000000

     Initial potential from superposition of free atoms
     Check: negative starting charge=   -0.646062

     starting charge  240.99914, renormalised to  245.00000

     negative rho (up, down):  0.657E+00 0.000E+00
     Number of +U iterations with fixed ns =  0
     Starting occupations:
 --- enter write_ns ---
 LDA+U parameters:
U( 2)     =  0.00000000
alpha( 2) =  0.00000000
atom    3   Tr[ns(na)] =   7.00000
    eigenvalues:
  0.700  0.700  0.700  0.700  0.700
    eigenvectors:
  1.000  0.000  0.000  0.000  0.000
  0.000  1.000  0.000  0.000  0.000
  0.000  0.000  1.000  0.000  0.000
  0.000  0.000  0.000  1.000  0.000
  0.000  0.000  0.000  0.000  1.000
    occupations:
  0.700  0.000  0.000  0.000  0.000
  0.000  0.700  0.000  0.000  0.000
  0.000  0.000  0.700  0.000  0.000
  0.000  0.000  0.000  0.700  0.000
  0.000  0.000  0.000  0.000  0.700
atom    4   Tr[ns(na)] =   7.00000
    eigenvalues:
  0.700  0.700  0.700  0.700  0.700
    eigenvectors:
  1.000  0.000  0.000  0.000  0.000
  0.000  1.000  0.000  0.000  0.000
  0.000  0.000  1.000  0.000  0.000
  0.000  0.000  0.000  1.000  0.000
  0.000  0.000  0.000  0.000  1.000
    occupations:
  0.700  0.000  0.000  0.000  0.000
  0.000  0.700  0.000  0.000  0.000
  0.000  0.000  0.700  0.000  0.000
  0.000  0.000  0.000  0.700  0.000
  0.000  0.000  0.000  0.000  0.700
atom    9   Tr[ns(na)] =   7.00000
    eigenvalues:
  0.700  0.700  0.700  0.700  0.700
    eigenvectors:
  1.000  0.000  0.000  0.000  0.000
  0.000  1.000  0.000  0.000  0.000
  0.000  0.000  1.000  0.000  0.000
  0.000  0.000  0.000  1.000  0.000
  0.000  0.000  0.000  0.000  1.000
    occupations:
  0.700  0.000  0.000  0.000  0.000
  0.000  0.700  0.000  0.000  0.000
  0.000  0.000  0.700  0.000  0.000
  0.000  0.000  0.000  0.700  0.000
  0.000  0.000  0.000  0.000  0.700
atom   10   Tr[ns(na)] =   7.00000
    eigenvalues:
  0.700  0.700  0.700  0.700  0.700
    eigenvectors:
  1.000  0.000  0.000  0.000  0.000
  0.000  1.000  0.000  0.000  0.000
  0.000  0.000  1.000  0.000  0.000
  0.000  0.000  0.000  1.000  0.000
  0.000  0.000  0.000  0.000  1.000
    occupations:
  0.700  0.000  0.000  0.000  0.000
  0.000  0.700  0.000  0.000  0.000
  0.000  0.000  0.700  0.000  0.000
  0.000  0.000  0.000  0.700  0.000
  0.000  0.000  0.000  0.000  0.700
atom   16   Tr[ns(na)] =   7.00000
    eigenvalues:
  0.700  0.700  0.700  0.700  0.700
    eigenvectors:
  1.000  0.000  0.000  0.000  0.000
  0.000  1.000  0.000  0.000  0.000
  0.000  0.000  1.000  0.000  0.000
  0.000  0.000  0.000  1.000  0.000
  0.000  0.000  0.000  0.000  1.000
    occupations:
  0.700  0.000  0.000  0.000  0.000
  0.000  0.700  0.000  0.000  0.000
  0.000  0.000  0.700  0.000  0.000
  0.000  0.000  0.000  0.700  0.000
  0.000  0.000  0.000  0.000  0.700
atom   17   Tr[ns(na)] =   7.00000
    eigenvalues:
  0.700  0.700  0.700  0.700  0.700
    eigenvectors:
  1.000  0.000  0.000  0.000  0.000
  0.000  1.000  0.000  0.000  0.000
  0.000  0.000  1.000  0.000  0.000
  0.000  0.000  0.000  1.000  0.000
  0.000  0.000  0.000  0.000  1.000
    occupations:
  0.700  0.000  0.000  0.000  0.000
  0.000  0.700  0.000  0.000  0.000
  0.000  0.000  0.700  0.000  0.000
  0.000  0.000  0.000  0.700  0.000
  0.000  0.000  0.000  0.000  0.700
atom   22   Tr[ns(na)] =   7.00000
    eigenvalues:
  0.700  0.700  0.700  0.700  0.700
    eigenvectors:
  1.000  0.000  0.000  0.000  0.000
  0.000  1.000  0.000  0.000  0.000
[...]
 -0.002  0.010  0.856 -0.001  0.001
  0.026  0.001 -0.001  0.967  0.000
  0.001 -0.000  0.001  0.000  0.605
atom    9   Tr[ns(na)] =   7.93477
    eigenvalues:
  0.640  0.652  0.834  0.871  0.970
    eigenvectors:
  0.001  0.151  0.001  0.001  0.847
  0.994  0.006  0.000  0.000  0.000
  0.000  0.000  0.984  0.015  0.000
  0.006  0.842  0.000  0.000  0.152
  0.000  0.000  0.016  0.984  0.000
    occupations:
  0.921 -0.001  0.001 -0.114 -0.002
 -0.001  0.640 -0.000  0.001 -0.000
  0.001 -0.000  0.835 -0.004 -0.005
 -0.114  0.001 -0.004  0.701  0.001
 -0.002 -0.000 -0.005  0.001  0.870
atom   10   Tr[ns(na)] =   7.95147
    eigenvalues:
  0.598  0.620  0.885  0.903  0.970
    eigenvectors:
  0.000  0.990  0.001  0.000  0.009
  0.001  0.000  0.000  0.999  0.000
  0.000  0.001  0.999  0.000  0.000
  0.000  0.009  0.000  0.000  0.991
  0.999  0.000  0.000  0.001  0.000
    occupations:
  0.623  0.000  0.007  0.033 -0.000
  0.000  0.903 -0.000  0.000 -0.009
  0.007 -0.000  0.885  0.000  0.000
  0.033  0.000  0.000  0.967  0.000
 -0.000 -0.009  0.000  0.000  0.599
atom   16   Tr[ns(na)] =   7.95924
    eigenvalues:
  0.593  0.614  0.871  0.940  0.961
    eigenvectors:
  0.010  0.195  0.003  0.001  0.791
  0.958  0.042  0.000  0.000  0.000
  0.000  0.000  0.994  0.003  0.003
  0.032  0.763  0.000  0.000  0.204
  0.000  0.000  0.003  0.996  0.002
    occupations:
  0.890  0.005  0.003 -0.140  0.001
  0.005  0.594 -0.000  0.002 -0.006
  0.003 -0.000  0.871 -0.005 -0.003
 -0.140  0.002 -0.005  0.685 -0.000
  0.001 -0.006 -0.003 -0.000  0.939
atom   17   Tr[ns(na)] =   7.94480
    eigenvalues:
  0.605  0.651  0.850  0.897  0.970
    eigenvectors:
  0.000  0.993  0.000  0.000  0.007
  0.000  0.000  0.039  0.961  0.000
  0.000  0.000  0.961  0.039  0.000
  0.000  0.007  0.000  0.000  0.993
  1.000  0.000  0.000  0.000  0.000
    occupations:
  0.653 -0.004 -0.001  0.026  0.001
 -0.004  0.895  0.009  0.001 -0.000
 -0.001  0.009  0.851 -0.001  0.001
  0.026  0.001 -0.001  0.968  0.000
  0.001 -0.000  0.001  0.000  0.605
atom   22   Tr[ns(na)] =   7.93526
    eigenvalues:
  0.640  0.652  0.834  0.871  0.970
    eigenvectors:
  0.000  0.152  0.001  0.000  0.847
  1.000  0.000  0.000  0.000  0.000
  0.000  0.000  0.986  0.014  0.000
  0.000  0.847  0.000  0.000  0.152
  0.000  0.000  0.014  0.986  0.000
    occupations:
  0.922  0.002  0.001 -0.114 -0.000
  0.002  0.640  0.001 -0.001 -0.000
  0.001  0.001  0.835 -0.005  0.004
 -0.114 -0.001 -0.005  0.701  0.000
 -0.000 -0.000  0.004  0.000  0.870
atom   23   Tr[ns(na)] =   7.96190
    eigenvalues:
  0.605  0.638  0.843  0.931  0.965
    eigenvectors:
  0.000  0.994  0.000  0.003  0.002
  0.001  0.000  0.999  0.000  0.000
  0.000  0.003  0.000  0.996  0.000
  0.000  0.002  0.000  0.000  0.997
  0.999  0.000  0.001  0.000  0.000
    occupations:
  0.640 -0.000  0.017  0.016 -0.000
 -0.000  0.842 -0.001 -0.000 -0.009
  0.017 -0.001  0.930 -0.002  0.000
  0.016 -0.000 -0.002  0.964  0.000
 -0.000 -0.009  0.000  0.000  0.605
N of occupied +U levels =  63.5933294
 --- exit write_ns ---

          k = 0.0000 0.0000 0.0000 ( 30479 PWs)   bands (ev):

   -48.9876 -48.9326 -48.9239 -48.9024 -48.8688 -48.8660 -48.8403 -48.7998
   -48.7901 -48.7750 -48.7246 -48.7206 -48.6931 -48.6873 -48.6090 -48.6046
   -48.5760 -48.5356 -48.5120 -48.5090 -48.4966 -48.4838 -48.4788 -48.4553
   -23.9270 -21.0215 -20.5779 -20.5273 -20.3971 -20.1019 -19.7517 -19.6882
   -19.6599 -19.6294 -19.5501 -19.4523 -19.4357 -19.1823 -19.1590 -19.1269
   -19.0909 -18.3724 -18.2158 -17.4264  -9.3276  -9.3062  -9.0690  -8.9657
    -8.3988  -8.1923  -8.0965  -8.0801  -8.0694  -8.0105  -7.9022  -7.8133
    -7.7585  -7.7083  -7.5726  -7.5105  -7.4297  -7.3769  -7.3341  -7.1728
    -6.9817  -6.7678  -6.5677  -6.5385  -6.4341  -6.3473  -6.0207  -5.9618
    -5.8850  -5.7603  -5.4681  -5.3035  -5.2820  -4.9534  -4.9240  -4.8825
    -4.8452  -4.8191  -4.6859  -4.6722  -4.6242  -4.5252  -4.4107  -4.2955
    -4.2231  -4.1902  -4.0944  -4.0666  -3.9635  -3.8847  -3.7333  -3.6903
    -3.5972  -3.4542  -3.3540  -3.3475  -3.2429  -3.2065  -3.1467  -3.1003
    -3.0712  -2.9866  -2.8611  -2.8029  -2.6465  -2.5516  -2.5403  -2.5211
    -2.5033  -2.2285  -2.0422  -1.8916  -1.8709  -1.6965  -1.6053  -1.5946
    -1.2358  -1.1563  -1.0928  -0.9185  -0.7926  -0.7194  -0.5552  -0.4233
     0.0743   0.6762   0.7068   0.8627   0.8782   1.0601   1.1938   1.3781
     1.7685   1.8047   2.3211   2.4361   2.4457   2.7532   2.7920   3.1805
     3.5347   3.7645   4.0783   4.6097   4.9283   5.5585   6.0426   6.3806
     6.5566   6.7457   7.0292   7.2354   7.3289   7.3437   7.3916   7.5189
     7.6062   7.7455   7.8037   7.9710   7.9992   8.1883   8.2952   8.3313
     8.4593   8.4899   8.5366   8.6279   8.7305   8.8189   8.9223   9.0700
     9.1324   9.1697   9.3111   9.3942   9.5150   9.6597   9.7452   9.7757
     9.8622   9.9714  10.1672  10.2958  10.4417  10.4782  10.5263  10.5870
    10.8013  10.9392  10.9785  11.0038  11.0307  11.0806  11.1944  11.2924
    11.3854  11.4184  11.4535  11.5353  11.5512  11.6116  11.7094  11.7463
    11.8294  11.8431  11.9697  12.0064  12.1224  12.1691  12.2298  12.2646
    12.3457  12.3804  12.4241  12.5050  12.5440  12.5972  12.7510  12.7984
    12.8160  12.8532  12.8895  12.9988  13.0191  13.1469  13.2429  13.2522
    13.5397  13.6432  13.7019  13.7924  13.8580  13.8964  13.9127  13.9639
    14.2180  14.2526  14.3597  14.3954  14.5878  14.6146  14.7445  14.7897
    14.9034  15.0777  15.2176  15.2804  15.3267  15.4817  15.5131  15.6148
    15.6325  15.7464  15.7562  15.9429  16.0724  16.0905  16.2213  16.3706
    16.4602  16.4718  16.6417  16.6750  16.8594  16.9379  17.0719  17.1260
    17.1354  17.1939  17.2226  17.2934  17.3396  17.4886  17.5816  17.6605
    17.7381  17.9128  17.9882  18.0571  18.1055  18.3396  18.3890  18.4304
    18.4948  18.5098  18.5220  18.5952  18.6316  18.7083  18.7983  18.8607
    18.8944  18.9551  18.9640  18.9861  19.0930  19.1234  19.2052  19.2461
    19.3390  19.3508  19.4566  19.5176  19.5446  19.6184  19.6907  19.7476
    19.7865  19.8099  19.8681  19.9146  19.9562  20.0403  20.1039  20.1301
    20.2101  20.2618  20.3624  20.3840  20.4811  20.6151  20.6228  20.6806
    20.7768  20.8544  20.8856  20.9867  21.0651  21.2011  21.2118  21.2797
    21.2925  21.3748  21.5016  21.5868  21.6972  21.7422  21.7719  21.8156
    21.8719  21.9368  22.0384  22.1101  22.1189  22.1794  22.2176  22.2350
    22.2634  22.3013  22.3851  22.4273  22.4604  22.4770  22.5151  22.5434
    22.5537  22.6247  22.6553  22.6835  22.7178  22.7940  22.8191

[...]

          k = 0.2500-0.4833 0.0000 ( 30510 PWs)   bands (ev):

[...]

          k =-0.5000 0.0000 0.0000 ( 30524 PWs)   bands (ev):

[...]

          k =-0.2500 0.2417 0.0000 ( 30481 PWs)   bands (ev):

   -48.9826 -48.9308 -48.9245 -48.8876 -48.8687 -48.8649 -48.8404 -48.8041
   -48.7838 -48.7750 -48.7306 -48.7198 -48.7040 -48.6943 -48.6096 -48.6055
   -48.5620 -48.5351 -48.5137 -48.5081 -48.4939 -48.4847 -48.4815 -48.4687
   -23.9267 -20.8933 -20.5899 -20.3796 -20.2651 -20.1241 -19.8582 -19.7907
   -19.6532 -19.6179 -19.5172 -19.4364 -19.4007 -19.3521 -19.2410 -19.1717
   -19.1257 -18.4080 -18.2621 -17.4229  -9.0310  -8.9343  -8.7580  -8.7066
    -8.5326  -8.1390  -8.0677  -8.0613  -8.0338  -7.9772  -7.9037  -7.8520
    -7.8182  -7.6894  -7.6102  -7.4422  -7.2663  -7.2359  -7.1694  -6.9903
    -6.8660  -6.7011  -6.5834  -6.5507  -6.4742  -6.3021  -5.9865  -5.8782
    -5.7578  -5.7421  -5.6283  -5.5622  -5.5218  -5.4541  -5.3828  -5.3519
    -5.3187  -5.1497  -5.0701  -5.0004  -4.9150  -4.8129  -4.6655  -4.5975
    -4.3504  -4.3269  -4.2265  -4.1380  -4.0387  -3.9759  -3.8763  -3.7487
    -3.6688  -3.5529  -3.4452  -3.1559  -3.0488  -2.9618  -2.8950  -2.8153
    -2.6371  -2.6146  -2.5586  -2.5116  -2.4705  -2.3697  -2.3052  -2.2531
    -2.1863  -2.1622  -2.1057  -1.9861  -1.8231  -1.6357  -1.4270  -1.3303
    -1.2842  -1.2495  -1.1046  -0.9923  -0.8883  -0.7905  -0.7175  -0.3821
     0.1181   0.2115   0.4165   0.8588   0.9961   1.3318   1.4137   1.7022
     1.8141   1.9806   2.0328   2.1927   2.3090   2.3749   2.6638   3.3691
     3.9442   4.1318   4.5500   5.0646   5.2860   5.5881   5.9461   5.9567
     6.0274   6.2771   6.4179   6.5673   6.6003   6.9263   6.9842   7.2282
     7.4268   7.5590   7.7463   7.8500   7.8954   8.2241   8.2605   8.2894
     8.3735   8.4416   8.6796   8.7633   8.8945   9.0113   9.1003   9.1778
     9.2505   9.3967   9.5117   9.6201   9.7765   9.8412   9.9308   9.9680
    10.0634  10.1835  10.2605  10.3572  10.4488  10.5529  10.5969  10.6743
    10.7608  10.9039  10.9880  11.1136  11.1626  11.1997  11.2812  11.3419
    11.4737  11.5075  11.6491  11.6968  11.7355  11.7879  11.8534  11.9504
    12.0012  12.1312  12.2045  12.3100  12.3524  12.4538  12.5265  12.5631
    12.6049  12.6946  12.7618  12.8179  12.9103  12.9612  13.0582  13.1611
    13.2534  13.3405  13.4185  13.5168  13.5907  13.6610  13.7607  13.8071
    13.8267  13.9479  13.9908  14.1074  14.1841  14.2798  14.3279  14.3776
    14.4631  14.5003  14.5391  14.6757  14.7327  14.7907  14.9119  14.9945
    15.0429  15.1284  15.2499  15.3385  15.4480  15.5116  15.5354  15.6054
    15.7031  15.7275  15.7767  15.8367  15.9337  15.9823  16.0273  16.0718
    16.1446  16.1778  16.3283  16.3694  16.4129  16.4684  16.5325  16.5835
    16.6133  16.6870  16.7453  16.8071  16.8771  16.9913  17.0554  17.1450
    17.2181  17.2397  17.3050  17.3742  17.4517  17.4758  17.5513  17.6158
    17.7065  17.7347  17.7796  17.9000  17.9360  17.9965  18.0845  18.1110
    18.2063  18.2347  18.3367  18.4186  18.4959  18.6283  18.6621  18.7085
    18.8704  18.9231  18.9818  19.0211  19.0547  19.1625  19.2248  19.2654
    19.3244  19.3829  19.4711  19.5463  19.5984  19.6830  19.7314  19.8686
    19.9206  19.9671  20.0742  20.1240  20.1845  20.3148  20.3905  20.4635
    20.5430  20.6167  20.7001  20.7487  20.7871  20.8445  20.9008  20.9876
    21.0700  21.1266  21.1837  21.2221  21.2504  21.3540  21.3862  21.4634
    21.5127  21.5726  21.6486  21.6884  21.7430  21.8014  21.8337  21.9475
    22.0228  22.0545  22.0966  22.1762  22.2959  22.3361  22.4145  22.4380
    22.4959  22.5660  22.6695  22.6978  22.7766  22.8541  22.9108

     the Fermi energy is    -1.1552 ev

!    total energy              =   -2013.66034391 Ry
     Harris-Foulkes estimate   =   -2013.66034480 Ry
     estimated scf accuracy    <       0.00000097 Ry

     The total energy is the sum of the following terms:

     one-electron contribution =  -23694.87442912 Ry
     hartree contribution      =   11901.51537141 Ry
     xc contribution           =    -379.80280079 Ry
     ewald contribution        =   10159.50195509 Ry
     Hubbard energy            =       0.00000000 Ry
     smearing contrib. (-TS)   =      -0.00044050 Ry

     convergence has been achieved in  26 iterations

     Forces acting on atoms (Ry/au):

     negative rho (up, down):  0.695E+00 0.000E+00
     atom    1 type  1   force =    -0.00702159   -0.01354953    0.00008691
     atom    2 type  1   force =     0.00020016    0.00654749    0.00008340
     atom    3 type  2   force =     0.02964110    0.00307461   -0.00008479
     atom    4 type  2   force =     0.00804450    0.00857548    0.00007867
     atom    5 type  1   force =    -0.00162126   -0.03260923   -0.00019402
     atom    6 type  1   force =     0.00070099    0.03025329    0.00000607
     atom    7 type  1   force =    -0.00020591   -0.00314828    0.00003419
     atom    8 type  1   force =    -0.00263802    0.00075102    0.00024350
     atom    9 type  2   force =     0.00535260    0.00156049    0.00034484
     atom   10 type  2   force =    -0.00012605   -0.00098393    0.00047289
     atom   11 type  1   force =    -0.01220699    0.01369523   -0.00038833
     atom   12 type  1   force =    -0.00654798   -0.00774689   -0.00002458
     atom   13 type  1   force =    -0.00076517   -0.00293230    0.00011610
     atom   14 type  1   force =    -0.00614996   -0.01355142   -0.00014699
     atom   15 type  1   force =     0.00012791    0.00685326    0.00013653
     atom   16 type  2   force =    -0.03007508    0.00322122    0.00002710
     atom   17 type  2   force =     0.00808111    0.00942031   -0.00007205
     atom   18 type  1   force =     0.00046800   -0.03311927   -0.00019425
     atom   19 type  1   force =     0.00250633    0.02989626   -0.00002465
     atom   20 type  1   force =    -0.00013209   -0.00486568   -0.00033030
     atom   21 type  1   force =    -0.00298641    0.00116559   -0.00010775
     atom   22 type  2   force =    -0.00263604    0.00158074    0.00021035
     atom   23 type  2   force =    -0.00025854    0.00088892   -0.00051226
     atom   24 type  1   force =     0.01205454    0.01361598   -0.00037252
     atom   25 type  1   force =     0.00725315   -0.00780446   -0.00005088
     atom   26 type  1   force =    -0.00107194   -0.01094130    0.00059960
     atom   27 type  3   force =    -0.00001215   -0.00005516   -0.00002471
     atom   28 type  3   force =    -0.00001638   -0.00007567    0.00001652
     atom   29 type  3   force =     0.00010169   -0.00007899   -0.00003902
     atom   30 type  3   force =    -0.00004495   -0.00002115    0.00015137
     atom   31 type  1   force =    -0.00015274    0.00008133    0.00081709
     atom   32 type  1   force =     0.00015218    0.00001325   -0.00050766
     atom   33 type  3   force =    -0.00001498    0.00028879   -0.00035039

     Total force =     0.001698     Total SCF correction =     0.004791
     SCF correction compared to forces is large: reduce conv_thr to get better values

     entering subroutine stress ...

     negative rho (up, down):  0.695E+00 0.000E+00
          total   stress  (Ry/bohr**3)                   (kbar)     P=  -15.33
  -0.00010355   0.00000289   0.00000419        -15.23      0.43      0.62
   0.00000289  -0.00012934   0.00000482          0.43    -19.03      0.71
   0.00000419   0.00000482  -0.00007978          0.62      0.71    -11.74

     BFGS Geometry Optimization

     bfgs converged in   1 scf cycles and   0 bfgs steps
     (criteria: energy < 0.10E-03, force < 0.10E-02)

     End of BFGS Geometry Optimization

     Final energy   =   -2013.6603439100 Ry
Begin final coordinates

ATOMIC_POSITIONS (crystal)
O0       0.000000000   0.000000000   0.377790000    0   0   1
O0       0.000000000   0.500000000   0.401370000    0   0   1
Rh1      0.250000000   0.500000000   0.452850000    0   0   1
Rh1      0.000000000   0.000000000   0.452370000    0   0   1
O0       0.250000000   0.810000000   0.452160000    0   0   1
O0       0.250000000   0.190000000   0.452020000    0   0   1
O0       0.000000000   0.500000000   0.498430000    0   0   1
O0       0.000000000   0.000000000   0.527850000    0   0   1
Rh1      0.250000000   0.000000000   0.575120000    0   0   1
Rh1      0.000000000   0.500000000   0.570570000    0   0   1
O0       0.250000000   0.690000000   0.574680000    0   0   1
O0       0.250000000   0.310000000   0.577100000    0   0   1
O0       0.000000000   0.000000000   0.620560000    0   0   1
O0       0.500000000   0.000000000   0.377850000    0   0   1
O0       0.500000000   0.500000000   0.401550000    0   0   1
Rh1      0.750000000   0.500000000   0.452840000    0   0   1
Rh1      0.500000000   0.000000000   0.452370000    0   0   1
O0       0.750000000   0.810000000   0.452130000    0   0   1
O0       0.750000000   0.190000000   0.452060000    0   0   1
O0       0.500000000   0.500000000   0.500110000    0   0   1
O0       0.500000000   0.000000000   0.527730000    0   0   1
Rh1      0.750000000   0.000000000   0.575120000    0   0   1
Rh1      0.500000000   0.500000000   0.578050000    0   0   1
O0       0.750000000   0.690000000   0.574670000    0   0   1
O0       0.750000000   0.310000000   0.577100000    0   0   1
O0       0.500000000   0.000000000   0.620020000    0   0   1
H2       0.000050000   0.638740000   0.384830000
H2       0.499920000   0.638840000   0.384990000
H2       0.147770000   0.035960000   0.367150000
H2       0.648440000   0.033460000   0.367170000
O0       0.499730000   0.537120000   0.650620000
O0       0.500330000   0.345420000   0.678460000
H2       0.499930000   0.402160000   0.713240000
End final coordinates

     General routines

     Parallel routines
     Hubbard U routines

   This run was terminated on:  23: 4:13   5Jun2014

   JOB DONE.
Running PBS batch system epilogue script
Job id: 381419.audhumbla.fysik.dtu.dk
Username: zhonxu
Groupname: campgst
Jobname: RhO2/Eads-2-layers/OOH-U-0.0
Sessionid: 9833
Queuename: verylong
Accounting:
This job has allocated the following 16 nodes:
a109 a109 a109 a109 a109 a109 a109 a109 a108 a108 a108 a108 a108 a108 a108 a108
Finished epilogue job 381419.audhumbla.fysik.dtu.dk for zhonxu