     Program PWSCF v.5.0.2 (svn rev. 9656) starts on  1Jun2014 at  7:29:41

     Current dimensions of program PWSCF are:
     Max number of different atomic species (ntypx) = 10
     Max number of k-points (npk) =  40000
     Max angular momentum in pseudopotentials (lmaxx) =  3
     Reading input from pwscf.in
Warning: card &CELL ignored
Warning: card / ignored

     Subspace diagonalization in iterative solution of the eigenvalue problem:
     a serial algorithm will be used

     bravais-lattice index     =            0
     lattice parameter (alat)  =      11.1872  a.u.
     unit-cell volume          =    7531.8600 (a.u.)^3
     number of atoms/cell      =           33
     number of atomic types    =            3
     number of electrons       =       229.00
     number of Kohn-Sham states=          343
     kinetic-energy cutoff     =      40.0000  Ry
     charge density cutoff     =     500.0000  Ry
     convergence threshold     =      1.0E-06
     mixing beta               =       0.7000
     number of iterations used =            8  plain     mixing
     Exchange-correlation      = SLA  PW   PBE  PBE ( 1 4 3 4 0)
     EXX-fraction              =        0.00
     nstep                     =           50

     celldm(1)=  11.187179  celldm(2)=   0.000000  celldm(3)=   0.000000
     celldm(4)=   0.000000  celldm(5)=   0.000000  celldm(6)=   0.000000

     crystal axes: (cart. coord. in units of alat)
               a(1) = (   1.000000   0.000000   0.000000 )
               a(2) = (   0.000000   1.180104   0.000000 )
               a(3) = (   0.000000   0.000000   4.558482 )

     reciprocal axes: (cart. coord. in units 2 pi/alat)
               b(1) = (  1.000000  0.000000  0.000000 )
               b(2) = (  0.000000  0.847383  0.000000 )
               b(3) = (  0.000000  0.000000  0.219371 )

     PseudoPot. # 1 for O  read from file:
     /home/camp/zhonxu/pseudo/o_pbe_v1.01.uspp.F.UPF
     MD5 check sum: 2bcb18d16ea4b960afae9ec6d52f22d2
     Pseudo is Ultrasoft + core correction, Zval =  6.0
     Generated by new atomic code, or converted to UPF format
     Using radial grid of  737 points,  5 beta functions with:
                l(1) =   0
                l(2) =   0
                l(3) =   1
                l(4) =   1
                l(5) =   2
     Q(r) pseudized with  8 coefficients,  rinner =    0.900   0.900   0.900
                                                       0.900   0.900

     PseudoPot. # 2 for Nb read from file:
     /home/camp/zhonxu/pseudo/nb_pbe_v1.uspp.F.UPF
     MD5 check sum: 573aab8a2fa660278ed4a62cd769473f
     Pseudo is Ultrasoft + core correction, Zval = 13.0
     Generated by new atomic code, or converted to UPF format
     Using radial grid of  887 points,  6 beta functions with:
                l(1) =   0
                l(2) =   0
                l(3) =   1
                l(4) =   1
                l(5) =   2
                l(6) =   2
     Q(r) pseudized with  6 coefficients,  rinner =    1.000   1.000   1.000
                                                       1.000   1.000

     PseudoPot. # 3 for H  read from file:
     /home/camp/zhonxu/pseudo/h_pbe_v1.uspp.F.UPF
     MD5 check sum: 3408e3ff4ec8b0a4e358431e7e038a48
     Pseudo is Ultrasoft, Zval =  1.0
     Generated by new atomic code, or converted to UPF format
     Using radial grid of  615 points,  2 beta functions with:
                l(1) =   0
                l(2) =   0
     Q(r) pseudized with  8 coefficients,  rinner =    0.700

     atomic species   valence    mass     pseudopotential
        O0             6.00    15.99940     O ( 1.00)
        Nb1           13.00    92.90640     Nb( 1.00)
        H2             1.00     1.00794     H ( 1.00)

     Simplified LDA+U calculation (l_max = 2) with parameters (eV):
     atomic species    L          U    alpha       J0     beta
        Nb1            2     5.0000   0.0000   0.0000   0.0000

     No symmetry found

   Cartesian axes

     site n.     atom                  positions (alat units)
         1           O0  tau(   1) = (   0.0000000   0.0000000   1.6962113  )
         2           O0  tau(   2) = (   0.0000000   0.5900519   1.7723835  )
         3           Nb1 tau(   3) = (   0.2500000   0.5900519   2.0257895  )
         4           Nb1 tau(   4) = (   0.0000000   0.0000000   2.0274306  )
         5           O0  tau(   5) = (   0.2500000   0.9322821   2.0383253  )
         6           O0  tau(   6) = (   0.2500000   0.2478218   2.0381886  )
         7           O0  tau(   7) = (   0.0000000   0.5900519   2.2790132  )
         8           O0  tau(   8) = (   0.0000000   0.0000000   2.3853170  )
         9           Nb1 tau(   9) = (   0.2500000   0.0000000   2.6318397  )
        10           Nb1 tau(  10) = (   0.0000000   0.5900519   2.5956910  )
        11           O0  tau(  11) = (   0.2500000   0.8378738   2.6232242  )
        12           O0  tau(  12) = (   0.2500000   0.3422301   2.6255034  )
        13           O0  tau(  13) = (   0.0000000   0.0000000   2.8344187  )
        14           O0  tau(  14) = (   0.5000000   0.0000000   1.6974420  )
        15           O0  tau(  15) = (   0.5000000   0.5900519   1.7789021  )
        16           Nb1 tau(  16) = (   0.7500000   0.5900519   2.0259719  )
        17           Nb1 tau(  17) = (   0.5000000   0.0000000   2.0298010  )
        18           O0  tau(  18) = (   0.7500000   0.9322821   2.0382798  )
        19           O0  tau(  19) = (   0.7500000   0.2478218   2.0381886  )
        20           O0  tau(  20) = (   0.5000000   0.5900519   2.2737254  )
        21           O0  tau(  21) = (   0.5000000   0.0000000   2.3845421  )
        22           Nb1 tau(  22) = (   0.7500000   0.0000000   2.6318397  )
        23           Nb1 tau(  23) = (   0.5000000   0.5900519   2.6269166  )
        24           O0  tau(  24) = (   0.7500000   0.8378738   2.6231786  )
        25           O0  tau(  25) = (   0.7500000   0.3422301   2.6254579  )
        26           O0  tau(  26) = (   0.5000000   0.0000000   2.8332335  )
        27           H2  tau(  27) = (  -0.0005200   0.5958463   1.6070929  )
        28           H2  tau(  28) = (   0.4994400   0.5914445   1.6138395  )
        29           H2  tau(  29) = (   0.1507700   0.0008261   1.6243240  )
        30           H2  tau(  30) = (   0.6503900   0.0006019   1.6249166  )
        31           O0  tau(  31) = (   0.5000000   0.6010623   2.9587285  )
        32           O0  tau(  32) = (   0.5000000   0.4103103   3.1155403  )
        33           H2  tau(  33) = (   0.5000000   0.4955964   3.2584031  )

     number of k points=    10  Methfessel-Paxton smearing, width (Ry)=  0.0100
                       cart. coord. in units 2pi/alat
        k(    1) = (   0.0000000   0.0000000   0.0000000), wk =   0.1250000
        k(    2) = (   0.0000000   0.2118458   0.0000000), wk =   0.2500000
        k(    3) = (   0.0000000  -0.4236915   0.0000000), wk =   0.1250000
        k(    4) = (   0.2500000   0.0000000   0.0000000), wk =   0.2500000
        k(    5) = (   0.2500000   0.2118458   0.0000000), wk =   0.2500000
        k(    6) = (   0.2500000  -0.4236915   0.0000000), wk =   0.2500000
        k(    7) = (  -0.5000000   0.0000000   0.0000000), wk =   0.1250000
        k(    8) = (  -0.5000000   0.2118458   0.0000000), wk =   0.2500000
        k(    9) = (  -0.5000000  -0.4236915   0.0000000), wk =   0.1250000
        k(   10) = (  -0.2500000   0.2118458   0.0000000), wk =   0.2500000

     Largest allocated arrays     est. size (Mb)     dimensions
     Largest temporary arrays     est. size (Mb)     dimensions

     Check: negative/imaginary core charge=   -0.000003    0.000000

     Initial potential from superposition of free atoms
     Check: negative starting charge=   -0.003307

     starting charge  228.97806, renormalised to  229.00000

     negative rho (up, down):  0.331E-02 0.000E+00
     Number of +U iterations with fixed ns =  0
     Starting occupations:
 --- enter write_ns ---
 LDA+U parameters:
U( 2)     =  5.00000000
alpha( 2) =  0.00000000
atom    3   Tr[ns(na)] =   3.00000
    eigenvalues:
  0.300  0.300  0.300  0.300  0.300
    eigenvectors:
  1.000  0.000  0.000  0.000  0.000
  0.000  1.000  0.000  0.000  0.000
  0.000  0.000  1.000  0.000  0.000
  0.000  0.000  0.000  1.000  0.000
  0.000  0.000  0.000  0.000  1.000
    occupations:
  0.300  0.000  0.000  0.000  0.000
  0.000  0.300  0.000  0.000  0.000
  0.000  0.000  0.300  0.000  0.000
  0.000  0.000  0.000  0.300  0.000
  0.000  0.000  0.000  0.000  0.300
atom    4   Tr[ns(na)] =   3.00000
    eigenvalues:
  0.300  0.300  0.300  0.300  0.300
    eigenvectors:
  1.000  0.000  0.000  0.000  0.000
  0.000  1.000  0.000  0.000  0.000
  0.000  0.000  1.000  0.000  0.000
  0.000  0.000  0.000  1.000  0.000
  0.000  0.000  0.000  0.000  1.000
    occupations:
  0.300  0.000  0.000  0.000  0.000
  0.000  0.300  0.000  0.000  0.000
  0.000  0.000  0.300  0.000  0.000
  0.000  0.000  0.000  0.300  0.000
  0.000  0.000  0.000  0.000  0.300
atom    9   Tr[ns(na)] =   3.00000
    eigenvalues:
  0.300  0.300  0.300  0.300  0.300
    eigenvectors:
  1.000  0.000  0.000  0.000  0.000
  0.000  1.000  0.000  0.000  0.000
  0.000  0.000  1.000  0.000  0.000
  0.000  0.000  0.000  1.000  0.000
  0.000  0.000  0.000  0.000  1.000
    occupations:
  0.300  0.000  0.000  0.000  0.000
  0.000  0.300  0.000  0.000  0.000
  0.000  0.000  0.300  0.000  0.000
  0.000  0.000  0.000  0.300  0.000
  0.000  0.000  0.000  0.000  0.300
atom   10   Tr[ns(na)] =   3.00000
    eigenvalues:
  0.300  0.300  0.300  0.300  0.300
    eigenvectors:
  1.000  0.000  0.000  0.000  0.000
  0.000  1.000  0.000  0.000  0.000
  0.000  0.000  1.000  0.000  0.000
  0.000  0.000  0.000  1.000  0.000
  0.000  0.000  0.000  0.000  1.000
    occupations:
  0.300  0.000  0.000  0.000  0.000
  0.000  0.300  0.000  0.000  0.000
  0.000  0.000  0.300  0.000  0.000
  0.000  0.000  0.000  0.300  0.000
  0.000  0.000  0.000  0.000  0.300
atom   16   Tr[ns(na)] =   3.00000
    eigenvalues:
  0.300  0.300  0.300  0.300  0.300
    eigenvectors:
  1.000  0.000  0.000  0.000  0.000
  0.000  1.000  0.000  0.000  0.000
  0.000  0.000  1.000  0.000  0.000
  0.000  0.000  0.000  1.000  0.000
  0.000  0.000  0.000  0.000  1.000
    occupations:
  0.300  0.000  0.000  0.000  0.000
  0.000  0.300  0.000  0.000  0.000
  0.000  0.000  0.300  0.000  0.000
  0.000  0.000  0.000  0.300  0.000
  0.000  0.000  0.000  0.000  0.300
atom   17   Tr[ns(na)] =   3.00000
    eigenvalues:
  0.300  0.300  0.300  0.300  0.300
    eigenvectors:
  1.000  0.000  0.000  0.000  0.000
  0.000  1.000  0.000  0.000  0.000
  0.000  0.000  1.000  0.000  0.000
  0.000  0.000  0.000  1.000  0.000
  0.000  0.000  0.000  0.000  1.000
    occupations:
  0.300  0.000  0.000  0.000  0.000
  0.000  0.300  0.000  0.000  0.000
  0.000  0.000  0.300  0.000  0.000
  0.000  0.000  0.000  0.300  0.000
  0.000  0.000  0.000  0.000  0.300
atom   22   Tr[ns(na)] =   3.00000
    eigenvalues:
  0.300  0.300  0.300  0.300  0.300
    eigenvectors:
  1.000  0.000  0.000  0.000  0.000
  0.000  1.000  0.000  0.000  0.000
  0.000  0.000  1.000  0.000  0.000
[...]
  0.000  0.000  0.000  0.000  1.000
  0.000  0.000  0.000  1.000  0.000
    occupations:
  0.505  0.000  0.001  0.002  0.000
  0.000  0.394  0.000 -0.000  0.001
  0.001  0.000  0.334 -0.002  0.000
  0.002 -0.000 -0.002  0.773  0.000
  0.000  0.001  0.000  0.000  0.535
atom   16   Tr[ns(na)] =   5.12949
    eigenvalues:
  0.343  0.348  0.514  0.591  0.768
    eigenvectors:
  0.000  0.000  0.001  0.349  0.650
  0.000  0.000  0.999  0.001  0.000
  0.408  0.592  0.000  0.000  0.000
  0.000  0.000  0.000  0.651  0.349
  0.592  0.408  0.000  0.000  0.000
    occupations:
  0.706  0.005  0.002 -0.084  0.003
  0.005  0.514  0.001 -0.001  0.001
  0.002  0.001  0.346 -0.001  0.003
 -0.084 -0.001 -0.001  0.653 -0.002
  0.003  0.001  0.003 -0.002  0.345
atom   17   Tr[ns(na)] =   5.18204
    eigenvalues:
  0.353  0.374  0.552  0.587  0.725
    eigenvectors:
  0.003  0.000  0.000  0.996  0.000
  0.996  0.000  0.000  0.003  0.001
  0.000  1.000  0.000  0.000  0.000
  0.001  0.000  0.000  0.001  0.999
  0.000  0.000  1.000  0.000  0.000
    occupations:
  0.586  0.013  0.000 -0.003 -0.000
  0.013  0.354 -0.000 -0.011  0.000
  0.000 -0.000  0.374 -0.000  0.001
 -0.003 -0.011 -0.000  0.725  0.000
 -0.000  0.000  0.001  0.000  0.552
atom   22   Tr[ns(na)] =   5.26465
    eigenvalues:
  0.453  0.458  0.472  0.624  0.625
    eigenvectors:
  0.871  0.006  0.000  0.110  0.013
  0.000  0.000  0.000  0.108  0.892
  0.004  0.829  0.166  0.000  0.000
  0.123  0.001  0.000  0.781  0.095
  0.002  0.165  0.833  0.000  0.000
    occupations:
  0.474 -0.000 -0.000  0.056 -0.000
 -0.000  0.625 -0.000  0.001  0.000
 -0.000 -0.000  0.460  0.001 -0.005
  0.056  0.001  0.001  0.603  0.000
 -0.000  0.000 -0.005  0.000  0.469
atom   23   Tr[ns(na)] =   5.21324
    eigenvalues:
  0.337  0.496  0.558  0.596  0.619
    eigenvectors:
  0.002  0.000  0.000  0.775  0.223
  0.000  0.994  0.006  0.000  0.000
  0.998  0.000  0.000  0.001  0.001
  0.000  0.000  0.000  0.224  0.776
  0.000  0.006  0.994  0.000  0.000
    occupations:
  0.601  0.000  0.013  0.009 -0.000
  0.000  0.496  0.000 -0.000 -0.005
  0.013  0.000  0.338  0.004  0.000
  0.009 -0.000  0.004  0.614 -0.000
 -0.000 -0.005  0.000 -0.000  0.558
N of occupied +U levels =  41.4504180
 --- exit write_ns ---

     Threshold (ethr) on eigenvalues was too large:
     Diagonalizing with lowered threshold

     Davidson diagonalization with overlap
     ethr =  6.28E-09,  avg # of iterations =  3.0

[...]

     total energy              =   -1592.18850376 Ry
     Harris-Foulkes estimate   =   -1592.18850376 Ry
     estimated scf accuracy    <       0.00000002 Ry

     iteration # 11     ecut=    40.00 Ry     beta=0.70
     Davidson diagonalization with overlap
     ethr =  7.12E-12,  avg # of iterations =  1.0

     negative rho (up, down):  0.341E-02 0.000E+00

     End of self-consistent calculation
 --- enter write_ns ---
 LDA+U parameters:
U( 2)     =  5.00000000
alpha( 2) =  0.00000000
atom    3   Tr[ns(na)] =   5.12951
    eigenvalues:
  0.342  0.349  0.514  0.591  0.768
    eigenvectors:
  0.000  0.000  0.001  0.348  0.650
  0.000  0.000  0.999  0.001  0.000
  0.405  0.595  0.000  0.000  0.000
  0.000  0.000  0.000  0.651  0.349
  0.595  0.405  0.000  0.000  0.000
    occupations:
  0.706 -0.005  0.002 -0.084 -0.003
 -0.005  0.514 -0.001  0.001  0.001
  0.002 -0.001  0.346 -0.001 -0.004
 -0.084  0.001 -0.001  0.653  0.002
 -0.003  0.001 -0.004  0.002  0.345
atom    4   Tr[ns(na)] =   5.18566
    eigenvalues:
  0.351  0.374  0.552  0.586  0.730
    eigenvectors:
  0.003  0.000  0.000  0.997  0.000
  0.996  0.000  0.000  0.003  0.001
  0.000  1.000  0.000  0.000  0.000
  0.001  0.000  0.000  0.000  0.999
  0.000  0.000  1.000  0.000  0.000
    occupations:
  0.585  0.013  0.000 -0.002 -0.000
  0.013  0.352 -0.000 -0.010  0.000
  0.000 -0.000  0.374 -0.000  0.001
 -0.002 -0.010 -0.000  0.729  0.000
 -0.000  0.000  0.001  0.000  0.552
atom    9   Tr[ns(na)] =   5.26501
    eigenvalues:
  0.453  0.458  0.472  0.624  0.625
    eigenvectors:
  0.871  0.005  0.000  0.108  0.016
  0.000  0.000  0.000  0.129  0.871
  0.004  0.823  0.173  0.000  0.000
  0.123  0.001  0.000  0.763  0.113
  0.002  0.171  0.827  0.000  0.000
    occupations:
  0.474  0.000 -0.000  0.056  0.000
  0.000  0.625  0.000 -0.001  0.000
 -0.000  0.000  0.461  0.001  0.005
  0.056 -0.001  0.001  0.603 -0.000
  0.000  0.000  0.005 -0.000  0.469
atom   10   Tr[ns(na)] =   5.08221
    eigenvalues:
  0.334  0.394  0.505  0.535  0.774
    eigenvectors:
  0.000  0.000  1.000  0.000  0.000
  0.000  1.000  0.000  0.000  0.000
  1.000  0.000  0.000  0.000  0.000
  0.000  0.000  0.000  0.000  1.000
  0.000  0.000  0.000  1.000  0.000
    occupations:
  0.505  0.000  0.001  0.002  0.000
  0.000  0.394  0.000 -0.000  0.001
  0.001  0.000  0.334 -0.002 -0.000
  0.002 -0.000 -0.002  0.774  0.000
  0.000  0.001 -0.000  0.000  0.535
atom   16   Tr[ns(na)] =   5.12975
    eigenvalues:
  0.343  0.348  0.514  0.591  0.768
    eigenvectors:
  0.000  0.000  0.001  0.349  0.650
  0.000  0.000  0.999  0.001  0.000
  0.403  0.597  0.000  0.000  0.000
  0.000  0.000  0.000  0.650  0.349
  0.597  0.403  0.000  0.000  0.000
    occupations:
  0.706  0.005  0.002 -0.084  0.003
  0.005  0.514  0.001 -0.001  0.001
  0.002  0.001  0.346 -0.001  0.003
 -0.084 -0.001 -0.001  0.653 -0.002
  0.003  0.001  0.003 -0.002  0.345
atom   17   Tr[ns(na)] =   5.18207
    eigenvalues:
  0.353  0.374  0.552  0.587  0.725
    eigenvectors:
  0.003  0.000  0.000  0.996  0.000
  0.996  0.000  0.000  0.003  0.001
  0.000  1.000  0.000  0.000  0.000
  0.001  0.000  0.000  0.001  0.999
  0.000  0.000  1.000  0.000  0.000
    occupations:
  0.586  0.013  0.000 -0.003 -0.000
  0.013  0.354 -0.000 -0.011  0.000
  0.000 -0.000  0.374 -0.000  0.001
 -0.003 -0.011 -0.000  0.725  0.000
 -0.000  0.000  0.001  0.000  0.552
atom   22   Tr[ns(na)] =   5.26505
    eigenvalues:
  0.453  0.458  0.472  0.624  0.625
    eigenvectors:
  0.871  0.005  0.000  0.110  0.013
  0.000  0.000  0.000  0.109  0.891
  0.004  0.826  0.170  0.000  0.000
  0.123  0.001  0.000  0.780  0.096
  0.002  0.168  0.830  0.000  0.000
    occupations:
  0.474 -0.000 -0.000  0.056 -0.000
 -0.000  0.625 -0.000  0.001  0.000
 -0.000 -0.000  0.461  0.001 -0.005
  0.056  0.001  0.001  0.603  0.000
 -0.000  0.000 -0.005  0.000  0.469
atom   23   Tr[ns(na)] =   5.21136
    eigenvalues:
  0.337  0.496  0.558  0.596  0.619
    eigenvectors:
  0.002  0.000  0.000  0.764  0.234
  0.000  0.994  0.006  0.000  0.000
  0.998  0.000  0.000  0.001  0.001
  0.000  0.000  0.000  0.235  0.765
  0.000  0.006  0.994  0.000  0.000
    occupations:
  0.601  0.000  0.013  0.009 -0.000
  0.000  0.496  0.000 -0.000 -0.005
  0.013  0.000  0.338  0.004  0.000
  0.009 -0.000  0.004  0.613 -0.000
 -0.000 -0.005  0.000 -0.000  0.558
N of occupied +U levels =  41.4506417
 --- exit write_ns ---

[...]

          k = 0.2500-0.4237 0.0000 ( 32188 PWs)   bands (ev):

[...]

          k =-0.2500 0.2118 0.0000 ( 32165 PWs)   bands (ev):

   -56.1973 -56.1292 -55.7195 -55.6618 -55.6054 -55.5873 -55.5238 -55.4118
   -32.9661 -32.4157 -32.2828 -32.2276 -32.2247 -32.2143 -32.2051 -32.1888
   -32.1438 -32.0326 -32.0013 -31.9825 -31.9328 -31.8964 -31.8581 -31.6349
   -31.6161 -31.5041 -31.4917 -31.4117 -31.3512 -31.3440 -31.2389 -31.2137
   -22.4294 -20.1476 -19.9847 -19.2205 -19.0284 -18.7507 -18.7141 -18.7059
   -18.6726 -18.6187 -18.5895 -18.5761 -17.8738 -17.8355 -17.8292 -17.7762
   -17.7643 -17.7444 -17.5970 -16.0471  -8.7555  -8.3265  -7.7209  -7.3393
    -6.9859  -6.8809  -6.7018  -6.4501  -6.3161  -6.2879  -6.1860  -6.0776
    -6.0595  -6.0449  -5.7932  -5.7545  -5.6782  -5.4148  -5.3921  -5.3358
    -5.2909  -5.1435  -4.9337  -4.8589  -4.7376  -4.5476  -4.3899  -4.3730
    -4.2870  -4.1639  -4.0546  -4.0007  -3.9705  -3.9258  -3.8054  -3.7587
    -3.6910  -3.6734  -3.6418  -3.5698  -3.4378  -3.3407  -3.2794  -3.2629
    -3.1823  -3.0436  -3.0075  -2.9123  -2.8392  -2.8058  -2.7239  -2.5691
    -2.5066  -2.4564  -2.3642  -2.3327  -2.0168  -1.8536  -0.7793  -0.7038
     0.1986   0.2874   1.3484   1.5677   1.8134   1.8922   2.0025   2.0535
     2.1605   2.2966   2.4683   2.5266   2.5343   2.6867   2.7362   2.8064
     2.8199   2.9402   3.0320   3.0866   3.1946   3.2061   3.3308   3.5638
     3.8655   4.2158   4.3660   4.4281   4.7045   4.7966   4.9835   5.1676
     5.1945   5.2549   5.3626   5.4934   5.5190   5.6909   5.8176   5.8762
     5.9447   6.0375   6.0611   6.1661   6.4139   6.4931   6.5539   6.7053
     6.7712   6.7992   6.8654   7.0231   7.1284   7.3114   7.3536   7.4538
     7.5703   7.7645   7.8921   8.0081   8.0663   8.1454   8.3072   8.3387
     8.5115   8.5909   8.7312   8.7987   8.9458   8.9649   9.0604   9.2586
     9.3075   9.4218   9.4815   9.5604   9.6657   9.7883   9.8737   9.9520
    10.0598  10.1335  10.2176  10.3345  10.4192  10.4570  10.6102  10.7832
    10.8673  10.9913  11.0316  11.1059  11.1710  11.2283  11.3146  11.3892
    11.4807  11.5889  11.6116  11.6570  11.7027  11.8720  11.9102  12.0043
    12.1187  12.1812  12.2259  12.3301  12.4560  12.5515  12.6066  12.7099
    12.7494  12.8004  12.8620  12.9229  12.9438  13.0077  13.0566  13.1871
    13.2257  13.3054  13.3337  13.4220  13.5346  13.5881  13.6458  13.7181
    13.7664  13.8667  13.9112  13.9999  14.0494  14.0812  14.1338  14.2388
    14.3108  14.4016  14.4291  14.4864  14.6575  14.7509  14.8117  14.8807
    14.9554  15.0937  15.1695  15.2432  15.3064  15.3179  15.4093  15.4525
    15.5015  15.5517  15.5846  15.6982  15.7687  15.8104  15.8744  15.8993
    15.9855  16.0543  16.1240  16.2003  16.2889  16.3716  16.3923  16.4363
    16.5568  16.6770  16.7091  16.7432  16.7854  16.8767  16.9233  17.0389
    17.0709  17.1144  17.1803  17.2393  17.3191  17.3813  17.4854  17.5072
    17.5680  17.6274  17.6913  17.8270  17.8761  17.9350  17.9673  18.0685
    18.1211  18.2155  18.2940  18.3554  18.4131  18.5546  18.5856  18.6445
    18.6511  18.7539  18.8216  18.8752  18.9698  19.0133  19.0848  19.0987
    19.2048  19.2806  19.3034  19.3768  19.4321  19.4617  19.5212  19.5985
    19.6782  19.7455  19.7798  19.8139  19.8850  19.9167  19.9796  20.0370
    20.0622  20.1349  20.1714  20.2416  20.2911  20.3647  20.4263

     the Fermi energy is     1.2097 ev

!    total energy              =   -1592.18850375 Ry
     Harris-Foulkes estimate   =   -1592.18850376 Ry
     estimated scf accuracy    <          7.8E-09 Ry

     The total energy is the sum of the following terms:

     one-electron contribution =  -19318.15469289 Ry
     hartree contribution      =    9692.44015747 Ry
     xc contribution           =    -294.71894359 Ry
     ewald contribution        =    8324.82600238 Ry
     Hubbard energy            =       3.41955289 Ry
     smearing contrib. (-TS)   =      -0.00058003 Ry

     convergence has been achieved in  11 iterations

     Forces acting on atoms (Ry/au):

     negative rho (up, down):  0.341E-02 0.000E+00
     atom    1 type  1   force =     0.00146763   -0.00028601    0.00052787
     atom    2 type  1   force =    -0.00009339    0.00048781    0.00039086
     atom    3 type  2   force =     0.02894516   -0.00007714   -0.00030684
     atom    4 type  2   force =    -0.00291674    0.00005300    0.00041469
     atom    5 type  1   force =    -0.00183788   -0.02571693    0.00010603
     atom    6 type  1   force =    -0.00163258    0.02556141    0.00011113
     atom    7 type  1   force =    -0.00015093    0.00007113    0.00019755
     atom    8 type  1   force =     0.00125237    0.00089691   -0.00021919
     atom    9 type  2   force =     0.00059106   -0.00030270    0.00007462
     atom   10 type  2   force =     0.00001454   -0.00032382   -0.00013717
     atom   11 type  1   force =    -0.00303215    0.00262336   -0.00031525
     atom   12 type  1   force =    -0.00092051    0.00150997   -0.00024933
     atom   13 type  1   force =     0.00027392   -0.00130696    0.00018827
     atom   14 type  1   force =     0.00130123   -0.00000832    0.00047887
     atom   15 type  1   force =    -0.00009424    0.00016754   -0.00072389
     atom   16 type  2   force =    -0.02842588   -0.00014087   -0.00032597
     atom   17 type  2   force =    -0.00419606   -0.00000339    0.00030462
     atom   18 type  1   force =     0.00267588   -0.02551866    0.00005997
     atom   19 type  1   force =     0.00231432    0.02540215    0.00007389
     atom   20 type  1   force =    -0.00012382   -0.00439072   -0.00003119
     atom   21 type  1   force =     0.00130436    0.00067274   -0.00018499
     atom   22 type  2   force =    -0.00071459   -0.00030654    0.00007297
     atom   23 type  2   force =     0.00001296    0.00169494   -0.00007845
     atom   24 type  1   force =     0.00303701    0.00261497   -0.00032377
     atom   25 type  1   force =     0.00093122    0.00152320   -0.00025555
     atom   26 type  1   force =     0.00024769   -0.00445946    0.00034401
     atom   27 type  3   force =     0.00000613    0.00005522    0.00056261
     atom   28 type  3   force =     0.00000538   -0.00029855   -0.00057521
     atom   29 type  3   force =    -0.00014515    0.00002579    0.00040063
     atom   30 type  3   force =    -0.00009693   -0.00000526    0.00042684
     atom   31 type  1   force =     0.00000282    0.00024549    0.00044092
     atom   32 type  1   force =    -0.00000066   -0.00040782   -0.00064724
     atom   33 type  3   force =    -0.00000217   -0.00005250   -0.00080231

     Total force =     0.002219     Total SCF correction =     0.000263
     SCF correction compared to forces is large: reduce conv_thr to get better values

     entering subroutine stress ...

     negative rho (up, down):  0.341E-02 0.000E+00
          total   stress  (Ry/bohr**3)                   (kbar)     P=   -2.35
  -0.00001464  -0.00000005   0.00000064         -2.15     -0.01      0.09
  -0.00000005   0.00000216   0.00000002         -0.01      0.32      0.00
   0.00000064   0.00000002  -0.00003551          0.09      0.00     -5.22

     bfgs converged in  15 scf cycles and  14 bfgs steps
     (criteria: energy < 0.10E-03, force < 0.10E-02)

     End of BFGS Geometry Optimization

     Final energy   =   -1592.1885037546 Ry
Begin final coordinates

ATOMIC_POSITIONS (crystal)
O0       0.000000000   0.000000000   0.371682008    0   0   1
O0       0.000000000   0.500000000   0.387428484    0   0   1
Nb1      0.250000000   0.500000000   0.443051337    0   0   1
Nb1      0.000000000   0.000000000   0.444478819    0   0   1
O0       0.250000000   0.790000000   0.447402429    0   0   1
O0       0.250000000   0.210000000   0.447364651    0   0   1
O0       0.000000000   0.500000000   0.499346807    0   0   1
O0       0.000000000   0.000000000   0.524063152    0   0   1
Nb1      0.250000000   0.000000000   0.577753611    0   0   1
Nb1      0.000000000   0.500000000   0.568420877    0   0   1
O0       0.250000000   0.710000000   0.577564287    0   0   1
O0       0.250000000   0.290000000   0.578065853    0   0   1
O0       0.000000000   0.000000000   0.622140778    0   0   1
O0       0.500000000   0.000000000   0.371917011    0   0   1
O0       0.500000000   0.500000000   0.387919155    0   0   1
Nb1      0.750000000   0.500000000   0.443059200    0   0   1
Nb1      0.500000000   0.000000000   0.444759343    0   0   1
O0       0.750000000   0.790000000   0.447372559    0   0   1
O0       0.750000000   0.210000000   0.447348344    0   0   1
O0       0.500000000   0.500000000   0.500452044    0   0   1
O0       0.500000000   0.000000000   0.524131518    0   0   1
Nb1      0.750000000   0.000000000   0.577760733    0   0   1
Nb1      0.500000000   0.500000000   0.575565060    0   0   1
O0       0.750000000   0.710000000   0.577562208    0   0   1
O0       0.750000000   0.290000000   0.578064624    0   0   1
O0       0.500000000   0.000000000   0.621815089    0   0   1
H2      -0.000429900   0.505246100   0.351244977
H2       0.499589214   0.500056980   0.351712691
H2       0.151231202   0.000914101   0.356279102
H2       0.650966216   0.000615637   0.356398445
O0       0.499986501   0.510313831   0.649482551
O0       0.499990022   0.348319204   0.682950738
H2       0.499991008   0.417930705   0.714701515
End final coordinates

     General routines

     Parallel routines
     Hubbard U routines

   This run was terminated on:  23:50:28   1Jun2014

   JOB DONE.
Running PBS batch system epilogue script
Job id: 373368.audhumbla.fysik.dtu.dk
Username: zhonxu
Groupname: campgst
Jobname: NbO2/Eads-2-layers/OOH-U-5.0
Sessionid: 31823
Queuename: verylong
Accounting:
This job has allocated the following 16 nodes:
a092 a092 a092 a092 a092 a092 a092 a092 a002 a002 a002 a002 a002 a002 a002 a002
Finished epilogue job 373368.audhumbla.fysik.dtu.dk for zhonxu