     Program PWSCF v.5.0.2 (svn rev. 9656) starts on 24Jan2014 at 10:35:22

     Current dimensions of program PWSCF are:
     Max number of different atomic species (ntypx) = 10
     Max number of k-points (npk) =  40000
     Max angular momentum in pseudopotentials (lmaxx) =  3
     Reading input from MoO2-v-0.95.in

     Subspace diagonalization in iterative solution of the eigenvalue problem:
     a serial algorithm will be used

     bravais-lattice index     =            0
     lattice parameter (alat)  =       8.6936  a.u.
     unit-cell volume          =     423.4283 (a.u.)^3
     number of atoms/cell      =            6
     number of atomic types    =            2
     number of electrons       =        52.00
     number of Kohn-Sham states=           78
     kinetic-energy cutoff     =      40.0000  Ry
     charge density cutoff     =     500.0000  Ry
     convergence threshold     =      1.0E-06
     mixing beta               =       0.3000
     number of iterations used =            8  plain     mixing
     Exchange-correlation      = SLA  PW   PBE  PBE ( 1 4 3 4 0)
     EXX-fraction              =        0.00
     nstep                     =           50

     celldm(1)=   8.693570  celldm(2)=   0.000000  celldm(3)=   0.000000
     celldm(4)=   0.000000  celldm(5)=   0.000000  celldm(6)=   0.000000

     crystal axes: (cart. coord. in units of alat)
               a(1) = (   1.000000   0.000000   0.000000 )
               a(2) = (   0.000000   1.000000   0.000000 )
               a(3) = (   0.000000   0.000000   0.644444 )

     reciprocal axes: (cart. coord. in units 2 pi/alat)
               b(1) = (  1.000000  0.000000  0.000000 )
               b(2) = (  0.000000  1.000000  0.000000 )
               b(3) = (  0.000000  0.000000  1.551724 )

     PseudoPot. # 1 for Mo read from file:
     /home/camp/zhonxu/pseudo/mo_pbe_v1.uspp.F.UPF
     MD5 check sum: 30c4dcd161f5d35cd49bb5239c51a633
     Pseudo is Ultrasoft + core correction, Zval = 14.0
     Generated by new atomic code, or converted to UPF format
     Using radial grid of  889 points,  6 beta functions with:
                l(1) =   0
                l(2) =   0
                l(3) =   1
                l(4) =   1
                l(5) =   2
                l(6) =   2
     Q(r) pseudized with  6 coefficients,  rinner =    1.000   1.000   1.000
                                                       1.000   1.000

     PseudoPot. # 2 for O  read from file:
     /home/camp/zhonxu/pseudo/o_pbe_v1.01.uspp.F.UPF
     MD5 check sum: 2bcb18d16ea4b960afae9ec6d52f22d2
     Pseudo is Ultrasoft + core correction, Zval =  6.0
     Generated by new atomic code, or converted to UPF format
     Using radial grid of  737 points,  5 beta functions with:
                l(1) =   0
                l(2) =   0
                l(3) =   1
                l(4) =   1
                l(5) =   2
     Q(r) pseudized with  8 coefficients,  rinner =    0.900   0.900   0.900
                                                       0.900   0.900

     atomic species   valence    mass     pseudopotential
        Mo0           14.00    95.94000     Mo( 1.00)
        O1             6.00    15.99940     O ( 1.00)

     Starting magnetic structure
     atomic species   magnetization
        Mo0          0.600
        O1           0.000

     16 Sym. Ops., with inversion, found ( 8 have fractional translation)

   Cartesian axes

     site n.     atom                  positions (alat units)
         1           Mo0 tau(   1) = (   0.0000000   0.0000000   0.0000000  )
         2           Mo0 tau(   2) = (   0.5000000   0.5000000   0.3222222  )
         3           O1  tau(   3) = (   0.3050000   0.3050000   0.0000000  )
         4           O1  tau(   4) = (  -0.3050000  -0.3050000   0.0000000  )
         5           O1  tau(   5) = (   0.8050000   0.1950000   0.3222222  )
         6           O1  tau(   6) = (   0.1950000   0.8050000   0.3222222  )

     number of k points=    36  Methfessel-Paxton smearing, width (Ry)=  0.0100
                       cart. coord. in units 2pi/alat
        k(    1) = (   0.0000000   0.0000000   0.0000000), wk =   0.0080000
        k(    2) = (   0.0000000   0.0000000   0.3103448), wk =   0.0160000
        k(    3) = (   0.0000000   0.0000000   0.6206897), wk =   0.0160000
        k(    4) = (   0.0000000   0.2000000   0.0000000), wk =   0.0320000
        k(    5) = (   0.0000000   0.2000000   0.3103448), wk =   0.0640000
        k(    6) = (   0.0000000   0.2000000   0.6206897), wk =   0.0640000
        k(    7) = (   0.0000000   0.4000000   0.0000000), wk =   0.0320000
        k(    8) = (   0.0000000   0.4000000   0.3103448), wk =   0.0640000
        k(    9) = (   0.0000000   0.4000000   0.6206897), wk =   0.0640000
        k(   10) = (   0.2000000   0.2000000   0.0000000), wk =   0.0320000
        k(   11) = (   0.2000000   0.2000000   0.3103448), wk =   0.0640000
        k(   12) = (   0.2000000   0.2000000   0.6206897), wk =   0.0640000
        k(   13) = (   0.2000000   0.4000000   0.0000000), wk =   0.0640000
        k(   14) = (   0.2000000   0.4000000   0.3103448), wk =   0.1280000
        k(   15) = (   0.2000000   0.4000000   0.6206897), wk =   0.1280000
        k(   16) = (   0.4000000   0.4000000   0.0000000), wk =   0.0320000
        k(   17) = (   0.4000000   0.4000000   0.3103448), wk =   0.0640000
        k(   18) = (   0.4000000   0.4000000   0.6206897), wk =   0.0640000
        k(   19) = (   0.0000000   0.0000000   0.0000000), wk =   0.0080000
        k(   20) = (   0.0000000   0.0000000   0.3103448), wk =   0.0160000
        k(   21) = (   0.0000000   0.0000000   0.6206897), wk =   0.0160000
        k(   22) = (   0.0000000   0.2000000   0.0000000), wk =   0.0320000
        k(   23) = (   0.0000000   0.2000000   0.3103448), wk =   0.0640000
        k(   24) = (   0.0000000   0.2000000   0.6206897), wk =   0.0640000
        k(   25) = (   0.0000000   0.4000000   0.0000000), wk =   0.0320000
        k(   26) = (   0.0000000   0.4000000   0.3103448), wk =   0.0640000
        k(   27) = (   0.0000000   0.4000000   0.6206897), wk =   0.0640000
        k(   28) = (   0.2000000   0.2000000   0.0000000), wk =   0.0320000
        k(   29) = (   0.2000000   0.2000000   0.3103448), wk =   0.0640000
        k(   30) = (   0.2000000   0.2000000   0.6206897), wk =   0.0640000
        k(   31) = (   0.2000000   0.4000000   0.0000000), wk =   0.0640000
        k(   32) = (   0.2000000   0.4000000   0.3103448), wk =   0.1280000
        k(   33) = (   0.2000000   0.4000000   0.6206897), wk =   0.1280000
        k(   34) = (   0.4000000   0.4000000   0.0000000), wk =   0.0320000
        k(   35) = (   0.4000000   0.4000000   0.3103448), wk =   0.0640000
        k(   36) = (   0.4000000   0.4000000   0.6206897), wk =   0.0640000

     Largest allocated arrays     est. size (Mb)     dimensions
     Largest temporary arrays     est. size (Mb)     dimensions

     Check: negative/imaginary core charge=   -0.000008    0.000000

     Initial potential from superposition of free atoms

     starting charge   51.99787, renormalised to   52.00000
     Starting wfc are   42 randomized atomic wfcs

     Self-consistent Calculation

     iteration #  1     ecut=    40.00 Ry     beta=0.30
     Davidson diagonalization with overlap
     ethr =  1.00E-02,  avg # of iterations =  5.4

     negative rho (up, down):  0.000E+00 0.185E-03

     total energy              =    -406.87817335 Ry
     Harris-Foulkes estimate   =    -407.06870893 Ry
     estimated scf accuracy    <       2.45870124 Ry

     total magnetization       =     4.00 Bohr mag/cell
     absolute magnetization    =     4.91 Bohr mag/cell

[...]

     End of self-consistent calculation

 ------ SPIN UP ------------

          k = 0.0000 0.0000 0.0000 (  1843 PWs)   bands (ev):

   -47.8059 -47.7849 -22.0696 -22.0696 -21.9779 -21.9221 -21.8322 -21.8322
    -6.5223  -5.7350  -4.3551  -4.3551   5.2028   5.3738   6.3024   7.0350
     7.0350   9.3595   9.3595   9.9103  10.8820  11.0223  11.0223  11.6431
    13.4231  13.8590  14.2385  14.2385  14.3372  17.6602  17.7102  19.5071
    20.7029  20.7029  22.1970  23.3448  23.3448  26.8555  28.8841  29.5820
    29.9978  30.2634  31.4146  31.4146  33.9459  34.0897  34.8013  34.8013
    35.7244  35.7244  37.0511  40.6802  40.6802  40.9522  41.5124  41.7801
    43.6288  44.5204  44.5204  45.0046  45.1812  45.1837  45.1837  45.2552
    46.5315  47.2199  47.2199  47.8554  49.3620  51.4947  51.7594  51.7594
    52.3016  52.9386  52.9452  52.9452  53.9039  54.2132

[...]

 ------ SPIN DOWN ----------

[...]

     the Fermi energy is    14.9204 ev

!    total energy              =    -407.72974012 Ry
     Harris-Foulkes estimate   =    -407.72973864 Ry
     estimated scf accuracy    <       0.00000080 Ry

     The total energy is the sum of the following terms:

     one-electron contribution =    -102.61653997 Ry
     hartree contribution      =      82.68603867 Ry
     xc contribution           =     -67.84130853 Ry
     ewald contribution        =    -319.95806539 Ry
     smearing contrib. (-TS)   =       0.00013510 Ry

[...]

     convergence has been achieved in  16 iterations

     Forces acting on atoms (Ry/au):

     negative rho (up, down):  0.000E+00 0.103E-03
     atom    1 type  1   force =     0.00000000    0.00000000    0.00000000
     atom    2 type  1   force =     0.00000000    0.00000000    0.00000000
     atom    3 type  2   force =    -0.05366826   -0.05366826   -0.00000000
     atom    4 type  2   force =     0.05366826    0.05366826    0.00000000
     atom    5 type  2   force =    -0.05366826    0.05366826   -0.00000000
     atom    6 type  2   force =     0.05366826   -0.05366826   -0.00000000

     Total force =     0.151797     Total SCF correction =     0.000094

     entering subroutine stress ...

     negative rho (up, down):  0.000E+00 0.103E-03
          total   stress  (Ry/bohr**3)                   (kbar)     P=  267.08
   0.00195156   0.00000000   0.00000000        287.08      0.00      0.00
   0.00000000   0.00195156   0.00000000          0.00    287.08      0.00
   0.00000000   0.00000000   0.00154369          0.00      0.00    227.08

     Volume is kept fixed: isostatic pressure set to zero

     BFGS Geometry Optimization

     number of scf cycles    =   1
     number of bfgs steps    =   0

     enthalpy new            =    -407.7297401198 Ry

     new trust radius        =       0.0758983746 bohr
     new conv_thr            =       0.0000010000 Ry

     new unit-cell volume =    423.42830 a.u.^3 (    62.74560 Ang^3 )

CELL_PARAMETERS (alat=  8.69356955)
   1.003410571   0.000000000   0.000000000
   0.000000000   1.003410571   0.000000000
   0.000000000   0.000000000   0.640070984

ATOMIC_POSITIONS (crystal)
Mo0      0.000000000   0.000000000   0.000000000    0   0   0
Mo0      0.500000000   0.500000000   0.500000000    0   0   0
O1       0.298826672   0.298826672   0.000000000    1   1   0
O1      -0.298826672  -0.298826672   0.000000000    1   1   0
O1       0.798826672   0.201173328   0.500000000    1   1   0
O1       0.201173328   0.798826672   0.500000000    1   1   0

[...]
        k(   18) = (   0.3986404   0.3986404   0.6249307), wk =   0.0640000
        k(   19) = (   0.0000000   0.0000000   0.0000000), wk =   0.0080000
        k(   20) = (   0.0000000   0.0000000   0.3124653), wk =   0.0160000
        k(   21) = (   0.0000000   0.0000000   0.6249307), wk =   0.0160000
        k(   22) = (   0.0000000   0.1993202   0.0000000), wk =   0.0320000
        k(   23) = (   0.0000000   0.1993202   0.3124653), wk =   0.0640000
        k(   24) = (   0.0000000   0.1993202   0.6249307), wk =   0.0640000
        k(   25) = (   0.0000000   0.3986404   0.0000000), wk =   0.0320000
        k(   26) = (   0.0000000   0.3986404   0.3124653), wk =   0.0640000
        k(   27) = (   0.0000000   0.3986404   0.6249307), wk =   0.0640000
        k(   28) = (   0.1993202   0.1993202   0.0000000), wk =   0.0320000
        k(   29) = (   0.1993202   0.1993202   0.3124653), wk =   0.0640000
        k(   30) = (   0.1993202   0.1993202   0.6249307), wk =   0.0640000
        k(   31) = (   0.1993202   0.3986404   0.0000000), wk =   0.0640000
        k(   32) = (   0.1993202   0.3986404   0.3124653), wk =   0.1280000
        k(   33) = (   0.1993202   0.3986404   0.6249307), wk =   0.1280000
        k(   34) = (   0.3986404   0.3986404   0.0000000), wk =   0.0320000
        k(   35) = (   0.3986404   0.3986404   0.3124653), wk =   0.0640000
        k(   36) = (   0.3986404   0.3986404   0.6249307), wk =   0.0640000

[...]

     enthalpy old            =    -407.7297401198 Ry
     enthalpy new            =    -407.7505614580 Ry

     CASE: enthalpy_new < enthalpy_old

[...]

     Total force =     0.001398     Total SCF correction =     0.000003

[...]

     number of scf cycles    =   7
     number of bfgs steps    =   6

     enthalpy old            =    -407.8143054922 Ry
     enthalpy new            =    -407.8159366842 Ry

     CASE: enthalpy_new < enthalpy_old

     new trust radius        =       0.0044548359 bohr
     new conv_thr            =       0.0000000100 Ry

     new unit-cell volume =    423.42830 a.u.^3 (    62.74560 Ang^3 )

[...]

ATOMIC_POSITIONS (crystal)
Mo0      0.000000000   0.000000000   0.000000000    0   0   0
Mo0      0.500000000   0.500000000   0.500000000    0   0   0
O1       0.280153197   0.280153197   0.000000000    1   1   0
O1      -0.280153197  -0.280153197   0.000000000    1   1   0
O1       0.780153197   0.219846803   0.500000000    1   1   0
O1       0.219846803   0.780153197   0.500000000    1   1   0

     NEW-OLD atomic charge density approx. for the potential
     NEW k-points:
        k(    1) = (   0.0000000   0.0000000   0.0000000), wk =   0.0080000
        k(    2) = (   0.0000000   0.0000000   0.3461965), wk =   0.0160000
        k(    3) = (   0.0000000   0.0000000   0.6923929), wk =   0.0160000
        k(    4) = (   0.0000000   0.1893612   0.0000000), wk =   0.0320000
        k(    5) = (   0.0000000   0.1893612   0.3461965), wk =   0.0640000
        k(    6) = (   0.0000000   0.1893612   0.6923929), wk =   0.0640000
        k(    7) = (   0.0000000   0.3787223   0.0000000), wk =   0.0320000
        k(    8) = (   0.0000000   0.3787223   0.3461965), wk =   0.0640000
        k(    9) = (   0.0000000   0.3787223   0.6923929), wk =   0.0640000
        k(   10) = (   0.1893612   0.1893612   0.0000000), wk =   0.0320000
        k(   11) = (   0.1893612   0.1893612   0.3461965), wk =   0.0640000
        k(   12) = (   0.1893612   0.1893612   0.6923929), wk =   0.0640000
        k(   13) = (   0.1893612   0.3787223   0.0000000), wk =   0.0640000
        k(   14) = (   0.1893612   0.3787223   0.3461965), wk =   0.1280000
        k(   15) = (   0.1893612   0.3787223   0.6923929), wk =   0.1280000
        k(   16) = (   0.3787223   0.3787223   0.0000000), wk =   0.0320000
        k(   17) = (   0.3787223   0.3787223   0.3461965), wk =   0.0640000
        k(   18) = (   0.3787223   0.3787223   0.6923929), wk =   0.0640000
        k(   19) = (   0.0000000   0.0000000   0.0000000), wk =   0.0080000
        k(   20) = (   0.0000000   0.0000000   0.3461965), wk =   0.0160000
        k(   21) = (   0.0000000   0.0000000   0.6923929), wk =   0.0160000
        k(   22) = (   0.0000000   0.1893612   0.0000000), wk =   0.0320000
        k(   23) = (   0.0000000   0.1893612   0.3461965), wk =   0.0640000
        k(   24) = (   0.0000000   0.1893612   0.6923929), wk =   0.0640000
        k(   25) = (   0.0000000   0.3787223   0.0000000), wk =   0.0320000
        k(   26) = (   0.0000000   0.3787223   0.3461965), wk =   0.0640000
        k(   27) = (   0.0000000   0.3787223   0.6923929), wk =   0.0640000
        k(   28) = (   0.1893612   0.1893612   0.0000000), wk =   0.0320000
        k(   29) = (   0.1893612   0.1893612   0.3461965), wk =   0.0640000
        k(   30) = (   0.1893612   0.1893612   0.6923929), wk =   0.0640000
        k(   31) = (   0.1893612   0.3787223   0.0000000), wk =   0.0640000
        k(   32) = (   0.1893612   0.3787223   0.3461965), wk =   0.1280000
        k(   33) = (   0.1893612   0.3787223   0.6923929), wk =   0.1280000
        k(   34) = (   0.3787223   0.3787223   0.0000000), wk =   0.0320000
        k(   35) = (   0.3787223   0.3787223   0.3461965), wk =   0.0640000
        k(   36) = (   0.3787223   0.3787223   0.6923929), wk =   0.0640000

[...]

     Threshold (ethr) on eigenvalues was too large:
     Diagonalizing with lowered threshold

     Davidson diagonalization with overlap
     ethr =  4.77E-09,  avg # of iterations =  2.0

[...]

     Total force =     0.000061     Total SCF correction =     0.000060
     SCF correction compared to forces is large: reduce conv_thr to get better values

[...]

     Volume is kept fixed: isostatic pressure set to zero

     bfgs converged in   8 scf cycles and   7 bfgs steps
     (criteria: energy < 0.10E-03, force < 0.10E-02, cell < 0.50E+00)

     End of BFGS Geometry Optimization

     Final enthalpy =    -407.8159465744 Ry
Begin final coordinates
     new unit-cell volume =    423.42830 a.u.^3 (    62.74560 Ang^3 )

CELL_PARAMETERS (alat=  8.69356955)
   1.056182730   0.000000000   0.000000000
   0.000000000   1.056182730   0.000000000
   0.000000000   0.000000000   0.577706641

ATOMIC_POSITIONS (crystal)
Mo0      0.000000000   0.000000000   0.000000000    0   0   0
Mo0      0.500000000   0.500000000   0.500000000    0   0   0
O1       0.280153197   0.280153197   0.000000000    1   1   0
O1      -0.280153197  -0.280153197   0.000000000    1   1   0
O1       0.780153197   0.219846803   0.500000000    1   1   0
O1       0.219846803   0.780153197   0.500000000    1   1   0
End final coordinates

     A final scf calculation at the relaxed structure.
     The G-vectors are recalculated for the final unit cell
     Results may differ from those at the preceding step.

     bravais-lattice index     =            0
     lattice parameter (alat)  =       8.6936  a.u.
     unit-cell volume          =     423.4283 (a.u.)^3
     number of atoms/cell      =            6
     number of atomic types    =            2
     number of electrons       =        52.00
     number of Kohn-Sham states=           78
     kinetic-energy cutoff     =      40.0000  Ry
     charge density cutoff     =     500.0000  Ry
     convergence threshold     =      1.0E-08
     mixing beta               =       0.3000
     number of iterations used =            8  plain     mixing
     Exchange-correlation      = SLA  PW   PBE  PBE ( 1 4 3 4 0)
     EXX-fraction              =        0.00

     celldm(1)=   8.693570  celldm(2)=   0.000000  celldm(3)=   0.000000
     celldm(4)=   0.000000  celldm(5)=   0.000000  celldm(6)=   0.000000

     crystal axes: (cart. coord. in units of alat)
               a(1) = (   1.056183   0.000000   0.000000 )
               a(2) = (   0.000000   1.056183   0.000000 )
               a(3) = (   0.000000   0.000000   0.577707 )

     reciprocal axes: (cart. coord. in units 2 pi/alat)
               b(1) = (  0.946806  0.000000  0.000000 )
               b(2) = (  0.000000  0.946806  0.000000 )
               b(3) = (  0.000000  0.000000  1.730982 )

     PseudoPot. # 1 for Mo read from file:
     /home/camp/zhonxu/pseudo/mo_pbe_v1.uspp.F.UPF
     MD5 check sum: 30c4dcd161f5d35cd49bb5239c51a633
     Pseudo is Ultrasoft + core correction, Zval = 14.0
     Generated by new atomic code, or converted to UPF format
     Using radial grid of  889 points,  6 beta functions with:
                l(1) =   0
                l(2) =   0
                l(3) =   1
                l(4) =   1
                l(5) =   2
                l(6) =   2
     Q(r) pseudized with  6 coefficients,  rinner =    1.000   1.000   1.000
                                                       1.000   1.000

     PseudoPot. # 2 for O  read from file:
     /home/camp/zhonxu/pseudo/o_pbe_v1.01.uspp.F.UPF
     MD5 check sum: 2bcb18d16ea4b960afae9ec6d52f22d2
     Pseudo is Ultrasoft + core correction, Zval =  6.0
     Generated by new atomic code, or converted to UPF format
     Using radial grid of  737 points,  5 beta functions with:
                l(1) =   0
                l(2) =   0
                l(3) =   1
                l(4) =   1
                l(5) =   2
     Q(r) pseudized with  8 coefficients,  rinner =    0.900   0.900   0.900
                                                       0.900   0.900

     atomic species   valence    mass     pseudopotential
        Mo0           14.00    95.94000     Mo( 1.00)
        O1             6.00    15.99940     O ( 1.00)

     Starting magnetic structure
     atomic species   magnetization
        Mo0          0.600
        O1           0.000

     16 Sym. Ops., with inversion, found ( 8 have fractional translation)

   Cartesian axes

     site n.     atom                  positions (alat units)
         1           Mo0 tau(   1) = (   0.0000000   0.0000000   0.0000000  )
         2           Mo0 tau(   2) = (   0.5280914   0.5280914   0.2888533  )
         3           O1  tau(   3) = (   0.2958930   0.2958930   0.0000000  )
         4           O1  tau(   4) = (  -0.2958930  -0.2958930   0.0000000  )
         5           O1  tau(   5) = (   0.8239843   0.2321984   0.2888533  )
         6           O1  tau(   6) = (   0.2321984   0.8239843   0.2888533  )

     number of k points=    36  Methfessel-Paxton smearing, width (Ry)=  0.0100
                       cart. coord. in units 2pi/alat
        k(    1) = (   0.0000000   0.0000000   0.0000000), wk =   0.0080000
        k(    2) = (   0.0000000   0.0000000   0.3461965), wk =   0.0160000
        k(    3) = (   0.0000000   0.0000000   0.6923929), wk =   0.0160000
        k(    4) = (   0.0000000   0.1893612   0.0000000), wk =   0.0320000
        k(    5) = (   0.0000000   0.1893612   0.3461965), wk =   0.0640000
        k(    6) = (   0.0000000   0.1893612   0.6923929), wk =   0.0640000
        k(    7) = (   0.0000000   0.3787223   0.0000000), wk =   0.0320000
        k(    8) = (   0.0000000   0.3787223   0.3461965), wk =   0.0640000
        k(    9) = (   0.0000000   0.3787223   0.6923929), wk =   0.0640000
        k(   10) = (   0.1893612   0.1893612   0.0000000), wk =   0.0320000
        k(   11) = (   0.1893612   0.1893612   0.3461965), wk =   0.0640000
        k(   12) = (   0.1893612   0.1893612   0.6923929), wk =   0.0640000
        k(   13) = (   0.1893612   0.3787223   0.0000000), wk =   0.0640000
        k(   14) = (   0.1893612   0.3787223   0.3461965), wk =   0.1280000
        k(   15) = (   0.1893612   0.3787223   0.6923929), wk =   0.1280000
        k(   16) = (   0.3787223   0.3787223   0.0000000), wk =   0.0320000
        k(   17) = (   0.3787223   0.3787223   0.3461965), wk =   0.0640000
        k(   18) = (   0.3787223   0.3787223   0.6923929), wk =   0.0640000
        k(   19) = (   0.0000000   0.0000000   0.0000000), wk =   0.0080000
        k(   20) = (   0.0000000   0.0000000   0.3461965), wk =   0.0160000
        k(   21) = (   0.0000000   0.0000000   0.6923929), wk =   0.0160000
        k(   22) = (   0.0000000   0.1893612   0.0000000), wk =   0.0320000
        k(   23) = (   0.0000000   0.1893612   0.3461965), wk =   0.0640000
        k(   24) = (   0.0000000   0.1893612   0.6923929), wk =   0.0640000
        k(   25) = (   0.0000000   0.3787223   0.0000000), wk =   0.0320000
        k(   26) = (   0.0000000   0.3787223   0.3461965), wk =   0.0640000
        k(   27) = (   0.0000000   0.3787223   0.6923929), wk =   0.0640000
        k(   28) = (   0.1893612   0.1893612   0.0000000), wk =   0.0320000
        k(   29) = (   0.1893612   0.1893612   0.3461965), wk =   0.0640000
        k(   30) = (   0.1893612   0.1893612   0.6923929), wk =   0.0640000
        k(   31) = (   0.1893612   0.3787223   0.0000000), wk =   0.0640000
        k(   32) = (   0.1893612   0.3787223   0.3461965), wk =   0.1280000
        k(   33) = (   0.1893612   0.3787223   0.6923929), wk =   0.1280000
        k(   34) = (   0.3787223   0.3787223   0.0000000), wk =   0.0320000
        k(   35) = (   0.3787223   0.3787223   0.3461965), wk =   0.0640000
        k(   36) = (   0.3787223   0.3787223   0.6923929), wk =   0.0640000

     Largest allocated arrays     est. size (Mb)     dimensions
     Largest temporary arrays     est. size (Mb)     dimensions

     Check: negative/imaginary core charge=   -0.000008    0.000000

     Initial potential from superposition of free atoms

     starting charge   51.99787, renormalised to   52.00000
     Starting wfc are   42 randomized atomic wfcs

     Self-consistent Calculation

[...]

     total energy              =    -407.81621845 Ry
     Harris-Foulkes estimate   =    -407.81621828 Ry
     estimated scf accuracy    <       0.00000001 Ry

[...]

     iteration # 15     ecut=    40.00 Ry     beta=0.30
     Davidson diagonalization with overlap
     ethr =  2.77E-11,  avg # of iterations =  2.0

     negative rho (up, down):  0.369E-05 0.376E-05

     End of self-consistent calculation

 ------ SPIN UP ------------

[...]

 ------ SPIN DOWN ----------

[...]

          k = 0.3787 0.3787 0.6924 (  1823 PWs)   bands (ev):

   -47.9097 -47.9093 -22.6807 -22.6777 -22.3152 -22.3105 -21.9290 -21.9282
    -5.3617  -5.0979  -4.9054  -4.6082   6.2932   6.6584   6.8491   7.1783
     7.4492   7.8636   8.0673   8.9065   9.6811   9.8939  10.8486  10.9849
    13.9131  14.1479  15.0268  15.4146  16.8593  16.9605  18.7257  19.6812
    20.0669  20.8170  23.8245  24.0804  25.1399  25.2014  28.2023  28.2727
    30.6236  30.8853  30.9713  31.0599  32.5635  32.9519  33.9183  34.4323
    37.5343  37.8110  38.1573  38.6168  40.2666  40.9266  41.9671  42.3560
    43.5078  43.8286  44.3622  45.0504  45.3708  45.8872  46.2216  46.8312
    47.3099  47.4391  47.6880  48.4559  48.9320  49.1058  49.6822  49.7095
    51.2360  52.3487  54.9912  55.2215  55.6309  55.9195

     the Fermi energy is    14.1752 ev

!    total energy              =    -407.81621860 Ry
     Harris-Foulkes estimate   =    -407.81621846 Ry
     estimated scf accuracy    <          5.6E-09 Ry

     The total energy is the sum of the following terms:

     one-electron contribution =    -105.90083180 Ry
     hartree contribution      =      83.92432891 Ry
     xc contribution           =     -67.73453490 Ry
     ewald contribution        =    -318.10508090 Ry
     smearing contrib. (-TS)   =      -0.00009991 Ry

     total magnetization       =     0.00 Bohr mag/cell
     absolute magnetization    =     0.00 Bohr mag/cell

     convergence has been achieved in  15 iterations

     Forces acting on atoms (Ry/au):

     negative rho (up, down):  0.369E-05 0.376E-05
     atom    1 type  1   force =     0.00000000    0.00000000    0.00000000
     atom    2 type  1   force =     0.00000000    0.00000000    0.00000000
     atom    3 type  2   force =    -0.00000587   -0.00000587   -0.00000000
     atom    4 type  2   force =     0.00000587    0.00000587    0.00000000
     atom    5 type  2   force =    -0.00000587    0.00000587   -0.00000000
     atom    6 type  2   force =     0.00000587   -0.00000587   -0.00000000

     Total force =     0.000017     Total SCF correction =     0.000012
     SCF correction compared to forces is large: reduce conv_thr to get better values

     entering subroutine stress ...

     negative rho (up, down):  0.369E-05 0.376E-05
          total   stress  (Ry/bohr**3)                   (kbar)     P=  172.23
   0.00117564   0.00000000   0.00000000        172.94      0.00      0.00
   0.00000000   0.00117564   0.00000000          0.00    172.94      0.00
   0.00000000   0.00000000   0.00116114          0.00      0.00    170.81

     General routines

     Parallel routines

   This run was terminated on:  11: 7:43  24Jan2014

   JOB DONE.