     Program PWSCF v.5.0.2 (svn rev. 9656) starts on 28Mar2014 at  6:31:10

     Current dimensions of program PWSCF are:
     Max number of different atomic species (ntypx) = 10
     Max number of k-points (npk) =  40000
     Max angular momentum in pseudopotentials (lmaxx) =  3
     Reading input from pwscf.in
Warning: card &CELL ignored
Warning: card / ignored

     Subspace diagonalization in iterative solution of the eigenvalue problem:
     a serial algorithm will be used

     bravais-lattice index     =            0
     lattice parameter (alat)  =      12.2076  a.u.
     unit-cell volume          =   10244.9005 (a.u.)^3
     number of atoms/cell      =           50
     number of atomic types    =            3
     number of electrons       =       455.00
     number of Kohn-Sham states=          682
     kinetic-energy cutoff     =      40.0000  Ry
     charge density cutoff     =     500.0000  Ry
     convergence threshold     =      1.0E-06
     mixing beta               =       0.3000
     number of iterations used =            8  plain     mixing
     Exchange-correlation      = SLA  PW   PBE  PBE ( 1 4 3 4 0)
     EXX-fraction              =        0.00
     nstep                     =           50

     celldm(1)=  12.207631  celldm(2)=   0.000000  celldm(3)=   0.000000
     celldm(4)=   0.000000  celldm(5)=   0.000000  celldm(6)=   0.000000

     crystal axes: (cart. coord. in units of alat)
               a(1) = (   1.000000   0.000000   0.000000 )
               a(2) = (   0.000000   1.004836   0.000000 )
               a(3) = (   0.000000   0.000000   5.604262 )

     reciprocal axes: (cart. coord. in units 2 pi/alat)
               b(1) = (  1.000000  0.000000  0.000000 )
               b(2) = (  0.000000  0.995187  0.000000 )
               b(3) = (  0.000000  0.000000  0.178436 )

     PseudoPot. # 1 for O  read from file:
     /home/camp/zhonxu/pseudo/o_pbe_v1.01.uspp.F.UPF
     MD5 check sum: 2bcb18d16ea4b960afae9ec6d52f22d2
     Pseudo is Ultrasoft + core correction, Zval =  6.0
     Generated by new atomic code, or converted to UPF format
     Using radial grid of  737 points,  5 beta functions with:
                l(1) =   0
                l(2) =   0
                l(3) =   1
                l(4) =   1
                l(5) =   2
     Q(r) pseudized with  8 coefficients,  rinner =    0.900   0.900   0.900
                                                       0.900   0.900

     PseudoPot. # 2 for Pt read from file:
     /home/camp/zhonxu/pseudo/pt_pbe_v1.uspp.F.UPF
     MD5 check sum: 4c71d6ad5ef119f1eb26a4d0b7884226
     Pseudo is Ultrasoft + core correction, Zval = 16.0
     Generated by new atomic code, or converted to UPF format
     Using radial grid of  985 points,  6 beta functions with:
                l(1) =   0
                l(2) =   0
                l(3) =   1
                l(4) =   1
                l(5) =   2
                l(6) =   2
     Q(r) pseudized with  8 coefficients,  rinner =    1.300   1.300   1.300
                                                       1.300   1.300

     PseudoPot. # 3 for H  read from file:
     /home/camp/zhonxu/pseudo/h_pbe_v1.uspp.F.UPF
     MD5 check sum: 3408e3ff4ec8b0a4e358431e7e038a48
     Pseudo is Ultrasoft, Zval =  1.0
     Generated by new atomic code, or converted to UPF format
     Using radial grid of  615 points,  2 beta functions with:
                l(1) =   0
                l(2) =   0
     Q(r) pseudized with  8 coefficients,  rinner =    0.700

     atomic species   valence    mass     pseudopotential
        O0             6.00    15.99940     O ( 1.00)
        Pt1           16.00   195.08000     Pt( 1.00)
        H2             1.00     1.00794     H ( 1.00)

      2 Sym. Ops. (no inversion) found

   Cartesian axes

     site n.     atom                  positions (alat units)
         1           O0  tau(   1) = (   0.0000000   0.5024180   1.8575886  )
         2           Pt1 tau(   2) = (   0.2500000   0.5024180   2.0485258  )
         3           Pt1 tau(   3) = (   0.0000000   0.0000000   2.0485258  )
         4           O0  tau(   4) = (   0.2500000   0.8139171   2.0485258  )
         5           O0  tau(   5) = (   0.2500000   0.1909188   2.0485258  )
         6           O0  tau(   6) = (   0.0000000   0.5024180   2.2394070  )
         7           O0  tau(   7) = (   0.0000000   0.0000000   2.3600107  )
         8           Pt1 tau(   8) = (   0.2500000   0.0000000   2.5509479  )
         9           Pt1 tau(   9) = (   0.0000000   0.5024180   2.5509479  )
        10           O0  tau(  10) = (   0.2500000   0.6933368   2.5509479  )
        11           O0  tau(  11) = (   0.2500000   0.3114991   2.5509479  )
        12           O0  tau(  12) = (   0.0000000   0.0000000   2.7418291  )
        13           O0  tau(  13) = (   0.0000000   0.5024180   2.8577252  )
        14           Pt1 tau(  14) = (   0.2500000   0.5024180   3.0464207  )
        15           Pt1 tau(  15) = (   0.0000000   0.0000000   3.0519689  )
        16           O0  tau(  16) = (   0.2500000   0.8129525   3.0573490  )
        17           O0  tau(  17) = (   0.2500000   0.1918835   3.0573490  )
        18           O0  tau(  18) = (   0.0000000   0.5024180   3.2388711  )
        19           O0  tau(  19) = (   0.0000000   0.0000000   3.3644626  )
        20           Pt1 tau(  20) = (   0.2500000   0.0000000   3.5576415  )
        21           Pt1 tau(  21) = (   0.0000000   0.5024180   3.5547273  )
        22           O0  tau(  22) = (   0.2500000   0.6920004   3.5920516  )
        23           O0  tau(  23) = (   0.2500000   0.3128356   3.5920516  )
        24           O0  tau(  24) = (   0.0000000   0.0000000   3.7444315  )
        25           O0  tau(  25) = (   0.5000000   0.5024180   1.8575886  )
        26           Pt1 tau(  26) = (   0.7500000   0.5024180   2.0485258  )
        27           Pt1 tau(  27) = (   0.5000000   0.0000000   2.0485258  )
        28           O0  tau(  28) = (   0.7500000   0.8139171   2.0485258  )
        29           O0  tau(  29) = (   0.7500000   0.1909188   2.0485258  )
        30           O0  tau(  30) = (   0.5000000   0.5024180   2.2394070  )
        31           O0  tau(  31) = (   0.5000000   0.0000000   2.3600107  )
        32           Pt1 tau(  32) = (   0.7500000   0.0000000   2.5509479  )
        33           Pt1 tau(  33) = (   0.5000000   0.5024180   2.5509479  )
        34           O0  tau(  34) = (   0.7500000   0.6933368   2.5509479  )
        35           O0  tau(  35) = (   0.7500000   0.3114991   2.5509479  )
        36           O0  tau(  36) = (   0.5000000   0.0000000   2.7418291  )
        37           O0  tau(  37) = (   0.5000000   0.5024180   2.8577252  )
        38           Pt1 tau(  38) = (   0.7500000   0.5024180   3.0464207  )
        39           Pt1 tau(  39) = (   0.5000000   0.0000000   3.0519689  )
        40           O0  tau(  40) = (   0.7500000   0.8129525   3.0573490  )
        41           O0  tau(  41) = (   0.7500000   0.1918835   3.0573490  )
        42           O0  tau(  42) = (   0.5000000   0.5024180   3.2388711  )
        43           O0  tau(  43) = (   0.5000000   0.0000000   3.3644626  )
        44           Pt1 tau(  44) = (   0.7500000   0.0000000   3.5576415  )
        45           Pt1 tau(  45) = (   0.5000000   0.5024180   3.5547273  )
        46           O0  tau(  46) = (   0.7500000   0.6920004   3.5920516  )
        47           O0  tau(  47) = (   0.7500000   0.3128356   3.5920516  )
        48           O0  tau(  48) = (   0.5000000   0.0000000   3.7444315  )
        49           O0  tau(  49) = (   0.5000000   0.5024180   3.7506523  )
        50           H2  tau(  50) = (   0.3684200   0.5024180   3.8048455  )

     number of k points=     9  Methfessel-Paxton smearing, width (Ry)=  0.0100
                       cart. coord. in units 2pi/alat
        k(    1) = (   0.0000000   0.0000000   0.0000000), wk =   0.1250000
        k(    2) = (   0.0000000   0.2487968   0.0000000), wk =   0.2500000
        k(    3) = (   0.0000000  -0.4975937   0.0000000), wk =   0.1250000
        k(    4) = (   0.2500000   0.0000000   0.0000000), wk =   0.2500000
        k(    5) = (   0.2500000   0.2487968   0.0000000), wk =   0.5000000
        k(    6) = (   0.2500000  -0.4975937   0.0000000), wk =   0.2500000
        k(    7) = (  -0.5000000   0.0000000   0.0000000), wk =   0.1250000
        k(    8) = (  -0.5000000   0.2487968   0.0000000), wk =   0.2500000
        k(    9) = (  -0.5000000  -0.4975937   0.0000000), wk =   0.1250000

     Largest allocated arrays     est. size (Mb)     dimensions
     Largest temporary arrays     est. size (Mb)     dimensions

     Check: negative/imaginary core charge=   -0.000003    0.000000

     Initial potential from superposition of free atoms
     Check: negative starting charge=   -3.070708

     starting charge  446.99976, renormalised to  455.00000

     negative rho (up, down):  0.313E+01 0.000E+00
     Starting wfc are  325 randomized atomic wfcs

     Self-consistent Calculation

     iteration #  1     ecut=    40.00 Ry     beta=0.30
     Davidson diagonalization with overlap
     ethr =  1.00E-02,  avg # of iterations =  6.2

     negative rho (up, down):  0.308E+01 0.000E+00

     total energy              =   -4372.12684438 Ry
     Harris-Foulkes estimate   =   -4403.21988266 Ry
     estimated scf accuracy    <      65.36300865 Ry

[...]

     End of self-consistent calculation

          k = 0.0000 0.0000 0.0000 ( 43825 PWs)   bands (ev):

   -59.8881 -55.9329 -55.5533 -53.9502 -53.9174 -53.8914 -53.8691 -53.8618
   -53.8320 -53.8142 -53.7780 -53.7659 -53.7458 -53.7414 -53.7379 -53.7308
   -53.7213 -53.7140 -53.7101 -53.6988 -53.6915 -53.6556 -53.6088 -53.6002
   -53.5996 -53.5899 -53.5827 -53.5826 -53.5687 -53.5608 -53.5533 -53.4947
   -53.4923 -53.4887 -53.4816 -53.4517 -53.3953 -53.3473 -53.3404 -53.3398
   -53.3296 -53.1010 -53.0920 -53.0884 -52.8983 -52.8928 -52.8318 -52.6525
   -25.0098 -19.7013 -19.5183 -19.4040 -19.1977 -19.0620 -18.7720 -18.7083
   -18.5827 -18.4985 -18.4919 -18.4652 -18.4635 -18.4252 -18.4180 -18.4063
   -18.3929 -18.3299 -18.2454 -18.2168 -18.1710 -18.1183 -18.0375 -18.0149
   -17.9775 -17.8833 -17.8245 -17.7924 -17.7263 -16.9313 -16.8148 -16.7842
   -16.7160 -14.8722 -12.8122 -11.3878  -8.6315  -8.6118  -8.5765  -8.5344
    -8.1431  -8.1228  -7.5908  -7.3914  -7.2822  -7.2063  -7.2030  -7.1967
    -7.1528  -7.1472  -7.0667  -7.0490  -7.0391  -7.0208  -6.9817  -6.9643
    -6.9628  -6.8943  -6.7667  -6.7467  -6.6822  -6.6659  -6.6327  -6.5430
    -6.4437  -6.4217  -6.4057  -6.3913  -6.3640  -6.1781  -5.9982  -5.9728
    -5.7867  -5.6713  -5.5402  -5.3180  -5.2420  -5.0916  -5.0078  -4.9263
    -4.8537  -4.8520  -4.8231  -4.7568  -4.6879  -4.6250  -4.4427  -4.3355
    -4.3273  -4.3071  -4.2129  -4.2014  -4.1708  -4.1051  -4.0662  -4.0198
    -3.8343  -3.7320  -3.7122  -3.7043  -3.6611  -3.6564  -3.5761  -3.5299
    -3.5174  -3.4565  -3.3426  -3.3115  -3.2817  -3.2531  -3.2152  -3.1509
    -3.1311  -3.0677  -2.9814  -2.9508  -2.8412  -2.8326  -2.8267  -2.8075
    -2.7732  -2.7702  -2.7015  -2.7011  -2.6978  -2.6921  -2.6502  -2.6371
[...]
O0       0.250000000   0.311330000   0.640950000    0   0   0
O0       0.000000000   0.000000000   0.668140000    0   0   0
O0       0.500000000   0.500000000   0.331460000    0   0   0
Pt1      0.750000000   0.500000000   0.365530000    0   0   0
Pt1      0.500000000   0.000000000   0.365530000    0   0   0
O0       0.750000000   0.810000000   0.365530000    0   0   0
O0       0.750000000   0.190000000   0.365530000    0   0   0
O0       0.500000000   0.500000000   0.399590000    0   0   0
O0       0.500000000   0.000000000   0.421110000    0   0   0
Pt1      0.750000000   0.000000000   0.455180000    0   0   0
Pt1      0.500000000   0.500000000   0.455180000    0   0   0
O0       0.750000000   0.690000000   0.455180000    0   0   0
O0       0.750000000   0.310000000   0.455180000    0   0   0
O0       0.500000000   0.000000000   0.489240000    0   0   0
O0       0.500000000   0.500000000   0.509920000    0   0   0
Pt1      0.750000000   0.500000000   0.543590000    0   0   0
Pt1      0.500000000   0.000000000   0.544580000    0   0   0
O0       0.750000000   0.809040000   0.545540000    0   0   0
O0       0.750000000   0.190960000   0.545540000    0   0   0
O0       0.500000000   0.500000000   0.577930000    0   0   0
O0       0.500000000   0.000000000   0.600340000    0   0   0
Pt1      0.750000000   0.000000000   0.634810000    0   0   0
Pt1      0.500000000   0.500000000   0.634290000    0   0   0
O0       0.750000000   0.688670000   0.640950000    0   0   0
O0       0.750000000   0.311330000   0.640950000    0   0   0
O0       0.500000000   0.000000000   0.668140000    0   0   0
O0       0.512743848   0.500000000   0.688614029
H2       0.368277710   0.500000000   0.697343543

     Check: negative starting charge=   -3.073678
     NEW-OLD atomic charge density approx. for the potential

     Check: negative/imaginary core charge=   -0.000003    0.000000
     Check: negative starting charge=   -3.073680

[...]

     Self-consistent Calculation

[...]

     Threshold (ethr) on eigenvalues was too large:
     Diagonalizing with lowered threshold

     Davidson diagonalization with overlap
     ethr =  8.38E-09,  avg # of iterations =  1.0

[...]

     total energy              =   -4392.52896246 Ry
     Harris-Foulkes estimate   =   -4392.52896246 Ry
     estimated scf accuracy    <       0.00000006 Ry

     iteration # 16     ecut=    40.00 Ry     beta=0.30
     Davidson diagonalization with overlap
     ethr =  7.42E-12,  avg # of iterations =  1.0

     negative rho (up, down):  0.316E+01 0.000E+00

     End of self-consistent calculation

[...]

          k = 0.2500-0.4976 0.0000 ( 43762 PWs)   bands (ev):

[...]

          k =-0.5000-0.4976 0.0000 ( 43684 PWs)   bands (ev):

   -54.3030 -54.2887 -54.2554 -54.2538 -54.2497 -54.2413 -54.2092 -54.2092
   -54.1929 -54.1898 -54.1588 -54.1451 -54.1451 -54.1264 -54.1170 -54.1074
   -54.1042 -54.0579 -54.0559 -54.0517 -54.0512 -54.0326 -54.0320 -54.0220
   -54.0050 -54.0023 -53.9989 -53.9307 -53.9227 -53.8946 -53.8945 -53.8890
   -53.8890 -53.8874 -53.8302 -53.8288 -53.8161 -53.8070 -53.8045 -53.7422
   -53.7421 -53.6118 -53.5041 -53.4996 -53.3387 -53.3040 -53.3000 -53.1739
   -19.4012 -19.3258 -19.3018 -19.2945 -19.0782 -19.0721 -19.0527 -19.0397
   -18.9131 -18.9074 -18.9034 -18.8508 -18.8313 -18.8101 -18.7447 -18.7174
   -18.6710 -18.6442 -18.6007 -18.5988 -18.5625 -18.5319 -18.5227 -18.5068
   -18.5059 -18.4279 -18.4180 -18.3842 -17.9903 -17.2966 -17.2873 -17.2192
   -17.2135  -8.1327  -8.0898  -8.0089  -7.9962  -7.4869  -7.4843  -7.4631
    -7.4590  -7.4329  -7.4008  -7.4000  -7.3222  -7.2913  -7.2888  -7.1384
    -7.0707  -7.0434  -7.0354  -7.0020  -6.9939  -6.9708  -6.9672  -6.9535
    -6.9475  -6.8715  -6.8714  -6.8417  -6.7437  -6.7429  -6.7276  -6.7267
    -6.6950  -6.6625  -6.5868  -6.5854  -6.5071  -6.4009  -6.3973  -6.3587
    -6.3401  -6.0616  -5.9644  -5.8957  -5.8866  -5.8300  -5.5928  -5.5898
    -5.4955  -5.4274  -5.4271  -5.3180  -5.3022  -5.2963  -5.2665  -5.2413
    -5.2300  -5.2117  -5.1539  -5.1419  -5.1416  -5.0632  -5.0553  -5.0053
    -5.0021  -4.8054  -4.7139  -4.6835  -4.6743  -4.6505  -4.5780  -4.5726
    -4.5698  -4.3278  -4.2012  -4.1286  -4.0867  -3.9607  -3.7448  -3.6489
    -3.6116  -3.5900  -3.4336  -3.4271  -3.4223  -3.3551  -3.2827  -3.2822
    -3.2763  -3.1982  -3.1701  -3.1656  -3.1528  -3.0874  -2.8788  -2.8460
    -2.8193  -2.7256  -2.3413  -2.1484  -2.0812  -2.0714  -1.9454  -1.9305
    -1.9258  -1.9180  -1.8410  -1.8407  -1.8202  -1.8025  -1.7849  -1.6996
    -1.6650  -1.6539  -1.6296  -1.5818  -1.5490  -1.4513  -1.4366  -1.4333
    -1.4153  -1.2953  -1.2708  -1.2221  -0.9996  -0.9783  -0.9740  -0.9551
    -0.8517  -0.7314  -0.6866  -0.6817  -0.6732  -0.6685  -0.5550  -0.5282
    -0.5260  -0.5046  -0.4931  -0.4459  -0.4116  -0.4076  -0.3569  -0.3474
    -0.3394  -0.3179  -0.2418  -0.0543   0.4547   0.4587   0.5927   0.9366
     0.9374   0.9673   0.9719   1.1127   1.1143   1.1901   1.3618   1.3841
     1.4504   1.4623   1.4682   1.9828   2.1904   2.2648   2.2709   2.4370
     2.5826   2.6006   2.6162   2.9349   3.0779   3.1058   3.1276   3.2340
     3.3282   3.3467   3.3693   3.3865   5.8752   5.8753   6.1875   6.9291
     7.2435   7.2469   7.2949   7.4197   7.5808   7.8047   7.8108   7.9102
     8.0004   8.0765   8.1133   8.1550   8.1743   8.1960   8.2168   8.2210
     8.4557   8.4858   8.5012   8.5550   8.6515   8.6548   8.7190   8.7220
     9.0611   9.0742   9.0809   9.2004   9.2450   9.2734   9.3017   9.3779
     9.7758   9.8511   9.8781   9.9022  10.0302  10.1574  10.1910  10.3038
    10.5209  10.5451  10.5857  10.5954  10.6722  10.6755  10.6916  10.7035
    10.7084  10.7254  10.7684  10.8843  10.9546  11.1181  11.1501  11.1868
    11.5313  11.5774  11.5848  11.6055  11.8815  11.8926  11.9598  12.0241
    12.2518  12.3236  12.3754  12.4415  12.8301  12.8886  12.9121  12.9263
    12.9883  13.1596  13.1708  13.1955  13.1970  13.2813  13.3025  13.4726
    13.5190  13.6758  13.7108  13.7344  13.8075  13.8646  13.9423  13.9883
    14.0664  14.1111  14.1427  14.1501  14.1652  14.1802  14.2173  14.2752
    14.3677  14.3711  14.4641  14.4955  14.5271  14.6000  14.6670  14.7540
    14.7771  14.8070  14.9407  15.0149  15.0734  15.0880  15.1238  15.1736
    15.2033  15.2134  15.2443  15.2599  15.2843  15.2961  15.3214  15.3257
    15.3798  15.3987  15.4312  15.4325  15.4981  15.5405  15.5550  15.5636
    15.5710  15.5826  15.6211  15.6654  15.6929  15.7162  15.7200  15.7902
    15.8507  15.8536  15.8942  15.9679  16.0189  16.0365  16.0794  16.0953
    16.1151  16.1372  16.1484  16.1825  16.2648  16.2993  16.3423  16.3810
    16.4107  16.4428  16.4629  16.5226  16.5924  16.6132  16.6156  16.6898
    16.7450  16.7532  16.7841  16.7952  16.8288  16.8737  16.8960  16.9323
    16.9449  16.9818  17.1315  17.1438  17.1586  17.2526  17.2529  17.2997
    17.3510  17.3918  17.4490  17.5037  17.5390  17.6063  17.6201  17.6428
    17.7111  17.7142  17.7368  17.7410  17.9522  17.9653  18.0111  18.0120
    18.0223  18.0233  18.0353  18.0416  18.0585  18.0878  18.1135  18.1945
    18.1996  18.2460  18.2479  18.2975  18.2987  18.3277  18.3810  18.4134
    18.4207  18.4224  18.4449  18.4874  18.5884  18.6631  18.7137  18.7190
[...]
    23.0527  23.1667  23.1848  23.2140  23.2782  23.2926  23.3081  23.3086
    23.3132  23.3265  23.3665  23.4209  23.5022  23.5126  23.5362  23.5869
    23.6145  23.6532  23.7362  23.7885  23.8618  23.9269  23.9340  23.9370
    23.9861  24.0342  24.0596  24.0780  24.1133  24.1574  24.2186  24.2648
    24.3228  24.3730  24.3960  24.4459  24.4520  24.4713  24.5306  24.6159
    24.7030  24.7051  24.7130  24.8164  24.9502  24.9911  24.9978  25.1206
    25.1416  25.1766  25.1907  25.2007  25.2594  25.2719  25.2770  25.2926
    25.3184  25.3235  25.4134  25.5191  25.5444  25.5529  25.6164  25.6378
    25.6446  25.6630  25.7577  25.7918  25.8257  25.8759  25.9042  25.9334
    25.9810  26.0459  26.0540  26.0647  26.1219  26.2690  26.3015  26.3732
    26.4096  26.4194  26.4540  26.4940  26.5366  26.5760  26.6616  26.6855
    26.7390  26.8701  26.9306  26.9763  27.0034  27.0406  27.0602  27.1713
    27.1719  27.3068  27.3121  27.3348  27.3591  27.5983  27.6797  27.7967
    27.8163  27.8515  27.8872  27.8921  27.9376  27.9537  27.9622  27.9955
    28.0817  28.1004

     the Fermi energy is     0.1456 ev

!    total energy              =   -4392.52896246 Ry
     Harris-Foulkes estimate   =   -4392.52896246 Ry
     estimated scf accuracy    <          1.4E-09 Ry

     The total energy is the sum of the following terms:

     one-electron contribution =  -82013.75514500 Ry
     hartree contribution      =   41104.30062569 Ry
     xc contribution           =   -1104.11550354 Ry
     ewald contribution        =   37621.04243268 Ry
     smearing contrib. (-TS)   =      -0.00137228 Ry

     convergence has been achieved in  16 iterations

     Forces acting on atoms (Ry/au):

     negative rho (up, down):  0.316E+01 0.000E+00
     atom    1 type  1   force =    -0.00000982    0.00000000    0.01450782
     atom    2 type  2   force =     0.00165704    0.00000000   -0.00504412
     atom    3 type  2   force =     0.00000131    0.00000000    0.00464604
     atom    4 type  1   force =    -0.00004460   -0.00056513   -0.02889172
     atom    5 type  1   force =    -0.00004460    0.00056513   -0.02889172
     atom    6 type  1   force =    -0.00005925    0.00000000    0.01088074
     atom    7 type  1   force =     0.00000311    0.00000000    0.02313684
     atom    8 type  2   force =     0.00047385    0.00000000    0.01443709
     atom    9 type  2   force =     0.00020017    0.00000000   -0.02623877
     atom   10 type  1   force =     0.00037522    0.00590306    0.00058613
     atom   11 type  1   force =     0.00037522   -0.00590306    0.00058613
     atom   12 type  1   force =     0.00001251    0.00000000    0.01504228
     atom   13 type  1   force =     0.00085629    0.00000000    0.01199542
     atom   14 type  2   force =    -0.00006980    0.00000000    0.01021033
     atom   15 type  2   force =    -0.00014999    0.00000000    0.00151250
     atom   16 type  1   force =     0.00020013    0.00056632   -0.00001492
     atom   17 type  1   force =     0.00020013   -0.00056632   -0.00001492
     atom   18 type  1   force =     0.00129537    0.00000000    0.00464573
     atom   19 type  1   force =    -0.00043841    0.00000000    0.00245607
     atom   20 type  2   force =     0.00155497    0.00000000    0.00154502
     atom   21 type  2   force =    -0.00970566    0.00000000   -0.00676789
     atom   22 type  1   force =    -0.00960502    0.00574100   -0.01414854
     atom   23 type  1   force =    -0.00960502   -0.00574100   -0.01414854
     atom   24 type  1   force =     0.00059975    0.00000000   -0.00149370
     atom   25 type  1   force =    -0.00000944    0.00000000    0.01360661
     atom   26 type  2   force =    -0.00161937    0.00000000   -0.00505876
     atom   27 type  2   force =    -0.00000506    0.00000000    0.00483492
     atom   28 type  1   force =     0.00004450   -0.00056997   -0.02888395
     atom   29 type  1   force =     0.00004450    0.00056997   -0.02888395
     atom   30 type  1   force =    -0.00003085    0.00000000    0.00457161
     atom   31 type  1   force =     0.00000139    0.00000000    0.02381031
     atom   32 type  2   force =    -0.00047442    0.00000000    0.01446479
     atom   33 type  2   force =     0.00008447    0.00000000   -0.01688659
     atom   34 type  1   force =    -0.00040380    0.00588452    0.00058513
     atom   35 type  1   force =    -0.00040380   -0.00588452    0.00058513
     atom   36 type  1   force =    -0.00001381    0.00000000    0.01489724
     atom   37 type  1   force =     0.00003568    0.00000000   -0.00966620
     atom   38 type  2   force =    -0.00131716    0.00000000    0.01040514
     atom   39 type  2   force =     0.00021292    0.00000000    0.00150449
     atom   40 type  1   force =    -0.00026644    0.00055059   -0.00009341
     atom   41 type  1   force =    -0.00026644   -0.00055059   -0.00009341
     atom   42 type  1   force =     0.00073273    0.00000000   -0.00506018
     atom   43 type  1   force =     0.00033773    0.00000000    0.00013932
     atom   44 type  2   force =    -0.00133417    0.00000000    0.00205680
     atom   45 type  2   force =     0.00213372    0.00000000    0.05289022
     atom   46 type  1   force =     0.01273008    0.00759680   -0.01793920
     atom   47 type  1   force =     0.01273008   -0.00759680   -0.01793920
     atom   48 type  1   force =    -0.00082621    0.00000000   -0.00445145
     atom   49 type  1   force =    -0.00049715    0.00000000    0.00000413
     atom   50 type  3   force =     0.00030740    0.00000000    0.00006713

     Total force =     0.000588     Total SCF correction =     0.000054

     bfgs converged in  19 scf cycles and  18 bfgs steps
     (criteria: energy < 0.10E-03, force < 0.10E-02)

     End of BFGS Geometry Optimization

     Final energy   =   -4392.5289624601 Ry
Begin final coordinates

ATOMIC_POSITIONS (crystal)
O0       0.000000000   0.500000000   0.331460000    0   0   0
Pt1      0.250000000   0.500000000   0.365530000    0   0   0
Pt1      0.000000000   0.000000000   0.365530000    0   0   0
O0       0.250000000   0.810000000   0.365530000    0   0   0
O0       0.250000000   0.190000000   0.365530000    0   0   0
O0       0.000000000   0.500000000   0.399590000    0   0   0
O0       0.000000000   0.000000000   0.421110000    0   0   0
Pt1      0.250000000   0.000000000   0.455180000    0   0   0
Pt1      0.000000000   0.500000000   0.455180000    0   0   0
O0       0.250000000   0.690000000   0.455180000    0   0   0
O0       0.250000000   0.310000000   0.455180000    0   0   0
O0       0.000000000   0.000000000   0.489240000    0   0   0
O0       0.000000000   0.500000000   0.509920000    0   0   0
Pt1      0.250000000   0.500000000   0.543590000    0   0   0
Pt1      0.000000000   0.000000000   0.544580000    0   0   0
O0       0.250000000   0.809040000   0.545540000    0   0   0
O0       0.250000000   0.190960000   0.545540000    0   0   0
O0       0.000000000   0.500000000   0.577930000    0   0   0
O0       0.000000000   0.000000000   0.600340000    0   0   0
Pt1      0.250000000   0.000000000   0.634810000    0   0   0
Pt1      0.000000000   0.500000000   0.634290000    0   0   0
O0       0.250000000   0.688670000   0.640950000    0   0   0
O0       0.250000000   0.311330000   0.640950000    0   0   0
O0       0.000000000   0.000000000   0.668140000    0   0   0
O0       0.500000000   0.500000000   0.331460000    0   0   0
Pt1      0.750000000   0.500000000   0.365530000    0   0   0
Pt1      0.500000000   0.000000000   0.365530000    0   0   0
O0       0.750000000   0.810000000   0.365530000    0   0   0
O0       0.750000000   0.190000000   0.365530000    0   0   0
O0       0.500000000   0.500000000   0.399590000    0   0   0
O0       0.500000000   0.000000000   0.421110000    0   0   0
Pt1      0.750000000   0.000000000   0.455180000    0   0   0
Pt1      0.500000000   0.500000000   0.455180000    0   0   0
O0       0.750000000   0.690000000   0.455180000    0   0   0
O0       0.750000000   0.310000000   0.455180000    0   0   0
O0       0.500000000   0.000000000   0.489240000    0   0   0
O0       0.500000000   0.500000000   0.509920000    0   0   0
Pt1      0.750000000   0.500000000   0.543590000    0   0   0
Pt1      0.500000000   0.000000000   0.544580000    0   0   0
O0       0.750000000   0.809040000   0.545540000    0   0   0
O0       0.750000000   0.190960000   0.545540000    0   0   0
O0       0.500000000   0.500000000   0.577930000    0   0   0
O0       0.500000000   0.000000000   0.600340000    0   0   0
Pt1      0.750000000   0.000000000   0.634810000    0   0   0
Pt1      0.500000000   0.500000000   0.634290000    0   0   0
O0       0.750000000   0.688670000   0.640950000    0   0   0
O0       0.750000000   0.311330000   0.640950000    0   0   0
O0       0.500000000   0.000000000   0.668140000    0   0   0
O0       0.512743848   0.500000000   0.688614029
H2       0.368277710   0.500000000   0.697343543
End final coordinates

     General routines

     Parallel routines

   This run was terminated on:  19:11:40  29Mar2014

   JOB DONE.
Running PBS batch system epilogue script
Job id: 314585.audhumbla.fysik.dtu.dk
Username: zhonxu
Groupname: campgst
Jobname: PtO2/Eads-4-layers/OH
Sessionid: 59758
Queuename: verylong
Accounting:
This job has allocated the following 32 nodes:
g068 g068 g068 g068 g068 g068 g068 g068 g068 g068 g068 g068 g068 g068 g068 g068 g041 g041 g041 g041 g041 g041 g041 g041 g041 g041 g041 g041 g041 g041 g041 g041
Finished epilogue job 314585.audhumbla.fysik.dtu.dk for zhonxu