     Program PWSCF v.5.0.2 (svn rev. 9656) starts on 28Mar2014 at  6:31: 9

     Current dimensions of program PWSCF are:
     Max number of different atomic species (ntypx) = 10
     Max number of k-points (npk) =  40000
     Max angular momentum in pseudopotentials (lmaxx) =  3
     Reading input from pwscf.in
Warning: card &CELL ignored
Warning: card / ignored

     Subspace diagonalization in iterative solution of the eigenvalue problem:
     a serial algorithm will be used

     bravais-lattice index     =            0
     lattice parameter (alat)  =      11.2250  a.u.
     unit-cell volume          =    9585.4248 (a.u.)^3
     number of atoms/cell      =           49
     number of atomic types    =            2
     number of electrons       =       390.00
     number of Kohn-Sham states=          561
     kinetic-energy cutoff     =      40.0000  Ry
     charge density cutoff     =     500.0000  Ry
     convergence threshold     =      1.0E-06
     mixing beta               =       0.3000
     number of iterations used =            8  plain     mixing
     Exchange-correlation      = SLA  PW   PBE  PBE ( 1 4 3 4 0)
     EXX-fraction              =        0.00
     nstep                     =           50

     celldm(1)=  11.224973  celldm(2)=   0.000000  celldm(3)=   0.000000
     celldm(4)=   0.000000  celldm(5)=   0.000000  celldm(6)=   0.000000

     crystal axes: (cart. coord. in units of alat)
               a(1) = (   1.000000   0.000000   0.000000 )
               a(2) = (   0.000000   1.107086   0.000000 )
               a(3) = (   0.000000   0.000000   6.121726 )

     reciprocal axes: (cart. coord. in units 2 pi/alat)
               b(1) = (  1.000000  0.000000  0.000000 )
               b(2) = (  0.000000  0.903272  0.000000 )
               b(3) = (  0.000000  0.000000  0.163353 )

     PseudoPot. # 1 for O  read from file:
     /home/camp/zhonxu/pseudo/o_pbe_v1.01.uspp.F.UPF
     MD5 check sum: 2bcb18d16ea4b960afae9ec6d52f22d2
     Pseudo is Ultrasoft + core correction, Zval =  6.0
     Generated by new atomic code, or converted to UPF format
     Using radial grid of  737 points,  5 beta functions with:
                l(1) =   0
                l(2) =   0
                l(3) =   1
                l(4) =   1
                l(5) =   2
     Q(r) pseudized with  8 coefficients,  rinner =    0.900   0.900   0.900
                                                       0.900   0.900

     PseudoPot. # 2 for Ti read from file:
     /home/camp/zhonxu/pseudo/ti_pbe_v1.uspp.F.UPF
     MD5 check sum: bcc8f6961b3b91f0cac3ca967d22d0fb
     Pseudo is Ultrasoft + core correction, Zval = 12.0
     Generated by new atomic code, or converted to UPF format
     Using radial grid of  851 points,  6 beta functions with:
                l(1) =   0
                l(2) =   0
                l(3) =   1
                l(4) =   1
                l(5) =   2
                l(6) =   2
     Q(r) pseudized with  6 coefficients,  rinner =    1.000   1.000   1.000
                                                       1.000   1.000

     atomic species   valence    mass     pseudopotential
        O0             6.00    15.99940     O ( 1.00)
        Ti1           12.00    47.88000     Ti( 1.00)

      4 Sym. Ops. (no inversion) found

   Cartesian axes

     site n.     atom                  positions (alat units)
         1           O0  tau(   1) = (   0.0000000   0.5535432   2.0202309  )
         2           Ti1 tau(   2) = (   0.2500000   0.5535432   2.2305735  )
         3           Ti1 tau(   3) = (   0.0000000   0.0000000   2.2305735  )
         4           O0  tau(   4) = (   0.2500000   0.8967400   2.2305735  )
         5           O0  tau(   5) = (   0.2500000   0.2103464   2.2305735  )
         6           O0  tau(   6) = (   0.0000000   0.5535432   2.4409160  )
         7           O0  tau(   7) = (   0.0000000   0.0000000   2.5737574  )
         8           Ti1 tau(   8) = (   0.2500000   0.0000000   2.7841000  )
         9           Ti1 tau(   9) = (   0.0000000   0.5535432   2.7841000  )
        10           O0  tau(  10) = (   0.2500000   0.7638896   2.7841000  )
        11           O0  tau(  11) = (   0.2500000   0.3431968   2.7841000  )
        12           O0  tau(  12) = (   0.0000000   0.0000000   2.9944425  )
        13           O0  tau(  13) = (   0.0000000   0.5535432   3.1319977  )
        14           Ti1 tau(  14) = (   0.2500000   0.5535432   3.3288112  )
        15           Ti1 tau(  15) = (   0.0000000   0.0000000   3.3672556  )
        16           O0  tau(  16) = (   0.2500000   0.8873962   3.3437482  )
        17           O0  tau(  17) = (   0.2500000   0.2196902   3.3437482  )
        18           O0  tau(  18) = (   0.0000000   0.5535432   3.5641916  )
        19           O0  tau(  19) = (   0.0000000   0.0000000   3.6800146  )
        20           Ti1 tau(  20) = (   0.2500000   0.0000000   3.9334541  )
        21           Ti1 tau(  21) = (   0.0000000   0.5535432   3.8694821  )
        22           O0  tau(  22) = (   0.2500000   0.7608340   3.9259244  )
        23           O0  tau(  23) = (   0.2500000   0.3462523   3.9259244  )
        24           O0  tau(  24) = (   0.0000000   0.0000000   4.1134329  )
        25           O0  tau(  25) = (   0.5000000   0.5535432   2.0202309  )
        26           Ti1 tau(  26) = (   0.7500000   0.5535432   2.2305735  )
        27           Ti1 tau(  27) = (   0.5000000   0.0000000   2.2305735  )
        28           O0  tau(  28) = (   0.7500000   0.8967400   2.2305735  )
        29           O0  tau(  29) = (   0.7500000   0.2103464   2.2305735  )
        30           O0  tau(  30) = (   0.5000000   0.5535432   2.4409160  )
        31           O0  tau(  31) = (   0.5000000   0.0000000   2.5737574  )
        32           Ti1 tau(  32) = (   0.7500000   0.0000000   2.7841000  )
        33           Ti1 tau(  33) = (   0.5000000   0.5535432   2.7841000  )
        34           O0  tau(  34) = (   0.7500000   0.7638896   2.7841000  )
        35           O0  tau(  35) = (   0.7500000   0.3431968   2.7841000  )
        36           O0  tau(  36) = (   0.5000000   0.0000000   2.9944425  )
        37           O0  tau(  37) = (   0.5000000   0.5535432   3.1319977  )
        38           Ti1 tau(  38) = (   0.7500000   0.5535432   3.3288112  )
        39           Ti1 tau(  39) = (   0.5000000   0.0000000   3.3672556  )
        40           O0  tau(  40) = (   0.7500000   0.8873962   3.3437482  )
        41           O0  tau(  41) = (   0.7500000   0.2196902   3.3437482  )
        42           O0  tau(  42) = (   0.5000000   0.5535432   3.5641916  )
        43           O0  tau(  43) = (   0.5000000   0.0000000   3.6800146  )
        44           Ti1 tau(  44) = (   0.7500000   0.0000000   3.9334541  )
        45           Ti1 tau(  45) = (   0.5000000   0.5535432   3.8694821  )
        46           O0  tau(  46) = (   0.7500000   0.7608340   3.9259244  )
        47           O0  tau(  47) = (   0.7500000   0.3462523   3.9259244  )
        48           O0  tau(  48) = (   0.5000000   0.0000000   4.1134329  )
        49           O0  tau(  49) = (   0.5000000   0.5535432   4.0797634  )

     number of k points=     9  Methfessel-Paxton smearing, width (Ry)=  0.0100
                       cart. coord. in units 2pi/alat
        k(    1) = (   0.0000000   0.0000000   0.0000000), wk =   0.1250000
        k(    2) = (   0.0000000   0.2258180   0.0000000), wk =   0.2500000
        k(    3) = (   0.0000000  -0.4516359   0.0000000), wk =   0.1250000
        k(    4) = (   0.2500000   0.0000000   0.0000000), wk =   0.2500000
        k(    5) = (   0.2500000   0.2258180   0.0000000), wk =   0.5000000
        k(    6) = (   0.2500000  -0.4516359   0.0000000), wk =   0.2500000
        k(    7) = (  -0.5000000   0.0000000   0.0000000), wk =   0.1250000
        k(    8) = (  -0.5000000   0.2258180   0.0000000), wk =   0.2500000
        k(    9) = (  -0.5000000  -0.4516359   0.0000000), wk =   0.1250000

     Largest allocated arrays     est. size (Mb)     dimensions
     Largest temporary arrays     est. size (Mb)     dimensions

     Check: negative/imaginary core charge=   -0.000007    0.000000

     Initial potential from superposition of free atoms
     Check: negative starting charge=   -0.203501

     starting charge  373.99924, renormalised to  390.00000

     negative rho (up, down):  0.212E+00 0.000E+00
     Starting wfc are  292 randomized atomic wfcs

     Self-consistent Calculation

     iteration #  1     ecut=    40.00 Ry     beta=0.30
     Davidson diagonalization with overlap
     ethr =  1.00E-02,  avg # of iterations =  6.2

     negative rho (up, down):  0.221E+00 0.000E+00

     total energy              =   -2960.80519037 Ry
     Harris-Foulkes estimate   =   -2964.98135483 Ry
     estimated scf accuracy    <       9.34706841 Ry

[...]

     End of self-consistent calculation

          k = 0.0000 0.0000 0.0000 ( 40985 PWs)   bands (ev):

   -59.0653 -59.0255 -58.5522 -58.5122 -58.4107 -58.3705 -58.3289 -58.2889
   -58.2135 -58.1712 -57.8245 -57.5913 -57.5728 -57.5513 -57.5309 -57.1738
   -36.5577 -35.5591 -35.3383 -35.3064 -35.2935 -35.1853 -35.1326 -35.1113
   -34.9596 -34.8750 -34.8493 -34.7550 -34.7418 -34.7355 -34.7170 -34.7029
   -34.6819 -34.6075 -34.5964 -34.5834 -34.5703 -34.5087 -34.5047 -34.5002
   -34.4984 -34.4571 -34.4239 -34.4117 -34.3782 -34.3758 -34.3299 -34.2387
   -34.1588 -34.1465 -34.0730 -34.0284 -33.9284 -33.8995 -33.8709 -33.8388
   -33.7940 -33.7709 -33.7687 -33.7340 -33.6603 -33.6189 -32.5367 -32.4249
   -19.6298 -19.5042 -19.1822 -18.8619 -18.8549 -18.7643 -18.7124 -18.6497
   -18.5254 -18.5089 -18.4505 -18.3456 -18.3258 -18.2198 -18.1650 -18.1621
   -18.1099 -18.0507 -18.0260 -17.8672 -17.8293 -17.8138 -17.7655 -17.7070
   -17.6734 -17.6245 -17.5878 -17.2744 -17.2419 -17.1051 -16.5231 -16.4629
   -15.7226  -7.5631  -7.2888  -7.2682  -7.1479  -6.9548  -6.8079  -6.5981
    -6.4460  -6.3746  -6.2050  -6.0899  -6.0482  -6.0206  -6.0185  -5.8525
    -5.8170  -5.8155  -5.7438  -5.6778  -5.6568  -5.6108  -5.5608  -5.5432
    -5.5364  -5.4896  -5.4314  -5.4050  -5.3037  -5.2635  -5.2090  -5.1781
    -5.0391  -4.9896  -4.9885  -4.9745  -4.7527  -4.6655  -4.6359  -4.5886
    -4.5618  -4.5260  -4.5253  -4.4820  -4.4752  -4.3666  -4.3449  -4.2144
    -4.1698  -4.1064  -4.0583  -3.9696  -3.8761  -3.8758  -3.8512  -3.7499
    -3.7035  -3.6946  -3.6447  -3.5806  -3.5183  -3.5057  -3.4436  -3.4182
    -3.3583  -3.3087  -3.3033  -3.1741  -3.1536  -3.1293  -3.0167  -2.9905
    -2.9559  -2.9161  -2.8382  -2.8349  -2.6866  -2.6134  -2.5710  -2.5318
    -2.4846  -2.4398  -2.4241  -2.4080  -2.3943  -2.3596  -2.2475  -2.2109
    -2.1667  -2.1030  -2.0608  -1.8954  -1.7661  -1.6890  -1.6345  -1.5750
    -1.5396  -1.5347  -1.4562  -1.2827   0.0553   0.0918   0.4183   0.4225
     0.5124   0.7486   0.7905   0.8200   0.8734   0.9131   1.0528   1.0556
     1.0847   1.1661   1.1910   1.2128   1.2560   1.4055   1.4281   1.4286
     1.5924   1.5990   1.6448   1.6887   1.6960   1.7043   1.7370   1.7913
     1.8123   1.8300   1.8334   1.8722   1.9356   1.9411   1.9538   2.1745
[...]
O0       0.000000000   0.000000000   0.489150000    0   0   0
O0       0.000000000   0.500000000   0.511620000    0   0   0
Ti1      0.250000000   0.500000000   0.543770000    0   0   0
Ti1      0.000000000   0.000000000   0.550050000    0   0   0
O0       0.250000000   0.801560000   0.546210000    0   0   0
O0       0.250000000   0.198440000   0.546210000    0   0   0
O0       0.000000000   0.500000000   0.582220000    0   0   0
O0       0.000000000   0.000000000   0.601140000    0   0   0
Ti1      0.250000000   0.000000000   0.642540000    0   0   0
Ti1      0.000000000   0.500000000   0.632090000    0   0   0
O0       0.250000000   0.687240000   0.641310000    0   0   0
O0       0.250000000   0.312760000   0.641310000    0   0   0
O0       0.000000000   0.000000000   0.671940000    0   0   0
O0       0.500000000   0.500000000   0.330010000    0   0   0
Ti1      0.750000000   0.500000000   0.364370000    0   0   0
Ti1      0.500000000   0.000000000   0.364370000    0   0   0
O0       0.750000000   0.810000000   0.364370000    0   0   0
O0       0.750000000   0.190000000   0.364370000    0   0   0
O0       0.500000000   0.500000000   0.398730000    0   0   0
O0       0.500000000   0.000000000   0.420430000    0   0   0
Ti1      0.750000000   0.000000000   0.454790000    0   0   0
Ti1      0.500000000   0.500000000   0.454790000    0   0   0
O0       0.750000000   0.690000000   0.454790000    0   0   0
O0       0.750000000   0.310000000   0.454790000    0   0   0
O0       0.500000000   0.000000000   0.489150000    0   0   0
O0       0.500000000   0.500000000   0.511620000    0   0   0
Ti1      0.750000000   0.500000000   0.543770000    0   0   0
Ti1      0.500000000   0.000000000   0.550050000    0   0   0
O0       0.750000000   0.801560000   0.546210000    0   0   0
O0       0.750000000   0.198440000   0.546210000    0   0   0
O0       0.500000000   0.500000000   0.582220000    0   0   0
O0       0.500000000   0.000000000   0.601140000    0   0   0
Ti1      0.750000000   0.000000000   0.642540000    0   0   0
Ti1      0.500000000   0.500000000   0.632090000    0   0   0
O0       0.750000000   0.687240000   0.641310000    0   0   0
O0       0.750000000   0.312760000   0.641310000    0   0   0
O0       0.500000000   0.000000000   0.671940000    0   0   0
O0       0.500000000   0.500000000   0.685160419

     Check: negative starting charge=   -0.203928
     NEW-OLD atomic charge density approx. for the potential

     Check: negative/imaginary core charge=   -0.000007    0.000000
     Check: negative starting charge=   -0.203928

[...]

     Self-consistent Calculation

[...]

     total energy              =   -2963.50667858 Ry
     Harris-Foulkes estimate   =   -2963.50667854 Ry
     estimated scf accuracy    <       0.00000008 Ry

     iteration #  9     ecut=    40.00 Ry     beta=0.30
     Davidson diagonalization with overlap
     ethr =  2.13E-11,  avg # of iterations =  1.0

     negative rho (up, down):  0.202E+00 0.000E+00

     End of self-consistent calculation

[...]

          k = 0.2500-0.4516 0.0000 ( 40874 PWs)   bands (ev):

[...]

          k =-0.5000-0.4516 0.0000 ( 40844 PWs)   bands (ev):

   -59.2044 -59.2043 -58.8696 -58.8694 -58.5749 -58.5728 -58.5176 -58.5175
   -58.5028 -58.5017 -58.5014 -57.9746 -57.9294 -57.9294 -57.7158 -57.7158
   -35.4984 -35.4984 -35.4821 -35.4820 -35.3965 -35.3965 -35.2546 -35.2501
   -35.1386 -35.1249 -35.0570 -35.0567 -34.9276 -34.9262 -34.8857 -34.8551
   -34.8549 -34.8509 -34.8403 -34.8269 -34.8147 -34.8131 -34.7698 -34.7671
   -34.7526 -34.7505 -34.7480 -34.7381 -34.7326 -34.7139 -34.7002 -34.7002
   -34.6953 -34.3945 -34.2840 -34.2809 -34.2792 -34.2601 -34.1992 -34.1947
   -34.1705 -34.1693 -34.0603 -34.0603 -33.9946 -33.9946 -33.9308 -33.9308
   -19.2696 -19.1891 -19.0608 -19.0607 -18.9876 -18.8990 -18.8900 -18.8311
   -18.7780 -18.7772 -18.6202 -18.6056 -18.5593 -18.5483 -18.5104 -18.5043
   -18.4755 -18.4294 -18.4253 -18.4055 -18.3988 -18.3987 -18.1037 -18.0521
   -18.0373 -18.0368 -17.9650 -17.9428 -17.5353 -17.5210 -17.1016 -16.7345
   -16.7331  -6.6795  -6.5177  -6.3715  -6.3615  -6.2902  -6.2892  -6.1448
    -6.1447  -6.0856  -6.0838  -6.0358  -5.9865  -5.9836  -5.9768  -5.9577
    -5.9481  -5.8443  -5.8179  -5.8097  -5.7959  -5.7847  -5.7624  -5.7541
    -5.7539  -5.7109  -5.6732  -5.5533  -5.5457  -5.4893  -5.4633  -5.4423
    -5.4078  -5.3129  -5.3112  -5.2447  -5.2428  -5.2313  -5.2292  -4.9602
    -4.9240  -4.7796  -4.7493  -4.7490  -4.7447  -4.5872  -4.5591  -4.4351
    -4.3709  -4.3519  -4.3479  -4.3429  -4.3134  -4.1902  -4.1877  -4.1870
    -4.1764  -4.1736  -4.1597  -4.1302  -4.0373  -4.0082  -4.0056  -3.9954
    -3.8867  -3.8550  -3.8456  -3.8300  -3.8209  -3.7792  -3.7595  -3.4608
    -3.4423  -3.3326  -3.3291  -3.2116  -3.1976  -2.9943  -2.9814  -2.9385
    -2.9334  -2.7260  -2.7142  -2.7077  -2.6985  -2.6596  -2.6237  -2.6034
    -2.5209  -2.5046  -2.4987  -2.3935  -2.3259  -2.0772  -1.9933  -1.9925
    -1.7299  -1.7279  -1.6880  -1.6661   0.4421   0.4425   0.4455   0.4997
     0.5164   0.5359   0.5991   0.6510   0.8114   0.8134   0.8925   0.8966
     0.9150   0.9443   0.9963   1.0199   1.0200   1.0663   1.2524   1.2805
     1.2845   1.3132   1.3787   1.4626   1.5407   1.5687   1.5934   1.6076
     1.6767   1.7478   1.7969   1.8319   1.8481   1.8553   1.8973   1.9487
     1.9629   2.1941   2.1943   2.2424   2.2876   2.3244   2.3284   2.3391
     2.3407   2.3762   2.4086   2.4087   2.4291   2.4379   3.0373   3.1326
     3.2269   3.2270   3.2540   3.3624   3.3624   3.5364   3.5476   3.6253
     3.7068   3.7738   3.7869   4.0570   4.2031   4.4693   4.4700   4.6388
     4.7157   4.7752   4.7834   4.8356   4.8699   4.9927   4.9938   5.1713
     5.1847   5.2214   5.2221   5.4938   5.5422   5.5422   6.8914   6.8919
     7.0617   7.1470   7.1475   7.3703   7.3769   7.4982   7.5299   7.6451
     7.6646   7.7471   7.7538   7.9243   8.0697   8.1334   8.1588   8.3200
     8.5408   8.5466   8.6220   8.6297   8.6742   8.6800   8.6944   8.8560
     9.2029   9.2365   9.2404   9.3092   9.3184   9.3381   9.3694   9.5617
    10.0220  10.0297  10.0626  10.1052  10.1638  10.1782  10.1953  10.4794
    10.8920  10.9192  11.0124  11.2557  11.4503  11.4598  11.5518  11.6802
    11.8636  11.9106  12.1271  12.3425  12.3912  12.4153  12.4900  12.5720
    12.5852  12.6482  12.7668  12.7806  12.9821  13.0398  13.1000  13.1054
    13.1167  13.1918  13.2251  13.2598  13.2701  13.2863  13.3078  13.3243
    13.3259  13.3845  13.4583  13.4592  13.4628  13.4991  13.5840  13.5967
    13.7110  13.7249  13.7340  13.7378  13.7722  13.8194  13.8571  13.9127
    13.9323  14.1059  14.1230  14.1239  14.1476  14.2229  14.3793  14.4179
    14.4220  14.4468  14.4815  14.5185  14.5478  14.5531  14.6257  14.6410
    14.7143  14.7692  14.8257  14.8368  14.8923  14.9288  14.9341  14.9552
    14.9796  15.1046  15.2462  15.2861  15.3104  15.3472  15.3642  15.3914
    15.3915  15.4865  15.5665  15.5760  15.5858  15.5888  15.5993  15.6458
    15.6512  15.7174  15.7429  15.7456  15.8697  15.9180  15.9892  15.9949
    15.9995  16.0183  16.0206  16.1734  16.2103  16.2121  16.2638  16.2682
    16.3993  16.4231  16.4855  16.5175  16.5180  16.5236  16.5288  16.5722
    16.5887  16.6155  16.6732  16.6756  16.6798  16.7191  16.7516  16.9147
    16.9516  16.9818  17.0091  17.0442  17.0836  17.1844  17.3157  17.3325
    17.3691  17.3855  17.4511  17.4895  17.5036  17.5079  17.5135  17.5539
    17.5690  17.6005  17.6333  17.7619  17.7929  17.8280  17.8986  18.0019
    18.0941  18.0992  18.1510  18.2327  18.2340  18.2640  18.3624  18.4508
    18.4711  18.5166  18.5601  18.6318  18.6794  18.7068  18.7450  18.9164
    18.9275  18.9348  18.9509  19.0037  19.0314  19.0521  19.1356  19.1661
    19.2362  19.2992  19.3600  19.4262  19.5611  19.5772  19.6335  19.6558
    19.6803  19.7779  19.8385  19.9237  19.9441  19.9448  19.9845  20.0693
    20.1896  20.2201  20.5870  20.7364  20.7424  20.7685  20.8055  20.8529
    20.9037  20.9222  20.9821  21.0327  21.0432  21.0620  21.0993  21.2156
    21.4070  21.4176  21.5659  21.7053  21.7607  21.7906  21.8029  21.8257
    21.9213  21.9222  21.9804  22.1440  22.1862  22.1947  22.2429  22.2699
    22.3207  22.3674  22.4314  22.4475  22.5300  22.5620  22.5776  22.6357
    22.6742  22.6888  22.7063  22.7581  22.7995  22.8020  22.9055  23.0036
    23.0434  23.0443  23.0638  23.1385  23.1438  23.1576  23.1804  23.2053
    23.2057

     the Fermi energy is    -1.6639 ev

!    total energy              =   -2963.50667862 Ry
     Harris-Foulkes estimate   =   -2963.50667859 Ry
     estimated scf accuracy    <       0.00000002 Ry

     The total energy is the sum of the following terms:

     one-electron contribution =  -64130.68099359 Ry
     hartree contribution      =   32105.03551696 Ry
     xc contribution           =    -512.29792225 Ry
     ewald contribution        =   29574.43970091 Ry
     smearing contrib. (-TS)   =      -0.00298066 Ry

     convergence has been achieved in   9 iterations

     Forces acting on atoms (Ry/au):

     negative rho (up, down):  0.202E+00 0.000E+00
     atom    1 type  1   force =     0.00000000    0.00000000    0.05602171
     atom    2 type  2   force =    -0.00004656    0.00000000   -0.12435502
     atom    3 type  2   force =     0.00000000    0.00000000    0.12027592
     atom    4 type  1   force =    -0.00000861    0.03163760   -0.03253627
     atom    5 type  1   force =    -0.00000861   -0.03163760   -0.03253627
     atom    6 type  1   force =     0.00000000    0.00000000    0.08656960
     atom    7 type  1   force =     0.00000000    0.00000000   -0.09113631
     atom    8 type  2   force =    -0.00040425    0.00000000    0.06320966
     atom    9 type  2   force =     0.00000000    0.00000000   -0.05219247
     atom   10 type  1   force =     0.00001820    0.02069480    0.00533981
     atom   11 type  1   force =     0.00001820   -0.02069480    0.00533981
     atom   12 type  1   force =     0.00000000    0.00000000   -0.00138777
     atom   13 type  1   force =     0.00000000    0.00000000   -0.01287278
     atom   14 type  2   force =     0.01818724    0.00000000    0.01755528
     atom   15 type  2   force =     0.00000000    0.00000000   -0.00130401
     atom   16 type  1   force =    -0.00240089    0.00394728   -0.00130658
     atom   17 type  1   force =    -0.00240089   -0.00394728   -0.00130658
     atom   18 type  1   force =     0.00000000    0.00000000   -0.00529278
     atom   19 type  1   force =     0.00000000    0.00000000   -0.00453338
     atom   20 type  2   force =     0.00422707    0.00000000    0.02169988
     atom   21 type  2   force =     0.00000000    0.00000000    0.01713788
     atom   22 type  1   force =    -0.02886023    0.02318798   -0.01730218
     atom   23 type  1   force =    -0.02886023   -0.02318798   -0.01730218
     atom   24 type  1   force =     0.00000000    0.00000000   -0.00710184
     atom   25 type  1   force =     0.00000000    0.00000000    0.05601647
     atom   26 type  2   force =     0.00004656    0.00000000   -0.12435502
     atom   27 type  2   force =     0.00000000    0.00000000    0.12030140
     atom   28 type  1   force =     0.00000861    0.03163760   -0.03253627
     atom   29 type  1   force =     0.00000861   -0.03163760   -0.03253627
     atom   30 type  1   force =     0.00000000    0.00000000    0.08621536
     atom   31 type  1   force =     0.00000000    0.00000000   -0.09117523
     atom   32 type  2   force =     0.00040425    0.00000000    0.06320966
     atom   33 type  2   force =     0.00000000    0.00000000   -0.05203906
     atom   34 type  1   force =    -0.00001820    0.02069480    0.00533981
     atom   35 type  1   force =    -0.00001820   -0.02069480    0.00533981
     atom   36 type  1   force =     0.00000000    0.00000000   -0.00083551
     atom   37 type  1   force =     0.00000000    0.00000000   -0.01510438
     atom   38 type  2   force =    -0.01818724    0.00000000    0.01755528
     atom   39 type  2   force =     0.00000000    0.00000000    0.00794547
     atom   40 type  1   force =     0.00240089    0.00394728   -0.00130658
     atom   41 type  1   force =     0.00240089   -0.00394728   -0.00130658
     atom   42 type  1   force =     0.00000000    0.00000000   -0.09034413
     atom   43 type  1   force =     0.00000000    0.00000000   -0.00967919
     atom   44 type  2   force =    -0.00422707    0.00000000    0.02169988
     atom   45 type  2   force =     0.00000000    0.00000000    0.12160758
     atom   46 type  1   force =     0.02886023    0.02318798   -0.01730218
     atom   47 type  1   force =     0.02886023   -0.02318798   -0.01730218
     atom   48 type  1   force =     0.00000000    0.00000000   -0.01032816
     atom   49 type  1   force =     0.00000000    0.00000000    0.00023692

     Total force =     0.000237     Total SCF correction =     0.000014

     bfgs converged in   8 scf cycles and   7 bfgs steps
     (criteria: energy < 0.10E-03, force < 0.10E-02)

     End of BFGS Geometry Optimization

     Final energy   =   -2963.5066786224 Ry
Begin final coordinates

ATOMIC_POSITIONS (crystal)
O0       0.000000000   0.500000000   0.330010000    0   0   0
Ti1      0.250000000   0.500000000   0.364370000    0   0   0
Ti1      0.000000000   0.000000000   0.364370000    0   0   0
O0       0.250000000   0.810000000   0.364370000    0   0   0
O0       0.250000000   0.190000000   0.364370000    0   0   0
O0       0.000000000   0.500000000   0.398730000    0   0   0
O0       0.000000000   0.000000000   0.420430000    0   0   0
Ti1      0.250000000   0.000000000   0.454790000    0   0   0
Ti1      0.000000000   0.500000000   0.454790000    0   0   0
O0       0.250000000   0.690000000   0.454790000    0   0   0
O0       0.250000000   0.310000000   0.454790000    0   0   0
O0       0.000000000   0.000000000   0.489150000    0   0   0
O0       0.000000000   0.500000000   0.511620000    0   0   0
Ti1      0.250000000   0.500000000   0.543770000    0   0   0
Ti1      0.000000000   0.000000000   0.550050000    0   0   0
O0       0.250000000   0.801560000   0.546210000    0   0   0
O0       0.250000000   0.198440000   0.546210000    0   0   0
O0       0.000000000   0.500000000   0.582220000    0   0   0
O0       0.000000000   0.000000000   0.601140000    0   0   0
Ti1      0.250000000   0.000000000   0.642540000    0   0   0
Ti1      0.000000000   0.500000000   0.632090000    0   0   0
O0       0.250000000   0.687240000   0.641310000    0   0   0
O0       0.250000000   0.312760000   0.641310000    0   0   0
O0       0.000000000   0.000000000   0.671940000    0   0   0
O0       0.500000000   0.500000000   0.330010000    0   0   0
Ti1      0.750000000   0.500000000   0.364370000    0   0   0
Ti1      0.500000000   0.000000000   0.364370000    0   0   0
O0       0.750000000   0.810000000   0.364370000    0   0   0
O0       0.750000000   0.190000000   0.364370000    0   0   0
O0       0.500000000   0.500000000   0.398730000    0   0   0
O0       0.500000000   0.000000000   0.420430000    0   0   0
Ti1      0.750000000   0.000000000   0.454790000    0   0   0
Ti1      0.500000000   0.500000000   0.454790000    0   0   0
O0       0.750000000   0.690000000   0.454790000    0   0   0
O0       0.750000000   0.310000000   0.454790000    0   0   0
O0       0.500000000   0.000000000   0.489150000    0   0   0
O0       0.500000000   0.500000000   0.511620000    0   0   0
Ti1      0.750000000   0.500000000   0.543770000    0   0   0
Ti1      0.500000000   0.000000000   0.550050000    0   0   0
O0       0.750000000   0.801560000   0.546210000    0   0   0
O0       0.750000000   0.198440000   0.546210000    0   0   0
O0       0.500000000   0.500000000   0.582220000    0   0   0
O0       0.500000000   0.000000000   0.601140000    0   0   0
Ti1      0.750000000   0.000000000   0.642540000    0   0   0
Ti1      0.500000000   0.500000000   0.632090000    0   0   0
O0       0.750000000   0.687240000   0.641310000    0   0   0
O0       0.750000000   0.312760000   0.641310000    0   0   0
O0       0.500000000   0.000000000   0.671940000    0   0   0
O0       0.500000000   0.500000000   0.685160419
End final coordinates

     General routines

     Parallel routines

   This run was terminated on:  16:52:20  28Mar2014

   JOB DONE.
Running PBS batch system epilogue script
Job id: 314586.audhumbla.fysik.dtu.dk
Username: zhonxu
Groupname: campgst
Jobname: TiO2/Eads-4-layers/O
Sessionid: 59039
Queuename: verylong
Accounting:
This job has allocated the following 32 nodes:
g037 g037 g037 g037 g037 g037 g037 g037 g037 g037 g037 g037 g037 g037 g037 g037 g027 g027 g027 g027 g027 g027 g027 g027 g027 g027 g027 g027 g027 g027 g027 g027
Finished epilogue job 314586.audhumbla.fysik.dtu.dk for zhonxu