     Program PWSCF v.5.0.2 (svn rev. 9656) starts on 10May2014 at  2: 2:14

     Current dimensions of program PWSCF are:
     Max number of different atomic species (ntypx) = 10
     Max number of k-points (npk) =  40000
     Max angular momentum in pseudopotentials (lmaxx) =  3
     Reading input from pwscf.in
Warning: card &CELL ignored
Warning: card / ignored

     Subspace diagonalization in iterative solution of the eigenvalue problem:
     a serial algorithm will be used

     bravais-lattice index     =            0
     lattice parameter (alat)  =      12.2076  a.u.
     unit-cell volume          =    7496.5096 (a.u.)^3
     number of atoms/cell      =           31
     number of atomic types    =            3
     number of electrons       =       246.00
     number of Kohn-Sham states=          369
     kinetic-energy cutoff     =      40.0000  Ry
     charge density cutoff     =     500.0000  Ry
     convergence threshold     =      1.0E-06
     mixing beta               =       0.7000
     number of iterations used =            8  plain     mixing
     Exchange-correlation      = SLA  PW   PBE  PBE ( 1 4 3 4 0)
     EXX-fraction              =        0.00
     nstep                     =           50

     celldm(1)=  12.207631  celldm(2)=   0.000000  celldm(3)=   0.000000
     celldm(4)=   0.000000  celldm(5)=   0.000000  celldm(6)=   0.000000

     crystal axes: (cart. coord. in units of alat)
               a(1) = (   1.000000   0.000000   0.000000 )
               a(2) = (   0.000000   1.004836   0.000000 )
               a(3) = (   0.000000   0.000000   4.100811 )

     reciprocal axes: (cart. coord. in units 2 pi/alat)
               b(1) = (  1.000000  0.000000  0.000000 )
               b(2) = (  0.000000  0.995187  0.000000 )
               b(3) = (  0.000000  0.000000  0.243854 )

     PseudoPot. # 1 for O  read from file:
     /home/camp/zhonxu/pseudo/o_pbe_v1.01.uspp.F.UPF
     MD5 check sum: 2bcb18d16ea4b960afae9ec6d52f22d2
     Pseudo is Ultrasoft + core correction, Zval =  6.0
     Generated by new atomic code, or converted to UPF format
     Using radial grid of  737 points,  5 beta functions with:
                l(1) =   0
                l(2) =   0
                l(3) =   1
                l(4) =   1
                l(5) =   2
     Q(r) pseudized with  8 coefficients,  rinner =    0.900   0.900   0.900
                                                       0.900   0.900

     PseudoPot. # 2 for Pt read from file:
     /home/camp/zhonxu/pseudo/pt_pbe_v1.uspp.F.UPF
     MD5 check sum: 4c71d6ad5ef119f1eb26a4d0b7884226
     Pseudo is Ultrasoft + core correction, Zval = 16.0
     Generated by new atomic code, or converted to UPF format
     Using radial grid of  985 points,  6 beta functions with:
                l(1) =   0
                l(2) =   0
                l(3) =   1
                l(4) =   1
                l(5) =   2
                l(6) =   2
     Q(r) pseudized with  8 coefficients,  rinner =    1.300   1.300   1.300
                                                       1.300   1.300

     PseudoPot. # 3 for H  read from file:
     /home/camp/zhonxu/pseudo/h_pbe_v1.uspp.F.UPF
     MD5 check sum: 3408e3ff4ec8b0a4e358431e7e038a48
     Pseudo is Ultrasoft, Zval =  1.0
     Generated by new atomic code, or converted to UPF format
     Using radial grid of  615 points,  2 beta functions with:
                l(1) =   0
                l(2) =   0
     Q(r) pseudized with  8 coefficients,  rinner =    0.700

     atomic species   valence    mass     pseudopotential
        O0             6.00    15.99940     O ( 1.00)
        Pt1           16.00   195.08000     Pt( 1.00)
        H2             1.00     1.00794     H ( 1.00)

     Simplified LDA+U calculation (l_max = 2) with parameters (eV):
     atomic species    L          U    alpha       J0     beta
        Pt1            2     0.0000   0.0000   0.0000   0.0000

     No symmetry found

   Cartesian axes

     site n.     atom                  positions (alat units)
         1           O0  tau(   1) = (   0.0000000   0.0000000   1.5489174  )
         2           O0  tau(   2) = (   0.0000000   0.5024180   1.6470088  )
         3           Pt1 tau(   3) = (   0.2500000   0.5024180   1.8504500  )
         4           Pt1 tau(   4) = (   0.0000000   0.0000000   1.8564782  )
         5           O0  tau(   5) = (   0.2500000   0.8139171   1.8182587  )
         6           O0  tau(   6) = (   0.2500000   0.1909188   1.8867012  )
         7           O0  tau(   7) = (   0.0000000   0.5024180   2.0373240  )
         8           O0  tau(   8) = (   0.0000000   0.0000000   2.1721997  )
         9           Pt1 tau(   9) = (   0.2500000   0.0000000   2.3623543  )
        10           Pt1 tau(  10) = (   0.0000000   0.5024180   2.3594017  )
        11           O0  tau(  11) = (   0.2500000   0.6933368   2.3215512  )
        12           O0  tau(  12) = (   0.2500000   0.3114991   2.4021322  )
        13           O0  tau(  13) = (   0.0000000   0.0000000   2.5481621  )
        14           O0  tau(  14) = (   0.5000000   0.0000000   1.5492455  )
        15           O0  tau(  15) = (   0.5000000   0.5024180   1.6439332  )
        16           Pt1 tau(  16) = (   0.7500000   0.5024180   1.8504910  )
        17           Pt1 tau(  17) = (   0.5000000   0.0000000   1.8565192  )
        18           O0  tau(  18) = (   0.7500000   0.8139171   1.8184227  )
        19           O0  tau(  19) = (   0.7500000   0.1909188   1.8866602  )
        20           O0  tau(  20) = (   0.5000000   0.5024180   2.0431061  )
        21           O0  tau(  21) = (   0.5000000   0.0000000   2.1716256  )
        22           Pt1 tau(  22) = (   0.7500000   0.0000000   2.3623953  )
        23           Pt1 tau(  23) = (   0.5000000   0.5024180   2.3697358  )
        24           O0  tau(  24) = (   0.7500000   0.6933368   2.3215102  )
        25           O0  tau(  25) = (   0.7500000   0.3114991   2.4021732  )
        26           O0  tau(  26) = (   0.5000000   0.0000000   2.5480390  )
        27           H2  tau(  27) = (   0.0001100   0.6425926   1.5814778  )
        28           H2  tau(  28) = (   0.5001800   0.6431151   1.5801656  )
        29           H2  tau(  29) = (   0.1426600   0.0364956   1.5073762  )
        30           H2  tau(  30) = (   0.6419200   0.0388771   1.5073762  )
        31           O0  tau(  31) = (   0.5000900   0.5753691   2.6428088  )

     number of k points=    10  Methfessel-Paxton smearing, width (Ry)=  0.0100
                       cart. coord. in units 2pi/alat
        k(    1) = (   0.0000000   0.0000000   0.0000000), wk =   0.1250000
        k(    2) = (   0.0000000   0.2487968   0.0000000), wk =   0.2500000
        k(    3) = (   0.0000000  -0.4975937   0.0000000), wk =   0.1250000
        k(    4) = (   0.2500000   0.0000000   0.0000000), wk =   0.2500000
        k(    5) = (   0.2500000   0.2487968   0.0000000), wk =   0.2500000
        k(    6) = (   0.2500000  -0.4975937   0.0000000), wk =   0.2500000
        k(    7) = (  -0.5000000   0.0000000   0.0000000), wk =   0.1250000
        k(    8) = (  -0.5000000   0.2487968   0.0000000), wk =   0.2500000
        k(    9) = (  -0.5000000  -0.4975937   0.0000000), wk =   0.1250000
        k(   10) = (  -0.2500000   0.2487968   0.0000000), wk =   0.2500000

     Largest allocated arrays     est. size (Mb)     dimensions
     Largest temporary arrays     est. size (Mb)     dimensions

     Check: negative/imaginary core charge=   -0.000003    0.000000

     Initial potential from superposition of free atoms
     Check: negative starting charge=   -1.533958

     starting charge  241.99985, renormalised to  246.00000

     negative rho (up, down):  0.156E+01 0.000E+00
     Number of +U iterations with fixed ns =  0
     Starting occupations:
 --- enter write_ns ---
 LDA+U parameters:
U( 2)     =  0.00000000
alpha( 2) =  0.00000000
atom    3   Tr[ns(na)] =   8.00000
    eigenvalues:
  0.800  0.800  0.800  0.800  0.800
    eigenvectors:
  1.000  0.000  0.000  0.000  0.000
  0.000  1.000  0.000  0.000  0.000
  0.000  0.000  1.000  0.000  0.000
  0.000  0.000  0.000  1.000  0.000
  0.000  0.000  0.000  0.000  1.000
    occupations:
  0.800  0.000  0.000  0.000  0.000
  0.000  0.800  0.000  0.000  0.000
  0.000  0.000  0.800  0.000  0.000
  0.000  0.000  0.000  0.800  0.000
  0.000  0.000  0.000  0.000  0.800
atom    4   Tr[ns(na)] =   8.00000
    eigenvalues:
  0.800  0.800  0.800  0.800  0.800
    eigenvectors:
  1.000  0.000  0.000  0.000  0.000
  0.000  1.000  0.000  0.000  0.000
  0.000  0.000  1.000  0.000  0.000
  0.000  0.000  0.000  1.000  0.000
  0.000  0.000  0.000  0.000  1.000
    occupations:
  0.800  0.000  0.000  0.000  0.000
  0.000  0.800  0.000  0.000  0.000
  0.000  0.000  0.800  0.000  0.000
  0.000  0.000  0.000  0.800  0.000
  0.000  0.000  0.000  0.000  0.800
atom    9   Tr[ns(na)] =   8.00000
    eigenvalues:
  0.800  0.800  0.800  0.800  0.800
    eigenvectors:
  1.000  0.000  0.000  0.000  0.000
  0.000  1.000  0.000  0.000  0.000
  0.000  0.000  1.000  0.000  0.000
  0.000  0.000  0.000  1.000  0.000
  0.000  0.000  0.000  0.000  1.000
    occupations:
  0.800  0.000  0.000  0.000  0.000
  0.000  0.800  0.000  0.000  0.000
  0.000  0.000  0.800  0.000  0.000
  0.000  0.000  0.000  0.800  0.000
  0.000  0.000  0.000  0.000  0.800
atom   10   Tr[ns(na)] =   8.00000
    eigenvalues:
  0.800  0.800  0.800  0.800  0.800
    eigenvectors:
  1.000  0.000  0.000  0.000  0.000
  0.000  1.000  0.000  0.000  0.000
  0.000  0.000  1.000  0.000  0.000
  0.000  0.000  0.000  1.000  0.000
  0.000  0.000  0.000  0.000  1.000
    occupations:
  0.800  0.000  0.000  0.000  0.000
  0.000  0.800  0.000  0.000  0.000
  0.000  0.000  0.800  0.000  0.000
  0.000  0.000  0.000  0.800  0.000
  0.000  0.000  0.000  0.000  0.800
atom   16   Tr[ns(na)] =   8.00000
    eigenvalues:
  0.800  0.800  0.800  0.800  0.800
    eigenvectors:
  1.000  0.000  0.000  0.000  0.000
  0.000  1.000  0.000  0.000  0.000
  0.000  0.000  1.000  0.000  0.000
  0.000  0.000  0.000  1.000  0.000
  0.000  0.000  0.000  0.000  1.000
    occupations:
  0.800  0.000  0.000  0.000  0.000
  0.000  0.800  0.000  0.000  0.000
  0.000  0.000  0.800  0.000  0.000
  0.000  0.000  0.000  0.800  0.000
  0.000  0.000  0.000  0.000  0.800
atom   17   Tr[ns(na)] =   8.00000
    eigenvalues:
  0.800  0.800  0.800  0.800  0.800
    eigenvectors:
  1.000  0.000  0.000  0.000  0.000
  0.000  1.000  0.000  0.000  0.000
  0.000  0.000  1.000  0.000  0.000
  0.000  0.000  0.000  1.000  0.000
  0.000  0.000  0.000  0.000  1.000
    occupations:
  0.800  0.000  0.000  0.000  0.000
  0.000  0.800  0.000  0.000  0.000
  0.000  0.000  0.800  0.000  0.000
  0.000  0.000  0.000  0.800  0.000
  0.000  0.000  0.000  0.000  0.800
atom   22   Tr[ns(na)] =   8.00000
    eigenvalues:
  0.800  0.800  0.800  0.800  0.800
    eigenvectors:
  1.000  0.000  0.000  0.000  0.000
  0.000  1.000  0.000  0.000  0.000
  0.000  0.000  1.000  0.000  0.000
  0.000  0.000  0.000  1.000  0.000
  0.000  0.000  0.000  0.000  1.000
    occupations:
  0.800  0.000  0.000  0.000  0.000
  0.000  0.800  0.000  0.000  0.000
[...]
  0.000  0.000  0.453  0.420  0.126
    occupations:
  0.929  0.004  0.007 -0.110 -0.001
  0.004  0.685  0.002  0.005 -0.004
  0.007  0.002  0.982  0.016  0.001
 -0.110  0.005  0.016  0.743  0.001
 -0.001 -0.004  0.001  0.001  0.981
atom    4   Tr[ns(na)] =   8.62696
    eigenvalues:
  0.681  0.699  0.974  0.978  0.981
    eigenvectors:
  0.000  0.987  0.005  0.002  0.006
  0.007  0.000  0.078  0.910  0.004
  0.000  0.004  0.891  0.068  0.036
  0.000  0.008  0.026  0.013  0.953
  0.993  0.000  0.001  0.007  0.000
    occupations:
  0.703 -0.005 -0.018  0.026 -0.001
 -0.005  0.976  0.001  0.000  0.025
 -0.018  0.001  0.973  0.003  0.000
  0.026  0.000  0.003  0.979  0.000
 -0.001  0.025  0.000  0.000  0.683
atom    9   Tr[ns(na)] =   8.59046
    eigenvalues:
  0.701  0.715  0.946  0.951  0.982
    eigenvectors:
  0.002  0.135  0.001  0.010  0.852
  0.988  0.011  0.000  0.000  0.000
  0.000  0.010  0.017  0.969  0.004
  0.010  0.843  0.001  0.005  0.142
  0.000  0.000  0.981  0.016  0.002
    occupations:
  0.945  0.001 -0.007 -0.092  0.001
  0.001  0.702  0.001  0.001 -0.004
 -0.007  0.001  0.949 -0.023  0.001
 -0.092  0.001 -0.023  0.754 -0.001
  0.001 -0.004  0.001 -0.001  0.946
atom   10   Tr[ns(na)] =   8.67151
    eigenvalues:
  0.660  0.749  0.968  0.977  0.982
    eigenvectors:
  0.000  0.982  0.000  0.003  0.015
  0.010  0.000  0.990  0.000  0.000
  0.000  0.001  0.000  0.563  0.436
  0.000  0.017  0.000  0.434  0.550
  0.990  0.000  0.010  0.000  0.000
    occupations:
  0.753  0.000 -0.009  0.030  0.000
  0.000  0.965  0.000 -0.000 -0.030
 -0.009  0.000  0.979 -0.001 -0.000
  0.030 -0.000 -0.001  0.976 -0.000
  0.000 -0.030 -0.000 -0.000  0.663
atom   16   Tr[ns(na)] =   8.64064
    eigenvalues:
  0.681  0.695  0.980  0.981  0.984
    eigenvectors:
  0.048  0.129  0.457  0.325  0.042
  0.739  0.261  0.000  0.000  0.000
  0.000  0.003  0.002  0.176  0.819
  0.212  0.607  0.100  0.057  0.023
  0.000  0.000  0.442  0.442  0.117
    occupations:
  0.929 -0.004  0.006 -0.110  0.001
 -0.004  0.685 -0.002 -0.005 -0.004
  0.006 -0.002  0.982  0.015 -0.001
 -0.110 -0.005  0.015  0.743 -0.001
  0.001 -0.004 -0.001 -0.001  0.981
atom   17   Tr[ns(na)] =   8.62473
    eigenvalues:
  0.682  0.700  0.970  0.978  0.982
    eigenvectors:
  0.000  0.987  0.005  0.001  0.007
  0.007  0.000  0.037  0.953  0.002
  0.000  0.004  0.949  0.034  0.013
  0.000  0.009  0.009  0.004  0.978
  0.993  0.000  0.000  0.007  0.000
    occupations:
  0.704 -0.005 -0.018  0.026 -0.001
 -0.005  0.976  0.001  0.000  0.025
 -0.018  0.001  0.969  0.003  0.000
  0.026  0.000  0.003  0.979  0.000
 -0.001  0.025  0.000  0.000  0.685
atom   22   Tr[ns(na)] =   8.59042
    eigenvalues:
  0.702  0.715  0.946  0.951  0.982
    eigenvectors:
  0.000  0.137  0.001  0.011  0.852
  0.997  0.002  0.000  0.000  0.000
  0.000  0.010  0.027  0.959  0.004
  0.002  0.851  0.001  0.004  0.142
  0.000  0.000  0.972  0.026  0.002
    occupations:
  0.945  0.000 -0.007 -0.092 -0.001
  0.000  0.702 -0.001 -0.001 -0.004
 -0.007 -0.001  0.949 -0.023 -0.001
 -0.092 -0.001 -0.023  0.754  0.001
 -0.001 -0.004 -0.001  0.001  0.946
atom   23   Tr[ns(na)] =   8.56811
    eigenvalues:
  0.712  0.733  0.908  0.947  0.985
    eigenvectors:
  0.000  0.897  0.097  0.000  0.006
  0.013  0.000  0.000  0.987  0.000
  0.000  0.089  0.891  0.000  0.020
  0.000  0.014  0.012  0.000  0.973
  0.987  0.000  0.000  0.013  0.000
    occupations:
  0.752  0.000  0.049  0.026 -0.000
  0.000  0.944 -0.000  0.000 -0.027
  0.049 -0.000  0.894 -0.017 -0.000
  0.026  0.000 -0.017  0.980 -0.000
 -0.000 -0.027 -0.000 -0.000  0.715
N of occupied +U levels =  68.9533542
 --- exit write_ns ---

          k = 0.0000 0.0000 0.0000 ( 32157 PWs)   bands (ev):

   -56.4582 -56.3516 -56.2306 -56.0676 -56.0125 -55.9414 -55.9234 -55.9198
   -55.9009 -55.8893 -55.8420 -55.7634 -55.7572 -55.6976 -55.6573 -55.6373
   -55.6303 -55.6102 -55.5869 -55.5803 -55.5708 -55.2561 -55.0021 -54.7042
   -22.1920 -21.7898 -21.4427 -21.2480 -20.6121 -20.6043 -20.5212 -20.4065
   -20.3771 -20.3427 -20.2797 -20.2626 -20.1953 -19.9903 -19.9535 -19.8499
   -19.2204 -18.9895 -18.8373 -10.6081 -10.4760 -10.2262  -9.5678  -9.3790
    -9.2817  -9.1937  -9.1801  -9.1484  -9.0781  -8.9710  -8.9215  -8.8621
    -8.7916  -8.7634  -8.5563  -8.4592  -8.4013  -8.0477  -7.8591  -7.8048
    -7.7637  -7.6109  -7.6083  -7.1008  -7.0404  -7.0143  -6.5880  -6.3762
    -6.3246  -6.1570  -6.0867  -5.9820  -5.9620  -5.9266  -5.8226  -5.7090
    -5.6010  -5.4758  -5.4587  -5.3748  -5.3321  -5.2376  -5.1836  -5.1584
    -5.0425  -5.0043  -4.9303  -4.9115  -4.8573  -4.7896  -4.7562  -4.6543
    -4.6259  -4.5825  -4.4678  -4.4372  -4.3768  -4.3443  -4.2763  -4.2395
    -4.0765  -3.9943  -3.8080  -3.5588  -3.4177  -3.2002  -3.0310  -2.9824
    -2.9126  -2.8689  -2.6021  -2.5119  -2.3779  -2.2553  -2.2355  -2.0841
    -1.8526  -1.7446  -1.6206  -1.5023  -1.3767  -0.9847  -0.6136  -0.5861
    -0.5729  -0.5418  -0.2088   0.0553   0.3836   0.7528   0.9642   1.2202
     1.2456   1.2547   1.7781   1.9543   2.2853   3.3020   4.1867   4.6733
     4.8816   5.4840   5.6005   5.6959   5.8266   6.3261   6.4240   6.5564
     6.7468   6.7884   6.8062   6.9382   7.2135   7.3343   7.4009   7.4585
     7.5288   7.6320   7.7111   7.7287   7.8801   7.9619   8.2029   8.2056
     8.2243   8.2464   8.3151   8.3774   8.5251   8.5658   8.5803   8.7658
     8.8995   8.9316   8.9947   9.0981   9.1762   9.1939   9.4315   9.4712
     9.5904   9.7630   9.7907   9.8926   9.9537   9.9881  10.0613  10.2441
    10.4190  10.4812  10.6297  10.7215  10.8294  10.8416  10.8662  10.9437
    10.9961  11.0847  11.2170  11.2545  11.3543  11.4261  11.5293  11.5430
    11.5857  11.7090  11.8247  11.8916  11.9947  12.0180  12.0647  12.1082
    12.2009  12.2380  12.2511  12.2797  12.3796  12.4101  12.6215  12.6385
    12.6942  12.7792  12.7904  12.9933  13.1172  13.1572  13.2718  13.3849
    13.3915  13.5605  13.6256  13.6835  13.7261  13.8397  13.9433  14.0459
    14.0681  14.1914  14.2491  14.3196  14.4000  14.4404  14.4968  14.6060
    14.6664  14.8252  14.8586  15.0530  15.1589  15.3104  15.3236  15.3544
    15.4329  15.4561  15.5491  15.6147  15.6925  15.7145  15.7993  15.8338
    15.9394  15.9698  16.0339  16.1537  16.1827  16.2954  16.3186  16.3778
    16.4014  16.4281  16.4473  16.5144  16.6170  16.6470  16.7781  16.8048
    16.8630  16.8978  17.0457  17.1658  17.1783  17.2562  17.2749  17.3273
    17.4513  17.5802  17.6440  17.8066  17.8451  17.8837  17.9688  18.0477
    18.1269  18.1987  18.2400  18.3303  18.3449  18.3802  18.4198  18.5905
    18.6299  18.6600  18.7077  18.7570  18.7614  18.8480  18.9645  19.0296
    19.0648  19.0912  19.1056  19.2035  19.2966  19.3404  19.3775  19.4380
    19.4512  19.5009  19.5539  19.6049  19.6812  19.7132  19.8199  19.8565
    19.9503  19.9948  20.0325  20.1071  20.1454  20.1883  20.3029  20.3778
    20.5365  20.5942  20.6280  20.8068  20.8829  20.9264  20.9546  20.9794
    21.0107  21.0772  21.1790  21.2521  21.3562  21.4356  21.4907  21.5276
    21.5478  21.5946  21.6242  21.6819  21.7000  21.7307  21.7406  21.7887
    21.8809  21.8997  21.9330  21.9849  22.0298  22.0705  22.1486  22.2408
    22.2871

[...]

          k = 0.2500-0.4976 0.0000 ( 32026 PWs)   bands (ev):

[...]

          k =-0.5000 0.0000 0.0000 ( 31984 PWs)   bands (ev):

[...]

          k =-0.2500 0.2488 0.0000 ( 32025 PWs)   bands (ev):

   -56.4582 -56.3514 -56.2305 -56.0595 -56.0205 -55.9338 -55.9229 -55.9203
   -55.8970 -55.8940 -55.8490 -55.7623 -55.7578 -55.6976 -55.6575 -55.6363
   -55.6313 -55.6100 -55.5860 -55.5813 -55.5711 -55.2565 -55.0021 -54.7042
   -22.1144 -21.8047 -21.2666 -21.0710 -20.7502 -20.6123 -20.6064 -20.4360
   -20.4059 -20.3398 -20.2653 -20.2244 -20.1917 -20.0628 -20.0101 -19.9935
   -19.2475 -19.0415 -18.8405 -10.1963  -9.9500  -9.8925  -9.7507  -9.3730
    -9.3557  -9.2991  -9.0941  -9.0475  -9.0165  -8.9194  -8.8486  -8.7346
    -8.5947  -8.5631  -8.5063  -8.3486  -8.2235  -8.0450  -7.8499  -7.7680
    -7.6804  -7.5592  -7.4310  -7.0552  -6.9911  -6.9181  -6.8666  -6.7498
    -6.7059  -6.6704  -6.5995  -6.4760  -6.4095  -6.3706  -6.3196  -6.1173
    -6.0717  -5.9328  -5.8770  -5.7069  -5.6636  -5.5417  -5.4832  -5.2213
    -5.1426  -5.0603  -4.9652  -4.8941  -4.8085  -4.7252  -4.6081  -4.4074
    -4.3161  -4.2355  -4.1761  -4.0281  -3.9610  -3.8278  -3.7743  -3.6981
    -3.6659  -3.5724  -3.5054  -3.4580  -3.4317  -3.4009  -3.1440  -3.1191
    -2.9452  -2.6877  -2.5711  -2.4262  -2.3430  -2.2675  -2.1854  -2.0725
    -1.9496  -1.8159  -1.7106  -1.6208  -1.4911  -1.1287  -1.0229  -0.6650
    -0.3523  -0.1613   0.1033   0.3826   0.6058   0.7570   0.7916   0.9381
     1.1194   1.3143   1.3470   1.7475   3.0470   3.8051   4.6041   5.0123
     5.0452   5.1215   5.3379   5.6493   6.0485   6.1560   6.1830   6.3074
     6.4398   6.5347   6.6781   6.8449   6.9617   7.0122   7.1003   7.2026
     7.3642   7.4693   7.5376   7.5841   7.6695   7.8607   7.9168   8.0060
     8.1299   8.2252   8.2850   8.4278   8.5436   8.6418   8.6694   8.7413
     8.8344   8.9716   9.1293   9.2909   9.3510   9.4576   9.5250   9.5822
     9.7018   9.8650   9.9977  10.1236  10.2007  10.2618  10.3216  10.3805
    10.5281  10.5819  10.6582  10.7771  10.8122  10.9413  11.0392  11.0748
    11.1721  11.2068  11.3541  11.4459  11.4801  11.7000  11.7177  11.7727
    11.8413  11.9448  11.9780  12.0561  12.1281  12.1974  12.2516  12.3247
    12.3987  12.4513  12.5057  12.5640  12.6336  12.7298  12.8158  12.8648
    12.9158  13.0163  13.1411  13.1637  13.2132  13.4012  13.4899  13.5295
    13.6050  13.6887  13.7537  13.8435  13.8847  13.9473  14.0109  14.1133
    14.1679  14.2524  14.4077  14.4650  14.5310  14.6198  14.7237  14.7930
    14.8597  14.9297  15.0448  15.1974  15.2301  15.3212  15.3966  15.4422
    15.5178  15.5694  15.6133  15.6549  15.6870  15.7532  15.7799  15.8219
    15.8864  15.9920  16.0388  16.0888  16.1387  16.1690  16.1907  16.2038
    16.2533  16.3397  16.3900  16.4044  16.4081  16.4239  16.4577  16.4996
    16.5883  16.7320  16.7973  16.8535  16.9051  16.9177  17.0101  17.0913
    17.1273  17.1806  17.1920  17.2049  17.2465  17.2978  17.3986  17.4583
    17.5010  17.5511  17.5818  17.6171  17.7237  17.7686  17.8805  17.9429
    18.0454  18.0787  18.1246  18.2075  18.2664  18.3623  18.4553  18.4999
    18.5848  18.6127  18.6937  18.7072  18.7994  18.8246  18.8949  19.0097
    19.0283  19.1396  19.1639  19.1957  19.3134  19.3556  19.4168  19.4379
    19.6317  19.7465  19.8161  19.8774  19.9322  19.9444  19.9802  20.0525
    20.1046  20.1887  20.2311  20.2926  20.3494  20.3651  20.4876  20.5632
    20.6356  20.6788  20.7547  20.8230  20.9092  20.9752  21.0116  21.0755
    21.0828  21.2244  21.2690  21.3734  21.4191  21.4711  21.5183  21.5568
    21.6053  21.6558  21.7220  21.7811  21.8199  21.8836  21.9775  22.0899
    22.1170

     the Fermi energy is    -1.6671 ev

!    total energy              =   -2280.85014027 Ry
     Harris-Foulkes estimate   =   -2280.85014090 Ry
     estimated scf accuracy    <       0.00000067 Ry

     The total energy is the sum of the following terms:

     one-electron contribution =  -23635.91359930 Ry
     hartree contribution      =   11857.91444589 Ry
     xc contribution           =    -572.00329645 Ry
     ewald contribution        =   10069.15257164 Ry
     Hubbard energy            =       0.00000000 Ry
     smearing contrib. (-TS)   =      -0.00026205 Ry

     convergence has been achieved in  33 iterations

     Forces acting on atoms (Ry/au):

     negative rho (up, down):  0.158E+01 0.000E+00
     atom    1 type  1   force =    -0.00853027   -0.00454305    0.00026218
     atom    2 type  1   force =     0.00014046    0.00415483    0.00053090
     atom    3 type  2   force =     0.01374906    0.00688898    0.00016183
     atom    4 type  2   force =     0.01081926    0.00456663    0.00009274
     atom    5 type  1   force =     0.00125323   -0.00492452   -0.00009096
     atom    6 type  1   force =    -0.00019434   -0.00183906   -0.00018556
     atom    7 type  1   force =     0.00011603   -0.00088170   -0.00078787
     atom    8 type  1   force =    -0.00416890    0.00264965    0.00016280
     atom    9 type  2   force =     0.00552712   -0.00450394    0.00019048
     atom   10 type  2   force =    -0.00002397   -0.01656456   -0.00077602
     atom   11 type  1   force =    -0.00637962    0.00178500   -0.00017062
     atom   12 type  1   force =    -0.01021309    0.01269622   -0.00035687
     atom   13 type  1   force =    -0.00111851   -0.00817128    0.00022344
     atom   14 type  1   force =    -0.00888857   -0.00338102    0.00010088
     atom   15 type  1   force =     0.00024740    0.00172032    0.00057465
     atom   16 type  2   force =    -0.01445955    0.00682916    0.00001783
     atom   17 type  2   force =     0.01076600    0.00473690    0.00003161
     atom   18 type  1   force =     0.00114936   -0.00488551   -0.00008738
     atom   19 type  1   force =     0.00006315   -0.00176713   -0.00018743
     atom   20 type  1   force =     0.00007135   -0.00295774   -0.00023698
     atom   21 type  1   force =    -0.00399310    0.00276020    0.00022201
     atom   22 type  2   force =    -0.00171577   -0.00440295   -0.00001670
     atom   23 type  2   force =    -0.00025195    0.01100545   -0.00060655
     atom   24 type  1   force =     0.00647936    0.00182586   -0.00017857
     atom   25 type  1   force =     0.01034970    0.01267602   -0.00033579
     atom   26 type  1   force =    -0.00114619   -0.01446746    0.00010143
     atom   27 type  3   force =    -0.00000790   -0.00030710    0.00028916
     atom   28 type  3   force =    -0.00002482    0.00017873   -0.00003245
     atom   29 type  3   force =     0.00013192   -0.00043582    0.00012043
     atom   30 type  3   force =     0.00023706   -0.00071440    0.00015319
     atom   31 type  1   force =     0.00001607    0.00027327    0.00081418

     Total force =     0.002167     Total SCF correction =     0.002879
     SCF correction compared to forces is large: reduce conv_thr to get better values

     BFGS Geometry Optimization

     bfgs converged in   1 scf cycles and   0 bfgs steps
     (criteria: energy < 0.10E-03, force < 0.10E-02)

     End of BFGS Geometry Optimization

     Final energy   =   -2280.8501402716 Ry
Begin final coordinates

ATOMIC_POSITIONS (crystal)
O0       0.000000000   0.000000000   0.377710000    0   0   1
O0       0.000000000   0.500000000   0.401630000    0   0   1
Pt1      0.250000000   0.500000000   0.451240000    0   0   1
Pt1      0.000000000   0.000000000   0.452710000    0   0   1
O0       0.250000000   0.810000000   0.443390000    0   0   1
O0       0.250000000   0.190000000   0.460080000    0   0   1
O0       0.000000000   0.500000000   0.496810000    0   0   1
O0       0.000000000   0.000000000   0.529700000    0   0   1
Pt1      0.250000000   0.000000000   0.576070000    0   0   1
Pt1      0.000000000   0.500000000   0.575350000    0   0   1
O0       0.250000000   0.690000000   0.566120000    0   0   1
O0       0.250000000   0.310000000   0.585770000    0   0   1
O0       0.000000000   0.000000000   0.621380000    0   0   1
O0       0.500000000   0.000000000   0.377790000    0   0   1
O0       0.500000000   0.500000000   0.400880000    0   0   1
Pt1      0.750000000   0.500000000   0.451250000    0   0   1
Pt1      0.500000000   0.000000000   0.452720000    0   0   1
O0       0.750000000   0.810000000   0.443430000    0   0   1
O0       0.750000000   0.190000000   0.460070000    0   0   1
O0       0.500000000   0.500000000   0.498220000    0   0   1
O0       0.500000000   0.000000000   0.529560000    0   0   1
Pt1      0.750000000   0.000000000   0.576080000    0   0   1
Pt1      0.500000000   0.500000000   0.577870000    0   0   1
O0       0.750000000   0.690000000   0.566110000    0   0   1
O0       0.750000000   0.310000000   0.585780000    0   0   1
O0       0.500000000   0.000000000   0.621350000    0   0   1
H2       0.000110000   0.639500000   0.385650000
H2       0.500180000   0.640020000   0.385330000
H2       0.142660000   0.036320000   0.367580000
H2       0.641920000   0.038690000   0.367580000
O0       0.500090000   0.572600000   0.644460000
End final coordinates

     General routines

     Parallel routines
     Hubbard U routines

   This run was terminated on:   4: 5:40  10May2014

   JOB DONE.
Running PBS batch system epilogue script
Job id: 351067.audhumbla.fysik.dtu.dk
Username: zhonxu
Groupname: campgst
Jobname: PtO2/Eads-2-layers/O-U-0.0
Sessionid: 16855
Queuename: verylong
Accounting:
This job has allocated the following 16 nodes:
d101 d101 d101 d101 d101 d101 d101 d101 d028 d028 d028 d028 d028 d028 d028 d028
Finished epilogue job 351067.audhumbla.fysik.dtu.dk for zhonxu