     Program PWSCF v.5.0.2 (svn rev. 9656) starts on 12Feb2014 at  2:29:32

     Current dimensions of program PWSCF are:
     Max number of different atomic species (ntypx) = 10
     Max number of k-points (npk) =  40000
     Max angular momentum in pseudopotentials (lmaxx) =  3
     Reading input from alpha_-0.07/alpha_-0.07.in
Warning: card &IONS ignored
Warning: card / ignored
Warning: card &CELL ignored
Warning: card / ignored

     Subspace diagonalization in iterative solution of the eigenvalue problem:
     a serial algorithm will be used

     bravais-lattice index     =            0
     lattice parameter (alat)  =      17.1965  a.u.
     unit-cell volume          =    3475.9200 (a.u.)^3
     number of atoms/cell      =           48
     number of atomic types    =            3
     number of electrons       =       432.00
     number of Kohn-Sham states=          648
     kinetic-energy cutoff     =      40.0000  Ry
     charge density cutoff     =     500.0000  Ry
     convergence threshold     =      1.0E-06
     mixing beta               =       0.7000
     number of iterations used =            8  plain     mixing
     Exchange-correlation      = SLA  PW   PBE  PBE ( 1 4 3 4 0)
     EXX-fraction              =        0.00

     celldm(1)=  17.196508  celldm(2)=   0.000000  celldm(3)=   0.000000
     celldm(4)=   0.000000  celldm(5)=   0.000000  celldm(6)=   0.000000

     crystal axes: (cart. coord. in units of alat)
               a(1) = (   1.000000   0.000000   0.000000 )
               a(2) = (   0.000000   1.000000   0.000000 )
               a(3) = (   0.000000   0.000000   0.683516 )

     reciprocal axes: (cart. coord. in units 2 pi/alat)
               b(1) = (  1.000000  0.000000  0.000000 )
               b(2) = (  0.000000  1.000000  0.000000 )
               b(3) = (  0.000000  0.000000  1.463023 )

     PseudoPot. # 1 for Rh read from file:
     /home/camp/zhonxu/pseudo/rh_pbe_v1.uspp.F.UPF
     MD5 check sum: 37b626987ad0dd8ec6bf4cc9ef289918
     Pseudo is Ultrasoft + core correction, Zval = 15.0
     Generated by new atomic code, or converted to UPF format
     Using radial grid of  969 points,  7 beta functions with:
                l(1) =   0
                l(2) =   0
                l(3) =   1
                l(4) =   1
                l(5) =   2
                l(6) =   2
                l(7) =   2
     Q(r) pseudized with  6 coefficients,  rinner =    1.050   1.050   1.050
                                                       1.050   1.050

     PseudoPot. # 2 for Rh read from file:
     /home/camp/zhonxu/pseudo/rh_pbe_v1.uspp.F.UPF
     MD5 check sum: 37b626987ad0dd8ec6bf4cc9ef289918
     Pseudo is Ultrasoft + core correction, Zval = 15.0
     Generated by new atomic code, or converted to UPF format
     Using radial grid of  969 points,  7 beta functions with:
                l(1) =   0
                l(2) =   0
                l(3) =   1
                l(4) =   1
                l(5) =   2
                l(6) =   2
                l(7) =   2
     Q(r) pseudized with  6 coefficients,  rinner =    1.050   1.050   1.050
                                                       1.050   1.050

     PseudoPot. # 3 for O  read from file:
     /home/camp/zhonxu/pseudo/o_pbe_v1.01.uspp.F.UPF
     MD5 check sum: 2bcb18d16ea4b960afae9ec6d52f22d2
     Pseudo is Ultrasoft + core correction, Zval =  6.0
     Generated by new atomic code, or converted to UPF format
     Using radial grid of  737 points,  5 beta functions with:
                l(1) =   0
                l(2) =   0
                l(3) =   1
                l(4) =   1
                l(5) =   2
     Q(r) pseudized with  8 coefficients,  rinner =    0.900   0.900   0.900
                                                       0.900   0.900

     atomic species   valence    mass     pseudopotential
        Rh0           15.00   102.90550     Rh( 1.00)
        Rh1           15.00   102.90550     Rh( 1.00)
        O2             6.00    15.99940     O ( 1.00)

     Starting magnetic structure
     atomic species   magnetization
        Rh0          0.000
        Rh1          0.000
        O2           0.000

     Simplified LDA+U calculation (l_max = 2) with parameters (eV):
     atomic species    L          U    alpha       J0     beta
        Rh0            2     0.0000  -0.0700   0.0000   0.0000
        Rh1            2     0.0000   0.0000   0.0000   0.0000
        O2             1     0.0000   0.0000   0.0000   0.0000

      8 Sym. Ops., with inversion, found

   Cartesian axes

     site n.     atom                  positions (alat units)
         1           Rh0 tau(   1) = (   0.0000000   0.0000000   0.0000000  )
         2           Rh1 tau(   2) = (   0.2500000   0.2500000   0.1708791  )
         3           Rh1 tau(   3) = (   0.0000000   0.0000000   0.3417582  )
         4           Rh1 tau(   4) = (   0.2500000   0.2500000   0.5126374  )
         5           Rh1 tau(   5) = (   0.0000000   0.5000000   0.0000000  )
         6           Rh1 tau(   6) = (   0.2500000   0.7500000   0.1708791  )
         7           Rh1 tau(   7) = (   0.0000000   0.5000000   0.3417582  )
         8           Rh1 tau(   8) = (   0.2500000   0.7500000   0.5126374  )
         9           Rh1 tau(   9) = (   0.5000000   0.0000000   0.0000000  )
        10           Rh1 tau(  10) = (   0.7500000   0.2500000   0.1708791  )
        11           Rh1 tau(  11) = (   0.5000000   0.0000000   0.3417582  )
        12           Rh1 tau(  12) = (   0.7500000   0.2500000   0.5126374  )
        13           Rh1 tau(  13) = (   0.5000000   0.5000000   0.0000000  )
        14           Rh1 tau(  14) = (   0.7500000   0.7500000   0.1708791  )
        15           Rh1 tau(  15) = (   0.5000000   0.5000000   0.3417582  )
        16           Rh1 tau(  16) = (   0.7500000   0.7500000   0.5126374  )
        17           O2  tau(  17) = (   0.1550000   0.1550000   0.0000000  )
        18           O2  tau(  18) = (  -0.1550000  -0.1550000   0.0000000  )
        19           O2  tau(  19) = (   0.4050000   0.0950000   0.1708791  )
        20           O2  tau(  20) = (   0.0950000   0.4050000   0.1708791  )
        21           O2  tau(  21) = (   0.1550000   0.1550000   0.3417582  )
        22           O2  tau(  22) = (  -0.1550000  -0.1550000   0.3417582  )
        23           O2  tau(  23) = (   0.4050000   0.0950000   0.5126374  )
        24           O2  tau(  24) = (   0.0950000   0.4050000   0.5126374  )
        25           O2  tau(  25) = (   0.1550000   0.6550000   0.0000000  )
        26           O2  tau(  26) = (  -0.1550000   0.3450000   0.0000000  )
        27           O2  tau(  27) = (   0.4050000   0.5950000   0.1708791  )
        28           O2  tau(  28) = (   0.0950000   0.9050000   0.1708791  )
        29           O2  tau(  29) = (   0.1550000   0.6550000   0.3417582  )
        30           O2  tau(  30) = (  -0.1550000   0.3450000   0.3417582  )
        31           O2  tau(  31) = (   0.4050000   0.5950000   0.5126374  )
        32           O2  tau(  32) = (   0.0950000   0.9050000   0.5126374  )
        33           O2  tau(  33) = (   0.6550000   0.1550000   0.0000000  )
        34           O2  tau(  34) = (   0.3450000  -0.1550000   0.0000000  )
        35           O2  tau(  35) = (   0.9050000   0.0950000   0.1708791  )
        36           O2  tau(  36) = (   0.5950000   0.4050000   0.1708791  )
        37           O2  tau(  37) = (   0.6550000   0.1550000   0.3417582  )
        38           O2  tau(  38) = (   0.3450000  -0.1550000   0.3417582  )
        39           O2  tau(  39) = (   0.9050000   0.0950000   0.5126374  )
        40           O2  tau(  40) = (   0.5950000   0.4050000   0.5126374  )
        41           O2  tau(  41) = (   0.6550000   0.6550000   0.0000000  )
        42           O2  tau(  42) = (   0.3450000   0.3450000   0.0000000  )
        43           O2  tau(  43) = (   0.9050000   0.5950000   0.1708791  )
        44           O2  tau(  44) = (   0.5950000   0.9050000   0.1708791  )
        45           O2  tau(  45) = (   0.6550000   0.6550000   0.3417582  )
        46           O2  tau(  46) = (   0.3450000   0.3450000   0.3417582  )
        47           O2  tau(  47) = (   0.9050000   0.5950000   0.5126374  )
        48           O2  tau(  48) = (   0.5950000   0.9050000   0.5126374  )

     number of k points=    42  Methfessel-Paxton smearing, width (Ry)=  0.0100
                       cart. coord. in units 2pi/alat
        k(    1) = (   0.0000000   0.0000000   0.0000000), wk =   0.0156250
        k(    2) = (   0.0000000   0.0000000   0.3657556), wk =   0.0312500
        k(    3) = (   0.0000000   0.0000000  -0.7315113), wk =   0.0156250
        k(    4) = (   0.0000000   0.2500000   0.0000000), wk =   0.0625000
        k(    5) = (   0.0000000   0.2500000   0.3657556), wk =   0.1250000
        k(    6) = (   0.0000000   0.2500000  -0.7315113), wk =   0.0625000
        k(    7) = (   0.0000000  -0.5000000   0.0000000), wk =   0.0312500
        k(    8) = (   0.0000000  -0.5000000   0.3657556), wk =   0.0625000
        k(    9) = (   0.0000000  -0.5000000  -0.7315113), wk =   0.0312500
        k(   10) = (   0.2500000   0.2500000   0.0000000), wk =   0.0312500
        k(   11) = (   0.2500000   0.2500000   0.3657556), wk =   0.0625000
        k(   12) = (   0.2500000   0.2500000  -0.7315113), wk =   0.0312500
        k(   13) = (   0.2500000  -0.5000000   0.0000000), wk =   0.0625000
        k(   14) = (   0.2500000  -0.5000000   0.3657556), wk =   0.1250000
        k(   15) = (   0.2500000  -0.5000000  -0.7315113), wk =   0.0625000
        k(   16) = (  -0.5000000  -0.5000000   0.0000000), wk =   0.0156250
        k(   17) = (  -0.5000000  -0.5000000   0.3657556), wk =   0.0312500
        k(   18) = (  -0.5000000  -0.5000000  -0.7315113), wk =   0.0156250
        k(   19) = (  -0.2500000   0.2500000   0.0000000), wk =   0.0312500
        k(   20) = (  -0.2500000   0.2500000  -0.3657556), wk =   0.0625000
        k(   21) = (  -0.2500000   0.2500000   0.7315113), wk =   0.0312500
        k(   22) = (   0.0000000   0.0000000   0.0000000), wk =   0.0156250
        k(   23) = (   0.0000000   0.0000000   0.3657556), wk =   0.0312500
        k(   24) = (   0.0000000   0.0000000  -0.7315113), wk =   0.0156250
        k(   25) = (   0.0000000   0.2500000   0.0000000), wk =   0.0625000
        k(   26) = (   0.0000000   0.2500000   0.3657556), wk =   0.1250000
        k(   27) = (   0.0000000   0.2500000  -0.7315113), wk =   0.0625000
        k(   28) = (   0.0000000  -0.5000000   0.0000000), wk =   0.0312500
        k(   29) = (   0.0000000  -0.5000000   0.3657556), wk =   0.0625000
        k(   30) = (   0.0000000  -0.5000000  -0.7315113), wk =   0.0312500
        k(   31) = (   0.2500000   0.2500000   0.0000000), wk =   0.0312500
        k(   32) = (   0.2500000   0.2500000   0.3657556), wk =   0.0625000
        k(   33) = (   0.2500000   0.2500000  -0.7315113), wk =   0.0312500
        k(   34) = (   0.2500000  -0.5000000   0.0000000), wk =   0.0625000
        k(   35) = (   0.2500000  -0.5000000   0.3657556), wk =   0.1250000
[...]
    eigenvectors:
  0.000  1.000  0.000
  0.500  0.000  0.500
  0.500  0.000  0.500
    occupations:
  0.866 -0.000 -0.000
 -0.000  0.882 -0.024
 -0.000 -0.024  0.882
   spin  2
    eigenvalues:
  0.858  0.866  0.906
    eigenvectors:
  0.000  1.000  0.000
  0.500  0.000  0.500
  0.500  0.000  0.500
    occupations:
  0.866 -0.000 -0.000
 -0.000  0.882 -0.024
 -0.000 -0.024  0.882
atomic mag. moment =    -0.000000
atom   42   Tr[ns(na)] (up, down, total) =   2.63043  2.63043  5.26087
   spin  1
    eigenvalues:
  0.858  0.866  0.906
    eigenvectors:
  0.000  1.000  0.000
  0.500  0.000  0.500
  0.500  0.000  0.500
    occupations:
  0.866 -0.000 -0.000
 -0.000  0.882 -0.024
 -0.000 -0.024  0.882
   spin  2
    eigenvalues:
  0.858  0.866  0.906
    eigenvectors:
  0.000  1.000  0.000
  0.500  0.000  0.500
  0.500  0.000  0.500
    occupations:
  0.866 -0.000 -0.000
 -0.000  0.882 -0.024
 -0.000 -0.024  0.882
atomic mag. moment =    -0.000000
atom   43   Tr[ns(na)] (up, down, total) =   2.63039  2.63039  5.26077
   spin  1
    eigenvalues:
  0.858  0.866  0.906
    eigenvectors:
  0.000  1.000  0.000
  0.500  0.000  0.500
  0.500  0.000  0.500
    occupations:
  0.866  0.000 -0.000
  0.000  0.882  0.024
 -0.000  0.024  0.882
   spin  2
    eigenvalues:
  0.858  0.866  0.906
    eigenvectors:
  0.000  1.000  0.000
  0.500  0.000  0.500
  0.500  0.000  0.500
    occupations:
  0.866  0.000 -0.000
  0.000  0.882  0.024
 -0.000  0.024  0.882
atomic mag. moment =     0.000000
atom   44   Tr[ns(na)] (up, down, total) =   2.63039  2.63039  5.26077
   spin  1
    eigenvalues:
  0.858  0.866  0.906
    eigenvectors:
  0.000  1.000  0.000
  0.500  0.000  0.500
  0.500  0.000  0.500
    occupations:
  0.866 -0.000  0.000
 -0.000  0.882  0.024
  0.000  0.024  0.882
   spin  2
    eigenvalues:
  0.858  0.866  0.906
    eigenvectors:
  0.000  1.000  0.000
  0.500  0.000  0.500
  0.500  0.000  0.500
    occupations:
  0.866 -0.000  0.000
 -0.000  0.882  0.024
  0.000  0.024  0.882
atomic mag. moment =     0.000000
atom   45   Tr[ns(na)] (up, down, total) =   2.63046  2.63046  5.26093
   spin  1
    eigenvalues:
  0.858  0.866  0.906
    eigenvectors:
  0.000  1.000  0.000
  0.500  0.000  0.500
  0.500  0.000  0.500
    occupations:
  0.866 -0.000 -0.000
 -0.000  0.882 -0.024
 -0.000 -0.024  0.882
   spin  2
    eigenvalues:
  0.858  0.866  0.906
    eigenvectors:
  0.000  1.000  0.000
  0.500  0.000  0.500
  0.500  0.000  0.500
    occupations:
  0.866 -0.000 -0.000
 -0.000  0.882 -0.024
 -0.000 -0.024  0.882
atomic mag. moment =    -0.000000
atom   46   Tr[ns(na)] (up, down, total) =   2.63046  2.63046  5.26093
   spin  1
    eigenvalues:
  0.858  0.866  0.906
    eigenvectors:
  0.000  1.000  0.000
  0.500  0.000  0.500
  0.500  0.000  0.500
    occupations:
  0.866 -0.000 -0.000
 -0.000  0.882 -0.024
 -0.000 -0.024  0.882
   spin  2
    eigenvalues:
  0.858  0.866  0.906
    eigenvectors:
  0.000  1.000  0.000
  0.500  0.000  0.500
  0.500  0.000  0.500
    occupations:
  0.866 -0.000 -0.000
 -0.000  0.882 -0.024
 -0.000 -0.024  0.882
atomic mag. moment =    -0.000000
atom   47   Tr[ns(na)] (up, down, total) =   2.63039  2.63039  5.26077
   spin  1
    eigenvalues:
  0.858  0.866  0.906
    eigenvectors:
  0.000  1.000  0.000
  0.500  0.000  0.500
  0.500  0.000  0.500
    occupations:
  0.866 -0.000  0.000
 -0.000  0.882  0.024
  0.000  0.024  0.882
   spin  2
    eigenvalues:
  0.858  0.866  0.906
    eigenvectors:
  0.000  1.000  0.000
  0.500  0.000  0.500
  0.500  0.000  0.500
    occupations:
  0.866 -0.000  0.000
 -0.000  0.882  0.024
  0.000  0.024  0.882
atomic mag. moment =     0.000000
atom   48   Tr[ns(na)] (up, down, total) =   2.63039  2.63039  5.26077
   spin  1
    eigenvalues:
  0.858  0.866  0.906
    eigenvectors:
  0.000  1.000  0.000
  0.500  0.000  0.500
  0.500  0.000  0.500
    occupations:
  0.866  0.000 -0.000
  0.000  0.882  0.024
 -0.000  0.024  0.882
   spin  2
    eigenvalues:
  0.858  0.866  0.906
    eigenvectors:
  0.000  1.000  0.000
  0.500  0.000  0.500
  0.500  0.000  0.500
    occupations:
  0.866  0.000 -0.000
  0.000  0.882  0.024
 -0.000  0.024  0.882
atomic mag. moment =     0.000000
N of occupied +U levels = 295.7091446
 --- exit write_ns ---

 ------ SPIN UP ------------

          k = 0.0000 0.0000 0.0000 ( 14907 PWs)   bands (ev):

   -36.1840 -36.1840 -36.1832 -36.1815 -36.1778 -36.1777 -36.1776 -36.1623
   -36.1598 -36.1596 -36.1593 -36.1586 -36.1576 -36.1576 -36.1575 -36.1533
   -36.1499 -36.1497 -36.1496 -36.1464 -36.1444 -36.1443 -36.1416 -36.0993
   -36.0685 -36.0627 -36.0627 -36.0626 -36.0623 -36.0622 -36.0574 -36.0309
   -35.9693 -35.9691 -35.9691 -35.9682 -35.9672 -35.9669 -35.9665 -35.9604
   -35.9511 -35.9510 -35.9509 -35.9509 -35.9508 -35.9507 -35.9507 -35.9054
    -8.2679  -7.6457  -7.6441  -7.5766  -7.5764  -7.5764  -7.5762  -7.1920
    -7.1108  -7.1081  -7.1072  -7.1072  -7.0114  -7.0105  -6.8999  -6.8978
    -6.8949  -6.8938  -6.8039  -6.8020  -6.6917  -6.6916  -6.6913  -6.6906
    -6.5782  -6.5761  -6.5761  -6.5755  -6.4518  -6.4516  -6.3190  -6.3188
     3.3264   3.3945   3.3962   3.4355   4.3350   4.3369   4.3384   4.3385
     4.3525   4.3567   4.3570   4.3578   4.5231   4.5254   4.6224   4.6248
     4.6870   4.6893   4.7695   4.7745   4.7745   4.7747   4.8641   4.8995
     4.9028   4.9173   4.9180   5.0334   5.0335   5.0344   5.0348   5.3774
     5.3786   5.6837   5.6870   5.9008   5.9011   6.1302   6.1315   6.1322
     6.1327   6.4415   6.4454   6.4459   6.4459   6.5559   6.5563   6.5566
     6.5570   6.7226   6.7242   6.7420   6.7433   7.1474   7.1507   7.1617
     7.1640   7.1750   7.1752   7.1763   7.1767   7.3884   7.3886   7.4924
     7.4952   7.4952   7.4961   7.5332   7.5334   7.5336   7.5342   7.6154
     7.6622   7.6625   8.1050   8.1072   8.3794   8.3799   8.4628   8.4635
     9.0770   9.0830   9.0852   9.0869   9.0870   9.0878   9.0878   9.1525
     9.1693   9.1700   9.2240   9.2241   9.2243   9.2244   9.2610   9.3043
     9.3063   9.3119   9.3144   9.3338   9.3357   9.3793   9.3794   9.3794
     9.3798   9.6994   9.6995   9.8154   9.8180   9.8525   9.8570   9.8570
     9.8571   9.8714   9.8730   9.9431  10.3203  10.3312  10.3335  10.3335
    10.3339  10.3638  10.3659  10.3659  10.3665  10.5932  10.5941  10.8746
    10.8752  11.2529  11.2533  11.3442  11.3448  11.3448  11.3449  11.7465
    11.8815  11.8817  11.9155  11.9157  12.0277  12.0279  12.0280  12.0280
    12.2778  12.2785  12.2785  12.2786  12.4318  13.5854  13.5856  13.6083
    13.6084  13.6219  13.6219  13.7867  13.7871  14.0657  14.0660  14.4421
    14.4423  14.4423  14.4431  14.8088  14.8088  14.8091  14.8100  15.1759
    15.1764  15.1920  15.1925  15.4352  15.4353  15.4355  15.4363  16.0966
    17.6200  20.0466  20.0469  20.0475  20.0482  21.3942  21.3947  21.5067
    21.5074  22.0622  22.0628  22.2905  22.2912  22.2912  22.2915  22.3150
    22.3163  22.3507  22.3512  23.0777  23.0785  23.0790  23.0798  23.9360
    23.9368  23.9864  23.9865  23.9866  23.9887  24.4594  24.4600  25.0154
    25.0978  25.0981  25.1509  25.2254  25.2256  25.6025  25.6030  26.1128
    26.1131  26.1132  26.1144  26.1480  26.1484  26.1487  26.1490  26.1490
    26.1501  26.2942  26.2956  26.5886  26.7882  26.7885  26.7893  26.7904
    27.1446  27.1463  27.7760  27.8033  27.8035  27.8043  27.8048  27.8770
    27.8774  28.1144  28.1148  28.1161  28.1165  28.4546  28.4549  28.4562
    28.4576  28.8192  29.0668  29.0676  29.4884  29.4892  29.5157  29.7562
    29.7568  30.2526  30.2530  30.2535  30.2540  30.7195  30.7196  30.7200
    30.7205  31.0554  31.0564  31.2219  31.2225  31.3075  31.3095  31.7505
    31.8750  31.8752  31.8755  31.8780  31.9093  31.9099  33.0784  33.0787
    33.0915  33.0929  33.0929  33.0933  33.1344  33.1357  33.5654  33.5673
    34.1001  34.1012  34.4645  34.4647  34.9773  34.9776  34.9780  34.9794
    35.0544  35.0544  35.4632  35.4636  35.4645  35.4646  35.5195  35.8471
    35.8485  35.8551  35.8566  35.9734  35.9740  36.6531  36.6546  37.2169
    37.2171  37.2178  37.2185  37.2948  37.2953  37.2962  37.2965  37.3403
    37.3404  37.3412  37.3422  37.4724  37.4727  37.4732  37.4744  37.6648
    37.6650  38.1915  38.4763  38.4775  38.5807  38.5816  38.6872  38.6877
    38.6878  38.6892  38.8766  38.8772  39.0225  39.0786  39.0790  39.2137
    39.2138  39.2142  39.2142  39.3596  39.4213  39.4214  39.7022  39.7030
    39.7193  39.8197  39.8203  39.8223  39.8542  39.8546  39.8552  39.8554
    39.8554  39.8565  39.8566  39.8598  39.8613  39.8614  39.8615  39.8652
    39.8657  39.8658  39.8668  39.8925  39.9077  39.9086  39.9332  40.0640
    41.3662  41.3668  41.7860  41.7861  41.9466  41.9471  42.1509  42.1509
    42.1514  42.1525  42.1537  42.1689  42.1690  42.1694  42.1698  42.4758
    42.4903  42.4918  42.6309  42.6315  42.6319  42.6329  42.7151  42.7159
[...]
    47.5682  47.8031  47.8045  48.0570  48.0576  48.2304  48.2313  48.2315
    48.2316  48.3044  48.3045  48.3045  48.3056  48.3594  48.3602  48.6949
    48.6951  48.6956  48.6972  48.6993  48.6997  48.8260  48.8260  48.8264
    48.8285  48.9375  48.9387  48.9411  48.9412  49.1638  49.1639  49.2683
    49.2686  49.5532  49.5533  49.5537  49.5564  49.6105  49.6111  49.6124
    49.6129  49.8322  49.8340  50.3545  50.3555  50.5669  50.5679  50.5839
    50.5842  50.6600  50.6602  50.6606  50.6612  50.8067  50.8069  50.9886
    50.9887  51.3069  51.3075  51.3381  51.3458  51.3458  51.3460  51.3480
    51.5295  51.5299  51.5303  51.5312  51.5551  51.5557  51.8607  51.9181
    51.9186  51.9743  52.0757  52.0761  52.3309  52.3311  52.3317  52.3325
    52.4457  52.4466  52.4818  52.4831  52.7758  52.7762  52.7767  52.7773
    52.8479  53.2998  53.5380  53.5384  53.5586  53.5592  53.6858  53.8318
    53.8432  53.8452  53.9755  53.9757  53.9759  53.9760  54.4499  54.4500
    54.8806  54.8808  54.8809  54.8809  54.9246  54.9247  54.9254  54.9264
    55.1510  55.1519  55.3501  55.3504  55.4796  55.4806  55.5048  55.5754

[...]

          k =-0.5000-0.5000 0.0000 ( 14848 PWs)   bands (ev):

[...]

 ------ SPIN DOWN ----------

[...]

          k = 0.2500-0.5000-0.7315 ( 14844 PWs)   bands (ev):

[...]

          k =-0.2500 0.2500 0.7315 ( 14880 PWs)   bands (ev):

   -36.1564 -36.1563 -36.1560 -36.1560 -36.1557 -36.1557 -36.1556 -36.1556
   -36.1556 -36.1556 -36.1556 -36.1549 -36.1549 -36.1546 -36.1542 -36.1231
   -36.1229 -36.1221 -36.1210 -36.1210 -36.1199 -36.1197 -36.1195 -36.1188
   -36.1187 -36.1176 -36.1168 -36.1168 -36.1164 -36.1159 -36.0980 -36.0686
   -35.9599 -35.9599 -35.9598 -35.9597 -35.9597 -35.9595 -35.9594 -35.9592
   -35.9592 -35.9591 -35.9590 -35.9590 -35.9589 -35.9588 -35.9586 -35.9067
    -7.7076  -7.7069  -7.4352  -7.4348  -7.4347  -7.4343  -7.3454  -7.3453
    -7.1937  -7.1927  -7.0471  -7.0470  -7.0463  -7.0461  -6.9566  -6.9549
    -6.8083  -6.8062  -6.8058  -6.8055  -6.7377  -6.7357  -6.6843  -6.6811
    -6.6810  -6.6810  -6.6723  -6.6706  -6.6642  -6.6631  -6.5845  -6.5835
     3.9726   3.9750   4.0359   4.0370   4.3122   4.3141   4.3151   4.3151
     4.3332   4.3336   4.3535   4.3540   4.7002   4.7026   4.7264   4.7295
     4.7296   4.7298   4.8300   4.8308   4.9168   4.9190   4.9191   4.9198
     4.9244   4.9261   5.1585   5.1606   5.1607   5.1621   5.1741   5.1754
     5.5717   5.5756   5.5760   5.5764   5.7617   5.7645   5.9278   5.9280
     6.0402   6.0404   6.0408   6.0410   6.1027   6.1028   6.5789   6.5796
     6.6142   6.6175   6.6176   6.6176   6.7339   6.7344   6.9226   6.9230
     7.0119   7.0128   7.0129   7.0131   7.5183   7.5222   7.5238   7.5240
     7.5241   7.5248   7.5453   7.5480   7.5793   7.5793   7.5894   7.5905
     7.6727   7.6737   7.6742   7.6747   7.8773   7.8790   8.0791   8.0793
     8.1357   8.1368   8.2467   8.2477   8.4099   8.4115   8.4117   8.4119
     8.7429   8.7437   9.0055   9.0061   9.0067   9.0074   9.2324   9.2338
     9.7614   9.7617   9.9307   9.9309   9.9722   9.9725   9.9769   9.9778
     9.9779   9.9781  10.3666  10.3677  10.3926  10.3964  10.4050  10.4074
    10.4078  10.4084  10.4936  10.4961  10.5602  10.5606  10.5615  10.5616
    10.6210  10.6214  10.8394  10.8400  10.8401  10.8405  10.9540  10.9545
    11.2706  11.2713  11.3360  11.3366  11.3717  11.3720  11.3722  11.3723
    11.4465  11.4469  11.5878  11.5880  11.5881  11.5882  11.8730  11.8731
    13.0334  13.0334  13.1109  13.1109  13.1110  13.1113  13.4771  13.4772
    13.4773  13.4777  13.5167  13.5169  13.7834  13.7837  14.0277  14.0281
    14.2075  14.2077  14.2322  14.2323  14.5401  14.5401  14.5406  14.5409
    14.7620  14.7621  15.2318  15.2319  15.2320  15.2330  15.2352  15.2359
    19.6076  19.6088  20.5885  20.5889  20.5892  20.5904  21.3037  21.3046
    22.0117  22.0121  22.0122  22.0136  22.2098  22.2111  23.1074  23.1095
    23.1359  23.1365  23.1946  23.1968  23.7993  23.7993  23.7999  23.8009
    23.8652  23.8663  24.5825  24.5827  24.5828  24.5866  24.6232  24.6249
    24.9518  24.9531  25.3038  25.3041  25.3054  25.3055  25.3495  25.3501
    25.5372  25.5385  25.8236  25.8238  25.8245  25.8251  26.1970  26.1972
    26.8184  26.8186  26.8192  26.8203  26.9577  26.9579  26.9865  26.9884
    27.1863  27.1867  27.3443  27.3448  27.3461  27.3465  27.6037  27.6051
    27.6857  27.6865  27.8719  27.8722  27.8727  27.8731  28.0824  28.0830
    28.1644  28.1655  28.7242  28.7244  28.7252  28.7260  28.7909  28.7931
    28.9797  28.9807  29.8361  29.8366  29.8367  29.8391  30.7046  30.7048
    31.0285  31.0286  31.0287  31.0312  31.7849  31.7856  31.8295  31.8320
    31.8937  31.8946  31.8948  31.8952  32.4272  32.4292  32.9662  32.9663
    33.2248  33.2255  33.7102  33.7113  33.7113  33.7119  34.3081  34.3081
    34.5434  34.5435  34.7621  34.7631  35.0434  35.0447  35.0529  35.0529
    35.0531  35.0533  35.1503  35.1516  35.4104  35.4104  35.4404  35.4407
    35.4408  35.4426  36.2411  36.2420  36.3043  36.3045  36.3049  36.3052
    36.5417  36.5420  36.5422  36.5424  36.7358  36.7363  37.7342  37.7346
    37.7347  37.7349  37.7514  37.7516  38.1447  38.1458  38.2304  38.2308
    38.2340  38.2341  38.3506  38.3507  38.3515  38.3516  38.5538  38.5539
    38.6613  38.6619  38.7542  38.7549  38.7555  38.7567  38.8221  38.8223
    38.8881  38.8887  39.2457  39.2461  39.2824  39.2826  39.2827  39.2828
    39.8482  39.8486  39.8488  39.8490  39.8495  39.8499  39.8508  39.8525
    39.8525  39.8530  39.8530  39.8550  39.8555  39.8555  39.8555  39.9155
    40.0158  40.0166  40.0533  40.0537  40.0545  40.0557  40.9772  40.9774
    41.3570  41.3571  41.4657  41.4662  41.4665  41.4671  41.5112  41.5127
    41.5484  41.5485  42.0462  42.0471  42.0674  42.0682  42.5310  42.5312
    42.5321  42.5325  43.0407  43.0409  43.0412  43.0425  43.5431  43.5437
[...]
    47.3556  47.3571  47.3900  47.3908  47.5894  47.5896  47.5903  47.5906
    47.7338  47.7341  47.7342  47.7345  47.9578  47.9587  48.4932  48.4936
    48.6976  48.6982  48.8428  48.8432  48.8443  48.8449  48.8767  48.8788
    48.9911  48.9926  49.0155  49.0159  49.0159  49.0163  49.2394  49.2400
    49.2763  49.2765  49.5366  49.5374  49.5750  49.5753  49.5756  49.5760
    49.7949  49.7951  49.8153  49.8155  50.0009  50.0013  50.2168  50.2170
    50.2170  50.2176  50.4132  50.4135  50.4139  50.4144  50.8894  50.8895
    50.8916  50.8918  50.8920  50.8941  50.9686  50.9710  51.4643  51.4647
    51.4649  51.4656  51.5127  51.5130  51.5583  51.5602  52.0103  52.0108
    52.1118  52.1128  52.3688  52.3694  52.7270  52.7280  52.7284  52.7287
    52.8512  52.8518  53.1032  53.1036  53.2702  53.2710  53.2788  53.2788
    53.2791  53.2795  53.6881  53.6889  54.1196  54.1201  54.1205  54.1219
    54.2600  54.2608  54.3519  54.3527  54.4379  54.4381  54.4390  54.4396
    54.4534  54.4535  54.4945  54.4945  54.9117  54.9121  54.9127  54.9128
    55.0381  55.0385  55.1796  55.1800  55.5146  55.5149  55.5151  55.5170

     the Fermi energy is    11.6236 ev

!    total energy              =   -3758.60938252 Ry
     Harris-Foulkes estimate   =   -3758.60938313 Ry
     estimated scf accuracy    <       0.00000067 Ry

     The total energy is the sum of the following terms:

     one-electron contribution =   -1108.36288541 Ry
     hartree contribution      =     841.93653160 Ry
     xc contribution           =    -696.48285392 Ry
     ewald contribution        =   -2795.66030549 Ry
     Hubbard energy            =      -0.04099948 Ry
     smearing contrib. (-TS)   =       0.00113020 Ry

     total magnetization       =     0.00 Bohr mag/cell
     absolute magnetization    =     0.00 Bohr mag/cell

     convergence has been achieved in  10 iterations

     Writing output data file pwscf.save

     General routines

     Parallel routines
     Hubbard U routines

   This run was terminated on:   8:16: 2  12Feb2014

   JOB DONE.