     Program PWSCF v.5.0.2 (svn rev. 9656) starts on 11Feb2014 at 18:53:35

     Current dimensions of program PWSCF are:
     Max number of different atomic species (ntypx) = 10
     Max number of k-points (npk) =  40000
     Max angular momentum in pseudopotentials (lmaxx) =  3
     Reading input from alpha_-0.15/alpha_-0.15.in
Warning: card &IONS ignored
Warning: card / ignored
Warning: card &CELL ignored
Warning: card / ignored

     Subspace diagonalization in iterative solution of the eigenvalue problem:
     a serial algorithm will be used

     bravais-lattice index     =            0
     lattice parameter (alat)  =      17.1965  a.u.
     unit-cell volume          =    3475.9200 (a.u.)^3
     number of atoms/cell      =           48
     number of atomic types    =            3
     number of electrons       =       432.00
     number of Kohn-Sham states=          648
     kinetic-energy cutoff     =      40.0000  Ry
     charge density cutoff     =     500.0000  Ry
     convergence threshold     =      1.0E-06
     mixing beta               =       0.7000
     number of iterations used =            8  plain     mixing
     Exchange-correlation      = SLA  PW   PBE  PBE ( 1 4 3 4 0)
     EXX-fraction              =        0.00

     celldm(1)=  17.196508  celldm(2)=   0.000000  celldm(3)=   0.000000
     celldm(4)=   0.000000  celldm(5)=   0.000000  celldm(6)=   0.000000

     crystal axes: (cart. coord. in units of alat)
               a(1) = (   1.000000   0.000000   0.000000 )
               a(2) = (   0.000000   1.000000   0.000000 )
               a(3) = (   0.000000   0.000000   0.683516 )

     reciprocal axes: (cart. coord. in units 2 pi/alat)
               b(1) = (  1.000000  0.000000  0.000000 )
               b(2) = (  0.000000  1.000000  0.000000 )
               b(3) = (  0.000000  0.000000  1.463023 )

     PseudoPot. # 1 for Rh read from file:
     /home/camp/zhonxu/pseudo/rh_pbe_v1.uspp.F.UPF
     MD5 check sum: 37b626987ad0dd8ec6bf4cc9ef289918
     Pseudo is Ultrasoft + core correction, Zval = 15.0
     Generated by new atomic code, or converted to UPF format
     Using radial grid of  969 points,  7 beta functions with:
                l(1) =   0
                l(2) =   0
                l(3) =   1
                l(4) =   1
                l(5) =   2
                l(6) =   2
                l(7) =   2
     Q(r) pseudized with  6 coefficients,  rinner =    1.050   1.050   1.050
                                                       1.050   1.050

     PseudoPot. # 2 for Rh read from file:
     /home/camp/zhonxu/pseudo/rh_pbe_v1.uspp.F.UPF
     MD5 check sum: 37b626987ad0dd8ec6bf4cc9ef289918
     Pseudo is Ultrasoft + core correction, Zval = 15.0
     Generated by new atomic code, or converted to UPF format
     Using radial grid of  969 points,  7 beta functions with:
                l(1) =   0
                l(2) =   0
                l(3) =   1
                l(4) =   1
                l(5) =   2
                l(6) =   2
                l(7) =   2
     Q(r) pseudized with  6 coefficients,  rinner =    1.050   1.050   1.050
                                                       1.050   1.050

     PseudoPot. # 3 for O  read from file:
     /home/camp/zhonxu/pseudo/o_pbe_v1.01.uspp.F.UPF
     MD5 check sum: 2bcb18d16ea4b960afae9ec6d52f22d2
     Pseudo is Ultrasoft + core correction, Zval =  6.0
     Generated by new atomic code, or converted to UPF format
     Using radial grid of  737 points,  5 beta functions with:
                l(1) =   0
                l(2) =   0
                l(3) =   1
                l(4) =   1
                l(5) =   2
     Q(r) pseudized with  8 coefficients,  rinner =    0.900   0.900   0.900
                                                       0.900   0.900

     atomic species   valence    mass     pseudopotential
        Rh0           15.00   102.90550     Rh( 1.00)
        Rh1           15.00   102.90550     Rh( 1.00)
        O2             6.00    15.99940     O ( 1.00)

     Starting magnetic structure
     atomic species   magnetization
        Rh0          0.000
        Rh1          0.000
        O2           0.000

     Simplified LDA+U calculation (l_max = 2) with parameters (eV):
     atomic species    L          U    alpha       J0     beta
        Rh0            2     0.0000  -0.1500   0.0000   0.0000
        Rh1            2     0.0000   0.0000   0.0000   0.0000
        O2             1     0.0000   0.0000   0.0000   0.0000

      8 Sym. Ops., with inversion, found

   Cartesian axes

     site n.     atom                  positions (alat units)
         1           Rh0 tau(   1) = (   0.0000000   0.0000000   0.0000000  )
         2           Rh1 tau(   2) = (   0.2500000   0.2500000   0.1708791  )
         3           Rh1 tau(   3) = (   0.0000000   0.0000000   0.3417582  )
         4           Rh1 tau(   4) = (   0.2500000   0.2500000   0.5126374  )
         5           Rh1 tau(   5) = (   0.0000000   0.5000000   0.0000000  )
         6           Rh1 tau(   6) = (   0.2500000   0.7500000   0.1708791  )
         7           Rh1 tau(   7) = (   0.0000000   0.5000000   0.3417582  )
         8           Rh1 tau(   8) = (   0.2500000   0.7500000   0.5126374  )
         9           Rh1 tau(   9) = (   0.5000000   0.0000000   0.0000000  )
        10           Rh1 tau(  10) = (   0.7500000   0.2500000   0.1708791  )
        11           Rh1 tau(  11) = (   0.5000000   0.0000000   0.3417582  )
        12           Rh1 tau(  12) = (   0.7500000   0.2500000   0.5126374  )
        13           Rh1 tau(  13) = (   0.5000000   0.5000000   0.0000000  )
        14           Rh1 tau(  14) = (   0.7500000   0.7500000   0.1708791  )
        15           Rh1 tau(  15) = (   0.5000000   0.5000000   0.3417582  )
        16           Rh1 tau(  16) = (   0.7500000   0.7500000   0.5126374  )
        17           O2  tau(  17) = (   0.1550000   0.1550000   0.0000000  )
        18           O2  tau(  18) = (  -0.1550000  -0.1550000   0.0000000  )
        19           O2  tau(  19) = (   0.4050000   0.0950000   0.1708791  )
        20           O2  tau(  20) = (   0.0950000   0.4050000   0.1708791  )
        21           O2  tau(  21) = (   0.1550000   0.1550000   0.3417582  )
        22           O2  tau(  22) = (  -0.1550000  -0.1550000   0.3417582  )
        23           O2  tau(  23) = (   0.4050000   0.0950000   0.5126374  )
        24           O2  tau(  24) = (   0.0950000   0.4050000   0.5126374  )
        25           O2  tau(  25) = (   0.1550000   0.6550000   0.0000000  )
        26           O2  tau(  26) = (  -0.1550000   0.3450000   0.0000000  )
        27           O2  tau(  27) = (   0.4050000   0.5950000   0.1708791  )
        28           O2  tau(  28) = (   0.0950000   0.9050000   0.1708791  )
        29           O2  tau(  29) = (   0.1550000   0.6550000   0.3417582  )
        30           O2  tau(  30) = (  -0.1550000   0.3450000   0.3417582  )
        31           O2  tau(  31) = (   0.4050000   0.5950000   0.5126374  )
        32           O2  tau(  32) = (   0.0950000   0.9050000   0.5126374  )
        33           O2  tau(  33) = (   0.6550000   0.1550000   0.0000000  )
        34           O2  tau(  34) = (   0.3450000  -0.1550000   0.0000000  )
        35           O2  tau(  35) = (   0.9050000   0.0950000   0.1708791  )
        36           O2  tau(  36) = (   0.5950000   0.4050000   0.1708791  )
        37           O2  tau(  37) = (   0.6550000   0.1550000   0.3417582  )
        38           O2  tau(  38) = (   0.3450000  -0.1550000   0.3417582  )
        39           O2  tau(  39) = (   0.9050000   0.0950000   0.5126374  )
        40           O2  tau(  40) = (   0.5950000   0.4050000   0.5126374  )
        41           O2  tau(  41) = (   0.6550000   0.6550000   0.0000000  )
        42           O2  tau(  42) = (   0.3450000   0.3450000   0.0000000  )
        43           O2  tau(  43) = (   0.9050000   0.5950000   0.1708791  )
        44           O2  tau(  44) = (   0.5950000   0.9050000   0.1708791  )
        45           O2  tau(  45) = (   0.6550000   0.6550000   0.3417582  )
        46           O2  tau(  46) = (   0.3450000   0.3450000   0.3417582  )
        47           O2  tau(  47) = (   0.9050000   0.5950000   0.5126374  )
        48           O2  tau(  48) = (   0.5950000   0.9050000   0.5126374  )

     number of k points=    42  Methfessel-Paxton smearing, width (Ry)=  0.0100
                       cart. coord. in units 2pi/alat
        k(    1) = (   0.0000000   0.0000000   0.0000000), wk =   0.0156250
        k(    2) = (   0.0000000   0.0000000   0.3657556), wk =   0.0312500
        k(    3) = (   0.0000000   0.0000000  -0.7315113), wk =   0.0156250
        k(    4) = (   0.0000000   0.2500000   0.0000000), wk =   0.0625000
        k(    5) = (   0.0000000   0.2500000   0.3657556), wk =   0.1250000
        k(    6) = (   0.0000000   0.2500000  -0.7315113), wk =   0.0625000
        k(    7) = (   0.0000000  -0.5000000   0.0000000), wk =   0.0312500
        k(    8) = (   0.0000000  -0.5000000   0.3657556), wk =   0.0625000
        k(    9) = (   0.0000000  -0.5000000  -0.7315113), wk =   0.0312500
        k(   10) = (   0.2500000   0.2500000   0.0000000), wk =   0.0312500
        k(   11) = (   0.2500000   0.2500000   0.3657556), wk =   0.0625000
        k(   12) = (   0.2500000   0.2500000  -0.7315113), wk =   0.0312500
        k(   13) = (   0.2500000  -0.5000000   0.0000000), wk =   0.0625000
        k(   14) = (   0.2500000  -0.5000000   0.3657556), wk =   0.1250000
        k(   15) = (   0.2500000  -0.5000000  -0.7315113), wk =   0.0625000
        k(   16) = (  -0.5000000  -0.5000000   0.0000000), wk =   0.0156250
        k(   17) = (  -0.5000000  -0.5000000   0.3657556), wk =   0.0312500
        k(   18) = (  -0.5000000  -0.5000000  -0.7315113), wk =   0.0156250
        k(   19) = (  -0.2500000   0.2500000   0.0000000), wk =   0.0312500
        k(   20) = (  -0.2500000   0.2500000  -0.3657556), wk =   0.0625000
        k(   21) = (  -0.2500000   0.2500000   0.7315113), wk =   0.0312500
        k(   22) = (   0.0000000   0.0000000   0.0000000), wk =   0.0156250
        k(   23) = (   0.0000000   0.0000000   0.3657556), wk =   0.0312500
        k(   24) = (   0.0000000   0.0000000  -0.7315113), wk =   0.0156250
        k(   25) = (   0.0000000   0.2500000   0.0000000), wk =   0.0625000
        k(   26) = (   0.0000000   0.2500000   0.3657556), wk =   0.1250000
        k(   27) = (   0.0000000   0.2500000  -0.7315113), wk =   0.0625000
        k(   28) = (   0.0000000  -0.5000000   0.0000000), wk =   0.0312500
        k(   29) = (   0.0000000  -0.5000000   0.3657556), wk =   0.0625000
        k(   30) = (   0.0000000  -0.5000000  -0.7315113), wk =   0.0312500
        k(   31) = (   0.2500000   0.2500000   0.0000000), wk =   0.0312500
        k(   32) = (   0.2500000   0.2500000   0.3657556), wk =   0.0625000
        k(   33) = (   0.2500000   0.2500000  -0.7315113), wk =   0.0312500
        k(   34) = (   0.2500000  -0.5000000   0.0000000), wk =   0.0625000
        k(   35) = (   0.2500000  -0.5000000   0.3657556), wk =   0.1250000
[...]
    eigenvectors:
  0.000  1.000  0.000
  0.500  0.000  0.500
  0.500  0.000  0.500
    occupations:
  0.866 -0.000 -0.000
 -0.000  0.882 -0.024
 -0.000 -0.024  0.882
   spin  2
    eigenvalues:
  0.858  0.866  0.906
    eigenvectors:
  0.000  1.000  0.000
  0.500  0.000  0.500
  0.500  0.000  0.500
    occupations:
  0.866 -0.000 -0.000
 -0.000  0.882 -0.024
 -0.000 -0.024  0.882
atomic mag. moment =    -0.000000
atom   42   Tr[ns(na)] (up, down, total) =   2.63038  2.63038  5.26077
   spin  1
    eigenvalues:
  0.858  0.866  0.906
    eigenvectors:
  0.000  1.000  0.000
  0.500  0.000  0.500
  0.500  0.000  0.500
    occupations:
  0.866 -0.000 -0.000
 -0.000  0.882 -0.024
 -0.000 -0.024  0.882
   spin  2
    eigenvalues:
  0.858  0.866  0.906
    eigenvectors:
  0.000  1.000  0.000
  0.500  0.000  0.500
  0.500  0.000  0.500
    occupations:
  0.866 -0.000 -0.000
 -0.000  0.882 -0.024
 -0.000 -0.024  0.882
atomic mag. moment =    -0.000000
atom   43   Tr[ns(na)] (up, down, total) =   2.63036  2.63036  5.26073
   spin  1
    eigenvalues:
  0.858  0.866  0.906
    eigenvectors:
  0.000  1.000  0.000
  0.500  0.000  0.500
  0.500  0.000  0.500
    occupations:
  0.866 -0.000 -0.000
 -0.000  0.882  0.024
 -0.000  0.024  0.882
   spin  2
    eigenvalues:
  0.858  0.866  0.906
    eigenvectors:
  0.000  1.000  0.000
  0.500  0.000  0.500
  0.500  0.000  0.500
    occupations:
  0.866 -0.000 -0.000
 -0.000  0.882  0.024
 -0.000  0.024  0.882
atomic mag. moment =     0.000000
atom   44   Tr[ns(na)] (up, down, total) =   2.63036  2.63036  5.26073
   spin  1
    eigenvalues:
  0.858  0.866  0.906
    eigenvectors:
  0.000  1.000  0.000
  0.500  0.000  0.500
  0.500  0.000  0.500
    occupations:
  0.866 -0.000 -0.000
 -0.000  0.882  0.024
 -0.000  0.024  0.882
   spin  2
    eigenvalues:
  0.858  0.866  0.906
    eigenvectors:
  0.000  1.000  0.000
  0.500  0.000  0.500
  0.500  0.000  0.500
    occupations:
  0.866 -0.000 -0.000
 -0.000  0.882  0.024
 -0.000  0.024  0.882
atomic mag. moment =     0.000000
atom   45   Tr[ns(na)] (up, down, total) =   2.63037  2.63037  5.26074
   spin  1
    eigenvalues:
  0.858  0.866  0.906
    eigenvectors:
  0.000  1.000  0.000
  0.500  0.000  0.500
  0.500  0.000  0.500
    occupations:
  0.866 -0.000 -0.000
 -0.000  0.882 -0.024
 -0.000 -0.024  0.882
   spin  2
    eigenvalues:
  0.858  0.866  0.906
    eigenvectors:
  0.000  1.000  0.000
  0.500  0.000  0.500
  0.500  0.000  0.500
    occupations:
  0.866 -0.000 -0.000
 -0.000  0.882 -0.024
 -0.000 -0.024  0.882
atomic mag. moment =    -0.000000
atom   46   Tr[ns(na)] (up, down, total) =   2.63037  2.63037  5.26074
   spin  1
    eigenvalues:
  0.858  0.866  0.906
    eigenvectors:
  0.000  1.000  0.000
  0.500  0.000  0.500
  0.500  0.000  0.500
    occupations:
  0.866 -0.000 -0.000
 -0.000  0.882 -0.024
 -0.000 -0.024  0.882
   spin  2
    eigenvalues:
  0.858  0.866  0.906
    eigenvectors:
  0.000  1.000  0.000
  0.500  0.000  0.500
  0.500  0.000  0.500
    occupations:
  0.866 -0.000 -0.000
 -0.000  0.882 -0.024
 -0.000 -0.024  0.882
atomic mag. moment =    -0.000000
atom   47   Tr[ns(na)] (up, down, total) =   2.63036  2.63036  5.26073
   spin  1
    eigenvalues:
  0.858  0.866  0.906
    eigenvectors:
  0.000  1.000  0.000
  0.500  0.000  0.500
  0.500  0.000  0.500
    occupations:
  0.866  0.000  0.000
  0.000  0.882  0.024
  0.000  0.024  0.882
   spin  2
    eigenvalues:
  0.858  0.866  0.906
    eigenvectors:
  0.000  1.000  0.000
  0.500  0.000  0.500
  0.500  0.000  0.500
    occupations:
  0.866  0.000  0.000
  0.000  0.882  0.024
  0.000  0.024  0.882
atomic mag. moment =     0.000000
atom   48   Tr[ns(na)] (up, down, total) =   2.63036  2.63036  5.26073
   spin  1
    eigenvalues:
  0.858  0.866  0.906
    eigenvectors:
  0.000  1.000  0.000
  0.500  0.000  0.500
  0.500  0.000  0.500
    occupations:
  0.866  0.000  0.000
  0.000  0.882  0.024
  0.000  0.024  0.882
   spin  2
    eigenvalues:
  0.858  0.866  0.906
    eigenvectors:
  0.000  1.000  0.000
  0.500  0.000  0.500
  0.500  0.000  0.500
    occupations:
  0.866  0.000  0.000
  0.000  0.882  0.024
  0.000  0.024  0.882
atomic mag. moment =     0.000000
N of occupied +U levels = 295.7114222
 --- exit write_ns ---

 ------ SPIN UP ------------

          k = 0.0000 0.0000 0.0000 ( 14907 PWs)   bands (ev):

   -36.1857 -36.1853 -36.1845 -36.1826 -36.1796 -36.1791 -36.1790 -36.1616
   -36.1611 -36.1609 -36.1598 -36.1596 -36.1592 -36.1588 -36.1563 -36.1552
   -36.1518 -36.1513 -36.1510 -36.1475 -36.1460 -36.1457 -36.1388 -36.0699
   -36.0646 -36.0641 -36.0640 -36.0639 -36.0635 -36.0587 -36.0395 -35.9862
   -35.9713 -35.9706 -35.9704 -35.9693 -35.9691 -35.9682 -35.9674 -35.9618
   -35.9531 -35.9530 -35.9522 -35.9522 -35.9522 -35.9521 -35.9519 -35.8468
    -8.2687  -7.6484  -7.6450  -7.5779  -7.5777  -7.5775  -7.5769  -7.1946
    -7.1163  -7.1102  -7.1085  -7.1084  -7.0131  -7.0112  -6.9034  -6.8988
    -6.8967  -6.8945  -6.8069  -6.8029  -6.6930  -6.6929  -6.6918  -6.6906
    -6.5815  -6.5775  -6.5773  -6.5759  -6.4527  -6.4524  -6.3199  -6.3195
     3.3230   3.3911   3.3946   3.4333   4.3296   4.3333   4.3369   4.3370
     4.3463   4.3553   4.3556   4.3576   4.5196   4.5245   4.6175   4.6232
     4.6828   4.6877   4.7631   4.7729   4.7732   4.7737   4.8606   4.8949
     4.9020   4.9159   4.9174   5.0307   5.0308   5.0326   5.0333   5.3749
     5.3775   5.6790   5.6860   5.9000   5.9007   6.1268   6.1294   6.1309
     6.1320   6.4353   6.4439   6.4447   6.4448   6.5546   6.5556   6.5564
     6.5572   6.7200   6.7233   6.7398   6.7426   7.1410   7.1496   7.1587
     7.1627   7.1726   7.1730   7.1749   7.1758   7.3875   7.3880   7.4881
     7.4938   7.4939   7.4958   7.5319   7.5325   7.5330   7.5343   7.6148
     7.6613   7.6620   8.1014   8.1059   8.3783   8.3795   8.4615   8.4629
     9.0762   9.0772   9.0815   9.0856   9.0857   9.0870   9.0871   9.1494
     9.1678   9.1693   9.2229   9.2229   9.2237   9.2237   9.2583   9.3003
     9.3046   9.3071   9.3127   9.3307   9.3340   9.3780   9.3783   9.3783
     9.3791   9.6984   9.6986   9.8100   9.8165   9.8461   9.8552   9.8558
     9.8558   9.8692   9.8715   9.9412  10.3192  10.3275  10.3318  10.3323
    10.3330  10.3602  10.3645  10.3646  10.3656  10.5912  10.5929  10.8728
    10.8739  11.2513  11.2520  11.3424  11.3433  11.3435  11.3437  11.7447
    11.8800  11.8804  11.9141  11.9144  12.0261  12.0264  12.0266  12.0267
    12.2757  12.2770  12.2772  12.2774  12.4307  13.5842  13.5847  13.6070
    13.6071  13.6206  13.6207  13.7854  13.7862  14.0644  14.0652  14.4408
    14.4409  14.4410  14.4429  14.8071  14.8075  14.8081  14.8101  15.1747
    15.1758  15.1907  15.1920  15.4338  15.4340  15.4345  15.4364  16.0959
    17.6198  20.0454  20.0461  20.0474  20.0489  21.3935  21.3945  21.5063
    21.5078  22.0616  22.0629  22.2895  22.2910  22.2911  22.2916  22.3142
    22.3168  22.3501  22.3513  23.0766  23.0783  23.0794  23.0810  23.9358
    23.9374  23.9854  23.9855  23.9859  23.9905  24.4586  24.4600  25.0158
    25.0975  25.0982  25.1503  25.2251  25.2257  25.6020  25.6030  26.1120
    26.1126  26.1127  26.1153  26.1469  26.1480  26.1483  26.1485  26.1491
    26.1509  26.2936  26.2967  26.5886  26.7872  26.7879  26.7897  26.7921
    27.1436  27.1473  27.7758  27.8026  27.8031  27.8049  27.8057  27.8770
    27.8779  28.1132  28.1142  28.1169  28.1177  28.4534  28.4542  28.4569
    28.4598  28.8190  29.0664  29.0680  29.4879  29.4895  29.5162  29.7560
    29.7575  30.2519  30.2528  30.2538  30.2549  30.7188  30.7191  30.7200
    30.7210  31.0548  31.0572  31.2220  31.2232  31.3066  31.3108  31.7502
    31.8741  31.8746  31.8752  31.8808  31.9087  31.9101  33.0783  33.0786
    33.0905  33.0935  33.0936  33.0947  33.1336  33.1364  33.5644  33.5687
    34.0993  34.1019  34.4644  34.4648  34.9766  34.9771  34.9781  34.9811
    35.0541  35.0542  35.4622  35.4631  35.4650  35.4652  35.5193  35.8462
    35.8493  35.8544  35.8576  35.9732  35.9743  36.6523  36.6557  37.2161
    37.2167  37.2180  37.2195  37.2941  37.2950  37.2969  37.2976  37.3395
    37.3398  37.3414  37.3438  37.4716  37.4723  37.4732  37.4759  37.6648
    37.6652  38.1915  38.4757  38.4783  38.5802  38.5821  38.6862  38.6873
    38.6874  38.6907  38.8763  38.8776  39.0228  39.0785  39.0793  39.2134
    39.2136  39.2143  39.2145  39.3600  39.4210  39.4212  39.7022  39.7029
    39.7198  39.8194  39.8209  39.8215  39.8522  39.8529  39.8530  39.8536
    39.8541  39.8546  39.8552  39.8579  39.8590  39.8597  39.8602  39.8644
    39.8656  39.8657  39.8678  39.8977  39.9070  39.9075  39.9917  40.0715
    41.3661  41.3673  41.7860  41.7863  41.9460  41.9472  42.1501  42.1501
    42.1513  42.1536  42.1538  42.1684  42.1687  42.1695  42.1704  42.4760
    42.4894  42.4927  42.6299  42.6311  42.6321  42.6342  42.7149  42.7166
[...]
    47.5681  47.8023  47.8055  48.0564  48.0577  48.2293  48.2312  48.2317
    48.2319  48.3039  48.3041  48.3042  48.3066  48.3587  48.3605  48.6938
    48.6946  48.6956  48.6989  48.6990  48.6998  48.8252  48.8252  48.8261
    48.8307  48.9369  48.9396  48.9415  48.9417  49.1637  49.1639  49.2682
    49.2689  49.5524  49.5525  49.5532  49.5593  49.6094  49.6107  49.6135
    49.6146  49.8312  49.8352  50.3543  50.3565  50.5664  50.5686  50.5837
    50.5843  50.6594  50.6598  50.6607  50.6619  50.8064  50.8070  50.9883
    50.9887  51.3066  51.3080  51.3387  51.3450  51.3451  51.3457  51.3500
    51.5287  51.5295  51.5304  51.5324  51.5548  51.5562  51.8609  51.9178
    51.9190  51.9740  52.0754  52.0762  52.3302  52.3308  52.3321  52.3337
    52.4455  52.4476  52.4811  52.4839  52.7751  52.7758  52.7771  52.7783
    52.8481  53.3001  53.5381  53.5390  53.5583  53.5595  53.6862  53.8315
    53.8422  53.8466  53.9750  53.9756  53.9759  53.9761  54.4498  54.4499
    54.8805  54.8809  54.8810  54.8810  54.9240  54.9243  54.9258  54.9281
    55.1506  55.1527  55.3500  55.3507  55.4791  55.4813  55.5049  55.5756

[...]

          k =-0.5000-0.5000 0.0000 ( 14848 PWs)   bands (ev):

[...]

 ------ SPIN DOWN ----------

[...]

          k = 0.2500-0.5000-0.7315 ( 14844 PWs)   bands (ev):

[...]

          k =-0.2500 0.2500 0.7315 ( 14880 PWs)   bands (ev):

   -36.1580 -36.1578 -36.1578 -36.1576 -36.1576 -36.1574 -36.1573 -36.1573
   -36.1573 -36.1572 -36.1567 -36.1566 -36.1563 -36.1560 -36.1559 -36.1248
   -36.1244 -36.1226 -36.1225 -36.1223 -36.1215 -36.1213 -36.1208 -36.1204
   -36.1194 -36.1192 -36.1186 -36.1183 -36.1178 -36.1175 -36.0393 -36.0111
   -35.9619 -35.9619 -35.9612 -35.9611 -35.9611 -35.9611 -35.9610 -35.9607
   -35.9607 -35.9606 -35.9606 -35.9605 -35.9604 -35.9603 -35.9595 -35.8474
    -7.7087  -7.7076  -7.4363  -7.4358  -7.4356  -7.4347  -7.3471  -7.3465
    -7.1959  -7.1936  -7.0483  -7.0481  -7.0473  -7.0468  -6.9599  -6.9557
    -6.8127  -6.8075  -6.8071  -6.8067  -6.7414  -6.7369  -6.6894  -6.6823
    -6.6823  -6.6822  -6.6742  -6.6713  -6.6653  -6.6639  -6.5856  -6.5843
     3.9680   3.9737   4.0330   4.0357   4.3073   4.3112   4.3138   4.3138
     4.3312   4.3321   4.3514   4.3524   4.6962   4.7016   4.7217   4.7279
     4.7282   4.7289   4.8269   4.8287   4.9123   4.9166   4.9167   4.9185
     4.9211   4.9248   5.1550   5.1592   5.1592   5.1622   5.1709   5.1733
     5.5657   5.5740   5.5746   5.5758   5.7570   5.7633   5.9265   5.9271
     6.0377   6.0379   6.0389   6.0394   6.1009   6.1013   6.5776   6.5785
     6.6091   6.6163   6.6163   6.6163   6.7325   6.7331   6.9200   6.9211
     7.0098   7.0114   7.0116   7.0119   7.5109   7.5196   7.5226   7.5227
     7.5230   7.5244   7.5411   7.5466   7.5782   7.5783   7.5870   7.5894
     7.6697   7.6718   7.6728   7.6737   7.8747   7.8780   8.0773   8.0781
     8.1340   8.1360   8.2453   8.2472   8.4067   8.4100   8.4105   8.4108
     8.7416   8.7431   9.0025   9.0038   9.0052   9.0064   9.2290   9.2318
     9.7603   9.7606   9.9290   9.9295   9.9704   9.9710   9.9743   9.9764
     9.9766   9.9767  10.3642  10.3663  10.3858  10.3953  10.4023  10.4058
    10.4065  10.4073  10.4902  10.4950  10.5578  10.5587  10.5602  10.5604
    10.6196  10.6202  10.8375  10.8383  10.8385  10.8397  10.9526  10.9532
    11.2687  11.2699  11.3340  11.3353  11.3702  11.3706  11.3709  11.3710
    11.4450  11.4456  11.5862  11.5867  11.5867  11.5868  11.8716  11.8719
    13.0321  13.0321  13.1093  13.1093  13.1101  13.1103  13.4758  13.4759
    13.4763  13.4766  13.5156  13.5157  13.7824  13.7827  14.0264  14.0275
    14.2062  14.2065  14.2308  14.2312  14.5388  14.5388  14.5399  14.5404
    14.7610  14.7611  15.2304  15.2305  15.2310  15.2325  15.2342  15.2362
    19.6067  19.6091  20.5873  20.5881  20.5887  20.5913  21.3029  21.3047
    22.0106  22.0114  22.0114  22.0146  22.2087  22.2112  23.1066  23.1108
    23.1352  23.1364  23.1935  23.1983  23.7984  23.7985  23.7995  23.8018
    23.8642  23.8663  24.5814  24.5818  24.5819  24.5897  24.6223  24.6265
    24.9509  24.9537  25.3028  25.3034  25.3062  25.3065  25.3489  25.3503
    25.5364  25.5389  25.8228  25.8231  25.8245  25.8257  26.1963  26.1968
    26.8175  26.8179  26.8189  26.8214  26.9577  26.9579  26.9857  26.9897
    27.1859  27.1868  27.3433  27.3445  27.3470  27.3481  27.6033  27.6064
    27.6856  27.6873  27.8710  27.8716  27.8726  27.8736  28.0822  28.0836
    28.1634  28.1656  28.7235  28.7238  28.7255  28.7273  28.7901  28.7948
    28.9788  28.9810  29.8353  29.8365  29.8366  29.8421  30.7041  30.7046
    31.0275  31.0279  31.0279  31.0335  31.7846  31.7861  31.8287  31.8340
    31.8929  31.8946  31.8950  31.8959  32.4264  32.4308  32.9661  32.9664
    33.2249  33.2263  33.7092  33.7115  33.7117  33.7129  34.3086  34.3087
    34.5432  34.5434  34.7613  34.7635  35.0425  35.0451  35.0525  35.0526
    35.0531  35.0535  35.1495  35.1521  35.4108  35.4110  35.4395  35.4402
    35.4405  35.4444  36.2410  36.2429  36.3037  36.3042  36.3051  36.3058
    36.5411  36.5419  36.5423  36.5427  36.7352  36.7363  37.7337  37.7346
    37.7348  37.7351  37.7517  37.7520  38.1438  38.1462  38.2298  38.2307
    38.2341  38.2342  38.3500  38.3502  38.3520  38.3523  38.5542  38.5543
    38.6614  38.6625  38.7535  38.7550  38.7561  38.7587  38.8220  38.8223
    38.8879  38.8893  39.2449  39.2458  39.2819  39.2821  39.2823  39.2827
    39.8465  39.8474  39.8474  39.8476  39.8477  39.8487  39.8490  39.8503
    39.8503  39.8512  39.8512  39.8529  39.8532  39.8538  39.8538  39.9865
    40.0150  40.0169  40.0527  40.0538  40.0554  40.0602  40.9774  40.9777
    41.3567  41.3570  41.4649  41.4661  41.4667  41.4679  41.5104  41.5137
    41.5484  41.5484  42.0456  42.0475  42.0671  42.0688  42.5301  42.5305
    42.5323  42.5333  43.0401  43.0407  43.0413  43.0440  43.5427  43.5438
[...]
    47.3549  47.3581  47.3898  47.3918  47.5887  47.5890  47.5907  47.5913
    47.7332  47.7338  47.7340  47.7347  47.9572  47.9590  48.4929  48.4936
    48.6978  48.6990  48.8421  48.8428  48.8451  48.8465  48.8760  48.8803
    48.9904  48.9936  49.0150  49.0159  49.0160  49.0167  49.2393  49.2405
    49.2763  49.2768  49.5362  49.5380  49.5744  49.5749  49.5757  49.5765
    49.7940  49.7945  49.8155  49.8159  50.0001  50.0009  50.2167  50.2171
    50.2172  50.2183  50.4123  50.4131  50.4139  50.4149  50.8891  50.8893
    50.8914  50.8915  50.8917  50.8962  50.9678  50.9728  51.4639  51.4646
    51.4651  51.4666  51.5127  51.5133  51.5577  51.5617  52.0099  52.0109
    52.1114  52.1135  52.3685  52.3697  52.7263  52.7286  52.7292  52.7301
    52.8505  52.8519  53.1027  53.1037  53.2695  53.2712  53.2784  53.2785
    53.2789  53.2800  53.6878  53.6896  54.1186  54.1197  54.1205  54.1235
    54.2598  54.2613  54.3517  54.3535  54.4372  54.4377  54.4394  54.4409
    54.4535  54.4538  54.4947  54.4951  54.9112  54.9120  54.9133  54.9133
    55.0383  55.0391  55.1799  55.1806  55.5140  55.5146  55.5152  55.5192

     the Fermi energy is    11.6222 ev

!    total energy              =   -3758.65626592 Ry
     Harris-Foulkes estimate   =   -3758.65626640 Ry
     estimated scf accuracy    <       0.00000050 Ry

     The total energy is the sum of the following terms:

     one-electron contribution =   -1108.38201630 Ry
     hartree contribution      =     841.95697242 Ry
     xc contribution           =    -696.48408445 Ry
     ewald contribution        =   -2795.66030549 Ry
     Hubbard energy            =      -0.08796179 Ry
     smearing contrib. (-TS)   =       0.00112969 Ry

     total magnetization       =     0.00 Bohr mag/cell
     absolute magnetization    =     0.00 Bohr mag/cell

     convergence has been achieved in  13 iterations

     Writing output data file pwscf.save

     General routines

     Parallel routines
     Hubbard U routines

   This run was terminated on:   2:24:30  12Feb2014

   JOB DONE.