     Program PWSCF v.5.0.2 (svn rev. 9656) starts on 12Feb2014 at 18: 4:50

     Current dimensions of program PWSCF are:
     Max number of different atomic species (ntypx) = 10
     Max number of k-points (npk) =  40000
     Max angular momentum in pseudopotentials (lmaxx) =  3
     Reading input from alpha_0.15/alpha_0.15.in
Warning: card &IONS ignored
Warning: card / ignored
Warning: card &CELL ignored
Warning: card / ignored

     Subspace diagonalization in iterative solution of the eigenvalue problem:
     a serial algorithm will be used

     bravais-lattice index     =            0
     lattice parameter (alat)  =      17.1965  a.u.
     unit-cell volume          =    3475.9200 (a.u.)^3
     number of atoms/cell      =           48
     number of atomic types    =            3
     number of electrons       =       432.00
     number of Kohn-Sham states=          648
     kinetic-energy cutoff     =      40.0000  Ry
     charge density cutoff     =     500.0000  Ry
     convergence threshold     =      1.0E-06
     mixing beta               =       0.7000
     number of iterations used =            8  plain     mixing
     Exchange-correlation      = SLA  PW   PBE  PBE ( 1 4 3 4 0)
     EXX-fraction              =        0.00

     celldm(1)=  17.196508  celldm(2)=   0.000000  celldm(3)=   0.000000
     celldm(4)=   0.000000  celldm(5)=   0.000000  celldm(6)=   0.000000

     crystal axes: (cart. coord. in units of alat)
               a(1) = (   1.000000   0.000000   0.000000 )
               a(2) = (   0.000000   1.000000   0.000000 )
               a(3) = (   0.000000   0.000000   0.683516 )

     reciprocal axes: (cart. coord. in units 2 pi/alat)
               b(1) = (  1.000000  0.000000  0.000000 )
               b(2) = (  0.000000  1.000000  0.000000 )
               b(3) = (  0.000000  0.000000  1.463023 )

     PseudoPot. # 1 for Rh read from file:
     /home/camp/zhonxu/pseudo/rh_pbe_v1.uspp.F.UPF
     MD5 check sum: 37b626987ad0dd8ec6bf4cc9ef289918
     Pseudo is Ultrasoft + core correction, Zval = 15.0
     Generated by new atomic code, or converted to UPF format
     Using radial grid of  969 points,  7 beta functions with:
                l(1) =   0
                l(2) =   0
                l(3) =   1
                l(4) =   1
                l(5) =   2
                l(6) =   2
                l(7) =   2
     Q(r) pseudized with  6 coefficients,  rinner =    1.050   1.050   1.050
                                                       1.050   1.050

     PseudoPot. # 2 for Rh read from file:
     /home/camp/zhonxu/pseudo/rh_pbe_v1.uspp.F.UPF
     MD5 check sum: 37b626987ad0dd8ec6bf4cc9ef289918
     Pseudo is Ultrasoft + core correction, Zval = 15.0
     Generated by new atomic code, or converted to UPF format
     Using radial grid of  969 points,  7 beta functions with:
                l(1) =   0
                l(2) =   0
                l(3) =   1
                l(4) =   1
                l(5) =   2
                l(6) =   2
                l(7) =   2
     Q(r) pseudized with  6 coefficients,  rinner =    1.050   1.050   1.050
                                                       1.050   1.050

     PseudoPot. # 3 for O  read from file:
     /home/camp/zhonxu/pseudo/o_pbe_v1.01.uspp.F.UPF
     MD5 check sum: 2bcb18d16ea4b960afae9ec6d52f22d2
     Pseudo is Ultrasoft + core correction, Zval =  6.0
     Generated by new atomic code, or converted to UPF format
     Using radial grid of  737 points,  5 beta functions with:
                l(1) =   0
                l(2) =   0
                l(3) =   1
                l(4) =   1
                l(5) =   2
     Q(r) pseudized with  8 coefficients,  rinner =    0.900   0.900   0.900
                                                       0.900   0.900

     atomic species   valence    mass     pseudopotential
        Rh0           15.00   102.90550     Rh( 1.00)
        Rh1           15.00   102.90550     Rh( 1.00)
        O2             6.00    15.99940     O ( 1.00)

     Starting magnetic structure
     atomic species   magnetization
        Rh0          0.000
        Rh1          0.000
        O2           0.000

     Simplified LDA+U calculation (l_max = 2) with parameters (eV):
     atomic species    L          U    alpha       J0     beta
        Rh0            2     0.0000   0.1500   0.0000   0.0000
        Rh1            2     0.0000   0.0000   0.0000   0.0000
        O2             1     0.0000   0.0000   0.0000   0.0000

      8 Sym. Ops., with inversion, found

   Cartesian axes

     site n.     atom                  positions (alat units)
         1           Rh0 tau(   1) = (   0.0000000   0.0000000   0.0000000  )
         2           Rh1 tau(   2) = (   0.2500000   0.2500000   0.1708791  )
         3           Rh1 tau(   3) = (   0.0000000   0.0000000   0.3417582  )
         4           Rh1 tau(   4) = (   0.2500000   0.2500000   0.5126374  )
         5           Rh1 tau(   5) = (   0.0000000   0.5000000   0.0000000  )
         6           Rh1 tau(   6) = (   0.2500000   0.7500000   0.1708791  )
         7           Rh1 tau(   7) = (   0.0000000   0.5000000   0.3417582  )
         8           Rh1 tau(   8) = (   0.2500000   0.7500000   0.5126374  )
         9           Rh1 tau(   9) = (   0.5000000   0.0000000   0.0000000  )
        10           Rh1 tau(  10) = (   0.7500000   0.2500000   0.1708791  )
        11           Rh1 tau(  11) = (   0.5000000   0.0000000   0.3417582  )
        12           Rh1 tau(  12) = (   0.7500000   0.2500000   0.5126374  )
        13           Rh1 tau(  13) = (   0.5000000   0.5000000   0.0000000  )
        14           Rh1 tau(  14) = (   0.7500000   0.7500000   0.1708791  )
        15           Rh1 tau(  15) = (   0.5000000   0.5000000   0.3417582  )
        16           Rh1 tau(  16) = (   0.7500000   0.7500000   0.5126374  )
        17           O2  tau(  17) = (   0.1550000   0.1550000   0.0000000  )
        18           O2  tau(  18) = (  -0.1550000  -0.1550000   0.0000000  )
        19           O2  tau(  19) = (   0.4050000   0.0950000   0.1708791  )
        20           O2  tau(  20) = (   0.0950000   0.4050000   0.1708791  )
        21           O2  tau(  21) = (   0.1550000   0.1550000   0.3417582  )
        22           O2  tau(  22) = (  -0.1550000  -0.1550000   0.3417582  )
        23           O2  tau(  23) = (   0.4050000   0.0950000   0.5126374  )
        24           O2  tau(  24) = (   0.0950000   0.4050000   0.5126374  )
        25           O2  tau(  25) = (   0.1550000   0.6550000   0.0000000  )
        26           O2  tau(  26) = (  -0.1550000   0.3450000   0.0000000  )
        27           O2  tau(  27) = (   0.4050000   0.5950000   0.1708791  )
        28           O2  tau(  28) = (   0.0950000   0.9050000   0.1708791  )
        29           O2  tau(  29) = (   0.1550000   0.6550000   0.3417582  )
        30           O2  tau(  30) = (  -0.1550000   0.3450000   0.3417582  )
        31           O2  tau(  31) = (   0.4050000   0.5950000   0.5126374  )
        32           O2  tau(  32) = (   0.0950000   0.9050000   0.5126374  )
        33           O2  tau(  33) = (   0.6550000   0.1550000   0.0000000  )
        34           O2  tau(  34) = (   0.3450000  -0.1550000   0.0000000  )
        35           O2  tau(  35) = (   0.9050000   0.0950000   0.1708791  )
        36           O2  tau(  36) = (   0.5950000   0.4050000   0.1708791  )
        37           O2  tau(  37) = (   0.6550000   0.1550000   0.3417582  )
        38           O2  tau(  38) = (   0.3450000  -0.1550000   0.3417582  )
        39           O2  tau(  39) = (   0.9050000   0.0950000   0.5126374  )
        40           O2  tau(  40) = (   0.5950000   0.4050000   0.5126374  )
        41           O2  tau(  41) = (   0.6550000   0.6550000   0.0000000  )
        42           O2  tau(  42) = (   0.3450000   0.3450000   0.0000000  )
        43           O2  tau(  43) = (   0.9050000   0.5950000   0.1708791  )
        44           O2  tau(  44) = (   0.5950000   0.9050000   0.1708791  )
        45           O2  tau(  45) = (   0.6550000   0.6550000   0.3417582  )
        46           O2  tau(  46) = (   0.3450000   0.3450000   0.3417582  )
        47           O2  tau(  47) = (   0.9050000   0.5950000   0.5126374  )
        48           O2  tau(  48) = (   0.5950000   0.9050000   0.5126374  )

     number of k points=    42  Methfessel-Paxton smearing, width (Ry)=  0.0100
                       cart. coord. in units 2pi/alat
        k(    1) = (   0.0000000   0.0000000   0.0000000), wk =   0.0156250
        k(    2) = (   0.0000000   0.0000000   0.3657556), wk =   0.0312500
        k(    3) = (   0.0000000   0.0000000  -0.7315113), wk =   0.0156250
        k(    4) = (   0.0000000   0.2500000   0.0000000), wk =   0.0625000
        k(    5) = (   0.0000000   0.2500000   0.3657556), wk =   0.1250000
        k(    6) = (   0.0000000   0.2500000  -0.7315113), wk =   0.0625000
        k(    7) = (   0.0000000  -0.5000000   0.0000000), wk =   0.0312500
        k(    8) = (   0.0000000  -0.5000000   0.3657556), wk =   0.0625000
        k(    9) = (   0.0000000  -0.5000000  -0.7315113), wk =   0.0312500
        k(   10) = (   0.2500000   0.2500000   0.0000000), wk =   0.0312500
        k(   11) = (   0.2500000   0.2500000   0.3657556), wk =   0.0625000
        k(   12) = (   0.2500000   0.2500000  -0.7315113), wk =   0.0312500
        k(   13) = (   0.2500000  -0.5000000   0.0000000), wk =   0.0625000
        k(   14) = (   0.2500000  -0.5000000   0.3657556), wk =   0.1250000
        k(   15) = (   0.2500000  -0.5000000  -0.7315113), wk =   0.0625000
        k(   16) = (  -0.5000000  -0.5000000   0.0000000), wk =   0.0156250
        k(   17) = (  -0.5000000  -0.5000000   0.3657556), wk =   0.0312500
        k(   18) = (  -0.5000000  -0.5000000  -0.7315113), wk =   0.0156250
        k(   19) = (  -0.2500000   0.2500000   0.0000000), wk =   0.0312500
        k(   20) = (  -0.2500000   0.2500000  -0.3657556), wk =   0.0625000
        k(   21) = (  -0.2500000   0.2500000   0.7315113), wk =   0.0312500
        k(   22) = (   0.0000000   0.0000000   0.0000000), wk =   0.0156250
        k(   23) = (   0.0000000   0.0000000   0.3657556), wk =   0.0312500
        k(   24) = (   0.0000000   0.0000000  -0.7315113), wk =   0.0156250
        k(   25) = (   0.0000000   0.2500000   0.0000000), wk =   0.0625000
        k(   26) = (   0.0000000   0.2500000   0.3657556), wk =   0.1250000
        k(   27) = (   0.0000000   0.2500000  -0.7315113), wk =   0.0625000
        k(   28) = (   0.0000000  -0.5000000   0.0000000), wk =   0.0312500
        k(   29) = (   0.0000000  -0.5000000   0.3657556), wk =   0.0625000
        k(   30) = (   0.0000000  -0.5000000  -0.7315113), wk =   0.0312500
        k(   31) = (   0.2500000   0.2500000   0.0000000), wk =   0.0312500
        k(   32) = (   0.2500000   0.2500000   0.3657556), wk =   0.0625000
        k(   33) = (   0.2500000   0.2500000  -0.7315113), wk =   0.0312500
        k(   34) = (   0.2500000  -0.5000000   0.0000000), wk =   0.0625000
        k(   35) = (   0.2500000  -0.5000000   0.3657556), wk =   0.1250000
[...]
    eigenvectors:
  0.000  1.000  0.000
  0.500  0.000  0.500
  0.500  0.000  0.500
    occupations:
  0.866 -0.000 -0.000
 -0.000  0.882 -0.024
 -0.000 -0.024  0.882
   spin  2
    eigenvalues:
  0.858  0.866  0.906
    eigenvectors:
  0.000  1.000  0.000
  0.500  0.000  0.500
  0.500  0.000  0.500
    occupations:
  0.866 -0.000 -0.000
 -0.000  0.882 -0.024
 -0.000 -0.024  0.882
atomic mag. moment =    -0.000000
atom   42   Tr[ns(na)] (up, down, total) =   2.63036  2.63036  5.26073
   spin  1
    eigenvalues:
  0.858  0.866  0.906
    eigenvectors:
  0.000  1.000  0.000
  0.500  0.000  0.500
  0.500  0.000  0.500
    occupations:
  0.866 -0.000 -0.000
 -0.000  0.882 -0.024
 -0.000 -0.024  0.882
   spin  2
    eigenvalues:
  0.858  0.866  0.906
    eigenvectors:
  0.000  1.000  0.000
  0.500  0.000  0.500
  0.500  0.000  0.500
    occupations:
  0.866 -0.000 -0.000
 -0.000  0.882 -0.024
 -0.000 -0.024  0.882
atomic mag. moment =    -0.000000
atom   43   Tr[ns(na)] (up, down, total) =   2.63044  2.63044  5.26088
   spin  1
    eigenvalues:
  0.858  0.866  0.906
    eigenvectors:
  0.000  1.000  0.000
  0.500  0.000  0.500
  0.500  0.000  0.500
    occupations:
  0.866  0.000  0.000
  0.000  0.882  0.024
  0.000  0.024  0.882
   spin  2
    eigenvalues:
  0.858  0.866  0.906
    eigenvectors:
  0.000  1.000  0.000
  0.500  0.000  0.500
  0.500  0.000  0.500
    occupations:
  0.866  0.000  0.000
  0.000  0.882  0.024
  0.000  0.024  0.882
atomic mag. moment =     0.000000
atom   44   Tr[ns(na)] (up, down, total) =   2.63044  2.63044  5.26088
   spin  1
    eigenvalues:
  0.858  0.866  0.906
    eigenvectors:
  0.000  1.000  0.000
  0.500  0.000  0.500
  0.500  0.000  0.500
    occupations:
  0.866  0.000  0.000
  0.000  0.882  0.024
  0.000  0.024  0.882
   spin  2
    eigenvalues:
  0.858  0.866  0.906
    eigenvectors:
  0.000  1.000  0.000
  0.500  0.000  0.500
  0.500  0.000  0.500
    occupations:
  0.866  0.000  0.000
  0.000  0.882  0.024
  0.000  0.024  0.882
atomic mag. moment =     0.000000
atom   45   Tr[ns(na)] (up, down, total) =   2.63041  2.63041  5.26082
   spin  1
    eigenvalues:
  0.858  0.866  0.906
    eigenvectors:
  0.000  1.000  0.000
  0.500  0.000  0.500
  0.500  0.000  0.500
    occupations:
  0.866 -0.000 -0.000
 -0.000  0.882 -0.024
 -0.000 -0.024  0.882
   spin  2
    eigenvalues:
  0.858  0.866  0.906
    eigenvectors:
  0.000  1.000  0.000
  0.500  0.000  0.500
  0.500  0.000  0.500
    occupations:
  0.866 -0.000 -0.000
 -0.000  0.882 -0.024
 -0.000 -0.024  0.882
atomic mag. moment =    -0.000000
atom   46   Tr[ns(na)] (up, down, total) =   2.63041  2.63041  5.26082
   spin  1
    eigenvalues:
  0.858  0.866  0.906
    eigenvectors:
  0.000  1.000  0.000
  0.500  0.000  0.500
  0.500  0.000  0.500
    occupations:
  0.866 -0.000 -0.000
 -0.000  0.882 -0.024
 -0.000 -0.024  0.882
   spin  2
    eigenvalues:
  0.858  0.866  0.906
    eigenvectors:
  0.000  1.000  0.000
  0.500  0.000  0.500
  0.500  0.000  0.500
    occupations:
  0.866 -0.000 -0.000
 -0.000  0.882 -0.024
 -0.000 -0.024  0.882
atomic mag. moment =    -0.000000
atom   47   Tr[ns(na)] (up, down, total) =   2.63044  2.63044  5.26088
   spin  1
    eigenvalues:
  0.858  0.866  0.906
    eigenvectors:
  0.000  1.000  0.000
  0.500  0.000  0.500
  0.500  0.000  0.500
    occupations:
  0.866 -0.000 -0.000
 -0.000  0.882  0.024
 -0.000  0.024  0.882
   spin  2
    eigenvalues:
  0.858  0.866  0.906
    eigenvectors:
  0.000  1.000  0.000
  0.500  0.000  0.500
  0.500  0.000  0.500
    occupations:
  0.866 -0.000 -0.000
 -0.000  0.882  0.024
 -0.000  0.024  0.882
atomic mag. moment =     0.000000
atom   48   Tr[ns(na)] (up, down, total) =   2.63044  2.63044  5.26088
   spin  1
    eigenvalues:
  0.858  0.866  0.906
    eigenvectors:
  0.000  1.000  0.000
  0.500  0.000  0.500
  0.500  0.000  0.500
    occupations:
  0.866 -0.000 -0.000
 -0.000  0.882  0.024
 -0.000  0.024  0.882
   spin  2
    eigenvalues:
  0.858  0.866  0.906
    eigenvectors:
  0.000  1.000  0.000
  0.500  0.000  0.500
  0.500  0.000  0.500
    occupations:
  0.866 -0.000 -0.000
 -0.000  0.882  0.024
 -0.000  0.024  0.882
atomic mag. moment =     0.000000
N of occupied +U levels = 295.7027149
 --- exit write_ns ---

 ------ SPIN UP ------------

          k = 0.0000 0.0000 0.0000 ( 14907 PWs)   bands (ev):

   -36.2681 -36.2529 -36.1803 -36.1799 -36.1790 -36.1775 -36.1742 -36.1740
   -36.1735 -36.1562 -36.1559 -36.1556 -36.1552 -36.1538 -36.1538 -36.1531
   -36.1485 -36.1460 -36.1459 -36.1452 -36.1426 -36.1422 -36.1406 -36.1406
   -36.0920 -36.0698 -36.0645 -36.0592 -36.0590 -36.0589 -36.0585 -36.0584
   -36.0534 -35.9656 -35.9655 -35.9647 -35.9646 -35.9637 -35.9633 -35.9624
   -35.9545 -35.9475 -35.9475 -35.9473 -35.9473 -35.9471 -35.9464 -35.9462
    -8.2657  -7.6414  -7.6382  -7.5739  -7.5733  -7.5731  -7.5730  -7.1850
    -7.1037  -7.1034  -7.1017  -7.0962  -7.0085  -7.0064  -6.8949  -6.8919
    -6.8905  -6.8895  -6.7991  -6.7946  -6.6903  -6.6892  -6.6882  -6.6879
    -6.5741  -6.5728  -6.5724  -6.5684  -6.4495  -6.4491  -6.3166  -6.3162
     3.3350   3.4006   3.4042   3.4419   4.3425   4.3425   4.3453   4.3493
     4.3585   4.3606   4.3608   4.3703   4.5279   4.5328   4.6293   4.6331
     4.6936   4.6980   4.7775   4.7780   4.7784   4.7898   4.8736   4.9050
     4.9120   4.9198   4.9214   5.0386   5.0393   5.0412   5.0418   5.3818
     5.3845   5.6896   5.6966   5.9026   5.9033   6.1347   6.1356   6.1372
     6.1400   6.4488   6.4490   6.4498   6.4579   6.5569   6.5576   6.5585
     6.5594   6.7262   6.7292   6.7456   6.7487   7.1538   7.1572   7.1674
     7.1720   7.1793   7.1801   7.1823   7.1866   7.3903   7.3909   7.4970
     7.4987   7.4990   7.5048   7.5342   7.5354   7.5359   7.5366   7.6174
     7.6641   7.6647   8.1106   8.1151   8.3812   8.3825   8.4651   8.4666
     9.0794   9.0902   9.0903   9.0904   9.0904   9.0943   9.0987   9.1603
     9.1719   9.1734   9.2266   9.2266   9.2273   9.2275   9.2687   9.3107
     9.3149   9.3186   9.3222   9.3399   9.3458   9.3819   9.3825   9.3826
     9.3829   9.7021   9.7023   9.8217   9.8250   9.8604   9.8606   9.8612
     9.8672   9.8767   9.8846   9.9494  10.3237  10.3362  10.3371  10.3376
    10.3424  10.3686  10.3695  10.3696  10.3741  10.5972  10.5990  10.8786
    10.8798  11.2565  11.2573  11.3479  11.3483  11.3486  11.3495  11.7511
    11.8852  11.8856  11.9191  11.9195  12.0316  12.0316  12.0318  12.0321
    12.2818  12.2819  12.2822  12.2835  12.4347  13.5880  13.5884  13.6117
    13.6120  13.6252  13.6253  13.7893  13.7901  14.0682  14.0689  14.4436
    14.4454  14.4458  14.4458  14.8098  14.8117  14.8123  14.8129  15.1779
    15.1791  15.1942  15.1952  15.4363  15.4382  15.4385  15.4390  16.0985
    17.6206  20.0464  20.0479  20.0491  20.0499  21.3952  21.3962  21.5064
    21.5078  22.0626  22.0640  22.2912  22.2918  22.2919  22.2934  22.3144
    22.3174  22.3515  22.3526  23.0763  23.0780  23.0790  23.0808  23.9346
    23.9366  23.9847  23.9888  23.9892  23.9892  24.4604  24.4618  25.0144
    25.0978  25.0985  25.1523  25.2255  25.2261  25.6031  25.6041  26.1115
    26.1143  26.1145  26.1150  26.1479  26.1485  26.1494  26.1500  26.1511
    26.1514  26.2926  26.2958  26.5884  26.7863  26.7886  26.7903  26.7909
    27.1435  27.1472  27.7765  27.8018  27.8031  27.8046  27.8051  27.8764
    27.8771  28.1131  28.1140  28.1166  28.1176  28.4513  28.4544  28.4570
    28.4579  28.8198  29.0666  29.0682  29.4882  29.4900  29.5147  29.7552
    29.7566  30.2516  30.2527  30.2537  30.2545  30.7192  30.7203  30.7212
    30.7214  31.0544  31.0567  31.2206  31.2218  31.3057  31.3100  31.7514
    31.8709  31.8759  31.8769  31.8773  31.9097  31.9108  33.0769  33.0788
    33.0912  33.0912  33.0917  33.0943  33.1336  33.1364  33.5638  33.5679
    34.0995  34.1021  34.4641  34.4645  34.9747  34.9776  34.9787  34.9792
    35.0550  35.0550  35.4631  35.4633  35.4650  35.4660  35.5198  35.8464
    35.8495  35.8538  35.8570  35.9730  35.9742  36.6517  36.6551  37.2154
    37.2168  37.2183  37.2189  37.2933  37.2940  37.2960  37.2970  37.3384
    37.3404  37.3422  37.3425  37.4703  37.4730  37.4740  37.4747  37.6644
    37.6648  38.1912  38.4755  38.4781  38.5802  38.5822  38.6854  38.6885
    38.6887  38.6899  38.8762  38.8775  39.0216  39.0782  39.0792  39.2136
    39.2136  39.2145  39.2147  39.3583  39.4219  39.4221  39.6758  39.7017
    39.7124  39.7559  39.8188  39.8202  39.8261  39.8583  39.8586  39.8591
    39.8591  39.8599  39.8602  39.8609  39.8639  39.8639  39.8651  39.8652
    39.8660  39.8661  39.8662  39.8674  39.9056  39.9097  39.9112  40.0604
    41.3654  41.3667  41.7856  41.7858  41.9470  41.9482  42.1496  42.1519
    42.1523  42.1531  42.1544  42.1682  42.1691  42.1699  42.1702  42.4753
    42.4892  42.4925  42.6293  42.6314  42.6323  42.6337  42.7140  42.7156
[...]
    47.5685  47.8020  47.8052  48.0571  48.0584  48.2309  48.2310  48.2314
    48.2334  48.3030  48.3054  48.3056  48.3056  48.3598  48.3615  48.6922
    48.6955  48.6965  48.6969  48.6998  48.7002  48.8226  48.8274  48.8282
    48.8283  48.9362  48.9389  48.9399  48.9400  49.1640  49.1641  49.2680
    49.2687  49.5486  49.5547  49.5553  49.5556  49.6082  49.6094  49.6123
    49.6135  49.8311  49.8350  50.3528  50.3550  50.5661  50.5683  50.5840
    50.5845  50.6592  50.6605  50.6614  50.6619  50.8071  50.8076  50.9890
    50.9894  51.3063  51.3076  51.3364  51.3427  51.3471  51.3475  51.3477
    51.5279  51.5301  51.5310  51.5318  51.5547  51.5560  51.8599  51.9177
    51.9189  51.9750  52.0759  52.0767  52.3291  52.3306  52.3320  52.3326
    52.4440  52.4460  52.4807  52.4836  52.7748  52.7759  52.7772  52.7779
    52.8475  53.2990  53.5368  53.5377  53.5584  53.5595  53.6849  53.8326
    53.8417  53.8461  53.9758  53.9760  53.9763  53.9768  54.4501  54.4502
    54.8799  54.8803  54.8805  54.8808  54.9225  54.9244  54.9259  54.9263
    55.1497  55.1519  55.3496  55.3502  55.4788  55.4811  55.5045  55.5750

[...]

          k =-0.5000-0.5000 0.0000 ( 14848 PWs)   bands (ev):

[...]

 ------ SPIN DOWN ----------

[...]

          k = 0.2500-0.5000-0.7315 ( 14844 PWs)   bands (ev):

[...]

          k =-0.2500 0.2500 0.7315 ( 14880 PWs)   bands (ev):

   -36.2677 -36.2287 -36.1527 -36.1526 -36.1525 -36.1523 -36.1520 -36.1519
   -36.1518 -36.1518 -36.1518 -36.1512 -36.1512 -36.1512 -36.1509 -36.1503
   -36.1492 -36.1194 -36.1191 -36.1172 -36.1172 -36.1168 -36.1163 -36.1160
   -36.1160 -36.1151 -36.1140 -36.1135 -36.1133 -36.1129 -36.1126 -36.1122
   -36.0690 -35.9564 -35.9563 -35.9563 -35.9559 -35.9559 -35.9556 -35.9556
   -35.9555 -35.9555 -35.9554 -35.9552 -35.9552 -35.9550 -35.9544 -35.9544
    -7.7052  -7.7042  -7.4330  -7.4321  -7.4320  -7.4315  -7.3413  -7.3407
    -7.1901  -7.1880  -7.0445  -7.0439  -7.0433  -7.0430  -6.9519  -6.9481
    -6.8023  -6.8020  -6.8018  -6.7962  -6.7326  -6.7293  -6.6777  -6.6776
    -6.6775  -6.6735  -6.6681  -6.6614  -6.6611  -6.6602  -6.5817  -6.5805
     3.9787   3.9836   4.0408   4.0439   4.3186   4.3186   4.3197   4.3233
     4.3392   4.3402   4.3592   4.3603   4.7055   4.7104   4.7326   4.7334
     4.7337   4.7397   4.8361   4.8376   4.9234   4.9249   4.9258   4.9298
     4.9300   4.9333   5.1614   5.1644   5.1645   5.1685   5.1811   5.1838
     5.5783   5.5795   5.5801   5.5884   5.7681   5.7739   5.9308   5.9313
     6.0456   6.0462   6.0470   6.0472   6.1074   6.1075   6.5823   6.5831
     6.6209   6.6209   6.6210   6.6279   6.7376   6.7382   6.9282   6.9293
     7.0162   7.0166   7.0169   7.0183   7.5256   7.5271   7.5273   7.5273
     7.5282   7.5367   7.5535   7.5583   7.5823   7.5825   7.5934   7.5955
     7.6772   7.6780   7.6793   7.6817   7.8815   7.8848   8.0830   8.0840
     8.1388   8.1407   8.2491   8.2509   8.4149   8.4152   8.4157   8.4190
     8.7453   8.7468   9.0098   9.0110   9.0125   9.0136   9.2390   9.2419
     9.7647   9.7649   9.9346   9.9350   9.9761   9.9767   9.9814   9.9815
     9.9817   9.9840  10.3715  10.3733  10.3991  10.4022  10.4108  10.4116
    10.4121  10.4203  10.4988  10.5045  10.5647  10.5649  10.5663  10.5680
    10.6241  10.6247  10.8427  10.8439  10.8441  10.8449  10.9576  10.9581
    11.2749  11.2760  11.3404  11.3416  11.3755  11.3755  11.3758  11.3763
    11.4500  11.4505  11.5916  11.5917  11.5917  11.5921  11.8763  11.8766
    13.0367  13.0368  13.1138  13.1139  13.1148  13.1149  13.4800  13.4802
    13.4806  13.4806  13.5198  13.5198  13.7861  13.7864  14.0300  14.0312
    14.2105  14.2109  14.2353  14.2356  14.5421  14.5424  14.5436  14.5436
    14.7647  14.7648  15.2315  15.2350  15.2354  15.2355  15.2378  15.2380
    19.6078  19.6103  20.5879  20.5906  20.5912  20.5920  21.3042  21.3060
    22.0108  22.0140  22.0141  22.0149  22.2106  22.2132  23.1056  23.1099
    23.1369  23.1381  23.1927  23.1975  23.7985  23.8008  23.8018  23.8019
    23.8660  23.8681  24.5755  24.5851  24.5852  24.5855  24.6230  24.6257
    24.9515  24.9542  25.3030  25.3030  25.3061  25.3066  25.3497  25.3509
    25.5373  25.5398  25.8233  25.8245  25.8259  25.8262  26.1983  26.1988
    26.8170  26.8196  26.8206  26.8210  26.9575  26.9579  26.9848  26.9890
    27.1862  27.1872  27.3424  27.3432  27.3458  27.3470  27.6018  27.6048
    27.6844  27.6860  27.8718  27.8728  27.8738  27.8743  28.0817  28.0830
    28.1652  28.1674  28.7224  28.7241  28.7259  28.7263  28.7888  28.7933
    28.9798  28.9820  29.8313  29.8368  29.8368  29.8381  30.7053  30.7059
    31.0250  31.0306  31.0306  31.0310  31.7843  31.7857  31.8263  31.8317
    31.8931  31.8940  31.8944  31.8962  32.4249  32.4293  32.9662  32.9664
    33.2232  33.2246  33.7090  33.7104  33.7105  33.7128  34.3067  34.3068
    34.5439  34.5442  34.7617  34.7640  35.0433  35.0460  35.0527  35.0531
    35.0536  35.0536  35.1502  35.1528  35.4092  35.4093  35.4379  35.4417
    35.4421  35.4428  36.2397  36.2415  36.3038  36.3046  36.3054  36.3059
    36.5416  36.5420  36.5424  36.5432  36.7362  36.7373  37.7338  37.7344
    37.7346  37.7354  37.7507  37.7508  38.1447  38.1471  38.2310  38.2313
    38.2340  38.2344  38.3499  38.3503  38.3520  38.3523  38.5527  38.5528
    38.6601  38.6612  38.7514  38.7538  38.7551  38.7564  38.8221  38.8224
    38.8872  38.8886  39.2469  39.2478  39.2831  39.2835  39.2837  39.2840
    39.7100  39.8515  39.8522  39.8523  39.8527  39.8532  39.8536  39.8547
    39.8565  39.8565  39.8577  39.8577  39.8592  39.8593  39.8599  39.8603
    40.0163  40.0180  40.0511  40.0522  40.0537  40.0548  40.9764  40.9767
    41.3573  41.3576  41.4647  41.4659  41.4666  41.4678  41.5101  41.5133
    41.5488  41.5489  42.0460  42.0479  42.0666  42.0683  42.5303  42.5313
    42.5331  42.5335  43.0382  43.0410  43.0417  43.0422  43.5435  43.5446
[...]
    47.3544  47.3576  47.3884  47.3903  47.5887  47.5893  47.5910  47.5914
    47.7340  47.7348  47.7349  47.7355  47.9579  47.9597  48.4933  48.4940
    48.6960  48.6973  48.8406  48.8417  48.8443  48.8450  48.8746  48.8789
    48.9899  48.9929  49.0151  49.0158  49.0159  49.0168  49.2386  49.2398
    49.2758  49.2763  49.5356  49.5375  49.5746  49.5754  49.5762  49.5767
    49.7967  49.7973  49.8144  49.8148  50.0025  50.0033  50.2156  50.2168
    50.2168  50.2173  50.4128  50.4139  50.4147  50.4155  50.8879  50.8890
    50.8900  50.8927  50.8930  50.8937  50.9662  50.9710  51.4629  51.4644
    51.4649  51.4656  51.5120  51.5127  51.5563  51.5602  52.0105  52.0114
    52.1107  52.1128  52.3686  52.3698  52.7250  52.7259  52.7266  52.7288
    52.8516  52.8529  53.1035  53.1044  53.2702  53.2721  53.2782  53.2793
    53.2798  53.2798  53.6870  53.6889  54.1173  54.1203  54.1212  54.1223
    54.2593  54.2608  54.3505  54.3522  54.4361  54.4376  54.4393  54.4398
    54.4531  54.4535  54.4932  54.4936  54.9111  54.9112  54.9125  54.9133
    55.0367  55.0375  55.1783  55.1790  55.5110  55.5152  55.5157  55.5162

     the Fermi energy is    11.6274 ev

!    total energy              =   -3758.48074897 Ry
     Harris-Foulkes estimate   =   -3758.48074981 Ry
     estimated scf accuracy    <       0.00000088 Ry

     The total energy is the sum of the following terms:

     one-electron contribution =   -1108.31923015 Ry
     hartree contribution      =     841.89008243 Ry
     xc contribution           =    -696.47998259 Ry
     ewald contribution        =   -2795.66030549 Ry
     Hubbard energy            =       0.08755506 Ry
     smearing contrib. (-TS)   =       0.00113178 Ry

     total magnetization       =     0.00 Bohr mag/cell
     absolute magnetization    =     0.00 Bohr mag/cell

     convergence has been achieved in  12 iterations

     Writing output data file pwscf.save

     General routines

     Parallel routines
     Hubbard U routines

   This run was terminated on:   1: 2: 2  13Feb2014

   JOB DONE.