     Program PWSCF v.5.0.2 (svn rev. 9656) starts on 12Feb2014 at 12:32:48

     Current dimensions of program PWSCF are:
     Max number of different atomic species (ntypx) = 10
     Max number of k-points (npk) =  40000
     Max angular momentum in pseudopotentials (lmaxx) =  3
     Reading input from alpha_0.07/alpha_0.07.in
Warning: card &IONS ignored
Warning: card / ignored
Warning: card &CELL ignored
Warning: card / ignored

     Subspace diagonalization in iterative solution of the eigenvalue problem:
     a serial algorithm will be used

     bravais-lattice index     =            0
     lattice parameter (alat)  =      17.1965  a.u.
     unit-cell volume          =    3475.9200 (a.u.)^3
     number of atoms/cell      =           48
     number of atomic types    =            3
     number of electrons       =       432.00
     number of Kohn-Sham states=          648
     kinetic-energy cutoff     =      40.0000  Ry
     charge density cutoff     =     500.0000  Ry
     convergence threshold     =      1.0E-06
     mixing beta               =       0.7000
     number of iterations used =            8  plain     mixing
     Exchange-correlation      = SLA  PW   PBE  PBE ( 1 4 3 4 0)
     EXX-fraction              =        0.00

     celldm(1)=  17.196508  celldm(2)=   0.000000  celldm(3)=   0.000000
     celldm(4)=   0.000000  celldm(5)=   0.000000  celldm(6)=   0.000000

     crystal axes: (cart. coord. in units of alat)
               a(1) = (   1.000000   0.000000   0.000000 )
               a(2) = (   0.000000   1.000000   0.000000 )
               a(3) = (   0.000000   0.000000   0.683516 )

     reciprocal axes: (cart. coord. in units 2 pi/alat)
               b(1) = (  1.000000  0.000000  0.000000 )
               b(2) = (  0.000000  1.000000  0.000000 )
               b(3) = (  0.000000  0.000000  1.463023 )

     PseudoPot. # 1 for Rh read from file:
     /home/camp/zhonxu/pseudo/rh_pbe_v1.uspp.F.UPF
     MD5 check sum: 37b626987ad0dd8ec6bf4cc9ef289918
     Pseudo is Ultrasoft + core correction, Zval = 15.0
     Generated by new atomic code, or converted to UPF format
     Using radial grid of  969 points,  7 beta functions with:
                l(1) =   0
                l(2) =   0
                l(3) =   1
                l(4) =   1
                l(5) =   2
                l(6) =   2
                l(7) =   2
     Q(r) pseudized with  6 coefficients,  rinner =    1.050   1.050   1.050
                                                       1.050   1.050

     PseudoPot. # 2 for Rh read from file:
     /home/camp/zhonxu/pseudo/rh_pbe_v1.uspp.F.UPF
     MD5 check sum: 37b626987ad0dd8ec6bf4cc9ef289918
     Pseudo is Ultrasoft + core correction, Zval = 15.0
     Generated by new atomic code, or converted to UPF format
     Using radial grid of  969 points,  7 beta functions with:
                l(1) =   0
                l(2) =   0
                l(3) =   1
                l(4) =   1
                l(5) =   2
                l(6) =   2
                l(7) =   2
     Q(r) pseudized with  6 coefficients,  rinner =    1.050   1.050   1.050
                                                       1.050   1.050

     PseudoPot. # 3 for O  read from file:
     /home/camp/zhonxu/pseudo/o_pbe_v1.01.uspp.F.UPF
     MD5 check sum: 2bcb18d16ea4b960afae9ec6d52f22d2
     Pseudo is Ultrasoft + core correction, Zval =  6.0
     Generated by new atomic code, or converted to UPF format
     Using radial grid of  737 points,  5 beta functions with:
                l(1) =   0
                l(2) =   0
                l(3) =   1
                l(4) =   1
                l(5) =   2
     Q(r) pseudized with  8 coefficients,  rinner =    0.900   0.900   0.900
                                                       0.900   0.900

     atomic species   valence    mass     pseudopotential
        Rh0           15.00   102.90550     Rh( 1.00)
        Rh1           15.00   102.90550     Rh( 1.00)
        O2             6.00    15.99940     O ( 1.00)

     Starting magnetic structure
     atomic species   magnetization
        Rh0          0.000
        Rh1          0.000
        O2           0.000

     Simplified LDA+U calculation (l_max = 2) with parameters (eV):
     atomic species    L          U    alpha       J0     beta
        Rh0            2     0.0000   0.0700   0.0000   0.0000
        Rh1            2     0.0000   0.0000   0.0000   0.0000
        O2             1     0.0000   0.0000   0.0000   0.0000

      8 Sym. Ops., with inversion, found

   Cartesian axes

     site n.     atom                  positions (alat units)
         1           Rh0 tau(   1) = (   0.0000000   0.0000000   0.0000000  )
         2           Rh1 tau(   2) = (   0.2500000   0.2500000   0.1708791  )
         3           Rh1 tau(   3) = (   0.0000000   0.0000000   0.3417582  )
         4           Rh1 tau(   4) = (   0.2500000   0.2500000   0.5126374  )
         5           Rh1 tau(   5) = (   0.0000000   0.5000000   0.0000000  )
         6           Rh1 tau(   6) = (   0.2500000   0.7500000   0.1708791  )
         7           Rh1 tau(   7) = (   0.0000000   0.5000000   0.3417582  )
         8           Rh1 tau(   8) = (   0.2500000   0.7500000   0.5126374  )
         9           Rh1 tau(   9) = (   0.5000000   0.0000000   0.0000000  )
        10           Rh1 tau(  10) = (   0.7500000   0.2500000   0.1708791  )
        11           Rh1 tau(  11) = (   0.5000000   0.0000000   0.3417582  )
        12           Rh1 tau(  12) = (   0.7500000   0.2500000   0.5126374  )
        13           Rh1 tau(  13) = (   0.5000000   0.5000000   0.0000000  )
        14           Rh1 tau(  14) = (   0.7500000   0.7500000   0.1708791  )
        15           Rh1 tau(  15) = (   0.5000000   0.5000000   0.3417582  )
        16           Rh1 tau(  16) = (   0.7500000   0.7500000   0.5126374  )
        17           O2  tau(  17) = (   0.1550000   0.1550000   0.0000000  )
        18           O2  tau(  18) = (  -0.1550000  -0.1550000   0.0000000  )
        19           O2  tau(  19) = (   0.4050000   0.0950000   0.1708791  )
        20           O2  tau(  20) = (   0.0950000   0.4050000   0.1708791  )
        21           O2  tau(  21) = (   0.1550000   0.1550000   0.3417582  )
        22           O2  tau(  22) = (  -0.1550000  -0.1550000   0.3417582  )
        23           O2  tau(  23) = (   0.4050000   0.0950000   0.5126374  )
        24           O2  tau(  24) = (   0.0950000   0.4050000   0.5126374  )
        25           O2  tau(  25) = (   0.1550000   0.6550000   0.0000000  )
        26           O2  tau(  26) = (  -0.1550000   0.3450000   0.0000000  )
        27           O2  tau(  27) = (   0.4050000   0.5950000   0.1708791  )
        28           O2  tau(  28) = (   0.0950000   0.9050000   0.1708791  )
        29           O2  tau(  29) = (   0.1550000   0.6550000   0.3417582  )
        30           O2  tau(  30) = (  -0.1550000   0.3450000   0.3417582  )
        31           O2  tau(  31) = (   0.4050000   0.5950000   0.5126374  )
        32           O2  tau(  32) = (   0.0950000   0.9050000   0.5126374  )
        33           O2  tau(  33) = (   0.6550000   0.1550000   0.0000000  )
        34           O2  tau(  34) = (   0.3450000  -0.1550000   0.0000000  )
        35           O2  tau(  35) = (   0.9050000   0.0950000   0.1708791  )
        36           O2  tau(  36) = (   0.5950000   0.4050000   0.1708791  )
        37           O2  tau(  37) = (   0.6550000   0.1550000   0.3417582  )
        38           O2  tau(  38) = (   0.3450000  -0.1550000   0.3417582  )
        39           O2  tau(  39) = (   0.9050000   0.0950000   0.5126374  )
        40           O2  tau(  40) = (   0.5950000   0.4050000   0.5126374  )
        41           O2  tau(  41) = (   0.6550000   0.6550000   0.0000000  )
        42           O2  tau(  42) = (   0.3450000   0.3450000   0.0000000  )
        43           O2  tau(  43) = (   0.9050000   0.5950000   0.1708791  )
        44           O2  tau(  44) = (   0.5950000   0.9050000   0.1708791  )
        45           O2  tau(  45) = (   0.6550000   0.6550000   0.3417582  )
        46           O2  tau(  46) = (   0.3450000   0.3450000   0.3417582  )
        47           O2  tau(  47) = (   0.9050000   0.5950000   0.5126374  )
        48           O2  tau(  48) = (   0.5950000   0.9050000   0.5126374  )

     number of k points=    42  Methfessel-Paxton smearing, width (Ry)=  0.0100
                       cart. coord. in units 2pi/alat
        k(    1) = (   0.0000000   0.0000000   0.0000000), wk =   0.0156250
        k(    2) = (   0.0000000   0.0000000   0.3657556), wk =   0.0312500
        k(    3) = (   0.0000000   0.0000000  -0.7315113), wk =   0.0156250
        k(    4) = (   0.0000000   0.2500000   0.0000000), wk =   0.0625000
        k(    5) = (   0.0000000   0.2500000   0.3657556), wk =   0.1250000
        k(    6) = (   0.0000000   0.2500000  -0.7315113), wk =   0.0625000
        k(    7) = (   0.0000000  -0.5000000   0.0000000), wk =   0.0312500
        k(    8) = (   0.0000000  -0.5000000   0.3657556), wk =   0.0625000
        k(    9) = (   0.0000000  -0.5000000  -0.7315113), wk =   0.0312500
        k(   10) = (   0.2500000   0.2500000   0.0000000), wk =   0.0312500
        k(   11) = (   0.2500000   0.2500000   0.3657556), wk =   0.0625000
        k(   12) = (   0.2500000   0.2500000  -0.7315113), wk =   0.0312500
        k(   13) = (   0.2500000  -0.5000000   0.0000000), wk =   0.0625000
        k(   14) = (   0.2500000  -0.5000000   0.3657556), wk =   0.1250000
        k(   15) = (   0.2500000  -0.5000000  -0.7315113), wk =   0.0625000
        k(   16) = (  -0.5000000  -0.5000000   0.0000000), wk =   0.0156250
        k(   17) = (  -0.5000000  -0.5000000   0.3657556), wk =   0.0312500
        k(   18) = (  -0.5000000  -0.5000000  -0.7315113), wk =   0.0156250
        k(   19) = (  -0.2500000   0.2500000   0.0000000), wk =   0.0312500
        k(   20) = (  -0.2500000   0.2500000  -0.3657556), wk =   0.0625000
        k(   21) = (  -0.2500000   0.2500000   0.7315113), wk =   0.0312500
        k(   22) = (   0.0000000   0.0000000   0.0000000), wk =   0.0156250
        k(   23) = (   0.0000000   0.0000000   0.3657556), wk =   0.0312500
        k(   24) = (   0.0000000   0.0000000  -0.7315113), wk =   0.0156250
        k(   25) = (   0.0000000   0.2500000   0.0000000), wk =   0.0625000
        k(   26) = (   0.0000000   0.2500000   0.3657556), wk =   0.1250000
        k(   27) = (   0.0000000   0.2500000  -0.7315113), wk =   0.0625000
        k(   28) = (   0.0000000  -0.5000000   0.0000000), wk =   0.0312500
        k(   29) = (   0.0000000  -0.5000000   0.3657556), wk =   0.0625000
        k(   30) = (   0.0000000  -0.5000000  -0.7315113), wk =   0.0312500
        k(   31) = (   0.2500000   0.2500000   0.0000000), wk =   0.0312500
        k(   32) = (   0.2500000   0.2500000   0.3657556), wk =   0.0625000
        k(   33) = (   0.2500000   0.2500000  -0.7315113), wk =   0.0312500
        k(   34) = (   0.2500000  -0.5000000   0.0000000), wk =   0.0625000
        k(   35) = (   0.2500000  -0.5000000   0.3657556), wk =   0.1250000
[...]
    eigenvectors:
  0.000  1.000  0.000
  0.500  0.000  0.500
  0.500  0.000  0.500
    occupations:
  0.866 -0.000 -0.000
 -0.000  0.882 -0.024
 -0.000 -0.024  0.882
   spin  2
    eigenvalues:
  0.858  0.866  0.906
    eigenvectors:
  0.000  1.000  0.000
  0.500  0.000  0.500
  0.500  0.000  0.500
    occupations:
  0.866 -0.000 -0.000
 -0.000  0.882 -0.024
 -0.000 -0.024  0.882
atomic mag. moment =    -0.000000
atom   42   Tr[ns(na)] (up, down, total) =   2.63040  2.63040  5.26080
   spin  1
    eigenvalues:
  0.858  0.866  0.906
    eigenvectors:
  0.000  1.000  0.000
  0.500  0.000  0.500
  0.500  0.000  0.500
    occupations:
  0.866 -0.000 -0.000
 -0.000  0.882 -0.024
 -0.000 -0.024  0.882
   spin  2
    eigenvalues:
  0.858  0.866  0.906
    eigenvectors:
  0.000  1.000  0.000
  0.500  0.000  0.500
  0.500  0.000  0.500
    occupations:
  0.866 -0.000 -0.000
 -0.000  0.882 -0.024
 -0.000 -0.024  0.882
atomic mag. moment =    -0.000000
atom   43   Tr[ns(na)] (up, down, total) =   2.63038  2.63038  5.26075
   spin  1
    eigenvalues:
  0.858  0.866  0.906
    eigenvectors:
  0.000  1.000  0.000
  0.500  0.000  0.500
  0.500  0.000  0.500
    occupations:
  0.866  0.000 -0.000
  0.000  0.882  0.024
 -0.000  0.024  0.882
   spin  2
    eigenvalues:
  0.858  0.866  0.906
    eigenvectors:
  0.000  1.000  0.000
  0.500  0.000  0.500
  0.500  0.000  0.500
    occupations:
  0.866  0.000 -0.000
  0.000  0.882  0.024
 -0.000  0.024  0.882
atomic mag. moment =     0.000000
atom   44   Tr[ns(na)] (up, down, total) =   2.63038  2.63038  5.26075
   spin  1
    eigenvalues:
  0.858  0.866  0.906
    eigenvectors:
  0.000  1.000  0.000
  0.500  0.000  0.500
  0.500  0.000  0.500
    occupations:
  0.866 -0.000  0.000
 -0.000  0.882  0.024
  0.000  0.024  0.882
   spin  2
    eigenvalues:
  0.858  0.866  0.906
    eigenvectors:
  0.000  1.000  0.000
  0.500  0.000  0.500
  0.500  0.000  0.500
    occupations:
  0.866 -0.000  0.000
 -0.000  0.882  0.024
  0.000  0.024  0.882
atomic mag. moment =     0.000000
atom   45   Tr[ns(na)] (up, down, total) =   2.63038  2.63038  5.26077
   spin  1
    eigenvalues:
  0.858  0.866  0.906
    eigenvectors:
  0.000  1.000  0.000
  0.500  0.000  0.500
  0.500  0.000  0.500
    occupations:
  0.866 -0.000 -0.000
 -0.000  0.882 -0.024
 -0.000 -0.024  0.882
   spin  2
    eigenvalues:
  0.858  0.866  0.906
    eigenvectors:
  0.000  1.000  0.000
  0.500  0.000  0.500
  0.500  0.000  0.500
    occupations:
  0.866 -0.000 -0.000
 -0.000  0.882 -0.024
 -0.000 -0.024  0.882
atomic mag. moment =    -0.000000
atom   46   Tr[ns(na)] (up, down, total) =   2.63038  2.63038  5.26077
   spin  1
    eigenvalues:
  0.858  0.866  0.906
    eigenvectors:
  0.000  1.000  0.000
  0.500  0.000  0.500
  0.500  0.000  0.500
    occupations:
  0.866 -0.000 -0.000
 -0.000  0.882 -0.024
 -0.000 -0.024  0.882
   spin  2
    eigenvalues:
  0.858  0.866  0.906
    eigenvectors:
  0.000  1.000  0.000
  0.500  0.000  0.500
  0.500  0.000  0.500
    occupations:
  0.866 -0.000 -0.000
 -0.000  0.882 -0.024
 -0.000 -0.024  0.882
atomic mag. moment =    -0.000000
atom   47   Tr[ns(na)] (up, down, total) =   2.63038  2.63038  5.26075
   spin  1
    eigenvalues:
  0.858  0.866  0.906
    eigenvectors:
  0.000  1.000  0.000
  0.500  0.000  0.500
  0.500  0.000  0.500
    occupations:
  0.866 -0.000  0.000
 -0.000  0.882  0.024
  0.000  0.024  0.882
   spin  2
    eigenvalues:
  0.858  0.866  0.906
    eigenvectors:
  0.000  1.000  0.000
  0.500  0.000  0.500
  0.500  0.000  0.500
    occupations:
  0.866 -0.000  0.000
 -0.000  0.882  0.024
  0.000  0.024  0.882
atomic mag. moment =     0.000000
atom   48   Tr[ns(na)] (up, down, total) =   2.63038  2.63038  5.26075
   spin  1
    eigenvalues:
  0.858  0.866  0.906
    eigenvectors:
  0.000  1.000  0.000
  0.500  0.000  0.500
  0.500  0.000  0.500
    occupations:
  0.866  0.000 -0.000
  0.000  0.882  0.024
 -0.000  0.024  0.882
   spin  2
    eigenvalues:
  0.858  0.866  0.906
    eigenvectors:
  0.000  1.000  0.000
  0.500  0.000  0.500
  0.500  0.000  0.500
    occupations:
  0.866  0.000 -0.000
  0.000  0.882  0.024
 -0.000  0.024  0.882
atomic mag. moment =     0.000000
N of occupied +U levels = 295.7050814
 --- exit write_ns ---

 ------ SPIN UP ------------

          k = 0.0000 0.0000 0.0000 ( 14907 PWs)   bands (ev):

   -36.2087 -36.2081 -36.1817 -36.1813 -36.1792 -36.1784 -36.1755 -36.1751
   -36.1751 -36.1576 -36.1570 -36.1568 -36.1561 -36.1552 -36.1549 -36.1548
   -36.1500 -36.1474 -36.1471 -36.1469 -36.1435 -36.1434 -36.1418 -36.1416
   -36.0811 -36.0656 -36.0605 -36.0601 -36.0601 -36.0599 -36.0598 -36.0546
   -36.0115 -35.9668 -35.9666 -35.9666 -35.9656 -35.9648 -35.9643 -35.9643
   -35.9554 -35.9486 -35.9486 -35.9485 -35.9484 -35.9483 -35.9481 -35.9481
    -8.2665  -7.6424  -7.6409  -7.5747  -7.5746  -7.5746  -7.5742  -7.1875
    -7.1051  -7.1047  -7.1040  -7.1016  -7.0092  -7.0083  -6.8961  -6.8939
    -6.8925  -6.8916  -6.8002  -6.7981  -6.6906  -6.6898  -6.6896  -6.6892
    -6.5748  -6.5740  -6.5738  -6.5719  -6.4502  -6.4502  -6.3174  -6.3173
     3.3320   3.3990   3.4007   3.4396   4.3409   4.3412   4.3423   4.3443
     4.3584   4.3590   4.3595   4.3636   4.5269   4.5293   4.6276   4.6297
     4.6920   4.6942   4.7766   4.7766   4.7769   4.7820   4.8701   4.9042
     4.9075   4.9192   4.9199   5.0371   5.0377   5.0384   5.0384   5.3806
     5.3819   5.6886   5.6919   5.9021   5.9024   6.1338   6.1346   6.1351
     6.1365   6.4477   6.4478   6.4483   6.4520   6.5568   6.5574   6.5575
     6.5582   6.7255   6.7270   6.7446   6.7462   7.1526   7.1547   7.1661
     7.1687   7.1782   7.1788   7.1797   7.1811   7.3897   7.3899   7.4964
     7.4975   7.4977   7.5003   7.5341   7.5348   7.5351   7.5352   7.6167
     7.6634   7.6638   8.1093   8.1115   8.3808   8.3812   8.4645   8.4651
     9.0785   9.0892   9.0893   9.0894   9.0894   9.0908   9.0932   9.1576
     9.1712   9.1719   9.2256   9.2258   9.2260   9.2263   9.2659   9.3091
     9.3112   9.3170   9.3191   9.3383   9.3409   9.3809   9.3814   9.3815
     9.3815   9.7011   9.7012   9.8203   9.8223   9.8592   9.8595   9.8596
     9.8632   9.8753   9.8782   9.9469  10.3224  10.3356  10.3357  10.3360
    10.3382  10.3675  10.3683  10.3685  10.3704  10.5960  10.5969  10.8774
    10.8780  11.2553  11.2558  11.3468  11.3470  11.3472  11.3476  11.7494
    11.8839  11.8841  11.9178  11.9181  12.0303  12.0303  12.0303  12.0306
    12.2807  12.2807  12.2807  12.2814  12.4337  13.5872  13.5873  13.6105
    13.6108  13.6240  13.6241  13.7885  13.7889  14.0675  14.0677  14.4435
    14.4442  14.4445  14.4446  14.8098  14.8109  14.8110  14.8113  15.1775
    15.1779  15.1936  15.1939  15.4364  15.4370  15.4375  15.4376  16.0978
    17.6204  20.0470  20.0476  20.0484  20.0487  21.3950  21.3955  21.5068
    21.5074  22.0627  22.0633  22.2913  22.2916  22.2917  22.2924  22.3152
    22.3165  22.3514  22.3518  23.0775  23.0783  23.0789  23.0797  23.9355
    23.9364  23.9860  23.9880  23.9881  23.9883  24.4603  24.4609  25.0148
    25.0979  25.0982  25.1518  25.2255  25.2258  25.6031  25.6035  26.1126
    26.1139  26.1139  26.1143  26.1487  26.1487  26.1490  26.1494  26.1503
    26.1503  26.2938  26.2952  26.5885  26.7878  26.7889  26.7896  26.7900
    27.1446  27.1462  27.7764  27.8030  27.8034  27.8042  27.8046  27.8767
    27.8770  28.1143  28.1146  28.1160  28.1164  28.4536  28.4549  28.4564
    28.4567  28.8196  29.0670  29.0677  29.4886  29.4894  29.5150  29.7558
    29.7565  30.2525  30.2529  30.2534  30.2538  30.7197  30.7202  30.7206
    30.7207  31.0552  31.0562  31.2213  31.2218  31.3072  31.3091  31.7511
    31.8734  31.8759  31.8763  31.8763  31.9097  31.9102  33.0780  33.0787
    33.0918  33.0918  33.0919  33.0933  33.1344  33.1356  33.5651  33.5670
    34.1002  34.1013  34.4643  34.4645  34.9764  34.9778  34.9782  34.9786
    35.0547  35.0548  35.4636  35.4636  35.4646  35.4650  35.5197  35.8472
    35.8486  35.8549  35.8563  35.9734  35.9739  36.6528  36.6543  37.2165
    37.2172  37.2179  37.2181  37.2945  37.2948  37.2958  37.2962  37.3397
    37.3408  37.3415  37.3417  37.4718  37.4731  37.4734  37.4739  37.6646
    37.6648  38.1913  38.4763  38.4774  38.5807  38.5816  38.6867  38.6883
    38.6884  38.6888  38.8766  38.8772  39.0219  39.0786  39.0789  39.2138
    39.2138  39.2143  39.2143  39.3588  39.4217  39.4218  39.6981  39.7019
    39.7156  39.8006  39.8194  39.8200  39.8271  39.8569  39.8574  39.8577
    39.8581  39.8582  39.8589  39.8592  39.8624  39.8638  39.8642  39.8642
    39.8649  39.8660  39.8660  39.8665  39.9060  39.9091  39.9102  40.0609
    41.3660  41.3665  41.7858  41.7859  41.9471  41.9476  42.1506  42.1517
    42.1520  42.1523  42.1539  42.1688  42.1692  42.1696  42.1698  42.4754
    42.4902  42.4917  42.6306  42.6315  42.6321  42.6326  42.7147  42.7154
[...]
    47.5684  47.8030  47.8044  48.0573  48.0579  48.2310  48.2311  48.2315
    48.2323  48.3040  48.3051  48.3051  48.3052  48.3599  48.3607  48.6940
    48.6956  48.6961  48.6962  48.6996  48.6998  48.8248  48.8270  48.8273
    48.8275  48.9371  48.9383  48.9403  48.9404  49.1639  49.1640  49.2682
    49.2686  49.5514  49.5541  49.5547  49.5547  49.6099  49.6106  49.6118
    49.6125  49.8322  49.8340  50.3538  50.3548  50.5668  50.5678  50.5841
    50.5843  50.6599  50.6606  50.6610  50.6611  50.8070  50.8072  50.9889
    50.9891  51.3067  51.3073  51.3370  51.3446  51.3468  51.3469  51.3470
    51.5292  51.5301  51.5305  51.5310  51.5551  51.5556  51.8602  51.9180
    51.9186  51.9747  52.0760  52.0763  52.3303  52.3311  52.3316  52.3320
    52.4449  52.4459  52.4816  52.4829  52.7757  52.7763  52.7769  52.7771
    52.8477  53.2993  53.5374  53.5378  53.5587  53.5592  53.6853  53.8323
    53.8430  53.8450  53.9759  53.9759  53.9761  53.9764  54.4500  54.4501
    54.8804  54.8805  54.8806  54.8808  54.9238  54.9247  54.9255  54.9257
    55.1506  55.1515  55.3499  55.3501  55.4795  55.4805  55.5046  55.5751

[...]

          k =-0.5000-0.5000 0.0000 ( 14848 PWs)   bands (ev):

[...]

 ------ SPIN DOWN ----------

[...]

          k = 0.2500-0.5000-0.7315 ( 14844 PWs)   bands (ev):

[...]

          k =-0.2500 0.2500 0.7315 ( 14880 PWs)   bands (ev):

   -36.2069 -36.1726 -36.1540 -36.1537 -36.1537 -36.1535 -36.1533 -36.1533
   -36.1532 -36.1529 -36.1529 -36.1529 -36.1529 -36.1524 -36.1520 -36.1518
   -36.1496 -36.1208 -36.1203 -36.1186 -36.1185 -36.1178 -36.1176 -36.1172
   -36.1169 -36.1165 -36.1152 -36.1149 -36.1147 -36.1143 -36.1138 -36.1136
   -36.0100 -35.9574 -35.9574 -35.9572 -35.9572 -35.9571 -35.9570 -35.9569
   -35.9568 -35.9566 -35.9566 -35.9566 -35.9565 -35.9565 -35.9564 -35.9563
    -7.7059  -7.7055  -7.4336  -7.4332  -7.4329  -7.4326  -7.3428  -7.3425
    -7.1910  -7.1900  -7.0451  -7.0450  -7.0446  -7.0445  -6.9530  -6.9511
    -6.8035  -6.8035  -6.8032  -6.8007  -6.7337  -6.7320  -6.6789  -6.6787
    -6.6787  -6.6765  -6.6691  -6.6665  -6.6622  -6.6617  -6.5825  -6.5820
     3.9773   3.9798   4.0394   4.0409   4.3175   4.3175   4.3178   4.3196
     4.3370   4.3374   4.3572   4.3577   4.7044   4.7068   4.7317   4.7318
     4.7319   4.7350   4.8343   4.8350   4.9223   4.9230   4.9231   4.9251
     4.9284   4.9300   5.1617   5.1629   5.1629   5.1650   5.1790   5.1802
     5.5777   5.5781   5.5783   5.5824   5.7668   5.7696   5.9298   5.9301
     6.0441   6.0441   6.0446   6.0448   6.1057   6.1058   6.5812   6.5816
     6.6196   6.6197   6.6197   6.6229   6.7363   6.7366   6.9263   6.9268
     7.0151   7.0151   7.0152   7.0161   7.5253   7.5259   7.5259   7.5260
     7.5264   7.5306   7.5510   7.5535   7.5813   7.5813   7.5923   7.5934
     7.6761   7.6767   7.6773   7.6782   7.8805   7.8821   8.0817   8.0821
     8.1380   8.1389   8.2485   8.2493   8.4137   8.4139   8.4141   8.4157
     8.7446   8.7453   9.0089   9.0094   9.0101   9.0107   9.2371   9.2385
     9.7636   9.7637   9.9332   9.9334   9.9747   9.9750   9.9802   9.9802
     9.9803   9.9813  10.3701  10.3710  10.3981  10.4002  10.4098  10.4104
    10.4105  10.4140  10.4978  10.5005  10.5636  10.5636  10.5644  10.5649
    10.6231  10.6233  10.8420  10.8423  10.8424  10.8431  10.9563  10.9566
    11.2736  11.2741  11.3390  11.3397  11.3742  11.3743  11.3744  11.3746
    11.4488  11.4491  11.5903  11.5904  11.5904  11.5906  11.8752  11.8753
    13.0355  13.0356  13.1130  13.1131  13.1131  13.1132  13.4789  13.4790
    13.4795  13.4796  13.5187  13.5188  13.7853  13.7854  14.0294  14.0299
    14.2094  14.2096  14.2341  14.2343  14.5415  14.5417  14.5424  14.5425
    14.7638  14.7638  15.2323  15.2339  15.2341  15.2342  15.2368  15.2370
    19.6082  19.6093  20.5888  20.5901  20.5903  20.5907  21.3043  21.3052
    22.0118  22.0133  22.0134  22.0138  22.2108  22.2120  23.1071  23.1090
    23.1367  23.1373  23.1943  23.1965  23.7993  23.8005  23.8009  23.8009
    23.8661  23.8670  24.5799  24.5841  24.5843  24.5844  24.6234  24.6247
    24.9520  24.9533  25.3039  25.3040  25.3053  25.3056  25.3498  25.3503
    25.5377  25.5389  25.8239  25.8245  25.8251  25.8253  26.1979  26.1981
    26.8183  26.8194  26.8198  26.8201  26.9577  26.9578  26.9861  26.9880
    27.1864  27.1869  27.3438  27.3443  27.3455  27.3460  27.6030  27.6044
    27.6852  27.6859  27.8722  27.8726  27.8733  27.8735  28.0822  28.0828
    28.1653  28.1663  28.7238  28.7246  28.7253  28.7255  28.7903  28.7924
    28.9801  28.9811  29.8342  29.8367  29.8367  29.8374  30.7051  30.7054
    31.0272  31.0299  31.0299  31.0300  31.7847  31.7854  31.8284  31.8309
    31.8939  31.8943  31.8944  31.8953  32.4265  32.4285  32.9663  32.9664
    33.2241  33.2247  33.7102  33.7106  33.7107  33.7119  34.3072  34.3073
    34.5438  34.5439  34.7622  34.7633  35.0438  35.0451  35.0529  35.0531
    35.0533  35.0533  35.1507  35.1519  35.4097  35.4097  35.4396  35.4414
    35.4416  35.4419  36.2405  36.2414  36.3043  36.3046  36.3052  36.3054
    36.5419  36.5420  36.5423  36.5426  36.7362  36.7367  37.7342  37.7345
    37.7346  37.7350  37.7510  37.7510  38.1451  38.1462  38.2309  38.2312
    38.2340  38.2341  38.3506  38.3507  38.3516  38.3516  38.5531  38.5532
    38.6608  38.6613  38.7533  38.7545  38.7550  38.7557  38.8221  38.8223
    38.8878  38.8884  39.2466  39.2470  39.2830  39.2831  39.2833  39.2834
    39.7851  39.8509  39.8512  39.8513  39.8516  39.8519  39.8529  39.8530
    39.8551  39.8551  39.8558  39.8558  39.8576  39.8579  39.8583  39.8584
    40.0164  40.0172  40.0524  40.0531  40.0538  40.0542  40.9768  40.9769
    41.3573  41.3574  41.4656  41.4661  41.4665  41.4670  41.5110  41.5125
    41.5487  41.5487  42.0464  42.0473  42.0672  42.0680  42.5311  42.5316
    42.5324  42.5325  43.0398  43.0411  43.0414  43.0416  43.5435  43.5440
[...]
    47.3554  47.3569  47.3893  47.3902  47.5894  47.5897  47.5904  47.5906
    47.7342  47.7346  47.7346  47.7349  47.9582  47.9590  48.4934  48.4937
    48.6969  48.6974  48.8421  48.8428  48.8438  48.8443  48.8761  48.8781
    48.9909  48.9923  49.0154  49.0159  49.0159  49.0162  49.2391  49.2397
    49.2761  49.2763  49.5363  49.5372  49.5751  49.5755  49.5758  49.5761
    49.7961  49.7964  49.8148  49.8150  50.0021  50.0024  50.2163  50.2168
    50.2169  50.2171  50.4134  50.4139  50.4142  50.4146  50.8893  50.8897
    50.8902  50.8925  50.8925  50.8929  50.9679  50.9702  51.4639  51.4646
    51.4648  51.4651  51.5124  51.5127  51.5577  51.5595  52.0106  52.0110
    52.1114  52.1124  52.3689  52.3694  52.7264  52.7268  52.7271  52.7282
    52.8517  52.8523  53.1035  53.1040  53.2705  53.2714  53.2787  53.2792
    53.2794  53.2794  53.6877  53.6886  54.1190  54.1204  54.1208  54.1212
    54.2598  54.2605  54.3513  54.3521  54.4374  54.4381  54.4389  54.4391
    54.4532  54.4534  54.4937  54.4939  54.9117  54.9117  54.9124  54.9128
    55.0373  55.0377  55.1789  55.1792  55.5131  55.5152  55.5153  55.5156

     the Fermi energy is    11.6260 ev

!    total energy              =   -3758.52747444 Ry
     Harris-Foulkes estimate   =   -3758.52747511 Ry
     estimated scf accuracy    <       0.00000070 Ry

     The total energy is the sum of the following terms:

     one-electron contribution =   -1108.33409986 Ry
     hartree contribution      =     841.90589127 Ry
     xc contribution           =    -696.48100161 Ry
     ewald contribution        =   -2795.66030549 Ry
     Hubbard energy            =       0.04091005 Ry
     smearing contrib. (-TS)   =       0.00113121 Ry

     total magnetization       =     0.00 Bohr mag/cell
     absolute magnetization    =     0.00 Bohr mag/cell

     convergence has been achieved in  10 iterations

     Writing output data file pwscf.save

     General routines

     Parallel routines
     Hubbard U routines

   This run was terminated on:  18: 1: 3  12Feb2014

   JOB DONE.