     Program PWSCF v.5.0.2 (svn rev. 9656) starts on  1Jun2014 at  7: 8:46

     Current dimensions of program PWSCF are:
     Max number of different atomic species (ntypx) = 10
     Max number of k-points (npk) =  40000
     Max angular momentum in pseudopotentials (lmaxx) =  3
     Reading input from pwscf.in
Warning: card &CELL ignored
Warning: card / ignored

     Subspace diagonalization in iterative solution of the eigenvalue problem:
     a serial algorithm will be used

     bravais-lattice index     =            0
     lattice parameter (alat)  =      11.1872  a.u.
     unit-cell volume          =    7531.8600 (a.u.)^3
     number of atoms/cell      =           33
     number of atomic types    =            3
     number of electrons       =       229.00
     number of Kohn-Sham states=          343
     kinetic-energy cutoff     =      40.0000  Ry
     charge density cutoff     =     500.0000  Ry
     convergence threshold     =      1.0E-06
     mixing beta               =       0.7000
     number of iterations used =            8  plain     mixing
     Exchange-correlation      = SLA  PW   PBE  PBE ( 1 4 3 4 0)
     EXX-fraction              =        0.00
     nstep                     =           50

     celldm(1)=  11.187179  celldm(2)=   0.000000  celldm(3)=   0.000000
     celldm(4)=   0.000000  celldm(5)=   0.000000  celldm(6)=   0.000000

     crystal axes: (cart. coord. in units of alat)
               a(1) = (   1.000000   0.000000   0.000000 )
               a(2) = (   0.000000   1.180104   0.000000 )
               a(3) = (   0.000000   0.000000   4.558482 )

     reciprocal axes: (cart. coord. in units 2 pi/alat)
               b(1) = (  1.000000  0.000000  0.000000 )
               b(2) = (  0.000000  0.847383  0.000000 )
               b(3) = (  0.000000  0.000000  0.219371 )

     PseudoPot. # 1 for O  read from file:
     /home/camp/zhonxu/pseudo/o_pbe_v1.01.uspp.F.UPF
     MD5 check sum: 2bcb18d16ea4b960afae9ec6d52f22d2
     Pseudo is Ultrasoft + core correction, Zval =  6.0
     Generated by new atomic code, or converted to UPF format
     Using radial grid of  737 points,  5 beta functions with:
                l(1) =   0
                l(2) =   0
                l(3) =   1
                l(4) =   1
                l(5) =   2
     Q(r) pseudized with  8 coefficients,  rinner =    0.900   0.900   0.900
                                                       0.900   0.900

     PseudoPot. # 2 for Nb read from file:
     /home/camp/zhonxu/pseudo/nb_pbe_v1.uspp.F.UPF
     MD5 check sum: 573aab8a2fa660278ed4a62cd769473f
     Pseudo is Ultrasoft + core correction, Zval = 13.0
     Generated by new atomic code, or converted to UPF format
     Using radial grid of  887 points,  6 beta functions with:
                l(1) =   0
                l(2) =   0
                l(3) =   1
                l(4) =   1
                l(5) =   2
                l(6) =   2
     Q(r) pseudized with  6 coefficients,  rinner =    1.000   1.000   1.000
                                                       1.000   1.000

     PseudoPot. # 3 for H  read from file:
     /home/camp/zhonxu/pseudo/h_pbe_v1.uspp.F.UPF
     MD5 check sum: 3408e3ff4ec8b0a4e358431e7e038a48
     Pseudo is Ultrasoft, Zval =  1.0
     Generated by new atomic code, or converted to UPF format
     Using radial grid of  615 points,  2 beta functions with:
                l(1) =   0
                l(2) =   0
     Q(r) pseudized with  8 coefficients,  rinner =    0.700

     atomic species   valence    mass     pseudopotential
        O0             6.00    15.99940     O ( 1.00)
        Nb1           13.00    92.90640     Nb( 1.00)
        H2             1.00     1.00794     H ( 1.00)

     Simplified LDA+U calculation (l_max = 2) with parameters (eV):
     atomic species    L          U    alpha       J0     beta
        Nb1            2     3.5000   0.0000   0.0000   0.0000

     No symmetry found

   Cartesian axes

     site n.     atom                  positions (alat units)
         1           O0  tau(   1) = (   0.0000000   0.0000000   1.6962113  )
         2           O0  tau(   2) = (   0.0000000   0.5900519   1.7723835  )
         3           Nb1 tau(   3) = (   0.2500000   0.5900519   2.0257895  )
         4           Nb1 tau(   4) = (   0.0000000   0.0000000   2.0274306  )
         5           O0  tau(   5) = (   0.2500000   0.9322821   2.0383253  )
         6           O0  tau(   6) = (   0.2500000   0.2478218   2.0381886  )
         7           O0  tau(   7) = (   0.0000000   0.5900519   2.2790132  )
         8           O0  tau(   8) = (   0.0000000   0.0000000   2.3853170  )
         9           Nb1 tau(   9) = (   0.2500000   0.0000000   2.6318397  )
        10           Nb1 tau(  10) = (   0.0000000   0.5900519   2.5956910  )
        11           O0  tau(  11) = (   0.2500000   0.8378738   2.6232242  )
        12           O0  tau(  12) = (   0.2500000   0.3422301   2.6255034  )
        13           O0  tau(  13) = (   0.0000000   0.0000000   2.8344187  )
        14           O0  tau(  14) = (   0.5000000   0.0000000   1.6974420  )
        15           O0  tau(  15) = (   0.5000000   0.5900519   1.7789021  )
        16           Nb1 tau(  16) = (   0.7500000   0.5900519   2.0259719  )
        17           Nb1 tau(  17) = (   0.5000000   0.0000000   2.0298010  )
        18           O0  tau(  18) = (   0.7500000   0.9322821   2.0382798  )
        19           O0  tau(  19) = (   0.7500000   0.2478218   2.0381886  )
        20           O0  tau(  20) = (   0.5000000   0.5900519   2.2737254  )
        21           O0  tau(  21) = (   0.5000000   0.0000000   2.3845421  )
        22           Nb1 tau(  22) = (   0.7500000   0.0000000   2.6318397  )
        23           Nb1 tau(  23) = (   0.5000000   0.5900519   2.6269166  )
        24           O0  tau(  24) = (   0.7500000   0.8378738   2.6231786  )
        25           O0  tau(  25) = (   0.7500000   0.3422301   2.6254579  )
        26           O0  tau(  26) = (   0.5000000   0.0000000   2.8332335  )
        27           H2  tau(  27) = (  -0.0005200   0.5958463   1.6070929  )
        28           H2  tau(  28) = (   0.4994400   0.5914445   1.6138395  )
        29           H2  tau(  29) = (   0.1507700   0.0008261   1.6243240  )
        30           H2  tau(  30) = (   0.6503900   0.0006019   1.6249166  )
        31           O0  tau(  31) = (   0.5000000   0.6010623   2.9587285  )
        32           O0  tau(  32) = (   0.5000000   0.4103103   3.1155403  )
        33           H2  tau(  33) = (   0.5000000   0.4955964   3.2584031  )

     number of k points=    10  Methfessel-Paxton smearing, width (Ry)=  0.0100
                       cart. coord. in units 2pi/alat
        k(    1) = (   0.0000000   0.0000000   0.0000000), wk =   0.1250000
        k(    2) = (   0.0000000   0.2118458   0.0000000), wk =   0.2500000
        k(    3) = (   0.0000000  -0.4236915   0.0000000), wk =   0.1250000
        k(    4) = (   0.2500000   0.0000000   0.0000000), wk =   0.2500000
        k(    5) = (   0.2500000   0.2118458   0.0000000), wk =   0.2500000
        k(    6) = (   0.2500000  -0.4236915   0.0000000), wk =   0.2500000
        k(    7) = (  -0.5000000   0.0000000   0.0000000), wk =   0.1250000
        k(    8) = (  -0.5000000   0.2118458   0.0000000), wk =   0.2500000
        k(    9) = (  -0.5000000  -0.4236915   0.0000000), wk =   0.1250000
        k(   10) = (  -0.2500000   0.2118458   0.0000000), wk =   0.2500000

     Largest allocated arrays     est. size (Mb)     dimensions
     Largest temporary arrays     est. size (Mb)     dimensions

     Check: negative/imaginary core charge=   -0.000003    0.000000

     Initial potential from superposition of free atoms
     Check: negative starting charge=   -0.003307

     starting charge  228.97806, renormalised to  229.00000

     negative rho (up, down):  0.331E-02 0.000E+00
     Number of +U iterations with fixed ns =  0
     Starting occupations:
 --- enter write_ns ---
 LDA+U parameters:
U( 2)     =  3.50000000
alpha( 2) =  0.00000000
atom    3   Tr[ns(na)] =   3.00000
    eigenvalues:
  0.300  0.300  0.300  0.300  0.300
    eigenvectors:
  1.000  0.000  0.000  0.000  0.000
  0.000  1.000  0.000  0.000  0.000
  0.000  0.000  1.000  0.000  0.000
  0.000  0.000  0.000  1.000  0.000
  0.000  0.000  0.000  0.000  1.000
    occupations:
  0.300  0.000  0.000  0.000  0.000
  0.000  0.300  0.000  0.000  0.000
  0.000  0.000  0.300  0.000  0.000
  0.000  0.000  0.000  0.300  0.000
  0.000  0.000  0.000  0.000  0.300
atom    4   Tr[ns(na)] =   3.00000
    eigenvalues:
  0.300  0.300  0.300  0.300  0.300
    eigenvectors:
  1.000  0.000  0.000  0.000  0.000
  0.000  1.000  0.000  0.000  0.000
  0.000  0.000  1.000  0.000  0.000
  0.000  0.000  0.000  1.000  0.000
  0.000  0.000  0.000  0.000  1.000
    occupations:
  0.300  0.000  0.000  0.000  0.000
  0.000  0.300  0.000  0.000  0.000
  0.000  0.000  0.300  0.000  0.000
  0.000  0.000  0.000  0.300  0.000
  0.000  0.000  0.000  0.000  0.300
atom    9   Tr[ns(na)] =   3.00000
    eigenvalues:
  0.300  0.300  0.300  0.300  0.300
    eigenvectors:
  1.000  0.000  0.000  0.000  0.000
  0.000  1.000  0.000  0.000  0.000
  0.000  0.000  1.000  0.000  0.000
  0.000  0.000  0.000  1.000  0.000
  0.000  0.000  0.000  0.000  1.000
    occupations:
  0.300  0.000  0.000  0.000  0.000
  0.000  0.300  0.000  0.000  0.000
  0.000  0.000  0.300  0.000  0.000
  0.000  0.000  0.000  0.300  0.000
  0.000  0.000  0.000  0.000  0.300
atom   10   Tr[ns(na)] =   3.00000
    eigenvalues:
  0.300  0.300  0.300  0.300  0.300
    eigenvectors:
  1.000  0.000  0.000  0.000  0.000
  0.000  1.000  0.000  0.000  0.000
  0.000  0.000  1.000  0.000  0.000
  0.000  0.000  0.000  1.000  0.000
  0.000  0.000  0.000  0.000  1.000
    occupations:
  0.300  0.000  0.000  0.000  0.000
  0.000  0.300  0.000  0.000  0.000
  0.000  0.000  0.300  0.000  0.000
  0.000  0.000  0.000  0.300  0.000
  0.000  0.000  0.000  0.000  0.300
atom   16   Tr[ns(na)] =   3.00000
    eigenvalues:
  0.300  0.300  0.300  0.300  0.300
    eigenvectors:
  1.000  0.000  0.000  0.000  0.000
  0.000  1.000  0.000  0.000  0.000
  0.000  0.000  1.000  0.000  0.000
  0.000  0.000  0.000  1.000  0.000
  0.000  0.000  0.000  0.000  1.000
    occupations:
  0.300  0.000  0.000  0.000  0.000
  0.000  0.300  0.000  0.000  0.000
  0.000  0.000  0.300  0.000  0.000
  0.000  0.000  0.000  0.300  0.000
  0.000  0.000  0.000  0.000  0.300
atom   17   Tr[ns(na)] =   3.00000
    eigenvalues:
  0.300  0.300  0.300  0.300  0.300
    eigenvectors:
  1.000  0.000  0.000  0.000  0.000
  0.000  1.000  0.000  0.000  0.000
  0.000  0.000  1.000  0.000  0.000
  0.000  0.000  0.000  1.000  0.000
  0.000  0.000  0.000  0.000  1.000
    occupations:
  0.300  0.000  0.000  0.000  0.000
  0.000  0.300  0.000  0.000  0.000
  0.000  0.000  0.300  0.000  0.000
  0.000  0.000  0.000  0.300  0.000
  0.000  0.000  0.000  0.000  0.300
atom   22   Tr[ns(na)] =   3.00000
    eigenvalues:
  0.300  0.300  0.300  0.300  0.300
    eigenvectors:
  1.000  0.000  0.000  0.000  0.000
  0.000  1.000  0.000  0.000  0.000
  0.000  0.000  1.000  0.000  0.000
[...]
    occupations:
  0.472 -0.000 -0.000  0.051  0.000
 -0.000  0.616  0.000 -0.001  0.000
 -0.000  0.000  0.494 -0.000  0.009
  0.051 -0.001 -0.000  0.594 -0.000
  0.000  0.000  0.009 -0.000  0.467
atom   10   Tr[ns(na)] =   5.10436
    eigenvalues:
  0.359  0.472  0.508  0.544  0.669
    eigenvectors:
  0.000  0.000  0.996  0.000  0.004
  0.000  1.000  0.000  0.000  0.000
  1.000  0.000  0.000  0.000  0.000
  0.000  0.000  0.004  0.000  0.996
  0.000  0.000  0.000  1.000  0.000
    occupations:
  0.509  0.000  0.001  0.010  0.000
  0.000  0.472 -0.000 -0.000  0.001
  0.001 -0.000  0.359 -0.000  0.000
  0.010 -0.000 -0.000  0.668 -0.000
  0.000  0.001  0.000 -0.000  0.544
atom   16   Tr[ns(na)] =   5.18489
    eigenvalues:
  0.359  0.397  0.512  0.577  0.749
    eigenvectors:
  0.000  0.000  0.002  0.392  0.606
  0.000  0.000  0.998  0.002  0.000
  0.000  0.999  0.000  0.000  0.000
  0.000  0.000  0.001  0.606  0.394
  0.999  0.000  0.000  0.000  0.000
    occupations:
  0.681  0.005  0.003 -0.084  0.005
  0.005  0.512  0.001 -0.000  0.000
  0.003  0.001  0.397 -0.002  0.001
 -0.084 -0.000 -0.002  0.645 -0.003
  0.005  0.000  0.001 -0.003  0.359
atom   17   Tr[ns(na)] =   5.23137
    eigenvalues:
  0.400  0.424  0.551  0.586  0.654
    eigenvectors:
  0.000  0.004  0.000  0.996  0.000
  0.000  0.995  0.000  0.004  0.001
  1.000  0.000  0.000  0.000  0.000
  0.000  0.001  0.000  0.000  0.999
  0.000  0.000  1.000  0.000  0.000
    occupations:
  0.586  0.010  0.000  0.001 -0.000
  0.010  0.425 -0.000 -0.007  0.000
  0.000 -0.000  0.400 -0.000  0.001
  0.001 -0.007 -0.000  0.654  0.000
 -0.000  0.000  0.001  0.000  0.551
atom   22   Tr[ns(na)] =   5.28460
    eigenvalues:
  0.453  0.464  0.497  0.612  0.616
    eigenvectors:
  0.882  0.001  0.000  0.116  0.002
  0.000  0.000  0.000  0.019  0.981
  0.000  0.092  0.908  0.000  0.000
  0.118  0.000  0.000  0.865  0.017
  0.001  0.908  0.092  0.000  0.000
    occupations:
  0.472  0.000 -0.000  0.051 -0.000
  0.000  0.616 -0.000  0.001  0.000
 -0.000 -0.000  0.494 -0.000 -0.009
  0.051  0.001 -0.000  0.594  0.000
 -0.000  0.000 -0.009  0.000  0.467
atom   23   Tr[ns(na)] =   5.25222
    eigenvalues:
  0.370  0.498  0.553  0.594  0.611
    eigenvectors:
  0.004  0.000  0.000  0.847  0.149
  0.000  0.995  0.005  0.000  0.000
  0.996  0.000  0.000  0.003  0.001
  0.000  0.000  0.000  0.150  0.850
  0.000  0.005  0.995  0.000  0.000
    occupations:
  0.596  0.000  0.014  0.006 -0.000
  0.000  0.498  0.000 -0.000 -0.004
  0.014  0.000  0.371  0.003  0.000
  0.006 -0.000  0.003  0.609 -0.000
 -0.000 -0.004  0.000 -0.000  0.552
N of occupied +U levels =  41.7588786
 --- exit write_ns ---

     Threshold (ethr) on eigenvalues was too large:
     Diagonalizing with lowered threshold

     Davidson diagonalization with overlap
     ethr =  1.67E-09,  avg # of iterations =  3.0

[...]

     total energy              =   -1593.23063172 Ry
     Harris-Foulkes estimate   =   -1593.23063173 Ry
     estimated scf accuracy    <       0.00000003 Ry

     iteration #  9     ecut=    40.00 Ry     beta=0.70
     Davidson diagonalization with overlap
     ethr =  1.51E-11,  avg # of iterations =  1.1

     negative rho (up, down):  0.337E-02 0.000E+00

     End of self-consistent calculation
 --- enter write_ns ---
 LDA+U parameters:
U( 2)     =  3.50000000
alpha( 2) =  0.00000000
atom    3   Tr[ns(na)] =   5.18470
    eigenvalues:
  0.357  0.398  0.512  0.577  0.749
    eigenvectors:
  0.000  0.000  0.001  0.392  0.606
  0.000  0.000  0.998  0.002  0.000
  0.037  0.963  0.000  0.000  0.000
  0.000  0.000  0.000  0.606  0.393
  0.963  0.037  0.000  0.000  0.000
    occupations:
  0.681 -0.004  0.003 -0.084 -0.005
 -0.004  0.512 -0.001  0.000  0.000
  0.003 -0.001  0.396 -0.002 -0.008
 -0.084  0.000 -0.002  0.645  0.003
 -0.005  0.000 -0.008  0.003  0.359
atom    4   Tr[ns(na)] =   5.23157
    eigenvalues:
  0.398  0.426  0.553  0.586  0.652
    eigenvectors:
  0.000  0.004  0.000  0.995  0.000
  0.000  0.995  0.000  0.004  0.001
  1.000  0.000  0.000  0.000  0.000
  0.000  0.001  0.000  0.000  0.999
  0.000  0.000  1.000  0.000  0.000
    occupations:
  0.586  0.010  0.000  0.002 -0.000
  0.010  0.427 -0.000 -0.007  0.000
  0.000 -0.000  0.398 -0.000  0.001
  0.002 -0.007 -0.000  0.652  0.000
 -0.000  0.000  0.001  0.000  0.553
atom    9   Tr[ns(na)] =   5.28475
    eigenvalues:
  0.453  0.464  0.497  0.612  0.616
    eigenvectors:
  0.882  0.000  0.000  0.115  0.003
  0.000  0.000  0.000  0.026  0.974
  0.000  0.090  0.910  0.000  0.000
  0.118  0.000  0.000  0.859  0.023
  0.000  0.910  0.090  0.000  0.000
    occupations:
  0.472 -0.000 -0.000  0.051  0.000
 -0.000  0.616  0.000 -0.001  0.000
 -0.000  0.000  0.494 -0.000  0.009
  0.051 -0.001 -0.000  0.594 -0.000
  0.000  0.000  0.009 -0.000  0.467
atom   10   Tr[ns(na)] =   5.10484
    eigenvalues:
  0.359  0.472  0.508  0.544  0.669
    eigenvectors:
  0.000  0.000  0.996  0.000  0.004
  0.000  1.000  0.000  0.000  0.000
  1.000  0.000  0.000  0.000  0.000
  0.000  0.000  0.004  0.000  0.996
  0.000  0.000  0.000  1.000  0.000
    occupations:
  0.509  0.000  0.001  0.010  0.000
  0.000  0.472 -0.000 -0.000  0.001
  0.001 -0.000  0.359 -0.000  0.000
  0.010 -0.000 -0.000  0.668 -0.000
  0.000  0.001  0.000 -0.000  0.544
atom   16   Tr[ns(na)] =   5.18493
    eigenvalues:
  0.359  0.397  0.512  0.577  0.749
    eigenvectors:
  0.000  0.000  0.002  0.392  0.606
  0.000  0.000  0.998  0.002  0.000
  0.000  0.999  0.000  0.000  0.000
  0.000  0.000  0.001  0.606  0.394
  0.999  0.000  0.000  0.000  0.000
    occupations:
  0.681  0.005  0.003 -0.084  0.005
  0.005  0.512  0.001 -0.000  0.000
  0.003  0.001  0.397 -0.002  0.001
 -0.084 -0.000 -0.002  0.645 -0.003
  0.005  0.000  0.001 -0.003  0.359
atom   17   Tr[ns(na)] =   5.23128
    eigenvalues:
  0.400  0.424  0.551  0.586  0.654
    eigenvectors:
  0.000  0.004  0.000  0.996  0.000
  0.000  0.995  0.000  0.004  0.001
  1.000  0.000  0.000  0.000  0.000
  0.000  0.001  0.000  0.000  0.999
  0.000  0.000  1.000  0.000  0.000
    occupations:
  0.586  0.010  0.000  0.001 -0.000
  0.010  0.425 -0.000 -0.007  0.000
  0.000 -0.000  0.400 -0.000  0.001
  0.001 -0.007 -0.000  0.654  0.000
 -0.000  0.000  0.001  0.000  0.551
atom   22   Tr[ns(na)] =   5.28469
    eigenvalues:
  0.453  0.464  0.497  0.612  0.616
    eigenvectors:
  0.882  0.001  0.000  0.116  0.002
  0.000  0.000  0.000  0.019  0.981
  0.000  0.091  0.909  0.000  0.000
  0.118  0.000  0.000  0.865  0.017
  0.001  0.908  0.091  0.000  0.000
    occupations:
  0.472  0.000 -0.000  0.051 -0.000
  0.000  0.616 -0.000  0.001  0.000
 -0.000 -0.000  0.494 -0.000 -0.009
  0.051  0.001 -0.000  0.594  0.000
 -0.000  0.000 -0.009  0.000  0.467
atom   23   Tr[ns(na)] =   5.25198
    eigenvalues:
  0.370  0.498  0.553  0.594  0.611
    eigenvectors:
  0.004  0.000  0.000  0.846  0.150
  0.000  0.995  0.005  0.000  0.000
  0.996  0.000  0.000  0.003  0.001
  0.000  0.000  0.000  0.151  0.849
  0.000  0.005  0.995  0.000  0.000
    occupations:
  0.596  0.000  0.014  0.006 -0.000
  0.000  0.498  0.000 -0.000 -0.004
  0.014  0.000  0.371  0.003  0.000
  0.006 -0.000  0.003  0.609 -0.000
 -0.000 -0.004  0.000 -0.000  0.552
N of occupied +U levels =  41.7587446
 --- exit write_ns ---

[...]

          k = 0.2500-0.4237 0.0000 ( 32188 PWs)   bands (ev):

[...]

          k =-0.2500 0.2118 0.0000 ( 32165 PWs)   bands (ev):

   -56.0621 -55.9958 -55.6892 -55.6271 -55.6107 -55.5503 -55.5422 -55.4940
   -32.8756 -32.2727 -32.2164 -32.1592 -32.1280 -32.1184 -32.1096 -32.0590
   -32.0307 -32.0165 -31.9651 -31.9349 -31.9305 -31.8959 -31.8490 -31.6778
   -31.6355 -31.5413 -31.4942 -31.4922 -31.4755 -31.3640 -31.3519 -31.2770
   -22.4618 -20.1080 -19.9460 -19.1873 -18.9451 -18.7794 -18.7134 -18.6662
   -18.6316 -18.6087 -18.5959 -18.5693 -17.9575 -17.8993 -17.8610 -17.8267
   -17.7943 -17.7404 -17.5761 -16.0984  -8.6377  -8.2796  -7.8079  -7.3788
    -6.9165  -6.7659  -6.6317  -6.4566  -6.3250  -6.2981  -6.1468  -6.0798
    -6.0122  -5.9954  -5.7953  -5.6994  -5.6910  -5.5641  -5.4270  -5.3957
    -5.3696  -5.2101  -5.0131  -4.9312  -4.7936  -4.6619  -4.4449  -4.3977
    -4.3455  -4.2166  -4.1029  -4.0766  -4.0140  -3.9771  -3.8496  -3.8085
    -3.7573  -3.7286  -3.6912  -3.6072  -3.4949  -3.4023  -3.3411  -3.3010
    -3.2247  -3.0859  -3.0217  -2.9330  -2.8803  -2.8250  -2.7468  -2.6033
    -2.5457  -2.5095  -2.3806  -2.3448  -2.0370  -1.8787  -0.8165  -0.3856
     0.4203   0.4980   1.1993   1.3110   1.6386   1.8275   1.9636   2.0248
     2.1896   2.3288   2.4175   2.4532   2.4846   2.5822   2.6213   2.8042
     2.8281   2.9225   2.9762   3.0495   3.0870   3.1857   3.2172   3.4761
     3.7670   4.1673   4.3599   4.4544   4.7190   4.8240   5.0246   5.2023
     5.2418   5.2774   5.4484   5.5214   5.6182   5.7003   5.8412   5.8634
     5.9603   6.0384   6.1063   6.1954   6.4246   6.5341   6.5776   6.7216
     6.7921   6.8377   6.9030   7.0728   7.1632   7.3432   7.4139   7.4688
     7.6349   7.8001   7.8857   8.0103   8.0859   8.1424   8.3183   8.3460
     8.5220   8.6043   8.7221   8.7964   8.9539   8.9801   9.0601   9.2430
     9.3238   9.4074   9.4625   9.5579   9.6693   9.7876   9.8757   9.9442
    10.0545  10.1313  10.2131  10.3201  10.4066  10.4420  10.6066  10.7779
    10.8433  10.9870  11.0277  11.1103  11.1633  11.2081  11.3182  11.3915
    11.4728  11.5880  11.6145  11.6548  11.6850  11.8551  11.8969  12.0077
    12.1231  12.1794  12.2277  12.3151  12.4520  12.5423  12.6088  12.7129
    12.7466  12.7836  12.8728  12.9076  12.9429  13.0017  13.0580  13.1718
    13.2218  13.3110  13.3566  13.4227  13.5017  13.5906  13.6268  13.7066
    13.7669  13.8635  13.9158  14.0038  14.0468  14.0921  14.1340  14.2402
    14.3041  14.3932  14.4304  14.4713  14.6506  14.7398  14.8332  14.8794
    14.9550  15.1059  15.1603  15.2386  15.2987  15.3122  15.4059  15.4481
    15.4881  15.5573  15.5869  15.6991  15.7597  15.8037  15.8635  15.8924
    15.9844  16.0423  16.1245  16.1933  16.2852  16.3570  16.3821  16.4422
    16.5555  16.6763  16.6997  16.7527  16.7772  16.8765  16.9188  17.0275
    17.0631  17.1124  17.1812  17.2376  17.3105  17.3726  17.4618  17.4816
    17.5630  17.6223  17.6916  17.8269  17.8720  17.9220  17.9697  18.0630
    18.1194  18.2202  18.3010  18.3473  18.4077  18.5400  18.5771  18.6248
    18.6577  18.7321  18.8095  18.8741  18.9614  19.0026  19.0763  19.0884
    19.1946  19.2732  19.3060  19.3610  19.4366  19.4612  19.5205  19.6134
    19.6837  19.7478  19.7746  19.8156  19.8799  19.9166  19.9777  20.0298
    20.0672  20.1413  20.1700  20.2360  20.2896  20.3537  20.4136

     the Fermi energy is     1.1953 ev

!    total energy              =   -1593.23063172 Ry
     Harris-Foulkes estimate   =   -1593.23063173 Ry
     estimated scf accuracy    <          4.3E-09 Ry

     The total energy is the sum of the following terms:

     one-electron contribution =  -19358.25930279 Ry
     hartree contribution      =    9712.28806399 Ry
     xc contribution           =    -294.66935929 Ry
     ewald contribution        =    8344.95291543 Ry
     Hubbard energy            =       2.45717236 Ry
     smearing contrib. (-TS)   =      -0.00012142 Ry

     convergence has been achieved in   9 iterations

     Forces acting on atoms (Ry/au):

     negative rho (up, down):  0.337E-02 0.000E+00
     atom    1 type  1   force =     0.00160386   -0.00026989    0.00038984
     atom    2 type  1   force =    -0.00046792    0.00022680    0.00028933
     atom    3 type  2   force =     0.02200174    0.00020633   -0.00021086
     atom    4 type  2   force =    -0.00423342    0.00011917    0.00042060
     atom    5 type  1   force =    -0.00279025   -0.01443927    0.00009047
     atom    6 type  1   force =    -0.00229769    0.01424613    0.00009176
     atom    7 type  1   force =    -0.00016898    0.00070717    0.00016936
     atom    8 type  1   force =     0.00168424    0.00048643   -0.00020221
     atom    9 type  2   force =     0.00061230    0.00075616   -0.00006866
     atom   10 type  2   force =     0.00018458   -0.00041491   -0.00005353
     atom   11 type  1   force =    -0.01263907   -0.01023444   -0.00024320
     atom   12 type  1   force =    -0.01182656    0.01165668   -0.00033652
     atom   13 type  1   force =     0.00037204   -0.00093805   -0.00019320
     atom   14 type  1   force =     0.00111203    0.00000538    0.00043446
     atom   15 type  1   force =    -0.00046906    0.00002979   -0.00041720
     atom   16 type  2   force =    -0.02049311    0.00017897   -0.00021958
     atom   17 type  2   force =    -0.00435251    0.00015597    0.00041016
     atom   18 type  1   force =     0.00384237   -0.01431545    0.00009466
     atom   19 type  1   force =     0.00313826    0.01416162    0.00010337
     atom   20 type  1   force =    -0.00003765   -0.00672467   -0.00005536
     atom   21 type  1   force =     0.00174018    0.00016640   -0.00011472
     atom   22 type  2   force =    -0.00110365    0.00074048   -0.00007908
     atom   23 type  2   force =     0.00006210    0.00657609   -0.00012867
     atom   24 type  1   force =     0.01261102   -0.01026839   -0.00024454
     atom   25 type  1   force =     0.01179284    0.01169833   -0.00032899
     atom   26 type  1   force =     0.00039270   -0.00386824   -0.00009286
     atom   27 type  3   force =     0.00000330    0.00009968    0.00016105
     atom   28 type  3   force =     0.00000123   -0.00037921    0.00010434
     atom   29 type  3   force =    -0.00012104    0.00001026    0.00019327
     atom   30 type  3   force =    -0.00014187   -0.00002154    0.00021360
     atom   31 type  1   force =    -0.00001499   -0.00024369    0.00017730
     atom   32 type  1   force =     0.00000628   -0.00044576    0.00004379
     atom   33 type  3   force =    -0.00000330    0.00033569   -0.00039818

     Total force =     0.001564     Total SCF correction =     0.000282
     SCF correction compared to forces is large: reduce conv_thr to get better values

     entering subroutine stress ...

     negative rho (up, down):  0.337E-02 0.000E+00
          total   stress  (Ry/bohr**3)                   (kbar)     P=   -3.62
  -0.00002298  -0.00000006   0.00000149         -3.38     -0.01      0.22
  -0.00000006  -0.00001555   0.00000148         -0.01     -2.29      0.22
   0.00000149   0.00000148  -0.00003519          0.22      0.22     -5.18

     bfgs converged in  15 scf cycles and  14 bfgs steps
     (criteria: energy < 0.10E-03, force < 0.10E-02)

     End of BFGS Geometry Optimization

     Final energy   =   -1593.2306317240 Ry
Begin final coordinates

ATOMIC_POSITIONS (crystal)
O0       0.000000000   0.000000000   0.372371331    0   0   1
O0       0.000000000   0.500000000   0.388035711    0   0   1
Nb1      0.250000000   0.500000000   0.443404507    0   0   1
Nb1      0.000000000   0.000000000   0.445053327    0   0   1
O0       0.250000000   0.790000000   0.446821926    0   0   1
O0       0.250000000   0.210000000   0.446764244    0   0   1
O0       0.000000000   0.500000000   0.500046043    0   0   1
O0       0.000000000   0.000000000   0.523569710    0   0   1
Nb1      0.250000000   0.000000000   0.577643519    0   0   1
Nb1      0.000000000   0.500000000   0.569150951    0   0   1
O0       0.250000000   0.710000000   0.576538001    0   0   1
O0       0.250000000   0.290000000   0.576723064    0   0   1
O0       0.000000000   0.000000000   0.621954571    0   0   1
O0       0.500000000   0.000000000   0.372512093    0   0   1
O0       0.500000000   0.500000000   0.388552752    0   0   1
Nb1      0.750000000   0.500000000   0.443409450    0   0   1
Nb1      0.500000000   0.000000000   0.445301181    0   0   1
O0       0.750000000   0.790000000   0.446803724    0   0   1
O0       0.750000000   0.210000000   0.446764943    0   0   1
O0       0.500000000   0.500000000   0.500611346    0   0   1
O0       0.500000000   0.000000000   0.523528191    0   0   1
Nb1      0.750000000   0.000000000   0.577638295    0   0   1
Nb1      0.500000000   0.500000000   0.575600793    0   0   1
O0       0.750000000   0.710000000   0.576546865    0   0   1
O0       0.750000000   0.290000000   0.576737564    0   0   1
O0       0.500000000   0.000000000   0.621687479    0   0   1
H2      -0.000496635   0.505243749   0.351807457
H2       0.499510632   0.499743647   0.352285129
H2       0.150754964   0.000847566   0.356645407
H2       0.650446638   0.000555852   0.356672321
O0       0.499952738   0.504850172   0.649094382
O0       0.500007970   0.347094180   0.683888161
H2       0.499996299   0.420250414   0.715095560
End final coordinates

     General routines

     Parallel routines
     Hubbard U routines

   This run was terminated on:  21:50:17   1Jun2014

   JOB DONE.