     Program PWSCF v.5.0.2 (svn rev. 9656) starts on 24Jan2014 at 15:47:26

     Current dimensions of program PWSCF are:
     Max number of different atomic species (ntypx) = 10
     Max number of k-points (npk) =  40000
     Max angular momentum in pseudopotentials (lmaxx) =  3
     Reading input from RhO2-v-1.00.in

     Subspace diagonalization in iterative solution of the eigenvalue problem:
     a serial algorithm will be used

     bravais-lattice index     =            0
     lattice parameter (alat)  =       8.7695  a.u.
     unit-cell volume          =     434.6265 (a.u.)^3
     number of atoms/cell      =            6
     number of atomic types    =            2
     number of electrons       =        54.00
     number of Kohn-Sham states=           81
     kinetic-energy cutoff     =      40.0000  Ry
     charge density cutoff     =     500.0000  Ry
     convergence threshold     =      1.0E-06
     mixing beta               =       0.3000
     number of iterations used =            8  plain     mixing
     Exchange-correlation      = SLA  PW   PBE  PBE ( 1 4 3 4 0)
     EXX-fraction              =        0.00
     nstep                     =           50

     celldm(1)=   8.769542  celldm(2)=   0.000000  celldm(3)=   0.000000
     celldm(4)=   0.000000  celldm(5)=   0.000000  celldm(6)=   0.000000

     crystal axes: (cart. coord. in units of alat)
               a(1) = (   1.000000   0.000000   0.000000 )
               a(2) = (   0.000000   1.000000   0.000000 )
               a(3) = (   0.000000   0.000000   0.644444 )

     reciprocal axes: (cart. coord. in units 2 pi/alat)
               b(1) = (  1.000000  0.000000  0.000000 )
               b(2) = (  0.000000  1.000000  0.000000 )
               b(3) = (  0.000000  0.000000  1.551724 )

     PseudoPot. # 1 for Rh read from file:
     /home/camp/zhonxu/pseudo/rh_pbe_v1.uspp.F.UPF
     MD5 check sum: 37b626987ad0dd8ec6bf4cc9ef289918
     Pseudo is Ultrasoft + core correction, Zval = 15.0
     Generated by new atomic code, or converted to UPF format
     Using radial grid of  969 points,  7 beta functions with:
                l(1) =   0
                l(2) =   0
                l(3) =   1
                l(4) =   1
                l(5) =   2
                l(6) =   2
                l(7) =   2
     Q(r) pseudized with  6 coefficients,  rinner =    1.050   1.050   1.050
                                                       1.050   1.050

     PseudoPot. # 2 for O  read from file:
     /home/camp/zhonxu/pseudo/o_pbe_v1.01.uspp.F.UPF
     MD5 check sum: 2bcb18d16ea4b960afae9ec6d52f22d2
     Pseudo is Ultrasoft + core correction, Zval =  6.0
     Generated by new atomic code, or converted to UPF format
     Using radial grid of  737 points,  5 beta functions with:
                l(1) =   0
                l(2) =   0
                l(3) =   1
                l(4) =   1
                l(5) =   2
     Q(r) pseudized with  8 coefficients,  rinner =    0.900   0.900   0.900
                                                       0.900   0.900

     atomic species   valence    mass     pseudopotential
        Rh0           15.00   102.90550     Rh( 1.00)
        O1             6.00    15.99940     O ( 1.00)

     Starting magnetic structure
     atomic species   magnetization
        Rh0          0.600
        O1           0.000

      8 Sym. Ops., with inversion, found
          (note:  8 additional sym.ops. were found but ignored
           their fractional translations are incommensurate with FFT grid)

   Cartesian axes

     site n.     atom                  positions (alat units)
         1           Rh0 tau(   1) = (   0.0000000   0.0000000   0.0000000  )
         2           Rh0 tau(   2) = (   0.5000000   0.5000000   0.3222222  )
         3           O1  tau(   3) = (   0.3050000   0.3050000   0.0000000  )
         4           O1  tau(   4) = (  -0.3050000  -0.3050000   0.0000000  )
         5           O1  tau(   5) = (   0.8050000   0.1950000   0.3222222  )
         6           O1  tau(   6) = (   0.1950000   0.8050000   0.3222222  )

     number of k points=    54  Methfessel-Paxton smearing, width (Ry)=  0.0100
                       cart. coord. in units 2pi/alat
        k(    1) = (   0.0000000   0.0000000   0.0000000), wk =   0.0080000
        k(    2) = (   0.0000000   0.0000000   0.3103448), wk =   0.0160000
        k(    3) = (   0.0000000   0.0000000   0.6206897), wk =   0.0160000
        k(    4) = (   0.0000000   0.2000000   0.0000000), wk =   0.0320000
        k(    5) = (   0.0000000   0.2000000   0.3103448), wk =   0.0640000
        k(    6) = (   0.0000000   0.2000000   0.6206897), wk =   0.0640000
        k(    7) = (   0.0000000   0.4000000   0.0000000), wk =   0.0320000
        k(    8) = (   0.0000000   0.4000000   0.3103448), wk =   0.0640000
        k(    9) = (   0.0000000   0.4000000   0.6206897), wk =   0.0640000
        k(   10) = (   0.2000000   0.2000000   0.0000000), wk =   0.0160000
        k(   11) = (   0.2000000   0.2000000   0.3103448), wk =   0.0320000
        k(   12) = (   0.2000000   0.2000000   0.6206897), wk =   0.0320000
        k(   13) = (   0.2000000   0.4000000   0.0000000), wk =   0.0320000
        k(   14) = (   0.2000000   0.4000000   0.3103448), wk =   0.0640000
        k(   15) = (   0.2000000   0.4000000   0.6206897), wk =   0.0640000
        k(   16) = (   0.4000000   0.4000000   0.0000000), wk =   0.0160000
        k(   17) = (   0.4000000   0.4000000   0.3103448), wk =   0.0320000
        k(   18) = (   0.4000000   0.4000000   0.6206897), wk =   0.0320000
        k(   19) = (  -0.2000000   0.2000000   0.0000000), wk =   0.0160000
        k(   20) = (  -0.2000000   0.2000000  -0.3103448), wk =   0.0320000
        k(   21) = (  -0.2000000   0.2000000  -0.6206897), wk =   0.0320000
        k(   22) = (  -0.2000000   0.4000000   0.0000000), wk =   0.0320000
        k(   23) = (  -0.2000000   0.4000000  -0.3103448), wk =   0.0640000
        k(   24) = (  -0.2000000   0.4000000  -0.6206897), wk =   0.0640000
        k(   25) = (  -0.4000000   0.4000000   0.0000000), wk =   0.0160000
        k(   26) = (  -0.4000000   0.4000000  -0.3103448), wk =   0.0320000
        k(   27) = (  -0.4000000   0.4000000  -0.6206897), wk =   0.0320000
        k(   28) = (   0.0000000   0.0000000   0.0000000), wk =   0.0080000
        k(   29) = (   0.0000000   0.0000000   0.3103448), wk =   0.0160000
        k(   30) = (   0.0000000   0.0000000   0.6206897), wk =   0.0160000
        k(   31) = (   0.0000000   0.2000000   0.0000000), wk =   0.0320000
        k(   32) = (   0.0000000   0.2000000   0.3103448), wk =   0.0640000
        k(   33) = (   0.0000000   0.2000000   0.6206897), wk =   0.0640000
        k(   34) = (   0.0000000   0.4000000   0.0000000), wk =   0.0320000
        k(   35) = (   0.0000000   0.4000000   0.3103448), wk =   0.0640000
        k(   36) = (   0.0000000   0.4000000   0.6206897), wk =   0.0640000
        k(   37) = (   0.2000000   0.2000000   0.0000000), wk =   0.0160000
        k(   38) = (   0.2000000   0.2000000   0.3103448), wk =   0.0320000
        k(   39) = (   0.2000000   0.2000000   0.6206897), wk =   0.0320000
        k(   40) = (   0.2000000   0.4000000   0.0000000), wk =   0.0320000
        k(   41) = (   0.2000000   0.4000000   0.3103448), wk =   0.0640000
        k(   42) = (   0.2000000   0.4000000   0.6206897), wk =   0.0640000
        k(   43) = (   0.4000000   0.4000000   0.0000000), wk =   0.0160000
        k(   44) = (   0.4000000   0.4000000   0.3103448), wk =   0.0320000
        k(   45) = (   0.4000000   0.4000000   0.6206897), wk =   0.0320000
        k(   46) = (  -0.2000000   0.2000000   0.0000000), wk =   0.0160000
        k(   47) = (  -0.2000000   0.2000000  -0.3103448), wk =   0.0320000
        k(   48) = (  -0.2000000   0.2000000  -0.6206897), wk =   0.0320000
        k(   49) = (  -0.2000000   0.4000000   0.0000000), wk =   0.0320000
        k(   50) = (  -0.2000000   0.4000000  -0.3103448), wk =   0.0640000
        k(   51) = (  -0.2000000   0.4000000  -0.6206897), wk =   0.0640000
        k(   52) = (  -0.4000000   0.4000000   0.0000000), wk =   0.0160000
        k(   53) = (  -0.4000000   0.4000000  -0.3103448), wk =   0.0320000
        k(   54) = (  -0.4000000   0.4000000  -0.6206897), wk =   0.0320000

     Largest allocated arrays     est. size (Mb)     dimensions
     Largest temporary arrays     est. size (Mb)     dimensions

     Check: negative/imaginary core charge=   -0.000004    0.000000

     Initial potential from superposition of free atoms
     Check: negative starting charge=(component1):   -0.129561
     Check: negative starting charge=(component2):   -0.032065

     starting charge   52.99980, renormalised to   54.00000

     negative rho (up, down):  0.132E+00 0.327E-01
     Starting wfc are   40 randomized atomic wfcs

     Self-consistent Calculation

     iteration #  1     ecut=    40.00 Ry     beta=0.30
     Davidson diagonalization with overlap
     ethr =  1.00E-02,  avg # of iterations =  7.1

     negative rho (up, down):  0.117E+00 0.506E-01

     total energy              =    -467.86742373 Ry
     Harris-Foulkes estimate   =    -469.57760384 Ry
     estimated scf accuracy    <       4.90882161 Ry

     total magnetization       =     8.91 Bohr mag/cell
     absolute magnetization    =     8.92 Bohr mag/cell

[...]

     End of self-consistent calculation

 ------ SPIN UP ------------

          k = 0.0000 0.0000 0.0000 (  1875 PWs)   bands (ev):

   -36.1982 -36.1981 -36.0687 -36.0686 -36.0127 -36.0027  -8.2646  -7.1821
    -6.4522  -6.4515   3.3022   3.4033   4.7252   4.8359   4.8361   7.4228
     7.4229   7.9095   8.9217   9.0203   9.1885   9.4034   9.4037   9.5736
     9.5740   9.5779  10.4400  11.6537  12.4037  15.0930  15.0932  16.1329
    17.5975  21.6482  21.6482  24.9552  25.4550  25.8776  27.3182  28.8004
    28.8006  29.7822  30.3620  32.7537  33.8869  33.8869  35.3389  35.3390
    35.9342  37.0761  37.4499  37.4500  38.3412  39.8184  39.8674  40.3073
    40.3866  40.6506  42.3300  42.6310  42.7156  42.7157  43.4030  43.4030
    45.4018  45.4019  46.1131  46.5226  49.3252  50.9858  51.1236  51.1236
    51.1768  51.1768  51.4879  52.4389  52.4390  52.4405  52.7746  52.9471
    53.4865

[...]

          k =-0.2000 0.2000 0.0000 (  1863 PWs)   bands (ev):

[...]

 ------ SPIN DOWN ----------

[...]

     the Fermi energy is    11.5985 ev

!    total energy              =    -469.81183310 Ry
     Harris-Foulkes estimate   =    -469.81183186 Ry
     estimated scf accuracy    <       0.00000081 Ry

     The total energy is the sum of the following terms:

     one-electron contribution =    -141.63312716 Ry
     hartree contribution      =     106.75258590 Ry
     xc contribution           =     -87.10018735 Ry
     ewald contribution        =    -347.83073188 Ry
     smearing contrib. (-TS)   =      -0.00037260 Ry

[...]

     convergence has been achieved in  15 iterations

     Forces acting on atoms (Ry/au):

     negative rho (up, down):  0.870E-01 0.871E-01
     atom    1 type  1   force =     0.00000000    0.00000000    0.00000000
[...]
        k(   12) = (   0.2040958   0.2040958   0.5960266), wk =   0.0320000
        k(   13) = (   0.2040956   0.4081918   0.0000000), wk =   0.0320000
        k(   14) = (   0.2040956   0.4081918   0.2980133), wk =   0.0640000
        k(   15) = (   0.2040956   0.4081918   0.5960266), wk =   0.0640000
        k(   16) = (   0.4081916   0.4081916   0.0000000), wk =   0.0160000
        k(   17) = (   0.4081916   0.4081916   0.2980133), wk =   0.0320000
        k(   18) = (   0.4081916   0.4081916   0.5960266), wk =   0.0320000
        k(   19) = (  -0.2040962   0.2040962   0.0000000), wk =   0.0160000
        k(   20) = (  -0.2040962   0.2040962  -0.2980133), wk =   0.0320000
        k(   21) = (  -0.2040962   0.2040962  -0.5960266), wk =   0.0320000
        k(   22) = (  -0.2040963   0.4081921   0.0000000), wk =   0.0320000
        k(   23) = (  -0.2040963   0.4081921  -0.2980133), wk =   0.0640000
        k(   24) = (  -0.2040963   0.4081921  -0.5960266), wk =   0.0640000
        k(   25) = (  -0.4081923   0.4081923   0.0000000), wk =   0.0160000
        k(   26) = (  -0.4081923   0.4081923  -0.2980133), wk =   0.0320000
        k(   27) = (  -0.4081923   0.4081923  -0.5960266), wk =   0.0320000
        k(   28) = (   0.0000000   0.0000000   0.0000000), wk =   0.0080000
        k(   29) = (   0.0000000   0.0000000   0.2980133), wk =   0.0160000
        k(   30) = (   0.0000000   0.0000000   0.5960266), wk =   0.0160000
        k(   31) = (  -0.0000002   0.2040960   0.0000000), wk =   0.0320000
        k(   32) = (  -0.0000002   0.2040960   0.2980133), wk =   0.0640000
        k(   33) = (  -0.0000002   0.2040960   0.5960266), wk =   0.0640000
        k(   34) = (  -0.0000004   0.4081919   0.0000000), wk =   0.0320000
        k(   35) = (  -0.0000004   0.4081919   0.2980133), wk =   0.0640000
        k(   36) = (  -0.0000004   0.4081919   0.5960266), wk =   0.0640000
        k(   37) = (   0.2040958   0.2040958   0.0000000), wk =   0.0160000
        k(   38) = (   0.2040958   0.2040958   0.2980133), wk =   0.0320000
        k(   39) = (   0.2040958   0.2040958   0.5960266), wk =   0.0320000
        k(   40) = (   0.2040956   0.4081918   0.0000000), wk =   0.0320000
        k(   41) = (   0.2040956   0.4081918   0.2980133), wk =   0.0640000
        k(   42) = (   0.2040956   0.4081918   0.5960266), wk =   0.0640000
        k(   43) = (   0.4081916   0.4081916   0.0000000), wk =   0.0160000
        k(   44) = (   0.4081916   0.4081916   0.2980133), wk =   0.0320000
        k(   45) = (   0.4081916   0.4081916   0.5960266), wk =   0.0320000
        k(   46) = (  -0.2040962   0.2040962   0.0000000), wk =   0.0160000
        k(   47) = (  -0.2040962   0.2040962  -0.2980133), wk =   0.0320000
        k(   48) = (  -0.2040962   0.2040962  -0.5960266), wk =   0.0320000
        k(   49) = (  -0.2040963   0.4081921   0.0000000), wk =   0.0320000
        k(   50) = (  -0.2040963   0.4081921  -0.2980133), wk =   0.0640000
        k(   51) = (  -0.2040963   0.4081921  -0.5960266), wk =   0.0640000
        k(   52) = (  -0.4081923   0.4081923   0.0000000), wk =   0.0160000
        k(   53) = (  -0.4081923   0.4081923  -0.2980133), wk =   0.0320000
        k(   54) = (  -0.4081923   0.4081923  -0.5960266), wk =   0.0320000

     Check: negative/imaginary core charge=   -0.000004    0.000000
     Check: negative starting charge=(component1):   -0.162333

[...]

     Threshold (ethr) on eigenvalues was too large:
     Diagonalizing with lowered threshold

     Davidson diagonalization with overlap
     ethr =  6.99E-11,  avg # of iterations =  2.2

[...]

     Volume is kept fixed: isostatic pressure set to zero

     bfgs converged in   7 scf cycles and   6 bfgs steps
     (criteria: energy < 0.10E-03, force < 0.10E-02, cell < 0.50E+00)

     End of BFGS Geometry Optimization

     Final enthalpy =    -469.8226318182 Ry
Begin final coordinates
     new unit-cell volume =    434.62649 a.u.^3 (    64.40500 Ang^3 )

CELL_PARAMETERS (alat=  8.76954180)
   0.979931150   0.000000888   0.000000000
   0.000000888   0.979931150   0.000000000
   0.000000000   0.000000000   0.671111001

ATOMIC_POSITIONS (crystal)
Rh0      0.000000000   0.000000000   0.000000000    0   0   0
Rh0      0.500000000   0.500000000   0.500000000    0   0   0
O1       0.307021202   0.307021202   0.000000000    1   1   0
O1      -0.307021202  -0.307021202   0.000000000    1   1   0
O1       0.807021405   0.192978595   0.500000000    1   1   0
O1       0.192978595   0.807021405   0.500000000    1   1   0
End final coordinates

     A final scf calculation at the relaxed structure.
     The G-vectors are recalculated for the final unit cell
     Results may differ from those at the preceding step.

     bravais-lattice index     =            0
     lattice parameter (alat)  =       8.7695  a.u.
     unit-cell volume          =     434.6265 (a.u.)^3
     number of atoms/cell      =            6
     number of atomic types    =            2
     number of electrons       =        54.00
     number of Kohn-Sham states=           81
     kinetic-energy cutoff     =      40.0000  Ry
     charge density cutoff     =     500.0000  Ry
     convergence threshold     =      1.0E-08
     mixing beta               =       0.3000
     number of iterations used =            8  plain     mixing
     Exchange-correlation      = SLA  PW   PBE  PBE ( 1 4 3 4 0)
     EXX-fraction              =        0.00

     celldm(1)=   8.769542  celldm(2)=   0.000000  celldm(3)=   0.000000
     celldm(4)=   0.000000  celldm(5)=   0.000000  celldm(6)=   0.000000

     crystal axes: (cart. coord. in units of alat)
               a(1) = (   0.979931   0.000001   0.000000 )
               a(2) = (   0.000001   0.979931   0.000000 )
               a(3) = (   0.000000   0.000000   0.671111 )

     reciprocal axes: (cart. coord. in units 2 pi/alat)
               b(1) = (  1.020480 -0.000001  0.000000 )
               b(2) = ( -0.000001  1.020480  0.000000 )
               b(3) = (  0.000000  0.000000  1.490066 )

     PseudoPot. # 1 for Rh read from file:
     /home/camp/zhonxu/pseudo/rh_pbe_v1.uspp.F.UPF
     MD5 check sum: 37b626987ad0dd8ec6bf4cc9ef289918
     Pseudo is Ultrasoft + core correction, Zval = 15.0
     Generated by new atomic code, or converted to UPF format
     Using radial grid of  969 points,  7 beta functions with:
                l(1) =   0
                l(2) =   0
                l(3) =   1
                l(4) =   1
                l(5) =   2
                l(6) =   2
                l(7) =   2
     Q(r) pseudized with  6 coefficients,  rinner =    1.050   1.050   1.050
                                                       1.050   1.050

     PseudoPot. # 2 for O  read from file:
     /home/camp/zhonxu/pseudo/o_pbe_v1.01.uspp.F.UPF
     MD5 check sum: 2bcb18d16ea4b960afae9ec6d52f22d2
     Pseudo is Ultrasoft + core correction, Zval =  6.0
     Generated by new atomic code, or converted to UPF format
     Using radial grid of  737 points,  5 beta functions with:
                l(1) =   0
                l(2) =   0
                l(3) =   1
                l(4) =   1
                l(5) =   2
     Q(r) pseudized with  8 coefficients,  rinner =    0.900   0.900   0.900
                                                       0.900   0.900

     atomic species   valence    mass     pseudopotential
        Rh0           15.00   102.90550     Rh( 1.00)
        O1             6.00    15.99940     O ( 1.00)

     Starting magnetic structure
     atomic species   magnetization
        Rh0          0.600
        O1           0.000

      8 Sym. Ops., with inversion, found
          (note:  8 additional sym.ops. were found but ignored
           their fractional translations are incommensurate with FFT grid)

   Cartesian axes

     site n.     atom                  positions (alat units)
         1           Rh0 tau(   1) = (   0.0000000   0.0000000   0.0000000  )
         2           Rh0 tau(   2) = (   0.4899660   0.4899660   0.3355555  )
         3           O1  tau(   3) = (   0.3008599   0.3008599   0.0000000  )
         4           O1  tau(   4) = (  -0.3008599  -0.3008599   0.0000000  )
         5           O1  tau(   5) = (   0.7908256   0.1891065   0.3355555  )
         6           O1  tau(   6) = (   0.1891065   0.7908256   0.3355555  )

     number of k points=    54  Methfessel-Paxton smearing, width (Ry)=  0.0100
                       cart. coord. in units 2pi/alat
        k(    1) = (   0.0000000   0.0000000   0.0000000), wk =   0.0080000
        k(    2) = (   0.0000000   0.0000000   0.2980133), wk =   0.0160000
        k(    3) = (   0.0000000   0.0000000   0.5960266), wk =   0.0160000
        k(    4) = (  -0.0000002   0.2040960   0.0000000), wk =   0.0320000
        k(    5) = (  -0.0000002   0.2040960   0.2980133), wk =   0.0640000
        k(    6) = (  -0.0000002   0.2040960   0.5960266), wk =   0.0640000
        k(    7) = (  -0.0000004   0.4081919   0.0000000), wk =   0.0320000
        k(    8) = (  -0.0000004   0.4081919   0.2980133), wk =   0.0640000
        k(    9) = (  -0.0000004   0.4081919   0.5960266), wk =   0.0640000
        k(   10) = (   0.2040958   0.2040958   0.0000000), wk =   0.0160000
        k(   11) = (   0.2040958   0.2040958   0.2980133), wk =   0.0320000
        k(   12) = (   0.2040958   0.2040958   0.5960266), wk =   0.0320000
        k(   13) = (   0.2040956   0.4081918   0.0000000), wk =   0.0320000
        k(   14) = (   0.2040956   0.4081918   0.2980133), wk =   0.0640000
        k(   15) = (   0.2040956   0.4081918   0.5960266), wk =   0.0640000
        k(   16) = (   0.4081916   0.4081916   0.0000000), wk =   0.0160000
        k(   17) = (   0.4081916   0.4081916   0.2980133), wk =   0.0320000
        k(   18) = (   0.4081916   0.4081916   0.5960266), wk =   0.0320000
        k(   19) = (  -0.2040962   0.2040962   0.0000000), wk =   0.0160000
        k(   20) = (  -0.2040962   0.2040962  -0.2980133), wk =   0.0320000
        k(   21) = (  -0.2040962   0.2040962  -0.5960266), wk =   0.0320000
        k(   22) = (  -0.2040963   0.4081921   0.0000000), wk =   0.0320000
        k(   23) = (  -0.2040963   0.4081921  -0.2980133), wk =   0.0640000
        k(   24) = (  -0.2040963   0.4081921  -0.5960266), wk =   0.0640000
        k(   25) = (  -0.4081923   0.4081923   0.0000000), wk =   0.0160000
        k(   26) = (  -0.4081923   0.4081923  -0.2980133), wk =   0.0320000
        k(   27) = (  -0.4081923   0.4081923  -0.5960266), wk =   0.0320000
        k(   28) = (   0.0000000   0.0000000   0.0000000), wk =   0.0080000
        k(   29) = (   0.0000000   0.0000000   0.2980133), wk =   0.0160000
        k(   30) = (   0.0000000   0.0000000   0.5960266), wk =   0.0160000
        k(   31) = (  -0.0000002   0.2040960   0.0000000), wk =   0.0320000
        k(   32) = (  -0.0000002   0.2040960   0.2980133), wk =   0.0640000
        k(   33) = (  -0.0000002   0.2040960   0.5960266), wk =   0.0640000
        k(   34) = (  -0.0000004   0.4081919   0.0000000), wk =   0.0320000
        k(   35) = (  -0.0000004   0.4081919   0.2980133), wk =   0.0640000
        k(   36) = (  -0.0000004   0.4081919   0.5960266), wk =   0.0640000
        k(   37) = (   0.2040958   0.2040958   0.0000000), wk =   0.0160000
        k(   38) = (   0.2040958   0.2040958   0.2980133), wk =   0.0320000
        k(   39) = (   0.2040958   0.2040958   0.5960266), wk =   0.0320000
        k(   40) = (   0.2040956   0.4081918   0.0000000), wk =   0.0320000
        k(   41) = (   0.2040956   0.4081918   0.2980133), wk =   0.0640000
        k(   42) = (   0.2040956   0.4081918   0.5960266), wk =   0.0640000
        k(   43) = (   0.4081916   0.4081916   0.0000000), wk =   0.0160000
        k(   44) = (   0.4081916   0.4081916   0.2980133), wk =   0.0320000
        k(   45) = (   0.4081916   0.4081916   0.5960266), wk =   0.0320000
        k(   46) = (  -0.2040962   0.2040962   0.0000000), wk =   0.0160000
        k(   47) = (  -0.2040962   0.2040962  -0.2980133), wk =   0.0320000
        k(   48) = (  -0.2040962   0.2040962  -0.5960266), wk =   0.0320000
        k(   49) = (  -0.2040963   0.4081921   0.0000000), wk =   0.0320000
        k(   50) = (  -0.2040963   0.4081921  -0.2980133), wk =   0.0640000
        k(   51) = (  -0.2040963   0.4081921  -0.5960266), wk =   0.0640000
        k(   52) = (  -0.4081923   0.4081923   0.0000000), wk =   0.0160000
        k(   53) = (  -0.4081923   0.4081923  -0.2980133), wk =   0.0320000
        k(   54) = (  -0.4081923   0.4081923  -0.5960266), wk =   0.0320000

     Largest allocated arrays     est. size (Mb)     dimensions
     Largest temporary arrays     est. size (Mb)     dimensions

     Check: negative/imaginary core charge=   -0.000004    0.000000

     Initial potential from superposition of free atoms
     Check: negative starting charge=(component1):   -0.130106
     Check: negative starting charge=(component2):   -0.032226

     starting charge   52.99980, renormalised to   54.00000

     negative rho (up, down):  0.133E+00 0.328E-01
     Starting wfc are   40 randomized atomic wfcs

     Self-consistent Calculation

[...]

     total energy              =    -469.82301220 Ry
     Harris-Foulkes estimate   =    -469.82301288 Ry
     estimated scf accuracy    <       0.00000010 Ry

[...]

     iteration # 17     ecut=    40.00 Ry     beta=0.30
     Davidson diagonalization with overlap
     ethr =  1.84E-10,  avg # of iterations =  2.0

     negative rho (up, down):  0.871E-01 0.873E-01

     End of self-consistent calculation

 ------ SPIN UP ------------

[...]

 ------ SPIN DOWN ----------

[...]

          k = 0.4082 0.4082 0.5960 (  1857 PWs)   bands (ev):

[...]

          k =-0.4082 0.4082-0.5960 (  1857 PWs)   bands (ev):

   -36.1591 -36.1563 -36.1379 -36.1349 -35.9433 -35.9432  -7.0214  -6.9597
    -6.8166  -6.7726   4.5795   4.6716   4.8840   4.9190   5.5818   5.8966
     6.8327   6.9716   7.8137   8.0069   8.9091   9.2448   9.9444  10.0146
    10.2113  10.8679  11.0827  11.5812  12.9932  13.6326  14.2003  14.7942
    21.9778  22.3774  23.4555  23.9160  24.6949  24.8615  25.8329  26.2481
    28.9969  29.0895  30.6045  31.0900  32.9480  34.1804  34.5597  34.6551
    35.0795  36.0156  39.1915  39.2297  39.3545  39.8124  39.8363  39.9902
    41.4776  41.9946  42.5767  43.5283  44.2840  44.7244  45.3600  45.7191
    46.0570  46.4196  47.6329  48.2553  48.9020  49.2051  49.4189  50.2919
    50.3079  51.2340  51.7007  51.9691  52.4770  52.9230  53.6905  54.4026
    55.9127

     the Fermi energy is    11.5931 ev

!    total energy              =    -469.82301335 Ry
     Harris-Foulkes estimate   =    -469.82301320 Ry
     estimated scf accuracy    <          9.5E-09 Ry

     The total energy is the sum of the following terms:

     one-electron contribution =    -137.77150265 Ry
     hartree contribution      =     104.84183553 Ry
     xc contribution           =     -87.04713881 Ry
     ewald contribution        =    -349.84573793 Ry
     smearing contrib. (-TS)   =      -0.00046949 Ry

     total magnetization       =     0.16 Bohr mag/cell
     absolute magnetization    =     0.17 Bohr mag/cell

     convergence has been achieved in  17 iterations

     Forces acting on atoms (Ry/au):

     negative rho (up, down):  0.871E-01 0.873E-01
     atom    1 type  1   force =     0.00000000    0.00000000    0.00000000
     atom    2 type  1   force =     0.00000000    0.00000000    0.00000000
     atom    3 type  2   force =     0.00000753    0.00000753    0.00000000
     atom    4 type  2   force =    -0.00000753   -0.00000753    0.00000000
     atom    5 type  2   force =     0.00001852   -0.00001852   -0.00000000
     atom    6 type  2   force =    -0.00001852    0.00001852   -0.00000000

     Total force =     0.000040     Total SCF correction =     0.000094
     SCF correction compared to forces is large: reduce conv_thr to get better values

     entering subroutine stress ...

     negative rho (up, down):  0.871E-01 0.873E-01
          total   stress  (Ry/bohr**3)                   (kbar)     P=  -45.19
  -0.00032109  -0.00000003   0.00000000        -47.23     -0.00      0.00
  -0.00000003  -0.00032109   0.00000000         -0.00    -47.23      0.00
   0.00000000   0.00000000  -0.00027938          0.00      0.00    -41.10

     General routines

     Parallel routines

   This run was terminated on:  16:39:40  24Jan2014

   JOB DONE.
Running PBS batch system epilogue script
Job id: 251920.audhumbla.fysik.dtu.dk
Username: zhonxu
Groupname: campgst
Jobname: RhO2/fine-EOS/ferro/RhO2-v-1.00
Sessionid: 23120
Queuename: verylong
Accounting:
This job has allocated the following 4 nodes:
q121 q121 q121 q121
Finished epilogue job 251920.audhumbla.fysik.dtu.dk for zhonxu