     Program PWSCF v.5.0.2 (svn rev. 9656) starts on 28May2014 at  3:42:39

     Current dimensions of program PWSCF are:
     Max number of different atomic species (ntypx) = 10
     Max number of k-points (npk) =  40000
     Max angular momentum in pseudopotentials (lmaxx) =  3
     Reading input from pwscf.in
Warning: card &CELL ignored
Warning: card / ignored

     Subspace diagonalization in iterative solution of the eigenvalue problem:
     a serial algorithm will be used

     bravais-lattice index     =            0
     lattice parameter (alat)  =      10.3179  a.u.
     unit-cell volume          =    6964.3238 (a.u.)^3
     number of atoms/cell      =           33
     number of atomic types    =            3
     number of electrons       =       237.00
     number of Kohn-Sham states=          355
     kinetic-energy cutoff     =      40.0000  Ry
     charge density cutoff     =     500.0000  Ry
     convergence threshold     =      1.0E-06
     mixing beta               =       0.7000
     number of iterations used =            8  plain     mixing
     Exchange-correlation      = SLA  PW   PBE  PBE ( 1 4 3 4 0)
     EXX-fraction              =        0.00
     nstep                     =           50

     celldm(1)=  10.317905  celldm(2)=   0.000000  celldm(3)=   0.000000
     celldm(4)=   0.000000  celldm(5)=   0.000000  celldm(6)=   0.000000

     crystal axes: (cart. coord. in units of alat)
               a(1) = (   1.000000   0.000000   0.000000 )
               a(2) = (   0.000000   1.282117   0.000000 )
               a(3) = (   0.000000   0.000000   4.945120 )

     reciprocal axes: (cart. coord. in units 2 pi/alat)
               b(1) = (  1.000000  0.000000  0.000000 )
               b(2) = (  0.000000  0.779960  0.000000 )
               b(3) = (  0.000000  0.000000  0.202220 )

     PseudoPot. # 1 for O  read from file:
     /home/camp/zhonxu/pseudo/o_pbe_v1.01.uspp.F.UPF
     MD5 check sum: 2bcb18d16ea4b960afae9ec6d52f22d2
     Pseudo is Ultrasoft + core correction, Zval =  6.0
     Generated by new atomic code, or converted to UPF format
     Using radial grid of  737 points,  5 beta functions with:
                l(1) =   0
                l(2) =   0
                l(3) =   1
                l(4) =   1
                l(5) =   2
     Q(r) pseudized with  8 coefficients,  rinner =    0.900   0.900   0.900
                                                       0.900   0.900

     PseudoPot. # 2 for Mo read from file:
     /home/camp/zhonxu/pseudo/mo_pbe_v1.uspp.F.UPF
     MD5 check sum: 30c4dcd161f5d35cd49bb5239c51a633
     Pseudo is Ultrasoft + core correction, Zval = 14.0
     Generated by new atomic code, or converted to UPF format
     Using radial grid of  889 points,  6 beta functions with:
                l(1) =   0
                l(2) =   0
                l(3) =   1
                l(4) =   1
                l(5) =   2
                l(6) =   2
     Q(r) pseudized with  6 coefficients,  rinner =    1.000   1.000   1.000
                                                       1.000   1.000

     PseudoPot. # 3 for H  read from file:
     /home/camp/zhonxu/pseudo/h_pbe_v1.uspp.F.UPF
     MD5 check sum: 3408e3ff4ec8b0a4e358431e7e038a48
     Pseudo is Ultrasoft, Zval =  1.0
     Generated by new atomic code, or converted to UPF format
     Using radial grid of  615 points,  2 beta functions with:
                l(1) =   0
                l(2) =   0
     Q(r) pseudized with  8 coefficients,  rinner =    0.700

     atomic species   valence    mass     pseudopotential
        O0             6.00    15.99940     O ( 1.00)
        Mo1           14.00    95.94000     Mo( 1.00)
        H2             1.00     1.00794     H ( 1.00)

     Simplified LDA+U calculation (l_max = 2) with parameters (eV):
     atomic species    L          U    alpha       J0     beta
        Mo1            2     5.5000   0.0000   0.0000   0.0000

     No symmetry found

   Cartesian axes

     site n.     atom                  positions (alat units)
         1           O0  tau(   1) = (   0.0000000   0.0000000   1.8345407  )
         2           O0  tau(   2) = (   0.0000000   0.6410583   1.8924976  )
         3           Mo1 tau(   3) = (   0.2500000   0.6410583   2.1781772  )
         4           Mo1 tau(   4) = (   0.0000000   0.0000000   2.1929631  )
         5           O0  tau(   5) = (   0.2500000   1.0000510   2.1897982  )
         6           O0  tau(   6) = (   0.2500000   0.2820657   2.1891553  )
         7           O0  tau(   7) = (   0.0000000   0.6410583   2.4607413  )
         8           O0  tau(   8) = (   0.0000000   0.0000000   2.5556382  )
         9           Mo1 tau(   9) = (   0.2500000   0.0000000   2.8453728  )
        10           Mo1 tau(  10) = (   0.0000000   0.6410583   2.7952787  )
        11           O0  tau(  11) = (   0.2500000   0.9231240   2.8196582  )
        12           O0  tau(  12) = (   0.2500000   0.3589927   2.8248011  )
        13           O0  tau(  13) = (   0.0000000   0.0000000   3.0952003  )
        14           O0  tau(  14) = (   0.5000000   0.0000000   1.8353814  )
        15           O0  tau(  15) = (   0.5000000   0.6410583   1.8936349  )
        16           Mo1 tau(  16) = (   0.7500000   0.6410583   2.1781277  )
        17           Mo1 tau(  17) = (   0.5000000   0.0000000   2.1954851  )
        18           O0  tau(  18) = (   0.7500000   1.0000510   2.1899960  )
        19           O0  tau(  19) = (   0.7500000   0.2820657   2.1890564  )
        20           O0  tau(  20) = (   0.5000000   0.6410583   2.4612853  )
        21           O0  tau(  21) = (   0.5000000   0.0000000   2.5539074  )
        22           Mo1 tau(  22) = (   0.7500000   0.0000000   2.8439387  )
        23           Mo1 tau(  23) = (   0.5000000   0.6410583   2.8209934  )
        24           O0  tau(  24) = (   0.7500000   0.9231240   2.8195098  )
        25           O0  tau(  25) = (   0.7500000   0.3589927   2.8246033  )
        26           O0  tau(  26) = (   0.5000000   0.0000000   3.0932717  )
        27           H2  tau(  27) = (  -0.0005800   0.7846554   1.7836060  )
        28           H2  tau(  28) = (   0.4995100   0.7915788   1.7940402  )
        29           H2  tau(  29) = (   0.1672700   0.0232576   1.7642706  )
        30           H2  tau(  30) = (   0.6659000   0.0248346   1.7633310  )
        31           O0  tau(  31) = (   0.5002100   0.6666879   3.1760530  )
        32           O0  tau(  32) = (   0.4999400   0.4570233   3.3393409  )
        33           H2  tau(  33) = (   0.5000100   0.5446560   3.4973869  )

     number of k points=    10  Methfessel-Paxton smearing, width (Ry)=  0.0100
                       cart. coord. in units 2pi/alat
        k(    1) = (   0.0000000   0.0000000   0.0000000), wk =   0.1250000
        k(    2) = (   0.0000000   0.1949901   0.0000000), wk =   0.2500000
        k(    3) = (   0.0000000  -0.3899801   0.0000000), wk =   0.1250000
        k(    4) = (   0.2500000   0.0000000   0.0000000), wk =   0.2500000
        k(    5) = (   0.2500000   0.1949901   0.0000000), wk =   0.2500000
        k(    6) = (   0.2500000  -0.3899801   0.0000000), wk =   0.2500000
        k(    7) = (  -0.5000000   0.0000000   0.0000000), wk =   0.1250000
        k(    8) = (  -0.5000000   0.1949901   0.0000000), wk =   0.2500000
        k(    9) = (  -0.5000000  -0.3899801   0.0000000), wk =   0.1250000
        k(   10) = (  -0.2500000   0.1949901   0.0000000), wk =   0.2500000

     Largest allocated arrays     est. size (Mb)     dimensions
     Largest temporary arrays     est. size (Mb)     dimensions

     Check: negative/imaginary core charge=   -0.000003    0.000000

     Initial potential from superposition of free atoms
     Check: negative starting charge=   -0.002157

     starting charge  236.99142, renormalised to  237.00000

     negative rho (up, down):  0.216E-02 0.000E+00
     Number of +U iterations with fixed ns =  0
     Starting occupations:
 --- enter write_ns ---
 LDA+U parameters:
U( 2)     =  5.50000000
alpha( 2) =  0.00000000
atom    3   Tr[ns(na)] =   5.00000
    eigenvalues:
  0.500  0.500  0.500  0.500  0.500
    eigenvectors:
  1.000  0.000  0.000  0.000  0.000
  0.000  1.000  0.000  0.000  0.000
  0.000  0.000  1.000  0.000  0.000
  0.000  0.000  0.000  1.000  0.000
  0.000  0.000  0.000  0.000  1.000
    occupations:
  0.500  0.000  0.000  0.000  0.000
  0.000  0.500  0.000  0.000  0.000
  0.000  0.000  0.500  0.000  0.000
  0.000  0.000  0.000  0.500  0.000
  0.000  0.000  0.000  0.000  0.500
atom    4   Tr[ns(na)] =   5.00000
    eigenvalues:
  0.500  0.500  0.500  0.500  0.500
    eigenvectors:
  1.000  0.000  0.000  0.000  0.000
  0.000  1.000  0.000  0.000  0.000
  0.000  0.000  1.000  0.000  0.000
  0.000  0.000  0.000  1.000  0.000
  0.000  0.000  0.000  0.000  1.000
    occupations:
  0.500  0.000  0.000  0.000  0.000
  0.000  0.500  0.000  0.000  0.000
  0.000  0.000  0.500  0.000  0.000
  0.000  0.000  0.000  0.500  0.000
  0.000  0.000  0.000  0.000  0.500
atom    9   Tr[ns(na)] =   5.00000
    eigenvalues:
  0.500  0.500  0.500  0.500  0.500
    eigenvectors:
  1.000  0.000  0.000  0.000  0.000
  0.000  1.000  0.000  0.000  0.000
  0.000  0.000  1.000  0.000  0.000
  0.000  0.000  0.000  1.000  0.000
  0.000  0.000  0.000  0.000  1.000
    occupations:
  0.500  0.000  0.000  0.000  0.000
  0.000  0.500  0.000  0.000  0.000
  0.000  0.000  0.500  0.000  0.000
  0.000  0.000  0.000  0.500  0.000
  0.000  0.000  0.000  0.000  0.500
atom   10   Tr[ns(na)] =   5.00000
    eigenvalues:
  0.500  0.500  0.500  0.500  0.500
    eigenvectors:
  1.000  0.000  0.000  0.000  0.000
  0.000  1.000  0.000  0.000  0.000
  0.000  0.000  1.000  0.000  0.000
  0.000  0.000  0.000  1.000  0.000
  0.000  0.000  0.000  0.000  1.000
    occupations:
  0.500  0.000  0.000  0.000  0.000
  0.000  0.500  0.000  0.000  0.000
  0.000  0.000  0.500  0.000  0.000
  0.000  0.000  0.000  0.500  0.000
  0.000  0.000  0.000  0.000  0.500
atom   16   Tr[ns(na)] =   5.00000
    eigenvalues:
  0.500  0.500  0.500  0.500  0.500
    eigenvectors:
  1.000  0.000  0.000  0.000  0.000
  0.000  1.000  0.000  0.000  0.000
  0.000  0.000  1.000  0.000  0.000
  0.000  0.000  0.000  1.000  0.000
  0.000  0.000  0.000  0.000  1.000
    occupations:
  0.500  0.000  0.000  0.000  0.000
  0.000  0.500  0.000  0.000  0.000
  0.000  0.000  0.500  0.000  0.000
  0.000  0.000  0.000  0.500  0.000
  0.000  0.000  0.000  0.000  0.500
atom   17   Tr[ns(na)] =   5.00000
    eigenvalues:
  0.500  0.500  0.500  0.500  0.500
    eigenvectors:
  1.000  0.000  0.000  0.000  0.000
  0.000  1.000  0.000  0.000  0.000
  0.000  0.000  1.000  0.000  0.000
  0.000  0.000  0.000  1.000  0.000
  0.000  0.000  0.000  0.000  1.000
    occupations:
  0.500  0.000  0.000  0.000  0.000
  0.000  0.500  0.000  0.000  0.000
  0.000  0.000  0.500  0.000  0.000
  0.000  0.000  0.000  0.500  0.000
  0.000  0.000  0.000  0.000  0.500
atom   22   Tr[ns(na)] =   5.00000
    eigenvalues:
  0.500  0.500  0.500  0.500  0.500
    eigenvectors:
  1.000  0.000  0.000  0.000  0.000
  0.000  1.000  0.000  0.000  0.000
  0.000  0.000  1.000  0.000  0.000
[...]
  0.449  0.001 -0.003  0.026 -0.000
  0.001  0.867 -0.001  0.006 -0.002
 -0.003 -0.001  0.323 -0.004 -0.005
  0.026  0.006 -0.004  0.716 -0.000
 -0.000 -0.002 -0.005 -0.000  0.505
atom   16   Tr[ns(na)] =   5.82127
    eigenvalues:
  0.405  0.512  0.575  0.641  0.778
    eigenvectors:
  0.012  0.008  0.295  0.000  0.685
  0.000  0.978  0.017  0.004  0.001
  0.960  0.001  0.001  0.027  0.012
  0.001  0.010  0.686  0.001  0.302
  0.027  0.004  0.001  0.968  0.000
    occupations:
  0.711 -0.010  0.036 -0.092 -0.003
 -0.010  0.514 -0.002 -0.004 -0.008
  0.036 -0.002  0.416 -0.017  0.038
 -0.092 -0.004 -0.017  0.635  0.002
 -0.003 -0.008  0.038  0.002  0.634
atom   17   Tr[ns(na)] =   5.82337
    eigenvalues:
  0.390  0.520  0.589  0.638  0.775
    eigenvectors:
  0.000  0.000  0.998  0.002  0.000
  0.000  0.000  0.002  0.995  0.002
  1.000  0.000  0.000  0.000  0.000
  0.000  0.000  0.000  0.002  0.998
  0.000  1.000  0.000  0.000  0.000
    occupations:
  0.590 -0.002  0.002  0.001  0.000
 -0.002  0.638  0.002  0.007 -0.002
  0.002  0.002  0.390 -0.003 -0.001
  0.001  0.007 -0.003  0.775 -0.000
  0.000 -0.002 -0.001 -0.000  0.520
atom   22   Tr[ns(na)] =   5.81886
    eigenvalues:
  0.428  0.485  0.590  0.602  0.804
    eigenvectors:
  0.000  0.000  0.010  0.239  0.750
  0.000  0.000  0.963  0.037  0.000
  0.144  0.856  0.000  0.000  0.000
  0.000  0.000  0.027  0.724  0.249
  0.856  0.144  0.000  0.000  0.000
    occupations:
  0.754  0.002  0.000 -0.087 -0.003
  0.002  0.591 -0.000  0.001 -0.000
  0.000 -0.000  0.476  0.000 -0.020
 -0.087  0.001  0.000  0.652  0.002
 -0.003 -0.000 -0.020  0.002  0.436
atom   23   Tr[ns(na)] =   5.85446
    eigenvalues:
  0.481  0.505  0.525  0.600  0.817
    eigenvectors:
  0.003  0.000  0.000  0.986  0.011
  0.000  0.952  0.048  0.000  0.000
  0.984  0.001  0.012  0.004  0.000
  0.001  0.000  0.000  0.010  0.989
  0.013  0.047  0.940  0.000  0.000
    occupations:
  0.601 -0.001  0.006 -0.022 -0.000
 -0.001  0.506 -0.001 -0.001 -0.004
  0.006 -0.001  0.482  0.006  0.005
 -0.022 -0.001  0.006  0.815 -0.000
 -0.000 -0.004  0.005 -0.000  0.524
N of occupied +U levels =  46.5320795
 --- exit write_ns ---

     Threshold (ethr) on eigenvalues was too large:
     Diagonalizing with lowered threshold

     Davidson diagonalization with overlap
     ethr =  3.04E-09,  avg # of iterations =  3.0

[...]

     total energy              =   -1761.93127315 Ry
     Harris-Foulkes estimate   =   -1761.93127315 Ry
     estimated scf accuracy    <       0.00000001 Ry

     iteration # 13     ecut=    40.00 Ry     beta=0.70
     Davidson diagonalization with overlap
     ethr =  4.64E-12,  avg # of iterations =  1.0

     negative rho (up, down):  0.342E-02 0.000E+00

     End of self-consistent calculation
 --- enter write_ns ---
 LDA+U parameters:
U( 2)     =  5.50000000
alpha( 2) =  0.00000000
atom    3   Tr[ns(na)] =   5.82277
    eigenvalues:
  0.427  0.512  0.575  0.616  0.781
    eigenvectors:
  0.011  0.009  0.305  0.001  0.674
  0.000  0.977  0.018  0.005  0.000
  0.933  0.001  0.001  0.056  0.010
  0.001  0.010  0.672  0.002  0.315
  0.055  0.003  0.005  0.936  0.000
    occupations:
  0.711  0.010  0.032 -0.095  0.006
  0.010  0.514  0.002  0.004 -0.006
  0.032  0.002  0.442 -0.015 -0.042
 -0.095  0.004 -0.015  0.639 -0.005
  0.006 -0.006 -0.042 -0.005  0.605
atom    4   Tr[ns(na)] =   5.81648
    eigenvalues:
  0.367  0.520  0.584  0.666  0.772
    eigenvectors:
  0.000  0.000  0.988  0.012  0.000
  0.000  0.000  0.012  0.988  0.000
  1.000  0.000  0.000  0.000  0.000
  0.000  0.000  0.000  0.000  1.000
  0.000  1.000  0.000  0.000  0.000
    occupations:
  0.585  0.009  0.001  0.002  0.000
  0.009  0.665  0.004  0.001 -0.001
  0.001  0.004  0.367  0.000  0.001
  0.002  0.001  0.000  0.772 -0.000
  0.000 -0.001  0.001 -0.000  0.520
atom    9   Tr[ns(na)] =   5.85473
    eigenvalues:
  0.485  0.525  0.607  0.622  0.688
    eigenvectors:
  0.000  0.000  0.163  0.001  0.836
  0.000  0.000  0.012  0.988  0.000
  0.168  0.832  0.000  0.000  0.000
  0.000  0.000  0.825  0.011  0.164
  0.832  0.168  0.000  0.000  0.000
    occupations:
  0.675 -0.001  0.000 -0.030 -0.002
 -0.001  0.622 -0.001 -0.001  0.000
  0.000 -0.001  0.518  0.000  0.015
 -0.030 -0.001  0.000  0.621  0.000
 -0.002  0.000  0.015  0.000  0.492
atom   10   Tr[ns(na)] =   5.72025
    eigenvalues:
  0.322  0.446  0.505  0.719  0.867
    eigenvectors:
  0.001  0.990  0.000  0.009  0.000
  0.000  0.000  0.000  0.002  0.998
  0.999  0.001  0.001  0.000  0.000
  0.000  0.009  0.000  0.989  0.002
  0.001  0.000  0.999  0.000  0.000
    occupations:
  0.449  0.001 -0.003  0.026 -0.000
  0.001  0.867 -0.001  0.006 -0.002
 -0.003 -0.001  0.322 -0.004 -0.005
  0.026  0.006 -0.004  0.716 -0.000
 -0.000 -0.002 -0.005 -0.000  0.505
atom   16   Tr[ns(na)] =   5.82134
    eigenvalues:
  0.405  0.512  0.575  0.641  0.778
    eigenvectors:
  0.012  0.008  0.295  0.000  0.685
  0.000  0.978  0.017  0.005  0.001
  0.960  0.001  0.001  0.027  0.012
  0.001  0.010  0.686  0.001  0.302
  0.028  0.004  0.001  0.968  0.000
    occupations:
  0.711 -0.010  0.036 -0.092 -0.003
 -0.010  0.514 -0.002 -0.004 -0.008
  0.036 -0.002  0.416 -0.017  0.038
 -0.092 -0.004 -0.017  0.635  0.002
 -0.003 -0.008  0.038  0.002  0.634
atom   17   Tr[ns(na)] =   5.82309
    eigenvalues:
  0.390  0.520  0.589  0.637  0.775
    eigenvectors:
  0.000  0.000  0.998  0.002  0.000
  0.000  0.000  0.002  0.995  0.002
  1.000  0.000  0.000  0.000  0.000
  0.000  0.000  0.000  0.002  0.998
  0.000  1.000  0.000  0.000  0.000
    occupations:
  0.590 -0.002  0.002  0.001  0.000
 -0.002  0.638  0.002  0.007 -0.002
  0.002  0.002  0.390 -0.003 -0.001
  0.001  0.007 -0.003  0.775 -0.000
  0.000 -0.002 -0.001 -0.000  0.520
atom   22   Tr[ns(na)] =   5.81886
    eigenvalues:
  0.428  0.485  0.590  0.602  0.804
    eigenvectors:
  0.000  0.000  0.010  0.239  0.750
  0.000  0.000  0.963  0.037  0.000
  0.144  0.856  0.000  0.000  0.000
  0.000  0.000  0.027  0.724  0.249
  0.856  0.144  0.000  0.000  0.000
    occupations:
  0.754  0.002  0.000 -0.087 -0.003
  0.002  0.591 -0.000  0.001 -0.000
  0.000 -0.000  0.476  0.000 -0.020
 -0.087  0.001  0.000  0.652  0.002
 -0.003 -0.000 -0.020  0.002  0.436
atom   23   Tr[ns(na)] =   5.85441
    eigenvalues:
  0.481  0.504  0.525  0.599  0.817
    eigenvectors:
  0.003  0.000  0.000  0.986  0.011
  0.000  0.953  0.047  0.000  0.000
  0.983  0.001  0.012  0.004  0.000
  0.001  0.000  0.000  0.010  0.989
  0.013  0.047  0.940  0.000  0.000
    occupations:
  0.601 -0.001  0.006 -0.022 -0.000
 -0.001  0.505 -0.001 -0.001 -0.004
  0.006 -0.001  0.482  0.006  0.005
 -0.022 -0.001  0.006  0.815 -0.000
 -0.000 -0.004  0.005 -0.000  0.524
N of occupied +U levels =  46.5319186
 --- exit write_ns ---

[...]

          k = 0.2500-0.3900 0.0000 ( 29726 PWs)   bands (ev):

[...]

          k =-0.2500 0.1950 0.0000 ( 29746 PWs)   bands (ev):

   -62.2130 -61.9506 -61.9151 -61.6487 -61.6432 -61.5598 -61.5399 -61.2648
   -36.7409 -36.5607 -36.4797 -36.4385 -36.0936 -36.0372 -36.0369 -35.9860
   -35.9558 -35.9404 -35.8934 -35.8763 -35.8680 -35.8527 -35.8198 -35.7515
   -35.7025 -35.6835 -35.6567 -35.6524 -35.5719 -35.1618 -35.1352 -34.9028
   -22.9882 -20.1155 -19.8560 -19.4265 -19.2969 -19.1441 -19.0221 -18.9677
   -18.9175 -18.8951 -18.7138 -18.7010 -18.5530 -18.4821 -18.3680 -18.2678
   -18.1507 -17.9623 -17.7713 -16.6130  -8.3775  -8.2384  -8.0347  -7.9332
    -7.6085  -7.4597  -7.3226  -7.2481  -7.2122  -7.1087  -7.0019  -6.9234
    -6.7762  -6.5426  -6.4927  -6.2336  -6.1687  -6.0276  -5.9717  -5.8402
    -5.7245  -5.6627  -5.5823  -5.4320  -5.3333  -5.1428  -4.9501  -4.8848
    -4.7782  -4.6461  -4.5294  -4.5117  -4.3792  -4.2228  -4.1637  -4.0898
    -4.0159  -3.9884  -3.9656  -3.9216  -3.8295  -3.7690  -3.6217  -3.4925
    -3.3644  -3.3339  -3.2456  -3.1671  -3.0842  -3.0229  -2.9562  -2.8010
    -2.7242  -2.6596  -2.5536  -2.4106  -2.3429  -2.0919  -1.6907  -1.5364
    -1.4796  -1.3312  -0.4545  -0.4168  -0.2242  -0.0541   0.6821   0.8414
     0.9959   1.1076   1.2131   1.3057   1.4843   1.6266   1.7675   1.8214
     1.9091   2.0111   2.0580   2.1859   2.2904   2.4704   2.7742   3.0100
     3.6508   3.8128   4.0594   4.1558   4.2385   4.3976   4.4389   4.5904
     4.7484   4.8178   4.8487   4.9672   5.1196   5.1698   5.2907   5.5556
     5.9174   6.0725   6.1807   6.2173   6.3562   6.4919   6.5192   6.6080
     6.7030   6.9465   7.0026   7.2654   7.3431   7.4303   7.7246   7.7739
     8.0864   8.2349   8.4396   8.4901   8.6209   8.7313   8.8487   8.9669
     9.0232   9.1831   9.2350   9.4045   9.4898   9.6078   9.6948   9.7812
     9.8142   9.9772   9.9844  10.1058  10.2622  10.4365  10.5263  10.6245
    10.6949  10.8154  10.9429  10.9597  11.0538  11.1546  11.3154  11.3932
    11.5048  11.6881  11.7797  11.8580  11.9138  11.9620  12.0158  12.1751
    12.1934  12.2541  12.3572  12.3685  12.4416  12.5759  12.6194  12.8297
    12.9371  12.9817  13.0506  13.1667  13.2044  13.2944  13.4055  13.4513
    13.5410  13.5564  13.6304  13.7179  13.7604  13.8742  13.8977  13.9552
    14.0406  14.0987  14.1476  14.1941  14.2807  14.2974  14.3672  14.4017
    14.5065  14.5444  14.6225  14.7574  14.7813  14.8782  14.9066  15.0888
    15.1502  15.2471  15.3201  15.4427  15.4693  15.5191  15.6472  15.6990
    15.8058  15.8807  15.9176  16.0184  16.1047  16.1634  16.2699  16.3090
    16.3509  16.4382  16.5189  16.5662  16.6138  16.6327  16.7388  16.7775
    16.8719  16.9047  16.9794  17.0795  17.1077  17.1971  17.2678  17.3231
    17.3354  17.4096  17.5281  17.5888  17.6993  17.7588  17.8149  17.9031
    18.0492  18.1145  18.1495  18.2082  18.2406  18.3766  18.4189  18.4997
    18.5727  18.6305  18.6953  18.7839  18.9212  18.9584  19.0279  19.0829
    19.2080  19.2888  19.3747  19.4259  19.4653  19.5470  19.6186  19.7107
    19.8097  19.8906  19.9743  20.0501  20.1228  20.1757  20.1948  20.2573
    20.3075  20.3371  20.4459  20.4673  20.4992  20.5529  20.6055  20.6533
    20.7537  20.8324  20.8944  20.9634  21.0079  21.1038  21.1521  21.2303
    21.2825  21.3926  21.4161  21.4720  21.5297  21.5787  21.5912  21.6240
    21.6533  21.7437  21.8099  21.8706  21.8995  21.9488  22.0070  22.0749
    22.1460  22.2009  22.2920

     the Fermi energy is     0.3262 ev

!    total energy              =   -1761.93127314 Ry
     Harris-Foulkes estimate   =   -1761.93127315 Ry
     estimated scf accuracy    <          5.7E-09 Ry

     The total energy is the sum of the following terms:

     one-electron contribution =  -22609.42861653 Ry
     hartree contribution      =   11335.29849301 Ry
     xc contribution           =    -301.64159591 Ry
     ewald contribution        =    9810.18805654 Ry
     Hubbard energy            =       3.65244541 Ry
     smearing contrib. (-TS)   =      -0.00005566 Ry

     convergence has been achieved in  13 iterations

     Forces acting on atoms (Ry/au):

     negative rho (up, down):  0.342E-02 0.000E+00
     atom    1 type  1   force =    -0.00581900   -0.00614488   -0.00005107
     atom    2 type  1   force =    -0.00042323    0.00966690    0.00004085
     atom    3 type  2   force =     0.01869098   -0.00979501    0.00014056
     atom    4 type  2   force =     0.01700678    0.00409431    0.00022290
     atom    5 type  1   force =     0.00179888   -0.02279821   -0.00011324
     atom    6 type  1   force =     0.00015386    0.02209359   -0.00011618
     atom    7 type  1   force =    -0.00030811    0.00251316    0.00038058
     atom    8 type  1   force =     0.00736693    0.00126789    0.00051374
     atom    9 type  2   force =    -0.00451292   -0.00247905    0.00017230
     atom   10 type  2   force =     0.00059784    0.00197348    0.00094858
     atom   11 type  1   force =    -0.01009132    0.00440210    0.00012394
     atom   12 type  1   force =    -0.00632095    0.00101293    0.00012907
     atom   13 type  1   force =     0.00802621   -0.00168636   -0.00008565
     atom   14 type  1   force =     0.00350808   -0.00441357    0.00007169
     atom   15 type  1   force =    -0.00009141    0.00747876   -0.00049210
     atom   16 type  2   force =    -0.01863797   -0.00874553    0.00015835
     atom   17 type  2   force =    -0.02007910    0.00389560   -0.00001381
     atom   18 type  1   force =     0.00171921   -0.01674625   -0.00010151
     atom   19 type  1   force =    -0.00056763    0.01457591   -0.00010824
     atom   20 type  1   force =    -0.00098928   -0.00031744   -0.00048112
     atom   21 type  1   force =     0.00374548    0.00232387   -0.00047798
     atom   22 type  2   force =     0.00110866   -0.00251954   -0.00015288
     atom   23 type  2   force =     0.00122097    0.00178990    0.00001462
     atom   24 type  1   force =     0.00872199    0.00897827    0.00003434
     atom   25 type  1   force =     0.00557177   -0.00410748   -0.00004668
     atom   26 type  1   force =    -0.01121640   -0.00658316    0.00012226
     atom   27 type  3   force =    -0.00001294   -0.00006080   -0.00026742
     atom   28 type  3   force =    -0.00002384    0.00002309    0.00015950
     atom   29 type  3   force =    -0.00015271   -0.00001488   -0.00039861
     atom   30 type  3   force =    -0.00029109    0.00006898   -0.00047217
     atom   31 type  1   force =     0.00032774    0.00016745   -0.00029800
     atom   32 type  1   force =    -0.00012093    0.00040249    0.00003579
     atom   33 type  3   force =     0.00009344   -0.00031650    0.00040760

     Total force =     0.001884     Total SCF correction =     0.000299
     SCF correction compared to forces is large: reduce conv_thr to get better values

     entering subroutine stress ...

     negative rho (up, down):  0.342E-02 0.000E+00
          total   stress  (Ry/bohr**3)                   (kbar)     P=   -5.75
  -0.00002843  -0.00000140  -0.00000049         -4.18     -0.21     -0.07
  -0.00000140  -0.00005503  -0.00000148         -0.21     -8.09     -0.22
  -0.00000049  -0.00000148  -0.00003375         -0.07     -0.22     -4.96

     bfgs converged in  26 scf cycles and  25 bfgs steps
     (criteria: energy < 0.10E-03, force < 0.10E-02)

     End of BFGS Geometry Optimization

     Final energy   =   -1761.9312731427 Ry
Begin final coordinates

ATOMIC_POSITIONS (crystal)
O0       0.000000000   0.000000000   0.370535110    0   0   1
O0       0.000000000   0.500000000   0.382896775    0   0   1
Mo1      0.250000000   0.500000000   0.441083203    0   0   1
Mo1      0.000000000   0.000000000   0.442609619    0   0   1
O0       0.250000000   0.780000000   0.442684659    0   0   1
O0       0.250000000   0.220000000   0.442384445    0   0   1
O0       0.000000000   0.500000000   0.496595726    0   0   1
O0       0.000000000   0.000000000   0.516533330    0   0   1
Mo1      0.250000000   0.000000000   0.577833754    0   0   1
Mo1      0.000000000   0.500000000   0.567133282    0   0   1
O0       0.250000000   0.720000000   0.571927924    0   0   1
O0       0.250000000   0.280000000   0.572780502    0   0   1
O0       0.000000000   0.000000000   0.625160623    0   0   1
O0       0.500000000   0.000000000   0.370762091    0   0   1
O0       0.500000000   0.500000000   0.383026689    0   0   1
Mo1      0.750000000   0.500000000   0.441053056    0   0   1
Mo1      0.500000000   0.000000000   0.442526925    0   0   1
O0       0.750000000   0.780000000   0.442720177    0   0   1
O0       0.750000000   0.220000000   0.442666587    0   0   1
O0       0.500000000   0.500000000   0.500003112    0   0   1
O0       0.500000000   0.000000000   0.515853543    0   0   1
Mo1      0.750000000   0.000000000   0.571339294    0   0   1
Mo1      0.500000000   0.500000000   0.570377363    0   0   1
O0       0.750000000   0.720000000   0.570986537    0   0   1
O0       0.750000000   0.280000000   0.571772682    0   0   1
O0       0.500000000   0.000000000   0.624804148    0   0   1
H2      -0.000441954   0.617661653   0.362913974
H2       0.499120044   0.606212678   0.359281379
H2       0.166808248   0.019038622   0.356187915
H2       0.665424085   0.018507222   0.355716140
O0       0.501706017   0.515395413   0.642082046
O0       0.499192937   0.356269510   0.676024493
H2       0.500446940   0.427849612   0.707492896
End final coordinates

     General routines

     Parallel routines
     Hubbard U routines

   This run was terminated on:  11:44: 7  29May2014

   JOB DONE.
Running PBS batch system epilogue script
Job id: 373267.audhumbla.fysik.dtu.dk
Username: zhonxu
Groupname: campgst
Jobname: MoO2/Eads-2-layers/OOH-U-5.5
Sessionid: 838
Queuename: verylong
Accounting:
This job has allocated the following 16 nodes:
d071 d071 d071 d071 d071 d071 d071 d071 d017 d017 d017 d017 d017 d017 d017 d017
Finished epilogue job 373267.audhumbla.fysik.dtu.dk for zhonxu