     Program PWSCF v.5.0.2 (svn rev. 9656) starts on 30Apr2014 at 21: 7:22

     Current dimensions of program PWSCF are:
     Max number of different atomic species (ntypx) = 10
     Max number of k-points (npk) =  40000
     Max angular momentum in pseudopotentials (lmaxx) =  3
     Reading input from pwscf.in
Warning: card &CELL ignored
Warning: card / ignored

     Subspace diagonalization in iterative solution of the eigenvalue problem:
     a serial algorithm will be used

     bravais-lattice index     =            0
     lattice parameter (alat)  =      11.1872  a.u.
     unit-cell volume          =    7531.8600 (a.u.)^3
     number of atoms/cell      =           31
     number of atomic types    =            3
     number of electrons       =       222.00
     number of Kohn-Sham states=          333
     kinetic-energy cutoff     =      40.0000  Ry
     charge density cutoff     =     500.0000  Ry
     convergence threshold     =      1.0E-06
     mixing beta               =       0.7000
     number of iterations used =            8  plain     mixing
     Exchange-correlation      = SLA  PW   PBE  PBE ( 1 4 3 4 0)
     EXX-fraction              =        0.00
     nstep                     =           50

     celldm(1)=  11.187179  celldm(2)=   0.000000  celldm(3)=   0.000000
     celldm(4)=   0.000000  celldm(5)=   0.000000  celldm(6)=   0.000000

     crystal axes: (cart. coord. in units of alat)
               a(1) = (   1.000000   0.000000   0.000000 )
               a(2) = (   0.000000   1.180104   0.000000 )
               a(3) = (   0.000000   0.000000   4.558482 )

     reciprocal axes: (cart. coord. in units 2 pi/alat)
               b(1) = (  1.000000  0.000000  0.000000 )
               b(2) = (  0.000000  0.847383  0.000000 )
               b(3) = (  0.000000  0.000000  0.219371 )

     PseudoPot. # 1 for O  read from file:
     /home/camp/zhonxu/pseudo/o_pbe_v1.01.uspp.F.UPF
     MD5 check sum: 2bcb18d16ea4b960afae9ec6d52f22d2
     Pseudo is Ultrasoft + core correction, Zval =  6.0
     Generated by new atomic code, or converted to UPF format
     Using radial grid of  737 points,  5 beta functions with:
                l(1) =   0
                l(2) =   0
                l(3) =   1
                l(4) =   1
                l(5) =   2
     Q(r) pseudized with  8 coefficients,  rinner =    0.900   0.900   0.900
                                                       0.900   0.900

     PseudoPot. # 2 for Nb read from file:
     /home/camp/zhonxu/pseudo/nb_pbe_v1.uspp.F.UPF
     MD5 check sum: 573aab8a2fa660278ed4a62cd769473f
     Pseudo is Ultrasoft + core correction, Zval = 13.0
     Generated by new atomic code, or converted to UPF format
     Using radial grid of  887 points,  6 beta functions with:
                l(1) =   0
                l(2) =   0
                l(3) =   1
                l(4) =   1
                l(5) =   2
                l(6) =   2
     Q(r) pseudized with  6 coefficients,  rinner =    1.000   1.000   1.000
                                                       1.000   1.000

     PseudoPot. # 3 for H  read from file:
     /home/camp/zhonxu/pseudo/h_pbe_v1.uspp.F.UPF
     MD5 check sum: 3408e3ff4ec8b0a4e358431e7e038a48
     Pseudo is Ultrasoft, Zval =  1.0
     Generated by new atomic code, or converted to UPF format
     Using radial grid of  615 points,  2 beta functions with:
                l(1) =   0
                l(2) =   0
     Q(r) pseudized with  8 coefficients,  rinner =    0.700

     atomic species   valence    mass     pseudopotential
        O0             6.00    15.99940     O ( 1.00)
        Nb1           13.00    92.90640     Nb( 1.00)
        H2             1.00     1.00794     H ( 1.00)

     Simplified LDA+U calculation (l_max = 2) with parameters (eV):
     atomic species    L          U    alpha       J0     beta
        Nb1            2     1.5000   0.0000   0.0000   0.0000

     No symmetry found

   Cartesian axes

     site n.     atom                  positions (alat units)
         1           O0  tau(   1) = (   0.0000000   0.0000000   1.6934306  )
         2           O0  tau(   2) = (   0.0000000   0.5900519   1.7719732  )
         3           Nb1 tau(   3) = (   0.2500000   0.5900519   2.0266100  )
         4           Nb1 tau(   4) = (   0.0000000   0.0000000   2.0234647  )
         5           O0  tau(   5) = (   0.2500000   0.9322821   2.0339492  )
         6           O0  tau(   6) = (   0.2500000   0.2478218   2.0339492  )
         7           O0  tau(   7) = (   0.0000000   0.5900519   2.2822497  )
         8           O0  tau(   8) = (   0.0000000   0.0000000   2.3837671  )
         9           Nb1 tau(   9) = (   0.2500000   0.0000000   2.6303810  )
        10           Nb1 tau(  10) = (   0.0000000   0.5900519   2.5986084  )
        11           O0  tau(  11) = (   0.2500000   0.8378738   2.6271901  )
        12           O0  tau(  12) = (   0.2500000   0.3422301   2.6272357  )
        13           O0  tau(  13) = (   0.0000000   0.0000000   2.8322306  )
        14           O0  tau(  14) = (   0.5000000   0.0000000   1.6959377  )
        15           O0  tau(  15) = (   0.5000000   0.5900519   1.7815005  )
        16           Nb1 tau(  16) = (   0.7500000   0.5900519   2.0269291  )
        17           Nb1 tau(  17) = (   0.5000000   0.0000000   2.0281143  )
        18           O0  tau(  18) = (   0.7500000   0.9322821   2.0339492  )
        19           O0  tau(  19) = (   0.7500000   0.2478218   2.0339492  )
        20           O0  tau(  20) = (   0.5000000   0.5900519   2.2572692  )
        21           O0  tau(  21) = (   0.5000000   0.0000000   2.3822628  )
        22           Nb1 tau(  22) = (   0.7500000   0.0000000   2.6309736  )
        23           Nb1 tau(  23) = (   0.5000000   0.5900519   2.6831227  )
        24           O0  tau(  24) = (   0.7500000   0.8378738   2.6265975  )
        25           O0  tau(  25) = (   0.7500000   0.3422301   2.6265975  )
        26           O0  tau(  26) = (   0.5000000   0.0000000   2.8320027  )
        27           H2  tau(  27) = (  -0.0004900   0.5918693   1.6065459  )
        28           H2  tau(  28) = (   0.4994900   0.5917631   1.6163466  )
        29           H2  tau(  29) = (   0.1504600   0.0004366   1.6207228  )
        30           H2  tau(  30) = (   0.6496400   0.0004366   1.6219536  )
        31           O0  tau(  31) = (   0.5000300   0.5900519   2.9731333  )

     number of k points=    10  Methfessel-Paxton smearing, width (Ry)=  0.0100
                       cart. coord. in units 2pi/alat
        k(    1) = (   0.0000000   0.0000000   0.0000000), wk =   0.1250000
        k(    2) = (   0.0000000   0.2118458   0.0000000), wk =   0.2500000
        k(    3) = (   0.0000000  -0.4236915   0.0000000), wk =   0.1250000
        k(    4) = (   0.2500000   0.0000000   0.0000000), wk =   0.2500000
        k(    5) = (   0.2500000   0.2118458   0.0000000), wk =   0.2500000
        k(    6) = (   0.2500000  -0.4236915   0.0000000), wk =   0.2500000
        k(    7) = (  -0.5000000   0.0000000   0.0000000), wk =   0.1250000
        k(    8) = (  -0.5000000   0.2118458   0.0000000), wk =   0.2500000
        k(    9) = (  -0.5000000  -0.4236915   0.0000000), wk =   0.1250000
        k(   10) = (  -0.2500000   0.2118458   0.0000000), wk =   0.2500000

     Largest allocated arrays     est. size (Mb)     dimensions
     Largest temporary arrays     est. size (Mb)     dimensions

     Check: negative/imaginary core charge=   -0.000003    0.000000

     Initial potential from superposition of free atoms
     Check: negative starting charge=   -0.003810

     starting charge  221.97807, renormalised to  222.00000

     negative rho (up, down):  0.381E-02 0.000E+00
     Number of +U iterations with fixed ns =  0
     Starting occupations:
 --- enter write_ns ---
 LDA+U parameters:
U( 2)     =  1.50000000
alpha( 2) =  0.00000000
atom    3   Tr[ns(na)] =   3.00000
    eigenvalues:
  0.300  0.300  0.300  0.300  0.300
    eigenvectors:
  1.000  0.000  0.000  0.000  0.000
  0.000  1.000  0.000  0.000  0.000
  0.000  0.000  1.000  0.000  0.000
  0.000  0.000  0.000  1.000  0.000
  0.000  0.000  0.000  0.000  1.000
    occupations:
  0.300  0.000  0.000  0.000  0.000
  0.000  0.300  0.000  0.000  0.000
  0.000  0.000  0.300  0.000  0.000
  0.000  0.000  0.000  0.300  0.000
  0.000  0.000  0.000  0.000  0.300
atom    4   Tr[ns(na)] =   3.00000
    eigenvalues:
  0.300  0.300  0.300  0.300  0.300
    eigenvectors:
  1.000  0.000  0.000  0.000  0.000
  0.000  1.000  0.000  0.000  0.000
  0.000  0.000  1.000  0.000  0.000
  0.000  0.000  0.000  1.000  0.000
  0.000  0.000  0.000  0.000  1.000
    occupations:
  0.300  0.000  0.000  0.000  0.000
  0.000  0.300  0.000  0.000  0.000
  0.000  0.000  0.300  0.000  0.000
  0.000  0.000  0.000  0.300  0.000
  0.000  0.000  0.000  0.000  0.300
atom    9   Tr[ns(na)] =   3.00000
    eigenvalues:
  0.300  0.300  0.300  0.300  0.300
    eigenvectors:
  1.000  0.000  0.000  0.000  0.000
  0.000  1.000  0.000  0.000  0.000
  0.000  0.000  1.000  0.000  0.000
  0.000  0.000  0.000  1.000  0.000
  0.000  0.000  0.000  0.000  1.000
    occupations:
  0.300  0.000  0.000  0.000  0.000
  0.000  0.300  0.000  0.000  0.000
  0.000  0.000  0.300  0.000  0.000
  0.000  0.000  0.000  0.300  0.000
  0.000  0.000  0.000  0.000  0.300
atom   10   Tr[ns(na)] =   3.00000
    eigenvalues:
  0.300  0.300  0.300  0.300  0.300
    eigenvectors:
  1.000  0.000  0.000  0.000  0.000
  0.000  1.000  0.000  0.000  0.000
  0.000  0.000  1.000  0.000  0.000
  0.000  0.000  0.000  1.000  0.000
  0.000  0.000  0.000  0.000  1.000
    occupations:
  0.300  0.000  0.000  0.000  0.000
  0.000  0.300  0.000  0.000  0.000
  0.000  0.000  0.300  0.000  0.000
  0.000  0.000  0.000  0.300  0.000
  0.000  0.000  0.000  0.000  0.300
atom   16   Tr[ns(na)] =   3.00000
    eigenvalues:
  0.300  0.300  0.300  0.300  0.300
    eigenvectors:
  1.000  0.000  0.000  0.000  0.000
  0.000  1.000  0.000  0.000  0.000
  0.000  0.000  1.000  0.000  0.000
  0.000  0.000  0.000  1.000  0.000
  0.000  0.000  0.000  0.000  1.000
    occupations:
  0.300  0.000  0.000  0.000  0.000
  0.000  0.300  0.000  0.000  0.000
  0.000  0.000  0.300  0.000  0.000
  0.000  0.000  0.000  0.300  0.000
  0.000  0.000  0.000  0.000  0.300
atom   17   Tr[ns(na)] =   3.00000
    eigenvalues:
  0.300  0.300  0.300  0.300  0.300
    eigenvectors:
  1.000  0.000  0.000  0.000  0.000
  0.000  1.000  0.000  0.000  0.000
  0.000  0.000  1.000  0.000  0.000
  0.000  0.000  0.000  1.000  0.000
  0.000  0.000  0.000  0.000  1.000
    occupations:
  0.300  0.000  0.000  0.000  0.000
  0.000  0.300  0.000  0.000  0.000
  0.000  0.000  0.300  0.000  0.000
  0.000  0.000  0.000  0.300  0.000
  0.000  0.000  0.000  0.000  0.300
atom   22   Tr[ns(na)] =   3.00000
    eigenvalues:
  0.300  0.300  0.300  0.300  0.300
    eigenvectors:
  1.000  0.000  0.000  0.000  0.000
  0.000  1.000  0.000  0.000  0.000
  0.000  0.000  1.000  0.000  0.000
  0.000  0.000  0.000  1.000  0.000
  0.000  0.000  0.000  0.000  1.000
    occupations:
  0.300  0.000  0.000  0.000  0.000
  0.000  0.300  0.000  0.000  0.000
[...]
  0.009  0.448 -0.000 -0.005  0.000
  0.000 -0.000  0.412  0.000  0.001
  0.002 -0.005  0.000  0.631  0.000
 -0.000  0.000  0.001  0.000  0.551
atom    9   Tr[ns(na)] =   5.26726
    eigenvalues:
  0.460  0.464  0.490  0.608  0.611
    eigenvectors:
  0.000  0.874  0.000  0.119  0.007
  0.000  0.000  0.000  0.056  0.944
  0.616  0.000  0.384  0.000  0.000
  0.000  0.126  0.000  0.825  0.048
  0.384  0.000  0.616  0.000  0.000
    occupations:
  0.482 -0.001 -0.000  0.048 -0.000
 -0.001  0.611 -0.000 -0.001  0.000
 -0.000 -0.000  0.472  0.000  0.015
  0.048 -0.001  0.000  0.590 -0.000
 -0.000  0.000  0.015 -0.000  0.479
atom   10   Tr[ns(na)] =   5.07536
    eigenvalues:
  0.378  0.479  0.516  0.550  0.615
    eigenvectors:
  0.000  0.000  0.976  0.000  0.023
  0.000  0.999  0.000  0.000  0.001
  1.000  0.000  0.000  0.000  0.000
  0.000  0.001  0.023  0.000  0.976
  0.000  0.000  0.000  1.000  0.000
    occupations:
  0.518  0.000  0.000  0.015 -0.000
  0.000  0.479  0.000  0.004 -0.000
  0.000  0.000  0.378 -0.000 -0.000
  0.015  0.004 -0.000  0.612 -0.000
 -0.000 -0.000 -0.000 -0.000  0.550
atom   16   Tr[ns(na)] =   5.23662
    eigenvalues:
  0.393  0.438  0.533  0.580  0.673
    eigenvectors:
  0.000  0.000  0.055  0.406  0.539
  0.000  0.000  0.909  0.089  0.002
  0.121  0.879  0.000  0.000  0.000
  0.000  0.000  0.036  0.505  0.459
  0.879  0.121  0.000  0.000  0.000
    occupations:
  0.628  0.014  0.000 -0.048  0.000
  0.014  0.538  0.000  0.006  0.000
  0.000  0.000  0.433 -0.000  0.015
 -0.048  0.006 -0.000  0.621 -0.000
  0.000  0.000  0.015 -0.000  0.399
atom   17   Tr[ns(na)] =   5.23556
    eigenvalues:
  0.417  0.452  0.550  0.583  0.616
    eigenvectors:
  0.000  0.005  0.000  0.993  0.002
  0.000  0.994  0.000  0.005  0.001
  1.000  0.000  0.000  0.000  0.000
  0.000  0.001  0.000  0.002  0.997
  0.000  0.000  1.000  0.000  0.000
    occupations:
  0.582  0.009  0.000  0.002  0.000
  0.009  0.453 -0.000 -0.005 -0.000
  0.000 -0.000  0.417  0.000  0.001
  0.002 -0.005  0.000  0.616  0.000
  0.000 -0.000  0.001  0.000  0.550
atom   22   Tr[ns(na)] =   5.26889
    eigenvalues:
  0.461  0.465  0.490  0.608  0.611
    eigenvectors:
  0.000  0.876  0.000  0.118  0.006
  0.000  0.000  0.000  0.047  0.953
  0.612  0.000  0.388  0.000  0.000
  0.000  0.124  0.000  0.835  0.041
  0.388  0.000  0.612  0.000  0.000
    occupations:
  0.482  0.001 -0.000  0.047 -0.000
  0.001  0.611 -0.000  0.001  0.000
 -0.000 -0.000  0.472  0.000 -0.014
  0.047  0.001  0.000  0.590  0.000
 -0.000  0.000 -0.014  0.000  0.479
atom   23   Tr[ns(na)] =   5.33856
    eigenvalues:
  0.493  0.514  0.521  0.538  0.603
    eigenvectors:
  0.000  0.000  0.000  0.005  0.995
  0.000  0.000  0.998  0.002  0.000
  1.000  0.000  0.000  0.000  0.000
  0.000  0.000  0.002  0.993  0.005
  0.000  1.000  0.000  0.000  0.000
    occupations:
  0.603 -0.000 -0.000 -0.005 -0.000
 -0.000  0.521  0.000 -0.001 -0.000
 -0.000  0.000  0.493  0.000  0.000
 -0.005 -0.001  0.000  0.539 -0.000
 -0.000 -0.000  0.000 -0.000  0.514
N of occupied +U levels =  41.8998225
 --- exit write_ns ---

     Threshold (ethr) on eigenvalues was too large:
     Diagonalizing with lowered threshold

     Davidson diagonalization with overlap
     ethr =  3.38E-09,  avg # of iterations =  2.9

[...]

     total energy              =   -1561.47370396 Ry
     Harris-Foulkes estimate   =   -1561.47370396 Ry
     estimated scf accuracy    <       0.00000002 Ry

     iteration #  9     ecut=    40.00 Ry     beta=0.70
     Davidson diagonalization with overlap
     ethr =  1.03E-11,  avg # of iterations =  1.0

     negative rho (up, down):  0.346E-02 0.000E+00

     End of self-consistent calculation
 --- enter write_ns ---
 LDA+U parameters:
U( 2)     =  1.50000000
alpha( 2) =  0.00000000
atom    3   Tr[ns(na)] =   5.23624
    eigenvalues:
  0.390  0.440  0.533  0.580  0.675
    eigenvectors:
  0.000  0.000  0.054  0.406  0.540
  0.000  0.000  0.910  0.087  0.002
  0.166  0.834  0.000  0.000  0.000
  0.000  0.000  0.035  0.507  0.458
  0.834  0.166  0.000  0.000  0.000
    occupations:
  0.629 -0.014  0.000 -0.049 -0.000
 -0.014  0.538 -0.000 -0.005  0.000
  0.000 -0.000  0.431 -0.000 -0.018
 -0.049 -0.005 -0.000  0.622  0.000
 -0.000  0.000 -0.018  0.000  0.398
atom    4   Tr[ns(na)] =   5.24163
    eigenvalues:
  0.412  0.447  0.551  0.580  0.631
    eigenvectors:
  0.000  0.005  0.000  0.994  0.001
  0.000  0.994  0.000  0.005  0.001
  1.000  0.000  0.000  0.000  0.000
  0.000  0.001  0.000  0.001  0.998
  0.000  0.000  1.000  0.000  0.000
    occupations:
  0.580  0.009  0.000  0.002 -0.000
  0.009  0.448 -0.000 -0.005  0.000
  0.000 -0.000  0.412  0.000  0.001
  0.002 -0.005  0.000  0.631  0.000
 -0.000  0.000  0.001  0.000  0.551
atom    9   Tr[ns(na)] =   5.26769
    eigenvalues:
  0.460  0.464  0.491  0.608  0.611
    eigenvectors:
  0.000  0.874  0.000  0.119  0.007
  0.000  0.000  0.000  0.056  0.944
  0.615  0.000  0.385  0.000  0.000
  0.000  0.126  0.000  0.825  0.049
  0.385  0.000  0.615  0.000  0.000
    occupations:
  0.482 -0.001 -0.000  0.048 -0.000
 -0.001  0.611 -0.000 -0.001  0.000
 -0.000 -0.000  0.472  0.000  0.015
  0.048 -0.001  0.000  0.590 -0.000
 -0.000  0.000  0.015 -0.000  0.479
atom   10   Tr[ns(na)] =   5.07467
    eigenvalues:
  0.378  0.478  0.516  0.550  0.614
    eigenvectors:
  0.000  0.000  0.976  0.000  0.023
  0.000  0.999  0.000  0.000  0.001
  1.000  0.000  0.000  0.000  0.000
  0.000  0.001  0.023  0.000  0.976
  0.000  0.000  0.000  1.000  0.000
    occupations:
  0.518  0.000  0.000  0.015 -0.000
  0.000  0.479  0.000  0.004 -0.000
  0.000  0.000  0.378 -0.000 -0.000
  0.015  0.004 -0.000  0.612 -0.000
 -0.000 -0.000 -0.000 -0.000  0.550
atom   16   Tr[ns(na)] =   5.23713
    eigenvalues:
  0.393  0.438  0.533  0.580  0.673
    eigenvectors:
  0.000  0.000  0.055  0.406  0.539
  0.000  0.000  0.909  0.089  0.002
  0.121  0.879  0.000  0.000  0.000
  0.000  0.000  0.036  0.505  0.459
  0.879  0.121  0.000  0.000  0.000
    occupations:
  0.628  0.014  0.000 -0.048  0.000
  0.014  0.538  0.000  0.006  0.000
  0.000  0.000  0.433 -0.000  0.015
 -0.048  0.006 -0.000  0.621 -0.000
  0.000  0.000  0.015 -0.000  0.399
atom   17   Tr[ns(na)] =   5.23577
    eigenvalues:
  0.417  0.452  0.550  0.583  0.616
    eigenvectors:
  0.000  0.005  0.000  0.993  0.002
  0.000  0.994  0.000  0.005  0.001
  1.000  0.000  0.000  0.000  0.000
  0.000  0.001  0.000  0.002  0.997
  0.000  0.000  1.000  0.000  0.000
    occupations:
  0.582  0.009  0.000  0.002  0.000
  0.009  0.453 -0.000 -0.005 -0.000
  0.000 -0.000  0.417  0.000  0.001
  0.002 -0.005  0.000  0.616  0.000
  0.000 -0.000  0.001  0.000  0.550
atom   22   Tr[ns(na)] =   5.26916
    eigenvalues:
  0.461  0.465  0.490  0.608  0.611
    eigenvectors:
  0.000  0.876  0.000  0.118  0.006
  0.000  0.000  0.000  0.048  0.952
  0.612  0.000  0.388  0.000  0.000
  0.000  0.124  0.000  0.835  0.041
  0.388  0.000  0.612  0.000  0.000
    occupations:
  0.482  0.001 -0.000  0.047 -0.000
  0.001  0.611 -0.000  0.001  0.000
 -0.000 -0.000  0.472  0.000 -0.014
  0.047  0.001  0.000  0.590  0.000
 -0.000  0.000 -0.014  0.000  0.479
atom   23   Tr[ns(na)] =   5.33769
    eigenvalues:
  0.493  0.514  0.521  0.538  0.603
    eigenvectors:
  0.000  0.000  0.000  0.005  0.995
  0.000  0.000  0.998  0.002  0.000
  1.000  0.000  0.000  0.000  0.000
  0.000  0.000  0.002  0.993  0.005
  0.000  1.000  0.000  0.000  0.000
    occupations:
  0.603 -0.000 -0.000 -0.005 -0.000
 -0.000  0.521  0.000 -0.001 -0.000
 -0.000  0.000  0.493  0.000  0.000
 -0.005 -0.001  0.000  0.538 -0.000
 -0.000 -0.000  0.000 -0.000  0.514
N of occupied +U levels =  41.8999781
 --- exit write_ns ---

[...]

          k = 0.2500-0.4237 0.0000 ( 32188 PWs)   bands (ev):

[...]

          k =-0.2500 0.2118 0.0000 ( 32165 PWs)   bands (ev):

   -56.8458 -56.7809 -56.4263 -56.3721 -56.3131 -56.2511 -56.1941 -55.6003
   -33.6220 -33.0509 -32.9682 -32.9402 -32.8879 -32.8825 -32.8353 -32.8072
   -32.6956 -32.6733 -32.6623 -32.6226 -32.5724 -32.5654 -32.3942 -32.3817
   -32.2535 -32.2410 -32.1930 -32.1878 -32.1464 -32.0272 -31.7274 -31.6516
   -20.9871 -20.4762 -19.8506 -19.5733 -19.4274 -19.3201 -19.2985 -19.2351
   -19.1740 -19.1416 -19.1043 -18.5936 -18.4990 -18.4948 -18.4115 -18.3871
   -18.2349 -18.0710 -16.8204  -9.4244  -8.8077  -8.0830  -7.5331  -7.2990
    -7.1671  -7.0420  -6.9837  -6.8069  -6.7174  -6.6741  -6.6101  -6.4170
    -6.3602  -6.3485  -6.2655  -6.0912  -6.0420  -5.9568  -5.8126  -5.6389
    -5.5254  -5.4215  -5.2853  -5.1255  -4.9781  -4.8997  -4.8178  -4.7416
    -4.6675  -4.6266  -4.5028  -4.4829  -4.4600  -4.3998  -4.3690  -4.3148
    -4.1476  -4.0953  -4.0178  -3.9466  -3.8632  -3.7684  -3.6825  -3.6385
    -3.5359  -3.4592  -3.3983  -3.3004  -3.2745  -3.1931  -3.0760  -2.9977
    -2.9661  -2.8091  -2.7158  -2.4723  -0.2726  -0.0341   0.1936   0.5072
     0.5562   0.8401   1.1795   1.2388   1.3035   1.5842   1.6244   1.6970
     1.8018   1.9672   2.0471   2.1199   2.1332   2.2679   2.3259   2.3555
     2.5518   2.6380   2.8080   2.8703   3.2482   3.5720   4.0978   4.1656
     4.4081   4.5920   4.6385   4.6631   4.8912   4.9783   5.0589   5.1076
     5.2210   5.2774   5.4100   5.6163   5.6497   5.7470   5.9800   6.0837
     6.2150   6.2463   6.5238   6.5557   6.5792   6.6116   6.7902   6.8960
     6.9045   7.0715   7.1975   7.2952   7.4318   7.4896   7.7996   7.9205
     8.0075   8.0318   8.1274   8.1771   8.2493   8.5101   8.6309   8.6969
     8.8106   8.8936   9.0094   9.0790   9.1631   9.2562   9.2737   9.4754
     9.5388   9.5968   9.7408   9.8562   9.9026  10.0068  10.0672  10.1484
    10.2599  10.3735  10.5646  10.7205  10.7593  10.8970  10.9684  10.9977
    11.1162  11.1431  11.2097  11.2769  11.3962  11.4405  11.5018  11.5429
    11.6451  11.7556  11.8951  11.9023  12.0025  12.1083  12.1336  12.1989
    12.2559  12.3425  12.3838  12.4697  12.5996  12.6636  12.6886  12.7342
    12.7614  12.8588  12.9578  12.9843  13.0396  13.0923  13.2227  13.2790
    13.3506  13.3857  13.5133  13.6228  13.6996  13.7457  13.7884  13.8475
    13.9160  13.9428  13.9991  14.1262  14.1514  14.2887  14.3766  14.3982
    14.4736  14.5827  14.6595  14.7717  14.9058  14.9197  15.0282  15.0986
    15.1941  15.2516  15.2918  15.3208  15.3839  15.4436  15.5241  15.5691
    15.6436  15.6945  15.7930  15.8594  15.9094  15.9954  16.0331  16.0828
    16.1987  16.2647  16.3612  16.3935  16.4604  16.4906  16.5686  16.6722
    16.7203  16.7712  16.8537  16.9374  17.0166  17.1057  17.1395  17.2116
    17.2818  17.3437  17.3646  17.4210  17.4685  17.5776  17.6163  17.7048
    17.7507  17.8514  17.9484  17.9696  18.0764  18.1386  18.1925  18.3802
    18.3855  18.4288  18.4679  18.5366  18.6128  18.6548  18.6960  18.7761
    18.8567  18.9191  18.9713  19.0758  19.1365  19.1689  19.2222  19.3262
    19.3569  19.3970  19.4865  19.5196  19.5878  19.6422  19.6556  19.6887
    19.7556  19.8808  19.9064  19.9983  20.0646

     the Fermi energy is     0.4436 ev

!    total energy              =   -1561.47370396 Ry
     Harris-Foulkes estimate   =   -1561.47370396 Ry
     estimated scf accuracy    <          2.4E-09 Ry

     The total energy is the sum of the following terms:

     one-electron contribution =  -18850.68178879 Ry
     hartree contribution      =    9450.83832189 Ry
     xc contribution           =    -286.83009268 Ry
     ewald contribution        =    8124.12679763 Ry
     Hubbard energy            =       1.07237706 Ry
     smearing contrib. (-TS)   =       0.00068093 Ry

     convergence has been achieved in   9 iterations

     Forces acting on atoms (Ry/au):

     negative rho (up, down):  0.346E-02 0.000E+00
     atom    1 type  1   force =     0.00182456   -0.00004273    0.00003321
     atom    2 type  1   force =    -0.00038950    0.00028713   -0.00040643
     atom    3 type  2   force =    -0.04654977   -0.00023717    0.00007046
     atom    4 type  2   force =    -0.00471402    0.00004753    0.00011253
     atom    5 type  1   force =    -0.00523236   -0.00915785    0.00017148
     atom    6 type  1   force =    -0.00524509    0.00913675    0.00016956
     atom    7 type  1   force =    -0.00014043    0.00003952   -0.00045315
     atom    8 type  1   force =     0.00223179    0.00000665   -0.00033102
     atom    9 type  2   force =    -0.00287545    0.00000180   -0.00000076
     atom   10 type  2   force =    -0.00056128   -0.00000542   -0.00084711
     atom   11 type  1   force =    -0.01859108   -0.01848920    0.00051413
     atom   12 type  1   force =    -0.01859326    0.01849438    0.00050597
     atom   13 type  1   force =     0.00084430   -0.00000427    0.00016663
     atom   14 type  1   force =     0.00045392   -0.00005033   -0.00016713
     atom   15 type  1   force =    -0.00041958    0.00014312    0.00094782
     atom   16 type  2   force =     0.04720903   -0.00022953    0.00017222
     atom   17 type  2   force =    -0.00438829    0.00006092    0.00003444
     atom   18 type  1   force =     0.00647903   -0.00885810    0.00015343
     atom   19 type  1   force =     0.00635580    0.00883483    0.00015236
     atom   20 type  1   force =     0.00020990    0.00010975    0.00026531
     atom   21 type  1   force =     0.00163224    0.00000343   -0.00029929
     atom   22 type  2   force =     0.00239111    0.00000977    0.00052838
     atom   23 type  2   force =     0.00126715   -0.00000143    0.00004245
     atom   24 type  1   force =     0.01848668   -0.01843828   -0.00001239
     atom   25 type  1   force =     0.01847894    0.01842873   -0.00001024
     atom   26 type  1   force =    -0.00029602   -0.00000095    0.00011448
     atom   27 type  3   force =     0.00001451   -0.00006913    0.00016516
     atom   28 type  3   force =    -0.00001079   -0.00002520   -0.00084570
     atom   29 type  3   force =     0.00000639    0.00000287    0.00004652
     atom   30 type  3   force =     0.00013961    0.00000291   -0.00007346
     atom   31 type  1   force =    -0.00001804   -0.00000048   -0.00091988

     Total force =     0.002214     Total SCF correction =     0.000192

     bfgs converged in   6 scf cycles and   5 bfgs steps
     (criteria: energy < 0.10E-03, force < 0.10E-02)

     End of BFGS Geometry Optimization

     Final energy   =   -1561.4737039597 Ry
Begin final coordinates

ATOMIC_POSITIONS (crystal)
O0       0.000000000   0.000000000   0.371631086    0   0   1
O0       0.000000000   0.500000000   0.388333208    0   0   1
Nb1      0.250000000   0.500000000   0.444621334    0   0   1
Nb1      0.000000000   0.000000000   0.444002930    0   0   1
O0       0.250000000   0.790000000   0.446209364    0   0   1
O0       0.250000000   0.210000000   0.446208922    0   0   1
O0       0.000000000   0.500000000   0.501181778    0   0   1
O0       0.000000000   0.000000000   0.522946846    0   0   1
Nb1      0.250000000   0.000000000   0.576903276    0   0   1
Nb1      0.000000000   0.500000000   0.570364857    0   0   1
O0       0.250000000   0.710000000   0.576499277    0   0   1
O0       0.250000000   0.290000000   0.576502578    0   0   1
O0       0.000000000   0.000000000   0.621164337    0   0   1
O0       0.500000000   0.000000000   0.372146268    0   0   1
O0       0.500000000   0.500000000   0.390848210    0   0   1
Nb1      0.750000000   0.500000000   0.444660019    0   0   1
Nb1      0.500000000   0.000000000   0.444894608    0   0   1
O0       0.750000000   0.790000000   0.446209802    0   0   1
O0       0.750000000   0.210000000   0.446209529    0   0   1
O0       0.500000000   0.500000000   0.495042703    0   0   1
O0       0.500000000   0.000000000   0.522640975    0   0   1
Nb1      0.750000000   0.000000000   0.577115644    0   0   1
Nb1      0.500000000   0.500000000   0.588301490    0   0   1
O0       0.750000000   0.710000000   0.576285854    0   0   1
O0       0.750000000   0.290000000   0.576285721    0   0   1
O0       0.500000000   0.000000000   0.621118072    0   0   1
H2      -0.000481854   0.501495484   0.352040882
H2       0.499490819   0.501419971   0.354642575
H2       0.150096037   0.000372835   0.355560562
H2       0.649322161   0.000373305   0.355806109
O0       0.500014382   0.500003846   0.651911184
End final coordinates

     General routines

     Parallel routines
     Hubbard U routines

   This run was terminated on:   1:14:33   1May2014

   JOB DONE.
Running PBS batch system epilogue script
Job id: 340572.audhumbla.fysik.dtu.dk
Username: zhonxu
Groupname: campgst
Jobname: NbO2/Eads-2-layers/O-U-1.5
Sessionid: 26937
Queuename: verylong
Accounting:
This job has allocated the following 16 nodes:
d070 d070 d070 d070 d070 d070 d070 d070 d026 d026 d026 d026 d026 d026 d026 d026
Finished epilogue job 340572.audhumbla.fysik.dtu.dk for zhonxu