     Program PWSCF v.5.0.2 (svn rev. 9656) starts on 23Jan2014 at 19:34:53

     Current dimensions of program PWSCF are:
     Max number of different atomic species (ntypx) = 10
     Max number of k-points (npk) =  40000
     Max angular momentum in pseudopotentials (lmaxx) =  3
     Reading input from ReO2-v-0.9.in

     Subspace diagonalization in iterative solution of the eigenvalue problem:
     a serial algorithm will be used

     bravais-lattice index     =            0
     lattice parameter (alat)  =       8.3602  a.u.
     unit-cell volume          =     376.5571 (a.u.)^3
     number of atoms/cell      =            6
     number of atomic types    =            2
     number of electrons       =        54.00
     number of Kohn-Sham states=           81
     kinetic-energy cutoff     =      40.0000  Ry
     charge density cutoff     =     500.0000  Ry
     convergence threshold     =      1.0E-06
     mixing beta               =       0.7000
     number of iterations used =            8  plain     mixing
     Exchange-correlation      = SLA  PW   PBE  PBE ( 1 4 3 4 0)
     EXX-fraction              =        0.00
     nstep                     =           50

     celldm(1)=   8.360170  celldm(2)=   0.000000  celldm(3)=   0.000000
     celldm(4)=   0.000000  celldm(5)=   0.000000  celldm(6)=   0.000000

     crystal axes: (cart. coord. in units of alat)
               a(1) = (   1.000000   0.000000   0.000000 )
               a(2) = (   0.000000   1.000000   0.000000 )
               a(3) = (   0.000000   0.000000   0.644444 )

     reciprocal axes: (cart. coord. in units 2 pi/alat)
               b(1) = (  1.000000  0.000000  0.000000 )
               b(2) = (  0.000000  1.000000  0.000000 )
               b(3) = (  0.000000  0.000000  1.551724 )

     PseudoPot. # 1 for Re read from file:
     /home/camp/zhonxu/pseudo/re_pbe_v1.uspp.F.UPF
     MD5 check sum: 6f5a5dcaf9c96c20d0ffdde0de57afc6
     Pseudo is Ultrasoft + core correction, Zval = 15.0
     Generated by new atomic code, or converted to UPF format
     Using radial grid of  981 points,  8 beta functions with:
                l(1) =   0
                l(2) =   0
                l(3) =   1
                l(4) =   1
                l(5) =   2
                l(6) =   2
                l(7) =   3
                l(8) =   3
     Q(r) pseudized with  8 coefficients,  rinner =    1.000   1.000   1.000
                                                       1.000   1.000   1.000
                                                       1.000

     PseudoPot. # 2 for O  read from file:
     /home/camp/zhonxu/pseudo/o_pbe_v1.01.uspp.F.UPF
     MD5 check sum: 2bcb18d16ea4b960afae9ec6d52f22d2
     Pseudo is Ultrasoft + core correction, Zval =  6.0
     Generated by new atomic code, or converted to UPF format
     Using radial grid of  737 points,  5 beta functions with:
                l(1) =   0
                l(2) =   0
                l(3) =   1
                l(4) =   1
                l(5) =   2
     Q(r) pseudized with  8 coefficients,  rinner =    0.900   0.900   0.900
                                                       0.900   0.900

     atomic species   valence    mass     pseudopotential
        Re0           15.00   186.20700     Re( 1.00)
        O1             6.00    15.99940     O ( 1.00)

     Starting magnetic structure
     atomic species   magnetization
        Re0          0.600
        O1           0.000

     16 Sym. Ops., with inversion, found ( 8 have fractional translation)

   Cartesian axes

     site n.     atom                  positions (alat units)
         1           Re0 tau(   1) = (   0.0000000   0.0000000   0.0000000  )
         2           Re0 tau(   2) = (   0.5000000   0.5000000   0.3222222  )
         3           O1  tau(   3) = (   0.3050000   0.3050000   0.0000000  )
         4           O1  tau(   4) = (  -0.3050000  -0.3050000   0.0000000  )
         5           O1  tau(   5) = (   0.8050000   0.1950000   0.3222222  )
         6           O1  tau(   6) = (   0.1950000   0.8050000   0.3222222  )

     number of k points=    36  Methfessel-Paxton smearing, width (Ry)=  0.0100
                       cart. coord. in units 2pi/alat
        k(    1) = (   0.0000000   0.0000000   0.0000000), wk =   0.0080000
        k(    2) = (   0.0000000   0.0000000   0.3103448), wk =   0.0160000
        k(    3) = (   0.0000000   0.0000000   0.6206897), wk =   0.0160000
        k(    4) = (   0.0000000   0.2000000   0.0000000), wk =   0.0320000
        k(    5) = (   0.0000000   0.2000000   0.3103448), wk =   0.0640000
        k(    6) = (   0.0000000   0.2000000   0.6206897), wk =   0.0640000
        k(    7) = (   0.0000000   0.4000000   0.0000000), wk =   0.0320000
        k(    8) = (   0.0000000   0.4000000   0.3103448), wk =   0.0640000
        k(    9) = (   0.0000000   0.4000000   0.6206897), wk =   0.0640000
        k(   10) = (   0.2000000   0.2000000   0.0000000), wk =   0.0320000
        k(   11) = (   0.2000000   0.2000000   0.3103448), wk =   0.0640000
        k(   12) = (   0.2000000   0.2000000   0.6206897), wk =   0.0640000
        k(   13) = (   0.2000000   0.4000000   0.0000000), wk =   0.0640000
        k(   14) = (   0.2000000   0.4000000   0.3103448), wk =   0.1280000
        k(   15) = (   0.2000000   0.4000000   0.6206897), wk =   0.1280000
        k(   16) = (   0.4000000   0.4000000   0.0000000), wk =   0.0320000
        k(   17) = (   0.4000000   0.4000000   0.3103448), wk =   0.0640000
        k(   18) = (   0.4000000   0.4000000   0.6206897), wk =   0.0640000
        k(   19) = (   0.0000000   0.0000000   0.0000000), wk =   0.0080000
        k(   20) = (   0.0000000   0.0000000   0.3103448), wk =   0.0160000
        k(   21) = (   0.0000000   0.0000000   0.6206897), wk =   0.0160000
        k(   22) = (   0.0000000   0.2000000   0.0000000), wk =   0.0320000
        k(   23) = (   0.0000000   0.2000000   0.3103448), wk =   0.0640000
        k(   24) = (   0.0000000   0.2000000   0.6206897), wk =   0.0640000
        k(   25) = (   0.0000000   0.4000000   0.0000000), wk =   0.0320000
        k(   26) = (   0.0000000   0.4000000   0.3103448), wk =   0.0640000
        k(   27) = (   0.0000000   0.4000000   0.6206897), wk =   0.0640000
        k(   28) = (   0.2000000   0.2000000   0.0000000), wk =   0.0320000
        k(   29) = (   0.2000000   0.2000000   0.3103448), wk =   0.0640000
        k(   30) = (   0.2000000   0.2000000   0.6206897), wk =   0.0640000
        k(   31) = (   0.2000000   0.4000000   0.0000000), wk =   0.0640000
        k(   32) = (   0.2000000   0.4000000   0.3103448), wk =   0.1280000
        k(   33) = (   0.2000000   0.4000000   0.6206897), wk =   0.1280000
        k(   34) = (   0.4000000   0.4000000   0.0000000), wk =   0.0320000
        k(   35) = (   0.4000000   0.4000000   0.3103448), wk =   0.0640000
        k(   36) = (   0.4000000   0.4000000   0.6206897), wk =   0.0640000

     Largest allocated arrays     est. size (Mb)     dimensions
     Largest temporary arrays     est. size (Mb)     dimensions

     Check: negative/imaginary core charge=   -0.000004    0.000000

     Initial potential from superposition of free atoms
     Check: negative starting charge=(component1):   -0.046008
     Check: negative starting charge=(component2):   -0.011068

     starting charge   52.99990, renormalised to   54.00000

     negative rho (up, down):  0.469E-01 0.113E-01
     Starting wfc are   42 randomized atomic wfcs

     Self-consistent Calculation

     iteration #  1     ecut=    40.00 Ry     beta=0.70
     Davidson diagonalization with overlap
     ethr =  1.00E-02,  avg # of iterations =  5.1

     negative rho (up, down):  0.173E-01 0.502E-01

     total energy              =    -517.36364265 Ry
     Harris-Foulkes estimate   =    -517.56089086 Ry
     estimated scf accuracy    <       2.20352554 Ry

     total magnetization       =     5.85 Bohr mag/cell
     absolute magnetization    =     6.05 Bohr mag/cell

[...]

     End of self-consistent calculation

 ------ SPIN UP ------------

          k = 0.0000 0.0000 0.0000 (  1623 PWs)   bands (ev):

   -62.7657 -62.7572 -24.9330 -24.9330 -24.8291 -24.7713 -24.7214 -24.7214
    -4.8630  -3.6170  -1.7748  -1.7748   6.7742   6.9848   8.2674   9.1496
     9.1496  11.8846  11.8846  12.5549  13.7342  13.8979  13.8979  14.5518
    16.5752  16.6873  17.6509  17.7889  17.7889  22.0010  22.1733  22.9213
    25.7060  25.7060  26.8642  26.8642  27.5801  31.0468  31.9464  33.0682
    34.0358  34.6169  35.7543  35.7543  38.3124  38.6320  39.2229  39.2229
    40.2939  40.2939  41.2812  46.3119  46.3119  46.3336  47.0362  47.2407
    49.0365  50.0392  50.0392  50.7570  50.8820  50.8820  51.6097  52.4091
    52.5858  52.9544  53.5437  53.5437  56.4936  58.3315  58.8826  58.8826
    59.9607  59.9607  60.1253  60.3094  60.7484  60.7820  60.8244  60.8244
    62.3622

[...]

 ------ SPIN DOWN ----------

[...]

     the Fermi energy is    18.7986 ev

!    total energy              =    -518.27418484 Ry
     Harris-Foulkes estimate   =    -518.27418440 Ry
     estimated scf accuracy    <       0.00000036 Ry

     The total energy is the sum of the following terms:

     one-electron contribution =     -93.89753487 Ry
     hartree contribution      =      84.16929291 Ry
     xc contribution           =    -143.68277562 Ry
     ewald contribution        =    -364.86293370 Ry
     smearing contrib. (-TS)   =      -0.00023356 Ry

[...]

     convergence has been achieved in  13 iterations

     Forces acting on atoms (Ry/au):

     negative rho (up, down):  0.270E-01 0.298E-01
     atom    1 type  1   force =     0.00000000    0.00000000    0.00000000
     atom    2 type  1   force =     0.00000000    0.00000000    0.00000000
     atom    3 type  2   force =    -0.10531991   -0.10531991    0.00000000
     atom    4 type  2   force =     0.10531991    0.10531991   -0.00000000
     atom    5 type  2   force =    -0.10531991    0.10531991    0.00000000
     atom    6 type  2   force =     0.10531991   -0.10531991    0.00000000

     Total force =     0.297890     Total SCF correction =     0.000185

     entering subroutine stress ...

     negative rho (up, down):  0.270E-01 0.298E-01
          total   stress  (Ry/bohr**3)                   (kbar)     P=  820.24
   0.00529652   0.00000000   0.00000000        779.15      0.00      0.00
   0.00000000   0.00529652   0.00000000          0.00    779.15      0.00
   0.00000000   0.00000000   0.00613461          0.00      0.00    902.43

     Volume is kept fixed: isostatic pressure set to zero

     BFGS Geometry Optimization

     number of scf cycles    =   1
     number of bfgs steps    =   0

     enthalpy new            =    -518.2741848353 Ry

     new trust radius        =       0.1489448470 bohr
     new conv_thr            =       0.0000010000 Ry

     new unit-cell volume =    376.55707 a.u.^3 (    55.80000 Ang^3 )

CELL_PARAMETERS (alat=  8.36016997)
   0.993064121   0.000000000   0.000000000
   0.000000000   0.993064121   0.000000000
   0.000000000   0.000000000   0.653477895

ATOMIC_POSITIONS (crystal)
Re0      0.000000000   0.000000000   0.000000000    0   0   0
[...]
        k(   32) = (   0.2013969   0.4027937   0.3060547), wk =   0.1280000
        k(   33) = (   0.2013969   0.4027937   0.6121095), wk =   0.1280000
        k(   34) = (   0.4027937   0.4027937   0.0000000), wk =   0.0320000
        k(   35) = (   0.4027937   0.4027937   0.3060547), wk =   0.0640000
        k(   36) = (   0.4027937   0.4027937   0.6121095), wk =   0.0640000

     Check: negative/imaginary core charge=   -0.000004    0.000000
     Check: negative starting charge=(component1):   -0.056902

[...]

     enthalpy old            =    -518.2741848353 Ry
     enthalpy new            =    -518.3036236494 Ry

     CASE: enthalpy_new < enthalpy_old

[...]

     CASE: enthalpy_new > enthalpy_old

[...]

     Threshold (ethr) on eigenvalues was too large:
     Diagonalizing with lowered threshold

     Davidson diagonalization with overlap
     ethr =  2.50E-09,  avg # of iterations =  1.1

[...]

     number of scf cycles    =   8
     number of bfgs steps    =   6

     enthalpy old            =    -518.4101381976 Ry
     enthalpy new            =    -518.4101483738 Ry

     CASE: enthalpy_new < enthalpy_old

     new trust radius        =       0.0007406625 bohr
     new conv_thr            =       0.0000000100 Ry

     new unit-cell volume =    376.55707 a.u.^3 (    55.80000 Ang^3 )

[...]

ATOMIC_POSITIONS (crystal)
Re0      0.000000000   0.000000000   0.000000000    0   0   0
Re0      0.500000000   0.500000000   0.500000000    0   0   0
O1       0.278892554   0.278892554   0.000000000    1   1   0
O1      -0.278892554  -0.278892554   0.000000000    1   1   0
O1       0.778892554   0.221107446   0.500000000    1   1   0
O1       0.221107446   0.778892554   0.500000000    1   1   0

     Check: negative starting charge=(component1):   -0.057123
     NEW-OLD atomic charge density approx. for the potential
     NEW k-points:
        k(    1) = (   0.0000000   0.0000000   0.0000000), wk =   0.0080000
        k(    2) = (   0.0000000   0.0000000   0.3523384), wk =   0.0160000
        k(    3) = (   0.0000000   0.0000000   0.7046768), wk =   0.0160000
        k(    4) = (   0.0000000   0.1877035   0.0000000), wk =   0.0320000
        k(    5) = (   0.0000000   0.1877035   0.3523384), wk =   0.0640000
        k(    6) = (   0.0000000   0.1877035   0.7046768), wk =   0.0640000
        k(    7) = (   0.0000000   0.3754069   0.0000000), wk =   0.0320000
        k(    8) = (   0.0000000   0.3754069   0.3523384), wk =   0.0640000
        k(    9) = (   0.0000000   0.3754069   0.7046768), wk =   0.0640000
        k(   10) = (   0.1877035   0.1877035   0.0000000), wk =   0.0320000
        k(   11) = (   0.1877035   0.1877035   0.3523384), wk =   0.0640000
        k(   12) = (   0.1877035   0.1877035   0.7046768), wk =   0.0640000
        k(   13) = (   0.1877035   0.3754069   0.0000000), wk =   0.0640000
        k(   14) = (   0.1877035   0.3754069   0.3523384), wk =   0.1280000
        k(   15) = (   0.1877035   0.3754069   0.7046768), wk =   0.1280000
        k(   16) = (   0.3754069   0.3754069   0.0000000), wk =   0.0320000
        k(   17) = (   0.3754069   0.3754069   0.3523384), wk =   0.0640000
        k(   18) = (   0.3754069   0.3754069   0.7046768), wk =   0.0640000
        k(   19) = (   0.0000000   0.0000000   0.0000000), wk =   0.0080000
        k(   20) = (   0.0000000   0.0000000   0.3523384), wk =   0.0160000
        k(   21) = (   0.0000000   0.0000000   0.7046768), wk =   0.0160000
        k(   22) = (   0.0000000   0.1877035   0.0000000), wk =   0.0320000
        k(   23) = (   0.0000000   0.1877035   0.3523384), wk =   0.0640000
        k(   24) = (   0.0000000   0.1877035   0.7046768), wk =   0.0640000
        k(   25) = (   0.0000000   0.3754069   0.0000000), wk =   0.0320000
        k(   26) = (   0.0000000   0.3754069   0.3523384), wk =   0.0640000
        k(   27) = (   0.0000000   0.3754069   0.7046768), wk =   0.0640000
        k(   28) = (   0.1877035   0.1877035   0.0000000), wk =   0.0320000
        k(   29) = (   0.1877035   0.1877035   0.3523384), wk =   0.0640000
        k(   30) = (   0.1877035   0.1877035   0.7046768), wk =   0.0640000
        k(   31) = (   0.1877035   0.3754069   0.0000000), wk =   0.0640000
        k(   32) = (   0.1877035   0.3754069   0.3523384), wk =   0.1280000
        k(   33) = (   0.1877035   0.3754069   0.7046768), wk =   0.1280000
        k(   34) = (   0.3754069   0.3754069   0.0000000), wk =   0.0320000
        k(   35) = (   0.3754069   0.3754069   0.3523384), wk =   0.0640000
        k(   36) = (   0.3754069   0.3754069   0.7046768), wk =   0.0640000

     Check: negative/imaginary core charge=   -0.000003    0.000000
     Check: negative starting charge=(component1):   -0.057124

[...]

     Threshold (ethr) on eigenvalues was too large:
     Diagonalizing with lowered threshold

     Davidson diagonalization with overlap
     ethr =  8.61E-10,  avg # of iterations =  1.4

[...]

     Total force =     0.000042     Total SCF correction =     0.000015
     SCF correction compared to forces is large: reduce conv_thr to get better values

[...]

     Volume is kept fixed: isostatic pressure set to zero

     bfgs converged in   9 scf cycles and   7 bfgs steps
     (criteria: energy < 0.10E-03, force < 0.10E-02, cell < 0.50E+00)

     End of BFGS Geometry Optimization

     Final enthalpy =    -518.4101503756 Ry
Begin final coordinates
     new unit-cell volume =    376.55707 a.u.^3 (    55.80000 Ang^3 )

CELL_PARAMETERS (alat=  8.36016997)
   1.065510496   0.000000000   0.000000000
   0.000000000   1.065510496   0.000000000
   0.000000000   0.000000000   0.567636116

ATOMIC_POSITIONS (crystal)
Re0      0.000000000   0.000000000   0.000000000    0   0   0
Re0      0.500000000   0.500000000   0.500000000    0   0   0
O1       0.278892554   0.278892554   0.000000000    1   1   0
O1      -0.278892554  -0.278892554   0.000000000    1   1   0
O1       0.778892554   0.221107446   0.500000000    1   1   0
O1       0.221107446   0.778892554   0.500000000    1   1   0
End final coordinates

     A final scf calculation at the relaxed structure.
     The G-vectors are recalculated for the final unit cell
     Results may differ from those at the preceding step.

     bravais-lattice index     =            0
     lattice parameter (alat)  =       8.3602  a.u.
     unit-cell volume          =     376.5571 (a.u.)^3
     number of atoms/cell      =            6
     number of atomic types    =            2
     number of electrons       =        54.00
     number of Kohn-Sham states=           81
     kinetic-energy cutoff     =      40.0000  Ry
     charge density cutoff     =     500.0000  Ry
     convergence threshold     =      1.0E-08
     mixing beta               =       0.7000
     number of iterations used =            8  plain     mixing
     Exchange-correlation      = SLA  PW   PBE  PBE ( 1 4 3 4 0)
     EXX-fraction              =        0.00

     celldm(1)=   8.360170  celldm(2)=   0.000000  celldm(3)=   0.000000
     celldm(4)=   0.000000  celldm(5)=   0.000000  celldm(6)=   0.000000

     crystal axes: (cart. coord. in units of alat)
               a(1) = (   1.065510   0.000000   0.000000 )
               a(2) = (   0.000000   1.065510   0.000000 )
               a(3) = (   0.000000   0.000000   0.567636 )

     reciprocal axes: (cart. coord. in units 2 pi/alat)
               b(1) = (  0.938517  0.000000  0.000000 )
               b(2) = (  0.000000  0.938517  0.000000 )
               b(3) = (  0.000000  0.000000  1.761692 )

     PseudoPot. # 1 for Re read from file:
     /home/camp/zhonxu/pseudo/re_pbe_v1.uspp.F.UPF
     MD5 check sum: 6f5a5dcaf9c96c20d0ffdde0de57afc6
     Pseudo is Ultrasoft + core correction, Zval = 15.0
     Generated by new atomic code, or converted to UPF format
     Using radial grid of  981 points,  8 beta functions with:
                l(1) =   0
                l(2) =   0
                l(3) =   1
                l(4) =   1
                l(5) =   2
                l(6) =   2
                l(7) =   3
                l(8) =   3
     Q(r) pseudized with  8 coefficients,  rinner =    1.000   1.000   1.000
                                                       1.000   1.000   1.000
                                                       1.000

     PseudoPot. # 2 for O  read from file:
     /home/camp/zhonxu/pseudo/o_pbe_v1.01.uspp.F.UPF
     MD5 check sum: 2bcb18d16ea4b960afae9ec6d52f22d2
     Pseudo is Ultrasoft + core correction, Zval =  6.0
     Generated by new atomic code, or converted to UPF format
     Using radial grid of  737 points,  5 beta functions with:
                l(1) =   0
                l(2) =   0
                l(3) =   1
                l(4) =   1
                l(5) =   2
     Q(r) pseudized with  8 coefficients,  rinner =    0.900   0.900   0.900
                                                       0.900   0.900

     atomic species   valence    mass     pseudopotential
        Re0           15.00   186.20700     Re( 1.00)
        O1             6.00    15.99940     O ( 1.00)

     Starting magnetic structure
     atomic species   magnetization
        Re0          0.600
        O1           0.000

     16 Sym. Ops., with inversion, found ( 8 have fractional translation)

   Cartesian axes

     site n.     atom                  positions (alat units)
         1           Re0 tau(   1) = (   0.0000000   0.0000000   0.0000000  )
         2           Re0 tau(   2) = (   0.5327552   0.5327552   0.2838181  )
         3           O1  tau(   3) = (   0.2971629   0.2971629   0.0000000  )
         4           O1  tau(   4) = (  -0.2971629  -0.2971629   0.0000000  )
         5           O1  tau(   5) = (   0.8299182   0.2355923   0.2838181  )
         6           O1  tau(   6) = (   0.2355923   0.8299182   0.2838181  )

     number of k points=    36  Methfessel-Paxton smearing, width (Ry)=  0.0100
                       cart. coord. in units 2pi/alat
        k(    1) = (   0.0000000   0.0000000   0.0000000), wk =   0.0080000
        k(    2) = (   0.0000000   0.0000000   0.3523384), wk =   0.0160000
        k(    3) = (   0.0000000   0.0000000   0.7046768), wk =   0.0160000
        k(    4) = (   0.0000000   0.1877035   0.0000000), wk =   0.0320000
        k(    5) = (   0.0000000   0.1877035   0.3523384), wk =   0.0640000
        k(    6) = (   0.0000000   0.1877035   0.7046768), wk =   0.0640000
        k(    7) = (   0.0000000   0.3754069   0.0000000), wk =   0.0320000
        k(    8) = (   0.0000000   0.3754069   0.3523384), wk =   0.0640000
        k(    9) = (   0.0000000   0.3754069   0.7046768), wk =   0.0640000
        k(   10) = (   0.1877035   0.1877035   0.0000000), wk =   0.0320000
        k(   11) = (   0.1877035   0.1877035   0.3523384), wk =   0.0640000
        k(   12) = (   0.1877035   0.1877035   0.7046768), wk =   0.0640000
        k(   13) = (   0.1877035   0.3754069   0.0000000), wk =   0.0640000
        k(   14) = (   0.1877035   0.3754069   0.3523384), wk =   0.1280000
        k(   15) = (   0.1877035   0.3754069   0.7046768), wk =   0.1280000
        k(   16) = (   0.3754069   0.3754069   0.0000000), wk =   0.0320000
        k(   17) = (   0.3754069   0.3754069   0.3523384), wk =   0.0640000
        k(   18) = (   0.3754069   0.3754069   0.7046768), wk =   0.0640000
        k(   19) = (   0.0000000   0.0000000   0.0000000), wk =   0.0080000
        k(   20) = (   0.0000000   0.0000000   0.3523384), wk =   0.0160000
        k(   21) = (   0.0000000   0.0000000   0.7046768), wk =   0.0160000
        k(   22) = (   0.0000000   0.1877035   0.0000000), wk =   0.0320000
        k(   23) = (   0.0000000   0.1877035   0.3523384), wk =   0.0640000
        k(   24) = (   0.0000000   0.1877035   0.7046768), wk =   0.0640000
        k(   25) = (   0.0000000   0.3754069   0.0000000), wk =   0.0320000
        k(   26) = (   0.0000000   0.3754069   0.3523384), wk =   0.0640000
        k(   27) = (   0.0000000   0.3754069   0.7046768), wk =   0.0640000
        k(   28) = (   0.1877035   0.1877035   0.0000000), wk =   0.0320000
        k(   29) = (   0.1877035   0.1877035   0.3523384), wk =   0.0640000
        k(   30) = (   0.1877035   0.1877035   0.7046768), wk =   0.0640000
        k(   31) = (   0.1877035   0.3754069   0.0000000), wk =   0.0640000
        k(   32) = (   0.1877035   0.3754069   0.3523384), wk =   0.1280000
        k(   33) = (   0.1877035   0.3754069   0.7046768), wk =   0.1280000
        k(   34) = (   0.3754069   0.3754069   0.0000000), wk =   0.0320000
        k(   35) = (   0.3754069   0.3754069   0.3523384), wk =   0.0640000
        k(   36) = (   0.3754069   0.3754069   0.7046768), wk =   0.0640000

     Largest allocated arrays     est. size (Mb)     dimensions
     Largest temporary arrays     est. size (Mb)     dimensions

     Check: negative/imaginary core charge=   -0.000004    0.000000

     Initial potential from superposition of free atoms
     Check: negative starting charge=(component1):   -0.046078
     Check: negative starting charge=(component2):   -0.011132

     starting charge   52.99990, renormalised to   54.00000

     negative rho (up, down):  0.469E-01 0.113E-01
     Starting wfc are   42 randomized atomic wfcs

     Self-consistent Calculation

[...]

     total energy              =    -518.41257319 Ry
     Harris-Foulkes estimate   =    -518.41257314 Ry
     estimated scf accuracy    <       0.00000002 Ry

[...]

     iteration # 11     ecut=    40.00 Ry     beta=0.70
     Davidson diagonalization with overlap
     ethr =  3.09E-11,  avg # of iterations =  2.4

     negative rho (up, down):  0.297E-01 0.297E-01

     End of self-consistent calculation

 ------ SPIN UP ------------

[...]

 ------ SPIN DOWN ----------

[...]

          k = 0.3754 0.3754 0.7047 (  1607 PWs)   bands (ev):

   -63.2911 -63.2910 -26.0642 -26.0634 -25.3877 -25.3831 -25.3197 -25.3163
    -3.0264  -2.7133  -2.4208  -2.0475   8.1144   8.6425   8.7313   9.1225
     9.4710  10.1143  10.3544  11.4011  12.2648  12.5193  13.6408  13.8611
    16.8269  17.0790  18.3342  18.7895  20.8221  20.9610  23.1369  24.2650
    24.6779  25.4717  27.4249  27.6544  28.7443  28.9069  32.4273  32.4485
    34.7023  34.7174  34.8754  35.1052  37.5193  38.1872  38.7167  39.3832
    42.2228  42.4702  43.0740  43.3601  45.7323  46.3167  47.2029  47.8723
    47.9420  48.3047  49.7765  50.4418  51.0796  51.4959  52.1237  52.1743
    52.8053  53.7247  53.8547  54.5051  55.5650  56.0076  56.2564  56.4823
    58.1378  59.0792  61.1396  62.1762  62.5998  62.8727  63.8555  64.0657
    65.3938

     the Fermi energy is    18.5863 ev

!    total energy              =    -518.41257322 Ry
     Harris-Foulkes estimate   =    -518.41257322 Ry
     estimated scf accuracy    <          1.5E-09 Ry

     The total energy is the sum of the following terms:

     one-electron contribution =     -99.69214338 Ry
     hartree contribution      =      86.55011670 Ry
     xc contribution           =    -143.58809755 Ry
     ewald contribution        =    -361.68218476 Ry
     smearing contrib. (-TS)   =      -0.00026423 Ry

     total magnetization       =     0.00 Bohr mag/cell
     absolute magnetization    =     0.00 Bohr mag/cell

     convergence has been achieved in  11 iterations

     Forces acting on atoms (Ry/au):

     negative rho (up, down):  0.297E-01 0.297E-01
     atom    1 type  1   force =     0.00000000    0.00000000    0.00000000
     atom    2 type  1   force =     0.00000000    0.00000000    0.00000000
     atom    3 type  2   force =    -0.00019472   -0.00019472   -0.00000000
     atom    4 type  2   force =     0.00019472    0.00019472    0.00000000
     atom    5 type  2   force =    -0.00019472    0.00019472    0.00000000
     atom    6 type  2   force =     0.00019472   -0.00019472   -0.00000000

     Total force =     0.000551     Total SCF correction =     0.000016

     entering subroutine stress ...

     negative rho (up, down):  0.297E-01 0.297E-01
          total   stress  (Ry/bohr**3)                   (kbar)     P=  685.35
   0.00468651   0.00000000   0.00000000        689.41      0.00      0.00
   0.00000000   0.00468651   0.00000000          0.00    689.41      0.00
   0.00000000   0.00000000   0.00460369          0.00      0.00    677.23

     General routines

     Parallel routines

   This run was terminated on:  20: 7:21  23Jan2014

   JOB DONE.
Running PBS batch system epilogue script
Job id: 251217.audhumbla.fysik.dtu.dk
Username: zhonxu
Groupname: campgst
Jobname: ReO2/coarse-EOS/ReO2-v-0.9
Sessionid: 25042
Queuename: verylong
Accounting:
This job has allocated the following 4 nodes:
q130 q130 q130 q130
Finished epilogue job 251217.audhumbla.fysik.dtu.dk for zhonxu