     Program PWSCF v.5.0.2 (svn rev. 9656) starts on 31May2014 at  7:51:28

     Current dimensions of program PWSCF are:
     Max number of different atomic species (ntypx) = 10
     Max number of k-points (npk) =  40000
     Max angular momentum in pseudopotentials (lmaxx) =  3
     Reading input from pwscf.in
Warning: card &CELL ignored
Warning: card / ignored

     Subspace diagonalization in iterative solution of the eigenvalue problem:
     a serial algorithm will be used

     bravais-lattice index     =            0
     lattice parameter (alat)  =      12.2076  a.u.
     unit-cell volume          =    7496.5096 (a.u.)^3
     number of atoms/cell      =           33
     number of atomic types    =            3
     number of electrons       =       253.00
     number of Kohn-Sham states=          379
     kinetic-energy cutoff     =      40.0000  Ry
     charge density cutoff     =     500.0000  Ry
     convergence threshold     =      1.0E-06
     mixing beta               =       0.7000
     number of iterations used =            8  plain     mixing
     Exchange-correlation      = SLA  PW   PBE  PBE ( 1 4 3 4 0)
     EXX-fraction              =        0.00
     nstep                     =           50

     celldm(1)=  12.207631  celldm(2)=   0.000000  celldm(3)=   0.000000
     celldm(4)=   0.000000  celldm(5)=   0.000000  celldm(6)=   0.000000

     crystal axes: (cart. coord. in units of alat)
               a(1) = (   1.000000   0.000000   0.000000 )
               a(2) = (   0.000000   1.004836   0.000000 )
               a(3) = (   0.000000   0.000000   4.100811 )

     reciprocal axes: (cart. coord. in units 2 pi/alat)
               b(1) = (  1.000000  0.000000  0.000000 )
               b(2) = (  0.000000  0.995187  0.000000 )
               b(3) = (  0.000000  0.000000  0.243854 )

     PseudoPot. # 1 for O  read from file:
     /home/camp/zhonxu/pseudo/o_pbe_v1.01.uspp.F.UPF
     MD5 check sum: 2bcb18d16ea4b960afae9ec6d52f22d2
     Pseudo is Ultrasoft + core correction, Zval =  6.0
     Generated by new atomic code, or converted to UPF format
     Using radial grid of  737 points,  5 beta functions with:
                l(1) =   0
                l(2) =   0
                l(3) =   1
                l(4) =   1
                l(5) =   2
     Q(r) pseudized with  8 coefficients,  rinner =    0.900   0.900   0.900
                                                       0.900   0.900

     PseudoPot. # 2 for Pt read from file:
     /home/camp/zhonxu/pseudo/pt_pbe_v1.uspp.F.UPF
     MD5 check sum: 4c71d6ad5ef119f1eb26a4d0b7884226
     Pseudo is Ultrasoft + core correction, Zval = 16.0
     Generated by new atomic code, or converted to UPF format
     Using radial grid of  985 points,  6 beta functions with:
                l(1) =   0
                l(2) =   0
                l(3) =   1
                l(4) =   1
                l(5) =   2
                l(6) =   2
     Q(r) pseudized with  8 coefficients,  rinner =    1.300   1.300   1.300
                                                       1.300   1.300

     PseudoPot. # 3 for H  read from file:
     /home/camp/zhonxu/pseudo/h_pbe_v1.uspp.F.UPF
     MD5 check sum: 3408e3ff4ec8b0a4e358431e7e038a48
     Pseudo is Ultrasoft, Zval =  1.0
     Generated by new atomic code, or converted to UPF format
     Using radial grid of  615 points,  2 beta functions with:
                l(1) =   0
                l(2) =   0
     Q(r) pseudized with  8 coefficients,  rinner =    0.700

     atomic species   valence    mass     pseudopotential
        O0             6.00    15.99940     O ( 1.00)
        Pt1           16.00   195.08000     Pt( 1.00)
        H2             1.00     1.00794     H ( 1.00)

     Simplified LDA+U calculation (l_max = 2) with parameters (eV):
     atomic species    L          U    alpha       J0     beta
        Pt1            2     6.5000   0.0000   0.0000   0.0000

     No symmetry found

   Cartesian axes

     site n.     atom                  positions (alat units)
         1           O0  tau(   1) = (   0.0000000   0.0000000   1.5494095  )
         2           O0  tau(   2) = (   0.0000000   0.5024180   1.6475009  )
         3           Pt1 tau(   3) = (   0.2500000   0.5024180   1.8504910  )
         4           Pt1 tau(   4) = (   0.0000000   0.0000000   1.8570523  )
         5           O0  tau(   5) = (   0.2500000   0.8139171   1.8187098  )
         6           O0  tau(   6) = (   0.2500000   0.1909188   1.8864142  )
         7           O0  tau(   7) = (   0.0000000   0.5024180   2.0369959  )
         8           O0  tau(   8) = (   0.0000000   0.0000000   2.1720357  )
         9           Pt1 tau(   9) = (   0.2500000   0.0000000   2.3614521  )
        10           Pt1 tau(  10) = (   0.0000000   0.5024180   2.3598528  )
        11           O0  tau(  11) = (   0.2500000   0.6933368   2.3268823  )
        12           O0  tau(  12) = (   0.2500000   0.3114991   2.4033624  )
        13           O0  tau(  13) = (   0.0000000   0.0000000   2.5482851  )
        14           O0  tau(  14) = (   0.5000000   0.0000000   1.5485073  )
        15           O0  tau(  15) = (   0.5000000   0.5024180   1.6434821  )
        16           Pt1 tau(  16) = (   0.7500000   0.5024180   1.8504910  )
        17           Pt1 tau(  17) = (   0.5000000   0.0000000   1.8561092  )
        18           O0  tau(  18) = (   0.7500000   0.8139171   1.8187918  )
        19           O0  tau(  19) = (   0.7500000   0.1909188   1.8863321  )
        20           O0  tau(  20) = (   0.5000000   0.5024180   2.0428191  )
        21           O0  tau(  21) = (   0.5000000   0.0000000   2.1708874  )
        22           Pt1 tau(  22) = (   0.7500000   0.0000000   2.3614521  )
        23           Pt1 tau(  23) = (   0.5000000   0.5024180   2.3628874  )
        24           O0  tau(  24) = (   0.7500000   0.6933368   2.3268003  )
        25           O0  tau(  25) = (   0.7500000   0.3114991   2.4034034  )
        26           O0  tau(  26) = (   0.5000000   0.0000000   2.5460296  )
        27           H2  tau(  27) = (   0.0000200   0.6429744   1.5830361  )
        28           H2  tau(  28) = (   0.5000600   0.6435874   1.5806577  )
        29           H2  tau(  29) = (   0.1433700   0.0339333   1.5082373  )
        30           H2  tau(  30) = (   0.6430800   0.0354607   1.5076632  )
        31           O0  tau(  31) = (   0.5001100   0.5589199   2.6603192  )
        32           O0  tau(  32) = (   0.4999400   0.3687346   2.7792838  )
        33           H2  tau(  33) = (   0.4999900   0.4305019   2.9192445  )

     number of k points=    10  Methfessel-Paxton smearing, width (Ry)=  0.0100
                       cart. coord. in units 2pi/alat
        k(    1) = (   0.0000000   0.0000000   0.0000000), wk =   0.1250000
        k(    2) = (   0.0000000   0.2487968   0.0000000), wk =   0.2500000
        k(    3) = (   0.0000000  -0.4975937   0.0000000), wk =   0.1250000
        k(    4) = (   0.2500000   0.0000000   0.0000000), wk =   0.2500000
        k(    5) = (   0.2500000   0.2487968   0.0000000), wk =   0.2500000
        k(    6) = (   0.2500000  -0.4975937   0.0000000), wk =   0.2500000
        k(    7) = (  -0.5000000   0.0000000   0.0000000), wk =   0.1250000
        k(    8) = (  -0.5000000   0.2487968   0.0000000), wk =   0.2500000
        k(    9) = (  -0.5000000  -0.4975937   0.0000000), wk =   0.1250000
        k(   10) = (  -0.2500000   0.2487968   0.0000000), wk =   0.2500000

     Largest allocated arrays     est. size (Mb)     dimensions
     Largest temporary arrays     est. size (Mb)     dimensions

     Check: negative/imaginary core charge=   -0.000003    0.000000

     Initial potential from superposition of free atoms
     Check: negative starting charge=   -1.535323

     starting charge  248.99983, renormalised to  253.00000

     negative rho (up, down):  0.156E+01 0.000E+00
     Number of +U iterations with fixed ns =  0
     Starting occupations:
 --- enter write_ns ---
 LDA+U parameters:
U( 2)     =  6.50000000
alpha( 2) =  0.00000000
atom    3   Tr[ns(na)] =   8.00000
    eigenvalues:
  0.800  0.800  0.800  0.800  0.800
    eigenvectors:
  1.000  0.000  0.000  0.000  0.000
  0.000  1.000  0.000  0.000  0.000
  0.000  0.000  1.000  0.000  0.000
  0.000  0.000  0.000  1.000  0.000
  0.000  0.000  0.000  0.000  1.000
    occupations:
  0.800  0.000  0.000  0.000  0.000
  0.000  0.800  0.000  0.000  0.000
  0.000  0.000  0.800  0.000  0.000
  0.000  0.000  0.000  0.800  0.000
  0.000  0.000  0.000  0.000  0.800
atom    4   Tr[ns(na)] =   8.00000
    eigenvalues:
  0.800  0.800  0.800  0.800  0.800
    eigenvectors:
  1.000  0.000  0.000  0.000  0.000
  0.000  1.000  0.000  0.000  0.000
  0.000  0.000  1.000  0.000  0.000
  0.000  0.000  0.000  1.000  0.000
  0.000  0.000  0.000  0.000  1.000
    occupations:
  0.800  0.000  0.000  0.000  0.000
  0.000  0.800  0.000  0.000  0.000
  0.000  0.000  0.800  0.000  0.000
  0.000  0.000  0.000  0.800  0.000
  0.000  0.000  0.000  0.000  0.800
atom    9   Tr[ns(na)] =   8.00000
    eigenvalues:
  0.800  0.800  0.800  0.800  0.800
    eigenvectors:
  1.000  0.000  0.000  0.000  0.000
  0.000  1.000  0.000  0.000  0.000
  0.000  0.000  1.000  0.000  0.000
  0.000  0.000  0.000  1.000  0.000
  0.000  0.000  0.000  0.000  1.000
    occupations:
  0.800  0.000  0.000  0.000  0.000
  0.000  0.800  0.000  0.000  0.000
  0.000  0.000  0.800  0.000  0.000
  0.000  0.000  0.000  0.800  0.000
  0.000  0.000  0.000  0.000  0.800
atom   10   Tr[ns(na)] =   8.00000
    eigenvalues:
  0.800  0.800  0.800  0.800  0.800
    eigenvectors:
  1.000  0.000  0.000  0.000  0.000
  0.000  1.000  0.000  0.000  0.000
  0.000  0.000  1.000  0.000  0.000
  0.000  0.000  0.000  1.000  0.000
  0.000  0.000  0.000  0.000  1.000
    occupations:
  0.800  0.000  0.000  0.000  0.000
  0.000  0.800  0.000  0.000  0.000
  0.000  0.000  0.800  0.000  0.000
  0.000  0.000  0.000  0.800  0.000
  0.000  0.000  0.000  0.000  0.800
atom   16   Tr[ns(na)] =   8.00000
    eigenvalues:
  0.800  0.800  0.800  0.800  0.800
    eigenvectors:
  1.000  0.000  0.000  0.000  0.000
  0.000  1.000  0.000  0.000  0.000
  0.000  0.000  1.000  0.000  0.000
  0.000  0.000  0.000  1.000  0.000
  0.000  0.000  0.000  0.000  1.000
    occupations:
  0.800  0.000  0.000  0.000  0.000
  0.000  0.800  0.000  0.000  0.000
  0.000  0.000  0.800  0.000  0.000
  0.000  0.000  0.000  0.800  0.000
  0.000  0.000  0.000  0.000  0.800
atom   17   Tr[ns(na)] =   8.00000
    eigenvalues:
  0.800  0.800  0.800  0.800  0.800
    eigenvectors:
  1.000  0.000  0.000  0.000  0.000
  0.000  1.000  0.000  0.000  0.000
  0.000  0.000  1.000  0.000  0.000
  0.000  0.000  0.000  1.000  0.000
  0.000  0.000  0.000  0.000  1.000
    occupations:
  0.800  0.000  0.000  0.000  0.000
  0.000  0.800  0.000  0.000  0.000
  0.000  0.000  0.800  0.000  0.000
  0.000  0.000  0.000  0.800  0.000
  0.000  0.000  0.000  0.000  0.800
atom   22   Tr[ns(na)] =   8.00000
    eigenvalues:
  0.800  0.800  0.800  0.800  0.800
    eigenvectors:
  1.000  0.000  0.000  0.000  0.000
  0.000  1.000  0.000  0.000  0.000
  0.000  0.000  1.000  0.000  0.000
[...]
  0.000 -0.040  0.000 -0.000  0.672
atom   16   Tr[ns(na)] =   8.78645
    eigenvalues:
  0.703  0.721  0.988  0.990  0.992
    eigenvectors:
  0.052  0.118  0.822  0.003  0.005
  0.727  0.273  0.000  0.000  0.000
  0.001  0.004  0.013  0.000  0.981
  0.220  0.605  0.162  0.000  0.013
  0.000  0.000  0.003  0.997  0.000
    occupations:
  0.942 -0.007  0.008 -0.102 -0.000
 -0.007  0.708 -0.001 -0.006 -0.002
  0.008 -0.001  0.990  0.019  0.000
 -0.102 -0.006  0.019  0.764 -0.001
 -0.000 -0.002  0.000 -0.001  0.990
atom   17   Tr[ns(na)] =   8.78020
    eigenvalues:
  0.702  0.725  0.986  0.988  0.989
    eigenvectors:
  0.000  0.985  0.010  0.003  0.002
  0.013  0.000  0.077  0.848  0.062
  0.000  0.005  0.752  0.017  0.225
  0.000  0.010  0.160  0.120  0.710
  0.987  0.000  0.001  0.011  0.001
    occupations:
  0.729 -0.004 -0.019  0.025 -0.001
 -0.004  0.984  0.000  0.000  0.032
 -0.019  0.000  0.985  0.003 -0.000
  0.025  0.000  0.003  0.986  0.000
 -0.001  0.032 -0.000  0.000  0.706
atom   22   Tr[ns(na)] =   8.77251
    eigenvalues:
  0.724  0.733  0.965  0.975  0.989
    eigenvectors:
  0.000  0.133  0.000  0.017  0.850
  0.998  0.002  0.000  0.000  0.000
  0.000  0.013  0.031  0.947  0.009
  0.001  0.852  0.000  0.005  0.141
  0.000  0.000  0.969  0.031  0.000
    occupations:
  0.954  0.002 -0.009 -0.086  0.000
  0.002  0.724  0.000 -0.000 -0.003
 -0.009  0.000  0.972 -0.026 -0.002
 -0.086 -0.000 -0.026  0.771  0.000
  0.000 -0.003 -0.002  0.000  0.966
atom   23   Tr[ns(na)] =   8.77641
    eigenvalues:
  0.716  0.720  0.975  0.987  0.989
    eigenvectors:
  0.000  0.957  0.000  0.034  0.009
  0.022  0.000  0.978  0.000  0.000
  0.000  0.034  0.000  0.966  0.000
  0.000  0.009  0.000  0.000  0.991
  0.978  0.000  0.022  0.000  0.000
    occupations:
  0.732  0.000  0.048  0.025 -0.000
  0.000  0.970  0.000 -0.000 -0.038
  0.048  0.000  0.978 -0.005 -0.000
  0.025 -0.000 -0.005  0.987 -0.000
 -0.000 -0.038 -0.000 -0.000  0.722
N of occupied +U levels =  70.3134350
 --- exit write_ns ---

     Threshold (ethr) on eigenvalues was too large:
     Diagonalizing with lowered threshold

     Davidson diagonalization with overlap
     ethr =  1.03E-08,  avg # of iterations =  2.0

[...]

     total energy              =   -2312.41629104 Ry
     Harris-Foulkes estimate   =   -2312.41629104 Ry
     estimated scf accuracy    <       0.00000006 Ry

     iteration # 15     ecut=    40.00 Ry     beta=0.70
     Davidson diagonalization with overlap
     ethr =  6.63E-12,  avg # of iterations =  1.0

     negative rho (up, down):  0.157E+01 0.000E+00

     End of self-consistent calculation
 --- enter write_ns ---
 LDA+U parameters:
U( 2)     =  6.50000000
alpha( 2) =  0.00000000
atom    3   Tr[ns(na)] =   8.78641
    eigenvalues:
  0.703  0.721  0.988  0.990  0.992
    eigenvectors:
  0.052  0.118  0.820  0.005  0.005
  0.729  0.271  0.000  0.000  0.000
  0.001  0.005  0.013  0.000  0.981
  0.219  0.606  0.161  0.001  0.013
  0.000  0.000  0.006  0.994  0.000
    occupations:
  0.942  0.007  0.008 -0.102  0.001
  0.007  0.708  0.001  0.006 -0.002
  0.008  0.001  0.990  0.019 -0.000
 -0.102  0.006  0.019  0.764  0.001
  0.001 -0.002 -0.000  0.001  0.990
atom    4   Tr[ns(na)] =   8.78136
    eigenvalues:
  0.702  0.725  0.986  0.988  0.989
    eigenvectors:
  0.000  0.984  0.010  0.003  0.002
  0.013  0.000  0.051  0.860  0.076
  0.000  0.006  0.784  0.007  0.204
  0.000  0.010  0.154  0.119  0.717
  0.987  0.000  0.001  0.011  0.001
    occupations:
  0.729 -0.004 -0.019  0.026 -0.001
 -0.004  0.984  0.000  0.000  0.032
 -0.019  0.000  0.985  0.003 -0.000
  0.026  0.000  0.003  0.986  0.000
 -0.001  0.032 -0.000  0.000  0.706
atom    9   Tr[ns(na)] =   8.77225
    eigenvalues:
  0.724  0.733  0.965  0.975  0.989
    eigenvectors:
  0.000  0.133  0.000  0.016  0.850
  0.997  0.002  0.000  0.000  0.000
  0.000  0.013  0.027  0.951  0.009
  0.002  0.851  0.000  0.005  0.141
  0.000  0.000  0.972  0.027  0.000
    occupations:
  0.954 -0.001 -0.009 -0.086 -0.000
 -0.001  0.724  0.000  0.001 -0.003
 -0.009  0.000  0.972 -0.026  0.002
 -0.086  0.001 -0.026  0.771  0.000
 -0.000 -0.003  0.002  0.000  0.965
atom   10   Tr[ns(na)] =   8.85757
    eigenvalues:
  0.667  0.798  0.986  0.987  0.991
    eigenvectors:
  0.000  0.977  0.000  0.016  0.008
  0.016  0.000  0.984  0.000  0.000
  0.000  0.001  0.000  0.176  0.823
  0.000  0.023  0.000  0.808  0.169
  0.984  0.000  0.016  0.000  0.000
    occupations:
  0.802 -0.000 -0.006  0.028  0.000
 -0.000  0.981 -0.000  0.000 -0.040
 -0.006 -0.000  0.990 -0.001  0.000
  0.028  0.000 -0.001  0.984 -0.000
  0.000 -0.040  0.000 -0.000  0.672
atom   16   Tr[ns(na)] =   8.78641
    eigenvalues:
  0.703  0.721  0.988  0.990  0.992
    eigenvectors:
  0.052  0.118  0.822  0.003  0.005
  0.727  0.272  0.000  0.000  0.000
  0.001  0.004  0.013  0.000  0.981
  0.220  0.605  0.162  0.000  0.013
  0.000  0.000  0.003  0.997  0.000
    occupations:
  0.942 -0.007  0.008 -0.102 -0.000
 -0.007  0.708 -0.001 -0.006 -0.002
  0.008 -0.001  0.990  0.019  0.000
 -0.102 -0.006  0.019  0.764 -0.001
 -0.000 -0.002  0.000 -0.001  0.990
atom   17   Tr[ns(na)] =   8.78009
    eigenvalues:
  0.702  0.725  0.986  0.988  0.989
    eigenvectors:
  0.000  0.985  0.010  0.003  0.002
  0.013  0.000  0.076  0.849  0.062
  0.000  0.005  0.757  0.017  0.220
  0.000  0.010  0.157  0.119  0.715
  0.987  0.000  0.001  0.011  0.001
    occupations:
  0.729 -0.004 -0.019  0.025 -0.001
 -0.004  0.984  0.000  0.000  0.032
 -0.019  0.000  0.985  0.003 -0.000
  0.025  0.000  0.003  0.986  0.000
 -0.001  0.032 -0.000  0.000  0.706
atom   22   Tr[ns(na)] =   8.77223
    eigenvalues:
  0.724  0.733  0.965  0.975  0.989
    eigenvectors:
  0.000  0.133  0.000  0.016  0.850
  0.998  0.002  0.000  0.000  0.000
  0.000  0.013  0.031  0.947  0.009
  0.001  0.852  0.000  0.005  0.141
  0.000  0.000  0.969  0.031  0.000
    occupations:
  0.954  0.002 -0.009 -0.086  0.000
  0.002  0.724  0.000 -0.000 -0.003
 -0.009  0.000  0.972 -0.026 -0.002
 -0.086 -0.000 -0.026  0.771  0.000
  0.000 -0.003 -0.002  0.000  0.966
atom   23   Tr[ns(na)] =   8.77642
    eigenvalues:
  0.716  0.720  0.976  0.987  0.989
    eigenvectors:
  0.000  0.957  0.000  0.034  0.009
  0.022  0.000  0.978  0.000  0.000
  0.000  0.034  0.000  0.966  0.000
  0.000  0.009  0.000  0.000  0.991
  0.978  0.000  0.022  0.000  0.000
    occupations:
  0.732  0.000  0.048  0.025 -0.000
  0.000  0.970  0.000 -0.000 -0.038
  0.048  0.000  0.978 -0.005 -0.000
  0.025 -0.000 -0.005  0.987 -0.000
 -0.000 -0.038 -0.000 -0.000  0.722
N of occupied +U levels =  70.3127212
 --- exit write_ns ---

[...]

          k = 0.2500-0.4976 0.0000 ( 32026 PWs)   bands (ev):

[...]

          k =-0.2500 0.2488 0.0000 ( 32025 PWs)   bands (ev):

   -54.4798 -54.4714 -54.4325 -54.4184 -54.3769 -54.3738 -54.3477 -54.3081
   -54.2919 -54.2876 -54.2493 -54.2457 -54.2164 -54.1370 -54.1328 -54.1134
   -54.1088 -54.0146 -54.0107 -53.9792 -53.9741 -53.5726 -53.3478 -52.9336
   -24.0039 -21.5043 -21.2441 -20.6126 -20.4833 -20.2378 -20.1914 -20.0889
   -19.9532 -19.8877 -19.7628 -19.7064 -19.6265 -19.5547 -19.4261 -19.3724
   -19.3251 -18.7384 -18.4848 -17.5276 -10.5986 -10.4470 -10.3587 -10.2332
    -9.9101  -9.8319  -9.8123  -9.6048  -9.5240  -9.2594  -9.1392  -9.0349
    -8.9743  -8.8383  -8.6782  -8.6451  -8.5662  -8.4648  -8.3598  -8.1479
    -8.0248  -7.8171  -7.8084  -7.6909  -7.6445  -7.5107  -7.3584  -7.3393
    -7.2638  -7.0788  -7.0445  -6.9951  -6.8785  -6.8427  -6.7464  -6.6170
    -6.5703  -6.5064  -6.4578  -6.3027  -6.2512  -6.0678  -5.9268  -5.7450
    -5.6022  -5.3850  -5.2000  -5.0639  -5.0251  -4.9684  -4.8610  -4.7608
    -4.7189  -4.5734  -4.4868  -4.3006  -4.2297  -4.0237  -3.8376  -3.7838
    -3.6952  -3.5739  -3.4936  -3.3926  -3.2577  -3.2190  -3.1355  -3.0168
    -2.8861  -2.8511  -2.5626  -2.5256  -2.3100  -2.1731  -2.0794  -1.9809
    -1.9193  -1.8724  -1.8246  -1.7043  -1.4321  -1.3318  -1.2576  -1.1356
    -0.5090  -0.2905  -0.1707   0.2884   0.4490   0.8029   1.0077   1.2840
     1.3736   1.5120   1.5824   1.8629   1.9932   2.0593   2.3293   3.3958
     3.8062   4.0409   4.5540   4.8804   5.0839   5.5352   5.7518   5.7945
     5.9710   6.1342   6.2640   6.4379   6.5116   6.7488   6.8675   6.9654
     7.0215   7.1591   7.3012   7.4664   7.6066   7.6736   7.7845   7.8813
     7.9638   8.0899   8.1981   8.2610   8.4286   8.4992   8.6273   8.7048
     8.8106   8.8361   8.9865   9.0312   9.1522   9.2328   9.3595   9.4313
     9.5272   9.5941   9.7018   9.7517   9.8812   9.9770  10.0098  10.1358
    10.2024  10.2992  10.3945  10.4695  10.5644  10.6484  10.7190  10.8015
    10.9421  11.0200  11.0782  11.1997  11.3178  11.3484  11.4581  11.5415
    11.6203  11.7355  11.7974  11.8655  11.9512  12.0484  12.0943  12.1611
    12.2175  12.3075  12.3841  12.4370  12.5836  12.6508  12.7337  12.8218
    12.8833  12.9288  13.0020  13.0865  13.2359  13.3072  13.3584  13.4698
    13.5553  13.6520  13.6744  13.7267  13.8236  13.8585  13.9711  14.0385
    14.1163  14.1670  14.2795  14.4258  14.4336  14.5092  14.6173  14.7265
    14.7768  14.8540  14.9563  14.9853  15.0541  15.1574  15.1976  15.2969
    15.3213  15.3459  15.3766  15.4247  15.5164  15.5728  15.6453  15.6584
    15.7798  15.8574  15.8867  15.9425  15.9898  16.0817  16.1395  16.1750
    16.2410  16.2834  16.3426  16.4299  16.5281  16.6081  16.7430  16.7773
    16.8288  16.9312  16.9837  17.0372  17.0624  17.1541  17.2012  17.2455
    17.3330  17.3545  17.4020  17.4605  17.4871  17.6018  17.6124  17.7078
    17.7536  17.8638  17.9082  17.9516  17.9804  18.0032  18.0201  18.0314
    18.0504  18.0873  18.1263  18.1369  18.1617  18.2859  18.3622  18.3953
    18.4088  18.5052  18.5613  18.6117  18.7061  18.7524  18.8683  18.9554
    18.9665  19.0405  19.1078  19.1275  19.1540  19.2290  19.3127  19.3884
    19.4549  19.5707  19.6272  19.6538  19.7178  19.8514  19.9808  20.0337
    20.1021  20.1675  20.2038  20.2465  20.2880  20.3332  20.3732  20.4384
    20.5430  20.5923  20.6358  20.7044  20.7378  20.8200  20.8286  20.8655
    20.9467  20.9895  21.0466  21.1222  21.1629  21.2358  21.3217  21.3510
    21.4106  21.5015  21.5218  21.5749  21.6214  21.6901  21.7739  21.8806
    21.9473  21.9959  22.0713  22.1447  22.1845  22.2588  22.3138  22.3339
    22.4559  22.4925  22.5216

     the Fermi energy is    -1.2464 ev

!    total energy              =   -2312.41629104 Ry
     Harris-Foulkes estimate   =   -2312.41629104 Ry
     estimated scf accuracy    <          1.2E-09 Ry

     The total energy is the sum of the following terms:

     one-electron contribution =  -24128.35359763 Ry
     hartree contribution      =   12116.47344809 Ry
     xc contribution           =    -580.07119630 Ry
     ewald contribution        =   10277.82967972 Ry
     Hubbard energy            =       1.70542160 Ry
     smearing contrib. (-TS)   =      -0.00004652 Ry

     convergence has been achieved in  15 iterations

     Forces acting on atoms (Ry/au):

     negative rho (up, down):  0.157E+01 0.000E+00
     atom    1 type  1   force =    -0.00711168   -0.00315008    0.00001596
     atom    2 type  1   force =     0.00010925    0.00463559    0.00068974
     atom    3 type  2   force =     0.00707580    0.00538439   -0.00003324
     atom    4 type  2   force =     0.00939451    0.00372336    0.00015859
     atom    5 type  1   force =     0.00112673   -0.00335189    0.00050174
     atom    6 type  1   force =     0.00012903   -0.00299284    0.00025648
     atom    7 type  1   force =     0.00011567   -0.00057115   -0.00054027
     atom    8 type  1   force =    -0.00395222   -0.00000705    0.00022395
     atom    9 type  2   force =     0.00650858    0.00376367    0.00014553
     atom   10 type  2   force =    -0.00006918   -0.02334881    0.00061240
     atom   11 type  1   force =    -0.00040336    0.00261046   -0.00043248
     atom   12 type  1   force =    -0.01217039    0.01033422   -0.00031749
     atom   13 type  1   force =    -0.00109169   -0.00763885   -0.00015064
     atom   14 type  1   force =    -0.00738798   -0.00291482   -0.00006708
     atom   15 type  1   force =     0.00012484    0.00115418    0.00024299
     atom   16 type  2   force =    -0.00795207    0.00549229   -0.00002823
     atom   17 type  2   force =     0.00932585    0.00528186    0.00007619
     atom   18 type  1   force =     0.00135677   -0.00337542    0.00050133
     atom   19 type  1   force =     0.00007866   -0.00294402    0.00026735
     atom   20 type  1   force =    -0.00002647   -0.00381803   -0.00036095
     atom   21 type  1   force =    -0.00383728    0.00243583    0.00018679
     atom   22 type  2   force =    -0.00303559    0.00369478    0.00014600
     atom   23 type  2   force =     0.00012093    0.00869890   -0.00000692
     atom   24 type  1   force =     0.00048527    0.00267494   -0.00043519
     atom   25 type  1   force =     0.01223219    0.01036471   -0.00031101
     atom   26 type  1   force =    -0.00101932   -0.01641435   -0.00007585
     atom   27 type  3   force =     0.00000108   -0.00039973    0.00013184
     atom   28 type  3   force =    -0.00000295   -0.00011902    0.00012806
     atom   29 type  3   force =    -0.00008567   -0.00006963   -0.00039834
     atom   30 type  3   force =    -0.00001818   -0.00012575   -0.00030331
     atom   31 type  1   force =     0.00002642    0.00050187   -0.00042469
     atom   32 type  1   force =    -0.00006873    0.00003870   -0.00024858
     atom   33 type  3   force =     0.00002120    0.00045170   -0.00015067

     Total force =     0.001989     Total SCF correction =     0.000147

     entering subroutine stress ...

     negative rho (up, down):  0.157E+01 0.000E+00
          total   stress  (Ry/bohr**3)                   (kbar)     P=  -21.33
  -0.00023126   0.00000010   0.00000364        -34.02      0.01      0.53
   0.00000010  -0.00015007  -0.00000762          0.01    -22.08     -1.12
   0.00000364  -0.00000762  -0.00005365          0.53     -1.12     -7.89

     bfgs converged in  10 scf cycles and   9 bfgs steps
     (criteria: energy < 0.10E-03, force < 0.10E-02)

     End of BFGS Geometry Optimization

     Final energy   =   -2312.4162910381 Ry
Begin final coordinates

ATOMIC_POSITIONS (crystal)
O0       0.000000000   0.000000000   0.377569582    0   0   1
O0       0.000000000   0.500000000   0.401669786    0   0   1
Pt1      0.250000000   0.500000000   0.451214336    0   0   1
Pt1      0.000000000   0.000000000   0.452689589    0   0   1
O0       0.250000000   0.810000000   0.442299365    0   0   1
O0       0.250000000   0.190000000   0.461132527    0   0   1
O0       0.000000000   0.500000000   0.496548399    0   0   1
O0       0.000000000   0.000000000   0.529751211    0   0   1
Pt1      0.250000000   0.000000000   0.575735479    0   0   1
Pt1      0.000000000   0.500000000   0.575511134    0   0   1
O0       0.250000000   0.690000000   0.565876997    0   0   1
O0       0.250000000   0.310000000   0.587032515    0   0   1
O0       0.000000000   0.000000000   0.621444966    0   0   1
O0       0.500000000   0.000000000   0.377441901    0   0   1
O0       0.500000000   0.500000000   0.401081742    0   0   1
Pt1      0.750000000   0.500000000   0.451217938    0   0   1
Pt1      0.500000000   0.000000000   0.452546488    0   0   1
O0       0.750000000   0.810000000   0.442309680    0   0   1
O0       0.750000000   0.190000000   0.461117612    0   0   1
O0       0.500000000   0.500000000   0.498104186    0   0   1
O0       0.500000000   0.000000000   0.529533393    0   0   1
Pt1      0.750000000   0.000000000   0.575732607    0   0   1
Pt1      0.500000000   0.500000000   0.575916923    0   0   1
O0       0.750000000   0.690000000   0.565852677    0   0   1
O0       0.750000000   0.310000000   0.587018117    0   0   1
O0       0.500000000   0.000000000   0.620988317    0   0   1
H2       0.000026669   0.641519902   0.386784400
H2       0.500059335   0.641543358   0.386341866
H2       0.144013132   0.033984369   0.368093397
H2       0.643632955   0.035261577   0.367920944
O0       0.500223696   0.556780835   0.649017990
O0       0.499794572   0.368704615   0.677418155
H2       0.500024679   0.428124217   0.711815781
End final coordinates

     General routines

     Parallel routines
     Hubbard U routines

   This run was terminated on:  22: 7:30  31May2014

   JOB DONE.
Running PBS batch system epilogue script
Job id: 373320.audhumbla.fysik.dtu.dk
Username: zhonxu
Groupname: campgst
Jobname: PtO2/Eads-2-layers/OOH-U-6.5
Sessionid: 32351
Queuename: verylong
Accounting:
This job has allocated the following 16 nodes:
b132 b132 b132 b132 b132 b132 b132 b132 b105 b105 b105 b105 b105 b105 b105 b105
Finished epilogue job 373320.audhumbla.fysik.dtu.dk for zhonxu