     Program PWSCF v.5.0.2 (svn rev. 9656) starts on  6May2014 at 12:36:58

     Current dimensions of program PWSCF are:
     Max number of different atomic species (ntypx) = 10
     Max number of k-points (npk) =  40000
     Max angular momentum in pseudopotentials (lmaxx) =  3
     Reading input from pwscf.in
Warning: card &CELL ignored
Warning: card / ignored

     Subspace diagonalization in iterative solution of the eigenvalue problem:
     a serial algorithm will be used

     Found symmetry operation: I + ( -0.5000  0.0000  0.0000)
     This is a supercell, fractional translations are disabled

     bravais-lattice index     =            0
     lattice parameter (alat)  =      11.2250  a.u.
     unit-cell volume          =    7005.5484 (a.u.)^3
     number of atoms/cell      =           30
     number of atomic types    =            3
     number of electrons       =       208.00
     number of Kohn-Sham states=          300
     kinetic-energy cutoff     =      40.0000  Ry
     charge density cutoff     =     500.0000  Ry
     convergence threshold     =      1.0E-06
     mixing beta               =       0.7000
     number of iterations used =            8  plain     mixing
     Exchange-correlation      = SLA  PW   PBE  PBE ( 1 4 3 4 0)
     EXX-fraction              =        0.00
     nstep                     =           50

     celldm(1)=  11.224973  celldm(2)=   0.000000  celldm(3)=   0.000000
     celldm(4)=   0.000000  celldm(5)=   0.000000  celldm(6)=   0.000000

     crystal axes: (cart. coord. in units of alat)
               a(1) = (   1.000000   0.000000   0.000000 )
               a(2) = (   0.000000   1.107086   0.000000 )
               a(3) = (   0.000000   0.000000   4.474090 )

     reciprocal axes: (cart. coord. in units 2 pi/alat)
               b(1) = (  1.000000  0.000000  0.000000 )
               b(2) = (  0.000000  0.903272  0.000000 )
               b(3) = (  0.000000  0.000000  0.223509 )

     PseudoPot. # 1 for O  read from file:
     /home/camp/zhonxu/pseudo/o_pbe_v1.01.uspp.F.UPF
     MD5 check sum: 2bcb18d16ea4b960afae9ec6d52f22d2
     Pseudo is Ultrasoft + core correction, Zval =  6.0
     Generated by new atomic code, or converted to UPF format
     Using radial grid of  737 points,  5 beta functions with:
                l(1) =   0
                l(2) =   0
                l(3) =   1
                l(4) =   1
                l(5) =   2
     Q(r) pseudized with  8 coefficients,  rinner =    0.900   0.900   0.900
                                                       0.900   0.900

     PseudoPot. # 2 for Ti read from file:
     /home/camp/zhonxu/pseudo/ti_pbe_v1.uspp.F.UPF
     MD5 check sum: bcc8f6961b3b91f0cac3ca967d22d0fb
     Pseudo is Ultrasoft + core correction, Zval = 12.0
     Generated by new atomic code, or converted to UPF format
     Using radial grid of  851 points,  6 beta functions with:
                l(1) =   0
                l(2) =   0
                l(3) =   1
                l(4) =   1
                l(5) =   2
                l(6) =   2
     Q(r) pseudized with  6 coefficients,  rinner =    1.000   1.000   1.000
                                                       1.000   1.000

     PseudoPot. # 3 for H  read from file:
     /home/camp/zhonxu/pseudo/h_pbe_v1.uspp.F.UPF
     MD5 check sum: 3408e3ff4ec8b0a4e358431e7e038a48
     Pseudo is Ultrasoft, Zval =  1.0
     Generated by new atomic code, or converted to UPF format
     Using radial grid of  615 points,  2 beta functions with:
                l(1) =   0
                l(2) =   0
     Q(r) pseudized with  8 coefficients,  rinner =    0.700

     atomic species   valence    mass     pseudopotential
        O0             6.00    15.99940     O ( 1.00)
        Ti1           12.00    47.88000     Ti( 1.00)
        H2             1.00     1.00794     H ( 1.00)

     Simplified LDA+U calculation (l_max = 2) with parameters (eV):
     atomic species    L          U    alpha       J0     beta
        Ti1            2     1.5000   0.0000   0.0000   0.0000

     No symmetry found

   Cartesian axes

     site n.     atom                  positions (alat units)
         1           O0  tau(   1) = (   0.0000000   0.0000000   1.6989461  )
         2           O0  tau(   2) = (   0.0000000   0.5535432   1.7901728  )
         3           Ti1 tau(   3) = (   0.2500000   0.5535432   2.0162933  )
         4           Ti1 tau(   4) = (   0.0000000   0.0000000   2.0248388  )
         5           O0  tau(   5) = (   0.2500000   0.8967400   2.0178145  )
         6           O0  tau(   6) = (   0.2500000   0.2103464   2.0226912  )
         7           O0  tau(   7) = (   0.0000000   0.5535432   2.2326603  )
         8           O0  tau(   8) = (   0.0000000   0.0000000   2.3559662  )
         9           Ti1 tau(   9) = (   0.2500000   0.0000000   2.5995804  )
        10           Ti1 tau(  10) = (   0.0000000   0.5535432   2.5483968  )
        11           O0  tau(  11) = (   0.2500000   0.7638896   2.5964932  )
        12           O0  tau(  12) = (   0.2500000   0.3431968   2.5965380  )
        13           O0  tau(  13) = (   0.0000000   0.0000000   2.7842708  )
        14           O0  tau(  14) = (   0.5000000   0.0000000   1.6989461  )
        15           O0  tau(  15) = (   0.5000000   0.5535432   1.7901728  )
        16           Ti1 tau(  16) = (   0.7500000   0.5535432   2.0162933  )
        17           Ti1 tau(  17) = (   0.5000000   0.0000000   2.0248388  )
        18           O0  tau(  18) = (   0.7500000   0.8967400   2.0178145  )
        19           O0  tau(  19) = (   0.7500000   0.2103464   2.0226912  )
        20           O0  tau(  20) = (   0.5000000   0.5535432   2.2326603  )
        21           O0  tau(  21) = (   0.5000000   0.0000000   2.3559662  )
        22           Ti1 tau(  22) = (   0.7500000   0.0000000   2.5995804  )
        23           Ti1 tau(  23) = (   0.5000000   0.5535432   2.5483968  )
        24           O0  tau(  24) = (   0.7500000   0.7638896   2.5964932  )
        25           O0  tau(  25) = (   0.7500000   0.3431968   2.5965380  )
        26           O0  tau(  26) = (   0.5000000   0.0000000   2.7842708  )
        27           H2  tau(  27) = (  -0.0005400   0.6991915   1.7063283  )
        28           H2  tau(  28) = (   0.4994600   0.6991915   1.7063283  )
        29           H2  tau(  29) = (   0.1501800   0.0252084   1.6321479  )
        30           H2  tau(  30) = (   0.6501800   0.0252084   1.6321479  )

     number of k points=    10  Methfessel-Paxton smearing, width (Ry)=  0.0100
                       cart. coord. in units 2pi/alat
        k(    1) = (   0.0000000   0.0000000   0.0000000), wk =   0.1250000
        k(    2) = (   0.0000000   0.2258180   0.0000000), wk =   0.2500000
        k(    3) = (   0.0000000  -0.4516359   0.0000000), wk =   0.1250000
        k(    4) = (   0.2500000   0.0000000   0.0000000), wk =   0.2500000
        k(    5) = (   0.2500000   0.2258180   0.0000000), wk =   0.2500000
        k(    6) = (   0.2500000  -0.4516359   0.0000000), wk =   0.2500000
        k(    7) = (  -0.5000000   0.0000000   0.0000000), wk =   0.1250000
        k(    8) = (  -0.5000000   0.2258180   0.0000000), wk =   0.2500000
        k(    9) = (  -0.5000000  -0.4516359   0.0000000), wk =   0.1250000
        k(   10) = (  -0.2500000   0.2258180   0.0000000), wk =   0.2500000

     Largest allocated arrays     est. size (Mb)     dimensions
     Largest temporary arrays     est. size (Mb)     dimensions

     Check: negative/imaginary core charge=   -0.000005    0.000000

     Initial potential from superposition of free atoms
     Check: negative starting charge=   -0.102816

     starting charge  199.99958, renormalised to  208.00000

     negative rho (up, down):  0.107E+00 0.000E+00
     Number of +U iterations with fixed ns =  0
     Starting occupations:
 --- enter write_ns ---
 LDA+U parameters:
U( 2)     =  1.50000000
alpha( 2) =  0.00000000
atom    3   Tr[ns(na)] =   2.00000
    eigenvalues:
  0.200  0.200  0.200  0.200  0.200
    eigenvectors:
  1.000  0.000  0.000  0.000  0.000
  0.000  1.000  0.000  0.000  0.000
  0.000  0.000  1.000  0.000  0.000
  0.000  0.000  0.000  1.000  0.000
  0.000  0.000  0.000  0.000  1.000
    occupations:
  0.200  0.000  0.000  0.000  0.000
  0.000  0.200  0.000  0.000  0.000
  0.000  0.000  0.200  0.000  0.000
  0.000  0.000  0.000  0.200  0.000
  0.000  0.000  0.000  0.000  0.200
atom    4   Tr[ns(na)] =   2.00000
    eigenvalues:
  0.200  0.200  0.200  0.200  0.200
    eigenvectors:
  1.000  0.000  0.000  0.000  0.000
  0.000  1.000  0.000  0.000  0.000
  0.000  0.000  1.000  0.000  0.000
  0.000  0.000  0.000  1.000  0.000
  0.000  0.000  0.000  0.000  1.000
    occupations:
  0.200  0.000  0.000  0.000  0.000
  0.000  0.200  0.000  0.000  0.000
  0.000  0.000  0.200  0.000  0.000
  0.000  0.000  0.000  0.200  0.000
  0.000  0.000  0.000  0.000  0.200
atom    9   Tr[ns(na)] =   2.00000
    eigenvalues:
  0.200  0.200  0.200  0.200  0.200
    eigenvectors:
  1.000  0.000  0.000  0.000  0.000
  0.000  1.000  0.000  0.000  0.000
  0.000  0.000  1.000  0.000  0.000
  0.000  0.000  0.000  1.000  0.000
  0.000  0.000  0.000  0.000  1.000
    occupations:
  0.200  0.000  0.000  0.000  0.000
  0.000  0.200  0.000  0.000  0.000
  0.000  0.000  0.200  0.000  0.000
  0.000  0.000  0.000  0.200  0.000
  0.000  0.000  0.000  0.000  0.200
atom   10   Tr[ns(na)] =   2.00000
    eigenvalues:
  0.200  0.200  0.200  0.200  0.200
    eigenvectors:
  1.000  0.000  0.000  0.000  0.000
  0.000  1.000  0.000  0.000  0.000
  0.000  0.000  1.000  0.000  0.000
  0.000  0.000  0.000  1.000  0.000
  0.000  0.000  0.000  0.000  1.000
    occupations:
  0.200  0.000  0.000  0.000  0.000
  0.000  0.200  0.000  0.000  0.000
  0.000  0.000  0.200  0.000  0.000
  0.000  0.000  0.000  0.200  0.000
  0.000  0.000  0.000  0.000  0.200
atom   16   Tr[ns(na)] =   2.00000
    eigenvalues:
  0.200  0.200  0.200  0.200  0.200
    eigenvectors:
  1.000  0.000  0.000  0.000  0.000
  0.000  1.000  0.000  0.000  0.000
  0.000  0.000  1.000  0.000  0.000
  0.000  0.000  0.000  1.000  0.000
  0.000  0.000  0.000  0.000  1.000
    occupations:
  0.200  0.000  0.000  0.000  0.000
  0.000  0.200  0.000  0.000  0.000
  0.000  0.000  0.200  0.000  0.000
  0.000  0.000  0.000  0.200  0.000
  0.000  0.000  0.000  0.000  0.200
atom   17   Tr[ns(na)] =   2.00000
    eigenvalues:
  0.200  0.200  0.200  0.200  0.200
    eigenvectors:
  1.000  0.000  0.000  0.000  0.000
  0.000  1.000  0.000  0.000  0.000
  0.000  0.000  1.000  0.000  0.000
  0.000  0.000  0.000  1.000  0.000
  0.000  0.000  0.000  0.000  1.000
    occupations:
  0.200  0.000  0.000  0.000  0.000
  0.000  0.200  0.000  0.000  0.000
  0.000  0.000  0.200  0.000  0.000
  0.000  0.000  0.000  0.200  0.000
  0.000  0.000  0.000  0.000  0.200
atom   22   Tr[ns(na)] =   2.00000
    eigenvalues:
  0.200  0.200  0.200  0.200  0.200
    eigenvectors:
  1.000  0.000  0.000  0.000  0.000
  0.000  1.000  0.000  0.000  0.000
  0.000  0.000  1.000  0.000  0.000
  0.000  0.000  0.000  1.000  0.000
  0.000  0.000  0.000  0.000  1.000
    occupations:
[...]
atom    3   Tr[ns(na)] =   2.78822
    eigenvalues:
  0.170  0.194  0.226  0.401  0.404
    eigenvectors:
  0.790  0.000  0.012  0.198  0.000
  0.000  0.003  0.000  0.000  0.997
  0.013  0.000  0.987  0.000  0.000
  0.197  0.000  0.001  0.802  0.000
  0.000  0.997  0.000  0.000  0.003
    occupations:
  0.216 -0.000 -0.004  0.092 -0.000
 -0.000  0.403  0.000  0.000  0.011
 -0.004  0.000  0.225  0.006 -0.000
  0.092  0.000  0.006  0.355 -0.000
 -0.000  0.011 -0.000 -0.000  0.194
atom    4   Tr[ns(na)] =   2.91709
    eigenvalues:
  0.172  0.208  0.236  0.410  0.432
    eigenvectors:
  0.006  0.004  0.000  0.000  0.990
  0.001  0.955  0.040  0.000  0.004
  0.000  0.039  0.960  0.000  0.000
  0.992  0.002  0.000  0.000  0.005
  0.000  0.000  0.000  1.000  0.000
    occupations:
  0.430  0.014  0.003 -0.019 -0.000
  0.014  0.210 -0.005  0.000 -0.002
  0.003 -0.005  0.235  0.001 -0.000
 -0.019  0.000  0.001  0.173 -0.000
 -0.000 -0.002 -0.000 -0.000  0.410
atom    9   Tr[ns(na)] =   2.90531
    eigenvalues:
  0.182  0.223  0.240  0.372  0.436
    eigenvectors:
  0.000  0.000  0.921  0.079  0.000
  0.000  0.000  0.000  0.000  1.000
  1.000  0.000  0.000  0.000  0.000
  0.000  0.000  0.079  0.921  0.000
  0.000  1.000  0.000  0.000  0.000
    occupations:
  0.251 -0.000 -0.000  0.035  0.000
 -0.000  0.436  0.000 -0.000 -0.000
 -0.000  0.000  0.182  0.000  0.000
  0.035 -0.000  0.000  0.361 -0.000
  0.000 -0.000  0.000 -0.000  0.223
atom   10   Tr[ns(na)] =   2.83226
    eigenvalues:
  0.184  0.230  0.235  0.333  0.434
    eigenvectors:
  0.025  0.000  0.000  0.975  0.000
  0.000  0.000  1.000  0.000  0.000
  0.000  1.000  0.000  0.000  0.000
  0.975  0.000  0.000  0.025  0.000
  0.000  0.000  0.000  0.000  1.000
    occupations:
  0.329 -0.000 -0.000 -0.023 -0.000
 -0.000  0.235 -0.000 -0.000  0.000
 -0.000 -0.000  0.230 -0.000  0.000
 -0.023 -0.000 -0.000  0.187 -0.000
 -0.000  0.000  0.000 -0.000  0.434
atom   16   Tr[ns(na)] =   2.78822
    eigenvalues:
  0.170  0.194  0.226  0.401  0.404
    eigenvectors:
  0.790  0.000  0.012  0.198  0.000
  0.000  0.003  0.000  0.000  0.997
  0.013  0.000  0.987  0.000  0.000
  0.197  0.000  0.001  0.802  0.000
  0.000  0.997  0.000  0.000  0.003
    occupations:
  0.216 -0.000 -0.004  0.092 -0.000
 -0.000  0.403  0.000  0.000  0.011
 -0.004  0.000  0.225  0.006 -0.000
  0.092  0.000  0.006  0.355 -0.000
 -0.000  0.011 -0.000 -0.000  0.194
atom   17   Tr[ns(na)] =   2.91709
    eigenvalues:
  0.172  0.208  0.236  0.410  0.432
    eigenvectors:
  0.006  0.004  0.000  0.000  0.990
  0.001  0.955  0.040  0.000  0.004
  0.000  0.039  0.960  0.000  0.000
  0.992  0.002  0.000  0.000  0.005
  0.000  0.000  0.000  1.000  0.000
    occupations:
  0.430  0.014  0.003 -0.019 -0.000
  0.014  0.210 -0.005  0.000 -0.002
  0.003 -0.005  0.235  0.001 -0.000
 -0.019  0.000  0.001  0.173 -0.000
 -0.000 -0.002 -0.000 -0.000  0.410
atom   22   Tr[ns(na)] =   2.90531
    eigenvalues:
  0.182  0.223  0.240  0.372  0.436
    eigenvectors:
  0.000  0.000  0.921  0.079  0.000
  0.000  0.000  0.000  0.000  1.000
  1.000  0.000  0.000  0.000  0.000
  0.000  0.000  0.079  0.921  0.000
  0.000  1.000  0.000  0.000  0.000
    occupations:
  0.251 -0.000 -0.000  0.035  0.000
 -0.000  0.436  0.000 -0.000 -0.000
 -0.000  0.000  0.182  0.000  0.000
  0.035 -0.000  0.000  0.361 -0.000
  0.000 -0.000  0.000 -0.000  0.223
atom   23   Tr[ns(na)] =   2.83226
    eigenvalues:
  0.184  0.230  0.235  0.333  0.434
    eigenvectors:
  0.025  0.000  0.000  0.975  0.000
  0.000  0.000  1.000  0.000  0.000
  0.000  1.000  0.000  0.000  0.000
  0.975  0.000  0.000  0.025  0.000
  0.000  0.000  0.000  0.000  1.000
    occupations:
  0.329 -0.000 -0.000 -0.023 -0.000
 -0.000  0.235 -0.000 -0.000  0.000
 -0.000 -0.000  0.230 -0.000  0.000
 -0.023 -0.000 -0.000  0.187 -0.000
 -0.000  0.000  0.000 -0.000  0.434
N of occupied +U levels =  22.8857626
 --- exit write_ns ---

     Threshold (ethr) on eigenvalues was too large:
     Diagonalizing with lowered threshold

     Davidson diagonalization with overlap
     ethr =  3.41E-08,  avg # of iterations =  1.8

[...]

     total energy              =   -1534.11626490 Ry
     Harris-Foulkes estimate   =   -1534.11626491 Ry
     estimated scf accuracy    <       0.00000002 Ry

     iteration #  8     ecut=    40.00 Ry     beta=0.70
     Davidson diagonalization with overlap
     ethr =  9.67E-12,  avg # of iterations =  1.0

     negative rho (up, down):  0.103E+00 0.000E+00

     End of self-consistent calculation
 --- enter write_ns ---
 LDA+U parameters:
U( 2)     =  1.50000000
alpha( 2) =  0.00000000
atom    3   Tr[ns(na)] =   2.78886
    eigenvalues:
  0.170  0.194  0.226  0.401  0.404
    eigenvectors:
  0.790  0.000  0.012  0.198  0.000
  0.000  0.003  0.000  0.000  0.997
  0.013  0.000  0.987  0.000  0.000
  0.197  0.000  0.001  0.802  0.000
  0.000  0.997  0.000  0.000  0.003
    occupations:
  0.216 -0.000 -0.004  0.092 -0.000
 -0.000  0.403  0.000  0.000  0.011
 -0.004  0.000  0.225  0.006 -0.000
  0.092  0.000  0.006  0.355 -0.000
 -0.000  0.011 -0.000 -0.000  0.194
atom    4   Tr[ns(na)] =   2.91796
    eigenvalues:
  0.172  0.208  0.236  0.410  0.433
    eigenvectors:
  0.006  0.004  0.000  0.000  0.990
  0.001  0.955  0.040  0.000  0.004
  0.000  0.039  0.960  0.000  0.000
  0.992  0.002  0.000  0.000  0.005
  0.000  0.000  0.000  1.000  0.000
    occupations:
  0.430  0.014  0.003 -0.019 -0.000
  0.014  0.210 -0.005  0.000 -0.002
  0.003 -0.005  0.235  0.001 -0.000
 -0.019  0.000  0.001  0.173 -0.000
 -0.000 -0.002 -0.000 -0.000  0.410
atom    9   Tr[ns(na)] =   2.90719
    eigenvalues:
  0.183  0.223  0.240  0.372  0.436
    eigenvectors:
  0.000  0.000  0.922  0.078  0.000
  0.000  0.000  0.000  0.000  1.000
  1.000  0.000  0.000  0.000  0.000
  0.000  0.000  0.078  0.922  0.000
  0.000  1.000  0.000  0.000  0.000
    occupations:
  0.251 -0.000 -0.000  0.035  0.000
 -0.000  0.436  0.000 -0.000 -0.000
 -0.000  0.000  0.183  0.000  0.000
  0.035 -0.000  0.000  0.362 -0.000
  0.000 -0.000  0.000 -0.000  0.223
atom   10   Tr[ns(na)] =   2.83194
    eigenvalues:
  0.184  0.230  0.235  0.333  0.434
    eigenvectors:
  0.025  0.000  0.000  0.975  0.000
  0.000  0.000  1.000  0.000  0.000
  0.000  1.000  0.000  0.000  0.000
  0.975  0.000  0.000  0.025  0.000
  0.000  0.000  0.000  0.000  1.000
    occupations:
  0.329 -0.000 -0.000 -0.023 -0.000
 -0.000  0.235 -0.000 -0.000  0.000
 -0.000 -0.000  0.230 -0.000  0.000
 -0.023 -0.000 -0.000  0.187 -0.000
 -0.000  0.000  0.000 -0.000  0.434
atom   16   Tr[ns(na)] =   2.78886
    eigenvalues:
  0.170  0.194  0.226  0.401  0.404
    eigenvectors:
  0.790  0.000  0.012  0.198  0.000
  0.000  0.003  0.000  0.000  0.997
  0.013  0.000  0.987  0.000  0.000
  0.197  0.000  0.001  0.802  0.000
  0.000  0.997  0.000  0.000  0.003
    occupations:
  0.216 -0.000 -0.004  0.092 -0.000
 -0.000  0.403  0.000  0.000  0.011
 -0.004  0.000  0.225  0.006 -0.000
  0.092  0.000  0.006  0.355 -0.000
 -0.000  0.011 -0.000 -0.000  0.194
atom   17   Tr[ns(na)] =   2.91796
    eigenvalues:
  0.172  0.208  0.236  0.410  0.433
    eigenvectors:
  0.006  0.004  0.000  0.000  0.990
  0.001  0.955  0.040  0.000  0.004
  0.000  0.039  0.960  0.000  0.000
  0.992  0.002  0.000  0.000  0.005
  0.000  0.000  0.000  1.000  0.000
    occupations:
  0.430  0.014  0.003 -0.019 -0.000
  0.014  0.210 -0.005  0.000 -0.002
  0.003 -0.005  0.235  0.001 -0.000
 -0.019  0.000  0.001  0.173 -0.000
 -0.000 -0.002 -0.000 -0.000  0.410
atom   22   Tr[ns(na)] =   2.90719
    eigenvalues:
  0.183  0.223  0.240  0.372  0.436
    eigenvectors:
  0.000  0.000  0.922  0.078  0.000
  0.000  0.000  0.000  0.000  1.000
  1.000  0.000  0.000  0.000  0.000
  0.000  0.000  0.078  0.922  0.000
  0.000  1.000  0.000  0.000  0.000
    occupations:
  0.251 -0.000 -0.000  0.035  0.000
 -0.000  0.436  0.000 -0.000 -0.000
 -0.000  0.000  0.183  0.000  0.000
  0.035 -0.000  0.000  0.362 -0.000
  0.000 -0.000  0.000 -0.000  0.223
atom   23   Tr[ns(na)] =   2.83194
    eigenvalues:
  0.184  0.230  0.235  0.333  0.434
    eigenvectors:
  0.025  0.000  0.000  0.975  0.000
  0.000  0.000  1.000  0.000  0.000
  0.000  1.000  0.000  0.000  0.000
  0.975  0.000  0.000  0.025  0.000
  0.000  0.000  0.000  0.000  1.000
    occupations:
  0.329 -0.000 -0.000 -0.023 -0.000
 -0.000  0.235 -0.000 -0.000  0.000
 -0.000 -0.000  0.230 -0.000  0.000
 -0.023 -0.000 -0.000  0.187 -0.000
 -0.000  0.000  0.000 -0.000  0.434
N of occupied +U levels =  22.8918923
 --- exit write_ns ---

[...]

          k = 0.2500-0.4516 0.0000 ( 29882 PWs)   bands (ev):

[...]

          k =-0.2500 0.2258 0.0000 ( 29912 PWs)   bands (ev):

   -61.0298 -61.0037 -60.5960 -60.5693 -59.4399 -59.4113 -59.0273 -58.9990
   -37.5347 -37.2766 -37.2500 -37.2031 -37.0921 -37.0697 -36.9741 -36.9334
   -36.9116 -36.7774 -36.7106 -36.6780 -36.0184 -35.7734 -35.6984 -35.6974
   -35.5241 -35.5023 -35.4282 -35.3710 -35.3479 -35.2554 -35.1825 -35.1010
   -22.2050 -21.9961 -20.9578 -20.7997 -20.3310 -20.2365 -19.9106 -19.7396
   -19.6801 -19.5851 -19.5451 -19.5091 -19.3289 -19.2775 -18.7451 -18.3637
   -18.1281 -18.0575  -9.8990  -9.6099  -8.1764  -8.0138  -7.8779  -7.8553
    -7.8303  -7.8002  -7.4229  -7.4148  -7.1837  -7.1663  -7.0213  -6.9723
    -6.9643  -6.8148  -6.8019  -6.5820  -6.5311  -6.3626  -6.1888  -6.1515
    -6.0686  -5.8053  -5.7848  -5.6587  -5.6302  -5.4389  -5.4241  -5.3789
    -5.2629  -5.1696  -5.1515  -5.0845  -4.9778  -4.9357  -4.8535  -4.7738
    -4.6780  -4.5652  -4.4855  -4.4721  -3.9604  -3.8195  -3.7005  -3.5087
    -3.4415  -3.3853  -3.2759  -3.2417  -3.1918  -2.9461  -2.8595  -2.7172
    -1.3847  -1.0877  -0.9578  -0.8841  -0.8237  -0.6417  -0.5929  -0.4704
    -0.1808  -0.0940   0.0685   0.0948   0.1655   0.3858   0.6787   0.6950
     0.7977   0.8100   0.9780   1.0993   1.1871   1.2840   1.4868   1.5244
     1.6344   1.6711   1.7344   1.7736   1.7891   2.0069   2.0842   2.6468
     3.0771   3.1767   3.3237   3.4946   3.6172   3.6712   3.7687   3.9401
     4.1138   4.3477   4.4170   4.6042   4.9501   4.9729   5.2325   5.6709
     5.8282   5.8602   5.9957   6.1022   6.1257   6.4323   6.4529   6.8074
     6.8141   7.1430   7.2329   7.3780   7.5080   7.7161   7.8250   7.8472
     7.8593   7.9880   8.0289   8.2060   8.4536   8.5137   8.6039   8.7787
     8.8267   8.9581   9.2395   9.3157   9.3367   9.3644   9.4151   9.5178
     9.5845   9.6434   9.9088   9.9592  10.0368  10.1886  10.2189  10.3823
    10.4436  10.6243  10.6251  10.6955  10.8596  10.8857  10.9937  11.0092
    11.1400  11.2778  11.2931  11.3801  11.4111  11.4536  11.5764  11.6433
    11.7916  11.8004  11.8822  11.9579  11.9649  12.0573  12.1110  12.2901
    12.3257  12.3526  12.5076  12.6109  12.6766  12.6998  12.7682  12.8651
    12.9043  12.9915  13.1036  13.2154  13.2959  13.3807  13.4421  13.5230
    13.6010  13.6815  13.7591  13.7637  13.8471  13.9097  14.0001  14.0949
    14.1294  14.2319  14.2784  14.3098  14.5201  14.5517  14.5764  14.6132
    14.7402  14.7582  14.8696  14.9439  15.0489  15.0680  15.1530  15.2601
    15.3493  15.3747  15.4724  15.5388  15.6332  15.7479  15.7702  15.8095
    15.8104  15.9138  15.9278  16.0949  16.1462  16.2148  16.2495  16.3513
    16.3939  16.5449  16.6706  16.7159  16.7876  16.8296  16.8324  16.8723
    16.9721  16.9777  17.0540  17.0899  17.2420  17.2787  17.2887  17.3909
    17.4601  17.4716  17.5502  17.5619  17.7420  17.8129  17.8816  18.0072
    18.0380  18.1862  18.2160  18.2994

     the Fermi energy is    -2.6205 ev

!    total energy              =   -1534.11626490 Ry
     Harris-Foulkes estimate   =   -1534.11626490 Ry
     estimated scf accuracy    <          3.8E-09 Ry

     The total energy is the sum of the following terms:

     one-electron contribution =  -18371.05299896 Ry
     hartree contribution      =    9199.55159699 Ry
     xc contribution           =    -269.83845246 Ry
     ewald contribution        =    7906.36526645 Ry
     Hubbard energy            =       0.85709801 Ry
     smearing contrib. (-TS)   =       0.00122507 Ry

     convergence has been achieved in   8 iterations

     Forces acting on atoms (Ry/au):

     negative rho (up, down):  0.103E+00 0.000E+00
     atom    1 type  1   force =     0.00023415   -0.01598494    0.00088360
     atom    2 type  1   force =     0.00002308    0.02445281    0.00055772
     atom    3 type  2   force =     0.00018263   -0.01531709   -0.00058381
     atom    4 type  2   force =    -0.00461485    0.00873697    0.00065102
     atom    5 type  1   force =     0.00368960   -0.10900344   -0.00067663
     atom    6 type  1   force =    -0.00133501    0.10850661   -0.00073456
     atom    7 type  1   force =    -0.00005233    0.00103217   -0.00048929
     atom    8 type  1   force =     0.00271029   -0.00157718   -0.00022173
     atom    9 type  2   force =    -0.00070505    0.00011410    0.00020987
     atom   10 type  2   force =    -0.00004567   -0.00027934   -0.00095138
     atom   11 type  1   force =     0.00007986   -0.04319332    0.00088230
     atom   12 type  1   force =    -0.00000991    0.04324412    0.00088562
     atom   13 type  1   force =     0.00050232   -0.00004730    0.00047077
     atom   14 type  1   force =     0.00023416   -0.01598494    0.00088360
     atom   15 type  1   force =     0.00002308    0.02445281    0.00055772
     atom   16 type  2   force =     0.00018262   -0.01531709   -0.00058381
     atom   17 type  2   force =    -0.00461485    0.00873697    0.00065102
     atom   18 type  1   force =     0.00368960   -0.10900344   -0.00067663
     atom   19 type  1   force =    -0.00133501    0.10850662   -0.00073456
     atom   20 type  1   force =    -0.00005233    0.00103217   -0.00048929
     atom   21 type  1   force =     0.00271029   -0.00157718   -0.00022173
     atom   22 type  2   force =    -0.00070507    0.00011410    0.00020987
     atom   23 type  2   force =    -0.00004567   -0.00027934   -0.00095140
     atom   24 type  1   force =     0.00007986   -0.04319332    0.00088230
     atom   25 type  1   force =    -0.00000991    0.04324413    0.00088561
     atom   26 type  1   force =     0.00050232   -0.00004730    0.00047076
     atom   27 type  3   force =     0.00004456   -0.00079996   -0.00054667
     atom   28 type  3   force =     0.00004456   -0.00079996   -0.00054668
     atom   29 type  3   force =    -0.00070366    0.00011578   -0.00033679
     atom   30 type  3   force =    -0.00070367    0.00011578   -0.00033679

     Total force =     0.003857     Total SCF correction =     0.000089

     bfgs converged in   6 scf cycles and   5 bfgs steps
     (criteria: energy < 0.10E-03, force < 0.10E-02)

     End of BFGS Geometry Optimization

     Final energy   =   -1534.1162649013 Ry
Begin final coordinates

ATOMIC_POSITIONS (crystal)
O0       0.000000000   0.000000000   0.379205114    0   0   1
O0       0.000000000   0.500000000   0.399638052    0   0   1
Ti1      0.250000000   0.500000000   0.450493972    0   0   1
Ti1      0.000000000   0.000000000   0.452350785    0   0   1
O0       0.250000000   0.810000000   0.450972274    0   0   1
O0       0.250000000   0.190000000   0.452029363    0   0   1
O0       0.000000000   0.500000000   0.498940428    0   0   1
O0       0.000000000   0.000000000   0.526875995    0   0   1
Ti1      0.250000000   0.000000000   0.581280009    0   0   1
Ti1      0.000000000   0.500000000   0.569986940    0   0   1
O0       0.250000000   0.690000000   0.580557948    0   0   1
O0       0.250000000   0.310000000   0.580572411    0   0   1
O0       0.000000000   0.000000000   0.622909961    0   0   1
O0       0.500000000   0.000000000   0.379205113    0   0   1
O0       0.500000000   0.500000000   0.399638052    0   0   1
Ti1      0.750000000   0.500000000   0.450493972    0   0   1
Ti1      0.500000000   0.000000000   0.452350784    0   0   1
O0       0.750000000   0.810000000   0.450972274    0   0   1
O0       0.750000000   0.190000000   0.452029362    0   0   1
O0       0.500000000   0.500000000   0.498940429    0   0   1
O0       0.500000000   0.000000000   0.526875995    0   0   1
Ti1      0.750000000   0.000000000   0.581280009    0   0   1
Ti1      0.500000000   0.500000000   0.569986942    0   0   1
O0       0.750000000   0.690000000   0.580557948    0   0   1
O0       0.750000000   0.310000000   0.580572411    0   0   1
O0       0.500000000   0.000000000   0.622909962    0   0   1
H2      -0.000475082   0.632065440   0.381084237
H2       0.499524917   0.632065440   0.381084237
H2       0.150983325   0.023145920   0.364672511
H2       0.650983327   0.023145920   0.364672511
End final coordinates

     General routines

     Parallel routines
     Hubbard U routines

   This run was terminated on:  15:52:17   6May2014

   JOB DONE.