     Program PWSCF v.5.0.2 (svn rev. 9656) starts on 30Apr2014 at 20:30: 1

     Current dimensions of program PWSCF are:
     Max number of different atomic species (ntypx) = 10
     Max number of k-points (npk) =  40000
     Max angular momentum in pseudopotentials (lmaxx) =  3
     Reading input from pwscf.in
Warning: card &CELL ignored
Warning: card / ignored

     Subspace diagonalization in iterative solution of the eigenvalue problem:
     a serial algorithm will be used

     bravais-lattice index     =            0
     lattice parameter (alat)  =      11.7541  a.u.
     unit-cell volume          =    7139.8207 (a.u.)^3
     number of atoms/cell      =           32
     number of atomic types    =            3
     number of electrons       =       239.00
     number of Kohn-Sham states=          358
     kinetic-energy cutoff     =      40.0000  Ry
     charge density cutoff     =     500.0000  Ry
     convergence threshold     =      1.0E-06
     mixing beta               =       0.7000
     number of iterations used =            8  plain     mixing
     Exchange-correlation      = SLA  PW   PBE  PBE ( 1 4 3 4 0)
     EXX-fraction              =        0.00
     nstep                     =           50

     celldm(1)=  11.754097  celldm(2)=   0.000000  celldm(3)=   0.000000
     celldm(4)=   0.000000  celldm(5)=   0.000000  celldm(6)=   0.000000

     crystal axes: (cart. coord. in units of alat)
               a(1) = (   1.000000   0.000000   0.000000 )
               a(2) = (   0.000000   1.034513   0.000000 )
               a(3) = (   0.000000   0.000000   4.249947 )

     reciprocal axes: (cart. coord. in units 2 pi/alat)
               b(1) = (  1.000000  0.000000  0.000000 )
               b(2) = (  0.000000  0.966638  0.000000 )
               b(3) = (  0.000000  0.000000  0.235297 )

     PseudoPot. # 1 for O  read from file:
     /home/camp/zhonxu/pseudo/o_pbe_v1.01.uspp.F.UPF
     MD5 check sum: 2bcb18d16ea4b960afae9ec6d52f22d2
     Pseudo is Ultrasoft + core correction, Zval =  6.0
     Generated by new atomic code, or converted to UPF format
     Using radial grid of  737 points,  5 beta functions with:
                l(1) =   0
                l(2) =   0
                l(3) =   1
                l(4) =   1
                l(5) =   2
     Q(r) pseudized with  8 coefficients,  rinner =    0.900   0.900   0.900
                                                       0.900   0.900

     PseudoPot. # 2 for Rh read from file:
     /home/camp/zhonxu/pseudo/rh_pbe_v1.uspp.F.UPF
     MD5 check sum: 37b626987ad0dd8ec6bf4cc9ef289918
     Pseudo is Ultrasoft + core correction, Zval = 15.0
     Generated by new atomic code, or converted to UPF format
     Using radial grid of  969 points,  7 beta functions with:
                l(1) =   0
                l(2) =   0
                l(3) =   1
                l(4) =   1
                l(5) =   2
                l(6) =   2
                l(7) =   2
     Q(r) pseudized with  6 coefficients,  rinner =    1.050   1.050   1.050
                                                       1.050   1.050

     PseudoPot. # 3 for H  read from file:
     /home/camp/zhonxu/pseudo/h_pbe_v1.uspp.F.UPF
     MD5 check sum: 3408e3ff4ec8b0a4e358431e7e038a48
     Pseudo is Ultrasoft, Zval =  1.0
     Generated by new atomic code, or converted to UPF format
     Using radial grid of  615 points,  2 beta functions with:
                l(1) =   0
                l(2) =   0
     Q(r) pseudized with  8 coefficients,  rinner =    0.700

     atomic species   valence    mass     pseudopotential
        O0             6.00    15.99940     O ( 1.00)
        Rh1           15.00   102.90550     Rh( 1.00)
        H2             1.00     1.00794     H ( 1.00)

     Simplified LDA+U calculation (l_max = 2) with parameters (eV):
     atomic species    L          U    alpha       J0     beta
        Rh1            2     4.0000   0.0000   0.0000   0.0000

     No symmetry found

   Cartesian axes

     site n.     atom                  positions (alat units)
         1           O0  tau(   1) = (   0.0000000   0.0000000   1.6077125  )
         2           O0  tau(   2) = (   0.0000000   0.5172566   1.7060138  )
         3           Rh1 tau(   3) = (   0.2500000   0.5172566   1.9233561  )
         4           Rh1 tau(   4) = (   0.0000000   0.0000000   1.9242061  )
         5           O0  tau(   5) = (   0.2500000   0.8379556   1.9221236  )
         6           O0  tau(   6) = (   0.2500000   0.1965575   1.9218261  )
         7           O0  tau(   7) = (   0.0000000   0.5172566   2.1180887  )
         8           O0  tau(   8) = (   0.0000000   0.0000000   2.2452046  )
         9           Rh1 tau(   9) = (   0.2500000   0.0000000   2.4467796  )
        10           Rh1 tau(  10) = (   0.0000000   0.5172566   2.4248074  )
        11           O0  tau(  11) = (   0.2500000   0.7138141   2.4490746  )
        12           O0  tau(  12) = (   0.2500000   0.3206991   2.4494996  )
        13           O0  tau(  13) = (   0.0000000   0.0000000   2.6392597  )
        14           O0  tau(  14) = (   0.5000000   0.0000000   1.6071175  )
        15           O0  tau(  15) = (   0.5000000   0.5172566   1.7046963  )
        16           Rh1 tau(  16) = (   0.7500000   0.5172566   1.9233561  )
        17           Rh1 tau(  17) = (   0.5000000   0.0000000   1.9236961  )
        18           O0  tau(  18) = (   0.7500000   0.8379556   1.9222086  )
        19           O0  tau(  19) = (   0.7500000   0.1965575   1.9219111  )
        20           O0  tau(  20) = (   0.5000000   0.5172566   2.1234861  )
        21           O0  tau(  21) = (   0.5000000   0.0000000   2.2446521  )
        22           Rh1 tau(  22) = (   0.7500000   0.0000000   2.4466946  )
        23           Rh1 tau(  23) = (   0.5000000   0.5172566   2.4467371  )
        24           O0  tau(  24) = (   0.7500000   0.7138141   2.4449521  )
        25           O0  tau(  25) = (   0.7500000   0.3206991   2.4452921  )
        26           O0  tau(  26) = (   0.5000000   0.0000000   2.6379847  )
        27           H2  tau(  27) = (  -0.0000100   0.6596573   1.6332972  )
        28           H2  tau(  28) = (   0.4999400   0.6612505   1.6349547  )
        29           H2  tau(  29) = (   0.1484100   0.0351631   1.5627056  )
        30           H2  tau(  30) = (   0.6482100   0.0356700   1.5619406  )
        31           O0  tau(  31) = (   0.5154200   0.5168841   2.7565583  )
        32           H2  tau(  32) = (   0.3686900   0.5167083   2.8162275  )

     number of k points=    10  Methfessel-Paxton smearing, width (Ry)=  0.0100
                       cart. coord. in units 2pi/alat
        k(    1) = (   0.0000000   0.0000000   0.0000000), wk =   0.1250000
        k(    2) = (   0.0000000   0.2416596   0.0000000), wk =   0.2500000
        k(    3) = (   0.0000000  -0.4833191   0.0000000), wk =   0.1250000
        k(    4) = (   0.2500000   0.0000000   0.0000000), wk =   0.2500000
        k(    5) = (   0.2500000   0.2416596   0.0000000), wk =   0.2500000
        k(    6) = (   0.2500000  -0.4833191   0.0000000), wk =   0.2500000
        k(    7) = (  -0.5000000   0.0000000   0.0000000), wk =   0.1250000
        k(    8) = (  -0.5000000   0.2416596   0.0000000), wk =   0.2500000
        k(    9) = (  -0.5000000  -0.4833191   0.0000000), wk =   0.1250000
        k(   10) = (  -0.2500000   0.2416596   0.0000000), wk =   0.2500000

     Largest allocated arrays     est. size (Mb)     dimensions
     Largest temporary arrays     est. size (Mb)     dimensions

     Check: negative/imaginary core charge=   -0.000003    0.000000

     Initial potential from superposition of free atoms
     Check: negative starting charge=   -0.644969

     starting charge  234.99914, renormalised to  239.00000

     negative rho (up, down):  0.656E+00 0.000E+00
     Number of +U iterations with fixed ns =  0
     Starting occupations:
 --- enter write_ns ---
 LDA+U parameters:
U( 2)     =  4.00000000
alpha( 2) =  0.00000000
atom    3   Tr[ns(na)] =   7.00000
    eigenvalues:
  0.700  0.700  0.700  0.700  0.700
    eigenvectors:
  1.000  0.000  0.000  0.000  0.000
  0.000  1.000  0.000  0.000  0.000
  0.000  0.000  1.000  0.000  0.000
  0.000  0.000  0.000  1.000  0.000
  0.000  0.000  0.000  0.000  1.000
    occupations:
  0.700  0.000  0.000  0.000  0.000
  0.000  0.700  0.000  0.000  0.000
  0.000  0.000  0.700  0.000  0.000
  0.000  0.000  0.000  0.700  0.000
  0.000  0.000  0.000  0.000  0.700
atom    4   Tr[ns(na)] =   7.00000
    eigenvalues:
  0.700  0.700  0.700  0.700  0.700
    eigenvectors:
  1.000  0.000  0.000  0.000  0.000
  0.000  1.000  0.000  0.000  0.000
  0.000  0.000  1.000  0.000  0.000
  0.000  0.000  0.000  1.000  0.000
  0.000  0.000  0.000  0.000  1.000
    occupations:
  0.700  0.000  0.000  0.000  0.000
  0.000  0.700  0.000  0.000  0.000
  0.000  0.000  0.700  0.000  0.000
  0.000  0.000  0.000  0.700  0.000
  0.000  0.000  0.000  0.000  0.700
atom    9   Tr[ns(na)] =   7.00000
    eigenvalues:
  0.700  0.700  0.700  0.700  0.700
    eigenvectors:
  1.000  0.000  0.000  0.000  0.000
  0.000  1.000  0.000  0.000  0.000
  0.000  0.000  1.000  0.000  0.000
  0.000  0.000  0.000  1.000  0.000
  0.000  0.000  0.000  0.000  1.000
    occupations:
  0.700  0.000  0.000  0.000  0.000
  0.000  0.700  0.000  0.000  0.000
  0.000  0.000  0.700  0.000  0.000
  0.000  0.000  0.000  0.700  0.000
  0.000  0.000  0.000  0.000  0.700
atom   10   Tr[ns(na)] =   7.00000
    eigenvalues:
  0.700  0.700  0.700  0.700  0.700
    eigenvectors:
  1.000  0.000  0.000  0.000  0.000
  0.000  1.000  0.000  0.000  0.000
  0.000  0.000  1.000  0.000  0.000
  0.000  0.000  0.000  1.000  0.000
  0.000  0.000  0.000  0.000  1.000
    occupations:
  0.700  0.000  0.000  0.000  0.000
  0.000  0.700  0.000  0.000  0.000
  0.000  0.000  0.700  0.000  0.000
  0.000  0.000  0.000  0.700  0.000
  0.000  0.000  0.000  0.000  0.700
atom   16   Tr[ns(na)] =   7.00000
    eigenvalues:
  0.700  0.700  0.700  0.700  0.700
    eigenvectors:
  1.000  0.000  0.000  0.000  0.000
  0.000  1.000  0.000  0.000  0.000
  0.000  0.000  1.000  0.000  0.000
  0.000  0.000  0.000  1.000  0.000
  0.000  0.000  0.000  0.000  1.000
    occupations:
  0.700  0.000  0.000  0.000  0.000
  0.000  0.700  0.000  0.000  0.000
  0.000  0.000  0.700  0.000  0.000
  0.000  0.000  0.000  0.700  0.000
  0.000  0.000  0.000  0.000  0.700
atom   17   Tr[ns(na)] =   7.00000
    eigenvalues:
  0.700  0.700  0.700  0.700  0.700
    eigenvectors:
  1.000  0.000  0.000  0.000  0.000
  0.000  1.000  0.000  0.000  0.000
  0.000  0.000  1.000  0.000  0.000
  0.000  0.000  0.000  1.000  0.000
  0.000  0.000  0.000  0.000  1.000
    occupations:
  0.700  0.000  0.000  0.000  0.000
  0.000  0.700  0.000  0.000  0.000
  0.000  0.000  0.700  0.000  0.000
  0.000  0.000  0.000  0.700  0.000
  0.000  0.000  0.000  0.000  0.700
atom   22   Tr[ns(na)] =   7.00000
    eigenvalues:
  0.700  0.700  0.700  0.700  0.700
    eigenvectors:
  1.000  0.000  0.000  0.000  0.000
  0.000  1.000  0.000  0.000  0.000
  0.000  0.000  1.000  0.000  0.000
  0.000  0.000  0.000  1.000  0.000
[...]
  0.928  0.000 -0.000 -0.120 -0.000
  0.000  0.637  0.001  0.001 -0.000
 -0.000  0.001  0.864 -0.000 -0.003
 -0.120  0.001 -0.000  0.695  0.001
 -0.000 -0.000 -0.003  0.001  0.899
atom   10   Tr[ns(na)] =   8.04185
    eigenvalues:
  0.594  0.599  0.923  0.927  0.979
    eigenvectors:
  0.000  0.992  0.000  0.000  0.008
  0.000  0.000  1.000  0.000  0.000
  0.000  0.000  0.000  1.000  0.000
  0.000  0.008  0.000  0.000  0.992
  1.000  0.000  0.000  0.000  0.000
    occupations:
  0.602 -0.003  0.001  0.034 -0.000
 -0.003  0.923  0.000  0.000 -0.000
  0.001  0.000  0.927  0.000  0.003
  0.034  0.000  0.000  0.976  0.000
 -0.000 -0.000  0.003  0.000  0.594
atom   16   Tr[ns(na)] =   8.05162
    eigenvalues:
  0.583  0.605  0.900  0.962  0.977
    eigenvectors:
  0.008  0.193  0.003  0.001  0.796
  0.971  0.029  0.000  0.000  0.000
  0.000  0.000  0.972  0.026  0.002
  0.021  0.778  0.000  0.000  0.200
  0.000  0.000  0.025  0.973  0.001
    occupations:
  0.902  0.006  0.002 -0.149  0.001
  0.006  0.584  0.001  0.001 -0.006
  0.002  0.001  0.901 -0.004 -0.010
 -0.149  0.001 -0.004  0.679  0.000
  0.001 -0.006 -0.010  0.000  0.960
atom   17   Tr[ns(na)] =   8.04990
    eigenvalues:
  0.599  0.649  0.877  0.922  0.978
    eigenvectors:
  0.001  0.991  0.000  0.000  0.008
  0.000  0.000  0.080  0.920  0.000
  0.000  0.000  0.920  0.080  0.000
  0.000  0.008  0.000  0.000  0.992
  0.999  0.001  0.000  0.000  0.000
    occupations:
  0.651 -0.004 -0.001  0.028  0.001
 -0.004  0.919  0.012  0.001 -0.001
 -0.001  0.012  0.881 -0.000  0.001
  0.028  0.001 -0.000  0.976  0.000
  0.001 -0.001  0.001  0.000  0.599
atom   22   Tr[ns(na)] =   8.04176
    eigenvalues:
  0.637  0.646  0.856  0.903  0.979
    eigenvectors:
  0.000  0.150  0.000  0.000  0.849
  0.999  0.001  0.000  0.000  0.000
  0.000  0.000  0.996  0.004  0.000
  0.001  0.849  0.000  0.000  0.151
  0.000  0.000  0.004  0.996  0.000
    occupations:
  0.929  0.001 -0.000 -0.119 -0.000
  0.001  0.637  0.001 -0.001 -0.000
 -0.000  0.001  0.856 -0.000  0.003
 -0.119 -0.001 -0.000  0.696  0.001
 -0.000 -0.000  0.003  0.001  0.902
atom   23   Tr[ns(na)] =   8.03938
    eigenvalues:
  0.605  0.652  0.855  0.931  0.977
    eigenvectors:
  0.000  0.991  0.000  0.000  0.008
  0.000  0.000  0.000  0.999  0.000
  0.000  0.000  1.000  0.000  0.000
  0.000  0.008  0.000  0.000  0.992
  1.000  0.000  0.000  0.000  0.000
    occupations:
  0.655  0.006 -0.000  0.030 -0.000
  0.006  0.931 -0.000 -0.000 -0.000
 -0.000 -0.000  0.855  0.000 -0.002
  0.030 -0.000  0.000  0.975  0.000
 -0.000 -0.000 -0.002  0.000  0.605
N of occupied +U levels =  64.3720683
 --- exit write_ns ---

     Threshold (ethr) on eigenvalues was too large:
     Diagonalizing with lowered threshold

     Davidson diagonalization with overlap
     ethr =  1.95E-08,  avg # of iterations =  2.0

[...]

     total energy              =   -1980.02155379 Ry
     Harris-Foulkes estimate   =   -1980.02155379 Ry
     estimated scf accuracy    <       0.00000005 Ry

     iteration # 15     ecut=    40.00 Ry     beta=0.70
     Davidson diagonalization with overlap
     ethr =  1.13E-11,  avg # of iterations =  1.0

     negative rho (up, down):  0.692E+00 0.000E+00

     End of self-consistent calculation
 --- enter write_ns ---
 LDA+U parameters:
U( 2)     =  4.00000000
alpha( 2) =  0.00000000
atom    3   Tr[ns(na)] =   8.05144
    eigenvalues:
  0.582  0.604  0.900  0.962  0.977
    eigenvectors:
  0.007  0.194  0.003  0.001  0.796
  0.974  0.026  0.000  0.000  0.000
  0.000  0.000  0.966  0.032  0.002
  0.019  0.780  0.000  0.000  0.200
  0.000  0.000  0.031  0.967  0.001
    occupations:
  0.902 -0.006  0.002 -0.149 -0.002
 -0.006  0.583 -0.002 -0.001 -0.006
  0.002 -0.002  0.902 -0.004  0.011
 -0.149 -0.001 -0.004  0.679 -0.001
 -0.002 -0.006  0.011 -0.001  0.960
atom    4   Tr[ns(na)] =   8.04915
    eigenvalues:
  0.600  0.649  0.874  0.924  0.978
    eigenvectors:
  0.001  0.991  0.000  0.000  0.008
  0.000  0.000  0.053  0.946  0.000
  0.000  0.000  0.946  0.053  0.000
  0.000  0.008  0.000  0.000  0.992
  0.999  0.001  0.000  0.000  0.000
    occupations:
  0.652 -0.004 -0.001  0.029  0.001
 -0.004  0.921  0.011  0.001 -0.001
 -0.001  0.011  0.876 -0.000  0.001
  0.029  0.001 -0.000  0.975  0.000
  0.001 -0.001  0.001  0.000  0.600
atom    9   Tr[ns(na)] =   8.04582
    eigenvalues:
  0.636  0.645  0.864  0.900  0.979
    eigenvectors:
  0.002  0.150  0.000  0.000  0.848
  0.984  0.016  0.000  0.000  0.000
  0.000  0.000  0.994  0.006  0.000
  0.014  0.834  0.000  0.000  0.152
  0.000  0.000  0.006  0.994  0.000
    occupations:
  0.928  0.000 -0.000 -0.120 -0.000
  0.000  0.637  0.001  0.001 -0.000
 -0.000  0.001  0.864 -0.000 -0.003
 -0.120  0.001 -0.000  0.695  0.001
 -0.000 -0.000 -0.003  0.001  0.899
atom   10   Tr[ns(na)] =   8.04253
    eigenvalues:
  0.594  0.599  0.923  0.927  0.979
    eigenvectors:
  0.000  0.992  0.000  0.000  0.008
  0.000  0.000  1.000  0.000  0.000
  0.000  0.000  0.000  1.000  0.000
  0.000  0.008  0.000  0.000  0.992
  1.000  0.000  0.000  0.000  0.000
    occupations:
  0.602 -0.003  0.001  0.034 -0.000
 -0.003  0.923  0.000  0.000 -0.000
  0.001  0.000  0.927  0.000  0.003
  0.034  0.000  0.000  0.976  0.000
 -0.000 -0.000  0.003  0.000  0.594
atom   16   Tr[ns(na)] =   8.05128
    eigenvalues:
  0.583  0.605  0.899  0.962  0.977
    eigenvectors:
  0.008  0.193  0.003  0.001  0.796
  0.971  0.029  0.000  0.000  0.000
  0.000  0.000  0.972  0.026  0.002
  0.021  0.778  0.000  0.000  0.200
  0.000  0.000  0.025  0.973  0.001
    occupations:
  0.902  0.006  0.002 -0.149  0.001
  0.006  0.584  0.001  0.001 -0.006
  0.002  0.001  0.901 -0.004 -0.010
 -0.149  0.001 -0.004  0.679  0.000
  0.001 -0.006 -0.010  0.000  0.960
atom   17   Tr[ns(na)] =   8.04909
    eigenvalues:
  0.599  0.648  0.877  0.922  0.978
    eigenvectors:
  0.001  0.991  0.000  0.000  0.008
  0.000  0.000  0.080  0.920  0.000
  0.000  0.000  0.920  0.080  0.000
  0.000  0.008  0.000  0.000  0.992
  0.999  0.001  0.000  0.000  0.000
    occupations:
  0.651 -0.004 -0.001  0.028  0.001
 -0.004  0.919  0.012  0.001 -0.001
 -0.001  0.012  0.880 -0.000  0.001
  0.028  0.001 -0.000  0.976  0.000
  0.001 -0.001  0.001  0.000  0.599
atom   22   Tr[ns(na)] =   8.04240
    eigenvalues:
  0.637  0.646  0.856  0.903  0.979
    eigenvectors:
  0.000  0.150  0.000  0.000  0.849
  0.999  0.001  0.000  0.000  0.000
  0.000  0.000  0.996  0.004  0.000
  0.001  0.849  0.000  0.000  0.151
  0.000  0.000  0.004  0.996  0.000
    occupations:
  0.929  0.001 -0.000 -0.119 -0.000
  0.001  0.637  0.001 -0.001 -0.000
 -0.000  0.001  0.856 -0.000  0.003
 -0.119 -0.001 -0.000  0.696  0.001
 -0.000 -0.000  0.003  0.001  0.902
atom   23   Tr[ns(na)] =   8.04022
    eigenvalues:
  0.605  0.652  0.855  0.931  0.977
    eigenvectors:
  0.000  0.991  0.000  0.000  0.008
  0.000  0.000  0.000  0.999  0.000
  0.000  0.000  1.000  0.000  0.000
  0.000  0.008  0.000  0.000  0.992
  1.000  0.000  0.000  0.000  0.000
    occupations:
  0.655  0.006 -0.000  0.030 -0.000
  0.006  0.931 -0.000 -0.000 -0.000
 -0.000 -0.000  0.855  0.000 -0.002
  0.030 -0.000  0.000  0.975  0.000
 -0.000 -0.000 -0.002  0.000  0.605
N of occupied +U levels =  64.3719353
 --- exit write_ns ---

[...]

          k = 0.2500-0.4833 0.0000 ( 30510 PWs)   bands (ev):

[...]

          k =-0.2500 0.2417 0.0000 ( 30481 PWs)   bands (ev):

   -48.9360 -48.8809 -48.8621 -48.8358 -48.8192 -48.8095 -48.7985 -48.7639
   -48.7624 -48.7464 -48.7336 -48.7258 -48.6443 -48.6386 -48.6128 -48.5139
   -48.5079 -48.4873 -48.4665 -48.4556 -48.4208 -48.4164 -48.4130 -48.3895
   -21.3263 -21.0451 -20.9419 -20.8227 -20.5367 -20.4297 -20.3798 -20.3554
   -20.2770 -20.1689 -20.0939 -20.0563 -20.0201 -20.0082 -19.8403 -19.8108
   -19.7753 -19.0542 -18.9191  -9.8857  -9.8254  -9.6979  -9.4489  -9.1935
    -9.0903  -9.0724  -8.9805  -8.7154  -8.6748  -8.6576  -8.5491  -8.4987
    -8.4566  -8.2821  -8.1601  -8.0005  -7.9804  -7.7268  -7.5601  -7.4384
    -7.3635  -7.2948  -7.1115  -7.0712  -6.9713  -6.8961  -6.7320  -6.5057
    -6.4990  -6.4452  -6.4007  -6.3012  -6.2342  -6.1667  -6.0792  -6.0127
    -5.9314  -5.8608  -5.8033  -5.6826  -5.5501  -5.4442  -5.2377  -5.0709
    -5.0119  -4.8881  -4.7792  -4.6608  -4.6227  -4.5239  -4.3146  -4.2440
    -4.1171  -4.0783  -3.9875  -3.9345  -3.7801  -3.6807  -3.5965  -3.5331
    -3.4726  -3.3744  -3.3202  -3.2726  -3.2432  -3.2085  -3.1085  -3.0553
    -3.0064  -2.8826  -2.5626  -2.3697  -2.2610  -2.0901  -1.9557  -1.9215
    -1.8912  -1.7109  -1.6116  -1.5154  -0.8175  -0.2629  -0.1891   0.1092
     0.4044   0.6384   0.9145   1.1087   1.3991   1.4637   1.6245   1.6677
     1.7842   1.8913   1.9655   2.3090   3.6904   3.8895   4.5806   4.9702
     5.3592   5.5088   5.5666   5.8678   6.1331   6.3503   6.4613   6.4786
     6.5313   6.7741   6.8779   7.0808   7.2620   7.4492   7.5548   7.7074
     7.8865   7.9690   8.0743   8.1779   8.2418   8.3333   8.4502   8.5581
     8.7313   8.8491   8.9395   8.9835   9.1009   9.2461   9.4583   9.5750
     9.6368   9.7368   9.8145   9.9136   9.9436  10.0024  10.1923  10.2242
    10.3430  10.3667  10.4332  10.5931  10.7006  10.7393  10.8426  10.9525
    11.0396  11.0911  11.2143  11.2349  11.3459  11.4179  11.4975  11.5505
    11.5904  11.6989  11.7929  11.8366  11.8968  12.0272  12.1641  12.1963
    12.2479  12.2863  12.3718  12.4509  12.5005  12.5401  12.6413  12.6983
    12.7836  12.8322  12.9240  12.9971  13.1316  13.1789  13.2568  13.2878
    13.3916  13.4607  13.5298  13.5644  13.7416  13.7923  13.8594  13.9480
    14.0229  14.0499  14.1674  14.2338  14.2906  14.3277  14.4136  14.4705
    14.5985  14.6678  14.7156  14.8125  14.9874  15.0670  15.2105  15.3320
    15.3664  15.4024  15.4914  15.5400  15.5864  15.6045  15.7003  15.7838
    15.8119  15.8572  15.9154  16.0334  16.0915  16.1431  16.1890  16.3119
    16.3758  16.4167  16.4623  16.4968  16.5355  16.5826  16.6379  16.7358
    16.7850  16.8773  16.9488  17.0272  17.0882  17.1957  17.2289  17.2557
    17.3575  17.3996  17.4712  17.5209  17.5841  17.6530  17.7422  17.8329
    17.8859  17.9570  18.0247  18.0804  18.1018  18.2313  18.2872  18.3240
    18.4458  18.5231  18.5991  18.6695  18.7481  18.8177  18.8634  18.9309
    18.9782  19.0336  19.1327  19.1510  19.2544  19.2834  19.3435  19.4672
    19.5339  19.6161  19.6529  19.7528  19.7899  19.8982  19.9561  20.0503
    20.1641  20.2158  20.3051  20.3834  20.4920  20.5522  20.6044  20.6613
    20.7364  20.7888  20.8512  20.9196  20.9646  21.0747  21.1659  21.1878
    21.2381  21.2874  21.3307  21.3932  21.4469  21.4850  21.5491  21.6652
    21.7198  21.7894  21.8230  21.8603  21.9482  21.9877  22.0728  22.1243
    22.2269  22.2650  22.3694  22.4153  22.4990  22.5749

     the Fermi energy is    -1.9526 ev

!    total energy              =   -1980.02155379 Ry
     Harris-Foulkes estimate   =   -1980.02155379 Ry
     estimated scf accuracy    <          3.9E-09 Ry

     The total energy is the sum of the following terms:

     one-electron contribution =  -23361.03483034 Ry
     hartree contribution      =   11730.28583639 Ry
     xc contribution           =    -372.98282941 Ry
     ewald contribution        =   10022.15334607 Ry
     Hubbard energy            =       1.55856422 Ry
     smearing contrib. (-TS)   =      -0.00164072 Ry

     convergence has been achieved in  15 iterations

     Forces acting on atoms (Ry/au):

     negative rho (up, down):  0.692E+00 0.000E+00
     atom    1 type  1   force =    -0.00680339   -0.01253083   -0.00002164
     atom    2 type  1   force =     0.00035441    0.00375023   -0.00032855
     atom    3 type  2   force =     0.03045381    0.00781586   -0.00022518
     atom    4 type  2   force =     0.00823721    0.00892508   -0.00003889
     atom    5 type  1   force =    -0.00329229   -0.02893738    0.00008715
     atom    6 type  1   force =     0.00275140    0.02537662    0.00019034
     atom    7 type  1   force =     0.00199616   -0.00163266    0.00001448
     atom    8 type  1   force =    -0.00154893   -0.00093707   -0.00029279
     atom    9 type  2   force =     0.00399229   -0.00013608   -0.00012295
     atom   10 type  2   force =    -0.00623953   -0.00147294   -0.00045422
     atom   11 type  1   force =    -0.00939016    0.01349994    0.00024831
     atom   12 type  1   force =    -0.00961046   -0.01337401    0.00023153
     atom   13 type  1   force =    -0.00115180   -0.00002237   -0.00009561
     atom   14 type  1   force =    -0.00659392   -0.01274024    0.00025741
     atom   15 type  1   force =     0.00025957    0.00396598   -0.00036710
     atom   16 type  2   force =    -0.03153428    0.00647639   -0.00024926
     atom   17 type  2   force =     0.00832678    0.00903788   -0.00025213
     atom   18 type  1   force =    -0.00135821   -0.02872808    0.00009896
     atom   19 type  1   force =     0.00418695    0.02620794    0.00019188
     atom   20 type  1   force =    -0.00162390   -0.00502513    0.00094708
     atom   21 type  1   force =    -0.00406062   -0.00057837   -0.00032477
     atom   22 type  2   force =    -0.00072889    0.00058517   -0.00028256
     atom   23 type  2   force =     0.00262523    0.00033788    0.00017433
     atom   24 type  1   force =     0.00999015    0.01854573    0.00004697
     atom   25 type  1   force =     0.01094868   -0.01880566    0.00003316
     atom   26 type  1   force =    -0.00082291   -0.00017123    0.00004139
     atom   27 type  3   force =    -0.00000663    0.00016659    0.00032814
     atom   28 type  3   force =     0.00001125    0.00024070    0.00044756
     atom   29 type  3   force =    -0.00007479    0.00011641    0.00009313
     atom   30 type  3   force =    -0.00028343    0.00020643   -0.00002900
     atom   31 type  1   force =     0.00041558   -0.00009200   -0.00018517
     atom   32 type  3   force =     0.00057464   -0.00007078   -0.00016201

     Total force =     0.001803     Total SCF correction =     0.000215
     SCF correction compared to forces is large: reduce conv_thr to get better values

     bfgs converged in   9 scf cycles and   8 bfgs steps
     (criteria: energy < 0.10E-03, force < 0.10E-02)

     End of BFGS Geometry Optimization

     Final energy   =   -1980.0215537896 Ry
Begin final coordinates

ATOMIC_POSITIONS (crystal)
O0       0.000000000   0.000000000   0.378479846    0   0   1
O0       0.000000000   0.500000000   0.402054768    0   0   1
Rh1      0.250000000   0.500000000   0.452772362    0   0   1
Rh1      0.000000000   0.000000000   0.452759480    0   0   1
O0       0.250000000   0.810000000   0.452404419    0   0   1
O0       0.250000000   0.190000000   0.452211181    0   0   1
O0       0.000000000   0.500000000   0.499145173    0   0   1
O0       0.000000000   0.000000000   0.528175512    0   0   1
Rh1      0.250000000   0.000000000   0.575485537    0   0   1
Rh1      0.000000000   0.500000000   0.570764654    0   0   1
O0       0.250000000   0.690000000   0.575896936    0   0   1
O0       0.250000000   0.310000000   0.575969561    0   0   1
O0       0.000000000   0.000000000   0.620845160    0   0   1
O0       0.500000000   0.000000000   0.378192008    0   0   1
O0       0.500000000   0.500000000   0.401616065    0   0   1
Rh1      0.750000000   0.500000000   0.452769603    0   0   1
Rh1      0.500000000   0.000000000   0.452468686    0   0   1
O0       0.750000000   0.810000000   0.452409758    0   0   1
O0       0.750000000   0.190000000   0.452220938    0   0   1
O0       0.500000000   0.500000000   0.500036062    0   0   1
O0       0.500000000   0.000000000   0.528058589    0   0   1
Rh1      0.750000000   0.000000000   0.575425593    0   0   1
Rh1      0.500000000   0.500000000   0.575280706    0   0   1
O0       0.750000000   0.690000000   0.574840740    0   0   1
O0       0.750000000   0.310000000   0.574903603    0   0   1
O0       0.500000000   0.000000000   0.620654630    0   0   1
H2      -0.000141490   0.636331686   0.384501458
H2       0.499839504   0.638305592   0.384952657
H2       0.148178640   0.034347432   0.367751724
H2       0.648060844   0.035164728   0.367530879
O0       0.516533132   0.499407507   0.648078423
H2       0.370371576   0.499352664   0.662463288
End final coordinates

     General routines

     Parallel routines
     Hubbard U routines

   This run was terminated on:   8: 1:43   1May2014

   JOB DONE.
Running PBS batch system epilogue script
Job id: 340560.audhumbla.fysik.dtu.dk
Username: zhonxu
Groupname: campgst
Jobname: RhO2/Eads-2-layers/OH-U-4.0
Sessionid: 27802
Queuename: verylong
Accounting:
This job has allocated the following 16 nodes:
a048 a048 a048 a048 a048 a048 a048 a048 a043 a043 a043 a043 a043 a043 a043 a043
Finished epilogue job 340560.audhumbla.fysik.dtu.dk for zhonxu