     Program PWSCF v.5.0.2 (svn rev. 9656) starts on 29May2014 at 13:43:55

     Current dimensions of program PWSCF are:
     Max number of different atomic species (ntypx) = 10
     Max number of k-points (npk) =  40000
     Max angular momentum in pseudopotentials (lmaxx) =  3
     Reading input from pwscf.in
Warning: card &CELL ignored
Warning: card / ignored

     Subspace diagonalization in iterative solution of the eigenvalue problem:
     a serial algorithm will be used

     bravais-lattice index     =            0
     lattice parameter (alat)  =      12.0187  a.u.
     unit-cell volume          =    7280.5819 (a.u.)^3
     number of atoms/cell      =           33
     number of atomic types    =            3
     number of electrons       =       245.00
     number of Kohn-Sham states=          367
     kinetic-energy cutoff     =      40.0000  Ry
     charge density cutoff     =     500.0000  Ry
     convergence threshold     =      1.0E-06
     mixing beta               =       0.7000
     number of iterations used =            8  plain     mixing
     Exchange-correlation      = SLA  PW   PBE  PBE ( 1 4 3 4 0)
     EXX-fraction              =        0.00
     nstep                     =           50

     celldm(1)=  12.018658  celldm(2)=   0.000000  celldm(3)=   0.000000
     celldm(4)=   0.000000  celldm(5)=   0.000000  celldm(6)=   0.000000

     crystal axes: (cart. coord. in units of alat)
               a(1) = (   1.000000   0.000000   0.000000 )
               a(2) = (   0.000000   1.009517   0.000000 )
               a(3) = (   0.000000   0.000000   4.154171 )

     reciprocal axes: (cart. coord. in units 2 pi/alat)
               b(1) = (  1.000000  0.000000  0.000000 )
               b(2) = (  0.000000  0.990572  0.000000 )
               b(3) = (  0.000000  0.000000  0.240722 )

     PseudoPot. # 1 for O  read from file:
     /home/camp/zhonxu/pseudo/o_pbe_v1.01.uspp.F.UPF
     MD5 check sum: 2bcb18d16ea4b960afae9ec6d52f22d2
     Pseudo is Ultrasoft + core correction, Zval =  6.0
     Generated by new atomic code, or converted to UPF format
     Using radial grid of  737 points,  5 beta functions with:
                l(1) =   0
                l(2) =   0
                l(3) =   1
                l(4) =   1
                l(5) =   2
     Q(r) pseudized with  8 coefficients,  rinner =    0.900   0.900   0.900
                                                       0.900   0.900

     PseudoPot. # 2 for Ir read from file:
     /home/camp/zhonxu/pseudo/ir_pbe_v1.uspp.F.UPF
     MD5 check sum: abf987a9674477536ede83817f8f8b70
     Pseudo is Ultrasoft + core correction, Zval = 15.0
     Generated by new atomic code, or converted to UPF format
     Using radial grid of  983 points,  7 beta functions with:
                l(1) =   0
                l(2) =   0
                l(3) =   1
                l(4) =   1
                l(5) =   1
                l(6) =   2
                l(7) =   2
     Q(r) pseudized with  8 coefficients,  rinner =    1.350   1.350   1.350
                                                       1.350   1.350

     PseudoPot. # 3 for H  read from file:
     /home/camp/zhonxu/pseudo/h_pbe_v1.uspp.F.UPF
     MD5 check sum: 3408e3ff4ec8b0a4e358431e7e038a48
     Pseudo is Ultrasoft, Zval =  1.0
     Generated by new atomic code, or converted to UPF format
     Using radial grid of  615 points,  2 beta functions with:
                l(1) =   0
                l(2) =   0
     Q(r) pseudized with  8 coefficients,  rinner =    0.700

     atomic species   valence    mass     pseudopotential
        O0             6.00    15.99940     O ( 1.00)
        Ir1           15.00   192.22000     Ir( 1.00)
        H2             1.00     1.00794     H ( 1.00)

     Simplified LDA+U calculation (l_max = 2) with parameters (eV):
     atomic species    L          U    alpha       J0     beta
        Ir1            2     2.5000   0.0000   0.0000   0.0000

     No symmetry found

   Cartesian axes

     site n.     atom                  positions (alat units)
         1           O0  tau(   1) = (   0.0000000   0.0000000   1.5694875  )
         2           O0  tau(   2) = (   0.0000000   0.5047586   1.6702677  )
         3           Ir1 tau(   3) = (   0.2500000   0.5047586   1.8805934  )
         4           Ir1 tau(   4) = (   0.0000000   0.0000000   1.8807595  )
         5           O0  tau(   5) = (   0.2500000   0.8177090   1.8801779  )
         6           O0  tau(   6) = (   0.2500000   0.1918083   1.8787655  )
         7           O0  tau(   7) = (   0.0000000   0.5047586   2.0695666  )
         8           O0  tau(   8) = (   0.0000000   0.0000000   2.1948564  )
         9           Ir1 tau(   9) = (   0.2500000   0.0000000   2.3901025  )
        10           Ir1 tau(  10) = (   0.0000000   0.5047586   2.3742751  )
        11           O0  tau(  11) = (   0.2500000   0.6965669   2.3856575  )
        12           O0  tau(  12) = (   0.2500000   0.3129503   2.3949628  )
        13           O0  tau(  13) = (   0.0000000   0.0000000   2.5754200  )
        14           O0  tau(  14) = (   0.5000000   0.0000000   1.5694875  )
        15           O0  tau(  15) = (   0.5000000   0.5047586   1.6704338  )
        16           Ir1 tau(  16) = (   0.7500000   0.5047586   1.8805934  )
        17           Ir1 tau(  17) = (   0.5000000   0.0000000   1.8805518  )
        18           O0  tau(  18) = (   0.7500000   0.8177090   1.8801364  )
        19           O0  tau(  19) = (   0.7500000   0.1918083   1.8788486  )
        20           O0  tau(  20) = (   0.5000000   0.5047586   2.0759640  )
        21           O0  tau(  21) = (   0.5000000   0.0000000   2.1945241  )
        22           Ir1 tau(  22) = (   0.7500000   0.0000000   2.3900609  )
        23           Ir1 tau(  23) = (   0.5000000   0.5047586   2.3998648  )
        24           O0  tau(  24) = (   0.7500000   0.6965669   2.3856575  )
        25           O0  tau(  25) = (   0.7500000   0.3129503   2.3949628  )
        26           O0  tau(  26) = (   0.5000000   0.0000000   2.5728445  )
        27           H2  tau(  27) = (   0.0000400   0.6420328   1.5957418  )
        28           H2  tau(  28) = (   0.4999400   0.6424971   1.5965311  )
        29           H2  tau(  29) = (   0.1432100   0.0360095   1.5217560  )
        30           H2  tau(  30) = (   0.6436700   0.0339703   1.5215899  )
        31           O0  tau(  31) = (   0.4997900   0.5432313   2.6993805  )
        32           O0  tau(  32) = (   0.5001800   0.3480815   2.8224271  )
        33           H2  tau(  33) = (   0.4999800   0.4114489   2.9642920  )

     number of k points=    10  Methfessel-Paxton smearing, width (Ry)=  0.0100
                       cart. coord. in units 2pi/alat
        k(    1) = (   0.0000000   0.0000000   0.0000000), wk =   0.1250000
        k(    2) = (   0.0000000   0.2476431   0.0000000), wk =   0.2500000
        k(    3) = (   0.0000000  -0.4952862   0.0000000), wk =   0.1250000
        k(    4) = (   0.2500000   0.0000000   0.0000000), wk =   0.2500000
        k(    5) = (   0.2500000   0.2476431   0.0000000), wk =   0.2500000
        k(    6) = (   0.2500000  -0.4952862   0.0000000), wk =   0.2500000
        k(    7) = (  -0.5000000   0.0000000   0.0000000), wk =   0.1250000
        k(    8) = (  -0.5000000   0.2476431   0.0000000), wk =   0.2500000
        k(    9) = (  -0.5000000  -0.4952862   0.0000000), wk =   0.1250000
        k(   10) = (  -0.2500000   0.2476431   0.0000000), wk =   0.2500000

     Largest allocated arrays     est. size (Mb)     dimensions
     Largest temporary arrays     est. size (Mb)     dimensions

     Check: negative/imaginary core charge=   -0.000003    0.000000

     Initial potential from superposition of free atoms
     Check: negative starting charge=   -3.336869

     starting charge  240.99967, renormalised to  245.00000

     negative rho (up, down):  0.339E+01 0.000E+00
     Number of +U iterations with fixed ns =  0
     Starting occupations:
 --- enter write_ns ---
 LDA+U parameters:
U( 2)     =  2.50000000
alpha( 2) =  0.00000000
atom    3   Tr[ns(na)] =   7.00000
    eigenvalues:
  0.700  0.700  0.700  0.700  0.700
    eigenvectors:
  1.000  0.000  0.000  0.000  0.000
  0.000  1.000  0.000  0.000  0.000
  0.000  0.000  1.000  0.000  0.000
  0.000  0.000  0.000  1.000  0.000
  0.000  0.000  0.000  0.000  1.000
    occupations:
  0.700  0.000  0.000  0.000  0.000
  0.000  0.700  0.000  0.000  0.000
  0.000  0.000  0.700  0.000  0.000
  0.000  0.000  0.000  0.700  0.000
  0.000  0.000  0.000  0.000  0.700
atom    4   Tr[ns(na)] =   7.00000
    eigenvalues:
  0.700  0.700  0.700  0.700  0.700
    eigenvectors:
  1.000  0.000  0.000  0.000  0.000
  0.000  1.000  0.000  0.000  0.000
  0.000  0.000  1.000  0.000  0.000
  0.000  0.000  0.000  1.000  0.000
  0.000  0.000  0.000  0.000  1.000
    occupations:
  0.700  0.000  0.000  0.000  0.000
  0.000  0.700  0.000  0.000  0.000
  0.000  0.000  0.700  0.000  0.000
  0.000  0.000  0.000  0.700  0.000
  0.000  0.000  0.000  0.000  0.700
atom    9   Tr[ns(na)] =   7.00000
    eigenvalues:
  0.700  0.700  0.700  0.700  0.700
    eigenvectors:
  1.000  0.000  0.000  0.000  0.000
  0.000  1.000  0.000  0.000  0.000
  0.000  0.000  1.000  0.000  0.000
  0.000  0.000  0.000  1.000  0.000
  0.000  0.000  0.000  0.000  1.000
    occupations:
  0.700  0.000  0.000  0.000  0.000
  0.000  0.700  0.000  0.000  0.000
  0.000  0.000  0.700  0.000  0.000
  0.000  0.000  0.000  0.700  0.000
  0.000  0.000  0.000  0.000  0.700
atom   10   Tr[ns(na)] =   7.00000
    eigenvalues:
  0.700  0.700  0.700  0.700  0.700
    eigenvectors:
  1.000  0.000  0.000  0.000  0.000
  0.000  1.000  0.000  0.000  0.000
  0.000  0.000  1.000  0.000  0.000
  0.000  0.000  0.000  1.000  0.000
  0.000  0.000  0.000  0.000  1.000
    occupations:
  0.700  0.000  0.000  0.000  0.000
  0.000  0.700  0.000  0.000  0.000
  0.000  0.000  0.700  0.000  0.000
  0.000  0.000  0.000  0.700  0.000
  0.000  0.000  0.000  0.000  0.700
atom   16   Tr[ns(na)] =   7.00000
    eigenvalues:
  0.700  0.700  0.700  0.700  0.700
    eigenvectors:
  1.000  0.000  0.000  0.000  0.000
  0.000  1.000  0.000  0.000  0.000
  0.000  0.000  1.000  0.000  0.000
  0.000  0.000  0.000  1.000  0.000
  0.000  0.000  0.000  0.000  1.000
    occupations:
  0.700  0.000  0.000  0.000  0.000
  0.000  0.700  0.000  0.000  0.000
  0.000  0.000  0.700  0.000  0.000
  0.000  0.000  0.000  0.700  0.000
  0.000  0.000  0.000  0.000  0.700
atom   17   Tr[ns(na)] =   7.00000
    eigenvalues:
  0.700  0.700  0.700  0.700  0.700
    eigenvectors:
  1.000  0.000  0.000  0.000  0.000
  0.000  1.000  0.000  0.000  0.000
  0.000  0.000  1.000  0.000  0.000
  0.000  0.000  0.000  1.000  0.000
  0.000  0.000  0.000  0.000  1.000
    occupations:
  0.700  0.000  0.000  0.000  0.000
  0.000  0.700  0.000  0.000  0.000
  0.000  0.000  0.700  0.000  0.000
  0.000  0.000  0.000  0.700  0.000
  0.000  0.000  0.000  0.000  0.700
atom   22   Tr[ns(na)] =   7.00000
    eigenvalues:
  0.700  0.700  0.700  0.700  0.700
    eigenvectors:
  1.000  0.000  0.000  0.000  0.000
  0.000  1.000  0.000  0.000  0.000
[...]
  0.035  0.000  0.000  0.978  0.000
 -0.000 -0.008 -0.000  0.000  0.609
atom   16   Tr[ns(na)] =   8.11041
    eigenvalues:
  0.605  0.631  0.879  0.963  0.976
    eigenvectors:
  0.006  0.179  0.003  0.002  0.810
  0.975  0.025  0.000  0.000  0.000
  0.000  0.000  0.993  0.004  0.003
  0.019  0.796  0.000  0.000  0.184
  0.000  0.000  0.004  0.994  0.002
    occupations:
  0.912  0.005  0.005 -0.134  0.001
  0.005  0.606 -0.000  0.002 -0.006
  0.005 -0.000  0.879 -0.004 -0.005
 -0.134  0.002 -0.004  0.695 -0.000
  0.001 -0.006 -0.005 -0.000  0.963
atom   17   Tr[ns(na)] =   8.09667
    eigenvalues:
  0.618  0.665  0.867  0.916  0.982
    eigenvectors:
  0.000  0.989  0.000  0.000  0.010
  0.000  0.000  0.046  0.954  0.000
  0.000  0.000  0.954  0.046  0.000
  0.000  0.010  0.000  0.000  0.990
  1.000  0.000  0.000  0.000  0.000
    occupations:
  0.669 -0.003 -0.001  0.032  0.001
 -0.003  0.914  0.010  0.000 -0.001
 -0.001  0.010  0.869 -0.000  0.001
  0.032  0.000 -0.000  0.979  0.000
  0.001 -0.001  0.001  0.000  0.618
atom   22   Tr[ns(na)] =   8.07813
    eigenvalues:
  0.652  0.667  0.847  0.892  0.980
    eigenvectors:
  0.000  0.141  0.001  0.000  0.859
  1.000  0.000  0.000  0.000  0.000
  0.000  0.000  0.993  0.006  0.000
  0.000  0.859  0.000  0.000  0.141
  0.000  0.000  0.006  0.994  0.000
    occupations:
  0.936  0.001  0.001 -0.109  0.000
  0.001  0.652  0.001 -0.001 -0.000
  0.001  0.001  0.848 -0.004  0.004
 -0.109 -0.001 -0.004  0.712  0.000
  0.000 -0.000  0.004  0.000  0.892
atom   23   Tr[ns(na)] =   8.11005
    eigenvalues:
  0.617  0.658  0.855  0.945  0.980
    eigenvectors:
  0.000  0.993  0.000  0.003  0.004
  0.002  0.000  0.998  0.000  0.000
  0.000  0.003  0.000  0.996  0.001
  0.000  0.005  0.000  0.001  0.994
  0.998  0.000  0.002  0.000  0.000
    occupations:
  0.660 -0.000  0.014  0.022 -0.000
 -0.000  0.854 -0.001 -0.000 -0.009
  0.014 -0.001  0.944 -0.002  0.000
  0.022 -0.000 -0.002  0.979 -0.000
 -0.000 -0.009  0.000 -0.000  0.618
N of occupied +U levels =  64.7579538
 --- exit write_ns ---

     Threshold (ethr) on eigenvalues was too large:
     Diagonalizing with lowered threshold

     Davidson diagonalization with overlap
     ethr =  1.02E-08,  avg # of iterations =  2.0

[...]

     total energy              =   -2138.48135401 Ry
     Harris-Foulkes estimate   =   -2138.48135402 Ry
     estimated scf accuracy    <       0.00000014 Ry

     iteration # 15     ecut=    40.00 Ry     beta=0.70
     Davidson diagonalization with overlap
     ethr =  2.09E-11,  avg # of iterations =  1.0

     negative rho (up, down):  0.313E+01 0.000E+00

     End of self-consistent calculation
 --- enter write_ns ---
 LDA+U parameters:
U( 2)     =  2.50000000
alpha( 2) =  0.00000000
atom    3   Tr[ns(na)] =   8.11064
    eigenvalues:
  0.605  0.631  0.879  0.964  0.976
    eigenvectors:
  0.006  0.179  0.003  0.001  0.810
  0.974  0.026  0.000  0.000  0.000
  0.000  0.000  0.990  0.007  0.003
  0.020  0.795  0.000  0.000  0.184
  0.000  0.000  0.006  0.992  0.002
    occupations:
  0.912 -0.005  0.004 -0.134 -0.001
 -0.005  0.606 -0.001 -0.002 -0.005
  0.004 -0.001  0.880 -0.004  0.007
 -0.134 -0.002 -0.004  0.695 -0.000
 -0.001 -0.005  0.007 -0.000  0.963
atom    4   Tr[ns(na)] =   8.09866
    eigenvalues:
  0.618  0.665  0.867  0.917  0.982
    eigenvectors:
  0.000  0.989  0.000  0.000  0.010
  0.000  0.000  0.058  0.942  0.000
  0.000  0.000  0.942  0.058  0.000
  0.000  0.010  0.000  0.000  0.990
  1.000  0.000  0.000  0.000  0.000
    occupations:
  0.668 -0.003 -0.001  0.032  0.001
 -0.003  0.914  0.012  0.000 -0.001
 -0.001  0.012  0.870 -0.000  0.000
  0.032  0.000 -0.000  0.979  0.000
  0.001 -0.001  0.000  0.000  0.618
atom    9   Tr[ns(na)] =   8.07818
    eigenvalues:
  0.652  0.668  0.847  0.892  0.980
    eigenvectors:
  0.000  0.140  0.001  0.000  0.858
  0.998  0.002  0.000  0.000  0.000
  0.000  0.000  0.992  0.007  0.000
  0.001  0.858  0.000  0.000  0.141
  0.000  0.000  0.007  0.992  0.000
    occupations:
  0.936 -0.001  0.001 -0.109 -0.001
 -0.001  0.652 -0.000  0.001 -0.001
  0.001 -0.000  0.848 -0.004 -0.004
 -0.109  0.001 -0.004  0.712  0.001
 -0.001 -0.001 -0.004  0.001  0.892
atom   10   Tr[ns(na)] =   8.07504
    eigenvalues:
  0.588  0.609  0.929  0.930  0.981
    eigenvectors:
  0.992  0.000  0.000  0.000  0.008
  0.000  0.001  0.835  0.164  0.000
  0.000  0.000  0.164  0.835  0.000
  0.008  0.000  0.000  0.000  0.992
  0.000  0.999  0.001  0.000  0.000
    occupations:
  0.591  0.000  0.007  0.035 -0.000
  0.000  0.929 -0.000  0.000 -0.008
  0.007 -0.000  0.930  0.000 -0.000
  0.035  0.000  0.000  0.978  0.000
 -0.000 -0.008 -0.000  0.000  0.609
atom   16   Tr[ns(na)] =   8.11056
    eigenvalues:
  0.605  0.631  0.879  0.963  0.976
    eigenvectors:
  0.006  0.179  0.003  0.002  0.810
  0.975  0.025  0.000  0.000  0.000
  0.000  0.000  0.993  0.004  0.003
  0.019  0.796  0.000  0.000  0.184
  0.000  0.000  0.004  0.994  0.002
    occupations:
  0.912  0.005  0.005 -0.134  0.001
  0.005  0.606 -0.000  0.002 -0.006
  0.005 -0.000  0.879 -0.004 -0.005
 -0.134  0.002 -0.004  0.695 -0.000
  0.001 -0.006 -0.005 -0.000  0.963
atom   17   Tr[ns(na)] =   8.09679
    eigenvalues:
  0.618  0.665  0.867  0.916  0.982
    eigenvectors:
  0.000  0.989  0.000  0.000  0.010
  0.000  0.000  0.046  0.954  0.000
  0.000  0.000  0.954  0.046  0.000
  0.000  0.010  0.000  0.000  0.990
  1.000  0.000  0.000  0.000  0.000
    occupations:
  0.669 -0.003 -0.001  0.032  0.001
 -0.003  0.914  0.010  0.000 -0.001
 -0.001  0.010  0.869 -0.000  0.001
  0.032  0.000 -0.000  0.979  0.000
  0.001 -0.001  0.001  0.000  0.618
atom   22   Tr[ns(na)] =   8.07825
    eigenvalues:
  0.652  0.667  0.847  0.892  0.980
    eigenvectors:
  0.000  0.141  0.001  0.000  0.859
  1.000  0.000  0.000  0.000  0.000
  0.000  0.000  0.993  0.006  0.000
  0.000  0.859  0.000  0.000  0.141
  0.000  0.000  0.006  0.994  0.000
    occupations:
  0.936  0.001  0.001 -0.109  0.000
  0.001  0.652  0.001 -0.001 -0.000
  0.001  0.001  0.848 -0.004  0.004
 -0.109 -0.001 -0.004  0.712  0.000
  0.000 -0.000  0.004  0.000  0.892
atom   23   Tr[ns(na)] =   8.11009
    eigenvalues:
  0.617  0.658  0.855  0.944  0.980
    eigenvectors:
  0.000  0.993  0.000  0.003  0.004
  0.002  0.000  0.998  0.000  0.000
  0.000  0.003  0.000  0.996  0.001
  0.000  0.005  0.000  0.001  0.994
  0.998  0.000  0.002  0.000  0.000
    occupations:
  0.660 -0.000  0.014  0.022 -0.000
 -0.000  0.854 -0.001 -0.000 -0.009
  0.014 -0.001  0.944 -0.002  0.000
  0.022 -0.000 -0.002  0.979 -0.000
 -0.000 -0.009  0.000 -0.000  0.618
N of occupied +U levels =  64.7582130
 --- exit write_ns ---

[...]

          k = 0.2500-0.4953 0.0000 ( 31088 PWs)   bands (ev):

[...]

          k =-0.2500 0.2476 0.0000 ( 31099 PWs)   bands (ev):

   -50.4763 -50.4405 -50.4343 -50.3390 -50.3371 -50.2984 -50.2799 -50.2685
   -50.2611 -50.2230 -50.1718 -50.1477 -50.1109 -50.0988 -50.0401 -50.0377
   -49.9955 -49.9554 -49.9548 -49.9446 -49.9322 -49.9223 -49.9073 -49.7998
   -23.2310 -20.9656 -20.6043 -20.5759 -20.5378 -20.1697 -20.0528 -20.0398
   -19.9261 -19.7618 -19.6434 -19.5974 -19.4812 -19.4160 -19.3066 -19.2138
   -19.1268 -18.3442 -18.2013 -17.1837  -9.5160  -9.4383  -9.2896  -8.9751
    -8.6814  -8.5676  -8.5369  -8.4977  -8.3231  -8.2693  -8.2195  -8.1514
    -8.0929  -7.9449  -7.8596  -7.7153  -7.5969  -7.5390  -7.4090  -7.0837
    -7.0664  -6.8596  -6.7932  -6.7331  -6.6519  -6.4556  -6.2361  -6.1368
    -6.0009  -5.8731  -5.8191  -5.7433  -5.6678  -5.6061  -5.5165  -5.5020
    -5.4089  -5.2801  -5.1845  -5.0438  -4.9443  -4.9037  -4.7529  -4.5859
    -4.3944  -4.3511  -4.1954  -4.0785  -4.0023  -3.9655  -3.7887  -3.6904
    -3.5047  -3.3874  -3.2687  -3.0098  -2.8928  -2.8463  -2.7461  -2.6181
    -2.4755  -2.4253  -2.3949  -2.3294  -2.2231  -2.1407  -2.0948  -2.0371
    -1.9334  -1.8649  -1.7998  -1.6757  -1.4306  -1.1947  -0.9632  -0.9104
    -0.7438  -0.7117  -0.4786  -0.3353  -0.1823  -0.1002   0.0864   0.4549
     1.4351   1.4848   1.7157   2.0924   2.2107   2.6504   2.7346   2.9883
     3.1325   3.3150   3.3513   3.5899   3.6218   3.7988   3.8530   4.0838
     4.2303   4.4518   4.8224   5.3244   5.4034   5.8597   6.0208   6.0959
     6.3078   6.4546   6.5977   6.6986   6.7955   7.0679   7.2085   7.3143
     7.5290   7.6837   7.8435   7.9156   7.9966   8.1555   8.2710   8.3522
     8.3751   8.5150   8.7338   8.8029   8.8717   9.0632   9.1165   9.1685
     9.2100   9.3901   9.5535   9.6004   9.6056   9.6310   9.6377   9.6407
     9.6483   9.6501   9.7602   9.7726   9.8335   9.8406   9.8450   9.9437
    10.0230  10.1402  10.2334  10.3073  10.3627  10.4120  10.5198  10.5646
    10.6466  10.7117  10.8274  10.9165  10.9557  11.0440  11.1579  11.2067
    11.3238  11.3899  11.4649  11.5901  11.6813  11.7589  11.7993  11.9151
    11.9608  12.0643  12.1673  12.2462  12.3505  12.4707  12.5117  12.5576
    12.5827  12.6961  12.7970  12.8993  12.9250  13.0205  13.0986  13.1504
    13.2159  13.3045  13.3772  13.4894  13.5970  13.6881  13.7232  13.8181
    13.9047  13.9530  14.0509  14.1043  14.1412  14.2102  14.3129  14.4092
    14.4649  14.5243  14.6390  14.7203  14.8334  14.8837  15.0464  15.0898
    15.1385  15.2336  15.3883  15.4277  15.5053  15.6168  15.6757  15.6863
    15.7335  15.7778  15.8493  15.9197  15.9629  16.0270  16.0686  16.0833
    16.2229  16.2673  16.3452  16.3886  16.4799  16.5219  16.5534  16.5982
    16.7056  16.7538  16.7816  16.8342  16.9152  16.9694  17.1591  17.2366
    17.3046  17.3359  17.4096  17.4796  17.5374  17.5882  17.6309  17.6836
    17.7390  17.8305  17.8608  17.8951  17.9182  18.0156  18.0617  18.1432
    18.2341  18.3300  18.3824  18.5109  18.6090  18.7028  18.7585  18.7915
    18.8325  18.8718  19.0309  19.0387  19.0938  19.1881  19.2423  19.3609
    19.3838  19.4237  19.5456  19.6314  19.6839  19.7622  19.8063  19.8407
    19.9387  19.9916  20.1308  20.1860  20.2733  20.3431  20.4582  20.5216
    20.5769  20.6510  20.7359  20.7689  20.8026  20.8748  20.9025  21.0393
    21.1049  21.1434  21.1914  21.2574  21.2692  21.3133  21.3410  21.4147
    21.5164  21.5452  21.6499  21.6769  21.7404  21.8207  21.8555  21.9037
    21.9754  21.9968  22.0688  22.1308  22.2037  22.2787  22.3885

     the Fermi energy is    -0.5441 ev

!    total energy              =   -2138.48135401 Ry
     Harris-Foulkes estimate   =   -2138.48135402 Ry
     estimated scf accuracy    <          5.6E-09 Ry

     The total energy is the sum of the following terms:

     one-electron contribution =  -23116.75909044 Ry
     hartree contribution      =   11608.86900257 Ry
     xc contribution           =    -584.15976162 Ry
     ewald contribution        =    9952.59748850 Ry
     Hubbard energy            =       0.97091412 Ry
     smearing contrib. (-TS)   =       0.00009286 Ry

     convergence has been achieved in  15 iterations

     Forces acting on atoms (Ry/au):

     negative rho (up, down):  0.313E+01 0.000E+00
     atom    1 type  1   force =    -0.00833522   -0.01348721   -0.00045721
     atom    2 type  1   force =     0.00018027    0.00518053    0.00065371
     atom    3 type  2   force =     0.03092511    0.00485082   -0.00021648
     atom    4 type  2   force =     0.00918177    0.00762927   -0.00048411
     atom    5 type  1   force =    -0.00347922   -0.02130785    0.00064539
     atom    6 type  1   force =     0.00407622    0.02035929    0.00067561
     atom    7 type  1   force =    -0.00036967   -0.00363401   -0.00079699
     atom    8 type  1   force =    -0.00316311    0.00058049   -0.00010720
     atom    9 type  2   force =     0.00738005    0.00124881   -0.00024307
     atom   10 type  2   force =    -0.00011600   -0.00047320   -0.00071348
     atom   11 type  1   force =    -0.00467102    0.01643411    0.00022189
     atom   12 type  1   force =     0.00133667   -0.01118205    0.00023953
     atom   13 type  1   force =    -0.00084304   -0.00292016    0.00051147
     atom   14 type  1   force =    -0.00748508   -0.01354646   -0.00025173
     atom   15 type  1   force =     0.00011775    0.00512487    0.00053420
     atom   16 type  2   force =    -0.03079967    0.00474872   -0.00019086
     atom   17 type  2   force =     0.00893525    0.00818977   -0.00018431
     atom   18 type  1   force =    -0.00251458   -0.02181927    0.00060811
     atom   19 type  1   force =     0.00473843    0.01995396    0.00067652
     atom   20 type  1   force =    -0.00030481   -0.00653799   -0.00016426
     atom   21 type  1   force =    -0.00326971    0.00132097   -0.00014183
     atom   22 type  2   force =    -0.00493590    0.00088664   -0.00029914
     atom   23 type  2   force =    -0.00027568    0.00266260    0.00016686
     atom   24 type  1   force =     0.00446375    0.01632667    0.00025279
     atom   25 type  1   force =    -0.00069015   -0.01127488    0.00028306
     atom   26 type  1   force =    -0.00102019   -0.01008127   -0.00094401
     atom   27 type  3   force =    -0.00002101   -0.00011249    0.00039319
     atom   28 type  3   force =    -0.00001090    0.00009673    0.00049784
     atom   29 type  3   force =     0.00053326    0.00019515    0.00034097
     atom   30 type  3   force =     0.00037413    0.00024761    0.00010691
     atom   31 type  1   force =    -0.00014621    0.00058001   -0.00049901
     atom   32 type  1   force =     0.00020330   -0.00035124   -0.00012303
     atom   33 type  3   force =     0.00000519    0.00011106   -0.00099132

     Total force =     0.002946     Total SCF correction =     0.000373
     SCF correction compared to forces is large: reduce conv_thr to get better values

     entering subroutine stress ...

     negative rho (up, down):  0.313E+01 0.000E+00
          total   stress  (Ry/bohr**3)                   (kbar)     P=  -14.34
  -0.00011131   0.00000626   0.00000392        -16.37      0.92      0.58
   0.00000626  -0.00012952   0.00000497          0.92    -19.05      0.73
   0.00000392   0.00000497  -0.00005159          0.58      0.73     -7.59

     bfgs converged in   6 scf cycles and   5 bfgs steps
     (criteria: energy < 0.10E-03, force < 0.10E-02)

     End of BFGS Geometry Optimization

     Final energy   =   -2138.4813540147 Ry
Begin final coordinates

ATOMIC_POSITIONS (crystal)
O0       0.000000000   0.000000000   0.378079611    0   0   1
O0       0.000000000   0.500000000   0.402417052    0   0   1
Ir1      0.250000000   0.500000000   0.452831884    0   0   1
Ir1      0.000000000   0.000000000   0.452818784    0   0   1
O0       0.250000000   0.810000000   0.452665499    0   0   1
O0       0.250000000   0.190000000   0.452268151    0   0   1
O0       0.000000000   0.500000000   0.498720381    0   0   1
O0       0.000000000   0.000000000   0.528349860    0   0   1
Ir1      0.250000000   0.000000000   0.575135592    0   0   1
Ir1      0.000000000   0.500000000   0.571622249    0   0   1
O0       0.250000000   0.690000000   0.573970891    0   0   1
O0       0.250000000   0.310000000   0.576241244    0   0   1
O0       0.000000000   0.000000000   0.619732867    0   0   1
O0       0.500000000   0.000000000   0.377930781    0   0   1
O0       0.500000000   0.500000000   0.402349634    0   0   1
Ir1      0.750000000   0.500000000   0.452827255    0   0   1
Ir1      0.500000000   0.000000000   0.452631431    0   0   1
O0       0.750000000   0.810000000   0.452661622    0   0   1
O0       0.750000000   0.190000000   0.452285170    0   0   1
O0       0.500000000   0.500000000   0.499838946    0   0   1
O0       0.500000000   0.000000000   0.528255629    0   0   1
Ir1      0.750000000   0.000000000   0.575136964    0   0   1
Ir1      0.500000000   0.500000000   0.577424090    0   0   1
O0       0.750000000   0.690000000   0.573971821    0   0   1
O0       0.750000000   0.310000000   0.576246274    0   0   1
O0       0.500000000   0.000000000   0.619315198    0   0   1
H2      -0.000012502   0.635179245   0.384233908
H2       0.499893423   0.635971726   0.384465932
H2       0.142931148   0.035705694   0.366427665
H2       0.643577532   0.033846317   0.366372857
O0       0.499621821   0.536981499   0.649696161
O0       0.500355296   0.345451563   0.679212842
H2       0.499989280   0.407780518   0.713431752
End final coordinates

     General routines

     Parallel routines
     Hubbard U routines

   This run was terminated on:  21:45:46  29May2014

   JOB DONE.
Running PBS batch system epilogue script
Job id: 373278.audhumbla.fysik.dtu.dk
Username: zhonxu
Groupname: campgst
Jobname: IrO2/Eads-2-layers/OOH-U-2.5
Sessionid: 32671
Queuename: verylong
Accounting:
This job has allocated the following 16 nodes:
c120 c120 c120 c120 c120 c120 c120 c120 c095 c095 c095 c095 c095 c095 c095 c095
Finished epilogue job 373278.audhumbla.fysik.dtu.dk for zhonxu