     Program PWSCF v.5.0.2 (svn rev. 9656) starts on 27Apr2014 at  2: 6: 7

     Current dimensions of program PWSCF are:
     Max number of different atomic species (ntypx) = 10
     Max number of k-points (npk) =  40000
     Max angular momentum in pseudopotentials (lmaxx) =  3
     Reading input from pwscf.in
Warning: card &CELL ignored
Warning: card / ignored

     Subspace diagonalization in iterative solution of the eigenvalue problem:
     a serial algorithm will be used

     bravais-lattice index     =            0
     lattice parameter (alat)  =      11.7919  a.u.
     unit-cell volume          =    7123.6633 (a.u.)^3
     number of atoms/cell      =           31
     number of atomic types    =            3
     number of electrons       =       246.00
     number of Kohn-Sham states=          357
     kinetic-energy cutoff     =      40.0000  Ry
     charge density cutoff     =     500.0000  Ry
     convergence threshold     =      1.0E-06
     mixing beta               =       0.7000
     number of iterations used =            8  plain     mixing
     Exchange-correlation      = SLA  PW   PBE  PBE ( 1 4 3 4 0)
     EXX-fraction              =        0.00
     nstep                     =           50

     celldm(1)=  11.791891  celldm(2)=   0.000000  celldm(3)=   0.000000
     celldm(4)=   0.000000  celldm(5)=   0.000000  celldm(6)=   0.000000

     crystal axes: (cart. coord. in units of alat)
               a(1) = (   1.000000   0.000000   0.000000 )
               a(2) = (   0.000000   1.026665   0.000000 )
               a(3) = (   0.000000   0.000000   4.231793 )

     reciprocal axes: (cart. coord. in units 2 pi/alat)
               b(1) = (  1.000000  0.000000  0.000000 )
               b(2) = (  0.000000  0.974028  0.000000 )
               b(3) = (  0.000000  0.000000  0.236306 )

     PseudoPot. # 1 for O  read from file:
     /home/camp/zhonxu/pseudo/o_pbe_v1.01.uspp.F.UPF
     MD5 check sum: 2bcb18d16ea4b960afae9ec6d52f22d2
     Pseudo is Ultrasoft + core correction, Zval =  6.0
     Generated by new atomic code, or converted to UPF format
     Using radial grid of  737 points,  5 beta functions with:
                l(1) =   0
                l(2) =   0
                l(3) =   1
                l(4) =   1
                l(5) =   2
     Q(r) pseudized with  8 coefficients,  rinner =    0.900   0.900   0.900
                                                       0.900   0.900

     PseudoPot. # 2 for Ru read from file:
     /home/camp/zhonxu/pseudo/ru_pbe_v1.uspp.F.UPF
     MD5 check sum: df00be1c11b23341d9806d8f1dfa10cf
     Pseudo is Ultrasoft + core correction, Zval = 16.0
     Generated by new atomic code, or converted to UPF format
     Using radial grid of  967 points,  6 beta functions with:
                l(1) =   0
                l(2) =   0
                l(3) =   1
                l(4) =   1
                l(5) =   2
                l(6) =   2
     Q(r) pseudized with  8 coefficients,  rinner =    1.300   1.300   1.300
                                                       1.300   1.300

     PseudoPot. # 3 for H  read from file:
     /home/camp/zhonxu/pseudo/h_pbe_v1.uspp.F.UPF
     MD5 check sum: 3408e3ff4ec8b0a4e358431e7e038a48
     Pseudo is Ultrasoft, Zval =  1.0
     Generated by new atomic code, or converted to UPF format
     Using radial grid of  615 points,  2 beta functions with:
                l(1) =   0
                l(2) =   0
     Q(r) pseudized with  8 coefficients,  rinner =    0.700

     atomic species   valence    mass     pseudopotential
        O0             6.00    15.99940     O ( 1.00)
        Ru1           16.00   101.07000     Ru( 1.00)
        H2             1.00     1.00794     H ( 1.00)

     Simplified LDA+U calculation (l_max = 2) with parameters (eV):
     atomic species    L          U    alpha       J0     beta
        Ru1            2     7.0000   0.0000   0.0000   0.0000

     No symmetry found

   Cartesian axes

     site n.     atom                  positions (alat units)
         1           O0  tau(   1) = (   0.0000000   0.0000000   1.6006333  )
         2           O0  tau(   2) = (   0.0000000   0.5133323   1.7090519  )
         3           Ru1 tau(   3) = (   0.2500000   0.5133323   1.9249579  )
         4           Ru1 tau(   4) = (   0.0000000   0.0000000   1.9138706  )
         5           O0  tau(   5) = (   0.2500000   0.8315984   1.9151825  )
         6           O0  tau(   6) = (   0.2500000   0.1950663   1.9148016  )
         7           O0  tau(   7) = (   0.0000000   0.5133323   2.1086177  )
         8           O0  tau(   8) = (   0.0000000   0.0000000   2.2256691  )
         9           Ru1 tau(   9) = (   0.2500000   0.0000000   2.4381898  )
        10           Ru1 tau(  10) = (   0.0000000   0.5133323   2.4080594  )
        11           O0  tau(  11) = (   0.2500000   0.7083986   2.4344235  )
        12           O0  tau(  12) = (   0.2500000   0.3182660   2.4336618  )
        13           O0  tau(  13) = (   0.0000000   0.0000000   2.6157981  )
        14           O0  tau(  14) = (   0.5000000   0.0000000   1.6005064  )
        15           O0  tau(  15) = (   0.5000000   0.5133323   1.7116333  )
        16           Ru1 tau(  16) = (   0.7500000   0.5133323   1.9249156  )
        17           Ru1 tau(  17) = (   0.5000000   0.0000000   1.9130666  )
        18           O0  tau(  18) = (   0.7500000   0.8315984   1.9150979  )
        19           O0  tau(  19) = (   0.7500000   0.1950663   1.9148440  )
        20           O0  tau(  20) = (   0.5000000   0.5133323   2.1279570  )
        21           O0  tau(  21) = (   0.5000000   0.0000000   2.2254152  )
        22           Ru1 tau(  22) = (   0.7500000   0.0000000   2.4382321  )
        23           Ru1 tau(  23) = (   0.5000000   0.5133323   2.4678123  )
        24           O0  tau(  24) = (   0.7500000   0.7083986   2.4345927  )
        25           O0  tau(  25) = (   0.7500000   0.3182660   2.4334925  )
        26           O0  tau(  26) = (   0.5000000   0.0000000   2.6078847  )
        27           H2  tau(  27) = (  -0.0002600   0.6438727   1.6192532  )
        28           H2  tau(  28) = (   0.4995800   0.6393041   1.6156985  )
        29           H2  tau(  29) = (   0.1450800   0.0331921   1.5470588  )
        30           H2  tau(  30) = (   0.6459600   0.0301326   1.5471435  )
        31           O0  tau(  31) = (   0.5000500   0.5106527   2.7413977  )

     number of k points=    10  Methfessel-Paxton smearing, width (Ry)=  0.0100
                       cart. coord. in units 2pi/alat
        k(    1) = (   0.0000000   0.0000000   0.0000000), wk =   0.1250000
        k(    2) = (   0.0000000   0.2435070   0.0000000), wk =   0.2500000
        k(    3) = (   0.0000000  -0.4870139   0.0000000), wk =   0.1250000
        k(    4) = (   0.2500000   0.0000000   0.0000000), wk =   0.2500000
        k(    5) = (   0.2500000   0.2435070   0.0000000), wk =   0.2500000
        k(    6) = (   0.2500000  -0.4870139   0.0000000), wk =   0.2500000
        k(    7) = (  -0.5000000   0.0000000   0.0000000), wk =   0.1250000
        k(    8) = (  -0.5000000   0.2435070   0.0000000), wk =   0.2500000
        k(    9) = (  -0.5000000  -0.4870139   0.0000000), wk =   0.1250000
        k(   10) = (  -0.2500000   0.2435070   0.0000000), wk =   0.2500000

     Largest allocated arrays     est. size (Mb)     dimensions
     Largest temporary arrays     est. size (Mb)     dimensions

     Check: negative/imaginary core charge=   -0.000003    0.000000

     Initial potential from superposition of free atoms
     Check: negative starting charge=   -0.520948

     starting charge  237.99981, renormalised to  246.00000

     negative rho (up, down):  0.538E+00 0.000E+00
     Number of +U iterations with fixed ns =  0
     Starting occupations:
 --- enter write_ns ---
 LDA+U parameters:
U( 2)     =  7.00000000
alpha( 2) =  0.00000000
atom    3   Tr[ns(na)] =   6.00000
    eigenvalues:
  0.600  0.600  0.600  0.600  0.600
    eigenvectors:
  1.000  0.000  0.000  0.000  0.000
  0.000  1.000  0.000  0.000  0.000
  0.000  0.000  1.000  0.000  0.000
  0.000  0.000  0.000  1.000  0.000
  0.000  0.000  0.000  0.000  1.000
    occupations:
  0.600  0.000  0.000  0.000  0.000
  0.000  0.600  0.000  0.000  0.000
  0.000  0.000  0.600  0.000  0.000
  0.000  0.000  0.000  0.600  0.000
  0.000  0.000  0.000  0.000  0.600
atom    4   Tr[ns(na)] =   6.00000
    eigenvalues:
  0.600  0.600  0.600  0.600  0.600
    eigenvectors:
  1.000  0.000  0.000  0.000  0.000
  0.000  1.000  0.000  0.000  0.000
  0.000  0.000  1.000  0.000  0.000
  0.000  0.000  0.000  1.000  0.000
  0.000  0.000  0.000  0.000  1.000
    occupations:
  0.600  0.000  0.000  0.000  0.000
  0.000  0.600  0.000  0.000  0.000
  0.000  0.000  0.600  0.000  0.000
  0.000  0.000  0.000  0.600  0.000
  0.000  0.000  0.000  0.000  0.600
atom    9   Tr[ns(na)] =   6.00000
    eigenvalues:
  0.600  0.600  0.600  0.600  0.600
    eigenvectors:
  1.000  0.000  0.000  0.000  0.000
  0.000  1.000  0.000  0.000  0.000
  0.000  0.000  1.000  0.000  0.000
  0.000  0.000  0.000  1.000  0.000
  0.000  0.000  0.000  0.000  1.000
    occupations:
  0.600  0.000  0.000  0.000  0.000
  0.000  0.600  0.000  0.000  0.000
  0.000  0.000  0.600  0.000  0.000
  0.000  0.000  0.000  0.600  0.000
  0.000  0.000  0.000  0.000  0.600
atom   10   Tr[ns(na)] =   6.00000
    eigenvalues:
  0.600  0.600  0.600  0.600  0.600
    eigenvectors:
  1.000  0.000  0.000  0.000  0.000
  0.000  1.000  0.000  0.000  0.000
  0.000  0.000  1.000  0.000  0.000
  0.000  0.000  0.000  1.000  0.000
  0.000  0.000  0.000  0.000  1.000
    occupations:
  0.600  0.000  0.000  0.000  0.000
  0.000  0.600  0.000  0.000  0.000
  0.000  0.000  0.600  0.000  0.000
  0.000  0.000  0.000  0.600  0.000
  0.000  0.000  0.000  0.000  0.600
atom   16   Tr[ns(na)] =   6.00000
    eigenvalues:
  0.600  0.600  0.600  0.600  0.600
    eigenvectors:
  1.000  0.000  0.000  0.000  0.000
  0.000  1.000  0.000  0.000  0.000
  0.000  0.000  1.000  0.000  0.000
  0.000  0.000  0.000  1.000  0.000
  0.000  0.000  0.000  0.000  1.000
    occupations:
  0.600  0.000  0.000  0.000  0.000
  0.000  0.600  0.000  0.000  0.000
  0.000  0.000  0.600  0.000  0.000
  0.000  0.000  0.000  0.600  0.000
  0.000  0.000  0.000  0.000  0.600
atom   17   Tr[ns(na)] =   6.00000
    eigenvalues:
  0.600  0.600  0.600  0.600  0.600
    eigenvectors:
  1.000  0.000  0.000  0.000  0.000
  0.000  1.000  0.000  0.000  0.000
  0.000  0.000  1.000  0.000  0.000
  0.000  0.000  0.000  1.000  0.000
  0.000  0.000  0.000  0.000  1.000
    occupations:
  0.600  0.000  0.000  0.000  0.000
  0.000  0.600  0.000  0.000  0.000
  0.000  0.000  0.600  0.000  0.000
  0.000  0.000  0.000  0.600  0.000
  0.000  0.000  0.000  0.000  0.600
atom   22   Tr[ns(na)] =   6.00000
    eigenvalues:
  0.600  0.600  0.600  0.600  0.600
    eigenvectors:
  1.000  0.000  0.000  0.000  0.000
  0.000  1.000  0.000  0.000  0.000
  0.000  0.000  1.000  0.000  0.000
  0.000  0.000  0.000  1.000  0.000
  0.000  0.000  0.000  0.000  1.000
    occupations:
  0.600  0.000  0.000  0.000  0.000
  0.000  0.600  0.000  0.000  0.000
[...]
  0.994  0.000  0.005  0.000  0.000
    occupations:
  0.614 -0.002 -0.000  0.051  0.004
 -0.002  0.890  0.055 -0.001 -0.001
 -0.000  0.055  0.593  0.002 -0.000
  0.051 -0.001  0.002  0.980  0.000
  0.004 -0.001 -0.000  0.000  0.551
atom    9   Tr[ns(na)] =   7.21969
    eigenvalues:
  0.553  0.603  0.630  0.889  0.936
    eigenvectors:
  0.904  0.001  0.094  0.000  0.000
  0.000  0.995  0.004  0.000  0.000
  0.000  0.000  0.000  0.029  0.971
  0.095  0.003  0.901  0.000  0.000
  0.000  0.000  0.000  0.971  0.029
    occupations:
  0.560  0.000 -0.001 -0.023  0.006
  0.000  0.603  0.002  0.002 -0.000
 -0.001  0.002  0.935  0.000 -0.008
 -0.023  0.002  0.000  0.623 -0.003
  0.006 -0.000 -0.008 -0.003  0.890
atom   10   Tr[ns(na)] =   7.29308
    eigenvalues:
  0.495  0.519  0.738  0.914  0.980
    eigenvectors:
  0.983  0.000  0.000  0.001  0.017
  0.000  0.000  0.000  0.994  0.006
  0.000  0.001  0.999  0.000  0.000
  0.017  0.000  0.000  0.005  0.978
  0.000  0.999  0.001  0.000  0.000
    occupations:
  0.504 -0.006 -0.001  0.062 -0.000
 -0.006  0.915  0.001  0.006  0.001
 -0.001  0.001  0.738 -0.000  0.007
  0.062  0.006 -0.000  0.972  0.000
 -0.000  0.001  0.007  0.000  0.519
atom   16   Tr[ns(na)] =   7.22837
    eigenvalues:
  0.502  0.551  0.629  0.947  0.985
    eigenvectors:
  0.001  0.171  0.004  0.001  0.824
  0.998  0.001  0.000  0.001  0.000
  0.000  0.016  0.964  0.004  0.016
  0.000  0.812  0.028  0.000  0.159
  0.000  0.000  0.004  0.995  0.000
    occupations:
  0.910 -0.008  0.044 -0.158 -0.003
 -0.008  0.502 -0.004  0.002 -0.010
  0.044 -0.004  0.634 -0.009  0.020
 -0.158  0.002 -0.009  0.622 -0.001
 -0.003 -0.010  0.020 -0.001  0.946
atom   17   Tr[ns(na)] =   7.26747
    eigenvalues:
  0.547  0.606  0.608  0.886  0.987
    eigenvectors:
  0.002  0.382  0.598  0.000  0.017
  0.000  0.012  0.005  0.983  0.000
  0.000  0.598  0.385  0.017  0.000
  0.000  0.006  0.011  0.000  0.983
  0.998  0.001  0.001  0.000  0.000
    occupations:
  0.614 -0.004  0.000  0.049  0.003
 -0.004  0.881  0.036  0.001 -0.002
  0.000  0.036  0.612  0.001 -0.000
  0.049  0.001  0.001  0.980 -0.000
  0.003 -0.002 -0.000 -0.000  0.547
atom   22   Tr[ns(na)] =   7.30663
    eigenvalues:
  0.538  0.561  0.684  0.897  0.974
    eigenvectors:
  0.003  0.154  0.000  0.000  0.842
  0.984  0.016  0.000  0.000  0.000
  0.000  0.000  0.987  0.012  0.000
  0.012  0.830  0.000  0.000  0.157
  0.000  0.000  0.012  0.987  0.000
    occupations:
  0.909  0.005  0.001 -0.151  0.001
  0.005  0.538  0.001  0.001 -0.000
  0.001  0.001  0.687 -0.000 -0.024
 -0.151  0.001 -0.000  0.626 -0.001
  0.001 -0.000 -0.024 -0.001  0.894
atom   23   Tr[ns(na)] =   7.28616
    eigenvalues:
  0.585  0.670  0.675  0.725  0.988
    eigenvectors:
  0.000  0.023  0.969  0.001  0.008
  0.000  0.001  0.001  0.998  0.001
  0.005  0.971  0.023  0.000  0.000
  0.000  0.000  0.007  0.001  0.991
  0.995  0.005  0.000  0.000  0.000
    occupations:
  0.677  0.002 -0.001  0.027  0.000
  0.002  0.725  0.001  0.007  0.001
 -0.001  0.001  0.669  0.002 -0.006
  0.027  0.007  0.002  0.985 -0.000
  0.000  0.001 -0.006 -0.000  0.586
N of occupied +U levels =  58.0888852
 --- exit write_ns ---

     Threshold (ethr) on eigenvalues was too large:
     Diagonalizing with lowered threshold

     Davidson diagonalization with overlap
     ethr =  2.11E-09,  avg # of iterations =  3.0

[...]

     total energy              =   -2159.81902920 Ry
     Harris-Foulkes estimate   =   -2159.81902920 Ry
     estimated scf accuracy    <       0.00000001 Ry

     iteration # 16     ecut=    40.00 Ry     beta=0.70
     Davidson diagonalization with overlap
     ethr =  4.70E-12,  avg # of iterations =  1.0

     negative rho (up, down):  0.573E+00 0.000E+00

     End of self-consistent calculation
 --- enter write_ns ---
 LDA+U parameters:
U( 2)     =  7.00000000
alpha( 2) =  0.00000000
atom    3   Tr[ns(na)] =   7.23142
    eigenvalues:
  0.503  0.551  0.631  0.943  0.987
    eigenvectors:
  0.000  0.172  0.004  0.000  0.823
  0.999  0.000  0.000  0.001  0.000
  0.000  0.014  0.967  0.003  0.016
  0.000  0.814  0.025  0.000  0.160
  0.001  0.000  0.003  0.997  0.000
    occupations:
  0.911  0.008  0.044 -0.159  0.002
  0.008  0.504  0.004 -0.003 -0.010
  0.044  0.004  0.636 -0.010 -0.016
 -0.159 -0.003 -0.010  0.623  0.000
  0.002 -0.010 -0.016  0.000  0.942
atom    4   Tr[ns(na)] =   7.25566
    eigenvalues:
  0.551  0.583  0.608  0.899  0.987
    eigenvectors:
  0.005  0.000  0.976  0.000  0.018
  0.000  0.031  0.000  0.969  0.000
  0.000  0.969  0.000  0.031  0.000
  0.000  0.000  0.018  0.000  0.981
  0.994  0.000  0.005  0.000  0.000
    occupations:
  0.614 -0.002 -0.000  0.051  0.004
 -0.002  0.890  0.055 -0.001 -0.001
 -0.000  0.055  0.593  0.002 -0.000
  0.051 -0.001  0.002  0.980  0.000
  0.004 -0.001 -0.000  0.000  0.551
atom    9   Tr[ns(na)] =   7.21956
    eigenvalues:
  0.553  0.602  0.630  0.889  0.936
    eigenvectors:
  0.904  0.001  0.094  0.000  0.000
  0.000  0.995  0.004  0.000  0.000
  0.000  0.000  0.000  0.029  0.971
  0.095  0.003  0.902  0.000  0.000
  0.000  0.000  0.000  0.971  0.029
    occupations:
  0.560  0.000 -0.001 -0.023  0.006
  0.000  0.603  0.002  0.002 -0.000
 -0.001  0.002  0.935  0.000 -0.008
 -0.023  0.002  0.000  0.622 -0.003
  0.006 -0.000 -0.008 -0.003  0.890
atom   10   Tr[ns(na)] =   7.29338
    eigenvalues:
  0.495  0.519  0.738  0.915  0.980
    eigenvectors:
  0.983  0.000  0.000  0.001  0.017
  0.000  0.000  0.000  0.994  0.006
  0.000  0.001  0.999  0.000  0.000
  0.017  0.000  0.000  0.005  0.978
  0.000  0.999  0.001  0.000  0.000
    occupations:
  0.504 -0.006 -0.001  0.062 -0.000
 -0.006  0.915  0.001  0.006  0.001
 -0.001  0.001  0.738 -0.000  0.007
  0.062  0.006 -0.000  0.972  0.000
 -0.000  0.001  0.007  0.000  0.519
atom   16   Tr[ns(na)] =   7.22852
    eigenvalues:
  0.502  0.551  0.629  0.947  0.985
    eigenvectors:
  0.001  0.171  0.004  0.001  0.824
  0.998  0.001  0.000  0.001  0.000
  0.000  0.016  0.964  0.004  0.016
  0.000  0.812  0.028  0.000  0.159
  0.000  0.000  0.004  0.995  0.000
    occupations:
  0.910 -0.008  0.044 -0.158 -0.003
 -0.008  0.502 -0.003  0.002 -0.010
  0.044 -0.003  0.634 -0.009  0.020
 -0.158  0.002 -0.009  0.622 -0.001
 -0.003 -0.010  0.020 -0.001  0.946
atom   17   Tr[ns(na)] =   7.26733
    eigenvalues:
  0.547  0.606  0.608  0.885  0.987
    eigenvectors:
  0.002  0.341  0.639  0.000  0.017
  0.000  0.013  0.004  0.983  0.000
  0.000  0.639  0.344  0.017  0.000
  0.000  0.006  0.011  0.000  0.983
  0.998  0.001  0.001  0.000  0.000
    occupations:
  0.614 -0.004  0.000  0.049  0.003
 -0.004  0.881  0.036  0.001 -0.002
  0.000  0.036  0.612  0.001 -0.000
  0.049  0.001  0.001  0.980 -0.000
  0.003 -0.002 -0.000 -0.000  0.547
atom   22   Tr[ns(na)] =   7.30646
    eigenvalues:
  0.538  0.561  0.684  0.897  0.974
    eigenvectors:
  0.003  0.154  0.000  0.000  0.842
  0.984  0.016  0.000  0.000  0.000
  0.000  0.000  0.987  0.013  0.000
  0.013  0.830  0.000  0.000  0.157
  0.000  0.000  0.013  0.987  0.000
    occupations:
  0.909  0.005  0.001 -0.151  0.001
  0.005  0.538  0.001  0.001 -0.000
  0.001  0.001  0.687 -0.000 -0.024
 -0.151  0.001 -0.000  0.626 -0.001
  0.001 -0.000 -0.024 -0.001  0.894
atom   23   Tr[ns(na)] =   7.28626
    eigenvalues:
  0.585  0.670  0.675  0.725  0.988
    eigenvectors:
  0.000  0.023  0.968  0.001  0.008
  0.000  0.001  0.001  0.998  0.001
  0.005  0.971  0.023  0.000  0.000
  0.000  0.000  0.007  0.001  0.991
  0.995  0.005  0.000  0.000  0.000
    occupations:
  0.677  0.002 -0.001  0.027  0.000
  0.002  0.725  0.001  0.007  0.001
 -0.001  0.001  0.669  0.002 -0.006
  0.027  0.007  0.002  0.985 -0.000
  0.000  0.001 -0.006 -0.000  0.586
N of occupied +U levels =  58.0886123
 --- exit write_ns ---

[...]

          k = 0.2500-0.4870 0.0000 ( 30468 PWs)   bands (ev):

[...]

          k =-0.2500 0.2435 0.0000 ( 30434 PWs)   bands (ev):

   -74.7681 -74.4019 -73.7814 -73.7191 -73.5271 -73.4146 -73.4074 -73.3606
   -45.3618 -44.7509 -44.5957 -44.5647 -44.4329 -44.1130 -44.0483 -43.8952
   -43.8373 -43.7762 -43.7718 -43.7358 -43.6634 -43.6558 -43.5166 -43.5084
   -43.5071 -43.4830 -43.3946 -43.3807 -43.2535 -43.2500 -43.1528 -43.0371
   -20.8089 -20.4913 -20.3809 -20.3463 -20.1935 -20.0949 -20.0533 -19.9619
   -19.8303 -19.7833 -19.7488 -19.5544 -19.4628 -19.4475 -19.4018 -19.2523
   -19.2097 -19.1804 -18.8552  -9.7127  -9.5672  -9.3257  -9.2300  -9.2020
    -9.0763  -8.9083  -8.7614  -8.1840  -8.1242  -8.0381  -7.9817  -7.8898
    -7.8038  -7.7386  -7.6847  -7.5487  -7.4659  -7.4032  -7.1779  -6.9495
    -6.7889  -6.6699  -6.5772  -6.4768  -6.3432  -6.3211  -6.1472  -6.0509
    -6.0391  -5.9579  -5.8537  -5.7107  -5.5952  -5.5185  -5.4122  -5.3741
    -5.2779  -5.2314  -5.1075  -5.0601  -4.7896  -4.7220  -4.6702  -4.5361
    -4.4234  -4.3040  -4.2584  -4.1487  -4.0386  -3.8964  -3.8252  -3.7462
    -3.5635  -3.4833  -3.4064  -3.2683  -3.1827  -3.0869  -2.9932  -2.8493
    -2.7627  -2.7092  -2.6116  -2.5945  -2.4896  -2.3900  -2.3466  -2.2419
    -1.9845  -1.7204  -1.5619  -1.3031  -0.9695  -0.8804  -0.8021  -0.6956
    -0.5395  -0.4665  -0.3501  -0.0045   1.1656   1.3187   1.5577   1.7792
     2.0336   2.5036   2.6901   2.8629   3.1302   3.2220   3.3501   3.4090
     3.5519   3.6157   3.8264   3.8634   4.2177   4.6504   4.7570   5.2353
     5.5549   5.6061   5.7661   6.3331   6.4946   6.5695   6.6424   6.7162
     6.8647   6.9381   7.0447   7.2687   7.5505   7.7710   7.8932   7.9821
     8.2266   8.3221   8.3424   8.4964   8.5613   8.6074   8.7182   8.8057
     8.9593   9.1760   9.2757   9.4026   9.5329   9.6010   9.8045   9.8806
    10.0206  10.0841  10.1376  10.1504  10.2740  10.3306  10.4083  10.4840
    10.5817  10.6616  10.7330  10.9327  10.9419  11.1228  11.2118  11.3098
    11.4187  11.5125  11.5822  11.6006  11.6673  11.8192  11.8383  11.8893
    11.9722  12.0401  12.1069  12.1908  12.2653  12.3489  12.4737  12.5524
    12.6025  12.6707  12.7492  12.7657  12.8303  12.8853  12.9662  13.0256
    13.1108  13.2055  13.3166  13.3685  13.4635  13.5160  13.6258  13.6903
    13.8138  13.8593  13.9882  14.0403  14.1535  14.2378  14.3010  14.3599
    14.4505  14.5459  14.5787  14.6395  14.7425  14.8711  14.9023  14.9944
    15.0626  15.1566  15.2206  15.3051  15.3799  15.4339  15.5469  15.6006
    15.6904  15.7384  15.8003  15.8406  15.9135  15.9697  16.0193  16.0759
    16.1029  16.1815  16.2902  16.3234  16.3486  16.4355  16.5499  16.6412
    16.6874  16.7385  16.7691  16.8442  16.9049  16.9542  16.9870  17.1174
    17.1967  17.2446  17.3435  17.4031  17.4425  17.4831  17.5381  17.6376
    17.6883  17.7384  17.8333  17.8916  17.9465  17.9881  18.0300  18.0875
    18.1941  18.2409  18.2880  18.3387  18.4270  18.5474  18.6224  18.6757
    18.7137  18.8089  18.8644  18.9166  19.0257  19.1084  19.1801  19.2059
    19.2995  19.3668  19.4773  19.5136  19.5540  19.6710  19.7468  19.8021
    19.8664  19.9438  19.9857  20.0303  20.1887  20.2529  20.3244  20.3903
    20.5068  20.5829  20.6764  20.7171  20.7985  20.8377  20.8938  20.9263
    20.9864  21.0530  21.1306  21.2086  21.2633  21.3188  21.3543  21.4262
    21.5035  21.5608  21.5913  21.7070  21.7141  21.7673  21.8314  21.9193
    21.9878  22.0164  22.0570  22.1073  22.1818

     the Fermi energy is    -1.3812 ev

!    total energy              =   -2159.81902919 Ry
     Harris-Foulkes estimate   =   -2159.81902920 Ry
     estimated scf accuracy    <          6.9E-09 Ry

     The total energy is the sum of the following terms:

     one-electron contribution =  -25119.32593056 Ry
     hartree contribution      =   12583.91399461 Ry
     xc contribution           =    -337.92719756 Ry
     ewald contribution        =   10710.09573537 Ry
     Hubbard energy            =       3.42454839 Ry
     smearing contrib. (-TS)   =      -0.00017944 Ry

     convergence has been achieved in  16 iterations

     Forces acting on atoms (Ry/au):

     negative rho (up, down):  0.573E+00 0.000E+00
     atom    1 type  1   force =    -0.00568705   -0.00667265    0.00023295
     atom    2 type  1   force =    -0.00011005    0.00059524   -0.00020551
     atom    3 type  2   force =     0.02572046    0.00140464    0.00043395
     atom    4 type  2   force =     0.00813023    0.00538090    0.00000065
     atom    5 type  1   force =    -0.00285561   -0.05380479    0.00031746
     atom    6 type  1   force =     0.00779156    0.05728215    0.00022983
     atom    7 type  1   force =     0.00410813   -0.00228150   -0.00033404
     atom    8 type  1   force =     0.03229125   -0.00085221   -0.00055400
     atom    9 type  2   force =    -0.00279303    0.00104171   -0.00049882
     atom   10 type  2   force =     0.00257930   -0.00248508    0.00016474
     atom   11 type  1   force =     0.00335513   -0.01003279   -0.00002371
     atom   12 type  1   force =     0.00164374    0.00975784    0.00005808
     atom   13 type  1   force =     0.04151589   -0.00033309    0.00022832
     atom   14 type  1   force =    -0.00490815   -0.00666259    0.00031519
     atom   15 type  1   force =    -0.00010970    0.00092891   -0.00004694
     atom   16 type  2   force =    -0.02759456    0.00894607    0.00049348
     atom   17 type  2   force =     0.00325097    0.00540613   -0.00001262
     atom   18 type  1   force =    -0.00645881   -0.05728704    0.00032467
     atom   19 type  1   force =     0.00544933    0.05261641    0.00035840
     atom   20 type  1   force =    -0.00318359   -0.00271771   -0.00028339
     atom   21 type  1   force =    -0.04057762   -0.00107038   -0.00019398
     atom   22 type  2   force =    -0.02036335    0.00160334   -0.00010240
     atom   23 type  2   force =    -0.01244961    0.00131667   -0.00004333
     atom   24 type  1   force =     0.00487620    0.04012883   -0.00002563
     atom   25 type  1   force =     0.00699565   -0.04103184   -0.00005191
     atom   26 type  1   force =    -0.01997458   -0.00015346    0.00042909
     atom   27 type  3   force =     0.00001415    0.00015563   -0.00024384
     atom   28 type  3   force =    -0.00000357   -0.00037736   -0.00050067
     atom   29 type  3   force =    -0.00020897   -0.00044014   -0.00020392
     atom   30 type  3   force =    -0.00022290   -0.00036690   -0.00012665
     atom   31 type  1   force =    -0.00022085    0.00000505   -0.00013546

     Total force =     0.001763     Total SCF correction =     0.000328
     SCF correction compared to forces is large: reduce conv_thr to get better values

     bfgs converged in  18 scf cycles and  17 bfgs steps
     (criteria: energy < 0.10E-03, force < 0.10E-02)

     End of BFGS Geometry Optimization

     Final energy   =   -2159.8190291946 Ry
Begin final coordinates

ATOMIC_POSITIONS (crystal)
O0       0.000000000   0.000000000   0.379381064    0   0   1
O0       0.000000000   0.500000000   0.403158990    0   0   1
Ru1      0.250000000   0.500000000   0.454212936    0   0   1
Ru1      0.000000000   0.000000000   0.452383930    0   0   1
O0       0.250000000   0.810000000   0.452812955    0   0   1
O0       0.250000000   0.190000000   0.452593481    0   0   1
O0       0.000000000   0.500000000   0.499959148    0   0   1
O0       0.000000000   0.000000000   0.525249357    0   0   1
Ru1      0.250000000   0.000000000   0.580518477    0   0   1
Ru1      0.000000000   0.500000000   0.569469748    0   0   1
O0       0.250000000   0.690000000   0.578252549    0   0   1
O0       0.250000000   0.310000000   0.578145826    0   0   1
O0       0.000000000   0.000000000   0.617375510    0   0   1
O0       0.500000000   0.000000000   0.379293500    0   0   1
O0       0.500000000   0.500000000   0.404437511    0   0   1
Ru1      0.750000000   0.500000000   0.454161656    0   0   1
Ru1      0.500000000   0.000000000   0.452440189    0   0   1
O0       0.750000000   0.810000000   0.452790376    0   0   1
O0       0.750000000   0.190000000   0.452674862    0   0   1
O0       0.500000000   0.500000000   0.504691431    0   0   1
O0       0.500000000   0.000000000   0.524876679    0   0   1
Ru1      0.750000000   0.000000000   0.571998392    0   0   1
Ru1      0.500000000   0.500000000   0.581551697    0   0   1
O0       0.750000000   0.690000000   0.572509002    0   0   1
O0       0.750000000   0.310000000   0.572213863    0   0   1
O0       0.500000000   0.000000000   0.616464676    0   0   1
H2      -0.000461234   0.625646202   0.381660634
H2       0.499306996   0.617739207   0.380470205
H2       0.146385346   0.030148662   0.367003963
H2       0.646868154   0.025603801   0.366699237
O0       0.522405296   0.496939972   0.645518156
End final coordinates

     General routines

     Parallel routines
     Hubbard U routines

   This run was terminated on:  10: 6:35  28Apr2014

   JOB DONE.