     Program PWSCF v.5.0.2 (svn rev. 9656) starts on 30Apr2014 at  4:30: 9

     Current dimensions of program PWSCF are:
     Max number of different atomic species (ntypx) = 10
     Max number of k-points (npk) =  40000
     Max angular momentum in pseudopotentials (lmaxx) =  3
     Reading input from pwscf.in
Warning: card &CELL ignored
Warning: card / ignored

     Subspace diagonalization in iterative solution of the eigenvalue problem:
     a serial algorithm will be used

     bravais-lattice index     =            0
     lattice parameter (alat)  =      11.7541  a.u.
     unit-cell volume          =    7139.8207 (a.u.)^3
     number of atoms/cell      =           31
     number of atomic types    =            3
     number of electrons       =       238.00
     number of Kohn-Sham states=          357
     kinetic-energy cutoff     =      40.0000  Ry
     charge density cutoff     =     500.0000  Ry
     convergence threshold     =      1.0E-06
     mixing beta               =       0.7000
     number of iterations used =            8  plain     mixing
     Exchange-correlation      = SLA  PW   PBE  PBE ( 1 4 3 4 0)
     EXX-fraction              =        0.00
     nstep                     =           50

     celldm(1)=  11.754097  celldm(2)=   0.000000  celldm(3)=   0.000000
     celldm(4)=   0.000000  celldm(5)=   0.000000  celldm(6)=   0.000000

     crystal axes: (cart. coord. in units of alat)
               a(1) = (   1.000000   0.000000   0.000000 )
               a(2) = (   0.000000   1.034513   0.000000 )
               a(3) = (   0.000000   0.000000   4.249947 )

     reciprocal axes: (cart. coord. in units 2 pi/alat)
               b(1) = (  1.000000  0.000000  0.000000 )
               b(2) = (  0.000000  0.966638  0.000000 )
               b(3) = (  0.000000  0.000000  0.235297 )

     PseudoPot. # 1 for O  read from file:
     /home/camp/zhonxu/pseudo/o_pbe_v1.01.uspp.F.UPF
     MD5 check sum: 2bcb18d16ea4b960afae9ec6d52f22d2
     Pseudo is Ultrasoft + core correction, Zval =  6.0
     Generated by new atomic code, or converted to UPF format
     Using radial grid of  737 points,  5 beta functions with:
                l(1) =   0
                l(2) =   0
                l(3) =   1
                l(4) =   1
                l(5) =   2
     Q(r) pseudized with  8 coefficients,  rinner =    0.900   0.900   0.900
                                                       0.900   0.900

     PseudoPot. # 2 for Rh read from file:
     /home/camp/zhonxu/pseudo/rh_pbe_v1.uspp.F.UPF
     MD5 check sum: 37b626987ad0dd8ec6bf4cc9ef289918
     Pseudo is Ultrasoft + core correction, Zval = 15.0
     Generated by new atomic code, or converted to UPF format
     Using radial grid of  969 points,  7 beta functions with:
                l(1) =   0
                l(2) =   0
                l(3) =   1
                l(4) =   1
                l(5) =   2
                l(6) =   2
                l(7) =   2
     Q(r) pseudized with  6 coefficients,  rinner =    1.050   1.050   1.050
                                                       1.050   1.050

     PseudoPot. # 3 for H  read from file:
     /home/camp/zhonxu/pseudo/h_pbe_v1.uspp.F.UPF
     MD5 check sum: 3408e3ff4ec8b0a4e358431e7e038a48
     Pseudo is Ultrasoft, Zval =  1.0
     Generated by new atomic code, or converted to UPF format
     Using radial grid of  615 points,  2 beta functions with:
                l(1) =   0
                l(2) =   0
     Q(r) pseudized with  8 coefficients,  rinner =    0.700

     atomic species   valence    mass     pseudopotential
        O0             6.00    15.99940     O ( 1.00)
        Rh1           15.00   102.90550     Rh( 1.00)
        H2             1.00     1.00794     H ( 1.00)

     Simplified LDA+U calculation (l_max = 2) with parameters (eV):
     atomic species    L          U    alpha       J0     beta
        Rh1            2     5.5000   0.0000   0.0000   0.0000

     No symmetry found

   Cartesian axes

     site n.     atom                  positions (alat units)
         1           O0  tau(   1) = (   0.0000000   0.0000000   1.6064375  )
         2           O0  tau(   2) = (   0.0000000   0.5172566   1.7091588  )
         3           Rh1 tau(   3) = (   0.2500000   0.5172566   1.9262886  )
         4           Rh1 tau(   4) = (   0.0000000   0.0000000   1.9228036  )
         5           O0  tau(   5) = (   0.2500000   0.8379556   1.9220386  )
         6           O0  tau(   6) = (   0.2500000   0.1965575   1.9215286  )
         7           O0  tau(   7) = (   0.0000000   0.5172566   2.1200437  )
         8           O0  tau(   8) = (   0.0000000   0.0000000   2.2432071  )
         9           Rh1 tau(   9) = (   0.2500000   0.0000000   2.4439746  )
        10           Rh1 tau(  10) = (   0.0000000   0.5172566   2.4253174  )
        11           O0  tau(  11) = (   0.2500000   0.7138141   2.4432947  )
        12           O0  tau(  12) = (   0.2500000   0.3206991   2.4432097  )
        13           O0  tau(  13) = (   0.0000000   0.0000000   2.6356898  )
        14           O0  tau(  14) = (   0.5000000   0.0000000   1.6064375  )
        15           O0  tau(  15) = (   0.5000000   0.5172566   1.7079263  )
        16           Rh1 tau(  16) = (   0.7500000   0.5172566   1.9262886  )
        17           Rh1 tau(  17) = (   0.5000000   0.0000000   1.9227611  )
        18           O0  tau(  18) = (   0.7500000   0.8379556   1.9219536  )
        19           O0  tau(  19) = (   0.7500000   0.1965575   1.9216136  )
        20           O0  tau(  20) = (   0.5000000   0.5172566   2.1284161  )
        21           O0  tau(  21) = (   0.5000000   0.0000000   2.2423572  )
        22           Rh1 tau(  22) = (   0.7500000   0.0000000   2.4439321  )
        23           Rh1 tau(  23) = (   0.5000000   0.5172566   2.4652244  )
        24           O0  tau(  24) = (   0.7500000   0.7138141   2.4431672  )
        25           O0  tau(  25) = (   0.7500000   0.3206991   2.4432097  )
        26           O0  tau(  26) = (   0.5000000   0.0000000   2.6354348  )
        27           H2  tau(  27) = (  -0.0000700   0.6590056   1.6354222  )
        28           H2  tau(  28) = (   0.4999300   0.6605366   1.6368247  )
        29           H2  tau(  29) = (   0.1480800   0.0354838   1.5606656  )
        30           H2  tau(  30) = (   0.6481100   0.0354321   1.5605806  )
        31           O0  tau(  31) = (   0.5000800   0.5160462   2.7479734  )

     number of k points=    10  Methfessel-Paxton smearing, width (Ry)=  0.0100
                       cart. coord. in units 2pi/alat
        k(    1) = (   0.0000000   0.0000000   0.0000000), wk =   0.1250000
        k(    2) = (   0.0000000   0.2416596   0.0000000), wk =   0.2500000
        k(    3) = (   0.0000000  -0.4833191   0.0000000), wk =   0.1250000
        k(    4) = (   0.2500000   0.0000000   0.0000000), wk =   0.2500000
        k(    5) = (   0.2500000   0.2416596   0.0000000), wk =   0.2500000
        k(    6) = (   0.2500000  -0.4833191   0.0000000), wk =   0.2500000
        k(    7) = (  -0.5000000   0.0000000   0.0000000), wk =   0.1250000
        k(    8) = (  -0.5000000   0.2416596   0.0000000), wk =   0.2500000
        k(    9) = (  -0.5000000  -0.4833191   0.0000000), wk =   0.1250000
        k(   10) = (  -0.2500000   0.2416596   0.0000000), wk =   0.2500000

     Largest allocated arrays     est. size (Mb)     dimensions
     Largest temporary arrays     est. size (Mb)     dimensions

     Check: negative/imaginary core charge=   -0.000003    0.000000

     Initial potential from superposition of free atoms
     Check: negative starting charge=   -0.645358

     starting charge  233.99915, renormalised to  238.00000

     negative rho (up, down):  0.656E+00 0.000E+00
     Number of +U iterations with fixed ns =  0
     Starting occupations:
 --- enter write_ns ---
 LDA+U parameters:
U( 2)     =  5.50000000
alpha( 2) =  0.00000000
atom    3   Tr[ns(na)] =   7.00000
    eigenvalues:
  0.700  0.700  0.700  0.700  0.700
    eigenvectors:
  1.000  0.000  0.000  0.000  0.000
  0.000  1.000  0.000  0.000  0.000
  0.000  0.000  1.000  0.000  0.000
  0.000  0.000  0.000  1.000  0.000
  0.000  0.000  0.000  0.000  1.000
    occupations:
  0.700  0.000  0.000  0.000  0.000
  0.000  0.700  0.000  0.000  0.000
  0.000  0.000  0.700  0.000  0.000
  0.000  0.000  0.000  0.700  0.000
  0.000  0.000  0.000  0.000  0.700
atom    4   Tr[ns(na)] =   7.00000
    eigenvalues:
  0.700  0.700  0.700  0.700  0.700
    eigenvectors:
  1.000  0.000  0.000  0.000  0.000
  0.000  1.000  0.000  0.000  0.000
  0.000  0.000  1.000  0.000  0.000
  0.000  0.000  0.000  1.000  0.000
  0.000  0.000  0.000  0.000  1.000
    occupations:
  0.700  0.000  0.000  0.000  0.000
  0.000  0.700  0.000  0.000  0.000
  0.000  0.000  0.700  0.000  0.000
  0.000  0.000  0.000  0.700  0.000
  0.000  0.000  0.000  0.000  0.700
atom    9   Tr[ns(na)] =   7.00000
    eigenvalues:
  0.700  0.700  0.700  0.700  0.700
    eigenvectors:
  1.000  0.000  0.000  0.000  0.000
  0.000  1.000  0.000  0.000  0.000
  0.000  0.000  1.000  0.000  0.000
  0.000  0.000  0.000  1.000  0.000
  0.000  0.000  0.000  0.000  1.000
    occupations:
  0.700  0.000  0.000  0.000  0.000
  0.000  0.700  0.000  0.000  0.000
  0.000  0.000  0.700  0.000  0.000
  0.000  0.000  0.000  0.700  0.000
  0.000  0.000  0.000  0.000  0.700
atom   10   Tr[ns(na)] =   7.00000
    eigenvalues:
  0.700  0.700  0.700  0.700  0.700
    eigenvectors:
  1.000  0.000  0.000  0.000  0.000
  0.000  1.000  0.000  0.000  0.000
  0.000  0.000  1.000  0.000  0.000
  0.000  0.000  0.000  1.000  0.000
  0.000  0.000  0.000  0.000  1.000
    occupations:
  0.700  0.000  0.000  0.000  0.000
  0.000  0.700  0.000  0.000  0.000
  0.000  0.000  0.700  0.000  0.000
  0.000  0.000  0.000  0.700  0.000
  0.000  0.000  0.000  0.000  0.700
atom   16   Tr[ns(na)] =   7.00000
    eigenvalues:
  0.700  0.700  0.700  0.700  0.700
    eigenvectors:
  1.000  0.000  0.000  0.000  0.000
  0.000  1.000  0.000  0.000  0.000
  0.000  0.000  1.000  0.000  0.000
  0.000  0.000  0.000  1.000  0.000
  0.000  0.000  0.000  0.000  1.000
    occupations:
  0.700  0.000  0.000  0.000  0.000
  0.000  0.700  0.000  0.000  0.000
  0.000  0.000  0.700  0.000  0.000
  0.000  0.000  0.000  0.700  0.000
  0.000  0.000  0.000  0.000  0.700
atom   17   Tr[ns(na)] =   7.00000
    eigenvalues:
  0.700  0.700  0.700  0.700  0.700
    eigenvectors:
  1.000  0.000  0.000  0.000  0.000
  0.000  1.000  0.000  0.000  0.000
  0.000  0.000  1.000  0.000  0.000
  0.000  0.000  0.000  1.000  0.000
  0.000  0.000  0.000  0.000  1.000
    occupations:
  0.700  0.000  0.000  0.000  0.000
  0.000  0.700  0.000  0.000  0.000
  0.000  0.000  0.700  0.000  0.000
  0.000  0.000  0.000  0.700  0.000
  0.000  0.000  0.000  0.000  0.700
atom   22   Tr[ns(na)] =   7.00000
    eigenvalues:
  0.700  0.700  0.700  0.700  0.700
    eigenvectors:
  1.000  0.000  0.000  0.000  0.000
  0.000  1.000  0.000  0.000  0.000
  0.000  0.000  1.000  0.000  0.000
  0.000  0.000  0.000  1.000  0.000
  0.000  0.000  0.000  0.000  1.000
    occupations:
  0.700  0.000  0.000  0.000  0.000
[...]
  0.000  0.000  0.942  0.058  0.000
  0.000  0.008  0.000  0.000  0.992
  0.999  0.001  0.000  0.000  0.000
    occupations:
  0.652 -0.004 -0.001  0.029  0.001
 -0.004  0.929  0.011  0.001 -0.001
 -0.001  0.011  0.886 -0.001  0.001
  0.029  0.001 -0.001  0.977  0.000
  0.001 -0.001  0.001  0.000  0.598
atom    9   Tr[ns(na)] =   8.08572
    eigenvalues:
  0.634  0.641  0.877  0.910  0.980
    eigenvectors:
  0.006  0.145  0.000  0.000  0.848
  0.962  0.038  0.000  0.000  0.000
  0.000  0.000  0.929  0.071  0.000
  0.032  0.817  0.000  0.000  0.152
  0.000  0.000  0.071  0.929  0.000
    occupations:
  0.929  0.002 -0.000 -0.122 -0.000
  0.002  0.635  0.001  0.001 -0.000
 -0.000  0.001  0.879  0.000 -0.008
 -0.122  0.001  0.000  0.693  0.001
 -0.000 -0.000 -0.008  0.001  0.908
atom   10   Tr[ns(na)] =   8.06336
    eigenvalues:
  0.583  0.590  0.936  0.943  0.979
    eigenvectors:
  0.991  0.000  0.000  0.000  0.009
  0.000  0.000  0.001  0.999  0.000
  0.000  0.000  0.999  0.001  0.000
  0.009  0.000  0.000  0.000  0.991
  0.000  1.000  0.000  0.000  0.000
    occupations:
  0.587  0.000  0.001  0.038 -0.000
  0.000  0.943 -0.000 -0.000 -0.000
  0.001 -0.000  0.936  0.000  0.000
  0.038 -0.000  0.000  0.976 -0.000
 -0.000 -0.000  0.000 -0.000  0.590
atom   16   Tr[ns(na)] =   8.07737
    eigenvalues:
  0.580  0.601  0.913  0.965  0.979
    eigenvectors:
  0.009  0.193  0.002  0.000  0.796
  0.962  0.038  0.000  0.000  0.000
  0.000  0.000  0.984  0.014  0.002
  0.029  0.769  0.000  0.000  0.201
  0.000  0.000  0.013  0.986  0.001
    occupations:
  0.903  0.005  0.001 -0.152  0.001
  0.005  0.581  0.000  0.002 -0.006
  0.001  0.000  0.914 -0.004 -0.006
 -0.152  0.002 -0.004  0.677  0.000
  0.001 -0.006 -0.006  0.000  0.964
atom   17   Tr[ns(na)] =   8.08424
    eigenvalues:
  0.599  0.650  0.884  0.930  0.980
    eigenvectors:
  0.001  0.991  0.000  0.000  0.008
  0.000  0.000  0.080  0.920  0.000
  0.000  0.000  0.920  0.080  0.000
  0.000  0.008  0.000  0.000  0.992
  0.999  0.001  0.000  0.000  0.000
    occupations:
  0.652 -0.004 -0.001  0.029  0.002
 -0.004  0.926  0.012  0.001 -0.001
 -0.001  0.012  0.887 -0.000  0.001
  0.029  0.001 -0.000  0.978  0.000
  0.002 -0.001  0.001  0.000  0.599
atom   22   Tr[ns(na)] =   8.08608
    eigenvalues:
  0.635  0.641  0.877  0.910  0.980
    eigenvectors:
  0.000  0.151  0.000  0.000  0.848
  0.997  0.003  0.000  0.000  0.000
  0.000  0.000  0.934  0.066  0.000
  0.002  0.846  0.000  0.000  0.152
  0.000  0.000  0.066  0.934  0.000
    occupations:
  0.929 -0.001  0.000 -0.122 -0.000
 -0.001  0.635  0.001 -0.000 -0.000
  0.000  0.001  0.879 -0.000  0.008
 -0.122 -0.000 -0.000  0.693  0.001
 -0.000 -0.000  0.008  0.001  0.908
atom   23   Tr[ns(na)] =   8.07501
    eigenvalues:
  0.640  0.704  0.831  0.880  0.983
    eigenvectors:
  0.000  0.993  0.000  0.000  0.007
  0.000  0.000  0.000  1.000  0.000
  0.000  0.000  1.000  0.000  0.000
  0.000  0.007  0.000  0.000  0.993
  1.000  0.000  0.000  0.000  0.000
    occupations:
  0.706  0.000 -0.001  0.024 -0.000
  0.000  0.880 -0.000 -0.000  0.000
 -0.001 -0.000  0.831  0.001  0.000
  0.024 -0.000  0.001  0.981  0.000
 -0.000  0.000  0.000  0.000  0.640
N of occupied +U levels =  64.6346628
 --- exit write_ns ---

     Threshold (ethr) on eigenvalues was too large:
     Diagonalizing with lowered threshold

     Davidson diagonalization with overlap
     ethr =  1.09E-08,  avg # of iterations =  2.4

[...]

     total energy              =   -1978.11049897 Ry
     Harris-Foulkes estimate   =   -1978.11049898 Ry
     estimated scf accuracy    <       0.00000008 Ry

     iteration # 18     ecut=    40.00 Ry     beta=0.70
     Davidson diagonalization with overlap
     ethr =  7.23E-12,  avg # of iterations =  1.0

     negative rho (up, down):  0.688E+00 0.000E+00

     End of self-consistent calculation
 --- enter write_ns ---
 LDA+U parameters:
U( 2)     =  5.50000000
alpha( 2) =  0.00000000
atom    3   Tr[ns(na)] =   8.07714
    eigenvalues:
  0.580  0.601  0.913  0.965  0.979
    eigenvectors:
  0.010  0.192  0.002  0.000  0.796
  0.958  0.042  0.000  0.000  0.000
  0.000  0.000  0.978  0.019  0.002
  0.032  0.766  0.000  0.000  0.201
  0.000  0.000  0.019  0.980  0.001
    occupations:
  0.903 -0.005  0.001 -0.152 -0.001
 -0.005  0.581 -0.001 -0.002 -0.006
  0.001 -0.001  0.914 -0.004  0.007
 -0.152 -0.002 -0.004  0.677 -0.000
 -0.001 -0.006  0.007 -0.000  0.964
atom    4   Tr[ns(na)] =   8.08547
    eigenvalues:
  0.598  0.650  0.883  0.932  0.980
    eigenvectors:
  0.001  0.991  0.000  0.000  0.008
  0.000  0.000  0.058  0.942  0.000
  0.000  0.000  0.942  0.058  0.000
  0.000  0.008  0.000  0.000  0.992
  0.999  0.001  0.000  0.000  0.000
    occupations:
  0.652 -0.004 -0.001  0.029  0.001
 -0.004  0.929  0.011  0.001 -0.001
 -0.001  0.011  0.886 -0.001  0.001
  0.029  0.001 -0.001  0.977  0.000
  0.001 -0.001  0.001  0.000  0.598
atom    9   Tr[ns(na)] =   8.08654
    eigenvalues:
  0.634  0.641  0.877  0.910  0.980
    eigenvectors:
  0.006  0.145  0.000  0.000  0.848
  0.962  0.037  0.000  0.000  0.000
  0.000  0.000  0.929  0.071  0.000
  0.031  0.817  0.000  0.000  0.152
  0.000  0.000  0.071  0.929  0.000
    occupations:
  0.929  0.002 -0.000 -0.122 -0.000
  0.002  0.635  0.001  0.001 -0.000
 -0.000  0.001  0.880  0.000 -0.008
 -0.122  0.001  0.000  0.693  0.001
 -0.000 -0.000 -0.008  0.001  0.908
atom   10   Tr[ns(na)] =   8.06329
    eigenvalues:
  0.583  0.590  0.936  0.943  0.979
    eigenvectors:
  0.991  0.000  0.000  0.000  0.009
  0.000  0.000  0.001  0.999  0.000
  0.000  0.000  0.999  0.001  0.000
  0.009  0.000  0.000  0.000  0.991
  0.000  1.000  0.000  0.000  0.000
    occupations:
  0.587  0.000  0.001  0.038 -0.000
  0.000  0.943 -0.000 -0.000 -0.000
  0.001 -0.000  0.936  0.000  0.000
  0.038 -0.000  0.000  0.976 -0.000
 -0.000 -0.000  0.000 -0.000  0.590
atom   16   Tr[ns(na)] =   8.07712
    eigenvalues:
  0.580  0.601  0.913  0.965  0.979
    eigenvectors:
  0.009  0.192  0.002  0.000  0.796
  0.961  0.039  0.000  0.000  0.000
  0.000  0.000  0.984  0.014  0.002
  0.030  0.769  0.000  0.000  0.201
  0.000  0.000  0.013  0.986  0.001
    occupations:
  0.903  0.005  0.001 -0.152  0.001
  0.005  0.581  0.000  0.002 -0.006
  0.001  0.000  0.914 -0.004 -0.006
 -0.152  0.002 -0.004  0.677  0.000
  0.001 -0.006 -0.006  0.000  0.964
atom   17   Tr[ns(na)] =   8.08419
    eigenvalues:
  0.599  0.650  0.884  0.930  0.980
    eigenvectors:
  0.001  0.991  0.000  0.000  0.008
  0.000  0.000  0.080  0.920  0.000
  0.000  0.000  0.920  0.080  0.000
  0.000  0.008  0.000  0.000  0.992
  0.999  0.001  0.000  0.000  0.000
    occupations:
  0.652 -0.004 -0.001  0.029  0.002
 -0.004  0.926  0.012  0.001 -0.001
 -0.001  0.012  0.887 -0.000  0.001
  0.029  0.001 -0.000  0.978  0.000
  0.002 -0.001  0.001  0.000  0.599
atom   22   Tr[ns(na)] =   8.08656
    eigenvalues:
  0.635  0.641  0.877  0.910  0.980
    eigenvectors:
  0.000  0.151  0.000  0.000  0.848
  0.998  0.002  0.000  0.000  0.000
  0.000  0.000  0.934  0.066  0.000
  0.002  0.846  0.000  0.000  0.152
  0.000  0.000  0.066  0.934  0.000
    occupations:
  0.929 -0.001  0.000 -0.122 -0.000
 -0.001  0.635  0.001 -0.000 -0.000
  0.000  0.001  0.879 -0.000  0.008
 -0.122 -0.000 -0.000  0.693  0.001
 -0.000 -0.000  0.008  0.001  0.908
atom   23   Tr[ns(na)] =   8.07460
    eigenvalues:
  0.640  0.704  0.831  0.880  0.983
    eigenvectors:
  0.000  0.993  0.000  0.000  0.007
  0.000  0.000  0.000  1.000  0.000
  0.000  0.000  1.000  0.000  0.000
  0.000  0.007  0.000  0.000  0.993
  1.000  0.000  0.000  0.000  0.000
    occupations:
  0.706  0.000 -0.001  0.024 -0.000
  0.000  0.880 -0.000  0.000  0.000
 -0.001 -0.000  0.831  0.001  0.000
  0.024  0.000  0.001  0.981  0.000
 -0.000  0.000  0.000  0.000  0.640
N of occupied +U levels =  64.6349210
 --- exit write_ns ---

[...]

          k = 0.2500-0.4833 0.0000 ( 30510 PWs)   bands (ev):

[...]

          k =-0.2500 0.2417 0.0000 ( 30481 PWs)   bands (ev):

   -49.9822 -49.6532 -49.5778 -48.8661 -48.8587 -48.8528 -48.8322 -48.8249
   -48.8005 -48.7869 -48.7754 -48.7549 -48.6724 -48.6712 -48.6627 -48.5473
   -48.5153 -48.5100 -48.4963 -48.4212 -48.4189 -48.4076 -48.4075 -48.3958
   -21.5112 -21.2225 -21.2092 -21.0782 -20.7761 -20.7042 -20.6374 -20.5998
   -20.4760 -20.4014 -20.3305 -20.3014 -20.2842 -20.1213 -20.0689 -20.0582
   -19.5199 -19.3344 -19.2051 -10.4768 -10.3424 -10.1151  -9.9263  -9.7681
    -9.6519  -9.6098  -9.5475  -9.2768  -9.1111  -9.0212  -8.9502  -8.8164
    -8.7064  -8.6088  -8.4623  -8.3744  -8.3508  -8.1916  -7.9273  -7.8317
    -7.7343  -7.6539  -7.4833  -7.4400  -7.3496  -7.2566  -7.1690  -7.1341
    -6.9575  -6.8977  -6.7940  -6.7225  -6.6686  -6.6048  -6.5177  -6.4302
    -6.3520  -6.2912  -6.2370  -6.0979  -6.0308  -5.7089  -5.4965  -5.4423
    -5.3467  -5.1802  -5.1017  -4.9904  -4.9622  -4.8058  -4.7373  -4.6307
    -4.5288  -4.3893  -4.3548  -4.1849  -4.0997  -3.9464  -3.8929  -3.8483
    -3.8078  -3.7441  -3.6742  -3.5857  -3.5521  -3.4852  -3.4065  -3.3422
    -3.2177  -2.8854  -2.7518  -2.6716  -2.5991  -2.4227  -2.2866  -2.1882
    -2.1610  -2.0212  -1.9522  -1.8412  -0.9605  -0.6710  -0.3909  -0.0091
     0.2129   0.4842   0.6740   0.9374   1.1429   1.2979   1.3628   1.5043
     1.5749   1.7338   1.7808   2.1534   3.5000   4.4516   4.5737   5.0454
     5.3127   5.3240   5.4812   6.0649   6.3731   6.4010   6.4428   6.5304
     6.6483   6.7727   6.9162   7.1318   7.2977   7.4822   7.6147   7.7106
     7.8800   8.0075   8.0896   8.1754   8.2528   8.3329   8.4466   8.5267
     8.7617   8.8632   8.8896   9.0050   9.2210   9.3990   9.5011   9.5689
     9.6450   9.7668   9.8105   9.8743   9.9438  10.1059  10.1590  10.2555
    10.3357  10.4232  10.4507  10.6167  10.7419  10.8048  10.8462  10.9689
    10.9966  11.1211  11.1855  11.2517  11.3585  11.4726  11.5070  11.5631
    11.5923  11.7373  11.7613  11.8073  11.8753  12.0331  12.1544  12.2018
    12.2534  12.3040  12.3449  12.4562  12.5085  12.6278  12.6816  12.7438
    12.7999  12.8569  12.9710  13.0612  13.1072  13.1646  13.2042  13.2849
    13.3570  13.4336  13.5303  13.5740  13.7491  13.8113  13.8710  13.9098
    13.9421  14.1428  14.1964  14.2171  14.2892  14.3732  14.4108  14.5022
    14.6114  14.6493  14.7403  14.8130  15.0217  15.1498  15.3013  15.3216
    15.3720  15.4365  15.5042  15.5296  15.5875  15.6587  15.7208  15.7790
    15.8735  15.9333  16.0244  16.0563  16.1318  16.2075  16.2798  16.3455
    16.3928  16.4299  16.4700  16.5062  16.5822  16.6297  16.6648  16.7405
    16.8120  16.8955  16.9974  17.0541  17.1278  17.2091  17.2495  17.3335
    17.3929  17.4932  17.5354  17.5932  17.6366  17.7391  17.8048  17.8469
    17.9364  18.0162  18.0755  18.1515  18.1627  18.2918  18.3136  18.3987
    18.4551  18.5675  18.6522  18.7121  18.8184  18.8533  18.9003  18.9590
    19.0168  19.0657  19.1270  19.2128  19.2699  19.3014  19.3498  19.4889
    19.5470  19.6215  19.6894  19.7451  19.7946  19.9047  20.0287  20.0704
    20.2029  20.2685  20.2836  20.3455  20.5196  20.5684  20.6193  20.6793
    20.7167  20.7908  20.8694  20.9211  20.9446  21.0419  21.0958  21.1999
    21.2967  21.3395  21.3675  21.4045  21.4455  21.5345  21.6728  21.7477
    21.7698  21.8388  21.8790  21.9177  21.9474  22.0539  22.1040  22.1835
    22.2204  22.3170  22.4055  22.4614  22.5461

     the Fermi energy is    -2.3062 ev

!    total energy              =   -1978.11049897 Ry
     Harris-Foulkes estimate   =   -1978.11049898 Ry
     estimated scf accuracy    <          8.2E-09 Ry

     The total energy is the sum of the following terms:

     one-electron contribution =  -23303.83398918 Ry
     hartree contribution      =   11699.87120363 Ry
     xc contribution           =    -372.16302030 Ry
     ewald contribution        =    9995.91103349 Ry
     Hubbard energy            =       2.10462792 Ry
     smearing contrib. (-TS)   =      -0.00035453 Ry

     convergence has been achieved in  18 iterations

     Forces acting on atoms (Ry/au):

     negative rho (up, down):  0.688E+00 0.000E+00
     atom    1 type  1   force =    -0.00726948   -0.01209046   -0.00003312
     atom    2 type  1   force =     0.00006140    0.00335978    0.00082504
     atom    3 type  2   force =     0.03596573    0.00827610   -0.00089619
     atom    4 type  2   force =     0.00856419    0.00899843    0.00011727
     atom    5 type  1   force =    -0.00328136   -0.02847615    0.00024376
     atom    6 type  1   force =     0.00385959    0.02516604    0.00031528
     atom    7 type  1   force =    -0.00031700   -0.00215885    0.00008031
     atom    8 type  1   force =    -0.00312254   -0.00108331   -0.00022519
     atom    9 type  2   force =     0.00248415    0.00040933   -0.00036099
     atom   10 type  2   force =    -0.00003659   -0.00114471   -0.00073369
     atom   11 type  1   force =     0.00150207    0.01210230   -0.00055211
     atom   12 type  1   force =     0.00093873   -0.01285641   -0.00064614
     atom   13 type  1   force =    -0.00071679    0.00009122    0.00038223
     atom   14 type  1   force =    -0.00657695   -0.01207372    0.00023353
     atom   15 type  1   force =     0.00011451    0.00286883    0.00006105
     atom   16 type  2   force =    -0.03621306    0.00682101   -0.00088452
     atom   17 type  2   force =     0.00830539    0.00917169   -0.00032777
     atom   18 type  1   force =    -0.00254951   -0.02808141    0.00024431
     atom   19 type  1   force =     0.00440814    0.02572162    0.00031316
     atom   20 type  1   force =    -0.00019171   -0.00492717    0.00047106
     atom   21 type  1   force =    -0.00299334   -0.00068730   -0.00013538
     atom   22 type  2   force =     0.00008355    0.00061330   -0.00034137
     atom   23 type  2   force =    -0.00011587    0.00126602    0.00049820
     atom   24 type  1   force =    -0.00194465    0.01217742   -0.00054463
     atom   25 type  1   force =    -0.00006002   -0.01290219   -0.00064947
     atom   26 type  1   force =    -0.00067194   -0.00001212   -0.00003367
     atom   27 type  3   force =    -0.00001574   -0.00053071    0.00089952
     atom   28 type  3   force =    -0.00000939   -0.00018303    0.00073197
     atom   29 type  3   force =     0.00002280    0.00015548    0.00015600
     atom   30 type  3   force =    -0.00021003    0.00024137    0.00011272
     atom   31 type  1   force =    -0.00001427   -0.00023242    0.00067883

     Total force =     0.002832     Total SCF correction =     0.000165

     bfgs converged in   8 scf cycles and   7 bfgs steps
     (criteria: energy < 0.10E-03, force < 0.10E-02)

     End of BFGS Geometry Optimization

     Final energy   =   -1978.1104989692 Ry
Begin final coordinates

ATOMIC_POSITIONS (crystal)
O0       0.000000000   0.000000000   0.378226868    0   0   1
O0       0.000000000   0.500000000   0.402471875    0   0   1
Rh1      0.250000000   0.500000000   0.453381686    0   0   1
Rh1      0.000000000   0.000000000   0.452415295    0   0   1
O0       0.250000000   0.810000000   0.452474629    0   0   1
O0       0.250000000   0.190000000   0.452212452    0   0   1
O0       0.000000000   0.500000000   0.499646031    0   0   1
O0       0.000000000   0.000000000   0.527567681    0   0   1
Rh1      0.250000000   0.000000000   0.574645523    0   0   1
Rh1      0.000000000   0.500000000   0.570999026    0   0   1
O0       0.250000000   0.690000000   0.574723307    0   0   1
O0       0.250000000   0.310000000   0.574661360    0   0   1
O0       0.000000000   0.000000000   0.619871382    0   0   1
O0       0.500000000   0.000000000   0.378122019    0   0   1
O0       0.500000000   0.500000000   0.402341752    0   0   1
Rh1      0.750000000   0.500000000   0.453384206    0   0   1
Rh1      0.500000000   0.000000000   0.452306475    0   0   1
O0       0.750000000   0.810000000   0.452446377    0   0   1
O0       0.750000000   0.190000000   0.452227396    0   0   1
O0       0.500000000   0.500000000   0.501685415    0   0   1
O0       0.500000000   0.000000000   0.527470024    0   0   1
Rh1      0.750000000   0.000000000   0.574642410    0   0   1
Rh1      0.500000000   0.500000000   0.578977960    0   0   1
O0       0.750000000   0.690000000   0.574687566    0   0   1
O0       0.750000000   0.310000000   0.574684432    0   0   1
O0       0.500000000   0.000000000   0.620002059    0   0   1
H2      -0.000189123   0.636388622   0.384967670
H2       0.499792019   0.637572642   0.385375342
H2       0.147927371   0.034584363   0.367366462
H2       0.647996478   0.034766113   0.367304869
O0       0.500064129   0.498422100   0.645530449
End final coordinates

     General routines

     Parallel routines
     Hubbard U routines

   This run was terminated on:  14:51:45  30Apr2014

   JOB DONE.