     Program PWSCF v.5.0.2 (svn rev. 9656) starts on 24Jan2014 at 15:25:43

     Current dimensions of program PWSCF are:
     Max number of different atomic species (ntypx) = 10
     Max number of k-points (npk) =  40000
     Max angular momentum in pseudopotentials (lmaxx) =  3
     Reading input from TiO2-v-0.95.in

     Subspace diagonalization in iterative solution of the eigenvalue problem:
     a serial algorithm will be used

     bravais-lattice index     =            0
     lattice parameter (alat)  =       8.6146  a.u.
     unit-cell volume          =     411.9976 (a.u.)^3
     number of atoms/cell      =            6
     number of atomic types    =            2
     number of electrons       =        48.00
     number of Kohn-Sham states=           69
     kinetic-energy cutoff     =      40.0000  Ry
     charge density cutoff     =     500.0000  Ry
     convergence threshold     =      1.0E-06
     mixing beta               =       0.3000
     number of iterations used =            8  plain     mixing
     Exchange-correlation      = SLA  PW   PBE  PBE ( 1 4 3 4 0)
     EXX-fraction              =        0.00
     nstep                     =           50

     celldm(1)=   8.614626  celldm(2)=   0.000000  celldm(3)=   0.000000
     celldm(4)=   0.000000  celldm(5)=   0.000000  celldm(6)=   0.000000

     crystal axes: (cart. coord. in units of alat)
               a(1) = (   1.000000   0.000000   0.000000 )
               a(2) = (   0.000000   1.000000   0.000000 )
               a(3) = (   0.000000   0.000000   0.644444 )

     reciprocal axes: (cart. coord. in units 2 pi/alat)
               b(1) = (  1.000000  0.000000  0.000000 )
               b(2) = (  0.000000  1.000000  0.000000 )
               b(3) = (  0.000000  0.000000  1.551724 )

     PseudoPot. # 1 for Ti read from file:
     /home/camp/zhonxu/pseudo/ti_pbe_v1.uspp.F.UPF
     MD5 check sum: bcc8f6961b3b91f0cac3ca967d22d0fb
     Pseudo is Ultrasoft + core correction, Zval = 12.0
     Generated by new atomic code, or converted to UPF format
     Using radial grid of  851 points,  6 beta functions with:
                l(1) =   0
                l(2) =   0
                l(3) =   1
                l(4) =   1
                l(5) =   2
                l(6) =   2
     Q(r) pseudized with  6 coefficients,  rinner =    1.000   1.000   1.000
                                                       1.000   1.000

     PseudoPot. # 2 for O  read from file:
     /home/camp/zhonxu/pseudo/o_pbe_v1.01.uspp.F.UPF
     MD5 check sum: 2bcb18d16ea4b960afae9ec6d52f22d2
     Pseudo is Ultrasoft + core correction, Zval =  6.0
     Generated by new atomic code, or converted to UPF format
     Using radial grid of  737 points,  5 beta functions with:
                l(1) =   0
                l(2) =   0
                l(3) =   1
                l(4) =   1
                l(5) =   2
     Q(r) pseudized with  8 coefficients,  rinner =    0.900   0.900   0.900
                                                       0.900   0.900

     atomic species   valence    mass     pseudopotential
        Ti0           12.00    47.88000     Ti( 1.00)
        O1             6.00    15.99940     O ( 1.00)

     Starting magnetic structure
     atomic species   magnetization
        Ti0          0.600
        O1           0.000

     16 Sym. Ops., with inversion, found ( 8 have fractional translation)

   Cartesian axes

     site n.     atom                  positions (alat units)
         1           Ti0 tau(   1) = (   0.0000000   0.0000000   0.0000000  )
         2           Ti0 tau(   2) = (   0.5000000   0.5000000   0.3222222  )
         3           O1  tau(   3) = (   0.3050000   0.3050000   0.0000000  )
         4           O1  tau(   4) = (  -0.3050000  -0.3050000   0.0000000  )
         5           O1  tau(   5) = (   0.8050000   0.1950000   0.3222222  )
         6           O1  tau(   6) = (   0.1950000   0.8050000   0.3222222  )

     number of k points=    36  Methfessel-Paxton smearing, width (Ry)=  0.0100
                       cart. coord. in units 2pi/alat
        k(    1) = (   0.0000000   0.0000000   0.0000000), wk =   0.0080000
        k(    2) = (   0.0000000   0.0000000   0.3103448), wk =   0.0160000
        k(    3) = (   0.0000000   0.0000000   0.6206897), wk =   0.0160000
        k(    4) = (   0.0000000   0.2000000   0.0000000), wk =   0.0320000
        k(    5) = (   0.0000000   0.2000000   0.3103448), wk =   0.0640000
        k(    6) = (   0.0000000   0.2000000   0.6206897), wk =   0.0640000
        k(    7) = (   0.0000000   0.4000000   0.0000000), wk =   0.0320000
        k(    8) = (   0.0000000   0.4000000   0.3103448), wk =   0.0640000
        k(    9) = (   0.0000000   0.4000000   0.6206897), wk =   0.0640000
        k(   10) = (   0.2000000   0.2000000   0.0000000), wk =   0.0320000
        k(   11) = (   0.2000000   0.2000000   0.3103448), wk =   0.0640000
        k(   12) = (   0.2000000   0.2000000   0.6206897), wk =   0.0640000
        k(   13) = (   0.2000000   0.4000000   0.0000000), wk =   0.0640000
        k(   14) = (   0.2000000   0.4000000   0.3103448), wk =   0.1280000
        k(   15) = (   0.2000000   0.4000000   0.6206897), wk =   0.1280000
        k(   16) = (   0.4000000   0.4000000   0.0000000), wk =   0.0320000
        k(   17) = (   0.4000000   0.4000000   0.3103448), wk =   0.0640000
        k(   18) = (   0.4000000   0.4000000   0.6206897), wk =   0.0640000
        k(   19) = (   0.0000000   0.0000000   0.0000000), wk =   0.0080000
        k(   20) = (   0.0000000   0.0000000   0.3103448), wk =   0.0160000
        k(   21) = (   0.0000000   0.0000000   0.6206897), wk =   0.0160000
        k(   22) = (   0.0000000   0.2000000   0.0000000), wk =   0.0320000
        k(   23) = (   0.0000000   0.2000000   0.3103448), wk =   0.0640000
        k(   24) = (   0.0000000   0.2000000   0.6206897), wk =   0.0640000
        k(   25) = (   0.0000000   0.4000000   0.0000000), wk =   0.0320000
        k(   26) = (   0.0000000   0.4000000   0.3103448), wk =   0.0640000
        k(   27) = (   0.0000000   0.4000000   0.6206897), wk =   0.0640000
        k(   28) = (   0.2000000   0.2000000   0.0000000), wk =   0.0320000
        k(   29) = (   0.2000000   0.2000000   0.3103448), wk =   0.0640000
        k(   30) = (   0.2000000   0.2000000   0.6206897), wk =   0.0640000
        k(   31) = (   0.2000000   0.4000000   0.0000000), wk =   0.0640000
        k(   32) = (   0.2000000   0.4000000   0.3103448), wk =   0.1280000
        k(   33) = (   0.2000000   0.4000000   0.6206897), wk =   0.1280000
        k(   34) = (   0.4000000   0.4000000   0.0000000), wk =   0.0320000
        k(   35) = (   0.4000000   0.4000000   0.3103448), wk =   0.0640000
        k(   36) = (   0.4000000   0.4000000   0.6206897), wk =   0.0640000

     Largest allocated arrays     est. size (Mb)     dimensions
     Largest temporary arrays     est. size (Mb)     dimensions

     Check: negative/imaginary core charge=   -0.000015    0.000000

     Initial potential from superposition of free atoms
     Check: negative starting charge=(component1):   -0.020371
     Check: negative starting charge=(component2):   -0.004999

     starting charge   45.99991, renormalised to   48.00000

     negative rho (up, down):  0.213E-01 0.522E-02
     Starting wfc are   36 randomized atomic wfcs

     Self-consistent Calculation

     iteration #  1     ecut=    40.00 Ry     beta=0.30
     Davidson diagonalization with overlap
     ethr =  1.00E-02,  avg # of iterations =  5.1

     negative rho (up, down):  0.191E-01 0.830E-02

     total energy              =    -365.45999970 Ry
     Harris-Foulkes estimate   =    -365.20745447 Ry
     estimated scf accuracy    <       2.57865791 Ry

     total magnetization       =     0.00 Bohr mag/cell
     absolute magnetization    =     1.77 Bohr mag/cell

[...]

     End of self-consistent calculation

 ------ SPIN UP ------------

          k = 0.0000 0.0000 0.0000 (  1787 PWs)   bands (ev):

   -47.3114 -47.2923 -23.6603 -23.6603 -23.4764 -23.4764 -23.4292 -23.3890
    -8.8226  -7.6166  -6.8091  -6.8091   3.6105   4.0079   4.4180   5.5650
     5.5650   6.8973   6.8973   7.4810   8.7818   9.0375   9.0375   9.4827
    11.4350  11.7624  11.9797  12.0775  12.0775  14.0736  14.2219  16.3506
    16.3506  17.3610  17.5829  21.3168  21.3168  24.1966  25.3134  26.3271
    28.1907  29.0028  29.2264  29.2264  31.1377  32.7422  33.8034  33.8034
    34.8299  35.4112  35.4112  35.7521  35.9905  35.9905  36.6913  38.6061
    41.3973  41.8547  41.9984  42.2436  42.2436  43.3422  43.8354  43.8354
    45.9860  46.5328  46.5328  46.8658  49.5382

[...]

 ------ SPIN DOWN ----------

[...]

     the Fermi energy is    10.2460 ev

!    total energy              =    -366.49182207 Ry
     Harris-Foulkes estimate   =    -366.49182143 Ry
     estimated scf accuracy    <       0.00000004 Ry

     The total energy is the sum of the following terms:

     one-electron contribution =    -121.98275956 Ry
     hartree contribution      =      85.19393709 Ry
     xc contribution           =     -63.42291731 Ry
     ewald contribution        =    -266.28008229 Ry
     smearing contrib. (-TS)   =       0.00000000 Ry

[...]

     convergence has been achieved in  12 iterations

     Forces acting on atoms (Ry/au):

     negative rho (up, down):  0.127E-01 0.127E-01
     atom    1 type  1   force =     0.00000000    0.00000000   -0.00000000
     atom    2 type  1   force =     0.00000000    0.00000000    0.00000000
     atom    3 type  2   force =    -0.00631929   -0.00631929    0.00000000
     atom    4 type  2   force =     0.00631929    0.00631929    0.00000000
     atom    5 type  2   force =    -0.00631929    0.00631929    0.00000000
     atom    6 type  2   force =     0.00631929   -0.00631929    0.00000000

     Total force =     0.017874     Total SCF correction =     0.000053

     entering subroutine stress ...

     negative rho (up, down):  0.127E-01 0.127E-01
          total   stress  (Ry/bohr**3)                   (kbar)     P=  102.23
   0.00067816   0.00000000   0.00000000         99.76      0.00      0.00
   0.00000000   0.00067816   0.00000000          0.00     99.76      0.00
   0.00000000   0.00000000   0.00072855          0.00      0.00    107.17

     Volume is kept fixed: isostatic pressure set to zero

     BFGS Geometry Optimization

     number of scf cycles    =   1
     number of bfgs steps    =   0

     enthalpy new            =    -366.4918220691 Ry

     new trust radius        =       0.0089368213 bohr
     new conv_thr            =       0.0000010000 Ry

     new unit-cell volume =    411.99764 a.u.^3 (    61.05175 Ang^3 )

CELL_PARAMETERS (alat=  8.61462572)
   0.999580320   0.000000000   0.000000000
   0.000000000   0.999580320   0.000000000
   0.000000000   0.000000000   0.644985706

ATOMIC_POSITIONS (crystal)
Ti0      0.000000000   0.000000000   0.000000000    0   0   0
Ti0      0.500000000   0.500000000   0.500000000    0   0   0
O1       0.304266447   0.304266447   0.000000000    1   1   0
O1      -0.304266447  -0.304266447   0.000000000    1   1   0
[...]
        k(   30) = (   0.2000840   0.2000840   0.6201688), wk =   0.0640000
        k(   31) = (   0.2000840   0.4001679   0.0000000), wk =   0.0640000
        k(   32) = (   0.2000840   0.4001679   0.3100844), wk =   0.1280000
        k(   33) = (   0.2000840   0.4001679   0.6201688), wk =   0.1280000
        k(   34) = (   0.4001679   0.4001679   0.0000000), wk =   0.0320000
        k(   35) = (   0.4001679   0.4001679   0.3100844), wk =   0.0640000
        k(   36) = (   0.4001679   0.4001679   0.6201688), wk =   0.0640000

     Check: negative/imaginary core charge=   -0.000015    0.000000
     Check: negative starting charge=(component1):   -0.025370

[...]

     enthalpy old            =    -366.4918220691 Ry
     enthalpy new            =    -366.4920747723 Ry

     CASE: enthalpy_new < enthalpy_old

[...]

     Total force =     0.000046     Total SCF correction =     0.000048
     SCF correction compared to forces is large: reduce conv_thr to get better values

[...]

     Threshold (ethr) on eigenvalues was too large:
     Diagonalizing with lowered threshold

     Davidson diagonalization with overlap
     ethr =  4.58E-10,  avg # of iterations =  1.8

[...]

     number of scf cycles    =   4
     number of bfgs steps    =   3

     enthalpy old            =    -366.4921650685 Ry
     enthalpy new            =    -366.4921659479 Ry

     CASE: enthalpy_new < enthalpy_old

     new trust radius        =       0.0009350195 bohr
     new conv_thr            =       0.0000000100 Ry

     new unit-cell volume =    411.99764 a.u.^3 (    61.05175 Ang^3 )

[...]

ATOMIC_POSITIONS (crystal)
Ti0      0.000000000   0.000000000   0.000000000    0   0   0
Ti0      0.500000000   0.500000000   0.500000000    0   0   0
O1       0.303463113   0.303463113   0.000000000    1   1   0
O1      -0.303463113  -0.303463113   0.000000000    1   1   0
O1       0.803463113   0.196536887   0.500000000    1   1   0
O1       0.196536887   0.803463113   0.500000000    1   1   0

     Check: negative starting charge=(component1):   -0.025371
     NEW-OLD atomic charge density approx. for the potential
     NEW k-points:
        k(    1) = (   0.0000000   0.0000000   0.0000000), wk =   0.0080000
        k(    2) = (   0.0000000   0.0000000   0.3100472), wk =   0.0160000
        k(    3) = (   0.0000000   0.0000000   0.6200944), wk =   0.0160000
        k(    4) = (   0.0000000   0.2000960   0.0000000), wk =   0.0320000
        k(    5) = (   0.0000000   0.2000960   0.3100472), wk =   0.0640000
        k(    6) = (   0.0000000   0.2000960   0.6200944), wk =   0.0640000
        k(    7) = (   0.0000000   0.4001920   0.0000000), wk =   0.0320000
        k(    8) = (   0.0000000   0.4001920   0.3100472), wk =   0.0640000
        k(    9) = (   0.0000000   0.4001920   0.6200944), wk =   0.0640000
        k(   10) = (   0.2000960   0.2000960   0.0000000), wk =   0.0320000
        k(   11) = (   0.2000960   0.2000960   0.3100472), wk =   0.0640000
        k(   12) = (   0.2000960   0.2000960   0.6200944), wk =   0.0640000
        k(   13) = (   0.2000960   0.4001920   0.0000000), wk =   0.0640000
        k(   14) = (   0.2000960   0.4001920   0.3100472), wk =   0.1280000
        k(   15) = (   0.2000960   0.4001920   0.6200944), wk =   0.1280000
        k(   16) = (   0.4001920   0.4001920   0.0000000), wk =   0.0320000
        k(   17) = (   0.4001920   0.4001920   0.3100472), wk =   0.0640000
        k(   18) = (   0.4001920   0.4001920   0.6200944), wk =   0.0640000
        k(   19) = (   0.0000000   0.0000000   0.0000000), wk =   0.0080000
        k(   20) = (   0.0000000   0.0000000   0.3100472), wk =   0.0160000
        k(   21) = (   0.0000000   0.0000000   0.6200944), wk =   0.0160000
        k(   22) = (   0.0000000   0.2000960   0.0000000), wk =   0.0320000
        k(   23) = (   0.0000000   0.2000960   0.3100472), wk =   0.0640000
        k(   24) = (   0.0000000   0.2000960   0.6200944), wk =   0.0640000
        k(   25) = (   0.0000000   0.4001920   0.0000000), wk =   0.0320000
        k(   26) = (   0.0000000   0.4001920   0.3100472), wk =   0.0640000
        k(   27) = (   0.0000000   0.4001920   0.6200944), wk =   0.0640000
        k(   28) = (   0.2000960   0.2000960   0.0000000), wk =   0.0320000
        k(   29) = (   0.2000960   0.2000960   0.3100472), wk =   0.0640000
        k(   30) = (   0.2000960   0.2000960   0.6200944), wk =   0.0640000
        k(   31) = (   0.2000960   0.4001920   0.0000000), wk =   0.0640000
        k(   32) = (   0.2000960   0.4001920   0.3100472), wk =   0.1280000
        k(   33) = (   0.2000960   0.4001920   0.6200944), wk =   0.1280000
        k(   34) = (   0.4001920   0.4001920   0.0000000), wk =   0.0320000
        k(   35) = (   0.4001920   0.4001920   0.3100472), wk =   0.0640000
        k(   36) = (   0.4001920   0.4001920   0.6200944), wk =   0.0640000

     Check: negative/imaginary core charge=   -0.000015    0.000000
     Check: negative starting charge=(component1):   -0.025371

[...]

     Threshold (ethr) on eigenvalues was too large:
     Diagonalizing with lowered threshold

     Davidson diagonalization with overlap
     ethr =  3.23E-10,  avg # of iterations =  2.0

[...]

     Total force =     0.000092     Total SCF correction =     0.000041
     SCF correction compared to forces is large: reduce conv_thr to get better values

[...]

     Volume is kept fixed: isostatic pressure set to zero

     bfgs converged in   5 scf cycles and   4 bfgs steps
     (criteria: energy < 0.10E-03, force < 0.10E-02, cell < 0.50E+00)

     End of BFGS Geometry Optimization

     Final enthalpy =    -366.4921662818 Ry
Begin final coordinates
     new unit-cell volume =    411.99764 a.u.^3 (    61.05175 Ang^3 )

CELL_PARAMETERS (alat=  8.61462572)
   0.999520341   0.000000000   0.000000000
   0.000000000   0.999520341   0.000000000
   0.000000000   0.000000000   0.645063117

ATOMIC_POSITIONS (crystal)
Ti0      0.000000000   0.000000000   0.000000000    0   0   0
Ti0      0.500000000   0.500000000   0.500000000    0   0   0
O1       0.303463113   0.303463113   0.000000000    1   1   0
O1      -0.303463113  -0.303463113   0.000000000    1   1   0
O1       0.803463113   0.196536887   0.500000000    1   1   0
O1       0.196536887   0.803463113   0.500000000    1   1   0
End final coordinates

     A final scf calculation at the relaxed structure.
     The G-vectors are recalculated for the final unit cell
     Results may differ from those at the preceding step.

     bravais-lattice index     =            0
     lattice parameter (alat)  =       8.6146  a.u.
     unit-cell volume          =     411.9976 (a.u.)^3
     number of atoms/cell      =            6
     number of atomic types    =            2
     number of electrons       =        48.00
     number of Kohn-Sham states=           69
     kinetic-energy cutoff     =      40.0000  Ry
     charge density cutoff     =     500.0000  Ry
     convergence threshold     =      1.0E-08
     mixing beta               =       0.3000
     number of iterations used =            8  plain     mixing
     Exchange-correlation      = SLA  PW   PBE  PBE ( 1 4 3 4 0)
     EXX-fraction              =        0.00

     celldm(1)=   8.614626  celldm(2)=   0.000000  celldm(3)=   0.000000
     celldm(4)=   0.000000  celldm(5)=   0.000000  celldm(6)=   0.000000

     crystal axes: (cart. coord. in units of alat)
               a(1) = (   0.999520   0.000000   0.000000 )
               a(2) = (   0.000000   0.999520   0.000000 )
               a(3) = (   0.000000   0.000000   0.645063 )

     reciprocal axes: (cart. coord. in units 2 pi/alat)
               b(1) = (  1.000480  0.000000  0.000000 )
               b(2) = (  0.000000  1.000480  0.000000 )
               b(3) = (  0.000000  0.000000  1.550236 )

     PseudoPot. # 1 for Ti read from file:
     /home/camp/zhonxu/pseudo/ti_pbe_v1.uspp.F.UPF
     MD5 check sum: bcc8f6961b3b91f0cac3ca967d22d0fb
     Pseudo is Ultrasoft + core correction, Zval = 12.0
     Generated by new atomic code, or converted to UPF format
     Using radial grid of  851 points,  6 beta functions with:
                l(1) =   0
                l(2) =   0
                l(3) =   1
                l(4) =   1
                l(5) =   2
                l(6) =   2
     Q(r) pseudized with  6 coefficients,  rinner =    1.000   1.000   1.000
                                                       1.000   1.000

     PseudoPot. # 2 for O  read from file:
     /home/camp/zhonxu/pseudo/o_pbe_v1.01.uspp.F.UPF
     MD5 check sum: 2bcb18d16ea4b960afae9ec6d52f22d2
     Pseudo is Ultrasoft + core correction, Zval =  6.0
     Generated by new atomic code, or converted to UPF format
     Using radial grid of  737 points,  5 beta functions with:
                l(1) =   0
                l(2) =   0
                l(3) =   1
                l(4) =   1
                l(5) =   2
     Q(r) pseudized with  8 coefficients,  rinner =    0.900   0.900   0.900
                                                       0.900   0.900

     atomic species   valence    mass     pseudopotential
        Ti0           12.00    47.88000     Ti( 1.00)
        O1             6.00    15.99940     O ( 1.00)

     Starting magnetic structure
     atomic species   magnetization
        Ti0          0.600
        O1           0.000

     16 Sym. Ops., with inversion, found ( 8 have fractional translation)

   Cartesian axes

     site n.     atom                  positions (alat units)
         1           Ti0 tau(   1) = (   0.0000000   0.0000000   0.0000000  )
         2           Ti0 tau(   2) = (   0.4997602   0.4997602   0.3225316  )
         3           O1  tau(   3) = (   0.3033176   0.3033176   0.0000000  )
         4           O1  tau(   4) = (  -0.3033176  -0.3033176   0.0000000  )
         5           O1  tau(   5) = (   0.8030777   0.1964426   0.3225316  )
         6           O1  tau(   6) = (   0.1964426   0.8030777   0.3225316  )

     number of k points=    36  Methfessel-Paxton smearing, width (Ry)=  0.0100
                       cart. coord. in units 2pi/alat
        k(    1) = (   0.0000000   0.0000000   0.0000000), wk =   0.0080000
        k(    2) = (   0.0000000   0.0000000   0.3100472), wk =   0.0160000
        k(    3) = (   0.0000000   0.0000000   0.6200944), wk =   0.0160000
        k(    4) = (   0.0000000   0.2000960   0.0000000), wk =   0.0320000
        k(    5) = (   0.0000000   0.2000960   0.3100472), wk =   0.0640000
        k(    6) = (   0.0000000   0.2000960   0.6200944), wk =   0.0640000
        k(    7) = (   0.0000000   0.4001920   0.0000000), wk =   0.0320000
        k(    8) = (   0.0000000   0.4001920   0.3100472), wk =   0.0640000
        k(    9) = (   0.0000000   0.4001920   0.6200944), wk =   0.0640000
        k(   10) = (   0.2000960   0.2000960   0.0000000), wk =   0.0320000
        k(   11) = (   0.2000960   0.2000960   0.3100472), wk =   0.0640000
        k(   12) = (   0.2000960   0.2000960   0.6200944), wk =   0.0640000
        k(   13) = (   0.2000960   0.4001920   0.0000000), wk =   0.0640000
        k(   14) = (   0.2000960   0.4001920   0.3100472), wk =   0.1280000
        k(   15) = (   0.2000960   0.4001920   0.6200944), wk =   0.1280000
        k(   16) = (   0.4001920   0.4001920   0.0000000), wk =   0.0320000
        k(   17) = (   0.4001920   0.4001920   0.3100472), wk =   0.0640000
        k(   18) = (   0.4001920   0.4001920   0.6200944), wk =   0.0640000
        k(   19) = (   0.0000000   0.0000000   0.0000000), wk =   0.0080000
        k(   20) = (   0.0000000   0.0000000   0.3100472), wk =   0.0160000
        k(   21) = (   0.0000000   0.0000000   0.6200944), wk =   0.0160000
        k(   22) = (   0.0000000   0.2000960   0.0000000), wk =   0.0320000
        k(   23) = (   0.0000000   0.2000960   0.3100472), wk =   0.0640000
        k(   24) = (   0.0000000   0.2000960   0.6200944), wk =   0.0640000
        k(   25) = (   0.0000000   0.4001920   0.0000000), wk =   0.0320000
        k(   26) = (   0.0000000   0.4001920   0.3100472), wk =   0.0640000
        k(   27) = (   0.0000000   0.4001920   0.6200944), wk =   0.0640000
        k(   28) = (   0.2000960   0.2000960   0.0000000), wk =   0.0320000
        k(   29) = (   0.2000960   0.2000960   0.3100472), wk =   0.0640000
        k(   30) = (   0.2000960   0.2000960   0.6200944), wk =   0.0640000
        k(   31) = (   0.2000960   0.4001920   0.0000000), wk =   0.0640000
        k(   32) = (   0.2000960   0.4001920   0.3100472), wk =   0.1280000
        k(   33) = (   0.2000960   0.4001920   0.6200944), wk =   0.1280000
        k(   34) = (   0.4001920   0.4001920   0.0000000), wk =   0.0320000
        k(   35) = (   0.4001920   0.4001920   0.3100472), wk =   0.0640000
        k(   36) = (   0.4001920   0.4001920   0.6200944), wk =   0.0640000

     Largest allocated arrays     est. size (Mb)     dimensions
     Largest temporary arrays     est. size (Mb)     dimensions

     Check: negative/imaginary core charge=   -0.000015    0.000000

     Initial potential from superposition of free atoms
     Check: negative starting charge=(component1):   -0.020371
     Check: negative starting charge=(component2):   -0.005000

     starting charge   45.99991, renormalised to   48.00000

     negative rho (up, down):  0.213E-01 0.522E-02
     Starting wfc are   36 randomized atomic wfcs

     Self-consistent Calculation

[...]

     total energy              =    -366.49217885 Ry
     Harris-Foulkes estimate   =    -366.49217852 Ry
     estimated scf accuracy    <       0.00000002 Ry

[...]

     iteration # 13     ecut=    40.00 Ry     beta=0.30
     Davidson diagonalization with overlap
     ethr =  4.43E-11,  avg # of iterations =  1.5

     negative rho (up, down):  0.127E-01 0.127E-01

     End of self-consistent calculation

 ------ SPIN UP ------------

[...]

 ------ SPIN DOWN ----------

[...]

          k = 0.4002 0.4002 0.6201 (  1750 PWs)   bands (ev):

   -47.2737 -47.2731 -23.8637 -23.8598 -23.5464 -23.5378 -23.4835 -23.4804
    -7.5464  -7.3986  -7.2726  -7.1197   4.5090   4.6695   4.9000   5.0326
     5.8036   6.0761   6.8986   6.9380   7.8642   8.0331   8.5944   8.7491
    11.9479  12.3713  12.6560  12.7188  12.7802  13.1057  15.0531  15.6489
    15.7106  16.2826  21.3005  21.6146  23.4550  24.1824  24.5985  25.2172
    26.9959  27.1469  27.9747  28.3826  29.1983  29.7346  32.8954  33.7905
    34.8837  34.9836  35.4357  36.1488  38.5927  38.6666  40.2919  41.0774
    42.3900  42.8051  43.1715  43.7035  43.8492  44.4762  44.6354  45.2618
    46.1551  46.9011  47.6469  48.4154  48.7380

     the Fermi energy is    10.3083 ev

!    total energy              =    -366.49217919 Ry
     Harris-Foulkes estimate   =    -366.49217886 Ry
     estimated scf accuracy    <          1.8E-10 Ry

     The total energy is the sum of the following terms:

     one-electron contribution =    -121.52410065 Ry
     hartree contribution      =      84.95767000 Ry
     xc contribution           =     -63.41379765 Ry
     ewald contribution        =    -266.51195088 Ry
     smearing contrib. (-TS)   =       0.00000000 Ry

     total magnetization       =    -0.00 Bohr mag/cell
     absolute magnetization    =     0.00 Bohr mag/cell

     convergence has been achieved in  13 iterations

     Forces acting on atoms (Ry/au):

     negative rho (up, down):  0.127E-01 0.127E-01
     atom    1 type  1   force =     0.00000000    0.00000000   -0.00000000
     atom    2 type  1   force =     0.00000000    0.00000000    0.00000000
     atom    3 type  2   force =    -0.00003503   -0.00003503    0.00000000
     atom    4 type  2   force =     0.00003503    0.00003503    0.00000000
     atom    5 type  2   force =    -0.00003503    0.00003503   -0.00000000
     atom    6 type  2   force =     0.00003503   -0.00003503    0.00000000

     Total force =     0.000099     Total SCF correction =     0.000008

     entering subroutine stress ...

     negative rho (up, down):  0.127E-01 0.127E-01
          total   stress  (Ry/bohr**3)                   (kbar)     P=   97.11
   0.00066016   0.00000000   0.00000000         97.11      0.00      0.00
   0.00000000   0.00066016   0.00000000          0.00     97.11      0.00
   0.00000000   0.00000000   0.00066001          0.00      0.00     97.09

     General routines

     Parallel routines

   This run was terminated on:  15:41:42  24Jan2014

   JOB DONE.
Running PBS batch system epilogue script
Job id: 251909.audhumbla.fysik.dtu.dk
Username: zhonxu
Groupname: campgst
Jobname: TiO2/fine-EOS/ferro/TiO2-v-0.95
Sessionid: 21051
Queuename: verylong
Accounting:
This job has allocated the following 4 nodes:
q043 q043 q043 q043
Finished epilogue job 251909.audhumbla.fysik.dtu.dk for zhonxu