     Program PWSCF v.5.0.2 (svn rev. 9656) starts on 10May2014 at  7: 9:25

     Current dimensions of program PWSCF are:
     Max number of different atomic species (ntypx) = 10
     Max number of k-points (npk) =  40000
     Max angular momentum in pseudopotentials (lmaxx) =  3
     Reading input from pwscf.in
Warning: card &CELL ignored
Warning: card / ignored

     Subspace diagonalization in iterative solution of the eigenvalue problem:
     a serial algorithm will be used

     bravais-lattice index     =            0
     lattice parameter (alat)  =      11.7541  a.u.
     unit-cell volume          =    7139.8207 (a.u.)^3
     number of atoms/cell      =           32
     number of atomic types    =            3
     number of electrons       =       239.00
     number of Kohn-Sham states=          358
     kinetic-energy cutoff     =      40.0000  Ry
     charge density cutoff     =     500.0000  Ry
     convergence threshold     =      1.0E-06
     mixing beta               =       0.7000
     number of iterations used =            8  plain     mixing
     Exchange-correlation      = SLA  PW   PBE  PBE ( 1 4 3 4 0)
     EXX-fraction              =        0.00
     nstep                     =           50

     celldm(1)=  11.754097  celldm(2)=   0.000000  celldm(3)=   0.000000
     celldm(4)=   0.000000  celldm(5)=   0.000000  celldm(6)=   0.000000

     crystal axes: (cart. coord. in units of alat)
               a(1) = (   1.000000   0.000000   0.000000 )
               a(2) = (   0.000000   1.034513   0.000000 )
               a(3) = (   0.000000   0.000000   4.249947 )

     reciprocal axes: (cart. coord. in units 2 pi/alat)
               b(1) = (  1.000000  0.000000  0.000000 )
               b(2) = (  0.000000  0.966638  0.000000 )
               b(3) = (  0.000000  0.000000  0.235297 )

     PseudoPot. # 1 for O  read from file:
     /home/camp/zhonxu/pseudo/o_pbe_v1.01.uspp.F.UPF
     MD5 check sum: 2bcb18d16ea4b960afae9ec6d52f22d2
     Pseudo is Ultrasoft + core correction, Zval =  6.0
     Generated by new atomic code, or converted to UPF format
     Using radial grid of  737 points,  5 beta functions with:
                l(1) =   0
                l(2) =   0
                l(3) =   1
                l(4) =   1
                l(5) =   2
     Q(r) pseudized with  8 coefficients,  rinner =    0.900   0.900   0.900
                                                       0.900   0.900

     PseudoPot. # 2 for Rh read from file:
     /home/camp/zhonxu/pseudo/rh_pbe_v1.uspp.F.UPF
     MD5 check sum: 37b626987ad0dd8ec6bf4cc9ef289918
     Pseudo is Ultrasoft + core correction, Zval = 15.0
     Generated by new atomic code, or converted to UPF format
     Using radial grid of  969 points,  7 beta functions with:
                l(1) =   0
                l(2) =   0
                l(3) =   1
                l(4) =   1
                l(5) =   2
                l(6) =   2
                l(7) =   2
     Q(r) pseudized with  6 coefficients,  rinner =    1.050   1.050   1.050
                                                       1.050   1.050

     PseudoPot. # 3 for H  read from file:
     /home/camp/zhonxu/pseudo/h_pbe_v1.uspp.F.UPF
     MD5 check sum: 3408e3ff4ec8b0a4e358431e7e038a48
     Pseudo is Ultrasoft, Zval =  1.0
     Generated by new atomic code, or converted to UPF format
     Using radial grid of  615 points,  2 beta functions with:
                l(1) =   0
                l(2) =   0
     Q(r) pseudized with  8 coefficients,  rinner =    0.700

     atomic species   valence    mass     pseudopotential
        O0             6.00    15.99940     O ( 1.00)
        Rh1           15.00   102.90550     Rh( 1.00)
        H2             1.00     1.00794     H ( 1.00)

     Simplified LDA+U calculation (l_max = 2) with parameters (eV):
     atomic species    L          U    alpha       J0     beta
        Rh1            2     0.0000   0.0000   0.0000   0.0000

     No symmetry found

   Cartesian axes

     site n.     atom                  positions (alat units)
         1           O0  tau(   1) = (   0.0000000   0.0000000   1.6077125  )
         2           O0  tau(   2) = (   0.0000000   0.5172566   1.7060138  )
         3           Rh1 tau(   3) = (   0.2500000   0.5172566   1.9233561  )
         4           Rh1 tau(   4) = (   0.0000000   0.0000000   1.9242061  )
         5           O0  tau(   5) = (   0.2500000   0.8379556   1.9221236  )
         6           O0  tau(   6) = (   0.2500000   0.1965575   1.9218261  )
         7           O0  tau(   7) = (   0.0000000   0.5172566   2.1180887  )
         8           O0  tau(   8) = (   0.0000000   0.0000000   2.2452046  )
         9           Rh1 tau(   9) = (   0.2500000   0.0000000   2.4467796  )
        10           Rh1 tau(  10) = (   0.0000000   0.5172566   2.4248074  )
        11           O0  tau(  11) = (   0.2500000   0.7138141   2.4490746  )
        12           O0  tau(  12) = (   0.2500000   0.3206991   2.4494996  )
        13           O0  tau(  13) = (   0.0000000   0.0000000   2.6392597  )
        14           O0  tau(  14) = (   0.5000000   0.0000000   1.6071175  )
        15           O0  tau(  15) = (   0.5000000   0.5172566   1.7046963  )
        16           Rh1 tau(  16) = (   0.7500000   0.5172566   1.9233561  )
        17           Rh1 tau(  17) = (   0.5000000   0.0000000   1.9236961  )
        18           O0  tau(  18) = (   0.7500000   0.8379556   1.9222086  )
        19           O0  tau(  19) = (   0.7500000   0.1965575   1.9219111  )
        20           O0  tau(  20) = (   0.5000000   0.5172566   2.1234861  )
        21           O0  tau(  21) = (   0.5000000   0.0000000   2.2446521  )
        22           Rh1 tau(  22) = (   0.7500000   0.0000000   2.4466946  )
        23           Rh1 tau(  23) = (   0.5000000   0.5172566   2.4467371  )
        24           O0  tau(  24) = (   0.7500000   0.7138141   2.4449521  )
        25           O0  tau(  25) = (   0.7500000   0.3206991   2.4452921  )
        26           O0  tau(  26) = (   0.5000000   0.0000000   2.6379847  )
        27           H2  tau(  27) = (  -0.0000100   0.6596573   1.6332972  )
        28           H2  tau(  28) = (   0.4999400   0.6612505   1.6349547  )
        29           H2  tau(  29) = (   0.1484100   0.0351631   1.5627056  )
        30           H2  tau(  30) = (   0.6482100   0.0356700   1.5619406  )
        31           O0  tau(  31) = (   0.5154200   0.5168841   2.7565583  )
        32           H2  tau(  32) = (   0.3686900   0.5167083   2.8162275  )

     number of k points=    10  Methfessel-Paxton smearing, width (Ry)=  0.0100
                       cart. coord. in units 2pi/alat
        k(    1) = (   0.0000000   0.0000000   0.0000000), wk =   0.1250000
        k(    2) = (   0.0000000   0.2416596   0.0000000), wk =   0.2500000
        k(    3) = (   0.0000000  -0.4833191   0.0000000), wk =   0.1250000
        k(    4) = (   0.2500000   0.0000000   0.0000000), wk =   0.2500000
        k(    5) = (   0.2500000   0.2416596   0.0000000), wk =   0.2500000
        k(    6) = (   0.2500000  -0.4833191   0.0000000), wk =   0.2500000
        k(    7) = (  -0.5000000   0.0000000   0.0000000), wk =   0.1250000
        k(    8) = (  -0.5000000   0.2416596   0.0000000), wk =   0.2500000
        k(    9) = (  -0.5000000  -0.4833191   0.0000000), wk =   0.1250000
        k(   10) = (  -0.2500000   0.2416596   0.0000000), wk =   0.2500000

     Largest allocated arrays     est. size (Mb)     dimensions
     Largest temporary arrays     est. size (Mb)     dimensions

     Check: negative/imaginary core charge=   -0.000003    0.000000

     Initial potential from superposition of free atoms
     Check: negative starting charge=   -0.644969

     starting charge  234.99914, renormalised to  239.00000

     negative rho (up, down):  0.656E+00 0.000E+00
     Number of +U iterations with fixed ns =  0
     Starting occupations:
 --- enter write_ns ---
 LDA+U parameters:
U( 2)     =  0.00000000
alpha( 2) =  0.00000000
atom    3   Tr[ns(na)] =   7.00000
    eigenvalues:
  0.700  0.700  0.700  0.700  0.700
    eigenvectors:
  1.000  0.000  0.000  0.000  0.000
  0.000  1.000  0.000  0.000  0.000
  0.000  0.000  1.000  0.000  0.000
  0.000  0.000  0.000  1.000  0.000
  0.000  0.000  0.000  0.000  1.000
    occupations:
  0.700  0.000  0.000  0.000  0.000
  0.000  0.700  0.000  0.000  0.000
  0.000  0.000  0.700  0.000  0.000
  0.000  0.000  0.000  0.700  0.000
  0.000  0.000  0.000  0.000  0.700
atom    4   Tr[ns(na)] =   7.00000
    eigenvalues:
  0.700  0.700  0.700  0.700  0.700
    eigenvectors:
  1.000  0.000  0.000  0.000  0.000
  0.000  1.000  0.000  0.000  0.000
  0.000  0.000  1.000  0.000  0.000
  0.000  0.000  0.000  1.000  0.000
  0.000  0.000  0.000  0.000  1.000
    occupations:
  0.700  0.000  0.000  0.000  0.000
  0.000  0.700  0.000  0.000  0.000
  0.000  0.000  0.700  0.000  0.000
  0.000  0.000  0.000  0.700  0.000
  0.000  0.000  0.000  0.000  0.700
atom    9   Tr[ns(na)] =   7.00000
    eigenvalues:
  0.700  0.700  0.700  0.700  0.700
    eigenvectors:
  1.000  0.000  0.000  0.000  0.000
  0.000  1.000  0.000  0.000  0.000
  0.000  0.000  1.000  0.000  0.000
  0.000  0.000  0.000  1.000  0.000
  0.000  0.000  0.000  0.000  1.000
    occupations:
  0.700  0.000  0.000  0.000  0.000
  0.000  0.700  0.000  0.000  0.000
  0.000  0.000  0.700  0.000  0.000
  0.000  0.000  0.000  0.700  0.000
  0.000  0.000  0.000  0.000  0.700
atom   10   Tr[ns(na)] =   7.00000
    eigenvalues:
  0.700  0.700  0.700  0.700  0.700
    eigenvectors:
  1.000  0.000  0.000  0.000  0.000
  0.000  1.000  0.000  0.000  0.000
  0.000  0.000  1.000  0.000  0.000
  0.000  0.000  0.000  1.000  0.000
  0.000  0.000  0.000  0.000  1.000
    occupations:
  0.700  0.000  0.000  0.000  0.000
  0.000  0.700  0.000  0.000  0.000
  0.000  0.000  0.700  0.000  0.000
  0.000  0.000  0.000  0.700  0.000
  0.000  0.000  0.000  0.000  0.700
atom   16   Tr[ns(na)] =   7.00000
    eigenvalues:
  0.700  0.700  0.700  0.700  0.700
    eigenvectors:
  1.000  0.000  0.000  0.000  0.000
  0.000  1.000  0.000  0.000  0.000
  0.000  0.000  1.000  0.000  0.000
  0.000  0.000  0.000  1.000  0.000
  0.000  0.000  0.000  0.000  1.000
    occupations:
  0.700  0.000  0.000  0.000  0.000
  0.000  0.700  0.000  0.000  0.000
  0.000  0.000  0.700  0.000  0.000
  0.000  0.000  0.000  0.700  0.000
  0.000  0.000  0.000  0.000  0.700
atom   17   Tr[ns(na)] =   7.00000
    eigenvalues:
  0.700  0.700  0.700  0.700  0.700
    eigenvectors:
  1.000  0.000  0.000  0.000  0.000
  0.000  1.000  0.000  0.000  0.000
  0.000  0.000  1.000  0.000  0.000
  0.000  0.000  0.000  1.000  0.000
  0.000  0.000  0.000  0.000  1.000
    occupations:
  0.700  0.000  0.000  0.000  0.000
  0.000  0.700  0.000  0.000  0.000
  0.000  0.000  0.700  0.000  0.000
  0.000  0.000  0.000  0.700  0.000
  0.000  0.000  0.000  0.000  0.700
atom   22   Tr[ns(na)] =   7.00000
    eigenvalues:
  0.700  0.700  0.700  0.700  0.700
    eigenvectors:
  1.000  0.000  0.000  0.000  0.000
  0.000  1.000  0.000  0.000  0.000
  0.000  0.000  1.000  0.000  0.000
  0.000  0.000  0.000  1.000  0.000
[...]

     negative rho (up, down):  0.695E+00 0.000E+00

     End of self-consistent calculation
 --- enter write_ns ---
 LDA+U parameters:
U( 2)     =  0.00000000
alpha( 2) =  0.00000000
atom    3   Tr[ns(na)] =   7.96366
    eigenvalues:
  0.592  0.614  0.871  0.940  0.964
    eigenvectors:
  0.005  0.199  0.002  0.001  0.793
  0.980  0.019  0.000  0.000  0.000
  0.000  0.000  0.972  0.026  0.002
  0.014  0.782  0.000  0.000  0.204
  0.000  0.000  0.026  0.972  0.001
    occupations:
  0.893 -0.006  0.003 -0.141 -0.002
 -0.006  0.592 -0.001 -0.001 -0.006
  0.003 -0.001  0.873 -0.004  0.011
 -0.141 -0.001 -0.004  0.685 -0.000
 -0.002 -0.006  0.011 -0.000  0.938
atom    4   Tr[ns(na)] =   7.94636
    eigenvalues:
  0.605  0.651  0.851  0.898  0.969
    eigenvectors:
  0.000  0.993  0.000  0.000  0.007
  0.000  0.000  0.041  0.959  0.000
  0.000  0.000  0.959  0.041  0.000
  0.000  0.007  0.000  0.000  0.993
  1.000  0.000  0.000  0.000  0.000
    occupations:
  0.653 -0.004 -0.001  0.026  0.001
 -0.004  0.896  0.009  0.001 -0.000
 -0.001  0.009  0.853 -0.001  0.001
  0.026  0.001 -0.001  0.967  0.000
  0.001 -0.000  0.001  0.000  0.605
atom    9   Tr[ns(na)] =   7.93467
    eigenvalues:
  0.640  0.651  0.835  0.871  0.970
    eigenvectors:
  0.001  0.152  0.000  0.000  0.847
  0.995  0.005  0.000  0.000  0.000
  0.000  0.000  0.996  0.004  0.000
  0.004  0.843  0.000  0.000  0.153
  0.000  0.000  0.004  0.996  0.000
    occupations:
  0.921  0.000 -0.000 -0.115 -0.001
  0.000  0.640  0.000  0.001 -0.000
 -0.000  0.000  0.835 -0.000 -0.002
 -0.115  0.001 -0.000  0.700  0.001
 -0.001 -0.000 -0.002  0.001  0.871
atom   10   Tr[ns(na)] =   7.95234
    eigenvalues:
  0.599  0.623  0.890  0.893  0.971
    eigenvectors:
  0.000  0.992  0.000  0.000  0.008
  0.000  0.000  0.001  0.999  0.000
  0.000  0.000  0.999  0.001  0.000
  0.000  0.008  0.000  0.000  0.992
  1.000  0.000  0.000  0.000  0.000
    occupations:
  0.626 -0.002  0.002  0.031 -0.000
 -0.002  0.893 -0.000  0.000 -0.001
  0.002 -0.000  0.890  0.000  0.002
  0.031  0.000  0.000  0.969  0.000
 -0.000 -0.001  0.002  0.000  0.599
atom   16   Tr[ns(na)] =   7.96354
    eigenvalues:
  0.592  0.615  0.871  0.940  0.964
    eigenvectors:
  0.006  0.198  0.002  0.001  0.793
  0.977  0.023  0.000  0.000  0.000
  0.000  0.000  0.977  0.021  0.002
  0.016  0.780  0.000  0.000  0.204
  0.000  0.000  0.020  0.978  0.001
    occupations:
  0.892  0.006  0.003 -0.141  0.002
  0.006  0.593  0.001  0.001 -0.006
  0.003  0.001  0.872 -0.004 -0.010
 -0.141  0.001 -0.004  0.686  0.000
  0.002 -0.006 -0.010  0.000  0.939
atom   17   Tr[ns(na)] =   7.94531
    eigenvalues:
  0.605  0.651  0.853  0.895  0.970
    eigenvectors:
  0.000  0.993  0.000  0.000  0.007
  0.000  0.000  0.058  0.942  0.000
  0.000  0.000  0.942  0.058  0.000
  0.000  0.007  0.000  0.000  0.993
  1.000  0.000  0.000  0.000  0.000
    occupations:
  0.653 -0.004 -0.001  0.026  0.001
 -0.004  0.892  0.010  0.001 -0.000
 -0.001  0.010  0.855 -0.001  0.001
  0.026  0.001 -0.001  0.967  0.000
  0.001 -0.000  0.001  0.000  0.605
atom   22   Tr[ns(na)] =   7.93185
    eigenvalues:
  0.640  0.652  0.829  0.874  0.970
    eigenvectors:
  0.000  0.151  0.000  0.000  0.849
  1.000  0.000  0.000  0.000  0.000
  0.000  0.000  0.997  0.003  0.000
  0.000  0.849  0.000  0.000  0.151
  0.000  0.000  0.003  0.997  0.000
    occupations:
  0.922  0.001 -0.000 -0.114 -0.000
  0.001  0.640  0.000 -0.001 -0.000
 -0.000  0.000  0.829 -0.000  0.003
 -0.114 -0.001 -0.000  0.700  0.001
 -0.000 -0.000  0.003  0.001  0.874
atom   23   Tr[ns(na)] =   7.93593
    eigenvalues:
  0.609  0.652  0.836  0.904  0.967
    eigenvectors:
  0.000  0.992  0.000  0.000  0.007
  0.000  0.000  0.000  1.000  0.000
  0.000  0.000  1.000  0.000  0.000
  0.000  0.007  0.000  0.000  0.993
  1.000  0.000  0.000  0.000  0.000
    occupations:
  0.655  0.005  0.000  0.027 -0.000
  0.005  0.904 -0.000  0.000 -0.000
  0.000 -0.000  0.836  0.000 -0.001
  0.027  0.000  0.000  0.965  0.000
 -0.000 -0.000 -0.001  0.000  0.609
N of occupied +U levels =  63.5736818
 --- exit write_ns ---

          k = 0.0000 0.0000 0.0000 ( 30479 PWs)   bands (ev):

   -49.5050 -49.4858 -49.4643 -49.4459 -49.4298 -49.3846 -49.3740 -49.3565
   -49.3358 -49.3185 -49.3178 -49.2729 -49.2464 -49.2251 -49.2234 -49.1609
   -49.1563 -49.1243 -49.0635 -49.0534 -49.0517 -49.0206 -49.0122 -49.0109
   -21.5638 -21.1251 -21.1159 -20.9396 -20.5824 -20.2864 -20.2621 -20.2303
   -20.1654 -20.1530 -20.1215 -20.0097 -19.9663 -19.9267 -19.7168 -19.6605
   -19.6568 -18.9016 -18.7705  -9.8713  -9.8562  -9.5984  -8.9483  -8.7271
    -8.6641  -8.6267  -8.5760  -8.5751  -8.5414  -8.3850  -8.2499  -8.2308
    -8.1189  -8.0285  -8.0120  -7.9017  -7.8588  -7.7067  -7.5799  -7.3390
    -7.1515  -7.0544  -6.9680  -6.6603  -6.5493  -6.5371  -6.4785  -6.0648
    -5.8627  -5.8342  -5.6708  -5.6394  -5.4163  -5.3837  -5.3566  -5.3501
    -5.2096  -5.1815  -5.1266  -5.0211  -4.9609  -4.7744  -4.7174  -4.6476
    -4.6176  -4.5148  -4.4694  -4.3947  -4.2851  -4.2169  -4.0528  -3.8984
    -3.8966  -3.8646  -3.7874  -3.6997  -3.6740  -3.5490  -3.3920  -3.3662
    -3.2872  -3.2684  -3.1793  -3.1259  -3.0664  -3.0548  -2.8104  -2.6929
    -2.5694  -2.4280  -2.3332  -2.1728  -2.1557  -1.9004  -1.6436  -1.5742
    -1.5604  -1.3345  -1.2668  -1.0966  -0.9762  -0.4132   0.1607   0.1672
     0.3203   0.3375   0.5057   0.6500   0.8248   1.1903   1.4297   1.7877
     1.8730   1.9086   2.1991   2.3401   3.0597   3.5007   4.1417   4.5728
     4.8988   5.7028   5.7891   6.0820   6.2314   6.6645   6.8976   6.9746
     7.1055   7.3649   7.4489   7.7176   7.7531   7.8525   7.9277   7.9799
     8.0435   8.0459   8.1031   8.1918   8.2642   8.3172   8.3933   8.4622
     8.5103   8.6496   8.7566   8.7972   8.9515   9.0104   9.0937   9.1870
     9.3173   9.4568   9.4972   9.5342   9.6539   9.7277   9.9584  10.0774
    10.2924  10.3765  10.5108  10.5508  10.6642  10.7468  10.7999  10.8404
    10.9147  11.0250  11.0775  11.1582  11.2419  11.2966  11.3915  11.4338
    11.6273  11.6522  11.6795  11.6972  11.7308  11.8233  11.8568  11.9231
    11.9662  12.0136  12.0567  12.1078  12.1926  12.1998  12.2637  12.3512
    12.4114  12.4956  12.5446  12.5753  12.6712  12.7582  12.7622  12.8002
    12.8478  12.9839  13.0528  13.2129  13.3219  13.4529  13.5457  13.5909
    13.6605  13.7121  13.8102  13.9178  13.9806  14.0926  14.1629  14.2011
    14.3001  14.3877  14.5352  14.5710  14.7226  14.8291  15.0094  15.0674
    15.1736  15.2449  15.3091  15.4309  15.5100  15.6394  15.6680  15.7617
    15.7827  15.8115  15.8800  15.9358  16.1911  16.2750  16.4638  16.5586
    16.6240  16.6525  16.8221  16.9254  16.9916  16.9982  17.0725  17.1119
    17.2012  17.3764  17.4572  17.5262  17.6062  17.6971  17.8253  17.8742
    18.0108  18.0510  18.1367  18.2459  18.2652  18.3761  18.3882  18.4069
    18.4584  18.5244  18.6278  18.6766  18.7143  18.8020  18.8681  18.9481
    19.0013  19.0919  19.1812  19.1992  19.2543  19.3216  19.4534  19.5273
    19.5524  19.5608  19.6191  19.6563  19.7375  19.7640  19.8306  19.8856
    19.9145  19.9485  20.0329  20.0817  20.1261  20.1596  20.2628  20.4016
    20.4433  20.5015  20.5333  20.5683  20.6166  20.7747  20.8796  21.0074
    21.0486  21.0606  21.1176  21.2318  21.3655  21.4760  21.5013  21.5113
    21.5923  21.6258  21.6806  21.7561  21.7792  21.8535  21.8844  22.0156
    22.0724  22.1758  22.2445  22.2992  22.3344  22.3790  22.4312  22.4657
    22.4749  22.5055  22.5122  22.5548  22.6044  22.7017

[...]

          k = 0.2500-0.4833 0.0000 ( 30510 PWs)   bands (ev):

[...]

          k =-0.5000 0.0000 0.0000 ( 30524 PWs)   bands (ev):

[...]

          k =-0.2500 0.2417 0.0000 ( 30481 PWs)   bands (ev):

   -49.5050 -49.4852 -49.4660 -49.4342 -49.4147 -49.3839 -49.3740 -49.3575
   -49.3319 -49.3197 -49.3188 -49.2824 -49.2446 -49.2400 -49.2269 -49.1617
   -49.1570 -49.1093 -49.0608 -49.0556 -49.0522 -49.0265 -49.0218 -49.0111
   -21.4341 -21.1447 -20.9472 -20.8077 -20.6331 -20.4073 -20.3438 -20.2558
   -20.1574 -20.1331 -20.0675 -20.0108 -19.9455 -19.9251 -19.8469 -19.7918
   -19.6926 -18.9334 -18.8195  -9.5183  -9.3123  -9.2553  -9.0821  -8.6890
    -8.6416  -8.5910  -8.5751  -8.5345  -8.4661  -8.4323  -8.3706  -8.2588
    -8.1171  -7.9531  -7.8394  -7.7480  -7.7183  -7.5157  -7.3878  -7.2565
    -7.1623  -7.1044  -7.0163  -6.6368  -6.4966  -6.4460  -6.3376  -6.1905
    -6.1450  -6.1038  -6.0612  -5.9807  -5.9204  -5.8723  -5.7435  -5.6754
    -5.6398  -5.5131  -5.3887  -5.2163  -5.1571  -5.0325  -4.9065  -4.8233
    -4.7131  -4.6620  -4.5392  -4.4257  -4.3580  -4.2380  -4.1308  -3.9636
    -3.7914  -3.6053  -3.5093  -3.4313  -3.3237  -3.1731  -3.1642  -3.1003
    -3.0654  -3.0292  -2.9158  -2.9021  -2.8399  -2.7778  -2.7463  -2.6725
    -2.6069  -2.5209  -2.2873  -2.1254  -1.8744  -1.8024  -1.6816  -1.6580
    -1.6059  -1.4441  -1.3471  -1.2599  -0.9349  -0.4226  -0.3390  -0.0609
     0.3184   0.4588   0.7755   0.8879   1.2501   1.2995   1.4588   1.4917
     1.6448   1.7922   1.8390   2.1724   3.6707   3.9324   4.6249   5.0141
     5.3759   5.4867   5.5739   5.8914   6.1598   6.3963   6.4744   6.5077
     6.5560   6.8029   6.9241   7.1182   7.2697   7.4667   7.5417   7.6978
     7.8744   7.9340   8.0634   8.1383   8.1932   8.3668   8.4403   8.5549
     8.7455   8.8158   8.8747   8.9550   9.0896   9.2537   9.4511   9.5373
     9.6069   9.7162   9.7779   9.8643   9.9253  10.0051  10.1893  10.2091
    10.3370  10.3622  10.4184  10.5703  10.7000  10.7300  10.8350  10.9237
    10.9833  11.0511  11.1493  11.1847  11.3031  11.3347  11.4822  11.5597
    11.5848  11.6894  11.7274  11.7766  11.8891  12.0301  12.0857  12.1697
    12.2209  12.2642  12.3123  12.3947  12.4977  12.5368  12.6300  12.6957
    12.7744  12.8288  12.8982  12.9825  13.0697  13.1463  13.2141  13.2657
    13.2945  13.3532  13.4744  13.5315  13.6787  13.7751  13.8221  13.8691
    13.9247  13.9973  14.1138  14.1457  14.2408  14.3058  14.3899  14.4362
    14.5666  14.6015  14.6822  14.7773  14.9486  15.0474  15.1806  15.2859
    15.3407  15.3856  15.4754  15.5247  15.5710  15.5836  15.6883  15.7567
    15.8066  15.8452  15.9370  16.0326  16.0714  16.1126  16.1857  16.2858
    16.3256  16.3966  16.4096  16.4624  16.4945  16.5767  16.6122  16.7057
    16.7461  16.8334  16.9381  17.0029  17.0911  17.1929  17.2215  17.2625
    17.3592  17.4076  17.4909  17.5170  17.5776  17.6457  17.7494  17.8424
    17.8802  17.9544  18.0385  18.0975  18.1165  18.2475  18.2690  18.3166
    18.4357  18.5227  18.6013  18.6840  18.7480  18.8084  18.8154  18.9299
    18.9886  19.0229  19.0922  19.1211  19.2222  19.2588  19.3006  19.4507
    19.5138  19.5739  19.6095  19.6893  19.7683  19.8539  19.9403  20.0461
    20.1224  20.1989  20.2546  20.3550  20.4794  20.5420  20.5888  20.6466
    20.7051  20.7720  20.8298  20.8886  20.9689  21.0422  21.1632  21.1776
    21.2308  21.2714  21.3000  21.3727  21.4043  21.4597  21.5191  21.6725
    21.7256  21.8012  21.8389  21.8719  21.9106  21.9743  22.0493  22.1133
    22.1700  22.2456  22.3665  22.4154  22.4812  22.5226

     the Fermi energy is    -1.6770 ev

!    total energy              =   -1981.63485162 Ry
     Harris-Foulkes estimate   =   -1981.63485246 Ry
     estimated scf accuracy    <       0.00000089 Ry

     The total energy is the sum of the following terms:

     one-electron contribution =  -23318.78867902 Ry
     hartree contribution      =   11706.77172141 Ry
     xc contribution           =    -372.78284098 Ry
     ewald contribution        =   10003.16578721 Ry
     Hubbard energy            =       0.00000000 Ry
     smearing contrib. (-TS)   =      -0.00084025 Ry

     convergence has been achieved in  58 iterations

     Forces acting on atoms (Ry/au):

     negative rho (up, down):  0.695E+00 0.000E+00
     atom    1 type  1   force =    -0.00644767   -0.01372604   -0.00022661
     atom    2 type  1   force =     0.00061431    0.00617316    0.00091900
     atom    3 type  2   force =     0.03055396    0.00577956   -0.00002852
     atom    4 type  2   force =     0.00808765    0.00933421   -0.00000103
     atom    5 type  1   force =    -0.00136972   -0.03006727   -0.00030734
     atom    6 type  1   force =     0.00110829    0.02663181   -0.00032291
     atom    7 type  1   force =     0.00177527   -0.00082989   -0.00066335
     atom    8 type  1   force =    -0.00150222   -0.00091876    0.00021414
     atom    9 type  2   force =     0.00520944   -0.00018124    0.00061078
     atom   10 type  2   force =    -0.00634774   -0.00164539   -0.00082169
     atom   11 type  1   force =    -0.01195200    0.00746163    0.00067676
     atom   12 type  1   force =    -0.01211899   -0.00716353    0.00067040
     atom   13 type  1   force =    -0.00072970    0.00003443    0.00054856
     atom   14 type  1   force =    -0.00680182   -0.01397654   -0.00009072
     atom   15 type  1   force =     0.00018157    0.00675850    0.00091779
     atom   16 type  2   force =    -0.03200978    0.00498592    0.00003093
     atom   17 type  2   force =     0.00851025    0.00945396   -0.00030642
     atom   18 type  1   force =     0.00011723   -0.03001269   -0.00034195
     atom   19 type  1   force =     0.00205061    0.02709478   -0.00032373
     atom   20 type  1   force =    -0.00102794   -0.00426402   -0.00011942
     atom   21 type  1   force =    -0.00416661   -0.00059377    0.00010669
     atom   22 type  2   force =    -0.00170677    0.00033766    0.00028013
     atom   23 type  2   force =     0.00237579   -0.00017686   -0.00038077
     atom   24 type  1   force =     0.01250585    0.01187103   -0.00021222
     atom   25 type  1   force =     0.01322633   -0.01192234   -0.00024867
     atom   26 type  1   force =    -0.00130552   -0.00017342    0.00050101
     atom   27 type  3   force =    -0.00000077   -0.00030352    0.00020394
     atom   28 type  3   force =     0.00001480   -0.00022329    0.00000490
     atom   29 type  3   force =    -0.00012312    0.00009758   -0.00058637
     atom   30 type  3   force =    -0.00000572    0.00016804   -0.00048062
     atom   31 type  1   force =     0.00058302    0.00003300   -0.00032351
     atom   32 type  3   force =     0.00070170   -0.00003672    0.00010083

     Total force =     0.002715     Total SCF correction =     0.003357
     SCF correction compared to forces is large: reduce conv_thr to get better values

     BFGS Geometry Optimization

     bfgs converged in   1 scf cycles and   0 bfgs steps
     (criteria: energy < 0.10E-03, force < 0.10E-02)

     End of BFGS Geometry Optimization

     Final energy   =   -1981.6348516224 Ry
Begin final coordinates

ATOMIC_POSITIONS (crystal)
O0       0.000000000   0.000000000   0.378290000    0   0   1
O0       0.000000000   0.500000000   0.401420000    0   0   1
Rh1      0.250000000   0.500000000   0.452560000    0   0   1
Rh1      0.000000000   0.000000000   0.452760000    0   0   1
O0       0.250000000   0.810000000   0.452270000    0   0   1
O0       0.250000000   0.190000000   0.452200000    0   0   1
O0       0.000000000   0.500000000   0.498380000    0   0   1
O0       0.000000000   0.000000000   0.528290000    0   0   1
Rh1      0.250000000   0.000000000   0.575720000    0   0   1
Rh1      0.000000000   0.500000000   0.570550000    0   0   1
O0       0.250000000   0.690000000   0.576260000    0   0   1
O0       0.250000000   0.310000000   0.576360000    0   0   1
O0       0.000000000   0.000000000   0.621010000    0   0   1
O0       0.500000000   0.000000000   0.378150000    0   0   1
O0       0.500000000   0.500000000   0.401110000    0   0   1
Rh1      0.750000000   0.500000000   0.452560000    0   0   1
Rh1      0.500000000   0.000000000   0.452640000    0   0   1
O0       0.750000000   0.810000000   0.452290000    0   0   1
O0       0.750000000   0.190000000   0.452220000    0   0   1
O0       0.500000000   0.500000000   0.499650000    0   0   1
O0       0.500000000   0.000000000   0.528160000    0   0   1
Rh1      0.750000000   0.000000000   0.575700000    0   0   1
Rh1      0.500000000   0.500000000   0.575710000    0   0   1
O0       0.750000000   0.690000000   0.575290000    0   0   1
O0       0.750000000   0.310000000   0.575370000    0   0   1
O0       0.500000000   0.000000000   0.620710000    0   0   1
H2      -0.000010000   0.637650000   0.384310000
H2       0.499940000   0.639190000   0.384700000
H2       0.148410000   0.033990000   0.367700000
H2       0.648210000   0.034480000   0.367520000
O0       0.515420000   0.499640000   0.648610000
H2       0.368690000   0.499470000   0.662650000
End final coordinates

     General routines

     Parallel routines
     Hubbard U routines

   This run was terminated on:  10:33:14  10May2014

   JOB DONE.