     Program PWSCF v.5.0.2 (svn rev. 9656) starts on  5May2014 at 20:31: 8

     Current dimensions of program PWSCF are:
     Max number of different atomic species (ntypx) = 10
     Max number of k-points (npk) =  40000
     Max angular momentum in pseudopotentials (lmaxx) =  3
     Reading input from pwscf.in
Warning: card &CELL ignored
Warning: card / ignored

     Subspace diagonalization in iterative solution of the eigenvalue problem:
     a serial algorithm will be used

     bravais-lattice index     =            0
     lattice parameter (alat)  =      12.0187  a.u.
     unit-cell volume          =    7280.5819 (a.u.)^3
     number of atoms/cell      =           30
     number of atomic types    =            3
     number of electrons       =       232.00
     number of Kohn-Sham states=          348
     kinetic-energy cutoff     =      40.0000  Ry
     charge density cutoff     =     500.0000  Ry
     convergence threshold     =      1.0E-06
     mixing beta               =       0.7000
     number of iterations used =            8  plain     mixing
     Exchange-correlation      = SLA  PW   PBE  PBE ( 1 4 3 4 0)
     EXX-fraction              =        0.00
     nstep                     =           50

     celldm(1)=  12.018658  celldm(2)=   0.000000  celldm(3)=   0.000000
     celldm(4)=   0.000000  celldm(5)=   0.000000  celldm(6)=   0.000000

     crystal axes: (cart. coord. in units of alat)
               a(1) = (   1.000000   0.000000   0.000000 )
               a(2) = (   0.000000   1.009517   0.000000 )
               a(3) = (   0.000000   0.000000   4.154171 )

     reciprocal axes: (cart. coord. in units 2 pi/alat)
               b(1) = (  1.000000  0.000000  0.000000 )
               b(2) = (  0.000000  0.990572  0.000000 )
               b(3) = (  0.000000  0.000000  0.240722 )

     PseudoPot. # 1 for O  read from file:
     /home/camp/zhonxu/pseudo/o_pbe_v1.01.uspp.F.UPF
     MD5 check sum: 2bcb18d16ea4b960afae9ec6d52f22d2
     Pseudo is Ultrasoft + core correction, Zval =  6.0
     Generated by new atomic code, or converted to UPF format
     Using radial grid of  737 points,  5 beta functions with:
                l(1) =   0
                l(2) =   0
                l(3) =   1
                l(4) =   1
                l(5) =   2
     Q(r) pseudized with  8 coefficients,  rinner =    0.900   0.900   0.900
                                                       0.900   0.900

     PseudoPot. # 2 for Ir read from file:
     /home/camp/zhonxu/pseudo/ir_pbe_v1.uspp.F.UPF
     MD5 check sum: abf987a9674477536ede83817f8f8b70
     Pseudo is Ultrasoft + core correction, Zval = 15.0
     Generated by new atomic code, or converted to UPF format
     Using radial grid of  983 points,  7 beta functions with:
                l(1) =   0
                l(2) =   0
                l(3) =   1
                l(4) =   1
                l(5) =   1
                l(6) =   2
                l(7) =   2
     Q(r) pseudized with  8 coefficients,  rinner =    1.350   1.350   1.350
                                                       1.350   1.350

     PseudoPot. # 3 for H  read from file:
     /home/camp/zhonxu/pseudo/h_pbe_v1.uspp.F.UPF
     MD5 check sum: 3408e3ff4ec8b0a4e358431e7e038a48
     Pseudo is Ultrasoft, Zval =  1.0
     Generated by new atomic code, or converted to UPF format
     Using radial grid of  615 points,  2 beta functions with:
                l(1) =   0
                l(2) =   0
     Q(r) pseudized with  8 coefficients,  rinner =    0.700

     atomic species   valence    mass     pseudopotential
        O0             6.00    15.99940     O ( 1.00)
        Ir1           15.00   192.22000     Ir( 1.00)
        H2             1.00     1.00794     H ( 1.00)

     Simplified LDA+U calculation (l_max = 2) with parameters (eV):
     atomic species    L          U    alpha       J0     beta
        Ir1            2     4.0000   0.0000   0.0000   0.0000

     No symmetry found

   Cartesian axes

     site n.     atom                  positions (alat units)
         1           O0  tau(   1) = (   0.0000000   0.0000000   1.5730185  )
         2           O0  tau(   2) = (   0.0000000   0.5047586   1.6673182  )
         3           Ir1 tau(   3) = (   0.2500000   0.5047586   1.8780178  )
         4           Ir1 tau(   4) = (   0.0000000   0.0000000   1.8842906  )
         5           O0  tau(   5) = (   0.2500000   0.8177090   1.8825458  )
         6           O0  tau(   6) = (   0.2500000   0.1918083   1.8810503  )
         7           O0  tau(   7) = (   0.0000000   0.5047586   2.0695666  )
         8           O0  tau(   8) = (   0.0000000   0.0000000   2.1991352  )
         9           Ir1 tau(   9) = (   0.2500000   0.0000000   2.3955860  )
        10           Ir1 tau(  10) = (   0.0000000   0.5047586   2.3764768  )
        11           O0  tau(  11) = (   0.2500000   0.6965669   2.3975800  )
        12           O0  tau(  12) = (   0.2500000   0.3129503   2.3977461  )
        13           O0  tau(  13) = (   0.0000000   0.0000000   2.5806958  )
        14           O0  tau(  14) = (   0.5000000   0.0000000   1.5730185  )
        15           O0  tau(  15) = (   0.5000000   0.5047586   1.6673182  )
        16           Ir1 tau(  16) = (   0.7500000   0.5047586   1.8780178  )
        17           Ir1 tau(  17) = (   0.5000000   0.0000000   1.8842906  )
        18           O0  tau(  18) = (   0.7500000   0.8177090   1.8825458  )
        19           O0  tau(  19) = (   0.7500000   0.1918083   1.8810503  )
        20           O0  tau(  20) = (   0.5000000   0.5047586   2.0695666  )
        21           O0  tau(  21) = (   0.5000000   0.0000000   2.1991352  )
        22           Ir1 tau(  22) = (   0.7500000   0.0000000   2.3955860  )
        23           Ir1 tau(  23) = (   0.5000000   0.5047586   2.3764768  )
        24           O0  tau(  24) = (   0.7500000   0.6965669   2.3975800  )
        25           O0  tau(  25) = (   0.7500000   0.3129503   2.3977461  )
        26           O0  tau(  26) = (   0.5000000   0.0000000   2.5807374  )
        27           H2  tau(  27) = (  -0.0000500   0.6423962   1.5933324  )
        28           H2  tau(  28) = (   0.4999500   0.6423962   1.5933324  )
        29           H2  tau(  29) = (   0.1436500   0.0338188   1.5249132  )
        30           H2  tau(  30) = (   0.6436500   0.0338188   1.5249132  )

     number of k points=    10  Methfessel-Paxton smearing, width (Ry)=  0.0100
                       cart. coord. in units 2pi/alat
        k(    1) = (   0.0000000   0.0000000   0.0000000), wk =   0.1250000
        k(    2) = (   0.0000000   0.2476431   0.0000000), wk =   0.2500000
        k(    3) = (   0.0000000  -0.4952862   0.0000000), wk =   0.1250000
        k(    4) = (   0.2500000   0.0000000   0.0000000), wk =   0.2500000
        k(    5) = (   0.2500000   0.2476431   0.0000000), wk =   0.2500000
        k(    6) = (   0.2500000  -0.4952862   0.0000000), wk =   0.2500000
        k(    7) = (  -0.5000000   0.0000000   0.0000000), wk =   0.1250000
        k(    8) = (  -0.5000000   0.2476431   0.0000000), wk =   0.2500000
        k(    9) = (  -0.5000000  -0.4952862   0.0000000), wk =   0.1250000
        k(   10) = (  -0.2500000   0.2476431   0.0000000), wk =   0.2500000

     Largest allocated arrays     est. size (Mb)     dimensions
     Largest temporary arrays     est. size (Mb)     dimensions

     Check: negative/imaginary core charge=   -0.000003    0.000000

     Initial potential from superposition of free atoms
     Check: negative starting charge=   -3.334716

     starting charge  227.99968, renormalised to  232.00000

     negative rho (up, down):  0.339E+01 0.000E+00
     Number of +U iterations with fixed ns =  0
     Starting occupations:
 --- enter write_ns ---
 LDA+U parameters:
U( 2)     =  4.00000000
alpha( 2) =  0.00000000
atom    3   Tr[ns(na)] =   7.00000
    eigenvalues:
  0.700  0.700  0.700  0.700  0.700
    eigenvectors:
  1.000  0.000  0.000  0.000  0.000
  0.000  1.000  0.000  0.000  0.000
  0.000  0.000  1.000  0.000  0.000
  0.000  0.000  0.000  1.000  0.000
  0.000  0.000  0.000  0.000  1.000
    occupations:
  0.700  0.000  0.000  0.000  0.000
  0.000  0.700  0.000  0.000  0.000
  0.000  0.000  0.700  0.000  0.000
  0.000  0.000  0.000  0.700  0.000
  0.000  0.000  0.000  0.000  0.700
atom    4   Tr[ns(na)] =   7.00000
    eigenvalues:
  0.700  0.700  0.700  0.700  0.700
    eigenvectors:
  1.000  0.000  0.000  0.000  0.000
  0.000  1.000  0.000  0.000  0.000
  0.000  0.000  1.000  0.000  0.000
  0.000  0.000  0.000  1.000  0.000
  0.000  0.000  0.000  0.000  1.000
    occupations:
  0.700  0.000  0.000  0.000  0.000
  0.000  0.700  0.000  0.000  0.000
  0.000  0.000  0.700  0.000  0.000
  0.000  0.000  0.000  0.700  0.000
  0.000  0.000  0.000  0.000  0.700
atom    9   Tr[ns(na)] =   7.00000
    eigenvalues:
  0.700  0.700  0.700  0.700  0.700
    eigenvectors:
  1.000  0.000  0.000  0.000  0.000
  0.000  1.000  0.000  0.000  0.000
  0.000  0.000  1.000  0.000  0.000
  0.000  0.000  0.000  1.000  0.000
  0.000  0.000  0.000  0.000  1.000
    occupations:
  0.700  0.000  0.000  0.000  0.000
  0.000  0.700  0.000  0.000  0.000
  0.000  0.000  0.700  0.000  0.000
  0.000  0.000  0.000  0.700  0.000
  0.000  0.000  0.000  0.000  0.700
atom   10   Tr[ns(na)] =   7.00000
    eigenvalues:
  0.700  0.700  0.700  0.700  0.700
    eigenvectors:
  1.000  0.000  0.000  0.000  0.000
  0.000  1.000  0.000  0.000  0.000
  0.000  0.000  1.000  0.000  0.000
  0.000  0.000  0.000  1.000  0.000
  0.000  0.000  0.000  0.000  1.000
    occupations:
  0.700  0.000  0.000  0.000  0.000
  0.000  0.700  0.000  0.000  0.000
  0.000  0.000  0.700  0.000  0.000
  0.000  0.000  0.000  0.700  0.000
  0.000  0.000  0.000  0.000  0.700
atom   16   Tr[ns(na)] =   7.00000
    eigenvalues:
  0.700  0.700  0.700  0.700  0.700
    eigenvectors:
  1.000  0.000  0.000  0.000  0.000
  0.000  1.000  0.000  0.000  0.000
  0.000  0.000  1.000  0.000  0.000
  0.000  0.000  0.000  1.000  0.000
  0.000  0.000  0.000  0.000  1.000
    occupations:
  0.700  0.000  0.000  0.000  0.000
  0.000  0.700  0.000  0.000  0.000
  0.000  0.000  0.700  0.000  0.000
  0.000  0.000  0.000  0.700  0.000
  0.000  0.000  0.000  0.000  0.700
atom   17   Tr[ns(na)] =   7.00000
    eigenvalues:
  0.700  0.700  0.700  0.700  0.700
    eigenvectors:
  1.000  0.000  0.000  0.000  0.000
  0.000  1.000  0.000  0.000  0.000
  0.000  0.000  1.000  0.000  0.000
  0.000  0.000  0.000  1.000  0.000
  0.000  0.000  0.000  0.000  1.000
    occupations:
  0.700  0.000  0.000  0.000  0.000
  0.000  0.700  0.000  0.000  0.000
  0.000  0.000  0.700  0.000  0.000
  0.000  0.000  0.000  0.700  0.000
  0.000  0.000  0.000  0.000  0.700
atom   22   Tr[ns(na)] =   7.00000
    eigenvalues:
  0.700  0.700  0.700  0.700  0.700
    eigenvectors:
  1.000  0.000  0.000  0.000  0.000
  0.000  1.000  0.000  0.000  0.000
  0.000  0.000  1.000  0.000  0.000
  0.000  0.000  0.000  1.000  0.000
  0.000  0.000  0.000  0.000  1.000
    occupations:
  0.700  0.000  0.000  0.000  0.000
  0.000  0.700  0.000  0.000  0.000
  0.000  0.000  0.700  0.000  0.000
[...]
 -0.000 -0.006  0.001 -0.000  0.972
atom    4   Tr[ns(na)] =   8.14289
    eigenvalues:
  0.619  0.668  0.874  0.926  0.984
    eigenvectors:
  0.000  0.989  0.000  0.000  0.011
  0.000  0.000  0.058  0.942  0.000
  0.000  0.000  0.942  0.058  0.000
  0.000  0.011  0.000  0.000  0.989
  1.000  0.000  0.000  0.000  0.000
    occupations:
  0.671 -0.003 -0.001  0.032  0.001
 -0.003  0.923  0.012  0.000 -0.002
 -0.001  0.012  0.877 -0.000  0.000
  0.032  0.000 -0.000  0.981  0.000
  0.001 -0.002  0.000  0.000  0.619
atom    9   Tr[ns(na)] =   8.12761
    eigenvalues:
  0.651  0.667  0.861  0.902  0.983
    eigenvectors:
  0.000  0.143  0.000  0.000  0.857
  1.000  0.000  0.000  0.000  0.000
  0.000  0.000  1.000  0.000  0.000
  0.000  0.857  0.000  0.000  0.143
  0.000  0.000  0.000  1.000  0.000
    occupations:
  0.938  0.000 -0.000 -0.111 -0.000
  0.000  0.651  0.000  0.000 -0.000
 -0.000  0.000  0.861 -0.000 -0.000
 -0.111  0.000 -0.000  0.712  0.001
 -0.000 -0.000 -0.000  0.001  0.902
atom   10   Tr[ns(na)] =   8.10869
    eigenvalues:
  0.582  0.610  0.935  0.946  0.982
    eigenvectors:
  0.994  0.000  0.000  0.000  0.006
  0.000  0.000  1.000  0.000  0.000
  0.000  0.000  0.000  1.000  0.000
  0.006  0.000  0.000  0.000  0.994
  0.000  1.000  0.000  0.000  0.000
    occupations:
  0.584  0.000  0.001  0.031 -0.000
  0.000  0.935 -0.000  0.000 -0.000
  0.001 -0.000  0.946  0.000  0.000
  0.031  0.000  0.000  0.980  0.000
 -0.000 -0.000  0.000  0.000  0.610
atom   16   Tr[ns(na)] =   8.16125
    eigenvalues:
  0.602  0.628  0.904  0.972  0.975
    eigenvectors:
  0.000  0.191  0.003  0.001  0.805
  1.000  0.000  0.000  0.000  0.000
  0.000  0.000  0.996  0.000  0.003
  0.000  0.809  0.000  0.000  0.191
  0.000  0.000  0.000  0.998  0.001
    occupations:
  0.909 -0.000  0.003 -0.137 -0.000
 -0.000  0.602 -0.000 -0.000 -0.006
  0.003 -0.000  0.904 -0.004  0.001
 -0.137 -0.000 -0.004  0.694 -0.000
 -0.000 -0.006  0.001 -0.000  0.972
atom   17   Tr[ns(na)] =   8.14245
    eigenvalues:
  0.619  0.668  0.874  0.926  0.984
    eigenvectors:
  0.000  0.989  0.000  0.000  0.011
  0.000  0.000  0.058  0.942  0.000
  0.000  0.000  0.942  0.058  0.000
  0.000  0.011  0.000  0.000  0.989
  1.000  0.000  0.000  0.000  0.000
    occupations:
  0.671 -0.003 -0.001  0.032  0.001
 -0.003  0.923  0.012  0.000 -0.002
 -0.001  0.012  0.877 -0.000  0.000
  0.032  0.000 -0.000  0.981  0.000
  0.001 -0.002  0.000  0.000  0.619
atom   22   Tr[ns(na)] =   8.12730
    eigenvalues:
  0.651  0.667  0.861  0.901  0.983
    eigenvectors:
  0.000  0.143  0.000  0.000  0.857
  1.000  0.000  0.000  0.000  0.000
  0.000  0.000  1.000  0.000  0.000
  0.000  0.857  0.000  0.000  0.143
  0.000  0.000  0.000  1.000  0.000
    occupations:
  0.938  0.000 -0.000 -0.111 -0.000
  0.000  0.651  0.000  0.000 -0.000
 -0.000  0.000  0.861 -0.000 -0.000
 -0.111  0.000 -0.000  0.712  0.001
 -0.000 -0.000 -0.000  0.001  0.901
atom   23   Tr[ns(na)] =   8.10867
    eigenvalues:
  0.582  0.610  0.935  0.946  0.982
    eigenvectors:
  0.994  0.000  0.000  0.000  0.006
  0.000  0.000  1.000  0.000  0.000
  0.000  0.000  0.000  1.000  0.000
  0.006  0.000  0.000  0.000  0.994
  0.000  1.000  0.000  0.000  0.000
    occupations:
  0.584  0.000  0.001  0.031 -0.000
  0.000  0.935 -0.000  0.000 -0.000
  0.001 -0.000  0.946  0.000  0.000
  0.031  0.000  0.000  0.980  0.000
 -0.000 -0.000  0.000  0.000  0.610
N of occupied +U levels =  65.0798773
 --- exit write_ns ---

     Threshold (ethr) on eigenvalues was too large:
     Diagonalizing with lowered threshold

     Davidson diagonalization with overlap
     ethr =  7.92E-09,  avg # of iterations =  2.0

[...]

     total energy              =   -2072.44806573 Ry
     Harris-Foulkes estimate   =   -2072.44806573 Ry
     estimated scf accuracy    <       0.00000002 Ry

     iteration # 14     ecut=    40.00 Ry     beta=0.70
     Davidson diagonalization with overlap
     ethr =  6.92E-12,  avg # of iterations =  1.0

     negative rho (up, down):  0.314E+01 0.000E+00

     End of self-consistent calculation
 --- enter write_ns ---
 LDA+U parameters:
U( 2)     =  4.00000000
alpha( 2) =  0.00000000
atom    3   Tr[ns(na)] =   8.16054
    eigenvalues:
  0.602  0.628  0.904  0.972  0.975
    eigenvectors:
  0.000  0.191  0.003  0.001  0.805
  1.000  0.000  0.000  0.000  0.000
  0.000  0.000  0.996  0.000  0.003
  0.000  0.809  0.000  0.000  0.191
  0.000  0.000  0.000  0.999  0.001
    occupations:
  0.909 -0.000  0.003 -0.137 -0.000
 -0.000  0.602 -0.000 -0.000 -0.006
  0.003 -0.000  0.904 -0.004  0.001
 -0.137 -0.000 -0.004  0.694 -0.000
 -0.000 -0.006  0.001 -0.000  0.972
atom    4   Tr[ns(na)] =   8.14218
    eigenvalues:
  0.619  0.668  0.874  0.926  0.984
    eigenvectors:
  0.000  0.989  0.000  0.000  0.011
  0.000  0.000  0.057  0.942  0.000
  0.000  0.000  0.943  0.057  0.000
  0.000  0.011  0.000  0.000  0.989
  1.000  0.000  0.000  0.000  0.000
    occupations:
  0.671 -0.003 -0.001  0.032  0.001
 -0.003  0.923  0.012  0.000 -0.002
 -0.001  0.012  0.877 -0.000  0.000
  0.032  0.000 -0.000  0.981  0.000
  0.001 -0.002  0.000  0.000  0.619
atom    9   Tr[ns(na)] =   8.12774
    eigenvalues:
  0.651  0.667  0.861  0.902  0.983
    eigenvectors:
  0.000  0.143  0.000  0.000  0.857
  1.000  0.000  0.000  0.000  0.000
  0.000  0.000  1.000  0.000  0.000
  0.000  0.857  0.000  0.000  0.143
  0.000  0.000  0.000  1.000  0.000
    occupations:
  0.938  0.000 -0.000 -0.111 -0.000
  0.000  0.651  0.000  0.000 -0.000
 -0.000  0.000  0.861 -0.000 -0.000
 -0.111  0.000 -0.000  0.712  0.001
 -0.000 -0.000 -0.000  0.001  0.902
atom   10   Tr[ns(na)] =   8.10958
    eigenvalues:
  0.582  0.610  0.935  0.946  0.982
    eigenvectors:
  0.994  0.000  0.000  0.000  0.006
  0.000  0.000  1.000  0.000  0.000
  0.000  0.000  0.000  1.000  0.000
  0.006  0.000  0.000  0.000  0.994
  0.000  1.000  0.000  0.000  0.000
    occupations:
  0.584  0.000  0.001  0.031 -0.000
  0.000  0.935 -0.000  0.000 -0.000
  0.001 -0.000  0.946  0.000  0.000
  0.031  0.000  0.000  0.980  0.000
 -0.000 -0.000  0.000  0.000  0.610
atom   16   Tr[ns(na)] =   8.16055
    eigenvalues:
  0.602  0.628  0.904  0.972  0.975
    eigenvectors:
  0.000  0.191  0.003  0.001  0.805
  1.000  0.000  0.000  0.000  0.000
  0.000  0.000  0.996  0.000  0.003
  0.000  0.809  0.000  0.000  0.191
  0.000  0.000  0.000  0.999  0.001
    occupations:
  0.909 -0.000  0.003 -0.137 -0.000
 -0.000  0.602 -0.000 -0.000 -0.006
  0.003 -0.000  0.904 -0.004  0.001
 -0.137 -0.000 -0.004  0.694 -0.000
 -0.000 -0.006  0.001 -0.000  0.972
atom   17   Tr[ns(na)] =   8.14219
    eigenvalues:
  0.619  0.668  0.874  0.926  0.984
    eigenvectors:
  0.000  0.989  0.000  0.000  0.011
  0.000  0.000  0.057  0.942  0.000
  0.000  0.000  0.943  0.057  0.000
  0.000  0.011  0.000  0.000  0.989
  1.000  0.000  0.000  0.000  0.000
    occupations:
  0.671 -0.003 -0.001  0.032  0.001
 -0.003  0.923  0.012  0.000 -0.002
 -0.001  0.012  0.877 -0.000  0.000
  0.032  0.000 -0.000  0.981  0.000
  0.001 -0.002  0.000  0.000  0.619
atom   22   Tr[ns(na)] =   8.12775
    eigenvalues:
  0.651  0.667  0.861  0.902  0.983
    eigenvectors:
  0.000  0.143  0.000  0.000  0.857
  1.000  0.000  0.000  0.000  0.000
  0.000  0.000  1.000  0.000  0.000
  0.000  0.857  0.000  0.000  0.143
  0.000  0.000  0.000  1.000  0.000
    occupations:
  0.938  0.000 -0.000 -0.111 -0.000
  0.000  0.651  0.000  0.000 -0.000
 -0.000  0.000  0.861 -0.000 -0.000
 -0.111  0.000 -0.000  0.712  0.001
 -0.000 -0.000 -0.000  0.001  0.902
atom   23   Tr[ns(na)] =   8.10958
    eigenvalues:
  0.582  0.610  0.935  0.946  0.982
    eigenvectors:
  0.994  0.000  0.000  0.000  0.006
  0.000  0.000  1.000  0.000  0.000
  0.000  0.000  0.000  1.000  0.000
  0.006  0.000  0.000  0.000  0.994
  0.000  1.000  0.000  0.000  0.000
    occupations:
  0.584  0.000  0.001  0.031 -0.000
  0.000  0.935 -0.000  0.000 -0.000
  0.001 -0.000  0.946  0.000  0.000
  0.031  0.000  0.000  0.980  0.000
 -0.000 -0.000  0.000  0.000  0.610
N of occupied +U levels =  65.0801209
 --- exit write_ns ---

[...]

          k = 0.2500-0.4953 0.0000 ( 31088 PWs)   bands (ev):

[...]

          k =-0.2500 0.2476 0.0000 ( 31099 PWs)   bands (ev):

   -50.6227 -50.6181 -50.6116 -50.5496 -50.5408 -50.5351 -50.4978 -50.4404
   -50.4241 -50.4155 -50.4105 -50.3875 -50.3788 -50.3654 -50.2659 -50.2424
   -50.2383 -50.1958 -50.1675 -50.1580 -50.1551 -50.1444 -50.0568 -50.0461
   -21.4414 -21.0727 -21.0581 -21.0390 -20.6465 -20.5602 -20.4816 -20.4382
   -20.3723 -20.2511 -20.1260 -20.0976 -19.9245 -19.9055 -19.8062 -19.6327
   -18.8138 -18.6933 -10.2510 -10.0996  -9.9794  -9.7234  -9.2958  -9.2410
    -9.2200  -9.0261  -8.8077  -8.7947  -8.7758  -8.7516  -8.5483  -8.4774
    -8.3373  -8.2590  -8.0600  -7.9642  -7.6225  -7.5425  -7.4061  -7.3548
    -7.2166  -7.0154  -6.9683  -6.8323  -6.7641  -6.5122  -6.4432  -6.3625
    -6.2587  -6.2179  -6.0598  -6.0143  -5.9692  -5.9195  -5.8186  -5.6590
    -5.5220  -5.4027  -5.2169  -5.1529  -4.9796  -4.7526  -4.7379  -4.6780
    -4.5319  -4.3396  -4.2620  -4.0631  -3.7781  -3.6804  -3.6194  -3.4228
    -3.4219  -3.2611  -3.2265  -3.1167  -3.1142  -2.9939  -2.9544  -2.8176
    -2.7954  -2.6989  -2.5935  -2.4635  -2.3475  -2.3017  -2.0223  -1.7723
    -1.5116  -1.3260  -1.3224  -1.0914  -1.0785  -0.8296  -0.6594  -0.4881
    -0.1018   0.0872   1.0208   1.1418   1.6622   1.6964   1.8206   2.2385
     2.4376   2.7126   2.9129   2.9351   3.2117   3.2435   3.3772   3.4495
     3.7935   4.3389   4.7429   5.1555   5.4104   5.5969   5.6891   5.8840
     6.1363   6.2925   6.5300   6.5736   6.6227   6.8127   7.0324   7.0722
     7.3200   7.3903   7.4695   7.6560   7.6905   7.8783   8.0082   8.0851
     8.1643   8.3448   8.4491   8.4655   8.5853   8.7854   8.8153   8.9032
     8.9189   9.1535   9.2085   9.2468   9.3404   9.3701   9.3711   9.4594
     9.4600   9.5175   9.5185   9.5381   9.6081   9.6102   9.6331   9.7023
     9.7754   9.9649  10.0424  10.0921  10.1905  10.2995  10.3013  10.4179
    10.4179  10.5052  10.5984  10.7412  10.7980  10.8300  10.9646  11.0299
    11.0460  11.2516  11.3450  11.4286  11.5435  11.5747  11.7106  11.7473
    11.7858  11.9424  12.0938  12.1188  12.1652  12.2882  12.3400  12.3915
    12.5137  12.5875  12.6333  12.7312  12.7446  12.7919  12.8213  12.9159
    13.0789  13.1308  13.1535  13.2366  13.3152  13.3423  13.4868  13.6229
    13.6295  13.7426  13.8694  13.8736  13.9986  13.9990  14.0846  14.1316
    14.2642  14.3578  14.4095  14.5239  14.5681  14.7483  14.7584  14.8828
    14.8939  15.2026  15.2309  15.3635  15.3705  15.5380  15.5442  15.5779
    15.6195  15.7498  15.7818  15.8276  15.8619  15.8954  15.9748  16.0408
    16.0694  16.1354  16.1608  16.2766  16.3308  16.3878  16.4253  16.4425
    16.5964  16.6518  16.7137  16.7454  16.8029  16.8336  17.0791  17.1363
    17.2003  17.3566  17.3709  17.4354  17.4376  17.4776  17.5599  17.5800
    17.6399  17.7310  17.7462  17.8318  17.8968  17.9053  17.9707  17.9831
    18.1751  18.2288  18.3057  18.3887  18.4782  18.4818  18.5917  18.6165
    18.8022  18.8394  18.9176  18.9564  19.0372  19.1252  19.1337  19.2120
    19.2759  19.2877  19.3503  19.4628  19.5878  19.6090  19.7208  19.7620
    19.8277  19.9363  19.9962  20.0966  20.1303  20.2951  20.3402  20.3507
    20.4666  20.5529  20.6064  20.6476  20.6925  20.7765  20.8084  20.8906
    20.8998  20.9724  21.0311  21.1257  21.1520  21.2710  21.3162  21.3417
    21.3603  21.4436  21.4642  21.5534

     the Fermi energy is    -1.1011 ev

!    total energy              =   -2072.44806572 Ry
     Harris-Foulkes estimate   =   -2072.44806573 Ry
     estimated scf accuracy    <          1.8E-09 Ry

     The total energy is the sum of the following terms:

     one-electron contribution =  -22059.31410464 Ry
     hartree contribution      =   11072.29698977 Ry
     xc contribution           =    -569.38536494 Ry
     ewald contribution        =    9482.45738696 Ry
     Hubbard energy            =       1.49860922 Ry
     smearing contrib. (-TS)   =      -0.00158210 Ry

     convergence has been achieved in  14 iterations

     Forces acting on atoms (Ry/au):

     negative rho (up, down):  0.314E+01 0.000E+00
     atom    1 type  1   force =    -0.00728023   -0.01311409   -0.00004478
     atom    2 type  1   force =     0.00007715    0.00392254   -0.00043542
     atom    3 type  2   force =     0.00009641    0.00567379   -0.00006094
     atom    4 type  2   force =     0.00901241    0.00759312   -0.00016919
     atom    5 type  1   force =    -0.00415936   -0.01551536   -0.00036051
     atom    6 type  1   force =     0.00556955    0.01380338   -0.00026407
     atom    7 type  1   force =    -0.00042176   -0.00206332    0.00037546
     atom    8 type  1   force =    -0.00328351   -0.00047884   -0.00012247
     atom    9 type  2   force =     0.00116979    0.00014092   -0.00011841
     atom   10 type  2   force =     0.00000373   -0.00121863    0.00032323
     atom   11 type  1   force =    -0.00008544    0.01678579    0.00019000
     atom   12 type  1   force =     0.00019830   -0.01643316    0.00019543
     atom   13 type  1   force =    -0.00081265   -0.00009736   -0.00012640
     atom   14 type  1   force =    -0.00729656   -0.01311799   -0.00004307
     atom   15 type  1   force =     0.00007679    0.00391990   -0.00043537
     atom   16 type  2   force =     0.00009746    0.00567405   -0.00006170
     atom   17 type  2   force =     0.00901016    0.00759298   -0.00017008
     atom   18 type  1   force =    -0.00415451   -0.01551529   -0.00036340
     atom   19 type  1   force =     0.00557454    0.01380320   -0.00026668
     atom   20 type  1   force =    -0.00042536   -0.00206335    0.00037691
     atom   21 type  1   force =    -0.00329115   -0.00047883   -0.00010766
     atom   22 type  2   force =     0.00116810    0.00014094   -0.00011756
     atom   23 type  2   force =     0.00000098   -0.00121862    0.00032506
     atom   24 type  1   force =    -0.00008465    0.01678384    0.00019135
     atom   25 type  1   force =     0.00019910   -0.01643122    0.00019669
     atom   26 type  1   force =    -0.00081835   -0.00009737   -0.00013449
     atom   27 type  3   force =     0.00001995    0.00065944    0.00066803
     atom   28 type  3   force =     0.00002000    0.00066144    0.00066674
     atom   29 type  3   force =    -0.00009725    0.00034237   -0.00005088
     atom   30 type  3   force =    -0.00008363    0.00034575   -0.00005583

     Total force =     0.001899     Total SCF correction =     0.000070

     bfgs converged in   9 scf cycles and   8 bfgs steps
     (criteria: energy < 0.10E-03, force < 0.10E-02)

     End of BFGS Geometry Optimization

     Final energy   =   -2072.4480657249 Ry
Begin final coordinates

ATOMIC_POSITIONS (crystal)
O0       0.000000000   0.000000000   0.378968558    0   0   1
O0       0.000000000   0.500000000   0.402159273    0   0   1
Ir1      0.250000000   0.500000000   0.452584953    0   0   1
Ir1      0.000000000   0.000000000   0.453572164    0   0   1
O0       0.250000000   0.810000000   0.453435895    0   0   1
O0       0.250000000   0.190000000   0.452951674    0   0   1
O0       0.000000000   0.500000000   0.498941355    0   0   1
O0       0.000000000   0.000000000   0.529061376    0   0   1
Ir1      0.250000000   0.000000000   0.575950865    0   0   1
Ir1      0.000000000   0.500000000   0.572041672    0   0   1
O0       0.250000000   0.690000000   0.576116141    0   0   1
O0       0.250000000   0.310000000   0.576135330    0   0   1
O0       0.000000000   0.000000000   0.620591860    0   0   1
O0       0.500000000   0.000000000   0.378968308    0   0   1
O0       0.500000000   0.500000000   0.402159282    0   0   1
Ir1      0.750000000   0.500000000   0.452585035    0   0   1
Ir1      0.500000000   0.000000000   0.453571963    0   0   1
O0       0.750000000   0.810000000   0.453436183    0   0   1
O0       0.750000000   0.190000000   0.452951965    0   0   1
O0       0.500000000   0.500000000   0.498941232    0   0   1
O0       0.500000000   0.000000000   0.529060880    0   0   1
Ir1      0.750000000   0.000000000   0.575950799    0   0   1
Ir1      0.500000000   0.500000000   0.572041540    0   0   1
O0       0.750000000   0.690000000   0.576116023    0   0   1
O0       0.750000000   0.310000000   0.576135223    0   0   1
O0       0.500000000   0.000000000   0.620592359    0   0   1
H2      -0.000192938   0.635764052   0.384264987
H2       0.499807093   0.635763853   0.384265012
H2       0.143471606   0.034457595   0.367409117
H2       0.643470332   0.034457602   0.367408975
End final coordinates

     General routines

     Parallel routines
     Hubbard U routines

   This run was terminated on:   4:59:19   6May2014

   JOB DONE.