     Program PWSCF v.5.0.2 (svn rev. 9656) starts on 26Apr2014 at 17:48: 3

     Current dimensions of program PWSCF are:
     Max number of different atomic species (ntypx) = 10
     Max number of k-points (npk) =  40000
     Max angular momentum in pseudopotentials (lmaxx) =  3
     Reading input from pwscf.in
Warning: card &CELL ignored
Warning: card / ignored

     Subspace diagonalization in iterative solution of the eigenvalue problem:
     a serial algorithm will be used

     bravais-lattice index     =            0
     lattice parameter (alat)  =      11.7919  a.u.
     unit-cell volume          =    7123.6633 (a.u.)^3
     number of atoms/cell      =           31
     number of atomic types    =            3
     number of electrons       =       246.00
     number of Kohn-Sham states=          357
     kinetic-energy cutoff     =      40.0000  Ry
     charge density cutoff     =     500.0000  Ry
     convergence threshold     =      1.0E-06
     mixing beta               =       0.7000
     number of iterations used =            8  plain     mixing
     Exchange-correlation      = SLA  PW   PBE  PBE ( 1 4 3 4 0)
     EXX-fraction              =        0.00
     nstep                     =           50

     celldm(1)=  11.791891  celldm(2)=   0.000000  celldm(3)=   0.000000
     celldm(4)=   0.000000  celldm(5)=   0.000000  celldm(6)=   0.000000

     crystal axes: (cart. coord. in units of alat)
               a(1) = (   1.000000   0.000000   0.000000 )
               a(2) = (   0.000000   1.026665   0.000000 )
               a(3) = (   0.000000   0.000000   4.231793 )

     reciprocal axes: (cart. coord. in units 2 pi/alat)
               b(1) = (  1.000000  0.000000  0.000000 )
               b(2) = (  0.000000  0.974028  0.000000 )
               b(3) = (  0.000000  0.000000  0.236306 )

     PseudoPot. # 1 for O  read from file:
     /home/camp/zhonxu/pseudo/o_pbe_v1.01.uspp.F.UPF
     MD5 check sum: 2bcb18d16ea4b960afae9ec6d52f22d2
     Pseudo is Ultrasoft + core correction, Zval =  6.0
     Generated by new atomic code, or converted to UPF format
     Using radial grid of  737 points,  5 beta functions with:
                l(1) =   0
                l(2) =   0
                l(3) =   1
                l(4) =   1
                l(5) =   2
     Q(r) pseudized with  8 coefficients,  rinner =    0.900   0.900   0.900
                                                       0.900   0.900

     PseudoPot. # 2 for Ru read from file:
     /home/camp/zhonxu/pseudo/ru_pbe_v1.uspp.F.UPF
     MD5 check sum: df00be1c11b23341d9806d8f1dfa10cf
     Pseudo is Ultrasoft + core correction, Zval = 16.0
     Generated by new atomic code, or converted to UPF format
     Using radial grid of  967 points,  6 beta functions with:
                l(1) =   0
                l(2) =   0
                l(3) =   1
                l(4) =   1
                l(5) =   2
                l(6) =   2
     Q(r) pseudized with  8 coefficients,  rinner =    1.300   1.300   1.300
                                                       1.300   1.300

     PseudoPot. # 3 for H  read from file:
     /home/camp/zhonxu/pseudo/h_pbe_v1.uspp.F.UPF
     MD5 check sum: 3408e3ff4ec8b0a4e358431e7e038a48
     Pseudo is Ultrasoft, Zval =  1.0
     Generated by new atomic code, or converted to UPF format
     Using radial grid of  615 points,  2 beta functions with:
                l(1) =   0
                l(2) =   0
     Q(r) pseudized with  8 coefficients,  rinner =    0.700

     atomic species   valence    mass     pseudopotential
        O0             6.00    15.99940     O ( 1.00)
        Ru1           16.00   101.07000     Ru( 1.00)
        H2             1.00     1.00794     H ( 1.00)

     Simplified LDA+U calculation (l_max = 2) with parameters (eV):
     atomic species    L          U    alpha       J0     beta
        Ru1            2     3.0000   0.0000   0.0000   0.0000

     No symmetry found

   Cartesian axes

     site n.     atom                  positions (alat units)
         1           O0  tau(   1) = (   0.0000000   0.0000000   1.6006333  )
         2           O0  tau(   2) = (   0.0000000   0.5133323   1.7090519  )
         3           Ru1 tau(   3) = (   0.2500000   0.5133323   1.9249579  )
         4           Ru1 tau(   4) = (   0.0000000   0.0000000   1.9138706  )
         5           O0  tau(   5) = (   0.2500000   0.8315984   1.9151825  )
         6           O0  tau(   6) = (   0.2500000   0.1950663   1.9148016  )
         7           O0  tau(   7) = (   0.0000000   0.5133323   2.1086177  )
         8           O0  tau(   8) = (   0.0000000   0.0000000   2.2256691  )
         9           Ru1 tau(   9) = (   0.2500000   0.0000000   2.4381898  )
        10           Ru1 tau(  10) = (   0.0000000   0.5133323   2.4080594  )
        11           O0  tau(  11) = (   0.2500000   0.7083986   2.4344235  )
        12           O0  tau(  12) = (   0.2500000   0.3182660   2.4336618  )
        13           O0  tau(  13) = (   0.0000000   0.0000000   2.6157981  )
        14           O0  tau(  14) = (   0.5000000   0.0000000   1.6005064  )
        15           O0  tau(  15) = (   0.5000000   0.5133323   1.7116333  )
        16           Ru1 tau(  16) = (   0.7500000   0.5133323   1.9249156  )
        17           Ru1 tau(  17) = (   0.5000000   0.0000000   1.9130666  )
        18           O0  tau(  18) = (   0.7500000   0.8315984   1.9150979  )
        19           O0  tau(  19) = (   0.7500000   0.1950663   1.9148440  )
        20           O0  tau(  20) = (   0.5000000   0.5133323   2.1279570  )
        21           O0  tau(  21) = (   0.5000000   0.0000000   2.2254152  )
        22           Ru1 tau(  22) = (   0.7500000   0.0000000   2.4382321  )
        23           Ru1 tau(  23) = (   0.5000000   0.5133323   2.4678123  )
        24           O0  tau(  24) = (   0.7500000   0.7083986   2.4345927  )
        25           O0  tau(  25) = (   0.7500000   0.3182660   2.4334925  )
        26           O0  tau(  26) = (   0.5000000   0.0000000   2.6078847  )
        27           H2  tau(  27) = (  -0.0002600   0.6438727   1.6192532  )
        28           H2  tau(  28) = (   0.4995800   0.6393041   1.6156985  )
        29           H2  tau(  29) = (   0.1450800   0.0331921   1.5470588  )
        30           H2  tau(  30) = (   0.6459600   0.0301326   1.5471435  )
        31           O0  tau(  31) = (   0.5000500   0.5106527   2.7413977  )

     number of k points=    10  Methfessel-Paxton smearing, width (Ry)=  0.0100
                       cart. coord. in units 2pi/alat
        k(    1) = (   0.0000000   0.0000000   0.0000000), wk =   0.1250000
        k(    2) = (   0.0000000   0.2435070   0.0000000), wk =   0.2500000
        k(    3) = (   0.0000000  -0.4870139   0.0000000), wk =   0.1250000
        k(    4) = (   0.2500000   0.0000000   0.0000000), wk =   0.2500000
        k(    5) = (   0.2500000   0.2435070   0.0000000), wk =   0.2500000
        k(    6) = (   0.2500000  -0.4870139   0.0000000), wk =   0.2500000
        k(    7) = (  -0.5000000   0.0000000   0.0000000), wk =   0.1250000
        k(    8) = (  -0.5000000   0.2435070   0.0000000), wk =   0.2500000
        k(    9) = (  -0.5000000  -0.4870139   0.0000000), wk =   0.1250000
        k(   10) = (  -0.2500000   0.2435070   0.0000000), wk =   0.2500000

     Largest allocated arrays     est. size (Mb)     dimensions
     Largest temporary arrays     est. size (Mb)     dimensions

     Check: negative/imaginary core charge=   -0.000003    0.000000

     Initial potential from superposition of free atoms
     Check: negative starting charge=   -0.520948

     starting charge  237.99981, renormalised to  246.00000

     negative rho (up, down):  0.538E+00 0.000E+00
     Number of +U iterations with fixed ns =  0
     Starting occupations:
 --- enter write_ns ---
 LDA+U parameters:
U( 2)     =  3.00000000
alpha( 2) =  0.00000000
atom    3   Tr[ns(na)] =   6.00000
    eigenvalues:
  0.600  0.600  0.600  0.600  0.600
    eigenvectors:
  1.000  0.000  0.000  0.000  0.000
  0.000  1.000  0.000  0.000  0.000
  0.000  0.000  1.000  0.000  0.000
  0.000  0.000  0.000  1.000  0.000
  0.000  0.000  0.000  0.000  1.000
    occupations:
  0.600  0.000  0.000  0.000  0.000
  0.000  0.600  0.000  0.000  0.000
  0.000  0.000  0.600  0.000  0.000
  0.000  0.000  0.000  0.600  0.000
  0.000  0.000  0.000  0.000  0.600
atom    4   Tr[ns(na)] =   6.00000
    eigenvalues:
  0.600  0.600  0.600  0.600  0.600
    eigenvectors:
  1.000  0.000  0.000  0.000  0.000
  0.000  1.000  0.000  0.000  0.000
  0.000  0.000  1.000  0.000  0.000
  0.000  0.000  0.000  1.000  0.000
  0.000  0.000  0.000  0.000  1.000
    occupations:
  0.600  0.000  0.000  0.000  0.000
  0.000  0.600  0.000  0.000  0.000
  0.000  0.000  0.600  0.000  0.000
  0.000  0.000  0.000  0.600  0.000
  0.000  0.000  0.000  0.000  0.600
atom    9   Tr[ns(na)] =   6.00000
    eigenvalues:
  0.600  0.600  0.600  0.600  0.600
    eigenvectors:
  1.000  0.000  0.000  0.000  0.000
  0.000  1.000  0.000  0.000  0.000
  0.000  0.000  1.000  0.000  0.000
  0.000  0.000  0.000  1.000  0.000
  0.000  0.000  0.000  0.000  1.000
    occupations:
  0.600  0.000  0.000  0.000  0.000
  0.000  0.600  0.000  0.000  0.000
  0.000  0.000  0.600  0.000  0.000
  0.000  0.000  0.000  0.600  0.000
  0.000  0.000  0.000  0.000  0.600
atom   10   Tr[ns(na)] =   6.00000
    eigenvalues:
  0.600  0.600  0.600  0.600  0.600
    eigenvectors:
  1.000  0.000  0.000  0.000  0.000
  0.000  1.000  0.000  0.000  0.000
  0.000  0.000  1.000  0.000  0.000
  0.000  0.000  0.000  1.000  0.000
  0.000  0.000  0.000  0.000  1.000
    occupations:
  0.600  0.000  0.000  0.000  0.000
  0.000  0.600  0.000  0.000  0.000
  0.000  0.000  0.600  0.000  0.000
  0.000  0.000  0.000  0.600  0.000
  0.000  0.000  0.000  0.000  0.600
atom   16   Tr[ns(na)] =   6.00000
    eigenvalues:
  0.600  0.600  0.600  0.600  0.600
    eigenvectors:
  1.000  0.000  0.000  0.000  0.000
  0.000  1.000  0.000  0.000  0.000
  0.000  0.000  1.000  0.000  0.000
  0.000  0.000  0.000  1.000  0.000
  0.000  0.000  0.000  0.000  1.000
    occupations:
  0.600  0.000  0.000  0.000  0.000
  0.000  0.600  0.000  0.000  0.000
  0.000  0.000  0.600  0.000  0.000
  0.000  0.000  0.000  0.600  0.000
  0.000  0.000  0.000  0.000  0.600
atom   17   Tr[ns(na)] =   6.00000
    eigenvalues:
  0.600  0.600  0.600  0.600  0.600
    eigenvectors:
  1.000  0.000  0.000  0.000  0.000
  0.000  1.000  0.000  0.000  0.000
  0.000  0.000  1.000  0.000  0.000
  0.000  0.000  0.000  1.000  0.000
  0.000  0.000  0.000  0.000  1.000
    occupations:
  0.600  0.000  0.000  0.000  0.000
  0.000  0.600  0.000  0.000  0.000
  0.000  0.000  0.600  0.000  0.000
  0.000  0.000  0.000  0.600  0.000
  0.000  0.000  0.000  0.000  0.600
atom   22   Tr[ns(na)] =   6.00000
    eigenvalues:
  0.600  0.600  0.600  0.600  0.600
    eigenvectors:
  1.000  0.000  0.000  0.000  0.000
  0.000  1.000  0.000  0.000  0.000
  0.000  0.000  1.000  0.000  0.000
  0.000  0.000  0.000  1.000  0.000
  0.000  0.000  0.000  0.000  1.000
    occupations:
  0.600  0.000  0.000  0.000  0.000
  0.000  0.600  0.000  0.000  0.000
[...]
  0.999  0.001  0.000  0.000  0.000
    occupations:
  0.608 -0.001 -0.000  0.040  0.002
 -0.001  0.796  0.020 -0.001 -0.001
 -0.000  0.020  0.671  0.002  0.000
  0.040 -0.001  0.002  0.973  0.000
  0.002 -0.001  0.000  0.000  0.555
atom    9   Tr[ns(na)] =   7.20257
    eigenvalues:
  0.576  0.595  0.780  0.823  0.828
    eigenvectors:
  0.001  0.161  0.000  0.568  0.270
  0.991  0.009  0.000  0.000  0.000
  0.000  0.000  0.985  0.005  0.010
  0.008  0.830  0.000  0.109  0.052
  0.000  0.000  0.015  0.318  0.667
    occupations:
  0.787 -0.002 -0.000 -0.085  0.002
 -0.002  0.576  0.001  0.003  0.000
 -0.000  0.001  0.780  0.000 -0.006
 -0.085  0.003  0.000  0.632 -0.001
  0.002  0.000 -0.006 -0.001  0.826
atom   10   Tr[ns(na)] =   7.23193
    eigenvalues:
  0.532  0.533  0.747  0.843  0.961
    eigenvectors:
  0.979  0.009  0.000  0.000  0.012
  0.000  0.000  0.000  1.000  0.000
  0.000  0.000  1.000  0.000  0.000
  0.012  0.000  0.000  0.000  0.988
  0.009  0.991  0.000  0.000  0.000
    occupations:
  0.537  0.000 -0.002  0.047  0.000
  0.000  0.843  0.001  0.000  0.001
 -0.002  0.001  0.747 -0.001  0.000
  0.047  0.000 -0.001  0.956  0.000
  0.000  0.001  0.000  0.000  0.533
atom   16   Tr[ns(na)] =   7.20419
    eigenvalues:
  0.519  0.563  0.683  0.866  0.971
    eigenvectors:
  0.000  0.179  0.006  0.001  0.814
  0.998  0.002  0.000  0.000  0.000
  0.000  0.002  0.983  0.002  0.012
  0.002  0.817  0.008  0.000  0.173
  0.000  0.000  0.003  0.996  0.001
    occupations:
  0.896 -0.003  0.031 -0.154  0.001
 -0.003  0.520 -0.001  0.003 -0.005
  0.031 -0.001  0.687 -0.008  0.010
 -0.154  0.003 -0.008  0.634 -0.002
  0.001 -0.005  0.010 -0.002  0.866
atom   17   Tr[ns(na)] =   7.20134
    eigenvalues:
  0.554  0.605  0.665  0.796  0.980
    eigenvectors:
  0.001  0.988  0.000  0.000  0.011
  0.000  0.000  0.016  0.984  0.000
  0.000  0.000  0.984  0.016  0.000
  0.000  0.011  0.000  0.000  0.989
  0.999  0.001  0.000  0.000  0.000
    occupations:
  0.609 -0.001 -0.000  0.039  0.001
 -0.001  0.794  0.016 -0.001 -0.001
 -0.000  0.016  0.667  0.001  0.000
  0.039 -0.001  0.001  0.976  0.000
  0.001 -0.001  0.000  0.000  0.555
atom   22   Tr[ns(na)] =   7.20308
    eigenvalues:
  0.576  0.594  0.778  0.824  0.829
    eigenvectors:
  0.000  0.162  0.003  0.429  0.406
  0.997  0.003  0.000  0.000  0.000
  0.000  0.000  0.982  0.001  0.017
  0.003  0.835  0.001  0.083  0.078
  0.000  0.000  0.013  0.487  0.499
    occupations:
  0.789  0.003  0.003 -0.085  0.002
  0.003  0.576  0.001 -0.002 -0.001
  0.003  0.001  0.779 -0.001  0.006
 -0.085 -0.002 -0.001  0.632 -0.001
  0.002 -0.001  0.006 -0.001  0.826
atom   23   Tr[ns(na)] =   7.20083
    eigenvalues:
  0.578  0.662  0.672  0.708  0.981
    eigenvectors:
  0.000  0.983  0.010  0.000  0.007
  0.000  0.000  0.000  1.000  0.000
  0.000  0.010  0.990  0.000  0.000
  0.000  0.007  0.000  0.000  0.993
  1.000  0.000  0.000  0.000  0.000
    occupations:
  0.664  0.000 -0.001  0.026 -0.000
  0.000  0.708  0.000  0.000  0.001
 -0.001  0.000  0.672  0.002 -0.000
  0.026  0.000  0.002  0.978 -0.000
 -0.000  0.001 -0.000 -0.000  0.578
N of occupied +U levels =  57.6554589
 --- exit write_ns ---

     Threshold (ethr) on eigenvalues was too large:
     Diagonalizing with lowered threshold

     Davidson diagonalization with overlap
     ethr =  7.13E-09,  avg # of iterations =  3.0

[...]

     total energy              =   -2161.84748052 Ry
     Harris-Foulkes estimate   =   -2161.84748080 Ry
     estimated scf accuracy    <       0.00000640 Ry

     iteration # 15     ecut=    40.00 Ry     beta=0.70
     Davidson diagonalization with overlap
     ethr =  3.22E-11,  avg # of iterations =  1.0

     negative rho (up, down):  0.577E+00 0.000E+00

     End of self-consistent calculation
 --- enter write_ns ---
 LDA+U parameters:
U( 2)     =  3.00000000
alpha( 2) =  0.00000000
atom    3   Tr[ns(na)] =   7.20374
    eigenvalues:
  0.520  0.563  0.684  0.865  0.971
    eigenvectors:
  0.000  0.179  0.006  0.001  0.814
  0.997  0.002  0.000  0.000  0.000
  0.000  0.002  0.984  0.001  0.012
  0.002  0.817  0.008  0.000  0.173
  0.000  0.000  0.001  0.998  0.001
    occupations:
  0.896  0.003  0.031 -0.154 -0.001
  0.003  0.520  0.001 -0.003 -0.004
  0.031  0.001  0.687 -0.008 -0.007
 -0.154 -0.003 -0.008  0.634  0.001
 -0.001 -0.004 -0.007  0.001  0.865
atom    4   Tr[ns(na)] =   7.20752
    eigenvalues:
  0.555  0.604  0.668  0.799  0.977
    eigenvectors:
  0.001  0.987  0.000  0.000  0.012
  0.000  0.000  0.024  0.976  0.000
  0.000  0.000  0.976  0.024  0.000
  0.000  0.012  0.000  0.000  0.988
  0.999  0.001  0.000  0.000  0.000
    occupations:
  0.608 -0.001 -0.000  0.040  0.001
 -0.001  0.796  0.020 -0.001 -0.001
 -0.000  0.020  0.671  0.002  0.000
  0.040 -0.001  0.002  0.973  0.000
  0.001 -0.001  0.000  0.000  0.555
atom    9   Tr[ns(na)] =   7.20138
    eigenvalues:
  0.576  0.595  0.780  0.823  0.828
    eigenvectors:
  0.001  0.161  0.000  0.580  0.258
  0.991  0.009  0.000  0.000  0.000
  0.000  0.000  0.985  0.004  0.010
  0.008  0.830  0.000  0.112  0.050
  0.000  0.000  0.015  0.304  0.681
    occupations:
  0.787 -0.002 -0.000 -0.085  0.002
 -0.002  0.576  0.001  0.003  0.000
 -0.000  0.001  0.780  0.000 -0.006
 -0.085  0.003  0.000  0.632 -0.001
  0.002  0.000 -0.006 -0.001  0.826
atom   10   Tr[ns(na)] =   7.23373
    eigenvalues:
  0.532  0.533  0.747  0.844  0.961
    eigenvectors:
  0.973  0.015  0.000  0.000  0.012
  0.000  0.000  0.000  1.000  0.000
  0.000  0.000  1.000  0.000  0.000
  0.012  0.000  0.000  0.000  0.988
  0.015  0.985  0.000  0.000  0.000
    occupations:
  0.538  0.000 -0.002  0.047  0.000
  0.000  0.844  0.001  0.000  0.001
 -0.002  0.001  0.747 -0.001  0.000
  0.047  0.000 -0.001  0.956  0.000
  0.000  0.001  0.000  0.000  0.533
atom   16   Tr[ns(na)] =   7.20386
    eigenvalues:
  0.519  0.563  0.683  0.866  0.971
    eigenvectors:
  0.000  0.179  0.006  0.001  0.814
  0.998  0.002  0.000  0.000  0.000
  0.000  0.002  0.983  0.002  0.012
  0.002  0.817  0.008  0.000  0.173
  0.000  0.000  0.003  0.996  0.001
    occupations:
  0.896 -0.003  0.031 -0.154  0.001
 -0.003  0.520 -0.001  0.003 -0.005
  0.031 -0.001  0.687 -0.008  0.010
 -0.154  0.003 -0.008  0.634 -0.002
  0.001 -0.005  0.010 -0.002  0.865
atom   17   Tr[ns(na)] =   7.20124
    eigenvalues:
  0.554  0.605  0.665  0.796  0.980
    eigenvectors:
  0.001  0.988  0.000  0.000  0.011
  0.000  0.000  0.016  0.984  0.000
  0.000  0.000  0.984  0.016  0.000
  0.000  0.011  0.000  0.000  0.989
  0.999  0.001  0.000  0.000  0.000
    occupations:
  0.610 -0.001 -0.000  0.039  0.001
 -0.001  0.794  0.016 -0.001 -0.001
 -0.000  0.016  0.667  0.001  0.000
  0.039 -0.001  0.001  0.975  0.000
  0.001 -0.001  0.000  0.000  0.555
atom   22   Tr[ns(na)] =   7.20169
    eigenvalues:
  0.576  0.594  0.778  0.824  0.829
    eigenvectors:
  0.000  0.162  0.003  0.443  0.391
  0.997  0.003  0.000  0.000  0.000
  0.000  0.000  0.982  0.001  0.017
  0.003  0.835  0.001  0.086  0.076
  0.000  0.000  0.013  0.470  0.517
    occupations:
  0.788  0.003  0.003 -0.085  0.002
  0.003  0.576  0.001 -0.002 -0.001
  0.003  0.001  0.779 -0.001  0.006
 -0.085 -0.002 -0.001  0.632 -0.001
  0.002 -0.001  0.006 -0.001  0.826
atom   23   Tr[ns(na)] =   7.20181
    eigenvalues:
  0.578  0.662  0.672  0.708  0.981
    eigenvectors:
  0.000  0.983  0.010  0.000  0.007
  0.000  0.000  0.000  1.000  0.000
  0.000  0.010  0.990  0.000  0.000
  0.000  0.007  0.000  0.000  0.993
  1.000  0.000  0.000  0.000  0.000
    occupations:
  0.664  0.000 -0.001  0.026 -0.000
  0.000  0.708  0.000  0.000  0.001
 -0.001  0.000  0.672  0.002 -0.000
  0.026  0.000  0.002  0.978 -0.000
 -0.000  0.001 -0.000 -0.000  0.578
N of occupied +U levels =  57.6549596
 --- exit write_ns ---

[...]

          k = 0.2500-0.4870 0.0000 ( 30468 PWs)   bands (ev):

[...]

          k =-0.2500 0.2435 0.0000 ( 30434 PWs)   bands (ev):

   -75.1934 -74.5107 -74.5015 -74.2798 -74.2628 -73.9768 -73.8676 -73.8601
   -45.7236 -45.0003 -44.8365 -44.6788 -44.5953 -44.5761 -44.5413 -44.4834
   -44.4749 -44.4161 -44.3951 -44.3455 -44.2073 -44.1336 -44.0953 -44.0867
   -44.0651 -44.0292 -43.9207 -43.8504 -43.8114 -43.7877 -43.7138 -43.6099
   -21.0780 -20.5946 -20.5678 -20.5059 -20.3364 -20.1343 -20.0512 -19.9397
   -19.8663 -19.8527 -19.6410 -19.5788 -19.5333 -19.5114 -19.4678 -19.4023
   -19.3299 -19.1583 -18.9229  -9.3497  -9.0505  -8.9011  -8.7768  -8.6423
    -8.6001  -8.4109  -8.2998  -8.0748  -7.9897  -7.9255  -7.8424  -7.7886
    -7.7209  -7.6817  -7.5874  -7.4987  -7.3266  -7.1633  -7.0260  -6.9516
    -6.7857  -6.5618  -6.4776  -6.3017  -6.2356  -6.1272  -5.9527  -5.8765
    -5.8471  -5.7639  -5.7083  -5.5524  -5.4833  -5.3771  -5.3159  -5.2650
    -5.1875  -5.0623  -5.0028  -4.9493  -4.7439  -4.6973  -4.6079  -4.4855
    -4.3425  -4.2749  -4.1963  -4.1323  -4.0034  -3.8986  -3.8095  -3.6988
    -3.4815  -3.3962  -3.2534  -3.0272  -2.8076  -2.4420  -2.3914  -2.3079
    -2.2757  -2.1670  -2.1403  -2.0859  -1.9765  -1.9252  -1.8547  -1.7947
    -1.7073  -1.3752  -1.3585  -1.1964  -1.0937  -0.7894  -0.6599  -0.5842
    -0.4540  -0.4090  -0.2787  -0.0469   0.7805   1.1727   1.4966   1.5517
     1.8416   2.2364   2.4324   2.7183   2.8964   2.9849   3.0960   3.1961
     3.3077   3.3522   3.6063   3.8204   3.9834   4.7014   4.7769   5.2677
     5.5629   5.6030   5.7708   6.3491   6.5575   6.6144   6.6918   6.7638
     6.8260   6.9590   7.0948   7.3134   7.5682   7.7854   7.8921   7.9977
     8.2350   8.3192   8.3727   8.4699   8.5341   8.5972   8.7057   8.7514
     8.9775   9.1703   9.2362   9.3451   9.5067   9.6259   9.8007   9.8579
     9.9901  10.0809  10.1291  10.1525  10.2876  10.3369  10.3616  10.5035
    10.5984  10.6472  10.7136  10.9003  10.9575  11.1054  11.1931  11.2824
    11.3989  11.5135  11.5218  11.5938  11.6802  11.7676  11.8091  11.8528
    11.9491  12.0081  12.1237  12.1761  12.2339  12.3171  12.4945  12.5188
    12.5840  12.6144  12.6793  12.7356  12.8174  12.8596  12.9298  13.0263
    13.0816  13.1802  13.2844  13.3659  13.4149  13.5106  13.5599  13.6379
    13.7729  13.8335  13.9512  14.0025  14.1359  14.1884  14.2261  14.3108
    14.4381  14.4827  14.5658  14.6073  14.6269  14.7816  14.8595  14.9234
    15.0301  15.0639  15.1072  15.2072  15.3240  15.4186  15.5525  15.5874
    15.6399  15.7116  15.7836  15.8386  15.8827  15.9362  15.9732  16.0751
    16.1091  16.1696  16.3056  16.3285  16.3654  16.4570  16.5542  16.6179
    16.6707  16.7381  16.7874  16.8024  16.8790  16.9264  16.9815  17.0615
    17.1444  17.2120  17.2800  17.3774  17.4303  17.4713  17.5031  17.6001
    17.7058  17.7342  17.8341  17.8412  17.9214  17.9595  18.0390  18.0842
    18.2281  18.2478  18.3005  18.3216  18.4277  18.4907  18.6040  18.6412
    18.6921  18.8187  18.8556  18.9350  19.0492  19.1092  19.1690  19.1834
    19.2806  19.3474  19.4547  19.4920  19.5233  19.5964  19.7203  19.7510
    19.8374  19.8851  19.9457  19.9982  20.1501  20.1943  20.3024  20.3680
    20.4778  20.5528  20.6000  20.6697  20.7891  20.8001  20.8869  20.8987
    20.9660  21.0351  21.0973  21.1593  21.2394  21.2999  21.3440  21.3966
    21.5137  21.5313  21.5800  21.6269  21.6802  21.7658  21.8318  21.9556
    21.9599  22.0408  22.0478  22.0976  22.1484

     the Fermi energy is    -1.2604 ev

!    total energy              =   -2161.84748066 Ry
     Harris-Foulkes estimate   =   -2161.84748066 Ry
     estimated scf accuracy    <          7.8E-09 Ry

     The total energy is the sum of the following terms:

     one-electron contribution =  -25142.65735785 Ry
     hartree contribution      =   12592.90664880 Ry
     xc contribution           =    -337.73046993 Ry
     ewald contribution        =   10724.05612694 Ry
     Hubbard energy            =       1.57785983 Ry
     smearing contrib. (-TS)   =      -0.00028846 Ry

     convergence has been achieved in  15 iterations

     Forces acting on atoms (Ry/au):

     negative rho (up, down):  0.577E+00 0.000E+00
     atom    1 type  1   force =    -0.00472330   -0.00843092    0.00071290
     atom    2 type  1   force =     0.00005659    0.00431888   -0.00016867
     atom    3 type  2   force =     0.03641197    0.00257182    0.00025763
     atom    4 type  2   force =     0.00280313    0.00519029   -0.00009270
     atom    5 type  1   force =     0.00260484   -0.03867224   -0.00035280
     atom    6 type  1   force =     0.00274694    0.03979147   -0.00034704
     atom    7 type  1   force =     0.00003937   -0.00301816   -0.00094925
     atom    8 type  1   force =     0.00017748   -0.00161245    0.00012092
     atom    9 type  2   force =    -0.00146106    0.00310400    0.00002569
     atom   10 type  2   force =     0.00003376   -0.00195265    0.00009897
     atom   11 type  1   force =    -0.00719402    0.01128857    0.00003362
     atom   12 type  1   force =    -0.00893218   -0.01226081   -0.00005454
     atom   13 type  1   force =    -0.00122091   -0.00098829    0.00052642
     atom   14 type  1   force =    -0.00389629   -0.00812930    0.00062172
     atom   15 type  1   force =    -0.00016407    0.00374541   -0.00035410
     atom   16 type  2   force =    -0.03704801    0.00351656    0.00026201
     atom   17 type  2   force =     0.00220607    0.00531193    0.00011262
     atom   18 type  1   force =    -0.00017064   -0.03929835   -0.00034314
     atom   19 type  1   force =     0.00118969    0.03908260   -0.00034197
     atom   20 type  1   force =    -0.00013998   -0.00304803   -0.00014816
     atom   21 type  1   force =     0.00007773   -0.00162125    0.00019135
     atom   22 type  2   force =     0.00254386    0.00293801    0.00001412
     atom   23 type  2   force =    -0.00000355    0.00155891    0.00031916
     atom   24 type  1   force =     0.00736409    0.01146678   -0.00000781
     atom   25 type  1   force =     0.00894147   -0.01251913   -0.00005471
     atom   26 type  1   force =    -0.00171224   -0.00119608    0.00041000
     atom   27 type  3   force =    -0.00001072   -0.00013151   -0.00037106
     atom   28 type  3   force =    -0.00000658   -0.00023671   -0.00065047
     atom   29 type  3   force =    -0.00027708   -0.00044889    0.00033697
     atom   30 type  3   force =    -0.00026730   -0.00031324    0.00025268
     atom   31 type  1   force =     0.00003093   -0.00000719   -0.00006035

     Total force =     0.002118     Total SCF correction =     0.000359
     SCF correction compared to forces is large: reduce conv_thr to get better values

     bfgs converged in  11 scf cycles and  10 bfgs steps
     (criteria: energy < 0.10E-03, force < 0.10E-02)

     End of BFGS Geometry Optimization

     Final energy   =   -2161.8474806565 Ry
Begin final coordinates

ATOMIC_POSITIONS (crystal)
O0       0.000000000   0.000000000   0.378999865    0   0   1
O0       0.000000000   0.500000000   0.404108826    0   0   1
Ru1      0.250000000   0.500000000   0.454801121    0   0   1
Ru1      0.000000000   0.000000000   0.452639928    0   0   1
O0       0.250000000   0.810000000   0.452837205    0   0   1
O0       0.250000000   0.190000000   0.452711771    0   0   1
O0       0.000000000   0.500000000   0.499134214    0   0   1
O0       0.000000000   0.000000000   0.525360560    0   0   1
Ru1      0.250000000   0.000000000   0.575934619    0   0   1
Ru1      0.000000000   0.500000000   0.568924817    0   0   1
O0       0.250000000   0.690000000   0.574911498    0   0   1
O0       0.250000000   0.310000000   0.574825221    0   0   1
O0       0.000000000   0.000000000   0.617674403    0   0   1
O0       0.500000000   0.000000000   0.378839320    0   0   1
O0       0.500000000   0.500000000   0.405000787    0   0   1
Ru1      0.750000000   0.500000000   0.454794455    0   0   1
Ru1      0.500000000   0.000000000   0.452372834    0   0   1
O0       0.750000000   0.810000000   0.452807207    0   0   1
O0       0.750000000   0.190000000   0.452727241    0   0   1
O0       0.500000000   0.500000000   0.503367163    0   0   1
O0       0.500000000   0.000000000   0.525452291    0   0   1
Ru1      0.750000000   0.000000000   0.575902254    0   0   1
Ru1      0.500000000   0.500000000   0.582239897    0   0   1
O0       0.750000000   0.690000000   0.574953166    0   0   1
O0       0.750000000   0.310000000   0.574739576    0   0   1
O0       0.500000000   0.000000000   0.615962461    0   0   1
H2      -0.000412504   0.624873383   0.382255467
H2       0.499454898   0.619899397   0.381589010
H2       0.145392132   0.031055085   0.366239246
H2       0.646093586   0.028498577   0.366146305
O0       0.500064782   0.497251755   0.646717274
End final coordinates

     General routines

     Parallel routines
     Hubbard U routines

   This run was terminated on:   6:26:19  27Apr2014

   JOB DONE.