     Program PWSCF v.5.0.2 (svn rev. 9656) starts on 23Jan2014 at 20:37:28

     Current dimensions of program PWSCF are:
     Max number of different atomic species (ntypx) = 10
     Max number of k-points (npk) =  40000
     Max angular momentum in pseudopotentials (lmaxx) =  3
     Reading input from CrO2-v-1.1.in

     Subspace diagonalization in iterative solution of the eigenvalue problem:
     a serial algorithm will be used

     bravais-lattice index     =            0
     lattice parameter (alat)  =       8.9385  a.u.
     unit-cell volume          =     460.2364 (a.u.)^3
     number of atoms/cell      =            6
     number of atomic types    =            2
     number of electrons       =        52.00
     number of Kohn-Sham states=           75
     kinetic-energy cutoff     =      40.0000  Ry
     charge density cutoff     =     500.0000  Ry
     convergence threshold     =      1.0E-06
     mixing beta               =       0.7000
     number of iterations used =            8  plain     mixing
     Exchange-correlation      = SLA  PW   PBE  PBE ( 1 4 3 4 0)
     EXX-fraction              =        0.00
     nstep                     =           50

     celldm(1)=   8.938511  celldm(2)=   0.000000  celldm(3)=   0.000000
     celldm(4)=   0.000000  celldm(5)=   0.000000  celldm(6)=   0.000000

     crystal axes: (cart. coord. in units of alat)
               a(1) = (   1.000000   0.000000   0.000000 )
               a(2) = (   0.000000   1.000000   0.000000 )
               a(3) = (   0.000000   0.000000   0.644444 )

     reciprocal axes: (cart. coord. in units 2 pi/alat)
               b(1) = (  1.000000  0.000000  0.000000 )
               b(2) = (  0.000000  1.000000  0.000000 )
               b(3) = (  0.000000  0.000000  1.551724 )

     PseudoPot. # 1 for Cr read from file:
     /home/camp/zhonxu/pseudo/cr_pbe_v1.uspp.F.UPF
     MD5 check sum: 68b6f918d1762dccfb11451fe85b0e0e
     Pseudo is Ultrasoft + core correction, Zval = 14.0
     Generated by new atomic code, or converted to UPF format
     Using radial grid of  857 points,  6 beta functions with:
                l(1) =   0
                l(2) =   0
                l(3) =   1
                l(4) =   1
                l(5) =   2
                l(6) =   2
     Q(r) pseudized with  6 coefficients,  rinner =    1.000   1.000   1.000
                                                       1.000   1.000

     PseudoPot. # 2 for O  read from file:
     /home/camp/zhonxu/pseudo/o_pbe_v1.01.uspp.F.UPF
     MD5 check sum: 2bcb18d16ea4b960afae9ec6d52f22d2
     Pseudo is Ultrasoft + core correction, Zval =  6.0
     Generated by new atomic code, or converted to UPF format
     Using radial grid of  737 points,  5 beta functions with:
                l(1) =   0
                l(2) =   0
                l(3) =   1
                l(4) =   1
                l(5) =   2
     Q(r) pseudized with  8 coefficients,  rinner =    0.900   0.900   0.900
                                                       0.900   0.900

     atomic species   valence    mass     pseudopotential
        Cr0           14.00    51.99600     Cr( 1.00)
        O1             6.00    15.99940     O ( 1.00)

     Starting magnetic structure
     atomic species   magnetization
        Cr0          0.600
        O1           0.000

      8 Sym. Ops., with inversion, found
          (note:  8 additional sym.ops. were found but ignored
           their fractional translations are incommensurate with FFT grid)

   Cartesian axes

     site n.     atom                  positions (alat units)
         1           Cr0 tau(   1) = (   0.0000000   0.0000000   0.0000000  )
         2           Cr0 tau(   2) = (   0.5000000   0.5000000   0.3222222  )
         3           O1  tau(   3) = (   0.3050000   0.3050000   0.0000000  )
         4           O1  tau(   4) = (  -0.3050000  -0.3050000   0.0000000  )
         5           O1  tau(   5) = (   0.8050000   0.1950000   0.3222222  )
         6           O1  tau(   6) = (   0.1950000   0.8050000   0.3222222  )

     number of k points=    54  Methfessel-Paxton smearing, width (Ry)=  0.0100
                       cart. coord. in units 2pi/alat
        k(    1) = (   0.0000000   0.0000000   0.0000000), wk =   0.0080000
        k(    2) = (   0.0000000   0.0000000   0.3103448), wk =   0.0160000
        k(    3) = (   0.0000000   0.0000000   0.6206897), wk =   0.0160000
        k(    4) = (   0.0000000   0.2000000   0.0000000), wk =   0.0320000
        k(    5) = (   0.0000000   0.2000000   0.3103448), wk =   0.0640000
        k(    6) = (   0.0000000   0.2000000   0.6206897), wk =   0.0640000
        k(    7) = (   0.0000000   0.4000000   0.0000000), wk =   0.0320000
        k(    8) = (   0.0000000   0.4000000   0.3103448), wk =   0.0640000
        k(    9) = (   0.0000000   0.4000000   0.6206897), wk =   0.0640000
        k(   10) = (   0.2000000   0.2000000   0.0000000), wk =   0.0160000
        k(   11) = (   0.2000000   0.2000000   0.3103448), wk =   0.0320000
        k(   12) = (   0.2000000   0.2000000   0.6206897), wk =   0.0320000
        k(   13) = (   0.2000000   0.4000000   0.0000000), wk =   0.0320000
        k(   14) = (   0.2000000   0.4000000   0.3103448), wk =   0.0640000
        k(   15) = (   0.2000000   0.4000000   0.6206897), wk =   0.0640000
        k(   16) = (   0.4000000   0.4000000   0.0000000), wk =   0.0160000
        k(   17) = (   0.4000000   0.4000000   0.3103448), wk =   0.0320000
        k(   18) = (   0.4000000   0.4000000   0.6206897), wk =   0.0320000
        k(   19) = (  -0.2000000   0.2000000   0.0000000), wk =   0.0160000
        k(   20) = (  -0.2000000   0.2000000  -0.3103448), wk =   0.0320000
        k(   21) = (  -0.2000000   0.2000000  -0.6206897), wk =   0.0320000
        k(   22) = (  -0.2000000   0.4000000   0.0000000), wk =   0.0320000
        k(   23) = (  -0.2000000   0.4000000  -0.3103448), wk =   0.0640000
        k(   24) = (  -0.2000000   0.4000000  -0.6206897), wk =   0.0640000
        k(   25) = (  -0.4000000   0.4000000   0.0000000), wk =   0.0160000
        k(   26) = (  -0.4000000   0.4000000  -0.3103448), wk =   0.0320000
        k(   27) = (  -0.4000000   0.4000000  -0.6206897), wk =   0.0320000
        k(   28) = (   0.0000000   0.0000000   0.0000000), wk =   0.0080000
        k(   29) = (   0.0000000   0.0000000   0.3103448), wk =   0.0160000
        k(   30) = (   0.0000000   0.0000000   0.6206897), wk =   0.0160000
        k(   31) = (   0.0000000   0.2000000   0.0000000), wk =   0.0320000
        k(   32) = (   0.0000000   0.2000000   0.3103448), wk =   0.0640000
        k(   33) = (   0.0000000   0.2000000   0.6206897), wk =   0.0640000
        k(   34) = (   0.0000000   0.4000000   0.0000000), wk =   0.0320000
        k(   35) = (   0.0000000   0.4000000   0.3103448), wk =   0.0640000
        k(   36) = (   0.0000000   0.4000000   0.6206897), wk =   0.0640000
        k(   37) = (   0.2000000   0.2000000   0.0000000), wk =   0.0160000
        k(   38) = (   0.2000000   0.2000000   0.3103448), wk =   0.0320000
        k(   39) = (   0.2000000   0.2000000   0.6206897), wk =   0.0320000
        k(   40) = (   0.2000000   0.4000000   0.0000000), wk =   0.0320000
        k(   41) = (   0.2000000   0.4000000   0.3103448), wk =   0.0640000
        k(   42) = (   0.2000000   0.4000000   0.6206897), wk =   0.0640000
        k(   43) = (   0.4000000   0.4000000   0.0000000), wk =   0.0160000
        k(   44) = (   0.4000000   0.4000000   0.3103448), wk =   0.0320000
        k(   45) = (   0.4000000   0.4000000   0.6206897), wk =   0.0320000
        k(   46) = (  -0.2000000   0.2000000   0.0000000), wk =   0.0160000
        k(   47) = (  -0.2000000   0.2000000  -0.3103448), wk =   0.0320000
        k(   48) = (  -0.2000000   0.2000000  -0.6206897), wk =   0.0320000
        k(   49) = (  -0.2000000   0.4000000   0.0000000), wk =   0.0320000
        k(   50) = (  -0.2000000   0.4000000  -0.3103448), wk =   0.0640000
        k(   51) = (  -0.2000000   0.4000000  -0.6206897), wk =   0.0640000
        k(   52) = (  -0.4000000   0.4000000   0.0000000), wk =   0.0160000
        k(   53) = (  -0.4000000   0.4000000  -0.3103448), wk =   0.0320000
        k(   54) = (  -0.4000000   0.4000000  -0.6206897), wk =   0.0320000

     Largest allocated arrays     est. size (Mb)     dimensions
     Largest temporary arrays     est. size (Mb)     dimensions

     Check: negative/imaginary core charge=   -0.000031    0.000000

     Initial potential from superposition of free atoms

     starting charge   49.99997, renormalised to   52.00000
     Starting wfc are   36 randomized atomic wfcs

     Self-consistent Calculation

     iteration #  1     ecut=    40.00 Ry     beta=0.70
     Davidson diagonalization with overlap
     ethr =  1.00E-02,  avg # of iterations =  5.1

     total energy              =    -480.05324785 Ry
     Harris-Foulkes estimate   =    -480.18394866 Ry
     estimated scf accuracy    <       3.03516046 Ry

     total magnetization       =     4.00 Bohr mag/cell
     absolute magnetization    =     6.25 Bohr mag/cell

[...]

     End of self-consistent calculation

 ------ SPIN UP ------------

          k = 0.0000 0.0000 0.0000 (  1955 PWs)   bands (ev):

   -65.7327 -65.7309 -37.0593 -37.0592 -36.9589 -36.9587 -36.8922 -36.8862
   -10.6371  -9.3617  -9.1137  -9.1137   1.4108   2.1026   2.8043   3.4428
     3.4429   4.6667   4.6667   5.1459   6.3620   6.4945   6.5218   6.7153
     6.7154   6.7321   6.9664   6.9664   7.6127   8.2290   8.6053  10.8722
    10.8723  11.3568  14.0445  17.9447  17.9447  20.6205  21.1967  21.8167
    23.0655  24.3286  24.3286  25.3162  26.7480  28.6463  30.1093  30.4496
    30.4496  31.2944  31.2944  31.5221  31.9705  31.9706  32.6747  33.5759
    34.5349  35.1915  37.6358  38.0417  38.0417  38.0546  38.0547  40.1726
    41.2025  41.7749  41.7750  43.3895  44.3007  44.5653  44.5971  44.5971
    44.9686  46.3848  46.5783

[...]

          k =-0.2000 0.2000 0.0000 (  1967 PWs)   bands (ev):

[...]

 ------ SPIN DOWN ----------

[...]

     the Fermi energy is     7.7538 ev

!    total energy              =    -481.10228217 Ry
     Harris-Foulkes estimate   =    -481.10228245 Ry
     estimated scf accuracy    <       0.00000039 Ry

     The total energy is the sum of the following terms:

     one-electron contribution =    -234.92870676 Ry
     hartree contribution      =     138.87992542 Ry
     xc contribution           =     -73.86321259 Ry
     ewald contribution        =    -311.19028437 Ry
     smearing contrib. (-TS)   =      -0.00000387 Ry

[...]

     convergence has been achieved in  12 iterations

     Forces acting on atoms (Ry/au):

     atom    1 type  1   force =     0.00000000    0.00000000    0.00000000
     atom    2 type  1   force =     0.00000000    0.00000000    0.00000000
     atom    3 type  2   force =     0.01219720    0.01219720   -0.00000000
     atom    4 type  2   force =    -0.01219720   -0.01219720    0.00000000
     atom    5 type  2   force =     0.01221728   -0.01221728   -0.00000000
     atom    6 type  2   force =    -0.01221728    0.01221728   -0.00000000

[...]
        k(    4) = (   0.0000011   0.1977460   0.0000000), wk =   0.0320000
        k(    5) = (   0.0000011   0.1977460   0.3174600), wk =   0.0640000
        k(    6) = (   0.0000011   0.1977460   0.6349200), wk =   0.0640000
        k(    7) = (   0.0000022   0.3954920   0.0000000), wk =   0.0320000
        k(    8) = (   0.0000022   0.3954920   0.3174600), wk =   0.0640000
        k(    9) = (   0.0000022   0.3954920   0.6349200), wk =   0.0640000
        k(   10) = (   0.1977471   0.1977471   0.0000000), wk =   0.0160000
        k(   11) = (   0.1977471   0.1977471   0.3174600), wk =   0.0320000
        k(   12) = (   0.1977471   0.1977471   0.6349200), wk =   0.0320000
        k(   13) = (   0.1977482   0.3954931   0.0000000), wk =   0.0320000
        k(   14) = (   0.1977482   0.3954931   0.3174600), wk =   0.0640000
        k(   15) = (   0.1977482   0.3954931   0.6349200), wk =   0.0640000
        k(   16) = (   0.3954942   0.3954942   0.0000000), wk =   0.0160000
        k(   17) = (   0.3954942   0.3954942   0.3174600), wk =   0.0320000
        k(   18) = (   0.3954942   0.3954942   0.6349200), wk =   0.0320000
        k(   19) = (  -0.1977449   0.1977449   0.0000000), wk =   0.0160000
        k(   20) = (  -0.1977449   0.1977449  -0.3174600), wk =   0.0320000
        k(   21) = (  -0.1977449   0.1977449  -0.6349200), wk =   0.0320000
        k(   22) = (  -0.1977438   0.3954909   0.0000000), wk =   0.0320000
        k(   23) = (  -0.1977438   0.3954909  -0.3174600), wk =   0.0640000
        k(   24) = (  -0.1977438   0.3954909  -0.6349200), wk =   0.0640000
        k(   25) = (  -0.3954898   0.3954898   0.0000000), wk =   0.0160000
        k(   26) = (  -0.3954898   0.3954898  -0.3174600), wk =   0.0320000
        k(   27) = (  -0.3954898   0.3954898  -0.6349200), wk =   0.0320000
        k(   28) = (   0.0000000   0.0000000   0.0000000), wk =   0.0080000
        k(   29) = (   0.0000000   0.0000000   0.3174600), wk =   0.0160000
        k(   30) = (   0.0000000   0.0000000   0.6349200), wk =   0.0160000
        k(   31) = (   0.0000011   0.1977460   0.0000000), wk =   0.0320000
        k(   32) = (   0.0000011   0.1977460   0.3174600), wk =   0.0640000
        k(   33) = (   0.0000011   0.1977460   0.6349200), wk =   0.0640000
        k(   34) = (   0.0000022   0.3954920   0.0000000), wk =   0.0320000
        k(   35) = (   0.0000022   0.3954920   0.3174600), wk =   0.0640000
        k(   36) = (   0.0000022   0.3954920   0.6349200), wk =   0.0640000
        k(   37) = (   0.1977471   0.1977471   0.0000000), wk =   0.0160000
        k(   38) = (   0.1977471   0.1977471   0.3174600), wk =   0.0320000
        k(   39) = (   0.1977471   0.1977471   0.6349200), wk =   0.0320000
        k(   40) = (   0.1977482   0.3954931   0.0000000), wk =   0.0320000
        k(   41) = (   0.1977482   0.3954931   0.3174600), wk =   0.0640000
        k(   42) = (   0.1977482   0.3954931   0.6349200), wk =   0.0640000
        k(   43) = (   0.3954942   0.3954942   0.0000000), wk =   0.0160000
        k(   44) = (   0.3954942   0.3954942   0.3174600), wk =   0.0320000
        k(   45) = (   0.3954942   0.3954942   0.6349200), wk =   0.0320000
        k(   46) = (  -0.1977449   0.1977449   0.0000000), wk =   0.0160000
        k(   47) = (  -0.1977449   0.1977449  -0.3174600), wk =   0.0320000
        k(   48) = (  -0.1977449   0.1977449  -0.6349200), wk =   0.0320000
        k(   49) = (  -0.1977438   0.3954909   0.0000000), wk =   0.0320000
        k(   50) = (  -0.1977438   0.3954909  -0.3174600), wk =   0.0640000
        k(   51) = (  -0.1977438   0.3954909  -0.6349200), wk =   0.0640000
        k(   52) = (  -0.3954898   0.3954898   0.0000000), wk =   0.0160000
        k(   53) = (  -0.3954898   0.3954898  -0.3174600), wk =   0.0320000
        k(   54) = (  -0.3954898   0.3954898  -0.6349200), wk =   0.0320000

[...]

     Threshold (ethr) on eigenvalues was too large:
     Diagonalizing with lowered threshold

     Davidson diagonalization with overlap
     ethr =  3.60E-10,  avg # of iterations =  2.0

[...]

     Volume is kept fixed: isostatic pressure set to zero

     bfgs converged in   7 scf cycles and   6 bfgs steps
     (criteria: energy < 0.10E-03, force < 0.10E-02, cell < 0.50E+00)

     End of BFGS Geometry Optimization

     Final enthalpy =    -481.1076261560 Ry
Begin final coordinates
     new unit-cell volume =    460.23642 a.u.^3 (    68.20000 Ang^3 )

CELL_PARAMETERS (alat=  8.93851073)
   1.011398382  -0.000005577   0.000000000
  -0.000005577   1.011398382   0.000000000
   0.000000000   0.000000000   0.630000618

ATOMIC_POSITIONS (crystal)
Cr0      0.000000000   0.000000000   0.000000000    0   0   0
Cr0      0.500000000   0.500000000   0.500000000    0   0   0
O1       0.313643691   0.313643691   0.000000000    1   1   0
O1      -0.313643691  -0.313643691   0.000000000    1   1   0
O1       0.813647875   0.186352125   0.500000000    1   1   0
O1       0.186352125   0.813647875   0.500000000    1   1   0
End final coordinates

     A final scf calculation at the relaxed structure.
     The G-vectors are recalculated for the final unit cell
     Results may differ from those at the preceding step.

     bravais-lattice index     =            0
     lattice parameter (alat)  =       8.9385  a.u.
     unit-cell volume          =     460.2364 (a.u.)^3
     number of atoms/cell      =            6
     number of atomic types    =            2
     number of electrons       =        52.00
     number of Kohn-Sham states=           75
     kinetic-energy cutoff     =      40.0000  Ry
     charge density cutoff     =     500.0000  Ry
     convergence threshold     =      1.0E-08
     mixing beta               =       0.7000
     number of iterations used =            8  plain     mixing
     Exchange-correlation      = SLA  PW   PBE  PBE ( 1 4 3 4 0)
     EXX-fraction              =        0.00

     celldm(1)=   8.938511  celldm(2)=   0.000000  celldm(3)=   0.000000
     celldm(4)=   0.000000  celldm(5)=   0.000000  celldm(6)=   0.000000

     crystal axes: (cart. coord. in units of alat)
               a(1) = (   1.011398  -0.000006   0.000000 )
               a(2) = (  -0.000006   1.011398   0.000000 )
               a(3) = (   0.000000   0.000000   0.630001 )

     reciprocal axes: (cart. coord. in units 2 pi/alat)
               b(1) = (  0.988730  0.000005 -0.000000 )
               b(2) = (  0.000005  0.988730 -0.000000 )
               b(3) = ( -0.000000 -0.000000  1.587300 )

     PseudoPot. # 1 for Cr read from file:
     /home/camp/zhonxu/pseudo/cr_pbe_v1.uspp.F.UPF
     MD5 check sum: 68b6f918d1762dccfb11451fe85b0e0e
     Pseudo is Ultrasoft + core correction, Zval = 14.0
     Generated by new atomic code, or converted to UPF format
     Using radial grid of  857 points,  6 beta functions with:
                l(1) =   0
                l(2) =   0
                l(3) =   1
                l(4) =   1
                l(5) =   2
                l(6) =   2
     Q(r) pseudized with  6 coefficients,  rinner =    1.000   1.000   1.000
                                                       1.000   1.000

     PseudoPot. # 2 for O  read from file:
     /home/camp/zhonxu/pseudo/o_pbe_v1.01.uspp.F.UPF
     MD5 check sum: 2bcb18d16ea4b960afae9ec6d52f22d2
     Pseudo is Ultrasoft + core correction, Zval =  6.0
     Generated by new atomic code, or converted to UPF format
     Using radial grid of  737 points,  5 beta functions with:
                l(1) =   0
                l(2) =   0
                l(3) =   1
                l(4) =   1
                l(5) =   2
     Q(r) pseudized with  8 coefficients,  rinner =    0.900   0.900   0.900
                                                       0.900   0.900

     atomic species   valence    mass     pseudopotential
        Cr0           14.00    51.99600     Cr( 1.00)
        O1             6.00    15.99940     O ( 1.00)

     Starting magnetic structure
     atomic species   magnetization
        Cr0          0.600
        O1           0.000

      8 Sym. Ops., with inversion, found
          (note:  8 additional sym.ops. were found but ignored
           their fractional translations are incommensurate with FFT grid)

   Cartesian axes

     site n.     atom                  positions (alat units)
         1           Cr0 tau(   1) = (   0.0000000   0.0000000   0.0000000  )
         2           Cr0 tau(   2) = (   0.5056964   0.5056964   0.3150003  )
         3           O1  tau(   3) = (   0.3172170   0.3172170   0.0000000  )
         4           O1  tau(   4) = (  -0.3172170  -0.3172170   0.0000000  )
         5           O1  tau(   5) = (   0.8229211   0.1884717   0.3150003  )
         6           O1  tau(   6) = (   0.1884717   0.8229211   0.3150003  )

     number of k points=    54  Methfessel-Paxton smearing, width (Ry)=  0.0100
                       cart. coord. in units 2pi/alat
        k(    1) = (   0.0000000   0.0000000   0.0000000), wk =   0.0080000
        k(    2) = (   0.0000000   0.0000000   0.3174600), wk =   0.0160000
        k(    3) = (   0.0000000   0.0000000   0.6349200), wk =   0.0160000
        k(    4) = (   0.0000011   0.1977460   0.0000000), wk =   0.0320000
        k(    5) = (   0.0000011   0.1977460   0.3174600), wk =   0.0640000
        k(    6) = (   0.0000011   0.1977460   0.6349200), wk =   0.0640000
        k(    7) = (   0.0000022   0.3954920   0.0000000), wk =   0.0320000
        k(    8) = (   0.0000022   0.3954920   0.3174600), wk =   0.0640000
        k(    9) = (   0.0000022   0.3954920   0.6349200), wk =   0.0640000
        k(   10) = (   0.1977471   0.1977471   0.0000000), wk =   0.0160000
        k(   11) = (   0.1977471   0.1977471   0.3174600), wk =   0.0320000
        k(   12) = (   0.1977471   0.1977471   0.6349200), wk =   0.0320000
        k(   13) = (   0.1977482   0.3954931   0.0000000), wk =   0.0320000
        k(   14) = (   0.1977482   0.3954931   0.3174600), wk =   0.0640000
        k(   15) = (   0.1977482   0.3954931   0.6349200), wk =   0.0640000
        k(   16) = (   0.3954942   0.3954942   0.0000000), wk =   0.0160000
        k(   17) = (   0.3954942   0.3954942   0.3174600), wk =   0.0320000
        k(   18) = (   0.3954942   0.3954942   0.6349200), wk =   0.0320000
        k(   19) = (  -0.1977449   0.1977449   0.0000000), wk =   0.0160000
        k(   20) = (  -0.1977449   0.1977449  -0.3174600), wk =   0.0320000
        k(   21) = (  -0.1977449   0.1977449  -0.6349200), wk =   0.0320000
        k(   22) = (  -0.1977438   0.3954909   0.0000000), wk =   0.0320000
        k(   23) = (  -0.1977438   0.3954909  -0.3174600), wk =   0.0640000
        k(   24) = (  -0.1977438   0.3954909  -0.6349200), wk =   0.0640000
        k(   25) = (  -0.3954898   0.3954898   0.0000000), wk =   0.0160000
        k(   26) = (  -0.3954898   0.3954898  -0.3174600), wk =   0.0320000
        k(   27) = (  -0.3954898   0.3954898  -0.6349200), wk =   0.0320000
        k(   28) = (   0.0000000   0.0000000   0.0000000), wk =   0.0080000
        k(   29) = (   0.0000000   0.0000000   0.3174600), wk =   0.0160000
        k(   30) = (   0.0000000   0.0000000   0.6349200), wk =   0.0160000
        k(   31) = (   0.0000011   0.1977460   0.0000000), wk =   0.0320000
        k(   32) = (   0.0000011   0.1977460   0.3174600), wk =   0.0640000
        k(   33) = (   0.0000011   0.1977460   0.6349200), wk =   0.0640000
        k(   34) = (   0.0000022   0.3954920   0.0000000), wk =   0.0320000
        k(   35) = (   0.0000022   0.3954920   0.3174600), wk =   0.0640000
        k(   36) = (   0.0000022   0.3954920   0.6349200), wk =   0.0640000
        k(   37) = (   0.1977471   0.1977471   0.0000000), wk =   0.0160000
        k(   38) = (   0.1977471   0.1977471   0.3174600), wk =   0.0320000
        k(   39) = (   0.1977471   0.1977471   0.6349200), wk =   0.0320000
        k(   40) = (   0.1977482   0.3954931   0.0000000), wk =   0.0320000
        k(   41) = (   0.1977482   0.3954931   0.3174600), wk =   0.0640000
        k(   42) = (   0.1977482   0.3954931   0.6349200), wk =   0.0640000
        k(   43) = (   0.3954942   0.3954942   0.0000000), wk =   0.0160000
        k(   44) = (   0.3954942   0.3954942   0.3174600), wk =   0.0320000
        k(   45) = (   0.3954942   0.3954942   0.6349200), wk =   0.0320000
        k(   46) = (  -0.1977449   0.1977449   0.0000000), wk =   0.0160000
        k(   47) = (  -0.1977449   0.1977449  -0.3174600), wk =   0.0320000
        k(   48) = (  -0.1977449   0.1977449  -0.6349200), wk =   0.0320000
        k(   49) = (  -0.1977438   0.3954909   0.0000000), wk =   0.0320000
        k(   50) = (  -0.1977438   0.3954909  -0.3174600), wk =   0.0640000
        k(   51) = (  -0.1977438   0.3954909  -0.6349200), wk =   0.0640000
        k(   52) = (  -0.3954898   0.3954898   0.0000000), wk =   0.0160000
        k(   53) = (  -0.3954898   0.3954898  -0.3174600), wk =   0.0320000
        k(   54) = (  -0.3954898   0.3954898  -0.6349200), wk =   0.0320000

     Largest allocated arrays     est. size (Mb)     dimensions
     Largest temporary arrays     est. size (Mb)     dimensions

     Check: negative/imaginary core charge=   -0.000030    0.000000

     Initial potential from superposition of free atoms

     starting charge   49.99997, renormalised to   52.00000
     Starting wfc are   36 randomized atomic wfcs

     Self-consistent Calculation

[...]

     total energy              =    -481.10769059 Ry
     Harris-Foulkes estimate   =    -481.10769069 Ry
     estimated scf accuracy    <       0.00000066 Ry

[...]

     iteration # 13     ecut=    40.00 Ry     beta=0.70
     Davidson diagonalization with overlap
     ethr =  1.27E-09,  avg # of iterations =  1.0

     End of self-consistent calculation

 ------ SPIN UP ------------

[...]

 ------ SPIN DOWN ----------

[...]

          k = 0.3955 0.3955 0.6349 (  1971 PWs)   bands (ev):

[...]

          k =-0.3955 0.3955-0.6349 (  1971 PWs)   bands (ev):

   -63.1313 -63.1312 -34.6492 -34.6491 -34.3889 -34.3887 -34.3555 -34.3555
    -9.7647  -9.7112  -9.6275  -9.6177   2.5776   2.7103   2.9457   2.9817
     3.8362   3.9035   4.5714   4.6371   5.6823   5.8086   5.8515   6.1282
     9.1441   9.3268   9.8711  10.0042  10.0383  10.0456  10.8464  11.1169
    11.6829  11.9643  18.5806  18.9622  20.1324  20.6295  21.5259  21.7448
    22.6489  22.8328  24.3589  24.5549  25.7415  26.3025  28.0867  29.3052
    30.4513  30.7926  30.9142  31.8530  34.2620  34.4737  35.7206  36.3910
    37.9232  38.2223  39.4160  39.8217  40.4648  40.5362  40.7281  41.2513
    41.6066  42.3333  42.8962  43.5734  43.9268  45.0289  45.8675  46.3427
    46.9245  47.2229  47.5972

     the Fermi energy is     7.8183 ev

!    total energy              =    -481.10769069 Ry
     Harris-Foulkes estimate   =    -481.10769069 Ry
     estimated scf accuracy    <          3.1E-09 Ry

     The total energy is the sum of the following terms:

     one-electron contribution =    -240.88728469 Ry
     hartree contribution      =     141.87573865 Ry
     xc contribution           =     -73.93619443 Ry
     ewald contribution        =    -308.16018314 Ry
     smearing contrib. (-TS)   =       0.00023291 Ry

     total magnetization       =     4.00 Bohr mag/cell
     absolute magnetization    =     5.32 Bohr mag/cell

     convergence has been achieved in  13 iterations

     Forces acting on atoms (Ry/au):

     atom    1 type  1   force =     0.00000000    0.00000000    0.00000000
     atom    2 type  1   force =     0.00000000    0.00000000    0.00000000
     atom    3 type  2   force =    -0.00017370   -0.00017370    0.00000000
     atom    4 type  2   force =     0.00017370    0.00017370    0.00000000
     atom    5 type  2   force =    -0.00018064    0.00018064    0.00000000
     atom    6 type  2   force =     0.00018064   -0.00018064    0.00000000

     Total force =     0.000501     Total SCF correction =     0.000020

     entering subroutine stress ...

          total   stress  (Ry/bohr**3)                   (kbar)     P= -232.47
  -0.00157726   0.00000005   0.00000000       -232.02      0.01      0.00
   0.00000005  -0.00157726   0.00000000          0.01   -232.02      0.00
   0.00000000   0.00000000  -0.00158633          0.00      0.00   -233.36

     General routines

     Parallel routines

   This run was terminated on:  21:18:44  23Jan2014

   JOB DONE.
Running PBS batch system epilogue script
Job id: 251234.audhumbla.fysik.dtu.dk
Username: zhonxu
Groupname: campgst
Jobname: CrO2/coarse-EOS/CrO2-v-1.1
Sessionid: 2088
Queuename: verylong
Accounting:
This job has allocated the following 4 nodes:
q099 q099 q099 q099
Finished epilogue job 251234.audhumbla.fysik.dtu.dk for zhonxu