     Program PWSCF v.5.0.2 (svn rev. 9656) starts on 23Jan2014 at 20:29: 5

     Current dimensions of program PWSCF are:
     Max number of different atomic species (ntypx) = 10
     Max number of k-points (npk) =  40000
     Max angular momentum in pseudopotentials (lmaxx) =  3
     Reading input from MnO2-v-0.9.in

     Subspace diagonalization in iterative solution of the eigenvalue problem:
     a serial algorithm will be used

     bravais-lattice index     =            0
     lattice parameter (alat)  =       8.3602  a.u.
     unit-cell volume          =     376.5571 (a.u.)^3
     number of atoms/cell      =            6
     number of atomic types    =            2
     number of electrons       =        54.00
     number of Kohn-Sham states=           78
     kinetic-energy cutoff     =      40.0000  Ry
     charge density cutoff     =     500.0000  Ry
     convergence threshold     =      1.0E-06
     mixing beta               =       0.7000
     number of iterations used =            8  plain     mixing
     Exchange-correlation      = SLA  PW   PBE  PBE ( 1 4 3 4 0)
     EXX-fraction              =        0.00
     nstep                     =           50

     celldm(1)=   8.360170  celldm(2)=   0.000000  celldm(3)=   0.000000
     celldm(4)=   0.000000  celldm(5)=   0.000000  celldm(6)=   0.000000

     crystal axes: (cart. coord. in units of alat)
               a(1) = (   1.000000   0.000000   0.000000 )
               a(2) = (   0.000000   1.000000   0.000000 )
               a(3) = (   0.000000   0.000000   0.644444 )

     reciprocal axes: (cart. coord. in units 2 pi/alat)
               b(1) = (  1.000000  0.000000  0.000000 )
               b(2) = (  0.000000  1.000000  0.000000 )
               b(3) = (  0.000000  0.000000  1.551724 )

     PseudoPot. # 1 for Mn read from file:
     /home/camp/zhonxu/pseudo/mn_pbe_v1.uspp.F.UPF
     MD5 check sum: 5fd7c7b5c956fd19902447332617373a
     Pseudo is Ultrasoft + core correction, Zval = 15.0
     Generated by new atomic code, or converted to UPF format
     Using radial grid of  859 points,  6 beta functions with:
                l(1) =   0
                l(2) =   0
                l(3) =   1
                l(4) =   1
                l(5) =   2
                l(6) =   2
     Q(r) pseudized with  6 coefficients,  rinner =    1.150   1.150   1.150
                                                       1.150   1.150

     PseudoPot. # 2 for O  read from file:
     /home/camp/zhonxu/pseudo/o_pbe_v1.01.uspp.F.UPF
     MD5 check sum: 2bcb18d16ea4b960afae9ec6d52f22d2
     Pseudo is Ultrasoft + core correction, Zval =  6.0
     Generated by new atomic code, or converted to UPF format
     Using radial grid of  737 points,  5 beta functions with:
                l(1) =   0
                l(2) =   0
                l(3) =   1
                l(4) =   1
                l(5) =   2
     Q(r) pseudized with  8 coefficients,  rinner =    0.900   0.900   0.900
                                                       0.900   0.900

     atomic species   valence    mass     pseudopotential
        Mn0           15.00    54.93800     Mn( 1.00)
        O1             6.00    15.99940     O ( 1.00)

     Starting magnetic structure
     atomic species   magnetization
        Mn0          0.600
        O1           0.000

     16 Sym. Ops., with inversion, found ( 8 have fractional translation)

   Cartesian axes

     site n.     atom                  positions (alat units)
         1           Mn0 tau(   1) = (   0.0000000   0.0000000   0.0000000  )
         2           Mn0 tau(   2) = (   0.5000000   0.5000000   0.3222222  )
         3           O1  tau(   3) = (   0.3050000   0.3050000   0.0000000  )
         4           O1  tau(   4) = (  -0.3050000  -0.3050000   0.0000000  )
         5           O1  tau(   5) = (   0.8050000   0.1950000   0.3222222  )
         6           O1  tau(   6) = (   0.1950000   0.8050000   0.3222222  )

     number of k points=    36  Methfessel-Paxton smearing, width (Ry)=  0.0100
                       cart. coord. in units 2pi/alat
        k(    1) = (   0.0000000   0.0000000   0.0000000), wk =   0.0080000
        k(    2) = (   0.0000000   0.0000000   0.3103448), wk =   0.0160000
        k(    3) = (   0.0000000   0.0000000   0.6206897), wk =   0.0160000
        k(    4) = (   0.0000000   0.2000000   0.0000000), wk =   0.0320000
        k(    5) = (   0.0000000   0.2000000   0.3103448), wk =   0.0640000
        k(    6) = (   0.0000000   0.2000000   0.6206897), wk =   0.0640000
        k(    7) = (   0.0000000   0.4000000   0.0000000), wk =   0.0320000
        k(    8) = (   0.0000000   0.4000000   0.3103448), wk =   0.0640000
        k(    9) = (   0.0000000   0.4000000   0.6206897), wk =   0.0640000
        k(   10) = (   0.2000000   0.2000000   0.0000000), wk =   0.0320000
        k(   11) = (   0.2000000   0.2000000   0.3103448), wk =   0.0640000
        k(   12) = (   0.2000000   0.2000000   0.6206897), wk =   0.0640000
        k(   13) = (   0.2000000   0.4000000   0.0000000), wk =   0.0640000
        k(   14) = (   0.2000000   0.4000000   0.3103448), wk =   0.1280000
        k(   15) = (   0.2000000   0.4000000   0.6206897), wk =   0.1280000
        k(   16) = (   0.4000000   0.4000000   0.0000000), wk =   0.0320000
        k(   17) = (   0.4000000   0.4000000   0.3103448), wk =   0.0640000
        k(   18) = (   0.4000000   0.4000000   0.6206897), wk =   0.0640000
        k(   19) = (   0.0000000   0.0000000   0.0000000), wk =   0.0080000
        k(   20) = (   0.0000000   0.0000000   0.3103448), wk =   0.0160000
        k(   21) = (   0.0000000   0.0000000   0.6206897), wk =   0.0160000
        k(   22) = (   0.0000000   0.2000000   0.0000000), wk =   0.0320000
        k(   23) = (   0.0000000   0.2000000   0.3103448), wk =   0.0640000
        k(   24) = (   0.0000000   0.2000000   0.6206897), wk =   0.0640000
        k(   25) = (   0.0000000   0.4000000   0.0000000), wk =   0.0320000
        k(   26) = (   0.0000000   0.4000000   0.3103448), wk =   0.0640000
        k(   27) = (   0.0000000   0.4000000   0.6206897), wk =   0.0640000
        k(   28) = (   0.2000000   0.2000000   0.0000000), wk =   0.0320000
        k(   29) = (   0.2000000   0.2000000   0.3103448), wk =   0.0640000
        k(   30) = (   0.2000000   0.2000000   0.6206897), wk =   0.0640000
        k(   31) = (   0.2000000   0.4000000   0.0000000), wk =   0.0640000
        k(   32) = (   0.2000000   0.4000000   0.3103448), wk =   0.1280000
        k(   33) = (   0.2000000   0.4000000   0.6206897), wk =   0.1280000
        k(   34) = (   0.4000000   0.4000000   0.0000000), wk =   0.0320000
        k(   35) = (   0.4000000   0.4000000   0.3103448), wk =   0.0640000
        k(   36) = (   0.4000000   0.4000000   0.6206897), wk =   0.0640000

     Largest allocated arrays     est. size (Mb)     dimensions
     Largest temporary arrays     est. size (Mb)     dimensions

     Check: negative/imaginary core charge=   -0.000063    0.000000

     Initial potential from superposition of free atoms

     starting charge   51.99998, renormalised to   54.00000
     Starting wfc are   42 randomized atomic wfcs

     Self-consistent Calculation

     iteration #  1     ecut=    40.00 Ry     beta=0.70
     Davidson diagonalization with overlap
     ethr =  1.00E-02,  avg # of iterations =  5.0

     total energy              =    -553.43874262 Ry
     Harris-Foulkes estimate   =    -554.30910584 Ry
     estimated scf accuracy    <       3.99482981 Ry

     total magnetization       =     6.00 Bohr mag/cell
     absolute magnetization    =     7.29 Bohr mag/cell

[...]

     End of self-consistent calculation

 ------ SPIN UP ------------

          k = 0.0000 0.0000 0.0000 (  1623 PWs)   bands (ev):

   -71.3704 -71.3679 -40.0795 -40.0706 -40.0314 -40.0314 -39.9491 -39.9491
    -9.3189  -7.4837  -7.0833  -7.0833   2.6410   3.2931   3.9611   4.8040
     4.8040   6.5684   6.5684   7.2629   7.8886   8.0193   8.1951   8.1951
     8.3354   9.0397   9.4576   9.4576  10.0617  10.4450  10.6054  13.4479
    13.4479  14.1315  18.3502  21.7674  21.7674  24.3556  25.3878  25.7208
    28.1299  29.1746  29.1746  29.6492  30.8397  34.1441  34.8326  35.2288
    35.2288  36.1528  36.1528  36.4277  37.3167  37.3167  37.6920  38.7149
    40.0732  40.9557  44.1049  44.1049  44.3158  44.4251  44.4251  46.2654
    47.5801  48.9860  48.9860  49.8787  51.1953  51.2346  51.2346  51.6848
    53.0784  53.9494  54.8645  54.8645  56.4405  56.4408

[...]

 ------ SPIN DOWN ----------

[...]

     the Fermi energy is    10.7012 ev

!    total energy              =    -554.96790699 Ry
     Harris-Foulkes estimate   =    -554.96790752 Ry
     estimated scf accuracy    <       0.00000090 Ry

     The total energy is the sum of the following terms:

     one-electron contribution =    -273.16031984 Ry
     hartree contribution      =     164.11269889 Ry
     xc contribution           =     -81.05761649 Ry
     ewald contribution        =    -364.86293370 Ry
     smearing contrib. (-TS)   =       0.00026415 Ry

[...]

     convergence has been achieved in   9 iterations

     Forces acting on atoms (Ry/au):

     atom    1 type  1   force =     0.00000000    0.00000000    0.00000000
     atom    2 type  1   force =     0.00000000    0.00000000   -0.00000000
     atom    3 type  2   force =    -0.00186863   -0.00186863   -0.00000000
     atom    4 type  2   force =     0.00186863    0.00186863   -0.00000000
     atom    5 type  2   force =    -0.00186863    0.00186863   -0.00000000
     atom    6 type  2   force =     0.00186863   -0.00186863    0.00000000

     Total force =     0.005285     Total SCF correction =     0.000259

     entering subroutine stress ...

          total   stress  (Ry/bohr**3)                   (kbar)     P=   43.35
   0.00024559   0.00000000   0.00000000         36.13      0.00      0.00
   0.00000000   0.00024559   0.00000000          0.00     36.13      0.00
   0.00000000   0.00000000   0.00039291          0.00      0.00     57.80

     Volume is kept fixed: isostatic pressure set to zero

     BFGS Geometry Optimization

     number of scf cycles    =   1
     number of bfgs steps    =   0

     enthalpy new            =    -554.9679069897 Ry

     new trust radius        =       0.0095292583 bohr
     new conv_thr            =       0.0000010000 Ry

     new unit-cell volume =    376.55707 a.u.^3 (    55.80000 Ang^3 )

CELL_PARAMETERS (alat=  8.36016997)
   0.998773828   0.000000000   0.000000000
   0.000000000   0.998773828   0.000000000
   0.000000000   0.000000000   0.646027755

ATOMIC_POSITIONS (crystal)
Mn0      0.000000000   0.000000000   0.000000000    0   0   0
Mn0      0.500000000   0.500000000   0.500000000    0   0   0
O1       0.304776484   0.304776484   0.000000000    1   1   0
O1      -0.304776484  -0.304776484   0.000000000    1   1   0
O1       0.804776484   0.195223516   0.500000000    1   1   0
O1       0.195223516   0.804776484   0.500000000    1   1   0

     NEW-OLD atomic charge density approx. for the potential
     NEW k-points:
        k(    1) = (   0.0000000   0.0000000   0.0000000), wk =   0.0080000
[...]
        k(   11) = (   0.2002455   0.2002455   0.3095842), wk =   0.0640000
        k(   12) = (   0.2002455   0.2002455   0.6191684), wk =   0.0640000
        k(   13) = (   0.2002455   0.4004911   0.0000000), wk =   0.0640000
        k(   14) = (   0.2002455   0.4004911   0.3095842), wk =   0.1280000
        k(   15) = (   0.2002455   0.4004911   0.6191684), wk =   0.1280000
        k(   16) = (   0.4004911   0.4004911   0.0000000), wk =   0.0320000
        k(   17) = (   0.4004911   0.4004911   0.3095842), wk =   0.0640000
        k(   18) = (   0.4004911   0.4004911   0.6191684), wk =   0.0640000
        k(   19) = (   0.0000000   0.0000000   0.0000000), wk =   0.0080000
        k(   20) = (   0.0000000   0.0000000   0.3095842), wk =   0.0160000
        k(   21) = (   0.0000000   0.0000000   0.6191684), wk =   0.0160000
        k(   22) = (   0.0000000   0.2002455   0.0000000), wk =   0.0320000
        k(   23) = (   0.0000000   0.2002455   0.3095842), wk =   0.0640000
        k(   24) = (   0.0000000   0.2002455   0.6191684), wk =   0.0640000
        k(   25) = (   0.0000000   0.4004911   0.0000000), wk =   0.0320000
        k(   26) = (   0.0000000   0.4004911   0.3095842), wk =   0.0640000
        k(   27) = (   0.0000000   0.4004911   0.6191684), wk =   0.0640000
        k(   28) = (   0.2002455   0.2002455   0.0000000), wk =   0.0320000
        k(   29) = (   0.2002455   0.2002455   0.3095842), wk =   0.0640000
        k(   30) = (   0.2002455   0.2002455   0.6191684), wk =   0.0640000
        k(   31) = (   0.2002455   0.4004911   0.0000000), wk =   0.0640000
        k(   32) = (   0.2002455   0.4004911   0.3095842), wk =   0.1280000
        k(   33) = (   0.2002455   0.4004911   0.6191684), wk =   0.1280000
        k(   34) = (   0.4004911   0.4004911   0.0000000), wk =   0.0320000
        k(   35) = (   0.4004911   0.4004911   0.3095842), wk =   0.0640000
        k(   36) = (   0.4004911   0.4004911   0.6191684), wk =   0.0640000

[...]

     Total force =     0.000989     Total SCF correction =     0.000108
     SCF correction compared to forces is large: reduce conv_thr to get better values

[...]

     number of scf cycles    =   2
     number of bfgs steps    =   1

     enthalpy old            =    -554.9679069897 Ry
     enthalpy new            =    -554.9680245596 Ry

     CASE: enthalpy_new < enthalpy_old

     new trust radius        =       0.0078212471 bohr
     new conv_thr            =       0.0000000100 Ry

     new unit-cell volume =    376.55707 a.u.^3 (    55.80000 Ang^3 )

[...]

ATOMIC_POSITIONS (crystal)
Mn0      0.000000000   0.000000000   0.000000000    0   0   0
Mn0      0.500000000   0.500000000   0.500000000    0   0   0
O1       0.304697947   0.304697947   0.000000000    1   1   0
O1      -0.304697947  -0.304697947   0.000000000    1   1   0
O1       0.804697947   0.195302053   0.500000000    1   1   0
O1       0.195302053   0.804697947   0.500000000    1   1   0

     NEW-OLD atomic charge density approx. for the potential
     NEW k-points:
        k(    1) = (   0.0000000   0.0000000   0.0000000), wk =   0.0080000
        k(    2) = (   0.0000000   0.0000000   0.3089601), wk =   0.0160000
        k(    3) = (   0.0000000   0.0000000   0.6179202), wk =   0.0160000
        k(    4) = (   0.0000000   0.2004477   0.0000000), wk =   0.0320000
        k(    5) = (   0.0000000   0.2004477   0.3089601), wk =   0.0640000
        k(    6) = (   0.0000000   0.2004477   0.6179202), wk =   0.0640000
        k(    7) = (   0.0000000   0.4008954   0.0000000), wk =   0.0320000
        k(    8) = (   0.0000000   0.4008954   0.3089601), wk =   0.0640000
        k(    9) = (   0.0000000   0.4008954   0.6179202), wk =   0.0640000
        k(   10) = (   0.2004477   0.2004477   0.0000000), wk =   0.0320000
        k(   11) = (   0.2004477   0.2004477   0.3089601), wk =   0.0640000
        k(   12) = (   0.2004477   0.2004477   0.6179202), wk =   0.0640000
        k(   13) = (   0.2004477   0.4008954   0.0000000), wk =   0.0640000
        k(   14) = (   0.2004477   0.4008954   0.3089601), wk =   0.1280000
        k(   15) = (   0.2004477   0.4008954   0.6179202), wk =   0.1280000
        k(   16) = (   0.4008954   0.4008954   0.0000000), wk =   0.0320000
        k(   17) = (   0.4008954   0.4008954   0.3089601), wk =   0.0640000
        k(   18) = (   0.4008954   0.4008954   0.6179202), wk =   0.0640000
        k(   19) = (   0.0000000   0.0000000   0.0000000), wk =   0.0080000
        k(   20) = (   0.0000000   0.0000000   0.3089601), wk =   0.0160000
        k(   21) = (   0.0000000   0.0000000   0.6179202), wk =   0.0160000
        k(   22) = (   0.0000000   0.2004477   0.0000000), wk =   0.0320000
        k(   23) = (   0.0000000   0.2004477   0.3089601), wk =   0.0640000
        k(   24) = (   0.0000000   0.2004477   0.6179202), wk =   0.0640000
        k(   25) = (   0.0000000   0.4008954   0.0000000), wk =   0.0320000
        k(   26) = (   0.0000000   0.4008954   0.3089601), wk =   0.0640000
        k(   27) = (   0.0000000   0.4008954   0.6179202), wk =   0.0640000
        k(   28) = (   0.2004477   0.2004477   0.0000000), wk =   0.0320000
        k(   29) = (   0.2004477   0.2004477   0.3089601), wk =   0.0640000
        k(   30) = (   0.2004477   0.2004477   0.6179202), wk =   0.0640000
        k(   31) = (   0.2004477   0.4008954   0.0000000), wk =   0.0640000
        k(   32) = (   0.2004477   0.4008954   0.3089601), wk =   0.1280000
        k(   33) = (   0.2004477   0.4008954   0.6179202), wk =   0.1280000
        k(   34) = (   0.4008954   0.4008954   0.0000000), wk =   0.0320000
        k(   35) = (   0.4008954   0.4008954   0.3089601), wk =   0.0640000
        k(   36) = (   0.4008954   0.4008954   0.6179202), wk =   0.0640000

[...]

     Threshold (ethr) on eigenvalues was too large:
     Diagonalizing with lowered threshold

     Davidson diagonalization with overlap
     ethr =  1.41E-08,  avg # of iterations =  1.3

[...]

     Volume is kept fixed: isostatic pressure set to zero

     bfgs converged in   3 scf cycles and   2 bfgs steps
     (criteria: energy < 0.10E-03, force < 0.10E-02, cell < 0.50E+00)

     End of BFGS Geometry Optimization

     Final enthalpy =    -554.9680512063 Ry
Begin final coordinates
     new unit-cell volume =    376.55707 a.u.^3 (    55.80000 Ang^3 )

CELL_PARAMETERS (alat=  8.36016997)
   0.997766576   0.000000000   0.000000000
   0.000000000   0.997766576   0.000000000
   0.000000000   0.000000000   0.647332752

ATOMIC_POSITIONS (crystal)
Mn0      0.000000000   0.000000000   0.000000000    0   0   0
Mn0      0.500000000   0.500000000   0.500000000    0   0   0
O1       0.304697947   0.304697947   0.000000000    1   1   0
O1      -0.304697947  -0.304697947   0.000000000    1   1   0
O1       0.804697947   0.195302053   0.500000000    1   1   0
O1       0.195302053   0.804697947   0.500000000    1   1   0
End final coordinates

     A final scf calculation at the relaxed structure.
     The G-vectors are recalculated for the final unit cell
     Results may differ from those at the preceding step.

     bravais-lattice index     =            0
     lattice parameter (alat)  =       8.3602  a.u.
     unit-cell volume          =     376.5571 (a.u.)^3
     number of atoms/cell      =            6
     number of atomic types    =            2
     number of electrons       =        54.00
     number of Kohn-Sham states=           78
     kinetic-energy cutoff     =      40.0000  Ry
     charge density cutoff     =     500.0000  Ry
     convergence threshold     =      1.0E-08
     mixing beta               =       0.7000
     number of iterations used =            8  plain     mixing
     Exchange-correlation      = SLA  PW   PBE  PBE ( 1 4 3 4 0)
     EXX-fraction              =        0.00

     celldm(1)=   8.360170  celldm(2)=   0.000000  celldm(3)=   0.000000
     celldm(4)=   0.000000  celldm(5)=   0.000000  celldm(6)=   0.000000

     crystal axes: (cart. coord. in units of alat)
               a(1) = (   0.997767   0.000000   0.000000 )
               a(2) = (   0.000000   0.997767   0.000000 )
               a(3) = (   0.000000   0.000000   0.647333 )

     reciprocal axes: (cart. coord. in units 2 pi/alat)
               b(1) = (  1.002238  0.000000  0.000000 )
               b(2) = (  0.000000  1.002238  0.000000 )
               b(3) = (  0.000000  0.000000  1.544801 )

     PseudoPot. # 1 for Mn read from file:
     /home/camp/zhonxu/pseudo/mn_pbe_v1.uspp.F.UPF
     MD5 check sum: 5fd7c7b5c956fd19902447332617373a
     Pseudo is Ultrasoft + core correction, Zval = 15.0
     Generated by new atomic code, or converted to UPF format
     Using radial grid of  859 points,  6 beta functions with:
                l(1) =   0
                l(2) =   0
                l(3) =   1
                l(4) =   1
                l(5) =   2
                l(6) =   2
     Q(r) pseudized with  6 coefficients,  rinner =    1.150   1.150   1.150
                                                       1.150   1.150

     PseudoPot. # 2 for O  read from file:
     /home/camp/zhonxu/pseudo/o_pbe_v1.01.uspp.F.UPF
     MD5 check sum: 2bcb18d16ea4b960afae9ec6d52f22d2
     Pseudo is Ultrasoft + core correction, Zval =  6.0
     Generated by new atomic code, or converted to UPF format
     Using radial grid of  737 points,  5 beta functions with:
                l(1) =   0
                l(2) =   0
                l(3) =   1
                l(4) =   1
                l(5) =   2
     Q(r) pseudized with  8 coefficients,  rinner =    0.900   0.900   0.900
                                                       0.900   0.900

     atomic species   valence    mass     pseudopotential
        Mn0           15.00    54.93800     Mn( 1.00)
        O1             6.00    15.99940     O ( 1.00)

     Starting magnetic structure
     atomic species   magnetization
        Mn0          0.600
        O1           0.000

     16 Sym. Ops., with inversion, found ( 8 have fractional translation)

   Cartesian axes

     site n.     atom                  positions (alat units)
         1           Mn0 tau(   1) = (   0.0000000   0.0000000   0.0000000  )
         2           Mn0 tau(   2) = (   0.4988833   0.4988833   0.3236664  )
         3           O1  tau(   3) = (   0.3040174   0.3040174   0.0000000  )
         4           O1  tau(   4) = (  -0.3040174  -0.3040174   0.0000000  )
         5           O1  tau(   5) = (   0.8029007   0.1948659   0.3236664  )
         6           O1  tau(   6) = (   0.1948659   0.8029007   0.3236664  )

     number of k points=    36  Methfessel-Paxton smearing, width (Ry)=  0.0100
                       cart. coord. in units 2pi/alat
        k(    1) = (   0.0000000   0.0000000   0.0000000), wk =   0.0080000
        k(    2) = (   0.0000000   0.0000000   0.3089601), wk =   0.0160000
        k(    3) = (   0.0000000   0.0000000   0.6179202), wk =   0.0160000
        k(    4) = (   0.0000000   0.2004477   0.0000000), wk =   0.0320000
        k(    5) = (   0.0000000   0.2004477   0.3089601), wk =   0.0640000
        k(    6) = (   0.0000000   0.2004477   0.6179202), wk =   0.0640000
        k(    7) = (   0.0000000   0.4008954   0.0000000), wk =   0.0320000
        k(    8) = (   0.0000000   0.4008954   0.3089601), wk =   0.0640000
        k(    9) = (   0.0000000   0.4008954   0.6179202), wk =   0.0640000
        k(   10) = (   0.2004477   0.2004477   0.0000000), wk =   0.0320000
        k(   11) = (   0.2004477   0.2004477   0.3089601), wk =   0.0640000
        k(   12) = (   0.2004477   0.2004477   0.6179202), wk =   0.0640000
        k(   13) = (   0.2004477   0.4008954   0.0000000), wk =   0.0640000
        k(   14) = (   0.2004477   0.4008954   0.3089601), wk =   0.1280000
        k(   15) = (   0.2004477   0.4008954   0.6179202), wk =   0.1280000
        k(   16) = (   0.4008954   0.4008954   0.0000000), wk =   0.0320000
        k(   17) = (   0.4008954   0.4008954   0.3089601), wk =   0.0640000
        k(   18) = (   0.4008954   0.4008954   0.6179202), wk =   0.0640000
        k(   19) = (   0.0000000   0.0000000   0.0000000), wk =   0.0080000
        k(   20) = (   0.0000000   0.0000000   0.3089601), wk =   0.0160000
        k(   21) = (   0.0000000   0.0000000   0.6179202), wk =   0.0160000
        k(   22) = (   0.0000000   0.2004477   0.0000000), wk =   0.0320000
        k(   23) = (   0.0000000   0.2004477   0.3089601), wk =   0.0640000
        k(   24) = (   0.0000000   0.2004477   0.6179202), wk =   0.0640000
        k(   25) = (   0.0000000   0.4008954   0.0000000), wk =   0.0320000
        k(   26) = (   0.0000000   0.4008954   0.3089601), wk =   0.0640000
        k(   27) = (   0.0000000   0.4008954   0.6179202), wk =   0.0640000
        k(   28) = (   0.2004477   0.2004477   0.0000000), wk =   0.0320000
        k(   29) = (   0.2004477   0.2004477   0.3089601), wk =   0.0640000
        k(   30) = (   0.2004477   0.2004477   0.6179202), wk =   0.0640000
        k(   31) = (   0.2004477   0.4008954   0.0000000), wk =   0.0640000
        k(   32) = (   0.2004477   0.4008954   0.3089601), wk =   0.1280000
        k(   33) = (   0.2004477   0.4008954   0.6179202), wk =   0.1280000
        k(   34) = (   0.4008954   0.4008954   0.0000000), wk =   0.0320000
        k(   35) = (   0.4008954   0.4008954   0.3089601), wk =   0.0640000
        k(   36) = (   0.4008954   0.4008954   0.6179202), wk =   0.0640000

     Largest allocated arrays     est. size (Mb)     dimensions
     Largest temporary arrays     est. size (Mb)     dimensions

     Check: negative/imaginary core charge=   -0.000063    0.000000

     Initial potential from superposition of free atoms

     starting charge   51.99998, renormalised to   54.00000
     Starting wfc are   42 randomized atomic wfcs

     Self-consistent Calculation

[...]

     total energy              =    -554.96810115 Ry
     Harris-Foulkes estimate   =    -554.96810116 Ry
     estimated scf accuracy    <       0.00000012 Ry

[...]

     iteration # 11     ecut=    40.00 Ry     beta=0.70
     Davidson diagonalization with overlap
     ethr =  2.13E-10,  avg # of iterations =  1.0

     End of self-consistent calculation

 ------ SPIN UP ------------

[...]

 ------ SPIN DOWN ----------

[...]

          k = 0.4009 0.4009 0.6179 (  1588 PWs)   bands (ev):

   -68.0276 -68.0275 -36.9824 -36.9823 -36.7876 -36.7873 -36.7039 -36.7035
    -7.4341  -7.3424  -7.1642  -7.1641   4.2277   4.3917   4.6853   4.6879
     5.8631   6.0424   6.7859   6.8418   8.4765   8.6453   8.9505   9.2832
    11.5657  11.8906  11.9348  12.0322  12.2679  12.6541  13.5445  14.1135
    14.3140  14.8748  22.6351  23.0035  24.4125  24.8730  26.0733  26.3382
    27.2416  27.4225  28.6952  28.8903  30.1539  30.5515  33.3357  35.1161
    35.3385  35.8712  36.3819  37.1287  40.9746  41.1083  41.3152  42.1429
    44.0469  44.4821  45.0809  45.9782  46.5214  46.7190  47.4010  48.0063
    48.1869  49.2874  50.9087  51.5171  51.5841  52.2549  53.0292  53.6570
    54.0273  54.2105  54.3120  55.1699  56.3786  57.1744

     the Fermi energy is    10.7025 ev

!    total energy              =    -554.96810116 Ry
     Harris-Foulkes estimate   =    -554.96810116 Ry
     estimated scf accuracy    <          3.2E-09 Ry

     The total energy is the sum of the following terms:

     one-electron contribution =    -272.52770119 Ry
     hartree contribution      =     163.79440265 Ry
     xc contribution           =     -81.05122804 Ry
     ewald contribution        =    -365.18383851 Ry
     smearing contrib. (-TS)   =       0.00026393 Ry

     total magnetization       =     6.00 Bohr mag/cell
     absolute magnetization    =     6.22 Bohr mag/cell

     convergence has been achieved in  11 iterations

     Forces acting on atoms (Ry/au):

     atom    1 type  1   force =     0.00000000    0.00000000    0.00000000
     atom    2 type  1   force =     0.00000000    0.00000000    0.00000000
     atom    3 type  2   force =     0.00038840    0.00038840    0.00000000
     atom    4 type  2   force =    -0.00038840   -0.00038840   -0.00000000
     atom    5 type  2   force =     0.00038840   -0.00038840    0.00000000
     atom    6 type  2   force =    -0.00038840    0.00038840   -0.00000000

     Total force =     0.001099     Total SCF correction =     0.000013

     entering subroutine stress ...

          total   stress  (Ry/bohr**3)                   (kbar)     P=   30.11
   0.00020172   0.00000000   0.00000000         29.67      0.00      0.00
   0.00000000   0.00020172   0.00000000          0.00     29.67      0.00
   0.00000000   0.00000000   0.00021054          0.00      0.00     30.97

     General routines

     Parallel routines

   This run was terminated on:  20:40:25  23Jan2014

   JOB DONE.