     Program PWSCF v.5.0.2 (svn rev. 9656) starts on  9May2014 at  6:46: 6

     Current dimensions of program PWSCF are:
     Max number of different atomic species (ntypx) = 10
     Max number of k-points (npk) =  40000
     Max angular momentum in pseudopotentials (lmaxx) =  3
     Reading input from pwscf.in
Warning: card &CELL ignored
Warning: card / ignored

     Subspace diagonalization in iterative solution of the eigenvalue problem:
     a serial algorithm will be used

     bravais-lattice index     =            0
     lattice parameter (alat)  =      10.1289  a.u.
     unit-cell volume          =    6836.7721 (a.u.)^3
     number of atoms/cell      =           30
     number of atomic types    =            3
     number of electrons       =       232.00
     number of Kohn-Sham states=          348
     kinetic-energy cutoff     =      40.0000  Ry
     charge density cutoff     =     500.0000  Ry
     convergence threshold     =      1.0E-06
     mixing beta               =       0.7000
     number of iterations used =            8  plain     mixing
     Exchange-correlation      = SLA  PW   PBE  PBE ( 1 4 3 4 0)
     EXX-fraction              =        0.00
     nstep                     =           50

     celldm(1)=  10.128932  celldm(2)=   0.000000  celldm(3)=   0.000000
     celldm(4)=   0.000000  celldm(5)=   0.000000  celldm(6)=   0.000000

     crystal axes: (cart. coord. in units of alat)
               a(1) = (   1.000000   0.000000   0.000000 )
               a(2) = (   0.000000   1.306037   0.000000 )
               a(3) = (   0.000000   0.000000   5.037380 )

     reciprocal axes: (cart. coord. in units 2 pi/alat)
               b(1) = (  1.000000  0.000000  0.000000 )
               b(2) = (  0.000000  0.765675  0.000000 )
               b(3) = (  0.000000  0.000000  0.198516 )

     PseudoPot. # 1 for O  read from file:
     /home/camp/zhonxu/pseudo/o_pbe_v1.01.uspp.F.UPF
     MD5 check sum: 2bcb18d16ea4b960afae9ec6d52f22d2
     Pseudo is Ultrasoft + core correction, Zval =  6.0
     Generated by new atomic code, or converted to UPF format
     Using radial grid of  737 points,  5 beta functions with:
                l(1) =   0
                l(2) =   0
                l(3) =   1
                l(4) =   1
                l(5) =   2
     Q(r) pseudized with  8 coefficients,  rinner =    0.900   0.900   0.900
                                                       0.900   0.900

     PseudoPot. # 2 for Re read from file:
     /home/camp/zhonxu/pseudo/re_pbe_v1.uspp.F.UPF
     MD5 check sum: 6f5a5dcaf9c96c20d0ffdde0de57afc6
     Pseudo is Ultrasoft + core correction, Zval = 15.0
     Generated by new atomic code, or converted to UPF format
     Using radial grid of  981 points,  8 beta functions with:
                l(1) =   0
                l(2) =   0
                l(3) =   1
                l(4) =   1
                l(5) =   2
                l(6) =   2
                l(7) =   3
                l(8) =   3
     Q(r) pseudized with  8 coefficients,  rinner =    1.000   1.000   1.000
                                                       1.000   1.000   1.000
                                                       1.000

     PseudoPot. # 3 for H  read from file:
     /home/camp/zhonxu/pseudo/h_pbe_v1.uspp.F.UPF
     MD5 check sum: 3408e3ff4ec8b0a4e358431e7e038a48
     Pseudo is Ultrasoft, Zval =  1.0
     Generated by new atomic code, or converted to UPF format
     Using radial grid of  615 points,  2 beta functions with:
                l(1) =   0
                l(2) =   0
     Q(r) pseudized with  8 coefficients,  rinner =    0.700

     atomic species   valence    mass     pseudopotential
        O0             6.00    15.99940     O ( 1.00)
        Re1           15.00   186.20700     Re( 1.00)
        H2             1.00     1.00794     H ( 1.00)

     Simplified LDA+U calculation (l_max = 2) with parameters (eV):
     atomic species    L          U    alpha       J0     beta
        Re1            2     2.0000   0.0000   0.0000   0.0000

     No symmetry found

   Cartesian axes

     site n.     atom                  positions (alat units)
         1           O0  tau(   1) = (   0.0000000   0.0000000   1.8688176  )
         2           O0  tau(   2) = (   0.0000000   0.6530184   1.9243296  )
         3           Re1 tau(   3) = (   0.2500000   0.6530184   2.2228951  )
         4           Re1 tau(   4) = (   0.0000000   0.0000000   2.2352367  )
         5           O0  tau(   5) = (   0.2500000   1.0187087   2.2249100  )
         6           O0  tau(   6) = (   0.2500000   0.2873281   2.2250611  )
         7           O0  tau(   7) = (   0.0000000   0.6530184   2.5071041  )
         8           O0  tau(   8) = (   0.0000000   0.0000000   2.5966183  )
         9           Re1 tau(   9) = (   0.2500000   0.0000000   2.8989619  )
        10           Re1 tau(  10) = (   0.0000000   0.6530184   2.8608793  )
        11           O0  tau(  11) = (   0.2500000   0.9403465   2.8908013  )
        12           O0  tau(  12) = (   0.2500000   0.3656903   2.8907005  )
        13           O0  tau(  13) = (   0.0000000   0.0000000   3.1620138  )
        14           O0  tau(  14) = (   0.5000000   0.0000000   1.8688176  )
        15           O0  tau(  15) = (   0.5000000   0.6530184   1.9243296  )
        16           Re1 tau(  16) = (   0.7500000   0.6530184   2.2228951  )
        17           Re1 tau(  17) = (   0.5000000   0.0000000   2.2352367  )
        18           O0  tau(  18) = (   0.7500000   1.0187087   2.2249604  )
        19           O0  tau(  19) = (   0.7500000   0.2873281   2.2250611  )
        20           O0  tau(  20) = (   0.5000000   0.6530184   2.5071041  )
        21           O0  tau(  21) = (   0.5000000   0.0000000   2.5966183  )
        22           Re1 tau(  22) = (   0.7500000   0.0000000   2.8989619  )
        23           Re1 tau(  23) = (   0.5000000   0.6530184   2.8609296  )
        24           O0  tau(  24) = (   0.7500000   0.9403465   2.8908013  )
        25           O0  tau(  25) = (   0.7500000   0.3656903   2.8907005  )
        26           O0  tau(  26) = (   0.5000000   0.0000000   3.1620138  )
        27           H2  tau(  27) = (  -0.0003800   0.8172395   1.8403061  )
        28           H2  tau(  28) = (   0.4996200   0.8172395   1.8403061  )
        29           H2  tau(  29) = (   0.1698700   0.0284977   1.7974380  )
        30           H2  tau(  30) = (   0.6698800   0.0284977   1.7974380  )

     number of k points=    10  Methfessel-Paxton smearing, width (Ry)=  0.0100
                       cart. coord. in units 2pi/alat
        k(    1) = (   0.0000000   0.0000000   0.0000000), wk =   0.1250000
        k(    2) = (   0.0000000   0.1914188   0.0000000), wk =   0.2500000
        k(    3) = (   0.0000000  -0.3828376   0.0000000), wk =   0.1250000
        k(    4) = (   0.2500000   0.0000000   0.0000000), wk =   0.2500000
        k(    5) = (   0.2500000   0.1914188   0.0000000), wk =   0.2500000
        k(    6) = (   0.2500000  -0.3828376   0.0000000), wk =   0.2500000
        k(    7) = (  -0.5000000   0.0000000   0.0000000), wk =   0.1250000
        k(    8) = (  -0.5000000   0.1914188   0.0000000), wk =   0.2500000
        k(    9) = (  -0.5000000  -0.3828376   0.0000000), wk =   0.1250000
        k(   10) = (  -0.2500000   0.1914188   0.0000000), wk =   0.2500000

     Largest allocated arrays     est. size (Mb)     dimensions
     Largest temporary arrays     est. size (Mb)     dimensions

     Check: negative/imaginary core charge=   -0.000003    0.000000

     Initial potential from superposition of free atoms
     Check: negative starting charge=   -0.237311

     starting charge  227.99958, renormalised to  232.00000

     negative rho (up, down):  0.241E+00 0.000E+00
     Number of +U iterations with fixed ns =  0
     Starting occupations:
 --- enter write_ns ---
 LDA+U parameters:
U( 2)     =  2.00000000
alpha( 2) =  0.00000000
atom    3   Tr[ns(na)] =   5.00000
    eigenvalues:
  0.500  0.500  0.500  0.500  0.500
    eigenvectors:
  1.000  0.000  0.000  0.000  0.000
  0.000  1.000  0.000  0.000  0.000
  0.000  0.000  1.000  0.000  0.000
  0.000  0.000  0.000  1.000  0.000
  0.000  0.000  0.000  0.000  1.000
    occupations:
  0.500  0.000  0.000  0.000  0.000
  0.000  0.500  0.000  0.000  0.000
  0.000  0.000  0.500  0.000  0.000
  0.000  0.000  0.000  0.500  0.000
  0.000  0.000  0.000  0.000  0.500
atom    4   Tr[ns(na)] =   5.00000
    eigenvalues:
  0.500  0.500  0.500  0.500  0.500
    eigenvectors:
  1.000  0.000  0.000  0.000  0.000
  0.000  1.000  0.000  0.000  0.000
  0.000  0.000  1.000  0.000  0.000
  0.000  0.000  0.000  1.000  0.000
  0.000  0.000  0.000  0.000  1.000
    occupations:
  0.500  0.000  0.000  0.000  0.000
  0.000  0.500  0.000  0.000  0.000
  0.000  0.000  0.500  0.000  0.000
  0.000  0.000  0.000  0.500  0.000
  0.000  0.000  0.000  0.000  0.500
atom    9   Tr[ns(na)] =   5.00000
    eigenvalues:
  0.500  0.500  0.500  0.500  0.500
    eigenvectors:
  1.000  0.000  0.000  0.000  0.000
  0.000  1.000  0.000  0.000  0.000
  0.000  0.000  1.000  0.000  0.000
  0.000  0.000  0.000  1.000  0.000
  0.000  0.000  0.000  0.000  1.000
    occupations:
  0.500  0.000  0.000  0.000  0.000
  0.000  0.500  0.000  0.000  0.000
  0.000  0.000  0.500  0.000  0.000
  0.000  0.000  0.000  0.500  0.000
  0.000  0.000  0.000  0.000  0.500
atom   10   Tr[ns(na)] =   5.00000
    eigenvalues:
  0.500  0.500  0.500  0.500  0.500
    eigenvectors:
  1.000  0.000  0.000  0.000  0.000
  0.000  1.000  0.000  0.000  0.000
  0.000  0.000  1.000  0.000  0.000
  0.000  0.000  0.000  1.000  0.000
  0.000  0.000  0.000  0.000  1.000
    occupations:
  0.500  0.000  0.000  0.000  0.000
  0.000  0.500  0.000  0.000  0.000
  0.000  0.000  0.500  0.000  0.000
  0.000  0.000  0.000  0.500  0.000
  0.000  0.000  0.000  0.000  0.500
atom   16   Tr[ns(na)] =   5.00000
    eigenvalues:
  0.500  0.500  0.500  0.500  0.500
    eigenvectors:
  1.000  0.000  0.000  0.000  0.000
  0.000  1.000  0.000  0.000  0.000
  0.000  0.000  1.000  0.000  0.000
  0.000  0.000  0.000  1.000  0.000
  0.000  0.000  0.000  0.000  1.000
    occupations:
  0.500  0.000  0.000  0.000  0.000
  0.000  0.500  0.000  0.000  0.000
  0.000  0.000  0.500  0.000  0.000
  0.000  0.000  0.000  0.500  0.000
  0.000  0.000  0.000  0.000  0.500
atom   17   Tr[ns(na)] =   5.00000
    eigenvalues:
  0.500  0.500  0.500  0.500  0.500
    eigenvectors:
  1.000  0.000  0.000  0.000  0.000
  0.000  1.000  0.000  0.000  0.000
  0.000  0.000  1.000  0.000  0.000
  0.000  0.000  0.000  1.000  0.000
  0.000  0.000  0.000  0.000  1.000
    occupations:
  0.500  0.000  0.000  0.000  0.000
  0.000  0.500  0.000  0.000  0.000
  0.000  0.000  0.500  0.000  0.000
  0.000  0.000  0.000  0.500  0.000
  0.000  0.000  0.000  0.000  0.500
atom   22   Tr[ns(na)] =   5.00000
    eigenvalues:
  0.500  0.500  0.500  0.500  0.500
    eigenvectors:
  1.000  0.000  0.000  0.000  0.000
  0.000  1.000  0.000  0.000  0.000
  0.000  0.000  1.000  0.000  0.000
  0.000  0.000  0.000  1.000  0.000
  0.000  0.000  0.000  0.000  1.000
    occupations:
[...]
  0.000  0.006  0.615  0.001 -0.000
 -0.021 -0.000  0.001  0.774 -0.000
  0.000 -0.001 -0.000 -0.000  0.566
atom    9   Tr[ns(na)] =   6.53135
    eigenvalues:
  0.590  0.603  0.616  0.713  0.744
    eigenvectors:
  0.261  0.000  0.000  0.002  0.736
  0.000  1.000  0.000  0.000  0.000
  0.000  0.000  1.000  0.000  0.000
  0.738  0.000  0.000  0.001  0.261
  0.000  0.000  0.000  0.997  0.003
    occupations:
  0.704  0.000 -0.001 -0.067  0.001
  0.000  0.603  0.000  0.000  0.000
 -0.001  0.000  0.616  0.001  0.000
 -0.067  0.000  0.001  0.630 -0.001
  0.001  0.000  0.000 -0.001  0.713
atom   10   Tr[ns(na)] =   6.52454
    eigenvalues:
  0.485  0.537  0.696  0.757  0.787
    eigenvectors:
  0.995  0.000  0.000  0.005  0.000
  0.000  0.000  0.000  0.000  1.000
  0.000  0.000  1.000  0.000  0.000
  0.005  0.000  0.000  0.995  0.000
  0.000  1.000  0.000  0.000  0.000
    occupations:
  0.486  0.000  0.000 -0.018 -0.000
  0.000  0.787  0.000 -0.000  0.001
  0.000  0.000  0.696  0.000  0.000
 -0.018 -0.000  0.000  0.756 -0.000
 -0.000  0.001  0.000 -0.000  0.537
atom   16   Tr[ns(na)] =   6.57370
    eigenvalues:
  0.533  0.568  0.651  0.754  0.781
    eigenvectors:
  0.000  0.378  0.007  0.616  0.000
  0.999  0.000  0.000  0.000  0.001
  0.000  0.000  0.987  0.013  0.000
  0.000  0.622  0.006  0.372  0.000
  0.001  0.000  0.000  0.000  0.999
    occupations:
  0.683  0.000  0.010 -0.089 -0.000
  0.000  0.533  0.000 -0.000 -0.008
  0.010  0.000  0.652 -0.006  0.001
 -0.089 -0.000 -0.006  0.638  0.000
 -0.000 -0.008  0.001  0.000  0.781
atom   17   Tr[ns(na)] =   6.52503
    eigenvalues:
  0.566  0.604  0.614  0.701  0.776
    eigenvectors:
  0.000  0.984  0.000  0.001  0.015
  0.000  0.001  0.004  0.995  0.000
  0.000  0.000  0.995  0.004  0.000
  0.000  0.015  0.000  0.000  0.985
  1.000  0.000  0.000  0.000  0.000
    occupations:
  0.607  0.003  0.000 -0.021  0.000
  0.003  0.701  0.006 -0.000 -0.001
  0.000  0.006  0.615  0.001 -0.000
 -0.021 -0.000  0.001  0.774 -0.000
  0.000 -0.001 -0.000 -0.000  0.566
atom   22   Tr[ns(na)] =   6.53160
    eigenvalues:
  0.590  0.603  0.616  0.713  0.744
    eigenvectors:
  0.261  0.000  0.000  0.002  0.736
  0.000  1.000  0.000  0.000  0.000
  0.000  0.000  1.000  0.000  0.000
  0.738  0.000  0.000  0.001  0.261
  0.000  0.000  0.000  0.997  0.003
    occupations:
  0.704  0.000 -0.001 -0.067  0.001
  0.000  0.603  0.000  0.000  0.000
 -0.001  0.000  0.616  0.001  0.000
 -0.067  0.000  0.001  0.630 -0.001
  0.001  0.000  0.000 -0.001  0.713
atom   23   Tr[ns(na)] =   6.52530
    eigenvalues:
  0.485  0.537  0.696  0.757  0.787
    eigenvectors:
  0.995  0.000  0.000  0.005  0.000
  0.000  0.000  0.000  0.000  1.000
  0.000  0.000  1.000  0.000  0.000
  0.005  0.000  0.000  0.995  0.000
  0.000  1.000  0.000  0.000  0.000
    occupations:
  0.486  0.000  0.000 -0.018 -0.000
  0.000  0.787  0.000 -0.000  0.001
  0.000  0.000  0.696  0.000  0.000
 -0.018 -0.000  0.000  0.756 -0.000
 -0.000  0.001  0.000 -0.000  0.537
N of occupied +U levels =  52.3100600
 --- exit write_ns ---

     Threshold (ethr) on eigenvalues was too large:
     Diagonalizing with lowered threshold

     Davidson diagonalization with overlap
     ethr =  1.72E-08,  avg # of iterations =  2.0

[...]

     total energy              =   -2141.76099242 Ry
     Harris-Foulkes estimate   =   -2141.76099243 Ry
     estimated scf accuracy    <       0.00000006 Ry

     iteration # 14     ecut=    40.00 Ry     beta=0.70
     Davidson diagonalization with overlap
     ethr =  1.23E-11,  avg # of iterations =  1.0

     negative rho (up, down):  0.240E+00 0.000E+00

     End of self-consistent calculation
 --- enter write_ns ---
 LDA+U parameters:
U( 2)     =  2.00000000
alpha( 2) =  0.00000000
atom    3   Tr[ns(na)] =   6.57145
    eigenvalues:
  0.533  0.568  0.650  0.754  0.781
    eigenvectors:
  0.000  0.378  0.007  0.616  0.000
  0.999  0.000  0.000  0.000  0.001
  0.000  0.000  0.987  0.013  0.000
  0.000  0.622  0.006  0.372  0.000
  0.001  0.000  0.000  0.000  0.999
    occupations:
  0.683  0.000  0.010 -0.089 -0.000
  0.000  0.533  0.000 -0.000 -0.008
  0.010  0.000  0.651 -0.006  0.001
 -0.089 -0.000 -0.006  0.638  0.000
 -0.000 -0.008  0.001  0.000  0.780
atom    4   Tr[ns(na)] =   6.52438
    eigenvalues:
  0.566  0.604  0.614  0.701  0.776
    eigenvectors:
  0.000  0.984  0.000  0.001  0.015
  0.000  0.001  0.004  0.995  0.000
  0.000  0.000  0.995  0.004  0.000
  0.000  0.015  0.000  0.000  0.985
  1.000  0.000  0.000  0.000  0.000
    occupations:
  0.607  0.003  0.000 -0.021  0.000
  0.003  0.701  0.006 -0.000 -0.001
  0.000  0.006  0.615  0.001 -0.000
 -0.021 -0.000  0.001  0.774 -0.000
  0.000 -0.001 -0.000 -0.000  0.566
atom    9   Tr[ns(na)] =   6.53166
    eigenvalues:
  0.590  0.603  0.616  0.713  0.744
    eigenvectors:
  0.261  0.000  0.000  0.002  0.736
  0.000  1.000  0.000  0.000  0.000
  0.000  0.000  1.000  0.000  0.000
  0.738  0.000  0.000  0.001  0.261
  0.000  0.000  0.000  0.997  0.003
    occupations:
  0.704  0.000 -0.001 -0.067  0.001
  0.000  0.603  0.000  0.000  0.000
 -0.001  0.000  0.616  0.001  0.000
 -0.067  0.000  0.001  0.630 -0.001
  0.001  0.000  0.000 -0.001  0.713
atom   10   Tr[ns(na)] =   6.52662
    eigenvalues:
  0.485  0.537  0.697  0.757  0.787
    eigenvectors:
  0.995  0.000  0.000  0.005  0.000
  0.000  0.000  0.000  0.000  1.000
  0.000  0.000  1.000  0.000  0.000
  0.005  0.000  0.000  0.995  0.000
  0.000  1.000  0.000  0.000  0.000
    occupations:
  0.486  0.000  0.000 -0.018 -0.000
  0.000  0.787  0.000 -0.000  0.001
  0.000  0.000  0.697  0.000  0.000
 -0.018 -0.000  0.000  0.756 -0.000
 -0.000  0.001  0.000 -0.000  0.537
atom   16   Tr[ns(na)] =   6.57148
    eigenvalues:
  0.533  0.568  0.650  0.754  0.781
    eigenvectors:
  0.000  0.378  0.007  0.616  0.000
  0.999  0.000  0.000  0.000  0.001
  0.000  0.000  0.987  0.013  0.000
  0.000  0.622  0.006  0.372  0.000
  0.001  0.000  0.000  0.000  0.999
    occupations:
  0.683  0.000  0.010 -0.089 -0.000
  0.000  0.533  0.000 -0.000 -0.008
  0.010  0.000  0.651 -0.006  0.001
 -0.089 -0.000 -0.006  0.638  0.000
 -0.000 -0.008  0.001  0.000  0.780
atom   17   Tr[ns(na)] =   6.52438
    eigenvalues:
  0.566  0.604  0.614  0.701  0.776
    eigenvectors:
  0.000  0.984  0.000  0.001  0.015
  0.000  0.001  0.004  0.995  0.000
  0.000  0.000  0.995  0.004  0.000
  0.000  0.015  0.000  0.000  0.985
  1.000  0.000  0.000  0.000  0.000
    occupations:
  0.607  0.003  0.000 -0.021  0.000
  0.003  0.701  0.006 -0.000 -0.001
  0.000  0.006  0.615  0.001 -0.000
 -0.021 -0.000  0.001  0.774 -0.000
  0.000 -0.001 -0.000 -0.000  0.566
atom   22   Tr[ns(na)] =   6.53168
    eigenvalues:
  0.590  0.603  0.616  0.713  0.744
    eigenvectors:
  0.261  0.000  0.000  0.002  0.736
  0.000  1.000  0.000  0.000  0.000
  0.000  0.000  1.000  0.000  0.000
  0.738  0.000  0.000  0.001  0.261
  0.000  0.000  0.000  0.997  0.003
    occupations:
  0.704  0.000 -0.001 -0.067  0.001
  0.000  0.603  0.000  0.000  0.000
 -0.001  0.000  0.616  0.001  0.000
 -0.067  0.000  0.001  0.630 -0.001
  0.001  0.000  0.000 -0.001  0.713
atom   23   Tr[ns(na)] =   6.52662
    eigenvalues:
  0.485  0.537  0.697  0.757  0.787
    eigenvectors:
  0.995  0.000  0.000  0.005  0.000
  0.000  0.000  0.000  0.000  1.000
  0.000  0.000  1.000  0.000  0.000
  0.005  0.000  0.000  0.995  0.000
  0.000  1.000  0.000  0.000  0.000
    occupations:
  0.486  0.000  0.000 -0.018 -0.000
  0.000  0.787  0.000 -0.000  0.001
  0.000  0.000  0.697  0.000  0.000
 -0.018 -0.000  0.000  0.756 -0.000
 -0.000  0.001  0.000 -0.000  0.537
N of occupied +U levels =  52.3082598
 --- exit write_ns ---

[...]

          k = 0.2500-0.3828 0.0000 ( 29202 PWs)   bands (ev):

[...]

          k =-0.2500 0.1914 0.0000 ( 29229 PWs)   bands (ev):

   -81.3092 -81.2702 -81.0397 -80.9998 -80.7927 -80.7534 -80.6989 -80.6593
   -43.4041 -43.2315 -43.2143 -43.1948 -43.1670 -43.1128 -43.0335 -42.9715
   -42.9133 -42.8806 -42.8491 -42.8469 -42.7879 -42.7745 -42.7442 -42.6889
   -42.6634 -42.6446 -42.6287 -42.6017 -42.5601 -42.5444 -42.2921 -42.2241
   -20.8778 -20.4381 -20.3536 -20.2020 -20.0723 -19.9522 -19.7639 -19.7629
   -19.7390 -19.5153 -19.4508 -19.3721 -19.3188 -19.1096 -19.0904 -18.8993
   -18.2786 -18.0747  -9.0254  -8.7393  -8.7307  -8.6428  -8.5026  -8.3179
    -8.2801  -8.1200  -7.9095  -7.8924  -7.8175  -7.7314  -7.4920  -7.3461
    -7.3261  -6.9966  -6.7796  -6.6733  -6.5319  -6.5041  -6.4380  -6.1583
    -5.9953  -5.9724  -5.7788  -5.6840  -5.5649  -5.5478  -5.5050  -5.2009
    -5.1081  -5.0175  -4.8934  -4.8635  -4.7636  -4.6722  -4.6694  -4.5875
    -4.4904  -4.4248  -4.2326  -4.0279  -3.9825  -3.8940  -3.7419  -3.6124
    -3.6011  -3.3909  -3.3247  -3.1778  -3.1094  -2.8670  -2.7849  -2.6334
    -2.2523  -2.1485  -1.9667  -1.3105  -1.0789  -0.9297  -0.8668  -0.2794
    -0.1056   0.3303   0.3874   0.4539   0.7248   0.7662   0.8517   1.1108
     1.2138   1.2765   1.3759   1.5364   1.5683   1.7132   1.8485   1.9131
     2.2830   2.3757   3.6543   3.6882   3.8355   3.9016   4.0669   4.2172
     4.4795   4.5541   4.7181   4.7377   4.8738   4.9118   5.2307   5.4076
     5.7832   5.8073   6.0063   6.1818   6.2321   6.4394   6.6225   6.7199
     6.8699   6.9863   7.2420   7.2762   7.4375   7.6944   7.7652   8.0237
     8.1303   8.3000   8.3273   8.4619   8.5741   8.6241   8.7354   8.8877
     9.0817   9.3451   9.3922   9.4011   9.5997   9.6637   9.7285   9.7499
     9.8152   9.9134   9.9491  10.1246  10.1613  10.2641  10.3128  10.3850
    10.4010  10.6280  10.7250  10.8036  10.9275  11.0198  11.0385  11.1866
    11.3912  11.4300  11.4478  11.6680  11.7791  11.8735  11.9611  12.1069
    12.3199  12.3576  12.4916  12.5120  12.6215  12.6542  12.6796  12.8038
    12.8532  12.9742  13.0010  13.1890  13.2239  13.3345  13.4808  13.5406
    13.6159  13.6671  13.7821  13.8030  13.8911  13.8966  13.9687  14.0371
    14.0913  14.2181  14.2514  14.3149  14.4379  14.5131  14.5526  14.5621
    14.6911  14.7812  14.7876  14.8541  14.8803  14.9294  14.9960  15.0184
    15.0997  15.2109  15.2821  15.3938  15.4944  15.5632  15.6356  15.7286
    15.8644  15.9457  16.0801  16.1018  16.1789  16.2222  16.2630  16.4122
    16.5290  16.5610  16.6093  16.6823  16.7696  16.8456  16.8571  16.9999
    17.1227  17.1311  17.1927  17.3008  17.3574  17.4628  17.5525  17.6667
    17.6940  17.7160  17.7436  17.8849  17.9624  18.0446  18.0608  18.2089
    18.2119  18.2925  18.3067  18.3739  18.4989  18.5152  18.6398  18.6612
    18.7668  18.8700  18.8842  18.9801  19.0558  19.0632  19.1449  19.3068
    19.4302  19.5023  19.5681  19.6503  19.7582  19.8865  19.9613  19.9891
    20.0401  20.0945  20.2148  20.2184  20.4336  20.4631  20.5603  20.5691
    20.6124  20.7263  20.7539  20.8022  20.8431  20.9036  20.9619  21.0627
    21.1420  21.1790  21.2737  21.3106  21.3808  21.4578  21.4980  21.5046
    21.6200  21.6416  21.7555  21.8220  21.9170  21.9288  22.0851  22.1090
    22.1615  22.2517  22.2589  22.3524  22.3691  22.4051  22.4523  22.5275
    22.5413  22.6311  22.6367  22.7022

     the Fermi energy is     0.4751 ev

!    total energy              =   -2141.76099242 Ry
     Harris-Foulkes estimate   =   -2141.76099242 Ry
     estimated scf accuracy    <          2.3E-09 Ry

     The total energy is the sum of the following terms:

     one-electron contribution =  -23493.53481921 Ry
     hartree contribution      =   11761.86895617 Ry
     xc contribution           =    -587.16052159 Ry
     ewald contribution        =   10175.78625990 Ry
     Hubbard energy            =       1.28109571 Ry
     smearing contrib. (-TS)   =      -0.00196340 Ry

     convergence has been achieved in  14 iterations

     Forces acting on atoms (Ry/au):

     negative rho (up, down):  0.240E+00 0.000E+00
     atom    1 type  1   force =    -0.00402987   -0.00687591   -0.00027345
     atom    2 type  1   force =     0.00004381    0.00697983    0.00048471
     atom    3 type  2   force =    -0.00006581   -0.00504456   -0.00024694
     atom    4 type  2   force =     0.00155147    0.00821369    0.00052486
     atom    5 type  1   force =     0.00190588    0.01442702    0.00060507
     atom    6 type  1   force =     0.00021699   -0.01594395    0.00040517
     atom    7 type  1   force =    -0.00019424    0.00010029   -0.00042962
     atom    8 type  1   force =     0.00278102   -0.00110745    0.00098439
     atom    9 type  2   force =    -0.00156258    0.00055896   -0.00084282
     atom   10 type  2   force =     0.00002158   -0.00064861    0.00043886
     atom   11 type  1   force =     0.00010948   -0.01304975   -0.00093009
     atom   12 type  1   force =    -0.00015397    0.01237021   -0.00075514
     atom   13 type  1   force =    -0.00048844    0.00048028   -0.00044544
     atom   14 type  1   force =    -0.00402221   -0.00687521   -0.00025834
     atom   15 type  1   force =     0.00004515    0.00696540    0.00048787
     atom   16 type  2   force =    -0.00009685   -0.00504216   -0.00025863
     atom   17 type  2   force =     0.00155840    0.00821268    0.00052836
     atom   18 type  1   force =     0.00190946    0.01442876    0.00057560
     atom   19 type  1   force =     0.00021780   -0.01594866    0.00040562
     atom   20 type  1   force =    -0.00020644    0.00010101   -0.00051461
     atom   21 type  1   force =     0.00277226   -0.00110849    0.00097187
     atom   22 type  2   force =    -0.00158493    0.00055771   -0.00085487
     atom   23 type  2   force =     0.00002190   -0.00064835    0.00049663
     atom   24 type  1   force =     0.00009569   -0.01305095   -0.00092776
     atom   25 type  1   force =    -0.00016801    0.01237129   -0.00075254
     atom   26 type  1   force =    -0.00049441    0.00048221   -0.00044156
     atom   27 type  3   force =     0.00000386   -0.00057346   -0.00019741
     atom   28 type  3   force =     0.00000422   -0.00056867   -0.00020088
     atom   29 type  3   force =    -0.00009862    0.00011718    0.00071379
     atom   30 type  3   force =    -0.00009259    0.00011966    0.00070732

     Total force =     0.003407     Total SCF correction =     0.000284

     bfgs converged in   4 scf cycles and   3 bfgs steps
     (criteria: energy < 0.10E-03, force < 0.10E-02)

     End of BFGS Geometry Optimization

     Final energy   =   -2141.7609924216 Ry
Begin final coordinates

ATOMIC_POSITIONS (crystal)
O0       0.000000000   0.000000000   0.371226416    0   0   1
O0       0.000000000   0.500000000   0.382119097    0   0   1
Re1      0.250000000   0.500000000   0.441378515    0   0   1
Re1      0.000000000   0.000000000   0.443750812    0   0   1
O0       0.250000000   0.780000000   0.441762903    0   0   1
O0       0.250000000   0.220000000   0.441755004    0   0   1
O0       0.000000000   0.500000000   0.497666447    0   0   1
O0       0.000000000   0.000000000   0.515237071    0   0   1
Re1      0.250000000   0.000000000   0.575474825    0   0   1
Re1      0.000000000   0.500000000   0.567748241    0   0   1
O0       0.250000000   0.720000000   0.573803327    0   0   1
O0       0.250000000   0.280000000   0.573809254    0   0   1
O0       0.000000000   0.000000000   0.627631635    0   0   1
O0       0.500000000   0.000000000   0.371225373    0   0   1
O0       0.500000000   0.500000000   0.382119072    0   0   1
Re1      0.750000000   0.500000000   0.441379430    0   0   1
Re1      0.500000000   0.000000000   0.443750404    0   0   1
O0       0.750000000   0.780000000   0.441767656    0   0   1
O0       0.750000000   0.220000000   0.441754841    0   0   1
O0       0.500000000   0.500000000   0.497669123    0   0   1
O0       0.500000000   0.000000000   0.515237054    0   0   1
Re1      0.750000000   0.000000000   0.575475751    0   0   1
Re1      0.500000000   0.500000000   0.567747525    0   0   1
O0       0.750000000   0.720000000   0.573803390    0   0   1
O0       0.750000000   0.280000000   0.573809180    0   0   1
O0       0.500000000   0.000000000   0.627632006    0   0   1
H2      -0.000375061   0.625334046   0.365311913
H2       0.499624359   0.625333583   0.365311954
H2       0.169603409   0.021847931   0.356900671
H2       0.669605868   0.021847721   0.356901112
End final coordinates

     General routines

     Parallel routines
     Hubbard U routines

   This run was terminated on:  11:40:18   9May2014

   JOB DONE.
Running PBS batch system epilogue script
Job id: 340863.audhumbla.fysik.dtu.dk
Username: zhonxu
Groupname: campgst
Jobname: ReO2/Eads-2-layers/bare-U-2.0
Sessionid: 18626
Queuename: verylong
Accounting:
This job has allocated the following 16 nodes:
a108 a108 a108 a108 a108 a108 a108 a108 a052 a052 a052 a052 a052 a052 a052 a052
Finished epilogue job 340863.audhumbla.fysik.dtu.dk for zhonxu