     Program PWSCF v.5.0.2 (svn rev. 9656) starts on  2May2014 at  0:26: 6

     Current dimensions of program PWSCF are:
     Max number of different atomic species (ntypx) = 10
     Max number of k-points (npk) =  40000
     Max angular momentum in pseudopotentials (lmaxx) =  3
     Reading input from pwscf.in
Warning: card &CELL ignored
Warning: card / ignored

     Subspace diagonalization in iterative solution of the eigenvalue problem:
     a serial algorithm will be used

     bravais-lattice index     =            0
     lattice parameter (alat)  =      10.1289  a.u.
     unit-cell volume          =    6836.7721 (a.u.)^3
     number of atoms/cell      =           32
     number of atomic types    =            3
     number of electrons       =       239.00
     number of Kohn-Sham states=          358
     kinetic-energy cutoff     =      40.0000  Ry
     charge density cutoff     =     500.0000  Ry
     convergence threshold     =      1.0E-06
     mixing beta               =       0.7000
     number of iterations used =            8  plain     mixing
     Exchange-correlation      = SLA  PW   PBE  PBE ( 1 4 3 4 0)
     EXX-fraction              =        0.00
     nstep                     =           50

     celldm(1)=  10.128932  celldm(2)=   0.000000  celldm(3)=   0.000000
     celldm(4)=   0.000000  celldm(5)=   0.000000  celldm(6)=   0.000000

     crystal axes: (cart. coord. in units of alat)
               a(1) = (   1.000000   0.000000   0.000000 )
               a(2) = (   0.000000   1.306037   0.000000 )
               a(3) = (   0.000000   0.000000   5.037380 )

     reciprocal axes: (cart. coord. in units 2 pi/alat)
               b(1) = (  1.000000  0.000000  0.000000 )
               b(2) = (  0.000000  0.765675  0.000000 )
               b(3) = (  0.000000  0.000000  0.198516 )

     PseudoPot. # 1 for O  read from file:
     /home/camp/zhonxu/pseudo/o_pbe_v1.01.uspp.F.UPF
     MD5 check sum: 2bcb18d16ea4b960afae9ec6d52f22d2
     Pseudo is Ultrasoft + core correction, Zval =  6.0
     Generated by new atomic code, or converted to UPF format
     Using radial grid of  737 points,  5 beta functions with:
                l(1) =   0
                l(2) =   0
                l(3) =   1
                l(4) =   1
                l(5) =   2
     Q(r) pseudized with  8 coefficients,  rinner =    0.900   0.900   0.900
                                                       0.900   0.900

     PseudoPot. # 2 for Re read from file:
     /home/camp/zhonxu/pseudo/re_pbe_v1.uspp.F.UPF
     MD5 check sum: 6f5a5dcaf9c96c20d0ffdde0de57afc6
     Pseudo is Ultrasoft + core correction, Zval = 15.0
     Generated by new atomic code, or converted to UPF format
     Using radial grid of  981 points,  8 beta functions with:
                l(1) =   0
                l(2) =   0
                l(3) =   1
                l(4) =   1
                l(5) =   2
                l(6) =   2
                l(7) =   3
                l(8) =   3
     Q(r) pseudized with  8 coefficients,  rinner =    1.000   1.000   1.000
                                                       1.000   1.000   1.000
                                                       1.000

     PseudoPot. # 3 for H  read from file:
     /home/camp/zhonxu/pseudo/h_pbe_v1.uspp.F.UPF
     MD5 check sum: 3408e3ff4ec8b0a4e358431e7e038a48
     Pseudo is Ultrasoft, Zval =  1.0
     Generated by new atomic code, or converted to UPF format
     Using radial grid of  615 points,  2 beta functions with:
                l(1) =   0
                l(2) =   0
     Q(r) pseudized with  8 coefficients,  rinner =    0.700

     atomic species   valence    mass     pseudopotential
        O0             6.00    15.99940     O ( 1.00)
        Re1           15.00   186.20700     Re( 1.00)
        H2             1.00     1.00794     H ( 1.00)

     Simplified LDA+U calculation (l_max = 2) with parameters (eV):
     atomic species    L          U    alpha       J0     beta
        Re1            2     2.5000   0.0000   0.0000   0.0000

     No symmetry found

   Cartesian axes

     site n.     atom                  positions (alat units)
         1           O0  tau(   1) = (   0.0000000   0.0000000   1.8669538  )
         2           O0  tau(   2) = (   0.0000000   0.6530184   1.9246318  )
         3           Re1 tau(   3) = (   0.2500000   0.6530184   2.2252626  )
         4           Re1 tau(   4) = (   0.0000000   0.0000000   2.2335239  )
         5           O0  tau(   5) = (   0.2500000   1.0187087   2.2252626  )
         6           O0  tau(   6) = (   0.2500000   0.2873281   2.2245574  )
         7           O0  tau(   7) = (   0.0000000   0.6530184   2.5039809  )
         8           O0  tau(   8) = (   0.0000000   0.0000000   2.5944019  )
         9           Re1 tau(   9) = (   0.2500000   0.0000000   2.8956372  )
        10           Re1 tau(  10) = (   0.0000000   0.6530184   2.8532728  )
        11           O0  tau(  11) = (   0.2500000   0.9403465   2.8863684  )
        12           O0  tau(  12) = (   0.2500000   0.3656903   2.8866706  )
        13           O0  tau(  13) = (   0.0000000   0.0000000   3.1589410  )
        14           O0  tau(  14) = (   0.5000000   0.0000000   1.8671553  )
        15           O0  tau(  15) = (   0.5000000   0.6530184   1.9260926  )
        16           Re1 tau(  16) = (   0.7500000   0.6530184   2.2254138  )
        17           Re1 tau(  17) = (   0.5000000   0.0000000   2.2327683  )
        18           O0  tau(  18) = (   0.7500000   1.0187087   2.2250108  )
        19           O0  tau(  19) = (   0.7500000   0.2873281   2.2249100  )
        20           O0  tau(  20) = (   0.5000000   0.6530184   2.5136527  )
        21           O0  tau(  21) = (   0.5000000   0.0000000   2.5937470  )
        22           Re1 tau(  22) = (   0.7500000   0.0000000   2.8949319  )
        23           Re1 tau(  23) = (   0.5000000   0.6530184   2.8846557  )
        24           O0  tau(  24) = (   0.7500000   0.9403465   2.8822881  )
        25           O0  tau(  25) = (   0.7500000   0.3656903   2.8822881  )
        26           O0  tau(  26) = (   0.5000000   0.0000000   3.1556667  )
        27           H2  tau(  27) = (  -0.0003600   0.8163644   1.8395505  )
        28           H2  tau(  28) = (   0.4996200   0.8138568   1.8363769  )
        29           H2  tau(  29) = (   0.1695000   0.0302217   1.7958260  )
        30           H2  tau(  30) = (   0.6704500   0.0285761   1.7967327  )
        31           O0  tau(  31) = (   0.5277600   0.6525874   3.2436194  )
        32           H2  tau(  32) = (   0.3788200   0.6519344   3.3501096  )

     number of k points=    10  Methfessel-Paxton smearing, width (Ry)=  0.0100
                       cart. coord. in units 2pi/alat
        k(    1) = (   0.0000000   0.0000000   0.0000000), wk =   0.1250000
        k(    2) = (   0.0000000   0.1914188   0.0000000), wk =   0.2500000
        k(    3) = (   0.0000000  -0.3828376   0.0000000), wk =   0.1250000
        k(    4) = (   0.2500000   0.0000000   0.0000000), wk =   0.2500000
        k(    5) = (   0.2500000   0.1914188   0.0000000), wk =   0.2500000
        k(    6) = (   0.2500000  -0.3828376   0.0000000), wk =   0.2500000
        k(    7) = (  -0.5000000   0.0000000   0.0000000), wk =   0.1250000
        k(    8) = (  -0.5000000   0.1914188   0.0000000), wk =   0.2500000
        k(    9) = (  -0.5000000  -0.3828376   0.0000000), wk =   0.1250000
        k(   10) = (  -0.2500000   0.1914188   0.0000000), wk =   0.2500000

     Largest allocated arrays     est. size (Mb)     dimensions
     Largest temporary arrays     est. size (Mb)     dimensions

     Check: negative/imaginary core charge=   -0.000003    0.000000

     Initial potential from superposition of free atoms
     Check: negative starting charge=   -0.237247

     starting charge  234.99957, renormalised to  239.00000

     negative rho (up, down):  0.241E+00 0.000E+00
     Number of +U iterations with fixed ns =  0
     Starting occupations:
 --- enter write_ns ---
 LDA+U parameters:
U( 2)     =  2.50000000
alpha( 2) =  0.00000000
atom    3   Tr[ns(na)] =   5.00000
    eigenvalues:
  0.500  0.500  0.500  0.500  0.500
    eigenvectors:
  1.000  0.000  0.000  0.000  0.000
  0.000  1.000  0.000  0.000  0.000
  0.000  0.000  1.000  0.000  0.000
  0.000  0.000  0.000  1.000  0.000
  0.000  0.000  0.000  0.000  1.000
    occupations:
  0.500  0.000  0.000  0.000  0.000
  0.000  0.500  0.000  0.000  0.000
  0.000  0.000  0.500  0.000  0.000
  0.000  0.000  0.000  0.500  0.000
  0.000  0.000  0.000  0.000  0.500
atom    4   Tr[ns(na)] =   5.00000
    eigenvalues:
  0.500  0.500  0.500  0.500  0.500
    eigenvectors:
  1.000  0.000  0.000  0.000  0.000
  0.000  1.000  0.000  0.000  0.000
  0.000  0.000  1.000  0.000  0.000
  0.000  0.000  0.000  1.000  0.000
  0.000  0.000  0.000  0.000  1.000
    occupations:
  0.500  0.000  0.000  0.000  0.000
  0.000  0.500  0.000  0.000  0.000
  0.000  0.000  0.500  0.000  0.000
  0.000  0.000  0.000  0.500  0.000
  0.000  0.000  0.000  0.000  0.500
atom    9   Tr[ns(na)] =   5.00000
    eigenvalues:
  0.500  0.500  0.500  0.500  0.500
    eigenvectors:
  1.000  0.000  0.000  0.000  0.000
  0.000  1.000  0.000  0.000  0.000
  0.000  0.000  1.000  0.000  0.000
  0.000  0.000  0.000  1.000  0.000
  0.000  0.000  0.000  0.000  1.000
    occupations:
  0.500  0.000  0.000  0.000  0.000
  0.000  0.500  0.000  0.000  0.000
  0.000  0.000  0.500  0.000  0.000
  0.000  0.000  0.000  0.500  0.000
  0.000  0.000  0.000  0.000  0.500
atom   10   Tr[ns(na)] =   5.00000
    eigenvalues:
  0.500  0.500  0.500  0.500  0.500
    eigenvectors:
  1.000  0.000  0.000  0.000  0.000
  0.000  1.000  0.000  0.000  0.000
  0.000  0.000  1.000  0.000  0.000
  0.000  0.000  0.000  1.000  0.000
  0.000  0.000  0.000  0.000  1.000
    occupations:
  0.500  0.000  0.000  0.000  0.000
  0.000  0.500  0.000  0.000  0.000
  0.000  0.000  0.500  0.000  0.000
  0.000  0.000  0.000  0.500  0.000
  0.000  0.000  0.000  0.000  0.500
atom   16   Tr[ns(na)] =   5.00000
    eigenvalues:
  0.500  0.500  0.500  0.500  0.500
    eigenvectors:
  1.000  0.000  0.000  0.000  0.000
  0.000  1.000  0.000  0.000  0.000
  0.000  0.000  1.000  0.000  0.000
  0.000  0.000  0.000  1.000  0.000
  0.000  0.000  0.000  0.000  1.000
    occupations:
  0.500  0.000  0.000  0.000  0.000
  0.000  0.500  0.000  0.000  0.000
  0.000  0.000  0.500  0.000  0.000
  0.000  0.000  0.000  0.500  0.000
  0.000  0.000  0.000  0.000  0.500
atom   17   Tr[ns(na)] =   5.00000
    eigenvalues:
  0.500  0.500  0.500  0.500  0.500
    eigenvectors:
  1.000  0.000  0.000  0.000  0.000
  0.000  1.000  0.000  0.000  0.000
  0.000  0.000  1.000  0.000  0.000
  0.000  0.000  0.000  1.000  0.000
  0.000  0.000  0.000  0.000  1.000
    occupations:
  0.500  0.000  0.000  0.000  0.000
  0.000  0.500  0.000  0.000  0.000
  0.000  0.000  0.500  0.000  0.000
  0.000  0.000  0.000  0.500  0.000
  0.000  0.000  0.000  0.000  0.500
atom   22   Tr[ns(na)] =   5.00000
    eigenvalues:
  0.500  0.500  0.500  0.500  0.500
    eigenvectors:
  1.000  0.000  0.000  0.000  0.000
[...]
  0.607  0.003  0.000 -0.021  0.001
  0.003  0.707  0.007 -0.000 -0.001
  0.000  0.007  0.619  0.001 -0.000
 -0.021 -0.000  0.001  0.772 -0.000
  0.001 -0.001 -0.000 -0.000  0.565
atom    9   Tr[ns(na)] =   6.53973
    eigenvalues:
  0.593  0.606  0.612  0.709  0.750
    eigenvectors:
  0.261  0.000  0.000  0.001  0.738
  0.001  0.999  0.000  0.000  0.000
  0.000  0.000  0.991  0.009  0.000
  0.739  0.000  0.000  0.000  0.261
  0.000  0.000  0.009  0.990  0.001
    occupations:
  0.709 -0.000 -0.001 -0.069  0.001
 -0.000  0.606  0.000  0.000  0.000
 -0.001  0.000  0.612  0.000 -0.009
 -0.069  0.000  0.000  0.634 -0.001
  0.001  0.000 -0.009 -0.001  0.708
atom   10   Tr[ns(na)] =   6.50930
    eigenvalues:
  0.490  0.537  0.651  0.755  0.823
    eigenvectors:
  0.997  0.000  0.000  0.002  0.000
  0.000  0.000  0.000  0.000  0.999
  0.000  0.000  1.000  0.000  0.000
  0.002  0.000  0.000  0.998  0.000
  0.000  1.000  0.000  0.000  0.000
    occupations:
  0.490 -0.007 -0.000 -0.012 -0.000
 -0.007  0.823  0.000 -0.001  0.001
 -0.000  0.000  0.651 -0.000  0.001
 -0.012 -0.001 -0.000  0.754 -0.000
 -0.000  0.001  0.001 -0.000  0.537
atom   16   Tr[ns(na)] =   6.57162
    eigenvalues:
  0.540  0.569  0.633  0.764  0.780
    eigenvectors:
  0.000  0.361  0.005  0.632  0.001
  0.998  0.000  0.000  0.000  0.001
  0.000  0.000  0.990  0.010  0.000
  0.000  0.639  0.005  0.356  0.001
  0.001  0.000  0.000  0.002  0.997
    occupations:
  0.693  0.003  0.011 -0.093 -0.001
  0.003  0.540 -0.001 -0.002 -0.008
  0.011 -0.001  0.634 -0.007  0.002
 -0.093 -0.002 -0.007  0.639  0.001
 -0.001 -0.008  0.002  0.001  0.780
atom   17   Tr[ns(na)] =   6.53437
    eigenvalues:
  0.567  0.607  0.609  0.704  0.780
    eigenvectors:
  0.000  0.973  0.012  0.001  0.014
  0.000  0.000  0.005  0.994  0.000
  0.000  0.013  0.983  0.005  0.000
  0.000  0.014  0.000  0.000  0.986
  1.000  0.000  0.000  0.000  0.000
    occupations:
  0.610  0.003  0.000 -0.020  0.000
  0.003  0.704  0.006 -0.000 -0.002
  0.000  0.006  0.610  0.001 -0.000
 -0.020 -0.000  0.001  0.777 -0.000
  0.000 -0.002 -0.000 -0.000  0.567
atom   22   Tr[ns(na)] =   6.53774
    eigenvalues:
  0.593  0.605  0.609  0.709  0.753
    eigenvectors:
  0.262  0.000  0.000  0.002  0.736
  0.000  0.997  0.003  0.000  0.000
  0.000  0.003  0.992  0.005  0.000
  0.738  0.000  0.000  0.001  0.261
  0.000  0.000  0.005  0.992  0.003
    occupations:
  0.711  0.001 -0.001 -0.070  0.002
  0.001  0.605  0.000 -0.000  0.000
 -0.001  0.000  0.610  0.000  0.007
 -0.070 -0.000  0.000  0.635 -0.001
  0.002  0.000  0.007 -0.001  0.709
atom   23   Tr[ns(na)] =   6.53608
    eigenvalues:
  0.546  0.555  0.596  0.784  0.787
    eigenvectors:
  0.000  0.000  0.994  0.006  0.000
  0.000  0.000  0.001  0.328  0.671
  0.985  0.015  0.000  0.000  0.000
  0.000  0.000  0.005  0.666  0.329
  0.015  0.985  0.000  0.000  0.000
    occupations:
  0.597  0.006 -0.001 -0.014  0.000
  0.006  0.786  0.000  0.002  0.001
 -0.001  0.000  0.546  0.001 -0.001
 -0.014  0.002  0.001  0.784 -0.000
  0.000  0.001 -0.001 -0.000  0.555
N of occupied +U levels =  52.3415951
 --- exit write_ns ---

     Threshold (ethr) on eigenvalues was too large:
     Diagonalizing with lowered threshold

     Davidson diagonalization with overlap
     ethr =  7.79E-09,  avg # of iterations =  2.0

[...]

     total energy              =   -2174.94421950 Ry
     Harris-Foulkes estimate   =   -2174.94421951 Ry
     estimated scf accuracy    <       0.00000002 Ry

     iteration # 16     ecut=    40.00 Ry     beta=0.70
     Davidson diagonalization with overlap
     ethr =  7.96E-12,  avg # of iterations =  1.0

     negative rho (up, down):  0.243E+00 0.000E+00

     End of self-consistent calculation
 --- enter write_ns ---
 LDA+U parameters:
U( 2)     =  2.50000000
alpha( 2) =  0.00000000
atom    3   Tr[ns(na)] =   6.56976
    eigenvalues:
  0.540  0.569  0.630  0.765  0.781
    eigenvectors:
  0.000  0.360  0.005  0.634  0.001
  0.999  0.000  0.000  0.000  0.001
  0.000  0.000  0.990  0.010  0.000
  0.000  0.640  0.005  0.355  0.001
  0.001  0.000  0.000  0.002  0.997
    occupations:
  0.693 -0.003  0.011 -0.093  0.001
 -0.003  0.540  0.001  0.002 -0.008
  0.011  0.001  0.631 -0.007 -0.002
 -0.093  0.002 -0.007  0.639 -0.000
  0.001 -0.008 -0.002 -0.000  0.781
atom    4   Tr[ns(na)] =   6.54167
    eigenvalues:
  0.565  0.604  0.618  0.708  0.775
    eigenvectors:
  0.000  0.984  0.000  0.001  0.015
  0.000  0.001  0.007  0.992  0.000
  0.000  0.000  0.993  0.007  0.000
  0.000  0.015  0.000  0.000  0.985
  1.000  0.000  0.000  0.000  0.000
    occupations:
  0.607  0.003  0.000 -0.021  0.001
  0.003  0.707  0.007 -0.000 -0.001
  0.000  0.007  0.619  0.001 -0.000
 -0.021 -0.000  0.001  0.772 -0.000
  0.001 -0.001 -0.000 -0.000  0.565
atom    9   Tr[ns(na)] =   6.54115
    eigenvalues:
  0.593  0.606  0.612  0.709  0.750
    eigenvectors:
  0.261  0.000  0.000  0.001  0.738
  0.000  0.999  0.000  0.000  0.000
  0.000  0.000  0.991  0.009  0.000
  0.739  0.000  0.000  0.000  0.261
  0.000  0.000  0.009  0.991  0.001
    occupations:
  0.709 -0.000 -0.001 -0.069  0.001
 -0.000  0.606  0.000  0.000  0.000
 -0.001  0.000  0.613  0.000 -0.009
 -0.069  0.000  0.000  0.634 -0.001
  0.001  0.000 -0.009 -0.001  0.709
atom   10   Tr[ns(na)] =   6.50863
    eigenvalues:
  0.489  0.537  0.651  0.755  0.823
    eigenvectors:
  0.997  0.000  0.000  0.002  0.000
  0.000  0.000  0.000  0.000  0.999
  0.000  0.000  1.000  0.000  0.000
  0.002  0.000  0.000  0.998  0.000
  0.000  1.000  0.000  0.000  0.000
    occupations:
  0.490 -0.007 -0.000 -0.012 -0.000
 -0.007  0.823  0.000 -0.001  0.001
 -0.000  0.000  0.651 -0.000  0.001
 -0.012 -0.001 -0.000  0.754 -0.000
 -0.000  0.001  0.001 -0.000  0.537
atom   16   Tr[ns(na)] =   6.57056
    eigenvalues:
  0.540  0.569  0.633  0.764  0.780
    eigenvectors:
  0.000  0.361  0.005  0.632  0.001
  0.999  0.000  0.000  0.000  0.001
  0.000  0.000  0.990  0.010  0.000
  0.000  0.639  0.005  0.356  0.001
  0.001  0.000  0.000  0.002  0.997
    occupations:
  0.693  0.003  0.011 -0.093 -0.001
  0.003  0.540 -0.001 -0.002 -0.008
  0.011 -0.001  0.634 -0.007  0.002
 -0.093 -0.002 -0.007  0.639  0.001
 -0.001 -0.008  0.002  0.001  0.780
atom   17   Tr[ns(na)] =   6.53396
    eigenvalues:
  0.567  0.607  0.609  0.704  0.780
    eigenvectors:
  0.000  0.972  0.014  0.001  0.014
  0.000  0.000  0.005  0.994  0.000
  0.000  0.014  0.981  0.005  0.000
  0.000  0.014  0.000  0.000  0.986
  1.000  0.000  0.000  0.000  0.000
    occupations:
  0.610  0.003  0.000 -0.020  0.000
  0.003  0.704  0.006 -0.000 -0.002
  0.000  0.006  0.610  0.001 -0.000
 -0.020 -0.000  0.001  0.777 -0.000
  0.000 -0.002 -0.000 -0.000  0.567
atom   22   Tr[ns(na)] =   6.53898
    eigenvalues:
  0.593  0.605  0.609  0.710  0.753
    eigenvectors:
  0.262  0.000  0.000  0.002  0.735
  0.000  0.997  0.003  0.000  0.000
  0.000  0.003  0.992  0.005  0.000
  0.738  0.000  0.000  0.001  0.261
  0.000  0.000  0.005  0.992  0.003
    occupations:
  0.711  0.001 -0.001 -0.070  0.002
  0.001  0.605  0.000 -0.000  0.000
 -0.001  0.000  0.610  0.000  0.007
 -0.070 -0.000  0.000  0.635 -0.001
  0.002  0.000  0.007 -0.001  0.709
atom   23   Tr[ns(na)] =   6.53591
    eigenvalues:
  0.546  0.555  0.596  0.784  0.787
    eigenvectors:
  0.000  0.000  0.994  0.006  0.000
  0.000  0.000  0.001  0.367  0.632
  0.985  0.014  0.000  0.000  0.000
  0.000  0.000  0.005  0.627  0.368
  0.014  0.986  0.000  0.000  0.000
    occupations:
  0.597  0.006 -0.001 -0.014  0.000
  0.006  0.786  0.000  0.002  0.001
 -0.001  0.000  0.546  0.001 -0.001
 -0.014  0.002  0.001  0.784 -0.000
  0.000  0.001 -0.001 -0.000  0.555
N of occupied +U levels =  52.3406263
 --- exit write_ns ---

[...]

          k = 0.2500-0.3828 0.0000 ( 29202 PWs)   bands (ev):

[...]

          k =-0.2500 0.1914 0.0000 ( 29229 PWs)   bands (ev):

   -81.2410 -81.1479 -81.0158 -80.9856 -80.9757 -80.6753 -80.6395 -80.6360
   -43.3134 -43.1715 -43.1626 -43.1415 -43.0535 -43.0475 -43.0155 -43.0047
   -42.9593 -42.9075 -42.8517 -42.8506 -42.7825 -42.7453 -42.6985 -42.6923
   -42.6479 -42.6221 -42.6127 -42.5879 -42.5298 -42.5263 -42.2098 -42.1384
   -20.8026 -20.3581 -20.2854 -20.1729 -20.0920 -19.8135 -19.7661 -19.7278
   -19.5670 -19.5231 -19.4133 -19.3500 -19.2732 -19.1046 -19.0698 -19.0292
   -18.8849 -18.3353 -18.0555  -9.0045  -8.7363  -8.6439  -8.6261  -8.5008
    -8.3171  -8.2880  -8.1414  -8.0507  -7.9512  -7.8234  -7.7679  -7.5152
    -7.3755  -7.3293  -7.0207  -6.8667  -6.7295  -6.6290  -6.5433  -6.4836
    -6.3729  -6.0923  -6.0017  -5.8056  -5.7500  -5.6853  -5.5263  -5.4492
    -5.3354  -5.1377  -4.9925  -4.9703  -4.8567  -4.7837  -4.7590  -4.7024
    -4.6013  -4.5499  -4.4664  -4.3524  -4.1361  -3.9611  -3.8813  -3.7891
    -3.7126  -3.6194  -3.5610  -3.3786  -3.3355  -3.2723  -3.1722  -3.0514
    -2.8246  -2.7345  -2.6558  -2.5108  -2.2123  -2.0273  -1.9536  -1.1618
    -0.9840  -0.9296  -0.7895  -0.1391  -0.0517   0.3791   0.4648   0.5843
     0.6763   0.8237   0.9110   1.1494   1.3468   1.4057   1.5526   1.5651
     1.7264   1.8618   1.9029   2.1651   2.4466   3.7086   3.7290   3.8299
     3.8777   4.0450   4.1040   4.3578   4.5420   4.6236   4.7761   4.9151
     4.9783   5.2203   5.3465   5.6298   5.8623   5.9266   6.1213   6.3025
     6.4646   6.5304   6.7162   6.8733   7.0019   7.1046   7.2969   7.5351
     7.6888   7.7702   7.9376   8.0985   8.2650   8.3651   8.4921   8.5806
     8.6406   8.7247   8.9615   9.0334   9.1249   9.3805   9.4239   9.5943
     9.6373   9.6831   9.8210   9.8940   9.9277   9.9885  10.0976  10.2001
    10.2371  10.3575  10.3904  10.4630  10.5467  10.7289  10.7603  10.8714
    11.0025  11.1147  11.1825  11.2845  11.4613  11.5614  11.6809  11.7384
    11.8174  11.9324  12.0396  12.2144  12.3400  12.4755  12.5905  12.6147
    12.6611  12.7612  12.8068  12.8877  12.9424  13.0405  13.0951  13.2277
    13.2793  13.4196  13.5049  13.6369  13.6769  13.7474  13.8262  13.8692
    13.9457  13.9582  14.0387  14.0958  14.1364  14.2504  14.3405  14.4071
    14.4939  14.5218  14.5787  14.6726  14.7097  14.7753  14.8510  14.8962
    14.9524  14.9870  15.0137  15.0889  15.1370  15.2125  15.3081  15.4348
    15.5257  15.6105  15.6475  15.7331  15.8386  15.9439  16.0730  16.1448
    16.1815  16.2391  16.3121  16.4711  16.5355  16.5866  16.6061  16.6970
    16.7852  16.8755  16.9508  17.0175  17.1116  17.2050  17.2611  17.2755
    17.3566  17.4912  17.6078  17.6590  17.7290  17.7869  17.8293  17.9462
    17.9795  18.0302  18.1268  18.1863  18.2670  18.2863  18.4021  18.4667
    18.5356  18.5841  18.6442  18.7032  18.7626  18.8606  18.9235  19.0352
    19.0901  19.2297  19.3133  19.3621  19.4830  19.5542  19.6262  19.6825
    19.7522  19.8422  19.9430  20.0196  20.1475  20.1935  20.2522  20.3228
    20.4610  20.5185  20.5878  20.6284  20.6859  20.7622  20.7866  20.8388
    20.8877  20.9582  20.9777  21.1163  21.1577  21.1987  21.2514  21.3213
    21.4031  21.4589  21.5128  21.6159  21.6511  21.7054  21.7699  21.8419
    21.9318  21.9976  22.0837  22.1263  22.2192  22.2467  22.3220  22.3475
    22.4011  22.4442  22.4930  22.5424  22.6229  22.6657  22.6965  22.7301
    22.7933  22.8467  22.8813  22.9418  22.9831  23.0793

     the Fermi energy is     0.5014 ev

!    total energy              =   -2174.94421950 Ry
     Harris-Foulkes estimate   =   -2174.94421950 Ry
     estimated scf accuracy    <          3.6E-09 Ry

     The total energy is the sum of the following terms:

     one-electron contribution =  -24272.27091280 Ry
     hartree contribution      =   12154.38029944 Ry
     xc contribution           =    -595.05006622 Ry
     ewald contribution        =   10536.39608564 Ry
     Hubbard energy            =       1.60061721 Ry
     smearing contrib. (-TS)   =      -0.00024277 Ry

     convergence has been achieved in  16 iterations

     Forces acting on atoms (Ry/au):

     negative rho (up, down):  0.243E+00 0.000E+00
     atom    1 type  1   force =    -0.00586686   -0.00684899    0.00015886
     atom    2 type  1   force =     0.00008188    0.00565879    0.00033242
     atom    3 type  2   force =     0.03106564   -0.00385783   -0.00000595
     atom    4 type  2   force =     0.00171602    0.00713277    0.00073068
     atom    5 type  1   force =     0.00276329    0.01003532    0.00058965
     atom    6 type  1   force =     0.00115610   -0.01017431    0.00041271
     atom    7 type  1   force =     0.00346530    0.00003979    0.00089959
     atom    8 type  1   force =     0.00315771   -0.00175831    0.00080329
     atom    9 type  2   force =    -0.02611270    0.00186917   -0.00059188
     atom   10 type  2   force =    -0.00759859   -0.00077238   -0.00035382
     atom   11 type  1   force =    -0.00660804   -0.00621076   -0.00094811
     atom   12 type  1   force =    -0.00667029    0.00650969   -0.00084947
     atom   13 type  1   force =    -0.00041155   -0.00019317   -0.00044713
     atom   14 type  1   force =    -0.00264736   -0.00603283    0.00000924
     atom   15 type  1   force =     0.00024522    0.00444619    0.00046861
     atom   16 type  2   force =    -0.03178723   -0.00379263    0.00005923
     atom   17 type  2   force =     0.00132834    0.00744776    0.00053038
     atom   18 type  1   force =     0.00101857    0.01045316    0.00050964
     atom   19 type  1   force =    -0.00085145   -0.01053169    0.00042406
     atom   20 type  1   force =    -0.00248620   -0.00154828   -0.00084199
     atom   21 type  1   force =     0.00175818   -0.00159978    0.00091168
     atom   22 type  2   force =     0.02190061    0.00192537   -0.00072789
     atom   23 type  2   force =     0.00029587   -0.00055134   -0.00052045
     atom   24 type  1   force =     0.00992422   -0.00452581   -0.00088874
     atom   25 type  1   force =     0.00978768    0.00436717   -0.00092839
     atom   26 type  1   force =     0.00078307   -0.00074897   -0.00022619
     atom   27 type  3   force =     0.00000971   -0.00022408    0.00048623
     atom   28 type  3   force =    -0.00002238   -0.00039010    0.00021440
     atom   29 type  3   force =     0.00013530    0.00011797    0.00010225
     atom   30 type  3   force =     0.00036145   -0.00010445    0.00013708
     atom   31 type  1   force =    -0.00033081   -0.00004447    0.00033548
     atom   32 type  3   force =     0.00043930   -0.00009299   -0.00078547

     Total force =     0.003414     Total SCF correction =     0.000217

     bfgs converged in   5 scf cycles and   4 bfgs steps
     (criteria: energy < 0.10E-03, force < 0.10E-02)

     End of BFGS Geometry Optimization

     Final energy   =   -2174.9442195015 Ry
Begin final coordinates

ATOMIC_POSITIONS (crystal)
O0       0.000000000   0.000000000   0.370943573    0   0   1
O0       0.000000000   0.500000000   0.382184048    0   0   1
Re1      0.250000000   0.500000000   0.441842623    0   0   1
Re1      0.000000000   0.000000000   0.443511968    0   0   1
O0       0.250000000   0.780000000   0.441855096    0   0   1
O0       0.250000000   0.220000000   0.441669814    0   0   1
O0       0.000000000   0.500000000   0.496912028    0   0   1
O0       0.000000000   0.000000000   0.514767566    0   0   1
Re1      0.250000000   0.000000000   0.574807409    0   0   1
Re1      0.000000000   0.500000000   0.565924912    0   0   1
O0       0.250000000   0.720000000   0.572883610    0   0   1
O0       0.250000000   0.280000000   0.572965150    0   0   1
O0       0.000000000   0.000000000   0.627060626    0   0   1
O0       0.500000000   0.000000000   0.370962024    0   0   1
O0       0.500000000   0.500000000   0.382575025    0   0   1
Re1      0.750000000   0.500000000   0.441847597    0   0   1
Re1      0.500000000   0.000000000   0.443251813    0   0   1
O0       0.750000000   0.780000000   0.441793707    0   0   1
O0       0.750000000   0.220000000   0.441747148    0   0   1
O0       0.500000000   0.500000000   0.499269349    0   0   1
O0       0.500000000   0.000000000   0.514603253    0   0   1
Re1      0.750000000   0.000000000   0.574629130    0   0   1
Re1      0.500000000   0.500000000   0.572772712    0   0   1
O0       0.750000000   0.720000000   0.572100101    0   0   1
O0       0.750000000   0.280000000   0.572093669    0   0   1
O0       0.500000000   0.000000000   0.626347498    0   0   1
H2      -0.000353890   0.624879306   0.365233724
H2       0.499612507   0.622718978   0.364607836
H2       0.168874217   0.023107631   0.356532493
H2       0.669975051   0.021755492   0.356723407
O0       0.527641966   0.499643441   0.643660373
H2       0.379009158   0.499130218   0.664950720
End final coordinates

     General routines

     Parallel routines
     Hubbard U routines

   This run was terminated on:   7:14:41   2May2014

   JOB DONE.