     Program PWSCF v.5.0.2 (svn rev. 9656) starts on 29May2014 at 23: 7: 4

     Current dimensions of program PWSCF are:
     Max number of different atomic species (ntypx) = 10
     Max number of k-points (npk) =  40000
     Max angular momentum in pseudopotentials (lmaxx) =  3
     Reading input from pwscf.in
Warning: card &CELL ignored
Warning: card / ignored

     Subspace diagonalization in iterative solution of the eigenvalue problem:
     a serial algorithm will be used

     bravais-lattice index     =            0
     lattice parameter (alat)  =      12.0187  a.u.
     unit-cell volume          =    7280.5819 (a.u.)^3
     number of atoms/cell      =           33
     number of atomic types    =            3
     number of electrons       =       245.00
     number of Kohn-Sham states=          367
     kinetic-energy cutoff     =      40.0000  Ry
     charge density cutoff     =     500.0000  Ry
     convergence threshold     =      1.0E-06
     mixing beta               =       0.7000
     number of iterations used =            8  plain     mixing
     Exchange-correlation      = SLA  PW   PBE  PBE ( 1 4 3 4 0)
     EXX-fraction              =        0.00
     nstep                     =           50

     celldm(1)=  12.018658  celldm(2)=   0.000000  celldm(3)=   0.000000
     celldm(4)=   0.000000  celldm(5)=   0.000000  celldm(6)=   0.000000

     crystal axes: (cart. coord. in units of alat)
               a(1) = (   1.000000   0.000000   0.000000 )
               a(2) = (   0.000000   1.009517   0.000000 )
               a(3) = (   0.000000   0.000000   4.154171 )

     reciprocal axes: (cart. coord. in units 2 pi/alat)
               b(1) = (  1.000000  0.000000  0.000000 )
               b(2) = (  0.000000  0.990572  0.000000 )
               b(3) = (  0.000000  0.000000  0.240722 )

     PseudoPot. # 1 for O  read from file:
     /home/camp/zhonxu/pseudo/o_pbe_v1.01.uspp.F.UPF
     MD5 check sum: 2bcb18d16ea4b960afae9ec6d52f22d2
     Pseudo is Ultrasoft + core correction, Zval =  6.0
     Generated by new atomic code, or converted to UPF format
     Using radial grid of  737 points,  5 beta functions with:
                l(1) =   0
                l(2) =   0
                l(3) =   1
                l(4) =   1
                l(5) =   2
     Q(r) pseudized with  8 coefficients,  rinner =    0.900   0.900   0.900
                                                       0.900   0.900

     PseudoPot. # 2 for Ir read from file:
     /home/camp/zhonxu/pseudo/ir_pbe_v1.uspp.F.UPF
     MD5 check sum: abf987a9674477536ede83817f8f8b70
     Pseudo is Ultrasoft + core correction, Zval = 15.0
     Generated by new atomic code, or converted to UPF format
     Using radial grid of  983 points,  7 beta functions with:
                l(1) =   0
                l(2) =   0
                l(3) =   1
                l(4) =   1
                l(5) =   1
                l(6) =   2
                l(7) =   2
     Q(r) pseudized with  8 coefficients,  rinner =    1.350   1.350   1.350
                                                       1.350   1.350

     PseudoPot. # 3 for H  read from file:
     /home/camp/zhonxu/pseudo/h_pbe_v1.uspp.F.UPF
     MD5 check sum: 3408e3ff4ec8b0a4e358431e7e038a48
     Pseudo is Ultrasoft, Zval =  1.0
     Generated by new atomic code, or converted to UPF format
     Using radial grid of  615 points,  2 beta functions with:
                l(1) =   0
                l(2) =   0
     Q(r) pseudized with  8 coefficients,  rinner =    0.700

     atomic species   valence    mass     pseudopotential
        O0             6.00    15.99940     O ( 1.00)
        Ir1           15.00   192.22000     Ir( 1.00)
        H2             1.00     1.00794     H ( 1.00)

     Simplified LDA+U calculation (l_max = 2) with parameters (eV):
     atomic species    L          U    alpha       J0     beta
        Ir1            2     4.5000   0.0000   0.0000   0.0000

     No symmetry found

   Cartesian axes

     site n.     atom                  positions (alat units)
         1           O0  tau(   1) = (   0.0000000   0.0000000   1.5694875  )
         2           O0  tau(   2) = (   0.0000000   0.5047586   1.6702677  )
         3           Ir1 tau(   3) = (   0.2500000   0.5047586   1.8805934  )
         4           Ir1 tau(   4) = (   0.0000000   0.0000000   1.8807595  )
         5           O0  tau(   5) = (   0.2500000   0.8177090   1.8801779  )
         6           O0  tau(   6) = (   0.2500000   0.1918083   1.8787655  )
         7           O0  tau(   7) = (   0.0000000   0.5047586   2.0695666  )
         8           O0  tau(   8) = (   0.0000000   0.0000000   2.1948564  )
         9           Ir1 tau(   9) = (   0.2500000   0.0000000   2.3901025  )
        10           Ir1 tau(  10) = (   0.0000000   0.5047586   2.3742751  )
        11           O0  tau(  11) = (   0.2500000   0.6965669   2.3856575  )
        12           O0  tau(  12) = (   0.2500000   0.3129503   2.3949628  )
        13           O0  tau(  13) = (   0.0000000   0.0000000   2.5754200  )
        14           O0  tau(  14) = (   0.5000000   0.0000000   1.5694875  )
        15           O0  tau(  15) = (   0.5000000   0.5047586   1.6704338  )
        16           Ir1 tau(  16) = (   0.7500000   0.5047586   1.8805934  )
        17           Ir1 tau(  17) = (   0.5000000   0.0000000   1.8805518  )
        18           O0  tau(  18) = (   0.7500000   0.8177090   1.8801364  )
        19           O0  tau(  19) = (   0.7500000   0.1918083   1.8788486  )
        20           O0  tau(  20) = (   0.5000000   0.5047586   2.0759640  )
        21           O0  tau(  21) = (   0.5000000   0.0000000   2.1945241  )
        22           Ir1 tau(  22) = (   0.7500000   0.0000000   2.3900609  )
        23           Ir1 tau(  23) = (   0.5000000   0.5047586   2.3998648  )
        24           O0  tau(  24) = (   0.7500000   0.6965669   2.3856575  )
        25           O0  tau(  25) = (   0.7500000   0.3129503   2.3949628  )
        26           O0  tau(  26) = (   0.5000000   0.0000000   2.5728445  )
        27           H2  tau(  27) = (   0.0000400   0.6420328   1.5957418  )
        28           H2  tau(  28) = (   0.4999400   0.6424971   1.5965311  )
        29           H2  tau(  29) = (   0.1432100   0.0360095   1.5217560  )
        30           H2  tau(  30) = (   0.6436700   0.0339703   1.5215899  )
        31           O0  tau(  31) = (   0.4997900   0.5432313   2.6993805  )
        32           O0  tau(  32) = (   0.5001800   0.3480815   2.8224271  )
        33           H2  tau(  33) = (   0.4999800   0.4114489   2.9642920  )

     number of k points=    10  Methfessel-Paxton smearing, width (Ry)=  0.0100
                       cart. coord. in units 2pi/alat
        k(    1) = (   0.0000000   0.0000000   0.0000000), wk =   0.1250000
        k(    2) = (   0.0000000   0.2476431   0.0000000), wk =   0.2500000
        k(    3) = (   0.0000000  -0.4952862   0.0000000), wk =   0.1250000
        k(    4) = (   0.2500000   0.0000000   0.0000000), wk =   0.2500000
        k(    5) = (   0.2500000   0.2476431   0.0000000), wk =   0.2500000
        k(    6) = (   0.2500000  -0.4952862   0.0000000), wk =   0.2500000
        k(    7) = (  -0.5000000   0.0000000   0.0000000), wk =   0.1250000
        k(    8) = (  -0.5000000   0.2476431   0.0000000), wk =   0.2500000
        k(    9) = (  -0.5000000  -0.4952862   0.0000000), wk =   0.1250000
        k(   10) = (  -0.2500000   0.2476431   0.0000000), wk =   0.2500000

     Largest allocated arrays     est. size (Mb)     dimensions
     Largest temporary arrays     est. size (Mb)     dimensions

     Check: negative/imaginary core charge=   -0.000003    0.000000

     Initial potential from superposition of free atoms
     Check: negative starting charge=   -3.336869

     starting charge  240.99967, renormalised to  245.00000

     negative rho (up, down):  0.339E+01 0.000E+00
     Number of +U iterations with fixed ns =  0
     Starting occupations:
 --- enter write_ns ---
 LDA+U parameters:
U( 2)     =  4.50000000
alpha( 2) =  0.00000000
atom    3   Tr[ns(na)] =   7.00000
    eigenvalues:
  0.700  0.700  0.700  0.700  0.700
    eigenvectors:
  1.000  0.000  0.000  0.000  0.000
  0.000  1.000  0.000  0.000  0.000
  0.000  0.000  1.000  0.000  0.000
  0.000  0.000  0.000  1.000  0.000
  0.000  0.000  0.000  0.000  1.000
    occupations:
  0.700  0.000  0.000  0.000  0.000
  0.000  0.700  0.000  0.000  0.000
  0.000  0.000  0.700  0.000  0.000
  0.000  0.000  0.000  0.700  0.000
  0.000  0.000  0.000  0.000  0.700
atom    4   Tr[ns(na)] =   7.00000
    eigenvalues:
  0.700  0.700  0.700  0.700  0.700
    eigenvectors:
  1.000  0.000  0.000  0.000  0.000
  0.000  1.000  0.000  0.000  0.000
  0.000  0.000  1.000  0.000  0.000
  0.000  0.000  0.000  1.000  0.000
  0.000  0.000  0.000  0.000  1.000
    occupations:
  0.700  0.000  0.000  0.000  0.000
  0.000  0.700  0.000  0.000  0.000
  0.000  0.000  0.700  0.000  0.000
  0.000  0.000  0.000  0.700  0.000
  0.000  0.000  0.000  0.000  0.700
atom    9   Tr[ns(na)] =   7.00000
    eigenvalues:
  0.700  0.700  0.700  0.700  0.700
    eigenvectors:
  1.000  0.000  0.000  0.000  0.000
  0.000  1.000  0.000  0.000  0.000
  0.000  0.000  1.000  0.000  0.000
  0.000  0.000  0.000  1.000  0.000
  0.000  0.000  0.000  0.000  1.000
    occupations:
  0.700  0.000  0.000  0.000  0.000
  0.000  0.700  0.000  0.000  0.000
  0.000  0.000  0.700  0.000  0.000
  0.000  0.000  0.000  0.700  0.000
  0.000  0.000  0.000  0.000  0.700
atom   10   Tr[ns(na)] =   7.00000
    eigenvalues:
  0.700  0.700  0.700  0.700  0.700
    eigenvectors:
  1.000  0.000  0.000  0.000  0.000
  0.000  1.000  0.000  0.000  0.000
  0.000  0.000  1.000  0.000  0.000
  0.000  0.000  0.000  1.000  0.000
  0.000  0.000  0.000  0.000  1.000
    occupations:
  0.700  0.000  0.000  0.000  0.000
  0.000  0.700  0.000  0.000  0.000
  0.000  0.000  0.700  0.000  0.000
  0.000  0.000  0.000  0.700  0.000
  0.000  0.000  0.000  0.000  0.700
atom   16   Tr[ns(na)] =   7.00000
    eigenvalues:
  0.700  0.700  0.700  0.700  0.700
    eigenvectors:
  1.000  0.000  0.000  0.000  0.000
  0.000  1.000  0.000  0.000  0.000
  0.000  0.000  1.000  0.000  0.000
  0.000  0.000  0.000  1.000  0.000
  0.000  0.000  0.000  0.000  1.000
    occupations:
  0.700  0.000  0.000  0.000  0.000
  0.000  0.700  0.000  0.000  0.000
  0.000  0.000  0.700  0.000  0.000
  0.000  0.000  0.000  0.700  0.000
  0.000  0.000  0.000  0.000  0.700
atom   17   Tr[ns(na)] =   7.00000
    eigenvalues:
  0.700  0.700  0.700  0.700  0.700
    eigenvectors:
  1.000  0.000  0.000  0.000  0.000
  0.000  1.000  0.000  0.000  0.000
  0.000  0.000  1.000  0.000  0.000
  0.000  0.000  0.000  1.000  0.000
  0.000  0.000  0.000  0.000  1.000
    occupations:
  0.700  0.000  0.000  0.000  0.000
  0.000  0.700  0.000  0.000  0.000
  0.000  0.000  0.700  0.000  0.000
  0.000  0.000  0.000  0.700  0.000
  0.000  0.000  0.000  0.000  0.700
atom   22   Tr[ns(na)] =   7.00000
    eigenvalues:
  0.700  0.700  0.700  0.700  0.700
    eigenvectors:
  1.000  0.000  0.000  0.000  0.000
  0.000  1.000  0.000  0.000  0.000
[...]
    eigenvalues:
  0.580  0.611  0.941  0.946  0.984
    eigenvectors:
  0.991  0.000  0.000  0.000  0.009
  0.000  0.001  0.997  0.003  0.000
  0.000  0.000  0.003  0.997  0.000
  0.008  0.000  0.000  0.000  0.991
  0.000  0.999  0.001  0.000  0.000
    occupations:
  0.584  0.000  0.007  0.037 -0.000
  0.000  0.941 -0.000  0.000 -0.009
  0.007 -0.000  0.946 -0.000 -0.000
  0.037  0.000 -0.000  0.981  0.000
 -0.000 -0.009 -0.000  0.000  0.611
atom   16   Tr[ns(na)] =   8.16442
    eigenvalues:
  0.606  0.632  0.894  0.969  0.981
    eigenvectors:
  0.006  0.177  0.003  0.001  0.812
  0.975  0.025  0.000  0.000  0.000
  0.000  0.000  0.992  0.005  0.003
  0.019  0.798  0.000  0.000  0.183
  0.000  0.000  0.005  0.994  0.001
    occupations:
  0.917  0.005  0.004 -0.135  0.001
  0.005  0.607 -0.000  0.002 -0.005
  0.004 -0.000  0.894 -0.004 -0.005
 -0.135  0.002 -0.004  0.696 -0.000
  0.001 -0.005 -0.005 -0.000  0.969
atom   17   Tr[ns(na)] =   8.15852
    eigenvalues:
  0.618  0.668  0.881  0.927  0.985
    eigenvectors:
  0.000  0.989  0.000  0.000  0.010
  0.000  0.000  0.058  0.942  0.000
  0.000  0.000  0.942  0.058  0.000
  0.000  0.010  0.000  0.000  0.990
  1.000  0.000  0.000  0.000  0.000
    occupations:
  0.671 -0.003 -0.001  0.032  0.001
 -0.003  0.925  0.011  0.000 -0.002
 -0.001  0.011  0.884 -0.000  0.001
  0.032  0.000 -0.000  0.981  0.000
  0.001 -0.002  0.001  0.000  0.618
atom   22   Tr[ns(na)] =   8.14481
    eigenvalues:
  0.654  0.669  0.862  0.904  0.983
    eigenvectors:
  0.000  0.139  0.001  0.000  0.860
  1.000  0.000  0.000  0.000  0.000
  0.000  0.000  0.993  0.006  0.000
  0.000  0.860  0.000  0.000  0.140
  0.000  0.000  0.006  0.994  0.000
    occupations:
  0.939  0.002  0.000 -0.109  0.000
  0.002  0.654  0.001 -0.001 -0.000
  0.000  0.001  0.862 -0.004  0.003
 -0.109 -0.001 -0.004  0.713  0.000
  0.000 -0.000  0.003  0.000  0.904
atom   23   Tr[ns(na)] =   8.16827
    eigenvalues:
  0.619  0.661  0.867  0.954  0.983
    eigenvectors:
  0.000  0.993  0.000  0.003  0.005
  0.001  0.000  0.998  0.000  0.000
  0.000  0.002  0.000  0.996  0.001
  0.000  0.005  0.000  0.001  0.994
  0.999  0.000  0.001  0.000  0.000
    occupations:
  0.663 -0.000  0.014  0.023 -0.000
 -0.000  0.867 -0.001 -0.000 -0.010
  0.014 -0.001  0.953 -0.002  0.000
  0.023 -0.000 -0.002  0.982 -0.000
 -0.000 -0.010  0.000 -0.000  0.619
N of occupied +U levels =  65.2291364
 --- exit write_ns ---

     Threshold (ethr) on eigenvalues was too large:
     Diagonalizing with lowered threshold

     Davidson diagonalization with overlap
     ethr =  8.02E-09,  avg # of iterations =  2.0

[...]

     total energy              =   -2137.71852941 Ry
     Harris-Foulkes estimate   =   -2137.71852942 Ry
     estimated scf accuracy    <       0.00000018 Ry

     iteration # 14     ecut=    40.00 Ry     beta=0.70
     Davidson diagonalization with overlap
     ethr =  1.41E-11,  avg # of iterations =  1.0

     negative rho (up, down):  0.314E+01 0.000E+00

     End of self-consistent calculation
 --- enter write_ns ---
 LDA+U parameters:
U( 2)     =  4.50000000
alpha( 2) =  0.00000000
atom    3   Tr[ns(na)] =   8.16422
    eigenvalues:
  0.606  0.632  0.894  0.969  0.981
    eigenvectors:
  0.006  0.177  0.003  0.001  0.813
  0.974  0.026  0.000  0.000  0.000
  0.000  0.000  0.989  0.008  0.003
  0.020  0.797  0.000  0.000  0.183
  0.000  0.000  0.008  0.991  0.001
    occupations:
  0.917 -0.005  0.004 -0.135 -0.001
 -0.005  0.607 -0.001 -0.002 -0.005
  0.004 -0.001  0.894 -0.004  0.007
 -0.135 -0.002 -0.004  0.696 -0.000
 -0.001 -0.005  0.007 -0.000  0.969
atom    4   Tr[ns(na)] =   8.15975
    eigenvalues:
  0.619  0.668  0.881  0.929  0.984
    eigenvectors:
  0.000  0.989  0.000  0.000  0.010
  0.000  0.000  0.069  0.931  0.000
  0.000  0.000  0.931  0.069  0.000
  0.000  0.010  0.000  0.000  0.990
  1.000  0.000  0.000  0.000  0.000
    occupations:
  0.671 -0.003 -0.001  0.032  0.001
 -0.003  0.925  0.012  0.000 -0.002
 -0.001  0.012  0.884 -0.000  0.000
  0.032  0.000 -0.000  0.981  0.000
  0.001 -0.002  0.000  0.000  0.619
atom    9   Tr[ns(na)] =   8.14491
    eigenvalues:
  0.654  0.669  0.862  0.904  0.983
    eigenvectors:
  0.000  0.139  0.001  0.000  0.860
  0.998  0.002  0.000  0.000  0.000
  0.000  0.000  0.992  0.007  0.000
  0.002  0.858  0.000  0.000  0.140
  0.000  0.000  0.007  0.993  0.000
    occupations:
  0.939 -0.001  0.001 -0.109 -0.001
 -0.001  0.654  0.000  0.001 -0.000
  0.001  0.000  0.862 -0.004 -0.004
 -0.109  0.001 -0.004  0.713  0.001
 -0.001 -0.000 -0.004  0.001  0.904
atom   10   Tr[ns(na)] =   8.12377
    eigenvalues:
  0.580  0.611  0.941  0.946  0.984
    eigenvectors:
  0.991  0.000  0.000  0.000  0.009
  0.000  0.001  0.997  0.003  0.000
  0.000  0.000  0.003  0.997  0.000
  0.008  0.000  0.000  0.000  0.991
  0.000  0.999  0.001  0.000  0.000
    occupations:
  0.584  0.000  0.007  0.037 -0.000
  0.000  0.941 -0.000  0.000 -0.009
  0.007 -0.000  0.946 -0.000 -0.000
  0.037  0.000 -0.000  0.981  0.000
 -0.000 -0.009 -0.000  0.000  0.611
atom   16   Tr[ns(na)] =   8.16415
    eigenvalues:
  0.606  0.632  0.894  0.969  0.981
    eigenvectors:
  0.006  0.177  0.003  0.001  0.812
  0.975  0.025  0.000  0.000  0.000
  0.000  0.000  0.991  0.005  0.003
  0.019  0.798  0.000  0.000  0.183
  0.000  0.000  0.005  0.994  0.002
    occupations:
  0.917  0.005  0.004 -0.135  0.001
  0.005  0.607 -0.000  0.002 -0.005
  0.004 -0.000  0.894 -0.004 -0.005
 -0.135  0.002 -0.004  0.696 -0.000
  0.001 -0.005 -0.005 -0.000  0.969
atom   17   Tr[ns(na)] =   8.15829
    eigenvalues:
  0.618  0.668  0.881  0.927  0.985
    eigenvectors:
  0.000  0.989  0.000  0.000  0.010
  0.000  0.000  0.058  0.942  0.000
  0.000  0.000  0.942  0.058  0.000
  0.000  0.010  0.000  0.000  0.990
  1.000  0.000  0.000  0.000  0.000
    occupations:
  0.671 -0.003 -0.001  0.032  0.001
 -0.003  0.925  0.011  0.000 -0.002
 -0.001  0.011  0.884 -0.000  0.001
  0.032  0.000 -0.000  0.981  0.000
  0.001 -0.002  0.001  0.000  0.618
atom   22   Tr[ns(na)] =   8.14494
    eigenvalues:
  0.654  0.669  0.862  0.904  0.983
    eigenvectors:
  0.000  0.139  0.001  0.000  0.860
  1.000  0.000  0.000  0.000  0.000
  0.000  0.000  0.993  0.006  0.000
  0.000  0.860  0.000  0.000  0.140
  0.000  0.000  0.006  0.994  0.000
    occupations:
  0.939  0.002  0.000 -0.109  0.000
  0.002  0.654  0.001 -0.001 -0.000
  0.000  0.001  0.862 -0.004  0.003
 -0.109 -0.001 -0.004  0.713  0.000
  0.000 -0.000  0.003  0.000  0.904
atom   23   Tr[ns(na)] =   8.16844
    eigenvalues:
  0.619  0.660  0.868  0.954  0.983
    eigenvectors:
  0.000  0.993  0.000  0.003  0.005
  0.001  0.000  0.998  0.000  0.000
  0.000  0.002  0.000  0.996  0.001
  0.000  0.005  0.000  0.001  0.994
  0.999  0.000  0.001  0.000  0.000
    occupations:
  0.663 -0.000  0.014  0.023 -0.000
 -0.000  0.867 -0.001 -0.000 -0.010
  0.014 -0.001  0.953 -0.002  0.000
  0.023 -0.000 -0.002  0.982 -0.000
 -0.000 -0.010  0.000 -0.000  0.619
N of occupied +U levels =  65.2284787
 --- exit write_ns ---

[...]

          k = 0.2500-0.4953 0.0000 ( 31088 PWs)   bands (ev):

[...]

          k =-0.2500 0.2476 0.0000 ( 31099 PWs)   bands (ev):

   -50.2197 -50.1378 -50.1321 -50.0711 -50.0624 -50.0201 -49.9926 -49.9785
   -49.9739 -49.9437 -49.9298 -49.9132 -49.8254 -49.8149 -49.7405 -49.7374
   -49.7123 -49.6928 -49.6706 -49.6599 -49.6437 -49.6186 -49.6074 -49.5474
   -23.4321 -20.9235 -20.6168 -20.5849 -20.5427 -20.1746 -20.1067 -20.0596
   -19.9942 -19.8072 -19.6691 -19.6350 -19.4813 -19.4330 -19.3450 -19.2509
   -19.1650 -18.4292 -18.2637 -17.2761  -9.8496  -9.7490  -9.5271  -9.3277
    -8.9647  -8.9295  -8.8851  -8.8316  -8.6301  -8.3912  -8.3515  -8.3309
    -8.3056  -8.1149  -7.9876  -7.8349  -7.7473  -7.6828  -7.5715  -7.2110
    -7.1414  -6.9704  -6.9132  -6.8290  -6.7546  -6.6401  -6.5070  -6.3977
    -6.2392  -6.0735  -5.9716  -5.8881  -5.8281  -5.7608  -5.6297  -5.6079
    -5.5580  -5.4981  -5.3953  -5.1611  -5.1292  -5.0817  -4.9627  -4.7330
    -4.6301  -4.4746  -4.3034  -4.2042  -4.1230  -4.0741  -3.8862  -3.8161
    -3.6503  -3.5630  -3.3244  -3.2497  -3.0526  -2.9754  -2.9429  -2.8784
    -2.8514  -2.6697  -2.6401  -2.5273  -2.4530  -2.3827  -2.3715  -2.2849
    -2.1176  -2.0716  -2.0019  -1.8771  -1.5933  -1.3252  -1.1012  -1.0751
    -0.8831  -0.8534  -0.6130  -0.4653  -0.2909  -0.2169  -0.0176   0.5083
     1.5049   1.5365   1.7885   2.1276   2.2836   2.7083   2.8297   3.0511
     3.2057   3.3809   3.4232   3.6279   3.6780   3.8602   3.8942   4.0768
     4.2536   4.4741   4.7951   5.3011   5.4199   5.8221   6.0461   6.1051
     6.2721   6.4340   6.5914   6.6699   6.7720   7.0595   7.1868   7.3143
     7.5231   7.6909   7.8607   7.9190   7.9875   8.1839   8.2857   8.3620
     8.3769   8.4956   8.7482   8.8075   8.8892   9.0884   9.1278   9.1871
     9.2343   9.4220   9.5568   9.6282   9.6744   9.7791   9.8528   9.8743
     9.9293   9.9346   9.9463   9.9469   9.9682  10.0107  10.0441  10.1397
    10.1443  10.1503  10.2249  10.3298  10.3890  10.4588  10.5272  10.5777
    10.6664  10.7212  10.8359  10.9481  10.9754  11.0591  11.1746  11.2205
    11.3216  11.3880  11.4706  11.5848  11.7151  11.7617  11.8047  11.9148
    11.9369  12.0827  12.1439  12.2321  12.3550  12.4899  12.5310  12.5459
    12.5992  12.6950  12.8102  12.9012  12.9633  13.0237  13.0986  13.1933
    13.2420  13.3033  13.3902  13.5277  13.6297  13.7162  13.7570  13.8651
    13.9197  13.9682  14.0581  14.1413  14.1875  14.2522  14.3341  14.4299
    14.4654  14.5391  14.6488  14.7429  14.8345  14.8876  15.0792  15.1072
    15.1458  15.2376  15.3941  15.4143  15.5338  15.6178  15.6660  15.6930
    15.7313  15.7922  15.8422  15.9406  15.9686  16.0376  16.0775  16.0865
    16.2202  16.2779  16.3473  16.3971  16.4843  16.5320  16.5613  16.6221
    16.7121  16.7562  16.7851  16.8498  16.9433  16.9905  17.1733  17.2400
    17.3035  17.3334  17.4080  17.4590  17.5204  17.5947  17.6389  17.6946
    17.7313  17.8323  17.8562  17.8872  17.9229  18.0133  18.0633  18.1475
    18.2290  18.3215  18.3890  18.5119  18.6073  18.6965  18.7672  18.7862
    18.8256  18.8776  19.0364  19.0491  19.1150  19.2087  19.2575  19.3716
    19.3867  19.4500  19.5569  19.6371  19.6909  19.7639  19.8159  19.8514
    19.9503  20.0009  20.1377  20.2323  20.2948  20.3658  20.4538  20.5317
    20.6185  20.6729  20.7427  20.7924  20.8017  20.8815  20.9193  21.0433
    21.1171  21.1375  21.1955  21.2540  21.2800  21.3210  21.3491  21.4307
    21.5139  21.5663  21.6707  21.6839  21.7321  21.8521  21.8547  21.9213
    21.9844  22.0154  22.0750  22.1420  22.2177  22.2983  22.3966

     the Fermi energy is    -0.6781 ev

!    total energy              =   -2137.71852941 Ry
     Harris-Foulkes estimate   =   -2137.71852941 Ry
     estimated scf accuracy    <          3.4E-09 Ry

     The total energy is the sum of the following terms:

     one-electron contribution =  -23148.67854687 Ry
     hartree contribution      =   11625.92721649 Ry
     xc contribution           =    -584.21527518 Ry
     ewald contribution        =    9967.56197498 Ry
     Hubbard energy            =       1.68605265 Ry
     smearing contrib. (-TS)   =       0.00004852 Ry

     convergence has been achieved in  14 iterations

     Forces acting on atoms (Ry/au):

     negative rho (up, down):  0.314E+01 0.000E+00
     atom    1 type  1   force =    -0.00742294   -0.01278824   -0.00003888
     atom    2 type  1   force =     0.00013291    0.00393600   -0.00043167
     atom    3 type  2   force =     0.03101108    0.00540085    0.00007636
     atom    4 type  2   force =     0.00869982    0.00734867    0.00014178
     atom    5 type  1   force =    -0.00439097   -0.02065362   -0.00018551
     atom    6 type  1   force =     0.00518229    0.01999011   -0.00005789
     atom    7 type  1   force =    -0.00042103   -0.00401720   -0.00003491
     atom    8 type  1   force =    -0.00311666    0.00070817    0.00000035
     atom    9 type  2   force =     0.00672530    0.00087008    0.00006417
     atom   10 type  2   force =    -0.00012668    0.00010921   -0.00007220
     atom   11 type  1   force =    -0.00290531    0.01958076    0.00011201
     atom   12 type  1   force =     0.00345492   -0.01434321    0.00014503
     atom   13 type  1   force =    -0.00080330   -0.00284682   -0.00023241
     atom   14 type  1   force =    -0.00672176   -0.01287681    0.00013952
     atom   15 type  1   force =     0.00008949    0.00410747   -0.00016432
     atom   16 type  2   force =    -0.03075207    0.00527077    0.00005992
     atom   17 type  2   force =     0.00852482    0.00788826    0.00010893
     atom   18 type  1   force =    -0.00350792   -0.02127725   -0.00017832
     atom   19 type  1   force =     0.00579200    0.01948771   -0.00005709
     atom   20 type  1   force =    -0.00031075   -0.00697522    0.00036962
     atom   21 type  1   force =    -0.00320745    0.00141295   -0.00008779
     atom   22 type  2   force =    -0.00437510    0.00045553    0.00011353
     atom   23 type  2   force =    -0.00040996    0.00331507   -0.00017736
     atom   24 type  1   force =     0.00256912    0.01937111    0.00013469
     atom   25 type  1   force =    -0.00262439   -0.01447027    0.00018513
     atom   26 type  1   force =    -0.00096405   -0.00992672    0.00033404
     atom   27 type  3   force =     0.00000946    0.00032188    0.00020886
     atom   28 type  3   force =     0.00001760    0.00027466    0.00048221
     atom   29 type  3   force =    -0.00004888    0.00011608    0.00018256
     atom   30 type  3   force =    -0.00021805    0.00018844    0.00005139
     atom   31 type  1   force =    -0.00015078   -0.00033698    0.00005869
     atom   32 type  1   force =     0.00026385    0.00069467   -0.00065900
     atom   33 type  3   force =     0.00000542   -0.00033612   -0.00059144

     Total force =     0.001726     Total SCF correction =     0.000202
     SCF correction compared to forces is large: reduce conv_thr to get better values

     entering subroutine stress ...

     negative rho (up, down):  0.314E+01 0.000E+00
          total   stress  (Ry/bohr**3)                   (kbar)     P=  -15.18
  -0.00012241   0.00000743   0.00000379        -18.01      1.09      0.56
   0.00000743  -0.00013770   0.00000465          1.09    -20.26      0.68
   0.00000379   0.00000465  -0.00004940          0.56      0.68     -7.27

     bfgs converged in   9 scf cycles and   8 bfgs steps
     (criteria: energy < 0.10E-03, force < 0.10E-02)

     End of BFGS Geometry Optimization

     Final energy   =   -2137.7185294075 Ry
Begin final coordinates

ATOMIC_POSITIONS (crystal)
O0       0.000000000   0.000000000   0.378186663    0   0   1
O0       0.000000000   0.500000000   0.402787680    0   0   1
Ir1      0.250000000   0.500000000   0.452957943    0   0   1
Ir1      0.000000000   0.000000000   0.452833154    0   0   1
O0       0.250000000   0.810000000   0.452846676    0   0   1
O0       0.250000000   0.190000000   0.452376246    0   0   1
O0       0.000000000   0.500000000   0.498921669    0   0   1
O0       0.000000000   0.000000000   0.528262324    0   0   1
Ir1      0.250000000   0.000000000   0.574895214    0   0   1
Ir1      0.000000000   0.500000000   0.571665994    0   0   1
O0       0.250000000   0.690000000   0.573792155    0   0   1
O0       0.250000000   0.310000000   0.576028468    0   0   1
O0       0.000000000   0.000000000   0.619548844    0   0   1
O0       0.500000000   0.000000000   0.378006031    0   0   1
O0       0.500000000   0.500000000   0.402622951    0   0   1
Ir1      0.750000000   0.500000000   0.452954648    0   0   1
Ir1      0.500000000   0.000000000   0.452621286    0   0   1
O0       0.750000000   0.810000000   0.452840244    0   0   1
O0       0.750000000   0.190000000   0.452392996    0   0   1
O0       0.500000000   0.500000000   0.499928276    0   0   1
O0       0.500000000   0.000000000   0.528161109    0   0   1
Ir1      0.750000000   0.000000000   0.574895990    0   0   1
Ir1      0.500000000   0.500000000   0.577184384    0   0   1
O0       0.750000000   0.690000000   0.573799050    0   0   1
O0       0.750000000   0.310000000   0.576042270    0   0   1
O0       0.500000000   0.000000000   0.619070103    0   0   1
H2      -0.000082790   0.634533773   0.384411479
H2       0.499837504   0.635725064   0.384709218
H2       0.143064316   0.036004564   0.366635818
H2       0.643635342   0.034271639   0.366522408
O0       0.499443954   0.536323546   0.649546150
O0       0.500558212   0.345664054   0.678946425
H2       0.499996044   0.407962456   0.713176131
End final coordinates

     General routines

     Parallel routines
     Hubbard U routines

   This run was terminated on:  11: 0:50  30May2014

   JOB DONE.