     Program PWSCF v.5.0.2 (svn rev. 9656) starts on  1May2014 at  6: 2:53

     Current dimensions of program PWSCF are:
     Max number of different atomic species (ntypx) = 10
     Max number of k-points (npk) =  40000
     Max angular momentum in pseudopotentials (lmaxx) =  3
     Reading input from pwscf.in
Warning: card &CELL ignored
Warning: card / ignored

     Subspace diagonalization in iterative solution of the eigenvalue problem:
     a serial algorithm will be used

     bravais-lattice index     =            0
     lattice parameter (alat)  =      10.1289  a.u.
     unit-cell volume          =    6836.7721 (a.u.)^3
     number of atoms/cell      =           31
     number of atomic types    =            3
     number of electrons       =       238.00
     number of Kohn-Sham states=          357
     kinetic-energy cutoff     =      40.0000  Ry
     charge density cutoff     =     500.0000  Ry
     convergence threshold     =      1.0E-06
     mixing beta               =       0.7000
     number of iterations used =            8  plain     mixing
     Exchange-correlation      = SLA  PW   PBE  PBE ( 1 4 3 4 0)
     EXX-fraction              =        0.00
     nstep                     =           50

     celldm(1)=  10.128932  celldm(2)=   0.000000  celldm(3)=   0.000000
     celldm(4)=   0.000000  celldm(5)=   0.000000  celldm(6)=   0.000000

     crystal axes: (cart. coord. in units of alat)
               a(1) = (   1.000000   0.000000   0.000000 )
               a(2) = (   0.000000   1.306037   0.000000 )
               a(3) = (   0.000000   0.000000   5.037380 )

     reciprocal axes: (cart. coord. in units 2 pi/alat)
               b(1) = (  1.000000  0.000000  0.000000 )
               b(2) = (  0.000000  0.765675  0.000000 )
               b(3) = (  0.000000  0.000000  0.198516 )

     PseudoPot. # 1 for O  read from file:
     /home/camp/zhonxu/pseudo/o_pbe_v1.01.uspp.F.UPF
     MD5 check sum: 2bcb18d16ea4b960afae9ec6d52f22d2
     Pseudo is Ultrasoft + core correction, Zval =  6.0
     Generated by new atomic code, or converted to UPF format
     Using radial grid of  737 points,  5 beta functions with:
                l(1) =   0
                l(2) =   0
                l(3) =   1
                l(4) =   1
                l(5) =   2
     Q(r) pseudized with  8 coefficients,  rinner =    0.900   0.900   0.900
                                                       0.900   0.900

     PseudoPot. # 2 for Re read from file:
     /home/camp/zhonxu/pseudo/re_pbe_v1.uspp.F.UPF
     MD5 check sum: 6f5a5dcaf9c96c20d0ffdde0de57afc6
     Pseudo is Ultrasoft + core correction, Zval = 15.0
     Generated by new atomic code, or converted to UPF format
     Using radial grid of  981 points,  8 beta functions with:
                l(1) =   0
                l(2) =   0
                l(3) =   1
                l(4) =   1
                l(5) =   2
                l(6) =   2
                l(7) =   3
                l(8) =   3
     Q(r) pseudized with  8 coefficients,  rinner =    1.000   1.000   1.000
                                                       1.000   1.000   1.000
                                                       1.000

     PseudoPot. # 3 for H  read from file:
     /home/camp/zhonxu/pseudo/h_pbe_v1.uspp.F.UPF
     MD5 check sum: 3408e3ff4ec8b0a4e358431e7e038a48
     Pseudo is Ultrasoft, Zval =  1.0
     Generated by new atomic code, or converted to UPF format
     Using radial grid of  615 points,  2 beta functions with:
                l(1) =   0
                l(2) =   0
     Q(r) pseudized with  8 coefficients,  rinner =    0.700

     atomic species   valence    mass     pseudopotential
        O0             6.00    15.99940     O ( 1.00)
        Re1           15.00   186.20700     Re( 1.00)
        H2             1.00     1.00794     H ( 1.00)

     Simplified LDA+U calculation (l_max = 2) with parameters (eV):
     atomic species    L          U    alpha       J0     beta
        Re1            2     1.5000   0.0000   0.0000   0.0000

     No symmetry found

   Cartesian axes

     site n.     atom                  positions (alat units)
         1           O0  tau(   1) = (   0.0000000   0.0000000   1.8646870  )
         2           O0  tau(   2) = (   0.0000000   0.6530184   1.9287121  )
         3           Re1 tau(   3) = (   0.2500000   0.6530184   2.2295948  )
         4           Re1 tau(   4) = (   0.0000000   0.0000000   2.2312068  )
         5           O0  tau(   5) = (   0.2500000   1.0187087   2.2244063  )
         6           O0  tau(   6) = (   0.2500000   0.2873281   2.2234996  )
         7           O0  tau(   7) = (   0.0000000   0.6530184   2.5067011  )
         8           O0  tau(   8) = (   0.0000000   0.0000000   2.5914802  )
         9           Re1 tau(   9) = (   0.2500000   0.0000000   2.8910532  )
        10           Re1 tau(  10) = (   0.0000000   0.6530184   2.8571012  )
        11           O0  tau(  11) = (   0.2500000   0.9403465   2.8803235  )
        12           O0  tau(  12) = (   0.2500000   0.3656903   2.8804747  )
        13           O0  tau(  13) = (   0.0000000   0.0000000   3.1540044  )
        14           O0  tau(  14) = (   0.5000000   0.0000000   1.8645359  )
        15           O0  tau(  15) = (   0.5000000   0.6530184   1.9300722  )
        16           Re1 tau(  16) = (   0.7500000   0.6530184   2.2295444  )
        17           Re1 tau(  17) = (   0.5000000   0.0000000   2.2295948  )
        18           O0  tau(  18) = (   0.7500000   1.0187087   2.2239529  )
        19           O0  tau(  19) = (   0.7500000   0.2873281   2.2238522  )
        20           O0  tau(  20) = (   0.5000000   0.6530184   2.5186397  )
        21           O0  tau(  21) = (   0.5000000   0.0000000   2.5912283  )
        22           Re1 tau(  22) = (   0.7500000   0.0000000   2.8912547  )
        23           Re1 tau(  23) = (   0.5000000   0.6530184   2.9058631  )
        24           O0  tau(  24) = (   0.7500000   0.9403465   2.8806762  )
        25           O0  tau(  25) = (   0.7500000   0.3656903   2.8804243  )
        26           O0  tau(  26) = (   0.5000000   0.0000000   3.1508309  )
        27           H2  tau(  27) = (  -0.0003300   0.8166387   1.8441345  )
        28           H2  tau(  28) = (   0.4996000   0.8128642   1.8387445  )
        29           H2  tau(  29) = (   0.1687200   0.0311098   1.7921991  )
        30           H2  tau(  30) = (   0.6701100   0.0285761   1.7932066  )
        31           O0  tau(  31) = (   0.4998900   0.6523393   3.2273487  )

     number of k points=    10  Methfessel-Paxton smearing, width (Ry)=  0.0100
                       cart. coord. in units 2pi/alat
        k(    1) = (   0.0000000   0.0000000   0.0000000), wk =   0.1250000
        k(    2) = (   0.0000000   0.1914188   0.0000000), wk =   0.2500000
        k(    3) = (   0.0000000  -0.3828376   0.0000000), wk =   0.1250000
        k(    4) = (   0.2500000   0.0000000   0.0000000), wk =   0.2500000
        k(    5) = (   0.2500000   0.1914188   0.0000000), wk =   0.2500000
        k(    6) = (   0.2500000  -0.3828376   0.0000000), wk =   0.2500000
        k(    7) = (  -0.5000000   0.0000000   0.0000000), wk =   0.1250000
        k(    8) = (  -0.5000000   0.1914188   0.0000000), wk =   0.2500000
        k(    9) = (  -0.5000000  -0.3828376   0.0000000), wk =   0.1250000
        k(   10) = (  -0.2500000   0.1914188   0.0000000), wk =   0.2500000

     Largest allocated arrays     est. size (Mb)     dimensions
     Largest temporary arrays     est. size (Mb)     dimensions

     Check: negative/imaginary core charge=   -0.000003    0.000000

     Initial potential from superposition of free atoms
     Check: negative starting charge=   -0.237495

     starting charge  233.99958, renormalised to  238.00000

     negative rho (up, down):  0.242E+00 0.000E+00
     Number of +U iterations with fixed ns =  0
     Starting occupations:
 --- enter write_ns ---
 LDA+U parameters:
U( 2)     =  1.50000000
alpha( 2) =  0.00000000
atom    3   Tr[ns(na)] =   5.00000
    eigenvalues:
  0.500  0.500  0.500  0.500  0.500
    eigenvectors:
  1.000  0.000  0.000  0.000  0.000
  0.000  1.000  0.000  0.000  0.000
  0.000  0.000  1.000  0.000  0.000
  0.000  0.000  0.000  1.000  0.000
  0.000  0.000  0.000  0.000  1.000
    occupations:
  0.500  0.000  0.000  0.000  0.000
  0.000  0.500  0.000  0.000  0.000
  0.000  0.000  0.500  0.000  0.000
  0.000  0.000  0.000  0.500  0.000
  0.000  0.000  0.000  0.000  0.500
atom    4   Tr[ns(na)] =   5.00000
    eigenvalues:
  0.500  0.500  0.500  0.500  0.500
    eigenvectors:
  1.000  0.000  0.000  0.000  0.000
  0.000  1.000  0.000  0.000  0.000
  0.000  0.000  1.000  0.000  0.000
  0.000  0.000  0.000  1.000  0.000
  0.000  0.000  0.000  0.000  1.000
    occupations:
  0.500  0.000  0.000  0.000  0.000
  0.000  0.500  0.000  0.000  0.000
  0.000  0.000  0.500  0.000  0.000
  0.000  0.000  0.000  0.500  0.000
  0.000  0.000  0.000  0.000  0.500
atom    9   Tr[ns(na)] =   5.00000
    eigenvalues:
  0.500  0.500  0.500  0.500  0.500
    eigenvectors:
  1.000  0.000  0.000  0.000  0.000
  0.000  1.000  0.000  0.000  0.000
  0.000  0.000  1.000  0.000  0.000
  0.000  0.000  0.000  1.000  0.000
  0.000  0.000  0.000  0.000  1.000
    occupations:
  0.500  0.000  0.000  0.000  0.000
  0.000  0.500  0.000  0.000  0.000
  0.000  0.000  0.500  0.000  0.000
  0.000  0.000  0.000  0.500  0.000
  0.000  0.000  0.000  0.000  0.500
atom   10   Tr[ns(na)] =   5.00000
    eigenvalues:
  0.500  0.500  0.500  0.500  0.500
    eigenvectors:
  1.000  0.000  0.000  0.000  0.000
  0.000  1.000  0.000  0.000  0.000
  0.000  0.000  1.000  0.000  0.000
  0.000  0.000  0.000  1.000  0.000
  0.000  0.000  0.000  0.000  1.000
    occupations:
  0.500  0.000  0.000  0.000  0.000
  0.000  0.500  0.000  0.000  0.000
  0.000  0.000  0.500  0.000  0.000
  0.000  0.000  0.000  0.500  0.000
  0.000  0.000  0.000  0.000  0.500
atom   16   Tr[ns(na)] =   5.00000
    eigenvalues:
  0.500  0.500  0.500  0.500  0.500
    eigenvectors:
  1.000  0.000  0.000  0.000  0.000
  0.000  1.000  0.000  0.000  0.000
  0.000  0.000  1.000  0.000  0.000
  0.000  0.000  0.000  1.000  0.000
  0.000  0.000  0.000  0.000  1.000
    occupations:
  0.500  0.000  0.000  0.000  0.000
  0.000  0.500  0.000  0.000  0.000
  0.000  0.000  0.500  0.000  0.000
  0.000  0.000  0.000  0.500  0.000
  0.000  0.000  0.000  0.000  0.500
atom   17   Tr[ns(na)] =   5.00000
    eigenvalues:
  0.500  0.500  0.500  0.500  0.500
    eigenvectors:
  1.000  0.000  0.000  0.000  0.000
  0.000  1.000  0.000  0.000  0.000
  0.000  0.000  1.000  0.000  0.000
  0.000  0.000  0.000  1.000  0.000
  0.000  0.000  0.000  0.000  1.000
    occupations:
  0.500  0.000  0.000  0.000  0.000
  0.000  0.500  0.000  0.000  0.000
  0.000  0.000  0.500  0.000  0.000
  0.000  0.000  0.000  0.500  0.000
  0.000  0.000  0.000  0.000  0.500
atom   22   Tr[ns(na)] =   5.00000
    eigenvalues:
  0.500  0.500  0.500  0.500  0.500
    eigenvectors:
  1.000  0.000  0.000  0.000  0.000
  0.000  1.000  0.000  0.000  0.000
  0.000  0.000  1.000  0.000  0.000
  0.000  0.000  0.000  1.000  0.000
[...]
    eigenvectors:
  0.261  0.000  0.000  0.000  0.739
  0.000  1.000  0.000  0.000  0.000
  0.000  0.000  0.986  0.014  0.000
  0.739  0.000  0.000  0.000  0.261
  0.000  0.000  0.014  0.986  0.000
    occupations:
  0.703 -0.000 -0.000 -0.066  0.000
 -0.000  0.606  0.000  0.000  0.000
 -0.000  0.000  0.613  0.000 -0.012
 -0.066  0.000  0.000  0.631 -0.000
  0.000  0.000 -0.012 -0.000  0.711
atom   10   Tr[ns(na)] =   6.49554
    eigenvalues:
  0.488  0.544  0.668  0.721  0.827
    eigenvectors:
  0.999  0.000  0.000  0.001  0.000
  0.000  0.000  0.000  0.000  1.000
  0.000  0.000  1.000  0.000  0.000
  0.001  0.000  0.000  0.999  0.000
  0.000  1.000  0.000  0.000  0.000
    occupations:
  0.488  0.000 -0.000 -0.008 -0.000
  0.000  0.827  0.001 -0.000  0.000
 -0.000  0.001  0.668 -0.000  0.000
 -0.008 -0.000 -0.000  0.720 -0.000
 -0.000  0.000  0.000 -0.000  0.544
atom   16   Tr[ns(na)] =   6.54307
    eigenvalues:
  0.542  0.571  0.633  0.761  0.765
    eigenvectors:
  0.000  0.365  0.004  0.577  0.054
  0.998  0.000  0.000  0.000  0.001
  0.000  0.000  0.991  0.008  0.000
  0.000  0.634  0.005  0.330  0.031
  0.001  0.000  0.000  0.085  0.914
    occupations:
  0.691  0.003  0.010 -0.091 -0.001
  0.003  0.542 -0.001 -0.003 -0.007
  0.010 -0.001  0.634 -0.006  0.001
 -0.091 -0.003 -0.006  0.640  0.001
 -0.001 -0.007  0.001  0.001  0.764
atom   17   Tr[ns(na)] =   6.51387
    eigenvalues:
  0.565  0.605  0.615  0.698  0.774
    eigenvectors:
  0.000  0.983  0.000  0.001  0.015
  0.000  0.001  0.005  0.994  0.000
  0.000  0.001  0.994  0.005  0.000
  0.000  0.015  0.000  0.000  0.985
  1.000  0.000  0.000  0.000  0.000
    occupations:
  0.608  0.003  0.000 -0.021  0.000
  0.003  0.697  0.006 -0.000 -0.001
  0.000  0.006  0.615  0.002 -0.000
 -0.021 -0.000  0.002  0.771 -0.000
  0.000 -0.001 -0.000 -0.000  0.565
atom   22   Tr[ns(na)] =   6.52413
    eigenvalues:
  0.592  0.606  0.612  0.712  0.741
    eigenvectors:
  0.261  0.000  0.000  0.005  0.734
  0.000  0.999  0.001  0.000  0.000
  0.000  0.001  0.985  0.014  0.000
  0.739  0.000  0.000  0.002  0.259
  0.000  0.000  0.014  0.979  0.007
    occupations:
  0.702  0.000 -0.000 -0.066  0.002
  0.000  0.606  0.000 -0.000  0.000
 -0.000  0.000  0.613  0.000  0.012
 -0.066 -0.000  0.000  0.630 -0.001
  0.002  0.000  0.012 -0.001  0.711
atom   23   Tr[ns(na)] =   6.53878
    eigenvalues:
  0.579  0.605  0.622  0.651  0.812
    eigenvectors:
  0.000  0.000  0.000  0.980  0.020
  0.000  0.000  1.000  0.000  0.000
  0.000  1.000  0.000  0.000  0.000
  0.000  0.000  0.000  0.020  0.980
  1.000  0.000  0.000  0.000  0.000
    occupations:
  0.654  0.000 -0.000 -0.022 -0.000
  0.000  0.622 -0.000 -0.000  0.000
 -0.000 -0.000  0.605  0.001  0.000
 -0.022 -0.000  0.001  0.809 -0.000
 -0.000  0.000  0.000 -0.000  0.579
N of occupied +U levels =  52.2056426
 --- exit write_ns ---

     Threshold (ethr) on eigenvalues was too large:
     Diagonalizing with lowered threshold

     Davidson diagonalization with overlap
     ethr =  1.03E-08,  avg # of iterations =  2.0

[...]

     total energy              =   -2174.40137896 Ry
     Harris-Foulkes estimate   =   -2174.40137897 Ry
     estimated scf accuracy    <       0.00000002 Ry

     iteration # 15     ecut=    40.00 Ry     beta=0.70
     Davidson diagonalization with overlap
     ethr =  5.27E-12,  avg # of iterations =  1.0

     negative rho (up, down):  0.247E+00 0.000E+00

     End of self-consistent calculation
 --- enter write_ns ---
 LDA+U parameters:
U( 2)     =  1.50000000
alpha( 2) =  0.00000000
atom    3   Tr[ns(na)] =   6.54236
    eigenvalues:
  0.542  0.571  0.633  0.761  0.765
    eigenvectors:
  0.000  0.365  0.004  0.570  0.060
  0.998  0.000  0.000  0.000  0.001
  0.000  0.000  0.991  0.008  0.001
  0.000  0.635  0.004  0.326  0.034
  0.001  0.000  0.000  0.095  0.904
    occupations:
  0.691 -0.003  0.010 -0.091  0.001
 -0.003  0.542  0.001  0.003 -0.007
  0.010  0.001  0.634 -0.007 -0.001
 -0.091  0.003 -0.007  0.640 -0.001
  0.001 -0.007 -0.001 -0.001  0.764
atom    4   Tr[ns(na)] =   6.52166
    eigenvalues:
  0.565  0.603  0.621  0.701  0.770
    eigenvectors:
  0.000  0.982  0.000  0.001  0.017
  0.000  0.001  0.007  0.992  0.000
  0.000  0.000  0.993  0.007  0.000
  0.000  0.017  0.000  0.000  0.983
  1.000  0.000  0.000  0.000  0.000
    occupations:
  0.606  0.003  0.000 -0.021  0.001
  0.003  0.701  0.007 -0.000 -0.001
  0.000  0.007  0.622  0.000 -0.000
 -0.021 -0.000  0.000  0.768 -0.000
  0.001 -0.001 -0.000 -0.000  0.565
atom    9   Tr[ns(na)] =   6.52481
    eigenvalues:
  0.591  0.606  0.612  0.712  0.742
    eigenvectors:
  0.261  0.000  0.000  0.000  0.739
  0.000  1.000  0.000  0.000  0.000
  0.000  0.000  0.986  0.014  0.000
  0.739  0.000  0.000  0.000  0.261
  0.000  0.000  0.014  0.986  0.000
    occupations:
  0.703 -0.000 -0.000 -0.066  0.000
 -0.000  0.606  0.000  0.000  0.000
 -0.000  0.000  0.613  0.000 -0.012
 -0.066  0.000  0.000  0.631 -0.000
  0.000  0.000 -0.012 -0.000  0.711
atom   10   Tr[ns(na)] =   6.49554
    eigenvalues:
  0.488  0.544  0.668  0.721  0.827
    eigenvectors:
  0.999  0.000  0.000  0.001  0.000
  0.000  0.000  0.000  0.000  1.000
  0.000  0.000  1.000  0.000  0.000
  0.001  0.000  0.000  0.999  0.000
  0.000  1.000  0.000  0.000  0.000
    occupations:
  0.488  0.000 -0.000 -0.008 -0.000
  0.000  0.827  0.001 -0.000  0.000
 -0.000  0.001  0.668 -0.000  0.000
 -0.008 -0.000 -0.000  0.720 -0.000
 -0.000  0.000  0.000 -0.000  0.544
atom   16   Tr[ns(na)] =   6.54228
    eigenvalues:
  0.542  0.571  0.633  0.761  0.765
    eigenvectors:
  0.000  0.365  0.004  0.571  0.059
  0.998  0.000  0.000  0.000  0.001
  0.000  0.000  0.991  0.008  0.000
  0.000  0.634  0.005  0.327  0.034
  0.001  0.000  0.000  0.094  0.905
    occupations:
  0.691  0.003  0.010 -0.091 -0.001
  0.003  0.542 -0.001 -0.003 -0.007
  0.010 -0.001  0.634 -0.006  0.001
 -0.091 -0.003 -0.006  0.640  0.001
 -0.001 -0.007  0.001  0.001  0.764
atom   17   Tr[ns(na)] =   6.51333
    eigenvalues:
  0.565  0.605  0.615  0.698  0.774
    eigenvectors:
  0.000  0.983  0.001  0.001  0.015
  0.000  0.001  0.005  0.994  0.000
  0.000  0.001  0.994  0.005  0.000
  0.000  0.015  0.000  0.000  0.985
  1.000  0.000  0.000  0.000  0.000
    occupations:
  0.608  0.003  0.000 -0.021  0.000
  0.003  0.697  0.006 -0.000 -0.001
  0.000  0.006  0.615  0.002 -0.000
 -0.021 -0.000  0.002  0.771 -0.000
  0.000 -0.001 -0.000 -0.000  0.565
atom   22   Tr[ns(na)] =   6.52437
    eigenvalues:
  0.592  0.606  0.612  0.712  0.741
    eigenvectors:
  0.261  0.000  0.000  0.005  0.734
  0.000  0.999  0.001  0.000  0.000
  0.000  0.001  0.985  0.014  0.000
  0.739  0.000  0.000  0.002  0.259
  0.000  0.000  0.014  0.979  0.007
    occupations:
  0.702  0.000 -0.000 -0.066  0.002
  0.000  0.606  0.000 -0.000  0.000
 -0.000  0.000  0.613  0.000  0.012
 -0.066 -0.000  0.000  0.631 -0.001
  0.002  0.000  0.012 -0.001  0.711
atom   23   Tr[ns(na)] =   6.53860
    eigenvalues:
  0.579  0.605  0.622  0.651  0.812
    eigenvectors:
  0.000  0.000  0.000  0.980  0.020
  0.000  0.000  1.000  0.000  0.000
  0.000  1.000  0.000  0.000  0.000
  0.000  0.000  0.000  0.020  0.980
  1.000  0.000  0.000  0.000  0.000
    occupations:
  0.654  0.000 -0.000 -0.022 -0.000
  0.000  0.622 -0.000 -0.000  0.000
 -0.000 -0.000  0.605  0.001  0.000
 -0.022 -0.000  0.001  0.809 -0.000
 -0.000  0.000  0.000 -0.000  0.579
N of occupied +U levels =  52.2029431
 --- exit write_ns ---

[...]

          k = 0.2500-0.3828 0.0000 ( 29202 PWs)   bands (ev):

[...]

          k =-0.2500 0.1914 0.0000 ( 29229 PWs)   bands (ev):

   -82.2228 -81.6310 -81.5467 -81.3971 -81.3569 -81.1416 -81.1025 -81.0525
   -44.3839 -44.0680 -43.9393 -43.7145 -43.5578 -43.5422 -43.5220 -43.4425
   -43.4030 -43.3915 -43.3293 -43.2379 -43.2361 -43.1400 -43.1310 -43.0953
   -43.0530 -43.0486 -43.0326 -42.9883 -42.9877 -42.9175 -42.8236 -42.6059
   -21.0838 -20.6632 -20.6012 -20.4766 -20.3888 -20.0939 -20.0742 -20.0463
   -19.8303 -19.7571 -19.6623 -19.6185 -19.5280 -19.3936 -19.3624 -19.1751
   -18.6241 -18.5484 -18.3591  -9.2522  -9.0728  -8.9895  -8.8612  -8.7435
    -8.6855  -8.5322  -8.4388  -8.2402  -8.1231  -8.0463  -7.8053  -7.7231
    -7.6054  -7.4270  -7.2921  -7.1572  -7.0020  -6.9036  -6.7784  -6.6769
    -6.4775  -6.3827  -6.2552  -6.0689  -5.9929  -5.8730  -5.7716  -5.7047
    -5.4879  -5.4256  -5.3485  -5.2640  -5.2015  -5.0529  -5.0031  -4.9140
    -4.8737  -4.7779  -4.6545  -4.4427  -4.3930  -4.2226  -4.1580  -4.0691
    -4.0262  -3.9206  -3.8619  -3.7118  -3.6545  -3.5849  -3.5222  -3.3530
    -3.1900  -3.0450  -2.9494  -2.8390  -2.4415  -2.4022  -2.1264  -1.2589
    -1.1837  -1.1133  -0.9149  -0.3184  -0.2775   0.2117   0.2928   0.3375
     0.5180   0.5562   0.6780   0.8863   1.0673   1.2042   1.2797   1.3299
     1.3834   1.6444   1.6487   1.8977   2.1341   3.2299   3.4109   3.4413
     3.6036   3.6826   3.8493   4.1309   4.2320   4.3618   4.4573   4.6588
     4.8069   5.2138   5.4431   5.5144   5.7547   5.8560   6.0489   6.1631
     6.2457   6.4102   6.6554   6.8713   7.0956   7.2496   7.3935   7.5966
     7.6198   7.8143   8.0480   8.1103   8.2103   8.3546   8.5219   8.5867
     8.6302   8.7001   8.9136   9.0217   9.1466   9.3621   9.4537   9.5716
     9.6568   9.7564   9.8306   9.8802   9.9224  10.0057  10.0416  10.1732
    10.2478  10.3161  10.3900  10.4271  10.5275  10.6712  10.7797  10.9094
    11.0055  11.0851  11.1704  11.3630  11.3954  11.5315  11.5890  11.7858
    11.8316  11.9380  12.0917  12.2329  12.3477  12.5218  12.5448  12.5901
    12.6816  12.7152  12.8152  12.8628  12.9660  13.0492  13.1013  13.2456
    13.3292  13.4736  13.5436  13.5823  13.6823  13.7368  13.7580  13.8401
    13.8593  13.9213  14.0393  14.1214  14.1598  14.2119  14.2483  14.4088
    14.4599  14.4734  14.5126  14.6502  14.6640  14.7978  14.8361  14.9016
    14.9930  15.0216  15.0712  15.1442  15.1874  15.2304  15.2944  15.4707
    15.5270  15.5787  15.6642  15.7803  15.8905  16.0427  16.0900  16.1453
    16.2162  16.2964  16.3407  16.4344  16.5153  16.5540  16.6192  16.6616
    16.7660  16.8696  16.9251  17.0379  17.1228  17.1790  17.2477  17.3590
    17.4543  17.4948  17.5967  17.7113  17.7415  17.8155  17.8921  17.9343
    18.0005  18.0877  18.1356  18.1686  18.2886  18.3038  18.3473  18.4268
    18.5078  18.6061  18.6556  18.7298  18.7978  18.8895  18.9462  19.0151
    19.0968  19.1845  19.2801  19.4159  19.4796  19.5679  19.6373  19.6907
    19.7751  19.8966  19.9885  20.0547  20.0911  20.1922  20.2177  20.3405
    20.4551  20.4854  20.5687  20.5955  20.6567  20.6994  20.8068  20.8765
    20.9396  21.0299  21.0878  21.1660  21.1968  21.2593  21.2958  21.3640
    21.4300  21.4795  21.5537  21.6141  21.6357  21.7336  21.8209  21.9056
    21.9657  22.0457  22.0884  22.1750  22.2016  22.2333  22.3196  22.4104
    22.4291  22.4771  22.5238  22.5635  22.6316  22.6833  22.7151  22.7821
    22.8081  22.8679  22.9302  22.9881  23.0409

     the Fermi energy is     0.2567 ev

!    total energy              =   -2174.40137896 Ry
     Harris-Foulkes estimate   =   -2174.40137896 Ry
     estimated scf accuracy    <          1.4E-09 Ry

     The total energy is the sum of the following terms:

     one-electron contribution =  -24214.45435261 Ry
     hartree contribution      =   12121.79460189 Ry
     xc contribution           =    -594.22934542 Ry
     ewald contribution        =   10511.52109151 Ry
     Hubbard energy            =       0.96804001 Ry
     smearing contrib. (-TS)   =      -0.00141434 Ry

     convergence has been achieved in  15 iterations

     Forces acting on atoms (Ry/au):

     negative rho (up, down):  0.247E+00 0.000E+00
     atom    1 type  1   force =    -0.00677388   -0.00695725   -0.00056822
     atom    2 type  1   force =     0.00006516    0.00463419    0.00018485
     atom    3 type  2   force =     0.03357855   -0.00296653   -0.00008571
     atom    4 type  2   force =     0.00184561    0.00761910    0.00019461
     atom    5 type  1   force =     0.00359402    0.00940042    0.00032194
     atom    6 type  1   force =     0.00211946   -0.00999313    0.00033264
     atom    7 type  1   force =    -0.00004739   -0.00019446    0.00045889
     atom    8 type  1   force =     0.00259988   -0.00124113    0.00086444
     atom    9 type  2   force =    -0.01855364    0.00186702    0.00010597
     atom   10 type  2   force =    -0.00012138   -0.00092259    0.00039172
     atom   11 type  1   force =    -0.01285290   -0.01646396   -0.00066503
     atom   12 type  1   force =    -0.01368829    0.01631145   -0.00067396
     atom   13 type  1   force =    -0.00041055   -0.00041250   -0.00048135
     atom   14 type  1   force =    -0.00310324   -0.00631905   -0.00038828
     atom   15 type  1   force =    -0.00005154    0.00268202    0.00009923
     atom   16 type  2   force =    -0.03390609   -0.00280643   -0.00012404
     atom   17 type  2   force =     0.00128813    0.00832135   -0.00003141
     atom   18 type  1   force =    -0.00006101    0.00924010    0.00031325
     atom   19 type  1   force =    -0.00166411   -0.00980446    0.00033428
     atom   20 type  1   force =    -0.00003724   -0.00151016   -0.00074335
     atom   21 type  1   force =     0.00311790   -0.00195562    0.00092155
     atom   22 type  2   force =     0.01519073    0.00212674    0.00010638
     atom   23 type  2   force =     0.00009787    0.00004665    0.00075362
     atom   24 type  1   force =     0.01326641   -0.01659915   -0.00066674
     atom   25 type  1   force =     0.01326406    0.01612150   -0.00067090
     atom   26 type  1   force =    -0.00048976   -0.00077361   -0.00020026
     atom   27 type  3   force =    -0.00000569    0.00016301    0.00045577
     atom   28 type  3   force =    -0.00000467    0.00026681    0.00039838
     atom   29 type  3   force =     0.00089425    0.00010755   -0.00002751
     atom   30 type  3   force =     0.00084653    0.00002833    0.00000275
     atom   31 type  1   force =     0.00000283   -0.00001624   -0.00091351

     Total force =     0.003000     Total SCF correction =     0.000214

     bfgs converged in   6 scf cycles and   5 bfgs steps
     (criteria: energy < 0.10E-03, force < 0.10E-02)

     End of BFGS Geometry Optimization

     Final energy   =   -2174.4013789640 Ry
Begin final coordinates

ATOMIC_POSITIONS (crystal)
O0       0.000000000   0.000000000   0.370455937    0   0   1
O0       0.000000000   0.500000000   0.383073023    0   0   1
Re1      0.250000000   0.500000000   0.442673738    0   0   1
Re1      0.000000000   0.000000000   0.443020380    0   0   1
O0       0.250000000   0.780000000   0.441689193    0   0   1
O0       0.250000000   0.220000000   0.441471040    0   0   1
O0       0.000000000   0.500000000   0.497578915    0   0   1
O0       0.000000000   0.000000000   0.514248823    0   0   1
Re1      0.250000000   0.000000000   0.573813026    0   0   1
Re1      0.000000000   0.500000000   0.567121352    0   0   1
O0       0.250000000   0.720000000   0.571628001    0   0   1
O0       0.250000000   0.280000000   0.571668550    0   0   1
O0       0.000000000   0.000000000   0.626004074    0   0   1
O0       0.500000000   0.000000000   0.370394923    0   0   1
O0       0.500000000   0.500000000   0.383316949    0   0   1
Re1      0.750000000   0.500000000   0.442670585    0   0   1
Re1      0.500000000   0.000000000   0.442676891    0   0   1
O0       0.750000000   0.780000000   0.441584182    0   0   1
O0       0.750000000   0.220000000   0.441543816    0   0   1
O0       0.500000000   0.500000000   0.500194046    0   0   1
O0       0.500000000   0.000000000   0.514214793    0   0   1
Re1      0.750000000   0.000000000   0.573854739    0   0   1
Re1      0.500000000   0.500000000   0.576597064    0   0   1
O0       0.750000000   0.720000000   0.571696540    0   0   1
O0       0.750000000   0.280000000   0.571658809    0   0   1
O0       0.500000000   0.000000000   0.625339848    0   0   1
H2      -0.000329592   0.625099067   0.366224196
H2       0.499592928   0.622298107   0.365172198
H2       0.168251247   0.023704187   0.355880418
H2       0.669771595   0.021716604   0.356084515
O0       0.499893822   0.499441688   0.640299435
End final coordinates

     General routines

     Parallel routines
     Hubbard U routines

   This run was terminated on:  13:40:34   1May2014

   JOB DONE.
Running PBS batch system epilogue script
Job id: 340606.audhumbla.fysik.dtu.dk
Username: zhonxu
Groupname: campgst
Jobname: ReO2/Eads-2-layers/O-U-1.5
Sessionid: 7124
Queuename: verylong
Accounting:
This job has allocated the following 16 nodes:
d036 d036 d036 d036 d036 d036 d036 d036 d032 d032 d032 d032 d032 d032 d032 d032
Finished epilogue job 340606.audhumbla.fysik.dtu.dk for zhonxu