     Program PWSCF v.5.0.2 (svn rev. 9656) starts on 30Apr2014 at  3:20:23

     Current dimensions of program PWSCF are:
     Max number of different atomic species (ntypx) = 10
     Max number of k-points (npk) =  40000
     Max angular momentum in pseudopotentials (lmaxx) =  3
     Reading input from pwscf.in
Warning: card &CELL ignored
Warning: card / ignored

     Subspace diagonalization in iterative solution of the eigenvalue problem:
     a serial algorithm will be used

     bravais-lattice index     =            0
     lattice parameter (alat)  =      11.2250  a.u.
     unit-cell volume          =    7005.5484 (a.u.)^3
     number of atoms/cell      =           32
     number of atomic types    =            3
     number of electrons       =       215.00
     number of Kohn-Sham states=          310
     kinetic-energy cutoff     =      40.0000  Ry
     charge density cutoff     =     500.0000  Ry
     convergence threshold     =      1.0E-06
     mixing beta               =       0.7000
     number of iterations used =            8  plain     mixing
     Exchange-correlation      = SLA  PW   PBE  PBE ( 1 4 3 4 0)
     EXX-fraction              =        0.00
     nstep                     =           50

     celldm(1)=  11.224973  celldm(2)=   0.000000  celldm(3)=   0.000000
     celldm(4)=   0.000000  celldm(5)=   0.000000  celldm(6)=   0.000000

     crystal axes: (cart. coord. in units of alat)
               a(1) = (   1.000000   0.000000   0.000000 )
               a(2) = (   0.000000   1.107086   0.000000 )
               a(3) = (   0.000000   0.000000   4.474090 )

     reciprocal axes: (cart. coord. in units 2 pi/alat)
               b(1) = (  1.000000  0.000000  0.000000 )
               b(2) = (  0.000000  0.903272  0.000000 )
               b(3) = (  0.000000  0.000000  0.223509 )

     PseudoPot. # 1 for O  read from file:
     /home/camp/zhonxu/pseudo/o_pbe_v1.01.uspp.F.UPF
     MD5 check sum: 2bcb18d16ea4b960afae9ec6d52f22d2
     Pseudo is Ultrasoft + core correction, Zval =  6.0
     Generated by new atomic code, or converted to UPF format
     Using radial grid of  737 points,  5 beta functions with:
                l(1) =   0
                l(2) =   0
                l(3) =   1
                l(4) =   1
                l(5) =   2
     Q(r) pseudized with  8 coefficients,  rinner =    0.900   0.900   0.900
                                                       0.900   0.900

     PseudoPot. # 2 for Ti read from file:
     /home/camp/zhonxu/pseudo/ti_pbe_v1.uspp.F.UPF
     MD5 check sum: bcc8f6961b3b91f0cac3ca967d22d0fb
     Pseudo is Ultrasoft + core correction, Zval = 12.0
     Generated by new atomic code, or converted to UPF format
     Using radial grid of  851 points,  6 beta functions with:
                l(1) =   0
                l(2) =   0
                l(3) =   1
                l(4) =   1
                l(5) =   2
                l(6) =   2
     Q(r) pseudized with  6 coefficients,  rinner =    1.000   1.000   1.000
                                                       1.000   1.000

     PseudoPot. # 3 for H  read from file:
     /home/camp/zhonxu/pseudo/h_pbe_v1.uspp.F.UPF
     MD5 check sum: 3408e3ff4ec8b0a4e358431e7e038a48
     Pseudo is Ultrasoft, Zval =  1.0
     Generated by new atomic code, or converted to UPF format
     Using radial grid of  615 points,  2 beta functions with:
                l(1) =   0
                l(2) =   0
     Q(r) pseudized with  8 coefficients,  rinner =    0.700

     atomic species   valence    mass     pseudopotential
        O0             6.00    15.99940     O ( 1.00)
        Ti1           12.00    47.88000     Ti( 1.00)
        H2             1.00     1.00794     H ( 1.00)

     Simplified LDA+U calculation (l_max = 2) with parameters (eV):
     atomic species    L          U    alpha       J0     beta
        Ti1            2     5.5000   0.0000   0.0000   0.0000

     No symmetry found

   Cartesian axes

     site n.     atom                  positions (alat units)
         1           O0  tau(   1) = (   0.0000000   0.0000000   1.6864186  )
         2           O0  tau(   2) = (   0.0000000   0.5535432   1.7740213  )
         3           Ti1 tau(   3) = (   0.2500000   0.5535432   2.0074793  )
         4           Ti1 tau(   4) = (   0.0000000   0.0000000   2.0324447  )
         5           O0  tau(   5) = (   0.2500000   0.8967400   2.0044817  )
         6           O0  tau(   6) = (   0.2500000   0.2103464   2.0092242  )
         7           O0  tau(   7) = (   0.0000000   0.5535432   2.2196854  )
         8           O0  tau(   8) = (   0.0000000   0.0000000   2.3507315  )
         9           Ti1 tau(   9) = (   0.2500000   0.0000000   2.6021753  )
        10           Ti1 tau(  10) = (   0.0000000   0.5535432   2.5345718  )
        11           O0  tau(  11) = (   0.2500000   0.7638896   2.5931377  )
        12           O0  tau(  12) = (   0.2500000   0.3431968   2.5930482  )
        13           O0  tau(  13) = (   0.0000000   0.0000000   2.7844945  )
        14           O0  tau(  14) = (   0.5000000   0.0000000   1.6873582  )
        15           O0  tau(  15) = (   0.5000000   0.5535432   1.7709789  )
        16           Ti1 tau(  16) = (   0.7500000   0.5535432   2.0079715  )
        17           Ti1 tau(  17) = (   0.5000000   0.0000000   2.0352187  )
        18           O0  tau(  18) = (   0.7500000   0.8967400   2.0040790  )
        19           O0  tau(  19) = (   0.7500000   0.2103464   2.0094479  )
        20           O0  tau(  20) = (   0.5000000   0.5535432   2.1971360  )
        21           O0  tau(  21) = (   0.5000000   0.0000000   2.3514026  )
        22           Ti1 tau(  22) = (   0.7500000   0.0000000   2.6024885  )
        23           Ti1 tau(  23) = (   0.5000000   0.5535432   2.6568935  )
        24           O0  tau(  24) = (   0.7500000   0.7638896   2.5904532  )
        25           O0  tau(  25) = (   0.7500000   0.3431968   2.5901848  )
        26           O0  tau(  26) = (   0.5000000   0.0000000   2.7844945  )
        27           H2  tau(  27) = (  -0.0007700   0.6889399   1.6773810  )
        28           H2  tau(  28) = (   0.4993300   0.6850208   1.6695513  )
        29           H2  tau(  29) = (   0.1496500   0.0435638   1.6275396  )
        30           H2  tau(  30) = (   0.6495100   0.0435638   1.6281213  )
        31           O0  tau(  31) = (   0.5047900   0.5534214   2.9586261  )
        32           H2  tau(  32) = (   0.3766100   0.5530007   3.0621118  )

     number of k points=    10  Methfessel-Paxton smearing, width (Ry)=  0.0100
                       cart. coord. in units 2pi/alat
        k(    1) = (   0.0000000   0.0000000   0.0000000), wk =   0.1250000
        k(    2) = (   0.0000000   0.2258180   0.0000000), wk =   0.2500000
        k(    3) = (   0.0000000  -0.4516359   0.0000000), wk =   0.1250000
        k(    4) = (   0.2500000   0.0000000   0.0000000), wk =   0.2500000
        k(    5) = (   0.2500000   0.2258180   0.0000000), wk =   0.2500000
        k(    6) = (   0.2500000  -0.4516359   0.0000000), wk =   0.2500000
        k(    7) = (  -0.5000000   0.0000000   0.0000000), wk =   0.1250000
        k(    8) = (  -0.5000000   0.2258180   0.0000000), wk =   0.2500000
        k(    9) = (  -0.5000000  -0.4516359   0.0000000), wk =   0.1250000
        k(   10) = (  -0.2500000   0.2258180   0.0000000), wk =   0.2500000

     Largest allocated arrays     est. size (Mb)     dimensions
     Largest temporary arrays     est. size (Mb)     dimensions

     Check: negative/imaginary core charge=   -0.000006    0.000000

     Initial potential from superposition of free atoms
     Check: negative starting charge=   -0.102331

     starting charge  206.99957, renormalised to  215.00000

     negative rho (up, down):  0.106E+00 0.000E+00
     Number of +U iterations with fixed ns =  0
     Starting occupations:
 --- enter write_ns ---
 LDA+U parameters:
U( 2)     =  5.50000000
alpha( 2) =  0.00000000
atom    3   Tr[ns(na)] =   2.00000
    eigenvalues:
  0.200  0.200  0.200  0.200  0.200
    eigenvectors:
  1.000  0.000  0.000  0.000  0.000
  0.000  1.000  0.000  0.000  0.000
  0.000  0.000  1.000  0.000  0.000
  0.000  0.000  0.000  1.000  0.000
  0.000  0.000  0.000  0.000  1.000
    occupations:
  0.200  0.000  0.000  0.000  0.000
  0.000  0.200  0.000  0.000  0.000
  0.000  0.000  0.200  0.000  0.000
  0.000  0.000  0.000  0.200  0.000
  0.000  0.000  0.000  0.000  0.200
atom    4   Tr[ns(na)] =   2.00000
    eigenvalues:
  0.200  0.200  0.200  0.200  0.200
    eigenvectors:
  1.000  0.000  0.000  0.000  0.000
  0.000  1.000  0.000  0.000  0.000
  0.000  0.000  1.000  0.000  0.000
  0.000  0.000  0.000  1.000  0.000
  0.000  0.000  0.000  0.000  1.000
    occupations:
  0.200  0.000  0.000  0.000  0.000
  0.000  0.200  0.000  0.000  0.000
  0.000  0.000  0.200  0.000  0.000
  0.000  0.000  0.000  0.200  0.000
  0.000  0.000  0.000  0.000  0.200
atom    9   Tr[ns(na)] =   2.00000
    eigenvalues:
  0.200  0.200  0.200  0.200  0.200
    eigenvectors:
  1.000  0.000  0.000  0.000  0.000
  0.000  1.000  0.000  0.000  0.000
  0.000  0.000  1.000  0.000  0.000
  0.000  0.000  0.000  1.000  0.000
  0.000  0.000  0.000  0.000  1.000
    occupations:
  0.200  0.000  0.000  0.000  0.000
  0.000  0.200  0.000  0.000  0.000
  0.000  0.000  0.200  0.000  0.000
  0.000  0.000  0.000  0.200  0.000
  0.000  0.000  0.000  0.000  0.200
atom   10   Tr[ns(na)] =   2.00000
    eigenvalues:
  0.200  0.200  0.200  0.200  0.200
    eigenvectors:
  1.000  0.000  0.000  0.000  0.000
  0.000  1.000  0.000  0.000  0.000
  0.000  0.000  1.000  0.000  0.000
  0.000  0.000  0.000  1.000  0.000
  0.000  0.000  0.000  0.000  1.000
    occupations:
  0.200  0.000  0.000  0.000  0.000
  0.000  0.200  0.000  0.000  0.000
  0.000  0.000  0.200  0.000  0.000
  0.000  0.000  0.000  0.200  0.000
  0.000  0.000  0.000  0.000  0.200
atom   16   Tr[ns(na)] =   2.00000
    eigenvalues:
  0.200  0.200  0.200  0.200  0.200
    eigenvectors:
  1.000  0.000  0.000  0.000  0.000
  0.000  1.000  0.000  0.000  0.000
  0.000  0.000  1.000  0.000  0.000
  0.000  0.000  0.000  1.000  0.000
  0.000  0.000  0.000  0.000  1.000
    occupations:
  0.200  0.000  0.000  0.000  0.000
  0.000  0.200  0.000  0.000  0.000
  0.000  0.000  0.200  0.000  0.000
  0.000  0.000  0.000  0.200  0.000
  0.000  0.000  0.000  0.000  0.200
atom   17   Tr[ns(na)] =   2.00000
    eigenvalues:
  0.200  0.200  0.200  0.200  0.200
    eigenvectors:
  1.000  0.000  0.000  0.000  0.000
  0.000  1.000  0.000  0.000  0.000
  0.000  0.000  1.000  0.000  0.000
  0.000  0.000  0.000  1.000  0.000
  0.000  0.000  0.000  0.000  1.000
    occupations:
  0.200  0.000  0.000  0.000  0.000
  0.000  0.200  0.000  0.000  0.000
  0.000  0.000  0.200  0.000  0.000
  0.000  0.000  0.000  0.200  0.000
  0.000  0.000  0.000  0.000  0.200
atom   22   Tr[ns(na)] =   2.00000
    eigenvalues:
  0.200  0.200  0.200  0.200  0.200
    eigenvectors:
  1.000  0.000  0.000  0.000  0.000
  0.000  1.000  0.000  0.000  0.000
  0.000  0.000  1.000  0.000  0.000
  0.000  0.000  0.000  1.000  0.000
  0.000  0.000  0.000  0.000  1.000
[...]
  0.137  0.167  0.180  0.434  0.442
    eigenvectors:
  0.007  0.002  0.000  0.001  0.990
  0.001  0.792  0.204  0.000  0.002
  0.001  0.203  0.796  0.000  0.000
  0.991  0.002  0.000  0.000  0.007
  0.000  0.000  0.000  0.999  0.001
    occupations:
  0.439  0.013  0.005 -0.025 -0.000
  0.013  0.170 -0.005 -0.000 -0.003
  0.005 -0.005  0.177  0.001 -0.000
 -0.025 -0.000  0.001  0.139 -0.000
 -0.000 -0.003 -0.000 -0.000  0.434
atom    9   Tr[ns(na)] =   2.71150
    eigenvalues:
  0.136  0.182  0.197  0.389  0.453
    eigenvectors:
  0.000  0.000  0.904  0.096  0.000
  0.000  0.000  0.000  0.000  1.000
  1.000  0.000  0.000  0.000  0.000
  0.000  0.000  0.096  0.904  0.000
  0.000  1.000  0.000  0.000  0.000
    occupations:
  0.215  0.001 -0.000  0.056  0.000
  0.001  0.453  0.000 -0.001 -0.000
 -0.000  0.000  0.136 -0.000  0.000
  0.056 -0.001 -0.000  0.370  0.000
  0.000 -0.000  0.000  0.000  0.182
atom   10   Tr[ns(na)] =   2.63903
    eigenvalues:
  0.138  0.194  0.204  0.328  0.455
    eigenvectors:
  0.021  0.000  0.000  0.979  0.000
  0.000  0.000  1.000  0.000  0.000
  0.000  1.000  0.000  0.000  0.000
  0.979  0.000  0.000  0.021  0.000
  0.000  0.000  0.000  0.000  1.000
    occupations:
  0.324  0.001 -0.001 -0.027 -0.000
  0.001  0.204 -0.000 -0.000  0.000
 -0.001 -0.000  0.194 -0.000 -0.001
 -0.027 -0.000 -0.000  0.142  0.000
 -0.000  0.000 -0.001  0.000  0.455
atom   16   Tr[ns(na)] =   2.63568
    eigenvalues:
  0.139  0.154  0.176  0.401  0.449
    eigenvectors:
  0.062  0.708  0.049  0.164  0.017
  0.003  0.003  0.002  0.205  0.788
  0.597  0.005  0.398  0.000  0.000
  0.017  0.150  0.008  0.631  0.194
  0.321  0.134  0.543  0.001  0.002
    occupations:
  0.199 -0.011 -0.004  0.096 -0.002
 -0.011  0.437 -0.002  0.027  0.013
 -0.004 -0.002  0.153  0.007  0.017
  0.096  0.027  0.007  0.367  0.001
 -0.002  0.013  0.017  0.001  0.161
atom   17   Tr[ns(na)] =   2.71735
    eigenvalues:
  0.136  0.169  0.181  0.429  0.444
    eigenvectors:
  0.007  0.002  0.000  0.000  0.991
  0.001  0.818  0.179  0.000  0.002
  0.001  0.179  0.820  0.000  0.000
  0.992  0.002  0.000  0.000  0.007
  0.000  0.000  0.000  1.000  0.000
    occupations:
  0.441  0.012  0.005 -0.025 -0.000
  0.012  0.172 -0.004 -0.000 -0.003
  0.005 -0.004  0.179  0.001 -0.000
 -0.025 -0.000  0.001  0.138 -0.000
 -0.000 -0.003 -0.000 -0.000  0.429
atom   22   Tr[ns(na)] =   2.70999
    eigenvalues:
  0.137  0.182  0.196  0.389  0.452
    eigenvectors:
  0.000  0.000  0.903  0.097  0.000
  0.000  0.000  0.000  0.000  1.000
  1.000  0.000  0.000  0.000  0.000
  0.000  0.000  0.097  0.903  0.000
  0.000  1.000  0.000  0.000  0.000
    occupations:
  0.215 -0.001 -0.000  0.057  0.000
 -0.001  0.452 -0.000  0.001 -0.000
 -0.000 -0.000  0.137 -0.000 -0.000
  0.057  0.001 -0.000  0.370  0.000
  0.000 -0.000 -0.000  0.000  0.182
atom   23   Tr[ns(na)] =   2.67174
    eigenvalues:
  0.118  0.191  0.228  0.385  0.414
    eigenvectors:
  0.012  0.023  0.000  0.965  0.000
  0.001  0.975  0.000  0.024  0.000
  0.000  0.000  1.000  0.000  0.000
  0.987  0.002  0.000  0.011  0.000
  0.000  0.000  0.000  0.000  1.000
    occupations:
  0.377  0.030  0.000 -0.028 -0.000
  0.030  0.196 -0.000 -0.001  0.000
  0.000 -0.000  0.228  0.000 -0.000
 -0.028 -0.001  0.000  0.121 -0.000
 -0.000  0.000 -0.000 -0.000  0.414
N of occupied +U levels =  21.4412095
 --- exit write_ns ---

[...]

     total energy              =   -1565.25178098 Ry
     Harris-Foulkes estimate   =   -1565.25178099 Ry
     estimated scf accuracy    <       0.00000008 Ry

     iteration # 12     ecut=    40.00 Ry     beta=0.70
     Davidson diagonalization with overlap
     ethr =  2.89E-11,  avg # of iterations =  1.0

     negative rho (up, down):  0.107E+00 0.000E+00

     End of self-consistent calculation
 --- enter write_ns ---
 LDA+U parameters:
U( 2)     =  5.50000000
alpha( 2) =  0.00000000
atom    3   Tr[ns(na)] =   2.63503
    eigenvalues:
  0.138  0.154  0.175  0.401  0.449
    eigenvectors:
  0.066  0.703  0.050  0.165  0.017
  0.003  0.003  0.002  0.202  0.790
  0.593  0.006  0.401  0.000  0.000
  0.018  0.150  0.008  0.632  0.192
  0.321  0.138  0.539  0.000  0.002
    occupations:
  0.199  0.011 -0.004  0.097  0.002
  0.011  0.437  0.003 -0.027  0.013
 -0.004  0.003  0.153  0.007 -0.017
  0.097 -0.027  0.007  0.366 -0.002
  0.002  0.013 -0.017 -0.002  0.161
atom    4   Tr[ns(na)] =   2.72129
    eigenvalues:
  0.137  0.167  0.180  0.435  0.442
    eigenvectors:
  0.007  0.002  0.000  0.001  0.990
  0.001  0.794  0.202  0.000  0.002
  0.001  0.201  0.797  0.000  0.000
  0.991  0.002  0.000  0.000  0.007
  0.000  0.000  0.000  0.999  0.001
    occupations:
  0.439  0.013  0.005 -0.025 -0.000
  0.013  0.170 -0.005 -0.000 -0.003
  0.005 -0.005  0.177  0.001 -0.000
 -0.025 -0.000  0.001  0.140 -0.000
 -0.000 -0.003 -0.000 -0.000  0.434
atom    9   Tr[ns(na)] =   2.71068
    eigenvalues:
  0.136  0.182  0.196  0.388  0.453
    eigenvectors:
  0.000  0.000  0.904  0.096  0.000
  0.000  0.000  0.000  0.000  1.000
  1.000  0.000  0.000  0.000  0.000
  0.000  0.000  0.096  0.904  0.000
  0.000  1.000  0.000  0.000  0.000
    occupations:
  0.215  0.001 -0.000  0.057  0.000
  0.001  0.453  0.000 -0.001 -0.000
 -0.000  0.000  0.136  0.000  0.000
  0.057 -0.001  0.000  0.370  0.000
  0.000 -0.000  0.000  0.000  0.182
atom   10   Tr[ns(na)] =   2.63946
    eigenvalues:
  0.138  0.194  0.204  0.328  0.455
    eigenvectors:
  0.021  0.000  0.000  0.979  0.000
  0.000  0.000  1.000  0.000  0.000
  0.000  1.000  0.000  0.000  0.000
  0.979  0.000  0.000  0.021  0.000
  0.000  0.000  0.000  0.000  1.000
    occupations:
  0.324  0.001 -0.001 -0.027 -0.000
  0.001  0.204 -0.000 -0.000  0.000
 -0.001 -0.000  0.194 -0.000 -0.001
 -0.027 -0.000 -0.000  0.142  0.000
 -0.000  0.000 -0.001  0.000  0.455
atom   16   Tr[ns(na)] =   2.63529
    eigenvalues:
  0.139  0.154  0.176  0.401  0.449
    eigenvectors:
  0.062  0.708  0.049  0.164  0.017
  0.003  0.003  0.002  0.205  0.788
  0.597  0.005  0.398  0.000  0.000
  0.017  0.150  0.008  0.631  0.194
  0.321  0.134  0.543  0.001  0.002
    occupations:
  0.199 -0.011 -0.004  0.096 -0.002
 -0.011  0.437 -0.002  0.027  0.013
 -0.004 -0.002  0.153  0.007  0.017
  0.096  0.027  0.007  0.367  0.001
 -0.002  0.013  0.017  0.001  0.161
atom   17   Tr[ns(na)] =   2.71842
    eigenvalues:
  0.136  0.169  0.181  0.429  0.444
    eigenvectors:
  0.007  0.002  0.000  0.000  0.991
  0.001  0.818  0.179  0.000  0.002
  0.001  0.178  0.821  0.000  0.000
  0.992  0.002  0.000  0.000  0.007
  0.000  0.000  0.000  1.000  0.000
    occupations:
  0.441  0.012  0.005 -0.025 -0.000
  0.012  0.172 -0.004 -0.000 -0.003
  0.005 -0.004  0.179  0.001 -0.000
 -0.025 -0.000  0.001  0.138 -0.000
 -0.000 -0.003 -0.000 -0.000  0.429
atom   22   Tr[ns(na)] =   2.70905
    eigenvalues:
  0.137  0.182  0.196  0.389  0.452
    eigenvectors:
  0.000  0.000  0.903  0.097  0.000
  0.000  0.000  0.000  0.000  1.000
  1.000  0.000  0.000  0.000  0.000
  0.000  0.000  0.097  0.902  0.000
  0.000  1.000  0.000  0.000  0.000
    occupations:
  0.214 -0.001 -0.000  0.057  0.000
 -0.001  0.452 -0.000  0.001 -0.000
 -0.000 -0.000  0.137 -0.000 -0.000
  0.057  0.001 -0.000  0.370  0.000
  0.000 -0.000 -0.000  0.000  0.182
atom   23   Tr[ns(na)] =   2.67272
    eigenvalues:
  0.118  0.191  0.228  0.385  0.414
    eigenvectors:
  0.012  0.023  0.000  0.965  0.000
  0.001  0.975  0.000  0.024  0.000
  0.000  0.000  1.000  0.000  0.000
  0.987  0.002  0.000  0.011  0.000
  0.000  0.000  0.000  0.000  1.000
    occupations:
  0.377  0.030  0.000 -0.028 -0.000
  0.030  0.196 -0.000 -0.001  0.000
  0.000 -0.000  0.228  0.000 -0.000
 -0.028 -0.001  0.000  0.121 -0.000
 -0.000  0.000 -0.000 -0.000  0.414
N of occupied +U levels =  21.4419381
 --- exit write_ns ---

[...]

          k = 0.2500-0.4516 0.0000 ( 29882 PWs)   bands (ev):

[...]

          k =-0.2500 0.2258 0.0000 ( 29912 PWs)   bands (ev):

   -61.2856 -61.2603 -61.1101 -60.6135 -60.3244 -60.2953 -59.8566 -59.8292
   -37.6727 -37.4847 -37.4553 -37.4195 -37.4183 -37.3970 -37.3449 -37.2677
   -37.2330 -36.8548 -36.8021 -36.7981 -36.7752 -36.6101 -36.5409 -36.5025
   -36.3824 -36.3555 -36.1621 -36.1399 -36.1157 -36.0528 -35.9883 -35.8645
   -21.5494 -21.3160 -20.5413 -20.3315 -20.2197 -19.8759 -19.6832 -19.6303
   -19.5519 -19.4397 -19.3739 -19.3203 -19.2567 -19.2017 -19.1826 -18.7152
   -18.4747 -18.0690 -18.0559  -9.2299  -8.9850  -8.1291  -7.7839  -7.6799
    -7.5072  -7.2331  -7.2062  -7.0826  -6.8978  -6.8771  -6.7803  -6.7554
    -6.6776  -6.5884  -6.5141  -6.4068  -6.3730  -6.2220  -6.1478  -5.9577
    -5.9141  -5.7455  -5.6426  -5.4174  -5.3017  -5.2864  -5.1742  -5.1040
    -5.0507  -4.9868  -4.9496  -4.8917  -4.8483  -4.7245  -4.7096  -4.6701
    -4.5833  -4.4801  -4.3330  -4.2729  -4.2221  -4.1681  -3.9688  -3.8488
    -3.7224  -3.6073  -3.5165  -3.4380  -3.3972  -3.2918  -3.1809  -3.0781
    -2.9618  -2.9230  -2.8493  -2.7122  -0.1481   0.0220   0.1211   0.2168
     0.2601   0.4792   0.5278   0.5966   0.6666   0.7482   0.8810   0.9727
     1.0954   1.1190   1.1781   1.2335   1.2490   1.3314   1.4938   1.5449
     1.6126   1.6831   1.7278   1.7522   1.8120   1.8967   1.9443   2.0391
     2.1267   2.2035   2.4124   2.6565   2.7156   2.9238   3.1255   3.1629
     3.4092   3.4226   3.5595   3.6049   3.7790   3.9244   4.2050   4.6354
     5.0527   5.2485   5.3019   5.6224   5.8514   5.9528   6.1592   6.2302
     6.3020   6.5362   6.5900   6.9031   6.9946   7.2935   7.3311   7.4783
     7.7017   7.7632   7.8761   7.9703   7.9978   8.1111   8.1958   8.4042
     8.4925   8.5908   8.7712   8.7979   8.9109   8.9649   9.2591   9.3727
     9.4103   9.4490   9.5647   9.6273   9.7033   9.8543   9.9918  10.0632
    10.1258  10.2568  10.3327  10.4496  10.5233  10.6315  10.7670  10.8046
    10.8473  10.9559  11.0337  11.1467  11.1928  11.2406  11.3298  11.4487
    11.4943  11.5248  11.5788  11.6984  11.7776  11.8144  11.9105  11.9568
    12.0445  12.1079  12.2050  12.2822  12.3708  12.4235  12.4736  12.5560
    12.6209  12.7370  12.8284  12.8598  12.8885  12.9639  13.0289  13.0634
    13.2545  13.3404  13.4018  13.5069  13.5599  13.6064  13.7221  13.7814
    13.8115  13.8887  13.9578  14.0280  14.1396  14.1796  14.2867  14.3561
    14.4203  14.4972  14.5711  14.6060  14.6614  14.7262  14.8541  14.9449
    14.9683  15.1005  15.2028  15.2320  15.3266  15.3866  15.4157  15.4766
    15.5331  15.6783  15.7433  15.7818  15.8306  15.8901  15.9405  16.0621
    16.1119  16.2018  16.3020  16.3319  16.4088  16.5529  16.6352  16.6759
    16.7376  16.7816  16.8028  16.8912  16.9002  17.0049  17.0836  17.0962
    17.1877  17.2471  17.3599  17.3825  17.4754  17.5071  17.5586  17.6030
    17.7262  17.7855  17.9095  17.9335  18.0515  18.1151  18.1998  18.2628
    18.3876  18.4794  18.5022  18.5613  18.6373  18.7098

     the Fermi energy is    -2.7235 ev

!    total energy              =   -1565.25178098 Ry
     Harris-Foulkes estimate   =   -1565.25178098 Ry
     estimated scf accuracy    <          2.7E-09 Ry

     The total energy is the sum of the following terms:

     one-electron contribution =  -18460.33873173 Ry
     hartree contribution      =    9246.33959397 Ry
     xc contribution           =    -277.33976797 Ry
     ewald contribution        =    7923.17652524 Ry
     Hubbard energy            =       2.90974590 Ry
     smearing contrib. (-TS)   =       0.00085361 Ry

     convergence has been achieved in  12 iterations

     Forces acting on atoms (Ry/au):

     negative rho (up, down):  0.107E+00 0.000E+00
     atom    1 type  1   force =    -0.00226544   -0.01269634    0.00051491
     atom    2 type  1   force =    -0.00006028    0.01505873    0.00009867
     atom    3 type  2   force =     0.05941583   -0.00699477    0.00018284
     atom    4 type  2   force =     0.00048918    0.00782445   -0.00051154
     atom    5 type  1   force =    -0.00341359   -0.07365952    0.00022098
     atom    6 type  1   force =    -0.00535890    0.07281817   -0.00036976
     atom    7 type  1   force =     0.00152818    0.00040995    0.00004760
     atom    8 type  1   force =     0.00156548   -0.00173325   -0.00011584
     atom    9 type  2   force =     0.00199585    0.00001624   -0.00015076
     atom   10 type  2   force =    -0.00434048   -0.00006840   -0.00046689
     atom   11 type  1   force =    -0.01656175   -0.02370452   -0.00017805
     atom   12 type  1   force =    -0.01675339    0.02366084   -0.00013217
     atom   13 type  1   force =     0.00050530    0.00006873   -0.00012144
     atom   14 type  1   force =    -0.00398522   -0.01275989    0.00012517
     atom   15 type  1   force =     0.00022580    0.01421066    0.00002865
     atom   16 type  2   force =    -0.05934863   -0.00759449    0.00014224
     atom   17 type  2   force =     0.00079200    0.00735290   -0.00024239
     atom   18 type  1   force =     0.00652469   -0.07333137    0.00026975
     atom   19 type  1   force =     0.00594620    0.07315489   -0.00041671
     atom   20 type  1   force =    -0.00087789    0.00007966   -0.00003857
     atom   21 type  1   force =     0.00001713   -0.00155931   -0.00002858
     atom   22 type  2   force =    -0.00191233    0.00016774    0.00015053
     atom   23 type  2   force =     0.00012428   -0.00005548    0.00026875
     atom   24 type  1   force =     0.01813423   -0.02124219    0.00060513
     atom   25 type  1   force =     0.01776641    0.02122928    0.00061036
     atom   26 type  1   force =    -0.00033208   -0.00000587    0.00003084
     atom   27 type  3   force =    -0.00003012   -0.00016873   -0.00012438
     atom   28 type  3   force =    -0.00002004   -0.00032348   -0.00045122
     atom   29 type  3   force =    -0.00025670   -0.00003104    0.00012347
     atom   30 type  3   force =    -0.00008638   -0.00007533   -0.00000966
     atom   31 type  1   force =     0.00039763    0.00000596   -0.00019946
     atom   32 type  3   force =     0.00017502   -0.00005420    0.00013752

     Total force =     0.001719     Total SCF correction =     0.000099

     bfgs converged in  20 scf cycles and  19 bfgs steps
     (criteria: energy < 0.10E-03, force < 0.10E-02)

     End of BFGS Geometry Optimization

     Final energy   =   -1565.2517809790 Ry
Begin final coordinates

ATOMIC_POSITIONS (crystal)
O0       0.000000000   0.000000000   0.375288259    0   0   1
O0       0.000000000   0.500000000   0.395360717    0   0   1
Ti1      0.250000000   0.500000000   0.448169362    0   0   1
Ti1      0.000000000   0.000000000   0.450193041    0   0   1
O0       0.250000000   0.810000000   0.447626908    0   0   1
O0       0.250000000   0.190000000   0.448697414    0   0   1
O0       0.000000000   0.500000000   0.496432323    0   0   1
O0       0.000000000   0.000000000   0.525634107    0   0   1
Ti1      0.250000000   0.000000000   0.580455048    0   0   1
Ti1      0.000000000   0.500000000   0.567930703    0   0   1
O0       0.250000000   0.690000000   0.581136135    0   0   1
O0       0.250000000   0.310000000   0.581148984    0   0   1
O0       0.000000000   0.000000000   0.623459267    0   0   1
O0       0.500000000   0.000000000   0.375958669    0   0   1
O0       0.500000000   0.500000000   0.394871639    0   0   1
Ti1      0.750000000   0.500000000   0.448246967    0   0   1
Ti1      0.500000000   0.000000000   0.451555447    0   0   1
O0       0.750000000   0.810000000   0.447566758    0   0   1
O0       0.750000000   0.190000000   0.448755679    0   0   1
O0       0.500000000   0.500000000   0.492263508    0   0   1
O0       0.500000000   0.000000000   0.525688793    0   0   1
Ti1      0.750000000   0.000000000   0.580445862    0   0   1
Ti1      0.500000000   0.500000000   0.595979590    0   0   1
O0       0.750000000   0.690000000   0.580177531    0   0   1
O0       0.750000000   0.310000000   0.580139362    0   0   1
O0       0.500000000   0.000000000   0.623135618    0   0   1
H2      -0.000394948   0.627048764   0.375350083
H2       0.499801728   0.628402860   0.375380975
H2       0.150832861   0.035216508   0.362161727
H2       0.649853597   0.036732155   0.362602996
O0       0.510229909   0.500051348   0.664666898
H2       0.375146177   0.499166913   0.685769630
End final coordinates

     General routines

     Parallel routines
     Hubbard U routines

   This run was terminated on:  17:58:10  30Apr2014

   JOB DONE.
Running PBS batch system epilogue script
Job id: 340529.audhumbla.fysik.dtu.dk
Username: zhonxu
Groupname: campgst
Jobname: TiO2/Eads-2-layers/OH-U-5.5
Sessionid: 9826
Queuename: verylong
Accounting:
This job has allocated the following 16 nodes:
b014 b014 b014 b014 b014 b014 b014 b014 b008 b008 b008 b008 b008 b008 b008 b008
Finished epilogue job 340529.audhumbla.fysik.dtu.dk for zhonxu