     Program PWSCF v.5.0.2 (svn rev. 9656) starts on  6May2014 at  5:57: 5

     Current dimensions of program PWSCF are:
     Max number of different atomic species (ntypx) = 10
     Max number of k-points (npk) =  40000
     Max angular momentum in pseudopotentials (lmaxx) =  3
     Reading input from pwscf.in
Warning: card &CELL ignored
Warning: card / ignored

     Subspace diagonalization in iterative solution of the eigenvalue problem:
     a serial algorithm will be used

     Found symmetry operation: I + ( -0.5000  0.0000  0.0000)
     This is a supercell, fractional translations are disabled

     bravais-lattice index     =            0
     lattice parameter (alat)  =      12.2076  a.u.
     unit-cell volume          =    7496.5096 (a.u.)^3
     number of atoms/cell      =           30
     number of atomic types    =            3
     number of electrons       =       240.00
     number of Kohn-Sham states=          360
     kinetic-energy cutoff     =      40.0000  Ry
     charge density cutoff     =     500.0000  Ry
     convergence threshold     =      1.0E-06
     mixing beta               =       0.7000
     number of iterations used =            8  plain     mixing
     Exchange-correlation      = SLA  PW   PBE  PBE ( 1 4 3 4 0)
     EXX-fraction              =        0.00
     nstep                     =           50

     celldm(1)=  12.207631  celldm(2)=   0.000000  celldm(3)=   0.000000
     celldm(4)=   0.000000  celldm(5)=   0.000000  celldm(6)=   0.000000

     crystal axes: (cart. coord. in units of alat)
               a(1) = (   1.000000   0.000000   0.000000 )
               a(2) = (   0.000000   1.004836   0.000000 )
               a(3) = (   0.000000   0.000000   4.100811 )

     reciprocal axes: (cart. coord. in units 2 pi/alat)
               b(1) = (  1.000000  0.000000  0.000000 )
               b(2) = (  0.000000  0.995187  0.000000 )
               b(3) = (  0.000000  0.000000  0.243854 )

     PseudoPot. # 1 for O  read from file:
     /home/camp/zhonxu/pseudo/o_pbe_v1.01.uspp.F.UPF
     MD5 check sum: 2bcb18d16ea4b960afae9ec6d52f22d2
     Pseudo is Ultrasoft + core correction, Zval =  6.0
     Generated by new atomic code, or converted to UPF format
     Using radial grid of  737 points,  5 beta functions with:
                l(1) =   0
                l(2) =   0
                l(3) =   1
                l(4) =   1
                l(5) =   2
     Q(r) pseudized with  8 coefficients,  rinner =    0.900   0.900   0.900
                                                       0.900   0.900

     PseudoPot. # 2 for Pt read from file:
     /home/camp/zhonxu/pseudo/pt_pbe_v1.uspp.F.UPF
     MD5 check sum: 4c71d6ad5ef119f1eb26a4d0b7884226
     Pseudo is Ultrasoft + core correction, Zval = 16.0
     Generated by new atomic code, or converted to UPF format
     Using radial grid of  985 points,  6 beta functions with:
                l(1) =   0
                l(2) =   0
                l(3) =   1
                l(4) =   1
                l(5) =   2
                l(6) =   2
     Q(r) pseudized with  8 coefficients,  rinner =    1.300   1.300   1.300
                                                       1.300   1.300

     PseudoPot. # 3 for H  read from file:
     /home/camp/zhonxu/pseudo/h_pbe_v1.uspp.F.UPF
     MD5 check sum: 3408e3ff4ec8b0a4e358431e7e038a48
     Pseudo is Ultrasoft, Zval =  1.0
     Generated by new atomic code, or converted to UPF format
     Using radial grid of  615 points,  2 beta functions with:
                l(1) =   0
                l(2) =   0
     Q(r) pseudized with  8 coefficients,  rinner =    0.700

     atomic species   valence    mass     pseudopotential
        O0             6.00    15.99940     O ( 1.00)
        Pt1           16.00   195.08000     Pt( 1.00)
        H2             1.00     1.00794     H ( 1.00)

     Simplified LDA+U calculation (l_max = 2) with parameters (eV):
     atomic species    L          U    alpha       J0     beta
        Pt1            2     0.5000   0.0000   0.0000   0.0000

     No symmetry found

   Cartesian axes

     site n.     atom                  positions (alat units)
         1           O0  tau(   1) = (   0.0000000   0.0000000   1.5457188  )
         2           O0  tau(   2) = (   0.0000000   0.5024180   1.6369208  )
         3           Pt1 tau(   3) = (   0.2500000   0.5024180   1.8413872  )
         4           Pt1 tau(   4) = (   0.0000000   0.0000000   1.8534436  )
         5           O0  tau(   5) = (   0.2500000   0.8139171   1.8157162  )
         6           O0  tau(   6) = (   0.2500000   0.1909188   1.8824364  )
         7           O0  tau(   7) = (   0.0000000   0.5024180   2.0315829  )
         8           O0  tau(   8) = (   0.0000000   0.0000000   2.1708464  )
         9           Pt1 tau(   9) = (   0.2500000   0.0000000   2.3625593  )
        10           Pt1 tau(  10) = (   0.0000000   0.5024180   2.3549318  )
        11           O0  tau(  11) = (   0.2500000   0.6933368   2.3911010  )
        12           O0  tau(  12) = (   0.2500000   0.3114991   2.3934384  )
        13           O0  tau(  13) = (   0.0000000   0.0000000   2.5491052  )
        14           O0  tau(  14) = (   0.5000000   0.0000000   1.5457188  )
        15           O0  tau(  15) = (   0.5000000   0.5024180   1.6369208  )
        16           Pt1 tau(  16) = (   0.7500000   0.5024180   1.8413872  )
        17           Pt1 tau(  17) = (   0.5000000   0.0000000   1.8534436  )
        18           O0  tau(  18) = (   0.7500000   0.8139171   1.8157162  )
        19           O0  tau(  19) = (   0.7500000   0.1909188   1.8824364  )
        20           O0  tau(  20) = (   0.5000000   0.5024180   2.0315829  )
        21           O0  tau(  21) = (   0.5000000   0.0000000   2.1708464  )
        22           Pt1 tau(  22) = (   0.7500000   0.0000000   2.3625593  )
        23           Pt1 tau(  23) = (   0.5000000   0.5024180   2.3549318  )
        24           O0  tau(  24) = (   0.7500000   0.6933368   2.3911010  )
        25           O0  tau(  25) = (   0.7500000   0.3114991   2.3934384  )
        26           O0  tau(  26) = (   0.5000000   0.0000000   2.5491052  )
        27           H2  tau(  27) = (  -0.0000500   0.6431553   1.5728661  )
        28           H2  tau(  28) = (   0.4999500   0.6431553   1.5728661  )
        29           H2  tau(  29) = (   0.1440700   0.0315318   1.5048747  )
        30           H2  tau(  30) = (   0.6440700   0.0315318   1.5048747  )

     number of k points=    10  Methfessel-Paxton smearing, width (Ry)=  0.0100
                       cart. coord. in units 2pi/alat
        k(    1) = (   0.0000000   0.0000000   0.0000000), wk =   0.1250000
        k(    2) = (   0.0000000   0.2487968   0.0000000), wk =   0.2500000
        k(    3) = (   0.0000000  -0.4975937   0.0000000), wk =   0.1250000
        k(    4) = (   0.2500000   0.0000000   0.0000000), wk =   0.2500000
        k(    5) = (   0.2500000   0.2487968   0.0000000), wk =   0.2500000
        k(    6) = (   0.2500000  -0.4975937   0.0000000), wk =   0.2500000
        k(    7) = (  -0.5000000   0.0000000   0.0000000), wk =   0.1250000
        k(    8) = (  -0.5000000   0.2487968   0.0000000), wk =   0.2500000
        k(    9) = (  -0.5000000  -0.4975937   0.0000000), wk =   0.1250000
        k(   10) = (  -0.2500000   0.2487968   0.0000000), wk =   0.2500000

     Largest allocated arrays     est. size (Mb)     dimensions
     Largest temporary arrays     est. size (Mb)     dimensions

     Check: negative/imaginary core charge=   -0.000003    0.000000

     Initial potential from superposition of free atoms
     Check: negative starting charge=   -1.537272

     starting charge  235.99985, renormalised to  240.00000

     negative rho (up, down):  0.156E+01 0.000E+00
     Number of +U iterations with fixed ns =  0
     Starting occupations:
 --- enter write_ns ---
 LDA+U parameters:
U( 2)     =  0.50000000
alpha( 2) =  0.00000000
atom    3   Tr[ns(na)] =   8.00000
    eigenvalues:
  0.800  0.800  0.800  0.800  0.800
    eigenvectors:
  1.000  0.000  0.000  0.000  0.000
  0.000  1.000  0.000  0.000  0.000
  0.000  0.000  1.000  0.000  0.000
  0.000  0.000  0.000  1.000  0.000
  0.000  0.000  0.000  0.000  1.000
    occupations:
  0.800  0.000  0.000  0.000  0.000
  0.000  0.800  0.000  0.000  0.000
  0.000  0.000  0.800  0.000  0.000
  0.000  0.000  0.000  0.800  0.000
  0.000  0.000  0.000  0.000  0.800
atom    4   Tr[ns(na)] =   8.00000
    eigenvalues:
  0.800  0.800  0.800  0.800  0.800
    eigenvectors:
  1.000  0.000  0.000  0.000  0.000
  0.000  1.000  0.000  0.000  0.000
  0.000  0.000  1.000  0.000  0.000
  0.000  0.000  0.000  1.000  0.000
  0.000  0.000  0.000  0.000  1.000
    occupations:
  0.800  0.000  0.000  0.000  0.000
  0.000  0.800  0.000  0.000  0.000
  0.000  0.000  0.800  0.000  0.000
  0.000  0.000  0.000  0.800  0.000
  0.000  0.000  0.000  0.000  0.800
atom    9   Tr[ns(na)] =   8.00000
    eigenvalues:
  0.800  0.800  0.800  0.800  0.800
    eigenvectors:
  1.000  0.000  0.000  0.000  0.000
  0.000  1.000  0.000  0.000  0.000
  0.000  0.000  1.000  0.000  0.000
  0.000  0.000  0.000  1.000  0.000
  0.000  0.000  0.000  0.000  1.000
    occupations:
  0.800  0.000  0.000  0.000  0.000
  0.000  0.800  0.000  0.000  0.000
  0.000  0.000  0.800  0.000  0.000
  0.000  0.000  0.000  0.800  0.000
  0.000  0.000  0.000  0.000  0.800
atom   10   Tr[ns(na)] =   8.00000
    eigenvalues:
  0.800  0.800  0.800  0.800  0.800
    eigenvectors:
  1.000  0.000  0.000  0.000  0.000
  0.000  1.000  0.000  0.000  0.000
  0.000  0.000  1.000  0.000  0.000
  0.000  0.000  0.000  1.000  0.000
  0.000  0.000  0.000  0.000  1.000
    occupations:
  0.800  0.000  0.000  0.000  0.000
  0.000  0.800  0.000  0.000  0.000
  0.000  0.000  0.800  0.000  0.000
  0.000  0.000  0.000  0.800  0.000
  0.000  0.000  0.000  0.000  0.800
atom   16   Tr[ns(na)] =   8.00000
    eigenvalues:
  0.800  0.800  0.800  0.800  0.800
    eigenvectors:
  1.000  0.000  0.000  0.000  0.000
  0.000  1.000  0.000  0.000  0.000
  0.000  0.000  1.000  0.000  0.000
  0.000  0.000  0.000  1.000  0.000
  0.000  0.000  0.000  0.000  1.000
    occupations:
  0.800  0.000  0.000  0.000  0.000
  0.000  0.800  0.000  0.000  0.000
  0.000  0.000  0.800  0.000  0.000
  0.000  0.000  0.000  0.800  0.000
  0.000  0.000  0.000  0.000  0.800
atom   17   Tr[ns(na)] =   8.00000
    eigenvalues:
  0.800  0.800  0.800  0.800  0.800
    eigenvectors:
  1.000  0.000  0.000  0.000  0.000
  0.000  1.000  0.000  0.000  0.000
  0.000  0.000  1.000  0.000  0.000
  0.000  0.000  0.000  1.000  0.000
  0.000  0.000  0.000  0.000  1.000
    occupations:
  0.800  0.000  0.000  0.000  0.000
  0.000  0.800  0.000  0.000  0.000
  0.000  0.000  0.800  0.000  0.000
  0.000  0.000  0.000  0.800  0.000
  0.000  0.000  0.000  0.000  0.800
atom   22   Tr[ns(na)] =   8.00000
    eigenvalues:
  0.800  0.800  0.800  0.800  0.800
    eigenvectors:
  1.000  0.000  0.000  0.000  0.000
  0.000  1.000  0.000  0.000  0.000
  0.000  0.000  1.000  0.000  0.000
  0.000  0.000  0.000  1.000  0.000
  0.000  0.000  0.000  0.000  1.000
    occupations:
[...]
  0.000  0.004  0.859  0.024  0.114
  0.000  0.009  0.097  0.018  0.876
  0.993  0.000  0.000  0.007  0.000
    occupations:
  0.704 -0.005 -0.016  0.026 -0.001
 -0.005  0.977  0.001  0.000  0.025
 -0.016  0.001  0.975  0.004  0.000
  0.026  0.000  0.004  0.980  0.000
 -0.001  0.025  0.000  0.000  0.684
atom    9   Tr[ns(na)] =   8.60394
    eigenvalues:
  0.706  0.714  0.949  0.951  0.983
    eigenvectors:
  0.000  0.145  0.000  0.000  0.855
  0.998  0.002  0.000  0.000  0.000
  0.000  0.000  1.000  0.000  0.000
  0.002  0.853  0.000  0.000  0.145
  0.000  0.000  0.000  1.000  0.000
    occupations:
  0.944  0.000 -0.000 -0.095  0.000
  0.000  0.706  0.000  0.000 -0.000
 -0.000  0.000  0.949 -0.001 -0.000
 -0.095  0.000 -0.001  0.753  0.000
  0.000 -0.000 -0.000  0.000  0.951
atom   10   Tr[ns(na)] =   8.68226
    eigenvalues:
  0.654  0.773  0.955  0.978  0.982
    eigenvectors:
  0.000  0.985  0.000  0.000  0.015
  0.000  0.000  1.000  0.000  0.000
  0.000  0.000  0.000  0.999  0.001
  0.000  0.015  0.000  0.001  0.984
  1.000  0.000  0.000  0.000  0.000
    occupations:
  0.776  0.000  0.002  0.026  0.000
  0.000  0.955 -0.000  0.000 -0.001
  0.002 -0.000  0.978 -0.000 -0.000
  0.026  0.000 -0.000  0.978 -0.000
  0.000 -0.001 -0.000 -0.000  0.654
atom   16   Tr[ns(na)] =   8.66419
    eigenvalues:
  0.690  0.696  0.978  0.983  0.986
    eigenvectors:
  0.181  0.000  0.740  0.000  0.079
  0.000  1.000  0.000  0.000  0.000
  0.002  0.000  0.109  0.000  0.888
  0.817  0.000  0.151  0.000  0.033
  0.000  0.000  0.000  1.000  0.000
    occupations:
  0.926 -0.000  0.004 -0.111  0.000
 -0.000  0.696  0.000  0.000 -0.001
  0.004  0.000  0.984  0.014 -0.000
 -0.111  0.000  0.014  0.743  0.000
  0.000 -0.001 -0.000  0.000  0.983
atom   17   Tr[ns(na)] =   8.63909
    eigenvalues:
  0.681  0.701  0.975  0.980  0.983
    eigenvectors:
  0.000  0.987  0.007  0.002  0.004
  0.007  0.000  0.037  0.949  0.006
  0.000  0.004  0.858  0.024  0.114
  0.000  0.009  0.097  0.018  0.875
  0.993  0.000  0.000  0.007  0.000
    occupations:
  0.704 -0.005 -0.016  0.026 -0.001
 -0.005  0.977  0.001  0.000  0.025
 -0.016  0.001  0.975  0.004  0.000
  0.026  0.000  0.004  0.980  0.000
 -0.001  0.025  0.000  0.000  0.684
atom   22   Tr[ns(na)] =   8.60400
    eigenvalues:
  0.706  0.714  0.949  0.951  0.983
    eigenvectors:
  0.000  0.145  0.000  0.000  0.855
  0.997  0.003  0.000  0.000  0.000
  0.000  0.000  1.000  0.000  0.000
  0.002  0.853  0.000  0.000  0.145
  0.000  0.000  0.000  1.000  0.000
    occupations:
  0.944  0.000 -0.000 -0.095  0.000
  0.000  0.706  0.000  0.000 -0.000
 -0.000  0.000  0.949 -0.001 -0.000
 -0.095  0.000 -0.001  0.753  0.000
  0.000 -0.000 -0.000  0.000  0.951
atom   23   Tr[ns(na)] =   8.68228
    eigenvalues:
  0.654  0.773  0.955  0.978  0.982
    eigenvectors:
  0.000  0.985  0.000  0.000  0.015
  0.000  0.000  1.000  0.000  0.000
  0.000  0.000  0.000  0.999  0.001
  0.000  0.015  0.000  0.001  0.984
  1.000  0.000  0.000  0.000  0.000
    occupations:
  0.776  0.000  0.002  0.026  0.000
  0.000  0.955 -0.000  0.000 -0.001
  0.002 -0.000  0.978 -0.000 -0.000
  0.026  0.000 -0.000  0.978 -0.000
  0.000 -0.001 -0.000 -0.000  0.654
N of occupied +U levels =  69.1789745
 --- exit write_ns ---

     Threshold (ethr) on eigenvalues was too large:
     Diagonalizing with lowered threshold

     Davidson diagonalization with overlap
     ethr =  1.33E-08,  avg # of iterations =  2.0

[...]

     total energy              =   -2248.66785041 Ry
     Harris-Foulkes estimate   =   -2248.66785041 Ry
     estimated scf accuracy    <       0.00000001 Ry

     iteration # 14     ecut=    40.00 Ry     beta=0.70
     Davidson diagonalization with overlap
     ethr =  4.53E-12,  avg # of iterations =  1.0

     negative rho (up, down):  0.158E+01 0.000E+00

     End of self-consistent calculation
 --- enter write_ns ---
 LDA+U parameters:
U( 2)     =  0.50000000
alpha( 2) =  0.00000000
atom    3   Tr[ns(na)] =   8.66407
    eigenvalues:
  0.690  0.696  0.978  0.983  0.986
    eigenvectors:
  0.181  0.000  0.740  0.000  0.079
  0.000  1.000  0.000  0.000  0.000
  0.002  0.000  0.110  0.000  0.888
  0.817  0.000  0.150  0.000  0.033
  0.000  0.000  0.000  1.000  0.000
    occupations:
  0.926 -0.000  0.004 -0.111  0.000
 -0.000  0.696  0.000  0.000 -0.001
  0.004  0.000  0.984  0.014 -0.000
 -0.111  0.000  0.014  0.743  0.000
  0.000 -0.001 -0.000  0.000  0.983
atom    4   Tr[ns(na)] =   8.63868
    eigenvalues:
  0.681  0.700  0.975  0.980  0.983
    eigenvectors:
  0.000  0.987  0.007  0.002  0.004
  0.007  0.000  0.036  0.950  0.006
  0.000  0.004  0.862  0.024  0.110
  0.000  0.009  0.094  0.018  0.879
  0.993  0.000  0.000  0.007  0.000
    occupations:
  0.704 -0.005 -0.016  0.026 -0.001
 -0.005  0.977  0.001  0.000  0.025
 -0.016  0.001  0.975  0.004  0.000
  0.026  0.000  0.004  0.980  0.000
 -0.001  0.025  0.000  0.000  0.684
atom    9   Tr[ns(na)] =   8.60296
    eigenvalues:
  0.706  0.714  0.949  0.951  0.983
    eigenvectors:
  0.000  0.145  0.000  0.000  0.855
  0.998  0.002  0.000  0.000  0.000
  0.000  0.000  1.000  0.000  0.000
  0.002  0.853  0.000  0.000  0.145
  0.000  0.000  0.000  1.000  0.000
    occupations:
  0.944  0.000 -0.000 -0.095  0.000
  0.000  0.706  0.000  0.000 -0.000
 -0.000  0.000  0.949 -0.001 -0.000
 -0.095  0.000 -0.001  0.753  0.000
  0.000 -0.000 -0.000  0.000  0.951
atom   10   Tr[ns(na)] =   8.68408
    eigenvalues:
  0.654  0.773  0.955  0.978  0.982
    eigenvectors:
  0.000  0.984  0.000  0.000  0.015
  0.000  0.000  1.000  0.000  0.000
  0.000  0.000  0.000  0.999  0.001
  0.000  0.015  0.000  0.001  0.984
  1.000  0.000  0.000  0.000  0.000
    occupations:
  0.777  0.000  0.002  0.026  0.000
  0.000  0.955 -0.000  0.000 -0.001
  0.002 -0.000  0.978 -0.000 -0.000
  0.026  0.000 -0.000  0.978 -0.000
  0.000 -0.001 -0.000 -0.000  0.654
atom   16   Tr[ns(na)] =   8.66407
    eigenvalues:
  0.690  0.696  0.978  0.983  0.986
    eigenvectors:
  0.181  0.000  0.740  0.000  0.079
  0.000  1.000  0.000  0.000  0.000
  0.002  0.000  0.110  0.000  0.888
  0.817  0.000  0.150  0.000  0.033
  0.000  0.000  0.000  1.000  0.000
    occupations:
  0.926 -0.000  0.004 -0.111  0.000
 -0.000  0.696  0.000  0.000 -0.001
  0.004  0.000  0.984  0.014 -0.000
 -0.111  0.000  0.014  0.743  0.000
  0.000 -0.001 -0.000  0.000  0.983
atom   17   Tr[ns(na)] =   8.63868
    eigenvalues:
  0.681  0.700  0.975  0.980  0.983
    eigenvectors:
  0.000  0.987  0.007  0.002  0.004
  0.007  0.000  0.036  0.950  0.006
  0.000  0.004  0.863  0.024  0.110
  0.000  0.009  0.094  0.018  0.879
  0.993  0.000  0.000  0.007  0.000
    occupations:
  0.704 -0.005 -0.016  0.026 -0.001
 -0.005  0.977  0.001  0.000  0.025
 -0.016  0.001  0.975  0.004  0.000
  0.026  0.000  0.004  0.980  0.000
 -0.001  0.025  0.000  0.000  0.684
atom   22   Tr[ns(na)] =   8.60295
    eigenvalues:
  0.706  0.714  0.949  0.951  0.983
    eigenvectors:
  0.000  0.145  0.000  0.000  0.855
  0.998  0.002  0.000  0.000  0.000
  0.000  0.000  1.000  0.000  0.000
  0.002  0.853  0.000  0.000  0.145
  0.000  0.000  0.000  1.000  0.000
    occupations:
  0.944  0.000 -0.000 -0.095  0.000
  0.000  0.706  0.000  0.000 -0.000
 -0.000  0.000  0.949 -0.001 -0.000
 -0.095  0.000 -0.001  0.753  0.000
  0.000 -0.000 -0.000  0.000  0.951
atom   23   Tr[ns(na)] =   8.68407
    eigenvalues:
  0.654  0.773  0.955  0.978  0.982
    eigenvectors:
  0.000  0.984  0.000  0.000  0.015
  0.000  0.000  1.000  0.000  0.000
  0.000  0.000  0.000  0.999  0.001
  0.000  0.015  0.000  0.001  0.984
  1.000  0.000  0.000  0.000  0.000
    occupations:
  0.777  0.000  0.002  0.026  0.000
  0.000  0.955 -0.000  0.000 -0.001
  0.002 -0.000  0.978 -0.000 -0.000
  0.026  0.000 -0.000  0.978 -0.000
  0.000 -0.001 -0.000 -0.000  0.654
N of occupied +U levels =  69.1795678
 --- exit write_ns ---

[...]

          k = 0.2500-0.4976 0.0000 ( 32026 PWs)   bands (ev):

[...]

          k =-0.2500 0.2488 0.0000 ( 32025 PWs)   bands (ev):

   -55.8226 -55.7838 -55.7256 -55.7232 -55.6610 -55.6485 -55.6229 -55.6103
   -55.4953 -55.4919 -55.4549 -55.4493 -55.4343 -55.4311 -55.3561 -55.3526
   -55.3313 -55.3268 -55.1826 -55.1436 -54.8332 -54.8280 -54.6016 -54.5991
   -21.9437 -21.7110 -21.0984 -20.9506 -20.6004 -20.5063 -20.4187 -20.2887
   -20.2862 -20.2195 -20.1589 -20.1079 -20.0755 -19.9596 -19.8945 -19.8529
   -18.9459 -18.8183 -10.0849  -9.8555  -9.7857  -9.6587  -9.2145  -9.2053
    -9.0964  -8.9762  -8.8752  -8.8722  -8.6903  -8.6564  -8.6552  -8.4582
    -8.4206  -8.3499  -8.1382  -8.1207  -7.8336  -7.7469  -7.6482  -7.5065
    -7.4552  -7.0834  -6.9790  -6.9107  -6.7487  -6.6932  -6.6754  -6.5839
    -6.4909  -6.4107  -6.3347  -6.2810  -6.1813  -6.1099  -5.9278  -5.9266
    -5.6736  -5.5826  -5.4652  -5.4170  -5.4036  -5.1755  -5.1072  -4.9952
    -4.8894  -4.8132  -4.6579  -4.5017  -4.3243  -4.2928  -4.2120  -4.1079
    -3.9448  -3.9204  -3.8367  -3.6875  -3.6332  -3.6248  -3.5811  -3.4132
    -3.3724  -3.3352  -3.3082  -3.0390  -3.0062  -2.9421  -2.6092  -2.4519
    -2.3807  -2.3351  -2.1548  -2.1378  -2.0715  -1.9637  -1.6581  -1.5764
    -1.5567  -1.2407  -0.9577  -0.6369  -0.2374  -0.1881   0.0021   0.3624
     0.6139   0.7849   0.9538   1.0038   1.2757   1.3016   1.4621   1.6564
     3.0749   3.6616   4.5768   4.9838   5.0646   5.1201   5.2286   5.4078
     5.6892   5.9575   6.0496   6.2414   6.4240   6.5005   6.6048   6.6394
     6.7662   6.8331   7.0288   7.0771   7.2720   7.3920   7.4188   7.5269
     7.5701   7.7378   7.8245   7.9621   8.0622   8.1570   8.2466   8.2956
     8.3290   8.4438   8.5545   8.6445   8.7583   8.8547   9.0281   9.1289
     9.2976   9.3452   9.4473   9.5475   9.6679   9.7449   9.8780   9.9600
    10.1059  10.1623  10.2089  10.2178  10.4269  10.5039  10.5358  10.6429
    10.6712  10.8210  10.8234  10.9733  11.1428  11.2493  11.3486  11.3776
    11.4116  11.5264  11.6321  11.7534  11.7811  11.8286  11.8659  11.9310
    11.9759  12.1460  12.1680  12.2094  12.3229  12.3331  12.4271  12.5149
    12.5612  12.6116  12.7187  12.7791  12.8655  12.8799  13.0133  13.0689
    13.1415  13.2299  13.4116  13.4880  13.5802  13.6254  13.6967  13.7931
    13.8270  13.8808  13.9965  14.0205  14.1242  14.2498  14.3553  14.3825
    14.4649  14.5872  14.6672  14.7058  14.8152  14.9228  14.9801  15.1494
    15.1995  15.2198  15.3394  15.3629  15.4495  15.5183  15.5487  15.6293
    15.6298  15.6740  15.7524  15.8128  15.8440  15.9243  16.0132  16.0401
    16.1570  16.1662  16.2195  16.2846  16.3498  16.3934  16.4258  16.4857
    16.6010  16.6512  16.6669  16.6868  16.7098  16.7573  16.7917  16.8901
    16.9221  17.0342  17.0635  17.1209  17.1358  17.1647  17.2149  17.2394
    17.3077  17.3144  17.4002  17.4292  17.4676  17.4690  17.5320  17.6101
    17.6851  17.7509  17.7743  17.8993  18.0157  18.0720  18.1026  18.1871
    18.1978  18.3332  18.3724  18.3771  18.5176  18.5523  18.6775  18.6871
    18.7156  18.8853  18.9255  19.0149  19.0275  19.1008  19.1360  19.2566
    19.3128  19.3739  19.4040  19.5455  19.5935  19.7392  19.7985  19.8323
    19.8980  19.9433  19.9732  20.0229  20.0364  20.0696  20.2422  20.2626
    20.3246  20.3283  20.4908  20.5035  20.6107  20.6968  20.7536  20.7998
    20.8029  20.9404  20.9500  21.0080  21.0270  21.2134  21.2525  21.2577
    21.3487  21.4310  21.4417  21.5289  21.5756  21.6199  21.6415  21.7551

     the Fermi energy is    -1.5246 ev

!    total energy              =   -2248.66785041 Ry
     Harris-Foulkes estimate   =   -2248.66785041 Ry
     estimated scf accuracy    <          4.6E-09 Ry

     The total energy is the sum of the following terms:

     one-electron contribution =  -22778.68179124 Ry
     hartree contribution      =   11429.05516577 Ry
     xc contribution           =    -565.06842752 Ry
     ewald contribution        =    9665.88278151 Ry
     Hubbard energy            =       0.14516403 Ry
     smearing contrib. (-TS)   =      -0.00074296 Ry

     convergence has been achieved in  14 iterations

     Forces acting on atoms (Ry/au):

     negative rho (up, down):  0.158E+01 0.000E+00
     atom    1 type  1   force =    -0.00810057   -0.00526282   -0.00000247
     atom    2 type  1   force =     0.00010702    0.00499320    0.00022543
     atom    3 type  2   force =    -0.00047895    0.00192986    0.00051721
     atom    4 type  2   force =     0.01068937    0.00199106   -0.00008106
     atom    5 type  1   force =     0.00102155   -0.00263360   -0.00057513
     atom    6 type  1   force =     0.00000914    0.00134666    0.00000179
     atom    7 type  1   force =     0.00004555    0.00463328   -0.00018458
     atom    8 type  1   force =    -0.00397477   -0.00739602   -0.00029989
     atom    9 type  2   force =     0.00181300    0.00092878    0.00025240
     atom   10 type  2   force =    -0.00004292   -0.00186565   -0.00028008
     atom   11 type  1   force =    -0.00000211   -0.00674736    0.00008385
     atom   12 type  1   force =     0.00007907    0.00795892    0.00013258
     atom   13 type  1   force =    -0.00114272   -0.00033117   -0.00026432
     atom   14 type  1   force =    -0.00808959   -0.00526063    0.00000051
     atom   15 type  1   force =     0.00010751    0.00499770    0.00022322
     atom   16 type  2   force =    -0.00048031    0.00192990    0.00051671
     atom   17 type  2   force =     0.01068983    0.00199095   -0.00009657
     atom   18 type  1   force =     0.00102037   -0.00263374   -0.00057486
     atom   19 type  1   force =     0.00000896    0.00134666    0.00000188
     atom   20 type  1   force =     0.00004590    0.00463312   -0.00018009
     atom   21 type  1   force =    -0.00397328   -0.00739643   -0.00028526
     atom   22 type  2   force =     0.00181377    0.00092876    0.00025227
     atom   23 type  2   force =    -0.00004135   -0.00186592   -0.00028371
     atom   24 type  1   force =    -0.00000416   -0.00674700    0.00008358
     atom   25 type  1   force =     0.00007703    0.00795856    0.00013229
     atom   26 type  1   force =    -0.00114104   -0.00033116   -0.00025619
     atom   27 type  3   force =     0.00001316   -0.00001320    0.00050366
     atom   28 type  3   force =     0.00001322   -0.00001751    0.00050597
     atom   29 type  3   force =    -0.00003592    0.00046859   -0.00003601
     atom   30 type  3   force =    -0.00004676    0.00046619   -0.00003313

     Total force =     0.001725     Total SCF correction =     0.000346
     SCF correction compared to forces is large: reduce conv_thr to get better values

     bfgs converged in   4 scf cycles and   3 bfgs steps
     (criteria: energy < 0.10E-03, force < 0.10E-02)

     End of BFGS Geometry Optimization

     Final energy   =   -2248.6678504064 Ry
Begin final coordinates

ATOMIC_POSITIONS (crystal)
O0       0.000000000   0.000000000   0.376957755    0   0   1
O0       0.000000000   0.500000000   0.399240506    0   0   1
Pt1      0.250000000   0.500000000   0.449022421    0   0   1
Pt1      0.000000000   0.000000000   0.451983464    0   0   1
O0       0.250000000   0.810000000   0.442677803    0   0   1
O0       0.250000000   0.190000000   0.459007603    0   0   1
O0       0.000000000   0.500000000   0.495456992    0   0   1
O0       0.000000000   0.000000000   0.529399815    0   0   1
Pt1      0.250000000   0.000000000   0.576091962    0   0   1
Pt1      0.000000000   0.500000000   0.574111291    0   0   1
O0       0.250000000   0.690000000   0.583128787    0   0   1
O0       0.250000000   0.310000000   0.583700031    0   0   1
O0       0.000000000   0.000000000   0.621584229    0   0   1
O0       0.500000000   0.000000000   0.376957581    0   0   1
O0       0.500000000   0.500000000   0.399240531    0   0   1
Pt1      0.750000000   0.500000000   0.449022447    0   0   1
Pt1      0.500000000   0.000000000   0.451983665    0   0   1
O0       0.750000000   0.810000000   0.442677818    0   0   1
O0       0.750000000   0.190000000   0.459007602    0   0   1
O0       0.500000000   0.500000000   0.495456954    0   0   1
O0       0.500000000   0.000000000   0.529399080    0   0   1
Pt1      0.750000000   0.000000000   0.576091961    0   0   1
Pt1      0.500000000   0.500000000   0.574111463    0   0   1
O0       0.750000000   0.690000000   0.583128741    0   0   1
O0       0.750000000   0.310000000   0.583699975    0   0   1
O0       0.500000000   0.000000000   0.621583596    0   0   1
H2      -0.000046249   0.640050983   0.383604809
H2       0.499953765   0.640051348   0.383604742
H2       0.143953497   0.031554406   0.366963239
H2       0.643954508   0.031554643   0.366963136
End final coordinates

     General routines

     Parallel routines
     Hubbard U routines

   This run was terminated on:   9:35: 1   6May2014

   JOB DONE.