     Program PWSCF v.5.0.2 (svn rev. 9656) starts on 29Apr2014 at  0:16:58

     Current dimensions of program PWSCF are:
     Max number of different atomic species (ntypx) = 10
     Max number of k-points (npk) =  40000
     Max angular momentum in pseudopotentials (lmaxx) =  3
     Reading input from pwscf.in
Warning: card &CELL ignored
Warning: card / ignored

     Subspace diagonalization in iterative solution of the eigenvalue problem:
     a serial algorithm will be used

     bravais-lattice index     =            0
     lattice parameter (alat)  =      10.3179  a.u.
     unit-cell volume          =    6964.3238 (a.u.)^3
     number of atoms/cell      =           32
     number of atomic types    =            3
     number of electrons       =       231.00
     number of Kohn-Sham states=          346
     kinetic-energy cutoff     =      40.0000  Ry
     charge density cutoff     =     500.0000  Ry
     convergence threshold     =      1.0E-06
     mixing beta               =       0.7000
     number of iterations used =            8  plain     mixing
     Exchange-correlation      = SLA  PW   PBE  PBE ( 1 4 3 4 0)
     EXX-fraction              =        0.00
     nstep                     =           50

     celldm(1)=  10.317905  celldm(2)=   0.000000  celldm(3)=   0.000000
     celldm(4)=   0.000000  celldm(5)=   0.000000  celldm(6)=   0.000000

     crystal axes: (cart. coord. in units of alat)
               a(1) = (   1.000000   0.000000   0.000000 )
               a(2) = (   0.000000   1.282117   0.000000 )
               a(3) = (   0.000000   0.000000   4.945120 )

     reciprocal axes: (cart. coord. in units 2 pi/alat)
               b(1) = (  1.000000  0.000000  0.000000 )
               b(2) = (  0.000000  0.779960  0.000000 )
               b(3) = (  0.000000  0.000000  0.202220 )

     PseudoPot. # 1 for O  read from file:
     /home/camp/zhonxu/pseudo/o_pbe_v1.01.uspp.F.UPF
     MD5 check sum: 2bcb18d16ea4b960afae9ec6d52f22d2
     Pseudo is Ultrasoft + core correction, Zval =  6.0
     Generated by new atomic code, or converted to UPF format
     Using radial grid of  737 points,  5 beta functions with:
                l(1) =   0
                l(2) =   0
                l(3) =   1
                l(4) =   1
                l(5) =   2
     Q(r) pseudized with  8 coefficients,  rinner =    0.900   0.900   0.900
                                                       0.900   0.900

     PseudoPot. # 2 for Mo read from file:
     /home/camp/zhonxu/pseudo/mo_pbe_v1.uspp.F.UPF
     MD5 check sum: 30c4dcd161f5d35cd49bb5239c51a633
     Pseudo is Ultrasoft + core correction, Zval = 14.0
     Generated by new atomic code, or converted to UPF format
     Using radial grid of  889 points,  6 beta functions with:
                l(1) =   0
                l(2) =   0
                l(3) =   1
                l(4) =   1
                l(5) =   2
                l(6) =   2
     Q(r) pseudized with  6 coefficients,  rinner =    1.000   1.000   1.000
                                                       1.000   1.000

     PseudoPot. # 3 for H  read from file:
     /home/camp/zhonxu/pseudo/h_pbe_v1.uspp.F.UPF
     MD5 check sum: 3408e3ff4ec8b0a4e358431e7e038a48
     Pseudo is Ultrasoft, Zval =  1.0
     Generated by new atomic code, or converted to UPF format
     Using radial grid of  615 points,  2 beta functions with:
                l(1) =   0
                l(2) =   0
     Q(r) pseudized with  8 coefficients,  rinner =    0.700

     atomic species   valence    mass     pseudopotential
        O0             6.00    15.99940     O ( 1.00)
        Mo1           14.00    95.94000     Mo( 1.00)
        H2             1.00     1.00794     H ( 1.00)

     Simplified LDA+U calculation (l_max = 2) with parameters (eV):
     atomic species    L          U    alpha       J0     beta
        Mo1            2     2.0000   0.0000   0.0000   0.0000

     No symmetry found

   Cartesian axes

     site n.     atom                  positions (alat units)
         1           O0  tau(   1) = (   0.0000000   0.0000000   1.8362221  )
         2           O0  tau(   2) = (   0.0000000   0.6410583   1.8932888  )
         3           Mo1 tau(   3) = (   0.2500000   0.6410583   2.1787211  )
         4           Mo1 tau(   4) = (   0.0000000   0.0000000   2.1942488  )
         5           O0  tau(   5) = (   0.2500000   1.0000510   2.1917762  )
         6           O0  tau(   6) = (   0.2500000   0.2820657   2.1916279  )
         7           O0  tau(   7) = (   0.0000000   0.6410583   2.4619282  )
         8           O0  tau(   8) = (   0.0000000   0.0000000   2.5552920  )
         9           Mo1 tau(   9) = (   0.2500000   0.0000000   2.8451750  )
        10           Mo1 tau(  10) = (   0.0000000   0.6410583   2.7951798  )
        11           O0  tau(  11) = (   0.2500000   0.9231240   2.8229220  )
        12           O0  tau(  12) = (   0.2500000   0.3589927   2.8238121  )
        13           O0  tau(  13) = (   0.0000000   0.0000000   3.0959420  )
        14           O0  tau(  14) = (   0.5000000   0.0000000   1.8365188  )
        15           O0  tau(  15) = (   0.5000000   0.6410583   1.8939316  )
        16           Mo1 tau(  16) = (   0.7500000   0.6410583   2.1784244  )
        17           Mo1 tau(  17) = (   0.5000000   0.0000000   2.1964741  )
        18           O0  tau(  18) = (   0.7500000   1.0000510   2.1920730  )
        19           O0  tau(  19) = (   0.7500000   0.2820657   2.1913806  )
        20           O0  tau(  20) = (   0.5000000   0.6410583   2.4641535  )
        21           O0  tau(  21) = (   0.5000000   0.0000000   2.5544514  )
        22           Mo1 tau(  22) = (   0.7500000   0.0000000   2.8455212  )
        23           Mo1 tau(  23) = (   0.5000000   0.6410583   2.8262846  )
        24           O0  tau(  24) = (   0.7500000   0.9231240   2.8210923  )
        25           O0  tau(  25) = (   0.7500000   0.3589927   2.8208450  )
        26           O0  tau(  26) = (   0.5000000   0.0000000   3.0950519  )
        27           H2  tau(  27) = (  -0.0007600   0.7828861   1.7821225  )
        28           H2  tau(  28) = (   0.4995000   0.7914763   1.7941391  )
        29           H2  tau(  29) = (   0.1669200   0.0220268   1.7647651  )
        30           H2  tau(  30) = (   0.6653100   0.0245269   1.7632816  )
        31           O0  tau(  31) = (   0.5147600   0.6413532   3.1767948  )
        32           H2  tau(  32) = (   0.3891500   0.6353401   3.3044778  )

     number of k points=    10  Methfessel-Paxton smearing, width (Ry)=  0.0100
                       cart. coord. in units 2pi/alat
        k(    1) = (   0.0000000   0.0000000   0.0000000), wk =   0.1250000
        k(    2) = (   0.0000000   0.1949901   0.0000000), wk =   0.2500000
        k(    3) = (   0.0000000  -0.3899801   0.0000000), wk =   0.1250000
        k(    4) = (   0.2500000   0.0000000   0.0000000), wk =   0.2500000
        k(    5) = (   0.2500000   0.1949901   0.0000000), wk =   0.2500000
        k(    6) = (   0.2500000  -0.3899801   0.0000000), wk =   0.2500000
        k(    7) = (  -0.5000000   0.0000000   0.0000000), wk =   0.1250000
        k(    8) = (  -0.5000000   0.1949901   0.0000000), wk =   0.2500000
        k(    9) = (  -0.5000000  -0.3899801   0.0000000), wk =   0.1250000
        k(   10) = (  -0.2500000   0.1949901   0.0000000), wk =   0.2500000

     Largest allocated arrays     est. size (Mb)     dimensions
     Largest temporary arrays     est. size (Mb)     dimensions

     Check: negative/imaginary core charge=   -0.000003    0.000000

     Initial potential from superposition of free atoms
     Check: negative starting charge=   -0.002345

     starting charge  230.99142, renormalised to  231.00000

     negative rho (up, down):  0.235E-02 0.000E+00
     Number of +U iterations with fixed ns =  0
     Starting occupations:
 --- enter write_ns ---
 LDA+U parameters:
U( 2)     =  2.00000000
alpha( 2) =  0.00000000
atom    3   Tr[ns(na)] =   5.00000
    eigenvalues:
  0.500  0.500  0.500  0.500  0.500
    eigenvectors:
  1.000  0.000  0.000  0.000  0.000
  0.000  1.000  0.000  0.000  0.000
  0.000  0.000  1.000  0.000  0.000
  0.000  0.000  0.000  1.000  0.000
  0.000  0.000  0.000  0.000  1.000
    occupations:
  0.500  0.000  0.000  0.000  0.000
  0.000  0.500  0.000  0.000  0.000
  0.000  0.000  0.500  0.000  0.000
  0.000  0.000  0.000  0.500  0.000
  0.000  0.000  0.000  0.000  0.500
atom    4   Tr[ns(na)] =   5.00000
    eigenvalues:
  0.500  0.500  0.500  0.500  0.500
    eigenvectors:
  1.000  0.000  0.000  0.000  0.000
  0.000  1.000  0.000  0.000  0.000
  0.000  0.000  1.000  0.000  0.000
  0.000  0.000  0.000  1.000  0.000
  0.000  0.000  0.000  0.000  1.000
    occupations:
  0.500  0.000  0.000  0.000  0.000
  0.000  0.500  0.000  0.000  0.000
  0.000  0.000  0.500  0.000  0.000
  0.000  0.000  0.000  0.500  0.000
  0.000  0.000  0.000  0.000  0.500
atom    9   Tr[ns(na)] =   5.00000
    eigenvalues:
  0.500  0.500  0.500  0.500  0.500
    eigenvectors:
  1.000  0.000  0.000  0.000  0.000
  0.000  1.000  0.000  0.000  0.000
  0.000  0.000  1.000  0.000  0.000
  0.000  0.000  0.000  1.000  0.000
  0.000  0.000  0.000  0.000  1.000
    occupations:
  0.500  0.000  0.000  0.000  0.000
  0.000  0.500  0.000  0.000  0.000
  0.000  0.000  0.500  0.000  0.000
  0.000  0.000  0.000  0.500  0.000
  0.000  0.000  0.000  0.000  0.500
atom   10   Tr[ns(na)] =   5.00000
    eigenvalues:
  0.500  0.500  0.500  0.500  0.500
    eigenvectors:
  1.000  0.000  0.000  0.000  0.000
  0.000  1.000  0.000  0.000  0.000
  0.000  0.000  1.000  0.000  0.000
  0.000  0.000  0.000  1.000  0.000
  0.000  0.000  0.000  0.000  1.000
    occupations:
  0.500  0.000  0.000  0.000  0.000
  0.000  0.500  0.000  0.000  0.000
  0.000  0.000  0.500  0.000  0.000
  0.000  0.000  0.000  0.500  0.000
  0.000  0.000  0.000  0.000  0.500
atom   16   Tr[ns(na)] =   5.00000
    eigenvalues:
  0.500  0.500  0.500  0.500  0.500
    eigenvectors:
  1.000  0.000  0.000  0.000  0.000
  0.000  1.000  0.000  0.000  0.000
  0.000  0.000  1.000  0.000  0.000
  0.000  0.000  0.000  1.000  0.000
  0.000  0.000  0.000  0.000  1.000
    occupations:
  0.500  0.000  0.000  0.000  0.000
  0.000  0.500  0.000  0.000  0.000
  0.000  0.000  0.500  0.000  0.000
  0.000  0.000  0.000  0.500  0.000
  0.000  0.000  0.000  0.000  0.500
atom   17   Tr[ns(na)] =   5.00000
    eigenvalues:
  0.500  0.500  0.500  0.500  0.500
    eigenvectors:
  1.000  0.000  0.000  0.000  0.000
  0.000  1.000  0.000  0.000  0.000
  0.000  0.000  1.000  0.000  0.000
  0.000  0.000  0.000  1.000  0.000
  0.000  0.000  0.000  0.000  1.000
    occupations:
  0.500  0.000  0.000  0.000  0.000
  0.000  0.500  0.000  0.000  0.000
  0.000  0.000  0.500  0.000  0.000
  0.000  0.000  0.000  0.500  0.000
  0.000  0.000  0.000  0.000  0.500
atom   22   Tr[ns(na)] =   5.00000
    eigenvalues:
  0.500  0.500  0.500  0.500  0.500
    eigenvectors:
  1.000  0.000  0.000  0.000  0.000
  0.000  1.000  0.000  0.000  0.000
  0.000  0.000  1.000  0.000  0.000
  0.000  0.000  0.000  1.000  0.000
  0.000  0.000  0.000  0.000  1.000
[...]
  0.000  0.000  0.223  0.005  0.772
  0.000  0.000  0.021  0.979  0.000
  0.180  0.820  0.000  0.000  0.000
  0.000  0.000  0.757  0.016  0.228
  0.820  0.180  0.000  0.000  0.000
    occupations:
  0.673 -0.000 -0.001 -0.047 -0.001
 -0.000  0.591 -0.000 -0.001 -0.000
 -0.001 -0.000  0.527  0.000  0.010
 -0.047 -0.001  0.000  0.612  0.000
 -0.001 -0.000  0.010  0.000  0.511
atom   10   Tr[ns(na)] =   5.77838
    eigenvalues:
  0.501  0.508  0.521  0.625  0.734
    eigenvectors:
  0.883  0.115  0.000  0.001  0.001
  0.001  0.000  0.000  0.999  0.000
  0.115  0.885  0.000  0.000  0.000
  0.001  0.000  0.000  0.000  0.999
  0.000  0.000  1.000  0.000  0.000
    occupations:
  0.503 -0.004 -0.002 -0.007 -0.000
 -0.004  0.625 -0.001  0.000  0.000
 -0.002 -0.001  0.507 -0.000 -0.000
 -0.007  0.000 -0.000  0.734 -0.000
 -0.000  0.000 -0.000 -0.000  0.521
atom   16   Tr[ns(na)] =   5.82838
    eigenvalues:
  0.492  0.508  0.564  0.611  0.738
    eigenvectors:
  0.012  0.002  0.331  0.000  0.655
  0.002  0.994  0.003  0.001  0.000
  0.961  0.001  0.003  0.026  0.009
  0.000  0.002  0.662  0.000  0.336
  0.025  0.001  0.000  0.973  0.000
    occupations:
  0.677  0.004  0.021 -0.082  0.002
  0.004  0.509  0.002  0.001 -0.002
  0.021  0.002  0.498 -0.010 -0.019
 -0.082  0.001 -0.010  0.622 -0.001
  0.002 -0.002 -0.019 -0.001  0.608
atom   17   Tr[ns(na)] =   5.82927
    eigenvalues:
  0.461  0.522  0.583  0.616  0.734
    eigenvectors:
  0.000  0.000  0.982  0.017  0.002
  0.001  0.000  0.017  0.982  0.000
  0.999  0.000  0.000  0.001  0.000
  0.000  0.000  0.001  0.000  0.998
  0.000  1.000  0.000  0.000  0.000
    occupations:
  0.583  0.004  0.001 -0.006  0.000
  0.004  0.615  0.004 -0.001 -0.000
  0.001  0.004  0.461  0.000  0.000
 -0.006 -0.001  0.000  0.734  0.000
  0.000 -0.000  0.000  0.000  0.522
atom   22   Tr[ns(na)] =   5.82546
    eigenvalues:
  0.503  0.532  0.586  0.591  0.700
    eigenvectors:
  0.000  0.000  0.215  0.012  0.773
  0.000  0.000  0.051  0.949  0.000
  0.173  0.827  0.000  0.000  0.000
  0.000  0.000  0.734  0.039  0.227
  0.827  0.173  0.000  0.000  0.000
    occupations:
  0.674  0.000 -0.001 -0.048 -0.001
  0.000  0.591 -0.000  0.001 -0.000
 -0.001 -0.000  0.527  0.000 -0.011
 -0.048  0.001  0.000  0.612  0.000
 -0.001 -0.000 -0.011  0.000  0.508
atom   23   Tr[ns(na)] =   5.83587
    eigenvalues:
  0.497  0.529  0.561  0.586  0.745
    eigenvectors:
  0.000  0.000  0.116  0.878  0.005
  0.000  0.000  0.883  0.117  0.000
  0.998  0.002  0.000  0.000  0.000
  0.000  0.000  0.001  0.005  0.995
  0.002  0.998  0.000  0.000  0.000
    occupations:
  0.584  0.008 -0.000 -0.012  0.000
  0.008  0.564  0.001  0.000  0.000
 -0.000  0.001  0.497 -0.000 -0.001
 -0.012  0.000 -0.000  0.744 -0.000
  0.000  0.000 -0.001 -0.000  0.529
N of occupied +U levels =  46.5749680
 --- exit write_ns ---

     Threshold (ethr) on eigenvalues was too large:
     Diagonalizing with lowered threshold

     Davidson diagonalization with overlap
     ethr =  1.36E-09,  avg # of iterations =  3.0

[...]

     total energy              =   -1732.30926449 Ry
     Harris-Foulkes estimate   =   -1732.30926450 Ry
     estimated scf accuracy    <       0.00000001 Ry

     iteration # 11     ecut=    40.00 Ry     beta=0.70
     Davidson diagonalization with overlap
     ethr =  4.54E-12,  avg # of iterations =  1.0

     negative rho (up, down):  0.342E-02 0.000E+00

     End of self-consistent calculation
 --- enter write_ns ---
 LDA+U parameters:
U( 2)     =  2.00000000
alpha( 2) =  0.00000000
atom    3   Tr[ns(na)] =   5.82878
    eigenvalues:
  0.493  0.509  0.564  0.612  0.736
    eigenvectors:
  0.012  0.002  0.329  0.000  0.657
  0.002  0.995  0.003  0.001  0.000
  0.962  0.001  0.004  0.025  0.009
  0.000  0.001  0.664  0.000  0.334
  0.025  0.001  0.000  0.974  0.000
    occupations:
  0.676 -0.004  0.021 -0.081 -0.001
 -0.004  0.510 -0.001 -0.001 -0.002
  0.021 -0.001  0.498 -0.010  0.018
 -0.081 -0.001 -0.010  0.621  0.000
 -0.001 -0.002  0.018  0.000  0.609
atom    4   Tr[ns(na)] =   5.82167
    eigenvalues:
  0.450  0.522  0.582  0.624  0.733
    eigenvectors:
  0.000  0.000  0.990  0.009  0.001
  0.000  0.000  0.009  0.990  0.000
  1.000  0.000  0.000  0.000  0.000
  0.000  0.000  0.001  0.000  0.999
  0.000  1.000  0.000  0.000  0.000
    occupations:
  0.582  0.004  0.001 -0.004  0.000
  0.004  0.623  0.003 -0.001 -0.000
  0.001  0.003  0.450 -0.001  0.000
 -0.004 -0.001 -0.001  0.733  0.000
  0.000 -0.000  0.000  0.000  0.522
atom    9   Tr[ns(na)] =   5.82756
    eigenvalues:
  0.506  0.532  0.586  0.591  0.699
    eigenvectors:
  0.000  0.000  0.223  0.005  0.772
  0.000  0.000  0.020  0.980  0.000
  0.179  0.821  0.000  0.000  0.000
  0.000  0.000  0.757  0.016  0.228
  0.821  0.179  0.000  0.000  0.000
    occupations:
  0.673 -0.000 -0.001 -0.047 -0.001
 -0.000  0.591 -0.000 -0.001 -0.000
 -0.001 -0.000  0.527  0.000  0.010
 -0.047 -0.001  0.000  0.612  0.000
 -0.001 -0.000  0.010  0.000  0.511
atom   10   Tr[ns(na)] =   5.77762
    eigenvalues:
  0.501  0.508  0.521  0.625  0.734
    eigenvectors:
  0.882  0.116  0.000  0.001  0.001
  0.001  0.000  0.000  0.999  0.000
  0.116  0.884  0.000  0.000  0.000
  0.001  0.000  0.000  0.000  0.999
  0.000  0.000  1.000  0.000  0.000
    occupations:
  0.502 -0.004 -0.002 -0.007 -0.000
 -0.004  0.625 -0.001  0.000  0.000
 -0.002 -0.001  0.507 -0.000 -0.000
 -0.007  0.000 -0.000  0.734 -0.000
 -0.000  0.000 -0.000 -0.000  0.521
atom   16   Tr[ns(na)] =   5.82835
    eigenvalues:
  0.492  0.509  0.564  0.611  0.738
    eigenvectors:
  0.012  0.002  0.331  0.000  0.655
  0.002  0.994  0.003  0.001  0.000
  0.961  0.001  0.003  0.026  0.009
  0.000  0.002  0.662  0.000  0.336
  0.025  0.001  0.000  0.973  0.000
    occupations:
  0.677  0.004  0.021 -0.082  0.002
  0.004  0.509  0.002  0.001 -0.002
  0.021  0.002  0.498 -0.010 -0.019
 -0.082  0.001 -0.010  0.622 -0.001
  0.002 -0.002 -0.019 -0.001  0.608
atom   17   Tr[ns(na)] =   5.82950
    eigenvalues:
  0.461  0.522  0.583  0.616  0.734
    eigenvectors:
  0.000  0.000  0.982  0.017  0.002
  0.001  0.000  0.017  0.983  0.000
  0.999  0.000  0.000  0.001  0.000
  0.000  0.000  0.001  0.000  0.998
  0.000  1.000  0.000  0.000  0.000
    occupations:
  0.583  0.004  0.001 -0.006  0.000
  0.004  0.615  0.004 -0.001 -0.000
  0.001  0.004  0.461  0.000  0.000
 -0.006 -0.001  0.000  0.734  0.000
  0.000 -0.000  0.000  0.000  0.522
atom   22   Tr[ns(na)] =   5.82540
    eigenvalues:
  0.503  0.532  0.586  0.591  0.700
    eigenvectors:
  0.000  0.000  0.215  0.012  0.773
  0.000  0.000  0.051  0.949  0.000
  0.173  0.827  0.000  0.000  0.000
  0.000  0.000  0.734  0.039  0.227
  0.827  0.173  0.000  0.000  0.000
    occupations:
  0.674  0.000 -0.001 -0.048 -0.001
  0.000  0.591 -0.000  0.001 -0.000
 -0.001 -0.000  0.527  0.000 -0.011
 -0.048  0.001  0.000  0.612  0.000
 -0.001 -0.000 -0.011  0.000  0.508
atom   23   Tr[ns(na)] =   5.83587
    eigenvalues:
  0.497  0.529  0.561  0.586  0.745
    eigenvectors:
  0.000  0.000  0.117  0.878  0.005
  0.000  0.000  0.882  0.117  0.000
  0.998  0.002  0.000  0.000  0.000
  0.000  0.000  0.001  0.005  0.995
  0.002  0.998  0.000  0.000  0.000
    occupations:
  0.584  0.008 -0.000 -0.012  0.000
  0.008  0.564  0.001  0.000  0.000
 -0.000  0.001  0.497 -0.000 -0.001
 -0.012  0.000 -0.000  0.744 -0.000
  0.000  0.000 -0.001 -0.000  0.529
N of occupied +U levels =  46.5747489
 --- exit write_ns ---

[...]

          k = 0.2500-0.3900 0.0000 ( 29726 PWs)   bands (ev):

[...]

          k =-0.2500 0.1950 0.0000 ( 29746 PWs)   bands (ev):

   -62.3142 -62.2737 -62.1867 -62.1146 -62.0730 -62.0496 -61.9854 -61.9672
   -36.8479 -36.6955 -36.6455 -36.6260 -36.6041 -36.5428 -36.4135 -36.4073
   -36.3702 -36.3550 -36.3382 -36.2698 -36.2660 -36.2128 -36.1921 -36.1835
   -36.1323 -36.0741 -36.0696 -36.0453 -36.0185 -35.8475 -35.6823 -35.6687
   -20.6037 -20.3537 -19.7784 -19.6493 -19.5821 -19.4650 -19.3536 -19.2672
   -19.1965 -19.1097 -18.8851 -18.7689 -18.7413 -18.6952 -18.6379 -18.5742
   -18.4877 -18.0357 -17.8847  -8.6374  -8.4904  -8.0447  -7.9766  -7.6814
    -7.5738  -7.5341  -7.4458  -7.2747  -7.1751  -7.1307  -6.9950  -6.8414
    -6.7510  -6.6093  -6.3136  -6.2411  -6.1362  -6.0972  -5.9583  -5.8558
    -5.6857  -5.6637  -5.5202  -5.4473  -5.2760  -5.1987  -5.0783  -4.9736
    -4.8488  -4.6662  -4.6165  -4.4522  -4.3944  -4.3558  -4.2732  -4.2473
    -4.1949  -4.1087  -4.0324  -3.9365  -3.8652  -3.7722  -3.6474  -3.5119
    -3.4159  -3.3248  -3.2733  -3.1810  -3.1152  -3.0729  -2.9820  -2.8742
    -2.6975  -2.6532  -2.5975  -2.3406  -1.6149  -1.4907  -1.3758  -0.5364
    -0.3876  -0.2961  -0.2033   0.3286   0.4120   0.7515   0.8598   0.9364
     0.9975   1.2083   1.3155   1.4985   1.6359   1.6650   1.7354   1.9236
     1.9683   1.9969   2.0823   2.3412   2.5821   3.4723   3.6892   3.7675
     3.8684   4.0007   4.0965   4.2030   4.4932   4.6456   4.7400   4.8336
     4.8930   5.0445   5.1029   5.3631   5.6917   5.8637   5.9426   6.0704
     6.1709   6.2650   6.4425   6.4955   6.6238   6.8122   7.1089   7.1715
     7.2947   7.3595   7.6197   7.7108   8.0085   8.1172   8.2805   8.3618
     8.5318   8.6291   8.7428   8.8666   8.9764   9.0626   9.1674   9.3113
     9.4139   9.5049   9.5658   9.6466   9.7168   9.7571   9.8366   9.9799
    10.0912  10.3408  10.3725  10.4522  10.5174  10.6761  10.7367  10.8292
    10.8973  11.0192  11.1338  11.1977  11.3819  11.5044  11.6026  11.6502
    11.7743  11.8880  11.9103  12.0337  12.0886  12.2087  12.3075  12.3632
    12.4116  12.4368  12.5123  12.6364  12.7649  12.8335  12.9560  13.0213
    13.0888  13.1636  13.2412  13.3309  13.3755  13.4700  13.4941  13.5607
    13.6350  13.7213  13.8140  13.8490  13.9352  14.0278  14.0528  14.1069
    14.1709  14.2070  14.2901  14.3457  14.4064  14.4989  14.5338  14.6351
    14.6858  14.7534  14.8619  14.9420  15.0217  15.0923  15.1292  15.2270
    15.3332  15.4348  15.5170  15.5945  15.6087  15.7210  15.7792  15.9409
    15.9611  16.0221  16.0739  16.1414  16.2363  16.3178  16.3808  16.4119
    16.4474  16.4798  16.5640  16.6534  16.7694  16.8134  16.8486  16.9790
    17.0737  17.1444  17.1979  17.2360  17.2686  17.3278  17.4125  17.4901
    17.5428  17.5975  17.7014  17.8249  17.8793  17.9753  18.0584  18.1356
    18.2176  18.2468  18.2958  18.3205  18.4230  18.5440  18.5795  18.7021
    18.7662  18.8407  18.9418  18.9825  19.0523  19.1412  19.2081  19.2593
    19.3750  19.4234  19.5302  19.5977  19.8019  19.8193  19.9191  19.9586
    19.9644  20.0680  20.1268  20.1759  20.2596  20.2889  20.3468  20.3627
    20.3856  20.4664  20.5225  20.6039  20.6484  20.7308  20.7783  20.8193
    20.9128  21.0060  21.0403  21.1351  21.2149  21.2722  21.3210  21.3595
    21.4318  21.4899  21.5404  21.6158  21.6466  21.7339  21.7604  21.7982
    21.8460  21.8796

     the Fermi energy is     0.2140 ev

!    total energy              =   -1732.30926449 Ry
     Harris-Foulkes estimate   =   -1732.30926450 Ry
     estimated scf accuracy    <          3.9E-09 Ry

     The total energy is the sum of the following terms:

     one-electron contribution =  -22254.48952483 Ry
     hartree contribution      =   11152.46192480 Ry
     xc contribution           =    -294.52864594 Ry
     ewald contribution        =    9662.85884576 Ry
     Hubbard energy            =       1.38791088 Ry
     smearing contrib. (-TS)   =       0.00022485 Ry

     convergence has been achieved in  11 iterations

     Forces acting on atoms (Ry/au):

     negative rho (up, down):  0.342E-02 0.000E+00
     atom    1 type  1   force =    -0.00088191   -0.00499347   -0.00029128
     atom    2 type  1   force =    -0.00027285    0.00806553    0.00055979
     atom    3 type  2   force =    -0.00234944   -0.00561002    0.00008714
     atom    4 type  2   force =     0.00016672    0.00522254   -0.00039803
     atom    5 type  1   force =     0.00083304   -0.00619011    0.00009116
     atom    6 type  1   force =    -0.00088217    0.00263764    0.00006679
     atom    7 type  1   force =     0.00029499    0.00036413    0.00047563
     atom    8 type  1   force =     0.00352510    0.00050859    0.00023167
     atom    9 type  2   force =     0.00056220    0.00041252    0.00017820
     atom   10 type  2   force =    -0.00427768    0.00027056   -0.00006900
     atom   11 type  1   force =    -0.01297000   -0.02143621   -0.00019957
     atom   12 type  1   force =    -0.01349032    0.02041914   -0.00019040
     atom   13 type  1   force =     0.00049161    0.00000670   -0.00014092
     atom   14 type  1   force =    -0.00361963   -0.00619651   -0.00030518
     atom   15 type  1   force =    -0.00026030    0.00984646    0.00026800
     atom   16 type  2   force =     0.00626715   -0.00696904    0.00010145
     atom   17 type  2   force =    -0.00100761    0.00444529   -0.00038402
     atom   18 type  1   force =     0.00186337   -0.00628807    0.00010279
     atom   19 type  1   force =     0.00068506    0.00329475    0.00002367
     atom   20 type  1   force =    -0.00602358    0.00107409   -0.00037269
     atom   21 type  1   force =     0.00282681    0.00031687    0.00058921
     atom   22 type  2   force =    -0.00529435   -0.00047125   -0.00036317
     atom   23 type  2   force =     0.00415036    0.00185089    0.00010311
     atom   24 type  1   force =     0.01380601   -0.01922715   -0.00002818
     atom   25 type  1   force =     0.01472043    0.01912245   -0.00001117
     atom   26 type  1   force =     0.00015726    0.00050148   -0.00040946
     atom   27 type  3   force =    -0.00000321   -0.00034292   -0.00016364
     atom   28 type  3   force =    -0.00001243   -0.00011893   -0.00000681
     atom   29 type  3   force =     0.00027672   -0.00001557   -0.00000168
     atom   30 type  3   force =     0.00041291   -0.00003768    0.00010634
     atom   31 type  1   force =     0.00021645    0.00002865   -0.00027401
     atom   32 type  3   force =     0.00008931   -0.00049136    0.00062427

     Total force =     0.001817     Total SCF correction =     0.000155

     bfgs converged in   6 scf cycles and   5 bfgs steps
     (criteria: energy < 0.10E-03, force < 0.10E-02)

     End of BFGS Geometry Optimization

     Final energy   =   -1732.3092644914 Ry
Begin final coordinates

ATOMIC_POSITIONS (crystal)
O0       0.000000000   0.000000000   0.371408731    0   0   1
O0       0.000000000   0.500000000   0.382984334    0   0   1
Mo1      0.250000000   0.500000000   0.440612864    0   0   1
Mo1      0.000000000   0.000000000   0.443628938    0   0   1
O0       0.250000000   0.780000000   0.443228502    0   0   1
O0       0.250000000   0.220000000   0.443183836    0   0   1
O0       0.000000000   0.500000000   0.498069309    0   0   1
O0       0.000000000   0.000000000   0.516513188    0   0   1
Mo1      0.250000000   0.000000000   0.575345619    0   0   1
Mo1      0.000000000   0.500000000   0.565282965    0   0   1
O0       0.250000000   0.720000000   0.570917228    0   0   1
O0       0.250000000   0.280000000   0.571094430    0   0   1
O0       0.000000000   0.000000000   0.625879507    0   0   1
O0       0.500000000   0.000000000   0.371568931    0   0   1
O0       0.500000000   0.500000000   0.382977058    0   0   1
Mo1      0.750000000   0.500000000   0.440514955    0   0   1
Mo1      0.500000000   0.000000000   0.444145124    0   0   1
O0       0.750000000   0.780000000   0.443301209    0   0   1
O0       0.750000000   0.220000000   0.443120968    0   0   1
O0       0.500000000   0.500000000   0.498512572    0   0   1
O0       0.500000000   0.000000000   0.516278873    0   0   1
Mo1      0.750000000   0.000000000   0.575267258    0   0   1
Mo1      0.500000000   0.500000000   0.571399288    0   0   1
O0       0.750000000   0.720000000   0.570653608    0   0   1
O0       0.750000000   0.280000000   0.570618548    0   0   1
O0       0.500000000   0.000000000   0.625782612    0   0   1
H2      -0.000759803   0.610159488   0.360371233
H2       0.499495308   0.617233348   0.362783980
H2       0.166844543   0.017138077   0.356918522
H2       0.665173153   0.019026719   0.356668244
O0       0.514277832   0.500211726   0.642144734
H2       0.389972603   0.495247500   0.668172835
End final coordinates

     General routines

     Parallel routines
     Hubbard U routines

   This run was terminated on:   5:31:23  29Apr2014

   JOB DONE.
Running PBS batch system epilogue script
Job id: 340386.audhumbla.fysik.dtu.dk
Username: zhonxu
Groupname: campgst
Jobname: MoO2/Eads-2-layers/OH-U-2.0
Sessionid: 13680
Queuename: verylong
Accounting:
This job has allocated the following 16 nodes:
d073 d073 d073 d073 d073 d073 d073 d073 d051 d051 d051 d051 d051 d051 d051 d051
Finished epilogue job 340386.audhumbla.fysik.dtu.dk for zhonxu