     Program PWSCF v.5.0.2 (svn rev. 9656) starts on 28Apr2014 at  1:59:29

     Current dimensions of program PWSCF are:
     Max number of different atomic species (ntypx) = 10
     Max number of k-points (npk) =  40000
     Max angular momentum in pseudopotentials (lmaxx) =  3
     Reading input from pwscf.in
Warning: card &CELL ignored
Warning: card / ignored

     Subspace diagonalization in iterative solution of the eigenvalue problem:
     a serial algorithm will be used

     bravais-lattice index     =            0
     lattice parameter (alat)  =      12.2076  a.u.
     unit-cell volume          =    7496.5096 (a.u.)^3
     number of atoms/cell      =           31
     number of atomic types    =            3
     number of electrons       =       246.00
     number of Kohn-Sham states=          369
     kinetic-energy cutoff     =      40.0000  Ry
     charge density cutoff     =     500.0000  Ry
     convergence threshold     =      1.0E-06
     mixing beta               =       0.7000
     number of iterations used =            8  plain     mixing
     Exchange-correlation      = SLA  PW   PBE  PBE ( 1 4 3 4 0)
     EXX-fraction              =        0.00
     nstep                     =           50

     celldm(1)=  12.207631  celldm(2)=   0.000000  celldm(3)=   0.000000
     celldm(4)=   0.000000  celldm(5)=   0.000000  celldm(6)=   0.000000

     crystal axes: (cart. coord. in units of alat)
               a(1) = (   1.000000   0.000000   0.000000 )
               a(2) = (   0.000000   1.004836   0.000000 )
               a(3) = (   0.000000   0.000000   4.100811 )

     reciprocal axes: (cart. coord. in units 2 pi/alat)
               b(1) = (  1.000000  0.000000  0.000000 )
               b(2) = (  0.000000  0.995187  0.000000 )
               b(3) = (  0.000000  0.000000  0.243854 )

     PseudoPot. # 1 for O  read from file:
     /home/camp/zhonxu/pseudo/o_pbe_v1.01.uspp.F.UPF
     MD5 check sum: 2bcb18d16ea4b960afae9ec6d52f22d2
     Pseudo is Ultrasoft + core correction, Zval =  6.0
     Generated by new atomic code, or converted to UPF format
     Using radial grid of  737 points,  5 beta functions with:
                l(1) =   0
                l(2) =   0
                l(3) =   1
                l(4) =   1
                l(5) =   2
     Q(r) pseudized with  8 coefficients,  rinner =    0.900   0.900   0.900
                                                       0.900   0.900

     PseudoPot. # 2 for Pt read from file:
     /home/camp/zhonxu/pseudo/pt_pbe_v1.uspp.F.UPF
     MD5 check sum: 4c71d6ad5ef119f1eb26a4d0b7884226
     Pseudo is Ultrasoft + core correction, Zval = 16.0
     Generated by new atomic code, or converted to UPF format
     Using radial grid of  985 points,  6 beta functions with:
                l(1) =   0
                l(2) =   0
                l(3) =   1
                l(4) =   1
                l(5) =   2
                l(6) =   2
     Q(r) pseudized with  8 coefficients,  rinner =    1.300   1.300   1.300
                                                       1.300   1.300

     PseudoPot. # 3 for H  read from file:
     /home/camp/zhonxu/pseudo/h_pbe_v1.uspp.F.UPF
     MD5 check sum: 3408e3ff4ec8b0a4e358431e7e038a48
     Pseudo is Ultrasoft, Zval =  1.0
     Generated by new atomic code, or converted to UPF format
     Using radial grid of  615 points,  2 beta functions with:
                l(1) =   0
                l(2) =   0
     Q(r) pseudized with  8 coefficients,  rinner =    0.700

     atomic species   valence    mass     pseudopotential
        O0             6.00    15.99940     O ( 1.00)
        Pt1           16.00   195.08000     Pt( 1.00)
        H2             1.00     1.00794     H ( 1.00)

     Simplified LDA+U calculation (l_max = 2) with parameters (eV):
     atomic species    L          U    alpha       J0     beta
        Pt1            2     0.5000   0.0000   0.0000   0.0000

     No symmetry found

   Cartesian axes

     site n.     atom                  positions (alat units)
         1           O0  tau(   1) = (   0.0000000   0.0000000   1.5489174  )
         2           O0  tau(   2) = (   0.0000000   0.5024180   1.6470088  )
         3           Pt1 tau(   3) = (   0.2500000   0.5024180   1.8504500  )
         4           Pt1 tau(   4) = (   0.0000000   0.0000000   1.8564782  )
         5           O0  tau(   5) = (   0.2500000   0.8139171   1.8182587  )
         6           O0  tau(   6) = (   0.2500000   0.1909188   1.8867012  )
         7           O0  tau(   7) = (   0.0000000   0.5024180   2.0373240  )
         8           O0  tau(   8) = (   0.0000000   0.0000000   2.1721997  )
         9           Pt1 tau(   9) = (   0.2500000   0.0000000   2.3623543  )
        10           Pt1 tau(  10) = (   0.0000000   0.5024180   2.3594017  )
        11           O0  tau(  11) = (   0.2500000   0.6933368   2.3215512  )
        12           O0  tau(  12) = (   0.2500000   0.3114991   2.4021322  )
        13           O0  tau(  13) = (   0.0000000   0.0000000   2.5481621  )
        14           O0  tau(  14) = (   0.5000000   0.0000000   1.5492455  )
        15           O0  tau(  15) = (   0.5000000   0.5024180   1.6439332  )
        16           Pt1 tau(  16) = (   0.7500000   0.5024180   1.8504910  )
        17           Pt1 tau(  17) = (   0.5000000   0.0000000   1.8565192  )
        18           O0  tau(  18) = (   0.7500000   0.8139171   1.8184227  )
        19           O0  tau(  19) = (   0.7500000   0.1909188   1.8866602  )
        20           O0  tau(  20) = (   0.5000000   0.5024180   2.0431061  )
        21           O0  tau(  21) = (   0.5000000   0.0000000   2.1716256  )
        22           Pt1 tau(  22) = (   0.7500000   0.0000000   2.3623953  )
        23           Pt1 tau(  23) = (   0.5000000   0.5024180   2.3697358  )
        24           O0  tau(  24) = (   0.7500000   0.6933368   2.3215102  )
        25           O0  tau(  25) = (   0.7500000   0.3114991   2.4021732  )
        26           O0  tau(  26) = (   0.5000000   0.0000000   2.5480390  )
        27           H2  tau(  27) = (   0.0001100   0.6425926   1.5814778  )
        28           H2  tau(  28) = (   0.5001800   0.6431151   1.5801656  )
        29           H2  tau(  29) = (   0.1426600   0.0364956   1.5073762  )
        30           H2  tau(  30) = (   0.6419200   0.0388771   1.5073762  )
        31           O0  tau(  31) = (   0.5000900   0.5753691   2.6428088  )

     number of k points=    10  Methfessel-Paxton smearing, width (Ry)=  0.0100
                       cart. coord. in units 2pi/alat
        k(    1) = (   0.0000000   0.0000000   0.0000000), wk =   0.1250000
        k(    2) = (   0.0000000   0.2487968   0.0000000), wk =   0.2500000
        k(    3) = (   0.0000000  -0.4975937   0.0000000), wk =   0.1250000
        k(    4) = (   0.2500000   0.0000000   0.0000000), wk =   0.2500000
        k(    5) = (   0.2500000   0.2487968   0.0000000), wk =   0.2500000
        k(    6) = (   0.2500000  -0.4975937   0.0000000), wk =   0.2500000
        k(    7) = (  -0.5000000   0.0000000   0.0000000), wk =   0.1250000
        k(    8) = (  -0.5000000   0.2487968   0.0000000), wk =   0.2500000
        k(    9) = (  -0.5000000  -0.4975937   0.0000000), wk =   0.1250000
        k(   10) = (  -0.2500000   0.2487968   0.0000000), wk =   0.2500000

     Largest allocated arrays     est. size (Mb)     dimensions
     Largest temporary arrays     est. size (Mb)     dimensions

     Check: negative/imaginary core charge=   -0.000003    0.000000

     Initial potential from superposition of free atoms
     Check: negative starting charge=   -1.533958

     starting charge  241.99985, renormalised to  246.00000

     negative rho (up, down):  0.156E+01 0.000E+00
     Number of +U iterations with fixed ns =  0
     Starting occupations:
 --- enter write_ns ---
 LDA+U parameters:
U( 2)     =  0.50000000
alpha( 2) =  0.00000000
atom    3   Tr[ns(na)] =   8.00000
    eigenvalues:
  0.800  0.800  0.800  0.800  0.800
    eigenvectors:
  1.000  0.000  0.000  0.000  0.000
  0.000  1.000  0.000  0.000  0.000
  0.000  0.000  1.000  0.000  0.000
  0.000  0.000  0.000  1.000  0.000
  0.000  0.000  0.000  0.000  1.000
    occupations:
  0.800  0.000  0.000  0.000  0.000
  0.000  0.800  0.000  0.000  0.000
  0.000  0.000  0.800  0.000  0.000
  0.000  0.000  0.000  0.800  0.000
  0.000  0.000  0.000  0.000  0.800
atom    4   Tr[ns(na)] =   8.00000
    eigenvalues:
  0.800  0.800  0.800  0.800  0.800
    eigenvectors:
  1.000  0.000  0.000  0.000  0.000
  0.000  1.000  0.000  0.000  0.000
  0.000  0.000  1.000  0.000  0.000
  0.000  0.000  0.000  1.000  0.000
  0.000  0.000  0.000  0.000  1.000
    occupations:
  0.800  0.000  0.000  0.000  0.000
  0.000  0.800  0.000  0.000  0.000
  0.000  0.000  0.800  0.000  0.000
  0.000  0.000  0.000  0.800  0.000
  0.000  0.000  0.000  0.000  0.800
atom    9   Tr[ns(na)] =   8.00000
    eigenvalues:
  0.800  0.800  0.800  0.800  0.800
    eigenvectors:
  1.000  0.000  0.000  0.000  0.000
  0.000  1.000  0.000  0.000  0.000
  0.000  0.000  1.000  0.000  0.000
  0.000  0.000  0.000  1.000  0.000
  0.000  0.000  0.000  0.000  1.000
    occupations:
  0.800  0.000  0.000  0.000  0.000
  0.000  0.800  0.000  0.000  0.000
  0.000  0.000  0.800  0.000  0.000
  0.000  0.000  0.000  0.800  0.000
  0.000  0.000  0.000  0.000  0.800
atom   10   Tr[ns(na)] =   8.00000
    eigenvalues:
  0.800  0.800  0.800  0.800  0.800
    eigenvectors:
  1.000  0.000  0.000  0.000  0.000
  0.000  1.000  0.000  0.000  0.000
  0.000  0.000  1.000  0.000  0.000
  0.000  0.000  0.000  1.000  0.000
  0.000  0.000  0.000  0.000  1.000
    occupations:
  0.800  0.000  0.000  0.000  0.000
  0.000  0.800  0.000  0.000  0.000
  0.000  0.000  0.800  0.000  0.000
  0.000  0.000  0.000  0.800  0.000
  0.000  0.000  0.000  0.000  0.800
atom   16   Tr[ns(na)] =   8.00000
    eigenvalues:
  0.800  0.800  0.800  0.800  0.800
    eigenvectors:
  1.000  0.000  0.000  0.000  0.000
  0.000  1.000  0.000  0.000  0.000
  0.000  0.000  1.000  0.000  0.000
  0.000  0.000  0.000  1.000  0.000
  0.000  0.000  0.000  0.000  1.000
    occupations:
  0.800  0.000  0.000  0.000  0.000
  0.000  0.800  0.000  0.000  0.000
  0.000  0.000  0.800  0.000  0.000
  0.000  0.000  0.000  0.800  0.000
  0.000  0.000  0.000  0.000  0.800
atom   17   Tr[ns(na)] =   8.00000
    eigenvalues:
  0.800  0.800  0.800  0.800  0.800
    eigenvectors:
  1.000  0.000  0.000  0.000  0.000
  0.000  1.000  0.000  0.000  0.000
  0.000  0.000  1.000  0.000  0.000
  0.000  0.000  0.000  1.000  0.000
  0.000  0.000  0.000  0.000  1.000
    occupations:
  0.800  0.000  0.000  0.000  0.000
  0.000  0.800  0.000  0.000  0.000
  0.000  0.000  0.800  0.000  0.000
  0.000  0.000  0.000  0.800  0.000
  0.000  0.000  0.000  0.000  0.800
atom   22   Tr[ns(na)] =   8.00000
    eigenvalues:
  0.800  0.800  0.800  0.800  0.800
    eigenvectors:
  1.000  0.000  0.000  0.000  0.000
  0.000  1.000  0.000  0.000  0.000
  0.000  0.000  1.000  0.000  0.000
  0.000  0.000  0.000  1.000  0.000
  0.000  0.000  0.000  0.000  1.000
    occupations:
  0.800  0.000  0.000  0.000  0.000
  0.000  0.800  0.000  0.000  0.000
[...]
    occupations:
  0.704 -0.005 -0.018  0.026 -0.001
 -0.005  0.977  0.001  0.000  0.026
 -0.018  0.001  0.975  0.003  0.000
  0.026  0.000  0.003  0.980  0.000
 -0.001  0.026  0.000  0.000  0.684
atom    9   Tr[ns(na)] =   8.60698
    eigenvalues:
  0.703  0.716  0.948  0.954  0.983
    eigenvectors:
  0.002  0.135  0.001  0.010  0.852
  0.987  0.013  0.000  0.000  0.000
  0.000  0.010  0.014  0.972  0.004
  0.011  0.842  0.001  0.005  0.142
  0.000  0.000  0.985  0.013  0.002
    occupations:
  0.946  0.001 -0.007 -0.091  0.001
  0.001  0.703  0.001  0.001 -0.004
 -0.007  0.001  0.952 -0.023  0.001
 -0.091  0.001 -0.023  0.755 -0.001
  0.001 -0.004  0.001 -0.001  0.948
atom   10   Tr[ns(na)] =   8.68005
    eigenvalues:
  0.661  0.748  0.970  0.978  0.983
    eigenvectors:
  0.000  0.982  0.000  0.005  0.013
  0.010  0.000  0.990  0.000  0.000
  0.000  0.001  0.000  0.481  0.517
  0.000  0.017  0.000  0.514  0.469
  0.990  0.000  0.010  0.000  0.000
    occupations:
  0.752  0.000 -0.009  0.030  0.000
  0.000  0.967  0.000 -0.000 -0.031
 -0.009  0.000  0.981 -0.001 -0.000
  0.030 -0.000 -0.001  0.977 -0.000
  0.000 -0.031 -0.000 -0.000  0.664
atom   16   Tr[ns(na)] =   8.65177
    eigenvalues:
  0.683  0.696  0.981  0.982  0.985
    eigenvectors:
  0.046  0.130  0.472  0.323  0.028
  0.746  0.253  0.000  0.000  0.000
  0.000  0.003  0.003  0.140  0.854
  0.207  0.613  0.103  0.058  0.019
  0.000  0.000  0.422  0.478  0.100
    occupations:
  0.930 -0.004  0.007 -0.110  0.001
 -0.004  0.686 -0.002 -0.005 -0.004
  0.007 -0.002  0.983  0.015 -0.001
 -0.110 -0.005  0.015  0.744 -0.001
  0.001 -0.004 -0.001 -0.001  0.982
atom   17   Tr[ns(na)] =   8.63908
    eigenvalues:
  0.683  0.702  0.972  0.980  0.982
    eigenvectors:
  0.000  0.987  0.005  0.001  0.007
  0.008  0.000  0.040  0.948  0.003
  0.000  0.004  0.942  0.037  0.017
  0.000  0.009  0.012  0.007  0.972
  0.992  0.000  0.000  0.007  0.000
    occupations:
  0.705 -0.005 -0.018  0.026 -0.001
 -0.005  0.977  0.001  0.000  0.026
 -0.018  0.001  0.972  0.003  0.000
  0.026  0.000  0.003  0.980  0.000
 -0.001  0.026  0.000  0.000  0.686
atom   22   Tr[ns(na)] =   8.60701
    eigenvalues:
  0.703  0.716  0.948  0.954  0.983
    eigenvectors:
  0.000  0.136  0.001  0.011  0.852
  0.997  0.003  0.000  0.000  0.000
  0.000  0.010  0.021  0.964  0.004
  0.002  0.851  0.001  0.004  0.142
  0.000  0.000  0.978  0.020  0.002
    occupations:
  0.946  0.000 -0.007 -0.091 -0.001
  0.000  0.703 -0.001 -0.001 -0.004
 -0.007 -0.001  0.952 -0.023 -0.001
 -0.091 -0.001 -0.023  0.755  0.001
 -0.001 -0.004 -0.001  0.001  0.948
atom   23   Tr[ns(na)] =   8.58242
    eigenvalues:
  0.712  0.734  0.911  0.949  0.985
    eigenvectors:
  0.000  0.897  0.096  0.000  0.006
  0.014  0.000  0.000  0.986  0.000
  0.000  0.089  0.891  0.000  0.020
  0.000  0.014  0.012  0.000  0.973
  0.986  0.000  0.000  0.014  0.000
    occupations:
  0.753  0.000  0.049  0.026 -0.000
  0.000  0.946 -0.000  0.000 -0.028
  0.049 -0.000  0.897 -0.017 -0.000
  0.026  0.000 -0.017  0.981 -0.000
 -0.000 -0.028 -0.000 -0.000  0.715
N of occupied +U levels =  69.0591768
 --- exit write_ns ---

     Threshold (ethr) on eigenvalues was too large:
     Diagonalizing with lowered threshold

     Davidson diagonalization with overlap
     ethr =  5.05E-08,  avg # of iterations =  1.0

[...]

     total energy              =   -2280.70218195 Ry
     Harris-Foulkes estimate   =   -2280.70218195 Ry
     estimated scf accuracy    <       0.00000001 Ry

     iteration # 12     ecut=    40.00 Ry     beta=0.70
     Davidson diagonalization with overlap
     ethr =  5.53E-12,  avg # of iterations =  1.0

     negative rho (up, down):  0.158E+01 0.000E+00

     End of self-consistent calculation
 --- enter write_ns ---
 LDA+U parameters:
U( 2)     =  0.50000000
alpha( 2) =  0.00000000
atom    3   Tr[ns(na)] =   8.65190
    eigenvalues:
  0.683  0.696  0.981  0.982  0.985
    eigenvectors:
  0.046  0.130  0.468  0.330  0.026
  0.747  0.253  0.000  0.000  0.000
  0.000  0.003  0.005  0.144  0.848
  0.206  0.614  0.103  0.059  0.018
  0.000  0.000  0.424  0.467  0.109
    occupations:
  0.930  0.004  0.007 -0.110 -0.000
  0.004  0.686  0.002  0.005 -0.004
  0.007  0.002  0.983  0.016  0.001
 -0.110  0.005  0.016  0.744  0.001
 -0.000 -0.004  0.001  0.001  0.982
atom    4   Tr[ns(na)] =   8.63900
    eigenvalues:
  0.682  0.700  0.976  0.980  0.982
    eigenvectors:
  0.000  0.987  0.005  0.002  0.006
  0.008  0.000  0.085  0.900  0.007
  0.000  0.004  0.877  0.072  0.047
  0.000  0.009  0.032  0.019  0.941
  0.992  0.000  0.001  0.007  0.000
    occupations:
  0.704 -0.005 -0.018  0.026 -0.001
 -0.005  0.977  0.001  0.000  0.026
 -0.018  0.001  0.975  0.003  0.000
  0.026  0.000  0.003  0.980  0.000
 -0.001  0.026  0.000  0.000  0.684
atom    9   Tr[ns(na)] =   8.60528
    eigenvalues:
  0.703  0.716  0.948  0.954  0.983
    eigenvectors:
  0.002  0.135  0.001  0.010  0.852
  0.987  0.013  0.000  0.000  0.000
  0.000  0.010  0.013  0.973  0.004
  0.011  0.842  0.001  0.005  0.142
  0.000  0.000  0.986  0.012  0.002
    occupations:
  0.946  0.001 -0.007 -0.091  0.001
  0.001  0.703  0.001  0.001 -0.004
 -0.007  0.001  0.952 -0.023  0.001
 -0.091  0.001 -0.023  0.755 -0.000
  0.001 -0.004  0.001 -0.000  0.948
atom   10   Tr[ns(na)] =   8.68420
    eigenvalues:
  0.661  0.749  0.970  0.978  0.983
    eigenvectors:
  0.000  0.982  0.000  0.005  0.013
  0.010  0.000  0.990  0.000  0.000
  0.000  0.001  0.000  0.481  0.518
  0.000  0.017  0.000  0.514  0.469
  0.990  0.000  0.010  0.000  0.000
    occupations:
  0.753  0.000 -0.008  0.030  0.000
  0.000  0.967  0.000 -0.000 -0.031
 -0.008  0.000  0.981 -0.001 -0.000
  0.030 -0.000 -0.001  0.977 -0.000
  0.000 -0.031 -0.000 -0.000  0.664
atom   16   Tr[ns(na)] =   8.65201
    eigenvalues:
  0.683  0.696  0.981  0.982  0.985
    eigenvectors:
  0.046  0.130  0.477  0.319  0.028
  0.747  0.253  0.000  0.000  0.000
  0.000  0.003  0.002  0.141  0.853
  0.206  0.614  0.104  0.057  0.019
  0.000  0.000  0.417  0.483  0.101
    occupations:
  0.930 -0.004  0.007 -0.110  0.001
 -0.004  0.686 -0.002 -0.005 -0.004
  0.007 -0.002  0.983  0.015 -0.001
 -0.110 -0.005  0.015  0.744 -0.001
  0.001 -0.004 -0.001 -0.001  0.982
atom   17   Tr[ns(na)] =   8.63715
    eigenvalues:
  0.683  0.701  0.972  0.980  0.982
    eigenvectors:
  0.000  0.987  0.005  0.001  0.007
  0.008  0.000  0.038  0.951  0.003
  0.000  0.004  0.946  0.034  0.016
  0.000  0.009  0.011  0.006  0.974
  0.992  0.000  0.000  0.007  0.000
    occupations:
  0.705 -0.005 -0.018  0.026 -0.001
 -0.005  0.977  0.001  0.000  0.026
 -0.018  0.001  0.971  0.003  0.000
  0.026  0.000  0.003  0.980  0.000
 -0.001  0.026  0.000  0.000  0.685
atom   22   Tr[ns(na)] =   8.60526
    eigenvalues:
  0.703  0.715  0.948  0.954  0.983
    eigenvectors:
  0.000  0.136  0.001  0.011  0.852
  0.997  0.003  0.000  0.000  0.000
  0.000  0.010  0.020  0.965  0.004
  0.002  0.851  0.001  0.004  0.142
  0.000  0.000  0.979  0.019  0.002
    occupations:
  0.946  0.000 -0.007 -0.091 -0.001
  0.000  0.703 -0.001 -0.001 -0.004
 -0.007 -0.001  0.952 -0.023 -0.001
 -0.091 -0.001 -0.023  0.755  0.001
 -0.001 -0.004 -0.001  0.001  0.948
atom   23   Tr[ns(na)] =   8.58321
    eigenvalues:
  0.712  0.734  0.911  0.949  0.985
    eigenvectors:
  0.000  0.897  0.096  0.000  0.006
  0.014  0.000  0.000  0.986  0.000
  0.000  0.089  0.891  0.000  0.020
  0.000  0.014  0.012  0.000  0.974
  0.986  0.000  0.000  0.014  0.000
    occupations:
  0.753  0.000  0.049  0.026 -0.000
  0.000  0.946 -0.000  0.000 -0.028
  0.049 -0.000  0.897 -0.017 -0.000
  0.026  0.000 -0.017  0.981 -0.000
 -0.000 -0.028 -0.000 -0.000  0.715
N of occupied +U levels =  69.0580141
 --- exit write_ns ---

[...]

          k = 0.2500-0.4976 0.0000 ( 32026 PWs)   bands (ev):

[...]

          k =-0.2500 0.2488 0.0000 ( 32025 PWs)   bands (ev):

   -56.3788 -56.2826 -56.1605 -55.9952 -55.9560 -55.8902 -55.8552 -55.8530
   -55.8526 -55.8378 -55.7920 -55.7176 -55.7132 -55.6388 -55.5976 -55.5686
   -55.5635 -55.5502 -55.5407 -55.5362 -55.5100 -55.2081 -54.9545 -54.6549
   -22.1280 -21.8253 -21.2739 -21.0877 -20.7627 -20.6323 -20.6275 -20.4562
   -20.4288 -20.3591 -20.2849 -20.2413 -20.2117 -20.0755 -20.0181 -20.0075
   -19.2732 -19.0593 -18.8573 -10.2679 -10.0224  -9.9633  -9.8185  -9.4382
    -9.4013  -9.3415  -9.1473  -9.1039  -9.0673  -8.9723  -8.9306  -8.7968
    -8.6454  -8.6239  -8.5619  -8.4066  -8.3137  -8.0802  -7.8848  -7.8261
    -7.7261  -7.6474  -7.5079  -7.1434  -7.0672  -6.9952  -6.9311  -6.8153
    -6.7791  -6.7300  -6.6645  -6.5325  -6.4791  -6.4358  -6.3911  -6.1767
    -6.1562  -6.0308  -5.9500  -5.7901  -5.7216  -5.6186  -5.5282  -5.3136
    -5.2304  -5.1294  -5.0299  -4.9549  -4.8775  -4.7910  -4.6864  -4.4504
    -4.3934  -4.3233  -4.2872  -4.1108  -4.0260  -3.8906  -3.8278  -3.7594
    -3.7108  -3.6397  -3.5751  -3.5197  -3.4721  -3.4379  -3.1756  -3.1495
    -2.9874  -2.7306  -2.6138  -2.4639  -2.3901  -2.3130  -2.2349  -2.1200
    -1.9856  -1.8545  -1.7475  -1.6549  -1.5234  -1.1413  -1.0343  -0.6801
    -0.3593  -0.1746   0.0964   0.3745   0.6029   0.7535   0.7854   0.9300
     1.1159   1.3098   1.3457   1.7417   3.0494   3.8103   4.6026   5.0122
     5.0427   5.1191   5.3345   5.6516   6.0547   6.1570   6.1816   6.3084
     6.4403   6.5339   6.6774   6.8475   6.9590   7.0095   7.1024   7.2063
     7.3645   7.4730   7.5414   7.5853   7.6712   7.8616   7.9198   8.0110
     8.1349   8.2293   8.2882   8.4318   8.5447   8.6424   8.6688   8.7454
     8.8380   8.9764   9.1303   9.2908   9.3495   9.4596   9.5259   9.5837
     9.7005   9.8654  10.0002  10.1205  10.1993  10.2612  10.3210  10.3810
    10.5273  10.5823  10.6578  10.7764  10.8100  10.9434  11.0423  11.0759
    11.1730  11.2068  11.3565  11.4479  11.4804  11.7016  11.7199  11.7731
    11.8444  11.9443  11.9794  12.0577  12.1290  12.2044  12.2536  12.3248
    12.4004  12.4509  12.5076  12.5649  12.6338  12.7308  12.8163  12.8695
    12.9192  13.0176  13.1444  13.1652  13.2146  13.4058  13.4929  13.5326
    13.6093  13.6891  13.7549  13.8454  13.8878  13.9502  14.0156  14.1135
    14.1713  14.2603  14.4075  14.4700  14.5332  14.6214  14.7275  14.7989
    14.8609  14.9304  15.0531  15.1993  15.2319  15.3209  15.3985  15.4422
    15.5188  15.5710  15.6186  15.6607  15.7310  15.7560  15.7975  15.8246
    15.8923  15.9964  16.0432  16.0890  16.1456  16.1852  16.2239  16.2644
    16.2854  16.3447  16.4228  16.4514  16.4591  16.4721  16.4930  16.5183
    16.5903  16.7349  16.7973  16.8534  16.9048  16.9177  17.0124  17.0959
    17.1292  17.1829  17.2005  17.2198  17.2520  17.3116  17.4091  17.4607
    17.5019  17.5508  17.5830  17.6149  17.7248  17.7699  17.8823  17.9442
    18.0452  18.0803  18.1255  18.2103  18.2666  18.3659  18.4594  18.5028
    18.5862  18.6138  18.6931  18.7088  18.8027  18.8287  18.8950  19.0105
    19.0307  19.1423  19.1671  19.1979  19.3141  19.3563  19.4216  19.4400
    19.6337  19.7503  19.8179  19.8782  19.9349  19.9475  19.9807  20.0546
    20.1071  20.1945  20.2323  20.2938  20.3524  20.3655  20.4890  20.5654
    20.6386  20.6816  20.7548  20.8260  20.9106  20.9739  21.0131  21.0725
    21.0815  21.2250  21.2683  21.3741  21.4181  21.4705  21.5172  21.5571
    21.6060  21.6559  21.7233  21.7818  21.8216  21.8848  21.9803  22.0918
    22.1203

     the Fermi energy is    -1.7027 ev

!    total energy              =   -2280.70218195 Ry
     Harris-Foulkes estimate   =   -2280.70218195 Ry
     estimated scf accuracy    <          4.3E-09 Ry

     The total energy is the sum of the following terms:

     one-electron contribution =  -23638.19578207 Ry
     hartree contribution      =   11859.27383769 Ry
     xc contribution           =    -572.01343464 Ry
     ewald contribution        =   10070.08622719 Ry
     Hubbard energy            =       0.14723538 Ry
     smearing contrib. (-TS)   =      -0.00026549 Ry

     convergence has been achieved in  12 iterations

     Forces acting on atoms (Ry/au):

     negative rho (up, down):  0.158E+01 0.000E+00
     atom    1 type  1   force =    -0.00862059   -0.00460538    0.00003916
     atom    2 type  1   force =     0.00015806    0.00383911    0.00030743
     atom    3 type  2   force =     0.01422160    0.00690457    0.00013564
     atom    4 type  2   force =     0.01085386    0.00457084    0.00012067
     atom    5 type  1   force =     0.00118306   -0.00469170   -0.00030592
     atom    6 type  1   force =    -0.00024015   -0.00201867    0.00020108
     atom    7 type  1   force =     0.00009633   -0.00060911   -0.00025081
     atom    8 type  1   force =    -0.00415374    0.00262911   -0.00008189
     atom    9 type  2   force =     0.00536265   -0.00437689    0.00051214
     atom   10 type  2   force =    -0.00002150   -0.01721231   -0.00079788
     atom   11 type  1   force =    -0.00562224    0.00188031   -0.00058652
     atom   12 type  1   force =    -0.00988238    0.01279432   -0.00011440
     atom   13 type  1   force =    -0.00113414   -0.00809307   -0.00004368
     atom   14 type  1   force =    -0.00896898   -0.00346883   -0.00005954
     atom   15 type  1   force =     0.00023196    0.00195076    0.00025572
     atom   16 type  2   force =    -0.01493340    0.00682443    0.00014936
     atom   17 type  2   force =     0.01077106    0.00477510    0.00007110
     atom   18 type  1   force =     0.00120853   -0.00464188   -0.00031472
     atom   19 type  1   force =     0.00011878   -0.00193753    0.00019449
     atom   20 type  1   force =     0.00009159   -0.00309581   -0.00024825
     atom   21 type  1   force =    -0.00402403    0.00273041   -0.00006777
     atom   22 type  2   force =    -0.00155383   -0.00425842    0.00053789
     atom   23 type  2   force =    -0.00024116    0.01155321    0.00082389
     atom   24 type  1   force =     0.00572910    0.00190570   -0.00060854
     atom   25 type  1   force =     0.01003086    0.01275804   -0.00011708
     atom   26 type  1   force =    -0.00111021   -0.01476573    0.00001898
     atom   27 type  3   force =    -0.00000105   -0.00001880    0.00033764
     atom   28 type  3   force =    -0.00002612   -0.00023771    0.00039471
     atom   29 type  3   force =     0.00016975   -0.00039827    0.00019451
     atom   30 type  3   force =     0.00028963   -0.00068693    0.00020736
     atom   31 type  1   force =     0.00001671    0.00000112   -0.00090478

     Total force =     0.002283     Total SCF correction =     0.000170

     bfgs converged in   3 scf cycles and   2 bfgs steps
     (criteria: energy < 0.10E-03, force < 0.10E-02)

     End of BFGS Geometry Optimization

     Final energy   =   -2280.7021819463 Ry
Begin final coordinates

ATOMIC_POSITIONS (crystal)
O0       0.000000000   0.000000000   0.377711156    0   0   1
O0       0.000000000   0.500000000   0.401660559    0   0   1
Pt1      0.250000000   0.500000000   0.451239459    0   0   1
Pt1      0.000000000   0.000000000   0.452709424    0   0   1
O0       0.250000000   0.810000000   0.443371845    0   0   1
O0       0.250000000   0.190000000   0.460090858    0   0   1
O0       0.000000000   0.500000000   0.496793846    0   0   1
O0       0.000000000   0.000000000   0.529729674    0   0   1
Pt1      0.250000000   0.000000000   0.576061901    0   0   1
Pt1      0.000000000   0.500000000   0.575274093    0   0   1
O0       0.250000000   0.690000000   0.566094748    0   0   1
O0       0.250000000   0.310000000   0.585770367    0   0   1
O0       0.000000000   0.000000000   0.621392239    0   0   1
O0       0.500000000   0.000000000   0.377784439    0   0   1
O0       0.500000000   0.500000000   0.400919147    0   0   1
Pt1      0.750000000   0.500000000   0.451243646    0   0   1
Pt1      0.500000000   0.000000000   0.452716093    0   0   1
O0       0.750000000   0.810000000   0.443412137    0   0   1
O0       0.750000000   0.190000000   0.460080722    0   0   1
O0       0.500000000   0.500000000   0.498219533    0   0   1
O0       0.500000000   0.000000000   0.529589408    0   0   1
Pt1      0.750000000   0.000000000   0.576063977    0   0   1
Pt1      0.500000000   0.500000000   0.577806229    0   0   1
O0       0.750000000   0.690000000   0.566083947    0   0   1
O0       0.750000000   0.310000000   0.585781021    0   0   1
O0       0.500000000   0.000000000   0.621371092    0   0   1
H2       0.000109833   0.639463833   0.385673133
H2       0.500175528   0.640037143   0.385343218
H2       0.142695112   0.036230424   0.367592628
H2       0.641986839   0.038538097   0.367593773
O0       0.500094678   0.572682505   0.644495690
End final coordinates

     General routines

     Parallel routines
     Hubbard U routines

   This run was terminated on:   6:12: 0  28Apr2014

   JOB DONE.