     Program PWSCF v.5.0.2 (svn rev. 9656) starts on 23Jan2014 at 20:34: 0

     Current dimensions of program PWSCF are:
     Max number of different atomic species (ntypx) = 10
     Max number of k-points (npk) =  40000
     Max angular momentum in pseudopotentials (lmaxx) =  3
     Reading input from CrO2-v-0.9.in

     Subspace diagonalization in iterative solution of the eigenvalue problem:
     a serial algorithm will be used

     bravais-lattice index     =            0
     lattice parameter (alat)  =       8.3602  a.u.
     unit-cell volume          =     376.5571 (a.u.)^3
     number of atoms/cell      =            6
     number of atomic types    =            2
     number of electrons       =        52.00
     number of Kohn-Sham states=           75
     kinetic-energy cutoff     =      40.0000  Ry
     charge density cutoff     =     500.0000  Ry
     convergence threshold     =      1.0E-06
     mixing beta               =       0.7000
     number of iterations used =            8  plain     mixing
     Exchange-correlation      = SLA  PW   PBE  PBE ( 1 4 3 4 0)
     EXX-fraction              =        0.00
     nstep                     =           50

     celldm(1)=   8.360170  celldm(2)=   0.000000  celldm(3)=   0.000000
     celldm(4)=   0.000000  celldm(5)=   0.000000  celldm(6)=   0.000000

     crystal axes: (cart. coord. in units of alat)
               a(1) = (   1.000000   0.000000   0.000000 )
               a(2) = (   0.000000   1.000000   0.000000 )
               a(3) = (   0.000000   0.000000   0.644444 )

     reciprocal axes: (cart. coord. in units 2 pi/alat)
               b(1) = (  1.000000  0.000000  0.000000 )
               b(2) = (  0.000000  1.000000  0.000000 )
               b(3) = (  0.000000  0.000000  1.551724 )

     PseudoPot. # 1 for Cr read from file:
     /home/camp/zhonxu/pseudo/cr_pbe_v1.uspp.F.UPF
     MD5 check sum: 68b6f918d1762dccfb11451fe85b0e0e
     Pseudo is Ultrasoft + core correction, Zval = 14.0
     Generated by new atomic code, or converted to UPF format
     Using radial grid of  857 points,  6 beta functions with:
                l(1) =   0
                l(2) =   0
                l(3) =   1
                l(4) =   1
                l(5) =   2
                l(6) =   2
     Q(r) pseudized with  6 coefficients,  rinner =    1.000   1.000   1.000
                                                       1.000   1.000

     PseudoPot. # 2 for O  read from file:
     /home/camp/zhonxu/pseudo/o_pbe_v1.01.uspp.F.UPF
     MD5 check sum: 2bcb18d16ea4b960afae9ec6d52f22d2
     Pseudo is Ultrasoft + core correction, Zval =  6.0
     Generated by new atomic code, or converted to UPF format
     Using radial grid of  737 points,  5 beta functions with:
                l(1) =   0
                l(2) =   0
                l(3) =   1
                l(4) =   1
                l(5) =   2
     Q(r) pseudized with  8 coefficients,  rinner =    0.900   0.900   0.900
                                                       0.900   0.900

     atomic species   valence    mass     pseudopotential
        Cr0           14.00    51.99600     Cr( 1.00)
        O1             6.00    15.99940     O ( 1.00)

     Starting magnetic structure
     atomic species   magnetization
        Cr0          0.600
        O1           0.000

     16 Sym. Ops., with inversion, found ( 8 have fractional translation)

   Cartesian axes

     site n.     atom                  positions (alat units)
         1           Cr0 tau(   1) = (   0.0000000   0.0000000   0.0000000  )
         2           Cr0 tau(   2) = (   0.5000000   0.5000000   0.3222222  )
         3           O1  tau(   3) = (   0.3050000   0.3050000   0.0000000  )
         4           O1  tau(   4) = (  -0.3050000  -0.3050000   0.0000000  )
         5           O1  tau(   5) = (   0.8050000   0.1950000   0.3222222  )
         6           O1  tau(   6) = (   0.1950000   0.8050000   0.3222222  )

     number of k points=    36  Methfessel-Paxton smearing, width (Ry)=  0.0100
                       cart. coord. in units 2pi/alat
        k(    1) = (   0.0000000   0.0000000   0.0000000), wk =   0.0080000
        k(    2) = (   0.0000000   0.0000000   0.3103448), wk =   0.0160000
        k(    3) = (   0.0000000   0.0000000   0.6206897), wk =   0.0160000
        k(    4) = (   0.0000000   0.2000000   0.0000000), wk =   0.0320000
        k(    5) = (   0.0000000   0.2000000   0.3103448), wk =   0.0640000
        k(    6) = (   0.0000000   0.2000000   0.6206897), wk =   0.0640000
        k(    7) = (   0.0000000   0.4000000   0.0000000), wk =   0.0320000
        k(    8) = (   0.0000000   0.4000000   0.3103448), wk =   0.0640000
        k(    9) = (   0.0000000   0.4000000   0.6206897), wk =   0.0640000
        k(   10) = (   0.2000000   0.2000000   0.0000000), wk =   0.0320000
        k(   11) = (   0.2000000   0.2000000   0.3103448), wk =   0.0640000
        k(   12) = (   0.2000000   0.2000000   0.6206897), wk =   0.0640000
        k(   13) = (   0.2000000   0.4000000   0.0000000), wk =   0.0640000
        k(   14) = (   0.2000000   0.4000000   0.3103448), wk =   0.1280000
        k(   15) = (   0.2000000   0.4000000   0.6206897), wk =   0.1280000
        k(   16) = (   0.4000000   0.4000000   0.0000000), wk =   0.0320000
        k(   17) = (   0.4000000   0.4000000   0.3103448), wk =   0.0640000
        k(   18) = (   0.4000000   0.4000000   0.6206897), wk =   0.0640000
        k(   19) = (   0.0000000   0.0000000   0.0000000), wk =   0.0080000
        k(   20) = (   0.0000000   0.0000000   0.3103448), wk =   0.0160000
        k(   21) = (   0.0000000   0.0000000   0.6206897), wk =   0.0160000
        k(   22) = (   0.0000000   0.2000000   0.0000000), wk =   0.0320000
        k(   23) = (   0.0000000   0.2000000   0.3103448), wk =   0.0640000
        k(   24) = (   0.0000000   0.2000000   0.6206897), wk =   0.0640000
        k(   25) = (   0.0000000   0.4000000   0.0000000), wk =   0.0320000
        k(   26) = (   0.0000000   0.4000000   0.3103448), wk =   0.0640000
        k(   27) = (   0.0000000   0.4000000   0.6206897), wk =   0.0640000
        k(   28) = (   0.2000000   0.2000000   0.0000000), wk =   0.0320000
        k(   29) = (   0.2000000   0.2000000   0.3103448), wk =   0.0640000
        k(   30) = (   0.2000000   0.2000000   0.6206897), wk =   0.0640000
        k(   31) = (   0.2000000   0.4000000   0.0000000), wk =   0.0640000
        k(   32) = (   0.2000000   0.4000000   0.3103448), wk =   0.1280000
        k(   33) = (   0.2000000   0.4000000   0.6206897), wk =   0.1280000
        k(   34) = (   0.4000000   0.4000000   0.0000000), wk =   0.0320000
        k(   35) = (   0.4000000   0.4000000   0.3103448), wk =   0.0640000
        k(   36) = (   0.4000000   0.4000000   0.6206897), wk =   0.0640000

     Largest allocated arrays     est. size (Mb)     dimensions
     Largest temporary arrays     est. size (Mb)     dimensions

     Check: negative/imaginary core charge=   -0.000034    0.000000

     Initial potential from superposition of free atoms

     starting charge   49.99997, renormalised to   52.00000
     Starting wfc are   36 randomized atomic wfcs

     Self-consistent Calculation

     iteration #  1     ecut=    40.00 Ry     beta=0.70
     Davidson diagonalization with overlap
     ethr =  1.00E-02,  avg # of iterations =  5.1

     total energy              =    -480.15222808 Ry
     Harris-Foulkes estimate   =    -480.21141992 Ry
     estimated scf accuracy    <       3.02898261 Ry

     total magnetization       =     4.00 Bohr mag/cell
     absolute magnetization    =     5.83 Bohr mag/cell

[...]

     End of self-consistent calculation

 ------ SPIN UP ------------

          k = 0.0000 0.0000 0.0000 (  1623 PWs)   bands (ev):

   -62.3349 -62.3292 -33.7150 -33.7150 -33.6026 -33.6026 -33.5299 -33.5135
    -8.8357  -7.1082  -6.5906  -6.5906   3.3096   3.9580   4.4808   5.6243
     5.6243   7.0871   7.0871   7.7559   9.4433   9.6074   9.6829   9.8429
     9.8429  10.0979  10.0979  10.0990  10.6998  12.3278  12.4555  15.2155
    15.2155  15.9549  18.8243  22.2600  22.2600  25.3893  25.7104  26.7136
    29.0303  30.0575  30.0575  30.8574  30.9811  34.6353  35.4963  35.4963
    35.6128  36.9293  36.9293  37.4398  37.4824  37.4824  37.8043  39.6522
    41.6920  42.1179  44.6358  44.7152  44.7152  45.1906  45.1906  46.2298
    48.2332  49.3034  49.3034  49.9298  51.6072  52.0091  52.0091  52.6935
    53.7420  54.3207  55.5417

[...]

 ------ SPIN DOWN ----------

[...]

     the Fermi energy is    11.2363 ev

!    total energy              =    -481.16487983 Ry
     Harris-Foulkes estimate   =    -481.16488006 Ry
     estimated scf accuracy    <       0.00000045 Ry

     The total energy is the sum of the following terms:

     one-electron contribution =    -202.06892420 Ry
     hartree contribution      =     128.20183582 Ry
     xc contribution           =     -74.57968259 Ry
     ewald contribution        =    -332.71784009 Ry
     smearing contrib. (-TS)   =      -0.00026877 Ry

[...]

     convergence has been achieved in   9 iterations

     Forces acting on atoms (Ry/au):

     atom    1 type  1   force =     0.00000000    0.00000000    0.00000000
     atom    2 type  1   force =     0.00000000    0.00000000    0.00000000
     atom    3 type  2   force =    -0.01057869   -0.01057869   -0.00000000
     atom    4 type  2   force =     0.01057869    0.01057869   -0.00000000
     atom    5 type  2   force =    -0.01057869    0.01057869    0.00000000
     atom    6 type  2   force =     0.01057869   -0.01057869    0.00000000

     Total force =     0.029921     Total SCF correction =     0.000176

     entering subroutine stress ...

          total   stress  (Ry/bohr**3)                   (kbar)     P=   98.68
   0.00048646   0.00000000   0.00000000         71.56      0.00      0.00
   0.00000000   0.00048646   0.00000000          0.00     71.56      0.00
   0.00000000   0.00000000   0.00103956          0.00      0.00    152.92

     Volume is kept fixed: isostatic pressure set to zero

     BFGS Geometry Optimization

     number of scf cycles    =   1
     number of bfgs steps    =   0

     enthalpy new            =    -481.1648798309 Ry

     new trust radius        =       0.0357760044 bohr
     new conv_thr            =       0.0000010000 Ry

     new unit-cell volume =    376.55707 a.u.^3 (    55.80000 Ang^3 )

CELL_PARAMETERS (alat=  8.36016997)
   0.995411978   0.000000000   0.000000000
   0.000000000   0.995411978   0.000000000
   0.000000000   0.000000000   0.650398841

ATOMIC_POSITIONS (crystal)
Cr0      0.000000000   0.000000000   0.000000000    0   0   0
Cr0      0.500000000   0.500000000   0.500000000    0   0   0
O1       0.303734633   0.303734633   0.000000000    1   1   0
O1      -0.303734633  -0.303734633   0.000000000    1   1   0
O1       0.803734633   0.196265367   0.500000000    1   1   0
O1       0.196265367   0.803734633   0.500000000    1   1   0

     NEW-OLD atomic charge density approx. for the potential
     NEW k-points:
        k(    1) = (   0.0000000   0.0000000   0.0000000), wk =   0.0080000
[...]
        k(   15) = (   0.2009218   0.4018437   0.6150072), wk =   0.1280000
        k(   16) = (   0.4018437   0.4018437   0.0000000), wk =   0.0320000
        k(   17) = (   0.4018437   0.4018437   0.3075036), wk =   0.0640000
        k(   18) = (   0.4018437   0.4018437   0.6150072), wk =   0.0640000
        k(   19) = (   0.0000000   0.0000000   0.0000000), wk =   0.0080000
        k(   20) = (   0.0000000   0.0000000   0.3075036), wk =   0.0160000
        k(   21) = (   0.0000000   0.0000000   0.6150072), wk =   0.0160000
        k(   22) = (   0.0000000   0.2009218   0.0000000), wk =   0.0320000
        k(   23) = (   0.0000000   0.2009218   0.3075036), wk =   0.0640000
        k(   24) = (   0.0000000   0.2009218   0.6150072), wk =   0.0640000
        k(   25) = (   0.0000000   0.4018437   0.0000000), wk =   0.0320000
        k(   26) = (   0.0000000   0.4018437   0.3075036), wk =   0.0640000
        k(   27) = (   0.0000000   0.4018437   0.6150072), wk =   0.0640000
        k(   28) = (   0.2009218   0.2009218   0.0000000), wk =   0.0320000
        k(   29) = (   0.2009218   0.2009218   0.3075036), wk =   0.0640000
        k(   30) = (   0.2009218   0.2009218   0.6150072), wk =   0.0640000
        k(   31) = (   0.2009218   0.4018437   0.0000000), wk =   0.0640000
        k(   32) = (   0.2009218   0.4018437   0.3075036), wk =   0.1280000
        k(   33) = (   0.2009218   0.4018437   0.6150072), wk =   0.1280000
        k(   34) = (   0.4018437   0.4018437   0.0000000), wk =   0.0320000
        k(   35) = (   0.4018437   0.4018437   0.3075036), wk =   0.0640000
        k(   36) = (   0.4018437   0.4018437   0.6150072), wk =   0.0640000

[...]

     enthalpy old            =    -481.1648798309 Ry
     enthalpy new            =    -481.1669193570 Ry

     CASE: enthalpy_new < enthalpy_old

[...]

     number of scf cycles    =   3
     number of bfgs steps    =   2

     enthalpy old            =    -481.1669193570 Ry
     enthalpy new            =    -481.1674580842 Ry

     CASE: enthalpy_new < enthalpy_old

     new trust radius        =       0.0015374378 bohr
     new conv_thr            =       0.0000000100 Ry

     new unit-cell volume =    376.55707 a.u.^3 (    55.80000 Ang^3 )

[...]

ATOMIC_POSITIONS (crystal)
Cr0      0.000000000   0.000000000   0.000000000    0   0   0
Cr0      0.500000000   0.500000000   0.500000000    0   0   0
O1       0.302695203   0.302695203   0.000000000    1   1   0
O1      -0.302695203  -0.302695203   0.000000000    1   1   0
O1       0.802695203   0.197304797   0.500000000    1   1   0
O1       0.197304797   0.802695203   0.500000000    1   1   0

     NEW-OLD atomic charge density approx. for the potential
     NEW k-points:
        k(    1) = (   0.0000000   0.0000000   0.0000000), wk =   0.0080000
        k(    2) = (   0.0000000   0.0000000   0.3050752), wk =   0.0160000
        k(    3) = (   0.0000000   0.0000000   0.6101504), wk =   0.0160000
        k(    4) = (   0.0000000   0.2017199   0.0000000), wk =   0.0320000
        k(    5) = (   0.0000000   0.2017199   0.3050752), wk =   0.0640000
        k(    6) = (   0.0000000   0.2017199   0.6101504), wk =   0.0640000
        k(    7) = (   0.0000000   0.4034398   0.0000000), wk =   0.0320000
        k(    8) = (   0.0000000   0.4034398   0.3050752), wk =   0.0640000
        k(    9) = (   0.0000000   0.4034398   0.6101504), wk =   0.0640000
        k(   10) = (   0.2017199   0.2017199   0.0000000), wk =   0.0320000
        k(   11) = (   0.2017199   0.2017199   0.3050752), wk =   0.0640000
        k(   12) = (   0.2017199   0.2017199   0.6101504), wk =   0.0640000
        k(   13) = (   0.2017199   0.4034398   0.0000000), wk =   0.0640000
        k(   14) = (   0.2017199   0.4034398   0.3050752), wk =   0.1280000
        k(   15) = (   0.2017199   0.4034398   0.6101504), wk =   0.1280000
        k(   16) = (   0.4034398   0.4034398   0.0000000), wk =   0.0320000
        k(   17) = (   0.4034398   0.4034398   0.3050752), wk =   0.0640000
        k(   18) = (   0.4034398   0.4034398   0.6101504), wk =   0.0640000
        k(   19) = (   0.0000000   0.0000000   0.0000000), wk =   0.0080000
        k(   20) = (   0.0000000   0.0000000   0.3050752), wk =   0.0160000
        k(   21) = (   0.0000000   0.0000000   0.6101504), wk =   0.0160000
        k(   22) = (   0.0000000   0.2017199   0.0000000), wk =   0.0320000
        k(   23) = (   0.0000000   0.2017199   0.3050752), wk =   0.0640000
        k(   24) = (   0.0000000   0.2017199   0.6101504), wk =   0.0640000
        k(   25) = (   0.0000000   0.4034398   0.0000000), wk =   0.0320000
        k(   26) = (   0.0000000   0.4034398   0.3050752), wk =   0.0640000
        k(   27) = (   0.0000000   0.4034398   0.6101504), wk =   0.0640000
        k(   28) = (   0.2017199   0.2017199   0.0000000), wk =   0.0320000
        k(   29) = (   0.2017199   0.2017199   0.3050752), wk =   0.0640000
        k(   30) = (   0.2017199   0.2017199   0.6101504), wk =   0.0640000
        k(   31) = (   0.2017199   0.4034398   0.0000000), wk =   0.0640000
        k(   32) = (   0.2017199   0.4034398   0.3050752), wk =   0.1280000
        k(   33) = (   0.2017199   0.4034398   0.6101504), wk =   0.1280000
        k(   34) = (   0.4034398   0.4034398   0.0000000), wk =   0.0320000
        k(   35) = (   0.4034398   0.4034398   0.3050752), wk =   0.0640000
        k(   36) = (   0.4034398   0.4034398   0.6101504), wk =   0.0640000

[...]

     Threshold (ethr) on eigenvalues was too large:
     Diagonalizing with lowered threshold

     Davidson diagonalization with overlap
     ethr =  9.77E-10,  avg # of iterations =  2.0

[...]

     Volume is kept fixed: isostatic pressure set to zero

     bfgs converged in   4 scf cycles and   3 bfgs steps
     (criteria: energy < 0.10E-03, force < 0.10E-02, cell < 0.50E+00)

     End of BFGS Geometry Optimization

     Final enthalpy =    -481.1674593733 Ry
Begin final coordinates
     new unit-cell volume =    376.55707 a.u.^3 (    55.80000 Ang^3 )

CELL_PARAMETERS (alat=  8.36016997)
   0.991473710   0.000000000   0.000000000
   0.000000000   0.991473710   0.000000000
   0.000000000   0.000000000   0.655576049

ATOMIC_POSITIONS (crystal)
Cr0      0.000000000   0.000000000   0.000000000    0   0   0
Cr0      0.500000000   0.500000000   0.500000000    0   0   0
O1       0.302695203   0.302695203   0.000000000    1   1   0
O1      -0.302695203  -0.302695203   0.000000000    1   1   0
O1       0.802695203   0.197304797   0.500000000    1   1   0
O1       0.197304797   0.802695203   0.500000000    1   1   0
End final coordinates

     A final scf calculation at the relaxed structure.
     The G-vectors are recalculated for the final unit cell
     Results may differ from those at the preceding step.

     bravais-lattice index     =            0
     lattice parameter (alat)  =       8.3602  a.u.
     unit-cell volume          =     376.5571 (a.u.)^3
     number of atoms/cell      =            6
     number of atomic types    =            2
     number of electrons       =        52.00
     number of Kohn-Sham states=           75
     kinetic-energy cutoff     =      40.0000  Ry
     charge density cutoff     =     500.0000  Ry
     convergence threshold     =      1.0E-08
     mixing beta               =       0.7000
     number of iterations used =            8  plain     mixing
     Exchange-correlation      = SLA  PW   PBE  PBE ( 1 4 3 4 0)
     EXX-fraction              =        0.00

     celldm(1)=   8.360170  celldm(2)=   0.000000  celldm(3)=   0.000000
     celldm(4)=   0.000000  celldm(5)=   0.000000  celldm(6)=   0.000000

     crystal axes: (cart. coord. in units of alat)
               a(1) = (   0.991474   0.000000   0.000000 )
               a(2) = (   0.000000   0.991474   0.000000 )
               a(3) = (   0.000000   0.000000   0.655576 )

     reciprocal axes: (cart. coord. in units 2 pi/alat)
               b(1) = (  1.008600  0.000000  0.000000 )
               b(2) = (  0.000000  1.008600  0.000000 )
               b(3) = (  0.000000  0.000000  1.525376 )

     PseudoPot. # 1 for Cr read from file:
     /home/camp/zhonxu/pseudo/cr_pbe_v1.uspp.F.UPF
     MD5 check sum: 68b6f918d1762dccfb11451fe85b0e0e
     Pseudo is Ultrasoft + core correction, Zval = 14.0
     Generated by new atomic code, or converted to UPF format
     Using radial grid of  857 points,  6 beta functions with:
                l(1) =   0
                l(2) =   0
                l(3) =   1
                l(4) =   1
                l(5) =   2
                l(6) =   2
     Q(r) pseudized with  6 coefficients,  rinner =    1.000   1.000   1.000
                                                       1.000   1.000

     PseudoPot. # 2 for O  read from file:
     /home/camp/zhonxu/pseudo/o_pbe_v1.01.uspp.F.UPF
     MD5 check sum: 2bcb18d16ea4b960afae9ec6d52f22d2
     Pseudo is Ultrasoft + core correction, Zval =  6.0
     Generated by new atomic code, or converted to UPF format
     Using radial grid of  737 points,  5 beta functions with:
                l(1) =   0
                l(2) =   0
                l(3) =   1
                l(4) =   1
                l(5) =   2
     Q(r) pseudized with  8 coefficients,  rinner =    0.900   0.900   0.900
                                                       0.900   0.900

     atomic species   valence    mass     pseudopotential
        Cr0           14.00    51.99600     Cr( 1.00)
        O1             6.00    15.99940     O ( 1.00)

     Starting magnetic structure
     atomic species   magnetization
        Cr0          0.600
        O1           0.000

     16 Sym. Ops., with inversion, found ( 8 have fractional translation)

   Cartesian axes

     site n.     atom                  positions (alat units)
         1           Cr0 tau(   1) = (   0.0000000   0.0000000   0.0000000  )
         2           Cr0 tau(   2) = (   0.4957369   0.4957369   0.3277880  )
         3           O1  tau(   3) = (   0.3001143   0.3001143   0.0000000  )
         4           O1  tau(   4) = (  -0.3001143  -0.3001143   0.0000000  )
         5           O1  tau(   5) = (   0.7958512   0.1956225   0.3277880  )
         6           O1  tau(   6) = (   0.1956225   0.7958512   0.3277880  )

     number of k points=    36  Methfessel-Paxton smearing, width (Ry)=  0.0100
                       cart. coord. in units 2pi/alat
        k(    1) = (   0.0000000   0.0000000   0.0000000), wk =   0.0080000
        k(    2) = (   0.0000000   0.0000000   0.3050752), wk =   0.0160000
        k(    3) = (   0.0000000   0.0000000   0.6101504), wk =   0.0160000
        k(    4) = (   0.0000000   0.2017199   0.0000000), wk =   0.0320000
        k(    5) = (   0.0000000   0.2017199   0.3050752), wk =   0.0640000
        k(    6) = (   0.0000000   0.2017199   0.6101504), wk =   0.0640000
        k(    7) = (   0.0000000   0.4034398   0.0000000), wk =   0.0320000
        k(    8) = (   0.0000000   0.4034398   0.3050752), wk =   0.0640000
        k(    9) = (   0.0000000   0.4034398   0.6101504), wk =   0.0640000
        k(   10) = (   0.2017199   0.2017199   0.0000000), wk =   0.0320000
        k(   11) = (   0.2017199   0.2017199   0.3050752), wk =   0.0640000
        k(   12) = (   0.2017199   0.2017199   0.6101504), wk =   0.0640000
        k(   13) = (   0.2017199   0.4034398   0.0000000), wk =   0.0640000
        k(   14) = (   0.2017199   0.4034398   0.3050752), wk =   0.1280000
        k(   15) = (   0.2017199   0.4034398   0.6101504), wk =   0.1280000
        k(   16) = (   0.4034398   0.4034398   0.0000000), wk =   0.0320000
        k(   17) = (   0.4034398   0.4034398   0.3050752), wk =   0.0640000
        k(   18) = (   0.4034398   0.4034398   0.6101504), wk =   0.0640000
        k(   19) = (   0.0000000   0.0000000   0.0000000), wk =   0.0080000
        k(   20) = (   0.0000000   0.0000000   0.3050752), wk =   0.0160000
        k(   21) = (   0.0000000   0.0000000   0.6101504), wk =   0.0160000
        k(   22) = (   0.0000000   0.2017199   0.0000000), wk =   0.0320000
        k(   23) = (   0.0000000   0.2017199   0.3050752), wk =   0.0640000
        k(   24) = (   0.0000000   0.2017199   0.6101504), wk =   0.0640000
        k(   25) = (   0.0000000   0.4034398   0.0000000), wk =   0.0320000
        k(   26) = (   0.0000000   0.4034398   0.3050752), wk =   0.0640000
        k(   27) = (   0.0000000   0.4034398   0.6101504), wk =   0.0640000
        k(   28) = (   0.2017199   0.2017199   0.0000000), wk =   0.0320000
        k(   29) = (   0.2017199   0.2017199   0.3050752), wk =   0.0640000
        k(   30) = (   0.2017199   0.2017199   0.6101504), wk =   0.0640000
        k(   31) = (   0.2017199   0.4034398   0.0000000), wk =   0.0640000
        k(   32) = (   0.2017199   0.4034398   0.3050752), wk =   0.1280000
        k(   33) = (   0.2017199   0.4034398   0.6101504), wk =   0.1280000
        k(   34) = (   0.4034398   0.4034398   0.0000000), wk =   0.0320000
        k(   35) = (   0.4034398   0.4034398   0.3050752), wk =   0.0640000
        k(   36) = (   0.4034398   0.4034398   0.6101504), wk =   0.0640000

     Largest allocated arrays     est. size (Mb)     dimensions
     Largest temporary arrays     est. size (Mb)     dimensions

     Check: negative/imaginary core charge=   -0.000034    0.000000

     Initial potential from superposition of free atoms

     starting charge   49.99997, renormalised to   52.00000
     Starting wfc are   36 randomized atomic wfcs

     Self-consistent Calculation

[...]

     total energy              =    -481.16753111 Ry
     Harris-Foulkes estimate   =    -481.16753112 Ry
     estimated scf accuracy    <       0.00000003 Ry

[...]

     iteration # 12     ecut=    40.00 Ry     beta=0.70
     Davidson diagonalization with overlap
     ethr =  6.29E-11,  avg # of iterations =  1.0

     End of self-consistent calculation

 ------ SPIN UP ------------

[...]

 ------ SPIN DOWN ----------

[...]

          k = 0.4034 0.4034 0.6102 (  1590 PWs)   bands (ev):

   -60.0124 -60.0122 -31.6643 -31.6640 -31.2866 -31.2839 -31.2673 -31.2653
    -7.2093  -7.1188  -6.9804  -6.9486   4.6908   4.9099   4.9183   5.0173
     6.3029   6.5030   7.3107   7.3654   8.3877   8.5597   9.1957   9.3527
    12.2984  12.6721  13.0815  13.2865  13.3160  13.4513  14.8089  15.3255
    15.5770  16.0735  22.7564  23.0731  25.0054  25.6876  26.1710  26.7376
    27.9173  28.1263  29.2997  29.6658  30.6441  31.1318  34.4165  35.9562
    36.2248  36.4773  37.1703  37.7673  41.1597  41.2653  41.8723  42.7535
    44.4281  44.9261  45.0157  45.8872  47.0285  47.0388  47.7992  48.3266
    48.6225  49.7573  51.2468  52.0232  52.0753  52.4366  53.1665  53.7938
    53.9299  54.5911  54.6187

     the Fermi energy is    11.2169 ev

!    total energy              =    -481.16753112 Ry
     Harris-Foulkes estimate   =    -481.16753112 Ry
     estimated scf accuracy    <          2.1E-10 Ry

     The total energy is the sum of the following terms:

     one-electron contribution =    -199.75190576 Ry
     hartree contribution      =     127.05319908 Ry
     xc contribution           =     -74.55589123 Ry
     ewald contribution        =    -333.91275002 Ry
     smearing contrib. (-TS)   =      -0.00018318 Ry

     total magnetization       =     4.00 Bohr mag/cell
     absolute magnetization    =     4.60 Bohr mag/cell

     convergence has been achieved in  12 iterations

     Forces acting on atoms (Ry/au):

     atom    1 type  1   force =     0.00000000    0.00000000    0.00000000
     atom    2 type  1   force =     0.00000000    0.00000000    0.00000000
     atom    3 type  2   force =     0.00003495    0.00003495    0.00000000
     atom    4 type  2   force =    -0.00003495   -0.00003495   -0.00000000
     atom    5 type  2   force =     0.00003495   -0.00003495   -0.00000000
     atom    6 type  2   force =    -0.00003495    0.00003495   -0.00000000

     Total force =     0.000099     Total SCF correction =     0.000004

     entering subroutine stress ...

          total   stress  (Ry/bohr**3)                   (kbar)     P=   78.88
   0.00053500   0.00000000   0.00000000         78.70      0.00      0.00
   0.00000000   0.00053500   0.00000000          0.00     78.70      0.00
   0.00000000   0.00000000   0.00053872          0.00      0.00     79.25

     General routines

     Parallel routines

   This run was terminated on:  20:47:18  23Jan2014

   JOB DONE.
Running PBS batch system epilogue script
Job id: 251232.audhumbla.fysik.dtu.dk
Username: zhonxu
Groupname: campgst
Jobname: CrO2/coarse-EOS/CrO2-v-0.9
Sessionid: 27717
Queuename: verylong
Accounting:
This job has allocated the following 4 nodes:
q005 q005 q005 q005
Finished epilogue job 251232.audhumbla.fysik.dtu.dk for zhonxu