     Program PWSCF v.5.0.2 (svn rev. 9656) starts on 24Mar2014 at 19: 1:45

     Current dimensions of program PWSCF are:
     Max number of different atomic species (ntypx) = 10
     Max number of k-points (npk) =  40000
     Max angular momentum in pseudopotentials (lmaxx) =  3
     Reading input from pwscf.in
Warning: card &CELL ignored
Warning: card / ignored

     Subspace diagonalization in iterative solution of the eigenvalue problem:
     a serial algorithm will be used

     bravais-lattice index     =            0
     lattice parameter (alat)  =      12.2076  a.u.
     unit-cell volume          =    7496.5096 (a.u.)^3
     number of atoms/cell      =           32
     number of atomic types    =            3
     number of electrons       =       247.00
     number of Kohn-Sham states=          370
     kinetic-energy cutoff     =      40.0000  Ry
     charge density cutoff     =     500.0000  Ry
     convergence threshold     =      1.0E-06
     mixing beta               =       0.3000
     number of iterations used =            8  plain     mixing
     Exchange-correlation      = SLA  PW   PBE  PBE ( 1 4 3 4 0)
     EXX-fraction              =        0.00
     nstep                     =           50

     celldm(1)=  12.207631  celldm(2)=   0.000000  celldm(3)=   0.000000
     celldm(4)=   0.000000  celldm(5)=   0.000000  celldm(6)=   0.000000

     crystal axes: (cart. coord. in units of alat)
               a(1) = (   1.000000   0.000000   0.000000 )
               a(2) = (   0.000000   1.004836   0.000000 )
               a(3) = (   0.000000   0.000000   4.100811 )

     reciprocal axes: (cart. coord. in units 2 pi/alat)
               b(1) = (  1.000000  0.000000  0.000000 )
               b(2) = (  0.000000  0.995187  0.000000 )
               b(3) = (  0.000000  0.000000  0.243854 )

     PseudoPot. # 1 for O  read from file:
     /home/camp/zhonxu/pseudo/o_pbe_v1.01.uspp.F.UPF
     MD5 check sum: 2bcb18d16ea4b960afae9ec6d52f22d2
     Pseudo is Ultrasoft + core correction, Zval =  6.0
     Generated by new atomic code, or converted to UPF format
     Using radial grid of  737 points,  5 beta functions with:
                l(1) =   0
                l(2) =   0
                l(3) =   1
                l(4) =   1
                l(5) =   2
     Q(r) pseudized with  8 coefficients,  rinner =    0.900   0.900   0.900
                                                       0.900   0.900

     PseudoPot. # 2 for Pt read from file:
     /home/camp/zhonxu/pseudo/pt_pbe_v1.uspp.F.UPF
     MD5 check sum: 4c71d6ad5ef119f1eb26a4d0b7884226
     Pseudo is Ultrasoft + core correction, Zval = 16.0
     Generated by new atomic code, or converted to UPF format
     Using radial grid of  985 points,  6 beta functions with:
                l(1) =   0
                l(2) =   0
                l(3) =   1
                l(4) =   1
                l(5) =   2
                l(6) =   2
     Q(r) pseudized with  8 coefficients,  rinner =    1.300   1.300   1.300
                                                       1.300   1.300

     PseudoPot. # 3 for H  read from file:
     /home/camp/zhonxu/pseudo/h_pbe_v1.uspp.F.UPF
     MD5 check sum: 3408e3ff4ec8b0a4e358431e7e038a48
     Pseudo is Ultrasoft, Zval =  1.0
     Generated by new atomic code, or converted to UPF format
     Using radial grid of  615 points,  2 beta functions with:
                l(1) =   0
                l(2) =   0
     Q(r) pseudized with  8 coefficients,  rinner =    0.700

     atomic species   valence    mass     pseudopotential
        O0             6.00    15.99940     O ( 1.00)
        Pt1           16.00   195.08000     Pt( 1.00)
        H2             1.00     1.00794     H ( 1.00)

     Starting magnetic structure
     atomic species   magnetization
        O0           0.000
        Pt1          0.000
        H2           0.000

     No symmetry found

   Cartesian axes

     site n.     atom                  positions (alat units)
         1           O0  tau(   1) = (   0.0000000   0.0000000   1.5457188  )
         2           O0  tau(   2) = (   0.0000000   0.5024180   1.6369208  )
         3           Pt1 tau(   3) = (   0.2500000   0.5024180   1.8413872  )
         4           Pt1 tau(   4) = (   0.0000000   0.0000000   1.8534436  )
         5           O0  tau(   5) = (   0.2500000   0.8139171   1.8157162  )
         6           O0  tau(   6) = (   0.2500000   0.1909188   1.8824364  )
         7           O0  tau(   7) = (   0.0000000   0.5024180   2.0315829  )
         8           O0  tau(   8) = (   0.0000000   0.0000000   2.1708464  )
         9           Pt1 tau(   9) = (   0.2500000   0.0000000   2.3625593  )
        10           Pt1 tau(  10) = (   0.0000000   0.5024180   2.3549318  )
        11           O0  tau(  11) = (   0.2500000   0.6933368   2.3911010  )
        12           O0  tau(  12) = (   0.2500000   0.3114991   2.3934384  )
        13           O0  tau(  13) = (   0.0000000   0.0000000   2.5491052  )
        14           O0  tau(  14) = (   0.5000000   0.0000000   1.5457188  )
        15           O0  tau(  15) = (   0.5000000   0.5024180   1.6369208  )
        16           Pt1 tau(  16) = (   0.7500000   0.5024180   1.8413872  )
        17           Pt1 tau(  17) = (   0.5000000   0.0000000   1.8534436  )
        18           O0  tau(  18) = (   0.7500000   0.8139171   1.8157162  )
        19           O0  tau(  19) = (   0.7500000   0.1909188   1.8824364  )
        20           O0  tau(  20) = (   0.5000000   0.5024180   2.0315829  )
        21           O0  tau(  21) = (   0.5000000   0.0000000   2.1708464  )
        22           Pt1 tau(  22) = (   0.7500000   0.0000000   2.3625593  )
        23           Pt1 tau(  23) = (   0.5000000   0.5024180   2.3549318  )
        24           O0  tau(  24) = (   0.7500000   0.6933368   2.3911010  )
        25           O0  tau(  25) = (   0.7500000   0.3114991   2.3934384  )
        26           O0  tau(  26) = (   0.5000000   0.0000000   2.5491052  )
        27           H2  tau(  27) = (  -0.0000500   0.6431553   1.5728661  )
        28           H2  tau(  28) = (   0.4999500   0.6431553   1.5728661  )
        29           H2  tau(  29) = (   0.1440700   0.0315318   1.5048747  )
        30           H2  tau(  30) = (   0.6440700   0.0315318   1.5048747  )
        31           O0  tau(  31) = (   0.4966400   0.5026491   2.6468686  )
        32           H2  tau(  32) = (   0.3475900   0.5022070   2.6579818  )

     number of k points=    20  Methfessel-Paxton smearing, width (Ry)=  0.0100
                       cart. coord. in units 2pi/alat
        k(    1) = (   0.0000000   0.0000000   0.0000000), wk =   0.0625000
        k(    2) = (   0.0000000   0.2487968   0.0000000), wk =   0.1250000
        k(    3) = (   0.0000000  -0.4975937   0.0000000), wk =   0.0625000
        k(    4) = (   0.2500000   0.0000000   0.0000000), wk =   0.1250000
        k(    5) = (   0.2500000   0.2487968   0.0000000), wk =   0.1250000
        k(    6) = (   0.2500000  -0.4975937   0.0000000), wk =   0.1250000
        k(    7) = (  -0.5000000   0.0000000   0.0000000), wk =   0.0625000
        k(    8) = (  -0.5000000   0.2487968   0.0000000), wk =   0.1250000
        k(    9) = (  -0.5000000  -0.4975937   0.0000000), wk =   0.0625000
        k(   10) = (  -0.2500000   0.2487968   0.0000000), wk =   0.1250000
        k(   11) = (   0.0000000   0.0000000   0.0000000), wk =   0.0625000
        k(   12) = (   0.0000000   0.2487968   0.0000000), wk =   0.1250000
        k(   13) = (   0.0000000  -0.4975937   0.0000000), wk =   0.0625000
        k(   14) = (   0.2500000   0.0000000   0.0000000), wk =   0.1250000
        k(   15) = (   0.2500000   0.2487968   0.0000000), wk =   0.1250000
        k(   16) = (   0.2500000  -0.4975937   0.0000000), wk =   0.1250000
        k(   17) = (  -0.5000000   0.0000000   0.0000000), wk =   0.0625000
        k(   18) = (  -0.5000000   0.2487968   0.0000000), wk =   0.1250000
        k(   19) = (  -0.5000000  -0.4975937   0.0000000), wk =   0.0625000
        k(   20) = (  -0.2500000   0.2487968   0.0000000), wk =   0.1250000

     Largest allocated arrays     est. size (Mb)     dimensions
     Largest temporary arrays     est. size (Mb)     dimensions

     Check: negative/imaginary core charge=   -0.000003    0.000000

     Initial potential from superposition of free atoms
     Check: negative starting charge=(component1):   -0.768495
     Check: negative starting charge=(component2):   -0.768495

     starting charge  242.99984, renormalised to  247.00000

     negative rho (up, down):  0.781E+00 0.781E+00
     Starting wfc are  177 randomized atomic wfcs

     Self-consistent Calculation

     iteration #  1     ecut=    40.00 Ry     beta=0.30
     Davidson diagonalization with overlap
     ethr =  1.00E-02,  avg # of iterations =  5.2

     negative rho (up, down):  0.771E+00 0.771E+00

     total energy              =   -2275.85113609 Ry
     Harris-Foulkes estimate   =   -2288.17286403 Ry
     estimated scf accuracy    <      26.40432829 Ry

     total magnetization       =    -0.00 Bohr mag/cell
     absolute magnetization    =     0.01 Bohr mag/cell

[...]

     End of self-consistent calculation

 ------ SPIN UP ------------

          k = 0.0000 0.0000 0.0000 ( 32157 PWs)   bands (ev):

   -55.9006 -55.8448 -55.8441 -55.7973 -55.7894 -55.7770 -55.7653 -55.7340
   -55.7108 -55.6412 -55.6307 -55.5444 -55.5434 -55.5331 -55.5275 -55.5008
   -55.4942 -55.4819 -55.4633 -55.4507 -55.4349 -55.0706 -54.8349 -54.5554
   -22.0796 -21.7244 -21.3149 -21.1615 -20.5047 -20.4812 -20.3737 -20.2723
   -20.2481 -20.2390 -20.1735 -20.1124 -20.0819 -19.9594 -19.8594 -19.7989
   -19.6969 -18.9221 -18.7816 -10.4835 -10.3166 -10.1137  -9.4704  -9.2187
    -9.1745  -9.1342  -9.0617  -8.9632  -8.8659  -8.7934  -8.7845  -8.7708
    -8.7053  -8.5034  -8.4043  -8.2290  -8.2134  -8.0914  -7.7992  -7.6367
    -7.6126  -7.4720  -7.4534  -7.0333  -7.0102  -6.7852  -6.6530  -6.3572
    -6.1713  -6.1080  -6.0384  -5.9320  -5.8943  -5.7550  -5.7045  -5.6655
    -5.4905  -5.4849  -5.3080  -5.2694  -5.2070  -5.1015  -5.0139  -4.9847
    -4.8265  -4.7595  -4.7405  -4.7319  -4.7250  -4.6671  -4.6646  -4.5731
    -4.5034  -4.4729  -4.3548  -4.3052  -4.2837  -4.1954  -4.0099  -3.9800
    -3.8665  -3.7349  -3.5045  -3.4858  -3.3467  -3.2425  -2.9773  -2.9225
    -2.8149  -2.7846  -2.6622  -2.4970  -2.2644  -2.2136  -2.0179  -2.0058
    -1.8922  -1.6958  -1.5635  -1.3097  -1.2687  -0.8973  -0.4705  -0.4594
    -0.4279  -0.1703  -0.1130   0.1608   0.5903   0.8616   1.0819   1.3525
     1.3584   1.4157   1.8945   2.0711   2.3095   3.3560   4.2278   4.6718
     4.8033   5.5398   5.6680   5.7624   5.7999   6.2824   6.5038   6.5576
     6.6419   6.8221   6.8705   6.9004   7.0839   7.3336   7.3825   7.4847
     7.5134   7.6912   7.7434   7.7855   7.8673   7.9033   8.0026   8.1176
     8.2105   8.2299   8.2762   8.3455   8.4817   8.5077   8.6216   8.7095
     8.8774   8.9008   8.9803   9.1379   9.2045   9.2630   9.4841   9.4890
     9.5833   9.6654   9.8329   9.9458   9.9845  10.0780  10.1634  10.2331
[...]
     atom   23 type  2   force =     0.02091486   -0.00148303   -0.03711693
     atom   24 type  1   force =     0.01105038    0.00084144   -0.01746926
     atom   25 type  1   force =     0.01080262   -0.00019468   -0.01648594
     atom   26 type  1   force =    -0.00226174    0.00028847   -0.00455894
     atom   27 type  3   force =     0.00015758    0.00078003    0.00083323
     atom   28 type  3   force =     0.00003073   -0.00016900   -0.00013630
     atom   29 type  3   force =    -0.00047647    0.00038107   -0.00028954
     atom   30 type  3   force =    -0.00040287    0.00048232   -0.00032096
     atom   31 type  1   force =     0.03149625    0.00046936    0.04997363
     atom   32 type  3   force =    -0.04170858   -0.00035275    0.04243399

     Total force =     0.083845     Total SCF correction =     0.000156

     BFGS Geometry Optimization

     number of scf cycles    =   1
     number of bfgs steps    =   0

     energy   new            =   -2282.1629683850 Ry

     new trust radius        =       0.0595010382 bohr
     new conv_thr            =       0.0000010000 Ry

ATOMIC_POSITIONS (crystal)
O0       0.000000000   0.000000000   0.376930000    0   0   0
O0       0.000000000   0.500000000   0.399170000    0   0   0
Pt1      0.250000000   0.500000000   0.449030000    0   0   0
Pt1      0.000000000   0.000000000   0.451970000    0   0   0
O0       0.250000000   0.810000000   0.442770000    0   0   0
O0       0.250000000   0.190000000   0.459040000    0   0   0
O0       0.000000000   0.500000000   0.495410000    0   0   0
O0       0.000000000   0.000000000   0.529370000    0   0   0
Pt1      0.250000000   0.000000000   0.576120000    0   0   0
Pt1      0.000000000   0.500000000   0.574260000    0   0   0
O0       0.250000000   0.690000000   0.583080000    0   0   0
O0       0.250000000   0.310000000   0.583650000    0   0   0
O0       0.000000000   0.000000000   0.621610000    0   0   0
O0       0.500000000   0.000000000   0.376930000    0   0   0
O0       0.500000000   0.500000000   0.399170000    0   0   0
Pt1      0.750000000   0.500000000   0.449030000    0   0   0
Pt1      0.500000000   0.000000000   0.451970000    0   0   0
O0       0.750000000   0.810000000   0.442770000    0   0   0
O0       0.750000000   0.190000000   0.459040000    0   0   0
O0       0.500000000   0.500000000   0.495410000    0   0   0
O0       0.500000000   0.000000000   0.529370000    0   0   0
Pt1      0.750000000   0.000000000   0.576120000    0   0   0
Pt1      0.500000000   0.500000000   0.574260000    0   0   0
O0       0.750000000   0.690000000   0.583080000    0   0   0
O0       0.750000000   0.310000000   0.583650000    0   0   0
O0       0.500000000   0.000000000   0.621610000    0   0   0
H2      -0.000050000   0.640060000   0.383550000    0   0   0
H2       0.499950000   0.640060000   0.383550000    0   0   0
H2       0.144070000   0.031380000   0.366970000    0   0   0
H2       0.644070000   0.031380000   0.366970000    0   0   0
O0       0.499220046   0.500268263   0.646448251
H2       0.344173401   0.499761243   0.649007642

     Check: negative starting charge=(component1):   -1.536990
     NEW-OLD atomic charge density approx. for the potential

     Check: negative/imaginary core charge=   -0.000003    0.000000
     Check: negative starting charge=(component1):   -1.537017

[...]

     energy   old            =   -2282.1629683850 Ry
     energy   new            =   -2282.1665200045 Ry

     CASE: energy  _new < energy  _old

[...]

     Threshold (ethr) on eigenvalues was too large:
     Diagonalizing with lowered threshold

     Davidson diagonalization with overlap
     ethr =  5.15E-08,  avg # of iterations =  1.0

[...]

     Total force =     0.001436     Total SCF correction =     0.000045

     number of scf cycles    =  14
     number of bfgs steps    =  13

     energy   old            =   -2282.1776610797 Ry
     energy   new            =   -2282.1776744762 Ry

     CASE: energy  _new < energy  _old

     new trust radius        =       0.0048150532 bohr
     new conv_thr            =       0.0000000100 Ry

ATOMIC_POSITIONS (crystal)
O0       0.000000000   0.000000000   0.376930000    0   0   0
O0       0.000000000   0.500000000   0.399170000    0   0   0
Pt1      0.250000000   0.500000000   0.449030000    0   0   0
Pt1      0.000000000   0.000000000   0.451970000    0   0   0
O0       0.250000000   0.810000000   0.442770000    0   0   0
O0       0.250000000   0.190000000   0.459040000    0   0   0
O0       0.000000000   0.500000000   0.495410000    0   0   0
O0       0.000000000   0.000000000   0.529370000    0   0   0
Pt1      0.250000000   0.000000000   0.576120000    0   0   0
Pt1      0.000000000   0.500000000   0.574260000    0   0   0
O0       0.250000000   0.690000000   0.583080000    0   0   0
O0       0.250000000   0.310000000   0.583650000    0   0   0
O0       0.000000000   0.000000000   0.621610000    0   0   0
O0       0.500000000   0.000000000   0.376930000    0   0   0
O0       0.500000000   0.500000000   0.399170000    0   0   0
Pt1      0.750000000   0.500000000   0.449030000    0   0   0
Pt1      0.500000000   0.000000000   0.451970000    0   0   0
O0       0.750000000   0.810000000   0.442770000    0   0   0
O0       0.750000000   0.190000000   0.459040000    0   0   0
O0       0.500000000   0.500000000   0.495410000    0   0   0
O0       0.500000000   0.000000000   0.529370000    0   0   0
Pt1      0.750000000   0.000000000   0.576120000    0   0   0
Pt1      0.500000000   0.500000000   0.574260000    0   0   0
O0       0.750000000   0.690000000   0.583080000    0   0   0
O0       0.750000000   0.310000000   0.583650000    0   0   0
O0       0.500000000   0.000000000   0.621610000    0   0   0
H2      -0.000050000   0.640060000   0.383550000    0   0   0
H2       0.499950000   0.640060000   0.383550000    0   0   0
H2       0.144070000   0.031380000   0.366970000    0   0   0
H2       0.644070000   0.031380000   0.366970000    0   0   0
O0       0.512181821   0.501290659   0.648600602
H2       0.367225703   0.498814098   0.660144162

     Check: negative starting charge=(component1):   -1.537061
     NEW-OLD atomic charge density approx. for the potential

     Check: negative/imaginary core charge=   -0.000003    0.000000
     Check: negative starting charge=(component1):   -1.537062

[...]

     Self-consistent Calculation

[...]

     Threshold (ethr) on eigenvalues was too large:
     Diagonalizing with lowered threshold

     Davidson diagonalization with overlap
     ethr =  2.82E-09,  avg # of iterations =  1.0

[...]

     total energy              =   -2282.17767850 Ry
     Harris-Foulkes estimate   =   -2282.17767851 Ry
     estimated scf accuracy    <       0.00000002 Ry

[...]

     iteration # 15     ecut=    40.00 Ry     beta=0.30
     Davidson diagonalization with overlap
     ethr =  6.89E-12,  avg # of iterations =  2.0

     negative rho (up, down):  0.791E+00 0.791E+00

     End of self-consistent calculation

 ------ SPIN UP ------------

[...]

 ------ SPIN DOWN ----------

[...]

          k = 0.2500-0.4976 0.0000 ( 32026 PWs)   bands (ev):

[...]

          k =-0.2500 0.2488 0.0000 ( 32025 PWs)   bands (ev):

   -55.8609 -55.8217 -55.7899 -55.7636 -55.7524 -55.7513 -55.7152 -55.6764
   -55.6397 -55.5945 -55.5864 -55.5015 -55.4971 -55.4869 -55.4795 -55.4485
   -55.4387 -55.4190 -55.4093 -55.3759 -55.3134 -55.0444 -54.8070 -54.5320
   -21.9617 -21.7092 -21.0659 -20.8793 -20.5626 -20.3984 -20.3704 -20.2497
   -20.2203 -20.1057 -20.0784 -20.0420 -20.0073 -19.8906 -19.8455 -19.7977
   -19.5747 -18.9128 -18.7943 -10.0274  -9.7824  -9.6616  -9.6066  -9.1732
    -9.1254  -9.0272  -8.9190  -8.8514  -8.8159  -8.6283  -8.5886  -8.5848
    -8.4258  -8.3519  -8.3239  -8.1662  -8.0339  -7.8410  -7.6740  -7.6363
    -7.4825  -7.4482  -7.2843  -6.9758  -6.8576  -6.6929  -6.6793  -6.5707
    -6.5431  -6.4764  -6.3676  -6.3431  -6.2436  -6.1984  -6.0583  -6.0154
    -5.8643  -5.7808  -5.6001  -5.4696  -5.3923  -5.3386  -5.2674  -5.1560
    -4.9979  -4.9113  -4.8252  -4.7331  -4.5557  -4.4650  -4.2873  -4.2186
    -4.1120  -4.0558  -3.9544  -3.8696  -3.7865  -3.6398  -3.5948  -3.5482
    -3.5157  -3.4246  -3.3381  -3.2975  -3.2524  -3.2439  -2.9952  -2.9357
    -2.9052  -2.6294  -2.4608  -2.3876  -2.2164  -2.1071  -2.0193  -1.9504
    -1.8602  -1.6202  -1.5710  -1.4716  -1.3461  -0.9487  -0.6395  -0.5390
    -0.1936  -0.0349   0.3791   0.5383   0.7936   0.9064   1.0309   1.0425
     1.3210   1.4272   1.4893   1.8527   3.1161   3.8773   4.6413   5.0135
     5.1272   5.1648   5.2568   5.7263   5.9298   5.9837   6.1612   6.3917
     6.4962   6.5744   6.6592   6.7709   6.9024   6.9452   7.0835   7.2451
     7.3117   7.4426   7.5182   7.5863   7.7057   7.8926   7.9448   8.0427
     8.1283   8.2238   8.2948   8.4100   8.4774   8.6306   8.6771   8.7986
     8.8306   8.9299   9.1570   9.1982   9.3622   9.4499   9.5605   9.6842
     9.7322   9.7714   9.8797  10.1267  10.1797  10.2271  10.3010  10.3815
    10.4417  10.5617  10.6022  10.7249  10.7951  10.9027  11.0579  11.1235
    11.2510  11.3240  11.3659  11.4839  11.5418  11.6200  11.6967  11.8133
    11.8920  11.9069  11.9684  12.0526  12.0810  12.1917  12.2062  12.2777
    12.3675  12.4692  12.4999  12.5754  12.6382  12.7059  12.8081  12.8561
    12.9075  12.9826  13.0806  13.1726  13.2334  13.3536  13.3960  13.4816
    13.6592  13.7184  13.7910  13.8250  13.9180  13.9526  14.0711  14.1071
    14.1778  14.2589  14.3903  14.4620  14.5193  14.6478  14.7192  14.8432
    14.8735  14.9609  15.0393  15.1212  15.2348  15.2850  15.3392  15.4310
    15.4806  15.5590  15.5928  15.6341  15.6772  15.7335  15.8114  15.8649
    15.9695  16.0071  16.0711  16.1071  16.1620  16.2047  16.2483  16.3221
    16.3362  16.3703  16.4470  16.5277  16.5407  16.5605  16.5816  16.6014
    16.6439  16.6526  16.7607  16.8503  16.8742  16.9576  16.9994  17.0584
    17.1068  17.2144  17.2247  17.2619  17.2813  17.3727  17.4037  17.4547
    17.5002  17.5471  17.6107  17.6270  17.7355  17.8008  17.8742  17.9783
    17.9928  18.1435  18.1600  18.1974  18.2390  18.3374  18.4489  18.5005
    18.5457  18.6180  18.6888  18.7270  18.8186  18.8576  18.9105  18.9725
    19.0782  19.1293  19.1979  19.2616  19.3125  19.4241  19.5169  19.5526
    19.6566  19.6840  19.8253  19.8567  19.9511  19.9803  20.0165  20.0761
    20.0934  20.1398  20.3029  20.3396  20.3662  20.3869  20.5449  20.5744
    20.6355  20.7003  20.7838  20.8342  20.8805  20.9523  21.0168  21.0782
    21.1223  21.1662  21.2775  21.3347  21.4261  21.4755  21.5261  21.5775
    21.6009  21.6492  21.7231  21.7628  21.8614  21.8806  21.9811  22.0393
    22.0997  22.1573

     the Fermi energy is    -1.4597 ev

!    total energy              =   -2282.17767852 Ry
     Harris-Foulkes estimate   =   -2282.17767851 Ry
     estimated scf accuracy    <          6.5E-09 Ry

     The total energy is the sum of the following terms:

     one-electron contribution =  -23502.41579824 Ry
     hartree contribution      =   11793.39849156 Ry
     xc contribution           =    -572.88835655 Ry
     ewald contribution        =    9999.72695245 Ry
     smearing contrib. (-TS)   =       0.00103226 Ry

     total magnetization       =    -0.00 Bohr mag/cell
     absolute magnetization    =     0.01 Bohr mag/cell

     convergence has been achieved in  15 iterations

     Forces acting on atoms (Ry/au):

     negative rho (up, down):  0.791E+00 0.791E+00
     atom    1 type  1   force =    -0.00751529   -0.00525077    0.00060825
     atom    2 type  1   force =     0.00109615    0.00288732    0.00578331
     atom    3 type  2   force =     0.00009061    0.00264284    0.00784437
     atom    4 type  2   force =     0.01048767    0.00242212    0.00146654
     atom    5 type  1   force =     0.00112662   -0.00215241   -0.00052327
     atom    6 type  1   force =    -0.00007382   -0.00010231   -0.00092842
     atom    7 type  1   force =     0.00124105    0.00422197    0.00299317
     atom    8 type  1   force =    -0.00443346   -0.00711567    0.00172117
     atom    9 type  2   force =     0.00382479    0.00080787    0.00077226
     atom   10 type  2   force =    -0.00932015   -0.00095912   -0.00562933
     atom   11 type  1   force =    -0.00887219   -0.00136592   -0.01452805
     atom   12 type  1   force =    -0.00835667    0.00202930   -0.01328208
     atom   13 type  1   force =    -0.00053629   -0.00030249   -0.00217062
     atom   14 type  1   force =    -0.00761801   -0.00479595    0.00123824
     atom   15 type  1   force =     0.00025097    0.00530183   -0.00457964
     atom   16 type  2   force =    -0.00231237    0.00244252    0.00782481
     atom   17 type  2   force =     0.01062337    0.00256159    0.00096999
     atom   18 type  1   force =     0.00088896   -0.00217595   -0.00040424
     atom   19 type  1   force =    -0.00010769    0.00010239   -0.00099934
     atom   20 type  1   force =     0.00070318    0.00400253    0.00494367
     atom   21 type  1   force =    -0.00358331   -0.00691878   -0.00143837
     atom   22 type  2   force =    -0.00007761    0.00082845    0.00184719
     atom   23 type  2   force =     0.00181437   -0.00137796    0.04625486
     atom   24 type  1   force =     0.01189217    0.00078129   -0.01818077
     atom   25 type  1   force =     0.01153775   -0.00018177   -0.01730193
     atom   26 type  1   force =    -0.00190760    0.00032325   -0.00458592
     atom   27 type  3   force =     0.00010399    0.00083447    0.00087411
     atom   28 type  3   force =     0.00001034   -0.00012447   -0.00007754
     atom   29 type  3   force =    -0.00045892    0.00038033   -0.00024057
     atom   30 type  3   force =    -0.00041011    0.00047450   -0.00027206
     atom   31 type  1   force =    -0.00010235    0.00005158    0.00007380
     atom   32 type  3   force =    -0.00000610   -0.00027261   -0.00007357

     Total force =     0.000314     Total SCF correction =     0.000031
     SCF correction compared to forces is large: reduce conv_thr to get better values

     bfgs converged in  15 scf cycles and  14 bfgs steps
     (criteria: energy < 0.10E-03, force < 0.10E-02)

     End of BFGS Geometry Optimization

     Final energy   =   -2282.1776785175 Ry
Begin final coordinates

ATOMIC_POSITIONS (crystal)
O0       0.000000000   0.000000000   0.376930000    0   0   0
O0       0.000000000   0.500000000   0.399170000    0   0   0
Pt1      0.250000000   0.500000000   0.449030000    0   0   0
Pt1      0.000000000   0.000000000   0.451970000    0   0   0
O0       0.250000000   0.810000000   0.442770000    0   0   0
O0       0.250000000   0.190000000   0.459040000    0   0   0
O0       0.000000000   0.500000000   0.495410000    0   0   0
O0       0.000000000   0.000000000   0.529370000    0   0   0
Pt1      0.250000000   0.000000000   0.576120000    0   0   0
Pt1      0.000000000   0.500000000   0.574260000    0   0   0
O0       0.250000000   0.690000000   0.583080000    0   0   0
O0       0.250000000   0.310000000   0.583650000    0   0   0
O0       0.000000000   0.000000000   0.621610000    0   0   0
O0       0.500000000   0.000000000   0.376930000    0   0   0
O0       0.500000000   0.500000000   0.399170000    0   0   0
Pt1      0.750000000   0.500000000   0.449030000    0   0   0
Pt1      0.500000000   0.000000000   0.451970000    0   0   0
O0       0.750000000   0.810000000   0.442770000    0   0   0
O0       0.750000000   0.190000000   0.459040000    0   0   0
O0       0.500000000   0.500000000   0.495410000    0   0   0
O0       0.500000000   0.000000000   0.529370000    0   0   0
Pt1      0.750000000   0.000000000   0.576120000    0   0   0
Pt1      0.500000000   0.500000000   0.574260000    0   0   0
O0       0.750000000   0.690000000   0.583080000    0   0   0
O0       0.750000000   0.310000000   0.583650000    0   0   0
O0       0.500000000   0.000000000   0.621610000    0   0   0
H2      -0.000050000   0.640060000   0.383550000    0   0   0
H2       0.499950000   0.640060000   0.383550000    0   0   0
H2       0.144070000   0.031380000   0.366970000    0   0   0
H2       0.644070000   0.031380000   0.366970000    0   0   0
O0       0.512181821   0.501290659   0.648600602
H2       0.367225703   0.498814098   0.660144162
End final coordinates

     General routines

     Parallel routines

   This run was terminated on:   1:19:56  26Mar2014

   JOB DONE.
Running PBS batch system epilogue script
Job id: 312955.audhumbla.fysik.dtu.dk
Username: zhonxu
Groupname: campgst
Jobname: PtO2/Eads-2-layers/OH
Sessionid: 9174
Queuename: verylong
Accounting:
This job has allocated the following 16 nodes:
d042 d042 d042 d042 d042 d042 d042 d042 d019 d019 d019 d019 d019 d019 d019 d019
Finished epilogue job 312955.audhumbla.fysik.dtu.dk for zhonxu