     Program PWSCF v.5.0.2 (svn rev. 9656) starts on  8Feb2014 at 18:10: 4

     Current dimensions of program PWSCF are:
     Max number of different atomic species (ntypx) = 10
     Max number of k-points (npk) =  40000
     Max angular momentum in pseudopotentials (lmaxx) =  3
     Reading input from TiO2-1-pert.in
Warning: card &IONS ignored
Warning: card / ignored
Warning: card &CELL ignored
Warning: card / ignored

     Subspace diagonalization in iterative solution of the eigenvalue problem:
     a serial algorithm will be used

     bravais-lattice index     =            0
     lattice parameter (alat)  =      17.5745  a.u.
     unit-cell volume          =    3466.9609 (a.u.)^3
     number of atoms/cell      =           48
     number of atomic types    =            3
     number of electrons       =       384.00
     number of Kohn-Sham states=          552
     kinetic-energy cutoff     =      40.0000  Ry
     charge density cutoff     =     500.0000  Ry
     convergence threshold     =      1.0E-06
     mixing beta               =       0.7000
     number of iterations used =            8  plain     mixing
     Exchange-correlation      = SLA  PW   PBE  PBE ( 1 4 3 4 0)
     EXX-fraction              =        0.00

     celldm(1)=  17.574453  celldm(2)=   0.000000  celldm(3)=   0.000000
     celldm(4)=   0.000000  celldm(5)=   0.000000  celldm(6)=   0.000000

     crystal axes: (cart. coord. in units of alat)
               a(1) = (   1.000000   0.000000   0.000000 )
               a(2) = (   0.000000   1.000000   0.000000 )
               a(3) = (   0.000000   0.000000   0.638710 )

     reciprocal axes: (cart. coord. in units 2 pi/alat)
               b(1) = (  1.000000  0.000000  0.000000 )
               b(2) = (  0.000000  1.000000  0.000000 )
               b(3) = (  0.000000  0.000000  1.565657 )

     PseudoPot. # 1 for Ti read from file:
     /home/camp/zhonxu/pseudo/ti_pbe_v1.uspp.F.UPF
     MD5 check sum: bcc8f6961b3b91f0cac3ca967d22d0fb
     Pseudo is Ultrasoft + core correction, Zval = 12.0
     Generated by new atomic code, or converted to UPF format
     Using radial grid of  851 points,  6 beta functions with:
                l(1) =   0
                l(2) =   0
                l(3) =   1
                l(4) =   1
                l(5) =   2
                l(6) =   2
     Q(r) pseudized with  6 coefficients,  rinner =    1.000   1.000   1.000
                                                       1.000   1.000

     PseudoPot. # 2 for Ti read from file:
     /home/camp/zhonxu/pseudo/ti_pbe_v1.uspp.F.UPF
     MD5 check sum: bcc8f6961b3b91f0cac3ca967d22d0fb
     Pseudo is Ultrasoft + core correction, Zval = 12.0
     Generated by new atomic code, or converted to UPF format
     Using radial grid of  851 points,  6 beta functions with:
                l(1) =   0
                l(2) =   0
                l(3) =   1
                l(4) =   1
                l(5) =   2
                l(6) =   2
     Q(r) pseudized with  6 coefficients,  rinner =    1.000   1.000   1.000
                                                       1.000   1.000

     PseudoPot. # 3 for O  read from file:
     /home/camp/zhonxu/pseudo/o_pbe_v1.01.uspp.F.UPF
     MD5 check sum: 2bcb18d16ea4b960afae9ec6d52f22d2
     Pseudo is Ultrasoft + core correction, Zval =  6.0
     Generated by new atomic code, or converted to UPF format
     Using radial grid of  737 points,  5 beta functions with:
                l(1) =   0
                l(2) =   0
                l(3) =   1
                l(4) =   1
                l(5) =   2
     Q(r) pseudized with  8 coefficients,  rinner =    0.900   0.900   0.900
                                                       0.900   0.900

     atomic species   valence    mass     pseudopotential
        Ti0           12.00    47.88000     Ti( 1.00)
        Ti1           12.00    47.88000     Ti( 1.00)
        O2             6.00    15.99940     O ( 1.00)

     Starting magnetic structure
     atomic species   magnetization
        Ti0          0.000
        Ti1          0.000
        O2           0.000

     Simplified LDA+U calculation (l_max = 2) with parameters (eV):
     atomic species    L          U    alpha       J0     beta
        Ti0            2     0.0000   0.0000   0.0000   0.0000
        Ti1            2     0.0000   0.0000   0.0000   0.0000
        O2             1     0.0000   0.0000   0.0000   0.0000

      8 Sym. Ops., with inversion, found

   Cartesian axes

     site n.     atom                  positions (alat units)
         1           Ti0 tau(   1) = (   0.0000000   0.0000000   0.0000000  )
         2           Ti1 tau(   2) = (   0.2500000   0.2500000   0.1596774  )
         3           Ti1 tau(   3) = (   0.0000000   0.0000000   0.3193548  )
         4           Ti1 tau(   4) = (   0.2500000   0.2500000   0.4790323  )
         5           Ti1 tau(   5) = (   0.0000000   0.5000000   0.0000000  )
         6           Ti1 tau(   6) = (   0.2500000   0.7500000   0.1596774  )
         7           Ti1 tau(   7) = (   0.0000000   0.5000000   0.3193548  )
         8           Ti1 tau(   8) = (   0.2500000   0.7500000   0.4790323  )
         9           Ti1 tau(   9) = (   0.5000000   0.0000000   0.0000000  )
        10           Ti1 tau(  10) = (   0.7500000   0.2500000   0.1596774  )
        11           Ti1 tau(  11) = (   0.5000000   0.0000000   0.3193548  )
        12           Ti1 tau(  12) = (   0.7500000   0.2500000   0.4790323  )
        13           Ti1 tau(  13) = (   0.5000000   0.5000000   0.0000000  )
        14           Ti1 tau(  14) = (   0.7500000   0.7500000   0.1596774  )
        15           Ti1 tau(  15) = (   0.5000000   0.5000000   0.3193548  )
        16           Ti1 tau(  16) = (   0.7500000   0.7500000   0.4790323  )
        17           O2  tau(  17) = (   0.1550000   0.1550000   0.0000000  )
        18           O2  tau(  18) = (  -0.1550000  -0.1550000   0.0000000  )
        19           O2  tau(  19) = (   0.4050000   0.0950000   0.1596774  )
        20           O2  tau(  20) = (   0.0950000   0.4050000   0.1596774  )
        21           O2  tau(  21) = (   0.1550000   0.1550000   0.3193548  )
        22           O2  tau(  22) = (  -0.1550000  -0.1550000   0.3193548  )
        23           O2  tau(  23) = (   0.4050000   0.0950000   0.4790323  )
        24           O2  tau(  24) = (   0.0950000   0.4050000   0.4790323  )
        25           O2  tau(  25) = (   0.1550000   0.6550000   0.0000000  )
        26           O2  tau(  26) = (  -0.1550000   0.3450000   0.0000000  )
        27           O2  tau(  27) = (   0.4050000   0.5950000   0.1596774  )
        28           O2  tau(  28) = (   0.0950000   0.9050000   0.1596774  )
        29           O2  tau(  29) = (   0.1550000   0.6550000   0.3193548  )
        30           O2  tau(  30) = (  -0.1550000   0.3450000   0.3193548  )
        31           O2  tau(  31) = (   0.4050000   0.5950000   0.4790323  )
        32           O2  tau(  32) = (   0.0950000   0.9050000   0.4790323  )
        33           O2  tau(  33) = (   0.6550000   0.1550000   0.0000000  )
        34           O2  tau(  34) = (   0.3450000  -0.1550000   0.0000000  )
        35           O2  tau(  35) = (   0.9050000   0.0950000   0.1596774  )
        36           O2  tau(  36) = (   0.5950000   0.4050000   0.1596774  )
        37           O2  tau(  37) = (   0.6550000   0.1550000   0.3193548  )
        38           O2  tau(  38) = (   0.3450000  -0.1550000   0.3193548  )
        39           O2  tau(  39) = (   0.9050000   0.0950000   0.4790323  )
        40           O2  tau(  40) = (   0.5950000   0.4050000   0.4790323  )
        41           O2  tau(  41) = (   0.6550000   0.6550000   0.0000000  )
        42           O2  tau(  42) = (   0.3450000   0.3450000   0.0000000  )
        43           O2  tau(  43) = (   0.9050000   0.5950000   0.1596774  )
        44           O2  tau(  44) = (   0.5950000   0.9050000   0.1596774  )
        45           O2  tau(  45) = (   0.6550000   0.6550000   0.3193548  )
        46           O2  tau(  46) = (   0.3450000   0.3450000   0.3193548  )
        47           O2  tau(  47) = (   0.9050000   0.5950000   0.4790323  )
        48           O2  tau(  48) = (   0.5950000   0.9050000   0.4790323  )

     number of k points=    42  Methfessel-Paxton smearing, width (Ry)=  0.0100
                       cart. coord. in units 2pi/alat
        k(    1) = (   0.0000000   0.0000000   0.0000000), wk =   0.0156250
        k(    2) = (   0.0000000   0.0000000   0.3914141), wk =   0.0312500
        k(    3) = (   0.0000000   0.0000000  -0.7828283), wk =   0.0156250
        k(    4) = (   0.0000000   0.2500000   0.0000000), wk =   0.0625000
        k(    5) = (   0.0000000   0.2500000   0.3914141), wk =   0.1250000
        k(    6) = (   0.0000000   0.2500000  -0.7828283), wk =   0.0625000
        k(    7) = (   0.0000000  -0.5000000   0.0000000), wk =   0.0312500
        k(    8) = (   0.0000000  -0.5000000   0.3914141), wk =   0.0625000
        k(    9) = (   0.0000000  -0.5000000  -0.7828283), wk =   0.0312500
        k(   10) = (   0.2500000   0.2500000   0.0000000), wk =   0.0312500
        k(   11) = (   0.2500000   0.2500000   0.3914141), wk =   0.0625000
        k(   12) = (   0.2500000   0.2500000  -0.7828283), wk =   0.0312500
        k(   13) = (   0.2500000  -0.5000000   0.0000000), wk =   0.0625000
        k(   14) = (   0.2500000  -0.5000000   0.3914141), wk =   0.1250000
        k(   15) = (   0.2500000  -0.5000000  -0.7828283), wk =   0.0625000
        k(   16) = (  -0.5000000  -0.5000000   0.0000000), wk =   0.0156250
        k(   17) = (  -0.5000000  -0.5000000   0.3914141), wk =   0.0312500
        k(   18) = (  -0.5000000  -0.5000000  -0.7828283), wk =   0.0156250
        k(   19) = (  -0.2500000   0.2500000   0.0000000), wk =   0.0312500
        k(   20) = (  -0.2500000   0.2500000  -0.3914141), wk =   0.0625000
        k(   21) = (  -0.2500000   0.2500000   0.7828283), wk =   0.0312500
        k(   22) = (   0.0000000   0.0000000   0.0000000), wk =   0.0156250
        k(   23) = (   0.0000000   0.0000000   0.3914141), wk =   0.0312500
        k(   24) = (   0.0000000   0.0000000  -0.7828283), wk =   0.0156250
        k(   25) = (   0.0000000   0.2500000   0.0000000), wk =   0.0625000
        k(   26) = (   0.0000000   0.2500000   0.3914141), wk =   0.1250000
        k(   27) = (   0.0000000   0.2500000  -0.7828283), wk =   0.0625000
        k(   28) = (   0.0000000  -0.5000000   0.0000000), wk =   0.0312500
        k(   29) = (   0.0000000  -0.5000000   0.3914141), wk =   0.0625000
        k(   30) = (   0.0000000  -0.5000000  -0.7828283), wk =   0.0312500
        k(   31) = (   0.2500000   0.2500000   0.0000000), wk =   0.0312500
        k(   32) = (   0.2500000   0.2500000   0.3914141), wk =   0.0625000
        k(   33) = (   0.2500000   0.2500000  -0.7828283), wk =   0.0312500
        k(   34) = (   0.2500000  -0.5000000   0.0000000), wk =   0.0625000
        k(   35) = (   0.2500000  -0.5000000   0.3914141), wk =   0.1250000
        k(   36) = (   0.2500000  -0.5000000  -0.7828283), wk =   0.0625000
[...]
    eigenvectors:
  0.000  0.000  1.000
  0.500  0.500  0.000
  0.500  0.500  0.000
    occupations:
  0.908  0.000 -0.000
  0.000  0.899  0.004
 -0.000  0.004  0.899
   spin  2
    eigenvalues:
  0.895  0.903  0.908
    eigenvectors:
  0.000  0.000  1.000
  0.500  0.500  0.000
  0.500  0.500  0.000
    occupations:
  0.908  0.000 -0.000
  0.000  0.899  0.004
 -0.000  0.004  0.899
atomic mag. moment =    -0.000000
atom   41   Tr[ns(na)] (up, down, total) =   2.70577  2.70577  5.41155
   spin  1
    eigenvalues:
  0.895  0.903  0.908
    eigenvectors:
  0.000  0.000  1.000
  0.500  0.500  0.000
  0.500  0.500  0.000
    occupations:
  0.908 -0.000 -0.000
 -0.000  0.899 -0.004
 -0.000 -0.004  0.899
   spin  2
    eigenvalues:
  0.895  0.903  0.908
    eigenvectors:
  0.000  0.000  1.000
  0.500  0.500  0.000
  0.500  0.500  0.000
    occupations:
  0.908 -0.000 -0.000
 -0.000  0.899 -0.004
 -0.000 -0.004  0.899
atomic mag. moment =    -0.000000
atom   42   Tr[ns(na)] (up, down, total) =   2.70577  2.70577  5.41155
   spin  1
    eigenvalues:
  0.895  0.903  0.908
    eigenvectors:
  0.000  0.000  1.000
  0.500  0.500  0.000
  0.500  0.500  0.000
    occupations:
  0.908 -0.000 -0.000
 -0.000  0.899 -0.004
 -0.000 -0.004  0.899
   spin  2
    eigenvalues:
  0.895  0.903  0.908
    eigenvectors:
  0.000  0.000  1.000
  0.500  0.500  0.000
  0.500  0.500  0.000
    occupations:
  0.908 -0.000 -0.000
 -0.000  0.899 -0.004
 -0.000 -0.004  0.899
atomic mag. moment =    -0.000000
atom   43   Tr[ns(na)] (up, down, total) =   2.70574  2.70574  5.41149
   spin  1
    eigenvalues:
  0.895  0.903  0.908
    eigenvectors:
  0.000  0.000  1.000
  0.500  0.500  0.000
  0.500  0.500  0.000
    occupations:
  0.908  0.000 -0.000
  0.000  0.899  0.004
 -0.000  0.004  0.899
   spin  2
    eigenvalues:
  0.895  0.903  0.908
    eigenvectors:
  0.000  0.000  1.000
  0.500  0.500  0.000
  0.500  0.500  0.000
    occupations:
  0.908  0.000 -0.000
  0.000  0.899  0.004
 -0.000  0.004  0.899
atomic mag. moment =    -0.000000
atom   44   Tr[ns(na)] (up, down, total) =   2.70574  2.70574  5.41149
   spin  1
    eigenvalues:
  0.895  0.903  0.908
    eigenvectors:
  0.000  0.000  1.000
  0.500  0.500  0.000
  0.500  0.500  0.000
    occupations:
  0.908 -0.000  0.000
 -0.000  0.899  0.004
  0.000  0.004  0.899
   spin  2
    eigenvalues:
  0.895  0.903  0.908
    eigenvectors:
  0.000  0.000  1.000
  0.500  0.500  0.000
  0.500  0.500  0.000
    occupations:
  0.908 -0.000  0.000
 -0.000  0.899  0.004
  0.000  0.004  0.899
atomic mag. moment =    -0.000000
atom   45   Tr[ns(na)] (up, down, total) =   2.70578  2.70578  5.41155
   spin  1
    eigenvalues:
  0.895  0.903  0.908
    eigenvectors:
  0.000  0.000  1.000
  0.500  0.500  0.000
  0.500  0.500  0.000
    occupations:
  0.908 -0.000 -0.000
 -0.000  0.899 -0.004
 -0.000 -0.004  0.899
   spin  2
    eigenvalues:
  0.895  0.903  0.908
    eigenvectors:
  0.000  0.000  1.000
  0.500  0.500  0.000
  0.500  0.500  0.000
    occupations:
  0.908 -0.000 -0.000
 -0.000  0.899 -0.004
 -0.000 -0.004  0.899
atomic mag. moment =    -0.000000
atom   46   Tr[ns(na)] (up, down, total) =   2.70578  2.70578  5.41155
   spin  1
    eigenvalues:
  0.895  0.903  0.908
    eigenvectors:
  0.000  0.000  1.000
  0.500  0.500  0.000
  0.500  0.500  0.000
    occupations:
  0.908 -0.000 -0.000
 -0.000  0.899 -0.004
 -0.000 -0.004  0.899
   spin  2
    eigenvalues:
  0.895  0.903  0.908
    eigenvectors:
  0.000  0.000  1.000
  0.500  0.500  0.000
  0.500  0.500  0.000
    occupations:
  0.908 -0.000 -0.000
 -0.000  0.899 -0.004
 -0.000 -0.004  0.899
atomic mag. moment =    -0.000000
atom   47   Tr[ns(na)] (up, down, total) =   2.70574  2.70574  5.41149
   spin  1
    eigenvalues:
  0.895  0.903  0.908
    eigenvectors:
  0.000  0.000  1.000
  0.500  0.500  0.000
  0.500  0.500  0.000
    occupations:
  0.908 -0.000  0.000
 -0.000  0.899  0.004
  0.000  0.004  0.899
   spin  2
    eigenvalues:
  0.895  0.903  0.908
    eigenvectors:
  0.000  0.000  1.000
  0.500  0.500  0.000
  0.500  0.500  0.000
    occupations:
  0.908 -0.000  0.000
 -0.000  0.899  0.004
  0.000  0.004  0.899
atomic mag. moment =    -0.000000
atom   48   Tr[ns(na)] (up, down, total) =   2.70574  2.70574  5.41149
   spin  1
    eigenvalues:
  0.895  0.903  0.908
    eigenvectors:
  0.000  0.000  1.000
  0.500  0.500  0.000
  0.500  0.500  0.000
    occupations:
  0.908  0.000 -0.000
  0.000  0.899  0.004
 -0.000  0.004  0.899
   spin  2
    eigenvalues:
  0.895  0.903  0.908
    eigenvectors:
  0.000  0.000  1.000
  0.500  0.500  0.000
  0.500  0.500  0.000
    occupations:
  0.908  0.000 -0.000
  0.000  0.899  0.004
 -0.000  0.004  0.899
atomic mag. moment =    -0.000000
N of occupied +U levels = 219.8236183
 --- exit write_ns ---

 ------ SPIN UP ------------

          k = 0.0000 0.0000 0.0000 ( 14755 PWs)   bands (ev):

   -48.1855 -48.1785 -48.1785 -48.1784 -48.1784 -48.1784 -48.1780 -48.1713
   -48.1385 -48.1385 -48.1385 -48.1384 -48.1384 -48.1384 -48.1384 -48.1378
   -24.7324 -24.7323 -24.7323 -24.7321 -24.7244 -24.7244 -24.7238 -24.7236
   -24.5021 -24.5021 -24.4922 -24.4921 -24.4563 -24.4562 -24.4562 -24.4559
   -24.3744 -24.3743 -24.3743 -24.3740 -24.3508 -24.3508 -24.3495 -24.3495
   -24.3493 -24.3493 -24.3493 -24.3488 -24.3421 -24.3420 -24.3403 -24.3402
   -24.3350 -24.3350 -24.3330 -24.3329 -24.3329 -24.3326 -24.3289 -24.3288
   -24.2896 -24.2744 -24.2744 -24.2744 -24.2743 -24.2742 -24.2739 -24.2591
    -9.3731  -8.7517  -8.7515  -8.7095  -8.7095  -8.7094  -8.7093  -8.2944
    -8.2944  -8.2942  -8.2941  -8.2728  -8.1355  -8.1352  -8.0545  -8.0543
    -7.9014  -7.9012  -7.7997  -7.7995  -7.6916  -7.6916  -7.6915  -7.6914
    -7.6402  -7.6402  -7.6401  -7.6399  -7.6260  -7.6258  -7.5101  -7.5098
     3.0521   3.2921   3.2922   3.4771   3.7881   3.7882   3.7882   3.7883
     3.8028   3.8028   3.8029   3.8029   4.0364   4.1758   4.1758   4.2753
     4.2753   4.3892   4.3892   4.8092   4.8094   4.8681   4.8682   4.9075
     4.9075   4.9076   4.9078   4.9978   4.9979   4.9980   4.9981   5.1302
     5.1302   5.1456   5.1456   5.2759   5.2759   5.5482   5.5482   5.5483
     5.5483   5.6077   5.6077   5.6077   5.6078   5.8842   5.8843   5.8953
     5.8954   5.8954   5.8955   6.0689   6.0691   6.0851   6.0853   6.2040
     6.2040   6.3643   6.3643   6.3643   6.3643   6.5443   6.5445   6.6007
     6.6009   6.6403   6.6403   6.6403   6.6404   6.8321   7.1871   7.1872
     7.1873   7.1874   7.2575   7.2575   7.4555   7.4557   7.5401   7.5403
     7.7102   7.7103   7.7104   7.7105   7.7729   7.7731   7.9209   7.9209
     7.9209   7.9209   7.9582   7.9582   8.0151   8.2895   8.2896   8.6024
    10.6218  10.6219  10.6220  10.6220  10.6511  10.7210  10.7211  11.0603
    11.1963  11.1963  11.2134  11.2135  11.2221  11.2280  11.2281  11.3368
    11.3369  11.3369  11.3371  11.5312  11.5312  11.6247  11.6247  11.6248
    11.6250  11.8130  11.8131  11.8478  11.8478  11.8478  11.8481  11.8641
    11.8642  11.9934  11.9935  12.2590  12.2591  12.2591  12.2593  12.3935
    12.3936  12.4875  12.4876  12.5790  12.5790  12.5791  12.5792  12.8569
    13.1667  13.5537  13.5537  13.5539  13.5539  13.9465  13.9466  14.2775
    14.2776  14.3040  14.3040  14.5503  14.5504  14.5504  14.5506  14.7436
    14.7438  14.7669  14.7670  15.1575  15.1575  15.1575  15.1578  15.4278
    15.4279  15.4379  15.4380  15.6509  15.6509  15.6510  15.6511  15.8688
    16.5626  18.6729  18.6729  18.6730  18.6730  19.7508  19.7508  20.2927
    20.2927  20.3556  20.3557  20.7588  20.7588  20.7589  20.7589  20.9779
    20.9779  21.5448  21.5448  22.0101  22.0101  22.0101  22.0101  22.7097
    22.7097  22.7097  22.7097  22.8292  22.8293  22.8318  23.1169  23.1169
    23.4029  23.4029  23.9511  23.9512  24.0047  24.0048  24.2731  24.3570
    24.3570  24.3570  24.3570  24.5940  24.5940  24.5940  24.5940  25.2981
    25.5361  25.5362  25.6647  25.6648  25.7182  25.7182  25.7182  25.7182
    26.3191  26.3192  26.6527  26.7029  26.7029  26.7029  26.7030  26.7432
    26.7432  26.7881  26.7881  26.7881  26.7881  26.9517  26.9517  26.9518
    26.9518  27.4308  27.4308  27.5524  27.5524  28.0588  28.0589  28.1647
    28.1654  28.1654  28.3834  28.3834  28.3834  28.3834  29.5763  29.5764
    29.9072  29.9963  29.9963  29.9963  29.9963  30.1217  30.1217  30.7318
    30.7318  31.0265  31.0265  31.2937  31.4997  31.4997  31.6595  31.6595
    31.6595  31.6596  31.6985  31.6985  31.6986  31.6986  32.2687  32.2687
    32.2826  32.2826  32.2948  32.2948  32.2948  32.2948  32.4272  32.4273
    32.8381  32.8381  33.4501  33.9810  33.9810  34.1612  34.1612  34.1612
    34.1612  34.2221  34.2221  34.2221  34.2222  34.5072  34.5073  34.5304
    34.7725  34.7725  35.0120  35.0120  35.3312  35.7222  35.7222  35.8057
    35.8057  35.8057  35.8057  35.8625  35.8626  35.8626  35.8626  35.8758
    35.8758  36.0096  36.0097  36.0097  36.0097  36.1131  36.1131  36.1131
    36.1132  36.3800  36.3800  36.6356  36.6356  36.6357  36.6357  37.0341
    37.1205  37.1206  37.3530  37.3530  37.9180  37.9180  38.8120  38.8121
    39.3938  39.3938  39.4564  40.0353  40.0354  40.0577  40.0577  40.0961
    40.0962  40.0962  40.0962  40.1093  40.2199  40.4049  40.4050  40.4050
    40.4050  40.5305  40.5305  40.5305  40.5305  40.6468  40.6469  40.9758
    40.9759  41.1149  41.1149  41.2633  41.2633  41.2633  41.2633  41.5870
    41.5870  41.5870  41.5871  41.6803  41.7811  41.7812  41.8077  41.8078
    41.9185  41.9185  42.7965  42.7965  43.2743  43.2744  43.6335  43.6335
    43.7776  43.7776  43.7994  43.7994  43.7994  43.7995  43.9863  43.9863
    44.0037  44.0037  44.0037  44.0038  44.1461  44.1462  44.1462  44.1462
    44.2959  44.2959  44.3749  44.3749  44.3749  44.3749  44.4172  44.7883
    44.7883  44.8246  44.8246  45.2673  45.2674  45.4085  45.4085  45.4085
    45.4086  45.5747  45.6080  45.6081  45.7044  45.7044  45.7044  45.7045
    46.1178  46.1178  46.3674  46.3674  46.4940  46.4940  46.5791  46.5791
    46.5791  46.5792  46.5915  46.5915  46.9715  46.9715  46.9715  46.9716

[...]

          k =-0.5000-0.5000 0.0000 ( 14812 PWs)   bands (ev):

[...]

 ------ SPIN DOWN ----------

[...]

          k = 0.2500-0.5000-0.7828 ( 14816 PWs)   bands (ev):

[...]

          k =-0.2500 0.2500 0.7828 ( 14778 PWs)   bands (ev):

   -48.1628 -48.1627 -48.1603 -48.1603 -48.1601 -48.1601 -48.1591 -48.1591
   -48.1577 -48.1577 -48.1568 -48.1567 -48.1566 -48.1565 -48.1542 -48.1541
   -24.5169 -24.5169 -24.5168 -24.5168 -24.5159 -24.5159 -24.5092 -24.5091
   -24.5087 -24.5087 -24.5084 -24.5084 -24.5046 -24.5046 -24.4979 -24.4979
   -24.4389 -24.4389 -24.4335 -24.4335 -24.4232 -24.4231 -24.4206 -24.4206
   -24.4203 -24.4203 -24.4173 -24.4172 -24.4016 -24.4016 -24.4015 -24.4015
   -24.3475 -24.3474 -24.3471 -24.3471 -24.3358 -24.3358 -24.3339 -24.3339
   -24.3338 -24.3338 -24.3319 -24.3319 -24.3259 -24.3259 -24.3229 -24.3229
    -8.7145  -8.7145  -8.4740  -8.4740  -8.4739  -8.4739  -8.3616  -8.3615
    -8.2168  -8.2168  -8.1259  -8.1259  -8.1258  -8.1258  -7.9485  -7.9485
    -7.9023  -7.9022  -7.9022  -7.9022  -7.8914  -7.8914  -7.8678  -7.8677
    -7.8572  -7.8572  -7.8466  -7.8466  -7.8465  -7.8465  -7.7992  -7.7991
     3.9199   3.9200   3.9349   3.9350   4.1536   4.1536   4.1537   4.1537
     4.1863   4.1863   4.1938   4.1938   4.2522   4.2523   4.2799   4.2799
     4.3684   4.3684   4.3684   4.3685   4.4286   4.4286   4.4684   4.4685
     4.4685   4.4685   4.6737   4.6737   4.6737   4.6738   4.7254   4.7254
     5.1353   5.1353   5.1781   5.1781   5.1781   5.1781   5.3756   5.3756
     5.5595   5.5595   5.5596   5.5596   5.6668   5.6668   5.9056   5.9056
     5.9056   5.9056   5.9605   5.9605   5.9881   5.9881   6.3531   6.3531
     6.4847   6.4847   6.4848   6.4848   6.7301   6.7301   6.7301   6.7302
     6.7856   6.7856   6.8324   6.8325   6.9158   6.9158   6.9846   6.9846
     7.1317   7.1317   7.1317   7.1317   7.1511   7.1511   7.2517   7.2517
     7.2870   7.2871   7.3646   7.3646   7.5383   7.5383   7.5383   7.5384
     7.6422   7.6422   7.9612   7.9612   7.9612   7.9612   8.2507   8.2508
    10.8845  10.8845  11.0994  11.0994  11.0995  11.0995  11.3505  11.3505
    11.4022  11.4022  11.4173  11.4173  11.5163  11.5163  11.5164  11.5164
    11.6510  11.6510  11.7073  11.7074  11.7076  11.7076  11.7119  11.7119
    11.7225  11.7226  11.8190  11.8190  11.9174  11.9174  11.9328  11.9328
    11.9420  11.9420  11.9420  11.9420  12.1372  12.1372  12.1373  12.1373
    12.1378  12.1378  12.3627  12.3627  12.3628  12.3628  12.5950  12.5950
    13.6508  13.6508  13.7454  13.7454  13.7456  13.7456  14.0539  14.0539
    14.0540  14.0540  14.0765  14.0765  14.3768  14.3768  14.4099  14.4100
    14.8241  14.8241  14.8306  14.8306  14.9275  14.9276  14.9277  14.9277
    15.0599  15.0599  15.3568  15.3568  15.3569  15.3570  15.3571  15.3571
    18.3934  18.3934  19.2511  19.2512  19.2512  19.2512  19.8121  19.8121
    20.5160  20.5160  20.5823  20.5823  20.5823  20.5823  21.8154  21.8154
    22.1482  22.1483  22.2362  22.2362  22.7284  22.7284  22.7284  22.7284
    22.9673  22.9674  23.4941  23.4941  23.5102  23.5102  23.7659  23.7659
    23.7659  23.7659  23.9102  23.9102  23.9102  23.9102  23.9187  23.9188
    24.0068  24.0068  24.2875  24.2875  24.2875  24.2875  25.3286  25.3287
    25.3287  25.3287  25.3369  25.3369  25.5926  25.5926  25.7811  25.7812
    25.9331  25.9332  25.9907  25.9907  25.9907  25.9907  26.4084  26.4084
    26.5841  26.5841  26.5841  26.5841  26.8034  26.8034  27.0568  27.0568
    27.0998  27.0998  27.2106  27.2106  27.7256  27.7256  27.7256  27.7256
    27.9178  27.9178  28.3887  28.3887  28.4458  28.4458  28.4458  28.4458
    29.1458  29.1458  29.3351  29.3351  29.3351  29.3351  30.3277  30.3277
    30.3977  30.3977  30.3978  30.3978  30.9200  30.9200  31.3204  31.3204
    31.8986  31.8986  32.3272  32.3272  32.3272  32.3272  32.7970  32.7970
    33.0426  33.0427  33.0676  33.0676  33.1061  33.1061  33.1112  33.1112
    33.2879  33.2879  33.2879  33.2879  33.8584  33.8584  33.8584  33.8585
    34.0053  34.0053  34.4504  34.4504  34.4504  34.4504  34.4997  34.4997
    35.0133  35.0133  35.0133  35.0134  35.0396  35.0396  35.1798  35.1798
    35.7104  35.7104  35.7104  35.7105  35.7359  35.7359  36.3125  36.3126
    36.3126  36.3126  36.3557  36.3557  36.5302  36.5302  36.8680  36.8680
    36.9287  36.9287  36.9287  36.9287  36.9343  36.9343  37.2858  37.2858
    37.3019  37.3019  37.6736  37.6736  37.8525  37.8525  37.8525  37.8525
    38.0902  38.0902  38.0902  38.0902  38.3816  38.3816  39.2145  39.2145
    39.7463  39.7463  39.7463  39.7463  39.8828  39.8828  40.2584  40.2584
    40.4603  40.4603  40.5380  40.5380  40.5435  40.5435  40.5435  40.5435
    40.8518  40.8518  40.8712  40.8712  41.5253  41.5253  41.5253  41.5254
    42.4389  42.4389  42.4389  42.4389  42.4845  42.4845  42.7277  42.7277
    43.0321  43.0321  43.6631  43.6631  43.7380  43.7380  43.7470  43.7470
    43.7470  43.7470  43.9778  43.9778  43.9778  43.9778  44.0011  44.0011
    44.1281  44.1281  44.1506  44.1506  44.4749  44.4750  44.8327  44.8327
    44.8327  44.8327  45.0057  45.0058  45.0058  45.0058  45.3323  45.3323
    45.4700  45.4700  45.6181  45.6181  45.6181  45.6181  45.7231  45.7232
    45.8192  45.8192  45.9707  45.9707  45.9708  45.9708  46.0244  46.0244
    46.3044  46.3044  46.4798  46.4798  46.4798  46.4798  46.5708  46.5708
    46.5980  46.5980  46.6317  46.6317  46.6317  46.6317  46.8400  46.8401

     the Fermi energy is     8.6570 ev

!    total energy              =   -2931.97779735 Ry
     Harris-Foulkes estimate   =   -2931.97779749 Ry
     estimated scf accuracy    <       0.00000015 Ry

     The total energy is the sum of the following terms:

     one-electron contribution =   -1044.11516391 Ry
     hartree contribution      =     704.64853749 Ry
     xc contribution           =    -505.96822780 Ry
     ewald contribution        =   -2086.54328247 Ry
     Hubbard energy            =       0.00000000 Ry
     smearing contrib. (-TS)   =       0.00033933 Ry

     total magnetization       =    -0.00 Bohr mag/cell
     absolute magnetization    =     0.00 Bohr mag/cell

     convergence has been achieved in  11 iterations

     Writing output data file pwscf.save

     General routines

     Parallel routines
     Hubbard U routines

   This run was terminated on:  22:25:21   8Feb2014

   JOB DONE.
Running PBS batch system epilogue script
Job id: 266910.audhumbla.fysik.dtu.dk
Username: zhonxu
Groupname: campgst
Jobname: linear-response/TiO2-1-scf
Sessionid: 27789
Queuename: verylong
Accounting:
This job has allocated the following 16 nodes:
b122 b122 b122 b122 b122 b122 b122 b122 b118 b118 b118 b118 b118 b118 b118 b118
Finished epilogue job 266910.audhumbla.fysik.dtu.dk for zhonxu