     Program PWSCF v.5.0.2 (svn rev. 9656) starts on 28Apr2014 at  5:56: 4

     Current dimensions of program PWSCF are:
     Max number of different atomic species (ntypx) = 10
     Max number of k-points (npk) =  40000
     Max angular momentum in pseudopotentials (lmaxx) =  3
     Reading input from pwscf.in
Warning: card &CELL ignored
Warning: card / ignored

     Subspace diagonalization in iterative solution of the eigenvalue problem:
     a serial algorithm will be used

     bravais-lattice index     =            0
     lattice parameter (alat)  =      12.2076  a.u.
     unit-cell volume          =    7496.5096 (a.u.)^3
     number of atoms/cell      =           32
     number of atomic types    =            3
     number of electrons       =       247.00
     number of Kohn-Sham states=          370
     kinetic-energy cutoff     =      40.0000  Ry
     charge density cutoff     =     500.0000  Ry
     convergence threshold     =      1.0E-06
     mixing beta               =       0.7000
     number of iterations used =            8  plain     mixing
     Exchange-correlation      = SLA  PW   PBE  PBE ( 1 4 3 4 0)
     EXX-fraction              =        0.00
     nstep                     =           50

     celldm(1)=  12.207631  celldm(2)=   0.000000  celldm(3)=   0.000000
     celldm(4)=   0.000000  celldm(5)=   0.000000  celldm(6)=   0.000000

     crystal axes: (cart. coord. in units of alat)
               a(1) = (   1.000000   0.000000   0.000000 )
               a(2) = (   0.000000   1.004836   0.000000 )
               a(3) = (   0.000000   0.000000   4.100811 )

     reciprocal axes: (cart. coord. in units 2 pi/alat)
               b(1) = (  1.000000  0.000000  0.000000 )
               b(2) = (  0.000000  0.995187  0.000000 )
               b(3) = (  0.000000  0.000000  0.243854 )

     PseudoPot. # 1 for O  read from file:
     /home/camp/zhonxu/pseudo/o_pbe_v1.01.uspp.F.UPF
     MD5 check sum: 2bcb18d16ea4b960afae9ec6d52f22d2
     Pseudo is Ultrasoft + core correction, Zval =  6.0
     Generated by new atomic code, or converted to UPF format
     Using radial grid of  737 points,  5 beta functions with:
                l(1) =   0
                l(2) =   0
                l(3) =   1
                l(4) =   1
                l(5) =   2
     Q(r) pseudized with  8 coefficients,  rinner =    0.900   0.900   0.900
                                                       0.900   0.900

     PseudoPot. # 2 for Pt read from file:
     /home/camp/zhonxu/pseudo/pt_pbe_v1.uspp.F.UPF
     MD5 check sum: 4c71d6ad5ef119f1eb26a4d0b7884226
     Pseudo is Ultrasoft + core correction, Zval = 16.0
     Generated by new atomic code, or converted to UPF format
     Using radial grid of  985 points,  6 beta functions with:
                l(1) =   0
                l(2) =   0
                l(3) =   1
                l(4) =   1
                l(5) =   2
                l(6) =   2
     Q(r) pseudized with  8 coefficients,  rinner =    1.300   1.300   1.300
                                                       1.300   1.300

     PseudoPot. # 3 for H  read from file:
     /home/camp/zhonxu/pseudo/h_pbe_v1.uspp.F.UPF
     MD5 check sum: 3408e3ff4ec8b0a4e358431e7e038a48
     Pseudo is Ultrasoft, Zval =  1.0
     Generated by new atomic code, or converted to UPF format
     Using radial grid of  615 points,  2 beta functions with:
                l(1) =   0
                l(2) =   0
     Q(r) pseudized with  8 coefficients,  rinner =    0.700

     atomic species   valence    mass     pseudopotential
        O0             6.00    15.99940     O ( 1.00)
        Pt1           16.00   195.08000     Pt( 1.00)
        H2             1.00     1.00794     H ( 1.00)

     Simplified LDA+U calculation (l_max = 2) with parameters (eV):
     atomic species    L          U    alpha       J0     beta
        Pt1            2     7.0000   0.0000   0.0000   0.0000

     No symmetry found

   Cartesian axes

     site n.     atom                  positions (alat units)
         1           O0  tau(   1) = (   0.0000000   0.0000000   1.5486303  )
         2           O0  tau(   2) = (   0.0000000   0.5024180   1.6456145  )
         3           Pt1 tau(   3) = (   0.2500000   0.5024180   1.8492198  )
         4           Pt1 tau(   4) = (   0.0000000   0.0000000   1.8561502  )
         5           O0  tau(   5) = (   0.2500000   0.8139171   1.8185047  )
         6           O0  tau(   6) = (   0.2500000   0.1909188   1.8850199  )
         7           O0  tau(   7) = (   0.0000000   0.5024180   2.0364218  )
         8           O0  tau(   8) = (   0.0000000   0.0000000   2.1712565  )
         9           Pt1 tau(   9) = (   0.2500000   0.0000000   2.3611651  )
        10           Pt1 tau(  10) = (   0.0000000   0.5024180   2.3568182  )
        11           O0  tau(  11) = (   0.2500000   0.6933368   2.3352889  )
        12           O0  tau(  12) = (   0.2500000   0.3114991   2.3978263  )
        13           O0  tau(  13) = (   0.0000000   0.0000000   2.5469728  )
        14           O0  tau(  14) = (   0.5000000   0.0000000   1.5487944  )
        15           O0  tau(  15) = (   0.5000000   0.5024180   1.6432360  )
        16           Pt1 tau(  16) = (   0.7500000   0.5024180   1.8492608  )
        17           Pt1 tau(  17) = (   0.5000000   0.0000000   1.8561092  )
        18           O0  tau(  18) = (   0.7500000   0.8139171   1.8183407  )
        19           O0  tau(  19) = (   0.7500000   0.1909188   1.8850199  )
        20           O0  tau(  20) = (   0.5000000   0.5024180   2.0398255  )
        21           O0  tau(  21) = (   0.5000000   0.0000000   2.1711335  )
        22           Pt1 tau(  22) = (   0.7500000   0.0000000   2.3611651  )
        23           Pt1 tau(  23) = (   0.5000000   0.5024180   2.3633795  )
        24           O0  tau(  24) = (   0.7500000   0.6933368   2.3343868  )
        25           O0  tau(  25) = (   0.7500000   0.3114991   2.3965141  )
        26           O0  tau(  26) = (   0.5000000   0.0000000   2.5473419  )
        27           H2  tau(  27) = (   0.0000800   0.6431151   1.5815188  )
        28           H2  tau(  28) = (   0.4999900   0.6432457   1.5795915  )
        29           H2  tau(  29) = (   0.1433600   0.0342348   1.5075812  )
        30           H2  tau(  30) = (   0.6432100   0.0348377   1.5077042  )
        31           O0  tau(  31) = (   0.5002800   0.5276996   2.6647891  )
        32           H2  tau(  32) = (   0.4897800   0.3840985   2.7162543  )

     number of k points=    10  Methfessel-Paxton smearing, width (Ry)=  0.0100
                       cart. coord. in units 2pi/alat
        k(    1) = (   0.0000000   0.0000000   0.0000000), wk =   0.1250000
        k(    2) = (   0.0000000   0.2487968   0.0000000), wk =   0.2500000
        k(    3) = (   0.0000000  -0.4975937   0.0000000), wk =   0.1250000
        k(    4) = (   0.2500000   0.0000000   0.0000000), wk =   0.2500000
        k(    5) = (   0.2500000   0.2487968   0.0000000), wk =   0.2500000
        k(    6) = (   0.2500000  -0.4975937   0.0000000), wk =   0.2500000
        k(    7) = (  -0.5000000   0.0000000   0.0000000), wk =   0.1250000
        k(    8) = (  -0.5000000   0.2487968   0.0000000), wk =   0.2500000
        k(    9) = (  -0.5000000  -0.4975937   0.0000000), wk =   0.1250000
        k(   10) = (  -0.2500000   0.2487968   0.0000000), wk =   0.2500000

     Largest allocated arrays     est. size (Mb)     dimensions
     Largest temporary arrays     est. size (Mb)     dimensions

     Check: negative/imaginary core charge=   -0.000003    0.000000

     Initial potential from superposition of free atoms
     Check: negative starting charge=   -1.535574

     starting charge  242.99984, renormalised to  247.00000

     negative rho (up, down):  0.156E+01 0.000E+00
     Number of +U iterations with fixed ns =  0
     Starting occupations:
 --- enter write_ns ---
 LDA+U parameters:
U( 2)     =  7.00000000
alpha( 2) =  0.00000000
atom    3   Tr[ns(na)] =   8.00000
    eigenvalues:
  0.800  0.800  0.800  0.800  0.800
    eigenvectors:
  1.000  0.000  0.000  0.000  0.000
  0.000  1.000  0.000  0.000  0.000
  0.000  0.000  1.000  0.000  0.000
  0.000  0.000  0.000  1.000  0.000
  0.000  0.000  0.000  0.000  1.000
    occupations:
  0.800  0.000  0.000  0.000  0.000
  0.000  0.800  0.000  0.000  0.000
  0.000  0.000  0.800  0.000  0.000
  0.000  0.000  0.000  0.800  0.000
  0.000  0.000  0.000  0.000  0.800
atom    4   Tr[ns(na)] =   8.00000
    eigenvalues:
  0.800  0.800  0.800  0.800  0.800
    eigenvectors:
  1.000  0.000  0.000  0.000  0.000
  0.000  1.000  0.000  0.000  0.000
  0.000  0.000  1.000  0.000  0.000
  0.000  0.000  0.000  1.000  0.000
  0.000  0.000  0.000  0.000  1.000
    occupations:
  0.800  0.000  0.000  0.000  0.000
  0.000  0.800  0.000  0.000  0.000
  0.000  0.000  0.800  0.000  0.000
  0.000  0.000  0.000  0.800  0.000
  0.000  0.000  0.000  0.000  0.800
atom    9   Tr[ns(na)] =   8.00000
    eigenvalues:
  0.800  0.800  0.800  0.800  0.800
    eigenvectors:
  1.000  0.000  0.000  0.000  0.000
  0.000  1.000  0.000  0.000  0.000
  0.000  0.000  1.000  0.000  0.000
  0.000  0.000  0.000  1.000  0.000
  0.000  0.000  0.000  0.000  1.000
    occupations:
  0.800  0.000  0.000  0.000  0.000
  0.000  0.800  0.000  0.000  0.000
  0.000  0.000  0.800  0.000  0.000
  0.000  0.000  0.000  0.800  0.000
  0.000  0.000  0.000  0.000  0.800
atom   10   Tr[ns(na)] =   8.00000
    eigenvalues:
  0.800  0.800  0.800  0.800  0.800
    eigenvectors:
  1.000  0.000  0.000  0.000  0.000
  0.000  1.000  0.000  0.000  0.000
  0.000  0.000  1.000  0.000  0.000
  0.000  0.000  0.000  1.000  0.000
  0.000  0.000  0.000  0.000  1.000
    occupations:
  0.800  0.000  0.000  0.000  0.000
  0.000  0.800  0.000  0.000  0.000
  0.000  0.000  0.800  0.000  0.000
  0.000  0.000  0.000  0.800  0.000
  0.000  0.000  0.000  0.000  0.800
atom   16   Tr[ns(na)] =   8.00000
    eigenvalues:
  0.800  0.800  0.800  0.800  0.800
    eigenvectors:
  1.000  0.000  0.000  0.000  0.000
  0.000  1.000  0.000  0.000  0.000
  0.000  0.000  1.000  0.000  0.000
  0.000  0.000  0.000  1.000  0.000
  0.000  0.000  0.000  0.000  1.000
    occupations:
  0.800  0.000  0.000  0.000  0.000
  0.000  0.800  0.000  0.000  0.000
  0.000  0.000  0.800  0.000  0.000
  0.000  0.000  0.000  0.800  0.000
  0.000  0.000  0.000  0.000  0.800
atom   17   Tr[ns(na)] =   8.00000
    eigenvalues:
  0.800  0.800  0.800  0.800  0.800
    eigenvectors:
  1.000  0.000  0.000  0.000  0.000
  0.000  1.000  0.000  0.000  0.000
  0.000  0.000  1.000  0.000  0.000
  0.000  0.000  0.000  1.000  0.000
  0.000  0.000  0.000  0.000  1.000
    occupations:
  0.800  0.000  0.000  0.000  0.000
  0.000  0.800  0.000  0.000  0.000
  0.000  0.000  0.800  0.000  0.000
  0.000  0.000  0.000  0.800  0.000
  0.000  0.000  0.000  0.000  0.800
atom   22   Tr[ns(na)] =   8.00000
    eigenvalues:
  0.800  0.800  0.800  0.800  0.800
    eigenvectors:
  1.000  0.000  0.000  0.000  0.000
  0.000  1.000  0.000  0.000  0.000
  0.000  0.000  1.000  0.000  0.000
  0.000  0.000  0.000  1.000  0.000
  0.000  0.000  0.000  0.000  1.000
[...]
  0.026  0.000  0.003  0.986  0.000
 -0.001  0.032 -0.000  0.000  0.708
atom    9   Tr[ns(na)] =   8.78559
    eigenvalues:
  0.727  0.737  0.966  0.975  0.989
    eigenvectors:
  0.000  0.134  0.000  0.014  0.852
  0.999  0.000  0.000  0.000  0.000
  0.000  0.011  0.005  0.977  0.007
  0.000  0.855  0.000  0.004  0.140
  0.000  0.000  0.995  0.005  0.000
    occupations:
  0.955  0.000 -0.008 -0.085  0.000
  0.000  0.727 -0.000  0.000 -0.003
 -0.008 -0.000  0.972 -0.023  0.001
 -0.085  0.000 -0.023  0.774  0.001
  0.000 -0.003  0.001  0.001  0.966
atom   10   Tr[ns(na)] =   8.83826
    eigenvalues:
  0.679  0.773  0.988  0.988  0.991
    eigenvectors:
  0.000  0.979  0.000  0.013  0.008
  0.013  0.000  0.980  0.007  0.000
  0.000  0.000  0.002  0.226  0.772
  0.000  0.021  0.005  0.754  0.221
  0.987  0.000  0.013  0.000  0.000
    occupations:
  0.777 -0.001 -0.005  0.031 -0.000
 -0.001  0.984 -0.000  0.000 -0.035
 -0.005 -0.000  0.991 -0.001  0.000
  0.031  0.000 -0.001  0.984  0.000
 -0.000 -0.035  0.000  0.000  0.683
atom   16   Tr[ns(na)] =   8.79528
    eigenvalues:
  0.706  0.721  0.988  0.990  0.992
    eigenvectors:
  0.006  0.161  0.830  0.000  0.002
  0.965  0.035  0.000  0.000  0.000
  0.000  0.006  0.007  0.001  0.986
  0.029  0.798  0.162  0.000  0.011
  0.000  0.000  0.000  0.999  0.001
    occupations:
  0.944 -0.001  0.008 -0.100 -0.000
 -0.001  0.707 -0.001 -0.003 -0.002
  0.008 -0.001  0.991  0.019 -0.000
 -0.100 -0.003  0.019  0.767 -0.000
 -0.000 -0.002 -0.000 -0.000  0.990
atom   17   Tr[ns(na)] =   8.79183
    eigenvalues:
  0.704  0.727  0.986  0.988  0.989
    eigenvectors:
  0.000  0.984  0.010  0.004  0.002
  0.013  0.000  0.071  0.839  0.077
  0.000  0.006  0.784  0.015  0.195
  0.000  0.010  0.134  0.131  0.725
  0.987  0.000  0.001  0.011  0.001
    occupations:
  0.731 -0.004 -0.019  0.025 -0.001
 -0.004  0.985  0.000  0.000  0.032
 -0.019  0.000  0.986  0.003 -0.000
  0.025  0.000  0.003  0.986  0.000
 -0.001  0.032 -0.000  0.000  0.708
atom   22   Tr[ns(na)] =   8.78538
    eigenvalues:
  0.727  0.737  0.966  0.974  0.989
    eigenvectors:
  0.001  0.133  0.000  0.014  0.852
  0.996  0.004  0.000  0.000  0.000
  0.000  0.011  0.008  0.975  0.007
  0.003  0.852  0.000  0.004  0.140
  0.000  0.000  0.992  0.008  0.000
    occupations:
  0.955  0.001 -0.008 -0.085 -0.000
  0.001  0.727  0.000  0.000 -0.003
 -0.008  0.000  0.972 -0.023 -0.001
 -0.085  0.000 -0.023  0.773 -0.001
 -0.000 -0.003 -0.001 -0.001  0.966
atom   23   Tr[ns(na)] =   8.78113
    eigenvalues:
  0.703  0.731  0.979  0.988  0.990
    eigenvectors:
  0.000  0.971  0.000  0.000  0.028
  0.018  0.000  0.979  0.002  0.001
  0.000  0.020  0.002  0.362  0.616
  0.000  0.009  0.000  0.637  0.354
  0.982  0.000  0.018  0.000  0.000
    occupations:
  0.738 -0.001  0.036  0.024  0.000
 -0.001  0.974  0.001 -0.000 -0.037
  0.036  0.001  0.984 -0.002  0.000
  0.024 -0.000 -0.002  0.986 -0.000
  0.000 -0.037  0.000 -0.000  0.708
N of occupied +U levels =  70.3663571
 --- exit write_ns ---

     Threshold (ethr) on eigenvalues was too large:
     Diagonalizing with lowered threshold

     Davidson diagonalization with overlap
     ethr =  1.14E-08,  avg # of iterations =  2.0

[...]

     total energy              =   -2280.25972867 Ry
     Harris-Foulkes estimate   =   -2280.25972867 Ry
     estimated scf accuracy    <       0.00000003 Ry

     iteration # 15     ecut=    40.00 Ry     beta=0.70
     Davidson diagonalization with overlap
     ethr =  4.93E-12,  avg # of iterations =  1.0

     negative rho (up, down):  0.157E+01 0.000E+00

     End of self-consistent calculation
 --- enter write_ns ---
 LDA+U parameters:
U( 2)     =  7.00000000
alpha( 2) =  0.00000000
atom    3   Tr[ns(na)] =   8.79509
    eigenvalues:
  0.706  0.721  0.988  0.990  0.992
    eigenvectors:
  0.006  0.161  0.827  0.003  0.003
  0.962  0.038  0.000  0.000  0.000
  0.000  0.006  0.009  0.000  0.985
  0.031  0.796  0.161  0.001  0.012
  0.000  0.000  0.003  0.996  0.000
    occupations:
  0.944  0.001  0.008 -0.100  0.000
  0.001  0.706  0.001  0.003 -0.002
  0.008  0.001  0.991  0.019  0.000
 -0.100  0.003  0.019  0.767  0.001
  0.000 -0.002  0.000  0.001  0.990
atom    4   Tr[ns(na)] =   8.79384
    eigenvalues:
  0.705  0.727  0.987  0.989  0.989
    eigenvectors:
  0.000  0.984  0.011  0.004  0.001
  0.013  0.000  0.072  0.808  0.107
  0.000  0.006  0.738  0.005  0.251
  0.000  0.010  0.179  0.172  0.639
  0.987  0.000  0.001  0.011  0.001
    occupations:
  0.732 -0.004 -0.019  0.026 -0.001
 -0.004  0.985  0.000  0.000  0.032
 -0.019  0.000  0.986  0.003 -0.000
  0.026  0.000  0.003  0.986  0.000
 -0.001  0.032 -0.000  0.000  0.708
atom    9   Tr[ns(na)] =   8.78511
    eigenvalues:
  0.727  0.737  0.965  0.975  0.989
    eigenvectors:
  0.000  0.134  0.000  0.014  0.852
  0.999  0.000  0.000  0.000  0.000
  0.000  0.011  0.005  0.978  0.007
  0.000  0.855  0.000  0.004  0.140
  0.000  0.000  0.995  0.005  0.000
    occupations:
  0.955  0.000 -0.008 -0.085  0.000
  0.000  0.727 -0.000  0.000 -0.003
 -0.008 -0.000  0.972 -0.023  0.001
 -0.085  0.000 -0.023  0.773  0.001
  0.000 -0.003  0.001  0.001  0.965
atom   10   Tr[ns(na)] =   8.83834
    eigenvalues:
  0.679  0.773  0.988  0.988  0.991
    eigenvectors:
  0.000  0.979  0.000  0.014  0.007
  0.013  0.000  0.980  0.007  0.000
  0.000  0.000  0.002  0.225  0.773
  0.000  0.021  0.005  0.755  0.220
  0.987  0.000  0.013  0.000  0.000
    occupations:
  0.777 -0.001 -0.005  0.031 -0.000
 -0.001  0.984 -0.000  0.000 -0.035
 -0.005 -0.000  0.991 -0.001  0.000
  0.031  0.000 -0.001  0.984  0.000
 -0.000 -0.035  0.000  0.000  0.683
atom   16   Tr[ns(na)] =   8.79533
    eigenvalues:
  0.706  0.721  0.988  0.990  0.992
    eigenvectors:
  0.006  0.161  0.830  0.000  0.002
  0.965  0.035  0.000  0.000  0.000
  0.000  0.006  0.008  0.001  0.986
  0.030  0.798  0.162  0.000  0.011
  0.000  0.000  0.000  0.999  0.001
    occupations:
  0.944 -0.001  0.008 -0.100 -0.000
 -0.001  0.707 -0.001 -0.003 -0.002
  0.008 -0.001  0.991  0.019 -0.000
 -0.100 -0.003  0.019  0.767 -0.000
 -0.000 -0.002 -0.000 -0.000  0.990
atom   17   Tr[ns(na)] =   8.79183
    eigenvalues:
  0.704  0.727  0.986  0.988  0.989
    eigenvectors:
  0.000  0.984  0.010  0.004  0.002
  0.013  0.000  0.070  0.841  0.076
  0.000  0.006  0.789  0.015  0.191
  0.000  0.010  0.131  0.129  0.730
  0.987  0.000  0.001  0.011  0.001
    occupations:
  0.731 -0.004 -0.019  0.025 -0.001
 -0.004  0.985  0.000  0.000  0.032
 -0.019  0.000  0.986  0.003 -0.000
  0.025  0.000  0.003  0.986  0.000
 -0.001  0.032 -0.000  0.000  0.708
atom   22   Tr[ns(na)] =   8.78488
    eigenvalues:
  0.727  0.737  0.966  0.974  0.989
    eigenvectors:
  0.001  0.134  0.000  0.013  0.852
  0.996  0.004  0.000  0.000  0.000
  0.000  0.011  0.007  0.975  0.007
  0.003  0.852  0.000  0.004  0.140
  0.000  0.000  0.992  0.008  0.000
    occupations:
  0.955  0.001 -0.008 -0.085 -0.000
  0.001  0.727  0.000  0.000 -0.003
 -0.008  0.000  0.972 -0.023 -0.001
 -0.085  0.000 -0.023  0.773 -0.001
 -0.000 -0.003 -0.001 -0.001  0.966
atom   23   Tr[ns(na)] =   8.78070
    eigenvalues:
  0.703  0.731  0.979  0.988  0.990
    eigenvectors:
  0.000  0.971  0.000  0.000  0.029
  0.019  0.000  0.979  0.002  0.001
  0.000  0.020  0.002  0.360  0.618
  0.000  0.009  0.000  0.639  0.352
  0.981  0.000  0.019  0.000  0.000
    occupations:
  0.738 -0.001  0.036  0.024  0.000
 -0.001  0.974  0.001 -0.000 -0.037
  0.036  0.001  0.984 -0.002  0.000
  0.024 -0.000 -0.002  0.986 -0.000
  0.000 -0.037  0.000 -0.000  0.708
N of occupied +U levels =  70.3651232
 --- exit write_ns ---

[...]

          k = 0.2500-0.4976 0.0000 ( 32026 PWs)   bands (ev):

[...]

          k =-0.2500 0.2488 0.0000 ( 32025 PWs)   bands (ev):

   -55.0703 -55.0303 -54.9621 -54.9204 -54.8979 -54.8774 -54.8729 -54.8574
   -54.7925 -54.7867 -54.7552 -54.7084 -54.7031 -54.6877 -54.6804 -54.5647
   -54.5614 -54.5590 -54.5251 -54.5180 -54.4336 -54.3088 -54.0889 -53.7763
   -22.1194 -21.9479 -21.2489 -21.0908 -20.8914 -20.8406 -20.7125 -20.6701
   -20.5932 -20.3842 -20.3363 -20.2497 -20.1367 -20.0552 -19.9877 -19.9697
   -19.7938 -19.3542 -19.1013 -11.3541 -11.2074 -11.1555 -10.9323 -10.6770
   -10.5688 -10.5455 -10.1956 -10.1631  -9.9047  -9.7359  -9.6862  -9.4972
    -9.4401  -9.3374  -9.2838  -9.1127  -9.0432  -8.9346  -8.8134  -8.6242
    -8.4818  -8.4524  -8.3249  -8.2565  -8.1215  -7.9885  -7.9239  -7.7554
    -7.7244  -7.6518  -7.5787  -7.5139  -7.3907  -7.3381  -7.2486  -7.2044
    -7.0892  -7.0035  -6.9169  -6.7664  -6.6119  -6.3463  -6.1189  -5.9579
    -5.6965  -5.6819  -5.6311  -5.4655  -5.3995  -5.3627  -5.2188  -5.0426
    -4.9223  -4.8423  -4.6516  -4.4353  -4.3941  -4.3310  -4.1354  -4.0715
    -3.9730  -3.8646  -3.8305  -3.7019  -3.6128  -3.4807  -3.4560  -3.1781
    -3.1721  -2.9218  -2.7765  -2.6880  -2.5625  -2.5392  -2.4954  -2.4332
    -2.3469  -2.1562  -1.9862  -1.8837  -1.7761  -1.1334  -0.8576  -0.6754
    -0.3266  -0.1869   0.2377   0.5012   0.7229   0.8014   0.9497   1.0450
     1.2691   1.4000   1.4783   1.8182   3.2644   3.9573   4.6104   5.0380
     5.1021   5.2082   5.2712   5.5505   6.0147   6.1917   6.2957   6.3273
     6.4562   6.5916   6.6813   6.7812   6.8626   6.9381   7.1401   7.2295
     7.3957   7.5199   7.5443   7.7060   7.7538   7.8592   7.9615   8.0588
     8.2453   8.3348   8.3746   8.4789   8.5357   8.6314   8.6858   8.8000
     8.9471   8.9927   9.0679   9.1944   9.3473   9.4315   9.6098   9.6487
     9.7620   9.8252   9.9156  10.0693  10.1209  10.1894  10.2369  10.3720
    10.5143  10.5517  10.6119  10.7079  10.7396  10.9510  11.0184  11.0970
    11.1847  11.2151  11.3729  11.4367  11.4938  11.6517  11.7557  11.7925
    11.8601  11.9448  12.0190  12.0391  12.1106  12.2293  12.3012  12.3628
    12.4060  12.4759  12.5311  12.5947  12.6699  12.7374  12.7975  12.9662
    13.0138  13.0507  13.1281  13.2270  13.2889  13.4908  13.5664  13.5908
    13.6337  13.6868  13.7419  13.8453  13.9565  14.0052  14.0814  14.1071
    14.2191  14.3193  14.3675  14.5355  14.5842  14.6649  14.7527  14.8640
    14.9133  15.0194  15.0888  15.2029  15.2634  15.3083  15.3227  15.4159
    15.4606  15.5115  15.5979  15.6247  15.7052  15.7391  15.7844  15.8654
    15.8860  15.9882  16.0141  16.0637  16.1283  16.2494  16.3297  16.4016
    16.4832  16.5257  16.6449  16.7335  16.7931  16.8274  16.9256  16.9595
    17.0281  17.0827  17.1347  17.1949  17.2317  17.2991  17.3339  17.3734
    17.4066  17.4284  17.4674  17.4762  17.5061  17.5330  17.5518  17.5835
    17.5959  17.6276  17.6656  17.6914  17.7855  17.9178  17.9556  18.0092
    18.0572  18.1374  18.1801  18.2570  18.3076  18.3776  18.4788  18.5214
    18.5910  18.6187  18.6337  18.7342  18.8034  18.8788  18.9175  18.9827
    19.0320  19.1471  19.1877  19.2648  19.3133  19.3755  19.4631  19.5701
    19.6541  19.6992  19.8257  19.8879  19.9545  20.0001  20.0545  20.0909
    20.1444  20.1765  20.2758  20.3553  20.3655  20.4324  20.5330  20.5730
    20.6682  20.7094  20.7439  20.8162  20.9161  20.9530  20.9866  21.0285
    21.0957  21.2247  21.2596  21.3044  21.3396  21.3644  21.4636  21.5087
    21.5831  21.6279  21.7130  21.7578  21.8078  21.9087  21.9980  22.0801
    22.1547  22.1962

     the Fermi energy is    -1.8815 ev

!    total energy              =   -2280.25972866 Ry
     Harris-Foulkes estimate   =   -2280.25972867 Ry
     estimated scf accuracy    <          5.9E-09 Ry

     The total energy is the sum of the following terms:

     one-electron contribution =  -23733.35640158 Ry
     hartree contribution      =   11912.00188112 Ry
     xc contribution           =    -573.08998567 Ry
     ewald contribution        =   10112.35514336 Ry
     Hubbard energy            =       1.82939772 Ry
     smearing contrib. (-TS)   =       0.00023639 Ry

     convergence has been achieved in  15 iterations

     Forces acting on atoms (Ry/au):

     negative rho (up, down):  0.157E+01 0.000E+00
     atom    1 type  1   force =    -0.00794511   -0.00339745    0.00051697
     atom    2 type  1   force =     0.00037247    0.00238254   -0.00084638
     atom    3 type  2   force =     0.01505132    0.00764586   -0.00005699
     atom    4 type  2   force =     0.01028010    0.00413514    0.00008617
     atom    5 type  1   force =     0.00145751   -0.00284172   -0.00082629
     atom    6 type  1   force =     0.00006657   -0.00325332   -0.00044135
     atom    7 type  1   force =     0.00026975   -0.00054692    0.00036494
     atom    8 type  1   force =    -0.00419142   -0.00077679   -0.00002302
     atom    9 type  2   force =     0.00322582    0.00223615   -0.00035042
     atom   10 type  2   force =    -0.00048234   -0.02429471    0.00069965
     atom   11 type  1   force =     0.00419667    0.00212210    0.00072347
     atom   12 type  1   force =    -0.01277619    0.00763622   -0.00004752
     atom   13 type  1   force =    -0.00107811   -0.00670861   -0.00018960
     atom   14 type  1   force =    -0.00770742   -0.00312842    0.00044030
     atom   15 type  1   force =     0.00011435    0.00090301   -0.00036973
     atom   16 type  2   force =    -0.01627983    0.00760801   -0.00006454
     atom   17 type  2   force =     0.00998482    0.00540321    0.00008821
     atom   18 type  1   force =     0.00097843   -0.00292564   -0.00073252
     atom   19 type  1   force =     0.00013736   -0.00314369   -0.00048485
     atom   20 type  1   force =     0.00031598   -0.00219511    0.00048042
     atom   21 type  1   force =    -0.00389677    0.00180168    0.00006630
     atom   22 type  2   force =     0.00064224    0.00248373   -0.00038919
     atom   23 type  2   force =    -0.00048091    0.00177294    0.00000037
     atom   24 type  1   force =    -0.00412996    0.00264455    0.00059048
     atom   25 type  1   force =     0.01292283    0.00790037   -0.00002961
     atom   26 type  1   force =    -0.00115435   -0.00570997   -0.00000053
     atom   27 type  3   force =    -0.00001363    0.00046181   -0.00015229
     atom   28 type  3   force =     0.00001189    0.00023318   -0.00014577
     atom   29 type  3   force =    -0.00011234   -0.00007952    0.00041532
     atom   30 type  3   force =    -0.00008246   -0.00011940    0.00037897
     atom   31 type  1   force =     0.00010798    0.00077176   -0.00009899
     atom   32 type  3   force =     0.00019475    0.00097900    0.00039801

     Total force =     0.002733     Total SCF correction =     0.000160

     bfgs converged in  18 scf cycles and  17 bfgs steps
     (criteria: energy < 0.10E-03, force < 0.10E-02)

     End of BFGS Geometry Optimization

     Final energy   =   -2280.2597286623 Ry
Begin final coordinates

ATOMIC_POSITIONS (crystal)
O0       0.000000000   0.000000000   0.377449447    0   0   1
O0       0.000000000   0.500000000   0.401628921    0   0   1
Pt1      0.250000000   0.500000000   0.451100570    0   0   1
Pt1      0.000000000   0.000000000   0.452588693    0   0   1
O0       0.250000000   0.810000000   0.442418938    0   0   1
O0       0.250000000   0.190000000   0.461236107    0   0   1
O0       0.000000000   0.500000000   0.496624460    0   0   1
O0       0.000000000   0.000000000   0.529664072    0   0   1
Pt1      0.250000000   0.000000000   0.575709453    0   0   1
Pt1      0.000000000   0.500000000   0.574377833    0   0   1
O0       0.250000000   0.690000000   0.566076216    0   0   1
O0       0.250000000   0.310000000   0.586067296    0   0   1
O0       0.000000000   0.000000000   0.621208906    0   0   1
O0       0.500000000   0.000000000   0.377516189    0   0   1
O0       0.500000000   0.500000000   0.401213706    0   0   1
Pt1      0.750000000   0.500000000   0.451100864    0   0   1
Pt1      0.500000000   0.000000000   0.452634157    0   0   1
O0       0.750000000   0.810000000   0.442413644    0   0   1
O0       0.750000000   0.190000000   0.461240424    0   0   1
O0       0.500000000   0.500000000   0.497245634    0   0   1
O0       0.500000000   0.000000000   0.529631286    0   0   1
Pt1      0.750000000   0.000000000   0.575711169    0   0   1
Pt1      0.500000000   0.500000000   0.575889322    0   0   1
O0       0.750000000   0.690000000   0.566161420    0   0   1
O0       0.750000000   0.310000000   0.585949543    0   0   1
O0       0.500000000   0.000000000   0.621217450    0   0   1
H2       0.000074710   0.641068550   0.386593458
H2       0.500000997   0.641566392   0.386426008
H2       0.143646057   0.034319053   0.367708267
H2       0.643657651   0.034318029   0.367765938
O0       0.499287629   0.532579609   0.649489387
H2       0.492039343   0.390223724   0.662561223
End final coordinates

     General routines

     Parallel routines
     Hubbard U routines

   This run was terminated on:  23:40:55  28Apr2014

   JOB DONE.