     Program PWSCF v.5.0.2 (svn rev. 9656) starts on  1Jun2014 at  5:27:23

     Current dimensions of program PWSCF are:
     Max number of different atomic species (ntypx) = 10
     Max number of k-points (npk) =  40000
     Max angular momentum in pseudopotentials (lmaxx) =  3
     Reading input from pwscf.in
Warning: card &CELL ignored
Warning: card / ignored

     Subspace diagonalization in iterative solution of the eigenvalue problem:
     a serial algorithm will be used

     bravais-lattice index     =            0
     lattice parameter (alat)  =      11.1872  a.u.
     unit-cell volume          =    7531.8600 (a.u.)^3
     number of atoms/cell      =           33
     number of atomic types    =            3
     number of electrons       =       229.00
     number of Kohn-Sham states=          343
     kinetic-energy cutoff     =      40.0000  Ry
     charge density cutoff     =     500.0000  Ry
     convergence threshold     =      1.0E-06
     mixing beta               =       0.7000
     number of iterations used =            8  plain     mixing
     Exchange-correlation      = SLA  PW   PBE  PBE ( 1 4 3 4 0)
     EXX-fraction              =        0.00
     nstep                     =           50

     celldm(1)=  11.187179  celldm(2)=   0.000000  celldm(3)=   0.000000
     celldm(4)=   0.000000  celldm(5)=   0.000000  celldm(6)=   0.000000

     crystal axes: (cart. coord. in units of alat)
               a(1) = (   1.000000   0.000000   0.000000 )
               a(2) = (   0.000000   1.180104   0.000000 )
               a(3) = (   0.000000   0.000000   4.558482 )

     reciprocal axes: (cart. coord. in units 2 pi/alat)
               b(1) = (  1.000000  0.000000  0.000000 )
               b(2) = (  0.000000  0.847383  0.000000 )
               b(3) = (  0.000000  0.000000  0.219371 )

     PseudoPot. # 1 for O  read from file:
     /home/camp/zhonxu/pseudo/o_pbe_v1.01.uspp.F.UPF
     MD5 check sum: 2bcb18d16ea4b960afae9ec6d52f22d2
     Pseudo is Ultrasoft + core correction, Zval =  6.0
     Generated by new atomic code, or converted to UPF format
     Using radial grid of  737 points,  5 beta functions with:
                l(1) =   0
                l(2) =   0
                l(3) =   1
                l(4) =   1
                l(5) =   2
     Q(r) pseudized with  8 coefficients,  rinner =    0.900   0.900   0.900
                                                       0.900   0.900

     PseudoPot. # 2 for Nb read from file:
     /home/camp/zhonxu/pseudo/nb_pbe_v1.uspp.F.UPF
     MD5 check sum: 573aab8a2fa660278ed4a62cd769473f
     Pseudo is Ultrasoft + core correction, Zval = 13.0
     Generated by new atomic code, or converted to UPF format
     Using radial grid of  887 points,  6 beta functions with:
                l(1) =   0
                l(2) =   0
                l(3) =   1
                l(4) =   1
                l(5) =   2
                l(6) =   2
     Q(r) pseudized with  6 coefficients,  rinner =    1.000   1.000   1.000
                                                       1.000   1.000

     PseudoPot. # 3 for H  read from file:
     /home/camp/zhonxu/pseudo/h_pbe_v1.uspp.F.UPF
     MD5 check sum: 3408e3ff4ec8b0a4e358431e7e038a48
     Pseudo is Ultrasoft, Zval =  1.0
     Generated by new atomic code, or converted to UPF format
     Using radial grid of  615 points,  2 beta functions with:
                l(1) =   0
                l(2) =   0
     Q(r) pseudized with  8 coefficients,  rinner =    0.700

     atomic species   valence    mass     pseudopotential
        O0             6.00    15.99940     O ( 1.00)
        Nb1           13.00    92.90640     Nb( 1.00)
        H2             1.00     1.00794     H ( 1.00)

     Simplified LDA+U calculation (l_max = 2) with parameters (eV):
     atomic species    L          U    alpha       J0     beta
        Nb1            2     0.0000   0.0000   0.0000   0.0000

     No symmetry found

   Cartesian axes

     site n.     atom                  positions (alat units)
         1           O0  tau(   1) = (   0.0000000   0.0000000   1.6962113  )
         2           O0  tau(   2) = (   0.0000000   0.5900519   1.7723835  )
         3           Nb1 tau(   3) = (   0.2500000   0.5900519   2.0257895  )
         4           Nb1 tau(   4) = (   0.0000000   0.0000000   2.0274306  )
         5           O0  tau(   5) = (   0.2500000   0.9322821   2.0383253  )
         6           O0  tau(   6) = (   0.2500000   0.2478218   2.0381886  )
         7           O0  tau(   7) = (   0.0000000   0.5900519   2.2790132  )
         8           O0  tau(   8) = (   0.0000000   0.0000000   2.3853170  )
         9           Nb1 tau(   9) = (   0.2500000   0.0000000   2.6318397  )
        10           Nb1 tau(  10) = (   0.0000000   0.5900519   2.5956910  )
        11           O0  tau(  11) = (   0.2500000   0.8378738   2.6232242  )
        12           O0  tau(  12) = (   0.2500000   0.3422301   2.6255034  )
        13           O0  tau(  13) = (   0.0000000   0.0000000   2.8344187  )
        14           O0  tau(  14) = (   0.5000000   0.0000000   1.6974420  )
        15           O0  tau(  15) = (   0.5000000   0.5900519   1.7789021  )
        16           Nb1 tau(  16) = (   0.7500000   0.5900519   2.0259719  )
        17           Nb1 tau(  17) = (   0.5000000   0.0000000   2.0298010  )
        18           O0  tau(  18) = (   0.7500000   0.9322821   2.0382798  )
        19           O0  tau(  19) = (   0.7500000   0.2478218   2.0381886  )
        20           O0  tau(  20) = (   0.5000000   0.5900519   2.2737254  )
        21           O0  tau(  21) = (   0.5000000   0.0000000   2.3845421  )
        22           Nb1 tau(  22) = (   0.7500000   0.0000000   2.6318397  )
        23           Nb1 tau(  23) = (   0.5000000   0.5900519   2.6269166  )
        24           O0  tau(  24) = (   0.7500000   0.8378738   2.6231786  )
        25           O0  tau(  25) = (   0.7500000   0.3422301   2.6254579  )
        26           O0  tau(  26) = (   0.5000000   0.0000000   2.8332335  )
        27           H2  tau(  27) = (  -0.0005200   0.5958463   1.6070929  )
        28           H2  tau(  28) = (   0.4994400   0.5914445   1.6138395  )
        29           H2  tau(  29) = (   0.1507700   0.0008261   1.6243240  )
        30           H2  tau(  30) = (   0.6503900   0.0006019   1.6249166  )
        31           O0  tau(  31) = (   0.5000000   0.6010623   2.9587285  )
        32           O0  tau(  32) = (   0.5000000   0.4103103   3.1155403  )
        33           H2  tau(  33) = (   0.5000000   0.4955964   3.2584031  )

     number of k points=    10  Methfessel-Paxton smearing, width (Ry)=  0.0100
                       cart. coord. in units 2pi/alat
        k(    1) = (   0.0000000   0.0000000   0.0000000), wk =   0.1250000
        k(    2) = (   0.0000000   0.2118458   0.0000000), wk =   0.2500000
        k(    3) = (   0.0000000  -0.4236915   0.0000000), wk =   0.1250000
        k(    4) = (   0.2500000   0.0000000   0.0000000), wk =   0.2500000
        k(    5) = (   0.2500000   0.2118458   0.0000000), wk =   0.2500000
        k(    6) = (   0.2500000  -0.4236915   0.0000000), wk =   0.2500000
        k(    7) = (  -0.5000000   0.0000000   0.0000000), wk =   0.1250000
        k(    8) = (  -0.5000000   0.2118458   0.0000000), wk =   0.2500000
        k(    9) = (  -0.5000000  -0.4236915   0.0000000), wk =   0.1250000
        k(   10) = (  -0.2500000   0.2118458   0.0000000), wk =   0.2500000

     Largest allocated arrays     est. size (Mb)     dimensions
     Largest temporary arrays     est. size (Mb)     dimensions

     Check: negative/imaginary core charge=   -0.000003    0.000000

     Initial potential from superposition of free atoms
     Check: negative starting charge=   -0.003307

     starting charge  228.97806, renormalised to  229.00000

     negative rho (up, down):  0.331E-02 0.000E+00
     Number of +U iterations with fixed ns =  0
     Starting occupations:
 --- enter write_ns ---
 LDA+U parameters:
U( 2)     =  0.00000000
alpha( 2) =  0.00000000
atom    3   Tr[ns(na)] =   3.00000
    eigenvalues:
  0.300  0.300  0.300  0.300  0.300
    eigenvectors:
  1.000  0.000  0.000  0.000  0.000
  0.000  1.000  0.000  0.000  0.000
  0.000  0.000  1.000  0.000  0.000
  0.000  0.000  0.000  1.000  0.000
  0.000  0.000  0.000  0.000  1.000
    occupations:
  0.300  0.000  0.000  0.000  0.000
  0.000  0.300  0.000  0.000  0.000
  0.000  0.000  0.300  0.000  0.000
  0.000  0.000  0.000  0.300  0.000
  0.000  0.000  0.000  0.000  0.300
atom    4   Tr[ns(na)] =   3.00000
    eigenvalues:
  0.300  0.300  0.300  0.300  0.300
    eigenvectors:
  1.000  0.000  0.000  0.000  0.000
  0.000  1.000  0.000  0.000  0.000
  0.000  0.000  1.000  0.000  0.000
  0.000  0.000  0.000  1.000  0.000
  0.000  0.000  0.000  0.000  1.000
    occupations:
  0.300  0.000  0.000  0.000  0.000
  0.000  0.300  0.000  0.000  0.000
  0.000  0.000  0.300  0.000  0.000
  0.000  0.000  0.000  0.300  0.000
  0.000  0.000  0.000  0.000  0.300
atom    9   Tr[ns(na)] =   3.00000
    eigenvalues:
  0.300  0.300  0.300  0.300  0.300
    eigenvectors:
  1.000  0.000  0.000  0.000  0.000
  0.000  1.000  0.000  0.000  0.000
  0.000  0.000  1.000  0.000  0.000
  0.000  0.000  0.000  1.000  0.000
  0.000  0.000  0.000  0.000  1.000
    occupations:
  0.300  0.000  0.000  0.000  0.000
  0.000  0.300  0.000  0.000  0.000
  0.000  0.000  0.300  0.000  0.000
  0.000  0.000  0.000  0.300  0.000
  0.000  0.000  0.000  0.000  0.300
atom   10   Tr[ns(na)] =   3.00000
    eigenvalues:
  0.300  0.300  0.300  0.300  0.300
    eigenvectors:
  1.000  0.000  0.000  0.000  0.000
  0.000  1.000  0.000  0.000  0.000
  0.000  0.000  1.000  0.000  0.000
  0.000  0.000  0.000  1.000  0.000
  0.000  0.000  0.000  0.000  1.000
    occupations:
  0.300  0.000  0.000  0.000  0.000
  0.000  0.300  0.000  0.000  0.000
  0.000  0.000  0.300  0.000  0.000
  0.000  0.000  0.000  0.300  0.000
  0.000  0.000  0.000  0.000  0.300
atom   16   Tr[ns(na)] =   3.00000
    eigenvalues:
  0.300  0.300  0.300  0.300  0.300
    eigenvectors:
  1.000  0.000  0.000  0.000  0.000
  0.000  1.000  0.000  0.000  0.000
  0.000  0.000  1.000  0.000  0.000
  0.000  0.000  0.000  1.000  0.000
  0.000  0.000  0.000  0.000  1.000
    occupations:
  0.300  0.000  0.000  0.000  0.000
  0.000  0.300  0.000  0.000  0.000
  0.000  0.000  0.300  0.000  0.000
  0.000  0.000  0.000  0.300  0.000
  0.000  0.000  0.000  0.000  0.300
atom   17   Tr[ns(na)] =   3.00000
    eigenvalues:
  0.300  0.300  0.300  0.300  0.300
    eigenvectors:
  1.000  0.000  0.000  0.000  0.000
  0.000  1.000  0.000  0.000  0.000
  0.000  0.000  1.000  0.000  0.000
  0.000  0.000  0.000  1.000  0.000
  0.000  0.000  0.000  0.000  1.000
    occupations:
  0.300  0.000  0.000  0.000  0.000
  0.000  0.300  0.000  0.000  0.000
  0.000  0.000  0.300  0.000  0.000
  0.000  0.000  0.000  0.300  0.000
  0.000  0.000  0.000  0.000  0.300
atom   22   Tr[ns(na)] =   3.00000
    eigenvalues:
  0.300  0.300  0.300  0.300  0.300
    eigenvectors:
  1.000  0.000  0.000  0.000  0.000
  0.000  1.000  0.000  0.000  0.000
  0.000  0.000  1.000  0.000  0.000
[...]
    eigenvalues:
  0.445  0.450  0.523  0.569  0.633
    eigenvectors:
  0.000  0.000  0.005  0.489  0.506
  0.000  0.000  0.992  0.007  0.000
  0.011  0.989  0.000  0.000  0.000
  0.000  0.000  0.003  0.504  0.493
  0.989  0.011  0.000  0.000  0.000
    occupations:
  0.601 -0.004  0.002 -0.032 -0.001
 -0.004  0.523 -0.000 -0.002 -0.001
  0.002 -0.000  0.450 -0.001 -0.001
 -0.032 -0.002 -0.001  0.601  0.001
 -0.001 -0.001 -0.001  0.001  0.445
atom    4   Tr[ns(na)] =   5.24341
    eigenvalues:
  0.424  0.457  0.547  0.576  0.618
    eigenvectors:
  0.000  0.005  0.000  0.995  0.000
  0.000  0.995  0.000  0.005  0.001
  1.000  0.000  0.000  0.000  0.000
  0.000  0.001  0.000  0.000  0.999
  0.000  0.000  1.000  0.000  0.000
    occupations:
  0.575  0.008 -0.000  0.001  0.000
  0.008  0.458 -0.000 -0.004  0.000
 -0.000 -0.000  0.424 -0.000  0.001
  0.001 -0.004 -0.000  0.618  0.000
  0.000  0.000  0.001  0.000  0.547
atom    9   Tr[ns(na)] =   5.28340
    eigenvalues:
  0.464  0.473  0.499  0.600  0.606
    eigenvectors:
  0.878  0.000  0.000  0.120  0.003
  0.000  0.000  0.000  0.021  0.979
  0.000  0.094  0.906  0.000  0.000
  0.122  0.000  0.000  0.859  0.019
  0.000  0.906  0.094  0.000  0.000
    occupations:
  0.481 -0.000 -0.000  0.045  0.000
 -0.000  0.605  0.000 -0.001  0.000
 -0.000  0.000  0.496  0.000  0.007
  0.045 -0.001  0.000  0.584 -0.000
  0.000  0.000  0.007 -0.000  0.476
atom   10   Tr[ns(na)] =   5.12315
    eigenvalues:
  0.439  0.471  0.502  0.542  0.607
    eigenvectors:
  0.000  0.000  0.999  0.000  0.001
  0.000  1.000  0.000  0.000  0.000
  1.000  0.000  0.000  0.000  0.000
  0.000  0.000  0.001  0.000  0.999
  0.000  0.000  0.000  1.000  0.000
    occupations:
  0.502  0.000 -0.001  0.003 -0.000
  0.000  0.471 -0.000  0.000  0.001
 -0.001 -0.000  0.439  0.000  0.000
  0.003  0.000  0.000  0.607  0.000
 -0.000  0.001  0.000  0.000  0.542
atom   16   Tr[ns(na)] =   5.24200
    eigenvalues:
  0.443  0.454  0.523  0.569  0.632
    eigenvectors:
  0.000  0.000  0.005  0.489  0.505
  0.000  0.000  0.992  0.008  0.000
  0.278  0.722  0.000  0.000  0.000
  0.000  0.000  0.003  0.502  0.495
  0.722  0.278  0.000  0.000  0.000
    occupations:
  0.601  0.004  0.002 -0.032  0.001
  0.004  0.523  0.000  0.002 -0.000
  0.002  0.000  0.451 -0.001 -0.005
 -0.032  0.002 -0.001  0.600 -0.001
  0.001 -0.000 -0.005 -0.001  0.446
atom   17   Tr[ns(na)] =   5.24244
    eigenvalues:
  0.426  0.462  0.547  0.577  0.609
    eigenvectors:
  0.000  0.005  0.000  0.995  0.000
  0.000  0.995  0.000  0.005  0.001
  1.000  0.000  0.000  0.000  0.000
  0.000  0.001  0.000  0.000  0.999
  0.000  0.000  1.000  0.000  0.000
    occupations:
  0.576  0.008 -0.000  0.001  0.000
  0.008  0.463 -0.000 -0.004 -0.000
 -0.000 -0.000  0.426  0.000  0.001
  0.001 -0.004  0.000  0.609  0.000
  0.000 -0.000  0.001  0.000  0.547
atom   22   Tr[ns(na)] =   5.28339
    eigenvalues:
  0.464  0.473  0.499  0.600  0.605
    eigenvectors:
  0.878  0.000  0.000  0.120  0.002
  0.000  0.000  0.000  0.017  0.983
  0.000  0.095  0.905  0.000  0.000
  0.122  0.000  0.000  0.863  0.015
  0.000  0.904  0.095  0.000  0.000
    occupations:
  0.481  0.000 -0.000  0.045 -0.000
  0.000  0.605 -0.000  0.001  0.000
 -0.000 -0.000  0.496  0.000 -0.007
  0.045  0.001  0.000  0.584  0.000
 -0.000  0.000 -0.007  0.000  0.476
atom   23   Tr[ns(na)] =   5.26165
    eigenvalues:
  0.437  0.482  0.545  0.575  0.592
    eigenvectors:
  0.003  0.000  0.000  0.993  0.004
  0.000  0.996  0.003  0.000  0.000
  0.997  0.000  0.000  0.003  0.000
  0.000  0.000  0.000  0.004  0.996
  0.000  0.003  0.996  0.000  0.000
    occupations:
  0.575  0.000  0.007  0.001 -0.000
  0.000  0.482 -0.000 -0.000 -0.004
  0.007 -0.000  0.437  0.003  0.000
  0.001 -0.000  0.003  0.591 -0.000
 -0.000 -0.004  0.000 -0.000  0.545
N of occupied +U levels =  41.9212830
 --- exit write_ns ---

          k = 0.0000 0.0000 0.0000 ( 32167 PWs)   bands (ev):

   -56.0468 -55.9568 -55.6198 -55.6048 -55.5566 -55.5400 -55.5274 -55.4220
   -32.9791 -32.2555 -32.2046 -32.1646 -32.1597 -32.0777 -32.0548 -32.0512
   -31.9880 -31.9613 -31.9326 -31.9085 -31.8362 -31.8220 -31.7391 -31.6559
   -31.6282 -31.5550 -31.4818 -31.4734 -31.3678 -31.3312 -31.3031 -31.2358
   -22.3109 -20.3524 -20.0332 -19.2232 -18.9738 -18.8443 -18.7977 -18.6761
   -18.6144 -18.4846 -18.2882 -18.2608 -17.9851 -17.9512 -17.9444 -17.6339
   -17.5973 -17.4844 -17.3079 -16.1716  -8.8081  -8.3538  -7.7571  -7.5839
    -7.1452  -7.1149  -6.7187  -6.3643  -6.2739  -6.0824  -6.0438  -6.0164
    -5.9768  -5.9072  -5.7657  -5.6605  -5.6521  -5.5530  -5.4316  -5.2790
    -5.0767  -5.0751  -5.0261  -4.9596  -4.9125  -4.8805  -4.8012  -4.7661
    -4.7657  -4.5066  -4.2717  -4.1000  -3.9787  -3.8926  -3.7027  -3.6539
    -3.5715  -3.5305  -3.4821  -3.3096  -3.2798  -3.2256  -3.1776  -3.0860
    -2.9898  -2.9203  -2.8665  -2.8344  -2.7129  -2.6703  -2.6607  -2.5892
    -2.5715  -2.4922  -2.4091  -2.3596  -2.0991  -1.8088  -0.8613  -0.2640
    -0.0189   0.0485   1.2401   1.6912   1.6996   1.7274   1.7859   1.8000
     1.8390   1.9782   2.0299   2.0718   2.4052   2.5564   2.6307   2.7136
     2.7191   3.0307   3.0898   3.1399   3.4965   3.7752   3.8173   3.8633
     3.8739   3.9358   4.1293   4.4062   4.5790   4.7047   5.0401   5.1429
     5.2599   5.4184   5.6624   5.6804   5.9601   6.0614   6.2392   6.3105
     6.3219   6.4014   6.4878   6.4896   6.5499   6.5597   6.8126   6.8699
     6.9881   7.0008   7.0768   7.2658   7.4272   7.4478   7.4820   7.5417
     7.6543   7.7851   8.0548   8.1297   8.1590   8.1887   8.3059   8.3099
     8.4395   8.6545   8.8372   8.8547   8.9549   9.0084   9.0129   9.0961
     9.1236   9.3375   9.4465   9.5360   9.6010   9.6842   9.8301  10.0130
    10.0402  10.1340  10.1687  10.2757  10.3029  10.3159  10.3660  10.4960
    10.6700  10.7415  10.8317  10.8451  10.9692  11.0951  11.1595  11.2370
    11.2577  11.2985  11.4042  11.4206  11.4923  11.5623  11.6122  11.6280
    11.6883  11.7909  11.8346  11.9042  11.9805  12.0904  12.1942  12.2670
    12.3625  12.3890  12.4214  12.4563  12.5774  12.6146  12.6541  12.7425
    12.8319  13.0086  13.0816  13.1197  13.2272  13.3062  13.3343  13.4990
    13.5799  13.6199  13.8084  13.8433  13.8981  14.0030  14.0720  14.1171
    14.2174  14.2680  14.3333  14.4281  14.6067  14.6905  14.7152  14.8197
    14.9086  14.9830  15.1692  15.2208  15.2981  15.3216  15.4342  15.4887
    15.6175  15.6717  15.7629  15.8304  15.8935  15.9648  15.9866  15.9941
    16.1642  16.1953  16.2175  16.2578  16.3224  16.3464  16.4486  16.5212
    16.6645  16.6958  16.7354  16.8569  16.9106  16.9453  17.0452  17.2989
    17.3422  17.3828  17.4350  17.5020  17.6087  17.6533  17.6684  17.7318
    17.8496  17.9354  18.0114  18.1750  18.2155  18.3409  18.4240  18.5143
    18.6322  18.6893  18.7201  18.7350  18.8020  18.8573  19.0152  19.0940
    19.1268  19.1889  19.2677  19.2781  19.3154  19.3503  19.4241  19.4614
    19.5012  19.5856  19.6484  19.7311  19.8625  19.9279  19.9640  20.0671
    20.1252  20.1629  20.2059  20.3249  20.3489  20.3642  20.4003  20.4845
    20.5174  20.5353  20.5567  20.5686  20.5767  20.7069  20.7376

[...]

          k = 0.2500-0.4237 0.0000 ( 32188 PWs)   bands (ev):

[...]

          k =-0.5000 0.0000 0.0000 ( 32166 PWs)   bands (ev):

[...]

          k =-0.2500 0.2118 0.0000 ( 32165 PWs)   bands (ev):

   -56.0338 -55.9701 -55.6077 -55.5941 -55.5516 -55.5510 -55.5388 -55.4278
   -32.8405 -32.2325 -32.1391 -32.1187 -32.0938 -32.0924 -32.0602 -32.0200
   -32.0188 -31.9341 -31.9180 -31.8954 -31.8449 -31.8200 -31.7393 -31.6361
   -31.6312 -31.5440 -31.5116 -31.5081 -31.4520 -31.4354 -31.3961 -31.3640
   -22.3107 -20.3080 -20.0176 -19.1261 -18.8303 -18.7848 -18.6550 -18.5630
   -18.4786 -18.4742 -18.4246 -18.3671 -17.9799 -17.8709 -17.8548 -17.7791
   -17.7706 -17.6399 -17.5056 -16.1712  -8.7319  -8.3677  -7.7524  -7.3711
    -6.7668  -6.5662  -6.4818  -6.4006  -6.2881  -6.2663  -6.1400  -6.0619
    -5.9457  -5.9312  -5.8025  -5.7266  -5.6256  -5.5984  -5.4081  -5.3863
    -5.3349  -5.2683  -5.0612  -4.9218  -4.7902  -4.7484  -4.5155  -4.4824
    -4.3978  -4.3060  -4.1370  -4.0649  -4.0280  -3.9634  -3.8214  -3.7789
    -3.7258  -3.6999  -3.6686  -3.6123  -3.5076  -3.4244  -3.3666  -3.3038
    -3.2441  -3.1017  -3.0069  -2.9272  -2.8693  -2.8408  -2.7146  -2.6303
    -2.5487  -2.5133  -2.3761  -2.3443  -2.1218  -1.9305  -0.9094   0.1883
     0.7924   0.8342   1.0294   1.1830   1.4258   1.7148   1.8892   1.9281
     2.0428   2.2059   2.2800   2.3588   2.4830   2.5866   2.7130   2.7624
     2.8163   2.9101   2.9722   3.0881   3.1458   3.1880   3.2299   3.4535
     3.7091   4.1302   4.3336   4.4584   4.6941   4.8209   5.0730   5.3477
     5.3660   5.4190   5.5408   5.5891   5.7009   5.7978   5.8775   5.9208
     6.0481   6.0921   6.1575   6.2508   6.4335   6.5683   6.6309   6.7597
     6.8124   6.9346   6.9669   7.1250   7.2118   7.3969   7.4586   7.5129
     7.6396   7.7775   7.8902   8.0115   8.0762   8.1419   8.3186   8.3648
     8.5119   8.6086   8.7263   8.7812   8.9482   8.9938   9.0580   9.2537
     9.3294   9.3959   9.4554   9.5543   9.6548   9.7583   9.8787   9.9420
    10.0545  10.1210  10.2126  10.3243  10.4039  10.4372  10.6088  10.7658
    10.8406  10.9850  11.0238  11.1011  11.1671  11.2021  11.3272  11.4007
    11.4775  11.5948  11.6306  11.6540  11.6797  11.8471  11.8898  11.9972
    12.1102  12.1672  12.2278  12.3198  12.4484  12.5397  12.6227  12.7030
    12.7261  12.7782  12.8831  12.9139  12.9392  13.0042  13.0612  13.1816
    13.2383  13.3260  13.3518  13.4176  13.5033  13.5776  13.6226  13.6977
    13.7582  13.8631  13.9101  13.9929  14.0359  14.1056  14.1268  14.2395
    14.3001  14.3809  14.4274  14.4674  14.6491  14.7517  14.8347  14.8785
    14.9582  15.1234  15.1527  15.2346  15.2896  15.3287  15.4094  15.4434
    15.4940  15.5616  15.5954  15.6941  15.7574  15.7949  15.8646  15.8982
    15.9864  16.0508  16.1281  16.1908  16.2796  16.3543  16.3684  16.4286
    16.5578  16.6692  16.6923  16.7455  16.7909  16.8663  16.9172  17.0288
    17.0742  17.1035  17.1827  17.2413  17.3100  17.3590  17.4504  17.4650
    17.5595  17.6098  17.6889  17.8195  17.8703  17.9201  17.9639  18.0513
    18.1161  18.2129  18.2996  18.3405  18.3957  18.5294  18.5572  18.6131
    18.6564  18.7260  18.8002  18.8668  18.9477  18.9876  19.0730  19.1005
    19.1755  19.2658  19.2974  19.3474  19.4257  19.4579  19.5055  19.6066
    19.6993  19.7413  19.7636  19.8031  19.8800  19.9180  19.9706  20.0300
    20.0670  20.1478  20.1757  20.2355  20.2797  20.3434  20.4063

     the Fermi energy is     1.1354 ev

!    total energy              =   -1595.72435732 Ry
     Harris-Foulkes estimate   =   -1595.72435784 Ry
     estimated scf accuracy    <       0.00000057 Ry

     The total energy is the sum of the following terms:

     one-electron contribution =  -19410.38403306 Ry
     hartree contribution      =    9738.32721952 Ry
     xc contribution           =    -294.63682199 Ry
     ewald contribution        =    8370.97126204 Ry
     Hubbard energy            =       0.00000000 Ry
     smearing contrib. (-TS)   =      -0.00198384 Ry

     convergence has been achieved in  24 iterations

     Forces acting on atoms (Ry/au):

     negative rho (up, down):  0.331E-02 0.000E+00
     atom    1 type  1   force =     0.00157690   -0.00024000   -0.00003189
     atom    2 type  1   force =    -0.00069409    0.00017792    0.00050355
     atom    3 type  2   force =    -0.02834299   -0.00050626    0.00030950
     atom    4 type  2   force =    -0.00468127   -0.00012542   -0.00016590
     atom    5 type  1   force =    -0.00302433   -0.01204350   -0.00008141
     atom    6 type  1   force =    -0.00276757    0.01216090   -0.00008841
     atom    7 type  1   force =    -0.00001521   -0.00033764    0.00018568
     atom    8 type  1   force =     0.00180041    0.00108926    0.00007067
     atom    9 type  2   force =     0.00024202   -0.00047757    0.00016082
     atom   10 type  2   force =    -0.00000839    0.00009685    0.00004487
     atom   11 type  1   force =    -0.01496498   -0.01713789   -0.00011090
     atom   12 type  1   force =    -0.01297773    0.02027981   -0.00010636
     atom   13 type  1   force =     0.00035341   -0.00141683    0.00064750
     atom   14 type  1   force =     0.00079605   -0.00007202   -0.00026320
     atom   15 type  1   force =    -0.00062730   -0.00003783   -0.00048403
     atom   16 type  2   force =     0.02949657   -0.00051332    0.00019267
     atom   17 type  2   force =    -0.00444727    0.00011044   -0.00013666
     atom   18 type  1   force =     0.00438098   -0.01186954   -0.00008609
     atom   19 type  1   force =     0.00390510    0.01199332   -0.00008056
     atom   20 type  1   force =     0.00019077   -0.00194857   -0.00022322
     atom   21 type  1   force =     0.00185758    0.00045880    0.00027226
     atom   22 type  2   force =    -0.00073717   -0.00047837    0.00015015
     atom   23 type  2   force =    -0.00007977    0.00124155    0.00021025
     atom   24 type  1   force =     0.01517293   -0.01714698   -0.00012566
     atom   25 type  1   force =     0.01317755    0.02027738   -0.00010487
     atom   26 type  1   force =     0.00039054   -0.00417623   -0.00007066
     atom   27 type  3   force =    -0.00001116    0.00019141    0.00025105
     atom   28 type  3   force =    -0.00000723   -0.00010674   -0.00003242
     atom   29 type  3   force =     0.00016907    0.00004772   -0.00020983
     atom   30 type  3   force =    -0.00011573    0.00002591   -0.00006361
     atom   31 type  1   force =    -0.00000561    0.00021368   -0.00026620
     atom   32 type  1   force =     0.00000407    0.00040331   -0.00036078
     atom   33 type  3   force =    -0.00000614   -0.00013356    0.00009370

     Total force =     0.001463     Total SCF correction =     0.001459
     SCF correction compared to forces is large: reduce conv_thr to get better values

     entering subroutine stress ...

     negative rho (up, down):  0.331E-02 0.000E+00
          total   stress  (Ry/bohr**3)                   (kbar)     P=   -1.94
  -0.00000212  -0.00000006   0.00000211         -0.31     -0.01      0.31
  -0.00000006  -0.00000533   0.00000002         -0.01     -0.78      0.00
   0.00000211   0.00000002  -0.00003211          0.31      0.00     -4.72

     BFGS Geometry Optimization

     bfgs converged in   1 scf cycles and   0 bfgs steps
     (criteria: energy < 0.10E-03, force < 0.10E-02)

     End of BFGS Geometry Optimization

     Final energy   =   -1595.7243573249 Ry
Begin final coordinates

ATOMIC_POSITIONS (crystal)
O0       0.000000000   0.000000000   0.372100000    0   0   1
O0       0.000000000   0.500000000   0.388810000    0   0   1
Nb1      0.250000000   0.500000000   0.444400000    0   0   1
Nb1      0.000000000   0.000000000   0.444760000    0   0   1
O0       0.250000000   0.790000000   0.447150000    0   0   1
O0       0.250000000   0.210000000   0.447120000    0   0   1
O0       0.000000000   0.500000000   0.499950000    0   0   1
O0       0.000000000   0.000000000   0.523270000    0   0   1
Nb1      0.250000000   0.000000000   0.577350000    0   0   1
Nb1      0.000000000   0.500000000   0.569420000    0   0   1
O0       0.250000000   0.710000000   0.575460000    0   0   1
O0       0.250000000   0.290000000   0.575960000    0   0   1
O0       0.000000000   0.000000000   0.621790000    0   0   1
O0       0.500000000   0.000000000   0.372370000    0   0   1
O0       0.500000000   0.500000000   0.390240000    0   0   1
Nb1      0.750000000   0.500000000   0.444440000    0   0   1
Nb1      0.500000000   0.000000000   0.445280000    0   0   1
O0       0.750000000   0.790000000   0.447140000    0   0   1
O0       0.750000000   0.210000000   0.447120000    0   0   1
O0       0.500000000   0.500000000   0.498790000    0   0   1
O0       0.500000000   0.000000000   0.523100000    0   0   1
Nb1      0.750000000   0.000000000   0.577350000    0   0   1
Nb1      0.500000000   0.500000000   0.576270000    0   0   1
O0       0.750000000   0.710000000   0.575450000    0   0   1
O0       0.750000000   0.290000000   0.575950000    0   0   1
O0       0.500000000   0.000000000   0.621530000    0   0   1
H2      -0.000520000   0.504910000   0.352550000
H2       0.499440000   0.501180000   0.354030000
H2       0.150770000   0.000700000   0.356330000
H2       0.650390000   0.000510000   0.356460000
O0       0.500000000   0.509330000   0.649060000
O0       0.500000000   0.347690000   0.683460000
H2       0.500000000   0.419960000   0.714800000
End final coordinates

     General routines

     Parallel routines
     Hubbard U routines

   This run was terminated on:   7: 8:19   1Jun2014

   JOB DONE.