     Program PWSCF v.5.0.2 (svn rev. 9656) starts on 24Mar2014 at 16:32:41

     Current dimensions of program PWSCF are:
     Max number of different atomic species (ntypx) = 10
     Max number of k-points (npk) =  40000
     Max angular momentum in pseudopotentials (lmaxx) =  3
     Reading input from pwscf.in
Warning: card &CELL ignored
Warning: card / ignored

     Subspace diagonalization in iterative solution of the eigenvalue problem:
     a serial algorithm will be used

     bravais-lattice index     =            0
     lattice parameter (alat)  =      12.0187  a.u.
     unit-cell volume          =    7280.5819 (a.u.)^3
     number of atoms/cell      =           32
     number of atomic types    =            3
     number of electrons       =       239.00
     number of Kohn-Sham states=          358
     kinetic-energy cutoff     =      40.0000  Ry
     charge density cutoff     =     500.0000  Ry
     convergence threshold     =      1.0E-06
     mixing beta               =       0.3000
     number of iterations used =            8  plain     mixing
     Exchange-correlation      = SLA  PW   PBE  PBE ( 1 4 3 4 0)
     EXX-fraction              =        0.00
     nstep                     =           50

     celldm(1)=  12.018658  celldm(2)=   0.000000  celldm(3)=   0.000000
     celldm(4)=   0.000000  celldm(5)=   0.000000  celldm(6)=   0.000000

     crystal axes: (cart. coord. in units of alat)
               a(1) = (   1.000000   0.000000   0.000000 )
               a(2) = (   0.000000   1.009517   0.000000 )
               a(3) = (   0.000000   0.000000   4.154171 )

     reciprocal axes: (cart. coord. in units 2 pi/alat)
               b(1) = (  1.000000  0.000000  0.000000 )
               b(2) = (  0.000000  0.990572  0.000000 )
               b(3) = (  0.000000  0.000000  0.240722 )

     PseudoPot. # 1 for O  read from file:
     /home/camp/zhonxu/pseudo/o_pbe_v1.01.uspp.F.UPF
     MD5 check sum: 2bcb18d16ea4b960afae9ec6d52f22d2
     Pseudo is Ultrasoft + core correction, Zval =  6.0
     Generated by new atomic code, or converted to UPF format
     Using radial grid of  737 points,  5 beta functions with:
                l(1) =   0
                l(2) =   0
                l(3) =   1
                l(4) =   1
                l(5) =   2
     Q(r) pseudized with  8 coefficients,  rinner =    0.900   0.900   0.900
                                                       0.900   0.900

     PseudoPot. # 2 for Ir read from file:
     /home/camp/zhonxu/pseudo/ir_pbe_v1.uspp.F.UPF
     MD5 check sum: abf987a9674477536ede83817f8f8b70
     Pseudo is Ultrasoft + core correction, Zval = 15.0
     Generated by new atomic code, or converted to UPF format
     Using radial grid of  983 points,  7 beta functions with:
                l(1) =   0
                l(2) =   0
                l(3) =   1
                l(4) =   1
                l(5) =   1
                l(6) =   2
                l(7) =   2
     Q(r) pseudized with  8 coefficients,  rinner =    1.350   1.350   1.350
                                                       1.350   1.350

     PseudoPot. # 3 for H  read from file:
     /home/camp/zhonxu/pseudo/h_pbe_v1.uspp.F.UPF
     MD5 check sum: 3408e3ff4ec8b0a4e358431e7e038a48
     Pseudo is Ultrasoft, Zval =  1.0
     Generated by new atomic code, or converted to UPF format
     Using radial grid of  615 points,  2 beta functions with:
                l(1) =   0
                l(2) =   0
     Q(r) pseudized with  8 coefficients,  rinner =    0.700

     atomic species   valence    mass     pseudopotential
        O0             6.00    15.99940     O ( 1.00)
        Ir1           15.00   192.22000     Ir( 1.00)
        H2             1.00     1.00794     H ( 1.00)

     Starting magnetic structure
     atomic species   magnetization
        O0           0.000
        Ir1          0.000
        H2           0.000

     No symmetry found

   Cartesian axes

     site n.     atom                  positions (alat units)
         1           O0  tau(   1) = (   0.0000000   0.0000000   1.5730185  )
         2           O0  tau(   2) = (   0.0000000   0.5047586   1.6673182  )
         3           Ir1 tau(   3) = (   0.2500000   0.5047586   1.8780178  )
         4           Ir1 tau(   4) = (   0.0000000   0.0000000   1.8842906  )
         5           O0  tau(   5) = (   0.2500000   0.8177090   1.8825458  )
         6           O0  tau(   6) = (   0.2500000   0.1918083   1.8810503  )
         7           O0  tau(   7) = (   0.0000000   0.5047586   2.0695666  )
         8           O0  tau(   8) = (   0.0000000   0.0000000   2.1991352  )
         9           Ir1 tau(   9) = (   0.2500000   0.0000000   2.3955860  )
        10           Ir1 tau(  10) = (   0.0000000   0.5047586   2.3764768  )
        11           O0  tau(  11) = (   0.2500000   0.6965669   2.3975800  )
        12           O0  tau(  12) = (   0.2500000   0.3129503   2.3977461  )
        13           O0  tau(  13) = (   0.0000000   0.0000000   2.5806958  )
        14           O0  tau(  14) = (   0.5000000   0.0000000   1.5730185  )
        15           O0  tau(  15) = (   0.5000000   0.5047586   1.6673182  )
        16           Ir1 tau(  16) = (   0.7500000   0.5047586   1.8780178  )
        17           Ir1 tau(  17) = (   0.5000000   0.0000000   1.8842906  )
        18           O0  tau(  18) = (   0.7500000   0.8177090   1.8825458  )
        19           O0  tau(  19) = (   0.7500000   0.1918083   1.8810503  )
        20           O0  tau(  20) = (   0.5000000   0.5047586   2.0695666  )
        21           O0  tau(  21) = (   0.5000000   0.0000000   2.1991352  )
        22           Ir1 tau(  22) = (   0.7500000   0.0000000   2.3955860  )
        23           Ir1 tau(  23) = (   0.5000000   0.5047586   2.3764768  )
        24           O0  tau(  24) = (   0.7500000   0.6965669   2.3975800  )
        25           O0  tau(  25) = (   0.7500000   0.3129503   2.3977461  )
        26           O0  tau(  26) = (   0.5000000   0.0000000   2.5807374  )
        27           H2  tau(  27) = (  -0.0000500   0.6423962   1.5933324  )
        28           H2  tau(  28) = (   0.4999500   0.6423962   1.5933324  )
        29           H2  tau(  29) = (   0.1436500   0.0338188   1.5249132  )
        30           H2  tau(  30) = (   0.6436500   0.0338188   1.5249132  )
        31           O0  tau(  31) = (   0.4928400   0.5047586   2.6850071  )
        32           H2  tau(  32) = (   0.3429400   0.5047788   2.7271304  )

     number of k points=    20  Methfessel-Paxton smearing, width (Ry)=  0.0100
                       cart. coord. in units 2pi/alat
        k(    1) = (   0.0000000   0.0000000   0.0000000), wk =   0.0625000
        k(    2) = (   0.0000000   0.2476431   0.0000000), wk =   0.1250000
        k(    3) = (   0.0000000  -0.4952862   0.0000000), wk =   0.0625000
        k(    4) = (   0.2500000   0.0000000   0.0000000), wk =   0.1250000
        k(    5) = (   0.2500000   0.2476431   0.0000000), wk =   0.1250000
        k(    6) = (   0.2500000  -0.4952862   0.0000000), wk =   0.1250000
        k(    7) = (  -0.5000000   0.0000000   0.0000000), wk =   0.0625000
        k(    8) = (  -0.5000000   0.2476431   0.0000000), wk =   0.1250000
        k(    9) = (  -0.5000000  -0.4952862   0.0000000), wk =   0.0625000
        k(   10) = (  -0.2500000   0.2476431   0.0000000), wk =   0.1250000
        k(   11) = (   0.0000000   0.0000000   0.0000000), wk =   0.0625000
        k(   12) = (   0.0000000   0.2476431   0.0000000), wk =   0.1250000
        k(   13) = (   0.0000000  -0.4952862   0.0000000), wk =   0.0625000
        k(   14) = (   0.2500000   0.0000000   0.0000000), wk =   0.1250000
        k(   15) = (   0.2500000   0.2476431   0.0000000), wk =   0.1250000
        k(   16) = (   0.2500000  -0.4952862   0.0000000), wk =   0.1250000
        k(   17) = (  -0.5000000   0.0000000   0.0000000), wk =   0.0625000
        k(   18) = (  -0.5000000   0.2476431   0.0000000), wk =   0.1250000
        k(   19) = (  -0.5000000  -0.4952862   0.0000000), wk =   0.0625000
        k(   20) = (  -0.2500000   0.2476431   0.0000000), wk =   0.1250000

     Largest allocated arrays     est. size (Mb)     dimensions
     Largest temporary arrays     est. size (Mb)     dimensions

     Check: negative/imaginary core charge=   -0.000003    0.000000

     Initial potential from superposition of free atoms
     Check: negative starting charge=(component1):   -1.667156
     Check: negative starting charge=(component2):   -1.667156

     starting charge  234.99967, renormalised to  239.00000

     negative rho (up, down):  0.170E+01 0.170E+01
     Starting wfc are  177 randomized atomic wfcs

     Self-consistent Calculation

     iteration #  1     ecut=    40.00 Ry     beta=0.30
     Davidson diagonalization with overlap
     ethr =  1.00E-02,  avg # of iterations =  8.8

     negative rho (up, down):  0.159E+01 0.159E+01

     total energy              =   -2100.22584652 Ry
     Harris-Foulkes estimate   =   -2112.57524610 Ry
     estimated scf accuracy    <      26.29204077 Ry

     total magnetization       =     0.00 Bohr mag/cell
     absolute magnetization    =     0.01 Bohr mag/cell

[...]

     End of self-consistent calculation

 ------ SPIN UP ------------

          k = 0.0000 0.0000 0.0000 ( 31045 PWs)   bands (ev):

   -51.3468 -51.3079 -51.2981 -51.2475 -51.2239 -51.1743 -51.1529 -51.1453
   -51.1356 -51.1214 -51.0382 -51.0172 -50.9856 -50.9808 -50.9749 -50.9544
   -50.9357 -50.9241 -50.8832 -50.8446 -50.8244 -50.8062 -50.7883 -50.5956
   -21.7748 -21.3365 -21.1724 -21.1636 -20.5963 -20.4992 -20.4719 -20.4023
   -20.3099 -20.2832 -20.2040 -20.0137 -19.8199 -19.7725 -19.6993 -19.6158
   -19.5530 -18.6517 -18.5658 -10.3168 -10.2754  -9.9281  -9.0389  -8.8254
    -8.7581  -8.7511  -8.7413  -8.7329  -8.6587  -8.6159  -8.5965  -8.3588
    -8.3381  -8.2960  -8.0919  -8.0224  -7.9532  -7.8869  -7.6647  -7.4083
    -7.2315  -7.1172  -7.0489  -6.5960  -6.4589  -6.4219  -6.3804  -6.0212
    -5.8054  -5.7866  -5.6424  -5.5649  -5.5599  -5.4194  -5.3830  -5.2851
    -5.2425  -5.1307  -5.0542  -4.8911  -4.8159  -4.7975  -4.6339  -4.5329
    -4.4372  -4.3321  -4.2295  -4.0413  -4.0101  -3.9374  -3.7425  -3.5530
    -3.4407  -3.4347  -3.2102  -3.1488  -3.1280  -3.0583  -2.9953  -2.9141
    -2.6879  -2.6641  -2.5482  -2.4523  -2.3954  -2.3622  -2.2152  -2.0626
    -1.9020  -1.7595  -1.6894  -1.5614  -1.5087  -1.1984  -0.9491  -0.8535
    -0.7339  -0.5057  -0.4795  -0.1602   0.0840   0.7101   1.1857   1.3245
     1.3610   1.4023   1.5106   1.9303   2.2520   2.4499   2.6765   2.9538
     3.0944   3.2028   3.2663   3.5641   3.6751   4.0806   4.4277   4.9093
     5.0018   5.7651   5.9921   6.2149   6.2363   6.8606   6.9061   7.1004
     7.2188   7.5325   7.6550   7.6941   7.7337   7.8514   7.8893   8.0334
     8.0426   8.1326   8.1515   8.1658   8.2560   8.2954   8.3939   8.4715
     8.5600   8.6163   8.6345   8.6716   8.7256   8.7328   8.7581   8.7805
     8.7890   8.8772   8.8897   8.8993   8.9690   8.9889   9.1032   9.2127
     9.2925   9.3308   9.4157   9.4280   9.5613   9.7216   9.8516  10.0053
[...]
     atom   17 type  2   force =     0.00977124    0.00829615   -0.00361949
     atom   18 type  1   force =    -0.00150510   -0.01604397   -0.00077696
     atom   19 type  1   force =     0.00249836    0.01422175   -0.00050135
     atom   20 type  1   force =     0.00623951   -0.00484683   -0.01401021
     atom   21 type  1   force =    -0.00385347   -0.00047832    0.00205446
     atom   22 type  2   force =    -0.01025548    0.00021776    0.00988379
     atom   23 type  2   force =    -0.01023552   -0.00052016    0.10139692
     atom   24 type  1   force =     0.01069607    0.00769385   -0.01967631
     atom   25 type  1   force =     0.01118258   -0.00755282   -0.01957719
     atom   26 type  1   force =    -0.00162139   -0.00013534   -0.00907987
     atom   27 type  3   force =     0.00013443   -0.00023346   -0.00080267
     atom   28 type  3   force =    -0.00002487    0.00043866    0.00060078
     atom   29 type  3   force =     0.00042951    0.00012076   -0.00004467
     atom   30 type  3   force =    -0.00054765    0.00049119    0.00002280
     atom   31 type  1   force =     0.00400884    0.00000588   -0.01543856
     atom   32 type  3   force =     0.01299162    0.00002548    0.00147635

     Total force =     0.020625     Total SCF correction =     0.000249

     BFGS Geometry Optimization

     number of scf cycles    =   1
     number of bfgs steps    =   0

     energy   new            =   -2107.4408525998 Ry

     new trust radius        =       0.0159505434 bohr
     new conv_thr            =       0.0000010000 Ry

ATOMIC_POSITIONS (crystal)
O0       0.000000000   0.000000000   0.378660000    0   0   0
O0       0.000000000   0.500000000   0.401360000    0   0   0
Ir1      0.250000000   0.500000000   0.452080000    0   0   0
Ir1      0.000000000   0.000000000   0.453590000    0   0   0
O0       0.250000000   0.810000000   0.453170000    0   0   0
O0       0.250000000   0.190000000   0.452810000    0   0   0
O0       0.000000000   0.500000000   0.498190000    0   0   0
O0       0.000000000   0.000000000   0.529380000    0   0   0
Ir1      0.250000000   0.000000000   0.576670000    0   0   0
Ir1      0.000000000   0.500000000   0.572070000    0   0   0
O0       0.250000000   0.690000000   0.577150000    0   0   0
O0       0.250000000   0.310000000   0.577190000    0   0   0
O0       0.000000000   0.000000000   0.621230000    0   0   0
O0       0.500000000   0.000000000   0.378660000    0   0   0
O0       0.500000000   0.500000000   0.401360000    0   0   0
Ir1      0.750000000   0.500000000   0.452080000    0   0   0
Ir1      0.500000000   0.000000000   0.453590000    0   0   0
O0       0.750000000   0.810000000   0.453170000    0   0   0
O0       0.750000000   0.190000000   0.452810000    0   0   0
O0       0.500000000   0.500000000   0.498190000    0   0   0
O0       0.500000000   0.000000000   0.529380000    0   0   0
Ir1      0.750000000   0.000000000   0.576670000    0   0   0
Ir1      0.500000000   0.500000000   0.572070000    0   0   0
O0       0.750000000   0.690000000   0.577150000    0   0   0
O0       0.750000000   0.310000000   0.577190000    0   0   0
O0       0.500000000   0.000000000   0.621240000    0   0   0
H2      -0.000050000   0.636340000   0.383550000    0   0   0
H2       0.499950000   0.636340000   0.383550000    0   0   0
H2       0.143650000   0.033500000   0.367080000    0   0   0
H2       0.643650000   0.033500000   0.367080000    0   0   0
O0       0.493173552   0.500000484   0.646030781
H2       0.344020955   0.500022100   0.656509570

     Check: negative starting charge=(component1):   -3.334312
     NEW-OLD atomic charge density approx. for the potential

     Check: negative/imaginary core charge=   -0.000003    0.000000
     Check: negative starting charge=(component1):   -3.334307

[...]

     Threshold (ethr) on eigenvalues was too large:
     Diagonalizing with lowered threshold

     Davidson diagonalization with overlap
     ethr =  8.26E-08,  avg # of iterations =  1.0

[...]

     energy   old            =   -2107.4408525998 Ry
     energy   new            =   -2107.4412234708 Ry

     CASE: energy  _new < energy  _old

[...]

     Total force =     0.002610     Total SCF correction =     0.000027

     number of scf cycles    =  13
     number of bfgs steps    =  12

     energy   old            =   -2107.4440510755 Ry
     energy   new            =   -2107.4440957389 Ry

     CASE: energy  _new < energy  _old

     new trust radius        =       0.0088907387 bohr
     new conv_thr            =       0.0000000100 Ry

ATOMIC_POSITIONS (crystal)
O0       0.000000000   0.000000000   0.378660000    0   0   0
O0       0.000000000   0.500000000   0.401360000    0   0   0
Ir1      0.250000000   0.500000000   0.452080000    0   0   0
Ir1      0.000000000   0.000000000   0.453590000    0   0   0
O0       0.250000000   0.810000000   0.453170000    0   0   0
O0       0.250000000   0.190000000   0.452810000    0   0   0
O0       0.000000000   0.500000000   0.498190000    0   0   0
O0       0.000000000   0.000000000   0.529380000    0   0   0
Ir1      0.250000000   0.000000000   0.576670000    0   0   0
Ir1      0.000000000   0.500000000   0.572070000    0   0   0
O0       0.250000000   0.690000000   0.577150000    0   0   0
O0       0.250000000   0.310000000   0.577190000    0   0   0
O0       0.000000000   0.000000000   0.621230000    0   0   0
O0       0.500000000   0.000000000   0.378660000    0   0   0
O0       0.500000000   0.500000000   0.401360000    0   0   0
Ir1      0.750000000   0.500000000   0.452080000    0   0   0
Ir1      0.500000000   0.000000000   0.453590000    0   0   0
O0       0.750000000   0.810000000   0.453170000    0   0   0
O0       0.750000000   0.190000000   0.452810000    0   0   0
O0       0.500000000   0.500000000   0.498190000    0   0   0
O0       0.500000000   0.000000000   0.529380000    0   0   0
Ir1      0.750000000   0.000000000   0.576670000    0   0   0
Ir1      0.500000000   0.500000000   0.572070000    0   0   0
O0       0.750000000   0.690000000   0.577150000    0   0   0
O0       0.750000000   0.310000000   0.577190000    0   0   0
O0       0.500000000   0.000000000   0.621240000    0   0   0
H2      -0.000050000   0.636340000   0.383550000    0   0   0
H2       0.499950000   0.636340000   0.383550000    0   0   0
H2       0.143650000   0.033500000   0.367080000    0   0   0
H2       0.643650000   0.033500000   0.367080000    0   0   0
O0       0.514469161   0.500026769   0.645453431
H2       0.372827493   0.500150117   0.660429149

     Check: negative starting charge=(component1):   -3.334270
     NEW-OLD atomic charge density approx. for the potential

     Check: negative/imaginary core charge=   -0.000003    0.000000
     Check: negative starting charge=(component1):   -3.334268

[...]

     Self-consistent Calculation

[...]

     Threshold (ethr) on eigenvalues was too large:
     Diagonalizing with lowered threshold

     Davidson diagonalization with overlap
     ethr =  1.08E-08,  avg # of iterations =  1.0

[...]

     total energy              =   -2107.44410453 Ry
     Harris-Foulkes estimate   =   -2107.44410455 Ry
     estimated scf accuracy    <       0.00000001 Ry

[...]

     iteration # 19     ecut=    40.00 Ry     beta=0.30
     Davidson diagonalization with overlap
     ethr =  4.59E-12,  avg # of iterations =  2.0

     negative rho (up, down):  0.156E+01 0.156E+01

     End of self-consistent calculation

 ------ SPIN UP ------------

[...]

 ------ SPIN DOWN ----------

[...]

          k = 0.2500-0.4953 0.0000 ( 31088 PWs)   bands (ev):

[...]

          k =-0.2500 0.2476 0.0000 ( 31099 PWs)   bands (ev):

   -51.3216 -51.2515 -51.2396 -51.2003 -51.1512 -51.1192 -51.1155 -51.0858
   -51.0753 -51.0650 -50.9948 -50.9541 -50.9296 -50.9240 -50.9057 -50.8964
   -50.8842 -50.8719 -50.8395 -50.7849 -50.7707 -50.7513 -50.7295 -50.5401
   -21.5383 -21.1346 -21.0709 -20.9709 -20.6753 -20.4962 -20.4627 -20.4324
   -20.2379 -20.1988 -20.1003 -19.9393 -19.9314 -19.8526 -19.7022 -19.6730
   -19.5269 -18.6404 -18.5635  -9.7676  -9.5814  -9.5654  -9.2225  -8.8684
    -8.7972  -8.6966  -8.6778  -8.5670  -8.5367  -8.4572  -8.4255  -8.3898
    -8.3278  -8.0048  -7.9285  -7.8522  -7.6629  -7.5364  -7.4325  -7.3465
    -7.1549  -7.0781  -7.0192  -6.6245  -6.4702  -6.3458  -6.2518  -6.2047
    -6.1225  -6.1084  -6.0206  -5.9804  -5.8922  -5.7836  -5.7495  -5.6019
    -5.4651  -5.4066  -5.1973  -5.0237  -4.9377  -4.8389  -4.7089  -4.6651
    -4.5474  -4.4626  -4.2445  -4.1487  -4.1129  -3.8652  -3.6785  -3.6273
    -3.3705  -3.2722  -3.2245  -3.0746  -2.6866  -2.5670  -2.5016  -2.4369
    -2.3878  -2.3362  -2.2949  -2.2324  -2.1749  -2.1192  -2.0964  -1.9580
    -1.8581  -1.7177  -1.5824  -1.4215  -1.1032  -1.0085  -0.8364  -0.8120
    -0.7382  -0.5531  -0.4218  -0.2623  -0.0392   0.8648   0.9369   1.1687
     1.5765   1.6270   2.0394   2.1750   2.5478   2.6416   2.7154   2.8122
     3.0579   3.1994   3.2464   3.6641   3.7514   4.3318   4.8864   5.3213
     5.4496   5.5610   5.6830   6.0713   6.3391   6.5940   6.6564   6.7320
     6.7940   6.9679   7.1926   7.2462   7.2873   7.3424   7.5293   7.6825
     7.9291   8.0098   8.0500   8.1514   8.2459   8.4118   8.4995   8.5353
     8.6573   8.7315   8.7874   8.8057   8.8181   8.8346   8.8495   8.8968
     8.9486   8.9503   8.9658   9.0215   9.0482   9.1064   9.1874   9.4049
     9.5120   9.5727   9.6796   9.7328   9.8252   9.8606  10.0734  10.1215
    10.2325  10.3186  10.3824  10.4722  10.4973  10.5399  10.6288  10.8396
    10.8902  10.9520  11.0104  11.0754  11.1323  11.2490  11.3947  11.5266
    11.5988  11.6943  11.7080  11.8231  11.8299  11.9964  12.1141  12.2182
    12.2435  12.2781  12.3754  12.4652  12.5237  12.6414  12.6711  12.7337
    12.7672  12.8359  12.9184  12.9893  13.0548  13.0991  13.1557  13.1935
    13.3035  13.3927  13.4469  13.5457  13.6385  13.7652  13.8773  13.9403
    13.9948  14.0555  14.1462  14.2243  14.2844  14.4053  14.4230  14.5576
    14.7012  14.7215  14.7975  14.9300  15.0078  15.1166  15.2360  15.2967
    15.3991  15.4253  15.5369  15.5586  15.6412  15.7934  15.8396  15.8699
    15.9240  15.9955  16.0170  16.0843  16.1418  16.1792  16.2396  16.3018
    16.3944  16.4298  16.4444  16.5199  16.5507  16.6403  16.7319  16.7744
    16.8297  16.9126  17.0864  17.1353  17.1960  17.3286  17.3377  17.4182
    17.4992  17.5481  17.5745  17.6373  17.6932  17.7554  17.7820  17.8868
    17.9364  18.0025  18.0536  18.1522  18.2230  18.2779  18.3535  18.3878
    18.4934  18.5537  18.6350  18.6880  18.7710  18.8709  18.9353  18.9853
    19.0560  19.1265  19.1333  19.2373  19.2823  19.3523  19.3876  19.5203
    19.5690  19.6208  19.7089  19.7684  19.8618  19.9187  19.9742  20.0798
    20.1503  20.2253  20.3481  20.3885  20.4432  20.5434  20.6098  20.6991
    20.7455  20.7772  20.8088  20.8551  20.9110  20.9914  21.0721  21.1069
    21.1727  21.2655  21.3239  21.3909  21.4389  21.5059  21.5600  21.5856
    21.7221  21.7627  21.8112  21.8468  21.9363  21.9626

     the Fermi energy is    -0.8216 ev

!    total energy              =   -2107.44410454 Ry
     Harris-Foulkes estimate   =   -2107.44410454 Ry
     estimated scf accuracy    <          4.3E-09 Ry

     The total energy is the sum of the following terms:

     one-electron contribution =  -22716.98573952 Ry
     hartree contribution      =   11401.24177364 Ry
     xc contribution           =    -577.08357120 Ry
     ewald contribution        =    9785.38347836 Ry
     smearing contrib. (-TS)   =      -0.00004581 Ry

     total magnetization       =     0.00 Bohr mag/cell
     absolute magnetization    =     0.00 Bohr mag/cell

     convergence has been achieved in  19 iterations

     Forces acting on atoms (Ry/au):

     negative rho (up, down):  0.156E+01 0.156E+01
     atom    1 type  1   force =    -0.00783638   -0.01459582    0.00164126
     atom    2 type  1   force =     0.00068980    0.00698746    0.01082911
     atom    3 type  2   force =     0.02260321    0.00634845   -0.00335371
     atom    4 type  2   force =     0.00961162    0.00849676   -0.00094682
     atom    5 type  1   force =    -0.00194265   -0.01594203   -0.00100182
     atom    6 type  1   force =     0.00318174    0.01342786   -0.00075324
     atom    7 type  1   force =     0.00088842   -0.00161030   -0.00029056
     atom    8 type  1   force =    -0.00325206   -0.00066028    0.00019093
     atom    9 type  2   force =     0.01208064    0.00016207    0.00577963
     atom   10 type  2   force =    -0.00968682   -0.00137250    0.00652397
     atom   11 type  1   force =    -0.01107081    0.00719769   -0.01866250
     atom   12 type  1   force =    -0.01080927   -0.00685904   -0.01868195
     atom   13 type  1   force =    -0.00031604   -0.00002848    0.00025285
     atom   14 type  1   force =    -0.00738695   -0.01498540   -0.00075196
     atom   15 type  1   force =     0.00025789    0.00608766   -0.00096297
     atom   16 type  2   force =    -0.02386215    0.00562728   -0.00315646
     atom   17 type  2   force =     0.00976241    0.00830546   -0.00355005
     atom   18 type  1   force =    -0.00159285   -0.01574953   -0.00086399
     atom   19 type  1   force =     0.00244426    0.01391422   -0.00058530
     atom   20 type  1   force =     0.00030536   -0.00487524   -0.01334364
     atom   21 type  1   force =    -0.00332480   -0.00050397    0.00208561
     atom   22 type  2   force =    -0.00979880    0.00026588    0.00879644
     atom   23 type  2   force =     0.00212315   -0.00052159    0.08739040
     atom   24 type  1   force =     0.01403134    0.00978985   -0.02407064
     atom   25 type  1   force =     0.01443439   -0.00966302   -0.02398455
     atom   26 type  1   force =    -0.00159534   -0.00013900   -0.00801676
     atom   27 type  3   force =     0.00002984   -0.00020466   -0.00075265
     atom   28 type  3   force =    -0.00002093    0.00046947    0.00067115
     atom   29 type  3   force =     0.00042912    0.00011114    0.00001681
     atom   30 type  3   force =    -0.00055257    0.00049431    0.00008998
     atom   31 type  1   force =     0.00011430    0.00000305   -0.00038877
     atom   32 type  3   force =     0.00006091    0.00002228   -0.00014982

     Total force =     0.000437     Total SCF correction =     0.000057
     SCF correction compared to forces is large: reduce conv_thr to get better values

     bfgs converged in  14 scf cycles and  13 bfgs steps
     (criteria: energy < 0.10E-03, force < 0.10E-02)

     End of BFGS Geometry Optimization

     Final energy   =   -2107.4441045372 Ry
Begin final coordinates

ATOMIC_POSITIONS (crystal)
O0       0.000000000   0.000000000   0.378660000    0   0   0
O0       0.000000000   0.500000000   0.401360000    0   0   0
Ir1      0.250000000   0.500000000   0.452080000    0   0   0
Ir1      0.000000000   0.000000000   0.453590000    0   0   0
O0       0.250000000   0.810000000   0.453170000    0   0   0
O0       0.250000000   0.190000000   0.452810000    0   0   0
O0       0.000000000   0.500000000   0.498190000    0   0   0
O0       0.000000000   0.000000000   0.529380000    0   0   0
Ir1      0.250000000   0.000000000   0.576670000    0   0   0
Ir1      0.000000000   0.500000000   0.572070000    0   0   0
O0       0.250000000   0.690000000   0.577150000    0   0   0
O0       0.250000000   0.310000000   0.577190000    0   0   0
O0       0.000000000   0.000000000   0.621230000    0   0   0
O0       0.500000000   0.000000000   0.378660000    0   0   0
O0       0.500000000   0.500000000   0.401360000    0   0   0
Ir1      0.750000000   0.500000000   0.452080000    0   0   0
Ir1      0.500000000   0.000000000   0.453590000    0   0   0
O0       0.750000000   0.810000000   0.453170000    0   0   0
O0       0.750000000   0.190000000   0.452810000    0   0   0
O0       0.500000000   0.500000000   0.498190000    0   0   0
O0       0.500000000   0.000000000   0.529380000    0   0   0
Ir1      0.750000000   0.000000000   0.576670000    0   0   0
Ir1      0.500000000   0.500000000   0.572070000    0   0   0
O0       0.750000000   0.690000000   0.577150000    0   0   0
O0       0.750000000   0.310000000   0.577190000    0   0   0
O0       0.500000000   0.000000000   0.621240000    0   0   0
H2      -0.000050000   0.636340000   0.383550000    0   0   0
H2       0.499950000   0.636340000   0.383550000    0   0   0
H2       0.143650000   0.033500000   0.367080000    0   0   0
H2       0.643650000   0.033500000   0.367080000    0   0   0
O0       0.514469161   0.500026769   0.645453431
H2       0.372827493   0.500150117   0.660429149
End final coordinates

     General routines

     Parallel routines

   This run was terminated on:  18:27:48  25Mar2014

   JOB DONE.