     Program PWSCF v.5.0.2 (svn rev. 9656) starts on 10May2014 at  9: 1:51

     Current dimensions of program PWSCF are:
     Max number of different atomic species (ntypx) = 10
     Max number of k-points (npk) =  40000
     Max angular momentum in pseudopotentials (lmaxx) =  3
     Reading input from pwscf.in
Warning: card &CELL ignored
Warning: card / ignored

     Subspace diagonalization in iterative solution of the eigenvalue problem:
     a serial algorithm will be used

     bravais-lattice index     =            0
     lattice parameter (alat)  =      10.1289  a.u.
     unit-cell volume          =    6836.7721 (a.u.)^3
     number of atoms/cell      =           31
     number of atomic types    =            3
     number of electrons       =       238.00
     number of Kohn-Sham states=          357
     kinetic-energy cutoff     =      40.0000  Ry
     charge density cutoff     =     500.0000  Ry
     convergence threshold     =      1.0E-06
     mixing beta               =       0.7000
     number of iterations used =            8  plain     mixing
     Exchange-correlation      = SLA  PW   PBE  PBE ( 1 4 3 4 0)
     EXX-fraction              =        0.00
     nstep                     =           50

     celldm(1)=  10.128932  celldm(2)=   0.000000  celldm(3)=   0.000000
     celldm(4)=   0.000000  celldm(5)=   0.000000  celldm(6)=   0.000000

     crystal axes: (cart. coord. in units of alat)
               a(1) = (   1.000000   0.000000   0.000000 )
               a(2) = (   0.000000   1.306037   0.000000 )
               a(3) = (   0.000000   0.000000   5.037380 )

     reciprocal axes: (cart. coord. in units 2 pi/alat)
               b(1) = (  1.000000  0.000000  0.000000 )
               b(2) = (  0.000000  0.765675  0.000000 )
               b(3) = (  0.000000  0.000000  0.198516 )

     PseudoPot. # 1 for O  read from file:
     /home/camp/zhonxu/pseudo/o_pbe_v1.01.uspp.F.UPF
     MD5 check sum: 2bcb18d16ea4b960afae9ec6d52f22d2
     Pseudo is Ultrasoft + core correction, Zval =  6.0
     Generated by new atomic code, or converted to UPF format
     Using radial grid of  737 points,  5 beta functions with:
                l(1) =   0
                l(2) =   0
                l(3) =   1
                l(4) =   1
                l(5) =   2
     Q(r) pseudized with  8 coefficients,  rinner =    0.900   0.900   0.900
                                                       0.900   0.900

     PseudoPot. # 2 for Re read from file:
     /home/camp/zhonxu/pseudo/re_pbe_v1.uspp.F.UPF
     MD5 check sum: 6f5a5dcaf9c96c20d0ffdde0de57afc6
     Pseudo is Ultrasoft + core correction, Zval = 15.0
     Generated by new atomic code, or converted to UPF format
     Using radial grid of  981 points,  8 beta functions with:
                l(1) =   0
                l(2) =   0
                l(3) =   1
                l(4) =   1
                l(5) =   2
                l(6) =   2
                l(7) =   3
                l(8) =   3
     Q(r) pseudized with  8 coefficients,  rinner =    1.000   1.000   1.000
                                                       1.000   1.000   1.000
                                                       1.000

     PseudoPot. # 3 for H  read from file:
     /home/camp/zhonxu/pseudo/h_pbe_v1.uspp.F.UPF
     MD5 check sum: 3408e3ff4ec8b0a4e358431e7e038a48
     Pseudo is Ultrasoft, Zval =  1.0
     Generated by new atomic code, or converted to UPF format
     Using radial grid of  615 points,  2 beta functions with:
                l(1) =   0
                l(2) =   0
     Q(r) pseudized with  8 coefficients,  rinner =    0.700

     atomic species   valence    mass     pseudopotential
        O0             6.00    15.99940     O ( 1.00)
        Re1           15.00   186.20700     Re( 1.00)
        H2             1.00     1.00794     H ( 1.00)

     Simplified LDA+U calculation (l_max = 2) with parameters (eV):
     atomic species    L          U    alpha       J0     beta
        Re1            2     0.0000   0.0000   0.0000   0.0000

     No symmetry found

   Cartesian axes

     site n.     atom                  positions (alat units)
         1           O0  tau(   1) = (   0.0000000   0.0000000   1.8646870  )
         2           O0  tau(   2) = (   0.0000000   0.6530184   1.9287121  )
         3           Re1 tau(   3) = (   0.2500000   0.6530184   2.2295948  )
         4           Re1 tau(   4) = (   0.0000000   0.0000000   2.2312068  )
         5           O0  tau(   5) = (   0.2500000   1.0187087   2.2244063  )
         6           O0  tau(   6) = (   0.2500000   0.2873281   2.2234996  )
         7           O0  tau(   7) = (   0.0000000   0.6530184   2.5067011  )
         8           O0  tau(   8) = (   0.0000000   0.0000000   2.5914802  )
         9           Re1 tau(   9) = (   0.2500000   0.0000000   2.8910532  )
        10           Re1 tau(  10) = (   0.0000000   0.6530184   2.8571012  )
        11           O0  tau(  11) = (   0.2500000   0.9403465   2.8803235  )
        12           O0  tau(  12) = (   0.2500000   0.3656903   2.8804747  )
        13           O0  tau(  13) = (   0.0000000   0.0000000   3.1540044  )
        14           O0  tau(  14) = (   0.5000000   0.0000000   1.8645359  )
        15           O0  tau(  15) = (   0.5000000   0.6530184   1.9300722  )
        16           Re1 tau(  16) = (   0.7500000   0.6530184   2.2295444  )
        17           Re1 tau(  17) = (   0.5000000   0.0000000   2.2295948  )
        18           O0  tau(  18) = (   0.7500000   1.0187087   2.2239529  )
        19           O0  tau(  19) = (   0.7500000   0.2873281   2.2238522  )
        20           O0  tau(  20) = (   0.5000000   0.6530184   2.5186397  )
        21           O0  tau(  21) = (   0.5000000   0.0000000   2.5912283  )
        22           Re1 tau(  22) = (   0.7500000   0.0000000   2.8912547  )
        23           Re1 tau(  23) = (   0.5000000   0.6530184   2.9058631  )
        24           O0  tau(  24) = (   0.7500000   0.9403465   2.8806762  )
        25           O0  tau(  25) = (   0.7500000   0.3656903   2.8804243  )
        26           O0  tau(  26) = (   0.5000000   0.0000000   3.1508309  )
        27           H2  tau(  27) = (  -0.0003300   0.8166387   1.8441345  )
        28           H2  tau(  28) = (   0.4996000   0.8128642   1.8387445  )
        29           H2  tau(  29) = (   0.1687200   0.0311098   1.7921991  )
        30           H2  tau(  30) = (   0.6701100   0.0285761   1.7932066  )
        31           O0  tau(  31) = (   0.4998900   0.6523393   3.2273487  )

     number of k points=    10  Methfessel-Paxton smearing, width (Ry)=  0.0100
                       cart. coord. in units 2pi/alat
        k(    1) = (   0.0000000   0.0000000   0.0000000), wk =   0.1250000
        k(    2) = (   0.0000000   0.1914188   0.0000000), wk =   0.2500000
        k(    3) = (   0.0000000  -0.3828376   0.0000000), wk =   0.1250000
        k(    4) = (   0.2500000   0.0000000   0.0000000), wk =   0.2500000
        k(    5) = (   0.2500000   0.1914188   0.0000000), wk =   0.2500000
        k(    6) = (   0.2500000  -0.3828376   0.0000000), wk =   0.2500000
        k(    7) = (  -0.5000000   0.0000000   0.0000000), wk =   0.1250000
        k(    8) = (  -0.5000000   0.1914188   0.0000000), wk =   0.2500000
        k(    9) = (  -0.5000000  -0.3828376   0.0000000), wk =   0.1250000
        k(   10) = (  -0.2500000   0.1914188   0.0000000), wk =   0.2500000

     Largest allocated arrays     est. size (Mb)     dimensions
     Largest temporary arrays     est. size (Mb)     dimensions

     Check: negative/imaginary core charge=   -0.000003    0.000000

     Initial potential from superposition of free atoms
     Check: negative starting charge=   -0.237495

     starting charge  233.99958, renormalised to  238.00000

     negative rho (up, down):  0.242E+00 0.000E+00
     Number of +U iterations with fixed ns =  0
     Starting occupations:
 --- enter write_ns ---
 LDA+U parameters:
U( 2)     =  0.00000000
alpha( 2) =  0.00000000
atom    3   Tr[ns(na)] =   5.00000
    eigenvalues:
  0.500  0.500  0.500  0.500  0.500
    eigenvectors:
  1.000  0.000  0.000  0.000  0.000
  0.000  1.000  0.000  0.000  0.000
  0.000  0.000  1.000  0.000  0.000
  0.000  0.000  0.000  1.000  0.000
  0.000  0.000  0.000  0.000  1.000
    occupations:
  0.500  0.000  0.000  0.000  0.000
  0.000  0.500  0.000  0.000  0.000
  0.000  0.000  0.500  0.000  0.000
  0.000  0.000  0.000  0.500  0.000
  0.000  0.000  0.000  0.000  0.500
atom    4   Tr[ns(na)] =   5.00000
    eigenvalues:
  0.500  0.500  0.500  0.500  0.500
    eigenvectors:
  1.000  0.000  0.000  0.000  0.000
  0.000  1.000  0.000  0.000  0.000
  0.000  0.000  1.000  0.000  0.000
  0.000  0.000  0.000  1.000  0.000
  0.000  0.000  0.000  0.000  1.000
    occupations:
  0.500  0.000  0.000  0.000  0.000
  0.000  0.500  0.000  0.000  0.000
  0.000  0.000  0.500  0.000  0.000
  0.000  0.000  0.000  0.500  0.000
  0.000  0.000  0.000  0.000  0.500
atom    9   Tr[ns(na)] =   5.00000
    eigenvalues:
  0.500  0.500  0.500  0.500  0.500
    eigenvectors:
  1.000  0.000  0.000  0.000  0.000
  0.000  1.000  0.000  0.000  0.000
  0.000  0.000  1.000  0.000  0.000
  0.000  0.000  0.000  1.000  0.000
  0.000  0.000  0.000  0.000  1.000
    occupations:
  0.500  0.000  0.000  0.000  0.000
  0.000  0.500  0.000  0.000  0.000
  0.000  0.000  0.500  0.000  0.000
  0.000  0.000  0.000  0.500  0.000
  0.000  0.000  0.000  0.000  0.500
atom   10   Tr[ns(na)] =   5.00000
    eigenvalues:
  0.500  0.500  0.500  0.500  0.500
    eigenvectors:
  1.000  0.000  0.000  0.000  0.000
  0.000  1.000  0.000  0.000  0.000
  0.000  0.000  1.000  0.000  0.000
  0.000  0.000  0.000  1.000  0.000
  0.000  0.000  0.000  0.000  1.000
    occupations:
  0.500  0.000  0.000  0.000  0.000
  0.000  0.500  0.000  0.000  0.000
  0.000  0.000  0.500  0.000  0.000
  0.000  0.000  0.000  0.500  0.000
  0.000  0.000  0.000  0.000  0.500
atom   16   Tr[ns(na)] =   5.00000
    eigenvalues:
  0.500  0.500  0.500  0.500  0.500
    eigenvectors:
  1.000  0.000  0.000  0.000  0.000
  0.000  1.000  0.000  0.000  0.000
  0.000  0.000  1.000  0.000  0.000
  0.000  0.000  0.000  1.000  0.000
  0.000  0.000  0.000  0.000  1.000
    occupations:
  0.500  0.000  0.000  0.000  0.000
  0.000  0.500  0.000  0.000  0.000
  0.000  0.000  0.500  0.000  0.000
  0.000  0.000  0.000  0.500  0.000
  0.000  0.000  0.000  0.000  0.500
atom   17   Tr[ns(na)] =   5.00000
    eigenvalues:
  0.500  0.500  0.500  0.500  0.500
    eigenvectors:
  1.000  0.000  0.000  0.000  0.000
  0.000  1.000  0.000  0.000  0.000
  0.000  0.000  1.000  0.000  0.000
  0.000  0.000  0.000  1.000  0.000
  0.000  0.000  0.000  0.000  1.000
    occupations:
  0.500  0.000  0.000  0.000  0.000
  0.000  0.500  0.000  0.000  0.000
  0.000  0.000  0.500  0.000  0.000
  0.000  0.000  0.000  0.500  0.000
  0.000  0.000  0.000  0.000  0.500
atom   22   Tr[ns(na)] =   5.00000
    eigenvalues:
  0.500  0.500  0.500  0.500  0.500
    eigenvectors:
  1.000  0.000  0.000  0.000  0.000
  0.000  1.000  0.000  0.000  0.000
  0.000  0.000  1.000  0.000  0.000
  0.000  0.000  0.000  1.000  0.000
[...]
    eigenvectors:
  0.000  0.980  0.000  0.001  0.019
  0.000  0.001  0.007  0.992  0.000
  0.000  0.000  0.993  0.007  0.000
  0.000  0.019  0.000  0.000  0.981
  1.000  0.000  0.000  0.000  0.000
    occupations:
  0.603  0.003  0.000 -0.022  0.000
  0.003  0.692  0.006 -0.000 -0.001
  0.000  0.006  0.625  0.000 -0.000
 -0.022 -0.000  0.000  0.760 -0.000
  0.000 -0.001 -0.000 -0.000  0.563
atom    9   Tr[ns(na)] =   6.49787
    eigenvalues:
  0.591  0.605  0.620  0.699  0.733
    eigenvectors:
  0.271  0.000  0.000  0.000  0.729
  0.000  1.000  0.000  0.000  0.000
  0.000  0.000  0.986  0.014  0.000
  0.729  0.000  0.000  0.000  0.271
  0.000  0.000  0.014  0.985  0.000
    occupations:
  0.695 -0.000 -0.000 -0.063  0.000
 -0.000  0.605  0.000  0.000  0.000
 -0.000  0.000  0.621  0.000 -0.010
 -0.063  0.000  0.000  0.630 -0.000
  0.000  0.000 -0.010 -0.000  0.698
atom   10   Tr[ns(na)] =   6.46206
    eigenvalues:
  0.498  0.546  0.666  0.720  0.802
    eigenvectors:
  0.998  0.000  0.000  0.002  0.000
  0.000  0.000  0.000  0.000  1.000
  0.000  0.000  1.000  0.000  0.000
  0.002  0.000  0.000  0.998  0.000
  0.000  1.000  0.000  0.000  0.000
    occupations:
  0.498  0.000  0.000 -0.011 -0.000
  0.000  0.802  0.001 -0.000  0.000
  0.000  0.001  0.666 -0.000  0.000
 -0.011 -0.000 -0.000  0.720 -0.000
 -0.000  0.000  0.000 -0.000  0.546
atom   16   Tr[ns(na)] =   6.50152
    eigenvalues:
  0.545  0.572  0.640  0.740  0.755
    eigenvectors:
  0.001  0.378  0.004  0.003  0.613
  0.998  0.000  0.000  0.001  0.001
  0.000  0.000  0.992  0.000  0.008
  0.000  0.621  0.004  0.002  0.372
  0.001  0.000  0.000  0.993  0.006
    occupations:
  0.685  0.004  0.009 -0.088 -0.001
  0.004  0.545 -0.001 -0.003 -0.006
  0.009 -0.001  0.641 -0.006  0.000
 -0.088 -0.003 -0.006  0.640  0.001
 -0.001 -0.006  0.000  0.001  0.740
atom   17   Tr[ns(na)] =   6.47815
    eigenvalues:
  0.564  0.603  0.618  0.689  0.765
    eigenvectors:
  0.000  0.981  0.000  0.001  0.017
  0.000  0.001  0.005  0.994  0.000
  0.000  0.000  0.995  0.005  0.000
  0.000  0.017  0.000  0.000  0.982
  1.000  0.000  0.000  0.000  0.000
    occupations:
  0.605  0.002  0.000 -0.021  0.000
  0.002  0.689  0.005 -0.000 -0.001
  0.000  0.005  0.618  0.002 -0.000
 -0.021 -0.000  0.002  0.763 -0.000
  0.000 -0.001 -0.000 -0.000  0.564
atom   22   Tr[ns(na)] =   6.49502
    eigenvalues:
  0.591  0.605  0.620  0.699  0.732
    eigenvectors:
  0.271  0.000  0.000  0.002  0.727
  0.000  1.000  0.000  0.000  0.000
  0.000  0.000  0.985  0.015  0.000
  0.729  0.000  0.000  0.001  0.270
  0.000  0.000  0.015  0.982  0.003
    occupations:
  0.694  0.001 -0.000 -0.062  0.002
  0.001  0.605  0.000 -0.000  0.000
 -0.000  0.000  0.621  0.000  0.010
 -0.062 -0.000  0.000  0.629 -0.001
  0.002  0.000  0.010 -0.001  0.698
atom   23   Tr[ns(na)] =   6.51345
    eigenvalues:
  0.578  0.604  0.628  0.647  0.800
    eigenvectors:
  0.000  0.000  0.000  0.978  0.022
  0.000  0.000  1.000  0.000  0.000
  0.000  1.000  0.000  0.000  0.000
  0.000  0.000  0.000  0.022  0.978
  1.000  0.000  0.000  0.000  0.000
    occupations:
  0.650  0.000 -0.000 -0.022 -0.000
  0.000  0.628 -0.000 -0.000  0.001
 -0.000 -0.000  0.604  0.000  0.000
 -0.022 -0.000  0.000  0.797 -0.000
 -0.000  0.001  0.000 -0.000  0.578
N of occupied +U levels =  51.9356312
 --- exit write_ns ---

[...]

     total energy              =   -2175.37401225 Ry
     Harris-Foulkes estimate   =   -2175.37401237 Ry
     estimated scf accuracy    <       0.00000109 Ry

     iteration #  8     ecut=    40.00 Ry     beta=0.70
     Davidson diagonalization with overlap
     ethr =  4.59E-10,  avg # of iterations =  1.0

     negative rho (up, down):  0.249E+00 0.000E+00

     End of self-consistent calculation
 --- enter write_ns ---
 LDA+U parameters:
U( 2)     =  0.00000000
alpha( 2) =  0.00000000
atom    3   Tr[ns(na)] =   6.50916
    eigenvalues:
  0.545  0.572  0.641  0.743  0.755
    eigenvectors:
  0.001  0.378  0.004  0.005  0.612
  0.998  0.000  0.000  0.001  0.001
  0.000  0.000  0.992  0.000  0.008
  0.000  0.622  0.004  0.003  0.371
  0.001  0.000  0.000  0.991  0.008
    occupations:
  0.685 -0.004  0.008 -0.088  0.001
 -0.004  0.545  0.001  0.003 -0.006
  0.008  0.001  0.642 -0.006  0.000
 -0.088  0.003 -0.006  0.641 -0.001
  0.001 -0.006  0.000 -0.001  0.743
atom    4   Tr[ns(na)] =   6.48775
    eigenvalues:
  0.564  0.600  0.625  0.692  0.763
    eigenvectors:
  0.000  0.980  0.000  0.001  0.020
  0.000  0.001  0.007  0.992  0.000
  0.000  0.000  0.993  0.007  0.000
  0.000  0.019  0.000  0.000  0.980
  1.000  0.000  0.000  0.000  0.000
    occupations:
  0.603  0.003  0.000 -0.023  0.000
  0.003  0.692  0.006 -0.000 -0.001
  0.000  0.006  0.625  0.000 -0.000
 -0.023 -0.000  0.000  0.760 -0.000
  0.000 -0.001 -0.000 -0.000  0.564
atom    9   Tr[ns(na)] =   6.49177
    eigenvalues:
  0.591  0.605  0.619  0.698  0.733
    eigenvectors:
  0.271  0.000  0.000  0.000  0.729
  0.000  1.000  0.000  0.000  0.000
  0.000  0.000  0.985  0.015  0.000
  0.729  0.000  0.000  0.000  0.271
  0.000  0.000  0.015  0.985  0.000
    occupations:
  0.694 -0.000 -0.000 -0.063  0.000
 -0.000  0.605  0.000  0.000  0.000
 -0.000  0.000  0.620  0.000 -0.010
 -0.063  0.000  0.000  0.630 -0.000
  0.000  0.000 -0.010 -0.000  0.697
atom   10   Tr[ns(na)] =   6.45921
    eigenvalues:
  0.498  0.546  0.665  0.720  0.801
    eigenvectors:
  0.998  0.000  0.000  0.002  0.000
  0.000  0.000  0.000  0.000  1.000
  0.000  0.000  1.000  0.000  0.000
  0.002  0.000  0.000  0.998  0.000
  0.000  1.000  0.000  0.000  0.000
    occupations:
  0.498  0.000  0.000 -0.011 -0.000
  0.000  0.801  0.001 -0.000  0.000
  0.000  0.001  0.665 -0.000  0.000
 -0.011 -0.000 -0.000  0.719 -0.000
 -0.000  0.000  0.000 -0.000  0.546
atom   16   Tr[ns(na)] =   6.50939
    eigenvalues:
  0.545  0.572  0.641  0.743  0.755
    eigenvectors:
  0.001  0.378  0.004  0.005  0.612
  0.998  0.000  0.000  0.001  0.001
  0.000  0.000  0.992  0.000  0.008
  0.000  0.621  0.004  0.003  0.371
  0.001  0.000  0.000  0.991  0.008
    occupations:
  0.685  0.004  0.009 -0.088 -0.001
  0.004  0.545 -0.001 -0.003 -0.006
  0.009 -0.001  0.642 -0.006 -0.000
 -0.088 -0.003 -0.006  0.641  0.001
 -0.001 -0.006 -0.000  0.001  0.743
atom   17   Tr[ns(na)] =   6.47985
    eigenvalues:
  0.564  0.603  0.618  0.689  0.766
    eigenvectors:
  0.000  0.981  0.000  0.001  0.018
  0.000  0.001  0.005  0.994  0.000
  0.000  0.000  0.995  0.005  0.000
  0.000  0.018  0.000  0.000  0.982
  1.000  0.000  0.000  0.000  0.000
    occupations:
  0.605  0.002  0.000 -0.021  0.000
  0.002  0.689  0.005 -0.000 -0.001
  0.000  0.005  0.619  0.002 -0.000
 -0.021 -0.000  0.002  0.763 -0.000
  0.000 -0.001 -0.000 -0.000  0.564
atom   22   Tr[ns(na)] =   6.49096
    eigenvalues:
  0.591  0.605  0.619  0.698  0.732
    eigenvectors:
  0.271  0.000  0.000  0.002  0.727
  0.000  1.000  0.000  0.000  0.000
  0.000  0.000  0.984  0.015  0.000
  0.729  0.000  0.000  0.001  0.270
  0.000  0.000  0.015  0.981  0.003
    occupations:
  0.694  0.001 -0.000 -0.062  0.002
  0.001  0.605  0.000 -0.000  0.000
 -0.000  0.000  0.620  0.000  0.010
 -0.062 -0.000  0.000  0.629 -0.001
  0.002  0.000  0.010 -0.001  0.697
atom   23   Tr[ns(na)] =   6.50860
    eigenvalues:
  0.578  0.604  0.626  0.647  0.800
    eigenvectors:
  0.000  0.000  0.000  0.978  0.022
  0.000  0.000  1.000  0.000  0.000
  0.000  1.000  0.000  0.000  0.000
  0.000  0.000  0.000  0.022  0.978
  1.000  0.000  0.000  0.000  0.000
    occupations:
  0.650  0.000 -0.000 -0.022 -0.000
  0.000  0.626 -0.000 -0.000  0.001
 -0.000 -0.000  0.604  0.000  0.000
 -0.022 -0.000  0.000  0.797 -0.000
 -0.000  0.001  0.000 -0.000  0.578
N of occupied +U levels =  51.9366859
 --- exit write_ns ---

[...]

          k = 0.2500-0.3828 0.0000 ( 29202 PWs)   bands (ev):

[...]

          k =-0.2500 0.1914 0.0000 ( 29229 PWs)   bands (ev):

   -82.3507 -81.7873 -81.7023 -81.5656 -81.5256 -81.3533 -81.3143 -81.2619
   -44.4761 -44.1930 -44.0747 -43.8741 -43.7354 -43.6732 -43.6663 -43.5725
   -43.5473 -43.5454 -43.4835 -43.4568 -43.3794 -43.3201 -43.2742 -43.2612
   -43.2468 -43.2297 -43.2135 -43.1940 -43.1914 -43.0989 -43.0247 -42.8321
   -21.1184 -20.6856 -20.6129 -20.4874 -20.4176 -20.0759 -20.0555 -20.0209
   -19.7736 -19.7478 -19.6741 -19.6062 -19.4986 -19.4043 -19.3518 -19.1325
   -18.6081 -18.4932 -18.3334  -9.2498  -9.0267  -8.9625  -8.8248  -8.6770
    -8.6628  -8.5330  -8.3765  -8.2468  -8.0192  -7.9570  -7.7169  -7.6499
    -7.5511  -7.3924  -7.2472  -7.1423  -6.9894  -6.8955  -6.7144  -6.6642
    -6.4203  -6.3198  -6.2070  -6.0453  -5.9456  -5.8568  -5.7642  -5.6802
    -5.4363  -5.3977  -5.3269  -5.2653  -5.1907  -5.0163  -4.9775  -4.8997
    -4.8493  -4.7186  -4.6091  -4.4243  -4.3888  -4.1928  -4.1403  -4.0514
    -4.0073  -3.9005  -3.8397  -3.6837  -3.6438  -3.5769  -3.4994  -3.3220
    -3.1728  -3.0185  -2.9230  -2.8121  -2.3229  -2.2937  -2.0439  -1.1520
    -1.1138  -1.0181  -0.8121  -0.2752  -0.2061   0.2738   0.3430   0.3961
     0.5587   0.5797   0.7198   0.8962   1.0783   1.1914   1.2764   1.3853
     1.4210   1.6863   1.7086   1.8930   2.1080   3.2009   3.3553   3.4016
     3.5432   3.6203   3.7829   4.0628   4.1767   4.3261   4.4132   4.6183
     4.7738   5.2026   5.4100   5.4863   5.7132   5.8513   6.0485   6.1307
     6.2140   6.3950   6.6200   6.8792   7.0909   7.2303   7.4001   7.6069
     7.6268   7.8050   8.0212   8.1291   8.1921   8.3327   8.5144   8.5793
     8.6336   8.6957   8.9016   8.9952   9.1466   9.3402   9.4420   9.5598
     9.6346   9.7390   9.8075   9.8660   9.9056  10.0043  10.0348  10.1495
    10.2327  10.2916  10.3779  10.4204  10.5157  10.6570  10.7749  10.9135
    10.9893  11.0877  11.1565  11.3380  11.3640  11.5278  11.5876  11.7773
    11.8272  11.9371  12.0643  12.2219  12.3313  12.5080  12.5375  12.5833
    12.6642  12.7144  12.7930  12.8454  12.9650  13.0560  13.0888  13.2423
    13.3248  13.4612  13.5355  13.5678  13.6640  13.7229  13.7541  13.8034
    13.8520  13.9037  14.0183  14.1109  14.1367  14.2007  14.2392  14.3844
    14.4114  14.4566  14.5094  14.6398  14.6593  14.7778  14.8359  14.9013
    14.9773  15.0145  15.0686  15.1457  15.1870  15.2236  15.2922  15.4624
    15.5137  15.5798  15.6560  15.7766  15.8907  16.0272  16.0791  16.1410
    16.2134  16.2909  16.3336  16.4246  16.5054  16.5472  16.6117  16.6520
    16.7643  16.8595  16.9028  17.0325  17.1167  17.1721  17.2325  17.3570
    17.4448  17.4869  17.5971  17.6851  17.7235  17.8017  17.8910  17.9257
    17.9900  18.0795  18.1169  18.1616  18.2816  18.2990  18.3367  18.4148
    18.5046  18.5886  18.6559  18.7209  18.7816  18.8800  18.9440  19.0063
    19.1048  19.1644  19.2541  19.4145  19.4668  19.5552  19.6284  19.6821
    19.7754  19.8890  19.9663  20.0368  20.0847  20.1778  20.2037  20.3104
    20.4175  20.4716  20.5675  20.5902  20.6421  20.6916  20.7926  20.8670
    20.9392  21.0244  21.0973  21.1605  21.1884  21.2558  21.2979  21.3574
    21.4231  21.4799  21.5481  21.6074  21.6286  21.7344  21.8173  21.9015
    21.9569  22.0380  22.0746  22.1641  22.1940  22.2331  22.3114  22.3997
    22.4245  22.4699  22.5146  22.5475  22.6242  22.6746  22.7170  22.7785
    22.8089  22.8620  22.9149  22.9815  23.0332

     the Fermi energy is     0.3065 ev

!    total energy              =   -2175.37401201 Ry
     Harris-Foulkes estimate   =   -2175.37401233 Ry
     estimated scf accuracy    <       0.00000033 Ry

     The total energy is the sum of the following terms:

     one-electron contribution =  -24184.83836082 Ry
     hartree contribution      =   12106.29391033 Ry
     xc contribution           =    -594.17750194 Ry
     ewald contribution        =   10497.34924996 Ry
     Hubbard energy            =       0.00000000 Ry
     smearing contrib. (-TS)   =      -0.00130954 Ry

     convergence has been achieved in   8 iterations

     Forces acting on atoms (Ry/au):

     negative rho (up, down):  0.249E+00 0.000E+00
     atom    1 type  1   force =    -0.00593910   -0.00711879    0.00003319
     atom    2 type  1   force =     0.00008339    0.00475211   -0.00009151
     atom    3 type  2   force =     0.03285531   -0.00292323   -0.00018394
     atom    4 type  2   force =     0.00187532    0.00801267    0.00017428
     atom    5 type  1   force =     0.00375903    0.01092700    0.00018837
     atom    6 type  1   force =     0.00222574   -0.01187511    0.00019757
     atom    7 type  1   force =    -0.00000812   -0.00027588   -0.00014508
     atom    8 type  1   force =     0.00256519   -0.00131671    0.00017876
     atom    9 type  2   force =    -0.01951081    0.00184117   -0.00033340
     atom   10 type  2   force =    -0.00011872   -0.00072106   -0.00019882
     atom   11 type  1   force =    -0.01239093   -0.02115297    0.00000059
     atom   12 type  1   force =    -0.01311559    0.02099311    0.00002041
     atom   13 type  1   force =    -0.00045482   -0.00035365   -0.00010755
     atom   14 type  1   force =    -0.00248872   -0.00653904   -0.00004840
     atom   15 type  1   force =    -0.00008429    0.00276881   -0.00003850
     atom   16 type  2   force =    -0.03318014   -0.00278602   -0.00012470
     atom   17 type  2   force =     0.00158742    0.00878686    0.00008090
     atom   18 type  1   force =    -0.00018915    0.01081468    0.00014045
     atom   19 type  1   force =    -0.00183181   -0.01161141    0.00018897
     atom   20 type  1   force =    -0.00006291   -0.00145954   -0.00064235
     atom   21 type  1   force =     0.00309688   -0.00200937    0.00017170
     atom   22 type  2   force =     0.01615869    0.00203283   -0.00027474
     atom   23 type  2   force =     0.00008098   -0.00009680    0.00022302
     atom   24 type  1   force =     0.01276984   -0.02124638   -0.00001073
     atom   25 type  1   force =     0.01274755    0.02074948    0.00002322
     atom   26 type  1   force =    -0.00046986   -0.00070481   -0.00077491
     atom   27 type  3   force =     0.00001234    0.00030657    0.00043486
     atom   28 type  3   force =    -0.00000121    0.00033838    0.00062989
     atom   29 type  3   force =    -0.00003330   -0.00004863    0.00009044
     atom   30 type  3   force =     0.00005289   -0.00008130    0.00007050
     atom   31 type  1   force =     0.00000890   -0.00000296    0.00012752

     Total force =     0.001565     Total SCF correction =     0.002487
     SCF correction compared to forces is large: reduce conv_thr to get better values

     bfgs converged in   2 scf cycles and   1 bfgs steps
     (criteria: energy < 0.10E-03, force < 0.10E-02)

     End of BFGS Geometry Optimization

     Final energy   =   -2175.3740120142 Ry
Begin final coordinates

ATOMIC_POSITIONS (crystal)
O0       0.000000000   0.000000000   0.370174786    0   0   1
O0       0.000000000   0.500000000   0.382876375    0   0   1
Re1      0.250000000   0.500000000   0.442604555    0   0   1
Re1      0.000000000   0.000000000   0.442928810    0   0   1
O0       0.250000000   0.780000000   0.441584454    0   0   1
O0       0.250000000   0.220000000   0.441404649    0   0   1
O0       0.000000000   0.500000000   0.497618175    0   0   1
O0       0.000000000   0.000000000   0.514459309    0   0   1
Re1      0.250000000   0.000000000   0.573912353    0   0   1
Re1      0.000000000   0.500000000   0.567173887    0   0   1
O0       0.250000000   0.720000000   0.571790555    0   0   1
O0       0.250000000   0.280000000   0.571820994    0   0   1
O0       0.000000000   0.000000000   0.626120609    0   0   1
O0       0.500000000   0.000000000   0.370141713    0   0   1
O0       0.500000000   0.500000000   0.383151429    0   0   1
Re1      0.750000000   0.500000000   0.442597268    0   0   1
Re1      0.500000000   0.000000000   0.442608469    0   0   1
O0       0.750000000   0.780000000   0.441493209    0   0   1
O0       0.750000000   0.220000000   0.441474274    0   0   1
O0       0.500000000   0.500000000   0.499973536    0   0   1
O0       0.500000000   0.000000000   0.514408085    0   0   1
Re1      0.750000000   0.000000000   0.573952169    0   0   1
Re1      0.500000000   0.500000000   0.576861198    0   0   1
O0       0.750000000   0.720000000   0.571860217    0   0   1
O0       0.750000000   0.280000000   0.571811017    0   0   1
O0       0.500000000   0.000000000   0.625470397    0   0   1
H2      -0.000328742   0.625292123   0.366100927
H2       0.499599547   0.622427590   0.365031326
H2       0.168730465   0.023818205   0.355780299
H2       0.670134103   0.021876300   0.355979520
O0       0.499890029   0.499479751   0.640685434
End final coordinates

     General routines

     Parallel routines
     Hubbard U routines

   This run was terminated on:  12: 1:41  10May2014

   JOB DONE.