     Program PWSCF v.5.0.2 (svn rev. 9656) starts on 29May2014 at 23:46:22

     Current dimensions of program PWSCF are:
     Max number of different atomic species (ntypx) = 10
     Max number of k-points (npk) =  40000
     Max angular momentum in pseudopotentials (lmaxx) =  3
     Reading input from pwscf.in
Warning: card &CELL ignored
Warning: card / ignored

     Subspace diagonalization in iterative solution of the eigenvalue problem:
     a serial algorithm will be used

     bravais-lattice index     =            0
     lattice parameter (alat)  =      12.0187  a.u.
     unit-cell volume          =    7280.5819 (a.u.)^3
     number of atoms/cell      =           33
     number of atomic types    =            3
     number of electrons       =       245.00
     number of Kohn-Sham states=          367
     kinetic-energy cutoff     =      40.0000  Ry
     charge density cutoff     =     500.0000  Ry
     convergence threshold     =      1.0E-06
     mixing beta               =       0.7000
     number of iterations used =            8  plain     mixing
     Exchange-correlation      = SLA  PW   PBE  PBE ( 1 4 3 4 0)
     EXX-fraction              =        0.00
     nstep                     =           50

     celldm(1)=  12.018658  celldm(2)=   0.000000  celldm(3)=   0.000000
     celldm(4)=   0.000000  celldm(5)=   0.000000  celldm(6)=   0.000000

     crystal axes: (cart. coord. in units of alat)
               a(1) = (   1.000000   0.000000   0.000000 )
               a(2) = (   0.000000   1.009517   0.000000 )
               a(3) = (   0.000000   0.000000   4.154171 )

     reciprocal axes: (cart. coord. in units 2 pi/alat)
               b(1) = (  1.000000  0.000000  0.000000 )
               b(2) = (  0.000000  0.990572  0.000000 )
               b(3) = (  0.000000  0.000000  0.240722 )

     PseudoPot. # 1 for O  read from file:
     /home/camp/zhonxu/pseudo/o_pbe_v1.01.uspp.F.UPF
     MD5 check sum: 2bcb18d16ea4b960afae9ec6d52f22d2
     Pseudo is Ultrasoft + core correction, Zval =  6.0
     Generated by new atomic code, or converted to UPF format
     Using radial grid of  737 points,  5 beta functions with:
                l(1) =   0
                l(2) =   0
                l(3) =   1
                l(4) =   1
                l(5) =   2
     Q(r) pseudized with  8 coefficients,  rinner =    0.900   0.900   0.900
                                                       0.900   0.900

     PseudoPot. # 2 for Ir read from file:
     /home/camp/zhonxu/pseudo/ir_pbe_v1.uspp.F.UPF
     MD5 check sum: abf987a9674477536ede83817f8f8b70
     Pseudo is Ultrasoft + core correction, Zval = 15.0
     Generated by new atomic code, or converted to UPF format
     Using radial grid of  983 points,  7 beta functions with:
                l(1) =   0
                l(2) =   0
                l(3) =   1
                l(4) =   1
                l(5) =   1
                l(6) =   2
                l(7) =   2
     Q(r) pseudized with  8 coefficients,  rinner =    1.350   1.350   1.350
                                                       1.350   1.350

     PseudoPot. # 3 for H  read from file:
     /home/camp/zhonxu/pseudo/h_pbe_v1.uspp.F.UPF
     MD5 check sum: 3408e3ff4ec8b0a4e358431e7e038a48
     Pseudo is Ultrasoft, Zval =  1.0
     Generated by new atomic code, or converted to UPF format
     Using radial grid of  615 points,  2 beta functions with:
                l(1) =   0
                l(2) =   0
     Q(r) pseudized with  8 coefficients,  rinner =    0.700

     atomic species   valence    mass     pseudopotential
        O0             6.00    15.99940     O ( 1.00)
        Ir1           15.00   192.22000     Ir( 1.00)
        H2             1.00     1.00794     H ( 1.00)

     Simplified LDA+U calculation (l_max = 2) with parameters (eV):
     atomic species    L          U    alpha       J0     beta
        Ir1            2     5.0000   0.0000   0.0000   0.0000

     No symmetry found

   Cartesian axes

     site n.     atom                  positions (alat units)
         1           O0  tau(   1) = (   0.0000000   0.0000000   1.5694875  )
         2           O0  tau(   2) = (   0.0000000   0.5047586   1.6702677  )
         3           Ir1 tau(   3) = (   0.2500000   0.5047586   1.8805934  )
         4           Ir1 tau(   4) = (   0.0000000   0.0000000   1.8807595  )
         5           O0  tau(   5) = (   0.2500000   0.8177090   1.8801779  )
         6           O0  tau(   6) = (   0.2500000   0.1918083   1.8787655  )
         7           O0  tau(   7) = (   0.0000000   0.5047586   2.0695666  )
         8           O0  tau(   8) = (   0.0000000   0.0000000   2.1948564  )
         9           Ir1 tau(   9) = (   0.2500000   0.0000000   2.3901025  )
        10           Ir1 tau(  10) = (   0.0000000   0.5047586   2.3742751  )
        11           O0  tau(  11) = (   0.2500000   0.6965669   2.3856575  )
        12           O0  tau(  12) = (   0.2500000   0.3129503   2.3949628  )
        13           O0  tau(  13) = (   0.0000000   0.0000000   2.5754200  )
        14           O0  tau(  14) = (   0.5000000   0.0000000   1.5694875  )
        15           O0  tau(  15) = (   0.5000000   0.5047586   1.6704338  )
        16           Ir1 tau(  16) = (   0.7500000   0.5047586   1.8805934  )
        17           Ir1 tau(  17) = (   0.5000000   0.0000000   1.8805518  )
        18           O0  tau(  18) = (   0.7500000   0.8177090   1.8801364  )
        19           O0  tau(  19) = (   0.7500000   0.1918083   1.8788486  )
        20           O0  tau(  20) = (   0.5000000   0.5047586   2.0759640  )
        21           O0  tau(  21) = (   0.5000000   0.0000000   2.1945241  )
        22           Ir1 tau(  22) = (   0.7500000   0.0000000   2.3900609  )
        23           Ir1 tau(  23) = (   0.5000000   0.5047586   2.3998648  )
        24           O0  tau(  24) = (   0.7500000   0.6965669   2.3856575  )
        25           O0  tau(  25) = (   0.7500000   0.3129503   2.3949628  )
        26           O0  tau(  26) = (   0.5000000   0.0000000   2.5728445  )
        27           H2  tau(  27) = (   0.0000400   0.6420328   1.5957418  )
        28           H2  tau(  28) = (   0.4999400   0.6424971   1.5965311  )
        29           H2  tau(  29) = (   0.1432100   0.0360095   1.5217560  )
        30           H2  tau(  30) = (   0.6436700   0.0339703   1.5215899  )
        31           O0  tau(  31) = (   0.4997900   0.5432313   2.6993805  )
        32           O0  tau(  32) = (   0.5001800   0.3480815   2.8224271  )
        33           H2  tau(  33) = (   0.4999800   0.4114489   2.9642920  )

     number of k points=    10  Methfessel-Paxton smearing, width (Ry)=  0.0100
                       cart. coord. in units 2pi/alat
        k(    1) = (   0.0000000   0.0000000   0.0000000), wk =   0.1250000
        k(    2) = (   0.0000000   0.2476431   0.0000000), wk =   0.2500000
        k(    3) = (   0.0000000  -0.4952862   0.0000000), wk =   0.1250000
        k(    4) = (   0.2500000   0.0000000   0.0000000), wk =   0.2500000
        k(    5) = (   0.2500000   0.2476431   0.0000000), wk =   0.2500000
        k(    6) = (   0.2500000  -0.4952862   0.0000000), wk =   0.2500000
        k(    7) = (  -0.5000000   0.0000000   0.0000000), wk =   0.1250000
        k(    8) = (  -0.5000000   0.2476431   0.0000000), wk =   0.2500000
        k(    9) = (  -0.5000000  -0.4952862   0.0000000), wk =   0.1250000
        k(   10) = (  -0.2500000   0.2476431   0.0000000), wk =   0.2500000

     Largest allocated arrays     est. size (Mb)     dimensions
     Largest temporary arrays     est. size (Mb)     dimensions

     Check: negative/imaginary core charge=   -0.000003    0.000000

     Initial potential from superposition of free atoms
     Check: negative starting charge=   -3.336869

     starting charge  240.99967, renormalised to  245.00000

     negative rho (up, down):  0.339E+01 0.000E+00
     Number of +U iterations with fixed ns =  0
     Starting occupations:
 --- enter write_ns ---
 LDA+U parameters:
U( 2)     =  5.00000000
alpha( 2) =  0.00000000
atom    3   Tr[ns(na)] =   7.00000
    eigenvalues:
  0.700  0.700  0.700  0.700  0.700
    eigenvectors:
  1.000  0.000  0.000  0.000  0.000
  0.000  1.000  0.000  0.000  0.000
  0.000  0.000  1.000  0.000  0.000
  0.000  0.000  0.000  1.000  0.000
  0.000  0.000  0.000  0.000  1.000
    occupations:
  0.700  0.000  0.000  0.000  0.000
  0.000  0.700  0.000  0.000  0.000
  0.000  0.000  0.700  0.000  0.000
  0.000  0.000  0.000  0.700  0.000
  0.000  0.000  0.000  0.000  0.700
atom    4   Tr[ns(na)] =   7.00000
    eigenvalues:
  0.700  0.700  0.700  0.700  0.700
    eigenvectors:
  1.000  0.000  0.000  0.000  0.000
  0.000  1.000  0.000  0.000  0.000
  0.000  0.000  1.000  0.000  0.000
  0.000  0.000  0.000  1.000  0.000
  0.000  0.000  0.000  0.000  1.000
    occupations:
  0.700  0.000  0.000  0.000  0.000
  0.000  0.700  0.000  0.000  0.000
  0.000  0.000  0.700  0.000  0.000
  0.000  0.000  0.000  0.700  0.000
  0.000  0.000  0.000  0.000  0.700
atom    9   Tr[ns(na)] =   7.00000
    eigenvalues:
  0.700  0.700  0.700  0.700  0.700
    eigenvectors:
  1.000  0.000  0.000  0.000  0.000
  0.000  1.000  0.000  0.000  0.000
  0.000  0.000  1.000  0.000  0.000
  0.000  0.000  0.000  1.000  0.000
  0.000  0.000  0.000  0.000  1.000
    occupations:
  0.700  0.000  0.000  0.000  0.000
  0.000  0.700  0.000  0.000  0.000
  0.000  0.000  0.700  0.000  0.000
  0.000  0.000  0.000  0.700  0.000
  0.000  0.000  0.000  0.000  0.700
atom   10   Tr[ns(na)] =   7.00000
    eigenvalues:
  0.700  0.700  0.700  0.700  0.700
    eigenvectors:
  1.000  0.000  0.000  0.000  0.000
  0.000  1.000  0.000  0.000  0.000
  0.000  0.000  1.000  0.000  0.000
  0.000  0.000  0.000  1.000  0.000
  0.000  0.000  0.000  0.000  1.000
    occupations:
  0.700  0.000  0.000  0.000  0.000
  0.000  0.700  0.000  0.000  0.000
  0.000  0.000  0.700  0.000  0.000
  0.000  0.000  0.000  0.700  0.000
  0.000  0.000  0.000  0.000  0.700
atom   16   Tr[ns(na)] =   7.00000
    eigenvalues:
  0.700  0.700  0.700  0.700  0.700
    eigenvectors:
  1.000  0.000  0.000  0.000  0.000
  0.000  1.000  0.000  0.000  0.000
  0.000  0.000  1.000  0.000  0.000
  0.000  0.000  0.000  1.000  0.000
  0.000  0.000  0.000  0.000  1.000
    occupations:
  0.700  0.000  0.000  0.000  0.000
  0.000  0.700  0.000  0.000  0.000
  0.000  0.000  0.700  0.000  0.000
  0.000  0.000  0.000  0.700  0.000
  0.000  0.000  0.000  0.000  0.700
atom   17   Tr[ns(na)] =   7.00000
    eigenvalues:
  0.700  0.700  0.700  0.700  0.700
    eigenvectors:
  1.000  0.000  0.000  0.000  0.000
  0.000  1.000  0.000  0.000  0.000
  0.000  0.000  1.000  0.000  0.000
  0.000  0.000  0.000  1.000  0.000
  0.000  0.000  0.000  0.000  1.000
    occupations:
  0.700  0.000  0.000  0.000  0.000
  0.000  0.700  0.000  0.000  0.000
  0.000  0.000  0.700  0.000  0.000
  0.000  0.000  0.000  0.700  0.000
  0.000  0.000  0.000  0.000  0.700
atom   22   Tr[ns(na)] =   7.00000
    eigenvalues:
  0.700  0.700  0.700  0.700  0.700
    eigenvectors:
  1.000  0.000  0.000  0.000  0.000
  0.000  1.000  0.000  0.000  0.000
[...]
  0.000  0.944 -0.000  0.000 -0.009
  0.007 -0.000  0.949 -0.000 -0.000
  0.037  0.000 -0.000  0.981  0.000
 -0.000 -0.009 -0.000  0.000  0.611
atom   16   Tr[ns(na)] =   8.17715
    eigenvalues:
  0.606  0.633  0.898  0.970  0.982
    eigenvectors:
  0.006  0.177  0.003  0.001  0.813
  0.975  0.025  0.000  0.000  0.000
  0.000  0.000  0.991  0.005  0.004
  0.019  0.798  0.000  0.000  0.182
  0.000  0.000  0.005  0.994  0.001
    occupations:
  0.918  0.005  0.004 -0.135  0.001
  0.005  0.607 -0.000  0.002 -0.005
  0.004 -0.000  0.898 -0.004 -0.005
 -0.135  0.002 -0.004  0.696 -0.000
  0.001 -0.005 -0.005 -0.000  0.970
atom   17   Tr[ns(na)] =   8.17336
    eigenvalues:
  0.619  0.669  0.884  0.930  0.985
    eigenvectors:
  0.000  0.989  0.000  0.000  0.010
  0.000  0.000  0.061  0.939  0.000
  0.000  0.000  0.939  0.061  0.000
  0.000  0.010  0.000  0.000  0.990
  1.000  0.000  0.000  0.000  0.000
    occupations:
  0.672 -0.003 -0.001  0.032  0.001
 -0.003  0.927  0.011  0.000 -0.002
 -0.001  0.011  0.887 -0.000  0.001
  0.032  0.000 -0.000  0.982  0.000
  0.001 -0.002  0.001  0.000  0.619
atom   22   Tr[ns(na)] =   8.16160
    eigenvalues:
  0.654  0.670  0.866  0.907  0.984
    eigenvectors:
  0.000  0.139  0.000  0.000  0.860
  1.000  0.000  0.000  0.000  0.000
  0.000  0.000  0.993  0.006  0.000
  0.000  0.860  0.000  0.000  0.139
  0.000  0.000  0.006  0.994  0.000
    occupations:
  0.940  0.002  0.000 -0.109  0.000
  0.002  0.654  0.001 -0.001 -0.000
  0.000  0.001  0.866 -0.004  0.003
 -0.109 -0.001 -0.004  0.714  0.000
  0.000 -0.000  0.003  0.000  0.907
atom   23   Tr[ns(na)] =   8.18194
    eigenvalues:
  0.619  0.661  0.871  0.956  0.984
    eigenvectors:
  0.000  0.992  0.000  0.003  0.005
  0.001  0.000  0.998  0.000  0.000
  0.000  0.002  0.000  0.996  0.002
  0.000  0.005  0.000  0.001  0.994
  0.999  0.000  0.001  0.000  0.000
    occupations:
  0.664 -0.000  0.014  0.023 -0.000
 -0.000  0.870 -0.001 -0.000 -0.010
  0.014 -0.001  0.955 -0.002  0.000
  0.023 -0.000 -0.002  0.982 -0.000
 -0.000 -0.010  0.000 -0.000  0.620
N of occupied +U levels =  65.3425350
 --- exit write_ns ---

     Threshold (ethr) on eigenvalues was too large:
     Diagonalizing with lowered threshold

     Davidson diagonalization with overlap
     ethr =  1.28E-08,  avg # of iterations =  2.0

[...]

     total energy              =   -2137.53200865 Ry
     Harris-Foulkes estimate   =   -2137.53200865 Ry
     estimated scf accuracy    <       0.00000002 Ry

     iteration # 15     ecut=    40.00 Ry     beta=0.70
     Davidson diagonalization with overlap
     ethr =  6.57E-12,  avg # of iterations =  1.0

     negative rho (up, down):  0.314E+01 0.000E+00

     End of self-consistent calculation
 --- enter write_ns ---
 LDA+U parameters:
U( 2)     =  5.00000000
alpha( 2) =  0.00000000
atom    3   Tr[ns(na)] =   8.17699
    eigenvalues:
  0.606  0.633  0.897  0.970  0.982
    eigenvectors:
  0.006  0.177  0.003  0.001  0.813
  0.974  0.026  0.000  0.000  0.000
  0.000  0.000  0.988  0.008  0.003
  0.020  0.797  0.000  0.000  0.182
  0.000  0.000  0.008  0.991  0.001
    occupations:
  0.918 -0.005  0.004 -0.135 -0.001
 -0.005  0.607 -0.001 -0.002 -0.005
  0.004 -0.001  0.898 -0.004  0.006
 -0.135 -0.002 -0.004  0.696 -0.000
 -0.001 -0.005  0.006 -0.000  0.970
atom    4   Tr[ns(na)] =   8.17451
    eigenvalues:
  0.619  0.669  0.884  0.931  0.985
    eigenvectors:
  0.000  0.989  0.000  0.000  0.010
  0.000  0.000  0.072  0.928  0.000
  0.000  0.000  0.928  0.072  0.000
  0.000  0.010  0.000  0.000  0.990
  1.000  0.000  0.000  0.000  0.000
    occupations:
  0.672 -0.003 -0.001  0.032  0.001
 -0.003  0.928  0.012  0.000 -0.002
 -0.001  0.012  0.887 -0.000  0.000
  0.032  0.000 -0.000  0.982  0.000
  0.001 -0.002  0.000  0.000  0.619
atom    9   Tr[ns(na)] =   8.16127
    eigenvalues:
  0.654  0.670  0.866  0.907  0.984
    eigenvectors:
  0.000  0.139  0.001  0.000  0.860
  0.998  0.002  0.000  0.000  0.000
  0.000  0.000  0.992  0.007  0.000
  0.002  0.859  0.000  0.000  0.140
  0.000  0.000  0.007  0.992  0.000
    occupations:
  0.940 -0.001  0.001 -0.109 -0.001
 -0.001  0.654  0.000  0.001 -0.000
  0.001  0.000  0.866 -0.004 -0.004
 -0.109  0.001 -0.004  0.714  0.001
 -0.001 -0.000 -0.004  0.001  0.907
atom   10   Tr[ns(na)] =   8.13488
    eigenvalues:
  0.579  0.611  0.944  0.949  0.985
    eigenvectors:
  0.991  0.000  0.000  0.000  0.009
  0.000  0.001  0.997  0.002  0.000
  0.000  0.000  0.002  0.997  0.000
  0.009  0.000  0.000  0.000  0.991
  0.000  0.999  0.001  0.000  0.000
    occupations:
  0.583  0.000  0.007  0.037 -0.000
  0.000  0.944 -0.000  0.000 -0.009
  0.007 -0.000  0.949 -0.000 -0.000
  0.037  0.000 -0.000  0.981  0.000
 -0.000 -0.009 -0.000  0.000  0.611
atom   16   Tr[ns(na)] =   8.17693
    eigenvalues:
  0.606  0.633  0.897  0.970  0.982
    eigenvectors:
  0.006  0.177  0.003  0.001  0.813
  0.975  0.025  0.000  0.000  0.000
  0.000  0.000  0.991  0.005  0.004
  0.019  0.798  0.000  0.000  0.182
  0.000  0.000  0.005  0.994  0.001
    occupations:
  0.918  0.005  0.004 -0.135  0.001
  0.005  0.607 -0.000  0.002 -0.005
  0.004 -0.000  0.898 -0.004 -0.005
 -0.135  0.002 -0.004  0.696 -0.000
  0.001 -0.005 -0.005 -0.000  0.970
atom   17   Tr[ns(na)] =   8.17316
    eigenvalues:
  0.619  0.669  0.884  0.930  0.985
    eigenvectors:
  0.000  0.989  0.000  0.000  0.010
  0.000  0.000  0.061  0.939  0.000
  0.000  0.000  0.939  0.061  0.000
  0.000  0.010  0.000  0.000  0.990
  1.000  0.000  0.000  0.000  0.000
    occupations:
  0.672 -0.003 -0.001  0.032  0.001
 -0.003  0.927  0.011  0.000 -0.002
 -0.001  0.011  0.887 -0.000  0.001
  0.032  0.000 -0.000  0.982  0.000
  0.001 -0.002  0.001  0.000  0.619
atom   22   Tr[ns(na)] =   8.16129
    eigenvalues:
  0.654  0.670  0.866  0.907  0.984
    eigenvectors:
  0.000  0.139  0.000  0.000  0.860
  1.000  0.000  0.000  0.000  0.000
  0.000  0.000  0.993  0.006  0.000
  0.000  0.860  0.000  0.000  0.139
  0.000  0.000  0.006  0.994  0.000
    occupations:
  0.940  0.002  0.000 -0.109  0.000
  0.002  0.654  0.001 -0.001 -0.000
  0.000  0.001  0.866 -0.004  0.003
 -0.109 -0.001 -0.004  0.714  0.000
  0.000 -0.000  0.003  0.000  0.907
atom   23   Tr[ns(na)] =   8.18255
    eigenvalues:
  0.619  0.661  0.871  0.956  0.984
    eigenvectors:
  0.000  0.992  0.000  0.003  0.005
  0.001  0.000  0.998  0.000  0.000
  0.000  0.002  0.000  0.996  0.002
  0.000  0.005  0.000  0.001  0.994
  0.999  0.000  0.001  0.000  0.000
    occupations:
  0.663 -0.000  0.014  0.023 -0.000
 -0.000  0.871 -0.001 -0.000 -0.010
  0.014 -0.001  0.955 -0.002  0.000
  0.023 -0.000 -0.002  0.982 -0.000
 -0.000 -0.010  0.000 -0.000  0.620
N of occupied +U levels =  65.3415810
 --- exit write_ns ---

[...]

          k = 0.2500-0.4953 0.0000 ( 31088 PWs)   bands (ev):

[...]

          k =-0.2500 0.2476 0.0000 ( 31099 PWs)   bands (ev):

   -50.1548 -50.0607 -50.0550 -50.0034 -49.9943 -49.9499 -49.9232 -49.9058
   -49.9009 -49.8734 -49.8723 -49.8575 -49.7545 -49.7443 -49.6666 -49.6635
   -49.6434 -49.6281 -49.5982 -49.5874 -49.5742 -49.5437 -49.5328 -49.4884
   -23.4824 -20.9132 -20.6251 -20.5927 -20.5352 -20.1802 -20.1218 -20.0822
   -19.9916 -19.8245 -19.6769 -19.6368 -19.4822 -19.4378 -19.3540 -19.2610
   -19.1751 -18.4493 -18.2800 -17.2962  -9.9464  -9.8360  -9.5947  -9.4347
    -9.0710  -9.0394  -8.9737  -8.9254  -8.7403  -8.4582  -8.4018  -8.3624
    -8.3297  -8.1549  -8.0166  -7.8651  -7.7862  -7.7107  -7.6100  -7.2550
    -7.1658  -7.0166  -6.9408  -6.8475  -6.7840  -6.6857  -6.5752  -6.4672
    -6.2991  -6.1275  -6.0213  -5.9312  -5.8727  -5.8050  -5.6792  -5.6450
    -5.5900  -5.5594  -5.4439  -5.2184  -5.1682  -5.1219  -5.0193  -4.7897
    -4.6838  -4.5051  -4.3346  -4.2358  -4.1491  -4.1003  -3.9115  -3.8500
    -3.6944  -3.5976  -3.3432  -3.3043  -3.1019  -3.0312  -3.0085  -2.9303
    -2.8983  -2.7174  -2.6930  -2.5547  -2.5076  -2.4339  -2.4244  -2.3383
    -2.1562  -2.1200  -2.0435  -1.9164  -1.6299  -1.3556  -1.1349  -1.1094
    -0.9164  -0.8865  -0.6461  -0.4969  -0.3185  -0.2454  -0.0440   0.5217
     1.5210   1.5485   1.8036   2.1355   2.3002   2.7213   2.8493   3.0664
     3.2231   3.3959   3.4395   3.6363   3.6927   3.8744   3.9043   4.0734
     4.2591   4.4817   4.7881   5.2949   5.4235   5.8130   6.0517   6.1073
     6.2627   6.4292   6.5894   6.6630   6.7663   7.0570   7.1812   7.3144
     7.5216   7.6913   7.8612   7.9190   7.9859   8.1912   8.2894   8.3639
     8.3770   8.4910   8.7497   8.8082   8.8941   9.0913   9.1294   9.1949
     9.2400   9.4271   9.5586   9.6276   9.6874   9.7817   9.8575   9.9411
     9.9714  10.0043  10.0075  10.0211  10.0231  10.0483  10.0714  10.1455
    10.2145  10.2200  10.2258  10.3315  10.3955  10.4722  10.5306  10.5795
    10.6715  10.7242  10.8382  10.9517  10.9847  11.0624  11.1792  11.2234
    11.3208  11.3886  11.4714  11.5832  11.7203  11.7630  11.8086  11.9134
    11.9321  12.0865  12.1389  12.2284  12.3554  12.4941  12.5340  12.5444
    12.6022  12.6948  12.8130  12.8982  12.9761  13.0251  13.0977  13.2007
    13.2501  13.3045  13.3930  13.5356  13.6355  13.7219  13.7653  13.8740
    13.9223  13.9757  14.0587  14.1507  14.1993  14.2627  14.3395  14.4349
    14.4656  14.5425  14.6512  14.7483  14.8354  14.8883  15.0852  15.1116
    15.1476  15.2385  15.3936  15.4132  15.5399  15.6171  15.6644  15.6927
    15.7308  15.7942  15.8430  15.9421  15.9703  16.0384  16.0780  16.0914
    16.2198  16.2786  16.3485  16.3996  16.4841  16.5342  16.5632  16.6285
    16.7132  16.7567  16.7869  16.8535  16.9481  16.9978  17.1769  17.2418
    17.3019  17.3341  17.4062  17.4546  17.5165  17.5960  17.6401  17.6964
    17.7309  17.8316  17.8561  17.8860  17.9238  18.0125  18.0636  18.1490
    18.2282  18.3196  18.3909  18.5120  18.6067  18.6954  18.7670  18.7862
    18.8233  18.8794  19.0373  19.0508  19.1201  19.2133  19.2628  19.3735
    19.3876  19.4565  19.5600  19.6378  19.6931  19.7641  19.8173  19.8551
    19.9523  20.0038  20.1398  20.2431  20.2993  20.3704  20.4519  20.5334
    20.6300  20.6772  20.7442  20.7955  20.8047  20.8821  20.9253  21.0443
    21.1190  21.1362  21.1946  21.2525  21.2824  21.3210  21.3524  21.4355
    21.5134  21.5708  21.6730  21.6877  21.7301  21.8520  21.8609  21.9251
    21.9866  22.0203  22.0771  22.1452  22.2209  22.3036  22.3990

     the Fermi energy is    -0.7105 ev

!    total energy              =   -2137.53200864 Ry
     Harris-Foulkes estimate   =   -2137.53200865 Ry
     estimated scf accuracy    <          5.8E-09 Ry

     The total energy is the sum of the following terms:

     one-electron contribution =  -23154.26662097 Ry
     hartree contribution      =   11628.99763994 Ry
     xc contribution           =    -584.22714962 Ry
     ewald contribution        =    9970.10696059 Ry
     Hubbard energy            =       1.85712098 Ry
     smearing contrib. (-TS)   =       0.00004044 Ry

     convergence has been achieved in  15 iterations

     Forces acting on atoms (Ry/au):

     negative rho (up, down):  0.314E+01 0.000E+00
     atom    1 type  1   force =    -0.00736668   -0.01266559   -0.00001882
     atom    2 type  1   force =     0.00012509    0.00371939   -0.00047293
     atom    3 type  2   force =     0.03092401    0.00551118    0.00007229
     atom    4 type  2   force =     0.00862709    0.00729482    0.00013538
     atom    5 type  1   force =    -0.00459205   -0.02040499   -0.00022796
     atom    6 type  1   force =     0.00541701    0.01981398   -0.00008205
     atom    7 type  1   force =    -0.00043032   -0.00409768   -0.00007149
     atom    8 type  1   force =    -0.00310825    0.00073059    0.00000083
     atom    9 type  2   force =     0.00661513    0.00078262    0.00007719
     atom   10 type  2   force =    -0.00012923    0.00023899   -0.00005377
     atom   11 type  1   force =    -0.00249007    0.02023178    0.00011705
     atom   12 type  1   force =     0.00392072   -0.01500613    0.00015518
     atom   13 type  1   force =    -0.00079422   -0.00282699   -0.00019811
     atom   14 type  1   force =    -0.00668782   -0.01275670    0.00015411
     atom   15 type  1   force =     0.00008383    0.00387686   -0.00017529
     atom   16 type  2   force =    -0.03063905    0.00538205    0.00005653
     atom   17 type  2   force =     0.00845134    0.00782303    0.00011072
     atom   18 type  1   force =    -0.00371020   -0.02105232   -0.00021995
     atom   19 type  1   force =     0.00602828    0.01928895   -0.00008222
     atom   20 type  1   force =    -0.00031445   -0.00706646    0.00039840
     atom   21 type  1   force =    -0.00319565    0.00143047   -0.00009390
     atom   22 type  2   force =    -0.00428508    0.00034939    0.00012697
     atom   23 type  2   force =    -0.00042594    0.00343367   -0.00017738
     atom   24 type  1   force =     0.00213380    0.02001378    0.00014124
     atom   25 type  1   force =    -0.00306702   -0.01513843    0.00019721
     atom   26 type  1   force =    -0.00095444   -0.00989053    0.00041570
     atom   27 type  3   force =     0.00001080    0.00035843    0.00021927
     atom   28 type  3   force =     0.00001900    0.00030569    0.00051839
     atom   29 type  3   force =    -0.00005884    0.00013115    0.00019342
     atom   30 type  3   force =    -0.00022869    0.00021050    0.00005775
     atom   31 type  1   force =    -0.00015779   -0.00039919    0.00004936
     atom   32 type  1   force =     0.00027472    0.00077828   -0.00068313
     atom   33 type  3   force =     0.00000495   -0.00040059   -0.00063998

     Total force =     0.001890     Total SCF correction =     0.000153

     entering subroutine stress ...

     negative rho (up, down):  0.314E+01 0.000E+00
          total   stress  (Ry/bohr**3)                   (kbar)     P=  -15.39
  -0.00012523   0.00000770   0.00000377        -18.42      1.13      0.56
   0.00000770  -0.00013913   0.00000458          1.13    -20.47      0.67
   0.00000377   0.00000458  -0.00004942          0.56      0.67     -7.27

     bfgs converged in   9 scf cycles and   8 bfgs steps
     (criteria: energy < 0.10E-03, force < 0.10E-02)

     End of BFGS Geometry Optimization

     Final energy   =   -2137.5320086429 Ry
Begin final coordinates

ATOMIC_POSITIONS (crystal)
O0       0.000000000   0.000000000   0.378213530    0   0   1
O0       0.000000000   0.500000000   0.402846472    0   0   1
Ir1      0.250000000   0.500000000   0.452978679    0   0   1
Ir1      0.000000000   0.000000000   0.452838150    0   0   1
O0       0.250000000   0.810000000   0.452872044    0   0   1
O0       0.250000000   0.190000000   0.452386585    0   0   1
O0       0.000000000   0.500000000   0.498965324    0   0   1
O0       0.000000000   0.000000000   0.528244574    0   0   1
Ir1      0.250000000   0.000000000   0.574851260    0   0   1
Ir1      0.000000000   0.500000000   0.571687167    0   0   1
O0       0.250000000   0.690000000   0.573759688    0   0   1
O0       0.250000000   0.310000000   0.575987840    0   0   1
O0       0.000000000   0.000000000   0.619508291    0   0   1
O0       0.500000000   0.000000000   0.378027992    0   0   1
O0       0.500000000   0.500000000   0.402665507    0   0   1
Ir1      0.750000000   0.500000000   0.452975441    0   0   1
Ir1      0.500000000   0.000000000   0.452622277    0   0   1
O0       0.750000000   0.810000000   0.452865764    0   0   1
O0       0.750000000   0.190000000   0.452403604    0   0   1
O0       0.500000000   0.500000000   0.499950722    0   0   1
O0       0.500000000   0.000000000   0.528146845    0   0   1
Ir1      0.750000000   0.000000000   0.574852251    0   0   1
Ir1      0.500000000   0.500000000   0.577131629    0   0   1
O0       0.750000000   0.690000000   0.573767040    0   0   1
O0       0.750000000   0.310000000   0.576001899    0   0   1
O0       0.500000000   0.000000000   0.619039624    0   0   1
H2      -0.000094930   0.634420560   0.384437761
H2       0.499826840   0.635669069   0.384744465
H2       0.143061992   0.036059614   0.366667800
H2       0.643628342   0.034341730   0.366550201
O0       0.499425048   0.536151446   0.649533084
O0       0.500573909   0.345739145   0.678902157
H2       0.499995993   0.407963874   0.713144333
End final coordinates

     General routines

     Parallel routines
     Hubbard U routines

   This run was terminated on:  11: 8:58  30May2014

   JOB DONE.
Running PBS batch system epilogue script
Job id: 373283.audhumbla.fysik.dtu.dk
Username: zhonxu
Groupname: campgst
Jobname: IrO2/Eads-2-layers/OOH-U-5.0
Sessionid: 3290
Queuename: verylong
Accounting:
This job has allocated the following 16 nodes:
a032 a032 a032 a032 a032 a032 a032 a032 a029 a029 a029 a029 a029 a029 a029 a029
Finished epilogue job 373283.audhumbla.fysik.dtu.dk for zhonxu