     Program PWSCF v.5.0.2 (svn rev. 9656) starts on 23Jan2014 at 21:21:37

     Current dimensions of program PWSCF are:
     Max number of different atomic species (ntypx) = 10
     Max number of k-points (npk) =  40000
     Max angular momentum in pseudopotentials (lmaxx) =  3
     Reading input from RuO2-v-0.8.in

     Subspace diagonalization in iterative solution of the eigenvalue problem:
     a serial algorithm will be used

     bravais-lattice index     =            0
     lattice parameter (alat)  =       8.0383  a.u.
     unit-cell volume          =     334.7174 (a.u.)^3
     number of atoms/cell      =            6
     number of atomic types    =            2
     number of electrons       =        56.00
     number of Kohn-Sham states=           81
     kinetic-energy cutoff     =      40.0000  Ry
     charge density cutoff     =     500.0000  Ry
     convergence threshold     =      1.0E-06
     mixing beta               =       0.7000
     number of iterations used =            8  plain     mixing
     Exchange-correlation      = SLA  PW   PBE  PBE ( 1 4 3 4 0)
     EXX-fraction              =        0.00
     nstep                     =           50

     celldm(1)=   8.038301  celldm(2)=   0.000000  celldm(3)=   0.000000
     celldm(4)=   0.000000  celldm(5)=   0.000000  celldm(6)=   0.000000

     crystal axes: (cart. coord. in units of alat)
               a(1) = (   1.000000   0.000000   0.000000 )
               a(2) = (   0.000000   1.000000   0.000000 )
               a(3) = (   0.000000   0.000000   0.644444 )

     reciprocal axes: (cart. coord. in units 2 pi/alat)
               b(1) = (  1.000000  0.000000  0.000000 )
               b(2) = (  0.000000  1.000000  0.000000 )
               b(3) = (  0.000000  0.000000  1.551724 )

     PseudoPot. # 1 for Ru read from file:
     /home/camp/zhonxu/pseudo/ru_pbe_v1.uspp.F.UPF
     MD5 check sum: df00be1c11b23341d9806d8f1dfa10cf
     Pseudo is Ultrasoft + core correction, Zval = 16.0
     Generated by new atomic code, or converted to UPF format
     Using radial grid of  967 points,  6 beta functions with:
                l(1) =   0
                l(2) =   0
                l(3) =   1
                l(4) =   1
                l(5) =   2
                l(6) =   2
     Q(r) pseudized with  8 coefficients,  rinner =    1.300   1.300   1.300
                                                       1.300   1.300

     PseudoPot. # 2 for O  read from file:
     /home/camp/zhonxu/pseudo/o_pbe_v1.01.uspp.F.UPF
     MD5 check sum: 2bcb18d16ea4b960afae9ec6d52f22d2
     Pseudo is Ultrasoft + core correction, Zval =  6.0
     Generated by new atomic code, or converted to UPF format
     Using radial grid of  737 points,  5 beta functions with:
                l(1) =   0
                l(2) =   0
                l(3) =   1
                l(4) =   1
                l(5) =   2
     Q(r) pseudized with  8 coefficients,  rinner =    0.900   0.900   0.900
                                                       0.900   0.900

     atomic species   valence    mass     pseudopotential
        Ru0           16.00   101.07000     Ru( 1.00)
        O1             6.00    15.99940     O ( 1.00)

     Starting magnetic structure
     atomic species   magnetization
        Ru0          0.600
        O1           0.000

     16 Sym. Ops., with inversion, found ( 8 have fractional translation)

   Cartesian axes

     site n.     atom                  positions (alat units)
         1           Ru0 tau(   1) = (   0.0000000   0.0000000   0.0000000  )
         2           Ru0 tau(   2) = (   0.5000000   0.5000000   0.3222222  )
         3           O1  tau(   3) = (   0.3050000   0.3050000   0.0000000  )
         4           O1  tau(   4) = (  -0.3050000  -0.3050000   0.0000000  )
         5           O1  tau(   5) = (   0.8050000   0.1950000   0.3222222  )
         6           O1  tau(   6) = (   0.1950000   0.8050000   0.3222222  )

     number of k points=    36  Methfessel-Paxton smearing, width (Ry)=  0.0100
                       cart. coord. in units 2pi/alat
        k(    1) = (   0.0000000   0.0000000   0.0000000), wk =   0.0080000
        k(    2) = (   0.0000000   0.0000000   0.3103448), wk =   0.0160000
        k(    3) = (   0.0000000   0.0000000   0.6206897), wk =   0.0160000
        k(    4) = (   0.0000000   0.2000000   0.0000000), wk =   0.0320000
        k(    5) = (   0.0000000   0.2000000   0.3103448), wk =   0.0640000
        k(    6) = (   0.0000000   0.2000000   0.6206897), wk =   0.0640000
        k(    7) = (   0.0000000   0.4000000   0.0000000), wk =   0.0320000
        k(    8) = (   0.0000000   0.4000000   0.3103448), wk =   0.0640000
        k(    9) = (   0.0000000   0.4000000   0.6206897), wk =   0.0640000
        k(   10) = (   0.2000000   0.2000000   0.0000000), wk =   0.0320000
        k(   11) = (   0.2000000   0.2000000   0.3103448), wk =   0.0640000
        k(   12) = (   0.2000000   0.2000000   0.6206897), wk =   0.0640000
        k(   13) = (   0.2000000   0.4000000   0.0000000), wk =   0.0640000
        k(   14) = (   0.2000000   0.4000000   0.3103448), wk =   0.1280000
        k(   15) = (   0.2000000   0.4000000   0.6206897), wk =   0.1280000
        k(   16) = (   0.4000000   0.4000000   0.0000000), wk =   0.0320000
        k(   17) = (   0.4000000   0.4000000   0.3103448), wk =   0.0640000
        k(   18) = (   0.4000000   0.4000000   0.6206897), wk =   0.0640000
        k(   19) = (   0.0000000   0.0000000   0.0000000), wk =   0.0080000
        k(   20) = (   0.0000000   0.0000000   0.3103448), wk =   0.0160000
        k(   21) = (   0.0000000   0.0000000   0.6206897), wk =   0.0160000
        k(   22) = (   0.0000000   0.2000000   0.0000000), wk =   0.0320000
        k(   23) = (   0.0000000   0.2000000   0.3103448), wk =   0.0640000
        k(   24) = (   0.0000000   0.2000000   0.6206897), wk =   0.0640000
        k(   25) = (   0.0000000   0.4000000   0.0000000), wk =   0.0320000
        k(   26) = (   0.0000000   0.4000000   0.3103448), wk =   0.0640000
        k(   27) = (   0.0000000   0.4000000   0.6206897), wk =   0.0640000
        k(   28) = (   0.2000000   0.2000000   0.0000000), wk =   0.0320000
        k(   29) = (   0.2000000   0.2000000   0.3103448), wk =   0.0640000
        k(   30) = (   0.2000000   0.2000000   0.6206897), wk =   0.0640000
        k(   31) = (   0.2000000   0.4000000   0.0000000), wk =   0.0640000
        k(   32) = (   0.2000000   0.4000000   0.3103448), wk =   0.1280000
        k(   33) = (   0.2000000   0.4000000   0.6206897), wk =   0.1280000
        k(   34) = (   0.4000000   0.4000000   0.0000000), wk =   0.0320000
        k(   35) = (   0.4000000   0.4000000   0.3103448), wk =   0.0640000
        k(   36) = (   0.4000000   0.4000000   0.6206897), wk =   0.0640000

     Largest allocated arrays     est. size (Mb)     dimensions
     Largest temporary arrays     est. size (Mb)     dimensions

     Check: negative/imaginary core charge=   -0.000009    0.000000

     Initial potential from superposition of free atoms
     Check: negative starting charge=(component1):   -0.104902
     Check: negative starting charge=(component2):   -0.025573

     starting charge   53.99996, renormalised to   56.00000

     negative rho (up, down):  0.109E+00 0.265E-01
     Starting wfc are   42 randomized atomic wfcs

     Self-consistent Calculation

     iteration #  1     ecut=    40.00 Ry     beta=0.70
     Davidson diagonalization with overlap
     ethr =  1.00E-02,  avg # of iterations =  5.2

     negative rho (up, down):  0.761E-01 0.794E-01

     total energy              =    -513.12255779 Ry
     Harris-Foulkes estimate   =    -514.41389890 Ry
     estimated scf accuracy    <       4.42414555 Ry

     total magnetization       =     5.11 Bohr mag/cell
     absolute magnetization    =     5.44 Bohr mag/cell

[...]

     End of self-consistent calculation

 ------ SPIN UP ------------

          k = 0.0000 0.0000 0.0000 (  1447 PWs)   bands (ev):

   -55.3752 -55.3541 -25.7052 -25.7052 -25.4867 -25.4867 -25.3065 -25.2431
    -3.8275  -2.6057  -0.7491  -0.7491   7.4123   7.8451   8.5926   9.6228
     9.6228  12.8360  12.8360  13.6231  15.0082  15.1782  15.1782  15.5764
    15.9733  16.9779  16.9779  16.9803  17.0882  21.2141  21.3176  25.0254
    25.0254  25.7860  26.8373  29.0230  29.0230  32.9198  35.0098  35.0566
    36.1652  37.7775  38.5491  38.5491  40.6728  41.4923  41.7509  41.7509
    42.9178  42.9178  44.3141  47.9815  47.9981  47.9981  49.3687  49.6802
    51.8397  53.4011  53.4011  53.4430  53.6878  54.2086  54.3722  54.3722
    55.4866  56.2910  56.2910  57.0112  59.0800  60.6793  61.9117  61.9117
    62.1713  62.5198  63.3519  63.3519  63.9051  63.9051  64.4541  64.6469
    64.6758

[...]

 ------ SPIN DOWN ----------

[...]

     the Fermi energy is    18.8597 ev

!    total energy              =    -515.22543665 Ry
     Harris-Foulkes estimate   =    -515.22543613 Ry
     estimated scf accuracy    <       0.00000061 Ry

     The total energy is the sum of the following terms:

     one-electron contribution =    -124.84739904 Ry
     hartree contribution      =     104.56366386 Ry
     xc contribution           =     -79.97158904 Ry
     ewald contribution        =    -414.97020187 Ry
     smearing contrib. (-TS)   =       0.00008945 Ry

[...]

     convergence has been achieved in   9 iterations

     Forces acting on atoms (Ry/au):

     negative rho (up, down):  0.721E-01 0.763E-01
     atom    1 type  1   force =     0.00000000    0.00000000    0.00000000
     atom    2 type  1   force =     0.00000000    0.00000000   -0.00000000
     atom    3 type  2   force =    -0.08528453   -0.08528453   -0.00000000
     atom    4 type  2   force =     0.08528453    0.08528453   -0.00000000
     atom    5 type  2   force =    -0.08528453    0.08528453    0.00000000
     atom    6 type  2   force =     0.08528453   -0.08528453    0.00000000

     Total force =     0.241221     Total SCF correction =     0.000057

     entering subroutine stress ...

     negative rho (up, down):  0.721E-01 0.763E-01
          total   stress  (Ry/bohr**3)                   (kbar)     P= 1261.69
   0.00713467   0.00000000   0.00000000       1049.55      0.00      0.00
   0.00000000   0.00713467   0.00000000          0.00   1049.55      0.00
   0.00000000   0.00000000   0.01146105          0.00      0.00   1685.98

     Volume is kept fixed: isostatic pressure set to zero

     BFGS Geometry Optimization

     number of scf cycles    =   1
     number of bfgs steps    =   0

     enthalpy new            =    -515.2254366515 Ry

     new trust radius        =       0.2638405715 bohr
     new conv_thr            =       0.0000010000 Ry

     new unit-cell volume =    334.71740 a.u.^3 (    49.60000 Ang^3 )

CELL_PARAMETERS (alat=  8.03830103)
   0.965172872   0.000000000   0.000000000
   0.000000000   0.965172872   0.000000000
   0.000000000   0.000000000   0.691791578

ATOMIC_POSITIONS (crystal)
Ru0      0.000000000   0.000000000   0.000000000    0   0   0
Ru0      0.500000000   0.500000000   0.500000000    0   0   0
O1       0.294390229   0.294390229   0.000000000    1   1   0
[...]
        k(   27) = (   0.0000000   0.4144335   0.5782088), wk =   0.0640000
        k(   28) = (   0.2072168   0.2072168   0.0000000), wk =   0.0320000
        k(   29) = (   0.2072168   0.2072168   0.2891044), wk =   0.0640000
        k(   30) = (   0.2072168   0.2072168   0.5782088), wk =   0.0640000
        k(   31) = (   0.2072168   0.4144335   0.0000000), wk =   0.0640000
        k(   32) = (   0.2072168   0.4144335   0.2891044), wk =   0.1280000
        k(   33) = (   0.2072168   0.4144335   0.5782088), wk =   0.1280000
        k(   34) = (   0.4144335   0.4144335   0.0000000), wk =   0.0320000
        k(   35) = (   0.4144335   0.4144335   0.2891044), wk =   0.0640000
        k(   36) = (   0.4144335   0.4144335   0.5782088), wk =   0.0640000

     Check: negative/imaginary core charge=   -0.000008    0.000000
     Check: negative starting charge=(component1):   -0.130121

[...]

     enthalpy old            =    -515.2254366515 Ry
     enthalpy new            =    -515.2314205641 Ry

     CASE: enthalpy_new < enthalpy_old

[...]

     Threshold (ethr) on eigenvalues was too large:
     Diagonalizing with lowered threshold

     Davidson diagonalization with overlap
     ethr =  3.30E-09,  avg # of iterations =  2.4

[...]

     number of scf cycles    =   7
     number of bfgs steps    =   6

     enthalpy old            =    -515.2901731584 Ry
     enthalpy new            =    -515.2901817409 Ry

     CASE: enthalpy_new < enthalpy_old

     new trust radius        =       0.0002124313 bohr
     new conv_thr            =       0.0000000100 Ry

     new unit-cell volume =    334.71740 a.u.^3 (    49.60000 Ang^3 )

[...]

ATOMIC_POSITIONS (crystal)
Ru0      0.000000000   0.000000000   0.000000000    0   0   0
Ru0      0.500000000   0.500000000   0.500000000    0   0   0
O1       0.310309431   0.310309431   0.000000000    1   1   0
O1      -0.310309431  -0.310309431   0.000000000    1   1   0
O1       0.810309431   0.189690569   0.500000000    1   1   0
O1       0.189690569   0.810309431   0.500000000    1   1   0

     Check: negative starting charge=(component1):   -0.130294
     NEW-OLD atomic charge density approx. for the potential
     NEW k-points:
        k(    1) = (   0.0000000   0.0000000   0.0000000), wk =   0.0080000
        k(    2) = (   0.0000000   0.0000000   0.2840423), wk =   0.0160000
        k(    3) = (   0.0000000   0.0000000   0.5680845), wk =   0.0160000
        k(    4) = (   0.0000000   0.2090551   0.0000000), wk =   0.0320000
        k(    5) = (   0.0000000   0.2090551   0.2840423), wk =   0.0640000
        k(    6) = (   0.0000000   0.2090551   0.5680845), wk =   0.0640000
        k(    7) = (   0.0000000   0.4181102   0.0000000), wk =   0.0320000
        k(    8) = (   0.0000000   0.4181102   0.2840423), wk =   0.0640000
        k(    9) = (   0.0000000   0.4181102   0.5680845), wk =   0.0640000
        k(   10) = (   0.2090551   0.2090551   0.0000000), wk =   0.0320000
        k(   11) = (   0.2090551   0.2090551   0.2840423), wk =   0.0640000
        k(   12) = (   0.2090551   0.2090551   0.5680845), wk =   0.0640000
        k(   13) = (   0.2090551   0.4181102   0.0000000), wk =   0.0640000
        k(   14) = (   0.2090551   0.4181102   0.2840423), wk =   0.1280000
        k(   15) = (   0.2090551   0.4181102   0.5680845), wk =   0.1280000
        k(   16) = (   0.4181102   0.4181102   0.0000000), wk =   0.0320000
        k(   17) = (   0.4181102   0.4181102   0.2840423), wk =   0.0640000
        k(   18) = (   0.4181102   0.4181102   0.5680845), wk =   0.0640000
        k(   19) = (   0.0000000   0.0000000   0.0000000), wk =   0.0080000
        k(   20) = (   0.0000000   0.0000000   0.2840423), wk =   0.0160000
        k(   21) = (   0.0000000   0.0000000   0.5680845), wk =   0.0160000
        k(   22) = (   0.0000000   0.2090551   0.0000000), wk =   0.0320000
        k(   23) = (   0.0000000   0.2090551   0.2840423), wk =   0.0640000
        k(   24) = (   0.0000000   0.2090551   0.5680845), wk =   0.0640000
        k(   25) = (   0.0000000   0.4181102   0.0000000), wk =   0.0320000
        k(   26) = (   0.0000000   0.4181102   0.2840423), wk =   0.0640000
        k(   27) = (   0.0000000   0.4181102   0.5680845), wk =   0.0640000
        k(   28) = (   0.2090551   0.2090551   0.0000000), wk =   0.0320000
        k(   29) = (   0.2090551   0.2090551   0.2840423), wk =   0.0640000
        k(   30) = (   0.2090551   0.2090551   0.5680845), wk =   0.0640000
        k(   31) = (   0.2090551   0.4181102   0.0000000), wk =   0.0640000
        k(   32) = (   0.2090551   0.4181102   0.2840423), wk =   0.1280000
        k(   33) = (   0.2090551   0.4181102   0.5680845), wk =   0.1280000
        k(   34) = (   0.4181102   0.4181102   0.0000000), wk =   0.0320000
        k(   35) = (   0.4181102   0.4181102   0.2840423), wk =   0.0640000
        k(   36) = (   0.4181102   0.4181102   0.5680845), wk =   0.0640000

     Check: negative/imaginary core charge=   -0.000008    0.000000
     Check: negative starting charge=(component1):   -0.130295

[...]

     Threshold (ethr) on eigenvalues was too large:
     Diagonalizing with lowered threshold

     Davidson diagonalization with overlap
     ethr =  4.96E-11,  avg # of iterations =  2.3

[...]

     Volume is kept fixed: isostatic pressure set to zero

     bfgs converged in   8 scf cycles and   7 bfgs steps
     (criteria: energy < 0.10E-03, force < 0.10E-02, cell < 0.50E+00)

     End of BFGS Geometry Optimization

     Final enthalpy =    -515.2901818031 Ry
Begin final coordinates
     new unit-cell volume =    334.71740 a.u.^3 (    49.60000 Ang^3 )

CELL_PARAMETERS (alat=  8.03830103)
   0.956685579   0.000000000   0.000000000
   0.000000000   0.956685579   0.000000000
   0.000000000   0.000000000   0.704120566

ATOMIC_POSITIONS (crystal)
Ru0      0.000000000   0.000000000   0.000000000    0   0   0
Ru0      0.500000000   0.500000000   0.500000000    0   0   0
O1       0.310309431   0.310309431   0.000000000    1   1   0
O1      -0.310309431  -0.310309431   0.000000000    1   1   0
O1       0.810309431   0.189690569   0.500000000    1   1   0
O1       0.189690569   0.810309431   0.500000000    1   1   0
End final coordinates

     A final scf calculation at the relaxed structure.
     The G-vectors are recalculated for the final unit cell
     Results may differ from those at the preceding step.

     bravais-lattice index     =            0
     lattice parameter (alat)  =       8.0383  a.u.
     unit-cell volume          =     334.7174 (a.u.)^3
     number of atoms/cell      =            6
     number of atomic types    =            2
     number of electrons       =        56.00
     number of Kohn-Sham states=           81
     kinetic-energy cutoff     =      40.0000  Ry
     charge density cutoff     =     500.0000  Ry
     convergence threshold     =      1.0E-08
     mixing beta               =       0.7000
     number of iterations used =            8  plain     mixing
     Exchange-correlation      = SLA  PW   PBE  PBE ( 1 4 3 4 0)
     EXX-fraction              =        0.00

     celldm(1)=   8.038301  celldm(2)=   0.000000  celldm(3)=   0.000000
     celldm(4)=   0.000000  celldm(5)=   0.000000  celldm(6)=   0.000000

     crystal axes: (cart. coord. in units of alat)
               a(1) = (   0.956686   0.000000   0.000000 )
               a(2) = (   0.000000   0.956686   0.000000 )
               a(3) = (   0.000000   0.000000   0.704121 )

     reciprocal axes: (cart. coord. in units 2 pi/alat)
               b(1) = (  1.045276  0.000000  0.000000 )
               b(2) = (  0.000000  1.045276  0.000000 )
               b(3) = (  0.000000  0.000000  1.420211 )

     PseudoPot. # 1 for Ru read from file:
     /home/camp/zhonxu/pseudo/ru_pbe_v1.uspp.F.UPF
     MD5 check sum: df00be1c11b23341d9806d8f1dfa10cf
     Pseudo is Ultrasoft + core correction, Zval = 16.0
     Generated by new atomic code, or converted to UPF format
     Using radial grid of  967 points,  6 beta functions with:
                l(1) =   0
                l(2) =   0
                l(3) =   1
                l(4) =   1
                l(5) =   2
                l(6) =   2
     Q(r) pseudized with  8 coefficients,  rinner =    1.300   1.300   1.300
                                                       1.300   1.300

     PseudoPot. # 2 for O  read from file:
     /home/camp/zhonxu/pseudo/o_pbe_v1.01.uspp.F.UPF
     MD5 check sum: 2bcb18d16ea4b960afae9ec6d52f22d2
     Pseudo is Ultrasoft + core correction, Zval =  6.0
     Generated by new atomic code, or converted to UPF format
     Using radial grid of  737 points,  5 beta functions with:
                l(1) =   0
                l(2) =   0
                l(3) =   1
                l(4) =   1
                l(5) =   2
     Q(r) pseudized with  8 coefficients,  rinner =    0.900   0.900   0.900
                                                       0.900   0.900

     atomic species   valence    mass     pseudopotential
        Ru0           16.00   101.07000     Ru( 1.00)
        O1             6.00    15.99940     O ( 1.00)

     Starting magnetic structure
     atomic species   magnetization
        Ru0          0.600
        O1           0.000

     16 Sym. Ops., with inversion, found ( 8 have fractional translation)

   Cartesian axes

     site n.     atom                  positions (alat units)
         1           Ru0 tau(   1) = (   0.0000000   0.0000000   0.0000000  )
         2           Ru0 tau(   2) = (   0.4783428   0.4783428   0.3520603  )
         3           O1  tau(   3) = (   0.2968686   0.2968686   0.0000000  )
         4           O1  tau(   4) = (  -0.2968686  -0.2968686   0.0000000  )
         5           O1  tau(   5) = (   0.7752113   0.1814742   0.3520603  )
         6           O1  tau(   6) = (   0.1814742   0.7752113   0.3520603  )

     number of k points=    36  Methfessel-Paxton smearing, width (Ry)=  0.0100
                       cart. coord. in units 2pi/alat
        k(    1) = (   0.0000000   0.0000000   0.0000000), wk =   0.0080000
        k(    2) = (   0.0000000   0.0000000   0.2840423), wk =   0.0160000
        k(    3) = (   0.0000000   0.0000000   0.5680845), wk =   0.0160000
        k(    4) = (   0.0000000   0.2090551   0.0000000), wk =   0.0320000
        k(    5) = (   0.0000000   0.2090551   0.2840423), wk =   0.0640000
        k(    6) = (   0.0000000   0.2090551   0.5680845), wk =   0.0640000
        k(    7) = (   0.0000000   0.4181102   0.0000000), wk =   0.0320000
        k(    8) = (   0.0000000   0.4181102   0.2840423), wk =   0.0640000
        k(    9) = (   0.0000000   0.4181102   0.5680845), wk =   0.0640000
        k(   10) = (   0.2090551   0.2090551   0.0000000), wk =   0.0320000
        k(   11) = (   0.2090551   0.2090551   0.2840423), wk =   0.0640000
        k(   12) = (   0.2090551   0.2090551   0.5680845), wk =   0.0640000
        k(   13) = (   0.2090551   0.4181102   0.0000000), wk =   0.0640000
        k(   14) = (   0.2090551   0.4181102   0.2840423), wk =   0.1280000
        k(   15) = (   0.2090551   0.4181102   0.5680845), wk =   0.1280000
        k(   16) = (   0.4181102   0.4181102   0.0000000), wk =   0.0320000
        k(   17) = (   0.4181102   0.4181102   0.2840423), wk =   0.0640000
        k(   18) = (   0.4181102   0.4181102   0.5680845), wk =   0.0640000
        k(   19) = (   0.0000000   0.0000000   0.0000000), wk =   0.0080000
        k(   20) = (   0.0000000   0.0000000   0.2840423), wk =   0.0160000
        k(   21) = (   0.0000000   0.0000000   0.5680845), wk =   0.0160000
        k(   22) = (   0.0000000   0.2090551   0.0000000), wk =   0.0320000
        k(   23) = (   0.0000000   0.2090551   0.2840423), wk =   0.0640000
        k(   24) = (   0.0000000   0.2090551   0.5680845), wk =   0.0640000
        k(   25) = (   0.0000000   0.4181102   0.0000000), wk =   0.0320000
        k(   26) = (   0.0000000   0.4181102   0.2840423), wk =   0.0640000
        k(   27) = (   0.0000000   0.4181102   0.5680845), wk =   0.0640000
        k(   28) = (   0.2090551   0.2090551   0.0000000), wk =   0.0320000
        k(   29) = (   0.2090551   0.2090551   0.2840423), wk =   0.0640000
        k(   30) = (   0.2090551   0.2090551   0.5680845), wk =   0.0640000
        k(   31) = (   0.2090551   0.4181102   0.0000000), wk =   0.0640000
        k(   32) = (   0.2090551   0.4181102   0.2840423), wk =   0.1280000
        k(   33) = (   0.2090551   0.4181102   0.5680845), wk =   0.1280000
        k(   34) = (   0.4181102   0.4181102   0.0000000), wk =   0.0320000
        k(   35) = (   0.4181102   0.4181102   0.2840423), wk =   0.0640000
        k(   36) = (   0.4181102   0.4181102   0.5680845), wk =   0.0640000

     Largest allocated arrays     est. size (Mb)     dimensions
     Largest temporary arrays     est. size (Mb)     dimensions

     Check: negative/imaginary core charge=   -0.000009    0.000000

     Initial potential from superposition of free atoms
     Check: negative starting charge=(component1):   -0.105619
     Check: negative starting charge=(component2):   -0.025898

     starting charge   53.99996, renormalised to   56.00000

     negative rho (up, down):  0.110E+00 0.269E-01
     Starting wfc are   42 randomized atomic wfcs

     Self-consistent Calculation

[...]

     total energy              =    -515.29111341 Ry
     Harris-Foulkes estimate   =    -515.29111339 Ry
     estimated scf accuracy    <       0.00000002 Ry

[...]

     iteration # 12     ecut=    40.00 Ry     beta=0.70
     Davidson diagonalization with overlap
     ethr =  3.80E-11,  avg # of iterations =  2.0

     negative rho (up, down):  0.737E-01 0.737E-01

     End of self-consistent calculation

 ------ SPIN UP ------------

[...]

 ------ SPIN DOWN ----------

[...]

          k = 0.4181 0.4181 0.5681 (  1421 PWs)   bands (ev):

   -55.2659 -55.2651 -25.7888 -25.7740 -25.6169 -25.5989 -25.1389 -25.1381
    -2.0598  -1.8784  -1.5849  -1.4080   9.0198   9.2332   9.5326   9.8475
    10.9516  11.3240  13.2083  13.2207  13.2926  13.7103  14.9100  15.1345
    17.3858  17.4196  17.5489  18.1798  18.7493  19.4931  22.2569  22.6865
    24.0679  24.4818  28.7681  29.0581  31.4143  32.2977  33.9169  34.5202
    35.6394  35.9895  36.9989  37.3691  39.9674  40.4437  42.4139  42.7006
    44.0113  44.4153  46.1672  47.3276  48.7836  49.2134  50.0225  50.7148
    51.2157  52.0232  53.8533  54.2442  54.3490  55.0277  56.1094  56.3471
    56.6136  56.9887  57.7621  58.2574  58.2858  58.9978  59.9585  60.4688
    60.7740  60.9844  61.7134  62.8622  63.6169  64.0686  64.2979  64.8699
    66.6446

     the Fermi energy is    18.6614 ev

!    total energy              =    -515.29111343 Ry
     Harris-Foulkes estimate   =    -515.29111343 Ry
     estimated scf accuracy    <          4.5E-09 Ry

     The total energy is the sum of the following terms:

     one-electron contribution =    -115.21515663 Ry
     hartree contribution      =      99.77851760 Ry
     xc contribution           =     -79.80489533 Ry
     ewald contribution        =    -420.04913573 Ry
     smearing contrib. (-TS)   =      -0.00044334 Ry

     total magnetization       =     0.00 Bohr mag/cell
     absolute magnetization    =     0.00 Bohr mag/cell

     convergence has been achieved in  12 iterations

     Forces acting on atoms (Ry/au):

     negative rho (up, down):  0.737E-01 0.737E-01
     atom    1 type  1   force =     0.00000000    0.00000000   -0.00000000
     atom    2 type  1   force =     0.00000000    0.00000000    0.00000000
     atom    3 type  2   force =    -0.00019012   -0.00019012    0.00000000
     atom    4 type  2   force =     0.00019012    0.00019012    0.00000000
     atom    5 type  2   force =    -0.00019012    0.00019012    0.00000000
     atom    6 type  2   force =     0.00019012   -0.00019012    0.00000000

     Total force =     0.000538     Total SCF correction =     0.000032

     entering subroutine stress ...

     negative rho (up, down):  0.737E-01 0.737E-01
          total   stress  (Ry/bohr**3)                   (kbar)     P= 1115.18
   0.00756527   0.00000000   0.00000000       1112.89      0.00      0.00
   0.00000000   0.00756527   0.00000000          0.00   1112.89      0.00
   0.00000000   0.00000000   0.00761206          0.00      0.00   1119.77

     General routines

     Parallel routines

   This run was terminated on:  21:43:58  23Jan2014

   JOB DONE.
Running PBS batch system epilogue script
Job id: 251186.audhumbla.fysik.dtu.dk
Username: zhonxu
Groupname: campgst
Jobname: RuO2/coarse-EOS/RuO2-v-0.8
Sessionid: 17850
Queuename: verylong
Accounting:
This job has allocated the following 4 nodes:
q041 q041 q041 q041
Finished epilogue job 251186.audhumbla.fysik.dtu.dk for zhonxu