     Program PWSCF v.5.0.2 (svn rev. 9656) starts on  4May2014 at 20:12:58

     Current dimensions of program PWSCF are:
     Max number of different atomic species (ntypx) = 10
     Max number of k-points (npk) =  40000
     Max angular momentum in pseudopotentials (lmaxx) =  3
     Reading input from pwscf.in
Warning: card &CELL ignored
Warning: card / ignored

     Subspace diagonalization in iterative solution of the eigenvalue problem:
     a serial algorithm will be used

     bravais-lattice index     =            0
     lattice parameter (alat)  =      10.7336  a.u.
     unit-cell volume          =    6184.1966 (a.u.)^3
     number of atoms/cell      =           32
     number of atomic types    =            3
     number of electrons       =       239.00 (up: 131.00, down: 108.00)
     number of Kohn-Sham states=          346
     kinetic-energy cutoff     =      40.0000  Ry
     charge density cutoff     =     500.0000  Ry
     convergence threshold     =      1.0E-06
     mixing beta               =       0.7000
     number of iterations used =            8  plain     mixing
     Exchange-correlation      = SLA  PW   PBE  PBE ( 1 4 3 4 0)
     EXX-fraction              =        0.00
     nstep                     =           50

     celldm(1)=  10.733644  celldm(2)=   0.000000  celldm(3)=   0.000000
     celldm(4)=   0.000000  celldm(5)=   0.000000  celldm(6)=   0.000000

     crystal axes: (cart. coord. in units of alat)
               a(1) = (   1.000000   0.000000   0.000000 )
               a(2) = (   0.000000   1.085558   0.000000 )
               a(3) = (   0.000000   0.000000   4.606685 )

     reciprocal axes: (cart. coord. in units 2 pi/alat)
               b(1) = (  1.000000  0.000000  0.000000 )
               b(2) = (  0.000000  0.921185  0.000000 )
               b(3) = (  0.000000  0.000000  0.217076 )

     PseudoPot. # 1 for O  read from file:
     /home/camp/zhonxu/pseudo/o_pbe_v1.01.uspp.F.UPF
     MD5 check sum: 2bcb18d16ea4b960afae9ec6d52f22d2
     Pseudo is Ultrasoft + core correction, Zval =  6.0
     Generated by new atomic code, or converted to UPF format
     Using radial grid of  737 points,  5 beta functions with:
                l(1) =   0
                l(2) =   0
                l(3) =   1
                l(4) =   1
                l(5) =   2
     Q(r) pseudized with  8 coefficients,  rinner =    0.900   0.900   0.900
                                                       0.900   0.900

     PseudoPot. # 2 for Mn read from file:
     /home/camp/zhonxu/pseudo/mn_pbe_v1.uspp.F.UPF
     MD5 check sum: 5fd7c7b5c956fd19902447332617373a
     Pseudo is Ultrasoft + core correction, Zval = 15.0
     Generated by new atomic code, or converted to UPF format
     Using radial grid of  859 points,  6 beta functions with:
                l(1) =   0
                l(2) =   0
                l(3) =   1
                l(4) =   1
                l(5) =   2
                l(6) =   2
     Q(r) pseudized with  6 coefficients,  rinner =    1.150   1.150   1.150
                                                       1.150   1.150

     PseudoPot. # 3 for H  read from file:
     /home/camp/zhonxu/pseudo/h_pbe_v1.uspp.F.UPF
     MD5 check sum: 3408e3ff4ec8b0a4e358431e7e038a48
     Pseudo is Ultrasoft, Zval =  1.0
     Generated by new atomic code, or converted to UPF format
     Using radial grid of  615 points,  2 beta functions with:
                l(1) =   0
                l(2) =   0
     Q(r) pseudized with  8 coefficients,  rinner =    0.700

     atomic species   valence    mass     pseudopotential
        O0             6.00    15.99940     O ( 1.00)
        Mn1           15.00    54.93800     Mn( 1.00)
        H2             1.00     1.00794     H ( 1.00)

     Starting magnetic structure
     atomic species   magnetization
        O0           0.000
        Mn1          0.600
        H2           0.000

     Simplified LDA+U calculation (l_max = 2) with parameters (eV):
     atomic species    L          U    alpha       J0     beta
        Mn1            2     5.0000   0.0000   0.0000   0.0000

     No symmetry found

   Cartesian axes

     site n.     atom                  positions (alat units)
         1           O0  tau(   1) = (   0.0000000   0.0000000   1.7414191  )
         2           O0  tau(   2) = (   0.0000000   0.5427791   1.8381134  )
         3           Mn1 tau(   3) = (   0.2500000   0.5427791   2.0740217  )
         4           Mn1 tau(   4) = (   0.0000000   0.0000000   2.0686319  )
         5           O0  tau(   5) = (   0.2500000   0.8684466   2.0678488  )
         6           O0  tau(   6) = (   0.2500000   0.2171117   2.0737453  )
         7           O0  tau(   7) = (   0.0000000   0.5427791   2.2873573  )
         8           O0  tau(   8) = (   0.0000000   0.0000000   2.4132120  )
         9           Mn1 tau(   9) = (   0.2500000   0.0000000   2.6399991  )
        10           Mn1 tau(  10) = (   0.0000000   0.5427791   2.6085815  )
        11           O0  tau(  11) = (   0.2500000   0.7598908   2.6551551  )
        12           O0  tau(  12) = (   0.2500000   0.3256675   2.6556157  )
        13           O0  tau(  13) = (   0.0000000   0.0000000   2.8417258  )
        14           O0  tau(  14) = (   0.5000000   0.0000000   1.7428932  )
        15           O0  tau(  15) = (   0.5000000   0.5427791   1.8386662  )
        16           Mn1 tau(  16) = (   0.7500000   0.5427791   2.0740678  )
        17           Mn1 tau(  17) = (   0.5000000   0.0000000   2.0707510  )
        18           O0  tau(  18) = (   0.7500000   0.8684466   2.0677106  )
        19           O0  tau(  19) = (   0.7500000   0.2171117   2.0738835  )
        20           O0  tau(  20) = (   0.5000000   0.5427791   2.2871270  )
        21           O0  tau(  21) = (   0.5000000   0.0000000   2.4132120  )
        22           Mn1 tau(  22) = (   0.7500000   0.0000000   2.6413811  )
        23           Mn1 tau(  23) = (   0.5000000   0.5427791   2.6662572  )
        24           O0  tau(  24) = (   0.7500000   0.7598908   2.6473698  )
        25           O0  tau(  25) = (   0.7500000   0.3256675   2.6477844  )
        26           O0  tau(  26) = (   0.5000000   0.0000000   2.8412191  )
        27           H2  tau(  27) = (   0.0000400   0.7014118   1.7620570  )
        28           H2  tau(  28) = (   0.5000900   0.7016832   1.7629323  )
        29           H2  tau(  29) = (   0.1613600   0.0398291   1.6869220  )
        30           H2  tau(  30) = (   0.6610200   0.0399703   1.6876591  )
        31           O0  tau(  31) = (   0.5153900   0.5432351   2.9826904  )
        32           H2  tau(  32) = (   0.3575300   0.5430397   3.0540479  )

     number of k points=    20  Methfessel-Paxton smearing, width (Ry)=  0.0100
                       cart. coord. in units 2pi/alat
        k(    1) = (   0.0000000   0.0000000   0.0000000), wk =   0.0625000
        k(    2) = (   0.0000000   0.2302962   0.0000000), wk =   0.1250000
        k(    3) = (   0.0000000  -0.4605925   0.0000000), wk =   0.0625000
        k(    4) = (   0.2500000   0.0000000   0.0000000), wk =   0.1250000
        k(    5) = (   0.2500000   0.2302962   0.0000000), wk =   0.1250000
        k(    6) = (   0.2500000  -0.4605925   0.0000000), wk =   0.1250000
        k(    7) = (  -0.5000000   0.0000000   0.0000000), wk =   0.0625000
        k(    8) = (  -0.5000000   0.2302962   0.0000000), wk =   0.1250000
        k(    9) = (  -0.5000000  -0.4605925   0.0000000), wk =   0.0625000
        k(   10) = (  -0.2500000   0.2302962   0.0000000), wk =   0.1250000
        k(   11) = (   0.0000000   0.0000000   0.0000000), wk =   0.0625000
        k(   12) = (   0.0000000   0.2302962   0.0000000), wk =   0.1250000
        k(   13) = (   0.0000000  -0.4605925   0.0000000), wk =   0.0625000
        k(   14) = (   0.2500000   0.0000000   0.0000000), wk =   0.1250000
        k(   15) = (   0.2500000   0.2302962   0.0000000), wk =   0.1250000
        k(   16) = (   0.2500000  -0.4605925   0.0000000), wk =   0.1250000
        k(   17) = (  -0.5000000   0.0000000   0.0000000), wk =   0.0625000
        k(   18) = (  -0.5000000   0.2302962   0.0000000), wk =   0.1250000
        k(   19) = (  -0.5000000  -0.4605925   0.0000000), wk =   0.0625000
        k(   20) = (  -0.2500000   0.2302962   0.0000000), wk =   0.1250000

     Largest allocated arrays     est. size (Mb)     dimensions
     Largest temporary arrays     est. size (Mb)     dimensions

     Check: negative/imaginary core charge=   -0.000022    0.000000

     Initial potential from superposition of free atoms
     Check: negative starting charge=(component1):   -0.000716
     Check: negative starting charge=(component2):   -0.000389

     starting charge  230.99986, renormalised to  239.00000

     negative rho (up, down):  0.741E-03 0.403E-03
     Number of +U iterations with fixed ns =  0
     Starting occupations:
 --- enter write_ns ---
 LDA+U parameters:
U( 2)     =  5.00000000
alpha( 2) =  0.00000000
atom    3   Tr[ns(na)] (up, down, total) =   5.00000  0.00000  5.00000
   spin  1
    eigenvalues:
  1.000  1.000  1.000  1.000  1.000
    eigenvectors:
  1.000  0.000  0.000  0.000  0.000
  0.000  1.000  0.000  0.000  0.000
  0.000  0.000  1.000  0.000  0.000
  0.000  0.000  0.000  1.000  0.000
  0.000  0.000  0.000  0.000  1.000
    occupations:
  1.000  0.000  0.000  0.000  0.000
  0.000  1.000  0.000  0.000  0.000
  0.000  0.000  1.000  0.000  0.000
  0.000  0.000  0.000  1.000  0.000
  0.000  0.000  0.000  0.000  1.000
   spin  2
    eigenvalues:
  0.000  0.000  0.000  0.000  0.000
    eigenvectors:
  1.000  0.000  0.000  0.000  0.000
  0.000  1.000  0.000  0.000  0.000
  0.000  0.000  1.000  0.000  0.000
  0.000  0.000  0.000  1.000  0.000
  0.000  0.000  0.000  0.000  1.000
    occupations:
  0.000  0.000  0.000  0.000  0.000
  0.000  0.000  0.000  0.000  0.000
  0.000  0.000  0.000  0.000  0.000
  0.000  0.000  0.000  0.000  0.000
  0.000  0.000  0.000  0.000  0.000
atomic mag. moment =     5.000000
atom    4   Tr[ns(na)] (up, down, total) =   5.00000  0.00000  5.00000
   spin  1
    eigenvalues:
  1.000  1.000  1.000  1.000  1.000
    eigenvectors:
  1.000  0.000  0.000  0.000  0.000
  0.000  1.000  0.000  0.000  0.000
  0.000  0.000  1.000  0.000  0.000
  0.000  0.000  0.000  1.000  0.000
  0.000  0.000  0.000  0.000  1.000
    occupations:
  1.000  0.000  0.000  0.000  0.000
  0.000  1.000  0.000  0.000  0.000
  0.000  0.000  1.000  0.000  0.000
  0.000  0.000  0.000  1.000  0.000
  0.000  0.000  0.000  0.000  1.000
   spin  2
    eigenvalues:
  0.000  0.000  0.000  0.000  0.000
    eigenvectors:
  1.000  0.000  0.000  0.000  0.000
  0.000  1.000  0.000  0.000  0.000
  0.000  0.000  1.000  0.000  0.000
  0.000  0.000  0.000  1.000  0.000
  0.000  0.000  0.000  0.000  1.000
    occupations:
  0.000  0.000  0.000  0.000  0.000
  0.000  0.000  0.000  0.000  0.000
  0.000  0.000  0.000  0.000  0.000
  0.000  0.000  0.000  0.000  0.000
  0.000  0.000  0.000  0.000  0.000
atomic mag. moment =     5.000000
atom    9   Tr[ns(na)] (up, down, total) =   5.00000  0.00000  5.00000
   spin  1
    eigenvalues:
  1.000  1.000  1.000  1.000  1.000
[...]
atomic mag. moment =     3.351887
atom    4   Tr[ns(na)] (up, down, total) =   4.37171  1.01120  5.38291
   spin  1
    eigenvalues:
  0.652  0.715  0.996  1.004  1.004
    eigenvectors:
  0.000  0.998  0.001  0.001  0.000
  0.000  0.001  0.000  0.924  0.075
  0.000  0.000  0.000  0.075  0.925
  0.000  0.001  0.999  0.000  0.000
  1.000  0.000  0.000  0.000  0.000
    occupations:
  0.715 -0.009 -0.006  0.007 -0.001
 -0.009  1.003 -0.000  0.000  0.001
 -0.006 -0.000  1.004  0.000  0.000
  0.007  0.000  0.000  0.996  0.000
 -0.001  0.001  0.000  0.000  0.652
   spin  2
    eigenvalues:
  0.084  0.107  0.119  0.338  0.362
    eigenvectors:
  0.004  0.003  0.000  0.994  0.000
  0.002  0.776  0.219  0.002  0.001
  0.002  0.217  0.780  0.001  0.000
  0.992  0.004  0.000  0.004  0.000
  0.000  0.000  0.000  0.000  0.999
    occupations:
  0.336  0.011  0.006 -0.015  0.000
  0.011  0.110 -0.005  0.000 -0.006
  0.006 -0.005  0.117  0.001 -0.000
 -0.015  0.000  0.001  0.085 -0.000
  0.000 -0.006 -0.000 -0.000  0.362
atomic mag. moment =     3.360506
atom    9   Tr[ns(na)] (up, down, total) =   4.35658  1.05851  5.41509
   spin  1
    eigenvalues:
  0.685  0.702  0.977  0.994  0.999
    eigenvectors:
  0.226  0.000  0.000  0.000  0.774
  0.000  1.000  0.000  0.000  0.000
  0.000  0.000  0.002  0.998  0.000
  0.774  0.000  0.000  0.000  0.226
  0.000  0.000  0.998  0.002  0.000
    occupations:
  0.928  0.001 -0.000 -0.132  0.000
  0.001  0.702  0.000 -0.001  0.000
 -0.000  0.000  0.994 -0.000  0.001
 -0.132 -0.001 -0.000  0.756  0.000
  0.000  0.000  0.001  0.000  0.977
   spin  2
    eigenvalues:
  0.097  0.114  0.119  0.356  0.372
    eigenvectors:
  0.810  0.000  0.000  0.188  0.002
  0.000  0.000  0.000  0.014  0.986
  0.000  0.000  1.000  0.000  0.000
  0.190  0.000  0.000  0.798  0.012
  0.000  1.000  0.000  0.000  0.000
    occupations:
  0.147 -0.001  0.000  0.101 -0.000
 -0.001  0.372 -0.000  0.002 -0.000
  0.000 -0.000  0.119  0.000  0.000
  0.101  0.002  0.000  0.307 -0.000
 -0.000 -0.000  0.000 -0.000  0.114
atomic mag. moment =     3.298066
atom   10   Tr[ns(na)] (up, down, total) =   4.59592  0.71842  5.31434
   spin  1
    eigenvalues:
  0.654  0.947  0.997  0.999  1.000
    eigenvectors:
  0.000  0.967  0.033  0.000  0.000
  0.000  0.002  0.013  0.985  0.000
  0.000  0.000  0.000  0.000  0.999
  0.000  0.031  0.954  0.015  0.000
  1.000  0.000  0.000  0.000  0.000
    occupations:
  0.948 -0.002  0.000  0.009  0.000
 -0.002  0.999  0.000  0.001 -0.001
  0.000  0.000  1.000 -0.000  0.007
  0.009  0.001 -0.000  0.995 -0.000
  0.000 -0.001  0.007 -0.000  0.654
   spin  2
    eigenvalues:
  0.071  0.083  0.090  0.159  0.315
    eigenvectors:
  0.026  0.000  0.000  0.973  0.000
  0.000  0.000  0.999  0.000  0.000
  0.000  1.000  0.000  0.000  0.000
  0.973  0.000  0.000  0.026  0.000
  0.000  0.000  0.000  0.000  1.000
    occupations:
  0.157  0.001 -0.000 -0.014  0.000
  0.001  0.090  0.000 -0.000  0.001
 -0.000  0.000  0.083 -0.000 -0.004
 -0.014 -0.000 -0.000  0.073 -0.000
  0.000  0.001 -0.004 -0.000  0.315
atomic mag. moment =     3.877506
atom   16   Tr[ns(na)] (up, down, total) =   4.37181  1.01926  5.39107
   spin  1
    eigenvalues:
  0.673  0.698  0.999  1.000  1.003
    eigenvectors:
  0.237  0.009  0.000  0.687  0.067
  0.067  0.931  0.001  0.002  0.000
  0.000  0.000  0.000  0.085  0.915
  0.696  0.060  0.000  0.227  0.018
  0.000  0.001  0.999  0.000  0.000
    occupations:
  0.920 -0.014 -0.003 -0.140 -0.000
 -0.014  0.697 -0.001  0.001 -0.009
 -0.003 -0.001  1.003 -0.003 -0.000
 -0.140  0.001 -0.003  0.754 -0.000
 -0.000 -0.009 -0.000 -0.000  0.998
   spin  2
    eigenvalues:
  0.085  0.109  0.124  0.343  0.359
    eigenvectors:
  0.778  0.000  0.003  0.012  0.207
  0.000  0.002  0.000  0.960  0.037
  0.004  0.008  0.989  0.000  0.000
  0.218  0.000  0.001  0.026  0.755
  0.000  0.991  0.008  0.002  0.000
    occupations:
  0.145  0.003 -0.002  0.113  0.000
  0.003  0.343  0.000 -0.005  0.010
 -0.002  0.000  0.124  0.001 -0.001
  0.113 -0.005  0.001  0.298 -0.001
  0.000  0.010 -0.001 -0.001  0.109
atomic mag. moment =     3.352551
atom   17   Tr[ns(na)] (up, down, total) =   4.37139  1.01080  5.38219
   spin  1
    eigenvalues:
  0.654  0.713  0.996  1.004  1.004
    eigenvectors:
  0.000  0.998  0.000  0.001  0.000
  0.000  0.001  0.000  0.861  0.138
  0.000  0.000  0.000  0.137  0.862
  0.000  0.000  0.999  0.000  0.000
  1.000  0.000  0.000  0.000  0.000
    occupations:
  0.714 -0.009 -0.006  0.006 -0.001
 -0.009  1.004 -0.000  0.000  0.001
 -0.006 -0.000  1.004  0.000 -0.000
  0.006  0.000  0.000  0.996  0.000
 -0.001  0.001 -0.000  0.000  0.654
   spin  2
    eigenvalues:
  0.085  0.107  0.119  0.337  0.363
    eigenvectors:
  0.004  0.002  0.000  0.994  0.000
  0.002  0.762  0.233  0.002  0.001
  0.002  0.231  0.766  0.001  0.000
  0.992  0.004  0.000  0.004  0.000
  0.000  0.000  0.000  0.000  0.999
    occupations:
  0.336  0.010  0.006 -0.015  0.000
  0.010  0.111 -0.005  0.000 -0.006
  0.006 -0.005  0.116  0.001  0.000
 -0.015  0.000  0.001  0.086 -0.000
  0.000 -0.006  0.000 -0.000  0.363
atomic mag. moment =     3.360584
atom   22   Tr[ns(na)] (up, down, total) =   4.35040  1.06679  5.41719
   spin  1
    eigenvalues:
  0.682  0.700  0.975  0.994  0.999
    eigenvectors:
  0.229  0.001  0.000  0.000  0.770
  0.003  0.997  0.000  0.000  0.000
  0.000  0.000  0.024  0.976  0.000
  0.768  0.002  0.000  0.000  0.230
  0.000  0.000  0.976  0.024  0.000
    occupations:
  0.926 -0.001 -0.000 -0.134 -0.000
 -0.001  0.700 -0.000  0.001  0.000
 -0.000 -0.000  0.994 -0.000 -0.003
 -0.134  0.001 -0.000  0.755 -0.000
 -0.000  0.000 -0.003 -0.000  0.976
   spin  2
    eigenvalues:
  0.097  0.115  0.121  0.362  0.372
    eigenvectors:
  0.807  0.000  0.000  0.188  0.005
  0.000  0.000  0.000  0.032  0.968
  0.000  0.002  0.998  0.000  0.000
  0.193  0.000  0.000  0.780  0.026
  0.000  0.998  0.002  0.000  0.000
    occupations:
  0.148  0.001  0.000  0.105 -0.000
  0.001  0.372 -0.000 -0.002 -0.000
  0.000 -0.000  0.121  0.001 -0.000
  0.105 -0.002  0.001  0.311  0.000
 -0.000 -0.000 -0.000  0.000  0.115
atomic mag. moment =     3.283614
atom   23   Tr[ns(na)] (up, down, total) =   4.40235  0.96294  5.36528
   spin  1
    eigenvalues:
  0.666  0.736  0.998  1.001  1.001
    eigenvectors:
  0.000  0.999  0.000  0.000  0.000
  0.000  0.000  0.030  0.928  0.041
  0.000  0.000  0.000  0.043  0.956
  0.000  0.000  0.969  0.029  0.002
  1.000  0.000  0.000  0.000  0.000
    occupations:
  0.737  0.004  0.002  0.005 -0.000
  0.004  1.001 -0.000 -0.001 -0.001
  0.002 -0.000  1.001 -0.000 -0.006
  0.005 -0.001 -0.000  0.998 -0.000
 -0.000 -0.001 -0.006 -0.000  0.666
   spin  2
    eigenvalues:
  0.086  0.100  0.104  0.309  0.364
    eigenvectors:
  0.004  0.000  0.000  0.996  0.000
  0.000  0.997  0.003  0.000  0.000
  0.000  0.003  0.997  0.000  0.000
  0.996  0.000  0.000  0.004  0.000
  0.000  0.000  0.000  0.000  1.000
    occupations:
  0.308 -0.002 -0.001 -0.014  0.000
 -0.002  0.100 -0.000 -0.000  0.001
 -0.001 -0.000  0.104  0.000  0.006
 -0.014 -0.000  0.000  0.087  0.000
  0.000  0.001  0.006  0.000  0.364
atomic mag. moment =     3.439410
N of occupied +U levels =  43.0598777
 --- exit write_ns ---

 ------ SPIN UP ------------

[...]

 ------ SPIN DOWN ----------

[...]

          k = 0.2500-0.4606 0.0000 ( 26462 PWs)   bands (ev):

[...]

          k =-0.2500 0.2303 0.0000 ( 26396 PWs)   bands (ev):

   -80.3098 -80.3014 -80.2400 -80.2316 -80.2027 -80.1968 -80.1764 -79.2950
   -49.1917 -49.1726 -49.1482 -49.1385 -49.1360 -49.1301 -49.0961 -49.0937
   -49.0823 -49.0644 -49.0382 -49.0291 -49.0234 -49.0213 -49.0089 -49.0026
   -48.9165 -48.8983 -48.8381 -48.8164 -48.7906 -48.4027 -48.2877 -47.6862
   -21.6220 -21.1772 -21.1406 -20.8304 -20.5886 -20.4139 -20.2778 -20.2563
   -20.1434 -20.0083 -19.9587 -19.9312 -19.8182 -19.7603 -19.7268 -19.6841
   -19.5442 -19.4337 -19.3877  -8.9820  -8.7441  -8.3494  -8.2816  -8.2384
    -8.0080  -7.8666  -7.7463  -7.4916  -7.4143  -7.3235  -7.1523  -7.0913
    -6.9978  -6.9562  -6.8796  -6.8303  -6.7125  -6.5821  -6.5347  -6.3691
    -6.3241  -6.2217  -6.1296  -6.0491  -5.9854  -5.8147  -5.6905  -5.6319
    -5.5696  -5.4614  -5.3938  -5.2923  -5.2207  -5.1961  -5.0417  -4.9883
    -4.8266  -4.7115  -4.6397  -4.6053  -4.5201  -4.4100  -4.3521  -4.3184
    -4.1712  -4.0764  -3.9959  -3.8715  -3.7510  -3.6046  -3.5580  -3.4713
    -3.2357  -3.1318  -3.0848  -2.7661   0.8081   0.8431   0.8469   0.9173
     0.9358   0.9576   0.9844   1.0278   1.0970   1.1204   1.2151   1.2747
     1.3516   1.3963   1.4523   1.4952   1.5726   1.5835   1.6239   1.6981
     1.7761   1.8340   1.8807   1.9295   1.9542   1.9920   2.0578   2.1305
     2.2585   2.3077   2.3817   2.4644   2.5505   2.6115   2.7141   2.7865
     2.8718   3.0498   3.1500   3.2284   3.8484   4.0534   4.3946   4.8680
     5.3961   5.7372   5.9174   6.0241   6.2874   6.4563   6.5648   6.7162
     6.7905   6.9435   7.1038   7.3869   7.5087   7.7582   7.8921   7.9967
     8.2774   8.4186   8.4998   8.6565   8.7484   8.8740   8.8992   9.0454
     9.2034   9.3250   9.4562   9.5439   9.6945   9.8167   9.9248  10.0437
    10.1577  10.2098  10.3018  10.4176  10.5582  10.7260  10.7972  10.9488
    11.0203  11.0986  11.1673  11.2689  11.3678  11.4401  11.5111  11.6908
    11.7202  11.7779  11.8358  11.9404  11.9922  12.1172  12.2007  12.3022
    12.4132  12.4687  12.5828  12.7037  12.7925  12.8750  12.9062  12.9921
    13.0573  13.1204  13.1744  13.2506  13.3225  13.3706  13.4432  13.5719
    13.5979  13.6850  13.7456  13.7949  13.8320  13.9171  14.0230  14.0731
    14.1086  14.2358  14.2865  14.3053  14.4192  14.4667  14.5211  14.6166
    14.7236  14.7952  14.8329  14.9427  15.0128  15.0710  15.1259  15.2281
    15.3204  15.3840  15.5165  15.6407  15.6981  15.8449  15.8687  16.0233
    16.0875  16.1911  16.2598  16.3060  16.3779  16.4392  16.4862  16.5663
    16.6381  16.7006  16.8339  16.8883  16.9759  17.0175  17.1349  17.1947
    17.2433  17.3132  17.4027  17.4567  17.5536  17.6142  17.6828  17.7780
    17.8656  17.8920  17.9954  18.0836  18.1023  18.2262  18.2965  18.3203
    18.4051  18.4825  18.5661  18.5977  18.6564  18.8115  18.8476  18.9335
    19.0455  19.0838  19.1260  19.2159  19.2546  19.3249  19.4115  19.4681
    19.5522  19.6722  19.8284  19.8663  19.9139  19.9914  20.0626  20.0955
    20.1375  20.2178  20.2784  20.3176  20.3789  20.4232  20.5885  20.6406
    20.7093  20.8708  20.9618  21.0243  21.0800  21.1407  21.1990  21.2326
    21.3430  21.4153  21.5092  21.5862  21.6709  21.6977  21.7492  21.8080
    21.8478  21.9848  22.0713  22.1606  22.2487  22.3517  22.4078  22.4618
    22.5287  22.6527

     the spin up/dw Fermi energies are    -2.3185    0.1629 ev

!    total energy              =   -2320.31785654 Ry
     Harris-Foulkes estimate   =   -2320.31785654 Ry
     estimated scf accuracy    <          2.3E-09 Ry

     The total energy is the sum of the following terms:

     one-electron contribution =  -26241.07554793 Ry
     hartree contribution      =   13139.67981393 Ry
     xc contribution           =    -349.54469491 Ry
     ewald contribution        =   11128.95694138 Ry
     Hubbard energy            =       1.66507855 Ry
     smearing contrib. (-TS)   =       0.00055245 Ry

     total magnetization       =    23.00 Bohr mag/cell
     absolute magnetization    =    33.01 Bohr mag/cell

     convergence has been achieved in  18 iterations

     Forces acting on atoms (Ry/au):

     negative rho (up, down):  0.188E-02 0.140E-02
     atom    1 type  1   force =    -0.00508721   -0.01404079    0.00057387
     atom    2 type  1   force =     0.00045415    0.00750117    0.00005807
     atom    3 type  2   force =     0.01525448    0.00157607    0.00011028
     atom    4 type  2   force =     0.00678661    0.01215125   -0.00038690
     atom    5 type  1   force =     0.00207705    0.01394138   -0.00017020
     atom    6 type  1   force =    -0.00134839   -0.02006970   -0.00028438
     atom    7 type  1   force =     0.00238704    0.00171613    0.00015047
     atom    8 type  1   force =     0.00065827   -0.00237408   -0.00057444
     atom    9 type  2   force =     0.00848257    0.00010234    0.00056662
     atom   10 type  2   force =     0.00010951   -0.00135780   -0.00028244
     atom   11 type  1   force =    -0.01426764   -0.02569211   -0.00003308
     atom   12 type  1   force =    -0.01414339    0.02612584    0.00018748
     atom   13 type  1   force =    -0.00211955   -0.00060325   -0.00005211
     atom   14 type  1   force =    -0.00482927   -0.01331552    0.00050399
     atom   15 type  1   force =     0.00050451    0.00638328   -0.00045744
     atom   16 type  2   force =    -0.01715876    0.00164500    0.00006978
     atom   17 type  2   force =     0.00699617    0.01200115   -0.00072688
     atom   18 type  1   force =     0.00150884    0.01380688   -0.00011628
     atom   19 type  1   force =    -0.00259641   -0.02003438   -0.00021252
     atom   20 type  1   force =    -0.00220042    0.00210205    0.00063938
     atom   21 type  1   force =    -0.00360936   -0.00237578   -0.00085008
     atom   22 type  2   force =    -0.00759076    0.00046861    0.00021094
     atom   23 type  2   force =     0.00286043   -0.00045789   -0.00046736
     atom   24 type  1   force =     0.01286513   -0.02046943    0.00020520
     atom   25 type  1   force =     0.01344430    0.02071727    0.00033891
     atom   26 type  1   force =     0.00130718   -0.00046436    0.00005345
     atom   27 type  3   force =     0.00002619    0.00019450    0.00046988
     atom   28 type  3   force =     0.00000989    0.00058143    0.00050270
     atom   29 type  3   force =    -0.00037625    0.00001966   -0.00024401
     atom   30 type  3   force =    -0.00032997    0.00007209   -0.00004860
     atom   31 type  1   force =     0.00008325    0.00016674   -0.00042773
     atom   32 type  3   force =    -0.00015821   -0.00001772    0.00069343

     Total force =     0.002429     Total SCF correction =     0.000099

     bfgs converged in  20 scf cycles and  19 bfgs steps
     (criteria: energy < 0.10E-03, force < 0.10E-02)

     End of BFGS Geometry Optimization

     Final energy   =   -2320.3178565351 Ry
Begin final coordinates

ATOMIC_POSITIONS (crystal)
O0       0.000000000   0.000000000   0.374264737    0   0   1
O0       0.000000000   0.500000000   0.395389474    0   0   1
Mn1      0.250000000   0.500000000   0.448065599    0   0   1
Mn1      0.000000000   0.000000000   0.447103100    0   0   1
O0       0.250000000   0.800000000   0.446182216    0   0   1
O0       0.250000000   0.200000000   0.449343957    0   0   1
O0       0.000000000   0.500000000   0.494406331    0   0   1
O0       0.000000000   0.000000000   0.524791741    0   0   1
Mn1      0.250000000   0.000000000   0.573465318    0   0   1
Mn1      0.000000000   0.500000000   0.570097865    0   0   1
O0       0.250000000   0.700000000   0.582067309    0   0   1
O0       0.250000000   0.300000000   0.582479117    0   0   1
O0       0.000000000   0.000000000   0.621600031    0   0   1
O0       0.500000000   0.000000000   0.374329087    0   0   1
O0       0.500000000   0.500000000   0.395538666    0   0   1
Mn1      0.750000000   0.500000000   0.448101447    0   0   1
Mn1      0.500000000   0.000000000   0.447103251    0   0   1
O0       0.750000000   0.800000000   0.446028912    0   0   1
O0       0.750000000   0.200000000   0.449190676    0   0   1
O0       0.500000000   0.500000000   0.497548476    0   0   1
O0       0.500000000   0.000000000   0.524859829    0   0   1
Mn1      0.750000000   0.000000000   0.573438405    0   0   1
Mn1      0.500000000   0.500000000   0.578515534    0   0   1
O0       0.750000000   0.700000000   0.579230516    0   0   1
O0       0.750000000   0.300000000   0.579776234    0   0   1
O0       0.500000000   0.000000000   0.622169191    0   0   1
H2       0.000398052   0.647330856   0.379495149
H2       0.500467533   0.646455638   0.379363311
H2       0.161532702   0.042226172   0.363630037
H2       0.661678115   0.042048035   0.363697924
O0       0.519055614   0.501767794   0.651508262
H2       0.357267225   0.500193285   0.665098298
End final coordinates

     General routines

     Parallel routines
     Hubbard U routines

   This run was terminated on:   2: 5:13   6May2014

   JOB DONE.
Running PBS batch system epilogue script
Job id: 340698.audhumbla.fysik.dtu.dk
Username: zhonxu
Groupname: campgst
Jobname: MnO2/Eads-2-layers/OH-U-5.0
Sessionid: 23718
Queuename: verylong
Accounting:
This job has allocated the following 16 nodes:
c073 c073 c073 c073 c073 c073 c073 c073 c045 c045 c045 c045 c045 c045 c045 c045
Finished epilogue job 340698.audhumbla.fysik.dtu.dk for zhonxu