     Program PWSCF v.5.0.2 (svn rev. 9656) starts on  8Feb2014 at 17: 1:40

     Current dimensions of program PWSCF are:
     Max number of different atomic species (ntypx) = 10
     Max number of k-points (npk) =  40000
     Max angular momentum in pseudopotentials (lmaxx) =  3
     Reading input from RuO2-1-pert.in
Warning: card &IONS ignored
Warning: card / ignored
Warning: card &CELL ignored
Warning: card / ignored

     Subspace diagonalization in iterative solution of the eigenvalue problem:
     a serial algorithm will be used

     bravais-lattice index     =            0
     lattice parameter (alat)  =      17.1209  a.u.
     unit-cell volume          =    3456.5082 (a.u.)^3
     number of atoms/cell      =           48
     number of atomic types    =            3
     number of electrons       =       448.00
     number of Kohn-Sham states=          648
     kinetic-energy cutoff     =      40.0000  Ry
     charge density cutoff     =     500.0000  Ry
     convergence threshold     =      1.0E-06
     mixing beta               =       0.7000
     number of iterations used =            8  plain     mixing
     Exchange-correlation      = SLA  PW   PBE  PBE ( 1 4 3 4 0)
     EXX-fraction              =        0.00

     celldm(1)=  17.120919  celldm(2)=   0.000000  celldm(3)=   0.000000
     celldm(4)=   0.000000  celldm(5)=   0.000000  celldm(6)=   0.000000

     crystal axes: (cart. coord. in units of alat)
               a(1) = (   1.000000   0.000000   0.000000 )
               a(2) = (   0.000000   1.000000   0.000000 )
               a(3) = (   0.000000   0.000000   0.688742 )

     reciprocal axes: (cart. coord. in units 2 pi/alat)
               b(1) = (  1.000000  0.000000  0.000000 )
               b(2) = (  0.000000  1.000000  0.000000 )
               b(3) = (  0.000000  0.000000  1.451923 )

     PseudoPot. # 1 for Ru read from file:
     /home/camp/zhonxu/pseudo/ru_pbe_v1.uspp.F.UPF
     MD5 check sum: df00be1c11b23341d9806d8f1dfa10cf
     Pseudo is Ultrasoft + core correction, Zval = 16.0
     Generated by new atomic code, or converted to UPF format
     Using radial grid of  967 points,  6 beta functions with:
                l(1) =   0
                l(2) =   0
                l(3) =   1
                l(4) =   1
                l(5) =   2
                l(6) =   2
     Q(r) pseudized with  8 coefficients,  rinner =    1.300   1.300   1.300
                                                       1.300   1.300

     PseudoPot. # 2 for Ru read from file:
     /home/camp/zhonxu/pseudo/ru_pbe_v1.uspp.F.UPF
     MD5 check sum: df00be1c11b23341d9806d8f1dfa10cf
     Pseudo is Ultrasoft + core correction, Zval = 16.0
     Generated by new atomic code, or converted to UPF format
     Using radial grid of  967 points,  6 beta functions with:
                l(1) =   0
                l(2) =   0
                l(3) =   1
                l(4) =   1
                l(5) =   2
                l(6) =   2
     Q(r) pseudized with  8 coefficients,  rinner =    1.300   1.300   1.300
                                                       1.300   1.300

     PseudoPot. # 3 for O  read from file:
     /home/camp/zhonxu/pseudo/o_pbe_v1.01.uspp.F.UPF
     MD5 check sum: 2bcb18d16ea4b960afae9ec6d52f22d2
     Pseudo is Ultrasoft + core correction, Zval =  6.0
     Generated by new atomic code, or converted to UPF format
     Using radial grid of  737 points,  5 beta functions with:
                l(1) =   0
                l(2) =   0
                l(3) =   1
                l(4) =   1
                l(5) =   2
     Q(r) pseudized with  8 coefficients,  rinner =    0.900   0.900   0.900
                                                       0.900   0.900

     atomic species   valence    mass     pseudopotential
        Ru0           16.00   101.07000     Ru( 1.00)
        Ru1           16.00   101.07000     Ru( 1.00)
        O2             6.00    15.99940     O ( 1.00)

     Starting magnetic structure
     atomic species   magnetization
        Ru0          0.000
        Ru1          0.000
        O2           0.000

     Simplified LDA+U calculation (l_max = 2) with parameters (eV):
     atomic species    L          U    alpha       J0     beta
        Ru0            2     0.0000   0.0000   0.0000   0.0000
        Ru1            2     0.0000   0.0000   0.0000   0.0000
        O2             1     0.0000   0.0000   0.0000   0.0000

      8 Sym. Ops., with inversion, found

   Cartesian axes

     site n.     atom                  positions (alat units)
         1           Ru0 tau(   1) = (   0.0000000   0.0000000   0.0000000  )
         2           Ru1 tau(   2) = (   0.2500000   0.2500000   0.1721854  )
         3           Ru1 tau(   3) = (   0.0000000   0.0000000   0.3443709  )
         4           Ru1 tau(   4) = (   0.2500000   0.2500000   0.5165563  )
         5           Ru1 tau(   5) = (   0.0000000   0.5000000   0.0000000  )
         6           Ru1 tau(   6) = (   0.2500000   0.7500000   0.1721854  )
         7           Ru1 tau(   7) = (   0.0000000   0.5000000   0.3443709  )
         8           Ru1 tau(   8) = (   0.2500000   0.7500000   0.5165563  )
         9           Ru1 tau(   9) = (   0.5000000   0.0000000   0.0000000  )
        10           Ru1 tau(  10) = (   0.7500000   0.2500000   0.1721854  )
        11           Ru1 tau(  11) = (   0.5000000   0.0000000   0.3443709  )
        12           Ru1 tau(  12) = (   0.7500000   0.2500000   0.5165563  )
        13           Ru1 tau(  13) = (   0.5000000   0.5000000   0.0000000  )
        14           Ru1 tau(  14) = (   0.7500000   0.7500000   0.1721854  )
        15           Ru1 tau(  15) = (   0.5000000   0.5000000   0.3443709  )
        16           Ru1 tau(  16) = (   0.7500000   0.7500000   0.5165563  )
        17           O2  tau(  17) = (   0.1550000   0.1550000   0.0000000  )
        18           O2  tau(  18) = (  -0.1550000  -0.1550000   0.0000000  )
        19           O2  tau(  19) = (   0.4050000   0.0950000   0.1721854  )
        20           O2  tau(  20) = (   0.0950000   0.4050000   0.1721854  )
        21           O2  tau(  21) = (   0.1550000   0.1550000   0.3443709  )
        22           O2  tau(  22) = (  -0.1550000  -0.1550000   0.3443709  )
        23           O2  tau(  23) = (   0.4050000   0.0950000   0.5165563  )
        24           O2  tau(  24) = (   0.0950000   0.4050000   0.5165563  )
        25           O2  tau(  25) = (   0.1550000   0.6550000   0.0000000  )
        26           O2  tau(  26) = (  -0.1550000   0.3450000   0.0000000  )
        27           O2  tau(  27) = (   0.4050000   0.5950000   0.1721854  )
        28           O2  tau(  28) = (   0.0950000   0.9050000   0.1721854  )
        29           O2  tau(  29) = (   0.1550000   0.6550000   0.3443709  )
        30           O2  tau(  30) = (  -0.1550000   0.3450000   0.3443709  )
        31           O2  tau(  31) = (   0.4050000   0.5950000   0.5165563  )
        32           O2  tau(  32) = (   0.0950000   0.9050000   0.5165563  )
        33           O2  tau(  33) = (   0.6550000   0.1550000   0.0000000  )
        34           O2  tau(  34) = (   0.3450000  -0.1550000   0.0000000  )
        35           O2  tau(  35) = (   0.9050000   0.0950000   0.1721854  )
        36           O2  tau(  36) = (   0.5950000   0.4050000   0.1721854  )
        37           O2  tau(  37) = (   0.6550000   0.1550000   0.3443709  )
        38           O2  tau(  38) = (   0.3450000  -0.1550000   0.3443709  )
        39           O2  tau(  39) = (   0.9050000   0.0950000   0.5165563  )
        40           O2  tau(  40) = (   0.5950000   0.4050000   0.5165563  )
        41           O2  tau(  41) = (   0.6550000   0.6550000   0.0000000  )
        42           O2  tau(  42) = (   0.3450000   0.3450000   0.0000000  )
        43           O2  tau(  43) = (   0.9050000   0.5950000   0.1721854  )
        44           O2  tau(  44) = (   0.5950000   0.9050000   0.1721854  )
        45           O2  tau(  45) = (   0.6550000   0.6550000   0.3443709  )
        46           O2  tau(  46) = (   0.3450000   0.3450000   0.3443709  )
        47           O2  tau(  47) = (   0.9050000   0.5950000   0.5165563  )
        48           O2  tau(  48) = (   0.5950000   0.9050000   0.5165563  )

     number of k points=    42  Methfessel-Paxton smearing, width (Ry)=  0.0100
                       cart. coord. in units 2pi/alat
        k(    1) = (   0.0000000   0.0000000   0.0000000), wk =   0.0156250
        k(    2) = (   0.0000000   0.0000000   0.3629808), wk =   0.0312500
        k(    3) = (   0.0000000   0.0000000  -0.7259615), wk =   0.0156250
        k(    4) = (   0.0000000   0.2500000   0.0000000), wk =   0.0625000
        k(    5) = (   0.0000000   0.2500000   0.3629808), wk =   0.1250000
        k(    6) = (   0.0000000   0.2500000  -0.7259615), wk =   0.0625000
        k(    7) = (   0.0000000  -0.5000000   0.0000000), wk =   0.0312500
        k(    8) = (   0.0000000  -0.5000000   0.3629808), wk =   0.0625000
        k(    9) = (   0.0000000  -0.5000000  -0.7259615), wk =   0.0312500
        k(   10) = (   0.2500000   0.2500000   0.0000000), wk =   0.0312500
        k(   11) = (   0.2500000   0.2500000   0.3629808), wk =   0.0625000
        k(   12) = (   0.2500000   0.2500000  -0.7259615), wk =   0.0312500
        k(   13) = (   0.2500000  -0.5000000   0.0000000), wk =   0.0625000
        k(   14) = (   0.2500000  -0.5000000   0.3629808), wk =   0.1250000
        k(   15) = (   0.2500000  -0.5000000  -0.7259615), wk =   0.0625000
        k(   16) = (  -0.5000000  -0.5000000   0.0000000), wk =   0.0156250
        k(   17) = (  -0.5000000  -0.5000000   0.3629808), wk =   0.0312500
        k(   18) = (  -0.5000000  -0.5000000  -0.7259615), wk =   0.0156250
        k(   19) = (  -0.2500000   0.2500000   0.0000000), wk =   0.0312500
        k(   20) = (  -0.2500000   0.2500000  -0.3629808), wk =   0.0625000
        k(   21) = (  -0.2500000   0.2500000   0.7259615), wk =   0.0312500
        k(   22) = (   0.0000000   0.0000000   0.0000000), wk =   0.0156250
        k(   23) = (   0.0000000   0.0000000   0.3629808), wk =   0.0312500
        k(   24) = (   0.0000000   0.0000000  -0.7259615), wk =   0.0156250
        k(   25) = (   0.0000000   0.2500000   0.0000000), wk =   0.0625000
        k(   26) = (   0.0000000   0.2500000   0.3629808), wk =   0.1250000
        k(   27) = (   0.0000000   0.2500000  -0.7259615), wk =   0.0625000
        k(   28) = (   0.0000000  -0.5000000   0.0000000), wk =   0.0312500
        k(   29) = (   0.0000000  -0.5000000   0.3629808), wk =   0.0625000
        k(   30) = (   0.0000000  -0.5000000  -0.7259615), wk =   0.0312500
        k(   31) = (   0.2500000   0.2500000   0.0000000), wk =   0.0312500
        k(   32) = (   0.2500000   0.2500000   0.3629808), wk =   0.0625000
        k(   33) = (   0.2500000   0.2500000  -0.7259615), wk =   0.0312500
        k(   34) = (   0.2500000  -0.5000000   0.0000000), wk =   0.0625000
        k(   35) = (   0.2500000  -0.5000000   0.3629808), wk =   0.1250000
        k(   36) = (   0.2500000  -0.5000000  -0.7259615), wk =   0.0625000
[...]
atomic mag. moment =     0.000000
atom   42   Tr[ns(na)] (up, down, total) =   2.65808  2.65808  5.31616
   spin  1
    eigenvalues:
  0.878  0.886  0.894
    eigenvectors:
  0.000  0.000  1.000
  0.500  0.500  0.000
  0.500  0.500  0.000
    occupations:
  0.894 -0.000 -0.000
 -0.000  0.882  0.004
 -0.000  0.004  0.882
   spin  2
    eigenvalues:
  0.878  0.886  0.894
    eigenvectors:
  0.000  0.000  1.000
  0.500  0.500  0.000
  0.500  0.500  0.000
    occupations:
  0.894 -0.000 -0.000
 -0.000  0.882  0.004
 -0.000  0.004  0.882
atomic mag. moment =     0.000000
atom   43   Tr[ns(na)] (up, down, total) =   2.65808  2.65808  5.31615
   spin  1
    eigenvalues:
  0.878  0.886  0.894
    eigenvectors:
  0.000  0.000  1.000
  0.500  0.500  0.000
  0.500  0.500  0.000
    occupations:
  0.894  0.000 -0.000
  0.000  0.882 -0.004
 -0.000 -0.004  0.882
   spin  2
    eigenvalues:
  0.878  0.886  0.894
    eigenvectors:
  0.000  0.000  1.000
  0.500  0.500  0.000
  0.500  0.500  0.000
    occupations:
  0.894  0.000 -0.000
  0.000  0.882 -0.004
 -0.000 -0.004  0.882
atomic mag. moment =     0.000000
atom   44   Tr[ns(na)] (up, down, total) =   2.65808  2.65808  5.31615
   spin  1
    eigenvalues:
  0.878  0.886  0.894
    eigenvectors:
  0.000  0.000  1.000
  0.500  0.500  0.000
  0.500  0.500  0.000
    occupations:
  0.894 -0.000  0.000
 -0.000  0.882 -0.004
  0.000 -0.004  0.882
   spin  2
    eigenvalues:
  0.878  0.886  0.894
    eigenvectors:
  0.000  0.000  1.000
  0.500  0.500  0.000
  0.500  0.500  0.000
    occupations:
  0.894 -0.000  0.000
 -0.000  0.882 -0.004
  0.000 -0.004  0.882
atomic mag. moment =     0.000000
atom   45   Tr[ns(na)] (up, down, total) =   2.65808  2.65808  5.31616
   spin  1
    eigenvalues:
  0.878  0.886  0.894
    eigenvectors:
  0.000  0.000  1.000
  0.500  0.500  0.000
  0.500  0.500  0.000
    occupations:
  0.894 -0.000 -0.000
 -0.000  0.882  0.004
 -0.000  0.004  0.882
   spin  2
    eigenvalues:
  0.878  0.886  0.894
    eigenvectors:
  0.000  0.000  1.000
  0.500  0.500  0.000
  0.500  0.500  0.000
    occupations:
  0.894 -0.000 -0.000
 -0.000  0.882  0.004
 -0.000  0.004  0.882
atomic mag. moment =     0.000000
atom   46   Tr[ns(na)] (up, down, total) =   2.65808  2.65808  5.31616
   spin  1
    eigenvalues:
  0.878  0.886  0.894
    eigenvectors:
  0.000  0.000  1.000
  0.500  0.500  0.000
  0.500  0.500  0.000
    occupations:
  0.894 -0.000 -0.000
 -0.000  0.882  0.004
 -0.000  0.004  0.882
   spin  2
    eigenvalues:
  0.878  0.886  0.894
    eigenvectors:
  0.000  0.000  1.000
  0.500  0.500  0.000
  0.500  0.500  0.000
    occupations:
  0.894 -0.000 -0.000
 -0.000  0.882  0.004
 -0.000  0.004  0.882
atomic mag. moment =     0.000000
atom   47   Tr[ns(na)] (up, down, total) =   2.65808  2.65808  5.31615
   spin  1
    eigenvalues:
  0.878  0.886  0.894
    eigenvectors:
  0.000  0.000  1.000
  0.500  0.500  0.000
  0.500  0.500  0.000
    occupations:
  0.894 -0.000  0.000
 -0.000  0.882 -0.004
  0.000 -0.004  0.882
   spin  2
    eigenvalues:
  0.878  0.886  0.894
    eigenvectors:
  0.000  0.000  1.000
  0.500  0.500  0.000
  0.500  0.500  0.000
    occupations:
  0.894 -0.000  0.000
 -0.000  0.882 -0.004
  0.000 -0.004  0.882
atomic mag. moment =     0.000000
atom   48   Tr[ns(na)] (up, down, total) =   2.65808  2.65808  5.31615
   spin  1
    eigenvalues:
  0.878  0.886  0.894
    eigenvectors:
  0.000  0.000  1.000
  0.500  0.500  0.000
  0.500  0.500  0.000
    occupations:
  0.894  0.000 -0.000
  0.000  0.882 -0.004
 -0.000 -0.004  0.882
   spin  2
    eigenvalues:
  0.878  0.886  0.894
    eigenvectors:
  0.000  0.000  1.000
  0.500  0.500  0.000
  0.500  0.500  0.000
    occupations:
  0.894  0.000 -0.000
  0.000  0.882 -0.004
 -0.000 -0.004  0.882
atomic mag. moment =     0.000000
N of occupied +U levels = 284.5816921
 --- exit write_ns ---

 ------ SPIN UP ------------

          k = 0.0000 0.0000 0.0000 ( 14779 PWs)   bands (ev):

   -60.7998 -60.7971 -60.7969 -60.7968 -60.7968 -60.7967 -60.7967 -60.7939
   -60.7869 -60.7866 -60.7865 -60.7865 -60.7863 -60.7863 -60.7863 -60.7863
   -31.0006 -31.0005 -30.9987 -30.9986 -30.9964 -30.9963 -30.9961 -30.9960
   -30.9891 -30.9890 -30.9887 -30.9887 -30.9850 -30.9849 -30.9841 -30.9841
   -30.8247 -30.8246 -30.8243 -30.8242 -30.8209 -30.8208 -30.8205 -30.8205
   -30.6554 -30.6440 -30.6438 -30.6436 -30.6436 -30.6436 -30.6435 -30.6322
   -30.6117 -30.6116 -30.6113 -30.6113 -30.6081 -30.6080 -30.6077 -30.6077
   -30.5805 -30.5804 -30.5797 -30.5796 -30.5795 -30.5794 -30.5792 -30.5792
    -7.4031  -6.8083  -6.8082  -6.6924  -6.6923  -6.6922  -6.6922  -6.4007
    -6.3190  -6.3188  -6.3188  -6.3187  -6.1278  -6.1278  -6.0693  -6.0693
    -6.0078  -6.0077  -5.9696  -5.9695  -5.7594  -5.7592  -5.7592  -5.7591
    -5.7450  -5.7448  -5.7448  -5.7448  -5.5593  -5.5592  -5.4247  -5.4246
     4.4126   4.4741   4.4742   4.5011   5.3567   5.3568   5.3569   5.3569
     5.4684   5.4686   5.4686   5.4687   5.6416   5.6416   5.7320   5.8221
     5.8221   5.8602   5.8603   5.9009   5.9010   5.9878   5.9879   5.9959
     5.9961   5.9962   5.9962   6.2315   6.2316   6.2317   6.2317   6.5240
     6.5241   6.7378   6.7378   6.9326   6.9326   7.2368   7.2368   7.2368
     7.2369   7.4266   7.4266   7.4266   7.4266   7.5658   7.5659   7.5660
     7.5660   7.9776   7.9777   8.0019   8.0019   8.1025   8.1025   8.1489
     8.1489   8.2968   8.2968   8.3104   8.3104   8.3105   8.3105   8.4604
     8.4604   8.4604   8.4605   8.5477   8.5493   8.5493   8.6004   8.6005
     8.6005   8.6006   9.2414   9.2414   9.2879   9.2880   9.4436   9.4436
     9.9122   9.9124   9.9124   9.9124   9.9217   9.9217   9.9415  10.1161
    10.1162  10.1162  10.1163  10.1420  10.1420  10.4304  10.4304  10.8458
    11.0226  11.0226  11.0227  11.0228  11.2465  11.3874  11.3875  11.3966
    11.3966  11.4172  11.4173  11.4424  11.9855  12.0210  12.0211  12.0970
    12.0972  12.0974  12.0974  12.0993  12.0993  12.1125  12.1125  12.2676
    12.2676  12.2678  12.2679  12.3083  12.3085  12.3086  12.3086  12.5813
    12.5813  13.0030  13.0031  13.1046  13.1047  13.1049  13.1049  13.5070
    13.5070  13.6070  13.6071  13.8172  13.8173  13.8173  13.8174  14.0489
    14.3845  14.6346  14.6348  14.6348  14.6349  15.7764  15.7765  15.7766
    15.7767  15.8093  15.8094  16.0252  16.0253  16.1839  16.1840  16.5803
    16.5804  16.5806  16.5806  16.9042  16.9044  16.9046  16.9046  17.3456
    17.3456  17.3591  17.3592  17.5312  17.5312  17.5314  17.5314  18.2626
    18.7593  20.9954  20.9954  20.9955  20.9955  22.1983  22.1983  22.3825
    22.3825  22.7196  22.7196  23.0037  23.0037  23.0038  23.0038  23.2958
    23.2958  23.6929  23.6930  24.2406  24.2407  24.2407  24.2407  25.0665
    25.0665  25.0666  25.0666  25.1945  25.1945  25.4081  25.4082  25.7210
    25.7210  25.9899  25.9899  26.0447  26.6864  26.7060  26.7061  26.8204
    26.8204  26.8204  26.8204  27.0697  27.0697  27.0764  27.0764  27.0764
    27.0764  27.8624  27.8624  27.9496  28.1227  28.1227  28.1656  28.1656
    28.1657  28.1657  29.0191  29.0479  29.0480  29.0480  29.0481  29.0576
    29.0843  29.0843  29.2709  29.2709  29.2710  29.2710  29.9768  29.9768
    29.9769  29.9769  30.2398  30.2399  30.4176  30.4177  30.7462  30.7462
    30.8715  31.0573  31.0573  31.0573  31.0573  31.2133  31.2133  31.2134
    31.2134  32.1334  32.1335  32.3093  32.4277  32.4277  32.6831  32.6831
    32.9240  32.9240  33.0522  33.0522  33.0523  33.0523  33.9275  33.9275
    33.9276  33.9276  34.3570  34.3570  34.3676  34.3676  34.4746  34.4747
    34.9120  34.9120  34.9555  34.9555  35.7031  35.7031  35.7788  35.7788
    35.7789  35.7789  35.9171  35.9171  36.1805  36.1805  36.3347  36.3512
    36.3512  36.3513  36.3513  37.3165  37.3166  37.7486  37.7487  37.7487
    37.7488  37.9306  37.9306  37.9336  37.9336  37.9336  37.9336  38.1577
    38.1577  38.1578  38.1578  38.4208  38.4208  38.6560  38.6560  38.6560
    38.6561  38.9063  38.9064  39.3013  39.3013  39.5251  39.8383  39.8383
    39.8383  39.8384  39.8461  39.8461  39.9220  39.9220  40.0144  40.0144
    40.0144  40.0144  40.0159  40.0160  40.1024  40.1024  40.3019  40.3019
    40.3019  40.3019  40.6311  40.8761  40.8761  40.9693  41.1000  41.4209
    41.5272  42.0305  42.0305  42.0311  42.0311  42.1340  42.1340  42.7031
    42.7031  42.7031  42.7031  42.7095  42.7095  42.8909  42.8909  42.8909
    42.8909  43.1652  43.1652  43.3271  43.6584  43.6584  43.6585  43.6585
[...]
    47.5854  47.5855  47.5855  47.5856  47.5986  47.5987  47.5987  47.5987
    47.6693  47.6693  48.0363  48.0363  48.1070  48.1071  48.1234  48.3555
    48.3555  48.3556  48.3556  48.4570  48.4571  48.5046  48.5046  48.5113
    48.5113  48.6629  48.6629  48.6630  48.6630  49.1341  49.1942  49.1942
    49.2233  49.2233  49.2233  49.2233  49.3188  49.3188  49.3709  49.3709
    49.5306  49.5307  49.7656  49.7656  49.8132  49.8133  49.8133  49.8133
    50.4685  50.4685  50.6343  50.6344  50.6345  50.6345  50.8820  50.8820
    51.0570  51.0996  51.1405  51.1405  51.2321  51.2321  51.3306  51.3307
    51.3307  51.3307  51.5386  51.5387  51.9434  51.9434  52.0115  52.0115
    52.0116  52.0116  52.3646  52.3646  52.3647  52.3647  52.5311  52.5311
    52.5597  52.5597  52.7653  52.7653  52.7741  52.7741  52.7741  52.7741
    53.0768  53.0768  53.0769  53.5132  53.7550  53.7550  53.7550  53.7550
    53.8372  53.8372  54.0065  54.0065  54.0568  54.0569  54.0569  54.0569
    54.3550  54.4595  54.4596  54.9216  54.9218  54.9218  55.1722  55.1722
    55.1722  55.1722  55.2474  55.2474  55.5668  55.5668  55.5669  55.5669

[...]

          k =-0.5000-0.5000 0.0000 ( 14712 PWs)   bands (ev):

[...]

 ------ SPIN DOWN ----------

[...]

          k = 0.2500-0.5000-0.7260 ( 14756 PWs)   bands (ev):

[...]

          k =-0.2500 0.2500 0.7260 ( 14788 PWs)   bands (ev):

   -60.7935 -60.7934 -60.7926 -60.7925 -60.7923 -60.7922 -60.7920 -60.7919
   -60.7914 -60.7913 -60.7911 -60.7910 -60.7908 -60.7907 -60.7899 -60.7898
   -30.9927 -30.9926 -30.9923 -30.9923 -30.9920 -30.9920 -30.9920 -30.9920
   -30.9917 -30.9917 -30.9917 -30.9916 -30.9915 -30.9914 -30.9914 -30.9914
   -30.7414 -30.7414 -30.7371 -30.7371 -30.7368 -30.7367 -30.7359 -30.7358
   -30.7332 -30.7331 -30.7314 -30.7314 -30.7311 -30.7310 -30.7278 -30.7277
   -30.5953 -30.5953 -30.5951 -30.5951 -30.5950 -30.5950 -30.5947 -30.5947
   -30.5946 -30.5945 -30.5944 -30.5944 -30.5942 -30.5941 -30.5938 -30.5938
    -6.8224  -6.8224  -6.5499  -6.5498  -6.5497  -6.5497  -6.4749  -6.4748
    -6.3259  -6.3259  -6.1561  -6.1560  -6.1560  -6.1560  -6.1188  -6.1187
    -5.9920  -5.9919  -5.9919  -5.9919  -5.8912  -5.8911  -5.8338  -5.8338
    -5.8336  -5.8336  -5.8177  -5.8177  -5.8041  -5.8039  -5.7224  -5.7223
     5.0788   5.0789   5.1289   5.1290   5.4361   5.4361   5.4364   5.4364
     5.4504   5.4504   5.4638   5.4638   5.7756   5.7756   5.9072   5.9073
     5.9114   5.9114   5.9114   5.9114   6.0028   6.0028   6.0030   6.0030
     6.0088   6.0088   6.2431   6.2431   6.2431   6.2432   6.3200   6.3200
     6.6088   6.6088   6.6088   6.6088   6.7337   6.7337   6.9853   6.9853
     7.1338   7.1339   7.1340   7.1340   7.2077   7.2077   7.6366   7.6366
     7.6366   7.6366   7.6844   7.6844   7.8108   7.8108   8.0002   8.0002
     8.1064   8.1064   8.1064   8.1064   8.5652   8.5652   8.5653   8.5653
     8.6415   8.6415   8.6731   8.6732   8.7042   8.7042   8.7239   8.7239
     8.8522   8.8522   8.8523   8.8523   9.0257   9.0257   9.1441   9.1441
     9.2349   9.2349   9.2498   9.2499   9.5178   9.5178   9.5179   9.5179
     9.6916   9.6917  10.0597  10.0597  10.0597  10.0598  10.3350  10.3350
    11.2856  11.2856  11.5782  11.5782  11.5783  11.5783  11.9814  11.9814
    12.0002  12.0002  12.0396  12.0397  12.1985  12.1985  12.1986  12.1987
    12.3983  12.3984  12.4611  12.4611  12.4692  12.4692  12.4759  12.4759
    12.4761  12.4762  12.6505  12.6505  12.7547  12.7547  12.7548  12.7548
    12.8847  12.8847  12.9229  12.9229  13.1232  13.1232  13.1233  13.1234
    13.1422  13.1422  13.3969  13.3969  13.3971  13.3971  13.7271  13.7271
    15.2253  15.2253  15.2982  15.2982  15.2982  15.2982  15.6673  15.6673
    15.6675  15.6676  15.6917  15.6917  15.9433  15.9434  16.2023  16.2023
    16.3740  16.3740  16.3797  16.3797  16.6080  16.6081  16.6082  16.6083
    16.8524  16.8524  17.3342  17.3342  17.3343  17.3343  17.4012  17.4012
    20.5959  20.5959  21.5490  21.5490  21.5491  21.5491  22.2038  22.2038
    22.9134  22.9134  22.9135  22.9135  22.9805  22.9805  24.0198  24.0198
    24.1344  24.1344  24.3347  24.3347  24.8403  24.8403  24.8404  24.8404
    25.0744  25.0745  25.7791  25.7791  25.7792  25.7792  25.8092  25.8092
    25.8632  25.8632  26.1018  26.1018  26.2929  26.2929  26.2929  26.2929
    26.4441  26.4441  26.6744  26.6744  26.6744  26.6744  27.5244  27.5244
    27.8071  27.8071  27.8071  27.8071  27.9324  27.9324  28.1296  28.1296
    28.3005  28.3005  28.4755  28.4755  28.4755  28.4755  28.4797  28.4797
    28.8675  28.8675  28.9463  28.9463  28.9464  28.9464  29.2689  29.2689
    29.3077  29.3077  29.7791  29.7791  29.9833  29.9833  29.9833  29.9833
    30.2120  30.2120  31.0786  31.0786  31.0787  31.0787  31.7135  31.7135
    32.1663  32.1663  32.1663  32.1663  32.8540  32.8540  33.0336  33.0336
    33.1951  33.1951  33.1951  33.1951  33.6891  33.6891  33.7587  33.7587
    34.3869  34.3869  34.5950  34.5950  34.5951  34.5951  35.1777  35.1777
    35.5004  35.5004  35.7173  35.7173  35.7197  35.7197  35.7197  35.7197
    35.7415  35.7415  35.8884  35.8885  35.9894  35.9894  35.9895  35.9895
    36.6739  36.6740  36.9298  36.9298  36.9299  36.9299  37.1048  37.1048
    37.1723  37.1723  37.1723  37.1723  37.9299  37.9299  38.4129  38.4129
    38.4129  38.4129  38.4474  38.4474  38.4645  38.4645  38.8573  38.8573
    38.8573  38.8573  38.8760  38.8760  39.0392  39.0392  39.0836  39.0836
    39.2455  39.2455  39.3238  39.3238  39.5967  39.5967  39.5967  39.5967
    39.6684  39.6684  39.7145  39.7146  39.8407  39.8407  39.8407  39.8407
    40.1498  40.1498  40.6758  40.6758  40.6758  40.6758  41.1758  41.1758
    41.6269  41.6269  41.9743  41.9743  42.0472  42.0473  42.2696  42.2696
    42.2696  42.2696  42.4278  42.4278  42.8043  42.8043  43.2791  43.2791
    43.2791  43.2791  43.8680  43.8680  43.8681  43.8681  43.9047  43.9047
[...]
    47.0783  47.0783  47.3230  47.3230  47.8526  47.8526  47.8526  47.8526
    48.0101  48.0101  48.2384  48.2385  48.2493  48.2493  48.2493  48.2493
    48.3625  48.3625  48.5205  48.5205  48.7692  48.7692  48.7693  48.7693
    49.1496  49.1496  49.1526  49.1526  49.1527  49.1527  49.4407  49.4407
    49.4945  49.4945  49.4964  49.4964  49.4965  49.4965  49.5228  49.5228
    49.7173  49.7173  49.8960  49.8960  50.0039  50.0039  50.0040  50.0040
    50.4618  50.4618  50.8177  50.8177  50.8177  50.8178  50.8628  50.8629
    50.9194  50.9194  50.9194  50.9194  51.0545  51.0545  51.1212  51.1212
    51.3442  51.3442  51.5536  51.5536  51.5536  51.5537  51.9629  51.9629
    52.0336  52.0336  52.0336  52.0336  52.2325  52.2325  52.2999  52.2999
    52.5868  52.5868  52.5868  52.5868  52.6051  52.6051  52.8637  52.8637
    53.0592  53.0592  53.3128  53.3128  53.3129  53.3129  53.3814  53.3814
    54.1074  54.1074  54.1952  54.1952  54.2784  54.2784  54.3881  54.3881
    54.4876  54.4876  54.4876  54.4876  55.1676  55.1676  55.1677  55.1677
    55.2776  55.2776  55.3931  55.3931  55.3931  55.3931  55.5285  55.5285

     the Fermi energy is    12.7140 ev

!    total energy              =   -4124.73021369 Ry
     Harris-Foulkes estimate   =   -4124.73021462 Ry
     estimated scf accuracy    <       0.00000096 Ry

     The total energy is the sum of the following terms:

     one-electron contribution =   -1365.40807076 Ry
     hartree contribution      =     934.03816769 Ry
     xc contribution           =    -627.48494171 Ry
     ewald contribution        =   -3065.87288853 Ry
     Hubbard energy            =       0.00000000 Ry
     smearing contrib. (-TS)   =      -0.00248038 Ry

     total magnetization       =     0.00 Bohr mag/cell
     absolute magnetization    =     0.00 Bohr mag/cell

     convergence has been achieved in  18 iterations

     Writing output data file pwscf.save

     General routines

     Parallel routines
     Hubbard U routines

   This run was terminated on:   2:12: 8   9Feb2014

   JOB DONE.
Running PBS batch system epilogue script
Job id: 266906.audhumbla.fysik.dtu.dk
Username: zhonxu
Groupname: campgst
Jobname: linear-response/RuO2-1-scf
Sessionid: 9129
Queuename: verylong
Accounting:
This job has allocated the following 16 nodes:
c036 c036 c036 c036 c036 c036 c036 c036 c032 c032 c032 c032 c032 c032 c032 c032
Finished epilogue job 266906.audhumbla.fysik.dtu.dk for zhonxu