     Program PWSCF v.5.0.2 (svn rev. 9656) starts on 29Apr2014 at  5:31:26

     Current dimensions of program PWSCF are:
     Max number of different atomic species (ntypx) = 10
     Max number of k-points (npk) =  40000
     Max angular momentum in pseudopotentials (lmaxx) =  3
     Reading input from pwscf.in
Warning: card &CELL ignored
Warning: card / ignored

     Subspace diagonalization in iterative solution of the eigenvalue problem:
     a serial algorithm will be used

     bravais-lattice index     =            0
     lattice parameter (alat)  =      12.0187  a.u.
     unit-cell volume          =    7280.5819 (a.u.)^3
     number of atoms/cell      =           32
     number of atomic types    =            3
     number of electrons       =       239.00
     number of Kohn-Sham states=          358
     kinetic-energy cutoff     =      40.0000  Ry
     charge density cutoff     =     500.0000  Ry
     convergence threshold     =      1.0E-06
     mixing beta               =       0.7000
     number of iterations used =            8  plain     mixing
     Exchange-correlation      = SLA  PW   PBE  PBE ( 1 4 3 4 0)
     EXX-fraction              =        0.00
     nstep                     =           50

     celldm(1)=  12.018658  celldm(2)=   0.000000  celldm(3)=   0.000000
     celldm(4)=   0.000000  celldm(5)=   0.000000  celldm(6)=   0.000000

     crystal axes: (cart. coord. in units of alat)
               a(1) = (   1.000000   0.000000   0.000000 )
               a(2) = (   0.000000   1.009517   0.000000 )
               a(3) = (   0.000000   0.000000   4.154171 )

     reciprocal axes: (cart. coord. in units 2 pi/alat)
               b(1) = (  1.000000  0.000000  0.000000 )
               b(2) = (  0.000000  0.990572  0.000000 )
               b(3) = (  0.000000  0.000000  0.240722 )

     PseudoPot. # 1 for O  read from file:
     /home/camp/zhonxu/pseudo/o_pbe_v1.01.uspp.F.UPF
     MD5 check sum: 2bcb18d16ea4b960afae9ec6d52f22d2
     Pseudo is Ultrasoft + core correction, Zval =  6.0
     Generated by new atomic code, or converted to UPF format
     Using radial grid of  737 points,  5 beta functions with:
                l(1) =   0
                l(2) =   0
                l(3) =   1
                l(4) =   1
                l(5) =   2
     Q(r) pseudized with  8 coefficients,  rinner =    0.900   0.900   0.900
                                                       0.900   0.900

     PseudoPot. # 2 for Ir read from file:
     /home/camp/zhonxu/pseudo/ir_pbe_v1.uspp.F.UPF
     MD5 check sum: abf987a9674477536ede83817f8f8b70
     Pseudo is Ultrasoft + core correction, Zval = 15.0
     Generated by new atomic code, or converted to UPF format
     Using radial grid of  983 points,  7 beta functions with:
                l(1) =   0
                l(2) =   0
                l(3) =   1
                l(4) =   1
                l(5) =   1
                l(6) =   2
                l(7) =   2
     Q(r) pseudized with  8 coefficients,  rinner =    1.350   1.350   1.350
                                                       1.350   1.350

     PseudoPot. # 3 for H  read from file:
     /home/camp/zhonxu/pseudo/h_pbe_v1.uspp.F.UPF
     MD5 check sum: 3408e3ff4ec8b0a4e358431e7e038a48
     Pseudo is Ultrasoft, Zval =  1.0
     Generated by new atomic code, or converted to UPF format
     Using radial grid of  615 points,  2 beta functions with:
                l(1) =   0
                l(2) =   0
     Q(r) pseudized with  8 coefficients,  rinner =    0.700

     atomic species   valence    mass     pseudopotential
        O0             6.00    15.99940     O ( 1.00)
        Ir1           15.00   192.22000     Ir( 1.00)
        H2             1.00     1.00794     H ( 1.00)

     Simplified LDA+U calculation (l_max = 2) with parameters (eV):
     atomic species    L          U    alpha       J0     beta
        Ir1            2     2.5000   0.0000   0.0000   0.0000

     No symmetry found

   Cartesian axes

     site n.     atom                  positions (alat units)
         1           O0  tau(   1) = (   0.0000000   0.0000000   1.5715230  )
         2           O0  tau(   2) = (   0.0000000   0.5047586   1.6723863  )
         3           Ir1 tau(   3) = (   0.2500000   0.5047586   1.8804272  )
         4           Ir1 tau(   4) = (   0.0000000   0.0000000   1.8823796  )
         5           O0  tau(   5) = (   0.2500000   0.8177090   1.8809672  )
         6           O0  tau(   6) = (   0.2500000   0.1918083   1.8797625  )
         7           O0  tau(   7) = (   0.0000000   0.5047586   2.0697743  )
         8           O0  tau(   8) = (   0.0000000   0.0000000   2.1967673  )
         9           Ir1 tau(   9) = (   0.2500000   0.0000000   2.3926365  )
        10           Ir1 tau(  10) = (   0.0000000   0.5047586   2.3747736  )
        11           O0  tau(  11) = (   0.2500000   0.6965669   2.3923873  )
        12           O0  tau(  12) = (   0.2500000   0.3129503   2.3927196  )
        13           O0  tau(  13) = (   0.0000000   0.0000000   2.5779541  )
        14           O0  tau(  14) = (   0.5000000   0.0000000   1.5704845  )
        15           O0  tau(  15) = (   0.5000000   0.5047586   1.6698107  )
        16           Ir1 tau(  16) = (   0.7500000   0.5047586   1.8805103  )
        17           Ir1 tau(  17) = (   0.5000000   0.0000000   1.8817565  )
        18           O0  tau(  18) = (   0.7500000   0.8177090   1.8810503  )
        19           O0  tau(  19) = (   0.7500000   0.1918083   1.8797625  )
        20           O0  tau(  20) = (   0.5000000   0.5047586   2.0748424  )
        21           O0  tau(  21) = (   0.5000000   0.0000000   2.1964350  )
        22           Ir1 tau(  22) = (   0.7500000   0.0000000   2.3925119  )
        23           Ir1 tau(  23) = (   0.5000000   0.5047586   2.3910995  )
        24           O0  tau(  24) = (   0.7500000   0.6965669   2.3896040  )
        25           O0  tau(  25) = (   0.7500000   0.3129503   2.3900194  )
        26           O0  tau(  26) = (   0.5000000   0.0000000   2.5760847  )
        27           H2  tau(  27) = (  -0.0000400   0.6399431   1.5942048  )
        28           H2  tau(  28) = (   0.5000100   0.6429817   1.5968219  )
        29           H2  tau(  29) = (   0.1437000   0.0339904   1.5235839  )
        30           H2  tau(  30) = (   0.6431700   0.0357369   1.5224622  )
        31           O0  tau(  31) = (   0.5156900   0.5047586   2.6944786  )
        32           H2  tau(  32) = (   0.3744100   0.5050918   2.7575805  )

     number of k points=    10  Methfessel-Paxton smearing, width (Ry)=  0.0100
                       cart. coord. in units 2pi/alat
        k(    1) = (   0.0000000   0.0000000   0.0000000), wk =   0.1250000
        k(    2) = (   0.0000000   0.2476431   0.0000000), wk =   0.2500000
        k(    3) = (   0.0000000  -0.4952862   0.0000000), wk =   0.1250000
        k(    4) = (   0.2500000   0.0000000   0.0000000), wk =   0.2500000
        k(    5) = (   0.2500000   0.2476431   0.0000000), wk =   0.2500000
        k(    6) = (   0.2500000  -0.4952862   0.0000000), wk =   0.2500000
        k(    7) = (  -0.5000000   0.0000000   0.0000000), wk =   0.1250000
        k(    8) = (  -0.5000000   0.2476431   0.0000000), wk =   0.2500000
        k(    9) = (  -0.5000000  -0.4952862   0.0000000), wk =   0.1250000
        k(   10) = (  -0.2500000   0.2476431   0.0000000), wk =   0.2500000

     Largest allocated arrays     est. size (Mb)     dimensions
     Largest temporary arrays     est. size (Mb)     dimensions

     Check: negative/imaginary core charge=   -0.000003    0.000000

     Initial potential from superposition of free atoms
     Check: negative starting charge=   -3.334647

     starting charge  234.99967, renormalised to  239.00000

     negative rho (up, down):  0.339E+01 0.000E+00
     Number of +U iterations with fixed ns =  0
     Starting occupations:
 --- enter write_ns ---
 LDA+U parameters:
U( 2)     =  2.50000000
alpha( 2) =  0.00000000
atom    3   Tr[ns(na)] =   7.00000
    eigenvalues:
  0.700  0.700  0.700  0.700  0.700
    eigenvectors:
  1.000  0.000  0.000  0.000  0.000
  0.000  1.000  0.000  0.000  0.000
  0.000  0.000  1.000  0.000  0.000
  0.000  0.000  0.000  1.000  0.000
  0.000  0.000  0.000  0.000  1.000
    occupations:
  0.700  0.000  0.000  0.000  0.000
  0.000  0.700  0.000  0.000  0.000
  0.000  0.000  0.700  0.000  0.000
  0.000  0.000  0.000  0.700  0.000
  0.000  0.000  0.000  0.000  0.700
atom    4   Tr[ns(na)] =   7.00000
    eigenvalues:
  0.700  0.700  0.700  0.700  0.700
    eigenvectors:
  1.000  0.000  0.000  0.000  0.000
  0.000  1.000  0.000  0.000  0.000
  0.000  0.000  1.000  0.000  0.000
  0.000  0.000  0.000  1.000  0.000
  0.000  0.000  0.000  0.000  1.000
    occupations:
  0.700  0.000  0.000  0.000  0.000
  0.000  0.700  0.000  0.000  0.000
  0.000  0.000  0.700  0.000  0.000
  0.000  0.000  0.000  0.700  0.000
  0.000  0.000  0.000  0.000  0.700
atom    9   Tr[ns(na)] =   7.00000
    eigenvalues:
  0.700  0.700  0.700  0.700  0.700
    eigenvectors:
  1.000  0.000  0.000  0.000  0.000
  0.000  1.000  0.000  0.000  0.000
  0.000  0.000  1.000  0.000  0.000
  0.000  0.000  0.000  1.000  0.000
  0.000  0.000  0.000  0.000  1.000
    occupations:
  0.700  0.000  0.000  0.000  0.000
  0.000  0.700  0.000  0.000  0.000
  0.000  0.000  0.700  0.000  0.000
  0.000  0.000  0.000  0.700  0.000
  0.000  0.000  0.000  0.000  0.700
atom   10   Tr[ns(na)] =   7.00000
    eigenvalues:
  0.700  0.700  0.700  0.700  0.700
    eigenvectors:
  1.000  0.000  0.000  0.000  0.000
  0.000  1.000  0.000  0.000  0.000
  0.000  0.000  1.000  0.000  0.000
  0.000  0.000  0.000  1.000  0.000
  0.000  0.000  0.000  0.000  1.000
    occupations:
  0.700  0.000  0.000  0.000  0.000
  0.000  0.700  0.000  0.000  0.000
  0.000  0.000  0.700  0.000  0.000
  0.000  0.000  0.000  0.700  0.000
  0.000  0.000  0.000  0.000  0.700
atom   16   Tr[ns(na)] =   7.00000
    eigenvalues:
  0.700  0.700  0.700  0.700  0.700
    eigenvectors:
  1.000  0.000  0.000  0.000  0.000
  0.000  1.000  0.000  0.000  0.000
  0.000  0.000  1.000  0.000  0.000
  0.000  0.000  0.000  1.000  0.000
  0.000  0.000  0.000  0.000  1.000
    occupations:
  0.700  0.000  0.000  0.000  0.000
  0.000  0.700  0.000  0.000  0.000
  0.000  0.000  0.700  0.000  0.000
  0.000  0.000  0.000  0.700  0.000
  0.000  0.000  0.000  0.000  0.700
atom   17   Tr[ns(na)] =   7.00000
    eigenvalues:
  0.700  0.700  0.700  0.700  0.700
    eigenvectors:
  1.000  0.000  0.000  0.000  0.000
  0.000  1.000  0.000  0.000  0.000
  0.000  0.000  1.000  0.000  0.000
  0.000  0.000  0.000  1.000  0.000
  0.000  0.000  0.000  0.000  1.000
    occupations:
  0.700  0.000  0.000  0.000  0.000
  0.000  0.700  0.000  0.000  0.000
  0.000  0.000  0.700  0.000  0.000
  0.000  0.000  0.000  0.700  0.000
  0.000  0.000  0.000  0.000  0.700
atom   22   Tr[ns(na)] =   7.00000
    eigenvalues:
  0.700  0.700  0.700  0.700  0.700
    eigenvectors:
  1.000  0.000  0.000  0.000  0.000
  0.000  1.000  0.000  0.000  0.000
  0.000  0.000  1.000  0.000  0.000
  0.000  0.000  0.000  1.000  0.000
[...]
  0.936 -0.000  0.000 -0.110 -0.001
 -0.000  0.652  0.000  0.000 -0.000
  0.000  0.000  0.849 -0.000 -0.001
 -0.110  0.000 -0.000  0.710  0.001
 -0.001 -0.000 -0.001  0.001  0.893
atom   10   Tr[ns(na)] =   8.07621
    eigenvalues:
  0.593  0.609  0.920  0.934  0.982
    eigenvectors:
  0.992  0.000  0.000  0.000  0.008
  0.000  0.000  1.000  0.000  0.000
  0.000  0.000  0.000  1.000  0.000
  0.008  0.000  0.000  0.000  0.992
  0.000  1.000  0.000  0.000  0.000
    occupations:
  0.596 -0.003  0.001  0.034 -0.000
 -0.003  0.920 -0.000  0.000 -0.000
  0.001 -0.000  0.934 -0.000  0.002
  0.034  0.000 -0.000  0.979 -0.000
 -0.000 -0.000  0.002 -0.000  0.609
atom   16   Tr[ns(na)] =   8.11815
    eigenvalues:
  0.604  0.631  0.885  0.961  0.978
    eigenvectors:
  0.003  0.182  0.003  0.001  0.811
  0.991  0.009  0.000  0.000  0.000
  0.000  0.000  0.978  0.020  0.003
  0.006  0.809  0.000  0.000  0.184
  0.000  0.000  0.019  0.979  0.002
    occupations:
  0.913  0.006  0.004 -0.134  0.002
  0.006  0.605  0.001 -0.000 -0.005
  0.004  0.001  0.886 -0.004 -0.010
 -0.134 -0.000 -0.004  0.695  0.000
  0.002 -0.005 -0.010  0.000  0.960
atom   17   Tr[ns(na)] =   8.09868
    eigenvalues:
  0.618  0.665  0.870  0.915  0.982
    eigenvectors:
  0.000  0.990  0.000  0.000  0.010
  0.000  0.000  0.075  0.925  0.000
  0.000  0.000  0.925  0.075  0.000
  0.000  0.010  0.000  0.000  0.990
  1.000  0.000  0.000  0.000  0.000
    occupations:
  0.668 -0.003 -0.001  0.031  0.001
 -0.003  0.912  0.012  0.000 -0.001
 -0.001  0.012  0.873 -0.000  0.000
  0.031  0.000 -0.000  0.979  0.000
  0.001 -0.001  0.000  0.000  0.618
atom   22   Tr[ns(na)] =   8.07397
    eigenvalues:
  0.652  0.667  0.843  0.896  0.980
    eigenvectors:
  0.000  0.140  0.000  0.000  0.860
  1.000  0.000  0.000  0.000  0.000
  0.000  0.000  1.000  0.000  0.000
  0.000  0.859  0.000  0.000  0.140
  0.000  0.000  0.000  1.000  0.000
    occupations:
  0.936  0.001 -0.000 -0.109 -0.000
  0.001  0.652  0.000 -0.000 -0.000
 -0.000  0.000  0.843 -0.000  0.001
 -0.109 -0.000 -0.000  0.711  0.001
 -0.000 -0.000  0.001  0.001  0.896
atom   23   Tr[ns(na)] =   8.08075
    eigenvalues:
  0.622  0.670  0.843  0.924  0.982
    eigenvectors:
  0.000  0.989  0.000  0.000  0.011
  0.000  0.000  0.000  0.999  0.000
  0.000  0.000  1.000  0.000  0.000
  0.000  0.011  0.000  0.000  0.989
  1.000  0.000  0.000  0.000  0.000
    occupations:
  0.674  0.006  0.000  0.032 -0.000
  0.006  0.924 -0.000 -0.000 -0.000
  0.000 -0.000  0.843  0.000 -0.001
  0.032 -0.000  0.000  0.978  0.000
 -0.000 -0.000 -0.001  0.000  0.622
N of occupied +U levels =  64.7435891
 --- exit write_ns ---

     Threshold (ethr) on eigenvalues was too large:
     Diagonalizing with lowered threshold

     Davidson diagonalization with overlap
     ethr =  1.49E-08,  avg # of iterations =  1.9

[...]

     total energy              =   -2106.45806146 Ry
     Harris-Foulkes estimate   =   -2106.45806146 Ry
     estimated scf accuracy    <       0.00000014 Ry

     iteration # 14     ecut=    40.00 Ry     beta=0.70
     Davidson diagonalization with overlap
     ethr =  8.83E-12,  avg # of iterations =  1.0

     negative rho (up, down):  0.313E+01 0.000E+00

     End of self-consistent calculation
 --- enter write_ns ---
 LDA+U parameters:
U( 2)     =  2.50000000
alpha( 2) =  0.00000000
atom    3   Tr[ns(na)] =   8.11814
    eigenvalues:
  0.604  0.631  0.885  0.961  0.978
    eigenvectors:
  0.002  0.183  0.003  0.000  0.812
  0.992  0.007  0.000  0.000  0.000
  0.000  0.000  0.974  0.023  0.003
  0.005  0.810  0.000  0.000  0.184
  0.000  0.000  0.023  0.976  0.001
    occupations:
  0.913 -0.006  0.004 -0.135 -0.002
 -0.006  0.604 -0.001  0.000 -0.005
  0.004 -0.001  0.887 -0.004  0.011
 -0.135  0.000 -0.004  0.695 -0.000
 -0.002 -0.005  0.011 -0.000  0.960
atom    4   Tr[ns(na)] =   8.09752
    eigenvalues:
  0.619  0.666  0.863  0.920  0.982
    eigenvectors:
  0.000  0.989  0.000  0.000  0.010
  0.000  0.000  0.037  0.963  0.000
  0.000  0.000  0.963  0.037  0.000
  0.000  0.010  0.000  0.000  0.990
  1.000  0.000  0.000  0.000  0.000
    occupations:
  0.669 -0.003 -0.000  0.032  0.001
 -0.003  0.917  0.011  0.000 -0.001
 -0.000  0.011  0.865 -0.000  0.000
  0.032  0.000 -0.000  0.979  0.000
  0.001 -0.001  0.000  0.000  0.619
atom    9   Tr[ns(na)] =   8.07956
    eigenvalues:
  0.652  0.666  0.849  0.893  0.980
    eigenvectors:
  0.000  0.141  0.000  0.000  0.858
  0.999  0.001  0.000  0.000  0.000
  0.000  0.000  0.999  0.001  0.000
  0.001  0.858  0.000  0.000  0.142
  0.000  0.000  0.001  0.999  0.000
    occupations:
  0.936 -0.000  0.000 -0.110 -0.001
 -0.000  0.652  0.000  0.000 -0.000
  0.000  0.000  0.849 -0.000 -0.001
 -0.110  0.000 -0.000  0.710  0.001
 -0.001 -0.000 -0.001  0.001  0.893
atom   10   Tr[ns(na)] =   8.07757
    eigenvalues:
  0.594  0.609  0.921  0.934  0.982
    eigenvectors:
  0.992  0.000  0.000  0.000  0.008
  0.000  0.000  1.000  0.000  0.000
  0.000  0.000  0.000  1.000  0.000
  0.008  0.000  0.000  0.000  0.992
  0.000  1.000  0.000  0.000  0.000
    occupations:
  0.597 -0.003  0.001  0.034 -0.000
 -0.003  0.921 -0.000  0.000 -0.000
  0.001 -0.000  0.934 -0.000  0.002
  0.034  0.000 -0.000  0.979 -0.000
 -0.000 -0.000  0.002 -0.000  0.609
atom   16   Tr[ns(na)] =   8.11773
    eigenvalues:
  0.604  0.631  0.884  0.961  0.978
    eigenvectors:
  0.003  0.182  0.003  0.001  0.811
  0.991  0.009  0.000  0.000  0.000
  0.000  0.000  0.978  0.020  0.003
  0.006  0.809  0.000  0.000  0.184
  0.000  0.000  0.019  0.979  0.002
    occupations:
  0.913  0.006  0.004 -0.134  0.002
  0.006  0.605  0.001 -0.000 -0.005
  0.004  0.001  0.886 -0.004 -0.010
 -0.134 -0.000 -0.004  0.695  0.000
  0.002 -0.005 -0.010  0.000  0.960
atom   17   Tr[ns(na)] =   8.09793
    eigenvalues:
  0.618  0.665  0.870  0.915  0.982
    eigenvectors:
  0.000  0.990  0.000  0.000  0.010
  0.000  0.000  0.074  0.926  0.000
  0.000  0.000  0.926  0.074  0.000
  0.000  0.010  0.000  0.000  0.990
  1.000  0.000  0.000  0.000  0.000
    occupations:
  0.668 -0.003 -0.001  0.031  0.001
 -0.003  0.912  0.012  0.000 -0.001
 -0.001  0.012  0.873 -0.000  0.000
  0.031  0.000 -0.000  0.979  0.000
  0.001 -0.001  0.000  0.000  0.618
atom   22   Tr[ns(na)] =   8.07443
    eigenvalues:
  0.652  0.667  0.843  0.896  0.980
    eigenvectors:
  0.000  0.140  0.000  0.000  0.859
  1.000  0.000  0.000  0.000  0.000
  0.000  0.000  1.000  0.000  0.000
  0.000  0.859  0.000  0.000  0.140
  0.000  0.000  0.000  1.000  0.000
    occupations:
  0.936  0.001 -0.000 -0.109 -0.000
  0.001  0.652  0.000 -0.000 -0.000
 -0.000  0.000  0.843 -0.000  0.001
 -0.109 -0.000 -0.000  0.711  0.001
 -0.000 -0.000  0.001  0.001  0.896
atom   23   Tr[ns(na)] =   8.08066
    eigenvalues:
  0.622  0.670  0.843  0.924  0.982
    eigenvectors:
  0.000  0.989  0.000  0.000  0.011
  0.000  0.000  0.000  0.999  0.000
  0.000  0.000  1.000  0.000  0.000
  0.000  0.011  0.000  0.000  0.989
  1.000  0.000  0.000  0.000  0.000
    occupations:
  0.674  0.006  0.000  0.032 -0.000
  0.006  0.924 -0.000 -0.000 -0.000
  0.000 -0.000  0.843  0.000 -0.001
  0.032 -0.000  0.000  0.978  0.000
 -0.000 -0.000 -0.001  0.000  0.622
N of occupied +U levels =  64.7435509
 --- exit write_ns ---

[...]

          k = 0.2500-0.4953 0.0000 ( 31088 PWs)   bands (ev):

[...]

          k =-0.2500 0.2476 0.0000 ( 31099 PWs)   bands (ev):

   -50.9191 -50.8858 -50.8683 -50.8465 -50.7711 -50.7528 -50.7309 -50.7217
   -50.6985 -50.6848 -50.6494 -50.6242 -50.6126 -50.5696 -50.5183 -50.4935
   -50.4875 -50.4761 -50.4110 -50.4038 -50.3735 -50.3675 -50.3520 -50.2452
   -21.4508 -21.0985 -21.0612 -20.9830 -20.6238 -20.5213 -20.4489 -20.3856
   -20.2814 -20.1901 -20.1223 -20.0308 -19.9055 -19.8910 -19.8206 -19.7386
   -19.5517 -18.7515 -18.6359 -10.0073  -9.9100  -9.7860  -9.4511  -9.0433
    -8.9973  -8.9830  -8.8319  -8.7426  -8.7024  -8.6718  -8.5941  -8.5210
    -8.4534  -8.1797  -8.1378  -8.0323  -7.8449  -7.6327  -7.5285  -7.3663
    -7.2996  -7.1767  -7.1426  -6.8273  -6.7031  -6.6182  -6.4630  -6.3531
    -6.2657  -6.2138  -6.1664  -6.0460  -5.9650  -5.9245  -5.8362  -5.7369
    -5.6127  -5.5789  -5.4007  -5.2140  -5.0960  -4.9886  -4.8469  -4.7619
    -4.6175  -4.5554  -4.4485  -4.2624  -4.1980  -4.0697  -3.9024  -3.6960
    -3.5828  -3.4114  -3.3272  -3.1997  -3.0407  -2.9252  -2.9097  -2.8526
    -2.7972  -2.7085  -2.6090  -2.5764  -2.5280  -2.4809  -2.3876  -2.2200
    -2.1975  -2.1025  -1.7483  -1.5684  -1.3554  -1.1714  -0.9668  -0.9497
    -0.8811  -0.6707  -0.5501  -0.3404  -0.0122   0.9874   1.0101   1.3058
     1.6507   1.7671   2.1885   2.3135   2.6860   2.7348   2.8622   2.9426
     3.1524   3.3081   3.3632   3.7046   3.8322   4.3021   4.8432   5.2639
     5.4638   5.6215   5.7097   6.0138   6.2827   6.5510   6.6484   6.6739
     6.7456   6.9330   7.1379   7.2180   7.3718   7.4525   7.5715   7.6897
     7.9200   8.0379   8.0933   8.1529   8.2617   8.4773   8.5005   8.5636
     8.7917   8.8509   8.9076   8.9705   9.0318   9.0824   9.1748   9.1876
     9.2017   9.2180   9.2216   9.2439   9.3094   9.3854   9.3903   9.4223
     9.5629   9.6011   9.7145   9.7631   9.8273   9.9727  10.0781  10.1483
    10.2240  10.3358  10.3766  10.4589  10.5177  10.5354  10.6105  10.8129
    10.8425  10.9833  11.0024  11.1111  11.1550  11.2363  11.4003  11.5237
    11.5622  11.6697  11.7143  11.7827  11.8226  11.9685  12.1769  12.1911
    12.2421  12.3452  12.3659  12.4172  12.5544  12.6372  12.6508  12.7247
    12.7843  12.8185  12.9288  12.9942  13.0557  13.1523  13.2047  13.2371
    13.3065  13.4068  13.4844  13.6484  13.6738  13.7961  13.8867  13.9228
    13.9972  14.0600  14.1420  14.2235  14.3129  14.3935  14.4710  14.5292
    14.6946  14.7516  14.7765  14.9265  15.0334  15.1771  15.2262  15.3122
    15.4243  15.4585  15.5136  15.5847  15.6183  15.7592  15.7990  15.8661
    15.9124  15.9469  15.9854  16.0822  16.1285  16.1827  16.2276  16.3068
    16.3694  16.4076  16.4231  16.5135  16.5425  16.6478  16.7127  16.7534
    16.8052  16.8882  17.0896  17.1330  17.1649  17.2993  17.3291  17.4178
    17.4657  17.5386  17.5515  17.6136  17.6884  17.7081  17.7485  17.8472
    17.9215  17.9545  17.9942  18.1225  18.2106  18.2554  18.2999  18.3735
    18.4737  18.5854  18.6429  18.6791  18.7726  18.8560  18.9058  18.9687
    19.0336  19.0982  19.1464  19.2216  19.2817  19.3288  19.3862  19.5543
    19.5768  19.6291  19.7068  19.7519  19.8554  19.9392  20.0264  20.0654
    20.1207  20.2258  20.3640  20.3868  20.4616  20.5834  20.6346  20.7088
    20.7573  20.7832  20.8878  20.9129  20.9459  21.0062  21.0688  21.1440
    21.1942  21.2987  21.3117  21.3747  21.4345  21.4606  21.5122  21.5878
    21.6964  21.7454  21.8182  21.8427  21.8855  21.9735

     the Fermi energy is    -0.9627 ev

!    total energy              =   -2106.45806146 Ry
     Harris-Foulkes estimate   =   -2106.45806146 Ry
     estimated scf accuracy    <          5.0E-09 Ry

     The total energy is the sum of the following terms:

     one-electron contribution =  -22760.73698420 Ry
     hartree contribution      =   11424.71232399 Ry
     xc contribution           =    -577.16916984 Ry
     ewald contribution        =    9805.76276927 Ry
     Hubbard energy            =       0.97357091 Ry
     smearing contrib. (-TS)   =      -0.00057159 Ry

     convergence has been achieved in  14 iterations

     Forces acting on atoms (Ry/au):

     negative rho (up, down):  0.313E+01 0.000E+00
     atom    1 type  1   force =    -0.00712552   -0.01316052   -0.00010943
     atom    2 type  1   force =     0.00037313    0.00413093   -0.00015566
     atom    3 type  2   force =     0.03217961    0.00732479   -0.00001545
     atom    4 type  2   force =     0.00920066    0.00819074   -0.00000947
     atom    5 type  1   force =    -0.00336894   -0.01635214   -0.00004234
     atom    6 type  1   force =     0.00484207    0.01390907    0.00003138
     atom    7 type  1   force =     0.00162389   -0.00197532    0.00000149
     atom    8 type  1   force =    -0.00251943   -0.00067746   -0.00005561
     atom    9 type  2   force =     0.00783628    0.00022385   -0.00000717
     atom   10 type  2   force =    -0.00765198   -0.00126882   -0.00083081
     atom   11 type  1   force =    -0.00487054    0.01155935    0.00015966
     atom   12 type  1   force =    -0.00469828   -0.01140384    0.00014608
     atom   13 type  1   force =    -0.00121241   -0.00012096    0.00000688
     atom   14 type  1   force =    -0.00795967   -0.01406401   -0.00007505
     atom   15 type  1   force =     0.00032888    0.00512238   -0.00025965
     atom   16 type  2   force =    -0.03308014    0.00649945   -0.00011450
     atom   17 type  2   force =     0.00957964    0.00847181   -0.00014328
     atom   18 type  1   force =    -0.00306045   -0.01599886   -0.00002500
     atom   19 type  1   force =     0.00407440    0.01476952    0.00003953
     atom   20 type  1   force =    -0.00131189   -0.00518999    0.00078482
     atom   21 type  1   force =    -0.00409822   -0.00058517    0.00000845
     atom   22 type  2   force =    -0.00508209    0.00052289   -0.00004850
     atom   23 type  2   force =     0.00277534   -0.00028062    0.00019873
     atom   24 type  1   force =     0.00629179    0.01538655    0.00005793
     atom   25 type  1   force =     0.00699664   -0.01550487    0.00005800
     atom   26 type  1   force =    -0.00091849   -0.00021472    0.00003591
     atom   27 type  3   force =    -0.00000585    0.00013531    0.00022953
     atom   28 type  3   force =     0.00002023    0.00025870    0.00036863
     atom   29 type  3   force =     0.00008340    0.00001321    0.00016196
     atom   30 type  3   force =    -0.00009297    0.00027873    0.00009503
     atom   31 type  1   force =     0.00019254   -0.00003407   -0.00007964
     atom   32 type  3   force =     0.00065838    0.00003411   -0.00041246

     Total force =     0.001615     Total SCF correction =     0.000198
     SCF correction compared to forces is large: reduce conv_thr to get better values

     bfgs converged in   8 scf cycles and   7 bfgs steps
     (criteria: energy < 0.10E-03, force < 0.10E-02)

     End of BFGS Geometry Optimization

     Final energy   =   -2106.4580614574 Ry
Begin final coordinates

ATOMIC_POSITIONS (crystal)
O0       0.000000000   0.000000000   0.378559904    0   0   1
O0       0.000000000   0.500000000   0.402998074    0   0   1
Ir1      0.250000000   0.500000000   0.452848966    0   0   1
Ir1      0.000000000   0.000000000   0.453193299    0   0   1
O0       0.250000000   0.810000000   0.452960901    0   0   1
O0       0.250000000   0.190000000   0.452596074    0   0   1
O0       0.000000000   0.500000000   0.498816212    0   0   1
O0       0.000000000   0.000000000   0.528702394    0   0   1
Ir1      0.250000000   0.000000000   0.575669757    0   0   1
Ir1      0.000000000   0.500000000   0.571779543    0   0   1
O0       0.250000000   0.690000000   0.575585377    0   0   1
O0       0.250000000   0.310000000   0.575651448    0   0   1
O0       0.000000000   0.000000000   0.620271553    0   0   1
O0       0.500000000   0.000000000   0.378229168    0   0   1
O0       0.500000000   0.500000000   0.402287773    0   0   1
Ir1      0.750000000   0.500000000   0.452859460    0   0   1
Ir1      0.500000000   0.000000000   0.452971493    0   0   1
O0       0.750000000   0.810000000   0.452977173    0   0   1
O0       0.750000000   0.190000000   0.452583400    0   0   1
O0       0.500000000   0.500000000   0.499638654    0   0   1
O0       0.500000000   0.000000000   0.528658690    0   0   1
Ir1      0.750000000   0.000000000   0.575614627    0   0   1
Ir1      0.500000000   0.500000000   0.575181654    0   0   1
O0       0.750000000   0.690000000   0.574827050    0   0   1
O0       0.750000000   0.310000000   0.574921011    0   0   1
O0       0.500000000   0.000000000   0.619900625    0   0   1
H2      -0.000131908   0.633182189   0.383959394
H2       0.499957795   0.636524987   0.384653137
H2       0.143615111   0.033710889   0.366948474
H2       0.642958899   0.036013362   0.366633981
O0       0.516300494   0.499906310   0.648130643
H2       0.375621662   0.500381037   0.663670093
End final coordinates

     General routines

     Parallel routines
     Hubbard U routines

   This run was terminated on:  14: 8:46  29Apr2014

   JOB DONE.
Running PBS batch system epilogue script
Job id: 340421.audhumbla.fysik.dtu.dk
Username: zhonxu
Groupname: campgst
Jobname: IrO2/Eads-2-layers/OH-U-2.5
Sessionid: 14555
Queuename: verylong
Accounting:
This job has allocated the following 16 nodes:
d073 d073 d073 d073 d073 d073 d073 d073 d051 d051 d051 d051 d051 d051 d051 d051
Finished epilogue job 340421.audhumbla.fysik.dtu.dk for zhonxu