     Program PWSCF v.5.0.2 (svn rev. 9656) starts on 28Apr2014 at  3: 7:18

     Current dimensions of program PWSCF are:
     Max number of different atomic species (ntypx) = 10
     Max number of k-points (npk) =  40000
     Max angular momentum in pseudopotentials (lmaxx) =  3
     Reading input from pwscf.in
Warning: card &CELL ignored
Warning: card / ignored

     Subspace diagonalization in iterative solution of the eigenvalue problem:
     a serial algorithm will be used

     bravais-lattice index     =            0
     lattice parameter (alat)  =      12.2076  a.u.
     unit-cell volume          =    7496.5096 (a.u.)^3
     number of atoms/cell      =           31
     number of atomic types    =            3
     number of electrons       =       246.00
     number of Kohn-Sham states=          369
     kinetic-energy cutoff     =      40.0000  Ry
     charge density cutoff     =     500.0000  Ry
     convergence threshold     =      1.0E-06
     mixing beta               =       0.7000
     number of iterations used =            8  plain     mixing
     Exchange-correlation      = SLA  PW   PBE  PBE ( 1 4 3 4 0)
     EXX-fraction              =        0.00
     nstep                     =           50

     celldm(1)=  12.207631  celldm(2)=   0.000000  celldm(3)=   0.000000
     celldm(4)=   0.000000  celldm(5)=   0.000000  celldm(6)=   0.000000

     crystal axes: (cart. coord. in units of alat)
               a(1) = (   1.000000   0.000000   0.000000 )
               a(2) = (   0.000000   1.004836   0.000000 )
               a(3) = (   0.000000   0.000000   4.100811 )

     reciprocal axes: (cart. coord. in units 2 pi/alat)
               b(1) = (  1.000000  0.000000  0.000000 )
               b(2) = (  0.000000  0.995187  0.000000 )
               b(3) = (  0.000000  0.000000  0.243854 )

     PseudoPot. # 1 for O  read from file:
     /home/camp/zhonxu/pseudo/o_pbe_v1.01.uspp.F.UPF
     MD5 check sum: 2bcb18d16ea4b960afae9ec6d52f22d2
     Pseudo is Ultrasoft + core correction, Zval =  6.0
     Generated by new atomic code, or converted to UPF format
     Using radial grid of  737 points,  5 beta functions with:
                l(1) =   0
                l(2) =   0
                l(3) =   1
                l(4) =   1
                l(5) =   2
     Q(r) pseudized with  8 coefficients,  rinner =    0.900   0.900   0.900
                                                       0.900   0.900

     PseudoPot. # 2 for Pt read from file:
     /home/camp/zhonxu/pseudo/pt_pbe_v1.uspp.F.UPF
     MD5 check sum: 4c71d6ad5ef119f1eb26a4d0b7884226
     Pseudo is Ultrasoft + core correction, Zval = 16.0
     Generated by new atomic code, or converted to UPF format
     Using radial grid of  985 points,  6 beta functions with:
                l(1) =   0
                l(2) =   0
                l(3) =   1
                l(4) =   1
                l(5) =   2
                l(6) =   2
     Q(r) pseudized with  8 coefficients,  rinner =    1.300   1.300   1.300
                                                       1.300   1.300

     PseudoPot. # 3 for H  read from file:
     /home/camp/zhonxu/pseudo/h_pbe_v1.uspp.F.UPF
     MD5 check sum: 3408e3ff4ec8b0a4e358431e7e038a48
     Pseudo is Ultrasoft, Zval =  1.0
     Generated by new atomic code, or converted to UPF format
     Using radial grid of  615 points,  2 beta functions with:
                l(1) =   0
                l(2) =   0
     Q(r) pseudized with  8 coefficients,  rinner =    0.700

     atomic species   valence    mass     pseudopotential
        O0             6.00    15.99940     O ( 1.00)
        Pt1           16.00   195.08000     Pt( 1.00)
        H2             1.00     1.00794     H ( 1.00)

     Simplified LDA+U calculation (l_max = 2) with parameters (eV):
     atomic species    L          U    alpha       J0     beta
        Pt1            2     7.5000   0.0000   0.0000   0.0000

     No symmetry found

   Cartesian axes

     site n.     atom                  positions (alat units)
         1           O0  tau(   1) = (   0.0000000   0.0000000   1.5489174  )
         2           O0  tau(   2) = (   0.0000000   0.5024180   1.6470088  )
         3           Pt1 tau(   3) = (   0.2500000   0.5024180   1.8504500  )
         4           Pt1 tau(   4) = (   0.0000000   0.0000000   1.8564782  )
         5           O0  tau(   5) = (   0.2500000   0.8139171   1.8182587  )
         6           O0  tau(   6) = (   0.2500000   0.1909188   1.8867012  )
         7           O0  tau(   7) = (   0.0000000   0.5024180   2.0373240  )
         8           O0  tau(   8) = (   0.0000000   0.0000000   2.1721997  )
         9           Pt1 tau(   9) = (   0.2500000   0.0000000   2.3623543  )
        10           Pt1 tau(  10) = (   0.0000000   0.5024180   2.3594017  )
        11           O0  tau(  11) = (   0.2500000   0.6933368   2.3215512  )
        12           O0  tau(  12) = (   0.2500000   0.3114991   2.4021322  )
        13           O0  tau(  13) = (   0.0000000   0.0000000   2.5481621  )
        14           O0  tau(  14) = (   0.5000000   0.0000000   1.5492455  )
        15           O0  tau(  15) = (   0.5000000   0.5024180   1.6439332  )
        16           Pt1 tau(  16) = (   0.7500000   0.5024180   1.8504910  )
        17           Pt1 tau(  17) = (   0.5000000   0.0000000   1.8565192  )
        18           O0  tau(  18) = (   0.7500000   0.8139171   1.8184227  )
        19           O0  tau(  19) = (   0.7500000   0.1909188   1.8866602  )
        20           O0  tau(  20) = (   0.5000000   0.5024180   2.0431061  )
        21           O0  tau(  21) = (   0.5000000   0.0000000   2.1716256  )
        22           Pt1 tau(  22) = (   0.7500000   0.0000000   2.3623953  )
        23           Pt1 tau(  23) = (   0.5000000   0.5024180   2.3697358  )
        24           O0  tau(  24) = (   0.7500000   0.6933368   2.3215102  )
        25           O0  tau(  25) = (   0.7500000   0.3114991   2.4021732  )
        26           O0  tau(  26) = (   0.5000000   0.0000000   2.5480390  )
        27           H2  tau(  27) = (   0.0001100   0.6425926   1.5814778  )
        28           H2  tau(  28) = (   0.5001800   0.6431151   1.5801656  )
        29           H2  tau(  29) = (   0.1426600   0.0364956   1.5073762  )
        30           H2  tau(  30) = (   0.6419200   0.0388771   1.5073762  )
        31           O0  tau(  31) = (   0.5000900   0.5753691   2.6428088  )

     number of k points=    10  Methfessel-Paxton smearing, width (Ry)=  0.0100
                       cart. coord. in units 2pi/alat
        k(    1) = (   0.0000000   0.0000000   0.0000000), wk =   0.1250000
        k(    2) = (   0.0000000   0.2487968   0.0000000), wk =   0.2500000
        k(    3) = (   0.0000000  -0.4975937   0.0000000), wk =   0.1250000
        k(    4) = (   0.2500000   0.0000000   0.0000000), wk =   0.2500000
        k(    5) = (   0.2500000   0.2487968   0.0000000), wk =   0.2500000
        k(    6) = (   0.2500000  -0.4975937   0.0000000), wk =   0.2500000
        k(    7) = (  -0.5000000   0.0000000   0.0000000), wk =   0.1250000
        k(    8) = (  -0.5000000   0.2487968   0.0000000), wk =   0.2500000
        k(    9) = (  -0.5000000  -0.4975937   0.0000000), wk =   0.1250000
        k(   10) = (  -0.2500000   0.2487968   0.0000000), wk =   0.2500000

     Largest allocated arrays     est. size (Mb)     dimensions
     Largest temporary arrays     est. size (Mb)     dimensions

     Check: negative/imaginary core charge=   -0.000003    0.000000

     Initial potential from superposition of free atoms
     Check: negative starting charge=   -1.533958

     starting charge  241.99985, renormalised to  246.00000

     negative rho (up, down):  0.156E+01 0.000E+00
     Number of +U iterations with fixed ns =  0
     Starting occupations:
 --- enter write_ns ---
 LDA+U parameters:
U( 2)     =  7.50000000
alpha( 2) =  0.00000000
atom    3   Tr[ns(na)] =   8.00000
    eigenvalues:
  0.800  0.800  0.800  0.800  0.800
    eigenvectors:
  1.000  0.000  0.000  0.000  0.000
  0.000  1.000  0.000  0.000  0.000
  0.000  0.000  1.000  0.000  0.000
  0.000  0.000  0.000  1.000  0.000
  0.000  0.000  0.000  0.000  1.000
    occupations:
  0.800  0.000  0.000  0.000  0.000
  0.000  0.800  0.000  0.000  0.000
  0.000  0.000  0.800  0.000  0.000
  0.000  0.000  0.000  0.800  0.000
  0.000  0.000  0.000  0.000  0.800
atom    4   Tr[ns(na)] =   8.00000
    eigenvalues:
  0.800  0.800  0.800  0.800  0.800
    eigenvectors:
  1.000  0.000  0.000  0.000  0.000
  0.000  1.000  0.000  0.000  0.000
  0.000  0.000  1.000  0.000  0.000
  0.000  0.000  0.000  1.000  0.000
  0.000  0.000  0.000  0.000  1.000
    occupations:
  0.800  0.000  0.000  0.000  0.000
  0.000  0.800  0.000  0.000  0.000
  0.000  0.000  0.800  0.000  0.000
  0.000  0.000  0.000  0.800  0.000
  0.000  0.000  0.000  0.000  0.800
atom    9   Tr[ns(na)] =   8.00000
    eigenvalues:
  0.800  0.800  0.800  0.800  0.800
    eigenvectors:
  1.000  0.000  0.000  0.000  0.000
  0.000  1.000  0.000  0.000  0.000
  0.000  0.000  1.000  0.000  0.000
  0.000  0.000  0.000  1.000  0.000
  0.000  0.000  0.000  0.000  1.000
    occupations:
  0.800  0.000  0.000  0.000  0.000
  0.000  0.800  0.000  0.000  0.000
  0.000  0.000  0.800  0.000  0.000
  0.000  0.000  0.000  0.800  0.000
  0.000  0.000  0.000  0.000  0.800
atom   10   Tr[ns(na)] =   8.00000
    eigenvalues:
  0.800  0.800  0.800  0.800  0.800
    eigenvectors:
  1.000  0.000  0.000  0.000  0.000
  0.000  1.000  0.000  0.000  0.000
  0.000  0.000  1.000  0.000  0.000
  0.000  0.000  0.000  1.000  0.000
  0.000  0.000  0.000  0.000  1.000
    occupations:
  0.800  0.000  0.000  0.000  0.000
  0.000  0.800  0.000  0.000  0.000
  0.000  0.000  0.800  0.000  0.000
  0.000  0.000  0.000  0.800  0.000
  0.000  0.000  0.000  0.000  0.800
atom   16   Tr[ns(na)] =   8.00000
    eigenvalues:
  0.800  0.800  0.800  0.800  0.800
    eigenvectors:
  1.000  0.000  0.000  0.000  0.000
  0.000  1.000  0.000  0.000  0.000
  0.000  0.000  1.000  0.000  0.000
  0.000  0.000  0.000  1.000  0.000
  0.000  0.000  0.000  0.000  1.000
    occupations:
  0.800  0.000  0.000  0.000  0.000
  0.000  0.800  0.000  0.000  0.000
  0.000  0.000  0.800  0.000  0.000
  0.000  0.000  0.000  0.800  0.000
  0.000  0.000  0.000  0.000  0.800
atom   17   Tr[ns(na)] =   8.00000
    eigenvalues:
  0.800  0.800  0.800  0.800  0.800
    eigenvectors:
  1.000  0.000  0.000  0.000  0.000
  0.000  1.000  0.000  0.000  0.000
  0.000  0.000  1.000  0.000  0.000
  0.000  0.000  0.000  1.000  0.000
  0.000  0.000  0.000  0.000  1.000
    occupations:
  0.800  0.000  0.000  0.000  0.000
  0.000  0.800  0.000  0.000  0.000
  0.000  0.000  0.800  0.000  0.000
  0.000  0.000  0.000  0.800  0.000
  0.000  0.000  0.000  0.000  0.800
atom   22   Tr[ns(na)] =   8.00000
    eigenvalues:
  0.800  0.800  0.800  0.800  0.800
    eigenvectors:
  1.000  0.000  0.000  0.000  0.000
  0.000  1.000  0.000  0.000  0.000
  0.000  0.000  1.000  0.000  0.000
  0.000  0.000  0.000  1.000  0.000
  0.000  0.000  0.000  0.000  1.000
    occupations:
  0.800  0.000  0.000  0.000  0.000
  0.000  0.800  0.000  0.000  0.000
[...]
 -0.019  0.000  0.987  0.003 -0.000
  0.025  0.000  0.003  0.986  0.000
 -0.001  0.033 -0.000  0.000  0.710
atom    9   Tr[ns(na)] =   8.79797
    eigenvalues:
  0.727  0.738  0.968  0.977  0.989
    eigenvectors:
  0.005  0.126  0.001  0.011  0.857
  0.961  0.039  0.000  0.000  0.000
  0.001  0.014  0.007  0.975  0.004
  0.033  0.821  0.000  0.008  0.138
  0.000  0.000  0.992  0.007  0.001
    occupations:
  0.956  0.001 -0.010 -0.084  0.001
  0.001  0.727  0.001  0.002 -0.004
 -0.010  0.001  0.974 -0.027  0.001
 -0.084  0.002 -0.027  0.774 -0.000
  0.001 -0.004  0.001 -0.000  0.968
atom   10   Tr[ns(na)] =   8.86853
    eigenvalues:
  0.676  0.791  0.986  0.988  0.992
    eigenvectors:
  0.000  0.975  0.000  0.017  0.008
  0.019  0.000  0.981  0.000  0.000
  0.000  0.001  0.000  0.192  0.807
  0.000  0.024  0.000  0.791  0.185
  0.981  0.000  0.019  0.000  0.000
    occupations:
  0.796  0.000 -0.005  0.031  0.000
  0.000  0.980  0.000 -0.000 -0.043
 -0.005  0.000  0.991 -0.001 -0.000
  0.031 -0.000 -0.001  0.984 -0.000
  0.000 -0.043 -0.000 -0.000  0.682
atom   16   Tr[ns(na)] =   8.81323
    eigenvalues:
  0.712  0.724  0.989  0.990  0.992
    eigenvectors:
  0.046  0.122  0.660  0.172  0.000
  0.736  0.264  0.000  0.000  0.000
  0.001  0.005  0.003  0.056  0.935
  0.216  0.609  0.138  0.028  0.009
  0.000  0.000  0.200  0.745  0.056
    occupations:
  0.944 -0.004  0.009 -0.100  0.000
 -0.004  0.715 -0.002 -0.004 -0.004
  0.009 -0.002  0.990  0.020 -0.001
 -0.100 -0.004  0.020  0.768 -0.000
  0.000 -0.004 -0.001 -0.000  0.990
atom   17   Tr[ns(na)] =   8.80584
    eigenvalues:
  0.708  0.730  0.986  0.989  0.990
    eigenvectors:
  0.000  0.984  0.010  0.003  0.003
  0.014  0.000  0.043  0.862  0.081
  0.000  0.006  0.845  0.008  0.141
  0.000  0.010  0.102  0.115  0.773
  0.985  0.000  0.001  0.013  0.001
    occupations:
  0.734 -0.004 -0.019  0.025 -0.001
 -0.004  0.985  0.000  0.000  0.033
 -0.019  0.000  0.985  0.003 -0.000
  0.025  0.000  0.003  0.987  0.000
 -0.001  0.033 -0.000  0.000  0.712
atom   22   Tr[ns(na)] =   8.79801
    eigenvalues:
  0.727  0.738  0.968  0.977  0.989
    eigenvectors:
  0.002  0.130  0.000  0.011  0.857
  0.986  0.013  0.000  0.000  0.000
  0.000  0.015  0.009  0.973  0.004
  0.011  0.842  0.000  0.008  0.138
  0.000  0.000  0.990  0.008  0.001
    occupations:
  0.956 -0.001 -0.010 -0.084 -0.001
 -0.001  0.728 -0.001 -0.001 -0.004
 -0.010 -0.001  0.974 -0.027 -0.001
 -0.084 -0.001 -0.027  0.774  0.000
 -0.001 -0.004 -0.001  0.000  0.968
atom   23   Tr[ns(na)] =   8.78588
    eigenvalues:
  0.731  0.754  0.944  0.973  0.990
    eigenvectors:
  0.000  0.871  0.122  0.000  0.007
  0.023  0.000  0.000  0.977  0.000
  0.000  0.112  0.863  0.000  0.026
  0.000  0.017  0.015  0.000  0.968
  0.977  0.000  0.000  0.023  0.000
    occupations:
  0.779  0.000  0.059  0.027 -0.000
  0.000  0.967 -0.000  0.000 -0.036
  0.059 -0.000  0.924 -0.016 -0.000
  0.027  0.000 -0.016  0.985 -0.000
 -0.000 -0.036 -0.000 -0.000  0.737
N of occupied +U levels =  70.4881981
 --- exit write_ns ---

     Threshold (ethr) on eigenvalues was too large:
     Diagonalizing with lowered threshold

     Davidson diagonalization with overlap
     ethr =  1.40E-08,  avg # of iterations =  2.0

[...]

     total energy              =   -2278.76518359 Ry
     Harris-Foulkes estimate   =   -2278.76518359 Ry
     estimated scf accuracy    <       0.00000002 Ry

     iteration # 16     ecut=    40.00 Ry     beta=0.70
     Davidson diagonalization with overlap
     ethr =  7.31E-12,  avg # of iterations =  1.0

     negative rho (up, down):  0.157E+01 0.000E+00

     End of self-consistent calculation
 --- enter write_ns ---
 LDA+U parameters:
U( 2)     =  7.50000000
alpha( 2) =  0.00000000
atom    3   Tr[ns(na)] =   8.81324
    eigenvalues:
  0.712  0.724  0.989  0.990  0.992
    eigenvectors:
  0.047  0.121  0.658  0.174  0.000
  0.732  0.268  0.000  0.000  0.000
  0.001  0.005  0.004  0.056  0.934
  0.220  0.606  0.138  0.028  0.009
  0.000  0.000  0.201  0.742  0.057
    occupations:
  0.944  0.004  0.009 -0.100 -0.000
  0.004  0.716  0.002  0.004 -0.004
  0.009  0.002  0.990  0.020  0.001
 -0.100  0.004  0.020  0.768  0.000
 -0.000 -0.004  0.001  0.000  0.989
atom    4   Tr[ns(na)] =   8.80529
    eigenvalues:
  0.706  0.730  0.988  0.989  0.990
    eigenvectors:
  0.000  0.984  0.012  0.004  0.000
  0.014  0.000  0.099  0.827  0.059
  0.000  0.006  0.530  0.005  0.460
  0.000  0.010  0.357  0.153  0.480
  0.986  0.000  0.001  0.012  0.001
    occupations:
  0.734 -0.004 -0.019  0.025 -0.001
 -0.004  0.985  0.000  0.000  0.033
 -0.019  0.000  0.987  0.003 -0.000
  0.025  0.000  0.003  0.986  0.000
 -0.001  0.033 -0.000  0.000  0.710
atom    9   Tr[ns(na)] =   8.79754
    eigenvalues:
  0.727  0.738  0.968  0.977  0.989
    eigenvectors:
  0.006  0.126  0.001  0.011  0.857
  0.960  0.040  0.000  0.000  0.000
  0.001  0.014  0.006  0.976  0.004
  0.034  0.820  0.000  0.008  0.138
  0.000  0.000  0.993  0.005  0.001
    occupations:
  0.956  0.001 -0.010 -0.084  0.001
  0.001  0.727  0.001  0.002 -0.004
 -0.010  0.001  0.974 -0.027  0.001
 -0.084  0.002 -0.027  0.774 -0.000
  0.001 -0.004  0.001 -0.000  0.968
atom   10   Tr[ns(na)] =   8.86828
    eigenvalues:
  0.676  0.791  0.986  0.988  0.992
    eigenvectors:
  0.000  0.975  0.000  0.017  0.008
  0.019  0.000  0.981  0.000  0.000
  0.000  0.001  0.000  0.192  0.808
  0.000  0.024  0.000  0.791  0.184
  0.981  0.000  0.019  0.000  0.000
    occupations:
  0.796  0.000 -0.005  0.031  0.000
  0.000  0.980  0.000 -0.000 -0.043
 -0.005  0.000  0.991 -0.001 -0.000
  0.031 -0.000 -0.001  0.984 -0.000
  0.000 -0.043 -0.000 -0.000  0.682
atom   16   Tr[ns(na)] =   8.81321
    eigenvalues:
  0.712  0.724  0.989  0.990  0.992
    eigenvectors:
  0.046  0.122  0.660  0.172  0.000
  0.737  0.263  0.000  0.000  0.000
  0.001  0.005  0.003  0.056  0.935
  0.216  0.610  0.138  0.028  0.009
  0.000  0.000  0.200  0.744  0.056
    occupations:
  0.944 -0.004  0.009 -0.100  0.000
 -0.004  0.715 -0.002 -0.004 -0.004
  0.009 -0.002  0.990  0.020 -0.001
 -0.100 -0.004  0.020  0.768 -0.000
  0.000 -0.004 -0.001 -0.000  0.990
atom   17   Tr[ns(na)] =   8.80555
    eigenvalues:
  0.708  0.730  0.986  0.989  0.990
    eigenvectors:
  0.000  0.984  0.010  0.003  0.003
  0.014  0.000  0.042  0.862  0.082
  0.000  0.006  0.850  0.008  0.137
  0.000  0.010  0.099  0.115  0.777
  0.985  0.000  0.001  0.013  0.001
    occupations:
  0.734 -0.004 -0.019  0.025 -0.001
 -0.004  0.985  0.000  0.000  0.033
 -0.019  0.000  0.985  0.003 -0.000
  0.025  0.000  0.003  0.987  0.000
 -0.001  0.033 -0.000  0.000  0.712
atom   22   Tr[ns(na)] =   8.79758
    eigenvalues:
  0.727  0.738  0.968  0.977  0.989
    eigenvectors:
  0.002  0.130  0.000  0.011  0.857
  0.985  0.014  0.000  0.000  0.000
  0.000  0.015  0.007  0.974  0.004
  0.012  0.842  0.000  0.008  0.138
  0.000  0.000  0.992  0.007  0.001
    occupations:
  0.956 -0.001 -0.010 -0.084 -0.001
 -0.001  0.727 -0.001 -0.001 -0.004
 -0.010 -0.001  0.974 -0.027 -0.001
 -0.084 -0.001 -0.027  0.774  0.000
 -0.001 -0.004 -0.001  0.000  0.968
atom   23   Tr[ns(na)] =   8.78567
    eigenvalues:
  0.731  0.754  0.945  0.973  0.990
    eigenvectors:
  0.000  0.871  0.123  0.000  0.007
  0.023  0.000  0.000  0.977  0.000
  0.000  0.112  0.862  0.000  0.026
  0.000  0.017  0.015  0.000  0.968
  0.977  0.000  0.000  0.023  0.000
    occupations:
  0.779  0.000  0.059  0.027 -0.000
  0.000  0.967 -0.000  0.000 -0.037
  0.059 -0.000  0.924 -0.016 -0.000
  0.027  0.000 -0.016  0.985 -0.000
 -0.000 -0.037 -0.000 -0.000  0.737
N of occupied +U levels =  70.4863583
 --- exit write_ns ---

[...]

          k = 0.2500-0.4976 0.0000 ( 32026 PWs)   bands (ev):

[...]

          k =-0.2500 0.2488 0.0000 ( 32025 PWs)   bands (ev):

   -55.3160 -55.2792 -55.1708 -55.1445 -55.1312 -55.0932 -55.0515 -55.0417
   -55.0043 -55.0000 -54.9957 -54.9153 -54.9123 -54.8468 -54.8123 -54.8078
   -54.8037 -54.7176 -54.6826 -54.6486 -54.6435 -54.3601 -54.1320 -53.7483
   -22.3320 -22.1206 -21.4758 -21.3828 -21.1353 -21.0750 -21.0275 -20.8302
   -20.7995 -20.7165 -20.5617 -20.4754 -20.4358 -20.2809 -20.2045 -20.1962
   -19.6826 -19.3594 -19.2054 -11.6729 -11.5386 -11.4969 -11.3295 -11.0525
   -10.9768 -10.8705 -10.6648 -10.5319 -10.1899 -10.0355  -9.9993  -9.8410
    -9.7102  -9.6038  -9.5709  -9.4052  -9.3041  -9.2246  -9.0214  -8.9439
    -8.7987  -8.7689  -8.6878  -8.5489  -8.4227  -8.3154  -8.2323  -8.1446
    -8.0282  -7.9723  -7.9270  -7.8485  -7.7280  -7.6281  -7.5386  -7.4613
    -7.3464  -7.2906  -7.1348  -6.9343  -6.8566  -6.5800  -6.3195  -6.1806
    -5.9440  -5.9272  -5.8397  -5.7283  -5.6071  -5.5145  -5.4370  -5.2329
    -5.1059  -4.9305  -4.7641  -4.6129  -4.5956  -4.4358  -4.3783  -4.3035
    -4.1399  -4.0918  -4.0158  -3.8656  -3.7415  -3.7370  -3.4671  -3.4127
    -3.3223  -3.1509  -3.0072  -2.8984  -2.8562  -2.7661  -2.7357  -2.6195
    -2.4182  -2.2853  -2.1536  -2.0589  -1.9020  -1.3580  -1.1856  -0.8987
    -0.5513  -0.3989  -0.0550   0.2518   0.4780   0.6043   0.6752   0.7667
     1.0012   1.1610   1.2554   1.6031   3.0813   3.8735   4.5751   5.0088
     5.0329   5.0991   5.2812   5.6618   6.0981   6.1434   6.1802   6.3269
     6.4230   6.5095   6.6738   6.8521   6.9086   6.9630   7.1052   7.2346
     7.3605   7.4793   7.5604   7.5956   7.7093   7.8615   7.9337   8.0522
     8.1810   8.2862   8.3218   8.4686   8.5556   8.6364   8.6632   8.8036
     8.8804   9.0362   9.1338   9.2778   9.3410   9.4760   9.5439   9.6108
     9.6949   9.8725  10.0419  10.0832  10.1769  10.2408  10.3065  10.3829
    10.5215  10.5749  10.6458  10.7530  10.7817  10.9717  11.0506  11.0873
    11.1697  11.1986  11.3809  11.4612  11.4829  11.7235  11.7442  11.7840
    11.8680  11.9513  12.0114  12.0858  12.1480  12.2506  12.2960  12.3368
    12.4129  12.4581  12.5323  12.5876  12.6453  12.7399  12.8074  12.9567
    12.9957  13.0506  13.1730  13.2328  13.2561  13.4645  13.5327  13.5841
    13.6576  13.6985  13.7820  13.8769  13.9530  13.9833  14.0726  14.1395
    14.1926  14.3685  14.4262  14.5472  14.5838  14.6382  14.7814  14.8714
    14.8941  14.9608  15.1492  15.2290  15.2746  15.3364  15.4147  15.4628
    15.5390  15.5985  15.6510  15.6894  15.7536  15.7806  15.8378  15.9033
    15.9940  16.0528  16.0781  16.1520  16.1938  16.2691  16.3870  16.4559
    16.5094  16.5884  16.7549  16.7913  16.8521  16.8955  16.9064  16.9813
    17.0426  17.1013  17.1475  17.1901  17.2225  17.2519  17.2962  17.3172
    17.3441  17.3748  17.3790  17.4118  17.4386  17.4613  17.4917  17.5252
    17.5417  17.5868  17.6359  17.7437  17.8018  17.9139  17.9713  18.0337
    18.0793  18.1413  18.2399  18.2634  18.3360  18.4015  18.5061  18.5322
    18.5969  18.6386  18.6752  18.7342  18.8415  18.8851  18.9056  19.0309
    19.0626  19.1812  19.2063  19.2261  19.3105  19.3749  19.4578  19.5102
    19.6503  19.7818  19.8274  19.8833  19.9588  19.9813  19.9937  20.0817
    20.1392  20.2250  20.2537  20.3244  20.3719  20.4173  20.5039  20.5950
    20.6582  20.7119  20.7539  20.8678  20.9352  20.9521  21.0165  21.0521
    21.0747  21.2354  21.2662  21.3746  21.3947  21.4522  21.5052  21.5556
    21.6039  21.6621  21.7363  21.7902  21.8328  21.9014  22.0111  22.0919
    22.1419

     the Fermi energy is    -2.1047 ev

!    total energy              =   -2278.76518358 Ry
     Harris-Foulkes estimate   =   -2278.76518359 Ry
     estimated scf accuracy    <          9.0E-09 Ry

     The total energy is the sum of the following terms:

     one-electron contribution =  -23662.96849868 Ry
     hartree contribution      =   11874.70301227 Ry
     xc contribution           =    -572.12918264 Ry
     ewald contribution        =   10079.67595371 Ry
     Hubbard energy            =       1.95388427 Ry
     smearing contrib. (-TS)   =      -0.00035251 Ry

     convergence has been achieved in  16 iterations

     Forces acting on atoms (Ry/au):

     negative rho (up, down):  0.157E+01 0.000E+00
     atom    1 type  1   force =    -0.00859406   -0.00377613   -0.00035694
     atom    2 type  1   force =     0.00013406    0.00334412   -0.00047372
     atom    3 type  2   force =     0.01617516    0.00459827    0.00019885
     atom    4 type  2   force =     0.01035376    0.00476761   -0.00040920
     atom    5 type  1   force =     0.00120443   -0.00272246   -0.00008597
     atom    6 type  1   force =    -0.00006996   -0.00302852   -0.00058818
     atom    7 type  1   force =     0.00005411    0.00152541    0.00055104
     atom    8 type  1   force =    -0.00417010    0.00225521   -0.00019617
     atom    9 type  2   force =     0.00388333   -0.00502052    0.00016401
     atom   10 type  2   force =    -0.00000727   -0.02048386   -0.00097479
     atom   11 type  1   force =    -0.00195753    0.00240463    0.00002676
     atom   12 type  1   force =    -0.00787135    0.01505502    0.00048138
     atom   13 type  1   force =    -0.00110590   -0.00872445    0.00060028
     atom   14 type  1   force =    -0.00834035   -0.00254656   -0.00036414
     atom   15 type  1   force =     0.00013937    0.00132324    0.00018685
     atom   16 type  2   force =    -0.01701008    0.00444568    0.00021844
     atom   17 type  2   force =     0.01017896    0.00490393   -0.00028255
     atom   18 type  1   force =     0.00135962   -0.00264713   -0.00006492
     atom   19 type  1   force =     0.00039238   -0.00293909   -0.00060527
     atom   20 type  1   force =     0.00007846   -0.00594841    0.00057360
     atom   21 type  1   force =    -0.00402162    0.00217045    0.00005304
     atom   22 type  2   force =    -0.00019365   -0.00492198    0.00018324
     atom   23 type  2   force =    -0.00018083    0.01965887   -0.00021341
     atom   24 type  1   force =     0.00208709    0.00246472    0.00001165
     atom   25 type  1   force =     0.00799365    0.01500581    0.00049448
     atom   26 type  1   force =    -0.00106550   -0.02121227    0.00031285
     atom   27 type  3   force =    -0.00001111    0.00025497   -0.00022636
     atom   28 type  3   force =    -0.00002410   -0.00010518   -0.00016422
     atom   29 type  3   force =     0.00027683   -0.00009015    0.00049931
     atom   30 type  3   force =     0.00032087   -0.00023706    0.00042655
     atom   31 type  1   force =    -0.00000869    0.00022582    0.00002354

     Total force =     0.002264     Total SCF correction =     0.000265
     SCF correction compared to forces is large: reduce conv_thr to get better values

     bfgs converged in  16 scf cycles and  15 bfgs steps
     (criteria: energy < 0.10E-03, force < 0.10E-02)

     End of BFGS Geometry Optimization

     Final energy   =   -2278.7651835823 Ry
Begin final coordinates

ATOMIC_POSITIONS (crystal)
O0       0.000000000   0.000000000   0.377656249    0   0   1
O0       0.000000000   0.500000000   0.401743624    0   0   1
Pt1      0.250000000   0.500000000   0.451107308    0   0   1
Pt1      0.000000000   0.000000000   0.452781986    0   0   1
O0       0.250000000   0.810000000   0.442248871    0   0   1
O0       0.250000000   0.190000000   0.461574964    0   0   1
O0       0.000000000   0.500000000   0.496522392    0   0   1
O0       0.000000000   0.000000000   0.529950508    0   0   1
Pt1      0.250000000   0.000000000   0.575982616    0   0   1
Pt1      0.000000000   0.500000000   0.575096904    0   0   1
O0       0.250000000   0.690000000   0.564328968    0   0   1
O0       0.250000000   0.310000000   0.586811505    0   0   1
O0       0.000000000   0.000000000   0.621509295    0   0   1
O0       0.500000000   0.000000000   0.377722652    0   0   1
O0       0.500000000   0.500000000   0.401053996    0   0   1
Pt1      0.750000000   0.500000000   0.451108684    0   0   1
Pt1      0.500000000   0.000000000   0.452768242    0   0   1
O0       0.750000000   0.810000000   0.442269731    0   0   1
O0       0.750000000   0.190000000   0.461582624    0   0   1
O0       0.500000000   0.500000000   0.497983106    0   0   1
O0       0.500000000   0.000000000   0.529790680    0   0   1
Pt1      0.750000000   0.000000000   0.575984640    0   0   1
Pt1      0.500000000   0.500000000   0.576967238    0   0   1
O0       0.750000000   0.690000000   0.564317544    0   0   1
O0       0.750000000   0.310000000   0.586815720    0   0   1
O0       0.500000000   0.000000000   0.621672219    0   0   1
H2       0.000092049   0.640999807   0.386594902
H2       0.500059426   0.641616847   0.386337134
H2       0.143407198   0.034902344   0.367858984
H2       0.643235091   0.035597150   0.367896318
O0       0.500117202   0.584085071   0.643630396
End final coordinates

     General routines

     Parallel routines
     Hubbard U routines

   This run was terminated on:  20:42: 1  28Apr2014

   JOB DONE.