     Program PWSCF v.5.0.2 (svn rev. 9656) starts on  5May2014 at 12: 8: 9

     Current dimensions of program PWSCF are:
     Max number of different atomic species (ntypx) = 10
     Max number of k-points (npk) =  40000
     Max angular momentum in pseudopotentials (lmaxx) =  3
     Reading input from pwscf.in
Warning: card &CELL ignored
Warning: card / ignored

     Subspace diagonalization in iterative solution of the eigenvalue problem:
     a serial algorithm will be used

     Found symmetry operation: I + ( -0.5000  0.0000  0.0000)
     This is a supercell, fractional translations are disabled

     bravais-lattice index     =            0
     lattice parameter (alat)  =      10.3179  a.u.
     unit-cell volume          =    6964.3238 (a.u.)^3
     number of atoms/cell      =           30
     number of atomic types    =            3
     number of electrons       =       224.00
     number of Kohn-Sham states=          336
     kinetic-energy cutoff     =      40.0000  Ry
     charge density cutoff     =     500.0000  Ry
     convergence threshold     =      1.0E-06
     mixing beta               =       0.7000
     number of iterations used =            8  plain     mixing
     Exchange-correlation      = SLA  PW   PBE  PBE ( 1 4 3 4 0)
     EXX-fraction              =        0.00
     nstep                     =           50

     celldm(1)=  10.317905  celldm(2)=   0.000000  celldm(3)=   0.000000
     celldm(4)=   0.000000  celldm(5)=   0.000000  celldm(6)=   0.000000

     crystal axes: (cart. coord. in units of alat)
               a(1) = (   1.000000   0.000000   0.000000 )
               a(2) = (   0.000000   1.282117   0.000000 )
               a(3) = (   0.000000   0.000000   4.945120 )

     reciprocal axes: (cart. coord. in units 2 pi/alat)
               b(1) = (  1.000000  0.000000  0.000000 )
               b(2) = (  0.000000  0.779960  0.000000 )
               b(3) = (  0.000000  0.000000  0.202220 )

     PseudoPot. # 1 for O  read from file:
     /home/camp/zhonxu/pseudo/o_pbe_v1.01.uspp.F.UPF
     MD5 check sum: 2bcb18d16ea4b960afae9ec6d52f22d2
     Pseudo is Ultrasoft + core correction, Zval =  6.0
     Generated by new atomic code, or converted to UPF format
     Using radial grid of  737 points,  5 beta functions with:
                l(1) =   0
                l(2) =   0
                l(3) =   1
                l(4) =   1
                l(5) =   2
     Q(r) pseudized with  8 coefficients,  rinner =    0.900   0.900   0.900
                                                       0.900   0.900

     PseudoPot. # 2 for Mo read from file:
     /home/camp/zhonxu/pseudo/mo_pbe_v1.uspp.F.UPF
     MD5 check sum: 30c4dcd161f5d35cd49bb5239c51a633
     Pseudo is Ultrasoft + core correction, Zval = 14.0
     Generated by new atomic code, or converted to UPF format
     Using radial grid of  889 points,  6 beta functions with:
                l(1) =   0
                l(2) =   0
                l(3) =   1
                l(4) =   1
                l(5) =   2
                l(6) =   2
     Q(r) pseudized with  6 coefficients,  rinner =    1.000   1.000   1.000
                                                       1.000   1.000

     PseudoPot. # 3 for H  read from file:
     /home/camp/zhonxu/pseudo/h_pbe_v1.uspp.F.UPF
     MD5 check sum: 3408e3ff4ec8b0a4e358431e7e038a48
     Pseudo is Ultrasoft, Zval =  1.0
     Generated by new atomic code, or converted to UPF format
     Using radial grid of  615 points,  2 beta functions with:
                l(1) =   0
                l(2) =   0
     Q(r) pseudized with  8 coefficients,  rinner =    0.700

     atomic species   valence    mass     pseudopotential
        O0             6.00    15.99940     O ( 1.00)
        Mo1           14.00    95.94000     Mo( 1.00)
        H2             1.00     1.00794     H ( 1.00)

     Simplified LDA+U calculation (l_max = 2) with parameters (eV):
     atomic species    L          U    alpha       J0     beta
        Mo1            2     3.5000   0.0000   0.0000   0.0000

     No symmetry found

   Cartesian axes

     site n.     atom                  positions (alat units)
         1           O0  tau(   1) = (   0.0000000   0.0000000   1.8465574  )
         2           O0  tau(   2) = (   0.0000000   0.6410583   1.8808271  )
         3           Mo1 tau(   3) = (   0.2500000   0.6410583   2.1650231  )
         4           Mo1 tau(   4) = (   0.0000000   0.0000000   2.2064633  )
         5           O0  tau(   5) = (   0.2500000   1.0000510   2.1927158  )
         6           O0  tau(   6) = (   0.2500000   0.2820657   2.1921224  )
         7           O0  tau(   7) = (   0.0000000   0.6410583   2.4520379  )
         8           O0  tau(   8) = (   0.0000000   0.0000000   2.5658746  )
         9           Mo1 tau(   9) = (   0.2500000   0.0000000   2.8596642  )
        10           Mo1 tau(  10) = (   0.0000000   0.6410583   2.7884050  )
        11           O0  tau(  11) = (   0.2500000   0.9231240   2.8369661  )
        12           O0  tau(  12) = (   0.2500000   0.3589927   2.8372628  )
        13           O0  tau(  13) = (   0.0000000   0.0000000   3.1104807  )
        14           O0  tau(  14) = (   0.5000000   0.0000000   1.8465574  )
        15           O0  tau(  15) = (   0.5000000   0.6410583   1.8808271  )
        16           Mo1 tau(  16) = (   0.7500000   0.6410583   2.1650231  )
        17           Mo1 tau(  17) = (   0.5000000   0.0000000   2.2064633  )
        18           O0  tau(  18) = (   0.7500000   1.0000510   2.1927158  )
        19           O0  tau(  19) = (   0.7500000   0.2820657   2.1921224  )
        20           O0  tau(  20) = (   0.5000000   0.6410583   2.4520379  )
        21           O0  tau(  21) = (   0.5000000   0.0000000   2.5658746  )
        22           Mo1 tau(  22) = (   0.7500000   0.0000000   2.8596642  )
        23           Mo1 tau(  23) = (   0.5000000   0.6410583   2.7884050  )
        24           O0  tau(  24) = (   0.7500000   0.9231240   2.8369661  )
        25           O0  tau(  25) = (   0.7500000   0.3589927   2.8372628  )
        26           O0  tau(  26) = (   0.5000000   0.0000000   3.1104807  )
        27           H2  tau(  27) = (  -0.0004900   0.7868222   1.7746059  )
        28           H2  tau(  28) = (   0.4995100   0.7868222   1.7746059  )
        29           H2  tau(  29) = (   0.1657500   0.0265270   1.7749026  )
        30           H2  tau(  30) = (   0.6657500   0.0265270   1.7749026  )

     number of k points=    10  Methfessel-Paxton smearing, width (Ry)=  0.0100
                       cart. coord. in units 2pi/alat
        k(    1) = (   0.0000000   0.0000000   0.0000000), wk =   0.1250000
        k(    2) = (   0.0000000   0.1949901   0.0000000), wk =   0.2500000
        k(    3) = (   0.0000000  -0.3899801   0.0000000), wk =   0.1250000
        k(    4) = (   0.2500000   0.0000000   0.0000000), wk =   0.2500000
        k(    5) = (   0.2500000   0.1949901   0.0000000), wk =   0.2500000
        k(    6) = (   0.2500000  -0.3899801   0.0000000), wk =   0.2500000
        k(    7) = (  -0.5000000   0.0000000   0.0000000), wk =   0.1250000
        k(    8) = (  -0.5000000   0.1949901   0.0000000), wk =   0.2500000
        k(    9) = (  -0.5000000  -0.3899801   0.0000000), wk =   0.1250000
        k(   10) = (  -0.2500000   0.1949901   0.0000000), wk =   0.2500000

     Largest allocated arrays     est. size (Mb)     dimensions
     Largest temporary arrays     est. size (Mb)     dimensions

     Check: negative/imaginary core charge=   -0.000003    0.000000

     Initial potential from superposition of free atoms
     Check: negative starting charge=   -0.002478

     starting charge  223.99143, renormalised to  224.00000

     negative rho (up, down):  0.248E-02 0.000E+00
     Number of +U iterations with fixed ns =  0
     Starting occupations:
 --- enter write_ns ---
 LDA+U parameters:
U( 2)     =  3.50000000
alpha( 2) =  0.00000000
atom    3   Tr[ns(na)] =   5.00000
    eigenvalues:
  0.500  0.500  0.500  0.500  0.500
    eigenvectors:
  1.000  0.000  0.000  0.000  0.000
  0.000  1.000  0.000  0.000  0.000
  0.000  0.000  1.000  0.000  0.000
  0.000  0.000  0.000  1.000  0.000
  0.000  0.000  0.000  0.000  1.000
    occupations:
  0.500  0.000  0.000  0.000  0.000
  0.000  0.500  0.000  0.000  0.000
  0.000  0.000  0.500  0.000  0.000
  0.000  0.000  0.000  0.500  0.000
  0.000  0.000  0.000  0.000  0.500
atom    4   Tr[ns(na)] =   5.00000
    eigenvalues:
  0.500  0.500  0.500  0.500  0.500
    eigenvectors:
  1.000  0.000  0.000  0.000  0.000
  0.000  1.000  0.000  0.000  0.000
  0.000  0.000  1.000  0.000  0.000
  0.000  0.000  0.000  1.000  0.000
  0.000  0.000  0.000  0.000  1.000
    occupations:
  0.500  0.000  0.000  0.000  0.000
  0.000  0.500  0.000  0.000  0.000
  0.000  0.000  0.500  0.000  0.000
  0.000  0.000  0.000  0.500  0.000
  0.000  0.000  0.000  0.000  0.500
atom    9   Tr[ns(na)] =   5.00000
    eigenvalues:
  0.500  0.500  0.500  0.500  0.500
    eigenvectors:
  1.000  0.000  0.000  0.000  0.000
  0.000  1.000  0.000  0.000  0.000
  0.000  0.000  1.000  0.000  0.000
  0.000  0.000  0.000  1.000  0.000
  0.000  0.000  0.000  0.000  1.000
    occupations:
  0.500  0.000  0.000  0.000  0.000
  0.000  0.500  0.000  0.000  0.000
  0.000  0.000  0.500  0.000  0.000
  0.000  0.000  0.000  0.500  0.000
  0.000  0.000  0.000  0.000  0.500
atom   10   Tr[ns(na)] =   5.00000
    eigenvalues:
  0.500  0.500  0.500  0.500  0.500
    eigenvectors:
  1.000  0.000  0.000  0.000  0.000
  0.000  1.000  0.000  0.000  0.000
  0.000  0.000  1.000  0.000  0.000
  0.000  0.000  0.000  1.000  0.000
  0.000  0.000  0.000  0.000  1.000
    occupations:
  0.500  0.000  0.000  0.000  0.000
  0.000  0.500  0.000  0.000  0.000
  0.000  0.000  0.500  0.000  0.000
  0.000  0.000  0.000  0.500  0.000
  0.000  0.000  0.000  0.000  0.500
atom   16   Tr[ns(na)] =   5.00000
    eigenvalues:
  0.500  0.500  0.500  0.500  0.500
    eigenvectors:
  1.000  0.000  0.000  0.000  0.000
  0.000  1.000  0.000  0.000  0.000
  0.000  0.000  1.000  0.000  0.000
  0.000  0.000  0.000  1.000  0.000
  0.000  0.000  0.000  0.000  1.000
    occupations:
  0.500  0.000  0.000  0.000  0.000
  0.000  0.500  0.000  0.000  0.000
  0.000  0.000  0.500  0.000  0.000
  0.000  0.000  0.000  0.500  0.000
  0.000  0.000  0.000  0.000  0.500
atom   17   Tr[ns(na)] =   5.00000
    eigenvalues:
  0.500  0.500  0.500  0.500  0.500
    eigenvectors:
  1.000  0.000  0.000  0.000  0.000
  0.000  1.000  0.000  0.000  0.000
  0.000  0.000  1.000  0.000  0.000
  0.000  0.000  0.000  1.000  0.000
  0.000  0.000  0.000  0.000  1.000
    occupations:
  0.500  0.000  0.000  0.000  0.000
  0.000  0.500  0.000  0.000  0.000
  0.000  0.000  0.500  0.000  0.000
  0.000  0.000  0.000  0.500  0.000
  0.000  0.000  0.000  0.000  0.500
atom   22   Tr[ns(na)] =   5.00000
    eigenvalues:
  0.500  0.500  0.500  0.500  0.500
    eigenvectors:
  1.000  0.000  0.000  0.000  0.000
  0.000  1.000  0.000  0.000  0.000
  0.000  0.000  1.000  0.000  0.000
  0.000  0.000  0.000  1.000  0.000
  0.000  0.000  0.000  0.000  1.000
    occupations:
[...]
  0.000  1.000  0.000  0.000  0.000
    occupations:
  0.585  0.005  0.001 -0.003  0.000
  0.005  0.629  0.005 -0.001 -0.000
  0.001  0.005  0.439 -0.002  0.000
 -0.003 -0.001 -0.002  0.742  0.000
  0.000 -0.000  0.000  0.000  0.523
atom    9   Tr[ns(na)] =   5.83936
    eigenvalues:
  0.510  0.514  0.584  0.591  0.721
    eigenvectors:
  0.000  0.000  0.234  0.000  0.766
  0.000  0.000  0.000  1.000  0.000
  0.001  0.999  0.000  0.000  0.000
  0.000  0.000  0.766  0.000  0.234
  0.999  0.001  0.000  0.000  0.000
    occupations:
  0.689  0.000  0.002 -0.058 -0.002
  0.000  0.591 -0.000  0.000 -0.001
  0.002 -0.000  0.514 -0.001  0.000
 -0.058  0.000 -0.001  0.616  0.001
 -0.002 -0.001  0.000  0.001  0.510
atom   10   Tr[ns(na)] =   5.79499
    eigenvalues:
  0.475  0.497  0.503  0.661  0.762
    eigenvectors:
  0.015  0.982  0.000  0.000  0.003
  0.000  0.000  0.000  1.000  0.000
  0.985  0.015  0.000  0.000  0.000
  0.000  0.003  0.000  0.000  0.997
  0.000  0.000  1.000  0.000  0.000
    occupations:
  0.498  0.000 -0.003 -0.016 -0.000
  0.000  0.661 -0.001  0.000 -0.000
 -0.003 -0.001  0.476  0.000 -0.000
 -0.016  0.000  0.000  0.761  0.000
 -0.000 -0.000 -0.000  0.000  0.503
atom   16   Tr[ns(na)] =   5.84290
    eigenvalues:
  0.472  0.494  0.560  0.640  0.757
    eigenvectors:
  0.012  0.000  0.334  0.000  0.654
  0.000  0.999  0.000  0.001  0.000
  0.988  0.000  0.003  0.000  0.009
  0.000  0.000  0.663  0.000  0.337
  0.000  0.001  0.000  0.999  0.000
    occupations:
  0.687  0.000  0.025 -0.092 -0.000
  0.000  0.494 -0.000 -0.000 -0.004
  0.025 -0.000  0.474 -0.012 -0.000
 -0.092 -0.000 -0.012  0.626  0.000
 -0.000 -0.004 -0.000  0.000  0.640
atom   17   Tr[ns(na)] =   5.83674
    eigenvalues:
  0.439  0.523  0.585  0.630  0.742
    eigenvectors:
  0.000  0.000  0.989  0.011  0.000
  0.001  0.000  0.011  0.988  0.000
  0.999  0.000  0.000  0.001  0.000
  0.000  0.000  0.000  0.000  0.999
  0.000  1.000  0.000  0.000  0.000
    occupations:
  0.585  0.005  0.001 -0.003  0.000
  0.005  0.629  0.005 -0.001 -0.000
  0.001  0.005  0.439 -0.002  0.000
 -0.003 -0.001 -0.002  0.742  0.000
  0.000 -0.000  0.000  0.000  0.523
atom   22   Tr[ns(na)] =   5.83925
    eigenvalues:
  0.510  0.514  0.584  0.591  0.721
    eigenvectors:
  0.000  0.000  0.234  0.000  0.766
  0.000  0.000  0.000  1.000  0.000
  0.002  0.998  0.000  0.000  0.000
  0.000  0.000  0.766  0.000  0.234
  0.998  0.002  0.000  0.000  0.000
    occupations:
  0.689  0.000  0.002 -0.058 -0.002
  0.000  0.591 -0.000  0.000 -0.001
  0.002 -0.000  0.514 -0.001  0.000
 -0.058  0.000 -0.001  0.616  0.001
 -0.002 -0.001  0.000  0.001  0.510
atom   23   Tr[ns(na)] =   5.79497
    eigenvalues:
  0.475  0.497  0.503  0.661  0.762
    eigenvectors:
  0.015  0.981  0.000  0.000  0.003
  0.000  0.000  0.000  1.000  0.000
  0.985  0.015  0.000  0.000  0.000
  0.000  0.003  0.000  0.000  0.996
  0.000  0.000  1.000  0.000  0.000
    occupations:
  0.498  0.000 -0.003 -0.016 -0.000
  0.000  0.661 -0.001  0.000 -0.000
 -0.003 -0.001  0.476  0.000 -0.000
 -0.016  0.000  0.000  0.761  0.000
 -0.000 -0.000 -0.000  0.000  0.503
N of occupied +U levels =  46.6278135
 --- exit write_ns ---

     Threshold (ethr) on eigenvalues was too large:
     Diagonalizing with lowered threshold

     Davidson diagonalization with overlap
     ethr =  1.84E-09,  avg # of iterations =  3.0

[...]

     total energy              =   -1697.80195718 Ry
     Harris-Foulkes estimate   =   -1697.80195718 Ry
     estimated scf accuracy    <       0.00000001 Ry

     iteration # 12     ecut=    40.00 Ry     beta=0.70
     Davidson diagonalization with overlap
     ethr =  5.54E-12,  avg # of iterations =  1.0

     negative rho (up, down):  0.354E-02 0.000E+00

     End of self-consistent calculation
 --- enter write_ns ---
 LDA+U parameters:
U( 2)     =  3.50000000
alpha( 2) =  0.00000000
atom    3   Tr[ns(na)] =   5.84326
    eigenvalues:
  0.472  0.494  0.560  0.640  0.757
    eigenvectors:
  0.012  0.000  0.334  0.000  0.654
  0.000  0.999  0.000  0.001  0.000
  0.988  0.000  0.003  0.000  0.009
  0.000  0.000  0.663  0.000  0.337
  0.000  0.001  0.000  0.999  0.000
    occupations:
  0.687  0.000  0.025 -0.092 -0.000
  0.000  0.494 -0.000 -0.000 -0.004
  0.025 -0.000  0.474 -0.012 -0.000
 -0.092 -0.000 -0.012  0.626  0.000
 -0.000 -0.004 -0.000  0.000  0.640
atom    4   Tr[ns(na)] =   5.83647
    eigenvalues:
  0.439  0.523  0.585  0.630  0.742
    eigenvectors:
  0.000  0.000  0.989  0.011  0.000
  0.001  0.000  0.011  0.988  0.000
  0.999  0.000  0.000  0.001  0.000
  0.000  0.000  0.000  0.000  0.999
  0.000  1.000  0.000  0.000  0.000
    occupations:
  0.585  0.005  0.001 -0.003  0.000
  0.005  0.629  0.005 -0.001 -0.000
  0.001  0.005  0.439 -0.002  0.000
 -0.003 -0.001 -0.002  0.742  0.000
  0.000 -0.000  0.000  0.000  0.523
atom    9   Tr[ns(na)] =   5.83943
    eigenvalues:
  0.510  0.514  0.584  0.591  0.721
    eigenvectors:
  0.000  0.000  0.234  0.000  0.766
  0.000  0.000  0.000  1.000  0.000
  0.001  0.999  0.000  0.000  0.000
  0.000  0.000  0.766  0.000  0.234
  0.999  0.001  0.000  0.000  0.000
    occupations:
  0.689  0.000  0.002 -0.058 -0.002
  0.000  0.591 -0.000  0.000 -0.001
  0.002 -0.000  0.514 -0.001  0.000
 -0.058  0.000 -0.001  0.616  0.001
 -0.002 -0.001  0.000  0.001  0.510
atom   10   Tr[ns(na)] =   5.79454
    eigenvalues:
  0.475  0.497  0.503  0.661  0.762
    eigenvectors:
  0.015  0.981  0.000  0.000  0.003
  0.000  0.000  0.000  1.000  0.000
  0.985  0.015  0.000  0.000  0.000
  0.000  0.003  0.000  0.000  0.997
  0.000  0.000  1.000  0.000  0.000
    occupations:
  0.498  0.000 -0.003 -0.016 -0.000
  0.000  0.661 -0.001  0.000 -0.000
 -0.003 -0.001  0.476  0.000 -0.000
 -0.016  0.000  0.000  0.761  0.000
 -0.000 -0.000 -0.000  0.000  0.503
atom   16   Tr[ns(na)] =   5.84325
    eigenvalues:
  0.472  0.494  0.560  0.640  0.757
    eigenvectors:
  0.012  0.000  0.334  0.000  0.654
  0.000  0.999  0.000  0.001  0.000
  0.988  0.000  0.003  0.000  0.009
  0.000  0.000  0.663  0.000  0.337
  0.000  0.001  0.000  0.999  0.000
    occupations:
  0.687  0.000  0.025 -0.092 -0.000
  0.000  0.494 -0.000 -0.000 -0.004
  0.025 -0.000  0.474 -0.012 -0.000
 -0.092 -0.000 -0.012  0.626  0.000
 -0.000 -0.004 -0.000  0.000  0.640
atom   17   Tr[ns(na)] =   5.83645
    eigenvalues:
  0.439  0.523  0.585  0.630  0.742
    eigenvectors:
  0.000  0.000  0.989  0.011  0.000
  0.001  0.000  0.011  0.988  0.000
  0.999  0.000  0.000  0.001  0.000
  0.000  0.000  0.000  0.000  0.999
  0.000  1.000  0.000  0.000  0.000
    occupations:
  0.585  0.005  0.001 -0.003  0.000
  0.005  0.629  0.005 -0.001 -0.000
  0.001  0.005  0.439 -0.002  0.000
 -0.003 -0.001 -0.002  0.742  0.000
  0.000 -0.000  0.000  0.000  0.523
atom   22   Tr[ns(na)] =   5.83940
    eigenvalues:
  0.510  0.514  0.584  0.591  0.721
    eigenvectors:
  0.000  0.000  0.234  0.000  0.766
  0.000  0.000  0.000  1.000  0.000
  0.002  0.998  0.000  0.000  0.000
  0.000  0.000  0.766  0.000  0.234
  0.998  0.002  0.000  0.000  0.000
    occupations:
  0.689  0.000  0.002 -0.058 -0.002
  0.000  0.591 -0.000  0.000 -0.001
  0.002 -0.000  0.514 -0.001  0.000
 -0.058  0.000 -0.001  0.616  0.001
 -0.002 -0.001  0.000  0.001  0.510
atom   23   Tr[ns(na)] =   5.79454
    eigenvalues:
  0.475  0.497  0.503  0.661  0.762
    eigenvectors:
  0.015  0.981  0.000  0.000  0.003
  0.000  0.000  0.000  1.000  0.000
  0.985  0.015  0.000  0.000  0.000
  0.000  0.003  0.000  0.000  0.997
  0.000  0.000  1.000  0.000  0.000
    occupations:
  0.498  0.000 -0.003 -0.016 -0.000
  0.000  0.661 -0.001  0.000 -0.000
 -0.003 -0.001  0.476  0.000 -0.000
 -0.016  0.000  0.000  0.761  0.000
 -0.000 -0.000 -0.000  0.000  0.503
N of occupied +U levels =  46.6273280
 --- exit write_ns ---

[...]

          k = 0.2500-0.3900 0.0000 ( 29726 PWs)   bands (ev):

[...]

          k =-0.2500 0.1950 0.0000 ( 29746 PWs)   bands (ev):

   -62.2722 -62.2333 -62.1853 -62.1521 -62.0537 -62.0318 -61.9721 -61.9500
   -36.8060 -36.7660 -36.6952 -36.6863 -36.6175 -36.4554 -36.3798 -36.3543
   -36.3501 -36.3434 -36.3430 -36.2630 -36.2447 -36.2367 -36.2164 -36.1933
   -36.1804 -36.0927 -36.0701 -36.0281 -36.0147 -35.7337 -35.6384 -35.6144
   -20.7691 -20.5125 -19.8920 -19.7050 -19.6570 -19.5748 -19.4686 -19.3815
   -19.2366 -19.1381 -19.0492 -18.8774 -18.8161 -18.7648 -18.6773 -18.5418
   -18.1194 -17.9627  -8.8090  -8.6377  -8.0907  -7.8731  -7.6792  -7.6674
    -7.6134  -7.5145  -7.3305  -7.2866  -7.2360  -7.1497  -6.9465  -6.8443
    -6.7129  -6.3555  -6.2398  -6.1771  -6.1171  -5.9709  -5.8731  -5.8474
    -5.7330  -5.5933  -5.4662  -5.3360  -5.2696  -5.1921  -5.0115  -4.9482
    -4.7667  -4.6327  -4.5981  -4.4900  -4.4165  -4.3511  -4.2898  -4.2631
    -4.1476  -4.1391  -4.0401  -3.9188  -3.8113  -3.7062  -3.4913  -3.3622
    -3.3585  -3.2743  -3.1763  -3.0266  -2.9943  -2.7631  -2.6576  -2.4587
    -2.0909  -1.9100  -1.6451  -0.8076  -0.6582  -0.5445  -0.3402   0.1577
     0.1735   0.4942   0.7430   0.7880   0.9580   1.1142   1.1546   1.3459
     1.5100   1.5157   1.5494   1.6905   1.7566   1.7719   1.9090   2.0872
     2.3198   2.5209   3.3267   3.4639   3.7234   3.7458   3.9335   4.0912
     4.3436   4.3940   4.5450   4.6204   4.6987   4.8196   4.9388   5.1704
     5.5241   5.6895   5.7582   5.8785   5.9200   6.0945   6.3168   6.4002
     6.5509   6.6582   6.9693   6.9954   7.1036   7.2647   7.5135   7.5956
     7.9177   7.9340   8.1865   8.2800   8.2811   8.4751   8.6404   8.6582
     8.9079   8.9973   9.0701   9.2989   9.3904   9.4218   9.5031   9.5544
     9.5674   9.6032   9.8313   9.9787  10.0338  10.1862  10.2350  10.2731
    10.4724  10.4969  10.6404  10.7328  10.7358  10.9504  11.0769  11.0883
    11.0987  11.2507  11.5367  11.6075  11.6135  11.7398  11.8059  11.9075
    11.9630  12.0760  12.2731  12.3057  12.3472  12.3623  12.4480  12.6145
    12.6735  12.7585  12.8734  12.8927  12.9751  13.0935  13.1078  13.1908
    13.3233  13.4327  13.4328  13.5052  13.5102  13.6347  13.6637  13.7280
    13.8590  13.8901  13.9650  13.9835  14.1283  14.1506  14.2406  14.3475
    14.3933  14.4500  14.5033  14.5610  14.6075  14.7324  14.8407  14.8509
    14.9549  15.0438  15.0624  15.2148  15.2951  15.4091  15.4915  15.5507
    15.6463  15.6601  15.7633  15.8391  15.8947  15.9589  16.0492  16.1010
    16.1998  16.2768  16.2909  16.3449  16.3771  16.4502  16.5785  16.7093
    16.7181  16.7687  16.7755  16.8909  17.0038  17.0972  17.1785  17.2053
    17.2282  17.3100  17.3455  17.4112  17.4964  17.6790  17.6886  17.7990
    17.9044  17.9140  18.0933  18.1012  18.1812  18.2480  18.3430  18.3772
    18.4215  18.4347  18.5327  18.5680  18.6146  18.7963  18.8713  19.0186
    19.0635  19.1218  19.1410  19.2572  19.3067  19.4945  19.5728  19.6010
    19.7160  19.7811  19.8132  19.9079  19.9613  20.0794  20.1477  20.1688
    20.1937  20.2579  20.3419  20.3818  20.4074  20.4236  20.5122  20.5293
    20.6545  20.6946  20.7429  20.8231  20.9288  20.9634  21.0302  21.0709
    21.1171  21.2025  21.2155  21.3038  21.4242  21.4699  21.5524  21.6398

     the Fermi energy is     0.1108 ev

!    total energy              =   -1697.80195718 Ry
     Harris-Foulkes estimate   =   -1697.80195718 Ry
     estimated scf accuracy    <          1.7E-09 Ry

     The total energy is the sum of the following terms:

     one-electron contribution =  -21417.06959341 Ry
     hartree contribution      =   10730.48624270 Ry
     xc contribution           =    -286.63359840 Ry
     ewald contribution        =    9273.01688233 Ry
     Hubbard energy            =       2.39956149 Ry
     smearing contrib. (-TS)   =      -0.00145190 Ry

     convergence has been achieved in  12 iterations

     Forces acting on atoms (Ry/au):

     negative rho (up, down):  0.354E-02 0.000E+00
     atom    1 type  1   force =    -0.00228695   -0.00511482   -0.00029473
     atom    2 type  1   force =    -0.00005978    0.01027116    0.00004282
     atom    3 type  2   force =    -0.00024706   -0.00566738    0.00036038
     atom    4 type  2   force =    -0.00070912    0.00290546   -0.00026780
     atom    5 type  1   force =     0.00153123   -0.01209183   -0.00017131
     atom    6 type  1   force =     0.00003944    0.00962047   -0.00014693
     atom    7 type  1   force =     0.00018230    0.00067101    0.00001154
     atom    8 type  1   force =     0.00318791    0.00077326    0.00085336
     atom    9 type  2   force =    -0.00193594   -0.00031799   -0.00007812
     atom   10 type  2   force =    -0.00000623    0.00088286    0.00005248
     atom   11 type  1   force =    -0.00020368   -0.03856182    0.00025363
     atom   12 type  1   force =     0.00027790    0.03748164    0.00028827
     atom   13 type  1   force =    -0.00021340    0.00014713   -0.00038683
     atom   14 type  1   force =    -0.00227630   -0.00511444   -0.00027608
     atom   15 type  1   force =    -0.00005937    0.01027141    0.00004193
     atom   16 type  2   force =    -0.00027097   -0.00566916    0.00036049
     atom   17 type  2   force =    -0.00070717    0.00290605   -0.00025263
     atom   18 type  1   force =     0.00153658   -0.01209117   -0.00017075
     atom   19 type  1   force =     0.00004184    0.00962123   -0.00014676
     atom   20 type  1   force =     0.00018361    0.00067091    0.00000141
     atom   21 type  1   force =     0.00319107    0.00077428    0.00082993
     atom   22 type  2   force =    -0.00197447   -0.00031823   -0.00007471
     atom   23 type  2   force =    -0.00000649    0.00088257    0.00004310
     atom   24 type  1   force =    -0.00019273   -0.03855925    0.00025432
     atom   25 type  1   force =     0.00029036    0.03747901    0.00028849
     atom   26 type  1   force =    -0.00020683    0.00014627   -0.00039301
     atom   27 type  3   force =     0.00000271   -0.00058188   -0.00047312
     atom   28 type  3   force =     0.00000265   -0.00058587   -0.00046895
     atom   29 type  3   force =     0.00045007   -0.00041422   -0.00004220
     atom   30 type  3   force =     0.00043882   -0.00041666   -0.00003821

     Total force =     0.002137     Total SCF correction =     0.000163

     bfgs converged in   6 scf cycles and   5 bfgs steps
     (criteria: energy < 0.10E-03, force < 0.10E-02)

     End of BFGS Geometry Optimization

     Final energy   =   -1697.8019571815 Ry
Begin final coordinates

ATOMIC_POSITIONS (crystal)
O0       0.000000000   0.000000000   0.373501702    0   0   1
O0       0.000000000   0.500000000   0.380252648    0   0   1
Mo1      0.250000000   0.500000000   0.437630264    0   0   1
Mo1      0.000000000   0.000000000   0.445983736    0   0   1
O0       0.250000000   0.780000000   0.443479367    0   0   1
O0       0.250000000   0.220000000   0.443380526    0   0   1
O0       0.000000000   0.500000000   0.496239986    0   0   1
O0       0.000000000   0.000000000   0.518431746    0   0   1
Mo1      0.250000000   0.000000000   0.578247648    0   0   1
Mo1      0.000000000   0.500000000   0.563836409    0   0   1
O0       0.250000000   0.720000000   0.573884064    0   0   1
O0       0.250000000   0.280000000   0.573960888    0   0   1
O0       0.000000000   0.000000000   0.628983772    0   0   1
O0       0.500000000   0.000000000   0.373499853    0   0   1
O0       0.500000000   0.500000000   0.380250787    0   0   1
Mo1      0.750000000   0.500000000   0.437630251    0   0   1
Mo1      0.500000000   0.000000000   0.445982310    0   0   1
O0       0.750000000   0.780000000   0.443479434    0   0   1
O0       0.750000000   0.220000000   0.443380433    0   0   1
O0       0.500000000   0.500000000   0.496241006    0   0   1
O0       0.500000000   0.000000000   0.518433360    0   0   1
Mo1      0.750000000   0.000000000   0.578247557    0   0   1
Mo1      0.500000000   0.500000000   0.563836940    0   0   1
O0       0.750000000   0.720000000   0.573884025    0   0   1
O0       0.750000000   0.280000000   0.573960785    0   0   1
O0       0.500000000   0.000000000   0.628985594    0   0   1
H2      -0.000486018   0.613444445   0.358695882
H2       0.499513901   0.613447943   0.358695037
H2       0.166080347   0.020283599   0.359032281
H2       0.666084712   0.020284050   0.359031708
End final coordinates

     General routines

     Parallel routines
     Hubbard U routines

   This run was terminated on:  17: 4:27   5May2014

   JOB DONE.
Running PBS batch system epilogue script
Job id: 340747.audhumbla.fysik.dtu.dk
Username: zhonxu
Groupname: campgst
Jobname: MoO2/Eads-2-layers/bare-U-3.5
Sessionid: 30887
Queuename: verylong
Accounting:
This job has allocated the following 16 nodes:
d105 d105 d105 d105 d105 d105 d105 d105 d082 d082 d082 d082 d082 d082 d082 d082
Finished epilogue job 340747.audhumbla.fysik.dtu.dk for zhonxu