     Program PWSCF v.5.0.2 (svn rev. 9656) starts on 30May2014 at 23: 5:41

     Current dimensions of program PWSCF are:
     Max number of different atomic species (ntypx) = 10
     Max number of k-points (npk) =  40000
     Max angular momentum in pseudopotentials (lmaxx) =  3
     Reading input from pwscf.in
Warning: card &CELL ignored
Warning: card / ignored

     Subspace diagonalization in iterative solution of the eigenvalue problem:
     a serial algorithm will be used

     bravais-lattice index     =            0
     lattice parameter (alat)  =      11.7919  a.u.
     unit-cell volume          =    7123.6633 (a.u.)^3
     number of atoms/cell      =           33
     number of atomic types    =            3
     number of electrons       =       253.00
     number of Kohn-Sham states=          367
     kinetic-energy cutoff     =      40.0000  Ry
     charge density cutoff     =     500.0000  Ry
     convergence threshold     =      1.0E-06
     mixing beta               =       0.7000
     number of iterations used =            8  plain     mixing
     Exchange-correlation      = SLA  PW   PBE  PBE ( 1 4 3 4 0)
     EXX-fraction              =        0.00
     nstep                     =           50

     celldm(1)=  11.791891  celldm(2)=   0.000000  celldm(3)=   0.000000
     celldm(4)=   0.000000  celldm(5)=   0.000000  celldm(6)=   0.000000

     crystal axes: (cart. coord. in units of alat)
               a(1) = (   1.000000   0.000000   0.000000 )
               a(2) = (   0.000000   1.026665   0.000000 )
               a(3) = (   0.000000   0.000000   4.231793 )

     reciprocal axes: (cart. coord. in units 2 pi/alat)
               b(1) = (  1.000000  0.000000  0.000000 )
               b(2) = (  0.000000  0.974028  0.000000 )
               b(3) = (  0.000000  0.000000  0.236306 )

     PseudoPot. # 1 for O  read from file:
     /home/camp/zhonxu/pseudo/o_pbe_v1.01.uspp.F.UPF
     MD5 check sum: 2bcb18d16ea4b960afae9ec6d52f22d2
     Pseudo is Ultrasoft + core correction, Zval =  6.0
     Generated by new atomic code, or converted to UPF format
     Using radial grid of  737 points,  5 beta functions with:
                l(1) =   0
                l(2) =   0
                l(3) =   1
                l(4) =   1
                l(5) =   2
     Q(r) pseudized with  8 coefficients,  rinner =    0.900   0.900   0.900
                                                       0.900   0.900

     PseudoPot. # 2 for Ru read from file:
     /home/camp/zhonxu/pseudo/ru_pbe_v1.uspp.F.UPF
     MD5 check sum: df00be1c11b23341d9806d8f1dfa10cf
     Pseudo is Ultrasoft + core correction, Zval = 16.0
     Generated by new atomic code, or converted to UPF format
     Using radial grid of  967 points,  6 beta functions with:
                l(1) =   0
                l(2) =   0
                l(3) =   1
                l(4) =   1
                l(5) =   2
                l(6) =   2
     Q(r) pseudized with  8 coefficients,  rinner =    1.300   1.300   1.300
                                                       1.300   1.300

     PseudoPot. # 3 for H  read from file:
     /home/camp/zhonxu/pseudo/h_pbe_v1.uspp.F.UPF
     MD5 check sum: 3408e3ff4ec8b0a4e358431e7e038a48
     Pseudo is Ultrasoft, Zval =  1.0
     Generated by new atomic code, or converted to UPF format
     Using radial grid of  615 points,  2 beta functions with:
                l(1) =   0
                l(2) =   0
     Q(r) pseudized with  8 coefficients,  rinner =    0.700

     atomic species   valence    mass     pseudopotential
        O0             6.00    15.99940     O ( 1.00)
        Ru1           16.00   101.07000     Ru( 1.00)
        H2             1.00     1.00794     H ( 1.00)

     Simplified LDA+U calculation (l_max = 2) with parameters (eV):
     atomic species    L          U    alpha       J0     beta
        Ru1            2     4.5000   0.0000   0.0000   0.0000

     No symmetry found

   Cartesian axes

     site n.     atom                  positions (alat units)
         1           O0  tau(   1) = (   0.0000000   0.0000000   1.5976288  )
         2           O0  tau(   2) = (   0.0000000   0.5133323   1.7135376  )
         3           Ru1 tau(   3) = (   0.2500000   0.5133323   1.9265237  )
         4           Ru1 tau(   4) = (   0.0000000   0.0000000   1.9104429  )
         5           O0  tau(   5) = (   0.2500000   0.8315984   1.9133628  )
         6           O0  tau(   6) = (   0.2500000   0.1950663   1.9137014  )
         7           O0  tau(   7) = (   0.0000000   0.5133323   2.1143307  )
         8           O0  tau(   8) = (   0.0000000   0.0000000   2.2232570  )
         9           Ru1 tau(   9) = (   0.2500000   0.0000000   2.4362008  )
        10           Ru1 tau(  10) = (   0.0000000   0.5133323   2.4139839  )
        11           O0  tau(  11) = (   0.2500000   0.7083986   2.4352275  )
        12           O0  tau(  12) = (   0.2500000   0.3182660   2.4428024  )
        13           O0  tau(  13) = (   0.0000000   0.0000000   2.6141054  )
        14           O0  tau(  14) = (   0.5000000   0.0000000   1.5980943  )
        15           O0  tau(  15) = (   0.5000000   0.5133323   1.7110408  )
        16           Ru1 tau(  16) = (   0.7500000   0.5133323   1.9265660  )
        17           Ru1 tau(  17) = (   0.5000000   0.0000000   1.9113316  )
        18           O0  tau(  18) = (   0.7500000   0.8315984   1.9134475  )
        19           O0  tau(  19) = (   0.7500000   0.1950663   1.9137014  )
        20           O0  tau(  20) = (   0.5000000   0.5133323   2.1248255  )
        21           O0  tau(  21) = (   0.5000000   0.0000000   2.2236379  )
        22           Ru1 tau(  22) = (   0.7500000   0.0000000   2.4362855  )
        23           Ru1 tau(  23) = (   0.5000000   0.5133323   2.4472458  )
        24           O0  tau(  24) = (   0.7500000   0.7083986   2.4352698  )
        25           O0  tau(  25) = (   0.7500000   0.3182660   2.4426755  )
        26           O0  tau(  26) = (   0.5000000   0.0000000   2.6042453  )
        27           H2  tau(  27) = (  -0.0003700   0.6408749   1.6195494  )
        28           H2  tau(  28) = (   0.4997300   0.6446633   1.6222578  )
        29           H2  tau(  29) = (   0.1462300   0.0299786   1.5449853  )
        30           H2  tau(  30) = (   0.6457400   0.0313441   1.5450699  )
        31           O0  tau(  31) = (   0.5000700   0.5415759   2.7547279  )
        32           O0  tau(  32) = (   0.4999900   0.3417972   2.8749108  )
        33           H2  tau(  33) = (   0.4999600   0.4009947   3.0215847  )

     number of k points=    10  Methfessel-Paxton smearing, width (Ry)=  0.0100
                       cart. coord. in units 2pi/alat
        k(    1) = (   0.0000000   0.0000000   0.0000000), wk =   0.1250000
        k(    2) = (   0.0000000   0.2435070   0.0000000), wk =   0.2500000
        k(    3) = (   0.0000000  -0.4870139   0.0000000), wk =   0.1250000
        k(    4) = (   0.2500000   0.0000000   0.0000000), wk =   0.2500000
        k(    5) = (   0.2500000   0.2435070   0.0000000), wk =   0.2500000
        k(    6) = (   0.2500000  -0.4870139   0.0000000), wk =   0.2500000
        k(    7) = (  -0.5000000   0.0000000   0.0000000), wk =   0.1250000
        k(    8) = (  -0.5000000   0.2435070   0.0000000), wk =   0.2500000
        k(    9) = (  -0.5000000  -0.4870139   0.0000000), wk =   0.1250000
        k(   10) = (  -0.2500000   0.2435070   0.0000000), wk =   0.2500000

     Largest allocated arrays     est. size (Mb)     dimensions
     Largest temporary arrays     est. size (Mb)     dimensions

     Check: negative/imaginary core charge=   -0.000003    0.000000

     Initial potential from superposition of free atoms
     Check: negative starting charge=   -0.523679

     starting charge  244.99980, renormalised to  253.00000

     negative rho (up, down):  0.541E+00 0.000E+00
     Number of +U iterations with fixed ns =  0
     Starting occupations:
 --- enter write_ns ---
 LDA+U parameters:
U( 2)     =  4.50000000
alpha( 2) =  0.00000000
atom    3   Tr[ns(na)] =   6.00000
    eigenvalues:
  0.600  0.600  0.600  0.600  0.600
    eigenvectors:
  1.000  0.000  0.000  0.000  0.000
  0.000  1.000  0.000  0.000  0.000
  0.000  0.000  1.000  0.000  0.000
  0.000  0.000  0.000  1.000  0.000
  0.000  0.000  0.000  0.000  1.000
    occupations:
  0.600  0.000  0.000  0.000  0.000
  0.000  0.600  0.000  0.000  0.000
  0.000  0.000  0.600  0.000  0.000
  0.000  0.000  0.000  0.600  0.000
  0.000  0.000  0.000  0.000  0.600
atom    4   Tr[ns(na)] =   6.00000
    eigenvalues:
  0.600  0.600  0.600  0.600  0.600
    eigenvectors:
  1.000  0.000  0.000  0.000  0.000
  0.000  1.000  0.000  0.000  0.000
  0.000  0.000  1.000  0.000  0.000
  0.000  0.000  0.000  1.000  0.000
  0.000  0.000  0.000  0.000  1.000
    occupations:
  0.600  0.000  0.000  0.000  0.000
  0.000  0.600  0.000  0.000  0.000
  0.000  0.000  0.600  0.000  0.000
  0.000  0.000  0.000  0.600  0.000
  0.000  0.000  0.000  0.000  0.600
atom    9   Tr[ns(na)] =   6.00000
    eigenvalues:
  0.600  0.600  0.600  0.600  0.600
    eigenvectors:
  1.000  0.000  0.000  0.000  0.000
  0.000  1.000  0.000  0.000  0.000
  0.000  0.000  1.000  0.000  0.000
  0.000  0.000  0.000  1.000  0.000
  0.000  0.000  0.000  0.000  1.000
    occupations:
  0.600  0.000  0.000  0.000  0.000
  0.000  0.600  0.000  0.000  0.000
  0.000  0.000  0.600  0.000  0.000
  0.000  0.000  0.000  0.600  0.000
  0.000  0.000  0.000  0.000  0.600
atom   10   Tr[ns(na)] =   6.00000
    eigenvalues:
  0.600  0.600  0.600  0.600  0.600
    eigenvectors:
  1.000  0.000  0.000  0.000  0.000
  0.000  1.000  0.000  0.000  0.000
  0.000  0.000  1.000  0.000  0.000
  0.000  0.000  0.000  1.000  0.000
  0.000  0.000  0.000  0.000  1.000
    occupations:
  0.600  0.000  0.000  0.000  0.000
  0.000  0.600  0.000  0.000  0.000
  0.000  0.000  0.600  0.000  0.000
  0.000  0.000  0.000  0.600  0.000
  0.000  0.000  0.000  0.000  0.600
atom   16   Tr[ns(na)] =   6.00000
    eigenvalues:
  0.600  0.600  0.600  0.600  0.600
    eigenvectors:
  1.000  0.000  0.000  0.000  0.000
  0.000  1.000  0.000  0.000  0.000
  0.000  0.000  1.000  0.000  0.000
  0.000  0.000  0.000  1.000  0.000
  0.000  0.000  0.000  0.000  1.000
    occupations:
  0.600  0.000  0.000  0.000  0.000
  0.000  0.600  0.000  0.000  0.000
  0.000  0.000  0.600  0.000  0.000
  0.000  0.000  0.000  0.600  0.000
  0.000  0.000  0.000  0.000  0.600
atom   17   Tr[ns(na)] =   6.00000
    eigenvalues:
  0.600  0.600  0.600  0.600  0.600
    eigenvectors:
  1.000  0.000  0.000  0.000  0.000
  0.000  1.000  0.000  0.000  0.000
  0.000  0.000  1.000  0.000  0.000
  0.000  0.000  0.000  1.000  0.000
  0.000  0.000  0.000  0.000  1.000
    occupations:
  0.600  0.000  0.000  0.000  0.000
  0.000  0.600  0.000  0.000  0.000
  0.000  0.000  0.600  0.000  0.000
  0.000  0.000  0.000  0.600  0.000
  0.000  0.000  0.000  0.000  0.600
atom   22   Tr[ns(na)] =   6.00000
    eigenvalues:
  0.600  0.600  0.600  0.600  0.600
    eigenvectors:
  1.000  0.000  0.000  0.000  0.000
  0.000  1.000  0.000  0.000  0.000
  0.000  0.000  1.000  0.000  0.000
[...]
  0.055 -0.000 -0.001  0.971 -0.000
  0.000 -0.007 -0.000 -0.000  0.533
atom   16   Tr[ns(na)] =   7.23747
    eigenvalues:
  0.510  0.558  0.696  0.876  0.978
    eigenvectors:
  0.002  0.177  0.006  0.000  0.815
  0.993  0.007  0.000  0.000  0.000
  0.000  0.002  0.949  0.039  0.010
  0.005  0.814  0.007  0.000  0.174
  0.000  0.000  0.039  0.961  0.000
    occupations:
  0.901  0.007  0.028 -0.160  0.005
  0.007  0.510  0.003  0.001 -0.002
  0.028  0.003  0.706 -0.007 -0.034
 -0.160  0.001 -0.007  0.632 -0.001
  0.005 -0.002 -0.034 -0.001  0.869
atom   17   Tr[ns(na)] =   7.23366
    eigenvalues:
  0.552  0.605  0.658  0.819  0.983
    eigenvectors:
  0.001  0.986  0.000  0.000  0.013
  0.000  0.000  0.018  0.982  0.000
  0.000  0.000  0.982  0.018  0.000
  0.000  0.013  0.000  0.000  0.987
  0.999  0.001  0.000  0.000  0.000
    occupations:
  0.610 -0.000  0.000  0.042  0.002
 -0.000  0.816  0.021 -0.001 -0.001
  0.000  0.021  0.661  0.002  0.001
  0.042 -0.001  0.002  0.978  0.000
  0.002 -0.001  0.001  0.000  0.552
atom   22   Tr[ns(na)] =   7.24591
    eigenvalues:
  0.570  0.592  0.790  0.825  0.846
    eigenvectors:
  0.000  0.161  0.005  0.812  0.023
  0.999  0.001  0.000  0.000  0.000
  0.000  0.000  0.987  0.009  0.004
  0.001  0.838  0.003  0.153  0.004
  0.000  0.000  0.006  0.025  0.969
    occupations:
  0.788  0.005 -0.004 -0.085  0.003
  0.005  0.570  0.002 -0.003  0.000
 -0.004  0.002  0.791 -0.003  0.004
 -0.085 -0.003 -0.003  0.630 -0.001
  0.003  0.000  0.004 -0.001  0.845
atom   23   Tr[ns(na)] =   7.27455
    eigenvalues:
  0.542  0.582  0.698  0.849  0.965
    eigenvectors:
  0.000  0.997  0.000  0.001  0.003
  0.001  0.000  0.998  0.001  0.000
  0.000  0.001  0.001  0.998  0.000
  0.000  0.003  0.000  0.000  0.997
  0.999  0.000  0.001  0.000  0.000
    occupations:
  0.584  0.001  0.006  0.020  0.000
  0.001  0.698  0.005  0.001 -0.006
  0.006  0.005  0.849 -0.003 -0.000
  0.020  0.001 -0.003  0.964 -0.000
  0.000 -0.006 -0.000 -0.000  0.542
N of occupied +U levels =  57.9797658
 --- exit write_ns ---

     Threshold (ethr) on eigenvalues was too large:
     Diagonalizing with lowered threshold

     Davidson diagonalization with overlap
     ethr =  2.35E-08,  avg # of iterations =  2.0

[...]

     total energy              =   -2194.35832721 Ry
     Harris-Foulkes estimate   =   -2194.35832722 Ry
     estimated scf accuracy    <       0.00000008 Ry

     iteration # 24     ecut=    40.00 Ry     beta=0.70
     Davidson diagonalization with overlap
     ethr =  1.09E-11,  avg # of iterations =  1.0

     negative rho (up, down):  0.572E+00 0.000E+00

     End of self-consistent calculation
 --- enter write_ns ---
 LDA+U parameters:
U( 2)     =  4.50000000
alpha( 2) =  0.00000000
atom    3   Tr[ns(na)] =   7.23943
    eigenvalues:
  0.509  0.557  0.699  0.875  0.978
    eigenvectors:
  0.002  0.178  0.005  0.000  0.815
  0.993  0.006  0.000  0.000  0.000
  0.000  0.002  0.950  0.038  0.010
  0.004  0.814  0.006  0.000  0.175
  0.000  0.000  0.038  0.962  0.000
    occupations:
  0.901 -0.007  0.027 -0.160 -0.005
 -0.007  0.510 -0.002 -0.001 -0.003
  0.027 -0.002  0.709 -0.006  0.033
 -0.160 -0.001 -0.006  0.632  0.001
 -0.005 -0.003  0.033  0.001  0.869
atom    4   Tr[ns(na)] =   7.23682
    eigenvalues:
  0.553  0.605  0.652  0.826  0.983
    eigenvectors:
  0.001  0.985  0.000  0.000  0.013
  0.000  0.000  0.015  0.985  0.000
  0.000  0.000  0.984  0.015  0.000
  0.000  0.013  0.000  0.000  0.987
  0.999  0.001  0.000  0.000  0.000
    occupations:
  0.610 -0.001  0.001  0.043  0.002
 -0.001  0.824  0.021 -0.001 -0.001
  0.001  0.021  0.655  0.001  0.000
  0.043 -0.001  0.001  0.978  0.000
  0.002 -0.001  0.000  0.000  0.553
atom    9   Tr[ns(na)] =   7.25152
    eigenvalues:
  0.567  0.591  0.778  0.839  0.851
    eigenvectors:
  0.000  0.158  0.006  0.466  0.370
  0.998  0.002  0.000  0.000  0.000
  0.000  0.001  0.991  0.004  0.005
  0.002  0.839  0.004  0.085  0.070
  0.000  0.000  0.000  0.444  0.556
    occupations:
  0.804 -0.004 -0.008 -0.092  0.005
 -0.004  0.567  0.001  0.003  0.001
 -0.008  0.001  0.779 -0.002 -0.001
 -0.092  0.003 -0.002  0.630 -0.003
  0.005  0.001 -0.001 -0.003  0.846
atom   10   Tr[ns(na)] =   7.26058
    eigenvalues:
  0.525  0.533  0.721  0.873  0.978
    eigenvectors:
  0.985  0.000  0.000  0.000  0.015
  0.000  0.000  0.000  0.999  0.000
  0.000  0.000  1.000  0.000  0.000
  0.015  0.000  0.000  0.000  0.985
  0.000  1.000  0.000  0.000  0.000
    occupations:
  0.532  0.000  0.002  0.055  0.000
  0.000  0.873  0.001 -0.000 -0.007
  0.002  0.001  0.721 -0.001 -0.000
  0.055 -0.000 -0.001  0.971 -0.000
  0.000 -0.007 -0.000 -0.000  0.533
atom   16   Tr[ns(na)] =   7.23827
    eigenvalues:
  0.510  0.558  0.697  0.877  0.978
    eigenvectors:
  0.002  0.177  0.006  0.000  0.815
  0.993  0.007  0.000  0.000  0.000
  0.000  0.002  0.948  0.040  0.010
  0.005  0.814  0.007  0.000  0.174
  0.000  0.000  0.039  0.960  0.000
    occupations:
  0.901  0.007  0.028 -0.160  0.005
  0.007  0.510  0.003  0.001 -0.002
  0.028  0.003  0.706 -0.007 -0.035
 -0.160  0.001 -0.007  0.632 -0.001
  0.005 -0.002 -0.035 -0.001  0.870
atom   17   Tr[ns(na)] =   7.23450
    eigenvalues:
  0.552  0.605  0.658  0.819  0.983
    eigenvectors:
  0.001  0.986  0.000  0.000  0.013
  0.000  0.000  0.018  0.982  0.000
  0.000  0.000  0.982  0.018  0.000
  0.000  0.013  0.000  0.000  0.987
  0.999  0.001  0.000  0.000  0.000
    occupations:
  0.610 -0.000  0.000  0.042  0.002
 -0.000  0.816  0.021 -0.001 -0.001
  0.000  0.021  0.661  0.002  0.001
  0.042 -0.001  0.002  0.978  0.000
  0.002 -0.001  0.001  0.000  0.552
atom   22   Tr[ns(na)] =   7.24676
    eigenvalues:
  0.570  0.592  0.791  0.824  0.846
    eigenvectors:
  0.000  0.161  0.005  0.813  0.021
  0.999  0.001  0.000  0.000  0.000
  0.000  0.000  0.986  0.010  0.004
  0.001  0.838  0.003  0.154  0.004
  0.000  0.000  0.006  0.023  0.971
    occupations:
  0.787  0.005 -0.004 -0.085  0.003
  0.005  0.570  0.002 -0.003  0.000
 -0.004  0.002  0.791 -0.003  0.004
 -0.085 -0.003 -0.003  0.630 -0.001
  0.003  0.000  0.004 -0.001  0.845
atom   23   Tr[ns(na)] =   7.27411
    eigenvalues:
  0.542  0.582  0.698  0.850  0.965
    eigenvectors:
  0.000  0.997  0.000  0.001  0.003
  0.001  0.000  0.998  0.001  0.000
  0.000  0.001  0.001  0.998  0.000
  0.000  0.003  0.000  0.000  0.997
  0.999  0.000  0.001  0.000  0.000
    occupations:
  0.583  0.001  0.006  0.020  0.000
  0.001  0.698  0.005  0.001 -0.006
  0.006  0.005  0.849 -0.003 -0.000
  0.020  0.001 -0.003  0.964 -0.000
  0.000 -0.006 -0.000 -0.000  0.542
N of occupied +U levels =  57.9819890
 --- exit write_ns ---

[...]

          k = 0.2500-0.4870 0.0000 ( 30468 PWs)   bands (ev):

[...]

          k =-0.2500 0.2435 0.0000 ( 30434 PWs)   bands (ev):

   -73.5431 -73.4883 -73.4199 -73.4124 -73.1924 -73.0917 -73.0148 -73.0033
   -43.7462 -43.7406 -43.7088 -43.5539 -43.5166 -43.4913 -43.4875 -43.4813
   -43.4739 -43.4195 -43.3659 -43.3453 -43.3120 -43.2434 -43.2355 -43.2298
   -43.1614 -43.0035 -42.9695 -42.9554 -42.9332 -42.8837 -42.7837 -42.7810
   -23.4092 -20.3319 -19.9702 -19.8633 -19.7525 -19.5989 -19.4397 -19.3794
   -19.2503 -19.1735 -19.1477 -18.9856 -18.9117 -18.8265 -18.8083 -18.7772
   -18.6348 -18.5836 -18.4821 -17.0757  -8.9233  -8.6887  -8.4044  -8.3851
    -8.2021  -8.1010  -8.0515  -7.7693  -7.6670  -7.4133  -7.3585  -7.2704
    -7.2413  -7.1294  -7.0568  -6.9903  -6.9649  -6.9353  -6.8344  -6.5847
    -6.4716  -6.3313  -6.0579  -5.9911  -5.8673  -5.7940  -5.6404  -5.5218
    -5.4793  -5.2915  -5.2225  -5.1411  -5.0319  -4.9455  -4.9310  -4.8275
    -4.6929  -4.6389  -4.5872  -4.4675  -4.4329  -4.3612  -4.3438  -4.1756
    -4.0691  -3.8217  -3.7202  -3.6566  -3.5945  -3.5227  -3.4327  -3.3849
    -3.1790  -3.0863  -3.0634  -2.7584  -2.6715  -2.4187  -2.2967  -2.1749
    -1.9738  -1.9431  -1.8785  -1.7988  -1.6969  -1.6587  -1.5941  -1.5161
    -1.4669  -1.3887  -1.2688  -1.1597  -1.0167  -0.7631  -0.6772  -0.4674
    -0.3122  -0.1824   0.0218   0.1327   0.2194   0.3298   0.5578   1.5669
     2.1771   2.2976   2.4368   2.4720   2.9932   3.2409   3.3188   3.5152
     3.7412   3.8100   3.9317   3.9918   4.0890   4.1441   4.2498   4.3408
     4.3877   4.6255   4.8035   5.1890   5.6286   5.7704   6.0292   6.0938
     6.1478   6.4807   6.5215   6.6811   6.9259   7.0634   7.1305   7.4491
     7.6089   7.7093   7.9249   8.0961   8.1532   8.3612   8.4210   8.5684
     8.6873   8.8072   8.9610   9.0648   9.1026   9.2871   9.4179   9.4511
     9.6172   9.6985   9.7938   9.8666  10.0640  10.0796  10.1844  10.2914
    10.3231  10.4168  10.5070  10.6289  10.6872  10.7485  10.8584  10.9779
    11.0383  11.1790  11.2614  11.3796  11.4225  11.5689  11.6380  11.7248
    11.8310  11.8850  11.9704  12.0449  12.0954  12.1603  12.2305  12.2671
    12.3841  12.4659  12.5144  12.6346  12.7588  12.7885  12.8571  12.9047
    12.9797  13.0150  13.1478  13.2638  13.3179  13.3915  13.4418  13.4918
    13.5872  13.7131  13.8364  13.8741  13.9394  13.9965  14.0700  14.1902
    14.2842  14.3413  14.4614  14.5125  14.6073  14.6986  14.7649  14.8447
    14.9249  15.0010  15.0874  15.1882  15.2479  15.2987  15.3636  15.4151
    15.5055  15.5320  15.6102  15.6777  15.7090  15.8221  15.8682  15.9222
    15.9561  16.0420  16.1099  16.1187  16.1944  16.2439  16.2659  16.3062
    16.3969  16.4686  16.5694  16.6244  16.7035  16.7627  16.7962  16.9213
    16.9540  17.0086  17.0698  17.1725  17.2688  17.3364  17.3968  17.4580
    17.5134  17.5625  17.6137  17.7052  17.7700  17.8137  17.8606  17.9032
    17.9788  18.0481  18.0670  18.1351  18.2090  18.2914  18.3288  18.4068
    18.4489  18.5154  18.6209  18.7265  18.7844  18.8646  18.8854  18.9742
    19.0453  19.1273  19.2167  19.2661  19.3147  19.4054  19.5077  19.6141
    19.6678  19.7358  19.8134  19.8771  19.9136  19.9779  20.0478  20.1766
    20.2482  20.3075  20.3877  20.5021  20.5729  20.6158  20.6694  20.7496
    20.8891  20.9388  20.9678  21.0589  21.0814  21.1397  21.2104  21.2710
    21.3082  21.3616  21.4385  21.5065  21.5426  21.5775  21.6070  21.6958
    21.7733  21.8422  21.9229  21.9361  21.9611  22.0676  22.1173  22.1653
    22.2259  22.3339  22.3802  22.4405  22.4726  22.5328  22.6500

     the Fermi energy is    -0.6659 ev

!    total energy              =   -2194.35832721 Ry
     Harris-Foulkes estimate   =   -2194.35832722 Ry
     estimated scf accuracy    <          4.6E-09 Ry

     The total energy is the sum of the following terms:

     one-electron contribution =  -25670.79245197 Ry
     hartree contribution      =   12866.88466652 Ry
     xc contribution           =    -345.71200632 Ry
     ewald contribution        =   10952.95753514 Ry
     Hubbard energy            =       2.30491078 Ry
     smearing contrib. (-TS)   =      -0.00098137 Ry

     convergence has been achieved in  24 iterations

     Forces acting on atoms (Ry/au):

     negative rho (up, down):  0.572E+00 0.000E+00
     atom    1 type  1   force =    -0.00371768   -0.00720629   -0.00042706
     atom    2 type  1   force =    -0.00057657    0.00382095   -0.00034040
     atom    3 type  2   force =     0.03707813    0.00312377   -0.00006000
     atom    4 type  2   force =     0.00246381    0.00430252    0.00010932
     atom    5 type  1   force =     0.00026683   -0.03604540    0.00084567
     atom    6 type  1   force =     0.00368553    0.03708275    0.00073326
     atom    7 type  1   force =     0.00042179   -0.00640143    0.00008129
     atom    8 type  1   force =    -0.00167033    0.00093709   -0.00072483
     atom    9 type  2   force =    -0.01239813    0.00029848    0.00008303
     atom   10 type  2   force =    -0.00022754    0.00223427   -0.00053465
     atom   11 type  1   force =    -0.01019750    0.02238704   -0.00007041
     atom   12 type  1   force =    -0.00379528   -0.01912210    0.00030591
     atom   13 type  1   force =    -0.00450993   -0.00205939   -0.00006969
     atom   14 type  1   force =    -0.00506207   -0.00878812   -0.00058614
     atom   15 type  1   force =    -0.00024623    0.00280665   -0.00069991
     atom   16 type  2   force =    -0.03817641    0.00352236   -0.00014192
     atom   17 type  2   force =     0.00250065    0.00481244   -0.00015621
     atom   18 type  1   force =    -0.00031443   -0.03627482    0.00078082
     atom   19 type  1   force =     0.00227793    0.03760687    0.00073479
     atom   20 type  1   force =     0.00054509   -0.00470316   -0.00002390
     atom   21 type  1   force =     0.00190475    0.00086009   -0.00081045
     atom   22 type  2   force =     0.01641172   -0.00184797    0.00061407
     atom   23 type  2   force =     0.00054953    0.00027273    0.00078966
     atom   24 type  1   force =     0.01046044    0.02226150    0.00021277
     atom   25 type  1   force =     0.00276111   -0.01772899    0.00037179
     atom   26 type  1   force =    -0.00035284   -0.00678548   -0.00006886
     atom   27 type  3   force =     0.00000980   -0.00042873   -0.00017933
     atom   28 type  3   force =     0.00004618    0.00058413   -0.00001553
     atom   29 type  3   force =    -0.00001620   -0.00005071   -0.00076507
     atom   30 type  3   force =     0.00019141    0.00008723   -0.00034953
     atom   31 type  1   force =     0.00040561   -0.00011378   -0.00054898
     atom   32 type  1   force =    -0.00081177    0.00028115    0.00053615
     atom   33 type  3   force =     0.00009259    0.00027431    0.00037432

     Total force =     0.003068     Total SCF correction =     0.000390
     SCF correction compared to forces is large: reduce conv_thr to get better values

     entering subroutine stress ...

     negative rho (up, down):  0.572E+00 0.000E+00
          total   stress  (Ry/bohr**3)                   (kbar)     P=   -6.44
  -0.00004189   0.00000503   0.00000192         -6.16      0.74      0.28
   0.00000503  -0.00005340   0.00000048          0.74     -7.86      0.07
   0.00000192   0.00000048  -0.00003612          0.28      0.07     -5.31

     bfgs converged in  17 scf cycles and  16 bfgs steps
     (criteria: energy < 0.10E-03, force < 0.10E-02)

     End of BFGS Geometry Optimization

     Final energy   =   -2194.3583272137 Ry
Begin final coordinates

ATOMIC_POSITIONS (crystal)
O0       0.000000000   0.000000000   0.379623149    0   0   1
O0       0.000000000   0.500000000   0.404937625    0   0   1
Ru1      0.250000000   0.500000000   0.454235749    0   0   1
Ru1      0.000000000   0.000000000   0.453069892    0   0   1
O0       0.250000000   0.810000000   0.452951364    0   0   1
O0       0.250000000   0.190000000   0.452866349    0   0   1
O0       0.000000000   0.500000000   0.500033715    0   0   1
O0       0.000000000   0.000000000   0.525654201    0   0   1
Ru1      0.250000000   0.000000000   0.576132307    0   0   1
Ru1      0.000000000   0.500000000   0.569489261    0   0   1
O0       0.250000000   0.690000000   0.574488479    0   0   1
O0       0.250000000   0.310000000   0.576642115    0   0   1
O0       0.000000000   0.000000000   0.618032651    0   0   1
O0       0.500000000   0.000000000   0.379436419    0   0   1
O0       0.500000000   0.500000000   0.403542421    0   0   1
Ru1      0.750000000   0.500000000   0.454238368    0   0   1
Ru1      0.500000000   0.000000000   0.452954766    0   0   1
O0       0.750000000   0.810000000   0.452927885    0   0   1
O0       0.750000000   0.190000000   0.452888916    0   0   1
O0       0.500000000   0.500000000   0.501152936    0   0   1
O0       0.500000000   0.000000000   0.525660595    0   0   1
Ru1      0.750000000   0.000000000   0.576627151    0   0   1
Ru1      0.500000000   0.500000000   0.577367070    0   0   1
O0       0.750000000   0.690000000   0.574713428    0   0   1
O0       0.750000000   0.310000000   0.576701524    0   0   1
O0       0.500000000   0.000000000   0.615953939    0   0   1
H2      -0.000776153   0.610895542   0.379129966
H2       0.499428504   0.626148841   0.382143208
H2       0.147381380   0.025804131   0.367423289
H2       0.646717669   0.027415914   0.367067165
O0       0.501186709   0.528833270   0.649373615
O0       0.498546665   0.337476774   0.678337833
H2       0.499897891   0.397071962   0.712822647
End final coordinates

     General routines

     Parallel routines
     Hubbard U routines

   This run was terminated on:   4:52:30   1Jun2014

   JOB DONE.
Running PBS batch system epilogue script
Job id: 373299.audhumbla.fysik.dtu.dk
Username: zhonxu
Groupname: campgst
Jobname: RuO2/Eads-2-layers/OOH-U-4.5
Sessionid: 6509
Queuename: verylong
Accounting:
This job has allocated the following 16 nodes:
d065 d065 d065 d065 d065 d065 d065 d065 d061 d061 d061 d061 d061 d061 d061 d061
Finished epilogue job 373299.audhumbla.fysik.dtu.dk for zhonxu