     Program PWSCF v.5.0.2 (svn rev. 9656) starts on  6May2014 at  3: 9:29

     Current dimensions of program PWSCF are:
     Max number of different atomic species (ntypx) = 10
     Max number of k-points (npk) =  40000
     Max angular momentum in pseudopotentials (lmaxx) =  3
     Reading input from pwscf.in
Warning: card &CELL ignored
Warning: card / ignored

     Subspace diagonalization in iterative solution of the eigenvalue problem:
     a serial algorithm will be used

     bravais-lattice index     =            0
     lattice parameter (alat)  =      12.0187  a.u.
     unit-cell volume          =    7280.5819 (a.u.)^3
     number of atoms/cell      =           30
     number of atomic types    =            3
     number of electrons       =       232.00
     number of Kohn-Sham states=          348
     kinetic-energy cutoff     =      40.0000  Ry
     charge density cutoff     =     500.0000  Ry
     convergence threshold     =      1.0E-06
     mixing beta               =       0.7000
     number of iterations used =            8  plain     mixing
     Exchange-correlation      = SLA  PW   PBE  PBE ( 1 4 3 4 0)
     EXX-fraction              =        0.00
     nstep                     =           50

     celldm(1)=  12.018658  celldm(2)=   0.000000  celldm(3)=   0.000000
     celldm(4)=   0.000000  celldm(5)=   0.000000  celldm(6)=   0.000000

     crystal axes: (cart. coord. in units of alat)
               a(1) = (   1.000000   0.000000   0.000000 )
               a(2) = (   0.000000   1.009517   0.000000 )
               a(3) = (   0.000000   0.000000   4.154171 )

     reciprocal axes: (cart. coord. in units 2 pi/alat)
               b(1) = (  1.000000  0.000000  0.000000 )
               b(2) = (  0.000000  0.990572  0.000000 )
               b(3) = (  0.000000  0.000000  0.240722 )

     PseudoPot. # 1 for O  read from file:
     /home/camp/zhonxu/pseudo/o_pbe_v1.01.uspp.F.UPF
     MD5 check sum: 2bcb18d16ea4b960afae9ec6d52f22d2
     Pseudo is Ultrasoft + core correction, Zval =  6.0
     Generated by new atomic code, or converted to UPF format
     Using radial grid of  737 points,  5 beta functions with:
                l(1) =   0
                l(2) =   0
                l(3) =   1
                l(4) =   1
                l(5) =   2
     Q(r) pseudized with  8 coefficients,  rinner =    0.900   0.900   0.900
                                                       0.900   0.900

     PseudoPot. # 2 for Ir read from file:
     /home/camp/zhonxu/pseudo/ir_pbe_v1.uspp.F.UPF
     MD5 check sum: abf987a9674477536ede83817f8f8b70
     Pseudo is Ultrasoft + core correction, Zval = 15.0
     Generated by new atomic code, or converted to UPF format
     Using radial grid of  983 points,  7 beta functions with:
                l(1) =   0
                l(2) =   0
                l(3) =   1
                l(4) =   1
                l(5) =   1
                l(6) =   2
                l(7) =   2
     Q(r) pseudized with  8 coefficients,  rinner =    1.350   1.350   1.350
                                                       1.350   1.350

     PseudoPot. # 3 for H  read from file:
     /home/camp/zhonxu/pseudo/h_pbe_v1.uspp.F.UPF
     MD5 check sum: 3408e3ff4ec8b0a4e358431e7e038a48
     Pseudo is Ultrasoft, Zval =  1.0
     Generated by new atomic code, or converted to UPF format
     Using radial grid of  615 points,  2 beta functions with:
                l(1) =   0
                l(2) =   0
     Q(r) pseudized with  8 coefficients,  rinner =    0.700

     atomic species   valence    mass     pseudopotential
        O0             6.00    15.99940     O ( 1.00)
        Ir1           15.00   192.22000     Ir( 1.00)
        H2             1.00     1.00794     H ( 1.00)

     Simplified LDA+U calculation (l_max = 2) with parameters (eV):
     atomic species    L          U    alpha       J0     beta
        Ir1            2     6.0000   0.0000   0.0000   0.0000

     No symmetry found

   Cartesian axes

     site n.     atom                  positions (alat units)
         1           O0  tau(   1) = (   0.0000000   0.0000000   1.5730185  )
         2           O0  tau(   2) = (   0.0000000   0.5047586   1.6673182  )
         3           Ir1 tau(   3) = (   0.2500000   0.5047586   1.8780178  )
         4           Ir1 tau(   4) = (   0.0000000   0.0000000   1.8842906  )
         5           O0  tau(   5) = (   0.2500000   0.8177090   1.8825458  )
         6           O0  tau(   6) = (   0.2500000   0.1918083   1.8810503  )
         7           O0  tau(   7) = (   0.0000000   0.5047586   2.0695666  )
         8           O0  tau(   8) = (   0.0000000   0.0000000   2.1991352  )
         9           Ir1 tau(   9) = (   0.2500000   0.0000000   2.3955860  )
        10           Ir1 tau(  10) = (   0.0000000   0.5047586   2.3764768  )
        11           O0  tau(  11) = (   0.2500000   0.6965669   2.3975800  )
        12           O0  tau(  12) = (   0.2500000   0.3129503   2.3977461  )
        13           O0  tau(  13) = (   0.0000000   0.0000000   2.5806958  )
        14           O0  tau(  14) = (   0.5000000   0.0000000   1.5730185  )
        15           O0  tau(  15) = (   0.5000000   0.5047586   1.6673182  )
        16           Ir1 tau(  16) = (   0.7500000   0.5047586   1.8780178  )
        17           Ir1 tau(  17) = (   0.5000000   0.0000000   1.8842906  )
        18           O0  tau(  18) = (   0.7500000   0.8177090   1.8825458  )
        19           O0  tau(  19) = (   0.7500000   0.1918083   1.8810503  )
        20           O0  tau(  20) = (   0.5000000   0.5047586   2.0695666  )
        21           O0  tau(  21) = (   0.5000000   0.0000000   2.1991352  )
        22           Ir1 tau(  22) = (   0.7500000   0.0000000   2.3955860  )
        23           Ir1 tau(  23) = (   0.5000000   0.5047586   2.3764768  )
        24           O0  tau(  24) = (   0.7500000   0.6965669   2.3975800  )
        25           O0  tau(  25) = (   0.7500000   0.3129503   2.3977461  )
        26           O0  tau(  26) = (   0.5000000   0.0000000   2.5807374  )
        27           H2  tau(  27) = (  -0.0000500   0.6423962   1.5933324  )
        28           H2  tau(  28) = (   0.4999500   0.6423962   1.5933324  )
        29           H2  tau(  29) = (   0.1436500   0.0338188   1.5249132  )
        30           H2  tau(  30) = (   0.6436500   0.0338188   1.5249132  )

     number of k points=    10  Methfessel-Paxton smearing, width (Ry)=  0.0100
                       cart. coord. in units 2pi/alat
        k(    1) = (   0.0000000   0.0000000   0.0000000), wk =   0.1250000
        k(    2) = (   0.0000000   0.2476431   0.0000000), wk =   0.2500000
        k(    3) = (   0.0000000  -0.4952862   0.0000000), wk =   0.1250000
        k(    4) = (   0.2500000   0.0000000   0.0000000), wk =   0.2500000
        k(    5) = (   0.2500000   0.2476431   0.0000000), wk =   0.2500000
        k(    6) = (   0.2500000  -0.4952862   0.0000000), wk =   0.2500000
        k(    7) = (  -0.5000000   0.0000000   0.0000000), wk =   0.1250000
        k(    8) = (  -0.5000000   0.2476431   0.0000000), wk =   0.2500000
        k(    9) = (  -0.5000000  -0.4952862   0.0000000), wk =   0.1250000
        k(   10) = (  -0.2500000   0.2476431   0.0000000), wk =   0.2500000

     Largest allocated arrays     est. size (Mb)     dimensions
     Largest temporary arrays     est. size (Mb)     dimensions

     Check: negative/imaginary core charge=   -0.000003    0.000000

     Initial potential from superposition of free atoms
     Check: negative starting charge=   -3.334716

     starting charge  227.99968, renormalised to  232.00000

     negative rho (up, down):  0.339E+01 0.000E+00
     Number of +U iterations with fixed ns =  0
     Starting occupations:
 --- enter write_ns ---
 LDA+U parameters:
U( 2)     =  6.00000000
alpha( 2) =  0.00000000
atom    3   Tr[ns(na)] =   7.00000
    eigenvalues:
  0.700  0.700  0.700  0.700  0.700
    eigenvectors:
  1.000  0.000  0.000  0.000  0.000
  0.000  1.000  0.000  0.000  0.000
  0.000  0.000  1.000  0.000  0.000
  0.000  0.000  0.000  1.000  0.000
  0.000  0.000  0.000  0.000  1.000
    occupations:
  0.700  0.000  0.000  0.000  0.000
  0.000  0.700  0.000  0.000  0.000
  0.000  0.000  0.700  0.000  0.000
  0.000  0.000  0.000  0.700  0.000
  0.000  0.000  0.000  0.000  0.700
atom    4   Tr[ns(na)] =   7.00000
    eigenvalues:
  0.700  0.700  0.700  0.700  0.700
    eigenvectors:
  1.000  0.000  0.000  0.000  0.000
  0.000  1.000  0.000  0.000  0.000
  0.000  0.000  1.000  0.000  0.000
  0.000  0.000  0.000  1.000  0.000
  0.000  0.000  0.000  0.000  1.000
    occupations:
  0.700  0.000  0.000  0.000  0.000
  0.000  0.700  0.000  0.000  0.000
  0.000  0.000  0.700  0.000  0.000
  0.000  0.000  0.000  0.700  0.000
  0.000  0.000  0.000  0.000  0.700
atom    9   Tr[ns(na)] =   7.00000
    eigenvalues:
  0.700  0.700  0.700  0.700  0.700
    eigenvectors:
  1.000  0.000  0.000  0.000  0.000
  0.000  1.000  0.000  0.000  0.000
  0.000  0.000  1.000  0.000  0.000
  0.000  0.000  0.000  1.000  0.000
  0.000  0.000  0.000  0.000  1.000
    occupations:
  0.700  0.000  0.000  0.000  0.000
  0.000  0.700  0.000  0.000  0.000
  0.000  0.000  0.700  0.000  0.000
  0.000  0.000  0.000  0.700  0.000
  0.000  0.000  0.000  0.000  0.700
atom   10   Tr[ns(na)] =   7.00000
    eigenvalues:
  0.700  0.700  0.700  0.700  0.700
    eigenvectors:
  1.000  0.000  0.000  0.000  0.000
  0.000  1.000  0.000  0.000  0.000
  0.000  0.000  1.000  0.000  0.000
  0.000  0.000  0.000  1.000  0.000
  0.000  0.000  0.000  0.000  1.000
    occupations:
  0.700  0.000  0.000  0.000  0.000
  0.000  0.700  0.000  0.000  0.000
  0.000  0.000  0.700  0.000  0.000
  0.000  0.000  0.000  0.700  0.000
  0.000  0.000  0.000  0.000  0.700
atom   16   Tr[ns(na)] =   7.00000
    eigenvalues:
  0.700  0.700  0.700  0.700  0.700
    eigenvectors:
  1.000  0.000  0.000  0.000  0.000
  0.000  1.000  0.000  0.000  0.000
  0.000  0.000  1.000  0.000  0.000
  0.000  0.000  0.000  1.000  0.000
  0.000  0.000  0.000  0.000  1.000
    occupations:
  0.700  0.000  0.000  0.000  0.000
  0.000  0.700  0.000  0.000  0.000
  0.000  0.000  0.700  0.000  0.000
  0.000  0.000  0.000  0.700  0.000
  0.000  0.000  0.000  0.000  0.700
atom   17   Tr[ns(na)] =   7.00000
    eigenvalues:
  0.700  0.700  0.700  0.700  0.700
    eigenvectors:
  1.000  0.000  0.000  0.000  0.000
  0.000  1.000  0.000  0.000  0.000
  0.000  0.000  1.000  0.000  0.000
  0.000  0.000  0.000  1.000  0.000
  0.000  0.000  0.000  0.000  1.000
    occupations:
  0.700  0.000  0.000  0.000  0.000
  0.000  0.700  0.000  0.000  0.000
  0.000  0.000  0.700  0.000  0.000
  0.000  0.000  0.000  0.700  0.000
  0.000  0.000  0.000  0.000  0.700
atom   22   Tr[ns(na)] =   7.00000
    eigenvalues:
  0.700  0.700  0.700  0.700  0.700
    eigenvectors:
  1.000  0.000  0.000  0.000  0.000
  0.000  1.000  0.000  0.000  0.000
  0.000  0.000  1.000  0.000  0.000
  0.000  0.000  0.000  1.000  0.000
  0.000  0.000  0.000  0.000  1.000
    occupations:
  0.700  0.000  0.000  0.000  0.000
  0.000  0.700  0.000  0.000  0.000
  0.000  0.000  0.700  0.000  0.000
[...]
 -0.000 -0.005  0.001 -0.000  0.976
atom    4   Tr[ns(na)] =   8.20171
    eigenvalues:
  0.620  0.671  0.887  0.936  0.986
    eigenvectors:
  0.000  0.989  0.000  0.000  0.011
  0.000  0.000  0.068  0.932  0.000
  0.000  0.000  0.932  0.068  0.000
  0.000  0.011  0.000  0.000  0.989
  0.999  0.000  0.000  0.000  0.000
    occupations:
  0.675 -0.003 -0.001  0.033  0.001
 -0.003  0.933  0.012  0.000 -0.002
 -0.001  0.012  0.890 -0.000  0.001
  0.033  0.000 -0.000  0.983  0.000
  0.001 -0.002  0.001  0.000  0.620
atom    9   Tr[ns(na)] =   8.19161
    eigenvalues:
  0.653  0.669  0.875  0.913  0.985
    eigenvectors:
  0.000  0.142  0.000  0.000  0.858
  1.000  0.000  0.000  0.000  0.000
  0.000  0.000  1.000  0.000  0.000
  0.000  0.858  0.000  0.000  0.142
  0.000  0.000  0.000  1.000  0.000
    occupations:
  0.941  0.000 -0.000 -0.110 -0.000
  0.000  0.653  0.000  0.000 -0.000
 -0.000  0.000  0.875 -0.000 -0.000
 -0.110  0.000 -0.000  0.714  0.001
 -0.000 -0.000 -0.000  0.001  0.913
atom   10   Tr[ns(na)] =   8.15105
    eigenvalues:
  0.576  0.612  0.945  0.958  0.985
    eigenvectors:
  0.993  0.000  0.000  0.000  0.007
  0.000  0.000  1.000  0.000  0.000
  0.000  0.000  0.000  1.000  0.000
  0.007  0.000  0.000  0.000  0.993
  0.000  1.000  0.000  0.000  0.000
    occupations:
  0.578  0.000  0.001  0.034 -0.000
  0.000  0.945 -0.000  0.000 -0.000
  0.001 -0.000  0.958 -0.000  0.000
  0.034  0.000 -0.000  0.982  0.000
 -0.000 -0.000  0.000  0.000  0.612
atom   16   Tr[ns(na)] =   8.20938
    eigenvalues:
  0.602  0.629  0.918  0.976  0.980
    eigenvectors:
  0.000  0.190  0.003  0.001  0.807
  1.000  0.000  0.000  0.000  0.000
  0.000  0.000  0.996  0.000  0.003
  0.000  0.810  0.000  0.000  0.189
  0.000  0.000  0.000  0.999  0.001
    occupations:
  0.913 -0.000  0.002 -0.138 -0.000
 -0.000  0.602 -0.000 -0.000 -0.005
  0.002 -0.000  0.918 -0.004  0.001
 -0.138 -0.000 -0.004  0.696 -0.000
 -0.000 -0.005  0.001 -0.000  0.976
atom   17   Tr[ns(na)] =   8.20178
    eigenvalues:
  0.620  0.671  0.887  0.936  0.986
    eigenvectors:
  0.000  0.989  0.000  0.000  0.011
  0.000  0.000  0.068  0.932  0.000
  0.000  0.000  0.932  0.068  0.000
  0.000  0.011  0.000  0.000  0.989
  0.999  0.000  0.000  0.000  0.000
    occupations:
  0.675 -0.003 -0.001  0.033  0.001
 -0.003  0.933  0.012  0.000 -0.002
 -0.001  0.012  0.890 -0.000  0.001
  0.033  0.000 -0.000  0.983  0.000
  0.001 -0.002  0.001  0.000  0.620
atom   22   Tr[ns(na)] =   8.19129
    eigenvalues:
  0.653  0.669  0.875  0.913  0.985
    eigenvectors:
  0.000  0.142  0.000  0.000  0.858
  1.000  0.000  0.000  0.000  0.000
  0.000  0.000  1.000  0.000  0.000
  0.000  0.858  0.000  0.000  0.142
  0.000  0.000  0.000  1.000  0.000
    occupations:
  0.941  0.000 -0.000 -0.110 -0.000
  0.000  0.653  0.000  0.000 -0.000
 -0.000  0.000  0.875 -0.000 -0.000
 -0.110  0.000 -0.000  0.714  0.001
 -0.000 -0.000 -0.000  0.001  0.913
atom   23   Tr[ns(na)] =   8.15102
    eigenvalues:
  0.575  0.612  0.945  0.958  0.985
    eigenvectors:
  0.993  0.000  0.000  0.000  0.007
  0.000  0.000  1.000  0.000  0.000
  0.000  0.000  0.000  1.000  0.000
  0.007  0.000  0.000  0.000  0.993
  0.000  1.000  0.000  0.000  0.000
    occupations:
  0.578  0.000  0.001  0.034 -0.000
  0.000  0.945 -0.000  0.000 -0.000
  0.001 -0.000  0.958 -0.000  0.000
  0.034  0.000 -0.000  0.982  0.000
 -0.000 -0.000  0.000  0.000  0.612
N of occupied +U levels =  65.5069572
 --- exit write_ns ---

     Threshold (ethr) on eigenvalues was too large:
     Diagonalizing with lowered threshold

     Davidson diagonalization with overlap
     ethr =  1.22E-08,  avg # of iterations =  2.0

[...]

     total energy              =   -2071.71184589 Ry
     Harris-Foulkes estimate   =   -2071.71184590 Ry
     estimated scf accuracy    <       0.00000002 Ry

     iteration # 14     ecut=    40.00 Ry     beta=0.70
     Davidson diagonalization with overlap
     ethr =  7.57E-12,  avg # of iterations =  1.0

     negative rho (up, down):  0.314E+01 0.000E+00

     End of self-consistent calculation
 --- enter write_ns ---
 LDA+U parameters:
U( 2)     =  6.00000000
alpha( 2) =  0.00000000
atom    3   Tr[ns(na)] =   8.20865
    eigenvalues:
  0.602  0.629  0.918  0.976  0.980
    eigenvectors:
  0.000  0.190  0.003  0.001  0.807
  1.000  0.000  0.000  0.000  0.000
  0.000  0.000  0.996  0.000  0.003
  0.000  0.810  0.000  0.000  0.189
  0.000  0.000  0.000  0.999  0.001
    occupations:
  0.913 -0.000  0.002 -0.138 -0.000
 -0.000  0.602 -0.000 -0.000 -0.005
  0.002 -0.000  0.918 -0.004  0.001
 -0.138 -0.000 -0.004  0.696 -0.000
 -0.000 -0.005  0.001 -0.000  0.976
atom    4   Tr[ns(na)] =   8.20122
    eigenvalues:
  0.620  0.671  0.887  0.936  0.986
    eigenvectors:
  0.000  0.989  0.000  0.000  0.011
  0.000  0.000  0.067  0.932  0.000
  0.000  0.000  0.933  0.067  0.000
  0.000  0.011  0.000  0.000  0.989
  0.999  0.000  0.000  0.000  0.000
    occupations:
  0.675 -0.003 -0.001  0.033  0.001
 -0.003  0.933  0.012  0.000 -0.002
 -0.001  0.012  0.890 -0.000  0.001
  0.033  0.000 -0.000  0.983  0.000
  0.001 -0.002  0.001  0.000  0.620
atom    9   Tr[ns(na)] =   8.19191
    eigenvalues:
  0.653  0.669  0.875  0.913  0.985
    eigenvectors:
  0.000  0.142  0.000  0.000  0.858
  1.000  0.000  0.000  0.000  0.000
  0.000  0.000  1.000  0.000  0.000
  0.000  0.858  0.000  0.000  0.142
  0.000  0.000  0.000  1.000  0.000
    occupations:
  0.941  0.000 -0.000 -0.110 -0.000
  0.000  0.653  0.000  0.000 -0.000
 -0.000  0.000  0.875 -0.000 -0.000
 -0.110  0.000 -0.000  0.714  0.001
 -0.000 -0.000 -0.000  0.001  0.913
atom   10   Tr[ns(na)] =   8.15185
    eigenvalues:
  0.576  0.612  0.945  0.958  0.985
    eigenvectors:
  0.993  0.000  0.000  0.000  0.007
  0.000  0.000  1.000  0.000  0.000
  0.000  0.000  0.000  1.000  0.000
  0.007  0.000  0.000  0.000  0.993
  0.000  1.000  0.000  0.000  0.000
    occupations:
  0.579  0.000  0.001  0.034 -0.000
  0.000  0.945 -0.000  0.000 -0.000
  0.001 -0.000  0.958 -0.000  0.000
  0.034  0.000 -0.000  0.982  0.000
 -0.000 -0.000  0.000  0.000  0.612
atom   16   Tr[ns(na)] =   8.20865
    eigenvalues:
  0.602  0.629  0.918  0.976  0.980
    eigenvectors:
  0.000  0.190  0.003  0.001  0.807
  1.000  0.000  0.000  0.000  0.000
  0.000  0.000  0.996  0.000  0.003
  0.000  0.810  0.000  0.000  0.189
  0.000  0.000  0.000  0.999  0.001
    occupations:
  0.913 -0.000  0.002 -0.138 -0.000
 -0.000  0.602 -0.000 -0.000 -0.005
  0.002 -0.000  0.918 -0.004  0.001
 -0.138 -0.000 -0.004  0.696 -0.000
 -0.000 -0.005  0.001 -0.000  0.976
atom   17   Tr[ns(na)] =   8.20122
    eigenvalues:
  0.620  0.671  0.887  0.936  0.986
    eigenvectors:
  0.000  0.989  0.000  0.000  0.011
  0.000  0.000  0.067  0.932  0.000
  0.000  0.000  0.933  0.067  0.000
  0.000  0.011  0.000  0.000  0.989
  0.999  0.000  0.000  0.000  0.000
    occupations:
  0.675 -0.003 -0.001  0.033  0.001
 -0.003  0.933  0.012  0.000 -0.002
 -0.001  0.012  0.890 -0.000  0.001
  0.033  0.000 -0.000  0.983  0.000
  0.001 -0.002  0.001  0.000  0.620
atom   22   Tr[ns(na)] =   8.19191
    eigenvalues:
  0.653  0.669  0.875  0.913  0.985
    eigenvectors:
  0.000  0.142  0.000  0.000  0.858
  1.000  0.000  0.000  0.000  0.000
  0.000  0.000  1.000  0.000  0.000
  0.000  0.858  0.000  0.000  0.142
  0.000  0.000  0.000  1.000  0.000
    occupations:
  0.941  0.000 -0.000 -0.110 -0.000
  0.000  0.653  0.000  0.000 -0.000
 -0.000  0.000  0.875 -0.000 -0.000
 -0.110  0.000 -0.000  0.714  0.001
 -0.000 -0.000 -0.000  0.001  0.913
atom   23   Tr[ns(na)] =   8.15185
    eigenvalues:
  0.576  0.612  0.945  0.958  0.985
    eigenvectors:
  0.993  0.000  0.000  0.000  0.007
  0.000  0.000  1.000  0.000  0.000
  0.000  0.000  0.000  1.000  0.000
  0.007  0.000  0.000  0.000  0.993
  0.000  1.000  0.000  0.000  0.000
    occupations:
  0.579  0.000  0.001  0.034 -0.000
  0.000  0.945 -0.000  0.000 -0.000
  0.001 -0.000  0.958 -0.000  0.000
  0.034  0.000 -0.000  0.982  0.000
 -0.000 -0.000  0.000  0.000  0.612
N of occupied +U levels =  65.5072606
 --- exit write_ns ---

[...]

          k = 0.2500-0.4953 0.0000 ( 31088 PWs)   bands (ev):

[...]

          k =-0.2500 0.2476 0.0000 ( 31099 PWs)   bands (ev):

   -50.3682 -50.3564 -50.3521 -50.2975 -50.2803 -50.2792 -50.2658 -50.2548
   -50.2349 -50.2297 -50.1910 -50.1800 -50.1333 -50.1248 -50.0169 -49.9750
   -49.9706 -49.9457 -49.9084 -49.8975 -49.8929 -49.8832 -49.8639 -49.8532
   -21.4203 -21.1263 -21.1013 -21.0390 -20.6928 -20.6480 -20.6106 -20.4481
   -20.3693 -20.3532 -20.1759 -20.1395 -19.9729 -19.9365 -19.8706 -19.7048
   -18.9272 -18.7889 -10.6672 -10.4893 -10.2833 -10.1926  -9.8409  -9.7219
    -9.6377  -9.5475  -9.2902  -8.9617  -8.9432  -8.8409  -8.7357  -8.6096
    -8.5227  -8.3721  -8.1901  -8.1355  -7.8869  -7.6956  -7.5715  -7.5148
    -7.3234  -7.3137  -7.1984  -7.0999  -7.0667  -6.7532  -6.6735  -6.6074
    -6.4654  -6.4260  -6.3121  -6.1974  -6.1588  -6.1243  -6.0255  -5.9057
    -5.7649  -5.6754  -5.5288  -5.3492  -5.1040  -4.9426  -4.8830  -4.7900
    -4.6494  -4.4667  -4.4339  -4.3233  -3.9390  -3.9217  -3.8427  -3.6790
    -3.6142  -3.5748  -3.4495  -3.3965  -3.3153  -3.2913  -3.0935  -3.0322
    -3.0219  -2.9342  -2.7711  -2.6992  -2.5615  -2.4898  -2.2003  -1.9233
    -1.6942  -1.4888  -1.4827  -1.2522  -1.2283  -0.9737  -0.8052  -0.6184
    -0.0760   0.1068   1.0595   1.1425   1.6618   1.7801   1.8404   2.2819
     2.4992   2.7540   2.9545   2.9687   3.2399   3.2651   3.4075   3.4717
     3.8071   4.3506   4.7230   5.1385   5.4104   5.6032   5.6835   5.8894
     6.1331   6.2898   6.5166   6.5593   6.6066   6.7996   7.0120   7.0554
     7.3306   7.3906   7.4884   7.6817   7.6973   7.8842   8.0220   8.0943
     8.1651   8.3340   8.4514   8.4757   8.5928   8.8132   8.8201   8.9256
     8.9361   9.1785   9.2497   9.2571   9.3532   9.5439   9.6299   9.6354
     9.6447   9.7039   9.7071   9.7127   9.7210   9.7224   9.8039   9.8803
     9.8835  10.0230  10.0638  10.0860  10.2008  10.2898  10.2941  10.4168
    10.4267  10.5378  10.6134  10.7316  10.7953  10.8333  10.9850  11.0325
    11.0653  11.2688  11.3472  11.4339  11.5406  11.5758  11.7238  11.7554
    11.7809  11.9458  12.1009  12.1237  12.1592  12.2824  12.3863  12.3999
    12.5053  12.5782  12.6438  12.7350  12.7821  12.8059  12.8163  12.9183
    13.0877  13.1629  13.1664  13.2593  13.3406  13.3587  13.5223  13.6587
    13.6630  13.7515  13.8746  13.8844  14.0111  14.0192  14.1105  14.1352
    14.2726  14.3669  14.4108  14.5453  14.5790  14.7565  14.7763  14.8931
    14.9158  15.2118  15.2597  15.3669  15.3760  15.5285  15.5805  15.5862
    15.6193  15.7427  15.7877  15.8289  15.8586  15.8898  15.9665  16.0313
    16.0828  16.1510  16.1698  16.2882  16.3317  16.4048  16.4292  16.4530
    16.6272  16.6532  16.7206  16.7401  16.8183  16.8399  17.0771  17.1278
    17.2100  17.3603  17.3709  17.4326  17.4327  17.4752  17.5531  17.5722
    17.6340  17.7332  17.7582  17.8215  17.8897  17.8901  17.9737  17.9906
    18.1688  18.2301  18.3042  18.3928  18.4773  18.5004  18.6020  18.6185
    18.8244  18.8351  18.9122  18.9654  19.0302  19.1321  19.1392  19.2242
    19.2872  19.2888  19.3530  19.4867  19.6052  19.6099  19.7258  19.7784
    19.8242  19.9489  20.0141  20.1297  20.1438  20.3123  20.3384  20.3633
    20.4888  20.5647  20.6214  20.6694  20.7163  20.7812  20.8150  20.9024
    20.9166  20.9934  21.0484  21.1285  21.1717  21.2638  21.3084  21.3433
    21.3596  21.4458  21.4731  21.5672

     the Fermi energy is    -1.2589 ev

!    total energy              =   -2071.71184589 Ry
     Harris-Foulkes estimate   =   -2071.71184590 Ry
     estimated scf accuracy    <          1.3E-09 Ry

     The total energy is the sum of the following terms:

     one-electron contribution =  -22080.64794119 Ry
     hartree contribution      =   11083.86134935 Ry
     xc contribution           =    -569.43417735 Ry
     ewald contribution        =    9492.33972062 Ry
     Hubbard energy            =       2.17074086 Ry
     smearing contrib. (-TS)   =      -0.00153818 Ry

     convergence has been achieved in  14 iterations

     Forces acting on atoms (Ry/au):

     negative rho (up, down):  0.314E+01 0.000E+00
     atom    1 type  1   force =    -0.00719248   -0.01259118   -0.00003996
     atom    2 type  1   force =     0.00005684    0.00282681   -0.00050954
     atom    3 type  2   force =     0.00015140    0.00626947   -0.00006953
     atom    4 type  2   force =     0.00877043    0.00736972   -0.00018215
     atom    5 type  1   force =    -0.00500998   -0.01420169   -0.00045133
     atom    6 type  1   force =     0.00656219    0.01263911   -0.00031608
     atom    7 type  1   force =    -0.00046039   -0.00237629    0.00038481
     atom    8 type  1   force =    -0.00326066   -0.00047394   -0.00016683
     atom    9 type  2   force =     0.00112966    0.00016731   -0.00013725
     atom   10 type  2   force =    -0.00000142   -0.00108067    0.00043542
     atom   11 type  1   force =    -0.00009044    0.02140478    0.00019463
     atom   12 type  1   force =     0.00020655   -0.02112048    0.00019951
     atom   13 type  1   force =    -0.00077127   -0.00008523   -0.00014982
     atom   14 type  1   force =    -0.00719495   -0.01259137   -0.00004712
     atom   15 type  1   force =     0.00005670    0.00282574   -0.00051065
     atom   16 type  2   force =     0.00015285    0.00626926   -0.00006965
     atom   17 type  2   force =     0.00876939    0.00736972   -0.00018001
     atom   18 type  1   force =    -0.00501113   -0.01420160   -0.00045214
     atom   19 type  1   force =     0.00656116    0.01263927   -0.00031711
     atom   20 type  1   force =    -0.00046153   -0.00237629    0.00038713
     atom   21 type  1   force =    -0.00326158   -0.00047390   -0.00014728
     atom   22 type  2   force =     0.00112626    0.00016779   -0.00013460
     atom   23 type  2   force =    -0.00000151   -0.00108068    0.00043634
     atom   24 type  1   force =    -0.00009072    0.02140552    0.00019563
     atom   25 type  1   force =     0.00020630   -0.02112124    0.00020041
     atom   26 type  1   force =    -0.00076921   -0.00008524   -0.00015152
     atom   27 type  3   force =     0.00002171    0.00079863    0.00081082
     atom   28 type  3   force =     0.00002157    0.00079943    0.00081013
     atom   29 type  3   force =    -0.00010957    0.00045331   -0.00001079
     atom   30 type  3   force =    -0.00010618    0.00045394   -0.00001149

     Total force =     0.002280     Total SCF correction =     0.000062

     bfgs converged in   9 scf cycles and   8 bfgs steps
     (criteria: energy < 0.10E-03, force < 0.10E-02)

     End of BFGS Geometry Optimization

     Final energy   =   -2071.7118458939 Ry
Begin final coordinates

ATOMIC_POSITIONS (crystal)
O0       0.000000000   0.000000000   0.379074284    0   0   1
O0       0.000000000   0.500000000   0.402371927    0   0   1
Ir1      0.250000000   0.500000000   0.452688591    0   0   1
Ir1      0.000000000   0.000000000   0.453577270    0   0   1
O0       0.250000000   0.810000000   0.453518985    0   0   1
O0       0.250000000   0.190000000   0.452977847    0   0   1
O0       0.000000000   0.500000000   0.499096599    0   0   1
O0       0.000000000   0.000000000   0.528975011    0   0   1
Ir1      0.250000000   0.000000000   0.575760816    0   0   1
Ir1      0.000000000   0.500000000   0.572084076    0   0   1
O0       0.250000000   0.690000000   0.575858243    0   0   1
O0       0.250000000   0.310000000   0.575865292    0   0   1
O0       0.000000000   0.000000000   0.620421831    0   0   1
O0       0.500000000   0.000000000   0.379074618    0   0   1
O0       0.500000000   0.500000000   0.402372019    0   0   1
Ir1      0.750000000   0.500000000   0.452688635    0   0   1
Ir1      0.500000000   0.000000000   0.453577116    0   0   1
O0       0.750000000   0.810000000   0.453519144    0   0   1
O0       0.750000000   0.190000000   0.452978010    0   0   1
O0       0.500000000   0.500000000   0.499096454    0   0   1
O0       0.500000000   0.000000000   0.528974118    0   0   1
Ir1      0.750000000   0.000000000   0.575760706    0   0   1
Ir1      0.500000000   0.500000000   0.572083950    0   0   1
O0       0.750000000   0.690000000   0.575858012    0   0   1
O0       0.750000000   0.310000000   0.575865080    0   0   1
O0       0.500000000   0.000000000   0.620421664    0   0   1
H2      -0.000241567   0.635412363   0.384396270
H2       0.499758552   0.635412122   0.384396324
H2       0.143427386   0.034712482   0.367518575
H2       0.643426566   0.034712599   0.367518531
End final coordinates

     General routines

     Parallel routines
     Hubbard U routines

   This run was terminated on:  11:43:23   6May2014

   JOB DONE.