     Program PWSCF v.5.0.2 (svn rev. 9656) starts on 31Jan2014 at 16:41:13

     Current dimensions of program PWSCF are:
     Max number of different atomic species (ntypx) = 10
     Max number of k-points (npk) =  40000
     Max angular momentum in pseudopotentials (lmaxx) =  3
     Waiting for input...
     Reading input from standard input

     Subspace diagonalization in iterative solution of the eigenvalue problem:
     a serial algorithm will be used

     bravais-lattice index     =            0
     lattice parameter (alat)  =       8.7676  a.u.
     unit-cell volume          =     434.3363 (a.u.)^3
     number of atoms/cell      =            6
     number of atomic types    =            2
     number of electrons       =        54.00
     number of Kohn-Sham states=           81
     kinetic-energy cutoff     =      40.0000  Ry
     charge density cutoff     =     500.0000  Ry
     convergence threshold     =      1.0E-06
     mixing beta               =       0.3000
     number of iterations used =            8  plain     mixing
     Exchange-correlation      = SLA  PW   PBE  PBE ( 1 4 3 4 0)
     EXX-fraction              =        0.00
     nstep                     =           50

     celldm(1)=   8.767590  celldm(2)=   0.000000  celldm(3)=   0.000000
     celldm(4)=   0.000000  celldm(5)=   0.000000  celldm(6)=   0.000000

     crystal axes: (cart. coord. in units of alat)
               a(1) = (   1.000000   0.000000   0.000000 )
               a(2) = (   0.000000   1.000000   0.000000 )
               a(3) = (   0.000000   0.000000   0.644444 )

     reciprocal axes: (cart. coord. in units 2 pi/alat)
               b(1) = (  1.000000  0.000000  0.000000 )
               b(2) = (  0.000000  1.000000  0.000000 )
               b(3) = (  0.000000  0.000000  1.551724 )

     PseudoPot. # 1 for Rh read from file:
     /home/camp/zhonxu/pseudo/rh_pbe_v1.uspp.F.UPF
     MD5 check sum: 37b626987ad0dd8ec6bf4cc9ef289918
     Pseudo is Ultrasoft + core correction, Zval = 15.0
     Generated by new atomic code, or converted to UPF format
     Using radial grid of  969 points,  7 beta functions with:
                l(1) =   0
                l(2) =   0
                l(3) =   1
                l(4) =   1
                l(5) =   2
                l(6) =   2
                l(7) =   2
     Q(r) pseudized with  6 coefficients,  rinner =    1.050   1.050   1.050
                                                       1.050   1.050

     PseudoPot. # 2 for O  read from file:
     /home/camp/zhonxu/pseudo/o_pbe_v1.01.uspp.F.UPF
     MD5 check sum: 2bcb18d16ea4b960afae9ec6d52f22d2
     Pseudo is Ultrasoft + core correction, Zval =  6.0
     Generated by new atomic code, or converted to UPF format
     Using radial grid of  737 points,  5 beta functions with:
                l(1) =   0
                l(2) =   0
                l(3) =   1
                l(4) =   1
                l(5) =   2
     Q(r) pseudized with  8 coefficients,  rinner =    0.900   0.900   0.900
                                                       0.900   0.900

     atomic species   valence    mass     pseudopotential
        Rh0           15.00   102.90550     Rh( 1.00)
        O1             6.00    15.99940     O ( 1.00)

     Starting magnetic structure
     atomic species   magnetization
        Rh0          0.000
        O1           0.000

      8 Sym. Ops., with inversion, found
          (note:  8 additional sym.ops. were found but ignored
           their fractional translations are incommensurate with FFT grid)

   Cartesian axes

     site n.     atom                  positions (alat units)
         1           Rh0 tau(   1) = (   0.0000000   0.0000000   0.0000000  )
         2           Rh0 tau(   2) = (   0.5000000   0.5000000   0.3222222  )
         3           O1  tau(   3) = (   0.3050000   0.3050000   0.0000000  )
         4           O1  tau(   4) = (  -0.3050000  -0.3050000   0.0000000  )
         5           O1  tau(   5) = (   0.8050000   0.1950000   0.3222222  )
         6           O1  tau(   6) = (   0.1950000   0.8050000   0.3222222  )

     number of k points=    54  Methfessel-Paxton smearing, width (Ry)=  0.0100
                       cart. coord. in units 2pi/alat
        k(    1) = (   0.0000000   0.0000000   0.0000000), wk =   0.0080000
        k(    2) = (   0.0000000   0.0000000   0.3103448), wk =   0.0160000
        k(    3) = (   0.0000000   0.0000000   0.6206897), wk =   0.0160000
        k(    4) = (   0.0000000   0.2000000   0.0000000), wk =   0.0320000
        k(    5) = (   0.0000000   0.2000000   0.3103448), wk =   0.0640000
        k(    6) = (   0.0000000   0.2000000   0.6206897), wk =   0.0640000
        k(    7) = (   0.0000000   0.4000000   0.0000000), wk =   0.0320000
        k(    8) = (   0.0000000   0.4000000   0.3103448), wk =   0.0640000
        k(    9) = (   0.0000000   0.4000000   0.6206897), wk =   0.0640000
        k(   10) = (   0.2000000   0.2000000   0.0000000), wk =   0.0160000
        k(   11) = (   0.2000000   0.2000000   0.3103448), wk =   0.0320000
        k(   12) = (   0.2000000   0.2000000   0.6206897), wk =   0.0320000
        k(   13) = (   0.2000000   0.4000000   0.0000000), wk =   0.0320000
        k(   14) = (   0.2000000   0.4000000   0.3103448), wk =   0.0640000
        k(   15) = (   0.2000000   0.4000000   0.6206897), wk =   0.0640000
        k(   16) = (   0.4000000   0.4000000   0.0000000), wk =   0.0160000
        k(   17) = (   0.4000000   0.4000000   0.3103448), wk =   0.0320000
        k(   18) = (   0.4000000   0.4000000   0.6206897), wk =   0.0320000
        k(   19) = (  -0.2000000   0.2000000   0.0000000), wk =   0.0160000
        k(   20) = (  -0.2000000   0.2000000  -0.3103448), wk =   0.0320000
        k(   21) = (  -0.2000000   0.2000000  -0.6206897), wk =   0.0320000
        k(   22) = (  -0.2000000   0.4000000   0.0000000), wk =   0.0320000
        k(   23) = (  -0.2000000   0.4000000  -0.3103448), wk =   0.0640000
        k(   24) = (  -0.2000000   0.4000000  -0.6206897), wk =   0.0640000
        k(   25) = (  -0.4000000   0.4000000   0.0000000), wk =   0.0160000
        k(   26) = (  -0.4000000   0.4000000  -0.3103448), wk =   0.0320000
        k(   27) = (  -0.4000000   0.4000000  -0.6206897), wk =   0.0320000
        k(   28) = (   0.0000000   0.0000000   0.0000000), wk =   0.0080000
        k(   29) = (   0.0000000   0.0000000   0.3103448), wk =   0.0160000
        k(   30) = (   0.0000000   0.0000000   0.6206897), wk =   0.0160000
        k(   31) = (   0.0000000   0.2000000   0.0000000), wk =   0.0320000
        k(   32) = (   0.0000000   0.2000000   0.3103448), wk =   0.0640000
        k(   33) = (   0.0000000   0.2000000   0.6206897), wk =   0.0640000
        k(   34) = (   0.0000000   0.4000000   0.0000000), wk =   0.0320000
        k(   35) = (   0.0000000   0.4000000   0.3103448), wk =   0.0640000
        k(   36) = (   0.0000000   0.4000000   0.6206897), wk =   0.0640000
        k(   37) = (   0.2000000   0.2000000   0.0000000), wk =   0.0160000
        k(   38) = (   0.2000000   0.2000000   0.3103448), wk =   0.0320000
        k(   39) = (   0.2000000   0.2000000   0.6206897), wk =   0.0320000
        k(   40) = (   0.2000000   0.4000000   0.0000000), wk =   0.0320000
        k(   41) = (   0.2000000   0.4000000   0.3103448), wk =   0.0640000
        k(   42) = (   0.2000000   0.4000000   0.6206897), wk =   0.0640000
        k(   43) = (   0.4000000   0.4000000   0.0000000), wk =   0.0160000
        k(   44) = (   0.4000000   0.4000000   0.3103448), wk =   0.0320000
        k(   45) = (   0.4000000   0.4000000   0.6206897), wk =   0.0320000
        k(   46) = (  -0.2000000   0.2000000   0.0000000), wk =   0.0160000
        k(   47) = (  -0.2000000   0.2000000  -0.3103448), wk =   0.0320000
        k(   48) = (  -0.2000000   0.2000000  -0.6206897), wk =   0.0320000
        k(   49) = (  -0.2000000   0.4000000   0.0000000), wk =   0.0320000
        k(   50) = (  -0.2000000   0.4000000  -0.3103448), wk =   0.0640000
        k(   51) = (  -0.2000000   0.4000000  -0.6206897), wk =   0.0640000
        k(   52) = (  -0.4000000   0.4000000   0.0000000), wk =   0.0160000
        k(   53) = (  -0.4000000   0.4000000  -0.3103448), wk =   0.0320000
        k(   54) = (  -0.4000000   0.4000000  -0.6206897), wk =   0.0320000

     Largest allocated arrays     est. size (Mb)     dimensions
     Largest temporary arrays     est. size (Mb)     dimensions

     Check: negative/imaginary core charge=   -0.000004    0.000000

     Initial potential from superposition of free atoms
     Check: negative starting charge=(component1):   -0.080817
     Check: negative starting charge=(component2):   -0.080817

     starting charge   52.99980, renormalised to   54.00000

     negative rho (up, down):  0.823E-01 0.823E-01
     Starting wfc are   40 randomized atomic wfcs

     Self-consistent Calculation

     iteration #  1     ecut=    40.00 Ry     beta=0.30
     Davidson diagonalization with overlap
     ethr =  1.00E-02,  avg # of iterations =  7.2

     negative rho (up, down):  0.834E-01 0.834E-01

     total energy              =    -469.04677567 Ry
     Harris-Foulkes estimate   =    -470.56097632 Ry
     estimated scf accuracy    <       3.28872631 Ry

     total magnetization       =     0.00 Bohr mag/cell
     absolute magnetization    =     0.00 Bohr mag/cell

[...]

     End of self-consistent calculation

 ------ SPIN UP ------------

          k = 0.0000 0.0000 0.0000 (  1875 PWs)   bands (ev):

   -36.1638 -36.1637 -36.0388 -36.0388 -35.9906 -35.9806  -8.2464  -7.1622
    -6.4292  -6.4291   3.3142   3.4140   4.7535   4.8499   4.8500   7.4446
     7.4447   7.9250   8.9403   9.0619   9.2053   9.4306   9.4307   9.5997
     9.6038   9.6038  10.4821  11.6784  12.4521  15.1197  15.1197  16.1614
    17.6204  21.6663  21.6663  24.9858  25.4815  25.9010  27.3392  28.8309
    28.8309  29.8000  30.3835  32.7771  33.9064  33.9064  35.3615  35.3616
    35.9575  37.1037  37.4747  37.4747  38.3629  39.8351  39.8822  40.3336
    40.4124  40.6793  42.3585  42.6569  42.7407  42.7407  43.4382  43.4382
    45.4333  45.4333  46.1356  46.5514  49.3576  51.0229  51.1604  51.1605
    51.2060  51.2060  51.5299  52.4715  52.4729  52.4729  52.8059  52.9752
    53.5152

[...]

          k =-0.2000 0.2000 0.0000 (  1863 PWs)   bands (ev):

[...]

 ------ SPIN DOWN ----------

[...]

     the Fermi energy is    11.6092 ev

!    total energy              =    -469.81179032 Ry
     Harris-Foulkes estimate   =    -469.81178796 Ry
     estimated scf accuracy    <       0.00000087 Ry

     The total energy is the sum of the following terms:

     one-electron contribution =    -141.51342806 Ry
     hartree contribution      =     106.71315202 Ry
     xc contribution           =     -87.10283392 Ry
     ewald contribution        =    -347.90817608 Ry
     smearing contrib. (-TS)   =      -0.00050429 Ry

[...]

     convergence has been achieved in   9 iterations

     Forces acting on atoms (Ry/au):

     negative rho (up, down):  0.871E-01 0.871E-01
     atom    1 type  1   force =     0.00000000    0.00000000    0.00000000
[...]
        k(    8) = (   0.0000017   0.4082092   0.2979881), wk =   0.0640000
        k(    9) = (   0.0000017   0.4082092   0.5959763), wk =   0.0640000
        k(   10) = (   0.2041055   0.2041055   0.0000000), wk =   0.0160000
        k(   11) = (   0.2041055   0.2041055   0.2979881), wk =   0.0320000
        k(   12) = (   0.2041055   0.2041055   0.5959763), wk =   0.0320000
        k(   13) = (   0.2041063   0.4082100   0.0000000), wk =   0.0320000
        k(   14) = (   0.2041063   0.4082100   0.2979881), wk =   0.0640000
        k(   15) = (   0.2041063   0.4082100   0.5959763), wk =   0.0640000
        k(   16) = (   0.4082109   0.4082109   0.0000000), wk =   0.0160000
        k(   17) = (   0.4082109   0.4082109   0.2979881), wk =   0.0320000
        k(   18) = (   0.4082109   0.4082109   0.5959763), wk =   0.0320000
        k(   19) = (  -0.2041037   0.2041037   0.0000000), wk =   0.0160000
        k(   20) = (  -0.2041037   0.2041037  -0.2979881), wk =   0.0320000
        k(   21) = (  -0.2041037   0.2041037  -0.5959763), wk =   0.0320000
        k(   22) = (  -0.2041028   0.4082083   0.0000000), wk =   0.0320000
        k(   23) = (  -0.2041028   0.4082083  -0.2979881), wk =   0.0640000
        k(   24) = (  -0.2041028   0.4082083  -0.5959763), wk =   0.0640000
        k(   25) = (  -0.4082074   0.4082074   0.0000000), wk =   0.0160000
        k(   26) = (  -0.4082074   0.4082074  -0.2979881), wk =   0.0320000
        k(   27) = (  -0.4082074   0.4082074  -0.5959763), wk =   0.0320000
        k(   28) = (   0.0000000   0.0000000   0.0000000), wk =   0.0080000
        k(   29) = (   0.0000000   0.0000000   0.2979881), wk =   0.0160000
        k(   30) = (   0.0000000   0.0000000   0.5959763), wk =   0.0160000
        k(   31) = (   0.0000009   0.2041046   0.0000000), wk =   0.0320000
        k(   32) = (   0.0000009   0.2041046   0.2979881), wk =   0.0640000
        k(   33) = (   0.0000009   0.2041046   0.5959763), wk =   0.0640000
        k(   34) = (   0.0000017   0.4082092   0.0000000), wk =   0.0320000
        k(   35) = (   0.0000017   0.4082092   0.2979881), wk =   0.0640000
        k(   36) = (   0.0000017   0.4082092   0.5959763), wk =   0.0640000
        k(   37) = (   0.2041055   0.2041055   0.0000000), wk =   0.0160000
        k(   38) = (   0.2041055   0.2041055   0.2979881), wk =   0.0320000
        k(   39) = (   0.2041055   0.2041055   0.5959763), wk =   0.0320000
        k(   40) = (   0.2041063   0.4082100   0.0000000), wk =   0.0320000
        k(   41) = (   0.2041063   0.4082100   0.2979881), wk =   0.0640000
        k(   42) = (   0.2041063   0.4082100   0.5959763), wk =   0.0640000
        k(   43) = (   0.4082109   0.4082109   0.0000000), wk =   0.0160000
        k(   44) = (   0.4082109   0.4082109   0.2979881), wk =   0.0320000
        k(   45) = (   0.4082109   0.4082109   0.5959763), wk =   0.0320000
        k(   46) = (  -0.2041037   0.2041037   0.0000000), wk =   0.0160000
        k(   47) = (  -0.2041037   0.2041037  -0.2979881), wk =   0.0320000
        k(   48) = (  -0.2041037   0.2041037  -0.5959763), wk =   0.0320000
        k(   49) = (  -0.2041028   0.4082083   0.0000000), wk =   0.0320000
        k(   50) = (  -0.2041028   0.4082083  -0.2979881), wk =   0.0640000
        k(   51) = (  -0.2041028   0.4082083  -0.5959763), wk =   0.0640000
        k(   52) = (  -0.4082074   0.4082074   0.0000000), wk =   0.0160000
        k(   53) = (  -0.4082074   0.4082074  -0.2979881), wk =   0.0320000
        k(   54) = (  -0.4082074   0.4082074  -0.5959763), wk =   0.0320000

     Check: negative/imaginary core charge=   -0.000004    0.000000
     Check: negative starting charge=(component1):   -0.162335

[...]

     Threshold (ethr) on eigenvalues was too large:
     Diagonalizing with lowered threshold

     Davidson diagonalization with overlap
     ethr =  3.68E-10,  avg # of iterations =  1.8

[...]

     Volume is kept fixed: isostatic pressure set to zero

     bfgs converged in   7 scf cycles and   6 bfgs steps
     (criteria: energy < 0.10E-03, force < 0.10E-02, cell < 0.50E+00)

     End of BFGS Geometry Optimization

     Final enthalpy =    -469.8226445965 Ry
Begin final coordinates
     new unit-cell volume =    434.33631 a.u.^3 (    64.36200 Ang^3 )

CELL_PARAMETERS (alat=  8.76758970)
   0.979889800  -0.000004191   0.000000000
  -0.000004191   0.979889800   0.000000000
   0.000000000   0.000000000   0.671167642

ATOMIC_POSITIONS (crystal)
Rh0      0.000000000   0.000000000   0.000000000    0   0   0
Rh0      0.500000000   0.500000000   0.500000000    0   0   0
O1       0.307048889   0.307048889   0.000000000    1   1   0
O1      -0.307048889  -0.307048889   0.000000000    1   1   0
O1       0.807049289   0.192950711   0.500000000    1   1   0
O1       0.192950711   0.807049289   0.500000000    1   1   0
End final coordinates

     A final scf calculation at the relaxed structure.
     The G-vectors are recalculated for the final unit cell
     Results may differ from those at the preceding step.

     bravais-lattice index     =            0
     lattice parameter (alat)  =       8.7676  a.u.
     unit-cell volume          =     434.3363 (a.u.)^3
     number of atoms/cell      =            6
     number of atomic types    =            2
     number of electrons       =        54.00
     number of Kohn-Sham states=           81
     kinetic-energy cutoff     =      40.0000  Ry
     charge density cutoff     =     500.0000  Ry
     convergence threshold     =      1.0E-08
     mixing beta               =       0.3000
     number of iterations used =            8  plain     mixing
     Exchange-correlation      = SLA  PW   PBE  PBE ( 1 4 3 4 0)
     EXX-fraction              =        0.00

     celldm(1)=   8.767590  celldm(2)=   0.000000  celldm(3)=   0.000000
     celldm(4)=   0.000000  celldm(5)=   0.000000  celldm(6)=   0.000000

     crystal axes: (cart. coord. in units of alat)
               a(1) = (   0.979890  -0.000004   0.000000 )
               a(2) = (  -0.000004   0.979890   0.000000 )
               a(3) = (   0.000000   0.000000   0.671168 )

     reciprocal axes: (cart. coord. in units 2 pi/alat)
               b(1) = (  1.020523  0.000004 -0.000000 )
               b(2) = (  0.000004  1.020523 -0.000000 )
               b(3) = ( -0.000000 -0.000000  1.489941 )

     PseudoPot. # 1 for Rh read from file:
     /home/camp/zhonxu/pseudo/rh_pbe_v1.uspp.F.UPF
     MD5 check sum: 37b626987ad0dd8ec6bf4cc9ef289918
     Pseudo is Ultrasoft + core correction, Zval = 15.0
     Generated by new atomic code, or converted to UPF format
     Using radial grid of  969 points,  7 beta functions with:
                l(1) =   0
                l(2) =   0
                l(3) =   1
                l(4) =   1
                l(5) =   2
                l(6) =   2
                l(7) =   2
     Q(r) pseudized with  6 coefficients,  rinner =    1.050   1.050   1.050
                                                       1.050   1.050

     PseudoPot. # 2 for O  read from file:
     /home/camp/zhonxu/pseudo/o_pbe_v1.01.uspp.F.UPF
     MD5 check sum: 2bcb18d16ea4b960afae9ec6d52f22d2
     Pseudo is Ultrasoft + core correction, Zval =  6.0
     Generated by new atomic code, or converted to UPF format
     Using radial grid of  737 points,  5 beta functions with:
                l(1) =   0
                l(2) =   0
                l(3) =   1
                l(4) =   1
                l(5) =   2
     Q(r) pseudized with  8 coefficients,  rinner =    0.900   0.900   0.900
                                                       0.900   0.900

     atomic species   valence    mass     pseudopotential
        Rh0           15.00   102.90550     Rh( 1.00)
        O1             6.00    15.99940     O ( 1.00)

     Starting magnetic structure
     atomic species   magnetization
        Rh0          0.000
        O1           0.000

      8 Sym. Ops., with inversion, found
          (note:  8 additional sym.ops. were found but ignored
           their fractional translations are incommensurate with FFT grid)

   Cartesian axes

     site n.     atom                  positions (alat units)
         1           Rh0 tau(   1) = (   0.0000000   0.0000000   0.0000000  )
         2           Rh0 tau(   2) = (   0.4899428   0.4899428   0.3355838  )
         3           O1  tau(   3) = (   0.3008728   0.3008728   0.0000000  )
         4           O1  tau(   4) = (  -0.3008728  -0.3008728   0.0000000  )
         5           O1  tau(   5) = (   0.7908186   0.1890671   0.3355838  )
         6           O1  tau(   6) = (   0.1890671   0.7908186   0.3355838  )

     number of k points=    54  Methfessel-Paxton smearing, width (Ry)=  0.0100
                       cart. coord. in units 2pi/alat
        k(    1) = (   0.0000000   0.0000000   0.0000000), wk =   0.0080000
        k(    2) = (   0.0000000   0.0000000   0.2979881), wk =   0.0160000
        k(    3) = (   0.0000000   0.0000000   0.5959763), wk =   0.0160000
        k(    4) = (   0.0000009   0.2041046   0.0000000), wk =   0.0320000
        k(    5) = (   0.0000009   0.2041046   0.2979881), wk =   0.0640000
        k(    6) = (   0.0000009   0.2041046   0.5959763), wk =   0.0640000
        k(    7) = (   0.0000017   0.4082092   0.0000000), wk =   0.0320000
        k(    8) = (   0.0000017   0.4082092   0.2979881), wk =   0.0640000
        k(    9) = (   0.0000017   0.4082092   0.5959763), wk =   0.0640000
        k(   10) = (   0.2041055   0.2041055   0.0000000), wk =   0.0160000
        k(   11) = (   0.2041055   0.2041055   0.2979881), wk =   0.0320000
        k(   12) = (   0.2041055   0.2041055   0.5959763), wk =   0.0320000
        k(   13) = (   0.2041063   0.4082100   0.0000000), wk =   0.0320000
        k(   14) = (   0.2041063   0.4082100   0.2979881), wk =   0.0640000
        k(   15) = (   0.2041063   0.4082100   0.5959763), wk =   0.0640000
        k(   16) = (   0.4082109   0.4082109   0.0000000), wk =   0.0160000
        k(   17) = (   0.4082109   0.4082109   0.2979881), wk =   0.0320000
        k(   18) = (   0.4082109   0.4082109   0.5959763), wk =   0.0320000
        k(   19) = (  -0.2041037   0.2041037   0.0000000), wk =   0.0160000
        k(   20) = (  -0.2041037   0.2041037  -0.2979881), wk =   0.0320000
        k(   21) = (  -0.2041037   0.2041037  -0.5959763), wk =   0.0320000
        k(   22) = (  -0.2041028   0.4082083   0.0000000), wk =   0.0320000
        k(   23) = (  -0.2041028   0.4082083  -0.2979881), wk =   0.0640000
        k(   24) = (  -0.2041028   0.4082083  -0.5959763), wk =   0.0640000
        k(   25) = (  -0.4082074   0.4082074   0.0000000), wk =   0.0160000
        k(   26) = (  -0.4082074   0.4082074  -0.2979881), wk =   0.0320000
        k(   27) = (  -0.4082074   0.4082074  -0.5959763), wk =   0.0320000
        k(   28) = (   0.0000000   0.0000000   0.0000000), wk =   0.0080000
        k(   29) = (   0.0000000   0.0000000   0.2979881), wk =   0.0160000
        k(   30) = (   0.0000000   0.0000000   0.5959763), wk =   0.0160000
        k(   31) = (   0.0000009   0.2041046   0.0000000), wk =   0.0320000
        k(   32) = (   0.0000009   0.2041046   0.2979881), wk =   0.0640000
        k(   33) = (   0.0000009   0.2041046   0.5959763), wk =   0.0640000
        k(   34) = (   0.0000017   0.4082092   0.0000000), wk =   0.0320000
        k(   35) = (   0.0000017   0.4082092   0.2979881), wk =   0.0640000
        k(   36) = (   0.0000017   0.4082092   0.5959763), wk =   0.0640000
        k(   37) = (   0.2041055   0.2041055   0.0000000), wk =   0.0160000
        k(   38) = (   0.2041055   0.2041055   0.2979881), wk =   0.0320000
        k(   39) = (   0.2041055   0.2041055   0.5959763), wk =   0.0320000
        k(   40) = (   0.2041063   0.4082100   0.0000000), wk =   0.0320000
        k(   41) = (   0.2041063   0.4082100   0.2979881), wk =   0.0640000
        k(   42) = (   0.2041063   0.4082100   0.5959763), wk =   0.0640000
        k(   43) = (   0.4082109   0.4082109   0.0000000), wk =   0.0160000
        k(   44) = (   0.4082109   0.4082109   0.2979881), wk =   0.0320000
        k(   45) = (   0.4082109   0.4082109   0.5959763), wk =   0.0320000
        k(   46) = (  -0.2041037   0.2041037   0.0000000), wk =   0.0160000
        k(   47) = (  -0.2041037   0.2041037  -0.2979881), wk =   0.0320000
        k(   48) = (  -0.2041037   0.2041037  -0.5959763), wk =   0.0320000
        k(   49) = (  -0.2041028   0.4082083   0.0000000), wk =   0.0320000
        k(   50) = (  -0.2041028   0.4082083  -0.2979881), wk =   0.0640000
        k(   51) = (  -0.2041028   0.4082083  -0.5959763), wk =   0.0640000
        k(   52) = (  -0.4082074   0.4082074   0.0000000), wk =   0.0160000
        k(   53) = (  -0.4082074   0.4082074  -0.2979881), wk =   0.0320000
        k(   54) = (  -0.4082074   0.4082074  -0.5959763), wk =   0.0320000

     Largest allocated arrays     est. size (Mb)     dimensions
     Largest temporary arrays     est. size (Mb)     dimensions

     Check: negative/imaginary core charge=   -0.000004    0.000000

     Initial potential from superposition of free atoms
     Check: negative starting charge=(component1):   -0.081167
     Check: negative starting charge=(component2):   -0.081167

     starting charge   52.99980, renormalised to   54.00000

     negative rho (up, down):  0.827E-01 0.827E-01
     Starting wfc are   40 randomized atomic wfcs

     Self-consistent Calculation

[...]

     total energy              =    -469.82307741 Ry
     Harris-Foulkes estimate   =    -469.82307704 Ry
     estimated scf accuracy    <       0.00000009 Ry

[...]

     iteration # 12     ecut=    40.00 Ry     beta=0.30
     Davidson diagonalization with overlap
     ethr =  1.58E-10,  avg # of iterations =  1.0

     negative rho (up, down):  0.872E-01 0.872E-01

     End of self-consistent calculation

 ------ SPIN UP ------------

[...]

 ------ SPIN DOWN ----------

[...]

          k = 0.4082 0.4082 0.5960 (  1857 PWs)   bands (ev):

[...]

          k =-0.4082 0.4082-0.5960 (  1857 PWs)   bands (ev):

   -36.1719 -36.1702 -36.1396 -36.1376 -35.9513 -35.9513  -7.0256  -6.9638
    -6.8210  -6.7768   4.5784   4.6737   4.8784   4.9184   5.5850   5.8984
     6.8338   6.9732   7.7943   7.9889   8.9065   9.2396   9.9449  10.0153
    10.1942  10.8463  11.0711  11.5656  12.9966  13.6361  14.2061  14.8001
    21.9842  22.3827  23.4666  23.9292  24.6998  24.8695  25.8457  26.2601
    29.0069  29.1016  30.6144  31.1013  32.9632  34.1976  34.5752  34.6673
    35.0938  36.0303  39.2001  39.2385  39.3707  39.8262  39.8504  40.0064
    41.4943  42.0087  42.5949  43.5457  44.3025  44.7441  45.3789  45.7387
    46.0757  46.4370  47.6502  48.2734  48.9227  49.2248  49.4352  50.3080
    50.3271  51.2555  51.7194  51.9877  52.4926  52.9465  53.7050  54.4170
    55.9296

     the Fermi energy is    11.6039 ev

!    total energy              =    -469.82307778 Ry
     Harris-Foulkes estimate   =    -469.82307742 Ry
     estimated scf accuracy    <          1.1E-09 Ry

     The total energy is the sum of the following terms:

     one-electron contribution =    -137.65171047 Ry
     hartree contribution      =     104.80434315 Ry
     xc contribution           =     -87.04989034 Ry
     ewald contribution        =    -349.92520008 Ry
     smearing contrib. (-TS)   =      -0.00062005 Ry

     total magnetization       =     0.00 Bohr mag/cell
     absolute magnetization    =     0.00 Bohr mag/cell

     convergence has been achieved in  12 iterations

     Forces acting on atoms (Ry/au):

     negative rho (up, down):  0.872E-01 0.872E-01
     atom    1 type  1   force =     0.00000000    0.00000000    0.00000000
     atom    2 type  1   force =     0.00000000    0.00000000    0.00000000
     atom    3 type  2   force =    -0.00000917   -0.00000917    0.00000000
     atom    4 type  2   force =     0.00000917    0.00000917    0.00000000
     atom    5 type  2   force =    -0.00001209    0.00001209    0.00000000
     atom    6 type  2   force =     0.00001209   -0.00001209    0.00000000

     Total force =     0.000030     Total SCF correction =     0.000065
     SCF correction compared to forces is large: reduce conv_thr to get better values

     entering subroutine stress ...

     negative rho (up, down):  0.872E-01 0.872E-01
          total   stress  (Ry/bohr**3)                   (kbar)     P=  -43.69
  -0.00031100   0.00000010   0.00000000        -45.75      0.02      0.00
   0.00000010  -0.00031100   0.00000000          0.02    -45.75      0.00
   0.00000000   0.00000000  -0.00026890          0.00      0.00    -39.56

     General routines

     Parallel routines

   This run was terminated on:  18:57: 2  31Jan2014

   JOB DONE.