     Program PWSCF v.5.0.2 (svn rev. 9656) starts on 23Jan2014 at 17:17:29

     Current dimensions of program PWSCF are:
     Max number of different atomic species (ntypx) = 10
     Max number of k-points (npk) =  40000
     Max angular momentum in pseudopotentials (lmaxx) =  3
     Reading input from MoO2-v-0.8.in

     Subspace diagonalization in iterative solution of the eigenvalue problem:
     a serial algorithm will be used

     bravais-lattice index     =            0
     lattice parameter (alat)  =       8.0383  a.u.
     unit-cell volume          =     334.7174 (a.u.)^3
     number of atoms/cell      =            6
     number of atomic types    =            2
     number of electrons       =        52.00
     number of Kohn-Sham states=           78
     kinetic-energy cutoff     =      40.0000  Ry
     charge density cutoff     =     500.0000  Ry
     convergence threshold     =      1.0E-06
     mixing beta               =       0.7000
     number of iterations used =            8  plain     mixing
     Exchange-correlation      = SLA  PW   PBE  PBE ( 1 4 3 4 0)
     EXX-fraction              =        0.00
     nstep                     =           50

     celldm(1)=   8.038301  celldm(2)=   0.000000  celldm(3)=   0.000000
     celldm(4)=   0.000000  celldm(5)=   0.000000  celldm(6)=   0.000000

     crystal axes: (cart. coord. in units of alat)
               a(1) = (   1.000000   0.000000   0.000000 )
               a(2) = (   0.000000   1.000000   0.000000 )
               a(3) = (   0.000000   0.000000   0.644444 )

     reciprocal axes: (cart. coord. in units 2 pi/alat)
               b(1) = (  1.000000  0.000000  0.000000 )
               b(2) = (  0.000000  1.000000  0.000000 )
               b(3) = (  0.000000  0.000000  1.551724 )

     PseudoPot. # 1 for Mo read from file:
     /home/camp/zhonxu/pseudo/mo_pbe_v1.uspp.F.UPF
     MD5 check sum: 30c4dcd161f5d35cd49bb5239c51a633
     Pseudo is Ultrasoft + core correction, Zval = 14.0
     Generated by new atomic code, or converted to UPF format
     Using radial grid of  889 points,  6 beta functions with:
                l(1) =   0
                l(2) =   0
                l(3) =   1
                l(4) =   1
                l(5) =   2
                l(6) =   2
     Q(r) pseudized with  6 coefficients,  rinner =    1.000   1.000   1.000
                                                       1.000   1.000

     PseudoPot. # 2 for O  read from file:
     /home/camp/zhonxu/pseudo/o_pbe_v1.01.uspp.F.UPF
     MD5 check sum: 2bcb18d16ea4b960afae9ec6d52f22d2
     Pseudo is Ultrasoft + core correction, Zval =  6.0
     Generated by new atomic code, or converted to UPF format
     Using radial grid of  737 points,  5 beta functions with:
                l(1) =   0
                l(2) =   0
                l(3) =   1
                l(4) =   1
                l(5) =   2
     Q(r) pseudized with  8 coefficients,  rinner =    0.900   0.900   0.900
                                                       0.900   0.900

     atomic species   valence    mass     pseudopotential
        Mo0           14.00    95.94000     Mo( 1.00)
        O1             6.00    15.99940     O ( 1.00)

     Starting magnetic structure
     atomic species   magnetization
        Mo0          0.600
        O1           0.000

     16 Sym. Ops., with inversion, found ( 8 have fractional translation)

   Cartesian axes

     site n.     atom                  positions (alat units)
         1           Mo0 tau(   1) = (   0.0000000   0.0000000   0.0000000  )
         2           Mo0 tau(   2) = (   0.5000000   0.5000000   0.3222222  )
         3           O1  tau(   3) = (   0.3050000   0.3050000   0.0000000  )
         4           O1  tau(   4) = (  -0.3050000  -0.3050000   0.0000000  )
         5           O1  tau(   5) = (   0.8050000   0.1950000   0.3222222  )
         6           O1  tau(   6) = (   0.1950000   0.8050000   0.3222222  )

     number of k points=    36  Methfessel-Paxton smearing, width (Ry)=  0.0100
                       cart. coord. in units 2pi/alat
        k(    1) = (   0.0000000   0.0000000   0.0000000), wk =   0.0080000
        k(    2) = (   0.0000000   0.0000000   0.3103448), wk =   0.0160000
        k(    3) = (   0.0000000   0.0000000   0.6206897), wk =   0.0160000
        k(    4) = (   0.0000000   0.2000000   0.0000000), wk =   0.0320000
        k(    5) = (   0.0000000   0.2000000   0.3103448), wk =   0.0640000
        k(    6) = (   0.0000000   0.2000000   0.6206897), wk =   0.0640000
        k(    7) = (   0.0000000   0.4000000   0.0000000), wk =   0.0320000
        k(    8) = (   0.0000000   0.4000000   0.3103448), wk =   0.0640000
        k(    9) = (   0.0000000   0.4000000   0.6206897), wk =   0.0640000
        k(   10) = (   0.2000000   0.2000000   0.0000000), wk =   0.0320000
        k(   11) = (   0.2000000   0.2000000   0.3103448), wk =   0.0640000
        k(   12) = (   0.2000000   0.2000000   0.6206897), wk =   0.0640000
        k(   13) = (   0.2000000   0.4000000   0.0000000), wk =   0.0640000
        k(   14) = (   0.2000000   0.4000000   0.3103448), wk =   0.1280000
        k(   15) = (   0.2000000   0.4000000   0.6206897), wk =   0.1280000
        k(   16) = (   0.4000000   0.4000000   0.0000000), wk =   0.0320000
        k(   17) = (   0.4000000   0.4000000   0.3103448), wk =   0.0640000
        k(   18) = (   0.4000000   0.4000000   0.6206897), wk =   0.0640000
        k(   19) = (   0.0000000   0.0000000   0.0000000), wk =   0.0080000
        k(   20) = (   0.0000000   0.0000000   0.3103448), wk =   0.0160000
        k(   21) = (   0.0000000   0.0000000   0.6206897), wk =   0.0160000
        k(   22) = (   0.0000000   0.2000000   0.0000000), wk =   0.0320000
        k(   23) = (   0.0000000   0.2000000   0.3103448), wk =   0.0640000
        k(   24) = (   0.0000000   0.2000000   0.6206897), wk =   0.0640000
        k(   25) = (   0.0000000   0.4000000   0.0000000), wk =   0.0320000
        k(   26) = (   0.0000000   0.4000000   0.3103448), wk =   0.0640000
        k(   27) = (   0.0000000   0.4000000   0.6206897), wk =   0.0640000
        k(   28) = (   0.2000000   0.2000000   0.0000000), wk =   0.0320000
        k(   29) = (   0.2000000   0.2000000   0.3103448), wk =   0.0640000
        k(   30) = (   0.2000000   0.2000000   0.6206897), wk =   0.0640000
        k(   31) = (   0.2000000   0.4000000   0.0000000), wk =   0.0640000
        k(   32) = (   0.2000000   0.4000000   0.3103448), wk =   0.1280000
        k(   33) = (   0.2000000   0.4000000   0.6206897), wk =   0.1280000
        k(   34) = (   0.4000000   0.4000000   0.0000000), wk =   0.0320000
        k(   35) = (   0.4000000   0.4000000   0.3103448), wk =   0.0640000
        k(   36) = (   0.4000000   0.4000000   0.6206897), wk =   0.0640000

     Largest allocated arrays     est. size (Mb)     dimensions
     Largest temporary arrays     est. size (Mb)     dimensions

     Check: negative/imaginary core charge=   -0.000008    0.000000

     Initial potential from superposition of free atoms

     starting charge   51.99787, renormalised to   52.00000
     Starting wfc are   42 randomized atomic wfcs

     Self-consistent Calculation

     iteration #  1     ecut=    40.00 Ry     beta=0.70
     Davidson diagonalization with overlap
     ethr =  1.00E-02,  avg # of iterations =  5.2

     negative rho (up, down):  0.000E+00 0.145E-02

     total energy              =    -406.21968185 Ry
     Harris-Foulkes estimate   =    -406.53037906 Ry
     estimated scf accuracy    <       2.48506839 Ry

     total magnetization       =     4.00 Bohr mag/cell
     absolute magnetization    =     4.59 Bohr mag/cell

[...]

     End of self-consistent calculation

 ------ SPIN UP ------------

          k = 0.0000 0.0000 0.0000 (  1447 PWs)   bands (ev):

   -42.2915 -42.2180 -17.1237 -17.1237 -16.5283 -16.4633 -16.4633 -16.3706
    -3.0363  -2.3069   0.5184   0.5184   8.0621   8.7426   8.9709  10.4121
    10.4121  13.6202  13.6202  14.4702  15.3944  15.4231  15.4231  16.1019
    18.6458  19.4136  19.8306  19.9589  19.9589  24.6196  25.0577  26.0222
    28.5023  28.5023  29.3798  29.3798  30.6036  33.3864  35.8053  36.2217
    36.8646  39.0969  39.0969  39.2788  41.3807  42.3266  42.3266  42.5940
    42.8754  42.8754  43.9556  49.0523  49.2803  49.2803  50.2590  51.5535
    53.0935  53.4266  53.7190  53.7190  54.6170  54.6170  55.8188  56.6588
    56.6690  57.4894  57.4894  59.2437  59.3102  60.8472  63.0473  63.1153
    63.1153  64.2972  64.4256  64.6511  64.6511  64.8527

[...]

 ------ SPIN DOWN ----------

[...]

     the Fermi energy is    20.4758 ev

!    total energy              =    -407.21754603 Ry
     Harris-Foulkes estimate   =    -407.21754586 Ry
     estimated scf accuracy    <       0.00000008 Ry

     The total energy is the sum of the following terms:

     one-electron contribution =     -65.31384492 Ry
     hartree contribution      =      73.40624839 Ry
     xc contribution           =     -69.26939870 Ry
     ewald contribution        =    -346.04049841 Ry
     smearing contrib. (-TS)   =      -0.00005239 Ry

[...]

     convergence has been achieved in  12 iterations

     Forces acting on atoms (Ry/au):

     negative rho (up, down):  0.000E+00 0.327E-04
     atom    1 type  1   force =     0.00000000    0.00000000    0.00000000
     atom    2 type  1   force =     0.00000000    0.00000000   -0.00000000
     atom    3 type  2   force =    -0.12311183   -0.12311183    0.00000000
     atom    4 type  2   force =     0.12311183    0.12311183    0.00000000
     atom    5 type  2   force =    -0.12311183    0.12311183   -0.00000000
     atom    6 type  2   force =     0.12311183   -0.12311183   -0.00000000

     Total force =     0.348213     Total SCF correction =     0.000001

     entering subroutine stress ...

     negative rho (up, down):  0.000E+00 0.327E-04
          total   stress  (Ry/bohr**3)                   (kbar)     P= 1637.70
   0.01047939   0.00000000   0.00000000       1541.57      0.00      0.00
   0.00000000   0.01047939   0.00000000          0.00   1541.57      0.00
   0.00000000   0.00000000   0.01243973          0.00      0.00   1829.95

     Volume is kept fixed: isostatic pressure set to zero

     BFGS Geometry Optimization

     number of scf cycles    =   1
     number of bfgs steps    =   0

     enthalpy new            =    -407.2175460277 Ry

     new trust radius        =       0.1741064199 bohr
     new conv_thr            =       0.0000010000 Ry

     new unit-cell volume =    334.71740 a.u.^3 (    49.60000 Ang^3 )

CELL_PARAMETERS (alat=  8.03830103)
   0.983923573   0.000000000   0.000000000
   0.000000000   0.983923573   0.000000000
   0.000000000   0.000000000   0.665675775

ATOMIC_POSITIONS (crystal)
Mo0      0.000000000   0.000000000   0.000000000    0   0   0
Mo0      0.500000000   0.500000000   0.500000000    0   0   0
O1       0.289684347   0.289684347   0.000000000    1   1   0
O1      -0.289684347  -0.289684347   0.000000000    1   1   0
O1       0.789684347   0.210315653   0.500000000    1   1   0
O1       0.210315653   0.789684347   0.500000000    1   1   0

[...]
        k(   21) = (   0.0000000   0.0000000   0.7060395), wk =   0.0160000
        k(   22) = (   0.0000000   0.1875222   0.0000000), wk =   0.0320000
        k(   23) = (   0.0000000   0.1875222   0.3530197), wk =   0.0640000
        k(   24) = (   0.0000000   0.1875222   0.7060395), wk =   0.0640000
        k(   25) = (   0.0000000   0.3750445   0.0000000), wk =   0.0320000
        k(   26) = (   0.0000000   0.3750445   0.3530197), wk =   0.0640000
        k(   27) = (   0.0000000   0.3750445   0.7060395), wk =   0.0640000
        k(   28) = (   0.1875222   0.1875222   0.0000000), wk =   0.0320000
        k(   29) = (   0.1875222   0.1875222   0.3530197), wk =   0.0640000
        k(   30) = (   0.1875222   0.1875222   0.7060395), wk =   0.0640000
        k(   31) = (   0.1875222   0.3750445   0.0000000), wk =   0.0640000
        k(   32) = (   0.1875222   0.3750445   0.3530197), wk =   0.1280000
        k(   33) = (   0.1875222   0.3750445   0.7060395), wk =   0.1280000
        k(   34) = (   0.3750445   0.3750445   0.0000000), wk =   0.0320000
        k(   35) = (   0.3750445   0.3750445   0.3530197), wk =   0.0640000
        k(   36) = (   0.3750445   0.3750445   0.7060395), wk =   0.0640000

[...]

     Threshold (ethr) on eigenvalues was too large:
     Diagonalizing with lowered threshold

     Davidson diagonalization with overlap
     ethr =  3.16E-09,  avg # of iterations =  1.8

[...]

     Total force =     0.000038     Total SCF correction =     0.000023
     SCF correction compared to forces is large: reduce conv_thr to get better values

[...]

     Volume is kept fixed: isostatic pressure set to zero
Begin final coordinates
     new unit-cell volume =    334.71740 a.u.^3 (    49.60000 Ang^3 )

[...]

ATOMIC_POSITIONS (crystal)
Mo0      0.000000000   0.000000000   0.000000000    0   0   0
Mo0      0.500000000   0.500000000   0.500000000    0   0   0
O1       0.276900200   0.276900200   0.000000000    1   1   0
O1      -0.276900200  -0.276900200   0.000000000    1   1   0
O1       0.776900200   0.223099800   0.500000000    1   1   0
O1       0.223099800   0.776900200   0.500000000    1   1   0
End final coordinates

     lsda relaxation :  a final configuration with zero
                        absolute magnetization has been found

     the program is checking if it is really the minimum energy structure
     by performing a new scf iteration without any "electronic" history

[...]

     starting charge   51.99787, renormalised to   52.00000
     Starting wfc are   42 randomized atomic wfcs
     NEW-OLD atomic charge density approx. for the potential
     NEW k-points:
        k(    1) = (   0.0000000   0.0000000   0.0000000), wk =   0.0080000
        k(    2) = (   0.0000000   0.0000000   0.3530197), wk =   0.0160000
        k(    3) = (   0.0000000   0.0000000   0.7060395), wk =   0.0160000
        k(    4) = (   0.0000000   0.1875222   0.0000000), wk =   0.0320000
        k(    5) = (   0.0000000   0.1875222   0.3530197), wk =   0.0640000
        k(    6) = (   0.0000000   0.1875222   0.7060395), wk =   0.0640000
        k(    7) = (   0.0000000   0.3750445   0.0000000), wk =   0.0320000
        k(    8) = (   0.0000000   0.3750445   0.3530197), wk =   0.0640000
        k(    9) = (   0.0000000   0.3750445   0.7060395), wk =   0.0640000
        k(   10) = (   0.1875222   0.1875222   0.0000000), wk =   0.0320000
        k(   11) = (   0.1875222   0.1875222   0.3530197), wk =   0.0640000
        k(   12) = (   0.1875222   0.1875222   0.7060395), wk =   0.0640000
        k(   13) = (   0.1875222   0.3750445   0.0000000), wk =   0.0640000
        k(   14) = (   0.1875222   0.3750445   0.3530197), wk =   0.1280000
        k(   15) = (   0.1875222   0.3750445   0.7060395), wk =   0.1280000
        k(   16) = (   0.3750445   0.3750445   0.0000000), wk =   0.0320000
        k(   17) = (   0.3750445   0.3750445   0.3530197), wk =   0.0640000
        k(   18) = (   0.3750445   0.3750445   0.7060395), wk =   0.0640000
        k(   19) = (   0.0000000   0.0000000   0.0000000), wk =   0.0080000
        k(   20) = (   0.0000000   0.0000000   0.3530197), wk =   0.0160000
        k(   21) = (   0.0000000   0.0000000   0.7060395), wk =   0.0160000
        k(   22) = (   0.0000000   0.1875222   0.0000000), wk =   0.0320000
        k(   23) = (   0.0000000   0.1875222   0.3530197), wk =   0.0640000
        k(   24) = (   0.0000000   0.1875222   0.7060395), wk =   0.0640000
        k(   25) = (   0.0000000   0.3750445   0.0000000), wk =   0.0320000
        k(   26) = (   0.0000000   0.3750445   0.3530197), wk =   0.0640000
        k(   27) = (   0.0000000   0.3750445   0.7060395), wk =   0.0640000
        k(   28) = (   0.1875222   0.1875222   0.0000000), wk =   0.0320000
        k(   29) = (   0.1875222   0.1875222   0.3530197), wk =   0.0640000
        k(   30) = (   0.1875222   0.1875222   0.7060395), wk =   0.0640000
        k(   31) = (   0.1875222   0.3750445   0.0000000), wk =   0.0640000
        k(   32) = (   0.1875222   0.3750445   0.3530197), wk =   0.1280000
        k(   33) = (   0.1875222   0.3750445   0.7060395), wk =   0.1280000
        k(   34) = (   0.3750445   0.3750445   0.0000000), wk =   0.0320000
        k(   35) = (   0.3750445   0.3750445   0.3530197), wk =   0.0640000
        k(   36) = (   0.3750445   0.3750445   0.7060395), wk =   0.0640000

[...]

     Volume is kept fixed: isostatic pressure set to zero

     bfgs converged in  30 scf cycles and  28 bfgs steps
     (criteria: energy < 0.10E-03, force < 0.10E-02, cell < 0.50E+00)

     End of BFGS Geometry Optimization

     Final enthalpy =    -407.3708173649 Ry
Begin final coordinates
     new unit-cell volume =    334.71740 a.u.^3 (    49.60000 Ang^3 )

CELL_PARAMETERS (alat=  8.03830103)
   1.066540239   0.000000000   0.000000000
   0.000000000   1.066540239   0.000000000
   0.000000000   0.000000000   0.566540541

ATOMIC_POSITIONS (crystal)
Mo0      0.000000000   0.000000000   0.000000000    0   0   0
Mo0      0.500000000   0.500000000   0.500000000    0   0   0
O1       0.276900200   0.276900200   0.000000000    1   1   0
O1      -0.276900200  -0.276900200   0.000000000    1   1   0
O1       0.776900200   0.223099800   0.500000000    1   1   0
O1       0.223099800   0.776900200   0.500000000    1   1   0
End final coordinates

     A final scf calculation at the relaxed structure.
     The G-vectors are recalculated for the final unit cell
     Results may differ from those at the preceding step.

     bravais-lattice index     =            0
     lattice parameter (alat)  =       8.0383  a.u.
     unit-cell volume          =     334.7174 (a.u.)^3
     number of atoms/cell      =            6
     number of atomic types    =            2
     number of electrons       =        52.00
     number of Kohn-Sham states=           78
     kinetic-energy cutoff     =      40.0000  Ry
     charge density cutoff     =     500.0000  Ry
     convergence threshold     =      1.0E-08
     mixing beta               =       0.7000
     number of iterations used =            8  plain     mixing
     Exchange-correlation      = SLA  PW   PBE  PBE ( 1 4 3 4 0)
     EXX-fraction              =        0.00

     celldm(1)=   8.038301  celldm(2)=   0.000000  celldm(3)=   0.000000
     celldm(4)=   0.000000  celldm(5)=   0.000000  celldm(6)=   0.000000

     crystal axes: (cart. coord. in units of alat)
               a(1) = (   1.066540   0.000000   0.000000 )
               a(2) = (   0.000000   1.066540   0.000000 )
               a(3) = (   0.000000   0.000000   0.566541 )

     reciprocal axes: (cart. coord. in units 2 pi/alat)
               b(1) = (  0.937611  0.000000  0.000000 )
               b(2) = (  0.000000  0.937611  0.000000 )
               b(3) = (  0.000000  0.000000  1.765099 )

     PseudoPot. # 1 for Mo read from file:
     /home/camp/zhonxu/pseudo/mo_pbe_v1.uspp.F.UPF
     MD5 check sum: 30c4dcd161f5d35cd49bb5239c51a633
     Pseudo is Ultrasoft + core correction, Zval = 14.0
     Generated by new atomic code, or converted to UPF format
     Using radial grid of  889 points,  6 beta functions with:
                l(1) =   0
                l(2) =   0
                l(3) =   1
                l(4) =   1
                l(5) =   2
                l(6) =   2
     Q(r) pseudized with  6 coefficients,  rinner =    1.000   1.000   1.000
                                                       1.000   1.000

     PseudoPot. # 2 for O  read from file:
     /home/camp/zhonxu/pseudo/o_pbe_v1.01.uspp.F.UPF
     MD5 check sum: 2bcb18d16ea4b960afae9ec6d52f22d2
     Pseudo is Ultrasoft + core correction, Zval =  6.0
     Generated by new atomic code, or converted to UPF format
     Using radial grid of  737 points,  5 beta functions with:
                l(1) =   0
                l(2) =   0
                l(3) =   1
                l(4) =   1
                l(5) =   2
     Q(r) pseudized with  8 coefficients,  rinner =    0.900   0.900   0.900
                                                       0.900   0.900

     atomic species   valence    mass     pseudopotential
        Mo0           14.00    95.94000     Mo( 1.00)
        O1             6.00    15.99940     O ( 1.00)

     Starting magnetic structure
     atomic species   magnetization
        Mo0          0.600
        O1           0.000

     16 Sym. Ops., with inversion, found ( 8 have fractional translation)

   Cartesian axes

     site n.     atom                  positions (alat units)
         1           Mo0 tau(   1) = (   0.0000000   0.0000000   0.0000000  )
         2           Mo0 tau(   2) = (   0.5332701   0.5332701   0.2832703  )
         3           O1  tau(   3) = (   0.2953252   0.2953252   0.0000000  )
         4           O1  tau(   4) = (  -0.2953252  -0.2953252   0.0000000  )
         5           O1  tau(   5) = (   0.8285953   0.2379449   0.2832703  )
         6           O1  tau(   6) = (   0.2379449   0.8285953   0.2832703  )

     number of k points=    36  Methfessel-Paxton smearing, width (Ry)=  0.0100
                       cart. coord. in units 2pi/alat
        k(    1) = (   0.0000000   0.0000000   0.0000000), wk =   0.0080000
        k(    2) = (   0.0000000   0.0000000   0.3530197), wk =   0.0160000
        k(    3) = (   0.0000000   0.0000000   0.7060395), wk =   0.0160000
        k(    4) = (   0.0000000   0.1875222   0.0000000), wk =   0.0320000
        k(    5) = (   0.0000000   0.1875222   0.3530197), wk =   0.0640000
        k(    6) = (   0.0000000   0.1875222   0.7060395), wk =   0.0640000
        k(    7) = (   0.0000000   0.3750445   0.0000000), wk =   0.0320000
        k(    8) = (   0.0000000   0.3750445   0.3530197), wk =   0.0640000
        k(    9) = (   0.0000000   0.3750445   0.7060395), wk =   0.0640000
        k(   10) = (   0.1875222   0.1875222   0.0000000), wk =   0.0320000
        k(   11) = (   0.1875222   0.1875222   0.3530197), wk =   0.0640000
        k(   12) = (   0.1875222   0.1875222   0.7060395), wk =   0.0640000
        k(   13) = (   0.1875222   0.3750445   0.0000000), wk =   0.0640000
        k(   14) = (   0.1875222   0.3750445   0.3530197), wk =   0.1280000
        k(   15) = (   0.1875222   0.3750445   0.7060395), wk =   0.1280000
        k(   16) = (   0.3750445   0.3750445   0.0000000), wk =   0.0320000
        k(   17) = (   0.3750445   0.3750445   0.3530197), wk =   0.0640000
        k(   18) = (   0.3750445   0.3750445   0.7060395), wk =   0.0640000
        k(   19) = (   0.0000000   0.0000000   0.0000000), wk =   0.0080000
        k(   20) = (   0.0000000   0.0000000   0.3530197), wk =   0.0160000
        k(   21) = (   0.0000000   0.0000000   0.7060395), wk =   0.0160000
        k(   22) = (   0.0000000   0.1875222   0.0000000), wk =   0.0320000
        k(   23) = (   0.0000000   0.1875222   0.3530197), wk =   0.0640000
        k(   24) = (   0.0000000   0.1875222   0.7060395), wk =   0.0640000
        k(   25) = (   0.0000000   0.3750445   0.0000000), wk =   0.0320000
        k(   26) = (   0.0000000   0.3750445   0.3530197), wk =   0.0640000
        k(   27) = (   0.0000000   0.3750445   0.7060395), wk =   0.0640000
        k(   28) = (   0.1875222   0.1875222   0.0000000), wk =   0.0320000
        k(   29) = (   0.1875222   0.1875222   0.3530197), wk =   0.0640000
        k(   30) = (   0.1875222   0.1875222   0.7060395), wk =   0.0640000
        k(   31) = (   0.1875222   0.3750445   0.0000000), wk =   0.0640000
        k(   32) = (   0.1875222   0.3750445   0.3530197), wk =   0.1280000
        k(   33) = (   0.1875222   0.3750445   0.7060395), wk =   0.1280000
        k(   34) = (   0.3750445   0.3750445   0.0000000), wk =   0.0320000
        k(   35) = (   0.3750445   0.3750445   0.3530197), wk =   0.0640000
        k(   36) = (   0.3750445   0.3750445   0.7060395), wk =   0.0640000

     Largest allocated arrays     est. size (Mb)     dimensions
     Largest temporary arrays     est. size (Mb)     dimensions

     Check: negative/imaginary core charge=   -0.000008    0.000000

     Initial potential from superposition of free atoms

     starting charge   51.99787, renormalised to   52.00000
     Starting wfc are   42 randomized atomic wfcs

     Self-consistent Calculation

[...]

     total energy              =    -407.37159035 Ry
     Harris-Foulkes estimate   =    -407.37159023 Ry
     estimated scf accuracy    <       0.00000009 Ry

[...]

     iteration # 10     ecut=    40.00 Ry     beta=0.70
     Davidson diagonalization with overlap
     ethr =  1.69E-10,  avg # of iterations =  2.0

     negative rho (up, down):  0.212E-04 0.213E-04

     End of self-consistent calculation

 ------ SPIN UP ------------

[...]

 ------ SPIN DOWN ----------

[...]

          k = 0.3750 0.3750 0.7060 (  1418 PWs)   bands (ev):

   -42.4317 -42.4303 -18.3650 -18.3594 -17.3600 -17.3467 -16.7540 -16.7495
    -1.5726  -1.1127  -0.6932  -0.1255   9.4004   9.8265  10.4016  10.7573
    11.4491  11.8607  12.2142  13.4691  13.6404  13.8042  15.2008  15.3172
    19.0253  19.1961  20.5571  21.0518  23.5995  23.7733  26.0106  27.2252
    27.7865  28.5365  29.2761  29.3995  32.8045  32.9700  34.9887  35.2069
    36.7647  37.2038  39.7429  40.0625  40.9627  41.2053  42.5253  42.9852
    46.0882  46.6995  46.8158  47.2662  48.7658  49.9216  50.1644  50.8703
    52.2986  52.8153  53.4296  53.4831  54.7701  55.1166  55.4793  56.3520
    56.4437  57.5889  57.9370  58.5515  59.0472  59.4967  60.6382  60.6439
    61.8864  62.9460  65.2648  65.9822  65.9837  67.2825

     the Fermi energy is    19.2393 ev

!    total energy              =    -407.37159059 Ry
     Harris-Foulkes estimate   =    -407.37159058 Ry
     estimated scf accuracy    <          7.1E-09 Ry

     The total energy is the sum of the following terms:

     one-electron contribution =     -70.12161902 Ry
     hartree contribution      =      75.43467502 Ry
     xc contribution           =     -69.20474584 Ry
     ewald contribution        =    -343.47960187 Ry
     smearing contrib. (-TS)   =      -0.00029888 Ry

     total magnetization       =     0.00 Bohr mag/cell
     absolute magnetization    =     0.00 Bohr mag/cell

     convergence has been achieved in  10 iterations

     Forces acting on atoms (Ry/au):

     negative rho (up, down):  0.212E-04 0.213E-04
     atom    1 type  1   force =     0.00000000    0.00000000    0.00000000
     atom    2 type  1   force =     0.00000000    0.00000000    0.00000000
     atom    3 type  2   force =    -0.00002205   -0.00002205    0.00000000
     atom    4 type  2   force =     0.00002205    0.00002205   -0.00000000
     atom    5 type  2   force =    -0.00002205    0.00002205    0.00000000
     atom    6 type  2   force =     0.00002205   -0.00002205   -0.00000000

     Total force =     0.000062     Total SCF correction =     0.000032
     SCF correction compared to forces is large: reduce conv_thr to get better values

     entering subroutine stress ...

     negative rho (up, down):  0.212E-04 0.213E-04
          total   stress  (Ry/bohr**3)                   (kbar)     P= 1502.55
   0.01022744   0.00000000   0.00000000       1504.51      0.00      0.00
   0.00000000   0.01022744   0.00000000          0.00   1504.51      0.00
   0.00000000   0.00000000   0.01018754          0.00      0.00   1498.64

     General routines

     Parallel routines

   This run was terminated on:  18:16:50  23Jan2014

   JOB DONE.
Running PBS batch system epilogue script
Job id: 251176.audhumbla.fysik.dtu.dk
Username: zhonxu
Groupname: campgst
Jobname: MoO2/coarse-EOS/MoO2-v-0.8
Sessionid: 27328
Queuename: verylong
Accounting:
This job has allocated the following 4 nodes:
q005 q005 q005 q005
Finished epilogue job 251176.audhumbla.fysik.dtu.dk for zhonxu