     Program PWSCF v.5.0.2 (svn rev. 9656) starts on 27Feb2014 at 20: 3:37

     Current dimensions of program PWSCF are:
     Max number of different atomic species (ntypx) = 10
     Max number of k-points (npk) =  40000
     Max angular momentum in pseudopotentials (lmaxx) =  3
     Reading input from slab-relax.in
Warning: card &CELL ignored
Warning: card / ignored

     Subspace diagonalization in iterative solution of the eigenvalue problem:
     a serial algorithm will be used

     Found symmetry operation: I + ( -0.5000  0.0000  0.0000)
     This is a supercell, fractional translations are disabled

     bravais-lattice index     =            0
     lattice parameter (alat)  =      12.0187  a.u.
     unit-cell volume          =    9939.8055 (a.u.)^3
     number of atoms/cell      =           48
     number of atomic types    =            2
     number of electrons       =       432.00
     number of Kohn-Sham states=          624
     kinetic-energy cutoff     =      40.0000  Ry
     charge density cutoff     =     500.0000  Ry
     convergence threshold     =      1.0E-06
     mixing beta               =       0.3000
     number of iterations used =            8  plain     mixing
     Exchange-correlation      = SLA  PW   PBE  PBE ( 1 4 3 4 0)
     EXX-fraction              =        0.00
     nstep                     =           50

     celldm(1)=  12.018658  celldm(2)=   0.000000  celldm(3)=   0.000000
     celldm(4)=   0.000000  celldm(5)=   0.000000  celldm(6)=   0.000000

     crystal axes: (cart. coord. in units of alat)
               a(1) = (   1.000000   0.000000   0.000000 )
               a(2) = (   0.000000   1.009517   0.000000 )
               a(3) = (   0.000000   0.000000   5.671477 )

     reciprocal axes: (cart. coord. in units 2 pi/alat)
               b(1) = (  1.000000  0.000000  0.000000 )
               b(2) = (  0.000000  0.990572  0.000000 )
               b(3) = (  0.000000  0.000000  0.176321 )

     PseudoPot. # 1 for O  read from file:
     /home/camp/zhonxu/pseudo/o_pbe_v1.01.uspp.F.UPF
     MD5 check sum: 2bcb18d16ea4b960afae9ec6d52f22d2
     Pseudo is Ultrasoft + core correction, Zval =  6.0
     Generated by new atomic code, or converted to UPF format
     Using radial grid of  737 points,  5 beta functions with:
                l(1) =   0
                l(2) =   0
                l(3) =   1
                l(4) =   1
                l(5) =   2
     Q(r) pseudized with  8 coefficients,  rinner =    0.900   0.900   0.900
                                                       0.900   0.900

     PseudoPot. # 2 for Ir read from file:
     /home/camp/zhonxu/pseudo/ir_pbe_v1.uspp.F.UPF
     MD5 check sum: abf987a9674477536ede83817f8f8b70
     Pseudo is Ultrasoft + core correction, Zval = 15.0
     Generated by new atomic code, or converted to UPF format
     Using radial grid of  983 points,  7 beta functions with:
                l(1) =   0
                l(2) =   0
                l(3) =   1
                l(4) =   1
                l(5) =   1
                l(6) =   2
                l(7) =   2
     Q(r) pseudized with  8 coefficients,  rinner =    1.350   1.350   1.350
                                                       1.350   1.350

     atomic species   valence    mass     pseudopotential
        O0             6.00    15.99940     O ( 1.00)
        Ir1           15.00   192.22000     Ir( 1.00)

      4 Sym. Ops. (no inversion) found

   Cartesian axes

     site n.     atom                  positions (alat units)
         1           O0  tau(   1) = (   0.0000000   0.5047586   1.8867871  )
         2           Ir1 tau(   2) = (   0.2500000   0.5047586   2.0785964  )
         3           Ir1 tau(   3) = (   0.0000000   0.0000000   2.0785964  )
         4           O0  tau(   4) = (   0.2500000   0.8177090   2.0785964  )
         5           O0  tau(   5) = (   0.2500000   0.1918083   2.0785964  )
         6           O0  tau(   6) = (   0.0000000   0.5047586   2.2704058  )
         7           O0  tau(   7) = (   0.0000000   0.0000000   2.3915485  )
         8           Ir1 tau(   8) = (   0.2500000   0.0000000   2.5833579  )
         9           Ir1 tau(   9) = (   0.0000000   0.5047586   2.5833579  )
        10           O0  tau(  10) = (   0.2500000   0.6965669   2.5833579  )
        11           O0  tau(  11) = (   0.2500000   0.3129503   2.5833579  )
        12           O0  tau(  12) = (   0.0000000   0.0000000   2.7751673  )
        13           O0  tau(  13) = (   0.0000000   0.5047586   2.8930773  )
        14           Ir1 tau(  14) = (   0.2500000   0.5047586   3.0864747  )
        15           Ir1 tau(  15) = (   0.0000000   0.0000000   3.0901611  )
        16           O0  tau(  16) = (   0.2500000   0.8161846   3.0894805  )
        17           O0  tau(  17) = (   0.2500000   0.1933326   3.0894805  )
        18           O0  tau(  18) = (   0.0000000   0.5047586   3.2780572  )
        19           O0  tau(  19) = (   0.0000000   0.0000000   3.4018655  )
        20           Ir1 tau(  20) = (   0.2500000   0.0000000   3.5996299  )
        21           Ir1 tau(  21) = (   0.0000000   0.5047586   3.5839199  )
        22           O0  tau(  22) = (   0.2500000   0.6968899   3.6045641  )
        23           O0  tau(  23) = (   0.2500000   0.3126273   3.6045641  )
        24           O0  tau(  24) = (   0.0000000   0.0000000   3.7852574  )
        25           O0  tau(  25) = (   0.5000000   0.5047586   1.8867871  )
        26           Ir1 tau(  26) = (   0.7500000   0.5047586   2.0785964  )
        27           Ir1 tau(  27) = (   0.5000000   0.0000000   2.0785964  )
        28           O0  tau(  28) = (   0.7500000   0.8177090   2.0785964  )
        29           O0  tau(  29) = (   0.7500000   0.1918083   2.0785964  )
        30           O0  tau(  30) = (   0.5000000   0.5047586   2.2704058  )
        31           O0  tau(  31) = (   0.5000000   0.0000000   2.3915485  )
        32           Ir1 tau(  32) = (   0.7500000   0.0000000   2.5833579  )
        33           Ir1 tau(  33) = (   0.5000000   0.5047586   2.5833579  )
        34           O0  tau(  34) = (   0.7500000   0.6965669   2.5833579  )
        35           O0  tau(  35) = (   0.7500000   0.3129503   2.5833579  )
        36           O0  tau(  36) = (   0.5000000   0.0000000   2.7751673  )
        37           O0  tau(  37) = (   0.5000000   0.5047586   2.8930773  )
        38           Ir1 tau(  38) = (   0.7500000   0.5047586   3.0864747  )
        39           Ir1 tau(  39) = (   0.5000000   0.0000000   3.0901611  )
        40           O0  tau(  40) = (   0.7500000   0.8161846   3.0894805  )
        41           O0  tau(  41) = (   0.7500000   0.1933326   3.0894805  )
        42           O0  tau(  42) = (   0.5000000   0.5047586   3.2780572  )
        43           O0  tau(  43) = (   0.5000000   0.0000000   3.4018655  )
        44           Ir1 tau(  44) = (   0.7500000   0.0000000   3.5996299  )
        45           Ir1 tau(  45) = (   0.5000000   0.5047586   3.5839199  )
        46           O0  tau(  46) = (   0.7500000   0.6968899   3.6045641  )
        47           O0  tau(  47) = (   0.7500000   0.3126273   3.6045641  )
        48           O0  tau(  48) = (   0.5000000   0.0000000   3.7852574  )

     number of k points=     9  Methfessel-Paxton smearing, width (Ry)=  0.0100
                       cart. coord. in units 2pi/alat
        k(    1) = (   0.0000000   0.0000000   0.0000000), wk =   0.1250000
        k(    2) = (   0.0000000   0.2476431   0.0000000), wk =   0.2500000
        k(    3) = (   0.0000000  -0.4952862   0.0000000), wk =   0.1250000
        k(    4) = (   0.2500000   0.0000000   0.0000000), wk =   0.2500000
        k(    5) = (   0.2500000   0.2476431   0.0000000), wk =   0.5000000
        k(    6) = (   0.2500000  -0.4952862   0.0000000), wk =   0.2500000
        k(    7) = (  -0.5000000   0.0000000   0.0000000), wk =   0.1250000
        k(    8) = (  -0.5000000   0.2476431   0.0000000), wk =   0.2500000
        k(    9) = (  -0.5000000  -0.4952862   0.0000000), wk =   0.1250000

     Largest allocated arrays     est. size (Mb)     dimensions
     Largest temporary arrays     est. size (Mb)     dimensions

     Check: negative/imaginary core charge=   -0.000003    0.000000

     Initial potential from superposition of free atoms
     Check: negative starting charge=   -6.667431

     starting charge  423.99945, renormalised to  432.00000

     negative rho (up, down):  0.679E+01 0.000E+00
     Starting wfc are  320 randomized atomic wfcs

     Self-consistent Calculation

     iteration #  1     ecut=    40.00 Ry     beta=0.30
     Davidson diagonalization with overlap
     ethr =  1.00E-02,  avg # of iterations =  8.6

     negative rho (up, down):  0.638E+01 0.000E+00

     total energy              =   -4001.72498390 Ry
     Harris-Foulkes estimate   =   -4019.22935321 Ry
     estimated scf accuracy    <      37.98339254 Ry

[...]

     total energy              =   -4009.65473910 Ry
     Harris-Foulkes estimate   =   -4009.65473931 Ry
     estimated scf accuracy    <       0.00000254 Ry

     iteration # 33     ecut=    40.00 Ry     beta=0.30
     Davidson diagonalization with overlap
     ethr =  3.85E-10,  avg # of iterations =  1.0

     negative rho (up, down):  0.625E+01 0.000E+00

     End of self-consistent calculation

          k = 0.0000 0.0000 0.0000 ( 42445 PWs)   bands (ev):

   -49.4715 -49.4610 -49.4533 -49.4441 -49.4335 -49.4335 -49.4235 -49.4152
   -49.4102 -49.4102 -49.4032 -49.4025 -49.4006 -49.3919 -49.3688 -49.3601
   -49.3572 -49.3530 -49.3472 -49.3312 -49.2661 -49.2576 -49.2511 -49.2424
   -49.2263 -49.2237 -49.1953 -49.1823 -49.1708 -49.1576 -49.1444 -49.1264
   -49.1231 -49.0803 -49.0505 -49.0495 -49.0444 -49.0435 -49.0399 -48.9772
   -48.9467 -48.9322 -48.8961 -48.8816 -48.7848 -48.7734 -48.7698 -48.7588
   -19.9998 -19.7373 -19.4676 -19.3940 -19.3322 -19.0707 -18.9327 -18.7735
   -18.6783 -18.6727 -18.6201 -18.6005 -18.5654 -18.5372 -18.5204 -18.4979
   -18.4807 -18.4377 -18.3943 -18.3402 -18.2676 -18.1990 -18.1365 -18.0841
   -17.9840 -17.9298 -17.8718 -17.8446 -16.8060 -16.7495 -16.6346 -16.5982
    -8.5667  -8.5367  -8.4528  -8.3826  -8.2547  -8.1243  -7.3755  -7.3166
    -7.0179  -7.0143  -6.9693  -6.9633  -6.9555  -6.9497  -6.9273  -6.8902
    -6.8321  -6.8163  -6.7905  -6.7844  -6.7242  -6.6870  -6.6851  -6.6462
    -6.5753  -6.5740  -6.5122  -6.3879  -6.3612  -6.2670  -6.2421  -6.2230
    -6.1532  -6.1171  -6.0210  -6.0069  -5.9877  -5.8529  -5.5074  -5.3453
    -5.2395  -4.8749  -4.7583  -4.6888  -4.6419  -4.5785  -4.5485  -4.5439
    -4.5415  -4.4430  -4.4359  -4.2614  -4.2477  -4.2196  -4.0928  -4.0440
    -4.0439  -4.0101  -3.8995  -3.8850  -3.6816  -3.6619  -3.5557  -3.5424
    -3.5224  -3.4626  -3.4191  -3.3711  -3.3536  -3.3326  -3.3147  -3.2951
    -3.2729  -3.1348  -3.1062  -3.0539  -2.9443  -2.9384  -2.8583  -2.6061
    -2.5439  -2.4468  -2.4077  -2.4005  -2.3433  -2.3172  -2.2726  -2.2025
    -2.1846  -2.1028  -1.9308  -1.8258  -1.6535  -1.5457  -1.4765  -1.4738
    -1.4600  -1.4106  -1.3911  -1.3857  -1.2439  -1.2216  -1.2001  -1.1923
[...]
     3.6807   3.9248   4.0629   4.1563   4.3727   4.6492   4.7017   4.8312
     4.9481   4.9886   5.0644   5.1500   5.1677   5.2564   5.4660   5.4903
     5.7856   5.9413   6.1867   6.4234   6.5514   7.0160   7.0961   7.8056
     7.8917   7.9264   8.3371   8.7183   8.8520   9.0283   9.1281   9.1320
     9.3064   9.3161   9.3620   9.5220   9.5605   9.6185   9.6554   9.8133
     9.9765   9.9877  10.0189  10.0519  10.0571  10.0683  10.0855  10.1074
    10.1090  10.1748  10.2028  10.2412  10.2476  10.3178  10.3318  10.3759
    10.4284  10.4815  10.4821  10.4833  10.4913  10.4919  10.5055  10.5060
    10.5140  10.5143  10.5451  10.5689  10.6654  10.6664  10.6753  10.7074
    10.7079  10.7288  10.8038  10.8048  10.8454  10.8465  10.9005  10.9915
    11.0255  11.0671  11.1306  11.1312  11.2342  11.2374  11.2742  11.5813
    11.6211  11.6488  11.9656  11.9765  12.1428  12.1587  12.1597  12.2019
    12.2270  12.2351  12.2410  12.2721  12.2963  12.3203  12.5320  12.6402
    12.7205  12.8437  12.9273  12.9914  12.9923  12.9942  12.9993  13.1176
    13.1456  13.2845  13.4209  13.4360  13.4695  13.5527  13.5818  13.6287
    13.6658  13.6867  13.7097  13.7111  13.7354  13.7521  13.7662  13.8225
    13.8449  13.8650  13.9264  13.9391  13.9929  14.0090  14.0492  14.1442
    14.1600  14.1623  14.1874  14.1992  14.2870  14.3115  14.5654  14.5679
    14.5692  14.6163  14.8278  14.8823  14.9634  14.9671  15.0227  15.0586
    15.0899  15.1396  15.1628  15.1763  15.2615  15.2913  15.4031  15.4650
    15.6381  15.6979  15.7126  15.7739  16.0577  16.1041  16.1152  16.2404
    16.2757  16.2923  16.3311  16.4349  16.4754  16.4917  16.5605  16.5855
    16.6569  16.6706  16.6897  16.6950  16.8299  16.8421  16.8949  17.1157
    17.2184  17.2233  17.3099  17.3330  17.4008  17.4301  17.4540  17.4586
    17.6238  17.6522  17.7506  17.7516  17.7948  17.8079  17.8378  17.9342
    17.9347  18.1473  18.1516  18.1905  18.4037  18.4108  18.5947  18.6218
    18.6801  18.6853  18.7049  18.9177  18.9811  19.0088  19.0311  19.0387
    19.0609  19.1644  19.2281  19.2974  19.3134  19.3144  19.5194  19.5373
    19.5427  19.6430  19.7192  19.8436  19.8564  19.8761  19.9332  20.0983
    20.1648  20.1780  20.1948  20.2626  20.3549  20.3553  20.4043  20.5654
[...]
    21.4941  21.5195  21.5251  21.5435  21.5549  21.5715  21.6147  21.7071
    21.7636  21.7793  21.7925  21.9666  22.0512  22.0746  22.1059  22.1592
    22.1606  22.1884  22.2163  22.3064  22.3235  22.3408  22.3571  22.3718
    22.3972  22.5105  22.5378  22.6445  22.6504  22.6973  22.7552  22.8171
    22.9773  22.9813  22.9917  22.9949  23.0269  23.0296  23.0306  23.0426
    23.0920  23.2585  23.3019  23.3211  23.3380  23.3855  23.5267  23.6103
    23.7469  23.7494  23.7588  23.7969  23.9027  23.9244  23.9287  23.9871
    24.0052  24.1008  24.1147  24.1343  24.1569  24.2064  24.2470  24.2681
    24.3396  24.4423  24.4522  24.4772  24.4968  24.5330  24.5951  24.6501
    24.6870  24.6912  24.7009  24.7115  24.7378  24.7533  24.8297  24.8365
    24.8856  24.8962  24.9173  24.9218  24.9347  24.9474  24.9800  25.0121
    25.0256  25.0450  25.0473  25.0538  25.1481  25.2188  25.2386  25.2569
    25.2606  25.2709  25.2819  25.3111  25.3683  25.4528  25.4848  25.5219
    25.5226  25.5536  25.6073  25.6294  25.6445  25.6449  25.6718  25.6788
    25.7015  25.7104  25.7759  25.7783  25.7980  25.8106  25.8278  25.9672

[...]

          k = 0.2500-0.4953 0.0000 ( 42460 PWs)   bands (ev):

[...]

          k =-0.5000 0.0000 0.0000 ( 42508 PWs)   bands (ev):

[...]

          k =-0.5000-0.4953 0.0000 ( 42596 PWs)   bands (ev):

   -49.4412 -49.4412 -49.4215 -49.4215 -49.4210 -49.4210 -49.4153 -49.4153
   -49.4067 -49.4067 -49.4050 -49.4050 -49.3979 -49.3979 -49.3898 -49.3898
   -49.3802 -49.3802 -49.3566 -49.3566 -49.2586 -49.2586 -49.2500 -49.2500
   -49.1898 -49.1898 -49.1767 -49.1767 -49.1738 -49.1738 -49.1650 -49.1650
   -49.0921 -49.0921 -49.0475 -49.0475 -49.0466 -49.0466 -49.0287 -49.0287
   -48.9395 -48.9395 -48.8889 -48.8889 -48.7776 -48.7776 -48.7665 -48.7665
   -19.2739 -19.2739 -19.1777 -19.1777 -18.9322 -18.9322 -18.8689 -18.8689
   -18.6688 -18.6688 -18.6465 -18.6465 -18.6035 -18.6035 -18.5589 -18.5589
   -18.5321 -18.5321 -18.4812 -18.4812 -18.4531 -18.4531 -18.3820 -18.3820
   -18.2301 -18.2301 -18.1317 -18.1317 -16.8663 -16.8663 -16.6982 -16.6982
    -7.6485  -7.6485  -7.5162  -7.5162  -6.9782  -6.9782  -6.8903  -6.8903
    -6.8812  -6.8812  -6.8551  -6.8551  -6.7490  -6.7490  -6.6785  -6.6785
    -6.5101  -6.5101  -6.4672  -6.4672  -6.4583  -6.4583  -6.4184  -6.4184
    -6.3450  -6.3450  -6.3087  -6.3087  -6.2905  -6.2905  -6.2637  -6.2637
    -6.0791  -6.0791  -6.0512  -6.0512  -5.9976  -5.9976  -5.9441  -5.9441
    -5.3598  -5.3598  -5.2603  -5.2603  -5.0141  -5.0141  -4.9969  -4.9969
    -4.7966  -4.7966  -4.7853  -4.7853  -4.6436  -4.6436  -4.6347  -4.6347
    -4.5616  -4.5616  -4.5500  -4.5500  -4.3445  -4.3445  -4.2897  -4.2897
    -4.1206  -4.1206  -4.0954  -4.0954  -4.0397  -4.0397  -4.0032  -4.0032
    -3.5780  -3.5780  -3.5672  -3.5672  -2.8933  -2.8933  -2.8734  -2.8734
    -2.6430  -2.6430  -2.6287  -2.6287  -2.3592  -2.3592  -2.3408  -2.3408
    -2.1728  -2.1728  -2.0790  -2.0790  -2.0168  -2.0168  -1.8573  -1.8573
    -1.1225  -1.1225  -1.0985  -1.0985  -0.7960  -0.7960  -0.7809  -0.7809
    -0.6958  -0.6958  -0.6795  -0.6795  -0.4148  -0.4148  -0.3963  -0.3963
    -0.0475  -0.0475  -0.0419  -0.0419   0.0359   0.0359   0.0839   0.0839
     0.3711   0.3711   0.3881   0.3881   0.5060   0.5060   0.5637   0.5637
     0.5822   0.5822   0.6816   0.6816   0.7787   0.7787   0.8024   0.8024
     0.9112   0.9112   0.9437   0.9437   0.9858   0.9858   1.0119   1.0119
     1.6619   1.6619   1.9775   1.9775   2.8196   2.8196   2.8510   2.8510
     3.0589   3.0589   3.0723   3.0723   3.2665   3.2665   3.2832   3.2832
     4.0689   4.0689   4.0759   4.0759   4.4075   4.4075   4.4362   4.4362
     4.9292   4.9292   4.9581   4.9581   5.2658   5.2658   5.2743   5.2743
     6.6641   6.6641   6.8837   6.8837   8.0284   8.0284   8.0716   8.0716
     8.2074   8.2074   8.2215   8.2215   8.4426   8.4426   8.4505   8.4505
     8.4880   8.4880   8.4974   8.4974   8.9057   8.9057   8.9264   8.9264
     9.0460   9.0460   9.0831   9.0831   9.5710   9.5710   9.6122   9.6122
     9.7525   9.7525   9.8000   9.8000  10.3433  10.3433  10.4016  10.4016
    10.4816  10.4816  10.4906  10.4906  10.5058  10.5058  10.5143  10.5143
    10.5723  10.5723  10.6364  10.6364  10.6664  10.6664  10.7075  10.7075
    10.8043  10.8043  10.8459  10.8459  11.1583  11.1583  11.1652  11.1652
    11.4552  11.4552  11.4780  11.4780  11.8211  11.8211  11.8287  11.8287
    11.9548  11.9548  11.9676  11.9676  12.1437  12.1437  12.1566  12.1566
    12.5216  12.5216  12.6098  12.6098  12.8657  12.8657  12.8699  12.8699
    13.3210  13.3210  13.4129  13.4129  13.6935  13.6935  13.7031  13.7031
    13.9474  13.9474  13.9580  13.9580  14.1552  14.1552  14.2643  14.2643
    14.3582  14.3582  14.3714  14.3714  14.6107  14.6107  14.6271  14.6271
    14.6492  14.6492  14.6711  14.6711  15.1070  15.1070  15.1841  15.1841
    15.2384  15.2384  15.2532  15.2532  15.3786  15.3786  15.4182  15.4182
    15.5011  15.5011  15.5141  15.5141  15.6160  15.6160  15.6187  15.6187
    15.7808  15.7808  15.7887  15.7887  15.8044  15.8044  15.8095  15.8095
    15.8952  15.8952  15.9204  15.9204  15.9641  15.9641  15.9862  15.9862
    16.0694  16.0694  16.0731  16.0731  16.2782  16.2782  16.3058  16.3058
    16.4819  16.4819  16.4895  16.4895  16.5845  16.5845  16.6089  16.6089
    16.7635  16.7635  16.7836  16.7836  16.8799  16.8799  16.8807  16.8807
    17.2180  17.2180  17.2305  17.2305  17.3909  17.3909  17.4013  17.4013
    17.5138  17.5138  17.5365  17.5365  17.7880  17.7880  17.8184  17.8184
    17.8707  17.8707  17.8869  17.8869  17.9864  17.9864  18.0260  18.0260
    18.0709  18.0709  18.0794  18.0794  18.4495  18.4495  18.4632  18.4632
    18.6563  18.6563  18.6819  18.6819  18.8878  18.8878  18.9022  18.9022
    19.0503  19.0503  19.0546  19.0546  19.3464  19.3464  19.3578  19.3578
[...]
    21.2839  21.2839  21.3000  21.3000  21.5378  21.5378  21.5630  21.5630
    21.6707  21.6707  21.6736  21.6736  21.7708  21.7708  21.7812  21.7812
    21.9816  21.9816  21.9969  21.9969  22.3273  22.3273  22.3550  22.3550
    22.6095  22.6095  22.6206  22.6206  22.7702  22.7702  22.7953  22.7953
    22.8677  22.8677  22.9034  22.9034  22.9523  22.9523  22.9762  22.9762
    23.0432  23.0432  23.0807  23.0807  23.2297  23.2297  23.2427  23.2427
    23.3082  23.3082  23.3156  23.3156  23.4042  23.4042  23.4390  23.4390
    23.5364  23.5364  23.5424  23.5424  23.8524  23.8524  23.8707  23.8707
    24.0412  24.0412  24.0683  24.0683  24.0942  24.0942  24.1064  24.1064
    24.1820  24.1820  24.2093  24.2093  24.3093  24.3093  24.3253  24.3253
    24.3800  24.3800  24.3813  24.3813  24.6497  24.6497  24.6622  24.6622
    24.8029  24.8029  24.8767  24.8767  25.0721  25.0721  25.1188  25.1188
    25.2044  25.2044  25.2215  25.2215  25.5301  25.5301  25.5537  25.5537
    25.6232  25.6232  25.6491  25.6491  25.7187  25.7187  25.7608  25.7608
    25.8566  25.8566  25.8594  25.8594  26.0981  26.0981  26.1294  26.1294

     the Fermi energy is     0.9624 ev

!    total energy              =   -4009.65473901 Ry
     Harris-Foulkes estimate   =   -4009.65473924 Ry
     estimated scf accuracy    <       0.00000043 Ry

     The total energy is the sum of the following terms:

     one-electron contribution =  -77727.40798583 Ry
     hartree contribution      =   38960.70820419 Ry
     xc contribution           =   -1104.33650917 Ry
     ewald contribution        =   35861.38152413 Ry
     smearing contrib. (-TS)   =       0.00002768 Ry

     convergence has been achieved in  33 iterations

     Forces acting on atoms (Ry/au):

     negative rho (up, down):  0.625E+01 0.000E+00
     atom    1 type  1   force =     0.00000000    0.00000000    0.02515225
     atom    2 type  2   force =     0.00000000    0.00000000   -0.03738670
     atom    3 type  2   force =     0.00000000    0.00000000    0.06797333
     atom    4 type  1   force =    -0.00000000   -0.01279536   -0.02628622
     atom    5 type  1   force =    -0.00000000    0.01279536   -0.02628622
     atom    6 type  1   force =     0.00000000    0.00000000    0.02018214
     atom    7 type  1   force =     0.00000000    0.00000000   -0.01732994
     atom    8 type  2   force =     0.00000000    0.00000000   -0.01143529
     atom    9 type  2   force =     0.00000000    0.00000000   -0.01798562
     atom   10 type  1   force =    -0.00000001    0.01137821   -0.00202115
     atom   11 type  1   force =    -0.00000001   -0.01137821   -0.00202115
     atom   12 type  1   force =     0.00000000    0.00000000    0.02719245
     atom   13 type  1   force =     0.00000000    0.00000000   -0.00091658
     atom   14 type  2   force =     0.00000000    0.00000000   -0.00050086
     atom   15 type  2   force =     0.00000000    0.00000000    0.00036054
     atom   16 type  1   force =     0.00000000   -0.00031203    0.00019054
     atom   17 type  1   force =     0.00000000    0.00031203    0.00019054
     atom   18 type  1   force =     0.00000000    0.00000000    0.00084272
     atom   19 type  1   force =     0.00000000    0.00000000    0.00009871
     atom   20 type  2   force =    -0.00000000    0.00000000   -0.00002858
     atom   21 type  2   force =     0.00000000    0.00000000    0.00037995
     atom   22 type  1   force =     0.00000000    0.00055996   -0.00001587
     atom   23 type  1   force =     0.00000000   -0.00055996   -0.00001587
     atom   24 type  1   force =     0.00000000    0.00000000   -0.00033310
     atom   25 type  1   force =     0.00000000    0.00000000    0.02515226
     atom   26 type  2   force =    -0.00000000    0.00000000   -0.03738670
     atom   27 type  2   force =     0.00000000    0.00000000    0.06797333
     atom   28 type  1   force =     0.00000000   -0.01279536   -0.02628622
     atom   29 type  1   force =     0.00000000    0.01279536   -0.02628622
     atom   30 type  1   force =     0.00000000    0.00000000    0.02018213
     atom   31 type  1   force =     0.00000000    0.00000000   -0.01732994
     atom   32 type  2   force =    -0.00000000    0.00000000   -0.01143529
     atom   33 type  2   force =     0.00000000    0.00000000   -0.01798562
     atom   34 type  1   force =     0.00000001    0.01137821   -0.00202115
     atom   35 type  1   force =     0.00000001   -0.01137821   -0.00202115
     atom   36 type  1   force =     0.00000000    0.00000000    0.02719246
     atom   37 type  1   force =     0.00000000    0.00000000   -0.00091658
     atom   38 type  2   force =    -0.00000000   -0.00000000   -0.00050086
     atom   39 type  2   force =     0.00000000    0.00000000    0.00036053
     atom   40 type  1   force =    -0.00000000   -0.00031203    0.00019054
     atom   41 type  1   force =    -0.00000000    0.00031203    0.00019054
     atom   42 type  1   force =     0.00000000    0.00000000    0.00084272
     atom   43 type  1   force =     0.00000000    0.00000000    0.00009870
     atom   44 type  2   force =     0.00000000    0.00000000   -0.00002858
     atom   45 type  2   force =     0.00000000    0.00000000    0.00037994
     atom   46 type  1   force =    -0.00000000    0.00055996   -0.00001587
     atom   47 type  1   force =    -0.00000000   -0.00055996   -0.00001587
     atom   48 type  1   force =     0.00000000    0.00000000   -0.00033309

     Total force =     0.002487     Total SCF correction =     0.001632
     SCF correction compared to forces is large: reduce conv_thr to get better values

     BFGS Geometry Optimization

     bfgs converged in   1 scf cycles and   0 bfgs steps
     (criteria: energy < 0.10E-03, force < 0.10E-02)

     End of BFGS Geometry Optimization

     Final energy   =   -4009.6547390066 Ry
Begin final coordinates

ATOMIC_POSITIONS (crystal)
O0       0.000000000   0.500000000   0.332680000    0   0   0
Ir1      0.250000000   0.500000000   0.366500000    0   0   0
Ir1      0.000000000   0.000000000   0.366500000    0   0   0
O0       0.250000000   0.810000000   0.366500000    0   0   0
O0       0.250000000   0.190000000   0.366500000    0   0   0
O0       0.000000000   0.500000000   0.400320000    0   0   0
O0       0.000000000   0.000000000   0.421680000    0   0   0
Ir1      0.250000000   0.000000000   0.455500000    0   0   0
Ir1      0.000000000   0.500000000   0.455500000    0   0   0
O0       0.250000000   0.690000000   0.455500000    0   0   0
O0       0.250000000   0.310000000   0.455500000    0   0   0
O0       0.000000000   0.000000000   0.489320000    0   0   0
O0       0.000000000   0.500000000   0.510110000
Ir1      0.250000000   0.500000000   0.544210000
Ir1      0.000000000   0.000000000   0.544860000
O0       0.250000000   0.808490000   0.544740000
O0       0.250000000   0.191510000   0.544740000
O0       0.000000000   0.500000000   0.577990000
O0       0.000000000   0.000000000   0.599820000
Ir1      0.250000000   0.000000000   0.634690000
Ir1      0.000000000   0.500000000   0.631920000
O0       0.250000000   0.690320000   0.635560000
O0       0.250000000   0.309680000   0.635560000
O0       0.000000000   0.000000000   0.667420000
O0       0.500000000   0.500000000   0.332680000    0   0   0
Ir1      0.750000000   0.500000000   0.366500000    0   0   0
Ir1      0.500000000   0.000000000   0.366500000    0   0   0
O0       0.750000000   0.810000000   0.366500000    0   0   0
O0       0.750000000   0.190000000   0.366500000    0   0   0
O0       0.500000000   0.500000000   0.400320000    0   0   0
O0       0.500000000   0.000000000   0.421680000    0   0   0
Ir1      0.750000000   0.000000000   0.455500000    0   0   0
Ir1      0.500000000   0.500000000   0.455500000    0   0   0
O0       0.750000000   0.690000000   0.455500000    0   0   0
O0       0.750000000   0.310000000   0.455500000    0   0   0
O0       0.500000000   0.000000000   0.489320000    0   0   0
O0       0.500000000   0.500000000   0.510110000
Ir1      0.750000000   0.500000000   0.544210000
Ir1      0.500000000   0.000000000   0.544860000
O0       0.750000000   0.808490000   0.544740000
O0       0.750000000   0.191510000   0.544740000
O0       0.500000000   0.500000000   0.577990000
O0       0.500000000   0.000000000   0.599820000
Ir1      0.750000000   0.000000000   0.634690000
Ir1      0.500000000   0.500000000   0.631920000
O0       0.750000000   0.690320000   0.635560000
O0       0.750000000   0.309680000   0.635560000
O0       0.500000000   0.000000000   0.667420000
End final coordinates

     General routines

     Parallel routines

   This run was terminated on:   1: 2:18  28Feb2014

   JOB DONE.