     Program PWSCF v.5.0.2 (svn rev. 9656) starts on  5May2014 at 19: 6:55

     Current dimensions of program PWSCF are:
     Max number of different atomic species (ntypx) = 10
     Max number of k-points (npk) =  40000
     Max angular momentum in pseudopotentials (lmaxx) =  3
     Reading input from pwscf.in
Warning: card &CELL ignored
Warning: card / ignored

     Subspace diagonalization in iterative solution of the eigenvalue problem:
     a serial algorithm will be used

     Found symmetry operation: I + ( -0.5000  0.0000  0.0000)
     This is a supercell, fractional translations are disabled

     bravais-lattice index     =            0
     lattice parameter (alat)  =      10.3179  a.u.
     unit-cell volume          =    6964.3238 (a.u.)^3
     number of atoms/cell      =           30
     number of atomic types    =            3
     number of electrons       =       224.00
     number of Kohn-Sham states=          336
     kinetic-energy cutoff     =      40.0000  Ry
     charge density cutoff     =     500.0000  Ry
     convergence threshold     =      1.0E-06
     mixing beta               =       0.7000
     number of iterations used =            8  plain     mixing
     Exchange-correlation      = SLA  PW   PBE  PBE ( 1 4 3 4 0)
     EXX-fraction              =        0.00
     nstep                     =           50

     celldm(1)=  10.317905  celldm(2)=   0.000000  celldm(3)=   0.000000
     celldm(4)=   0.000000  celldm(5)=   0.000000  celldm(6)=   0.000000

     crystal axes: (cart. coord. in units of alat)
               a(1) = (   1.000000   0.000000   0.000000 )
               a(2) = (   0.000000   1.282117   0.000000 )
               a(3) = (   0.000000   0.000000   4.945120 )

     reciprocal axes: (cart. coord. in units 2 pi/alat)
               b(1) = (  1.000000  0.000000  0.000000 )
               b(2) = (  0.000000  0.779960  0.000000 )
               b(3) = (  0.000000  0.000000  0.202220 )

     PseudoPot. # 1 for O  read from file:
     /home/camp/zhonxu/pseudo/o_pbe_v1.01.uspp.F.UPF
     MD5 check sum: 2bcb18d16ea4b960afae9ec6d52f22d2
     Pseudo is Ultrasoft + core correction, Zval =  6.0
     Generated by new atomic code, or converted to UPF format
     Using radial grid of  737 points,  5 beta functions with:
                l(1) =   0
                l(2) =   0
                l(3) =   1
                l(4) =   1
                l(5) =   2
     Q(r) pseudized with  8 coefficients,  rinner =    0.900   0.900   0.900
                                                       0.900   0.900

     PseudoPot. # 2 for Mo read from file:
     /home/camp/zhonxu/pseudo/mo_pbe_v1.uspp.F.UPF
     MD5 check sum: 30c4dcd161f5d35cd49bb5239c51a633
     Pseudo is Ultrasoft + core correction, Zval = 14.0
     Generated by new atomic code, or converted to UPF format
     Using radial grid of  889 points,  6 beta functions with:
                l(1) =   0
                l(2) =   0
                l(3) =   1
                l(4) =   1
                l(5) =   2
                l(6) =   2
     Q(r) pseudized with  6 coefficients,  rinner =    1.000   1.000   1.000
                                                       1.000   1.000

     PseudoPot. # 3 for H  read from file:
     /home/camp/zhonxu/pseudo/h_pbe_v1.uspp.F.UPF
     MD5 check sum: 3408e3ff4ec8b0a4e358431e7e038a48
     Pseudo is Ultrasoft, Zval =  1.0
     Generated by new atomic code, or converted to UPF format
     Using radial grid of  615 points,  2 beta functions with:
                l(1) =   0
                l(2) =   0
     Q(r) pseudized with  8 coefficients,  rinner =    0.700

     atomic species   valence    mass     pseudopotential
        O0             6.00    15.99940     O ( 1.00)
        Mo1           14.00    95.94000     Mo( 1.00)
        H2             1.00     1.00794     H ( 1.00)

     Simplified LDA+U calculation (l_max = 2) with parameters (eV):
     atomic species    L          U    alpha       J0     beta
        Mo1            2     6.0000   0.0000   0.0000   0.0000

     No symmetry found

   Cartesian axes

     site n.     atom                  positions (alat units)
         1           O0  tau(   1) = (   0.0000000   0.0000000   1.8465574  )
         2           O0  tau(   2) = (   0.0000000   0.6410583   1.8808271  )
         3           Mo1 tau(   3) = (   0.2500000   0.6410583   2.1650231  )
         4           Mo1 tau(   4) = (   0.0000000   0.0000000   2.2064633  )
         5           O0  tau(   5) = (   0.2500000   1.0000510   2.1927158  )
         6           O0  tau(   6) = (   0.2500000   0.2820657   2.1921224  )
         7           O0  tau(   7) = (   0.0000000   0.6410583   2.4520379  )
         8           O0  tau(   8) = (   0.0000000   0.0000000   2.5658746  )
         9           Mo1 tau(   9) = (   0.2500000   0.0000000   2.8596642  )
        10           Mo1 tau(  10) = (   0.0000000   0.6410583   2.7884050  )
        11           O0  tau(  11) = (   0.2500000   0.9231240   2.8369661  )
        12           O0  tau(  12) = (   0.2500000   0.3589927   2.8372628  )
        13           O0  tau(  13) = (   0.0000000   0.0000000   3.1104807  )
        14           O0  tau(  14) = (   0.5000000   0.0000000   1.8465574  )
        15           O0  tau(  15) = (   0.5000000   0.6410583   1.8808271  )
        16           Mo1 tau(  16) = (   0.7500000   0.6410583   2.1650231  )
        17           Mo1 tau(  17) = (   0.5000000   0.0000000   2.2064633  )
        18           O0  tau(  18) = (   0.7500000   1.0000510   2.1927158  )
        19           O0  tau(  19) = (   0.7500000   0.2820657   2.1921224  )
        20           O0  tau(  20) = (   0.5000000   0.6410583   2.4520379  )
        21           O0  tau(  21) = (   0.5000000   0.0000000   2.5658746  )
        22           Mo1 tau(  22) = (   0.7500000   0.0000000   2.8596642  )
        23           Mo1 tau(  23) = (   0.5000000   0.6410583   2.7884050  )
        24           O0  tau(  24) = (   0.7500000   0.9231240   2.8369661  )
        25           O0  tau(  25) = (   0.7500000   0.3589927   2.8372628  )
        26           O0  tau(  26) = (   0.5000000   0.0000000   3.1104807  )
        27           H2  tau(  27) = (  -0.0004900   0.7868222   1.7746059  )
        28           H2  tau(  28) = (   0.4995100   0.7868222   1.7746059  )
        29           H2  tau(  29) = (   0.1657500   0.0265270   1.7749026  )
        30           H2  tau(  30) = (   0.6657500   0.0265270   1.7749026  )

     number of k points=    10  Methfessel-Paxton smearing, width (Ry)=  0.0100
                       cart. coord. in units 2pi/alat
        k(    1) = (   0.0000000   0.0000000   0.0000000), wk =   0.1250000
        k(    2) = (   0.0000000   0.1949901   0.0000000), wk =   0.2500000
        k(    3) = (   0.0000000  -0.3899801   0.0000000), wk =   0.1250000
        k(    4) = (   0.2500000   0.0000000   0.0000000), wk =   0.2500000
        k(    5) = (   0.2500000   0.1949901   0.0000000), wk =   0.2500000
        k(    6) = (   0.2500000  -0.3899801   0.0000000), wk =   0.2500000
        k(    7) = (  -0.5000000   0.0000000   0.0000000), wk =   0.1250000
        k(    8) = (  -0.5000000   0.1949901   0.0000000), wk =   0.2500000
        k(    9) = (  -0.5000000  -0.3899801   0.0000000), wk =   0.1250000
        k(   10) = (  -0.2500000   0.1949901   0.0000000), wk =   0.2500000

     Largest allocated arrays     est. size (Mb)     dimensions
     Largest temporary arrays     est. size (Mb)     dimensions

     Check: negative/imaginary core charge=   -0.000003    0.000000

     Initial potential from superposition of free atoms
     Check: negative starting charge=   -0.002478

     starting charge  223.99143, renormalised to  224.00000

     negative rho (up, down):  0.248E-02 0.000E+00
     Number of +U iterations with fixed ns =  0
     Starting occupations:
 --- enter write_ns ---
 LDA+U parameters:
U( 2)     =  6.00000000
alpha( 2) =  0.00000000
atom    3   Tr[ns(na)] =   5.00000
    eigenvalues:
  0.500  0.500  0.500  0.500  0.500
    eigenvectors:
  1.000  0.000  0.000  0.000  0.000
  0.000  1.000  0.000  0.000  0.000
  0.000  0.000  1.000  0.000  0.000
  0.000  0.000  0.000  1.000  0.000
  0.000  0.000  0.000  0.000  1.000
    occupations:
  0.500  0.000  0.000  0.000  0.000
  0.000  0.500  0.000  0.000  0.000
  0.000  0.000  0.500  0.000  0.000
  0.000  0.000  0.000  0.500  0.000
  0.000  0.000  0.000  0.000  0.500
atom    4   Tr[ns(na)] =   5.00000
    eigenvalues:
  0.500  0.500  0.500  0.500  0.500
    eigenvectors:
  1.000  0.000  0.000  0.000  0.000
  0.000  1.000  0.000  0.000  0.000
  0.000  0.000  1.000  0.000  0.000
  0.000  0.000  0.000  1.000  0.000
  0.000  0.000  0.000  0.000  1.000
    occupations:
  0.500  0.000  0.000  0.000  0.000
  0.000  0.500  0.000  0.000  0.000
  0.000  0.000  0.500  0.000  0.000
  0.000  0.000  0.000  0.500  0.000
  0.000  0.000  0.000  0.000  0.500
atom    9   Tr[ns(na)] =   5.00000
    eigenvalues:
  0.500  0.500  0.500  0.500  0.500
    eigenvectors:
  1.000  0.000  0.000  0.000  0.000
  0.000  1.000  0.000  0.000  0.000
  0.000  0.000  1.000  0.000  0.000
  0.000  0.000  0.000  1.000  0.000
  0.000  0.000  0.000  0.000  1.000
    occupations:
  0.500  0.000  0.000  0.000  0.000
  0.000  0.500  0.000  0.000  0.000
  0.000  0.000  0.500  0.000  0.000
  0.000  0.000  0.000  0.500  0.000
  0.000  0.000  0.000  0.000  0.500
atom   10   Tr[ns(na)] =   5.00000
    eigenvalues:
  0.500  0.500  0.500  0.500  0.500
    eigenvectors:
  1.000  0.000  0.000  0.000  0.000
  0.000  1.000  0.000  0.000  0.000
  0.000  0.000  1.000  0.000  0.000
  0.000  0.000  0.000  1.000  0.000
  0.000  0.000  0.000  0.000  1.000
    occupations:
  0.500  0.000  0.000  0.000  0.000
  0.000  0.500  0.000  0.000  0.000
  0.000  0.000  0.500  0.000  0.000
  0.000  0.000  0.000  0.500  0.000
  0.000  0.000  0.000  0.000  0.500
atom   16   Tr[ns(na)] =   5.00000
    eigenvalues:
  0.500  0.500  0.500  0.500  0.500
    eigenvectors:
  1.000  0.000  0.000  0.000  0.000
  0.000  1.000  0.000  0.000  0.000
  0.000  0.000  1.000  0.000  0.000
  0.000  0.000  0.000  1.000  0.000
  0.000  0.000  0.000  0.000  1.000
    occupations:
  0.500  0.000  0.000  0.000  0.000
  0.000  0.500  0.000  0.000  0.000
  0.000  0.000  0.500  0.000  0.000
  0.000  0.000  0.000  0.500  0.000
  0.000  0.000  0.000  0.000  0.500
atom   17   Tr[ns(na)] =   5.00000
    eigenvalues:
  0.500  0.500  0.500  0.500  0.500
    eigenvectors:
  1.000  0.000  0.000  0.000  0.000
  0.000  1.000  0.000  0.000  0.000
  0.000  0.000  1.000  0.000  0.000
  0.000  0.000  0.000  1.000  0.000
  0.000  0.000  0.000  0.000  1.000
    occupations:
  0.500  0.000  0.000  0.000  0.000
  0.000  0.500  0.000  0.000  0.000
  0.000  0.000  0.500  0.000  0.000
  0.000  0.000  0.000  0.500  0.000
  0.000  0.000  0.000  0.000  0.500
atom   22   Tr[ns(na)] =   5.00000
    eigenvalues:
  0.500  0.500  0.500  0.500  0.500
    eigenvectors:
  1.000  0.000  0.000  0.000  0.000
  0.000  1.000  0.000  0.000  0.000
  0.000  0.000  1.000  0.000  0.000
  0.000  0.000  0.000  1.000  0.000
  0.000  0.000  0.000  0.000  1.000
    occupations:
[...]
  0.000  1.000  0.000  0.000  0.000
    occupations:
  0.587  0.006  0.002  0.004  0.000
  0.006  0.664  0.003 -0.004 -0.001
  0.002  0.003  0.368 -0.003  0.001
  0.004 -0.004 -0.003  0.768  0.000
  0.000 -0.001  0.001  0.000  0.522
atom    9   Tr[ns(na)] =   5.83849
    eigenvalues:
  0.464  0.490  0.600  0.604  0.761
    eigenvectors:
  0.000  0.000  0.216  0.000  0.784
  0.000  0.000  0.001  0.999  0.000
  0.000  1.000  0.000  0.000  0.000
  0.000  0.000  0.783  0.001  0.216
  1.000  0.000  0.000  0.000  0.000
    occupations:
  0.726  0.000  0.002 -0.066 -0.002
  0.000  0.604 -0.000  0.000 -0.001
  0.002 -0.000  0.490 -0.001  0.000
 -0.066  0.000 -0.001  0.634  0.001
 -0.002 -0.001  0.000  0.001  0.465
atom   10   Tr[ns(na)] =   5.77505
    eigenvalues:
  0.389  0.487  0.495  0.741  0.776
    eigenvectors:
  0.001  0.998  0.000  0.000  0.000
  0.000  0.000  0.000  1.000  0.000
  0.999  0.001  0.000  0.000  0.000
  0.000  0.000  0.000  0.000  1.000
  0.000  0.000  1.000  0.000  0.000
    occupations:
  0.487  0.000 -0.004 -0.004 -0.000
  0.000  0.741 -0.001 -0.000 -0.000
 -0.004 -0.001  0.389  0.000  0.000
 -0.004 -0.000  0.000  0.776  0.000
 -0.000 -0.000  0.000  0.000  0.495
atom   16   Tr[ns(na)] =   5.82190
    eigenvalues:
  0.395  0.491  0.567  0.679  0.778
    eigenvectors:
  0.011  0.000  0.303  0.000  0.686
  0.000  0.997  0.000  0.003  0.000
  0.989  0.000  0.001  0.000  0.010
  0.001  0.000  0.696  0.000  0.303
  0.000  0.003  0.000  0.997  0.000
    occupations:
  0.710 -0.000  0.035 -0.096  0.000
 -0.000  0.492 -0.000 -0.000 -0.010
  0.035 -0.000  0.399 -0.017  0.000
 -0.096 -0.000 -0.017  0.631 -0.000
  0.000 -0.010  0.000 -0.000  0.678
atom   17   Tr[ns(na)] =   5.81920
    eigenvalues:
  0.368  0.522  0.586  0.665  0.768
    eigenvectors:
  0.000  0.000  0.994  0.006  0.001
  0.000  0.000  0.006  0.993  0.001
  1.000  0.000  0.000  0.000  0.000
  0.000  0.000  0.001  0.001  0.998
  0.000  1.000  0.000  0.000  0.000
    occupations:
  0.587  0.006  0.002  0.004  0.000
  0.006  0.664  0.003 -0.004 -0.001
  0.002  0.003  0.368 -0.003  0.001
  0.004 -0.004 -0.003  0.768  0.000
  0.000 -0.001  0.001  0.000  0.522
atom   22   Tr[ns(na)] =   5.83851
    eigenvalues:
  0.464  0.490  0.600  0.604  0.761
    eigenvectors:
  0.000  0.000  0.216  0.000  0.784
  0.000  0.000  0.001  0.999  0.000
  0.000  1.000  0.000  0.000  0.000
  0.000  0.000  0.783  0.001  0.216
  1.000  0.000  0.000  0.000  0.000
    occupations:
  0.726  0.000  0.002 -0.066 -0.002
  0.000  0.604 -0.000  0.000 -0.001
  0.002 -0.000  0.490 -0.001  0.000
 -0.066  0.000 -0.001  0.634  0.001
 -0.002 -0.001  0.000  0.001  0.465
atom   23   Tr[ns(na)] =   5.77455
    eigenvalues:
  0.389  0.487  0.495  0.741  0.776
    eigenvectors:
  0.001  0.998  0.000  0.000  0.000
  0.000  0.000  0.000  1.000  0.000
  0.999  0.001  0.000  0.000  0.000
  0.000  0.000  0.000  0.000  1.000
  0.000  0.000  1.000  0.000  0.000
    occupations:
  0.487  0.000 -0.004 -0.004 -0.000
  0.000  0.741 -0.001 -0.000 -0.000
 -0.004 -0.001  0.389  0.000  0.000
 -0.004 -0.000  0.000  0.776  0.000
 -0.000 -0.000  0.000  0.000  0.495
N of occupied +U levels =  46.5087793
 --- exit write_ns ---

     Threshold (ethr) on eigenvalues was too large:
     Diagonalizing with lowered threshold

     Davidson diagonalization with overlap
     ethr =  6.62E-09,  avg # of iterations =  3.0

[...]

     total energy              =   -1696.11338378 Ry
     Harris-Foulkes estimate   =   -1696.11338378 Ry
     estimated scf accuracy    <       0.00000004 Ry

     iteration # 13     ecut=    40.00 Ry     beta=0.70
     Davidson diagonalization with overlap
     ethr =  1.69E-11,  avg # of iterations =  1.0

     negative rho (up, down):  0.354E-02 0.000E+00

     End of self-consistent calculation
 --- enter write_ns ---
 LDA+U parameters:
U( 2)     =  6.00000000
alpha( 2) =  0.00000000
atom    3   Tr[ns(na)] =   5.82166
    eigenvalues:
  0.395  0.491  0.567  0.679  0.778
    eigenvectors:
  0.011  0.000  0.303  0.000  0.686
  0.000  0.997  0.000  0.003  0.000
  0.989  0.000  0.001  0.000  0.010
  0.001  0.000  0.696  0.000  0.303
  0.000  0.003  0.000  0.997  0.000
    occupations:
  0.710  0.000  0.035 -0.096  0.000
  0.000  0.492 -0.000 -0.000 -0.010
  0.035 -0.000  0.399 -0.017 -0.000
 -0.096 -0.000 -0.017  0.631  0.000
  0.000 -0.010 -0.000  0.000  0.678
atom    4   Tr[ns(na)] =   5.81927
    eigenvalues:
  0.368  0.522  0.586  0.665  0.768
    eigenvectors:
  0.000  0.000  0.994  0.006  0.001
  0.000  0.000  0.006  0.993  0.001
  1.000  0.000  0.000  0.000  0.000
  0.000  0.000  0.001  0.001  0.998
  0.000  1.000  0.000  0.000  0.000
    occupations:
  0.587  0.006  0.002  0.005  0.000
  0.006  0.665  0.003 -0.004 -0.001
  0.002  0.003  0.368 -0.003  0.001
  0.005 -0.004 -0.003  0.768  0.000
  0.000 -0.001  0.001  0.000  0.522
atom    9   Tr[ns(na)] =   5.83874
    eigenvalues:
  0.464  0.491  0.600  0.604  0.761
    eigenvectors:
  0.000  0.000  0.216  0.000  0.784
  0.000  0.000  0.001  0.999  0.000
  0.000  1.000  0.000  0.000  0.000
  0.000  0.000  0.783  0.001  0.216
  1.000  0.000  0.000  0.000  0.000
    occupations:
  0.726  0.000  0.002 -0.066 -0.002
  0.000  0.604 -0.000  0.000 -0.001
  0.002 -0.000  0.491 -0.001  0.000
 -0.066  0.000 -0.001  0.634  0.001
 -0.002 -0.001  0.000  0.001  0.465
atom   10   Tr[ns(na)] =   5.77416
    eigenvalues:
  0.388  0.487  0.495  0.741  0.776
    eigenvectors:
  0.001  0.998  0.000  0.000  0.000
  0.000  0.000  0.000  1.000  0.000
  0.999  0.001  0.000  0.000  0.000
  0.000  0.000  0.000  0.000  1.000
  0.000  0.000  1.000  0.000  0.000
    occupations:
  0.487  0.000 -0.004 -0.004 -0.000
  0.000  0.741 -0.001 -0.000 -0.000
 -0.004 -0.001  0.389  0.000  0.000
 -0.004 -0.000  0.000  0.776  0.000
 -0.000 -0.000  0.000  0.000  0.495
atom   16   Tr[ns(na)] =   5.82162
    eigenvalues:
  0.395  0.491  0.567  0.679  0.778
    eigenvectors:
  0.011  0.000  0.303  0.000  0.686
  0.000  0.997  0.000  0.003  0.000
  0.989  0.000  0.001  0.000  0.010
  0.001  0.000  0.696  0.000  0.303
  0.000  0.003  0.000  0.997  0.000
    occupations:
  0.710 -0.000  0.035 -0.096  0.000
 -0.000  0.492 -0.000 -0.000 -0.010
  0.035 -0.000  0.399 -0.017  0.000
 -0.096 -0.000 -0.017  0.631 -0.000
  0.000 -0.010  0.000 -0.000  0.678
atom   17   Tr[ns(na)] =   5.81914
    eigenvalues:
  0.368  0.522  0.586  0.665  0.768
    eigenvectors:
  0.000  0.000  0.994  0.006  0.001
  0.000  0.000  0.006  0.993  0.001
  1.000  0.000  0.000  0.000  0.000
  0.000  0.000  0.001  0.001  0.998
  0.000  1.000  0.000  0.000  0.000
    occupations:
  0.587  0.006  0.002  0.005  0.000
  0.006  0.665  0.003 -0.004 -0.001
  0.002  0.003  0.368 -0.003  0.001
  0.005 -0.004 -0.003  0.768  0.000
  0.000 -0.001  0.001  0.000  0.522
atom   22   Tr[ns(na)] =   5.83876
    eigenvalues:
  0.464  0.491  0.600  0.604  0.760
    eigenvectors:
  0.000  0.000  0.216  0.000  0.784
  0.000  0.000  0.001  0.999  0.000
  0.000  1.000  0.000  0.000  0.000
  0.000  0.000  0.783  0.001  0.216
  1.000  0.000  0.000  0.000  0.000
    occupations:
  0.726  0.000  0.002 -0.066 -0.002
  0.000  0.604 -0.000  0.000 -0.001
  0.002 -0.000  0.491 -0.001  0.000
 -0.066  0.000 -0.001  0.634  0.001
 -0.002 -0.001  0.000  0.001  0.465
atom   23   Tr[ns(na)] =   5.77433
    eigenvalues:
  0.389  0.487  0.495  0.740  0.776
    eigenvectors:
  0.001  0.998  0.000  0.000  0.000
  0.000  0.000  0.000  1.000  0.000
  0.999  0.001  0.000  0.000  0.000
  0.000  0.000  0.000  0.000  1.000
  0.000  0.000  1.000  0.000  0.000
    occupations:
  0.487  0.000 -0.004 -0.004 -0.000
  0.000  0.740 -0.001 -0.000 -0.000
 -0.004 -0.001  0.389  0.000  0.000
 -0.004 -0.000  0.000  0.776  0.000
 -0.000 -0.000  0.000  0.000  0.495
N of occupied +U levels =  46.5076900
 --- exit write_ns ---

[...]

          k = 0.2500-0.3900 0.0000 ( 29726 PWs)   bands (ev):

[...]

          k =-0.2500 0.1950 0.0000 ( 29746 PWs)   bands (ev):

   -62.4349 -62.3463 -62.1244 -62.0447 -61.9483 -61.9360 -61.8689 -61.8554
   -36.9649 -36.9225 -36.8425 -36.6410 -36.5608 -36.3685 -36.3012 -36.2943
   -36.2356 -36.2343 -36.2294 -36.2220 -36.1904 -36.1770 -36.1766 -36.1567
   -36.1474 -36.1253 -36.0956 -36.0522 -36.0000 -35.5041 -35.4405 -35.4260
   -20.6332 -20.3546 -19.8535 -19.6686 -19.6078 -19.5282 -19.3761 -19.3741
   -19.2388 -19.1699 -19.0567 -18.9917 -18.8350 -18.8297 -18.6805 -18.4607
   -18.2740 -18.0882  -8.7179  -8.5531  -8.2226  -8.0420  -7.9012  -7.7743
    -7.7322  -7.5767  -7.5387  -7.4138  -7.1883  -7.1595  -6.9179  -6.8506
    -6.5902  -6.5174  -6.4201  -6.2644  -6.1427  -6.0492  -5.9135  -5.8976
    -5.7272  -5.6575  -5.3902  -5.3312  -5.2166  -5.0720  -4.9597  -4.8504
    -4.7709  -4.6512  -4.5492  -4.5245  -4.4611  -4.3645  -4.3117  -4.2830
    -4.1769  -4.0206  -3.9379  -3.8852  -3.8205  -3.7283  -3.5315  -3.4643
    -3.4193  -3.3264  -3.1624  -3.0227  -3.0214  -2.8018  -2.6546  -2.5006
    -2.3593  -2.1589  -1.8964  -1.0766  -0.8755  -0.8202  -0.4531   0.0475
     0.1667   0.4237   0.6877   0.8559   0.8763   1.0631   1.1812   1.2694
     1.3465   1.4868   1.5702   1.6362   1.7429   1.8943   2.0009   2.2503
     2.3176   2.6655   3.3610   3.4603   3.7466   3.7825   3.9414   4.1563
     4.3414   4.3956   4.4902   4.5987   4.6609   4.7303   4.9282   5.1405
     5.4994   5.6725   5.7585   5.8263   5.9313   6.1295   6.2970   6.3966
     6.5292   6.6341   6.9539   6.9846   7.0897   7.2911   7.5096   7.5990
     7.9127   7.9451   8.1723   8.2827   8.2947   8.4820   8.6462   8.6761
     8.8952   8.9883   9.0690   9.3126   9.3669   9.4215   9.5040   9.5544
     9.5667   9.6287   9.8191   9.9855  10.0367  10.1925  10.2606  10.2851
    10.4667  10.5048  10.6557  10.7374  10.7534  10.9892  11.0950  11.1057
    11.1092  11.2544  11.5619  11.6192  11.6235  11.7414  11.8103  11.9025
    11.9771  12.0868  12.2766  12.3048  12.3477  12.3534  12.4545  12.6432
    12.6550  12.7786  12.8897  12.8975  12.9610  13.0899  13.0985  13.2001
    13.3231  13.4360  13.4522  13.5143  13.5166  13.6594  13.6688  13.7334
    13.8516  13.8982  13.9914  13.9926  14.1470  14.1531  14.2354  14.3362
    14.4065  14.4463  14.4963  14.5489  14.6000  14.7363  14.8427  14.8537
    14.9674  15.0383  15.0666  15.2287  15.2973  15.3909  15.4833  15.5695
    15.6439  15.6660  15.7648  15.8385  15.9040  15.9654  16.0657  16.1146
    16.1890  16.2833  16.3145  16.3644  16.3824  16.4494  16.5912  16.7141
    16.7156  16.7667  16.7903  16.8981  17.0074  17.0970  17.1641  17.2309
    17.2336  17.3012  17.3381  17.4073  17.4945  17.6799  17.6931  17.8126
    17.9107  17.9114  18.0863  18.0891  18.1696  18.2615  18.3652  18.3931
    18.4435  18.4438  18.5552  18.5774  18.6197  18.8394  18.8886  19.0130
    19.0702  19.1239  19.1474  19.2817  19.3140  19.4940  19.5841  19.6120
    19.7174  19.7852  19.8233  19.9109  19.9632  20.0884  20.1528  20.1907
    20.2074  20.2527  20.3381  20.3876  20.3992  20.4209  20.5042  20.5319
    20.6559  20.6972  20.7473  20.8530  20.9224  20.9670  21.0536  21.0586
    21.1361  21.2229  21.2259  21.3186  21.4235  21.4834  21.5485  21.6348

     the Fermi energy is    -0.0081 ev

!    total energy              =   -1696.11338377 Ry
     Harris-Foulkes estimate   =   -1696.11338378 Ry
     estimated scf accuracy    <          7.7E-09 Ry

     The total energy is the sum of the following terms:

     one-electron contribution =  -21374.64855060 Ry
     hartree contribution      =   10709.72139227 Ry
     xc contribution           =    -286.68138690 Ry
     ewald contribution        =    9251.51519832 Ry
     Hubbard energy            =       3.98117231 Ry
     smearing contrib. (-TS)   =      -0.00120917 Ry

     convergence has been achieved in  13 iterations

     Forces acting on atoms (Ry/au):

     negative rho (up, down):  0.354E-02 0.000E+00
     atom    1 type  1   force =    -0.00105804   -0.00515564    0.00036123
     atom    2 type  1   force =    -0.00004653    0.00922310    0.00004845
     atom    3 type  2   force =    -0.00012892   -0.00592654    0.00024024
     atom    4 type  2   force =    -0.00083325    0.00300866    0.00040440
     atom    5 type  1   force =     0.00160054   -0.02314900    0.00011134
     atom    6 type  1   force =    -0.00017385    0.02050762    0.00001158
     atom    7 type  1   force =     0.00007679    0.00154735    0.00083056
     atom    8 type  1   force =     0.00344834    0.00052502    0.00004528
     atom    9 type  2   force =    -0.00207014   -0.00014843   -0.00048739
     atom   10 type  2   force =    -0.00001730    0.00052564    0.00058778
     atom   11 type  1   force =     0.00000550   -0.02140514   -0.00058026
     atom   12 type  1   force =     0.00010066    0.02048807   -0.00061646
     atom   13 type  1   force =    -0.00029907   -0.00003389   -0.00064694
     atom   14 type  1   force =    -0.00105727   -0.00515412    0.00037727
     atom   15 type  1   force =    -0.00003975    0.00922735    0.00005541
     atom   16 type  2   force =    -0.00019506   -0.00592997    0.00024140
     atom   17 type  2   force =    -0.00081795    0.00300868    0.00040179
     atom   18 type  1   force =     0.00158839   -0.02315362    0.00011079
     atom   19 type  1   force =    -0.00018495    0.02051627    0.00001000
     atom   20 type  1   force =     0.00008365    0.00154215    0.00085811
     atom   21 type  1   force =     0.00344682    0.00052448    0.00003389
     atom   22 type  2   force =    -0.00211177   -0.00014888   -0.00048204
     atom   23 type  2   force =    -0.00001757    0.00051425    0.00059235
     atom   24 type  1   force =    -0.00001655   -0.02140649   -0.00058024
     atom   25 type  1   force =     0.00007717    0.02048942   -0.00061559
     atom   26 type  1   force =    -0.00029416   -0.00003585   -0.00065116
     atom   27 type  3   force =     0.00000510    0.00015159    0.00022874
     atom   28 type  3   force =     0.00000510    0.00014505    0.00022508
     atom   29 type  3   force =    -0.00053769   -0.00014790   -0.00055638
     atom   30 type  3   force =    -0.00053825   -0.00014924   -0.00055924

     Total force =     0.002647     Total SCF correction =     0.000221

     bfgs converged in  11 scf cycles and  10 bfgs steps
     (criteria: energy < 0.10E-03, force < 0.10E-02)

     End of BFGS Geometry Optimization

     Final energy   =   -1696.1133837743 Ry
Begin final coordinates

ATOMIC_POSITIONS (crystal)
O0       0.000000000   0.000000000   0.372950504    0   0   1
O0       0.000000000   0.500000000   0.380060084    0   0   1
Mo1      0.250000000   0.500000000   0.437884549    0   0   1
Mo1      0.000000000   0.000000000   0.445051059    0   0   1
O0       0.250000000   0.780000000   0.443160290    0   0   1
O0       0.250000000   0.220000000   0.443140792    0   0   1
O0       0.000000000   0.500000000   0.496708639    0   0   1
O0       0.000000000   0.000000000   0.518765927    0   0   1
Mo1      0.250000000   0.000000000   0.577709920    0   0   1
Mo1      0.000000000   0.500000000   0.564711220    0   0   1
O0       0.250000000   0.720000000   0.574857129    0   0   1
O0       0.250000000   0.280000000   0.574970224    0   0   1
O0       0.000000000   0.000000000   0.628312838    0   0   1
O0       0.500000000   0.000000000   0.372947690    0   0   1
O0       0.500000000   0.500000000   0.380057909    0   0   1
Mo1      0.750000000   0.500000000   0.437884484    0   0   1
Mo1      0.500000000   0.000000000   0.445047793    0   0   1
O0       0.750000000   0.780000000   0.443159662    0   0   1
O0       0.750000000   0.220000000   0.443140821    0   0   1
O0       0.500000000   0.500000000   0.496714737    0   0   1
O0       0.500000000   0.000000000   0.518769404    0   0   1
Mo1      0.750000000   0.000000000   0.577710738    0   0   1
Mo1      0.500000000   0.500000000   0.564705880    0   0   1
O0       0.750000000   0.720000000   0.574857342    0   0   1
O0       0.750000000   0.280000000   0.574970302    0   0   1
O0       0.500000000   0.000000000   0.628314070    0   0   1
H2      -0.000455296   0.614009562   0.358728526
H2       0.499544508   0.614005295   0.358724892
H2       0.166461188   0.020553862   0.358531670
H2       0.666466078   0.020553122   0.358530903
End final coordinates

     General routines

     Parallel routines
     Hubbard U routines

   This run was terminated on:   4:20: 6   6May2014

   JOB DONE.
Running PBS batch system epilogue script
Job id: 340752.audhumbla.fysik.dtu.dk
Username: zhonxu
Groupname: campgst
Jobname: MoO2/Eads-2-layers/bare-U-6.0
Sessionid: 12925
Queuename: verylong
Accounting:
This job has allocated the following 16 nodes:
d080 d080 d080 d080 d080 d080 d080 d080 d079 d079 d079 d079 d079 d079 d079 d079
Finished epilogue job 340752.audhumbla.fysik.dtu.dk for zhonxu