     Program PWSCF v.5.0.2 (svn rev. 9656) starts on 29Apr2014 at  5:46:46

     Current dimensions of program PWSCF are:
     Max number of different atomic species (ntypx) = 10
     Max number of k-points (npk) =  40000
     Max angular momentum in pseudopotentials (lmaxx) =  3
     Reading input from pwscf.in
Warning: card &CELL ignored
Warning: card / ignored

     Subspace diagonalization in iterative solution of the eigenvalue problem:
     a serial algorithm will be used

     bravais-lattice index     =            0
     lattice parameter (alat)  =      12.0187  a.u.
     unit-cell volume          =    7280.5819 (a.u.)^3
     number of atoms/cell      =           32
     number of atomic types    =            3
     number of electrons       =       239.00
     number of Kohn-Sham states=          358
     kinetic-energy cutoff     =      40.0000  Ry
     charge density cutoff     =     500.0000  Ry
     convergence threshold     =      1.0E-06
     mixing beta               =       0.7000
     number of iterations used =            8  plain     mixing
     Exchange-correlation      = SLA  PW   PBE  PBE ( 1 4 3 4 0)
     EXX-fraction              =        0.00
     nstep                     =           50

     celldm(1)=  12.018658  celldm(2)=   0.000000  celldm(3)=   0.000000
     celldm(4)=   0.000000  celldm(5)=   0.000000  celldm(6)=   0.000000

     crystal axes: (cart. coord. in units of alat)
               a(1) = (   1.000000   0.000000   0.000000 )
               a(2) = (   0.000000   1.009517   0.000000 )
               a(3) = (   0.000000   0.000000   4.154171 )

     reciprocal axes: (cart. coord. in units 2 pi/alat)
               b(1) = (  1.000000  0.000000  0.000000 )
               b(2) = (  0.000000  0.990572  0.000000 )
               b(3) = (  0.000000  0.000000  0.240722 )

     PseudoPot. # 1 for O  read from file:
     /home/camp/zhonxu/pseudo/o_pbe_v1.01.uspp.F.UPF
     MD5 check sum: 2bcb18d16ea4b960afae9ec6d52f22d2
     Pseudo is Ultrasoft + core correction, Zval =  6.0
     Generated by new atomic code, or converted to UPF format
     Using radial grid of  737 points,  5 beta functions with:
                l(1) =   0
                l(2) =   0
                l(3) =   1
                l(4) =   1
                l(5) =   2
     Q(r) pseudized with  8 coefficients,  rinner =    0.900   0.900   0.900
                                                       0.900   0.900

     PseudoPot. # 2 for Ir read from file:
     /home/camp/zhonxu/pseudo/ir_pbe_v1.uspp.F.UPF
     MD5 check sum: abf987a9674477536ede83817f8f8b70
     Pseudo is Ultrasoft + core correction, Zval = 15.0
     Generated by new atomic code, or converted to UPF format
     Using radial grid of  983 points,  7 beta functions with:
                l(1) =   0
                l(2) =   0
                l(3) =   1
                l(4) =   1
                l(5) =   1
                l(6) =   2
                l(7) =   2
     Q(r) pseudized with  8 coefficients,  rinner =    1.350   1.350   1.350
                                                       1.350   1.350

     PseudoPot. # 3 for H  read from file:
     /home/camp/zhonxu/pseudo/h_pbe_v1.uspp.F.UPF
     MD5 check sum: 3408e3ff4ec8b0a4e358431e7e038a48
     Pseudo is Ultrasoft, Zval =  1.0
     Generated by new atomic code, or converted to UPF format
     Using radial grid of  615 points,  2 beta functions with:
                l(1) =   0
                l(2) =   0
     Q(r) pseudized with  8 coefficients,  rinner =    0.700

     atomic species   valence    mass     pseudopotential
        O0             6.00    15.99940     O ( 1.00)
        Ir1           15.00   192.22000     Ir( 1.00)
        H2             1.00     1.00794     H ( 1.00)

     Simplified LDA+U calculation (l_max = 2) with parameters (eV):
     atomic species    L          U    alpha       J0     beta
        Ir1            2     3.5000   0.0000   0.0000   0.0000

     No symmetry found

   Cartesian axes

     site n.     atom                  positions (alat units)
         1           O0  tau(   1) = (   0.0000000   0.0000000   1.5715230  )
         2           O0  tau(   2) = (   0.0000000   0.5047586   1.6723863  )
         3           Ir1 tau(   3) = (   0.2500000   0.5047586   1.8804272  )
         4           Ir1 tau(   4) = (   0.0000000   0.0000000   1.8823796  )
         5           O0  tau(   5) = (   0.2500000   0.8177090   1.8809672  )
         6           O0  tau(   6) = (   0.2500000   0.1918083   1.8797625  )
         7           O0  tau(   7) = (   0.0000000   0.5047586   2.0697743  )
         8           O0  tau(   8) = (   0.0000000   0.0000000   2.1967673  )
         9           Ir1 tau(   9) = (   0.2500000   0.0000000   2.3926365  )
        10           Ir1 tau(  10) = (   0.0000000   0.5047586   2.3747736  )
        11           O0  tau(  11) = (   0.2500000   0.6965669   2.3923873  )
        12           O0  tau(  12) = (   0.2500000   0.3129503   2.3927196  )
        13           O0  tau(  13) = (   0.0000000   0.0000000   2.5779541  )
        14           O0  tau(  14) = (   0.5000000   0.0000000   1.5704845  )
        15           O0  tau(  15) = (   0.5000000   0.5047586   1.6698107  )
        16           Ir1 tau(  16) = (   0.7500000   0.5047586   1.8805103  )
        17           Ir1 tau(  17) = (   0.5000000   0.0000000   1.8817565  )
        18           O0  tau(  18) = (   0.7500000   0.8177090   1.8810503  )
        19           O0  tau(  19) = (   0.7500000   0.1918083   1.8797625  )
        20           O0  tau(  20) = (   0.5000000   0.5047586   2.0748424  )
        21           O0  tau(  21) = (   0.5000000   0.0000000   2.1964350  )
        22           Ir1 tau(  22) = (   0.7500000   0.0000000   2.3925119  )
        23           Ir1 tau(  23) = (   0.5000000   0.5047586   2.3910995  )
        24           O0  tau(  24) = (   0.7500000   0.6965669   2.3896040  )
        25           O0  tau(  25) = (   0.7500000   0.3129503   2.3900194  )
        26           O0  tau(  26) = (   0.5000000   0.0000000   2.5760847  )
        27           H2  tau(  27) = (  -0.0000400   0.6399431   1.5942048  )
        28           H2  tau(  28) = (   0.5000100   0.6429817   1.5968219  )
        29           H2  tau(  29) = (   0.1437000   0.0339904   1.5235839  )
        30           H2  tau(  30) = (   0.6431700   0.0357369   1.5224622  )
        31           O0  tau(  31) = (   0.5156900   0.5047586   2.6944786  )
        32           H2  tau(  32) = (   0.3744100   0.5050918   2.7575805  )

     number of k points=    10  Methfessel-Paxton smearing, width (Ry)=  0.0100
                       cart. coord. in units 2pi/alat
        k(    1) = (   0.0000000   0.0000000   0.0000000), wk =   0.1250000
        k(    2) = (   0.0000000   0.2476431   0.0000000), wk =   0.2500000
        k(    3) = (   0.0000000  -0.4952862   0.0000000), wk =   0.1250000
        k(    4) = (   0.2500000   0.0000000   0.0000000), wk =   0.2500000
        k(    5) = (   0.2500000   0.2476431   0.0000000), wk =   0.2500000
        k(    6) = (   0.2500000  -0.4952862   0.0000000), wk =   0.2500000
        k(    7) = (  -0.5000000   0.0000000   0.0000000), wk =   0.1250000
        k(    8) = (  -0.5000000   0.2476431   0.0000000), wk =   0.2500000
        k(    9) = (  -0.5000000  -0.4952862   0.0000000), wk =   0.1250000
        k(   10) = (  -0.2500000   0.2476431   0.0000000), wk =   0.2500000

     Largest allocated arrays     est. size (Mb)     dimensions
     Largest temporary arrays     est. size (Mb)     dimensions

     Check: negative/imaginary core charge=   -0.000003    0.000000

     Initial potential from superposition of free atoms
     Check: negative starting charge=   -3.334647

     starting charge  234.99967, renormalised to  239.00000

     negative rho (up, down):  0.339E+01 0.000E+00
     Number of +U iterations with fixed ns =  0
     Starting occupations:
 --- enter write_ns ---
 LDA+U parameters:
U( 2)     =  3.50000000
alpha( 2) =  0.00000000
atom    3   Tr[ns(na)] =   7.00000
    eigenvalues:
  0.700  0.700  0.700  0.700  0.700
    eigenvectors:
  1.000  0.000  0.000  0.000  0.000
  0.000  1.000  0.000  0.000  0.000
  0.000  0.000  1.000  0.000  0.000
  0.000  0.000  0.000  1.000  0.000
  0.000  0.000  0.000  0.000  1.000
    occupations:
  0.700  0.000  0.000  0.000  0.000
  0.000  0.700  0.000  0.000  0.000
  0.000  0.000  0.700  0.000  0.000
  0.000  0.000  0.000  0.700  0.000
  0.000  0.000  0.000  0.000  0.700
atom    4   Tr[ns(na)] =   7.00000
    eigenvalues:
  0.700  0.700  0.700  0.700  0.700
    eigenvectors:
  1.000  0.000  0.000  0.000  0.000
  0.000  1.000  0.000  0.000  0.000
  0.000  0.000  1.000  0.000  0.000
  0.000  0.000  0.000  1.000  0.000
  0.000  0.000  0.000  0.000  1.000
    occupations:
  0.700  0.000  0.000  0.000  0.000
  0.000  0.700  0.000  0.000  0.000
  0.000  0.000  0.700  0.000  0.000
  0.000  0.000  0.000  0.700  0.000
  0.000  0.000  0.000  0.000  0.700
atom    9   Tr[ns(na)] =   7.00000
    eigenvalues:
  0.700  0.700  0.700  0.700  0.700
    eigenvectors:
  1.000  0.000  0.000  0.000  0.000
  0.000  1.000  0.000  0.000  0.000
  0.000  0.000  1.000  0.000  0.000
  0.000  0.000  0.000  1.000  0.000
  0.000  0.000  0.000  0.000  1.000
    occupations:
  0.700  0.000  0.000  0.000  0.000
  0.000  0.700  0.000  0.000  0.000
  0.000  0.000  0.700  0.000  0.000
  0.000  0.000  0.000  0.700  0.000
  0.000  0.000  0.000  0.000  0.700
atom   10   Tr[ns(na)] =   7.00000
    eigenvalues:
  0.700  0.700  0.700  0.700  0.700
    eigenvectors:
  1.000  0.000  0.000  0.000  0.000
  0.000  1.000  0.000  0.000  0.000
  0.000  0.000  1.000  0.000  0.000
  0.000  0.000  0.000  1.000  0.000
  0.000  0.000  0.000  0.000  1.000
    occupations:
  0.700  0.000  0.000  0.000  0.000
  0.000  0.700  0.000  0.000  0.000
  0.000  0.000  0.700  0.000  0.000
  0.000  0.000  0.000  0.700  0.000
  0.000  0.000  0.000  0.000  0.700
atom   16   Tr[ns(na)] =   7.00000
    eigenvalues:
  0.700  0.700  0.700  0.700  0.700
    eigenvectors:
  1.000  0.000  0.000  0.000  0.000
  0.000  1.000  0.000  0.000  0.000
  0.000  0.000  1.000  0.000  0.000
  0.000  0.000  0.000  1.000  0.000
  0.000  0.000  0.000  0.000  1.000
    occupations:
  0.700  0.000  0.000  0.000  0.000
  0.000  0.700  0.000  0.000  0.000
  0.000  0.000  0.700  0.000  0.000
  0.000  0.000  0.000  0.700  0.000
  0.000  0.000  0.000  0.000  0.700
atom   17   Tr[ns(na)] =   7.00000
    eigenvalues:
  0.700  0.700  0.700  0.700  0.700
    eigenvectors:
  1.000  0.000  0.000  0.000  0.000
  0.000  1.000  0.000  0.000  0.000
  0.000  0.000  1.000  0.000  0.000
  0.000  0.000  0.000  1.000  0.000
  0.000  0.000  0.000  0.000  1.000
    occupations:
  0.700  0.000  0.000  0.000  0.000
  0.000  0.700  0.000  0.000  0.000
  0.000  0.000  0.700  0.000  0.000
  0.000  0.000  0.000  0.700  0.000
  0.000  0.000  0.000  0.000  0.700
atom   22   Tr[ns(na)] =   7.00000
    eigenvalues:
  0.700  0.700  0.700  0.700  0.700
    eigenvectors:
  1.000  0.000  0.000  0.000  0.000
  0.000  1.000  0.000  0.000  0.000
  0.000  0.000  1.000  0.000  0.000
  0.000  0.000  0.000  1.000  0.000
[...]
  0.001  0.858  0.000  0.000  0.141
  0.000  0.000  0.001  0.999  0.000
    occupations:
  0.937 -0.000  0.000 -0.110 -0.000
 -0.000  0.652  0.000  0.000 -0.000
  0.000  0.000  0.857 -0.000 -0.001
 -0.110  0.000 -0.000  0.711  0.001
 -0.000 -0.000 -0.001  0.001  0.900
atom   10   Tr[ns(na)] =   8.10259
    eigenvalues:
  0.589  0.609  0.928  0.942  0.983
    eigenvectors:
  0.992  0.000  0.000  0.000  0.008
  0.000  0.000  1.000  0.000  0.000
  0.000  0.000  0.000  1.000  0.000
  0.008  0.000  0.000  0.000  0.992
  0.000  1.000  0.000  0.000  0.000
    occupations:
  0.593 -0.004  0.001  0.035 -0.000
 -0.004  0.928 -0.000  0.000 -0.000
  0.001 -0.000  0.942 -0.000  0.002
  0.035  0.000 -0.000  0.980 -0.000
 -0.000 -0.000  0.002 -0.000  0.609
atom   16   Tr[ns(na)] =   8.14494
    eigenvalues:
  0.604  0.632  0.892  0.965  0.980
    eigenvectors:
  0.003  0.182  0.003  0.001  0.812
  0.992  0.008  0.000  0.000  0.000
  0.000  0.000  0.977  0.020  0.003
  0.006  0.810  0.000  0.000  0.184
  0.000  0.000  0.020  0.979  0.002
    occupations:
  0.915  0.006  0.004 -0.135  0.001
  0.006  0.605  0.001 -0.000 -0.005
  0.004  0.001  0.894 -0.004 -0.010
 -0.135 -0.000 -0.004  0.696  0.000
  0.001 -0.005 -0.010  0.000  0.963
atom   17   Tr[ns(na)] =   8.12907
    eigenvalues:
  0.618  0.666  0.876  0.921  0.983
    eigenvectors:
  0.000  0.989  0.000  0.000  0.010
  0.000  0.000  0.083  0.917  0.000
  0.000  0.000  0.917  0.083  0.000
  0.000  0.010  0.000  0.000  0.990
  1.000  0.000  0.000  0.000  0.000
    occupations:
  0.669 -0.003 -0.001  0.032  0.001
 -0.003  0.917  0.012  0.000 -0.002
 -0.001  0.012  0.880 -0.000  0.000
  0.032  0.000 -0.000  0.980  0.000
  0.001 -0.002  0.000  0.000  0.618
atom   22   Tr[ns(na)] =   8.10810
    eigenvalues:
  0.653  0.667  0.850  0.902  0.982
    eigenvectors:
  0.000  0.140  0.000  0.000  0.860
  1.000  0.000  0.000  0.000  0.000
  0.000  0.000  1.000  0.000  0.000
  0.000  0.860  0.000  0.000  0.140
  0.000  0.000  0.000  1.000  0.000
    occupations:
  0.938  0.001 -0.000 -0.109 -0.000
  0.001  0.653  0.000 -0.000 -0.000
 -0.000  0.000  0.850 -0.000  0.001
 -0.109 -0.000 -0.000  0.711  0.001
 -0.000 -0.000  0.001  0.001  0.902
atom   23   Tr[ns(na)] =   8.11068
    eigenvalues:
  0.623  0.672  0.848  0.929  0.983
    eigenvectors:
  0.000  0.989  0.000  0.000  0.011
  0.000  0.000  0.000  0.999  0.000
  0.000  0.000  1.000  0.000  0.000
  0.000  0.011  0.000  0.000  0.989
  1.000  0.000  0.000  0.000  0.000
    occupations:
  0.675  0.006  0.000  0.032 -0.000
  0.006  0.929 -0.001 -0.000 -0.000
  0.000 -0.001  0.848  0.000 -0.001
  0.032 -0.000  0.000  0.980 -0.000
 -0.000 -0.000 -0.001 -0.000  0.623
N of occupied +U levels =  64.9826707
 --- exit write_ns ---

     Threshold (ethr) on eigenvalues was too large:
     Diagonalizing with lowered threshold

     Davidson diagonalization with overlap
     ethr =  2.55E-09,  avg # of iterations =  2.0

[...]

     total energy              =   -2106.07215738 Ry
     Harris-Foulkes estimate   =   -2106.07215739 Ry
     estimated scf accuracy    <       0.00000005 Ry

     iteration # 10     ecut=    40.00 Ry     beta=0.70
     Davidson diagonalization with overlap
     ethr =  1.92E-11,  avg # of iterations =  1.0

     negative rho (up, down):  0.313E+01 0.000E+00

     End of self-consistent calculation
 --- enter write_ns ---
 LDA+U parameters:
U( 2)     =  3.50000000
alpha( 2) =  0.00000000
atom    3   Tr[ns(na)] =   8.14511
    eigenvalues:
  0.604  0.631  0.892  0.965  0.980
    eigenvectors:
  0.002  0.182  0.003  0.000  0.812
  0.993  0.007  0.000  0.000  0.000
  0.000  0.000  0.973  0.024  0.003
  0.005  0.811  0.000  0.000  0.184
  0.000  0.000  0.023  0.975  0.001
    occupations:
  0.916 -0.006  0.004 -0.135 -0.002
 -0.006  0.604 -0.001  0.000 -0.005
  0.004 -0.001  0.894 -0.004  0.011
 -0.135  0.000 -0.004  0.695 -0.000
 -0.002 -0.005  0.011 -0.000  0.963
atom    4   Tr[ns(na)] =   8.12822
    eigenvalues:
  0.619  0.667  0.869  0.925  0.983
    eigenvectors:
  0.000  0.989  0.000  0.000  0.011
  0.000  0.000  0.040  0.960  0.000
  0.000  0.000  0.960  0.040  0.000
  0.000  0.011  0.000  0.000  0.989
  1.000  0.000  0.000  0.000  0.000
    occupations:
  0.670 -0.003 -0.000  0.032  0.001
 -0.003  0.923  0.011  0.000 -0.001
 -0.000  0.011  0.871 -0.000  0.001
  0.032  0.000 -0.000  0.980  0.000
  0.001 -0.001  0.001  0.000  0.619
atom    9   Tr[ns(na)] =   8.11309
    eigenvalues:
  0.652  0.666  0.856  0.900  0.982
    eigenvectors:
  0.000  0.141  0.000  0.000  0.859
  0.999  0.001  0.000  0.000  0.000
  0.000  0.000  0.999  0.001  0.000
  0.001  0.858  0.000  0.000  0.141
  0.000  0.000  0.001  0.999  0.000
    occupations:
  0.937 -0.000  0.000 -0.110 -0.000
 -0.000  0.652  0.000  0.000 -0.000
  0.000  0.000  0.856 -0.000 -0.001
 -0.110  0.000 -0.000  0.711  0.001
 -0.000 -0.000 -0.001  0.001  0.899
atom   10   Tr[ns(na)] =   8.10274
    eigenvalues:
  0.589  0.609  0.928  0.942  0.983
    eigenvectors:
  0.992  0.000  0.000  0.000  0.008
  0.000  0.000  1.000  0.000  0.000
  0.000  0.000  0.000  1.000  0.000
  0.008  0.000  0.000  0.000  0.992
  0.000  1.000  0.000  0.000  0.000
    occupations:
  0.593 -0.004  0.001  0.035 -0.000
 -0.004  0.928 -0.000  0.000 -0.000
  0.001 -0.000  0.942 -0.000  0.002
  0.035  0.000 -0.000  0.980 -0.000
 -0.000 -0.000  0.002 -0.000  0.609
atom   16   Tr[ns(na)] =   8.14479
    eigenvalues:
  0.604  0.632  0.892  0.965  0.980
    eigenvectors:
  0.003  0.182  0.003  0.001  0.812
  0.992  0.008  0.000  0.000  0.000
  0.000  0.000  0.977  0.020  0.003
  0.006  0.810  0.000  0.000  0.184
  0.000  0.000  0.019  0.979  0.002
    occupations:
  0.915  0.006  0.004 -0.135  0.001
  0.006  0.605  0.001 -0.000 -0.005
  0.004  0.001  0.894 -0.004 -0.010
 -0.135 -0.000 -0.004  0.696  0.000
  0.001 -0.005 -0.010  0.000  0.963
atom   17   Tr[ns(na)] =   8.12894
    eigenvalues:
  0.618  0.666  0.876  0.921  0.983
    eigenvectors:
  0.000  0.989  0.000  0.000  0.010
  0.000  0.000  0.083  0.917  0.000
  0.000  0.000  0.917  0.083  0.000
  0.000  0.010  0.000  0.000  0.990
  1.000  0.000  0.000  0.000  0.000
    occupations:
  0.669 -0.003 -0.001  0.032  0.001
 -0.003  0.917  0.012  0.000 -0.002
 -0.001  0.012  0.880 -0.000  0.000
  0.032  0.000 -0.000  0.980  0.000
  0.001 -0.002  0.000  0.000  0.618
atom   22   Tr[ns(na)] =   8.10797
    eigenvalues:
  0.653  0.667  0.850  0.902  0.982
    eigenvectors:
  0.000  0.140  0.000  0.000  0.860
  1.000  0.000  0.000  0.000  0.000
  0.000  0.000  1.000  0.000  0.000
  0.000  0.860  0.000  0.000  0.140
  0.000  0.000  0.000  1.000  0.000
    occupations:
  0.938  0.001 -0.000 -0.109 -0.000
  0.001  0.653  0.000 -0.000 -0.000
 -0.000  0.000  0.850 -0.000  0.001
 -0.109 -0.000 -0.000  0.711  0.001
 -0.000 -0.000  0.001  0.001  0.902
atom   23   Tr[ns(na)] =   8.11167
    eigenvalues:
  0.623  0.672  0.848  0.929  0.983
    eigenvectors:
  0.000  0.989  0.000  0.000  0.011
  0.000  0.000  0.000  0.999  0.000
  0.000  0.000  1.000  0.000  0.000
  0.000  0.011  0.000  0.000  0.989
  1.000  0.000  0.000  0.000  0.000
    occupations:
  0.675  0.006  0.000  0.032 -0.000
  0.006  0.929 -0.001 -0.000 -0.000
  0.000 -0.001  0.848  0.000 -0.001
  0.032 -0.000  0.000  0.980 -0.000
 -0.000 -0.000 -0.001 -0.000  0.623
N of occupied +U levels =  64.9825233
 --- exit write_ns ---

[...]

          k = 0.2500-0.4953 0.0000 ( 31088 PWs)   bands (ev):

[...]

          k =-0.2500 0.2476 0.0000 ( 31099 PWs)   bands (ev):

   -50.7977 -50.7456 -50.7329 -50.7199 -50.6411 -50.6363 -50.5970 -50.5891
   -50.5672 -50.5452 -50.5191 -50.5140 -50.5031 -50.4375 -50.3817 -50.3491
   -50.3425 -50.3384 -50.2729 -50.2707 -50.2393 -50.2222 -50.2072 -50.1299
   -21.4367 -21.1153 -21.0549 -21.0037 -20.6388 -20.5529 -20.4631 -20.4246
   -20.3305 -20.2166 -20.1395 -20.0694 -19.9213 -19.9087 -19.8487 -19.7689
   -19.5786 -18.8015 -18.6762 -10.1660 -10.0650  -9.9123  -9.6155  -9.2134
    -9.1856  -9.1524  -9.0244  -8.8215  -8.7583  -8.7408  -8.6979  -8.5884
    -8.5346  -8.2977  -8.2259  -8.0926  -7.9316  -7.6879  -7.5677  -7.4319
    -7.3643  -7.2515  -7.1879  -6.9444  -6.8468  -6.7529  -6.5734  -6.4544
    -6.3384  -6.2932  -6.2525  -6.1234  -6.0234  -5.9869  -5.9102  -5.8500
    -5.7070  -5.6379  -5.5039  -5.3255  -5.1790  -5.1083  -4.9297  -4.8261
    -4.6985  -4.6073  -4.5291  -4.3218  -4.2482  -4.1659  -3.9510  -3.7407
    -3.6788  -3.4845  -3.3663  -3.3074  -3.2066  -3.1295  -3.0538  -2.9887
    -2.9316  -2.8493  -2.7390  -2.7100  -2.6634  -2.6045  -2.4984  -2.3419
    -2.3149  -2.2140  -1.8345  -1.6428  -1.4533  -1.2534  -1.0406  -1.0241
    -0.9594  -0.7413  -0.6170  -0.3978   0.0044   1.0057   1.0343   1.3391
     1.6603   1.7943   2.2108   2.3545   2.7142   2.7604   2.8877   2.9733
     3.1748   3.3251   3.3868   3.7215   3.8465   4.3034   4.8339   5.2537
     5.4687   5.6291   5.7115   6.0063   6.2806   6.5449   6.6426   6.6648
     6.7374   6.9263   7.1279   7.2101   7.3764   7.4638   7.5848   7.6962
     7.9215   8.0372   8.1018   8.1586   8.2639   8.4761   8.5061   8.5739
     8.8051   8.8603   8.9115   8.9753   9.0935   9.1582   9.1864   9.2687
     9.3235   9.3418   9.3584   9.3637   9.4185   9.4324   9.5308   9.5356
     9.5738   9.6090   9.7293   9.7730   9.8337  10.0050  10.0870  10.1518
    10.2255  10.3410  10.3739  10.4584  10.5254  10.5518  10.6173  10.8127
    10.8374  10.9811  11.0027  11.1303  11.1657  11.2407  11.4029  11.5229
    11.5610  11.6673  11.7202  11.7858  11.8250  11.9660  12.1699  12.1986
    12.2441  12.3524  12.3791  12.4203  12.5553  12.6359  12.6554  12.7279
    12.7857  12.8322  12.9330  13.0000  13.0539  13.1686  13.2142  13.2549
    13.3122  13.4075  13.5071  13.6584  13.7016  13.8059  13.8986  13.9269
    14.0047  14.0666  14.1509  14.2308  14.3194  14.3980  14.4802  14.5291
    14.6999  14.7604  14.7795  14.9364  15.0496  15.1851  15.2356  15.3205
    15.4301  15.4703  15.5152  15.5949  15.6308  15.7566  15.7954  15.8680
    15.9154  15.9396  15.9883  16.0754  16.1353  16.1891  16.2338  16.3105
    16.3733  16.4067  16.4296  16.5232  16.5503  16.6565  16.7167  16.7544
    16.8079  16.8865  17.0867  17.1335  17.1646  17.2986  17.3345  17.4226
    17.4626  17.5368  17.5534  17.6116  17.6890  17.7061  17.7464  17.8441
    17.9216  17.9497  17.9879  18.1192  18.2121  18.2528  18.3014  18.3759
    18.4718  18.5951  18.6487  18.6869  18.7789  18.8566  18.8975  18.9716
    19.0334  19.0968  19.1529  19.2234  19.2887  19.3304  19.3916  19.5610
    19.5898  19.6349  19.7129  19.7609  19.8548  19.9517  20.0416  20.0737
    20.1244  20.2302  20.3768  20.3908  20.4758  20.5969  20.6433  20.7084
    20.7640  20.7874  20.9008  20.9255  20.9532  21.0139  21.0718  21.1533
    21.1982  21.3018  21.3159  21.3752  21.4358  21.4628  21.5100  21.5981
    21.6988  21.7459  21.8225  21.8467  21.8806  21.9757

     the Fermi energy is    -1.0376 ev

!    total energy              =   -2106.07215739 Ry
     Harris-Foulkes estimate   =   -2106.07215739 Ry
     estimated scf accuracy    <          3.7E-09 Ry

     The total energy is the sum of the following terms:

     one-electron contribution =  -22774.82959642 Ry
     hartree contribution      =   11432.25442051 Ry
     xc contribution           =    -577.19498415 Ry
     ewald contribution        =    9812.36013738 Ry
     Hubbard energy            =       1.33851791 Ry
     smearing contrib. (-TS)   =      -0.00065262 Ry

     convergence has been achieved in  10 iterations

     Forces acting on atoms (Ry/au):

     negative rho (up, down):  0.313E+01 0.000E+00
     atom    1 type  1   force =    -0.00694864   -0.01281692    0.00002690
     atom    2 type  1   force =     0.00033641    0.00356212   -0.00029514
     atom    3 type  2   force =     0.03186505    0.00764365    0.00010841
     atom    4 type  2   force =     0.00906358    0.00805191    0.00000548
     atom    5 type  1   force =    -0.00386882   -0.01594937   -0.00016183
     atom    6 type  1   force =     0.00545151    0.01348262   -0.00007407
     atom    7 type  1   force =     0.00166503   -0.00209506   -0.00018870
     atom    8 type  1   force =    -0.00251109   -0.00066782   -0.00011050
     atom    9 type  2   force =     0.00760265    0.00023077    0.00002723
     atom   10 type  2   force =    -0.00775386   -0.00123391   -0.00035393
     atom   11 type  1   force =    -0.00371945    0.01323426    0.00011179
     atom   12 type  1   force =    -0.00351018   -0.01312563    0.00009273
     atom   13 type  1   force =    -0.00123284   -0.00013157   -0.00001400
     atom   14 type  1   force =    -0.00791004   -0.01384277   -0.00002947
     atom   15 type  1   force =     0.00032064    0.00452715   -0.00028665
     atom   16 type  2   force =    -0.03271307    0.00673638    0.00006336
     atom   17 type  2   force =     0.00943169    0.00838101    0.00000108
     atom   18 type  1   force =    -0.00357010   -0.01553016   -0.00014552
     atom   19 type  1   force =     0.00462598    0.01444908   -0.00007235
     atom   20 type  1   force =    -0.00140966   -0.00533215    0.00078379
     atom   21 type  1   force =    -0.00405905   -0.00058987   -0.00002685
     atom   22 type  2   force =    -0.00489297    0.00054122   -0.00001842
     atom   23 type  2   force =     0.00291304   -0.00021457    0.00020984
     atom   24 type  1   force =     0.00512649    0.01710158   -0.00004026
     atom   25 type  1   force =     0.00590732   -0.01723110   -0.00004146
     atom   26 type  1   force =    -0.00086868   -0.00022003    0.00016071
     atom   27 type  3   force =    -0.00000525    0.00027490    0.00018051
     atom   28 type  3   force =     0.00002058    0.00040348    0.00039696
     atom   29 type  3   force =     0.00000292    0.00001031    0.00017727
     atom   30 type  3   force =    -0.00011906    0.00036105    0.00008343
     atom   31 type  1   force =     0.00039346   -0.00004525   -0.00026689
     atom   32 type  3   force =     0.00036643    0.00003470   -0.00030344

     Total force =     0.001482     Total SCF correction =     0.000119

     bfgs converged in   9 scf cycles and   8 bfgs steps
     (criteria: energy < 0.10E-03, force < 0.10E-02)

     End of BFGS Geometry Optimization

     Final energy   =   -2106.0721573857 Ry
Begin final coordinates

ATOMIC_POSITIONS (crystal)
O0       0.000000000   0.000000000   0.378629427    0   0   1
O0       0.000000000   0.500000000   0.403147004    0   0   1
Ir1      0.250000000   0.500000000   0.452905720    0   0   1
Ir1      0.000000000   0.000000000   0.453205145    0   0   1
O0       0.250000000   0.810000000   0.453018270    0   0   1
O0       0.250000000   0.190000000   0.452629301    0   0   1
O0       0.000000000   0.500000000   0.498955888    0   0   1
O0       0.000000000   0.000000000   0.528650337    0   0   1
Ir1      0.250000000   0.000000000   0.575557819    0   0   1
Ir1      0.000000000   0.500000000   0.571804971    0   0   1
O0       0.250000000   0.690000000   0.575474779    0   0   1
O0       0.250000000   0.310000000   0.575537106    0   0   1
O0       0.000000000   0.000000000   0.620164058    0   0   1
O0       0.500000000   0.000000000   0.378283413    0   0   1
O0       0.500000000   0.500000000   0.402391138    0   0   1
Ir1      0.750000000   0.500000000   0.452913291    0   0   1
Ir1      0.500000000   0.000000000   0.452966200    0   0   1
O0       0.750000000   0.810000000   0.453035114    0   0   1
O0       0.750000000   0.190000000   0.452613619    0   0   1
O0       0.500000000   0.500000000   0.499734865    0   0   1
O0       0.500000000   0.000000000   0.528616789    0   0   1
Ir1      0.750000000   0.000000000   0.575503159    0   0   1
Ir1      0.500000000   0.500000000   0.575077847    0   0   1
O0       0.750000000   0.690000000   0.574739836    0   0   1
O0       0.750000000   0.310000000   0.574832411    0   0   1
O0       0.500000000   0.000000000   0.619810863    0   0   1
H2      -0.000158480   0.632893268   0.384028527
H2       0.499936748   0.636426228   0.384755286
H2       0.143631814   0.033774436   0.367028470
H2       0.642907127   0.036258392   0.366695297
O0       0.516349597   0.499861947   0.647998581
H2       0.375761376   0.500384334   0.663575466
End final coordinates

     General routines

     Parallel routines
     Hubbard U routines

   This run was terminated on:  14:49:22  29Apr2014

   JOB DONE.
Running PBS batch system epilogue script
Job id: 340423.audhumbla.fysik.dtu.dk
Username: zhonxu
Groupname: campgst
Jobname: IrO2/Eads-2-layers/OH-U-3.5
Sessionid: 9457
Queuename: verylong
Accounting:
This job has allocated the following 16 nodes:
d105 d105 d105 d105 d105 d105 d105 d105 d082 d082 d082 d082 d082 d082 d082 d082
Finished epilogue job 340423.audhumbla.fysik.dtu.dk for zhonxu