     Program PWSCF v.5.0.2 (svn rev. 9656) starts on 23Jan2014 at 17:26:50

     Current dimensions of program PWSCF are:
     Max number of different atomic species (ntypx) = 10
     Max number of k-points (npk) =  40000
     Max angular momentum in pseudopotentials (lmaxx) =  3
     Reading input from RuO2-v-1.1.in

     Subspace diagonalization in iterative solution of the eigenvalue problem:
     a serial algorithm will be used

     bravais-lattice index     =            0
     lattice parameter (alat)  =       8.9385  a.u.
     unit-cell volume          =     460.2364 (a.u.)^3
     number of atoms/cell      =            6
     number of atomic types    =            2
     number of electrons       =        56.00
     number of Kohn-Sham states=           81
     kinetic-energy cutoff     =      40.0000  Ry
     charge density cutoff     =     500.0000  Ry
     convergence threshold     =      1.0E-06
     mixing beta               =       0.7000
     number of iterations used =            8  plain     mixing
     Exchange-correlation      = SLA  PW   PBE  PBE ( 1 4 3 4 0)
     EXX-fraction              =        0.00
     nstep                     =           50

     celldm(1)=   8.938511  celldm(2)=   0.000000  celldm(3)=   0.000000
     celldm(4)=   0.000000  celldm(5)=   0.000000  celldm(6)=   0.000000

     crystal axes: (cart. coord. in units of alat)
               a(1) = (   1.000000   0.000000   0.000000 )
               a(2) = (   0.000000   1.000000   0.000000 )
               a(3) = (   0.000000   0.000000   0.644444 )

     reciprocal axes: (cart. coord. in units 2 pi/alat)
               b(1) = (  1.000000  0.000000  0.000000 )
               b(2) = (  0.000000  1.000000  0.000000 )
               b(3) = (  0.000000  0.000000  1.551724 )

     PseudoPot. # 1 for Ru read from file:
     /home/camp/zhonxu/pseudo/ru_pbe_v1.uspp.F.UPF
     MD5 check sum: df00be1c11b23341d9806d8f1dfa10cf
     Pseudo is Ultrasoft + core correction, Zval = 16.0
     Generated by new atomic code, or converted to UPF format
     Using radial grid of  967 points,  6 beta functions with:
                l(1) =   0
                l(2) =   0
                l(3) =   1
                l(4) =   1
                l(5) =   2
                l(6) =   2
     Q(r) pseudized with  8 coefficients,  rinner =    1.300   1.300   1.300
                                                       1.300   1.300

     PseudoPot. # 2 for O  read from file:
     /home/camp/zhonxu/pseudo/o_pbe_v1.01.uspp.F.UPF
     MD5 check sum: 2bcb18d16ea4b960afae9ec6d52f22d2
     Pseudo is Ultrasoft + core correction, Zval =  6.0
     Generated by new atomic code, or converted to UPF format
     Using radial grid of  737 points,  5 beta functions with:
                l(1) =   0
                l(2) =   0
                l(3) =   1
                l(4) =   1
                l(5) =   2
     Q(r) pseudized with  8 coefficients,  rinner =    0.900   0.900   0.900
                                                       0.900   0.900

     atomic species   valence    mass     pseudopotential
        Ru0           16.00   101.07000     Ru( 1.00)
        O1             6.00    15.99940     O ( 1.00)

     Starting magnetic structure
     atomic species   magnetization
        Ru0          0.600
        O1           0.000

      8 Sym. Ops., with inversion, found
          (note:  8 additional sym.ops. were found but ignored
           their fractional translations are incommensurate with FFT grid)

   Cartesian axes

     site n.     atom                  positions (alat units)
         1           Ru0 tau(   1) = (   0.0000000   0.0000000   0.0000000  )
         2           Ru0 tau(   2) = (   0.5000000   0.5000000   0.3222222  )
         3           O1  tau(   3) = (   0.3050000   0.3050000   0.0000000  )
         4           O1  tau(   4) = (  -0.3050000  -0.3050000   0.0000000  )
         5           O1  tau(   5) = (   0.8050000   0.1950000   0.3222222  )
         6           O1  tau(   6) = (   0.1950000   0.8050000   0.3222222  )

     number of k points=    54  Methfessel-Paxton smearing, width (Ry)=  0.0100
                       cart. coord. in units 2pi/alat
        k(    1) = (   0.0000000   0.0000000   0.0000000), wk =   0.0080000
        k(    2) = (   0.0000000   0.0000000   0.3103448), wk =   0.0160000
        k(    3) = (   0.0000000   0.0000000   0.6206897), wk =   0.0160000
        k(    4) = (   0.0000000   0.2000000   0.0000000), wk =   0.0320000
        k(    5) = (   0.0000000   0.2000000   0.3103448), wk =   0.0640000
        k(    6) = (   0.0000000   0.2000000   0.6206897), wk =   0.0640000
        k(    7) = (   0.0000000   0.4000000   0.0000000), wk =   0.0320000
        k(    8) = (   0.0000000   0.4000000   0.3103448), wk =   0.0640000
        k(    9) = (   0.0000000   0.4000000   0.6206897), wk =   0.0640000
        k(   10) = (   0.2000000   0.2000000   0.0000000), wk =   0.0160000
        k(   11) = (   0.2000000   0.2000000   0.3103448), wk =   0.0320000
        k(   12) = (   0.2000000   0.2000000   0.6206897), wk =   0.0320000
        k(   13) = (   0.2000000   0.4000000   0.0000000), wk =   0.0320000
        k(   14) = (   0.2000000   0.4000000   0.3103448), wk =   0.0640000
        k(   15) = (   0.2000000   0.4000000   0.6206897), wk =   0.0640000
        k(   16) = (   0.4000000   0.4000000   0.0000000), wk =   0.0160000
        k(   17) = (   0.4000000   0.4000000   0.3103448), wk =   0.0320000
        k(   18) = (   0.4000000   0.4000000   0.6206897), wk =   0.0320000
        k(   19) = (  -0.2000000   0.2000000   0.0000000), wk =   0.0160000
        k(   20) = (  -0.2000000   0.2000000  -0.3103448), wk =   0.0320000
        k(   21) = (  -0.2000000   0.2000000  -0.6206897), wk =   0.0320000
        k(   22) = (  -0.2000000   0.4000000   0.0000000), wk =   0.0320000
        k(   23) = (  -0.2000000   0.4000000  -0.3103448), wk =   0.0640000
        k(   24) = (  -0.2000000   0.4000000  -0.6206897), wk =   0.0640000
        k(   25) = (  -0.4000000   0.4000000   0.0000000), wk =   0.0160000
        k(   26) = (  -0.4000000   0.4000000  -0.3103448), wk =   0.0320000
        k(   27) = (  -0.4000000   0.4000000  -0.6206897), wk =   0.0320000
        k(   28) = (   0.0000000   0.0000000   0.0000000), wk =   0.0080000
        k(   29) = (   0.0000000   0.0000000   0.3103448), wk =   0.0160000
        k(   30) = (   0.0000000   0.0000000   0.6206897), wk =   0.0160000
        k(   31) = (   0.0000000   0.2000000   0.0000000), wk =   0.0320000
        k(   32) = (   0.0000000   0.2000000   0.3103448), wk =   0.0640000
        k(   33) = (   0.0000000   0.2000000   0.6206897), wk =   0.0640000
        k(   34) = (   0.0000000   0.4000000   0.0000000), wk =   0.0320000
        k(   35) = (   0.0000000   0.4000000   0.3103448), wk =   0.0640000
        k(   36) = (   0.0000000   0.4000000   0.6206897), wk =   0.0640000
        k(   37) = (   0.2000000   0.2000000   0.0000000), wk =   0.0160000
        k(   38) = (   0.2000000   0.2000000   0.3103448), wk =   0.0320000
        k(   39) = (   0.2000000   0.2000000   0.6206897), wk =   0.0320000
        k(   40) = (   0.2000000   0.4000000   0.0000000), wk =   0.0320000
        k(   41) = (   0.2000000   0.4000000   0.3103448), wk =   0.0640000
        k(   42) = (   0.2000000   0.4000000   0.6206897), wk =   0.0640000
        k(   43) = (   0.4000000   0.4000000   0.0000000), wk =   0.0160000
        k(   44) = (   0.4000000   0.4000000   0.3103448), wk =   0.0320000
        k(   45) = (   0.4000000   0.4000000   0.6206897), wk =   0.0320000
        k(   46) = (  -0.2000000   0.2000000   0.0000000), wk =   0.0160000
        k(   47) = (  -0.2000000   0.2000000  -0.3103448), wk =   0.0320000
        k(   48) = (  -0.2000000   0.2000000  -0.6206897), wk =   0.0320000
        k(   49) = (  -0.2000000   0.4000000   0.0000000), wk =   0.0320000
        k(   50) = (  -0.2000000   0.4000000  -0.3103448), wk =   0.0640000
        k(   51) = (  -0.2000000   0.4000000  -0.6206897), wk =   0.0640000
        k(   52) = (  -0.4000000   0.4000000   0.0000000), wk =   0.0160000
        k(   53) = (  -0.4000000   0.4000000  -0.3103448), wk =   0.0320000
        k(   54) = (  -0.4000000   0.4000000  -0.6206897), wk =   0.0320000

     Largest allocated arrays     est. size (Mb)     dimensions
     Largest temporary arrays     est. size (Mb)     dimensions

     Check: negative/imaginary core charge=   -0.000008    0.000000

     Initial potential from superposition of free atoms
     Check: negative starting charge=(component1):   -0.103399
     Check: negative starting charge=(component2):   -0.025615

     starting charge   53.99996, renormalised to   56.00000

     negative rho (up, down):  0.107E+00 0.266E-01
     Starting wfc are   42 randomized atomic wfcs

     Self-consistent Calculation

     iteration #  1     ecut=    40.00 Ry     beta=0.70
     Davidson diagonalization with overlap
     ethr =  1.00E-02,  avg # of iterations =  5.2

     negative rho (up, down):  0.687E-01 0.871E-01

     total energy              =    -513.10548626 Ry
     Harris-Foulkes estimate   =    -515.23013061 Ry
     estimated scf accuracy    <       4.71089273 Ry

     total magnetization       =     8.00 Bohr mag/cell
     absolute magnetization    =     8.11 Bohr mag/cell

[...]

     End of self-consistent calculation

 ------ SPIN UP ------------

          k = 0.0000 0.0000 0.0000 (  1955 PWs)   bands (ev):

   -62.0896 -62.0858 -32.1752 -32.1739 -31.9974 -31.9957 -31.8797 -31.8658
    -8.1594  -7.2303  -6.5478  -6.5477   3.6933   3.7090   4.9385   5.2407
     5.2413   7.3589   7.3589   7.8359   8.9616   9.2472   9.2473   9.4791
     9.7179  10.2450  10.2792  10.2806  10.4477  12.3793  12.9358  15.5760
    15.5768  16.5142  17.0408  21.0789  21.0791  24.2658  25.1177  25.5184
    26.7535  28.0261  28.0262  28.7690  29.8806  31.5891  32.6211  32.6212
    33.7275  33.7277  34.9601  36.4510  36.7725  36.7728  37.6939  39.6631
    39.6654  39.7962  39.9646  41.0229  41.4363  41.4363  42.1490  42.1492
    42.7136  42.7136  43.1265  45.1484  46.2208  47.8370  47.8373  48.2191
    48.8581  49.1209  49.1211  49.8100  49.8147  49.9625  49.9627  50.1263
    51.1819

[...]

          k =-0.2000 0.2000 0.0000 (  1967 PWs)   bands (ev):

[...]

 ------ SPIN DOWN ----------

[...]

     the Fermi energy is    11.5332 ev

!    total energy              =    -515.57224998 Ry
     Harris-Foulkes estimate   =    -515.57224997 Ry
     estimated scf accuracy    <       0.00000022 Ry

     The total energy is the sum of the following terms:

     one-electron contribution =    -186.60263161 Ry
     hartree contribution      =     122.40156241 Ry
     xc contribution           =     -78.19309682 Ry
     ewald contribution        =    -373.17798269 Ry
     smearing contrib. (-TS)   =      -0.00010126 Ry

[...]

     convergence has been achieved in  13 iterations

     Forces acting on atoms (Ry/au):

     negative rho (up, down):  0.693E-01 0.736E-01
     atom    1 type  1   force =     0.00000000    0.00000000    0.00000000
     atom    2 type  1   force =     0.00000000    0.00000000    0.00000000
[...]
        k(   14) = (   0.2035597   0.4071220   0.2995804), wk =   0.0640000
        k(   15) = (   0.2035597   0.4071220   0.5991607), wk =   0.0640000
        k(   16) = (   0.4071211   0.4071211   0.0000000), wk =   0.0160000
        k(   17) = (   0.4071211   0.4071211   0.2995804), wk =   0.0320000
        k(   18) = (   0.4071211   0.4071211   0.5991607), wk =   0.0320000
        k(   19) = (  -0.2035624   0.2035624   0.0000000), wk =   0.0160000
        k(   20) = (  -0.2035624   0.2035624  -0.2995804), wk =   0.0320000
        k(   21) = (  -0.2035624   0.2035624  -0.5991607), wk =   0.0320000
        k(   22) = (  -0.2035633   0.4071238   0.0000000), wk =   0.0320000
        k(   23) = (  -0.2035633   0.4071238  -0.2995804), wk =   0.0640000
        k(   24) = (  -0.2035633   0.4071238  -0.5991607), wk =   0.0640000
        k(   25) = (  -0.4071247   0.4071247   0.0000000), wk =   0.0160000
        k(   26) = (  -0.4071247   0.4071247  -0.2995804), wk =   0.0320000
        k(   27) = (  -0.4071247   0.4071247  -0.5991607), wk =   0.0320000
        k(   28) = (   0.0000000   0.0000000   0.0000000), wk =   0.0080000
        k(   29) = (   0.0000000   0.0000000   0.2995804), wk =   0.0160000
        k(   30) = (   0.0000000   0.0000000   0.5991607), wk =   0.0160000
        k(   31) = (  -0.0000009   0.2035615   0.0000000), wk =   0.0320000
        k(   32) = (  -0.0000009   0.2035615   0.2995804), wk =   0.0640000
        k(   33) = (  -0.0000009   0.2035615   0.5991607), wk =   0.0640000
        k(   34) = (  -0.0000018   0.4071229   0.0000000), wk =   0.0320000
        k(   35) = (  -0.0000018   0.4071229   0.2995804), wk =   0.0640000
        k(   36) = (  -0.0000018   0.4071229   0.5991607), wk =   0.0640000
        k(   37) = (   0.2035606   0.2035606   0.0000000), wk =   0.0160000
        k(   38) = (   0.2035606   0.2035606   0.2995804), wk =   0.0320000
        k(   39) = (   0.2035606   0.2035606   0.5991607), wk =   0.0320000
        k(   40) = (   0.2035597   0.4071220   0.0000000), wk =   0.0320000
        k(   41) = (   0.2035597   0.4071220   0.2995804), wk =   0.0640000
        k(   42) = (   0.2035597   0.4071220   0.5991607), wk =   0.0640000
        k(   43) = (   0.4071211   0.4071211   0.0000000), wk =   0.0160000
        k(   44) = (   0.4071211   0.4071211   0.2995804), wk =   0.0320000
        k(   45) = (   0.4071211   0.4071211   0.5991607), wk =   0.0320000
        k(   46) = (  -0.2035624   0.2035624   0.0000000), wk =   0.0160000
        k(   47) = (  -0.2035624   0.2035624  -0.2995804), wk =   0.0320000
        k(   48) = (  -0.2035624   0.2035624  -0.5991607), wk =   0.0320000
        k(   49) = (  -0.2035633   0.4071238   0.0000000), wk =   0.0320000
        k(   50) = (  -0.2035633   0.4071238  -0.2995804), wk =   0.0640000
        k(   51) = (  -0.2035633   0.4071238  -0.5991607), wk =   0.0640000
        k(   52) = (  -0.4071247   0.4071247   0.0000000), wk =   0.0160000
        k(   53) = (  -0.4071247   0.4071247  -0.2995804), wk =   0.0320000
        k(   54) = (  -0.4071247   0.4071247  -0.5991607), wk =   0.0320000

     Check: negative/imaginary core charge=   -0.000007    0.000000
     Check: negative starting charge=(component1):   -0.129342

[...]

     Threshold (ethr) on eigenvalues was too large:
     Diagonalizing with lowered threshold

     Davidson diagonalization with overlap
     ethr =  2.53E-09,  avg # of iterations =  2.4

[...]

     Total force =     0.000024     Total SCF correction =     0.000007
     SCF correction compared to forces is large: reduce conv_thr to get better values

[...]

     Volume is kept fixed: isostatic pressure set to zero

     bfgs converged in   7 scf cycles and   6 bfgs steps
     (criteria: energy < 0.10E-03, force < 0.10E-02, cell < 0.50E+00)

     End of BFGS Geometry Optimization

     Final enthalpy =    -515.5792751844 Ry
Begin final coordinates
     new unit-cell volume =    460.23642 a.u.^3 (    68.20000 Ang^3 )

CELL_PARAMETERS (alat=  8.93851073)
   0.982504218   0.000004325   0.000000000
   0.000004325   0.982504218   0.000000000
   0.000000000   0.000000000   0.667600475

ATOMIC_POSITIONS (crystal)
Ru0      0.000000000   0.000000000   0.000000000    0   0   0
Ru0      0.500000000   0.500000000   0.500000000    0   0   0
O1       0.306556352   0.306556352   0.000000000    1   1   0
O1      -0.306556352  -0.306556352   0.000000000    1   1   0
O1       0.806556363   0.193443637   0.500000000    1   1   0
O1       0.193443637   0.806556363   0.500000000    1   1   0
End final coordinates

     A final scf calculation at the relaxed structure.
     The G-vectors are recalculated for the final unit cell
     Results may differ from those at the preceding step.

     bravais-lattice index     =            0
     lattice parameter (alat)  =       8.9385  a.u.
     unit-cell volume          =     460.2364 (a.u.)^3
     number of atoms/cell      =            6
     number of atomic types    =            2
     number of electrons       =        56.00
     number of Kohn-Sham states=           81
     kinetic-energy cutoff     =      40.0000  Ry
     charge density cutoff     =     500.0000  Ry
     convergence threshold     =      1.0E-08
     mixing beta               =       0.7000
     number of iterations used =            8  plain     mixing
     Exchange-correlation      = SLA  PW   PBE  PBE ( 1 4 3 4 0)
     EXX-fraction              =        0.00

     celldm(1)=   8.938511  celldm(2)=   0.000000  celldm(3)=   0.000000
     celldm(4)=   0.000000  celldm(5)=   0.000000  celldm(6)=   0.000000

     crystal axes: (cart. coord. in units of alat)
               a(1) = (   0.982504   0.000004   0.000000 )
               a(2) = (   0.000004   0.982504   0.000000 )
               a(3) = (   0.000000   0.000000   0.667600 )

     reciprocal axes: (cart. coord. in units 2 pi/alat)
               b(1) = (  1.017807 -0.000004  0.000000 )
               b(2) = ( -0.000004  1.017807  0.000000 )
               b(3) = (  0.000000  0.000000  1.497902 )

     PseudoPot. # 1 for Ru read from file:
     /home/camp/zhonxu/pseudo/ru_pbe_v1.uspp.F.UPF
     MD5 check sum: df00be1c11b23341d9806d8f1dfa10cf
     Pseudo is Ultrasoft + core correction, Zval = 16.0
     Generated by new atomic code, or converted to UPF format
     Using radial grid of  967 points,  6 beta functions with:
                l(1) =   0
                l(2) =   0
                l(3) =   1
                l(4) =   1
                l(5) =   2
                l(6) =   2
     Q(r) pseudized with  8 coefficients,  rinner =    1.300   1.300   1.300
                                                       1.300   1.300

     PseudoPot. # 2 for O  read from file:
     /home/camp/zhonxu/pseudo/o_pbe_v1.01.uspp.F.UPF
     MD5 check sum: 2bcb18d16ea4b960afae9ec6d52f22d2
     Pseudo is Ultrasoft + core correction, Zval =  6.0
     Generated by new atomic code, or converted to UPF format
     Using radial grid of  737 points,  5 beta functions with:
                l(1) =   0
                l(2) =   0
                l(3) =   1
                l(4) =   1
                l(5) =   2
     Q(r) pseudized with  8 coefficients,  rinner =    0.900   0.900   0.900
                                                       0.900   0.900

     atomic species   valence    mass     pseudopotential
        Ru0           16.00   101.07000     Ru( 1.00)
        O1             6.00    15.99940     O ( 1.00)

     Starting magnetic structure
     atomic species   magnetization
        Ru0          0.600
        O1           0.000

      8 Sym. Ops., with inversion, found
          (note:  8 additional sym.ops. were found but ignored
           their fractional translations are incommensurate with FFT grid)

   Cartesian axes

     site n.     atom                  positions (alat units)
         1           Ru0 tau(   1) = (   0.0000000   0.0000000   0.0000000  )
         2           Ru0 tau(   2) = (   0.4912543   0.4912543   0.3338002  )
         3           O1  tau(   3) = (   0.3011942   0.3011942   0.0000000  )
         4           O1  tau(   4) = (  -0.3011942  -0.3011942   0.0000000  )
         5           O1  tau(   5) = (   0.7924459   0.1900627   0.3338002  )
         6           O1  tau(   6) = (   0.1900627   0.7924459   0.3338002  )

     number of k points=    54  Methfessel-Paxton smearing, width (Ry)=  0.0100
                       cart. coord. in units 2pi/alat
        k(    1) = (   0.0000000   0.0000000   0.0000000), wk =   0.0080000
        k(    2) = (   0.0000000   0.0000000   0.2995804), wk =   0.0160000
        k(    3) = (   0.0000000   0.0000000   0.5991607), wk =   0.0160000
        k(    4) = (  -0.0000009   0.2035615   0.0000000), wk =   0.0320000
        k(    5) = (  -0.0000009   0.2035615   0.2995804), wk =   0.0640000
        k(    6) = (  -0.0000009   0.2035615   0.5991607), wk =   0.0640000
        k(    7) = (  -0.0000018   0.4071229   0.0000000), wk =   0.0320000
        k(    8) = (  -0.0000018   0.4071229   0.2995804), wk =   0.0640000
        k(    9) = (  -0.0000018   0.4071229   0.5991607), wk =   0.0640000
        k(   10) = (   0.2035606   0.2035606   0.0000000), wk =   0.0160000
        k(   11) = (   0.2035606   0.2035606   0.2995804), wk =   0.0320000
        k(   12) = (   0.2035606   0.2035606   0.5991607), wk =   0.0320000
        k(   13) = (   0.2035597   0.4071220   0.0000000), wk =   0.0320000
        k(   14) = (   0.2035597   0.4071220   0.2995804), wk =   0.0640000
        k(   15) = (   0.2035597   0.4071220   0.5991607), wk =   0.0640000
        k(   16) = (   0.4071211   0.4071211   0.0000000), wk =   0.0160000
        k(   17) = (   0.4071211   0.4071211   0.2995804), wk =   0.0320000
        k(   18) = (   0.4071211   0.4071211   0.5991607), wk =   0.0320000
        k(   19) = (  -0.2035624   0.2035624   0.0000000), wk =   0.0160000
        k(   20) = (  -0.2035624   0.2035624  -0.2995804), wk =   0.0320000
        k(   21) = (  -0.2035624   0.2035624  -0.5991607), wk =   0.0320000
        k(   22) = (  -0.2035633   0.4071238   0.0000000), wk =   0.0320000
        k(   23) = (  -0.2035633   0.4071238  -0.2995804), wk =   0.0640000
        k(   24) = (  -0.2035633   0.4071238  -0.5991607), wk =   0.0640000
        k(   25) = (  -0.4071247   0.4071247   0.0000000), wk =   0.0160000
        k(   26) = (  -0.4071247   0.4071247  -0.2995804), wk =   0.0320000
        k(   27) = (  -0.4071247   0.4071247  -0.5991607), wk =   0.0320000
        k(   28) = (   0.0000000   0.0000000   0.0000000), wk =   0.0080000
        k(   29) = (   0.0000000   0.0000000   0.2995804), wk =   0.0160000
        k(   30) = (   0.0000000   0.0000000   0.5991607), wk =   0.0160000
        k(   31) = (  -0.0000009   0.2035615   0.0000000), wk =   0.0320000
        k(   32) = (  -0.0000009   0.2035615   0.2995804), wk =   0.0640000
        k(   33) = (  -0.0000009   0.2035615   0.5991607), wk =   0.0640000
        k(   34) = (  -0.0000018   0.4071229   0.0000000), wk =   0.0320000
        k(   35) = (  -0.0000018   0.4071229   0.2995804), wk =   0.0640000
        k(   36) = (  -0.0000018   0.4071229   0.5991607), wk =   0.0640000
        k(   37) = (   0.2035606   0.2035606   0.0000000), wk =   0.0160000
        k(   38) = (   0.2035606   0.2035606   0.2995804), wk =   0.0320000
        k(   39) = (   0.2035606   0.2035606   0.5991607), wk =   0.0320000
        k(   40) = (   0.2035597   0.4071220   0.0000000), wk =   0.0320000
        k(   41) = (   0.2035597   0.4071220   0.2995804), wk =   0.0640000
        k(   42) = (   0.2035597   0.4071220   0.5991607), wk =   0.0640000
        k(   43) = (   0.4071211   0.4071211   0.0000000), wk =   0.0160000
        k(   44) = (   0.4071211   0.4071211   0.2995804), wk =   0.0320000
        k(   45) = (   0.4071211   0.4071211   0.5991607), wk =   0.0320000
        k(   46) = (  -0.2035624   0.2035624   0.0000000), wk =   0.0160000
        k(   47) = (  -0.2035624   0.2035624  -0.2995804), wk =   0.0320000
        k(   48) = (  -0.2035624   0.2035624  -0.5991607), wk =   0.0320000
        k(   49) = (  -0.2035633   0.4071238   0.0000000), wk =   0.0320000
        k(   50) = (  -0.2035633   0.4071238  -0.2995804), wk =   0.0640000
        k(   51) = (  -0.2035633   0.4071238  -0.5991607), wk =   0.0640000
        k(   52) = (  -0.4071247   0.4071247   0.0000000), wk =   0.0160000
        k(   53) = (  -0.4071247   0.4071247  -0.2995804), wk =   0.0320000
        k(   54) = (  -0.4071247   0.4071247  -0.5991607), wk =   0.0320000

     Largest allocated arrays     est. size (Mb)     dimensions
     Largest temporary arrays     est. size (Mb)     dimensions

     Check: negative/imaginary core charge=   -0.000008    0.000000

     Initial potential from superposition of free atoms
     Check: negative starting charge=(component1):   -0.103656
     Check: negative starting charge=(component2):   -0.025685

     starting charge   53.99996, renormalised to   56.00000

     negative rho (up, down):  0.107E+00 0.266E-01
     Starting wfc are   42 randomized atomic wfcs

     Self-consistent Calculation

[...]

     total energy              =    -515.57947149 Ry
     Harris-Foulkes estimate   =    -515.57947150 Ry
     estimated scf accuracy    <       0.00000001 Ry

[...]

     iteration # 19     ecut=    40.00 Ry     beta=0.70
     Davidson diagonalization with overlap
     ethr =  2.39E-11,  avg # of iterations =  1.0

     negative rho (up, down):  0.719E-01 0.719E-01

     End of self-consistent calculation

 ------ SPIN UP ------------

[...]

 ------ SPIN DOWN ----------

[...]

          k = 0.4071 0.4071 0.5992 (  1988 PWs)   bands (ev):

[...]

          k =-0.4071 0.4071-0.5992 (  1988 PWs)   bands (ev):

   -61.9857 -61.9855 -32.1612 -32.1609 -31.9106 -31.9099 -31.7845 -31.7844
    -7.0781  -6.9956  -6.9103  -6.8338   4.8724   4.9735   5.1338   5.1939
     5.8044   6.1098   7.0213   7.1127   7.9660   8.1441   8.8109   9.0529
    10.6134  10.9707  11.0301  11.1380  11.5477  11.9752  13.7006  14.3010
    14.6973  15.2699  21.3552  21.7384  22.8506  23.4088  23.9917  24.3076
    25.1957  25.6126  28.3843  28.4814  29.8964  30.3826  32.0273  32.8220
    33.6274  33.8348  34.0702  35.0894  37.6593  37.7461  38.3568  38.8262
    39.9912  40.4216  41.1238  42.1659  42.2346  42.9973  43.1635  43.9061
    43.9831  44.1621  44.7231  45.2811  45.9680  46.5158  46.9084  47.9356
    48.4733  48.5639  48.7666  49.2583  49.6690  50.6108  51.1952  51.7204
    53.3505

     the Fermi energy is    11.4505 ev

!    total energy              =    -515.57947149 Ry
     Harris-Foulkes estimate   =    -515.57947150 Ry
     estimated scf accuracy    <          1.8E-09 Ry

     The total energy is the sum of the following terms:

     one-electron contribution =    -182.87571998 Ry
     hartree contribution      =     120.56646217 Ry
     xc contribution           =     -78.14852788 Ry
     ewald contribution        =    -375.12097600 Ry
     smearing contrib. (-TS)   =      -0.00070980 Ry

     total magnetization       =     0.00 Bohr mag/cell
     absolute magnetization    =     0.00 Bohr mag/cell

     convergence has been achieved in  19 iterations

     Forces acting on atoms (Ry/au):

     negative rho (up, down):  0.719E-01 0.719E-01
     atom    1 type  1   force =     0.00000000    0.00000000    0.00000000
     atom    2 type  1   force =     0.00000000    0.00000000    0.00000000
     atom    3 type  2   force =     0.00018080    0.00018080    0.00000000
     atom    4 type  2   force =    -0.00018080   -0.00018080    0.00000000
     atom    5 type  2   force =     0.00016959   -0.00016959    0.00000000
     atom    6 type  2   force =    -0.00016959    0.00016959    0.00000000

     Total force =     0.000496     Total SCF correction =     0.000082
     SCF correction compared to forces is large: reduce conv_thr to get better values

     entering subroutine stress ...

     negative rho (up, down):  0.719E-01 0.719E-01
          total   stress  (Ry/bohr**3)                   (kbar)     P= -151.73
  -0.00103517  -0.00000009   0.00000000       -152.28     -0.01      0.00
  -0.00000009  -0.00103517   0.00000000         -0.01   -152.28      0.00
   0.00000000   0.00000000  -0.00102400          0.00      0.00   -150.64

     General routines

     Parallel routines

   This run was terminated on:  18:19: 6  23Jan2014

   JOB DONE.
Running PBS batch system epilogue script
Job id: 251189.audhumbla.fysik.dtu.dk
Username: zhonxu
Groupname: campgst
Jobname: RuO2/coarse-EOS/RuO2-v-1.1
Sessionid: 32739
Queuename: verylong
Accounting:
This job has allocated the following 4 nodes:
q011 q011 q011 q011
Finished epilogue job 251189.audhumbla.fysik.dtu.dk for zhonxu