     Program PWSCF v.5.0.2 (svn rev. 9656) starts on 11May2014 at 21:39:57

     Current dimensions of program PWSCF are:
     Max number of different atomic species (ntypx) = 10
     Max number of k-points (npk) =  40000
     Max angular momentum in pseudopotentials (lmaxx) =  3
     Reading input from pwscf.in
Warning: card &CELL ignored
Warning: card / ignored

     Subspace diagonalization in iterative solution of the eigenvalue problem:
     a serial algorithm will be used

     bravais-lattice index     =            0
     lattice parameter (alat)  =      11.7541  a.u.
     unit-cell volume          =    9749.5977 (a.u.)^3
     number of atoms/cell      =           51
     number of atomic types    =            3
     number of electrons       =       445.00
     number of Kohn-Sham states=          667
     kinetic-energy cutoff     =      40.0000  Ry
     charge density cutoff     =     500.0000  Ry
     convergence threshold     =      1.0E-06
     mixing beta               =       0.3000
     number of iterations used =            8  plain     mixing
     Exchange-correlation      = SLA  PW   PBE  PBE ( 1 4 3 4 0)
     EXX-fraction              =        0.00
     nstep                     =           50

     celldm(1)=  11.754097  celldm(2)=   0.000000  celldm(3)=   0.000000
     celldm(4)=   0.000000  celldm(5)=   0.000000  celldm(6)=   0.000000

     crystal axes: (cart. coord. in units of alat)
               a(1) = (   1.000000   0.000000   0.000000 )
               a(2) = (   0.000000   1.034513   0.000000 )
               a(3) = (   0.000000   0.000000   5.803406 )

     reciprocal axes: (cart. coord. in units 2 pi/alat)
               b(1) = (  1.000000  0.000000  0.000000 )
               b(2) = (  0.000000  0.966638  0.000000 )
               b(3) = (  0.000000  0.000000  0.172313 )

     PseudoPot. # 1 for O  read from file:
     /home/camp/zhonxu/pseudo/o_pbe_v1.01.uspp.F.UPF
     MD5 check sum: 2bcb18d16ea4b960afae9ec6d52f22d2
     Pseudo is Ultrasoft + core correction, Zval =  6.0
     Generated by new atomic code, or converted to UPF format
     Using radial grid of  737 points,  5 beta functions with:
                l(1) =   0
                l(2) =   0
                l(3) =   1
                l(4) =   1
                l(5) =   2
     Q(r) pseudized with  8 coefficients,  rinner =    0.900   0.900   0.900
                                                       0.900   0.900

     PseudoPot. # 2 for Rh read from file:
     /home/camp/zhonxu/pseudo/rh_pbe_v1.uspp.F.UPF
     MD5 check sum: 37b626987ad0dd8ec6bf4cc9ef289918
     Pseudo is Ultrasoft + core correction, Zval = 15.0
     Generated by new atomic code, or converted to UPF format
     Using radial grid of  969 points,  7 beta functions with:
                l(1) =   0
                l(2) =   0
                l(3) =   1
                l(4) =   1
                l(5) =   2
                l(6) =   2
                l(7) =   2
     Q(r) pseudized with  6 coefficients,  rinner =    1.050   1.050   1.050
                                                       1.050   1.050

     PseudoPot. # 3 for H  read from file:
     /home/camp/zhonxu/pseudo/h_pbe_v1.uspp.F.UPF
     MD5 check sum: 3408e3ff4ec8b0a4e358431e7e038a48
     Pseudo is Ultrasoft, Zval =  1.0
     Generated by new atomic code, or converted to UPF format
     Using radial grid of  615 points,  2 beta functions with:
                l(1) =   0
                l(2) =   0
     Q(r) pseudized with  8 coefficients,  rinner =    0.700

     atomic species   valence    mass     pseudopotential
        O0             6.00    15.99940     O ( 1.00)
        Rh1           15.00   102.90550     Rh( 1.00)
        H2             1.00     1.00794     H ( 1.00)

      2 Sym. Ops. (no inversion) found

   Cartesian axes

     site n.     atom                  positions (alat units)
         1           O0  tau(   1) = (   0.0000000   0.5172566   1.9292842  )
         2           Rh1 tau(   2) = (   0.2500000   0.5172566   2.1258455  )
         3           Rh1 tau(   3) = (   0.0000000   0.0000000   2.1258455  )
         4           O0  tau(   4) = (   0.2500000   0.8379556   2.1258455  )
         5           O0  tau(   5) = (   0.2500000   0.1965575   2.1258455  )
         6           O0  tau(   6) = (   0.0000000   0.5172566   2.3223488  )
         7           O0  tau(   7) = (   0.0000000   0.0000000   2.4465417  )
         8           Rh1 tau(   8) = (   0.2500000   0.0000000   2.6431030  )
         9           Rh1 tau(   9) = (   0.0000000   0.5172566   2.6431030  )
        10           O0  tau(  10) = (   0.2500000   0.7138141   2.6431030  )
        11           O0  tau(  11) = (   0.2500000   0.3206991   2.6431030  )
        12           O0  tau(  12) = (   0.0000000   0.0000000   2.8396064  )
        13           O0  tau(  13) = (   0.0000000   0.5172566   2.9573575  )
        14           Rh1 tau(  14) = (   0.2500000   0.5172566   3.1562402  )
        15           Rh1 tau(  15) = (   0.0000000   0.0000000   3.1604767  )
        16           O0  tau(  16) = (   0.2500000   0.8345107   3.1596642  )
        17           O0  tau(  17) = (   0.2500000   0.2000024   3.1596642  )
        18           O0  tau(  18) = (   0.0000000   0.5172566   3.3551809  )
        19           O0  tau(  19) = (   0.0000000   0.0000000   3.4777488  )
        20           Rh1 tau(  20) = (   0.2500000   0.0000000   3.6811582  )
        21           Rh1 tau(  21) = (   0.0000000   0.5172566   3.6632837  )
        22           O0  tau(  22) = (   0.2500000   0.7138554   3.6912561  )
        23           O0  tau(  23) = (   0.2500000   0.3206577   3.6912561  )
        24           O0  tau(  24) = (   0.0000000   0.0000000   3.8739473  )
        25           O0  tau(  25) = (   0.5000000   0.5172566   1.9292842  )
        26           Rh1 tau(  26) = (   0.7500000   0.5172566   2.1258455  )
        27           Rh1 tau(  27) = (   0.5000000   0.0000000   2.1258455  )
        28           O0  tau(  28) = (   0.7500000   0.8379556   2.1258455  )
        29           O0  tau(  29) = (   0.7500000   0.1965575   2.1258455  )
        30           O0  tau(  30) = (   0.5000000   0.5172566   2.3223488  )
        31           O0  tau(  31) = (   0.5000000   0.0000000   2.4465417  )
        32           Rh1 tau(  32) = (   0.7500000   0.0000000   2.6431030  )
        33           Rh1 tau(  33) = (   0.5000000   0.5172566   2.6431030  )
        34           O0  tau(  34) = (   0.7500000   0.7138141   2.6431030  )
        35           O0  tau(  35) = (   0.7500000   0.3206991   2.6431030  )
        36           O0  tau(  36) = (   0.5000000   0.0000000   2.8396064  )
        37           O0  tau(  37) = (   0.5000000   0.5172566   2.9573575  )
        38           Rh1 tau(  38) = (   0.7500000   0.5172566   3.1562402  )
        39           Rh1 tau(  39) = (   0.5000000   0.0000000   3.1604767  )
        40           O0  tau(  40) = (   0.7500000   0.8345107   3.1596642  )
        41           O0  tau(  41) = (   0.7500000   0.2000024   3.1596642  )
        42           O0  tau(  42) = (   0.5000000   0.5172566   3.3551809  )
        43           O0  tau(  43) = (   0.5000000   0.0000000   3.4777488  )
        44           Rh1 tau(  44) = (   0.7500000   0.0000000   3.6811582  )
        45           Rh1 tau(  45) = (   0.5000000   0.5172566   3.6632837  )
        46           O0  tau(  46) = (   0.7500000   0.7138554   3.6912561  )
        47           O0  tau(  47) = (   0.7500000   0.3206577   3.6912561  )
        48           O0  tau(  48) = (   0.5000000   0.0000000   3.8739473  )
        49           O0  tau(  49) = (   0.5000000   0.5172566   3.9847924  )
        50           O0  tau(  50) = (   0.5000000   0.3299580   4.0951151  )
        51           H2  tau(  51) = (   0.5000000   0.3775663   4.2473385  )

     number of k points=     9  Methfessel-Paxton smearing, width (Ry)=  0.0100
                       cart. coord. in units 2pi/alat
        k(    1) = (   0.0000000   0.0000000   0.0000000), wk =   0.1250000
        k(    2) = (   0.0000000   0.2416596   0.0000000), wk =   0.2500000
        k(    3) = (   0.0000000  -0.4833191   0.0000000), wk =   0.1250000
        k(    4) = (   0.2500000   0.0000000   0.0000000), wk =   0.2500000
        k(    5) = (   0.2500000   0.2416596   0.0000000), wk =   0.5000000
        k(    6) = (   0.2500000  -0.4833191   0.0000000), wk =   0.2500000
        k(    7) = (  -0.5000000   0.0000000   0.0000000), wk =   0.1250000
        k(    8) = (  -0.5000000   0.2416596   0.0000000), wk =   0.2500000
        k(    9) = (  -0.5000000  -0.4833191   0.0000000), wk =   0.1250000

     Largest allocated arrays     est. size (Mb)     dimensions
     Largest temporary arrays     est. size (Mb)     dimensions

     Check: negative/imaginary core charge=   -0.000003    0.000000

     Initial potential from superposition of free atoms
     Check: negative starting charge=   -1.286812

     starting charge  436.99836, renormalised to  445.00000

     negative rho (up, down):  0.131E+01 0.000E+00
     Starting wfc are  329 randomized atomic wfcs

     Self-consistent Calculation

     iteration #  1     ecut=    40.00 Ry     beta=0.30
     Davidson diagonalization with overlap
     ethr =  1.00E-02,  avg # of iterations =  5.6

     negative rho (up, down):  0.133E+01 0.000E+00

     total energy              =   -3704.03530771 Ry
     Harris-Foulkes estimate   =   -3831.91227314 Ry
     estimated scf accuracy    <     254.78855784 Ry

[...]

     End of self-consistent calculation

          k = 0.0000 0.0000 0.0000 ( 41643 PWs)   bands (ev):

   -47.2923 -47.2807 -47.2767 -47.2685 -47.2604 -47.2529 -47.2432 -47.2328
   -47.2280 -47.2197 -47.2190 -47.2139 -47.2138 -47.2132 -47.2055 -47.2024
   -47.1766 -47.1723 -47.1645 -47.1634 -47.1229 -47.1099 -47.1015 -47.0924
   -47.0876 -47.0876 -47.0803 -47.0701 -47.0650 -47.0568 -47.0437 -47.0341
   -47.0272 -46.9746 -46.9744 -46.9453 -46.9241 -46.9169 -46.9157 -46.8777
   -46.8696 -46.8141 -46.7966 -46.7814 -46.7639 -46.7167 -46.6986 -46.6907
   -23.4598 -19.2879 -19.0422 -18.8126 -18.6999 -18.6690 -18.4334 -18.3021
   -18.2112 -18.1349 -18.0827 -18.0460 -18.0425 -18.0034 -17.9998 -17.9698
   -17.9651 -17.9429 -17.9319 -17.8949 -17.8033 -17.7809 -17.7202 -17.6617
   -17.6472 -17.5279 -17.4898 -17.4319 -17.3707 -16.7058 -16.5787 -16.5534
   -16.4679 -15.4933  -7.9322  -7.7100  -7.6855  -7.6467  -7.5555  -7.4422
    -7.4030  -6.7029  -6.6182  -6.5834  -6.4694  -6.4518  -6.4408  -6.4139
    -6.3360  -6.3240  -6.3091  -6.2876  -6.2268  -6.2135  -6.1915  -6.1574
    -6.1565  -6.1466  -6.0856  -6.0832  -5.9403  -5.8978  -5.8624  -5.8529
    -5.7954  -5.7721  -5.6805  -5.6175  -5.5902  -5.5805  -5.5445  -5.4041
    -5.2598  -5.0565  -5.0367  -4.8704  -4.8175  -4.6240  -4.4221  -4.3577
    -4.3533  -4.3040  -4.2919  -4.2578  -4.1680  -4.1479  -4.1392  -3.9543
    -3.8727  -3.8481  -3.7398  -3.7286  -3.6976  -3.6671  -3.5294  -3.5106
    -3.4901  -3.2988  -3.1929  -3.1851  -3.1356  -3.1123  -3.0601  -3.0551
    -3.0317  -3.0272  -2.9479  -2.9271  -2.8736  -2.8548  -2.7500  -2.7152
[...]
Rh1      0.250000000   0.000000000   0.634310000    0   0   0
Rh1      0.000000000   0.500000000   0.631230000    0   0   0
O0       0.250000000   0.690040000   0.636050000    0   0   0
O0       0.250000000   0.309960000   0.636050000    0   0   0
O0       0.000000000   0.000000000   0.667530000    0   0   0
O0       0.500000000   0.500000000   0.332440000    0   0   0
Rh1      0.750000000   0.500000000   0.366310000    0   0   0
Rh1      0.500000000   0.000000000   0.366310000    0   0   0
O0       0.750000000   0.810000000   0.366310000    0   0   0
O0       0.750000000   0.190000000   0.366310000    0   0   0
O0       0.500000000   0.500000000   0.400170000    0   0   0
O0       0.500000000   0.000000000   0.421570000    0   0   0
Rh1      0.750000000   0.000000000   0.455440000    0   0   0
Rh1      0.500000000   0.500000000   0.455440000    0   0   0
O0       0.750000000   0.690000000   0.455440000    0   0   0
O0       0.750000000   0.310000000   0.455440000    0   0   0
O0       0.500000000   0.000000000   0.489300000    0   0   0
O0       0.500000000   0.500000000   0.509590000    0   0   0
Rh1      0.750000000   0.500000000   0.543860000    0   0   0
Rh1      0.500000000   0.000000000   0.544590000    0   0   0
O0       0.750000000   0.806670000   0.544450000    0   0   0
O0       0.750000000   0.193330000   0.544450000    0   0   0
O0       0.500000000   0.500000000   0.578140000    0   0   0
O0       0.500000000   0.000000000   0.599260000    0   0   0
Rh1      0.750000000   0.000000000   0.634310000    0   0   0
Rh1      0.500000000   0.500000000   0.631230000    0   0   0
O0       0.750000000   0.690040000   0.636050000    0   0   0
O0       0.750000000   0.309960000   0.636050000    0   0   0
O0       0.500000000   0.000000000   0.667530000    0   0   0
O0       0.500000000   0.500000000   0.687093014    1   0   1
O0       0.500000000   0.318950000   0.707017258    1   0   1
H2       0.500000000   0.364970000   0.733122629    1   0   1

     Check: negative starting charge=   -1.286806
     NEW-OLD atomic charge density approx. for the potential

     Check: negative/imaginary core charge=   -0.000003    0.000000
     Check: negative starting charge=   -1.286807

[...]

     Self-consistent Calculation

[...]

     Threshold (ethr) on eigenvalues was too large:
     Diagonalizing with lowered threshold

     Davidson diagonalization with overlap
     ethr =  2.59E-08,  avg # of iterations =  1.0

[...]

     total energy              =   -3823.50567087 Ry
     Harris-Foulkes estimate   =   -3823.50567087 Ry
     estimated scf accuracy    <       0.00000002 Ry

     iteration # 19     ecut=    40.00 Ry     beta=0.30
     Davidson diagonalization with overlap
     ethr =  3.61E-12,  avg # of iterations =  1.0

     negative rho (up, down):  0.138E+01 0.000E+00

     End of self-consistent calculation

[...]

          k = 0.2500-0.4833 0.0000 ( 41698 PWs)   bands (ev):

[...]

          k =-0.5000-0.4833 0.0000 ( 41672 PWs)   bands (ev):

   -47.2932 -47.2873 -47.2665 -47.2664 -47.2574 -47.2549 -47.2544 -47.2488
   -47.2439 -47.2420 -47.2392 -47.2284 -47.2284 -47.2207 -47.2196 -47.2141
   -47.1979 -47.1968 -47.1874 -47.1835 -47.1780 -47.1742 -47.1196 -47.1196
   -47.0980 -47.0968 -47.0941 -47.0909 -47.0582 -47.0522 -47.0500 -47.0500
   -47.0204 -47.0198 -46.9962 -46.9946 -46.9932 -46.9492 -46.9344 -46.8938
   -46.8902 -46.8240 -46.8240 -46.7923 -46.7921 -46.7272 -46.7255 -46.7128
   -23.1106 -18.6894 -18.6045 -18.5908 -18.5902 -18.3805 -18.3403 -18.3107
   -18.3086 -18.1528 -18.1517 -18.1117 -18.1097 -18.0713 -18.0701 -18.0022
   -17.9889 -17.9828 -17.9521 -17.9323 -17.9292 -17.9273 -17.9273 -17.8792
   -17.8787 -17.7538 -17.7509 -17.6735 -17.6636 -16.7683 -16.6863 -16.6026
   -16.6016 -15.5022  -7.7961  -6.9403  -6.9260  -6.8128  -6.8116  -6.5488
    -6.4870  -6.4008  -6.4008  -6.3995  -6.3980  -6.3784  -6.3770  -6.2905
    -6.2897  -6.1951  -6.1938  -6.1243  -6.0724  -6.0163  -6.0137  -5.9563
    -5.9490  -5.9449  -5.9119  -5.8982  -5.8303  -5.8295  -5.7459  -5.7150
    -5.6762  -5.5710  -5.5378  -5.5316  -5.5054  -5.4753  -5.4309  -5.4301
    -5.3475  -5.3465  -5.2508  -5.2483  -4.9684  -4.8927  -4.8343  -4.8192
    -4.7198  -4.6847  -4.6816  -4.5695  -4.5330  -4.3005  -4.2967  -4.2024
    -4.2019  -4.1425  -4.1297  -4.1137  -4.0991  -4.0960  -4.0799  -4.0776
    -4.0528  -4.0352  -4.0018  -3.9854  -3.9644  -3.7460  -3.7398  -3.6930
    -3.6836  -3.6748  -3.6578  -3.6505  -3.6217  -3.3336  -3.3218  -3.3173
    -3.2972  -2.6995  -2.6954  -2.6453  -2.6319  -2.4425  -2.4400  -2.4382
    -2.4253  -2.3007  -2.2998  -2.1669  -2.1610  -2.1377  -2.1331  -2.1289
    -2.1239  -1.8335  -1.8177  -1.7965  -1.7344  -1.5497  -1.2269  -1.2161
    -1.1684  -1.1615  -1.0160  -0.9659  -0.9595  -0.9020  -0.8831  -0.8755
    -0.8621  -0.6788  -0.6252  -0.6158  -0.6119  -0.5776  -0.3373  -0.3228
    -0.3100  -0.3002  -0.2799  -0.2583  -0.2069  -0.2063   0.0596   0.0600
     0.0627   0.0679   0.1007   0.1017   0.1268   0.2026   0.2055   0.2241
     0.2738   0.3282   0.3295   0.3568   0.3573   0.3979   0.4084   0.4524
     0.4553   0.4700   0.4864   0.5032   0.5210   0.5221   0.5920   1.2477
     1.2491   1.6112   1.9386   1.9623   1.9967   1.9984   2.1368   2.1610
     2.1630   2.2274   2.3060   2.4307   2.4340   2.4671   2.8112   3.2240
     3.2265   3.2462   3.3803   3.5554   3.5587   3.6152   3.7127   3.9482
     3.9582   4.0091   4.0459   4.2032   4.2229   4.2400   4.2440   5.6223
     6.5225   6.7468   6.7475   6.8499   7.3056   7.3617   7.5158   7.5438
     7.7008   7.7502   7.8218   7.8629   8.0410   8.0609   8.1100   8.1570
     8.4179   8.4876   8.5727   8.6614   8.9043   9.0186   9.1431   9.2765
     9.3168   9.3323   9.3649   9.3964   9.6919   9.7423   9.8349   9.8815
     9.9051   9.9556   9.9787  10.0761  10.5188  10.5682  10.6294  10.7066
    10.7405  10.7847  10.7942  10.8450  11.3094  11.3819  11.4155  11.4260
    11.7954  11.8451  11.8555  11.9075  12.2646  12.4293  12.4294  12.5885
    12.7581  12.8114  12.8159  12.8765  13.0466  13.1769  13.2094  13.2813
    13.3852  13.4437  13.4686  13.4890  13.4973  13.5871  13.5963  13.6521
    13.6818  13.7401  13.7788  13.8268  13.8668  13.9621  13.9960  14.1063
    14.1116  14.1937  14.2808  14.3043  14.3633  14.3927  14.4269  14.4743
    14.5132  14.6096  14.6110  14.6358  14.6680  14.7094  14.7180  14.7497
    14.7795  14.7834  14.8135  14.8348  14.8639  14.8814  14.9408  14.9422
    15.0104  15.0479  15.1018  15.1617  15.1676  15.1872  15.2493  15.3245
    15.3336  15.3905  15.4138  15.4227  15.4365  15.4856  15.5035  15.5798
    15.6266  15.6324  15.6562  15.6681  15.7016  15.7266  15.7269  15.7460
    15.7828  15.7994  15.8351  15.8428  15.8989  15.8997  15.9458  16.0268
    16.0378  16.0943  16.1082  16.1102  16.1554  16.1623  16.2343  16.2866
    16.3997  16.4057  16.4512  16.4596  16.4712  16.5062  16.5354  16.6145
    16.6147  16.6319  16.7633  16.7784  16.9354  16.9540  16.9803  16.9876
    17.0619  17.0763  17.1305  17.1318  17.2613  17.2880  17.3869  17.4368
    17.4437  17.4486  17.4979  17.5098  17.7417  17.7639  17.7735  17.7998
    17.8739  17.8750  17.8861  17.9136  17.9319  18.0419  18.1025  18.1258
    18.1598  18.1915  18.2054  18.2353  18.4044  18.4620  18.5040  18.5208
    18.5712  18.6239  18.6506  18.6645  18.7942  18.8276  18.8516  18.8960
    18.9733  19.0111  19.0551  19.0649  19.1408  19.1463  19.2978  19.4040
    19.5377  19.5492  19.6955  19.7414  19.8137  19.8321  19.8490  19.8794
[...]
    23.7612  23.8072  23.8291  23.8543  23.8790  23.9342  23.9443  23.9978
    24.0173  24.0317  24.1301  24.2889  24.3231  24.3758  24.3761  24.4154
    24.4377  24.4396  24.4671  24.5144  24.5147  24.5443  24.5725  24.7022
    24.7650  24.7987  24.8335  24.8490  24.8880  24.9171  24.9542  25.0269
    25.1193  25.1403  25.1650  25.1861  25.2341  25.2389  25.2585  25.2665
    25.3523  25.3609  25.3799  25.4529  25.4727  25.4937  25.5046  25.5889
    25.6644  25.6697  25.7367  25.7790  25.8013  25.8511  25.9374  26.0082
    26.0258  26.0413  26.0746  26.1417  26.3284  26.3726  26.4472  26.4475
    26.5002  26.5096  26.5937  26.6058  26.7287  26.7568  26.7918  26.8777
    26.8877  26.8993  26.9515  27.0335  27.0359  27.1213  27.1549  27.1631
    27.2350  27.2419  27.3058  27.3137  27.4179  27.4194  27.4314  27.4841
    27.4883  27.5260  27.5414  27.5510  27.6278  27.7824  27.8044  27.8852
    27.9172  27.9205  27.9418  28.0127  28.0845  28.1388  28.1862  28.2806
    28.3011  28.3152  28.3751  28.3795  28.4550  28.4793  28.5221  28.6034
    28.7015  28.7162  28.7375

     the Fermi energy is     0.5332 ev

!    total energy              =   -3823.50567087 Ry
     Harris-Foulkes estimate   =   -3823.50567087 Ry
     estimated scf accuracy    <          6.1E-09 Ry

     The total energy is the sum of the following terms:

     one-electron contribution =  -81070.05657937 Ry
     hartree contribution      =   40653.66912263 Ry
     xc contribution           =    -710.69950876 Ry
     ewald contribution        =   37303.58262253 Ry
     smearing contrib. (-TS)   =      -0.00132789 Ry

     convergence has been achieved in  19 iterations

     Forces acting on atoms (Ry/au):

     negative rho (up, down):  0.138E+01 0.000E+00
     atom    1 type  1   force =     0.00000000    0.00002865    0.01139580
     atom    2 type  2   force =     0.00009441   -0.00010211   -0.02527170
     atom    3 type  2   force =     0.00000000    0.00001827    0.07779215
     atom    4 type  1   force =     0.00004304   -0.01184897   -0.02832947
     atom    5 type  1   force =     0.00003251    0.01192878   -0.02839596
     atom    6 type  1   force =     0.00000000    0.00004262    0.02544998
     atom    7 type  1   force =     0.00000000   -0.00002484   -0.02714095
     atom    8 type  2   force =     0.00021226    0.00002797   -0.01161812
     atom    9 type  2   force =     0.00000000    0.00028428   -0.02096961
     atom   10 type  1   force =    -0.00005497    0.02094244   -0.00304533
     atom   11 type  1   force =     0.00001120   -0.02094743   -0.00311723
     atom   12 type  1   force =     0.00000000    0.00013112    0.02884003
     atom   13 type  1   force =     0.00000000   -0.00067324    0.00799723
     atom   14 type  2   force =     0.01089042    0.00041372   -0.00181906
     atom   15 type  2   force =     0.00000000   -0.00072341   -0.00173037
     atom   16 type  1   force =    -0.00039953    0.00057083    0.00017642
     atom   17 type  1   force =    -0.00041962   -0.00051664    0.00011483
     atom   18 type  1   force =     0.00000000   -0.00056889    0.00046377
     atom   19 type  1   force =     0.00000000   -0.00135785    0.00051116
     atom   20 type  2   force =     0.00692965    0.00332908    0.00135060
     atom   21 type  2   force =     0.00000000    0.00350235    0.00563111
     atom   22 type  1   force =    -0.01295785    0.01111235   -0.01972083
     atom   23 type  1   force =    -0.01360451   -0.01301565   -0.02404785
     atom   24 type  1   force =     0.00000000    0.00041110    0.00413182
     atom   25 type  1   force =     0.00000000   -0.00012585    0.01102608
     atom   26 type  2   force =    -0.00009441   -0.00010211   -0.02527170
     atom   27 type  2   force =     0.00000000    0.00003259    0.07728816
     atom   28 type  1   force =    -0.00004304   -0.01184897   -0.02832947
     atom   29 type  1   force =    -0.00003251    0.01192878   -0.02839596
     atom   30 type  1   force =     0.00000000    0.00005843    0.02632006
     atom   31 type  1   force =     0.00000000   -0.00004025   -0.02688849
     atom   32 type  2   force =    -0.00021226    0.00002797   -0.01161812
     atom   33 type  2   force =     0.00000000   -0.00004092   -0.02051768
     atom   34 type  1   force =     0.00005497    0.02094244   -0.00304533
     atom   35 type  1   force =    -0.00001120   -0.02094743   -0.00311723
     atom   36 type  1   force =     0.00000000    0.00011617    0.02897398
     atom   37 type  1   force =     0.00000000    0.00016868    0.00020492
     atom   38 type  2   force =    -0.01089042    0.00041372   -0.00181906
     atom   39 type  2   force =     0.00000000   -0.00014771   -0.00022382
     atom   40 type  1   force =     0.00039953    0.00057083    0.00017642
     atom   41 type  1   force =     0.00041962   -0.00051664    0.00011483
     atom   42 type  1   force =     0.00000000    0.00238658   -0.02110751
     atom   43 type  1   force =     0.00000000    0.00019006    0.00026397
     atom   44 type  2   force =    -0.00692965    0.00332908    0.00135060
     atom   45 type  2   force =     0.00000000   -0.02894684    0.11011215
     atom   46 type  1   force =     0.01295785    0.01111235   -0.01972083
     atom   47 type  1   force =     0.01360451   -0.01301565   -0.02404785
     atom   48 type  1   force =     0.00000000   -0.01949040   -0.01028188
     atom   49 type  1   force =     0.00000000    0.08021724    0.00010391
     atom   50 type  1   force =     0.00000000   -0.05447546    0.00002040
     atom   51 type  3   force =     0.00000000    0.01523878   -0.00021896

     Total force =     0.000243     Total SCF correction =     0.000010

     bfgs converged in   9 scf cycles and   8 bfgs steps
     (criteria: energy < 0.10E-03, force < 0.10E-02)

     End of BFGS Geometry Optimization

     Final energy   =   -3823.5056708674 Ry
Begin final coordinates

ATOMIC_POSITIONS (crystal)
O0       0.000000000   0.500000000   0.332440000    0   0   0
Rh1      0.250000000   0.500000000   0.366310000    0   0   0
Rh1      0.000000000   0.000000000   0.366310000    0   0   0
O0       0.250000000   0.810000000   0.366310000    0   0   0
O0       0.250000000   0.190000000   0.366310000    0   0   0
O0       0.000000000   0.500000000   0.400170000    0   0   0
O0       0.000000000   0.000000000   0.421570000    0   0   0
Rh1      0.250000000   0.000000000   0.455440000    0   0   0
Rh1      0.000000000   0.500000000   0.455440000    0   0   0
O0       0.250000000   0.690000000   0.455440000    0   0   0
O0       0.250000000   0.310000000   0.455440000    0   0   0
O0       0.000000000   0.000000000   0.489300000    0   0   0
O0       0.000000000   0.500000000   0.509590000    0   0   0
Rh1      0.250000000   0.500000000   0.543860000    0   0   0
Rh1      0.000000000   0.000000000   0.544590000    0   0   0
O0       0.250000000   0.806670000   0.544450000    0   0   0
O0       0.250000000   0.193330000   0.544450000    0   0   0
O0       0.000000000   0.500000000   0.578140000    0   0   0
O0       0.000000000   0.000000000   0.599260000    0   0   0
Rh1      0.250000000   0.000000000   0.634310000    0   0   0
Rh1      0.000000000   0.500000000   0.631230000    0   0   0
O0       0.250000000   0.690040000   0.636050000    0   0   0
O0       0.250000000   0.309960000   0.636050000    0   0   0
O0       0.000000000   0.000000000   0.667530000    0   0   0
O0       0.500000000   0.500000000   0.332440000    0   0   0
Rh1      0.750000000   0.500000000   0.366310000    0   0   0
Rh1      0.500000000   0.000000000   0.366310000    0   0   0
O0       0.750000000   0.810000000   0.366310000    0   0   0
O0       0.750000000   0.190000000   0.366310000    0   0   0
O0       0.500000000   0.500000000   0.400170000    0   0   0
O0       0.500000000   0.000000000   0.421570000    0   0   0
Rh1      0.750000000   0.000000000   0.455440000    0   0   0
Rh1      0.500000000   0.500000000   0.455440000    0   0   0
O0       0.750000000   0.690000000   0.455440000    0   0   0
O0       0.750000000   0.310000000   0.455440000    0   0   0
O0       0.500000000   0.000000000   0.489300000    0   0   0
O0       0.500000000   0.500000000   0.509590000    0   0   0
Rh1      0.750000000   0.500000000   0.543860000    0   0   0
Rh1      0.500000000   0.000000000   0.544590000    0   0   0
O0       0.750000000   0.806670000   0.544450000    0   0   0
O0       0.750000000   0.193330000   0.544450000    0   0   0
O0       0.500000000   0.500000000   0.578140000    0   0   0
O0       0.500000000   0.000000000   0.599260000    0   0   0
Rh1      0.750000000   0.000000000   0.634310000    0   0   0
Rh1      0.500000000   0.500000000   0.631230000    0   0   0
O0       0.750000000   0.690040000   0.636050000    0   0   0
O0       0.750000000   0.309960000   0.636050000    0   0   0
O0       0.500000000   0.000000000   0.667530000    0   0   0
O0       0.500000000   0.500000000   0.687093014    1   0   1
O0       0.500000000   0.318950000   0.707017258    1   0   1
H2       0.500000000   0.364970000   0.733122629    1   0   1
End final coordinates

     General routines

     Parallel routines

   This run was terminated on:  22:15: 4  12May2014

   JOB DONE.