     Program PWSCF v.5.0.2 (svn rev. 9656) starts on 29Apr2014 at  5: 8: 6

     Current dimensions of program PWSCF are:
     Max number of different atomic species (ntypx) = 10
     Max number of k-points (npk) =  40000
     Max angular momentum in pseudopotentials (lmaxx) =  3
     Reading input from pwscf.in
Warning: card &CELL ignored
Warning: card / ignored

     Subspace diagonalization in iterative solution of the eigenvalue problem:
     a serial algorithm will be used

     bravais-lattice index     =            0
     lattice parameter (alat)  =      12.0187  a.u.
     unit-cell volume          =    7280.5819 (a.u.)^3
     number of atoms/cell      =           32
     number of atomic types    =            3
     number of electrons       =       239.00
     number of Kohn-Sham states=          358
     kinetic-energy cutoff     =      40.0000  Ry
     charge density cutoff     =     500.0000  Ry
     convergence threshold     =      1.0E-06
     mixing beta               =       0.7000
     number of iterations used =            8  plain     mixing
     Exchange-correlation      = SLA  PW   PBE  PBE ( 1 4 3 4 0)
     EXX-fraction              =        0.00
     nstep                     =           50

     celldm(1)=  12.018658  celldm(2)=   0.000000  celldm(3)=   0.000000
     celldm(4)=   0.000000  celldm(5)=   0.000000  celldm(6)=   0.000000

     crystal axes: (cart. coord. in units of alat)
               a(1) = (   1.000000   0.000000   0.000000 )
               a(2) = (   0.000000   1.009517   0.000000 )
               a(3) = (   0.000000   0.000000   4.154171 )

     reciprocal axes: (cart. coord. in units 2 pi/alat)
               b(1) = (  1.000000  0.000000  0.000000 )
               b(2) = (  0.000000  0.990572  0.000000 )
               b(3) = (  0.000000  0.000000  0.240722 )

     PseudoPot. # 1 for O  read from file:
     /home/camp/zhonxu/pseudo/o_pbe_v1.01.uspp.F.UPF
     MD5 check sum: 2bcb18d16ea4b960afae9ec6d52f22d2
     Pseudo is Ultrasoft + core correction, Zval =  6.0
     Generated by new atomic code, or converted to UPF format
     Using radial grid of  737 points,  5 beta functions with:
                l(1) =   0
                l(2) =   0
                l(3) =   1
                l(4) =   1
                l(5) =   2
     Q(r) pseudized with  8 coefficients,  rinner =    0.900   0.900   0.900
                                                       0.900   0.900

     PseudoPot. # 2 for Ir read from file:
     /home/camp/zhonxu/pseudo/ir_pbe_v1.uspp.F.UPF
     MD5 check sum: abf987a9674477536ede83817f8f8b70
     Pseudo is Ultrasoft + core correction, Zval = 15.0
     Generated by new atomic code, or converted to UPF format
     Using radial grid of  983 points,  7 beta functions with:
                l(1) =   0
                l(2) =   0
                l(3) =   1
                l(4) =   1
                l(5) =   1
                l(6) =   2
                l(7) =   2
     Q(r) pseudized with  8 coefficients,  rinner =    1.350   1.350   1.350
                                                       1.350   1.350

     PseudoPot. # 3 for H  read from file:
     /home/camp/zhonxu/pseudo/h_pbe_v1.uspp.F.UPF
     MD5 check sum: 3408e3ff4ec8b0a4e358431e7e038a48
     Pseudo is Ultrasoft, Zval =  1.0
     Generated by new atomic code, or converted to UPF format
     Using radial grid of  615 points,  2 beta functions with:
                l(1) =   0
                l(2) =   0
     Q(r) pseudized with  8 coefficients,  rinner =    0.700

     atomic species   valence    mass     pseudopotential
        O0             6.00    15.99940     O ( 1.00)
        Ir1           15.00   192.22000     Ir( 1.00)
        H2             1.00     1.00794     H ( 1.00)

     Simplified LDA+U calculation (l_max = 2) with parameters (eV):
     atomic species    L          U    alpha       J0     beta
        Ir1            2     1.0000   0.0000   0.0000   0.0000

     No symmetry found

   Cartesian axes

     site n.     atom                  positions (alat units)
         1           O0  tau(   1) = (   0.0000000   0.0000000   1.5715230  )
         2           O0  tau(   2) = (   0.0000000   0.5047586   1.6723863  )
         3           Ir1 tau(   3) = (   0.2500000   0.5047586   1.8804272  )
         4           Ir1 tau(   4) = (   0.0000000   0.0000000   1.8823796  )
         5           O0  tau(   5) = (   0.2500000   0.8177090   1.8809672  )
         6           O0  tau(   6) = (   0.2500000   0.1918083   1.8797625  )
         7           O0  tau(   7) = (   0.0000000   0.5047586   2.0697743  )
         8           O0  tau(   8) = (   0.0000000   0.0000000   2.1967673  )
         9           Ir1 tau(   9) = (   0.2500000   0.0000000   2.3926365  )
        10           Ir1 tau(  10) = (   0.0000000   0.5047586   2.3747736  )
        11           O0  tau(  11) = (   0.2500000   0.6965669   2.3923873  )
        12           O0  tau(  12) = (   0.2500000   0.3129503   2.3927196  )
        13           O0  tau(  13) = (   0.0000000   0.0000000   2.5779541  )
        14           O0  tau(  14) = (   0.5000000   0.0000000   1.5704845  )
        15           O0  tau(  15) = (   0.5000000   0.5047586   1.6698107  )
        16           Ir1 tau(  16) = (   0.7500000   0.5047586   1.8805103  )
        17           Ir1 tau(  17) = (   0.5000000   0.0000000   1.8817565  )
        18           O0  tau(  18) = (   0.7500000   0.8177090   1.8810503  )
        19           O0  tau(  19) = (   0.7500000   0.1918083   1.8797625  )
        20           O0  tau(  20) = (   0.5000000   0.5047586   2.0748424  )
        21           O0  tau(  21) = (   0.5000000   0.0000000   2.1964350  )
        22           Ir1 tau(  22) = (   0.7500000   0.0000000   2.3925119  )
        23           Ir1 tau(  23) = (   0.5000000   0.5047586   2.3910995  )
        24           O0  tau(  24) = (   0.7500000   0.6965669   2.3896040  )
        25           O0  tau(  25) = (   0.7500000   0.3129503   2.3900194  )
        26           O0  tau(  26) = (   0.5000000   0.0000000   2.5760847  )
        27           H2  tau(  27) = (  -0.0000400   0.6399431   1.5942048  )
        28           H2  tau(  28) = (   0.5000100   0.6429817   1.5968219  )
        29           H2  tau(  29) = (   0.1437000   0.0339904   1.5235839  )
        30           H2  tau(  30) = (   0.6431700   0.0357369   1.5224622  )
        31           O0  tau(  31) = (   0.5156900   0.5047586   2.6944786  )
        32           H2  tau(  32) = (   0.3744100   0.5050918   2.7575805  )

     number of k points=    10  Methfessel-Paxton smearing, width (Ry)=  0.0100
                       cart. coord. in units 2pi/alat
        k(    1) = (   0.0000000   0.0000000   0.0000000), wk =   0.1250000
        k(    2) = (   0.0000000   0.2476431   0.0000000), wk =   0.2500000
        k(    3) = (   0.0000000  -0.4952862   0.0000000), wk =   0.1250000
        k(    4) = (   0.2500000   0.0000000   0.0000000), wk =   0.2500000
        k(    5) = (   0.2500000   0.2476431   0.0000000), wk =   0.2500000
        k(    6) = (   0.2500000  -0.4952862   0.0000000), wk =   0.2500000
        k(    7) = (  -0.5000000   0.0000000   0.0000000), wk =   0.1250000
        k(    8) = (  -0.5000000   0.2476431   0.0000000), wk =   0.2500000
        k(    9) = (  -0.5000000  -0.4952862   0.0000000), wk =   0.1250000
        k(   10) = (  -0.2500000   0.2476431   0.0000000), wk =   0.2500000

     Largest allocated arrays     est. size (Mb)     dimensions
     Largest temporary arrays     est. size (Mb)     dimensions

     Check: negative/imaginary core charge=   -0.000003    0.000000

     Initial potential from superposition of free atoms
     Check: negative starting charge=   -3.334647

     starting charge  234.99967, renormalised to  239.00000

     negative rho (up, down):  0.339E+01 0.000E+00
     Number of +U iterations with fixed ns =  0
     Starting occupations:
 --- enter write_ns ---
 LDA+U parameters:
U( 2)     =  1.00000000
alpha( 2) =  0.00000000
atom    3   Tr[ns(na)] =   7.00000
    eigenvalues:
  0.700  0.700  0.700  0.700  0.700
    eigenvectors:
  1.000  0.000  0.000  0.000  0.000
  0.000  1.000  0.000  0.000  0.000
  0.000  0.000  1.000  0.000  0.000
  0.000  0.000  0.000  1.000  0.000
  0.000  0.000  0.000  0.000  1.000
    occupations:
  0.700  0.000  0.000  0.000  0.000
  0.000  0.700  0.000  0.000  0.000
  0.000  0.000  0.700  0.000  0.000
  0.000  0.000  0.000  0.700  0.000
  0.000  0.000  0.000  0.000  0.700
atom    4   Tr[ns(na)] =   7.00000
    eigenvalues:
  0.700  0.700  0.700  0.700  0.700
    eigenvectors:
  1.000  0.000  0.000  0.000  0.000
  0.000  1.000  0.000  0.000  0.000
  0.000  0.000  1.000  0.000  0.000
  0.000  0.000  0.000  1.000  0.000
  0.000  0.000  0.000  0.000  1.000
    occupations:
  0.700  0.000  0.000  0.000  0.000
  0.000  0.700  0.000  0.000  0.000
  0.000  0.000  0.700  0.000  0.000
  0.000  0.000  0.000  0.700  0.000
  0.000  0.000  0.000  0.000  0.700
atom    9   Tr[ns(na)] =   7.00000
    eigenvalues:
  0.700  0.700  0.700  0.700  0.700
    eigenvectors:
  1.000  0.000  0.000  0.000  0.000
  0.000  1.000  0.000  0.000  0.000
  0.000  0.000  1.000  0.000  0.000
  0.000  0.000  0.000  1.000  0.000
  0.000  0.000  0.000  0.000  1.000
    occupations:
  0.700  0.000  0.000  0.000  0.000
  0.000  0.700  0.000  0.000  0.000
  0.000  0.000  0.700  0.000  0.000
  0.000  0.000  0.000  0.700  0.000
  0.000  0.000  0.000  0.000  0.700
atom   10   Tr[ns(na)] =   7.00000
    eigenvalues:
  0.700  0.700  0.700  0.700  0.700
    eigenvectors:
  1.000  0.000  0.000  0.000  0.000
  0.000  1.000  0.000  0.000  0.000
  0.000  0.000  1.000  0.000  0.000
  0.000  0.000  0.000  1.000  0.000
  0.000  0.000  0.000  0.000  1.000
    occupations:
  0.700  0.000  0.000  0.000  0.000
  0.000  0.700  0.000  0.000  0.000
  0.000  0.000  0.700  0.000  0.000
  0.000  0.000  0.000  0.700  0.000
  0.000  0.000  0.000  0.000  0.700
atom   16   Tr[ns(na)] =   7.00000
    eigenvalues:
  0.700  0.700  0.700  0.700  0.700
    eigenvectors:
  1.000  0.000  0.000  0.000  0.000
  0.000  1.000  0.000  0.000  0.000
  0.000  0.000  1.000  0.000  0.000
  0.000  0.000  0.000  1.000  0.000
  0.000  0.000  0.000  0.000  1.000
    occupations:
  0.700  0.000  0.000  0.000  0.000
  0.000  0.700  0.000  0.000  0.000
  0.000  0.000  0.700  0.000  0.000
  0.000  0.000  0.000  0.700  0.000
  0.000  0.000  0.000  0.000  0.700
atom   17   Tr[ns(na)] =   7.00000
    eigenvalues:
  0.700  0.700  0.700  0.700  0.700
    eigenvectors:
  1.000  0.000  0.000  0.000  0.000
  0.000  1.000  0.000  0.000  0.000
  0.000  0.000  1.000  0.000  0.000
  0.000  0.000  0.000  1.000  0.000
  0.000  0.000  0.000  0.000  1.000
    occupations:
  0.700  0.000  0.000  0.000  0.000
  0.000  0.700  0.000  0.000  0.000
  0.000  0.000  0.700  0.000  0.000
  0.000  0.000  0.000  0.700  0.000
  0.000  0.000  0.000  0.000  0.700
atom   22   Tr[ns(na)] =   7.00000
    eigenvalues:
  0.700  0.700  0.700  0.700  0.700
    eigenvectors:
  1.000  0.000  0.000  0.000  0.000
  0.000  1.000  0.000  0.000  0.000
  0.000  0.000  1.000  0.000  0.000
  0.000  0.000  0.000  1.000  0.000
[...]
  0.031  0.000 -0.000  0.976  0.000
  0.001 -0.001  0.000  0.000  0.619
atom    9   Tr[ns(na)] =   8.02881
    eigenvalues:
  0.650  0.665  0.839  0.883  0.977
    eigenvectors:
  0.000  0.143  0.000  0.000  0.857
  0.999  0.001  0.000  0.000  0.000
  0.000  0.000  0.999  0.001  0.000
  0.000  0.857  0.000  0.000  0.143
  0.000  0.000  0.001  0.999  0.000
    occupations:
  0.932 -0.000  0.000 -0.109 -0.001
 -0.000  0.650  0.000  0.000 -0.000
  0.000  0.000  0.839 -0.000 -0.001
 -0.109  0.000 -0.000  0.709  0.001
 -0.001 -0.000 -0.001  0.001  0.883
atom   10   Tr[ns(na)] =   8.03705
    eigenvalues:
  0.602  0.608  0.909  0.920  0.979
    eigenvectors:
  0.992  0.000  0.000  0.000  0.007
  0.000  0.000  1.000  0.000  0.000
  0.000  0.000  0.000  1.000  0.000
  0.007  0.000  0.000  0.000  0.993
  0.000  1.000  0.000  0.000  0.000
    occupations:
  0.605 -0.003  0.001  0.032 -0.000
 -0.003  0.909 -0.000 -0.000 -0.000
  0.001 -0.000  0.920 -0.000  0.002
  0.032 -0.000 -0.000  0.977 -0.000
 -0.000 -0.000  0.002 -0.000  0.608
atom   16   Tr[ns(na)] =   8.07466
    eigenvalues:
  0.605  0.631  0.874  0.954  0.973
    eigenvectors:
  0.003  0.184  0.003  0.001  0.809
  0.991  0.009  0.000  0.000  0.000
  0.000  0.000  0.979  0.018  0.003
  0.006  0.807  0.000  0.000  0.186
  0.000  0.000  0.018  0.980  0.002
    occupations:
  0.909  0.005  0.004 -0.133  0.002
  0.005  0.605  0.001  0.000 -0.005
  0.004  0.001  0.876 -0.004 -0.010
 -0.133  0.000 -0.004  0.695  0.000
  0.002 -0.005 -0.010  0.000  0.952
atom   17   Tr[ns(na)] =   8.04994
    eigenvalues:
  0.617  0.663  0.860  0.905  0.979
    eigenvectors:
  0.000  0.990  0.000  0.000  0.010
  0.000  0.000  0.062  0.938  0.000
  0.000  0.000  0.938  0.062  0.000
  0.000  0.010  0.000  0.000  0.990
  1.000  0.000  0.000  0.000  0.000
    occupations:
  0.666 -0.003 -0.001  0.031  0.001
 -0.003  0.902  0.011  0.000 -0.001
 -0.001  0.011  0.863 -0.000  0.000
  0.031  0.000 -0.000  0.976  0.000
  0.001 -0.001  0.000  0.000  0.617
atom   22   Tr[ns(na)] =   8.02363
    eigenvalues:
  0.651  0.666  0.833  0.886  0.977
    eigenvectors:
  0.000  0.141  0.000  0.000  0.858
  1.000  0.000  0.000  0.000  0.000
  0.000  0.000  1.000  0.000  0.000
  0.000  0.858  0.000  0.000  0.142
  0.000  0.000  0.000  1.000  0.000
    occupations:
  0.933  0.001 -0.000 -0.108 -0.000
  0.001  0.651  0.000 -0.000 -0.000
 -0.000  0.000  0.833 -0.000  0.001
 -0.108 -0.000 -0.000  0.710  0.000
 -0.000 -0.000  0.001  0.000  0.886
atom   23   Tr[ns(na)] =   8.03169
    eigenvalues:
  0.621  0.668  0.835  0.914  0.979
    eigenvectors:
  0.000  0.989  0.000  0.000  0.010
  0.000  0.000  0.000  0.999  0.000
  0.000  0.000  1.000  0.000  0.000
  0.000  0.010  0.000  0.000  0.990
  1.000  0.000  0.000  0.000  0.000
    occupations:
  0.671  0.005  0.000  0.031 -0.000
  0.005  0.913 -0.000 -0.000 -0.000
  0.000 -0.000  0.835  0.000 -0.001
  0.031 -0.000  0.000  0.976  0.000
 -0.000 -0.000 -0.001  0.000  0.621
N of occupied +U levels =  64.3710664
 --- exit write_ns ---

     Threshold (ethr) on eigenvalues was too large:
     Diagonalizing with lowered threshold

     Davidson diagonalization with overlap
     ethr =  5.51E-09,  avg # of iterations =  2.0

[...]

     total energy              =   -2107.05040131 Ry
     Harris-Foulkes estimate   =   -2107.05040131 Ry
     estimated scf accuracy    <       0.00000002 Ry

     iteration # 15     ecut=    40.00 Ry     beta=0.70
     Davidson diagonalization with overlap
     ethr =  5.43E-12,  avg # of iterations =  1.0

     negative rho (up, down):  0.313E+01 0.000E+00

     End of self-consistent calculation
 --- enter write_ns ---
 LDA+U parameters:
U( 2)     =  1.00000000
alpha( 2) =  0.00000000
atom    3   Tr[ns(na)] =   8.07529
    eigenvalues:
  0.604  0.631  0.875  0.954  0.973
    eigenvectors:
  0.002  0.185  0.003  0.001  0.810
  0.992  0.007  0.000  0.000  0.000
  0.000  0.000  0.976  0.022  0.002
  0.005  0.808  0.000  0.000  0.186
  0.000  0.000  0.021  0.977  0.001
    occupations:
  0.909 -0.005  0.004 -0.133 -0.002
 -0.005  0.605 -0.001  0.000 -0.005
  0.004 -0.001  0.877 -0.004  0.011
 -0.133  0.000 -0.004  0.695 -0.000
 -0.002 -0.005  0.011 -0.000  0.953
atom    4   Tr[ns(na)] =   8.05006
    eigenvalues:
  0.619  0.664  0.854  0.910  0.979
    eigenvectors:
  0.000  0.990  0.000  0.000  0.010
  0.000  0.000  0.034  0.966  0.000
  0.000  0.000  0.966  0.034  0.000
  0.000  0.010  0.000  0.000  0.990
  1.000  0.000  0.000  0.000  0.000
    occupations:
  0.667 -0.003 -0.001  0.031  0.001
 -0.003  0.908  0.010  0.000 -0.001
 -0.001  0.010  0.856 -0.000  0.000
  0.031  0.000 -0.000  0.976  0.000
  0.001 -0.001  0.000  0.000  0.619
atom    9   Tr[ns(na)] =   8.02831
    eigenvalues:
  0.650  0.665  0.839  0.883  0.977
    eigenvectors:
  0.000  0.143  0.000  0.000  0.857
  0.999  0.001  0.000  0.000  0.000
  0.000  0.000  0.999  0.001  0.000
  0.000  0.857  0.000  0.000  0.143
  0.000  0.000  0.001  0.999  0.000
    occupations:
  0.932 -0.000  0.000 -0.109 -0.001
 -0.000  0.650  0.000  0.000 -0.000
  0.000  0.000  0.839 -0.000 -0.001
 -0.109  0.000 -0.000  0.709  0.001
 -0.001 -0.000 -0.001  0.001  0.883
atom   10   Tr[ns(na)] =   8.03621
    eigenvalues:
  0.602  0.608  0.909  0.920  0.979
    eigenvectors:
  0.992  0.000  0.000  0.000  0.007
  0.000  0.000  1.000  0.000  0.000
  0.000  0.000  0.000  1.000  0.000
  0.007  0.000  0.000  0.000  0.993
  0.000  1.000  0.000  0.000  0.000
    occupations:
  0.605 -0.003  0.001  0.032 -0.000
 -0.003  0.909 -0.000 -0.000 -0.000
  0.001 -0.000  0.920 -0.000  0.002
  0.032 -0.000 -0.000  0.977  0.000
 -0.000 -0.000  0.002  0.000  0.608
atom   16   Tr[ns(na)] =   8.07479
    eigenvalues:
  0.605  0.631  0.874  0.954  0.973
    eigenvectors:
  0.003  0.184  0.003  0.001  0.809
  0.991  0.009  0.000  0.000  0.000
  0.000  0.000  0.979  0.018  0.003
  0.006  0.807  0.000  0.000  0.186
  0.000  0.000  0.017  0.981  0.002
    occupations:
  0.909  0.005  0.004 -0.133  0.002
  0.005  0.605  0.001  0.000 -0.005
  0.004  0.001  0.876 -0.004 -0.010
 -0.133  0.000 -0.004  0.695  0.000
  0.002 -0.005 -0.010  0.000  0.953
atom   17   Tr[ns(na)] =   8.04984
    eigenvalues:
  0.617  0.663  0.860  0.905  0.979
    eigenvectors:
  0.000  0.990  0.000  0.000  0.010
  0.000  0.000  0.062  0.938  0.000
  0.000  0.000  0.938  0.062  0.000
  0.000  0.010  0.000  0.000  0.990
  1.000  0.000  0.000  0.000  0.000
    occupations:
  0.666 -0.003 -0.001  0.031  0.001
 -0.003  0.902  0.011  0.000 -0.001
 -0.001  0.011  0.863 -0.000  0.000
  0.031  0.000 -0.000  0.976  0.000
  0.001 -0.001  0.000  0.000  0.617
atom   22   Tr[ns(na)] =   8.02326
    eigenvalues:
  0.651  0.666  0.833  0.886  0.977
    eigenvectors:
  0.000  0.141  0.000  0.000  0.858
  1.000  0.000  0.000  0.000  0.000
  0.000  0.000  1.000  0.000  0.000
  0.000  0.858  0.000  0.000  0.142
  0.000  0.000  0.000  1.000  0.000
    occupations:
  0.933  0.001 -0.000 -0.108 -0.000
  0.001  0.651  0.000 -0.000 -0.000
 -0.000  0.000  0.833 -0.000  0.001
 -0.108 -0.000 -0.000  0.710  0.000
 -0.000 -0.000  0.001  0.000  0.886
atom   23   Tr[ns(na)] =   8.03296
    eigenvalues:
  0.621  0.668  0.836  0.914  0.979
    eigenvectors:
  0.000  0.989  0.000  0.000  0.010
  0.000  0.000  0.000  0.999  0.000
  0.000  0.000  1.000  0.000  0.000
  0.000  0.010  0.000  0.000  0.990
  1.000  0.000  0.000  0.000  0.000
    occupations:
  0.671  0.005  0.000  0.031 -0.000
  0.005  0.914 -0.000 -0.000 -0.000
  0.000 -0.000  0.836  0.000 -0.001
  0.031 -0.000  0.000  0.976  0.000
 -0.000 -0.000 -0.001  0.000  0.621
N of occupied +U levels =  64.3707257
 --- exit write_ns ---

[...]

          k = 0.2500-0.4953 0.0000 ( 31088 PWs)   bands (ev):

[...]

          k =-0.2500 0.2476 0.0000 ( 31099 PWs)   bands (ev):

   -51.1028 -51.0932 -51.0768 -51.0308 -50.9703 -50.9360 -50.9284 -50.9178
   -50.9020 -50.8931 -50.8458 -50.7953 -50.7834 -50.7701 -50.7291 -50.7159
   -50.7089 -50.6902 -50.6259 -50.6009 -50.5919 -50.5768 -50.5726 -50.4299
   -21.4738 -21.0918 -21.0654 -20.9503 -20.6172 -20.4816 -20.4460 -20.3134
   -20.2093 -20.1618 -20.0963 -19.9592 -19.8917 -19.8623 -19.7707 -19.6950
   -19.5143 -18.6779 -18.5777  -9.8129  -9.7015  -9.6173  -9.2653  -8.9153
    -8.7868  -8.7703  -8.6783  -8.6264  -8.5636  -8.4987  -8.4944  -8.4154
    -8.3632  -8.0435  -7.9665  -7.9005  -7.7227  -7.5552  -7.4720  -7.3159
    -7.1770  -7.0892  -7.0577  -6.6702  -6.5116  -6.4366  -6.3170  -6.2177
    -6.1650  -6.1226  -6.0487  -5.9637  -5.9007  -5.8329  -5.7276  -5.6121
    -5.5259  -5.4369  -5.2695  -5.0694  -4.9757  -4.8668  -4.7252  -4.6806
    -4.5196  -4.4748  -4.3037  -4.1732  -4.1286  -3.9585  -3.8052  -3.6494
    -3.4336  -3.3252  -3.2732  -3.0826  -2.7959  -2.6883  -2.6240  -2.5847
    -2.5428  -2.4688  -2.4063  -2.3415  -2.2990  -2.2566  -2.1993  -2.0396
    -2.0114  -1.8790  -1.6152  -1.4546  -1.1931  -1.0445  -0.8575  -0.8392
    -0.7638  -0.5668  -0.4506  -0.2616  -0.0262   0.9472   0.9771   1.2450
     1.6313   1.7218   2.1453   2.2457   2.6386   2.6906   2.8187   2.8896
     3.1158   3.2775   3.3231   3.6743   3.8075   4.3006   4.8569   5.2794
     5.4545   5.6080   5.7067   6.0259   6.2861   6.5605   6.6543   6.6892
     6.7581   6.9436   7.1531   7.2297   7.3589   7.4295   7.5490   7.6822
     7.9163   8.0363   8.0786   8.1439   8.2577   8.4637   8.5006   8.5465
     8.7658   8.8355   8.8431   8.9032   8.9602   8.9769   8.9934   9.0040
     9.0130   9.0605   9.1279   9.1503   9.1606   9.1682   9.2094   9.4123
     9.5411   9.5880   9.6915   9.7466   9.8168   9.9244  10.0642  10.1395
    10.2205  10.3232  10.3777  10.4601  10.4970  10.5233  10.6041  10.8125
    10.8517  10.9840  10.9985  11.0789  11.1392  11.2322  11.3958  11.5241
    11.5638  11.6730  11.7034  11.7774  11.8197  11.9717  12.1699  12.1878
    12.2424  12.3121  12.3567  12.4225  12.5499  12.6317  12.6456  12.7219
    12.7750  12.8058  12.9176  12.9861  13.0559  13.1238  13.1877  13.2100
    13.2991  13.4068  13.4481  13.6181  13.6419  13.7787  13.8684  13.9170
    13.9851  14.0490  14.1308  14.2108  14.3018  14.3869  14.4542  14.5301
    14.6858  14.7357  14.7731  14.9100  15.0067  15.1582  15.2156  15.2988
    15.4110  15.4353  15.5105  15.5598  15.6110  15.7633  15.8043  15.8602
    15.9080  15.9560  15.9832  16.0856  16.1233  16.1679  16.2180  16.2967
    16.3652  16.4050  16.4195  16.4965  16.5355  16.6365  16.7048  16.7536
    16.8006  16.8914  17.0938  17.1330  17.1664  17.2987  17.3224  17.4109
    17.4701  17.5393  17.5510  17.6166  17.6807  17.7169  17.7525  17.8522
    17.9190  17.9631  18.0075  18.1278  18.2077  18.2560  18.3017  18.3706
    18.4758  18.5666  18.6303  18.6716  18.7627  18.8560  18.9192  18.9656
    19.0333  19.1004  19.1345  19.2187  19.2705  19.3263  19.3779  19.5319
    19.5635  19.6188  19.6987  19.7383  19.8544  19.9207  19.9976  20.0574
    20.1168  20.2194  20.3449  20.3796  20.4408  20.5590  20.6188  20.7085
    20.7461  20.7751  20.8649  20.8905  20.9312  20.9941  21.0645  21.1304
    21.1871  21.2877  21.3050  21.3721  21.4311  21.4617  21.5193  21.5727
    21.6935  21.7430  21.8101  21.8379  21.8941  21.9667

     the Fermi energy is    -0.8507 ev

!    total energy              =   -2107.05040130 Ry
     Harris-Foulkes estimate   =   -2107.05040131 Ry
     estimated scf accuracy    <          7.5E-09 Ry

     The total energy is the sum of the following terms:

     one-electron contribution =  -22732.84387040 Ry
     hartree contribution      =   11410.00374774 Ry
     xc contribution           =    -577.12462086 Ry
     ewald contribution        =    9792.51419581 Ry
     Hubbard energy            =       0.40049692 Ry
     smearing contrib. (-TS)   =      -0.00035050 Ry

     convergence has been achieved in  15 iterations

     Forces acting on atoms (Ry/au):

     negative rho (up, down):  0.313E+01 0.000E+00
     atom    1 type  1   force =    -0.00745177   -0.01373328   -0.00019578
     atom    2 type  1   force =     0.00048673    0.00514748    0.00064489
     atom    3 type  2   force =     0.03218058    0.00674331   -0.00029619
     atom    4 type  2   force =     0.00940948    0.00841659   -0.00014541
     atom    5 type  1   force =    -0.00260591   -0.01665322    0.00030513
     atom    6 type  1   force =     0.00384712    0.01425159    0.00032323
     atom    7 type  1   force =     0.00148956   -0.00176681   -0.00067276
     atom    8 type  1   force =    -0.00254496   -0.00070264    0.00001048
     atom    9 type  2   force =     0.00820013    0.00020637   -0.00015023
     atom   10 type  2   force =    -0.00739257   -0.00134291   -0.00053436
     atom   11 type  1   force =    -0.00663437    0.00869713    0.00010616
     atom   12 type  1   force =    -0.00650418   -0.00845499    0.00009803
     atom   13 type  1   force =    -0.00115493   -0.00010651    0.00014891
     atom   14 type  1   force =    -0.00820250   -0.01447788   -0.00009598
     atom   15 type  1   force =     0.00031930    0.00611245    0.00029787
     atom   16 type  2   force =    -0.03319062    0.00602817   -0.00020851
     atom   17 type  2   force =     0.00981242    0.00862387   -0.00009926
     atom   18 type  1   force =    -0.00223101   -0.01638858    0.00028700
     atom   19 type  1   force =     0.00324086    0.01495022    0.00029455
     atom   20 type  1   force =    -0.00104215   -0.00492735   -0.00034386
     atom   21 type  1   force =    -0.00413147   -0.00058793   -0.00018986
     atom   22 type  2   force =    -0.00538774    0.00048046   -0.00015720
     atom   23 type  2   force =     0.00237134   -0.00038447   -0.00009077
     atom   24 type  1   force =     0.00801584    0.01241832    0.00004663
     atom   25 type  1   force =     0.00862278   -0.01249478    0.00004746
     atom   26 type  1   force =    -0.00102009   -0.00020837   -0.00031952
     atom   27 type  3   force =    -0.00001279   -0.00016297    0.00036445
     atom   28 type  3   force =    -0.00000288    0.00003313    0.00027712
     atom   29 type  3   force =     0.00024634    0.00004473    0.00015882
     atom   30 type  3   force =     0.00013141    0.00022608    0.00010715
     atom   31 type  1   force =     0.00047838   -0.00002147    0.00033300
     atom   32 type  3   force =     0.00065766    0.00003423   -0.00035117

     Total force =     0.001866     Total SCF correction =     0.000370
     SCF correction compared to forces is large: reduce conv_thr to get better values

     bfgs converged in   6 scf cycles and   5 bfgs steps
     (criteria: energy < 0.10E-03, force < 0.10E-02)

     End of BFGS Geometry Optimization

     Final energy   =   -2107.0504013022 Ry
Begin final coordinates

ATOMIC_POSITIONS (crystal)
O0       0.000000000   0.000000000   0.378424304    0   0   1
O0       0.000000000   0.500000000   0.402666708    0   0   1
Ir1      0.250000000   0.500000000   0.452736312    0   0   1
Ir1      0.000000000   0.000000000   0.453166628    0   0   1
O0       0.250000000   0.810000000   0.452839975    0   0   1
O0       0.250000000   0.190000000   0.452523988    0   0   1
O0       0.000000000   0.500000000   0.498545636    0   0   1
O0       0.000000000   0.000000000   0.528790794    0   0   1
Ir1      0.250000000   0.000000000   0.575879636    0   0   1
Ir1      0.000000000   0.500000000   0.571732630    0   0   1
O0       0.250000000   0.690000000   0.575796093    0   0   1
O0       0.250000000   0.310000000   0.575870857    0   0   1
O0       0.000000000   0.000000000   0.620468174    0   0   1
O0       0.500000000   0.000000000   0.378135189    0   0   1
O0       0.500000000   0.500000000   0.402068207    0   0   1
Ir1      0.750000000   0.500000000   0.452742750    0   0   1
Ir1      0.500000000   0.000000000   0.452980913    0   0   1
O0       0.750000000   0.810000000   0.452858099    0   0   1
O0       0.750000000   0.190000000   0.452519244    0   0   1
O0       0.500000000   0.500000000   0.499534135    0   0   1
O0       0.500000000   0.000000000   0.528742761    0   0   1
Ir1      0.750000000   0.000000000   0.575827049    0   0   1
Ir1      0.500000000   0.500000000   0.575400943    0   0   1
O0       0.750000000   0.690000000   0.575022519    0   0   1
O0       0.750000000   0.310000000   0.575121293    0   0   1
O0       0.500000000   0.000000000   0.620084632    0   0   1
H2      -0.000075716   0.633789215   0.383811616
H2       0.500000496   0.636734632   0.384459832
H2       0.143577318   0.033642813   0.366797017
H2       0.643017966   0.035599612   0.366520115
O0       0.515943101   0.499975609   0.648391984
H2       0.375065143   0.500365005   0.663819965
End final coordinates

     General routines

     Parallel routines
     Hubbard U routines

   This run was terminated on:  11:26:21  29Apr2014

   JOB DONE.