     Program PWSCF v.5.0.2 (svn rev. 9656) starts on  8Aug2014 at 17:28:51

     Current dimensions of program PWSCF are:
     Max number of different atomic species (ntypx) = 10
     Max number of k-points (npk) =  40000
     Max angular momentum in pseudopotentials (lmaxx) =  3
     Reading input from pwscf.in
Warning: card &CELL ignored
Warning: card / ignored

     Subspace diagonalization in iterative solution of the eigenvalue problem:
     a serial algorithm will be used

     bravais-lattice index     =            0
     lattice parameter (alat)  =      11.2250  a.u.
     unit-cell volume          =    7005.5484 (a.u.)^3
     number of atoms/cell      =           33
     number of atomic types    =            3
     number of electrons       =       221.00
     number of Kohn-Sham states=          319
     kinetic-energy cutoff     =      40.0000  Ry
     charge density cutoff     =     500.0000  Ry
     convergence threshold     =      1.0E-06
     mixing beta               =       0.7000
     number of iterations used =            8  plain     mixing
     Exchange-correlation      = SLA  PW   PBE  PBE ( 1 4 3 4 0)
     EXX-fraction              =        0.00
     nstep                     =           50

     celldm(1)=  11.224973  celldm(2)=   0.000000  celldm(3)=   0.000000
     celldm(4)=   0.000000  celldm(5)=   0.000000  celldm(6)=   0.000000

     crystal axes: (cart. coord. in units of alat)
               a(1) = (   1.000000   0.000000   0.000000 )
               a(2) = (   0.000000   1.107086   0.000000 )
               a(3) = (   0.000000   0.000000   4.474090 )

     reciprocal axes: (cart. coord. in units 2 pi/alat)
               b(1) = (  1.000000  0.000000  0.000000 )
               b(2) = (  0.000000  0.903272  0.000000 )
               b(3) = (  0.000000  0.000000  0.223509 )

     PseudoPot. # 1 for O  read from file:
     /home-research/zhongnanxu/gbrv_espresso_pseudo_v1.01/o_pbe_v1.01.uspp.F.UPF
     MD5 check sum: 2bcb18d16ea4b960afae9ec6d52f22d2
     Pseudo is Ultrasoft + core correction, Zval =  6.0
     Generated by new atomic code, or converted to UPF format
     Using radial grid of  737 points,  5 beta functions with:
                l(1) =   0
                l(2) =   0
                l(3) =   1
                l(4) =   1
                l(5) =   2
     Q(r) pseudized with  8 coefficients,  rinner =    0.900   0.900   0.900
                                                       0.900   0.900

     PseudoPot. # 2 for Ti read from file:
     /home-research/zhongnanxu/gbrv_espresso_pseudo_v1.01/ti_pbe_v1.uspp.F.UPF
     MD5 check sum: bcc8f6961b3b91f0cac3ca967d22d0fb
     Pseudo is Ultrasoft + core correction, Zval = 12.0
     Generated by new atomic code, or converted to UPF format
     Using radial grid of  851 points,  6 beta functions with:
                l(1) =   0
                l(2) =   0
                l(3) =   1
                l(4) =   1
                l(5) =   2
                l(6) =   2
     Q(r) pseudized with  6 coefficients,  rinner =    1.000   1.000   1.000
                                                       1.000   1.000

     PseudoPot. # 3 for H  read from file:
     /home-research/zhongnanxu/gbrv_espresso_pseudo_v1.01/h_pbe_v1.uspp.F.UPF
     MD5 check sum: 3408e3ff4ec8b0a4e358431e7e038a48
     Pseudo is Ultrasoft, Zval =  1.0
     Generated by new atomic code, or converted to UPF format
     Using radial grid of  615 points,  2 beta functions with:
                l(1) =   0
                l(2) =   0
     Q(r) pseudized with  8 coefficients,  rinner =    0.700

     atomic species   valence    mass     pseudopotential
        O0             6.00    15.99940     O ( 1.00)
        Ti1           12.00    47.88000     Ti( 1.00)
        H2             1.00     1.00794     H ( 1.00)

     Simplified LDA+U calculation (l_max = 2) with parameters (eV):
     atomic species    L          U    alpha       J0     beta
        Ti1            2     5.5000   0.0000   0.0000   0.0000

     No symmetry found

   Cartesian axes

     site n.     atom                  positions (alat units)
         1           O0  tau(   1) = (   0.0000000   0.0000000   1.6912954  )
         2           O0  tau(   2) = (   0.0000000   0.5535432   1.7865040  )
         3           Ti1 tau(   3) = (   0.2500000   0.5535432   2.0182619  )
         4           Ti1 tau(   4) = (   0.0000000   0.0000000   2.0215280  )
         5           O0  tau(   5) = (   0.2500000   0.8967400   2.0132062  )
         6           O0  tau(   6) = (   0.2500000   0.2103464   2.0173223  )
         7           O0  tau(   7) = (   0.0000000   0.5535432   2.2297074  )
         8           O0  tau(   8) = (   0.0000000   0.0000000   2.3520737  )
         9           Ti1 tau(   9) = (   0.2500000   0.0000000   2.5974328  )
        10           Ti1 tau(  10) = (   0.0000000   0.5535432   2.5411040  )
        11           O0  tau(  11) = (   0.2500000   0.7638896   2.5876345  )
        12           O0  tau(  12) = (   0.2500000   0.3431968   2.5923323  )
        13           O0  tau(  13) = (   0.0000000   0.0000000   2.7826601  )
        14           O0  tau(  14) = (   0.5000000   0.0000000   1.6946510  )
        15           O0  tau(  15) = (   0.5000000   0.5535432   1.7849381  )
        16           Ti1 tau(  16) = (   0.7500000   0.5535432   2.0183066  )
        17           Ti1 tau(  17) = (   0.5000000   0.0000000   2.0277470  )
        18           O0  tau(  18) = (   0.7500000   0.8967400   2.0129377  )
        19           O0  tau(  19) = (   0.7500000   0.2103464   2.0175013  )
        20           O0  tau(  20) = (   0.5000000   0.5535432   2.2179405  )
        21           O0  tau(  21) = (   0.5000000   0.0000000   2.3528791  )
        22           Ti1 tau(  22) = (   0.7500000   0.0000000   2.5974328  )
        23           Ti1 tau(  23) = (   0.5000000   0.5535432   2.6181478  )
        24           O0  tau(  24) = (   0.7500000   0.7638896   2.5875898  )
        25           O0  tau(  25) = (   0.7500000   0.3431968   2.5922429  )
        26           O0  tau(  26) = (   0.5000000   0.0000000   2.7811837  )
        27           H2  tau(  27) = (  -0.0004600   0.6930693   1.6949194  )
        28           H2  tau(  28) = (   0.4997200   0.6918293   1.6916086  )
        29           H2  tau(  29) = (   0.1490000   0.0365781   1.6268238  )
        30           H2  tau(  30) = (   0.6482800   0.0381834   1.6297319  )
        31           O0  tau(  31) = (   0.5003100   0.5833902   2.9430115  )
        32           O0  tau(  32) = (   0.4991200   0.3876242   3.0783974  )
        33           H2  tau(  33) = (   0.5003600   0.4575034   3.2295322  )

     number of k points=    10  Methfessel-Paxton smearing, width (Ry)=  0.0100
                       cart. coord. in units 2pi/alat
        k(    1) = (   0.0000000   0.0000000   0.0000000), wk =   0.1250000
        k(    2) = (   0.0000000   0.2258180   0.0000000), wk =   0.2500000
        k(    3) = (   0.0000000  -0.4516359   0.0000000), wk =   0.1250000
        k(    4) = (   0.2500000   0.0000000   0.0000000), wk =   0.2500000
        k(    5) = (   0.2500000   0.2258180   0.0000000), wk =   0.2500000
        k(    6) = (   0.2500000  -0.4516359   0.0000000), wk =   0.2500000
        k(    7) = (  -0.5000000   0.0000000   0.0000000), wk =   0.1250000
        k(    8) = (  -0.5000000   0.2258180   0.0000000), wk =   0.2500000
        k(    9) = (  -0.5000000  -0.4516359   0.0000000), wk =   0.1250000
        k(   10) = (  -0.2500000   0.2258180   0.0000000), wk =   0.2500000

     Largest allocated arrays     est. size (Mb)     dimensions
     Largest temporary arrays     est. size (Mb)     dimensions

     Check: negative/imaginary core charge=   -0.000006    0.000000

     Initial potential from superposition of free atoms
     Check: negative starting charge=   -0.102033

     starting charge  212.99957, renormalised to  221.00000

     negative rho (up, down):  0.106E+00 0.000E+00
     Number of +U iterations with fixed ns =  0
     Starting occupations:
 --- enter write_ns ---
 LDA+U parameters:
U( 2)     =  5.50000000
alpha( 2) =  0.00000000
atom    3   Tr[ns(na)] =   2.00000
    eigenvalues:
  0.200  0.200  0.200  0.200  0.200
    eigenvectors:
  1.000  0.000  0.000  0.000  0.000
  0.000  1.000  0.000  0.000  0.000
  0.000  0.000  1.000  0.000  0.000
  0.000  0.000  0.000  1.000  0.000
  0.000  0.000  0.000  0.000  1.000
    occupations:
  0.200  0.000  0.000  0.000  0.000
  0.000  0.200  0.000  0.000  0.000
  0.000  0.000  0.200  0.000  0.000
  0.000  0.000  0.000  0.200  0.000
  0.000  0.000  0.000  0.000  0.200
atom    4   Tr[ns(na)] =   2.00000
    eigenvalues:
  0.200  0.200  0.200  0.200  0.200
    eigenvectors:
  1.000  0.000  0.000  0.000  0.000
  0.000  1.000  0.000  0.000  0.000
  0.000  0.000  1.000  0.000  0.000
  0.000  0.000  0.000  1.000  0.000
  0.000  0.000  0.000  0.000  1.000
    occupations:
  0.200  0.000  0.000  0.000  0.000
  0.000  0.200  0.000  0.000  0.000
  0.000  0.000  0.200  0.000  0.000
  0.000  0.000  0.000  0.200  0.000
  0.000  0.000  0.000  0.000  0.200
atom    9   Tr[ns(na)] =   2.00000
    eigenvalues:
  0.200  0.200  0.200  0.200  0.200
    eigenvectors:
  1.000  0.000  0.000  0.000  0.000
  0.000  1.000  0.000  0.000  0.000
  0.000  0.000  1.000  0.000  0.000
  0.000  0.000  0.000  1.000  0.000
  0.000  0.000  0.000  0.000  1.000
    occupations:
  0.200  0.000  0.000  0.000  0.000
  0.000  0.200  0.000  0.000  0.000
  0.000  0.000  0.200  0.000  0.000
  0.000  0.000  0.000  0.200  0.000
  0.000  0.000  0.000  0.000  0.200
atom   10   Tr[ns(na)] =   2.00000
    eigenvalues:
  0.200  0.200  0.200  0.200  0.200
    eigenvectors:
  1.000  0.000  0.000  0.000  0.000
  0.000  1.000  0.000  0.000  0.000
  0.000  0.000  1.000  0.000  0.000
  0.000  0.000  0.000  1.000  0.000
  0.000  0.000  0.000  0.000  1.000
    occupations:
  0.200  0.000  0.000  0.000  0.000
  0.000  0.200  0.000  0.000  0.000
  0.000  0.000  0.200  0.000  0.000
  0.000  0.000  0.000  0.200  0.000
  0.000  0.000  0.000  0.000  0.200
atom   16   Tr[ns(na)] =   2.00000
    eigenvalues:
  0.200  0.200  0.200  0.200  0.200
    eigenvectors:
  1.000  0.000  0.000  0.000  0.000
  0.000  1.000  0.000  0.000  0.000
  0.000  0.000  1.000  0.000  0.000
  0.000  0.000  0.000  1.000  0.000
  0.000  0.000  0.000  0.000  1.000
    occupations:
  0.200  0.000  0.000  0.000  0.000
  0.000  0.200  0.000  0.000  0.000
  0.000  0.000  0.200  0.000  0.000
  0.000  0.000  0.000  0.200  0.000
  0.000  0.000  0.000  0.000  0.200
atom   17   Tr[ns(na)] =   2.00000
    eigenvalues:
  0.200  0.200  0.200  0.200  0.200
    eigenvectors:
  1.000  0.000  0.000  0.000  0.000
  0.000  1.000  0.000  0.000  0.000
  0.000  0.000  1.000  0.000  0.000
  0.000  0.000  0.000  1.000  0.000
  0.000  0.000  0.000  0.000  1.000
    occupations:
  0.200  0.000  0.000  0.000  0.000
  0.000  0.200  0.000  0.000  0.000
  0.000  0.000  0.200  0.000  0.000
  0.000  0.000  0.000  0.200  0.000
  0.000  0.000  0.000  0.000  0.200
atom   22   Tr[ns(na)] =   2.00000
    eigenvalues:
  0.200  0.200  0.200  0.200  0.200
    eigenvectors:
[...]
  0.110 -0.010  0.007  0.364 -0.001
  0.001  0.013 -0.007 -0.001  0.156
atom    4   Tr[ns(na)] =   2.72529
    eigenvalues:
  0.137  0.166  0.184  0.431  0.445
    eigenvectors:
  0.007  0.003  0.000  0.000  0.990
  0.002  0.875  0.120  0.000  0.003
  0.001  0.119  0.879  0.000  0.000
  0.990  0.003  0.000  0.000  0.006
  0.000  0.000  0.000  1.000  0.000
    occupations:
  0.442  0.015  0.005 -0.025  0.000
  0.015  0.169 -0.006  0.000 -0.003
  0.005 -0.006  0.182  0.001  0.000
 -0.025  0.000  0.001  0.139  0.000
  0.000 -0.003  0.000  0.000  0.431
atom    9   Tr[ns(na)] =   2.72521
    eigenvalues:
  0.141  0.185  0.198  0.381  0.457
    eigenvectors:
  0.000  0.001  0.906  0.093  0.000
  0.000  0.000  0.000  0.000  1.000
  0.999  0.001  0.000  0.000  0.000
  0.000  0.000  0.092  0.907  0.000
  0.001  0.998  0.001  0.000  0.000
    occupations:
  0.215  0.001  0.001  0.053  0.000
  0.001  0.457  0.000 -0.002  0.000
  0.001  0.000  0.141  0.002 -0.001
  0.053 -0.002  0.002  0.364  0.000
  0.000  0.000 -0.001  0.000  0.185
atom   10   Tr[ns(na)] =   2.65638
    eigenvalues:
  0.147  0.184  0.204  0.329  0.464
    eigenvectors:
  0.020  0.000  0.000  0.980  0.000
  0.000  0.000  1.000  0.000  0.000
  0.001  0.999  0.000  0.000  0.000
  0.979  0.001  0.000  0.020  0.000
  0.000  0.000  0.000  0.000  1.000
    occupations:
  0.326  0.000 -0.001 -0.026  0.000
  0.000  0.204  0.000  0.000  0.004
 -0.001  0.000  0.184 -0.001  0.000
 -0.026  0.000 -0.001  0.151  0.000
  0.000  0.004  0.000  0.000  0.464
atom   16   Tr[ns(na)] =   2.61462
    eigenvalues:
  0.136  0.151  0.169  0.414  0.437
    eigenvectors:
  0.728  0.037  0.043  0.167  0.026
  0.000  0.002  0.001  0.162  0.835
  0.087  0.199  0.713  0.000  0.000
  0.179  0.007  0.007  0.670  0.137
  0.006  0.756  0.236  0.000  0.002
    occupations:
  0.192 -0.001 -0.005  0.110 -0.001
 -0.001  0.433 -0.001  0.010  0.013
 -0.005 -0.001  0.162  0.007  0.007
  0.110  0.010  0.007  0.364  0.000
 -0.001  0.013  0.007  0.000  0.156
atom   17   Tr[ns(na)] =   2.72534
    eigenvalues:
  0.135  0.168  0.184  0.428  0.447
    eigenvectors:
  0.007  0.002  0.000  0.000  0.991
  0.001  0.888  0.109  0.000  0.002
  0.001  0.108  0.891  0.000  0.000
  0.992  0.002  0.000  0.000  0.006
  0.000  0.000  0.000  1.000  0.000
    occupations:
  0.444  0.013  0.005 -0.025  0.000
  0.013  0.171 -0.005  0.000 -0.003
  0.005 -0.005  0.182  0.001  0.000
 -0.025  0.000  0.001  0.137  0.000
  0.000 -0.003  0.000  0.000  0.428
atom   22   Tr[ns(na)] =   2.72528
    eigenvalues:
  0.141  0.185  0.198  0.381  0.457
    eigenvectors:
  0.000  0.001  0.907  0.092  0.000
  0.000  0.000  0.000  0.000  1.000
  0.999  0.001  0.000  0.000  0.000
  0.000  0.000  0.092  0.907  0.000
  0.001  0.999  0.001  0.000  0.000
    occupations:
  0.215 -0.001  0.001  0.053  0.000
 -0.001  0.457  0.000  0.002  0.000
  0.001  0.000  0.141  0.002  0.001
  0.053  0.002  0.002  0.364  0.000
  0.000  0.000  0.001  0.000  0.185
atom   23   Tr[ns(na)] =   2.64046
    eigenvalues:
  0.134  0.151  0.191  0.377  0.468
    eigenvectors:
  0.001  0.010  0.000  0.989  0.000
  0.000  0.000  1.000  0.000  0.000
  0.999  0.000  0.000  0.001  0.000
  0.000  0.990  0.000  0.010  0.000
  0.000  0.000  0.000  0.000  1.000
    occupations:
  0.375  0.000 -0.008 -0.022  0.000
  0.000  0.191  0.000  0.000  0.002
 -0.008  0.000  0.134  0.001  0.000
 -0.022  0.000  0.001  0.153  0.000
  0.000  0.002  0.000  0.000  0.467
N of occupied +U levels =  21.4269494
 --- exit write_ns ---

[...]

     total energy              =   -1597.26480445 Ry
     Harris-Foulkes estimate   =   -1597.26480446 Ry
     estimated scf accuracy    <       0.00000016 Ry

     iteration # 12     ecut=    40.00 Ry     beta=0.70
     Davidson diagonalization with overlap
     ethr =  7.09E-11,  avg # of iterations =  1.0

     negative rho (up, down):  0.107E+00 0.000E+00

     End of self-consistent calculation
 --- enter write_ns ---
 LDA+U parameters:
U( 2)     =  5.50000000
alpha( 2) =  0.00000000
atom    3   Tr[ns(na)] =   2.61436
    eigenvalues:
  0.136  0.151  0.169  0.414  0.437
    eigenvectors:
  0.723  0.041  0.043  0.167  0.027
  0.000  0.002  0.001  0.164  0.833
  0.092  0.205  0.703  0.000  0.000
  0.178  0.008  0.007  0.669  0.138
  0.007  0.745  0.246  0.000  0.002
    occupations:
  0.193  0.001 -0.005  0.110  0.001
  0.001  0.433  0.001 -0.010  0.013
 -0.005  0.001  0.162  0.007 -0.008
  0.110 -0.010  0.007  0.364 -0.001
  0.001  0.013 -0.008 -0.001  0.156
atom    4   Tr[ns(na)] =   2.72507
    eigenvalues:
  0.137  0.166  0.184  0.431  0.445
    eigenvectors:
  0.007  0.003  0.000  0.000  0.990
  0.002  0.875  0.120  0.000  0.003
  0.001  0.119  0.880  0.000  0.000
  0.990  0.003  0.000  0.000  0.006
  0.000  0.000  0.000  1.000  0.000
    occupations:
  0.442  0.015  0.005 -0.025  0.000
  0.015  0.169 -0.006  0.000 -0.003
  0.005 -0.006  0.182  0.001  0.000
 -0.025  0.000  0.001  0.139  0.000
  0.000 -0.003  0.000  0.000  0.431
atom    9   Tr[ns(na)] =   2.72370
    eigenvalues:
  0.141  0.185  0.198  0.381  0.457
    eigenvectors:
  0.000  0.001  0.906  0.093  0.000
  0.000  0.000  0.000  0.000  1.000
  0.999  0.001  0.000  0.000  0.000
  0.000  0.000  0.093  0.907  0.000
  0.001  0.998  0.001  0.000  0.000
    occupations:
  0.215  0.001  0.001  0.053  0.000
  0.001  0.457  0.000 -0.002  0.000
  0.001  0.000  0.141  0.002 -0.001
  0.053 -0.002  0.002  0.364  0.000
  0.000  0.000 -0.001  0.000  0.185
atom   10   Tr[ns(na)] =   2.65661
    eigenvalues:
  0.147  0.184  0.204  0.329  0.464
    eigenvectors:
  0.020  0.000  0.000  0.980  0.000
  0.000  0.000  1.000  0.000  0.000
  0.001  0.999  0.000  0.000  0.000
  0.979  0.001  0.000  0.020  0.000
  0.000  0.000  0.000  0.000  1.000
    occupations:
  0.326  0.000 -0.001 -0.026  0.000
  0.000  0.204  0.000  0.000  0.004
 -0.001  0.000  0.184 -0.001  0.000
 -0.026  0.000 -0.001  0.151  0.000
  0.000  0.004  0.000  0.000  0.464
atom   16   Tr[ns(na)] =   2.61463
    eigenvalues:
  0.136  0.151  0.169  0.414  0.437
    eigenvectors:
  0.727  0.038  0.042  0.167  0.026
  0.000  0.002  0.001  0.163  0.835
  0.088  0.202  0.710  0.000  0.000
  0.179  0.007  0.007  0.670  0.137
  0.006  0.752  0.240  0.000  0.002
    occupations:
  0.192 -0.001 -0.005  0.110 -0.001
 -0.001  0.433 -0.001  0.010  0.013
 -0.005 -0.001  0.162  0.007  0.007
  0.110  0.010  0.007  0.364  0.000
 -0.001  0.013  0.007  0.000  0.156
atom   17   Tr[ns(na)] =   2.72513
    eigenvalues:
  0.135  0.168  0.184  0.428  0.447
    eigenvectors:
  0.007  0.002  0.000  0.000  0.991
  0.001  0.888  0.108  0.000  0.002
  0.001  0.108  0.891  0.000  0.000
  0.992  0.002  0.000  0.000  0.006
  0.000  0.000  0.000  1.000  0.000
    occupations:
  0.444  0.013  0.005 -0.025  0.000
  0.013  0.171 -0.005  0.000 -0.003
  0.005 -0.005  0.182  0.001  0.000
 -0.025  0.000  0.001  0.137  0.000
  0.000 -0.003  0.000  0.000  0.428
atom   22   Tr[ns(na)] =   2.72374
    eigenvalues:
  0.141  0.185  0.198  0.381  0.457
    eigenvectors:
  0.000  0.001  0.907  0.093  0.000
  0.000  0.000  0.000  0.000  1.000
  0.999  0.001  0.000  0.000  0.000
  0.000  0.000  0.093  0.907  0.000
  0.001  0.999  0.001  0.000  0.000
    occupations:
  0.215 -0.001  0.001  0.053  0.000
 -0.001  0.457  0.000  0.002  0.000
  0.001  0.000  0.141  0.002  0.001
  0.053  0.002  0.002  0.364  0.000
  0.000  0.000  0.001  0.000  0.185
atom   23   Tr[ns(na)] =   2.64053
    eigenvalues:
  0.134  0.151  0.191  0.377  0.468
    eigenvectors:
  0.001  0.010  0.000  0.989  0.000
  0.000  0.000  1.000  0.000  0.000
  0.999  0.000  0.000  0.001  0.000
  0.000  0.990  0.000  0.010  0.000
  0.000  0.000  0.000  0.000  1.000
    occupations:
  0.374  0.000 -0.008 -0.022  0.000
  0.000  0.191  0.000  0.000  0.003
 -0.008  0.000  0.134  0.001  0.000
 -0.022  0.000  0.001  0.153  0.000
  0.000  0.003  0.000  0.000  0.468
N of occupied +U levels =  21.4237724
 --- exit write_ns ---

[...]

          k = 0.2500-0.4516 0.0000 ( 29882 PWs)   bands (ev):

[...]

          k =-0.2500 0.2258 0.0000 ( 29912 PWs)   bands (ev):

   -61.0333 -61.0085 -60.7461 -60.5098 -59.7373 -59.7040 -59.2564 -59.2299
   -37.4365 -37.2217 -37.2003 -37.1209 -37.1173 -37.0962 -37.0766 -36.9705
   -36.8701 -36.7064 -36.6967 -36.6370 -36.2262 -36.0289 -35.9576 -35.9248
   -35.7831 -35.7504 -35.5691 -35.5545 -35.5478 -35.4429 -35.3786 -35.2557
   -24.8569 -21.2787 -21.0570 -20.1918 -19.6927 -19.6285 -19.2658 -19.1921
   -19.0847 -18.9862 -18.9617 -18.9347 -18.8777 -18.7251 -18.7135 -18.1098
   -17.8243 -17.6454 -17.4277 -17.4041  -9.5293  -8.9253  -8.6967  -7.9041
    -7.2704  -7.1661  -7.1123  -7.0256  -6.9595  -6.6678  -6.6486  -6.5348
    -6.4982  -6.4624  -6.4071  -6.3090  -6.2404  -6.1600  -6.0876  -5.9398
    -5.8639  -5.6822  -5.5916  -5.4508  -5.3256  -5.0843  -4.9719  -4.8601
    -4.8495  -4.7602  -4.7043  -4.6485  -4.5479  -4.4882  -4.4073  -4.3462
    -4.3055  -4.2660  -4.2232  -4.0865  -4.0572  -3.8967  -3.8273  -3.7230
    -3.6489  -3.4980  -3.2989  -3.1130  -2.9167  -2.8181  -2.8024  -2.7091
    -2.5936  -2.4876  -2.4030  -2.3267  -2.2437  -2.1285  -2.0807   0.1176
     0.3175   0.4168   0.5081   0.5415   0.7629   0.8282   0.8480   0.9451
     1.0097   1.0913   1.2033   1.3567   1.4302   1.5719   1.6781   1.7538
     1.8020   1.8917   2.1077   2.1361   2.1966   2.2181   2.2774   2.3172
     2.3410   2.3962   2.4854   2.5304   2.7383   2.8831   3.0793   3.2287
     3.2951   3.4729   3.6587   3.6747   3.7994   3.9235   4.0120   4.1222
     4.2039   4.3946   4.4833   4.6965   5.1476   5.2330   5.5869   5.6738
     5.6973   5.9963   6.0815   6.2774   6.4054   6.6241   6.7164   7.0310
     7.1534   7.3346   7.4938   7.5931   7.7529   7.9768   8.0324   8.1133
     8.2152   8.3063   8.4722   8.4938   8.7100   8.7705   8.8864   8.9741
     9.1248   9.1651   9.2469   9.3758   9.5094   9.6492   9.6976   9.7523
     9.8551   9.9798  10.1347  10.2961  10.3475  10.3880  10.4656  10.5786
    10.6090  10.7940  10.8512  10.9486  11.0186  11.1010  11.1838  11.2821
    11.3554  11.4232  11.5016  11.5800  11.6433  11.7510  11.7726  11.8820
    11.9715  12.0736  12.1300  12.1867  12.2288  12.3004  12.3453  12.4557
    12.5211  12.5666  12.6422  12.7093  12.7757  12.9495  12.9959  13.0511
    13.0671  13.1755  13.2053  13.3247  13.4456  13.5616  13.5973  13.7453
    13.7990  13.9010  13.9217  14.0219  14.0777  14.1636  14.2356  14.2665
    14.3133  14.3401  14.4813  14.5454  14.5739  14.6099  14.6963  14.7916
    14.8540  14.9965  15.0242  15.1149  15.1577  15.2389  15.3464  15.3820
    15.4936  15.5352  15.5864  15.6438  15.6709  15.7504  15.8172  15.8924
    15.9793  16.0504  16.1027  16.1589  16.2203  16.3055  16.3834  16.4516
    16.5049  16.5837  16.6235  16.7046  16.8076  16.8410  16.8877  16.9211
    17.0209  17.1157  17.1501  17.2389  17.2907  17.3430  17.4285  17.4564
    17.5392  17.5897  17.6567  17.7916  17.8975  17.9330  17.9681  18.0545
    18.1426  18.1842  18.2928  18.3604  18.4190  18.4819  18.6007  18.6367
    18.6750  18.7421  18.7994  18.8666  18.9643  19.0713  19.1121

     the Fermi energy is    -2.0677 ev

!    total energy              =   -1597.26480445 Ry
     Harris-Foulkes estimate   =   -1597.26480446 Ry
     estimated scf accuracy    <          4.9E-09 Ry

     The total energy is the sum of the following terms:

     one-electron contribution =  -19110.87535268 Ry
     hartree contribution      =    9576.84865975 Ry
     xc contribution           =    -284.45582137 Ry
     ewald contribution        =    8218.32203493 Ry
     Hubbard energy            =       2.89704092 Ry
     smearing contrib. (-TS)   =      -0.00136600 Ry

     convergence has been achieved in  12 iterations

     Forces acting on atoms (Ry/au):

     negative rho (up, down):  0.107E+00 0.000E+00
     atom    1 type  1   force =    -0.00226802   -0.01457991    0.00045266
     atom    2 type  1   force =     0.00007793    0.01687267   -0.00010346
     atom    3 type  2   force =     0.04201830   -0.00856288    0.00022942
     atom    4 type  2   force =     0.00050378    0.00939289    0.00049724
     atom    5 type  1   force =    -0.00114495   -0.08827377   -0.00028822
     atom    6 type  1   force =    -0.00448596    0.08683396   -0.00031066
     atom    7 type  1   force =     0.00010982   -0.00106154    0.00046855
     atom    8 type  1   force =     0.00094677   -0.00072496   -0.00034103
     atom    9 type  2   force =     0.00116804    0.00004863    0.00028880
     atom   10 type  2   force =     0.00000107   -0.00078140   -0.00024759
     atom   11 type  1   force =    -0.02332280   -0.01425784   -0.00008233
     atom   12 type  1   force =    -0.02011449    0.01954727   -0.00025259
     atom   13 type  1   force =     0.00013466   -0.00252718   -0.00010083
     atom   14 type  1   force =    -0.00418722   -0.01469285    0.00051601
     atom   15 type  1   force =     0.00011015    0.01714771   -0.00018029
     atom   16 type  2   force =    -0.04186691   -0.00924349    0.00023003
     atom   17 type  2   force =     0.00046345    0.00885610    0.00033400
     atom   18 type  1   force =     0.00555600   -0.08836830   -0.00025976
     atom   19 type  1   force =     0.00370109    0.08728825   -0.00036018
     atom   20 type  1   force =    -0.00009937   -0.00045318    0.00076808
     atom   21 type  1   force =     0.00085690   -0.00001915   -0.00040289
     atom   22 type  2   force =    -0.00163629    0.00008721    0.00029081
     atom   23 type  2   force =    -0.00006298   -0.00278141   -0.00047313
     atom   24 type  1   force =     0.02347335   -0.01415533   -0.00007576
     atom   25 type  1   force =     0.02001295    0.01942360   -0.00025503
     atom   26 type  1   force =     0.00019248   -0.00528742   -0.00000889
     atom   27 type  3   force =    -0.00002768    0.00014407   -0.00012571
     atom   28 type  3   force =    -0.00000745    0.00008288   -0.00035994
     atom   29 type  3   force =    -0.00004871   -0.00013045    0.00020097
     atom   30 type  3   force =    -0.00005634   -0.00014499    0.00025016
     atom   31 type  1   force =     0.00015496   -0.00029702   -0.00053905
     atom   32 type  1   force =    -0.00019243    0.00032266    0.00033020
     atom   33 type  3   force =     0.00003990    0.00029514   -0.00008958

     Total force =     0.002014     Total SCF correction =     0.000132

     bfgs converged in  20 scf cycles and  19 bfgs steps
     (criteria: energy < 0.10E-03, force < 0.10E-02)

     End of BFGS Geometry Optimization

     Final energy   =   -1597.2648044549 Ry
Begin final coordinates

ATOMIC_POSITIONS (crystal)
O0       0.000000000   0.000000000   0.376380105    0   0   1
O0       0.000000000   0.500000000   0.398360154    0   0   1
Ti1      0.250000000   0.500000000   0.450769563    0   0   1
Ti1      0.000000000   0.000000000   0.450537094    0   0   1
O0       0.250000000   0.810000000   0.449492718    0   0   1
O0       0.250000000   0.190000000   0.450576697    0   0   1
O0       0.000000000   0.500000000   0.498386135    0   0   1
O0       0.000000000   0.000000000   0.526565481    0   0   1
Ti1      0.250000000   0.000000000   0.580994494    0   0   1
Ti1      0.000000000   0.500000000   0.569984124    0   0   1
O0       0.250000000   0.690000000   0.578921994    0   0   1
O0       0.250000000   0.310000000   0.580529149    0   0   1
O0       0.000000000   0.000000000   0.624057331    0   0   1
O0       0.500000000   0.000000000   0.377247170    0   0   1
O0       0.500000000   0.500000000   0.398385955    0   0   1
Ti1      0.750000000   0.500000000   0.450780523    0   0   1
Ti1      0.500000000   0.000000000   0.452413661    0   0   1
O0       0.750000000   0.810000000   0.449450252    0   0   1
O0       0.750000000   0.190000000   0.450668547    0   0   1
O0       0.500000000   0.500000000   0.497925643    0   0   1
O0       0.500000000   0.000000000   0.526768478    0   0   1
Ti1      0.750000000   0.000000000   0.581001767    0   0   1
Ti1      0.500000000   0.500000000   0.581758225    0   0   1
O0       0.750000000   0.690000000   0.578911884    0   0   1
O0       0.750000000   0.310000000   0.580521847    0   0   1
O0       0.500000000   0.000000000   0.623523818    0   0   1
H2      -0.000218626   0.629292646   0.379047096
H2       0.499810276   0.630453758   0.379516910
H2       0.151742287   0.030758929   0.363133448
H2       0.650714688   0.032312110   0.363715160
O0       0.500310000   0.538106829   0.658168125    0   1   1
O0       0.499120000   0.356915110   0.686177651    0   1   1
H2       0.500360000   0.412389519   0.720798800    0   1   1
End final coordinates

     General routines

     Parallel routines
     Hubbard U routines

   This run was terminated on:  11:15: 0   9Aug2014

   JOB DONE.