     Program PWSCF v.5.0.2 (svn rev. 9656) starts on 31May2014 at  7: 3:20

     Current dimensions of program PWSCF are:
     Max number of different atomic species (ntypx) = 10
     Max number of k-points (npk) =  40000
     Max angular momentum in pseudopotentials (lmaxx) =  3
     Reading input from pwscf.in
Warning: card &CELL ignored
Warning: card / ignored

     Subspace diagonalization in iterative solution of the eigenvalue problem:
     a serial algorithm will be used

     bravais-lattice index     =            0
     lattice parameter (alat)  =      12.2076  a.u.
     unit-cell volume          =    7496.5096 (a.u.)^3
     number of atoms/cell      =           33
     number of atomic types    =            3
     number of electrons       =       253.00
     number of Kohn-Sham states=          379
     kinetic-energy cutoff     =      40.0000  Ry
     charge density cutoff     =     500.0000  Ry
     convergence threshold     =      1.0E-06
     mixing beta               =       0.7000
     number of iterations used =            8  plain     mixing
     Exchange-correlation      = SLA  PW   PBE  PBE ( 1 4 3 4 0)
     EXX-fraction              =        0.00
     nstep                     =           50

     celldm(1)=  12.207631  celldm(2)=   0.000000  celldm(3)=   0.000000
     celldm(4)=   0.000000  celldm(5)=   0.000000  celldm(6)=   0.000000

     crystal axes: (cart. coord. in units of alat)
               a(1) = (   1.000000   0.000000   0.000000 )
               a(2) = (   0.000000   1.004836   0.000000 )
               a(3) = (   0.000000   0.000000   4.100811 )

     reciprocal axes: (cart. coord. in units 2 pi/alat)
               b(1) = (  1.000000  0.000000  0.000000 )
               b(2) = (  0.000000  0.995187  0.000000 )
               b(3) = (  0.000000  0.000000  0.243854 )

     PseudoPot. # 1 for O  read from file:
     /home/camp/zhonxu/pseudo/o_pbe_v1.01.uspp.F.UPF
     MD5 check sum: 2bcb18d16ea4b960afae9ec6d52f22d2
     Pseudo is Ultrasoft + core correction, Zval =  6.0
     Generated by new atomic code, or converted to UPF format
     Using radial grid of  737 points,  5 beta functions with:
                l(1) =   0
                l(2) =   0
                l(3) =   1
                l(4) =   1
                l(5) =   2
     Q(r) pseudized with  8 coefficients,  rinner =    0.900   0.900   0.900
                                                       0.900   0.900

     PseudoPot. # 2 for Pt read from file:
     /home/camp/zhonxu/pseudo/pt_pbe_v1.uspp.F.UPF
     MD5 check sum: 4c71d6ad5ef119f1eb26a4d0b7884226
     Pseudo is Ultrasoft + core correction, Zval = 16.0
     Generated by new atomic code, or converted to UPF format
     Using radial grid of  985 points,  6 beta functions with:
                l(1) =   0
                l(2) =   0
                l(3) =   1
                l(4) =   1
                l(5) =   2
                l(6) =   2
     Q(r) pseudized with  8 coefficients,  rinner =    1.300   1.300   1.300
                                                       1.300   1.300

     PseudoPot. # 3 for H  read from file:
     /home/camp/zhonxu/pseudo/h_pbe_v1.uspp.F.UPF
     MD5 check sum: 3408e3ff4ec8b0a4e358431e7e038a48
     Pseudo is Ultrasoft, Zval =  1.0
     Generated by new atomic code, or converted to UPF format
     Using radial grid of  615 points,  2 beta functions with:
                l(1) =   0
                l(2) =   0
     Q(r) pseudized with  8 coefficients,  rinner =    0.700

     atomic species   valence    mass     pseudopotential
        O0             6.00    15.99940     O ( 1.00)
        Pt1           16.00   195.08000     Pt( 1.00)
        H2             1.00     1.00794     H ( 1.00)

     Simplified LDA+U calculation (l_max = 2) with parameters (eV):
     atomic species    L          U    alpha       J0     beta
        Pt1            2     4.5000   0.0000   0.0000   0.0000

     No symmetry found

   Cartesian axes

     site n.     atom                  positions (alat units)
         1           O0  tau(   1) = (   0.0000000   0.0000000   1.5494095  )
         2           O0  tau(   2) = (   0.0000000   0.5024180   1.6475009  )
         3           Pt1 tau(   3) = (   0.2500000   0.5024180   1.8504910  )
         4           Pt1 tau(   4) = (   0.0000000   0.0000000   1.8570523  )
         5           O0  tau(   5) = (   0.2500000   0.8139171   1.8187098  )
         6           O0  tau(   6) = (   0.2500000   0.1909188   1.8864142  )
         7           O0  tau(   7) = (   0.0000000   0.5024180   2.0369959  )
         8           O0  tau(   8) = (   0.0000000   0.0000000   2.1720357  )
         9           Pt1 tau(   9) = (   0.2500000   0.0000000   2.3614521  )
        10           Pt1 tau(  10) = (   0.0000000   0.5024180   2.3598528  )
        11           O0  tau(  11) = (   0.2500000   0.6933368   2.3268823  )
        12           O0  tau(  12) = (   0.2500000   0.3114991   2.4033624  )
        13           O0  tau(  13) = (   0.0000000   0.0000000   2.5482851  )
        14           O0  tau(  14) = (   0.5000000   0.0000000   1.5485073  )
        15           O0  tau(  15) = (   0.5000000   0.5024180   1.6434821  )
        16           Pt1 tau(  16) = (   0.7500000   0.5024180   1.8504910  )
        17           Pt1 tau(  17) = (   0.5000000   0.0000000   1.8561092  )
        18           O0  tau(  18) = (   0.7500000   0.8139171   1.8187918  )
        19           O0  tau(  19) = (   0.7500000   0.1909188   1.8863321  )
        20           O0  tau(  20) = (   0.5000000   0.5024180   2.0428191  )
        21           O0  tau(  21) = (   0.5000000   0.0000000   2.1708874  )
        22           Pt1 tau(  22) = (   0.7500000   0.0000000   2.3614521  )
        23           Pt1 tau(  23) = (   0.5000000   0.5024180   2.3628874  )
        24           O0  tau(  24) = (   0.7500000   0.6933368   2.3268003  )
        25           O0  tau(  25) = (   0.7500000   0.3114991   2.4034034  )
        26           O0  tau(  26) = (   0.5000000   0.0000000   2.5460296  )
        27           H2  tau(  27) = (   0.0000200   0.6429744   1.5830361  )
        28           H2  tau(  28) = (   0.5000600   0.6435874   1.5806577  )
        29           H2  tau(  29) = (   0.1433700   0.0339333   1.5082373  )
        30           H2  tau(  30) = (   0.6430800   0.0354607   1.5076632  )
        31           O0  tau(  31) = (   0.5001100   0.5589199   2.6603192  )
        32           O0  tau(  32) = (   0.4999400   0.3687346   2.7792838  )
        33           H2  tau(  33) = (   0.4999900   0.4305019   2.9192445  )

     number of k points=    10  Methfessel-Paxton smearing, width (Ry)=  0.0100
                       cart. coord. in units 2pi/alat
        k(    1) = (   0.0000000   0.0000000   0.0000000), wk =   0.1250000
        k(    2) = (   0.0000000   0.2487968   0.0000000), wk =   0.2500000
        k(    3) = (   0.0000000  -0.4975937   0.0000000), wk =   0.1250000
        k(    4) = (   0.2500000   0.0000000   0.0000000), wk =   0.2500000
        k(    5) = (   0.2500000   0.2487968   0.0000000), wk =   0.2500000
        k(    6) = (   0.2500000  -0.4975937   0.0000000), wk =   0.2500000
        k(    7) = (  -0.5000000   0.0000000   0.0000000), wk =   0.1250000
        k(    8) = (  -0.5000000   0.2487968   0.0000000), wk =   0.2500000
        k(    9) = (  -0.5000000  -0.4975937   0.0000000), wk =   0.1250000
        k(   10) = (  -0.2500000   0.2487968   0.0000000), wk =   0.2500000

     Largest allocated arrays     est. size (Mb)     dimensions
     Largest temporary arrays     est. size (Mb)     dimensions

     Check: negative/imaginary core charge=   -0.000003    0.000000

     Initial potential from superposition of free atoms
     Check: negative starting charge=   -1.535323

     starting charge  248.99983, renormalised to  253.00000

     negative rho (up, down):  0.156E+01 0.000E+00
     Number of +U iterations with fixed ns =  0
     Starting occupations:
 --- enter write_ns ---
 LDA+U parameters:
U( 2)     =  4.50000000
alpha( 2) =  0.00000000
atom    3   Tr[ns(na)] =   8.00000
    eigenvalues:
  0.800  0.800  0.800  0.800  0.800
    eigenvectors:
  1.000  0.000  0.000  0.000  0.000
  0.000  1.000  0.000  0.000  0.000
  0.000  0.000  1.000  0.000  0.000
  0.000  0.000  0.000  1.000  0.000
  0.000  0.000  0.000  0.000  1.000
    occupations:
  0.800  0.000  0.000  0.000  0.000
  0.000  0.800  0.000  0.000  0.000
  0.000  0.000  0.800  0.000  0.000
  0.000  0.000  0.000  0.800  0.000
  0.000  0.000  0.000  0.000  0.800
atom    4   Tr[ns(na)] =   8.00000
    eigenvalues:
  0.800  0.800  0.800  0.800  0.800
    eigenvectors:
  1.000  0.000  0.000  0.000  0.000
  0.000  1.000  0.000  0.000  0.000
  0.000  0.000  1.000  0.000  0.000
  0.000  0.000  0.000  1.000  0.000
  0.000  0.000  0.000  0.000  1.000
    occupations:
  0.800  0.000  0.000  0.000  0.000
  0.000  0.800  0.000  0.000  0.000
  0.000  0.000  0.800  0.000  0.000
  0.000  0.000  0.000  0.800  0.000
  0.000  0.000  0.000  0.000  0.800
atom    9   Tr[ns(na)] =   8.00000
    eigenvalues:
  0.800  0.800  0.800  0.800  0.800
    eigenvectors:
  1.000  0.000  0.000  0.000  0.000
  0.000  1.000  0.000  0.000  0.000
  0.000  0.000  1.000  0.000  0.000
  0.000  0.000  0.000  1.000  0.000
  0.000  0.000  0.000  0.000  1.000
    occupations:
  0.800  0.000  0.000  0.000  0.000
  0.000  0.800  0.000  0.000  0.000
  0.000  0.000  0.800  0.000  0.000
  0.000  0.000  0.000  0.800  0.000
  0.000  0.000  0.000  0.000  0.800
atom   10   Tr[ns(na)] =   8.00000
    eigenvalues:
  0.800  0.800  0.800  0.800  0.800
    eigenvectors:
  1.000  0.000  0.000  0.000  0.000
  0.000  1.000  0.000  0.000  0.000
  0.000  0.000  1.000  0.000  0.000
  0.000  0.000  0.000  1.000  0.000
  0.000  0.000  0.000  0.000  1.000
    occupations:
  0.800  0.000  0.000  0.000  0.000
  0.000  0.800  0.000  0.000  0.000
  0.000  0.000  0.800  0.000  0.000
  0.000  0.000  0.000  0.800  0.000
  0.000  0.000  0.000  0.000  0.800
atom   16   Tr[ns(na)] =   8.00000
    eigenvalues:
  0.800  0.800  0.800  0.800  0.800
    eigenvectors:
  1.000  0.000  0.000  0.000  0.000
  0.000  1.000  0.000  0.000  0.000
  0.000  0.000  1.000  0.000  0.000
  0.000  0.000  0.000  1.000  0.000
  0.000  0.000  0.000  0.000  1.000
    occupations:
  0.800  0.000  0.000  0.000  0.000
  0.000  0.800  0.000  0.000  0.000
  0.000  0.000  0.800  0.000  0.000
  0.000  0.000  0.000  0.800  0.000
  0.000  0.000  0.000  0.000  0.800
atom   17   Tr[ns(na)] =   8.00000
    eigenvalues:
  0.800  0.800  0.800  0.800  0.800
    eigenvectors:
  1.000  0.000  0.000  0.000  0.000
  0.000  1.000  0.000  0.000  0.000
  0.000  0.000  1.000  0.000  0.000
  0.000  0.000  0.000  1.000  0.000
  0.000  0.000  0.000  0.000  1.000
    occupations:
  0.800  0.000  0.000  0.000  0.000
  0.000  0.800  0.000  0.000  0.000
  0.000  0.000  0.800  0.000  0.000
  0.000  0.000  0.000  0.800  0.000
  0.000  0.000  0.000  0.000  0.800
atom   22   Tr[ns(na)] =   8.00000
    eigenvalues:
  0.800  0.800  0.800  0.800  0.800
    eigenvectors:
  1.000  0.000  0.000  0.000  0.000
  0.000  1.000  0.000  0.000  0.000
  0.000  0.000  1.000  0.000  0.000
[...]
  0.664  0.777  0.983  0.985  0.989
    eigenvectors:
  0.000  0.979  0.000  0.013  0.007
  0.014  0.000  0.986  0.000  0.000
  0.000  0.001  0.000  0.189  0.810
  0.000  0.020  0.000  0.798  0.183
  0.986  0.000  0.014  0.000  0.000
    occupations:
  0.782 -0.000 -0.006  0.029  0.000
 -0.000  0.979 -0.000  0.000 -0.038
 -0.006 -0.000  0.988 -0.001  0.000
  0.029  0.000 -0.001  0.982 -0.000
  0.000 -0.038  0.000 -0.000  0.669
atom   16   Tr[ns(na)] =   8.73997
    eigenvalues:
  0.694  0.711  0.986  0.988  0.991
    eigenvectors:
  0.047  0.126  0.816  0.003  0.009
  0.757  0.242  0.000  0.000  0.000
  0.001  0.004  0.018  0.000  0.977
  0.195  0.628  0.162  0.000  0.014
  0.000  0.000  0.003  0.997  0.000
    occupations:
  0.938 -0.007  0.008 -0.105 -0.000
 -0.007  0.698 -0.001 -0.005 -0.002
  0.008 -0.001  0.989  0.018  0.000
 -0.105 -0.005  0.018  0.756 -0.001
 -0.000 -0.002  0.000 -0.001  0.988
atom   17   Tr[ns(na)] =   8.73237
    eigenvalues:
  0.693  0.716  0.984  0.986  0.987
    eigenvectors:
  0.000  0.985  0.008  0.003  0.003
  0.011  0.000  0.074  0.875  0.039
  0.000  0.005  0.809  0.032  0.154
  0.000  0.009  0.107  0.080  0.803
  0.988  0.000  0.001  0.010  0.000
    occupations:
  0.720 -0.004 -0.019  0.026 -0.001
 -0.004  0.983  0.000  0.000  0.031
 -0.019  0.000  0.983  0.003  0.000
  0.026  0.000  0.003  0.984  0.000
 -0.001  0.031  0.000  0.000  0.697
atom   22   Tr[ns(na)] =   8.71904
    eigenvalues:
  0.716  0.726  0.961  0.970  0.987
    eigenvectors:
  0.001  0.134  0.001  0.016  0.849
  0.997  0.002  0.000  0.000  0.000
  0.000  0.012  0.040  0.939  0.009
  0.002  0.851  0.000  0.004  0.143
  0.000  0.000  0.959  0.041  0.000
    occupations:
  0.952  0.002 -0.008 -0.089  0.000
  0.002  0.716  0.000 -0.000 -0.003
 -0.008  0.000  0.967 -0.025 -0.002
 -0.089 -0.000 -0.025  0.764 -0.000
  0.000 -0.003 -0.002 -0.000  0.961
atom   23   Tr[ns(na)] =   8.72736
    eigenvalues:
  0.707  0.712  0.971  0.986  0.988
    eigenvectors:
  0.000  0.958  0.000  0.033  0.009
  0.020  0.000  0.980  0.000  0.000
  0.000  0.033  0.000  0.967  0.000
  0.000  0.009  0.000  0.000  0.991
  0.980  0.000  0.020  0.000  0.000
    occupations:
  0.724  0.000  0.049  0.025 -0.000
  0.000  0.966  0.000 -0.000 -0.037
  0.049  0.000  0.977 -0.005 -0.000
  0.025 -0.000 -0.005  0.985 -0.000
 -0.000 -0.037 -0.000 -0.000  0.712
N of occupied +U levels =  69.9102774
 --- exit write_ns ---

     Threshold (ethr) on eigenvalues was too large:
     Diagonalizing with lowered threshold

     Davidson diagonalization with overlap
     ethr =  7.67E-09,  avg # of iterations =  2.0

[...]

     total energy              =   -2312.94973324 Ry
     Harris-Foulkes estimate   =   -2312.94973325 Ry
     estimated scf accuracy    <       0.00000019 Ry

     iteration # 15     ecut=    40.00 Ry     beta=0.70
     Davidson diagonalization with overlap
     ethr =  8.99E-12,  avg # of iterations =  1.0

     negative rho (up, down):  0.158E+01 0.000E+00

     End of self-consistent calculation
 --- enter write_ns ---
 LDA+U parameters:
U( 2)     =  4.50000000
alpha( 2) =  0.00000000
atom    3   Tr[ns(na)] =   8.73989
    eigenvalues:
  0.694  0.711  0.986  0.988  0.991
    eigenvectors:
  0.046  0.126  0.814  0.005  0.009
  0.758  0.241  0.000  0.000  0.000
  0.001  0.004  0.018  0.000  0.977
  0.194  0.628  0.162  0.001  0.014
  0.000  0.000  0.006  0.994  0.000
    occupations:
  0.938  0.007  0.008 -0.105  0.001
  0.007  0.698  0.002  0.005 -0.002
  0.008  0.002  0.989  0.018 -0.000
 -0.105  0.005  0.018  0.756  0.001
  0.001 -0.002 -0.000  0.001  0.988
atom    4   Tr[ns(na)] =   8.73376
    eigenvalues:
  0.694  0.716  0.984  0.986  0.987
    eigenvectors:
  0.000  0.985  0.009  0.003  0.003
  0.011  0.000  0.050  0.893  0.046
  0.000  0.005  0.839  0.017  0.138
  0.000  0.009  0.101  0.077  0.813
  0.989  0.000  0.001  0.010  0.001
    occupations:
  0.720 -0.004 -0.019  0.026 -0.001
 -0.004  0.983  0.000  0.000  0.031
 -0.019  0.000  0.983  0.003  0.000
  0.026  0.000  0.003  0.984  0.000
 -0.001  0.031  0.000  0.000  0.697
atom    9   Tr[ns(na)] =   8.71863
    eigenvalues:
  0.716  0.725  0.961  0.970  0.987
    eigenvectors:
  0.000  0.135  0.000  0.016  0.849
  0.998  0.002  0.000  0.000  0.000
  0.000  0.012  0.036  0.944  0.009
  0.001  0.852  0.000  0.004  0.142
  0.000  0.000  0.963  0.037  0.000
    occupations:
  0.952 -0.001 -0.008 -0.089 -0.000
 -0.001  0.716  0.000  0.001 -0.003
 -0.008  0.000  0.967 -0.025  0.002
 -0.089  0.001 -0.025  0.764  0.000
 -0.000 -0.003  0.002  0.000  0.961
atom   10   Tr[ns(na)] =   8.79919
    eigenvalues:
  0.664  0.778  0.983  0.985  0.989
    eigenvectors:
  0.000  0.979  0.000  0.013  0.007
  0.014  0.000  0.986  0.000  0.000
  0.000  0.001  0.000  0.190  0.810
  0.000  0.020  0.000  0.797  0.183
  0.986  0.000  0.014  0.000  0.000
    occupations:
  0.782 -0.000 -0.006  0.029  0.000
 -0.000  0.979 -0.000  0.000 -0.038
 -0.006 -0.000  0.988 -0.001  0.000
  0.029  0.000 -0.001  0.982 -0.000
  0.000 -0.038  0.000 -0.000  0.669
atom   16   Tr[ns(na)] =   8.73989
    eigenvalues:
  0.694  0.711  0.986  0.988  0.991
    eigenvectors:
  0.047  0.126  0.816  0.003  0.009
  0.756  0.243  0.000  0.000  0.000
  0.001  0.004  0.018  0.000  0.977
  0.196  0.627  0.162  0.000  0.014
  0.000  0.000  0.003  0.997  0.000
    occupations:
  0.938 -0.007  0.008 -0.105 -0.000
 -0.007  0.698 -0.001 -0.005 -0.002
  0.008 -0.001  0.989  0.018  0.000
 -0.105 -0.005  0.018  0.756 -0.001
 -0.000 -0.002  0.000 -0.001  0.988
atom   17   Tr[ns(na)] =   8.73237
    eigenvalues:
  0.693  0.716  0.984  0.986  0.987
    eigenvectors:
  0.000  0.985  0.008  0.003  0.003
  0.011  0.000  0.074  0.875  0.039
  0.000  0.005  0.810  0.031  0.154
  0.000  0.009  0.107  0.080  0.804
  0.988  0.000  0.001  0.010  0.000
    occupations:
  0.720 -0.004 -0.019  0.026 -0.001
 -0.004  0.983  0.000  0.000  0.031
 -0.019  0.000  0.983  0.003  0.000
  0.026  0.000  0.003  0.984  0.000
 -0.001  0.031  0.000  0.000  0.697
atom   22   Tr[ns(na)] =   8.71861
    eigenvalues:
  0.716  0.725  0.960  0.970  0.987
    eigenvectors:
  0.001  0.134  0.001  0.016  0.849
  0.997  0.002  0.000  0.000  0.000
  0.000  0.012  0.041  0.938  0.009
  0.002  0.851  0.000  0.004  0.143
  0.000  0.000  0.958  0.042  0.000
    occupations:
  0.952  0.002 -0.008 -0.089  0.000
  0.002  0.716  0.000 -0.000 -0.003
 -0.008  0.000  0.967 -0.025 -0.002
 -0.089 -0.000 -0.025  0.764 -0.000
  0.000 -0.003 -0.002 -0.000  0.961
atom   23   Tr[ns(na)] =   8.72730
    eigenvalues:
  0.707  0.712  0.971  0.986  0.988
    eigenvectors:
  0.000  0.958  0.000  0.033  0.009
  0.020  0.000  0.980  0.000  0.000
  0.000  0.033  0.000  0.967  0.000
  0.000  0.009  0.000  0.000  0.991
  0.980  0.000  0.020  0.000  0.000
    occupations:
  0.724  0.000  0.049  0.025 -0.000
  0.000  0.966  0.000 -0.000 -0.037
  0.049  0.000  0.977 -0.005 -0.000
  0.025 -0.000 -0.005  0.985 -0.000
 -0.000 -0.037 -0.000 -0.000  0.712
N of occupied +U levels =  69.9096495
 --- exit write_ns ---

[...]

          k = 0.2500-0.4976 0.0000 ( 32026 PWs)   bands (ev):

[...]

          k =-0.2500 0.2488 0.0000 ( 32025 PWs)   bands (ev):

   -54.7391 -54.7164 -54.6834 -54.6779 -54.6427 -54.6273 -54.5938 -54.5546
   -54.5329 -54.5288 -54.5233 -54.5200 -54.4712 -54.3794 -54.3748 -54.3596
   -54.3551 -54.2660 -54.2613 -54.2460 -54.2411 -53.8832 -53.6526 -53.2841
   -23.8264 -21.4724 -21.1962 -20.5556 -20.4069 -20.1239 -20.0524 -19.9844
   -19.8417 -19.8219 -19.7004 -19.6504 -19.5700 -19.5193 -19.3809 -19.3256
   -19.2863 -18.6305 -18.4114 -17.4485 -10.1770  -9.9741  -9.8212  -9.7994
    -9.3615  -9.3290  -9.2870  -9.1418  -8.9909  -8.8958  -8.8156  -8.7484
    -8.6613  -8.5520  -8.4291  -8.3674  -8.2962  -8.2264  -8.1508  -7.7035
    -7.6643  -7.5693  -7.4679  -7.3402  -7.2824  -7.1865  -7.0829  -6.9591
    -6.9284  -6.7033  -6.6741  -6.6126  -6.5121  -6.4054  -6.3393  -6.2479
    -6.1972  -6.1754  -6.0807  -5.9720  -5.9073  -5.8231  -5.6065  -5.5021
    -5.3435  -5.1799  -5.0409  -4.9122  -4.8120  -4.7734  -4.6831  -4.6021
    -4.5515  -4.3904  -4.3497  -4.1614  -4.0932  -3.9218  -3.7678  -3.7317
    -3.5973  -3.4816  -3.3841  -3.2818  -3.1748  -3.1561  -3.0539  -2.9639
    -2.8500  -2.8016  -2.5032  -2.4916  -2.2387  -2.0936  -2.0106  -1.8841
    -1.8263  -1.7789  -1.7321  -1.6067  -1.3358  -1.2341  -1.1686  -1.0346
    -0.4581  -0.2533  -0.1257   0.3411   0.4968   0.8328   1.0332   1.3144
     1.3933   1.5408   1.5897   1.8805   2.0241   2.0766   2.3523   3.4021
     3.7878   4.0627   4.5631   4.8788   5.1020   5.5549   5.7388   5.7873
     5.9829   6.1553   6.2861   6.4616   6.5250   6.7507   6.8678   6.9685
     7.0091   7.1428   7.2965   7.4682   7.6143   7.6632   7.7864   7.8874
     7.9617   8.0728   8.2063   8.2574   8.4316   8.4899   8.6022   8.6945
     8.8142   8.8277   8.9636   8.9914   9.1537   9.2168   9.3424   9.4248
     9.5299   9.5964   9.6890   9.7554   9.8736   9.9925  10.0174  10.1268
    10.1984  10.2957  10.3964  10.4773  10.5722  10.6495  10.7232  10.7919
    10.9492  11.0120  11.0914  11.2024  11.3194  11.3569  11.4481  11.5504
    11.6309  11.7327  11.8087  11.8732  11.9527  12.0438  12.0919  12.1554
    12.2255  12.2968  12.3802  12.4346  12.5820  12.6517  12.7313  12.7912
    12.8764  12.9089  12.9889  13.0585  13.2199  13.2918  13.3396  13.4503
    13.5447  13.6312  13.6640  13.7137  13.8105  13.8354  13.9543  14.0303
    14.1120  14.1594  14.2624  14.4027  14.4289  14.4899  14.6046  14.7223
    14.7696  14.8387  14.9354  14.9774  15.0565  15.1481  15.1902  15.2965
    15.3228  15.3375  15.3889  15.4264  15.5143  15.5735  15.6433  15.6597
    15.7706  15.8519  15.8778  15.9295  15.9815  16.0709  16.1277  16.1660
    16.2309  16.2795  16.3436  16.4304  16.5257  16.6008  16.7464  16.7794
    16.8248  16.9301  16.9892  17.0431  17.0752  17.1466  17.2045  17.2506
    17.3235  17.3440  17.4027  17.4511  17.4785  17.5564  17.5921  17.6181
    17.6628  17.6886  17.6968  17.7160  17.7569  17.7881  17.8081  17.8381
    17.9150  17.9883  18.0170  18.0919  18.1294  18.2734  18.3627  18.3861
    18.4012  18.4897  18.5496  18.6074  18.6726  18.7195  18.7651  18.8577
    18.9490  18.9937  19.0391  19.1144  19.1247  19.2128  19.3099  19.3799
    19.4509  19.5509  19.6088  19.6423  19.7033  19.8419  19.9764  20.0245
    20.0948  20.1609  20.1971  20.2395  20.2830  20.3271  20.3589  20.4233
    20.5344  20.5909  20.6349  20.7038  20.7422  20.8199  20.8258  20.8555
    20.9433  20.9846  21.0517  21.1034  21.1627  21.2288  21.3175  21.3401
    21.4008  21.5002  21.5129  21.5799  21.6155  21.6833  21.7743  21.8764
    21.9406  21.9901  22.0714  22.1447  22.1871  22.2628  22.3140  22.3397
    22.4478  22.4881  22.5303

     the Fermi energy is    -1.1519 ev

!    total energy              =   -2312.94973324 Ry
     Harris-Foulkes estimate   =   -2312.94973324 Ry
     estimated scf accuracy    <          8.0E-10 Ry

     The total energy is the sum of the following terms:

     one-electron contribution =  -24133.02238090 Ry
     hartree contribution      =   12117.79648667 Ry
     xc contribution           =    -580.03729902 Ry
     ewald contribution        =   10281.09342554 Ry
     Hubbard energy            =       1.21999765 Ry
     smearing contrib. (-TS)   =       0.00003681 Ry

     convergence has been achieved in  15 iterations

     Forces acting on atoms (Ry/au):

     negative rho (up, down):  0.158E+01 0.000E+00
     atom    1 type  1   force =    -0.00715510   -0.00345720    0.00008468
     atom    2 type  1   force =     0.00012416    0.00459749    0.00047755
     atom    3 type  2   force =     0.00749252    0.00583090   -0.00008907
     atom    4 type  2   force =     0.00962606    0.00391961    0.00034625
     atom    5 type  1   force =     0.00109922   -0.00379314    0.00033905
     atom    6 type  1   force =     0.00007594   -0.00291048    0.00014696
     atom    7 type  1   force =     0.00011950   -0.00087145    0.00021913
     atom    8 type  1   force =    -0.00397059    0.00014976    0.00057916
     atom    9 type  2   force =     0.00626451    0.00404437   -0.00004596
     atom   10 type  2   force =    -0.00006878   -0.02378723    0.00025506
     atom   11 type  1   force =    -0.00059531    0.00231884   -0.00017617
     atom   12 type  1   force =    -0.01288722    0.01097152   -0.00006268
     atom   13 type  1   force =    -0.00110154   -0.00769697   -0.00036026
     atom   14 type  1   force =    -0.00756566   -0.00328170   -0.00010140
     atom   15 type  1   force =     0.00014017    0.00116748   -0.00012193
     atom   16 type  2   force =    -0.00836694    0.00592405   -0.00004452
     atom   17 type  2   force =     0.00961805    0.00543679    0.00022298
     atom   18 type  1   force =     0.00129963   -0.00381821    0.00033855
     atom   19 type  1   force =    -0.00000879   -0.00285917    0.00015986
     atom   20 type  1   force =    -0.00001262   -0.00380579   -0.00058542
     atom   21 type  1   force =    -0.00387288    0.00232010    0.00043063
     atom   22 type  2   force =    -0.00275224    0.00397826   -0.00003976
     atom   23 type  2   force =     0.00011710    0.00764802   -0.00073511
     atom   24 type  1   force =     0.00066451    0.00238108   -0.00018196
     atom   25 type  1   force =     0.01294697    0.01100747   -0.00005015
     atom   26 type  1   force =    -0.00102917   -0.01612452   -0.00036578
     atom   27 type  3   force =     0.00000165   -0.00021354    0.00010973
     atom   28 type  3   force =    -0.00000847    0.00010234    0.00014501
     atom   29 type  3   force =    -0.00015339   -0.00010686   -0.00048150
     atom   30 type  3   force =    -0.00002392   -0.00014511   -0.00033344
     atom   31 type  1   force =     0.00002479   -0.00012948    0.00078631
     atom   32 type  1   force =    -0.00005961    0.00083131   -0.00030812
     atom   33 type  3   force =     0.00001745    0.00037145   -0.00055767

     Total force =     0.002221     Total SCF correction =     0.000046

     entering subroutine stress ...

     negative rho (up, down):  0.158E+01 0.000E+00
          total   stress  (Ry/bohr**3)                   (kbar)     P=  -20.57
  -0.00022275   0.00000006   0.00000376        -32.77      0.01      0.55
   0.00000006  -0.00014458  -0.00000698          0.01    -21.27     -1.03
   0.00000376  -0.00000698  -0.00005217          0.55     -1.03     -7.67

     bfgs converged in   9 scf cycles and   8 bfgs steps
     (criteria: energy < 0.10E-03, force < 0.10E-02)

     End of BFGS Geometry Optimization

     Final energy   =   -2312.9497332431 Ry
Begin final coordinates

ATOMIC_POSITIONS (crystal)
O0       0.000000000   0.000000000   0.377583667    0   0   1
O0       0.000000000   0.500000000   0.401762257    0   0   1
Pt1      0.250000000   0.500000000   0.451306999    0   0   1
Pt1      0.000000000   0.000000000   0.452678017    0   0   1
O0       0.250000000   0.810000000   0.442598666    0   0   1
O0       0.250000000   0.190000000   0.460855265    0   0   1
O0       0.000000000   0.500000000   0.496676608    0   0   1
O0       0.000000000   0.000000000   0.529689308    0   0   1
Pt1      0.250000000   0.000000000   0.575742751    0   0   1
Pt1      0.000000000   0.500000000   0.575271910    0   0   1
O0       0.250000000   0.690000000   0.566146807    0   0   1
O0       0.250000000   0.310000000   0.586752816    0   0   1
O0       0.000000000   0.000000000   0.621401454    0   0   1
O0       0.500000000   0.000000000   0.377465404    0   0   1
O0       0.500000000   0.500000000   0.401191165    0   0   1
Pt1      0.750000000   0.500000000   0.451309376    0   0   1
Pt1      0.500000000   0.000000000   0.452541385    0   0   1
O0       0.750000000   0.810000000   0.442610647    0   0   1
O0       0.750000000   0.190000000   0.460839018    0   0   1
O0       0.500000000   0.500000000   0.498172903    0   0   1
O0       0.500000000   0.000000000   0.529477541    0   0   1
Pt1      0.750000000   0.000000000   0.575739653    0   0   1
Pt1      0.500000000   0.500000000   0.576039206    0   0   1
O0       0.750000000   0.690000000   0.566121477    0   0   1
O0       0.750000000   0.310000000   0.586737102    0   0   1
O0       0.500000000   0.000000000   0.620932495    0   0   1
H2       0.000033093   0.641081249   0.386635996
H2       0.500072031   0.641088313   0.386195128
H2       0.143913833   0.033891455   0.368003525
H2       0.643506867   0.035160664   0.367821710
O0       0.500213461   0.556641650   0.648944472
O0       0.499813440   0.368123678   0.677585726
H2       0.500018215   0.428298302   0.711899546
End final coordinates

     General routines

     Parallel routines
     Hubbard U routines

   This run was terminated on:  18:23:46  31May2014

   JOB DONE.