     Program PWSCF v.5.0.2 (svn rev. 9656) starts on 15May2014 at 14:44: 1

     Current dimensions of program PWSCF are:
     Max number of different atomic species (ntypx) = 10
     Max number of k-points (npk) =  40000
     Max angular momentum in pseudopotentials (lmaxx) =  3
     Reading input from pwscf.in
Warning: card &CELL ignored
Warning: card / ignored

     Subspace diagonalization in iterative solution of the eigenvalue problem:
     a serial algorithm will be used

     bravais-lattice index     =            0
     lattice parameter (alat)  =      10.1289  a.u.
     unit-cell volume          =    6836.7721 (a.u.)^3
     number of atoms/cell      =           30
     number of atomic types    =            3
     number of electrons       =       232.00
     number of Kohn-Sham states=          348
     kinetic-energy cutoff     =      40.0000  Ry
     charge density cutoff     =     500.0000  Ry
     convergence threshold     =      1.0E-06
     mixing beta               =       0.3000
     number of iterations used =            8  plain     mixing
     Exchange-correlation      = SLA  PW   PBE  PBE ( 1 4 3 4 0)
     EXX-fraction              =        0.00
     nstep                     =           50

     celldm(1)=  10.128932  celldm(2)=   0.000000  celldm(3)=   0.000000
     celldm(4)=   0.000000  celldm(5)=   0.000000  celldm(6)=   0.000000

     crystal axes: (cart. coord. in units of alat)
               a(1) = (   1.000000   0.000000   0.000000 )
               a(2) = (   0.000000   1.306037   0.000000 )
               a(3) = (   0.000000   0.000000   5.037380 )

     reciprocal axes: (cart. coord. in units 2 pi/alat)
               b(1) = (  1.000000  0.000000  0.000000 )
               b(2) = (  0.000000  0.765675  0.000000 )
               b(3) = (  0.000000  0.000000  0.198516 )

     PseudoPot. # 1 for O  read from file:
     /home/camp/zhonxu/pseudo/o_pbe_v1.01.uspp.F.UPF
     MD5 check sum: 2bcb18d16ea4b960afae9ec6d52f22d2
     Pseudo is Ultrasoft + core correction, Zval =  6.0
     Generated by new atomic code, or converted to UPF format
     Using radial grid of  737 points,  5 beta functions with:
                l(1) =   0
                l(2) =   0
                l(3) =   1
                l(4) =   1
                l(5) =   2
     Q(r) pseudized with  8 coefficients,  rinner =    0.900   0.900   0.900
                                                       0.900   0.900

     PseudoPot. # 2 for Re read from file:
     /home/camp/zhonxu/pseudo/re_pbe_v1.uspp.F.UPF
     MD5 check sum: 6f5a5dcaf9c96c20d0ffdde0de57afc6
     Pseudo is Ultrasoft + core correction, Zval = 15.0
     Generated by new atomic code, or converted to UPF format
     Using radial grid of  981 points,  8 beta functions with:
                l(1) =   0
                l(2) =   0
                l(3) =   1
                l(4) =   1
                l(5) =   2
                l(6) =   2
                l(7) =   3
                l(8) =   3
     Q(r) pseudized with  8 coefficients,  rinner =    1.000   1.000   1.000
                                                       1.000   1.000   1.000
                                                       1.000

     PseudoPot. # 3 for H  read from file:
     /home/camp/zhonxu/pseudo/h_pbe_v1.uspp.F.UPF
     MD5 check sum: 3408e3ff4ec8b0a4e358431e7e038a48
     Pseudo is Ultrasoft, Zval =  1.0
     Generated by new atomic code, or converted to UPF format
     Using radial grid of  615 points,  2 beta functions with:
                l(1) =   0
                l(2) =   0
     Q(r) pseudized with  8 coefficients,  rinner =    0.700

     atomic species   valence    mass     pseudopotential
        O0             6.00    15.99940     O ( 1.00)
        Re1           15.00   186.20700     Re( 1.00)
        H2             1.00     1.00794     H ( 1.00)

     Simplified LDA+U calculation (l_max = 2) with parameters (eV):
     atomic species    L          U    alpha       J0     beta
        Re1            2     6.5000   0.0000   0.0000   0.0000

     No symmetry found

   Cartesian axes

     site n.     atom                  positions (alat units)
         1           O0  tau(   1) = (   0.0000000   0.0000000   1.8688176  )
         2           O0  tau(   2) = (   0.0000000   0.6530184   1.9243296  )
         3           Re1 tau(   3) = (   0.2500000   0.6530184   2.2228951  )
         4           Re1 tau(   4) = (   0.0000000   0.0000000   2.2352367  )
         5           O0  tau(   5) = (   0.2500000   1.0187087   2.2249100  )
         6           O0  tau(   6) = (   0.2500000   0.2873281   2.2250611  )
         7           O0  tau(   7) = (   0.0000000   0.6530184   2.5071041  )
         8           O0  tau(   8) = (   0.0000000   0.0000000   2.5966183  )
         9           Re1 tau(   9) = (   0.2500000   0.0000000   2.8989619  )
        10           Re1 tau(  10) = (   0.0000000   0.6530184   2.8608793  )
        11           O0  tau(  11) = (   0.2500000   0.9403465   2.8908013  )
        12           O0  tau(  12) = (   0.2500000   0.3656903   2.8907005  )
        13           O0  tau(  13) = (   0.0000000   0.0000000   3.1620138  )
        14           O0  tau(  14) = (   0.5000000   0.0000000   1.8688176  )
        15           O0  tau(  15) = (   0.5000000   0.6530184   1.9243296  )
        16           Re1 tau(  16) = (   0.7500000   0.6530184   2.2228951  )
        17           Re1 tau(  17) = (   0.5000000   0.0000000   2.2352367  )
        18           O0  tau(  18) = (   0.7500000   1.0187087   2.2249604  )
        19           O0  tau(  19) = (   0.7500000   0.2873281   2.2250611  )
        20           O0  tau(  20) = (   0.5000000   0.6530184   2.5071041  )
        21           O0  tau(  21) = (   0.5000000   0.0000000   2.5966183  )
        22           Re1 tau(  22) = (   0.7500000   0.0000000   2.8989619  )
        23           Re1 tau(  23) = (   0.5000000   0.6530184   2.8609296  )
        24           O0  tau(  24) = (   0.7500000   0.9403465   2.8908013  )
        25           O0  tau(  25) = (   0.7500000   0.3656903   2.8907005  )
        26           O0  tau(  26) = (   0.5000000   0.0000000   3.1620138  )
        27           H2  tau(  27) = (  -0.0003800   0.8172395   1.8403061  )
        28           H2  tau(  28) = (   0.4996200   0.8172395   1.8403061  )
        29           H2  tau(  29) = (   0.1698700   0.0284977   1.7974380  )
        30           H2  tau(  30) = (   0.6698800   0.0284977   1.7974380  )

     number of k points=    10  Methfessel-Paxton smearing, width (Ry)=  0.0100
                       cart. coord. in units 2pi/alat
        k(    1) = (   0.0000000   0.0000000   0.0000000), wk =   0.1250000
        k(    2) = (   0.0000000   0.1914188   0.0000000), wk =   0.2500000
        k(    3) = (   0.0000000  -0.3828376   0.0000000), wk =   0.1250000
        k(    4) = (   0.2500000   0.0000000   0.0000000), wk =   0.2500000
        k(    5) = (   0.2500000   0.1914188   0.0000000), wk =   0.2500000
        k(    6) = (   0.2500000  -0.3828376   0.0000000), wk =   0.2500000
        k(    7) = (  -0.5000000   0.0000000   0.0000000), wk =   0.1250000
        k(    8) = (  -0.5000000   0.1914188   0.0000000), wk =   0.2500000
        k(    9) = (  -0.5000000  -0.3828376   0.0000000), wk =   0.1250000
        k(   10) = (  -0.2500000   0.1914188   0.0000000), wk =   0.2500000

     Largest allocated arrays     est. size (Mb)     dimensions
     Largest temporary arrays     est. size (Mb)     dimensions

     Check: negative/imaginary core charge=   -0.000003    0.000000

     Initial potential from superposition of free atoms
     Check: negative starting charge=   -0.237311

     starting charge  227.99958, renormalised to  232.00000

     negative rho (up, down):  0.241E+00 0.000E+00
     Number of +U iterations with fixed ns =  0
     Starting occupations:
 --- enter write_ns ---
 LDA+U parameters:
U( 2)     =  6.50000000
alpha( 2) =  0.00000000
atom    3   Tr[ns(na)] =   5.00000
    eigenvalues:
  0.500  0.500  0.500  0.500  0.500
    eigenvectors:
  1.000  0.000  0.000  0.000  0.000
  0.000  1.000  0.000  0.000  0.000
  0.000  0.000  1.000  0.000  0.000
  0.000  0.000  0.000  1.000  0.000
  0.000  0.000  0.000  0.000  1.000
    occupations:
  0.500  0.000  0.000  0.000  0.000
  0.000  0.500  0.000  0.000  0.000
  0.000  0.000  0.500  0.000  0.000
  0.000  0.000  0.000  0.500  0.000
  0.000  0.000  0.000  0.000  0.500
atom    4   Tr[ns(na)] =   5.00000
    eigenvalues:
  0.500  0.500  0.500  0.500  0.500
    eigenvectors:
  1.000  0.000  0.000  0.000  0.000
  0.000  1.000  0.000  0.000  0.000
  0.000  0.000  1.000  0.000  0.000
  0.000  0.000  0.000  1.000  0.000
  0.000  0.000  0.000  0.000  1.000
    occupations:
  0.500  0.000  0.000  0.000  0.000
  0.000  0.500  0.000  0.000  0.000
  0.000  0.000  0.500  0.000  0.000
  0.000  0.000  0.000  0.500  0.000
  0.000  0.000  0.000  0.000  0.500
atom    9   Tr[ns(na)] =   5.00000
    eigenvalues:
  0.500  0.500  0.500  0.500  0.500
    eigenvectors:
  1.000  0.000  0.000  0.000  0.000
  0.000  1.000  0.000  0.000  0.000
  0.000  0.000  1.000  0.000  0.000
  0.000  0.000  0.000  1.000  0.000
  0.000  0.000  0.000  0.000  1.000
    occupations:
  0.500  0.000  0.000  0.000  0.000
  0.000  0.500  0.000  0.000  0.000
  0.000  0.000  0.500  0.000  0.000
  0.000  0.000  0.000  0.500  0.000
  0.000  0.000  0.000  0.000  0.500
atom   10   Tr[ns(na)] =   5.00000
    eigenvalues:
  0.500  0.500  0.500  0.500  0.500
    eigenvectors:
  1.000  0.000  0.000  0.000  0.000
  0.000  1.000  0.000  0.000  0.000
  0.000  0.000  1.000  0.000  0.000
  0.000  0.000  0.000  1.000  0.000
  0.000  0.000  0.000  0.000  1.000
    occupations:
  0.500  0.000  0.000  0.000  0.000
  0.000  0.500  0.000  0.000  0.000
  0.000  0.000  0.500  0.000  0.000
  0.000  0.000  0.000  0.500  0.000
  0.000  0.000  0.000  0.000  0.500
atom   16   Tr[ns(na)] =   5.00000
    eigenvalues:
  0.500  0.500  0.500  0.500  0.500
    eigenvectors:
  1.000  0.000  0.000  0.000  0.000
  0.000  1.000  0.000  0.000  0.000
  0.000  0.000  1.000  0.000  0.000
  0.000  0.000  0.000  1.000  0.000
  0.000  0.000  0.000  0.000  1.000
    occupations:
  0.500  0.000  0.000  0.000  0.000
  0.000  0.500  0.000  0.000  0.000
  0.000  0.000  0.500  0.000  0.000
  0.000  0.000  0.000  0.500  0.000
  0.000  0.000  0.000  0.000  0.500
atom   17   Tr[ns(na)] =   5.00000
    eigenvalues:
  0.500  0.500  0.500  0.500  0.500
    eigenvectors:
  1.000  0.000  0.000  0.000  0.000
  0.000  1.000  0.000  0.000  0.000
  0.000  0.000  1.000  0.000  0.000
  0.000  0.000  0.000  1.000  0.000
  0.000  0.000  0.000  0.000  1.000
    occupations:
  0.500  0.000  0.000  0.000  0.000
  0.000  0.500  0.000  0.000  0.000
  0.000  0.000  0.500  0.000  0.000
  0.000  0.000  0.000  0.500  0.000
  0.000  0.000  0.000  0.000  0.500
atom   22   Tr[ns(na)] =   5.00000
    eigenvalues:
  0.500  0.500  0.500  0.500  0.500
    eigenvectors:
  1.000  0.000  0.000  0.000  0.000
  0.000  1.000  0.000  0.000  0.000
  0.000  0.000  1.000  0.000  0.000
  0.000  0.000  0.000  1.000  0.000
  0.000  0.000  0.000  0.000  1.000
    occupations:
[...]
  0.569  0.582  0.613  0.753  0.796
    eigenvectors:
  0.001  0.000  0.991  0.000  0.007
  0.000  0.019  0.000  0.981  0.000
  0.000  0.981  0.000  0.019  0.000
  0.000  0.000  0.007  0.000  0.993
  0.999  0.000  0.001  0.000  0.000
    occupations:
  0.614  0.003  0.000 -0.015  0.001
  0.003  0.750  0.023 -0.000 -0.002
  0.000  0.023  0.585  0.001 -0.000
 -0.015 -0.000  0.001  0.795 -0.000
  0.001 -0.002 -0.000 -0.000  0.569
atom    9   Tr[ns(na)] =   6.61049
    eigenvalues:
  0.534  0.588  0.603  0.774  0.806
    eigenvectors:
  0.000  0.215  0.000  0.783  0.002
  0.000  0.000  1.000  0.000  0.000
  1.000  0.000  0.000  0.000  0.000
  0.000  0.785  0.000  0.214  0.001
  0.000  0.000  0.000  0.003  0.997
    occupations:
  0.734  0.000 -0.002 -0.076  0.002
  0.000  0.603 -0.000  0.000  0.000
 -0.002 -0.000  0.534  0.001  0.000
 -0.076  0.000  0.001  0.628 -0.001
  0.002  0.000  0.000 -0.001  0.806
atom   10   Tr[ns(na)] =   6.52670
    eigenvalues:
  0.462  0.522  0.538  0.787  0.955
    eigenvectors:
  0.999  0.001  0.000  0.000  0.000
  0.000  0.000  0.000  0.000  1.000
  0.001  0.999  0.000  0.000  0.000
  0.000  0.000  0.000  1.000  0.000
  0.000  0.000  1.000  0.000  0.000
    occupations:
  0.462  0.000 -0.002  0.005  0.000
  0.000  0.955  0.001 -0.000  0.001
 -0.002  0.001  0.522  0.000  0.000
  0.005 -0.000  0.000  0.787  0.000
  0.000  0.001  0.000  0.000  0.538
atom   16   Tr[ns(na)] =   6.64179
    eigenvalues:
  0.533  0.564  0.571  0.778  0.874
    eigenvectors:
  0.000  0.278  0.045  0.678  0.000
  0.999  0.000  0.000  0.000  0.001
  0.000  0.249  0.742  0.010  0.000
  0.000  0.474  0.214  0.313  0.000
  0.001  0.000  0.000  0.000  0.999
    occupations:
  0.710  0.000  0.019 -0.098 -0.000
  0.000  0.534 -0.000 -0.000 -0.009
  0.019 -0.000  0.571 -0.009  0.001
 -0.098 -0.000 -0.009  0.633  0.000
 -0.000 -0.009  0.001  0.000  0.874
atom   17   Tr[ns(na)] =   6.62420
    eigenvalues:
  0.569  0.582  0.613  0.753  0.796
    eigenvectors:
  0.001  0.000  0.991  0.000  0.007
  0.000  0.019  0.000  0.981  0.000
  0.000  0.981  0.000  0.019  0.000
  0.000  0.000  0.007  0.000  0.993
  0.999  0.000  0.001  0.000  0.000
    occupations:
  0.614  0.003  0.000 -0.015  0.001
  0.003  0.750  0.023 -0.000 -0.002
  0.000  0.023  0.585  0.001 -0.000
 -0.015 -0.000  0.001  0.795 -0.000
  0.001 -0.002 -0.000 -0.000  0.569
atom   22   Tr[ns(na)] =   6.61064
    eigenvalues:
  0.534  0.588  0.603  0.774  0.806
    eigenvectors:
  0.000  0.215  0.000  0.783  0.002
  0.000  0.000  1.000  0.000  0.000
  1.000  0.000  0.000  0.000  0.000
  0.000  0.785  0.000  0.214  0.001
  0.000  0.000  0.000  0.003  0.997
    occupations:
  0.734  0.000 -0.002 -0.076  0.002
  0.000  0.603 -0.000  0.000  0.000
 -0.002 -0.000  0.534  0.001  0.000
 -0.076  0.000  0.001  0.628 -0.001
  0.002  0.000  0.000 -0.001  0.806
atom   23   Tr[ns(na)] =   6.52664
    eigenvalues:
  0.462  0.522  0.538  0.787  0.955
    eigenvectors:
  0.999  0.001  0.000  0.000  0.000
  0.000  0.000  0.000  0.000  1.000
  0.001  0.999  0.000  0.000  0.000
  0.000  0.000  0.000  1.000  0.000
  0.000  0.000  1.000  0.000  0.000
    occupations:
  0.462  0.000 -0.002  0.005  0.000
  0.000  0.955  0.001 -0.000  0.001
 -0.002  0.001  0.522  0.000  0.000
  0.005 -0.000  0.000  0.787  0.000
  0.000  0.001  0.000  0.000  0.538
N of occupied +U levels =  52.8065326
 --- exit write_ns ---

     Threshold (ethr) on eigenvalues was too large:
     Diagonalizing with lowered threshold

     Davidson diagonalization with overlap
     ethr =  1.20E-08,  avg # of iterations =  2.0

[...]

     total energy              =   -2138.94804315 Ry
     Harris-Foulkes estimate   =   -2138.94804315 Ry
     estimated scf accuracy    <       0.00000001 Ry

     iteration # 16     ecut=    40.00 Ry     beta=0.30
     Davidson diagonalization with overlap
     ethr =  4.34E-12,  avg # of iterations =  2.0

     negative rho (up, down):  0.233E+00 0.000E+00

     End of self-consistent calculation
 --- enter write_ns ---
 LDA+U parameters:
U( 2)     =  6.50000000
alpha( 2) =  0.00000000
atom    3   Tr[ns(na)] =   6.63975
    eigenvalues:
  0.533  0.564  0.570  0.778  0.874
    eigenvectors:
  0.000  0.253  0.068  0.678  0.000
  0.999  0.000  0.000  0.000  0.001
  0.000  0.337  0.654  0.010  0.000
  0.000  0.410  0.278  0.312  0.000
  0.001  0.000  0.000  0.000  0.999
    occupations:
  0.710  0.000  0.019 -0.098 -0.000
  0.000  0.534 -0.000 -0.000 -0.009
  0.019 -0.000  0.570 -0.009  0.001
 -0.098 -0.000 -0.009  0.633  0.000
 -0.000 -0.009  0.001  0.000  0.874
atom    4   Tr[ns(na)] =   6.62398
    eigenvalues:
  0.569  0.582  0.613  0.753  0.796
    eigenvectors:
  0.001  0.000  0.991  0.000  0.007
  0.000  0.019  0.000  0.981  0.000
  0.000  0.981  0.000  0.019  0.000
  0.000  0.000  0.007  0.000  0.993
  0.999  0.000  0.001  0.000  0.000
    occupations:
  0.614  0.003  0.000 -0.015  0.001
  0.003  0.750  0.023 -0.000 -0.002
  0.000  0.023  0.585  0.001 -0.000
 -0.015 -0.000  0.001  0.795 -0.000
  0.001 -0.002 -0.000 -0.000  0.569
atom    9   Tr[ns(na)] =   6.61113
    eigenvalues:
  0.534  0.588  0.603  0.774  0.806
    eigenvectors:
  0.000  0.215  0.000  0.783  0.002
  0.000  0.000  1.000  0.000  0.000
  1.000  0.000  0.000  0.000  0.000
  0.000  0.785  0.000  0.214  0.001
  0.000  0.000  0.000  0.003  0.997
    occupations:
  0.734  0.000 -0.002 -0.076  0.002
  0.000  0.603 -0.000  0.000  0.000
 -0.002 -0.000  0.535  0.001  0.000
 -0.076  0.000  0.001  0.628 -0.001
  0.002  0.000  0.000 -0.001  0.806
atom   10   Tr[ns(na)] =   6.52801
    eigenvalues:
  0.462  0.522  0.538  0.787  0.955
    eigenvectors:
  0.999  0.001  0.000  0.000  0.000
  0.000  0.000  0.000  0.000  1.000
  0.001  0.999  0.000  0.000  0.000
  0.000  0.000  0.000  1.000  0.000
  0.000  0.000  1.000  0.000  0.000
    occupations:
  0.462  0.000 -0.002  0.005  0.000
  0.000  0.955  0.001 -0.000  0.001
 -0.002  0.001  0.522  0.000  0.000
  0.005 -0.000  0.000  0.787  0.000
  0.000  0.001  0.000  0.000  0.538
atom   16   Tr[ns(na)] =   6.63975
    eigenvalues:
  0.533  0.564  0.570  0.778  0.874
    eigenvectors:
  0.000  0.254  0.068  0.678  0.000
  0.999  0.000  0.000  0.000  0.001
  0.000  0.336  0.654  0.010  0.000
  0.000  0.410  0.277  0.312  0.000
  0.001  0.000  0.000  0.000  0.999
    occupations:
  0.710  0.000  0.019 -0.098 -0.000
  0.000  0.534 -0.000 -0.000 -0.009
  0.019 -0.000  0.570 -0.009  0.001
 -0.098 -0.000 -0.009  0.633  0.000
 -0.000 -0.009  0.001  0.000  0.874
atom   17   Tr[ns(na)] =   6.62398
    eigenvalues:
  0.569  0.582  0.613  0.753  0.796
    eigenvectors:
  0.001  0.000  0.991  0.000  0.007
  0.000  0.019  0.000  0.981  0.000
  0.000  0.981  0.000  0.019  0.000
  0.000  0.000  0.007  0.000  0.993
  0.999  0.000  0.001  0.000  0.000
    occupations:
  0.614  0.003  0.000 -0.015  0.001
  0.003  0.750  0.023 -0.000 -0.002
  0.000  0.023  0.585  0.001 -0.000
 -0.015 -0.000  0.001  0.795 -0.000
  0.001 -0.002 -0.000 -0.000  0.569
atom   22   Tr[ns(na)] =   6.61114
    eigenvalues:
  0.534  0.588  0.603  0.774  0.806
    eigenvectors:
  0.000  0.215  0.000  0.783  0.002
  0.000  0.000  1.000  0.000  0.000
  1.000  0.000  0.000  0.000  0.000
  0.000  0.785  0.000  0.214  0.001
  0.000  0.000  0.000  0.003  0.997
    occupations:
  0.734  0.000 -0.002 -0.076  0.002
  0.000  0.603 -0.000  0.000  0.000
 -0.002 -0.000  0.534  0.001  0.000
 -0.076  0.000  0.001  0.628 -0.001
  0.002  0.000  0.000 -0.001  0.806
atom   23   Tr[ns(na)] =   6.52800
    eigenvalues:
  0.462  0.522  0.538  0.787  0.955
    eigenvectors:
  0.999  0.001  0.000  0.000  0.000
  0.000  0.000  0.000  0.000  1.000
  0.001  0.999  0.000  0.000  0.000
  0.000  0.000  0.000  1.000  0.000
  0.000  0.000  1.000  0.000  0.000
    occupations:
  0.462  0.000 -0.002  0.005  0.000
  0.000  0.955  0.001 -0.000  0.001
 -0.002  0.001  0.522  0.000  0.000
  0.005 -0.000  0.000  0.787  0.000
  0.000  0.001  0.000  0.000  0.538
N of occupied +U levels =  52.8057456
 --- exit write_ns ---

[...]

          k = 0.2500-0.3828 0.0000 ( 29202 PWs)   bands (ev):

[...]

          k =-0.2500 0.1914 0.0000 ( 29229 PWs)   bands (ev):

   -80.7838 -80.7452 -80.4725 -80.4332 -80.3290 -80.2917 -80.2276 -80.1897
   -42.8576 -42.7771 -42.7718 -42.7093 -42.6602 -42.5793 -42.5082 -42.5043
   -42.4837 -42.4756 -42.4645 -42.4475 -42.3893 -42.3763 -42.3611 -42.3308
   -42.2246 -42.2234 -42.1967 -42.1509 -42.0885 -41.8648 -41.5997 -41.5704
   -20.8127 -20.3872 -20.3391 -20.2218 -20.0814 -19.9591 -19.9009 -19.8318
   -19.7701 -19.6982 -19.4754 -19.3621 -19.3372 -19.1172 -19.0930 -18.9862
   -18.2679 -18.0883  -9.2653  -9.1636  -9.0060  -8.9364  -8.8823  -8.7228
    -8.7205  -8.2716  -8.1947  -8.0605  -8.0258  -7.8835  -7.8011  -7.4044
    -7.3961  -7.1501  -6.9042  -6.7886  -6.7146  -6.6659  -6.5834  -6.3506
    -6.2854  -6.0286  -5.8319  -5.8312  -5.6402  -5.6280  -5.5487  -5.3922
    -5.3154  -5.0775  -4.9915  -4.9095  -4.8783  -4.8544  -4.7940  -4.6702
    -4.6634  -4.6267  -4.2438  -4.0996  -4.0272  -3.9028  -3.8111  -3.7080
    -3.6960  -3.4473  -3.3691  -3.2490  -3.1857  -2.9540  -2.8609  -2.7435
    -2.5370  -2.4733  -2.3129  -1.8418  -1.5454  -1.2373  -1.1223  -0.7387
    -0.3779  -0.1887  -0.0144   0.3046   0.4663   0.6728   0.7858   1.1680
     1.2460   1.3562   1.3777   1.5302   1.5493   1.5961   1.7324   1.8955
     2.4350   2.5810   3.7039   3.8252   3.9080   4.0089   4.1384   4.3935
     4.6234   4.6740   4.8188   4.9542   4.9671   5.0069   5.2281   5.4242
     5.7932   5.9912   5.9955   6.2414   6.2883   6.5536   6.6962   6.7370
     6.8364   6.9824   7.2596   7.3936   7.4107   7.6670   7.7723   7.9861
     8.1436   8.2967   8.3706   8.4786   8.6018   8.6524   8.8141   8.8827
     9.1079   9.3302   9.3914   9.4291   9.6022   9.6960   9.7627   9.7890
     9.8412   9.9582   9.9609  10.1738  10.1778  10.3196  10.3290  10.4747
    10.4954  10.6605  10.7679  10.7971  10.9258  11.0638  11.0714  11.2558
    11.3966  11.4431  11.4957  11.7140  11.7927  11.9164  11.9831  12.0862
    12.3009  12.4646  12.4901  12.5237  12.6510  12.7072  12.7140  12.8459
    12.8624  12.9551  13.0576  13.1963  13.2407  13.3194  13.5076  13.5904
    13.6146  13.6778  13.7966  13.8116  13.9140  13.9205  13.9706  14.0626
    14.1478  14.2497  14.2951  14.3570  14.4082  14.5374  14.5649  14.6194
    14.7749  14.7895  14.8250  14.8788  14.8862  14.9622  15.0351  15.0605
    15.1211  15.2431  15.3216  15.3933  15.5067  15.5683  15.6670  15.7176
    15.9000  15.9547  16.1074  16.1277  16.1828  16.2222  16.2910  16.4252
    16.5187  16.5781  16.6450  16.6962  16.7878  16.8590  16.9042  17.0172
    17.1171  17.1176  17.2119  17.3359  17.3436  17.5063  17.5378  17.6540
    17.7147  17.7424  17.7911  17.9105  17.9924  18.0506  18.1642  18.1899
    18.2436  18.3385  18.3445  18.4210  18.5413  18.5942  18.6752  18.6859
    18.7913  18.8948  18.9006  18.9743  19.0834  19.1040  19.2009  19.3247
    19.4691  19.5331  19.5951  19.6579  19.8155  19.9620  19.9729  20.0075
    20.1043  20.1930  20.2475  20.2837  20.4855  20.5185  20.5330  20.6278
    20.6707  20.7834  20.7921  20.8377  20.8728  20.9169  20.9761  21.0343
    21.1425  21.1859  21.2711  21.3109  21.4487  21.4497  21.5229  21.5514
    21.6646  21.6753  21.7585  21.8433  21.9196  21.9628  22.1107  22.1483
    22.2029  22.2498  22.2793  22.3334  22.3522  22.4434  22.4827  22.5431
    22.5489  22.6059  22.6266  22.7412

     the Fermi energy is     0.2787 ev

!    total energy              =   -2138.94804316 Ry
     Harris-Foulkes estimate   =   -2138.94804316 Ry
     estimated scf accuracy    <          8.6E-09 Ry

     The total energy is the sum of the following terms:

     one-electron contribution =  -23565.79574945 Ry
     hartree contribution      =   11800.07425963 Ry
     xc contribution           =    -587.40946169 Ry
     ewald contribution        =   10210.25077715 Ry
     Hubbard energy            =       3.93246480 Ry
     smearing contrib. (-TS)   =      -0.00033361 Ry

     convergence has been achieved in  16 iterations

     Forces acting on atoms (Ry/au):

     negative rho (up, down):  0.233E+00 0.000E+00
     atom    1 type  1   force =    -0.00365731   -0.00616010    0.00007688
     atom    2 type  1   force =     0.00009125    0.00508083    0.00026944
     atom    3 type  2   force =    -0.00040653   -0.00219496    0.00011573
     atom    4 type  2   force =     0.00145413    0.00602322    0.00014350
     atom    5 type  1   force =     0.00156646    0.00611222   -0.00034961
     atom    6 type  1   force =     0.00034948   -0.00641835   -0.00057394
     atom    7 type  1   force =     0.00003598   -0.00124672    0.00038072
     atom    8 type  1   force =     0.00245871   -0.00099652    0.00090777
     atom    9 type  2   force =    -0.00158724    0.00030175    0.00037816
     atom   10 type  2   force =     0.00000076   -0.00113931   -0.00057370
     atom   11 type  1   force =     0.00019601   -0.00807489    0.00004250
     atom   12 type  1   force =    -0.00020698    0.00880637    0.00000389
     atom   13 type  1   force =    -0.00031676    0.00013319    0.00017739
     atom   14 type  1   force =    -0.00364720   -0.00615858    0.00007319
     atom   15 type  1   force =     0.00009464    0.00507170    0.00026976
     atom   16 type  2   force =    -0.00042379   -0.00219362    0.00011253
     atom   17 type  2   force =     0.00145611    0.00602313    0.00014279
     atom   18 type  1   force =     0.00156070    0.00611151   -0.00036099
     atom   19 type  1   force =     0.00034263   -0.00641962   -0.00057380
     atom   20 type  1   force =     0.00003414   -0.00124644    0.00037831
     atom   21 type  1   force =     0.00245279   -0.00099787    0.00091377
     atom   22 type  2   force =    -0.00160192    0.00030169    0.00037580
     atom   23 type  2   force =    -0.00000012   -0.00113916   -0.00059790
     atom   24 type  1   force =     0.00019158   -0.00807442    0.00004468
     atom   25 type  1   force =    -0.00021057    0.00880473    0.00000531
     atom   26 type  1   force =    -0.00031889    0.00013410    0.00017510
     atom   27 type  3   force =     0.00001210   -0.00043031   -0.00027040
     atom   28 type  3   force =     0.00001188   -0.00042882   -0.00027087
     atom   29 type  3   force =     0.00003345    0.00020706   -0.00070782
     atom   30 type  3   force =     0.00003452    0.00020819   -0.00070817

     Total force =     0.002393     Total SCF correction =     0.000275
     SCF correction compared to forces is large: reduce conv_thr to get better values

     bfgs converged in  14 scf cycles and  13 bfgs steps
     (criteria: energy < 0.10E-03, force < 0.10E-02)

     End of BFGS Geometry Optimization

     Final energy   =   -2138.9480431610 Ry
Begin final coordinates

ATOMIC_POSITIONS (crystal)
O0       0.000000000   0.000000000   0.372612553    0   0   1
O0       0.000000000   0.500000000   0.381754911    0   0   1
Re1      0.250000000   0.500000000   0.440791354    0   0   1
Re1      0.000000000   0.000000000   0.444675157    0   0   1
O0       0.250000000   0.780000000   0.442408904    0   0   1
O0       0.250000000   0.220000000   0.442282821    0   0   1
O0       0.000000000   0.500000000   0.496875140    0   0   1
O0       0.000000000   0.000000000   0.515448530    0   0   1
Re1      0.250000000   0.000000000   0.575831924    0   0   1
Re1      0.000000000   0.500000000   0.566459303    0   0   1
O0       0.250000000   0.720000000   0.572910265    0   0   1
O0       0.250000000   0.280000000   0.572935752    0   0   1
O0       0.000000000   0.000000000   0.628009716    0   0   1
O0       0.500000000   0.000000000   0.372612938    0   0   1
O0       0.500000000   0.500000000   0.381755058    0   0   1
Re1      0.750000000   0.500000000   0.440791715    0   0   1
Re1      0.500000000   0.000000000   0.444675253    0   0   1
O0       0.750000000   0.780000000   0.442410718    0   0   1
O0       0.750000000   0.220000000   0.442282872    0   0   1
O0       0.500000000   0.500000000   0.496876249    0   0   1
O0       0.500000000   0.000000000   0.515448279    0   0   1
Re1      0.750000000   0.000000000   0.575831477    0   0   1
Re1      0.500000000   0.500000000   0.566460970    0   0   1
O0       0.750000000   0.720000000   0.572909652    0   0   1
O0       0.750000000   0.280000000   0.572935197    0   0   1
O0       0.500000000   0.000000000   0.628010125    0   0   1
H2      -0.000407621   0.623496141   0.364215576
H2       0.499592626   0.623495036   0.364215308
H2       0.169464769   0.023474885   0.358366014
H2       0.669464958   0.023473334   0.358366266
End final coordinates

     General routines

     Parallel routines
     Hubbard U routines

   This run was terminated on:  10: 7:48  16May2014

   JOB DONE.