     Program PWSCF v.5.0.2 (svn rev. 9656) starts on  1May2014 at  6:27:26

     Current dimensions of program PWSCF are:
     Max number of different atomic species (ntypx) = 10
     Max number of k-points (npk) =  40000
     Max angular momentum in pseudopotentials (lmaxx) =  3
     Reading input from pwscf.in
Warning: card &CELL ignored
Warning: card / ignored

     Subspace diagonalization in iterative solution of the eigenvalue problem:
     a serial algorithm will be used

     bravais-lattice index     =            0
     lattice parameter (alat)  =      11.1872  a.u.
     unit-cell volume          =    7531.8600 (a.u.)^3
     number of atoms/cell      =           33
     number of atomic types    =            3
     number of electrons       =       229.00
     number of Kohn-Sham states=          343
     kinetic-energy cutoff     =      40.0000  Ry
     charge density cutoff     =     500.0000  Ry
     convergence threshold     =      1.0E-06
     mixing beta               =       0.3000
     number of iterations used =            8  plain     mixing
     Exchange-correlation      = SLA  PW   PBE  PBE ( 1 4 3 4 0)
     EXX-fraction              =        0.00
     nstep                     =           50

     celldm(1)=  11.187179  celldm(2)=   0.000000  celldm(3)=   0.000000
     celldm(4)=   0.000000  celldm(5)=   0.000000  celldm(6)=   0.000000

     crystal axes: (cart. coord. in units of alat)
               a(1) = (   1.000000   0.000000   0.000000 )
               a(2) = (   0.000000   1.180104   0.000000 )
               a(3) = (   0.000000   0.000000   4.558482 )

     reciprocal axes: (cart. coord. in units 2 pi/alat)
               b(1) = (  1.000000  0.000000  0.000000 )
               b(2) = (  0.000000  0.847383  0.000000 )
               b(3) = (  0.000000  0.000000  0.219371 )

     PseudoPot. # 1 for O  read from file:
     /home/camp/zhonxu/pseudo/o_pbe_v1.01.uspp.F.UPF
     MD5 check sum: 2bcb18d16ea4b960afae9ec6d52f22d2
     Pseudo is Ultrasoft + core correction, Zval =  6.0
     Generated by new atomic code, or converted to UPF format
     Using radial grid of  737 points,  5 beta functions with:
                l(1) =   0
                l(2) =   0
                l(3) =   1
                l(4) =   1
                l(5) =   2
     Q(r) pseudized with  8 coefficients,  rinner =    0.900   0.900   0.900
                                                       0.900   0.900

     PseudoPot. # 2 for Nb read from file:
     /home/camp/zhonxu/pseudo/nb_pbe_v1.uspp.F.UPF
     MD5 check sum: 573aab8a2fa660278ed4a62cd769473f
     Pseudo is Ultrasoft + core correction, Zval = 13.0
     Generated by new atomic code, or converted to UPF format
     Using radial grid of  887 points,  6 beta functions with:
                l(1) =   0
                l(2) =   0
                l(3) =   1
                l(4) =   1
                l(5) =   2
                l(6) =   2
     Q(r) pseudized with  6 coefficients,  rinner =    1.000   1.000   1.000
                                                       1.000   1.000

     PseudoPot. # 3 for H  read from file:
     /home/camp/zhonxu/pseudo/h_pbe_v1.uspp.F.UPF
     MD5 check sum: 3408e3ff4ec8b0a4e358431e7e038a48
     Pseudo is Ultrasoft, Zval =  1.0
     Generated by new atomic code, or converted to UPF format
     Using radial grid of  615 points,  2 beta functions with:
                l(1) =   0
                l(2) =   0
     Q(r) pseudized with  8 coefficients,  rinner =    0.700

     atomic species   valence    mass     pseudopotential
        O0             6.00    15.99940     O ( 1.00)
        Nb1           13.00    92.90640     Nb( 1.00)
        H2             1.00     1.00794     H ( 1.00)

     No symmetry found

   Cartesian axes

     site n.     atom                  positions (alat units)
         1           O0  tau(   1) = (   0.0000000   0.0000000   1.7080633  )
         2           O0  tau(   2) = (   0.0000000   0.5900519   1.7583889  )
         3           Nb1 tau(   3) = (   0.2500000   0.5900519   2.0066439  )
         4           Nb1 tau(   4) = (   0.0000000   0.0000000   2.0401487  )
         5           O0  tau(   5) = (   0.2500000   0.9322821   2.0429294  )
         6           O0  tau(   6) = (   0.2500000   0.2478218   2.0431118  )
         7           O0  tau(   7) = (   0.0000000   0.5900519   2.2709903  )
         8           O0  tau(   8) = (   0.0000000   0.0000000   2.3999042  )
         9           Nb1 tau(   9) = (   0.2500000   0.0000000   2.6489340  )
        10           Nb1 tau(  10) = (   0.0000000   0.5900519   2.5868019  )
        11           O0  tau(  11) = (   0.2500000   0.8378738   2.6444667  )
        12           O0  tau(  12) = (   0.2500000   0.3422301   2.6445123  )
        13           O0  tau(  13) = (   0.0000000   0.0000000   2.8518777  )
        14           O0  tau(  14) = (   0.5000000   0.0000000   1.7080633  )
        15           O0  tau(  15) = (   0.5000000   0.5900519   1.7583889  )
        16           Nb1 tau(  16) = (   0.7500000   0.5900519   2.0066439  )
        17           Nb1 tau(  17) = (   0.5000000   0.0000000   2.0401487  )
        18           O0  tau(  18) = (   0.7500000   0.9322821   2.0429294  )
        19           O0  tau(  19) = (   0.7500000   0.2478218   2.0431118  )
        20           O0  tau(  20) = (   0.5000000   0.5900519   2.2709903  )
        21           O0  tau(  21) = (   0.5000000   0.0000000   2.3999497  )
        22           Nb1 tau(  22) = (   0.7500000   0.0000000   2.6489340  )
        23           Nb1 tau(  23) = (   0.5000000   0.5900519   2.5867563  )
        24           O0  tau(  24) = (   0.7500000   0.8378738   2.6444667  )
        25           O0  tau(  25) = (   0.7500000   0.3422301   2.6445123  )
        26           O0  tau(  26) = (   0.5000000   0.0000000   2.8518777  )
        27           H2  tau(  27) = (  -0.0004200   0.5934860   1.5928705  )
        28           H2  tau(  28) = (   0.4995800   0.5932146   1.5928249  )
        29           H2  tau(  29) = (   0.1513000  -0.0014397   1.6372701  )
        30           H2  tau(  30) = (   0.6512900  -0.0014397   1.6372701  )
        31           O0  tau(  31) = (   0.5000000   0.5900519   2.9245855  )
        32           O0  tau(  32) = (   0.5000000   0.3932578   3.0404621  )
        33           H2  tau(  33) = (   0.5000000   0.4432824   3.2004192  )

     number of k points=    10  Methfessel-Paxton smearing, width (Ry)=  0.0100
                       cart. coord. in units 2pi/alat
        k(    1) = (   0.0000000   0.0000000   0.0000000), wk =   0.1250000
        k(    2) = (   0.0000000   0.2118458   0.0000000), wk =   0.2500000
        k(    3) = (   0.0000000  -0.4236915   0.0000000), wk =   0.1250000
        k(    4) = (   0.2500000   0.0000000   0.0000000), wk =   0.2500000
        k(    5) = (   0.2500000   0.2118458   0.0000000), wk =   0.2500000
        k(    6) = (   0.2500000  -0.4236915   0.0000000), wk =   0.2500000
        k(    7) = (  -0.5000000   0.0000000   0.0000000), wk =   0.1250000
        k(    8) = (  -0.5000000   0.2118458   0.0000000), wk =   0.2500000
        k(    9) = (  -0.5000000  -0.4236915   0.0000000), wk =   0.1250000
        k(   10) = (  -0.2500000   0.2118458   0.0000000), wk =   0.2500000

     Largest allocated arrays     est. size (Mb)     dimensions
     Largest temporary arrays     est. size (Mb)     dimensions

     Check: negative/imaginary core charge=   -0.000003    0.000000

     Initial potential from superposition of free atoms
     Check: negative starting charge=   -0.003406

     starting charge  228.97806, renormalised to  229.00000

     negative rho (up, down):  0.341E-02 0.000E+00
     Starting wfc are  189 randomized atomic wfcs

     Self-consistent Calculation

     iteration #  1     ecut=    40.00 Ry     beta=0.30
     Davidson diagonalization with overlap
     ethr =  1.00E-02,  avg # of iterations =  6.0

     negative rho (up, down):  0.313E-02 0.000E+00

     total energy              =   -1593.29501614 Ry
     Harris-Foulkes estimate   =   -1599.36868184 Ry
     estimated scf accuracy    <      13.79315874 Ry

[...]

     End of self-consistent calculation

          k = 0.0000 0.0000 0.0000 ( 32167 PWs)   bands (ev):

   -56.1775 -56.0888 -55.6204 -55.5837 -55.5093 -55.5047 -55.4322 -55.3147
   -33.0553 -32.3763 -32.2770 -32.1764 -32.1396 -32.1271 -32.1068 -32.0389
   -32.0323 -31.9867 -31.8974 -31.8685 -31.7999 -31.7928 -31.7487 -31.6082
   -31.5984 -31.5598 -31.4614 -31.3736 -31.3230 -31.2662 -31.2114 -31.1355
   -23.4068 -20.3917 -20.2144 -19.1775 -18.8831 -18.8134 -18.7435 -18.5966
   -18.4974 -18.4624 -18.3018 -18.2889 -18.0653 -17.9498 -17.9062 -17.6357
   -17.5541 -17.4996 -17.3198 -15.4271  -8.8429  -8.5087  -7.9970  -7.5384
    -7.0607  -6.9849  -6.6818  -6.5440  -6.4382  -6.0427  -6.0355  -5.9657
    -5.9089  -5.8596  -5.7439  -5.6906  -5.6336  -5.5166  -5.4530  -5.2243
    -5.0734  -5.0148  -4.9659  -4.9039  -4.9004  -4.8828  -4.8302  -4.7716
    -4.6640  -4.5543  -4.3412  -4.1202  -3.9638  -3.8987  -3.8764  -3.6272
    -3.5494  -3.5278  -3.4680  -3.4487  -3.2578  -3.2055  -3.1563  -3.1024
    -3.0612  -2.9141  -2.9085  -2.8069  -2.6771  -2.6406  -2.6195  -2.5879
    -2.5211  -2.4303  -2.3881  -2.3637  -1.8945  -1.3344  -0.4416  -0.0713
    -0.0293   0.0921   1.4017   1.6379   1.6801   1.7123   1.7195   1.7224
     1.8572   2.0390   2.0445   2.1012   2.5670   2.6326   2.6382   2.8199
     2.9502   3.0265   3.1456   3.3547   3.4368   3.8239   3.8493   3.8989
     3.9229   4.0088   4.0778   4.4983   4.6211   4.9049   4.9797   5.2296
     5.3786   5.4981   5.5593   5.7789   5.9129   5.9176   6.0527   6.1204
     6.1656   6.2756   6.4085   6.4882   6.4906   6.5467   6.7535   6.8375
     6.9363   7.0168   7.0724   7.2956   7.3597   7.3948   7.4158   7.5149
     7.8228   7.9634   8.0237   8.1402   8.1499   8.1779   8.3206   8.3771
     8.4931   8.6540   8.7048   8.8465   8.9300   8.9759   9.0613   9.1147
     9.1504   9.3217   9.5176   9.5373   9.5668   9.7018   9.7125   9.8567
     9.9461  10.0314  10.1856  10.2355  10.2923  10.3508  10.4042  10.5881
    10.6757  10.7259  10.9318  11.0039  11.0197  11.1089  11.2147  11.2389
    11.2802  11.3003  11.3431  11.3960  11.5017  11.5299  11.6403  11.6433
    11.7583  11.7752  11.7973  11.8649  11.9836  12.0893  12.2699  12.4093
    12.4217  12.4430  12.4712  12.4879  12.5964  12.6525  12.6596  12.8128
    12.8244  13.0177  13.0699  13.1491  13.3752  13.3918  13.4713  13.6232
    13.6945  13.7451  13.8368  13.8738  13.9129  14.0308  14.0520  14.1263
    14.1349  14.2717  14.3796  14.4124  14.5939  14.6340  14.7117  14.8779
    14.9635  15.0198  15.1613  15.2120  15.3073  15.3329  15.4416  15.5002
    15.6067  15.6594  15.8325  15.8550  15.8898  15.9666  15.9974  16.0509
    16.1413  16.1541  16.2116  16.2166  16.3221  16.4326  16.5354  16.5443
    16.6063  16.7093  16.7256  16.8733  16.9004  17.0296  17.1217  17.2958
    17.3441  17.3998  17.4208  17.4941  17.6258  17.6829  17.7493  17.8551
    17.9369  18.0584  18.1961  18.2302  18.3138  18.3922  18.4121  18.4274
[...]
     atom   22 type  2   force =    -0.00891154    0.00023682    0.00923141
     atom   23 type  2   force =     0.00010076    0.00793636    0.12036423
     atom   24 type  1   force =     0.02547985   -0.01944920   -0.02574962
     atom   25 type  1   force =     0.02552393    0.02332422   -0.02829722
     atom   26 type  1   force =     0.00036871   -0.01555789   -0.01915748
     atom   27 type  3   force =    -0.00002746   -0.00012476   -0.00144767
     atom   28 type  3   force =    -0.00005640   -0.00037616    0.00287960
     atom   29 type  3   force =     0.00013282    0.00042268    0.00011667
     atom   30 type  3   force =     0.00011699    0.00042157    0.00012155
     atom   31 type  1   force =     0.00000008    0.09202038   -0.03149448
     atom   32 type  1   force =     0.00000294   -0.08364195    0.08386209
     atom   33 type  3   force =     0.00000092   -0.00246498   -0.01018508

     Total force =     0.090158     Total SCF correction =     0.000267

     BFGS Geometry Optimization

     number of scf cycles    =   1
     number of bfgs steps    =   0

     energy   new            =   -1595.6666655802 Ry

     new trust radius        =       0.0838620945 bohr
     new conv_thr            =       0.0000010000 Ry

ATOMIC_POSITIONS (crystal)
O0       0.000000000   0.000000000   0.374700000    0   0   0
O0       0.000000000   0.500000000   0.385740000    0   0   0
Nb1      0.250000000   0.500000000   0.440200000    0   0   0
Nb1      0.000000000   0.000000000   0.447550000    0   0   0
O0       0.250000000   0.790000000   0.448160000    0   0   0
O0       0.250000000   0.210000000   0.448200000    0   0   0
O0       0.000000000   0.500000000   0.498190000    0   0   0
O0       0.000000000   0.000000000   0.526470000    0   0   0
Nb1      0.250000000   0.000000000   0.581100000    0   0   0
Nb1      0.000000000   0.500000000   0.567470000    0   0   0
O0       0.250000000   0.710000000   0.580120000    0   0   0
O0       0.250000000   0.290000000   0.580130000    0   0   0
O0       0.000000000   0.000000000   0.625620000    0   0   0
O0       0.500000000   0.000000000   0.374700000    0   0   0
O0       0.500000000   0.500000000   0.385740000    0   0   0
Nb1      0.750000000   0.500000000   0.440200000    0   0   0
Nb1      0.500000000   0.000000000   0.447550000    0   0   0
O0       0.750000000   0.790000000   0.448160000    0   0   0
O0       0.750000000   0.210000000   0.448200000    0   0   0
O0       0.500000000   0.500000000   0.498190000    0   0   0
O0       0.500000000   0.000000000   0.526480000    0   0   0
Nb1      0.750000000   0.000000000   0.581100000    0   0   0
Nb1      0.500000000   0.500000000   0.567460000    0   0   0
O0       0.750000000   0.710000000   0.580120000    0   0   0
O0       0.750000000   0.290000000   0.580130000    0   0   0
O0       0.500000000   0.000000000   0.625620000    0   0   0
H2      -0.000420000   0.502910000   0.349430000    0   0   0
H2       0.499580000   0.502680000   0.349420000    0   0   0
H2       0.151300000  -0.001220000   0.359170000    0   0   0
H2       0.651290000  -0.001220000   0.359170000    0   0   0
O0       0.500000007   0.500000000   0.640952419    1   0   1
O0       0.500000263   0.333240000   0.668634466    1   0   1
H2       0.500000082   0.375630000   0.701880279    1   0   1

     Check: negative starting charge=   -0.003406
     NEW-OLD atomic charge density approx. for the potential

     Check: negative/imaginary core charge=   -0.000003    0.000000
     Check: negative starting charge=   -0.003407

[...]

     energy   old            =   -1595.6666655802 Ry
     energy   new            =   -1595.6686125760 Ry

     CASE: energy  _new < energy  _old

[...]

     Threshold (ethr) on eigenvalues was too large:
     Diagonalizing with lowered threshold

     Davidson diagonalization with overlap
     ethr =  6.81E-08,  avg # of iterations =  1.0

[...]

     Total force =     0.004499     Total SCF correction =     0.000030

     number of scf cycles    =   8
     number of bfgs steps    =   7

     energy   old            =   -1595.6762517348 Ry
     energy   new            =   -1595.6763210708 Ry

     CASE: energy  _new < energy  _old

     new trust radius        =       0.0038021569 bohr
     new conv_thr            =       0.0000000100 Ry

ATOMIC_POSITIONS (crystal)
O0       0.000000000   0.000000000   0.374700000    0   0   0
O0       0.000000000   0.500000000   0.385740000    0   0   0
Nb1      0.250000000   0.500000000   0.440200000    0   0   0
Nb1      0.000000000   0.000000000   0.447550000    0   0   0
O0       0.250000000   0.790000000   0.448160000    0   0   0
O0       0.250000000   0.210000000   0.448200000    0   0   0
O0       0.000000000   0.500000000   0.498190000    0   0   0
O0       0.000000000   0.000000000   0.526470000    0   0   0
Nb1      0.250000000   0.000000000   0.581100000    0   0   0
Nb1      0.000000000   0.500000000   0.567470000    0   0   0
O0       0.250000000   0.710000000   0.580120000    0   0   0
O0       0.250000000   0.290000000   0.580130000    0   0   0
O0       0.000000000   0.000000000   0.625620000    0   0   0
O0       0.500000000   0.000000000   0.374700000    0   0   0
O0       0.500000000   0.500000000   0.385740000    0   0   0
Nb1      0.750000000   0.500000000   0.440200000    0   0   0
Nb1      0.500000000   0.000000000   0.447550000    0   0   0
O0       0.750000000   0.790000000   0.448160000    0   0   0
O0       0.750000000   0.210000000   0.448200000    0   0   0
O0       0.500000000   0.500000000   0.498190000    0   0   0
O0       0.500000000   0.000000000   0.526480000    0   0   0
Nb1      0.750000000   0.000000000   0.581100000    0   0   0
Nb1      0.500000000   0.500000000   0.567460000    0   0   0
O0       0.750000000   0.710000000   0.580120000    0   0   0
O0       0.750000000   0.290000000   0.580130000    0   0   0
O0       0.500000000   0.000000000   0.625620000    0   0   0
H2      -0.000420000   0.502910000   0.349430000    0   0   0
H2       0.499580000   0.502680000   0.349420000    0   0   0
H2       0.151300000  -0.001220000   0.359170000    0   0   0
H2       0.651290000  -0.001220000   0.359170000    0   0   0
O0       0.499996716   0.500000000   0.643667578    1   0   1
O0       0.500000286   0.333240000   0.673200354    1   0   1
H2       0.499996240   0.375630000   0.707884265    1   0   1

     Check: negative starting charge=   -0.003359
     NEW-OLD atomic charge density approx. for the potential

     Check: negative/imaginary core charge=   -0.000003    0.000000
     Check: negative starting charge=   -0.003359

[...]

     Self-consistent Calculation

[...]

     Threshold (ethr) on eigenvalues was too large:
     Diagonalizing with lowered threshold

     Davidson diagonalization with overlap
     ethr =  4.87E-09,  avg # of iterations =  1.0

[...]

     total energy              =   -1595.67633058 Ry
     Harris-Foulkes estimate   =   -1595.67633058 Ry
     estimated scf accuracy    <       0.00000005 Ry

     iteration #  9     ecut=    40.00 Ry     beta=0.30
     Davidson diagonalization with overlap
     ethr =  2.18E-11,  avg # of iterations =  1.0

     negative rho (up, down):  0.339E-02 0.000E+00

     End of self-consistent calculation

[...]

          k = 0.2500-0.4237 0.0000 ( 32188 PWs)   bands (ev):

[...]

          k =-0.2500 0.2118 0.0000 ( 32165 PWs)   bands (ev):

   -56.2319 -56.1692 -55.7118 -55.6617 -55.6057 -55.5852 -55.5306 -55.4479
   -32.9835 -32.4174 -32.3257 -32.2694 -32.2474 -32.2194 -32.2177 -32.1032
   -32.0241 -31.9716 -31.9458 -31.9387 -31.8918 -31.8832 -31.8396 -31.6996
   -31.6944 -31.6220 -31.5772 -31.4880 -31.4855 -31.4523 -31.4243 -31.3727
   -22.3210 -20.4277 -20.2972 -19.1584 -18.8570 -18.7968 -18.6419 -18.6108
   -18.5579 -18.4518 -18.4176 -18.3828 -18.3668 -17.9692 -17.8735 -17.8429
   -17.7544 -17.7117 -17.5701 -15.5287  -8.8300  -8.6061  -7.6450  -7.4064
    -6.7758  -6.5729  -6.4510  -6.3621  -6.3212  -6.2315  -6.1831  -6.0779
    -5.9956  -5.9862  -5.8116  -5.7724  -5.6593  -5.6509  -5.4816  -5.4255
    -5.3384  -5.1807  -5.0679  -4.9264  -4.8217  -4.7648  -4.6262  -4.5654
    -4.4639  -4.4071  -4.2292  -4.1540  -4.1248  -4.0602  -3.9356  -3.8402
    -3.7812  -3.7521  -3.7116  -3.6727  -3.5680  -3.4322  -3.4214  -3.3830
    -3.3657  -3.2274  -3.0679  -2.9951  -2.9640  -2.8763  -2.7780  -2.6610
    -2.5757  -2.5220  -2.4100  -2.3841  -2.0627  -1.2191  -0.1185  -0.0492
     0.5868   0.6894   1.0276   1.1915   1.3578   1.6662   1.7579   1.8041
     1.9384   2.1660   2.2614   2.3856   2.4374   2.5969   2.6558   2.6992
     2.7709   2.7980   2.9330   2.9992   3.0737   3.0980   3.2720   3.4669
     3.7247   4.2827   4.3993   4.4410   4.7038   4.9395   5.0754   5.1505
     5.2138   5.2566   5.3067   5.4296   5.5544   5.6542   5.7751   5.8541
     5.9147   6.0457   6.1001   6.2492   6.4306   6.4954   6.5579   6.7020
     6.7814   6.8014   6.8578   6.9983   7.0875   7.2977   7.3803   7.4454
     7.5542   7.7515   7.9106   8.0088   8.1021   8.1588   8.2831   8.3424
     8.4138   8.4586   8.7060   8.8097   8.8730   8.9549   9.1095   9.2022
     9.2471   9.4220   9.4785   9.5472   9.6328   9.7221   9.8509   9.9236
    10.0184  10.1484  10.2382  10.3460  10.4086  10.5054  10.6172  10.7764
    10.8437  10.9713  11.0122  11.0945  11.1377  11.2601  11.2918  11.3531
    11.4662  11.5464  11.5992  11.6368  11.7047  11.8508  11.9516  11.9916
    12.1162  12.1399  12.2191  12.3670  12.4265  12.5062  12.5389  12.6912
    12.7484  12.7964  12.8678  12.9188  12.9406  13.0081  13.0586  13.1624
    13.2251  13.2479  13.3013  13.4131  13.5373  13.5754  13.6716  13.7628
    13.7842  13.8506  13.9132  13.9748  14.0502  14.0938  14.1670  14.2305
    14.3184  14.4222  14.4578  14.5080  14.6716  14.7784  14.8234  14.9028
    14.9942  15.1098  15.1987  15.2208  15.2926  15.3375  15.4119  15.4377
    15.4871  15.5627  15.6272  15.7129  15.7442  15.8181  15.8669  15.9133
    15.9332  16.0006  16.0953  16.2161  16.2816  16.3599  16.4077  16.4670
    16.5524  16.6727  16.7260  16.7590  16.7928  16.8602  16.9495  17.0237
    17.0648  17.1060  17.1548  17.2321  17.2898  17.4248  17.4729  17.5232
    17.5930  17.6706  17.6957  17.8064  17.8888  17.9490  17.9935  18.0683
    18.1233  18.1734  18.2790  18.3857  18.4730  18.5322  18.6251  18.6524
    18.7064  18.7799  18.8146  18.8964  18.9852  19.0387  19.0869  19.1424
    19.2078  19.2733  19.3258  19.3881  19.4134  19.4634  19.5487  19.5928
    19.6517  19.7157  19.7577  19.7924  19.8832  19.9342  19.9762  20.0174
    20.0664  20.1328  20.1934  20.2371  20.3112  20.3763  20.4636

     the Fermi energy is     1.0879 ev

!    total energy              =   -1595.67633058 Ry
     Harris-Foulkes estimate   =   -1595.67633058 Ry
     estimated scf accuracy    <          5.3E-09 Ry

     The total energy is the sum of the following terms:

     one-electron contribution =  -19381.42976322 Ry
     hartree contribution      =    9723.45235160 Ry
     xc contribution           =    -294.54998993 Ry
     ewald contribution        =    8356.85246157 Ry
     smearing contrib. (-TS)   =      -0.00139060 Ry

     convergence has been achieved in   9 iterations

     Forces acting on atoms (Ry/au):

     negative rho (up, down):  0.339E-02 0.000E+00
     atom    1 type  1   force =     0.00026145   -0.00055519    0.00009465
     atom    2 type  1   force =    -0.00102411   -0.00019629   -0.00535764
     atom    3 type  2   force =    -0.02810925    0.00005757    0.00714204
     atom    4 type  2   force =    -0.00370547    0.00014208    0.00024493
     atom    5 type  1   force =     0.00052403   -0.02555632   -0.00175034
     atom    6 type  1   force =     0.00119170    0.02554460   -0.00224629
     atom    7 type  1   force =     0.00008344    0.00055303    0.01158528
     atom    8 type  1   force =     0.00171777   -0.00022045   -0.00178884
     atom    9 type  2   force =     0.00827123    0.00212029    0.01274822
     atom   10 type  2   force =     0.00011445   -0.00216493    0.01147686
     atom   11 type  1   force =    -0.02319147   -0.02226182   -0.02545162
     atom   12 type  1   force =    -0.02496383    0.02352286   -0.02893651
     atom   13 type  1   force =     0.00034345   -0.00092877   -0.00675149
     atom   14 type  1   force =     0.00015647   -0.00051925   -0.00100255
     atom   15 type  1   force =    -0.00098704    0.00040261    0.00307507
     atom   16 type  2   force =     0.03087260    0.00011242    0.00730615
     atom   17 type  2   force =    -0.00346566    0.00034606    0.00285811
     atom   18 type  1   force =     0.00016760   -0.02550998   -0.00178251
     atom   19 type  1   force =    -0.00003403    0.02546895   -0.00225609
     atom   20 type  1   force =     0.00013207   -0.00569443   -0.06391240
     atom   21 type  1   force =     0.00173117   -0.00013546   -0.00277212
     atom   22 type  2   force =    -0.00886207    0.00208408    0.01273200
     atom   23 type  2   force =     0.00009707    0.00167841    0.14813737
     atom   24 type  1   force =     0.02323323   -0.02225644   -0.02547296
     atom   25 type  1   force =     0.02500600    0.02353608   -0.02895419
     atom   26 type  1   force =     0.00037112   -0.01202091   -0.02015658
     atom   27 type  3   force =    -0.00003150   -0.00014295   -0.00133854
     atom   28 type  3   force =    -0.00005855   -0.00040216    0.00262514
     atom   29 type  3   force =     0.00008784    0.00041974    0.00004032
     atom   30 type  3   force =     0.00007436    0.00041965    0.00004099
     atom   31 type  1   force =    -0.00000134    0.03201061    0.00016235
     atom   32 type  1   force =     0.00000084   -0.04548623    0.00012276
     atom   33 type  3   force =    -0.00000356    0.02563256   -0.00046157

     Total force =     0.000504     Total SCF correction =     0.000148
     SCF correction compared to forces is large: reduce conv_thr to get better values

     bfgs converged in   9 scf cycles and   8 bfgs steps
     (criteria: energy < 0.10E-03, force < 0.10E-02)

     End of BFGS Geometry Optimization

     Final energy   =   -1595.6763305789 Ry
Begin final coordinates

ATOMIC_POSITIONS (crystal)
O0       0.000000000   0.000000000   0.374700000    0   0   0
O0       0.000000000   0.500000000   0.385740000    0   0   0
Nb1      0.250000000   0.500000000   0.440200000    0   0   0
Nb1      0.000000000   0.000000000   0.447550000    0   0   0
O0       0.250000000   0.790000000   0.448160000    0   0   0
O0       0.250000000   0.210000000   0.448200000    0   0   0
O0       0.000000000   0.500000000   0.498190000    0   0   0
O0       0.000000000   0.000000000   0.526470000    0   0   0
Nb1      0.250000000   0.000000000   0.581100000    0   0   0
Nb1      0.000000000   0.500000000   0.567470000    0   0   0
O0       0.250000000   0.710000000   0.580120000    0   0   0
O0       0.250000000   0.290000000   0.580130000    0   0   0
O0       0.000000000   0.000000000   0.625620000    0   0   0
O0       0.500000000   0.000000000   0.374700000    0   0   0
O0       0.500000000   0.500000000   0.385740000    0   0   0
Nb1      0.750000000   0.500000000   0.440200000    0   0   0
Nb1      0.500000000   0.000000000   0.447550000    0   0   0
O0       0.750000000   0.790000000   0.448160000    0   0   0
O0       0.750000000   0.210000000   0.448200000    0   0   0
O0       0.500000000   0.500000000   0.498190000    0   0   0
O0       0.500000000   0.000000000   0.526480000    0   0   0
Nb1      0.750000000   0.000000000   0.581100000    0   0   0
Nb1      0.500000000   0.500000000   0.567460000    0   0   0
O0       0.750000000   0.710000000   0.580120000    0   0   0
O0       0.750000000   0.290000000   0.580130000    0   0   0
O0       0.500000000   0.000000000   0.625620000    0   0   0
H2      -0.000420000   0.502910000   0.349430000    0   0   0
H2       0.499580000   0.502680000   0.349420000    0   0   0
H2       0.151300000  -0.001220000   0.359170000    0   0   0
H2       0.651290000  -0.001220000   0.359170000    0   0   0
O0       0.499996716   0.500000000   0.643667578    1   0   1
O0       0.500000286   0.333240000   0.673200354    1   0   1
H2       0.499996240   0.375630000   0.707884265    1   0   1
End final coordinates

     General routines

     Parallel routines

   This run was terminated on:  11:51:51   1May2014

   JOB DONE.
Running PBS batch system epilogue script
Job id: 344756.audhumbla.fysik.dtu.dk
Username: zhonxu
Groupname: campgst
Jobname: NbO2/Eads-2-layers/OOH
Sessionid: 1859
Queuename: verylong
Accounting:
This job has allocated the following 16 nodes:
b070 b070 b070 b070 b070 b070 b070 b070 b005 b005 b005 b005 b005 b005 b005 b005
Finished epilogue job 344756.audhumbla.fysik.dtu.dk for zhonxu