     Program PWSCF v.5.0.2 (svn rev. 9656) starts on 28Apr2014 at  9:13:25

     Current dimensions of program PWSCF are:
     Max number of different atomic species (ntypx) = 10
     Max number of k-points (npk) =  40000
     Max angular momentum in pseudopotentials (lmaxx) =  3
     Reading input from pwscf.in
Warning: card &CELL ignored
Warning: card / ignored

     Subspace diagonalization in iterative solution of the eigenvalue problem:
     a serial algorithm will be used

     bravais-lattice index     =            0
     lattice parameter (alat)  =      11.2250  a.u.
     unit-cell volume          =    7005.5484 (a.u.)^3
     number of atoms/cell      =           31
     number of atomic types    =            3
     number of electrons       =       214.00
     number of Kohn-Sham states=          309
     kinetic-energy cutoff     =      40.0000  Ry
     charge density cutoff     =     500.0000  Ry
     convergence threshold     =      1.0E-06
     mixing beta               =       0.7000
     number of iterations used =            8  plain     mixing
     Exchange-correlation      = SLA  PW   PBE  PBE ( 1 4 3 4 0)
     EXX-fraction              =        0.00
     nstep                     =           50

     celldm(1)=  11.224973  celldm(2)=   0.000000  celldm(3)=   0.000000
     celldm(4)=   0.000000  celldm(5)=   0.000000  celldm(6)=   0.000000

     crystal axes: (cart. coord. in units of alat)
               a(1) = (   1.000000   0.000000   0.000000 )
               a(2) = (   0.000000   1.107086   0.000000 )
               a(3) = (   0.000000   0.000000   4.474090 )

     reciprocal axes: (cart. coord. in units 2 pi/alat)
               b(1) = (  1.000000  0.000000  0.000000 )
               b(2) = (  0.000000  0.903272  0.000000 )
               b(3) = (  0.000000  0.000000  0.223509 )

     PseudoPot. # 1 for O  read from file:
     /home/camp/zhonxu/pseudo/o_pbe_v1.01.uspp.F.UPF
     MD5 check sum: 2bcb18d16ea4b960afae9ec6d52f22d2
     Pseudo is Ultrasoft + core correction, Zval =  6.0
     Generated by new atomic code, or converted to UPF format
     Using radial grid of  737 points,  5 beta functions with:
                l(1) =   0
                l(2) =   0
                l(3) =   1
                l(4) =   1
                l(5) =   2
     Q(r) pseudized with  8 coefficients,  rinner =    0.900   0.900   0.900
                                                       0.900   0.900

     PseudoPot. # 2 for Ti read from file:
     /home/camp/zhonxu/pseudo/ti_pbe_v1.uspp.F.UPF
     MD5 check sum: bcc8f6961b3b91f0cac3ca967d22d0fb
     Pseudo is Ultrasoft + core correction, Zval = 12.0
     Generated by new atomic code, or converted to UPF format
     Using radial grid of  851 points,  6 beta functions with:
                l(1) =   0
                l(2) =   0
                l(3) =   1
                l(4) =   1
                l(5) =   2
                l(6) =   2
     Q(r) pseudized with  6 coefficients,  rinner =    1.000   1.000   1.000
                                                       1.000   1.000

     PseudoPot. # 3 for H  read from file:
     /home/camp/zhonxu/pseudo/h_pbe_v1.uspp.F.UPF
     MD5 check sum: 3408e3ff4ec8b0a4e358431e7e038a48
     Pseudo is Ultrasoft, Zval =  1.0
     Generated by new atomic code, or converted to UPF format
     Using radial grid of  615 points,  2 beta functions with:
                l(1) =   0
                l(2) =   0
     Q(r) pseudized with  8 coefficients,  rinner =    0.700

     atomic species   valence    mass     pseudopotential
        O0             6.00    15.99940     O ( 1.00)
        Ti1           12.00    47.88000     Ti( 1.00)
        H2             1.00     1.00794     H ( 1.00)

     Simplified LDA+U calculation (l_max = 2) with parameters (eV):
     atomic species    L          U    alpha       J0     beta
        Ti1            2     1.5000   0.0000   0.0000   0.0000

     No symmetry found

   Cartesian axes

     site n.     atom                  positions (alat units)
         1           O0  tau(   1) = (   0.0000000   0.0000000   1.6912507  )
         2           O0  tau(   2) = (   0.0000000   0.5535432   1.7801061  )
         3           Ti1 tau(   3) = (   0.2500000   0.5535432   2.0136983  )
         4           Ti1 tau(   4) = (   0.0000000   0.0000000   2.0256889  )
         5           O0  tau(   5) = (   0.2500000   0.8967400   2.0101638  )
         6           O0  tau(   6) = (   0.2500000   0.2103464   2.0140115  )
         7           O0  tau(   7) = (   0.0000000   0.5535432   2.2264413  )
         8           O0  tau(   8) = (   0.0000000   0.0000000   2.3510894  )
         9           Ti1 tau(   9) = (   0.2500000   0.0000000   2.5997146  )
        10           Ti1 tau(  10) = (   0.0000000   0.5535432   2.5433858  )
        11           O0  tau(  11) = (   0.2500000   0.7638896   2.5969406  )
        12           O0  tau(  12) = (   0.2500000   0.3431968   2.5970301  )
        13           O0  tau(  13) = (   0.0000000   0.0000000   2.7842260  )
        14           O0  tau(  14) = (   0.5000000   0.0000000   1.6905348  )
        15           O0  tau(  15) = (   0.5000000   0.5535432   1.7767953  )
        16           Ti1 tau(  16) = (   0.7500000   0.5535432   2.0136983  )
        17           Ti1 tau(  17) = (   0.5000000   0.0000000   2.0204542  )
        18           O0  tau(  18) = (   0.7500000   0.8967400   2.0103875  )
        19           O0  tau(  19) = (   0.7500000   0.2103464   2.0134299  )
        20           O0  tau(  20) = (   0.5000000   0.5535432   2.2001336  )
        21           O0  tau(  21) = (   0.5000000   0.0000000   2.3501946  )
        22           Ti1 tau(  22) = (   0.7500000   0.0000000   2.5996698  )
        23           Ti1 tau(  23) = (   0.5000000   0.5535432   2.6765794  )
        24           O0  tau(  24) = (   0.7500000   0.7638896   2.5974328  )
        25           O0  tau(  25) = (   0.7500000   0.3431968   2.5965380  )
        26           O0  tau(  26) = (   0.5000000   0.0000000   2.7806915  )
        27           H2  tau(  27) = (  -0.0007400   0.6861389   1.6797970  )
        28           H2  tau(  28) = (   0.4994200   0.6816995   1.6713410  )
        29           H2  tau(  29) = (   0.1486600   0.0377184   1.6265106  )
        30           H2  tau(  30) = (   0.6489300   0.0363456   1.6257052  )
        31           O0  tau(  31) = (   0.4999900   0.5533882   2.9590287  )

     number of k points=    10  Methfessel-Paxton smearing, width (Ry)=  0.0100
                       cart. coord. in units 2pi/alat
        k(    1) = (   0.0000000   0.0000000   0.0000000), wk =   0.1250000
        k(    2) = (   0.0000000   0.2258180   0.0000000), wk =   0.2500000
        k(    3) = (   0.0000000  -0.4516359   0.0000000), wk =   0.1250000
        k(    4) = (   0.2500000   0.0000000   0.0000000), wk =   0.2500000
        k(    5) = (   0.2500000   0.2258180   0.0000000), wk =   0.2500000
        k(    6) = (   0.2500000  -0.4516359   0.0000000), wk =   0.2500000
        k(    7) = (  -0.5000000   0.0000000   0.0000000), wk =   0.1250000
        k(    8) = (  -0.5000000   0.2258180   0.0000000), wk =   0.2500000
        k(    9) = (  -0.5000000  -0.4516359   0.0000000), wk =   0.1250000
        k(   10) = (  -0.2500000   0.2258180   0.0000000), wk =   0.2500000

     Largest allocated arrays     est. size (Mb)     dimensions
     Largest temporary arrays     est. size (Mb)     dimensions

     Check: negative/imaginary core charge=   -0.000006    0.000000

     Initial potential from superposition of free atoms
     Check: negative starting charge=   -0.102438

     starting charge  205.99958, renormalised to  214.00000

     negative rho (up, down):  0.106E+00 0.000E+00
     Number of +U iterations with fixed ns =  0
     Starting occupations:
 --- enter write_ns ---
 LDA+U parameters:
U( 2)     =  1.50000000
alpha( 2) =  0.00000000
atom    3   Tr[ns(na)] =   2.00000
    eigenvalues:
  0.200  0.200  0.200  0.200  0.200
    eigenvectors:
  1.000  0.000  0.000  0.000  0.000
  0.000  1.000  0.000  0.000  0.000
  0.000  0.000  1.000  0.000  0.000
  0.000  0.000  0.000  1.000  0.000
  0.000  0.000  0.000  0.000  1.000
    occupations:
  0.200  0.000  0.000  0.000  0.000
  0.000  0.200  0.000  0.000  0.000
  0.000  0.000  0.200  0.000  0.000
  0.000  0.000  0.000  0.200  0.000
  0.000  0.000  0.000  0.000  0.200
atom    4   Tr[ns(na)] =   2.00000
    eigenvalues:
  0.200  0.200  0.200  0.200  0.200
    eigenvectors:
  1.000  0.000  0.000  0.000  0.000
  0.000  1.000  0.000  0.000  0.000
  0.000  0.000  1.000  0.000  0.000
  0.000  0.000  0.000  1.000  0.000
  0.000  0.000  0.000  0.000  1.000
    occupations:
  0.200  0.000  0.000  0.000  0.000
  0.000  0.200  0.000  0.000  0.000
  0.000  0.000  0.200  0.000  0.000
  0.000  0.000  0.000  0.200  0.000
  0.000  0.000  0.000  0.000  0.200
atom    9   Tr[ns(na)] =   2.00000
    eigenvalues:
  0.200  0.200  0.200  0.200  0.200
    eigenvectors:
  1.000  0.000  0.000  0.000  0.000
  0.000  1.000  0.000  0.000  0.000
  0.000  0.000  1.000  0.000  0.000
  0.000  0.000  0.000  1.000  0.000
  0.000  0.000  0.000  0.000  1.000
    occupations:
  0.200  0.000  0.000  0.000  0.000
  0.000  0.200  0.000  0.000  0.000
  0.000  0.000  0.200  0.000  0.000
  0.000  0.000  0.000  0.200  0.000
  0.000  0.000  0.000  0.000  0.200
atom   10   Tr[ns(na)] =   2.00000
    eigenvalues:
  0.200  0.200  0.200  0.200  0.200
    eigenvectors:
  1.000  0.000  0.000  0.000  0.000
  0.000  1.000  0.000  0.000  0.000
  0.000  0.000  1.000  0.000  0.000
  0.000  0.000  0.000  1.000  0.000
  0.000  0.000  0.000  0.000  1.000
    occupations:
  0.200  0.000  0.000  0.000  0.000
  0.000  0.200  0.000  0.000  0.000
  0.000  0.000  0.200  0.000  0.000
  0.000  0.000  0.000  0.200  0.000
  0.000  0.000  0.000  0.000  0.200
atom   16   Tr[ns(na)] =   2.00000
    eigenvalues:
  0.200  0.200  0.200  0.200  0.200
    eigenvectors:
  1.000  0.000  0.000  0.000  0.000
  0.000  1.000  0.000  0.000  0.000
  0.000  0.000  1.000  0.000  0.000
  0.000  0.000  0.000  1.000  0.000
  0.000  0.000  0.000  0.000  1.000
    occupations:
  0.200  0.000  0.000  0.000  0.000
  0.000  0.200  0.000  0.000  0.000
  0.000  0.000  0.200  0.000  0.000
  0.000  0.000  0.000  0.200  0.000
  0.000  0.000  0.000  0.000  0.200
atom   17   Tr[ns(na)] =   2.00000
    eigenvalues:
  0.200  0.200  0.200  0.200  0.200
    eigenvectors:
  1.000  0.000  0.000  0.000  0.000
  0.000  1.000  0.000  0.000  0.000
  0.000  0.000  1.000  0.000  0.000
  0.000  0.000  0.000  1.000  0.000
  0.000  0.000  0.000  0.000  1.000
    occupations:
  0.200  0.000  0.000  0.000  0.000
  0.000  0.200  0.000  0.000  0.000
  0.000  0.000  0.200  0.000  0.000
  0.000  0.000  0.000  0.200  0.000
  0.000  0.000  0.000  0.000  0.200
atom   22   Tr[ns(na)] =   2.00000
    eigenvalues:
  0.200  0.200  0.200  0.200  0.200
    eigenvectors:
  1.000  0.000  0.000  0.000  0.000
  0.000  1.000  0.000  0.000  0.000
  0.000  0.000  1.000  0.000  0.000
  0.000  0.000  0.000  1.000  0.000
  0.000  0.000  0.000  0.000  1.000
    occupations:
  0.200  0.000  0.000  0.000  0.000
  0.000  0.200  0.000  0.000  0.000
[...]
atom    4   Tr[ns(na)] =   2.90826
    eigenvalues:
  0.175  0.211  0.226  0.418  0.425
    eigenvectors:
  0.006  0.003  0.000  0.001  0.991
  0.001  0.887  0.110  0.000  0.003
  0.000  0.109  0.890  0.000  0.000
  0.993  0.001  0.000  0.000  0.006
  0.000  0.000  0.000  0.999  0.001
    occupations:
  0.423  0.011  0.004 -0.019 -0.000
  0.011  0.213 -0.005  0.000 -0.002
  0.004 -0.005  0.224  0.000 -0.000
 -0.019  0.000  0.000  0.176 -0.000
 -0.000 -0.002 -0.000 -0.000  0.418
atom    9   Tr[ns(na)] =   2.89225
    eigenvalues:
  0.179  0.219  0.237  0.384  0.426
    eigenvectors:
  0.000  0.000  0.917  0.083  0.000
  0.000  0.000  0.000  0.004  0.996
  0.998  0.002  0.000  0.000  0.000
  0.000  0.000  0.083  0.913  0.004
  0.002  0.998  0.000  0.000  0.000
    occupations:
  0.250  0.001 -0.000  0.041  0.000
  0.001  0.426  0.000 -0.003 -0.000
 -0.000  0.000  0.179 -0.000 -0.002
  0.041 -0.003 -0.000  0.372 -0.000
  0.000 -0.000 -0.002 -0.000  0.219
atom   10   Tr[ns(na)] =   2.81187
    eigenvalues:
  0.181  0.228  0.240  0.327  0.429
    eigenvectors:
  0.017  0.000  0.000  0.983  0.000
  0.000  0.000  1.000  0.000  0.000
  0.000  1.000  0.000  0.000  0.000
  0.983  0.000  0.000  0.017  0.000
  0.000  0.000  0.000  0.000  1.000
    occupations:
  0.325 -0.000 -0.000 -0.019 -0.000
 -0.000  0.240 -0.000 -0.000 -0.000
 -0.000 -0.000  0.228 -0.000  0.000
 -0.019 -0.000 -0.000  0.184  0.000
 -0.000 -0.000  0.000  0.000  0.429
atom   16   Tr[ns(na)] =   2.82730
    eigenvalues:
  0.182  0.201  0.219  0.384  0.427
    eigenvectors:
  0.029  0.717  0.076  0.169  0.009
  0.003  0.005  0.004  0.178  0.810
  0.620  0.001  0.378  0.001  0.000
  0.010  0.148  0.012  0.651  0.179
  0.338  0.129  0.530  0.001  0.002
    occupations:
  0.235 -0.012 -0.004  0.070 -0.003
 -0.012  0.417 -0.003  0.024  0.011
 -0.004 -0.003  0.196  0.006  0.017
  0.070  0.024  0.006  0.361  0.001
 -0.003  0.011  0.017  0.001  0.205
atom   17   Tr[ns(na)] =   2.90290
    eigenvalues:
  0.175  0.209  0.226  0.415  0.426
    eigenvectors:
  0.006  0.003  0.000  0.000  0.991
  0.001  0.895  0.102  0.000  0.003
  0.000  0.101  0.898  0.000  0.000
  0.993  0.001  0.000  0.000  0.006
  0.000  0.000  0.000  1.000  0.000
    occupations:
  0.424  0.012  0.004 -0.019 -0.000
  0.012  0.211 -0.005  0.000 -0.002
  0.004 -0.005  0.224  0.000 -0.000
 -0.019  0.000  0.000  0.176 -0.000
 -0.000 -0.002 -0.000 -0.000  0.415
atom   22   Tr[ns(na)] =   2.89216
    eigenvalues:
  0.179  0.219  0.237  0.384  0.426
    eigenvectors:
  0.000  0.000  0.916  0.083  0.000
  0.000  0.000  0.000  0.004  0.996
  0.998  0.002  0.000  0.000  0.000
  0.000  0.000  0.083  0.913  0.004
  0.002  0.998  0.000  0.000  0.000
    occupations:
  0.250 -0.002  0.000  0.041  0.000
 -0.002  0.426  0.000  0.003 -0.000
  0.000  0.000  0.179 -0.000  0.002
  0.041  0.003 -0.000  0.372 -0.000
  0.000 -0.000  0.002 -0.000  0.219
atom   23   Tr[ns(na)] =   3.02118
    eigenvalues:
  0.123  0.299  0.311  0.342  0.436
    eigenvectors:
  0.003  0.000  0.000  0.000  0.997
  0.000  0.000  1.000  0.000  0.000
  0.000  1.000  0.000  0.000  0.000
  0.997  0.000  0.000  0.000  0.003
  0.000  0.000  0.000  1.000  0.000
    occupations:
  0.435 -0.000  0.000 -0.018 -0.000
 -0.000  0.311 -0.000 -0.000  0.000
  0.000 -0.000  0.299 -0.000 -0.000
 -0.018 -0.000 -0.000  0.124 -0.000
 -0.000  0.000 -0.000 -0.000  0.342
N of occupied +U levels =  23.0832518
 --- exit write_ns ---

[...]

     total energy              =   -1566.07501647 Ry
     Harris-Foulkes estimate   =   -1566.07501648 Ry
     estimated scf accuracy    <       0.00000004 Ry

     iteration # 13     ecut=    40.00 Ry     beta=0.70
     Davidson diagonalization with overlap
     ethr =  1.20E-11,  avg # of iterations =  1.0

     negative rho (up, down):  0.103E+00 0.000E+00

     End of self-consistent calculation
 --- enter write_ns ---
 LDA+U parameters:
U( 2)     =  1.50000000
alpha( 2) =  0.00000000
atom    3   Tr[ns(na)] =   2.82787
    eigenvalues:
  0.182  0.201  0.219  0.384  0.428
    eigenvectors:
  0.030  0.717  0.074  0.169  0.009
  0.003  0.005  0.004  0.178  0.810
  0.620  0.001  0.379  0.001  0.000
  0.010  0.149  0.012  0.651  0.178
  0.338  0.128  0.531  0.000  0.002
    occupations:
  0.235  0.012 -0.004  0.070  0.002
  0.012  0.417  0.003 -0.024  0.011
 -0.004  0.003  0.196  0.006 -0.017
  0.070 -0.024  0.006  0.361 -0.002
  0.002  0.011 -0.017 -0.002  0.205
atom    4   Tr[ns(na)] =   2.90840
    eigenvalues:
  0.175  0.211  0.226  0.418  0.425
    eigenvectors:
  0.006  0.003  0.000  0.001  0.991
  0.001  0.887  0.110  0.000  0.003
  0.000  0.109  0.890  0.000  0.000
  0.993  0.001  0.000  0.000  0.006
  0.000  0.000  0.000  0.999  0.001
    occupations:
  0.423  0.011  0.004 -0.019 -0.000
  0.011  0.213 -0.005  0.000 -0.002
  0.004 -0.005  0.224  0.000 -0.000
 -0.019  0.000  0.000  0.176 -0.000
 -0.000 -0.002 -0.000 -0.000  0.418
atom    9   Tr[ns(na)] =   2.89181
    eigenvalues:
  0.179  0.219  0.237  0.384  0.426
    eigenvectors:
  0.000  0.000  0.917  0.083  0.000
  0.000  0.000  0.000  0.004  0.996
  0.998  0.002  0.000  0.000  0.000
  0.000  0.000  0.083  0.913  0.004
  0.002  0.998  0.000  0.000  0.000
    occupations:
  0.250  0.001 -0.000  0.041  0.000
  0.001  0.426  0.000 -0.003 -0.000
 -0.000  0.000  0.179 -0.000 -0.002
  0.041 -0.003 -0.000  0.372 -0.000
  0.000 -0.000 -0.002 -0.000  0.218
atom   10   Tr[ns(na)] =   2.81109
    eigenvalues:
  0.181  0.228  0.240  0.327  0.429
    eigenvectors:
  0.017  0.000  0.000  0.983  0.000
  0.000  0.000  1.000  0.000  0.000
  0.000  1.000  0.000  0.000  0.000
  0.983  0.000  0.000  0.017  0.000
  0.000  0.000  0.000  0.000  1.000
    occupations:
  0.325 -0.000 -0.000 -0.019 -0.000
 -0.000  0.240 -0.000 -0.000 -0.000
 -0.000 -0.000  0.228 -0.000  0.000
 -0.019 -0.000 -0.000  0.184  0.000
 -0.000 -0.000  0.000  0.000  0.429
atom   16   Tr[ns(na)] =   2.82785
    eigenvalues:
  0.182  0.201  0.219  0.384  0.427
    eigenvectors:
  0.029  0.717  0.076  0.169  0.009
  0.003  0.005  0.004  0.178  0.810
  0.620  0.001  0.378  0.001  0.000
  0.010  0.148  0.012  0.651  0.179
  0.338  0.129  0.530  0.001  0.002
    occupations:
  0.235 -0.012 -0.004  0.070 -0.003
 -0.012  0.417 -0.003  0.024  0.011
 -0.004 -0.003  0.197  0.006  0.017
  0.070  0.024  0.006  0.361  0.001
 -0.003  0.011  0.017  0.001  0.205
atom   17   Tr[ns(na)] =   2.90305
    eigenvalues:
  0.175  0.209  0.226  0.415  0.426
    eigenvectors:
  0.006  0.003  0.000  0.000  0.991
  0.001  0.895  0.102  0.000  0.003
  0.000  0.101  0.898  0.000  0.000
  0.993  0.001  0.000  0.000  0.006
  0.000  0.000  0.000  1.000  0.000
    occupations:
  0.424  0.011  0.004 -0.019 -0.000
  0.011  0.211 -0.005  0.000 -0.002
  0.004 -0.005  0.224  0.000 -0.000
 -0.019  0.000  0.000  0.176 -0.000
 -0.000 -0.002 -0.000 -0.000  0.415
atom   22   Tr[ns(na)] =   2.89173
    eigenvalues:
  0.179  0.219  0.237  0.384  0.426
    eigenvectors:
  0.000  0.000  0.916  0.084  0.000
  0.000  0.000  0.000  0.004  0.996
  0.998  0.002  0.000  0.000  0.000
  0.000  0.000  0.083  0.913  0.004
  0.002  0.998  0.000  0.000  0.000
    occupations:
  0.250 -0.002  0.000  0.041  0.000
 -0.002  0.426  0.000  0.003 -0.000
  0.000  0.000  0.179 -0.000  0.002
  0.041  0.003 -0.000  0.372 -0.000
  0.000 -0.000  0.002 -0.000  0.218
atom   23   Tr[ns(na)] =   3.02133
    eigenvalues:
  0.123  0.299  0.311  0.342  0.436
    eigenvectors:
  0.003  0.000  0.000  0.000  0.997
  0.000  0.000  1.000  0.000  0.000
  0.000  1.000  0.000  0.000  0.000
  0.997  0.000  0.000  0.000  0.003
  0.000  0.000  0.000  1.000  0.000
    occupations:
  0.435 -0.000  0.000 -0.018 -0.000
 -0.000  0.311 -0.000 -0.000  0.000
  0.000 -0.000  0.299 -0.000 -0.000
 -0.018 -0.000 -0.000  0.124 -0.000
 -0.000  0.000 -0.000 -0.000  0.342
N of occupied +U levels =  23.0831174
 --- exit write_ns ---

[...]

          k = 0.2500-0.4516 0.0000 ( 29882 PWs)   bands (ev):

[...]

          k =-0.2500 0.2258 0.0000 ( 29912 PWs)   bands (ev):

   -60.8584 -60.8312 -60.5543 -60.0381 -60.0090 -59.5921 -59.5636 -58.9026
   -37.3253 -37.1023 -37.0503 -37.0309 -37.0082 -36.9927 -36.8925 -36.7656
   -36.7250 -36.5818 -36.3496 -36.2762 -36.2658 -36.1605 -36.1373 -36.0282
   -35.8693 -35.8458 -35.8454 -35.7715 -35.6967 -35.2708 -35.2604 -35.2244
   -21.9840 -21.7296 -21.0227 -20.7928 -20.3126 -20.2665 -20.2463 -20.1858
   -19.9777 -19.8765 -19.7819 -19.7621 -19.6412 -19.5625 -19.3304 -19.1945
   -18.8856 -18.7819 -17.9730  -9.7860  -9.5155  -8.5233  -8.2836  -8.0058
    -7.7657  -7.6595  -7.6396  -7.5705  -7.3946  -7.3430  -7.2293  -7.1511
    -7.0326  -6.9822  -6.8959  -6.8269  -6.7741  -6.6194  -6.5466  -6.4699
    -6.2981  -6.2029  -6.0559  -5.9364  -5.7966  -5.7505  -5.6674  -5.5532
    -5.5077  -5.4356  -5.4126  -5.3311  -5.2522  -5.1845  -5.0970  -5.0135
    -4.9539  -4.9086  -4.8387  -4.7283  -4.6575  -4.4791  -4.4164  -4.2265
    -4.1872  -4.1399  -4.1264  -4.0078  -3.9608  -3.8773  -3.6942  -3.6844
    -3.6049  -3.5469  -3.4799  -3.3397  -1.0143  -0.9717  -0.8738  -0.7506
    -0.4402  -0.3685  -0.2946  -0.2590  -0.1622  -0.0125   0.0937   0.2076
     0.2435   0.2897   0.5163   0.5793   0.6159   0.7538   0.8540   0.9568
     1.0350   1.1579   1.2100   1.4817   1.7376   1.8153   1.9013   1.9948
     2.1374   2.1838   2.4997   2.7252   2.8492   3.0241   3.0828   3.1279
     3.2677   3.4021   3.5712   3.7013   3.7918   4.0606   4.4678   4.5993
     4.6773   4.8725   5.2267   5.8037   5.9011   6.0057   6.1165   6.3208
     6.3661   6.5683   6.7502   6.9091   7.0243   7.2449   7.3018   7.4181
     7.5915   7.6764   7.7502   7.8893   7.9191   8.0393   8.1981   8.3486
     8.4974   8.6819   8.7328   8.7556   9.0053   9.1525   9.1966   9.2985
     9.3551   9.4652   9.5688   9.5970   9.7137   9.8183   9.8842  10.0048
    10.0732  10.2816  10.3342  10.4629  10.5555  10.6719  10.7581  10.8272
    10.9331  10.9831  11.0581  11.1103  11.1443  11.2678  11.3519  11.3958
    11.4414  11.5045  11.6241  11.6997  11.7746  11.8608  11.9184  12.0102
    12.0578  12.0775  12.1513  12.2708  12.3990  12.4130  12.4832  12.5181
    12.6082  12.7179  12.8000  12.8852  12.9203  12.9810  13.0502  13.1784
    13.2897  13.3201  13.3983  13.4417  13.5613  13.6225  13.6971  13.7382
    13.7960  13.8734  13.9573  14.0595  14.1055  14.1666  14.2622  14.3255
    14.4226  14.5120  14.5623  14.5923  14.7074  14.7499  14.8583  14.9715
    15.0737  15.1665  15.2216  15.2780  15.3694  15.4343  15.4795  15.5707
    15.6014  15.6668  15.7694  15.8323  15.8381  15.9700  16.0142  16.0721
    16.1476  16.2093  16.2939  16.3490  16.4948  16.5909  16.6825  16.7047
    16.7784  16.8515  16.8857  16.9244  16.9664  17.0581  17.1064  17.2028
    17.2595  17.3120  17.4037  17.4637  17.5618  17.6067  17.6469  17.6895
    17.7642  17.8299  17.9399  18.0385  18.1207  18.1981  18.2342  18.3046
    18.3848  18.4941  18.5968  18.6212  18.6609

     the Fermi energy is    -3.4235 ev

!    total energy              =   -1566.07501647 Ry
     Harris-Foulkes estimate   =   -1566.07501648 Ry
     estimated scf accuracy    <          2.3E-09 Ry

     The total energy is the sum of the following terms:

     one-electron contribution =  -18475.45982776 Ry
     hartree contribution      =    9252.76636443 Ry
     xc contribution           =    -276.65770252 Ry
     ewald contribution        =    7932.41549970 Ry
     Hubbard energy            =       0.86034982 Ry
     smearing contrib. (-TS)   =       0.00029986 Ry

     convergence has been achieved in  13 iterations

     Forces acting on atoms (Ry/au):

     negative rho (up, down):  0.103E+00 0.000E+00
     atom    1 type  1   force =    -0.00081286   -0.01063812    0.00029831
     atom    2 type  1   force =     0.00016099    0.01545242    0.00002850
     atom    3 type  2   force =     0.05851887   -0.00966370    0.00030938
     atom    4 type  2   force =    -0.00263076    0.00532861   -0.00030424
     atom    5 type  1   force =    -0.00294396   -0.06676172    0.00001966
     atom    6 type  1   force =    -0.00564554    0.06814322    0.00019381
     atom    7 type  1   force =    -0.00001773    0.00068436    0.00049413
     atom    8 type  1   force =     0.00163727   -0.00127906   -0.00029450
     atom    9 type  2   force =     0.00906945    0.00023368    0.00012429
     atom   10 type  2   force =     0.00003139    0.00013750    0.00007778
     atom   11 type  1   force =    -0.03303807   -0.00267131   -0.00007049
     atom   12 type  1   force =    -0.03328082    0.00301244    0.00000822
     atom   13 type  1   force =     0.00012102    0.00012454   -0.00004231
     atom   14 type  1   force =    -0.00145969   -0.01003699   -0.00026657
     atom   15 type  1   force =     0.00002277    0.01182883    0.00007302
     atom   16 type  2   force =    -0.05816295   -0.00914400    0.00030315
     atom   17 type  2   force =    -0.00270708    0.00473402   -0.00030459
     atom   18 type  1   force =     0.00746955   -0.06667147    0.00010663
     atom   19 type  1   force =     0.00522832    0.06827579    0.00004400
     atom   20 type  1   force =    -0.00021788   -0.00026188    0.00006784
     atom   21 type  1   force =     0.00174094   -0.00099595   -0.00059583
     atom   22 type  2   force =    -0.00944259   -0.00002514    0.00012403
     atom   23 type  2   force =     0.00002846   -0.00015413    0.00027504
     atom   24 type  1   force =     0.03339226   -0.00257626    0.00000668
     atom   25 type  1   force =     0.03282297    0.00289369   -0.00006850
     atom   26 type  1   force =     0.00019846   -0.00012778   -0.00063615
     atom   27 type  3   force =    -0.00003254   -0.00006329   -0.00019963
     atom   28 type  3   force =     0.00001634   -0.00003751   -0.00003228
     atom   29 type  3   force =    -0.00019980    0.00003630   -0.00004052
     atom   30 type  3   force =     0.00013164    0.00022080    0.00007629
     atom   31 type  1   force =     0.00000158    0.00000212    0.00022484

     Total force =     0.001422     Total SCF correction =     0.000179
     SCF correction compared to forces is large: reduce conv_thr to get better values

     bfgs converged in  13 scf cycles and  12 bfgs steps
     (criteria: energy < 0.10E-03, force < 0.10E-02)

     End of BFGS Geometry Optimization

     Final energy   =   -1566.0750164736 Ry
Begin final coordinates

ATOMIC_POSITIONS (crystal)
O0       0.000000000   0.000000000   0.377407404    0   0   1
O0       0.000000000   0.500000000   0.397253250    0   0   1
Ti1      0.250000000   0.500000000   0.449629629    0   0   1
Ti1      0.000000000   0.000000000   0.451991872    0   0   1
O0       0.250000000   0.810000000   0.449045801    0   0   1
O0       0.250000000   0.190000000   0.449843022    0   0   1
O0       0.000000000   0.500000000   0.497417842    0   0   1
O0       0.000000000   0.000000000   0.525620009    0   0   1
Ti1      0.250000000   0.000000000   0.580908014    0   0   1
Ti1      0.000000000   0.500000000   0.568621692    0   0   1
O0       0.250000000   0.690000000   0.581003579    0   0   1
O0       0.250000000   0.310000000   0.580945664    0   0   1
O0       0.000000000   0.000000000   0.622801684    0   0   1
O0       0.500000000   0.000000000   0.377422159    0   0   1
O0       0.500000000   0.500000000   0.396437048    0   0   1
Ti1      0.750000000   0.500000000   0.449625240    0   0   1
Ti1      0.500000000   0.000000000   0.451575402    0   0   1
O0       0.750000000   0.810000000   0.449032079    0   0   1
O0       0.750000000   0.190000000   0.449822969    0   0   1
O0       0.500000000   0.500000000   0.491601556    0   0   1
O0       0.500000000   0.000000000   0.525451775    0   0   1
Ti1      0.750000000   0.000000000   0.580899024    0   0   1
Ti1      0.500000000   0.500000000   0.599605547    0   0   1
O0       0.750000000   0.690000000   0.581025725    0   0   1
O0       0.750000000   0.310000000   0.580915966    0   0   1
O0       0.500000000   0.000000000   0.621772111    0   0   1
H2      -0.000517949   0.622236052   0.375617946
H2       0.499391999   0.618345050   0.373610878
H2       0.149201173   0.034491110   0.363269360
H2       0.648826541   0.033527501   0.362997519
O0       0.500041821   0.499892512   0.662868233
End final coordinates

     General routines

     Parallel routines
     Hubbard U routines

   This run was terminated on:  19:31:19  28Apr2014

   JOB DONE.
Running PBS batch system epilogue script
Job id: 340504.audhumbla.fysik.dtu.dk
Username: zhonxu
Groupname: campgst
Jobname: TiO2/Eads-2-layers/O-U-1.5
Sessionid: 14957
Queuename: verylong
Accounting:
This job has allocated the following 16 nodes:
a011 a011 a011 a011 a011 a011 a011 a011 a003 a003 a003 a003 a003 a003 a003 a003
Finished epilogue job 340504.audhumbla.fysik.dtu.dk for zhonxu