     Program PWSCF v.5.0.2 (svn rev. 9656) starts on 24Jan2014 at 16: 8:26

     Current dimensions of program PWSCF are:
     Max number of different atomic species (ntypx) = 10
     Max number of k-points (npk) =  40000
     Max angular momentum in pseudopotentials (lmaxx) =  3
     Reading input from RuO2-v-1.00.in

     Subspace diagonalization in iterative solution of the eigenvalue problem:
     a serial algorithm will be used

     bravais-lattice index     =            0
     lattice parameter (alat)  =       8.7567  a.u.
     unit-cell volume          =     432.7167 (a.u.)^3
     number of atoms/cell      =            6
     number of atomic types    =            2
     number of electrons       =        56.00
     number of Kohn-Sham states=           81
     kinetic-energy cutoff     =      40.0000  Ry
     charge density cutoff     =     500.0000  Ry
     convergence threshold     =      1.0E-06
     mixing beta               =       0.3000
     number of iterations used =            8  plain     mixing
     Exchange-correlation      = SLA  PW   PBE  PBE ( 1 4 3 4 0)
     EXX-fraction              =        0.00
     nstep                     =           50

     celldm(1)=   8.756678  celldm(2)=   0.000000  celldm(3)=   0.000000
     celldm(4)=   0.000000  celldm(5)=   0.000000  celldm(6)=   0.000000

     crystal axes: (cart. coord. in units of alat)
               a(1) = (   1.000000   0.000000   0.000000 )
               a(2) = (   0.000000   1.000000   0.000000 )
               a(3) = (   0.000000   0.000000   0.644444 )

     reciprocal axes: (cart. coord. in units 2 pi/alat)
               b(1) = (  1.000000  0.000000  0.000000 )
               b(2) = (  0.000000  1.000000  0.000000 )
               b(3) = (  0.000000  0.000000  1.551724 )

     PseudoPot. # 1 for Ru read from file:
     /home/camp/zhonxu/pseudo/ru_pbe_v1.uspp.F.UPF
     MD5 check sum: df00be1c11b23341d9806d8f1dfa10cf
     Pseudo is Ultrasoft + core correction, Zval = 16.0
     Generated by new atomic code, or converted to UPF format
     Using radial grid of  967 points,  6 beta functions with:
                l(1) =   0
                l(2) =   0
                l(3) =   1
                l(4) =   1
                l(5) =   2
                l(6) =   2
     Q(r) pseudized with  8 coefficients,  rinner =    1.300   1.300   1.300
                                                       1.300   1.300

     PseudoPot. # 2 for O  read from file:
     /home/camp/zhonxu/pseudo/o_pbe_v1.01.uspp.F.UPF
     MD5 check sum: 2bcb18d16ea4b960afae9ec6d52f22d2
     Pseudo is Ultrasoft + core correction, Zval =  6.0
     Generated by new atomic code, or converted to UPF format
     Using radial grid of  737 points,  5 beta functions with:
                l(1) =   0
                l(2) =   0
                l(3) =   1
                l(4) =   1
                l(5) =   2
     Q(r) pseudized with  8 coefficients,  rinner =    0.900   0.900   0.900
                                                       0.900   0.900

     atomic species   valence    mass     pseudopotential
        Ru0           16.00   101.07000     Ru( 1.00)
        O1             6.00    15.99940     O ( 1.00)

     Starting magnetic structure
     atomic species   magnetization
        Ru0          0.000
        O1           0.000

      8 Sym. Ops., with inversion, found
          (note:  8 additional sym.ops. were found but ignored
           their fractional translations are incommensurate with FFT grid)

   Cartesian axes

     site n.     atom                  positions (alat units)
         1           Ru0 tau(   1) = (   0.0000000   0.0000000   0.0000000  )
         2           Ru0 tau(   2) = (   0.5000000   0.5000000   0.3222222  )
         3           O1  tau(   3) = (   0.3050000   0.3050000   0.0000000  )
         4           O1  tau(   4) = (  -0.3050000  -0.3050000   0.0000000  )
         5           O1  tau(   5) = (   0.8050000   0.1950000   0.3222222  )
         6           O1  tau(   6) = (   0.1950000   0.8050000   0.3222222  )

     number of k points=    54  Methfessel-Paxton smearing, width (Ry)=  0.0100
                       cart. coord. in units 2pi/alat
        k(    1) = (   0.0000000   0.0000000   0.0000000), wk =   0.0080000
        k(    2) = (   0.0000000   0.0000000   0.3103448), wk =   0.0160000
        k(    3) = (   0.0000000   0.0000000   0.6206897), wk =   0.0160000
        k(    4) = (   0.0000000   0.2000000   0.0000000), wk =   0.0320000
        k(    5) = (   0.0000000   0.2000000   0.3103448), wk =   0.0640000
        k(    6) = (   0.0000000   0.2000000   0.6206897), wk =   0.0640000
        k(    7) = (   0.0000000   0.4000000   0.0000000), wk =   0.0320000
        k(    8) = (   0.0000000   0.4000000   0.3103448), wk =   0.0640000
        k(    9) = (   0.0000000   0.4000000   0.6206897), wk =   0.0640000
        k(   10) = (   0.2000000   0.2000000   0.0000000), wk =   0.0160000
        k(   11) = (   0.2000000   0.2000000   0.3103448), wk =   0.0320000
        k(   12) = (   0.2000000   0.2000000   0.6206897), wk =   0.0320000
        k(   13) = (   0.2000000   0.4000000   0.0000000), wk =   0.0320000
        k(   14) = (   0.2000000   0.4000000   0.3103448), wk =   0.0640000
        k(   15) = (   0.2000000   0.4000000   0.6206897), wk =   0.0640000
        k(   16) = (   0.4000000   0.4000000   0.0000000), wk =   0.0160000
        k(   17) = (   0.4000000   0.4000000   0.3103448), wk =   0.0320000
        k(   18) = (   0.4000000   0.4000000   0.6206897), wk =   0.0320000
        k(   19) = (  -0.2000000   0.2000000   0.0000000), wk =   0.0160000
        k(   20) = (  -0.2000000   0.2000000  -0.3103448), wk =   0.0320000
        k(   21) = (  -0.2000000   0.2000000  -0.6206897), wk =   0.0320000
        k(   22) = (  -0.2000000   0.4000000   0.0000000), wk =   0.0320000
        k(   23) = (  -0.2000000   0.4000000  -0.3103448), wk =   0.0640000
        k(   24) = (  -0.2000000   0.4000000  -0.6206897), wk =   0.0640000
        k(   25) = (  -0.4000000   0.4000000   0.0000000), wk =   0.0160000
        k(   26) = (  -0.4000000   0.4000000  -0.3103448), wk =   0.0320000
        k(   27) = (  -0.4000000   0.4000000  -0.6206897), wk =   0.0320000
        k(   28) = (   0.0000000   0.0000000   0.0000000), wk =   0.0080000
        k(   29) = (   0.0000000   0.0000000   0.3103448), wk =   0.0160000
        k(   30) = (   0.0000000   0.0000000   0.6206897), wk =   0.0160000
        k(   31) = (   0.0000000   0.2000000   0.0000000), wk =   0.0320000
        k(   32) = (   0.0000000   0.2000000   0.3103448), wk =   0.0640000
        k(   33) = (   0.0000000   0.2000000   0.6206897), wk =   0.0640000
        k(   34) = (   0.0000000   0.4000000   0.0000000), wk =   0.0320000
        k(   35) = (   0.0000000   0.4000000   0.3103448), wk =   0.0640000
        k(   36) = (   0.0000000   0.4000000   0.6206897), wk =   0.0640000
        k(   37) = (   0.2000000   0.2000000   0.0000000), wk =   0.0160000
        k(   38) = (   0.2000000   0.2000000   0.3103448), wk =   0.0320000
        k(   39) = (   0.2000000   0.2000000   0.6206897), wk =   0.0320000
        k(   40) = (   0.2000000   0.4000000   0.0000000), wk =   0.0320000
        k(   41) = (   0.2000000   0.4000000   0.3103448), wk =   0.0640000
        k(   42) = (   0.2000000   0.4000000   0.6206897), wk =   0.0640000
        k(   43) = (   0.4000000   0.4000000   0.0000000), wk =   0.0160000
        k(   44) = (   0.4000000   0.4000000   0.3103448), wk =   0.0320000
        k(   45) = (   0.4000000   0.4000000   0.6206897), wk =   0.0320000
        k(   46) = (  -0.2000000   0.2000000   0.0000000), wk =   0.0160000
        k(   47) = (  -0.2000000   0.2000000  -0.3103448), wk =   0.0320000
        k(   48) = (  -0.2000000   0.2000000  -0.6206897), wk =   0.0320000
        k(   49) = (  -0.2000000   0.4000000   0.0000000), wk =   0.0320000
        k(   50) = (  -0.2000000   0.4000000  -0.3103448), wk =   0.0640000
        k(   51) = (  -0.2000000   0.4000000  -0.6206897), wk =   0.0640000
        k(   52) = (  -0.4000000   0.4000000   0.0000000), wk =   0.0160000
        k(   53) = (  -0.4000000   0.4000000  -0.3103448), wk =   0.0320000
        k(   54) = (  -0.4000000   0.4000000  -0.6206897), wk =   0.0320000

     Largest allocated arrays     est. size (Mb)     dimensions
     Largest temporary arrays     est. size (Mb)     dimensions

     Check: negative/imaginary core charge=   -0.000008    0.000000

     Initial potential from superposition of free atoms
     Check: negative starting charge=(component1):   -0.064852
     Check: negative starting charge=(component2):   -0.064852

     starting charge   53.99996, renormalised to   56.00000

     negative rho (up, down):  0.673E-01 0.673E-01
     Starting wfc are   42 randomized atomic wfcs

     Self-consistent Calculation

     iteration #  1     ecut=    40.00 Ry     beta=0.30
     Davidson diagonalization with overlap
     ethr =  1.00E-02,  avg # of iterations =  5.3

     negative rho (up, down):  0.717E-01 0.717E-01

     total energy              =    -514.84089591 Ry
     Harris-Foulkes estimate   =    -516.44431459 Ry
     estimated scf accuracy    <       3.43365605 Ry

     total magnetization       =    -0.00 Bohr mag/cell
     absolute magnetization    =     0.00 Bohr mag/cell

[...]

     End of self-consistent calculation

 ------ SPIN UP ------------

          k = 0.0000 0.0000 0.0000 (  1875 PWs)   bands (ev):

   -60.8356 -60.8306 -30.9984 -30.9981 -30.7486 -30.7485 -30.6127 -30.5938
    -7.4071  -6.4039  -5.5694  -5.5692   4.3795   4.4547   5.5964   6.0324
     6.0325   8.2965   8.2965   8.8291  10.0159  10.2742  10.2742  10.5600
    10.9504  11.5144  11.5146  11.5276  11.6300  13.9345  14.3929  17.2343
    17.2344  18.2573  18.6517  22.4962  22.4962  25.7671  27.1091  27.1714
    28.4710  29.8956  29.8956  30.0767  31.7943  33.3843  34.2406  34.2406
    35.3868  35.3868  36.6263  38.4422  38.7503  38.7503  39.7852  41.5090
    41.8043  42.0978  42.5759  43.3402  43.5331  43.5331  44.3055  44.3055
    45.0236  45.1021  45.1023  47.2516  48.6734  50.4103  50.4104  50.5905
    50.9515  51.4849  51.4849  52.3710  52.3872  52.4088  52.4287  52.4287
    53.9822

[...]

          k =-0.2000 0.2000 0.0000 (  1851 PWs)   bands (ev):

[...]

 ------ SPIN DOWN ----------

[...]

     the Fermi energy is    12.7574 ev

!    total energy              =    -515.57950891 Ry
     Harris-Foulkes estimate   =    -515.57950743 Ry
     estimated scf accuracy    <       0.00000015 Ry

     The total energy is the sum of the following terms:

     one-electron contribution =    -175.01798142 Ry
     hartree contribution      =     118.84717542 Ry
     xc contribution           =     -78.48074210 Ry
     ewald contribution        =    -380.92702446 Ry
     smearing contrib. (-TS)   =      -0.00093635 Ry

[...]

     convergence has been achieved in  10 iterations

     Forces acting on atoms (Ry/au):

     negative rho (up, down):  0.724E-01 0.724E-01
     atom    1 type  1   force =     0.00000000    0.00000000    0.00000000
     atom    2 type  1   force =     0.00000000    0.00000000    0.00000000
[...]
        k(   12) = (   0.2044666   0.2044666   0.5938600), wk =   0.0320000
        k(   13) = (   0.2044652   0.4089345   0.0000000), wk =   0.0320000
        k(   14) = (   0.2044652   0.4089345   0.2969300), wk =   0.0640000
        k(   15) = (   0.2044652   0.4089345   0.5938600), wk =   0.0640000
        k(   16) = (   0.4089331   0.4089331   0.0000000), wk =   0.0160000
        k(   17) = (   0.4089331   0.4089331   0.2969300), wk =   0.0320000
        k(   18) = (   0.4089331   0.4089331   0.5938600), wk =   0.0320000
        k(   19) = (  -0.2044693   0.2044693   0.0000000), wk =   0.0160000
        k(   20) = (  -0.2044693   0.2044693  -0.2969300), wk =   0.0320000
        k(   21) = (  -0.2044693   0.2044693  -0.5938600), wk =   0.0320000
        k(   22) = (  -0.2044707   0.4089372   0.0000000), wk =   0.0320000
        k(   23) = (  -0.2044707   0.4089372  -0.2969300), wk =   0.0640000
        k(   24) = (  -0.2044707   0.4089372  -0.5938600), wk =   0.0640000
        k(   25) = (  -0.4089386   0.4089386   0.0000000), wk =   0.0160000
        k(   26) = (  -0.4089386   0.4089386  -0.2969300), wk =   0.0320000
        k(   27) = (  -0.4089386   0.4089386  -0.5938600), wk =   0.0320000
        k(   28) = (   0.0000000   0.0000000   0.0000000), wk =   0.0080000
        k(   29) = (   0.0000000   0.0000000   0.2969300), wk =   0.0160000
        k(   30) = (   0.0000000   0.0000000   0.5938600), wk =   0.0160000
        k(   31) = (  -0.0000014   0.2044679   0.0000000), wk =   0.0320000
        k(   32) = (  -0.0000014   0.2044679   0.2969300), wk =   0.0640000
        k(   33) = (  -0.0000014   0.2044679   0.5938600), wk =   0.0640000
        k(   34) = (  -0.0000027   0.4089359   0.0000000), wk =   0.0320000
        k(   35) = (  -0.0000027   0.4089359   0.2969300), wk =   0.0640000
        k(   36) = (  -0.0000027   0.4089359   0.5938600), wk =   0.0640000
        k(   37) = (   0.2044666   0.2044666   0.0000000), wk =   0.0160000
        k(   38) = (   0.2044666   0.2044666   0.2969300), wk =   0.0320000
        k(   39) = (   0.2044666   0.2044666   0.5938600), wk =   0.0320000
        k(   40) = (   0.2044652   0.4089345   0.0000000), wk =   0.0320000
        k(   41) = (   0.2044652   0.4089345   0.2969300), wk =   0.0640000
        k(   42) = (   0.2044652   0.4089345   0.5938600), wk =   0.0640000
        k(   43) = (   0.4089331   0.4089331   0.0000000), wk =   0.0160000
        k(   44) = (   0.4089331   0.4089331   0.2969300), wk =   0.0320000
        k(   45) = (   0.4089331   0.4089331   0.5938600), wk =   0.0320000
        k(   46) = (  -0.2044693   0.2044693   0.0000000), wk =   0.0160000
        k(   47) = (  -0.2044693   0.2044693  -0.2969300), wk =   0.0320000
        k(   48) = (  -0.2044693   0.2044693  -0.5938600), wk =   0.0320000
        k(   49) = (  -0.2044707   0.4089372   0.0000000), wk =   0.0320000
        k(   50) = (  -0.2044707   0.4089372  -0.2969300), wk =   0.0640000
        k(   51) = (  -0.2044707   0.4089372  -0.5938600), wk =   0.0640000
        k(   52) = (  -0.4089386   0.4089386   0.0000000), wk =   0.0160000
        k(   53) = (  -0.4089386   0.4089386  -0.2969300), wk =   0.0320000
        k(   54) = (  -0.4089386   0.4089386  -0.5938600), wk =   0.0320000

     Check: negative/imaginary core charge=   -0.000008    0.000000
     Check: negative starting charge=(component1):   -0.130834

[...]

     Threshold (ethr) on eigenvalues was too large:
     Diagonalizing with lowered threshold

     Davidson diagonalization with overlap
     ethr =  1.02E-10,  avg # of iterations =  2.0

[...]

     Volume is kept fixed: isostatic pressure set to zero

     bfgs converged in   7 scf cycles and   6 bfgs steps
     (criteria: energy < 0.10E-03, force < 0.10E-02, cell < 0.50E+00)

     End of BFGS Geometry Optimization

     Final enthalpy =    -515.5927071816 Ry
Begin final coordinates
     new unit-cell volume =    432.71671 a.u.^3 (    64.12200 Ang^3 )

CELL_PARAMETERS (alat=  8.75667828)
   0.978148511   0.000006554   0.000000000
   0.000006554   0.978148511   0.000000000
   0.000000000   0.000000000   0.673559378

ATOMIC_POSITIONS (crystal)
Ru0      0.000000000   0.000000000   0.000000000    0   0   0
Ru0      0.500000000   0.500000000   0.500000000    0   0   0
O1       0.305920259   0.305920259   0.000000000    1   1   0
O1      -0.305920259  -0.305920259   0.000000000    1   1   0
O1       0.805919573   0.194080427   0.500000000    1   1   0
O1       0.194080427   0.805919573   0.500000000    1   1   0
End final coordinates

     A final scf calculation at the relaxed structure.
     The G-vectors are recalculated for the final unit cell
     Results may differ from those at the preceding step.

     bravais-lattice index     =            0
     lattice parameter (alat)  =       8.7567  a.u.
     unit-cell volume          =     432.7167 (a.u.)^3
     number of atoms/cell      =            6
     number of atomic types    =            2
     number of electrons       =        56.00
     number of Kohn-Sham states=           81
     kinetic-energy cutoff     =      40.0000  Ry
     charge density cutoff     =     500.0000  Ry
     convergence threshold     =      1.0E-08
     mixing beta               =       0.3000
     number of iterations used =            8  plain     mixing
     Exchange-correlation      = SLA  PW   PBE  PBE ( 1 4 3 4 0)
     EXX-fraction              =        0.00

     celldm(1)=   8.756678  celldm(2)=   0.000000  celldm(3)=   0.000000
     celldm(4)=   0.000000  celldm(5)=   0.000000  celldm(6)=   0.000000

     crystal axes: (cart. coord. in units of alat)
               a(1) = (   0.978149   0.000007   0.000000 )
               a(2) = (   0.000007   0.978149   0.000000 )
               a(3) = (   0.000000   0.000000   0.673559 )

     reciprocal axes: (cart. coord. in units 2 pi/alat)
               b(1) = (  1.022340 -0.000007  0.000000 )
               b(2) = ( -0.000007  1.022340  0.000000 )
               b(3) = (  0.000000  0.000000  1.484650 )

     PseudoPot. # 1 for Ru read from file:
     /home/camp/zhonxu/pseudo/ru_pbe_v1.uspp.F.UPF
     MD5 check sum: df00be1c11b23341d9806d8f1dfa10cf
     Pseudo is Ultrasoft + core correction, Zval = 16.0
     Generated by new atomic code, or converted to UPF format
     Using radial grid of  967 points,  6 beta functions with:
                l(1) =   0
                l(2) =   0
                l(3) =   1
                l(4) =   1
                l(5) =   2
                l(6) =   2
     Q(r) pseudized with  8 coefficients,  rinner =    1.300   1.300   1.300
                                                       1.300   1.300

     PseudoPot. # 2 for O  read from file:
     /home/camp/zhonxu/pseudo/o_pbe_v1.01.uspp.F.UPF
     MD5 check sum: 2bcb18d16ea4b960afae9ec6d52f22d2
     Pseudo is Ultrasoft + core correction, Zval =  6.0
     Generated by new atomic code, or converted to UPF format
     Using radial grid of  737 points,  5 beta functions with:
                l(1) =   0
                l(2) =   0
                l(3) =   1
                l(4) =   1
                l(5) =   2
     Q(r) pseudized with  8 coefficients,  rinner =    0.900   0.900   0.900
                                                       0.900   0.900

     atomic species   valence    mass     pseudopotential
        Ru0           16.00   101.07000     Ru( 1.00)
        O1             6.00    15.99940     O ( 1.00)

     Starting magnetic structure
     atomic species   magnetization
        Ru0          0.000
        O1           0.000

      8 Sym. Ops., with inversion, found
          (note:  8 additional sym.ops. were found but ignored
           their fractional translations are incommensurate with FFT grid)

   Cartesian axes

     site n.     atom                  positions (alat units)
         1           Ru0 tau(   1) = (   0.0000000   0.0000000   0.0000000  )
         2           Ru0 tau(   2) = (   0.4890775   0.4890775   0.3367797  )
         3           O1  tau(   3) = (   0.2992375   0.2992375   0.0000000  )
         4           O1  tau(   4) = (  -0.2992375  -0.2992375   0.0000000  )
         5           O1  tau(   5) = (   0.7883103   0.1898448   0.3367797  )
         6           O1  tau(   6) = (   0.1898448   0.7883103   0.3367797  )

     number of k points=    54  Methfessel-Paxton smearing, width (Ry)=  0.0100
                       cart. coord. in units 2pi/alat
        k(    1) = (   0.0000000   0.0000000   0.0000000), wk =   0.0080000
        k(    2) = (   0.0000000   0.0000000   0.2969300), wk =   0.0160000
        k(    3) = (   0.0000000   0.0000000   0.5938600), wk =   0.0160000
        k(    4) = (  -0.0000014   0.2044679   0.0000000), wk =   0.0320000
        k(    5) = (  -0.0000014   0.2044679   0.2969300), wk =   0.0640000
        k(    6) = (  -0.0000014   0.2044679   0.5938600), wk =   0.0640000
        k(    7) = (  -0.0000027   0.4089359   0.0000000), wk =   0.0320000
        k(    8) = (  -0.0000027   0.4089359   0.2969300), wk =   0.0640000
        k(    9) = (  -0.0000027   0.4089359   0.5938600), wk =   0.0640000
        k(   10) = (   0.2044666   0.2044666   0.0000000), wk =   0.0160000
        k(   11) = (   0.2044666   0.2044666   0.2969300), wk =   0.0320000
        k(   12) = (   0.2044666   0.2044666   0.5938600), wk =   0.0320000
        k(   13) = (   0.2044652   0.4089345   0.0000000), wk =   0.0320000
        k(   14) = (   0.2044652   0.4089345   0.2969300), wk =   0.0640000
        k(   15) = (   0.2044652   0.4089345   0.5938600), wk =   0.0640000
        k(   16) = (   0.4089331   0.4089331   0.0000000), wk =   0.0160000
        k(   17) = (   0.4089331   0.4089331   0.2969300), wk =   0.0320000
        k(   18) = (   0.4089331   0.4089331   0.5938600), wk =   0.0320000
        k(   19) = (  -0.2044693   0.2044693   0.0000000), wk =   0.0160000
        k(   20) = (  -0.2044693   0.2044693  -0.2969300), wk =   0.0320000
        k(   21) = (  -0.2044693   0.2044693  -0.5938600), wk =   0.0320000
        k(   22) = (  -0.2044707   0.4089372   0.0000000), wk =   0.0320000
        k(   23) = (  -0.2044707   0.4089372  -0.2969300), wk =   0.0640000
        k(   24) = (  -0.2044707   0.4089372  -0.5938600), wk =   0.0640000
        k(   25) = (  -0.4089386   0.4089386   0.0000000), wk =   0.0160000
        k(   26) = (  -0.4089386   0.4089386  -0.2969300), wk =   0.0320000
        k(   27) = (  -0.4089386   0.4089386  -0.5938600), wk =   0.0320000
        k(   28) = (   0.0000000   0.0000000   0.0000000), wk =   0.0080000
        k(   29) = (   0.0000000   0.0000000   0.2969300), wk =   0.0160000
        k(   30) = (   0.0000000   0.0000000   0.5938600), wk =   0.0160000
        k(   31) = (  -0.0000014   0.2044679   0.0000000), wk =   0.0320000
        k(   32) = (  -0.0000014   0.2044679   0.2969300), wk =   0.0640000
        k(   33) = (  -0.0000014   0.2044679   0.5938600), wk =   0.0640000
        k(   34) = (  -0.0000027   0.4089359   0.0000000), wk =   0.0320000
        k(   35) = (  -0.0000027   0.4089359   0.2969300), wk =   0.0640000
        k(   36) = (  -0.0000027   0.4089359   0.5938600), wk =   0.0640000
        k(   37) = (   0.2044666   0.2044666   0.0000000), wk =   0.0160000
        k(   38) = (   0.2044666   0.2044666   0.2969300), wk =   0.0320000
        k(   39) = (   0.2044666   0.2044666   0.5938600), wk =   0.0320000
        k(   40) = (   0.2044652   0.4089345   0.0000000), wk =   0.0320000
        k(   41) = (   0.2044652   0.4089345   0.2969300), wk =   0.0640000
        k(   42) = (   0.2044652   0.4089345   0.5938600), wk =   0.0640000
        k(   43) = (   0.4089331   0.4089331   0.0000000), wk =   0.0160000
        k(   44) = (   0.4089331   0.4089331   0.2969300), wk =   0.0320000
        k(   45) = (   0.4089331   0.4089331   0.5938600), wk =   0.0320000
        k(   46) = (  -0.2044693   0.2044693   0.0000000), wk =   0.0160000
        k(   47) = (  -0.2044693   0.2044693  -0.2969300), wk =   0.0320000
        k(   48) = (  -0.2044693   0.2044693  -0.5938600), wk =   0.0320000
        k(   49) = (  -0.2044707   0.4089372   0.0000000), wk =   0.0320000
        k(   50) = (  -0.2044707   0.4089372  -0.2969300), wk =   0.0640000
        k(   51) = (  -0.2044707   0.4089372  -0.5938600), wk =   0.0640000
        k(   52) = (  -0.4089386   0.4089386   0.0000000), wk =   0.0160000
        k(   53) = (  -0.4089386   0.4089386  -0.2969300), wk =   0.0320000
        k(   54) = (  -0.4089386   0.4089386  -0.5938600), wk =   0.0320000

     Largest allocated arrays     est. size (Mb)     dimensions
     Largest temporary arrays     est. size (Mb)     dimensions

     Check: negative/imaginary core charge=   -0.000008    0.000000

     Initial potential from superposition of free atoms
     Check: negative starting charge=(component1):   -0.065417
     Check: negative starting charge=(component2):   -0.065417

     starting charge   53.99996, renormalised to   56.00000

     negative rho (up, down):  0.678E-01 0.678E-01
     Starting wfc are   42 randomized atomic wfcs

     Self-consistent Calculation

[...]

     total energy              =    -515.59288402 Ry
     Harris-Foulkes estimate   =    -515.59288367 Ry
     estimated scf accuracy    <       0.00000003 Ry

[...]

     iteration # 12     ecut=    40.00 Ry     beta=0.30
     Davidson diagonalization with overlap
     ethr =  5.78E-11,  avg # of iterations =  2.0

     negative rho (up, down):  0.730E-01 0.730E-01

     End of self-consistent calculation

 ------ SPIN UP ------------

[...]

 ------ SPIN DOWN ----------

[...]

          k = 0.4089 0.4089 0.5939 (  1845 PWs)   bands (ev):

[...]

          k =-0.4089 0.4089-0.5939 (  1845 PWs)   bands (ev):

   -60.8284 -60.8282 -31.0545 -31.0536 -30.7973 -30.7959 -30.6376 -30.6374
    -6.2249  -6.1244  -6.0114  -5.9155   5.5929   5.7372   5.8390   5.9547
     6.6719   6.9943   8.0194   8.1008   8.8529   9.0664   9.8777  10.1069
    11.7836  12.1229  12.1893  12.3703  12.7544  13.2546  15.1789  15.7375
    16.3376  16.8638  22.6918  23.0332  24.4112  25.2316  25.4473  26.0708
    26.9126  27.3252  29.9600  30.0984  31.5885  32.0727  33.8818  34.5329
    35.5388  35.8900  36.0950  37.1367  39.7017  39.8082  40.3772  40.8320
    41.8893  42.2510  43.3548  44.2579  44.4491  45.0637  45.3026  46.1303
    46.1646  46.2670  47.1642  47.4545  48.1139  49.0465  49.1031  50.0923
    50.4930  50.7849  50.9238  51.7555  52.0115  53.1667  53.3223  53.8597
    55.4614

     the Fermi energy is    12.6833 ev

!    total energy              =    -515.59288437 Ry
     Harris-Foulkes estimate   =    -515.59288403 Ry
     estimated scf accuracy    <          3.2E-09 Ry

     The total energy is the sum of the following terms:

     one-electron contribution =    -170.06773812 Ry
     hartree contribution      =     116.38757772 Ry
     xc contribution           =     -78.41808180 Ry
     ewald contribution        =    -383.49381681 Ry
     smearing contrib. (-TS)   =      -0.00082537 Ry

     total magnetization       =     0.00 Bohr mag/cell
     absolute magnetization    =     0.00 Bohr mag/cell

     convergence has been achieved in  12 iterations

     Forces acting on atoms (Ry/au):

     negative rho (up, down):  0.730E-01 0.730E-01
     atom    1 type  1   force =     0.00000000    0.00000000    0.00000000
     atom    2 type  1   force =     0.00000000    0.00000000    0.00000000
     atom    3 type  2   force =     0.00019689    0.00019689    0.00000000
     atom    4 type  2   force =    -0.00019689   -0.00019689    0.00000000
     atom    5 type  2   force =     0.00020410   -0.00020410    0.00000000
     atom    6 type  2   force =    -0.00020410    0.00020410    0.00000000

     Total force =     0.000567     Total SCF correction =     0.000076
     SCF correction compared to forces is large: reduce conv_thr to get better values

     entering subroutine stress ...

     negative rho (up, down):  0.730E-01 0.730E-01
          total   stress  (Ry/bohr**3)                   (kbar)     P=  -21.22
  -0.00014982  -0.00000017   0.00000000        -22.04     -0.03      0.00
  -0.00000017  -0.00014982   0.00000000         -0.03    -22.04      0.00
   0.00000000   0.00000000  -0.00013306          0.00      0.00    -19.57

     General routines

     Parallel routines

   This run was terminated on:  16:47:34  24Jan2014

   JOB DONE.
Running PBS batch system epilogue script
Job id: 251961.audhumbla.fysik.dtu.dk
Username: zhonxu
Groupname: campgst
Jobname: RuO2/fine-EOS/non-mag/RuO2-v-1.00
Sessionid: 16369
Queuename: verylong
Accounting:
This job has allocated the following 4 nodes:
q122 q122 q122 q122
Finished epilogue job 251961.audhumbla.fysik.dtu.dk for zhonxu