     Program PWSCF v.5.0.2 (svn rev. 9656) starts on 31May2014 at 11:40:45

     Current dimensions of program PWSCF are:
     Max number of different atomic species (ntypx) = 10
     Max number of k-points (npk) =  40000
     Max angular momentum in pseudopotentials (lmaxx) =  3
     Reading input from pwscf.in
Warning: card &CELL ignored
Warning: card / ignored

     Subspace diagonalization in iterative solution of the eigenvalue problem:
     a serial algorithm will be used

     bravais-lattice index     =            0
     lattice parameter (alat)  =      11.2250  a.u.
     unit-cell volume          =    7005.5484 (a.u.)^3
     number of atoms/cell      =           33
     number of atomic types    =            3
     number of electrons       =       221.00
     number of Kohn-Sham states=          319
     kinetic-energy cutoff     =      40.0000  Ry
     charge density cutoff     =     500.0000  Ry
     convergence threshold     =      1.0E-06
     mixing beta               =       0.7000
     number of iterations used =            8  plain     mixing
     Exchange-correlation      = SLA  PW   PBE  PBE ( 1 4 3 4 0)
     EXX-fraction              =        0.00
     nstep                     =           50

     celldm(1)=  11.224973  celldm(2)=   0.000000  celldm(3)=   0.000000
     celldm(4)=   0.000000  celldm(5)=   0.000000  celldm(6)=   0.000000

     crystal axes: (cart. coord. in units of alat)
               a(1) = (   1.000000   0.000000   0.000000 )
               a(2) = (   0.000000   1.107086   0.000000 )
               a(3) = (   0.000000   0.000000   4.474090 )

     reciprocal axes: (cart. coord. in units 2 pi/alat)
               b(1) = (  1.000000  0.000000  0.000000 )
               b(2) = (  0.000000  0.903272  0.000000 )
               b(3) = (  0.000000  0.000000  0.223509 )

     PseudoPot. # 1 for O  read from file:
     /home/camp/zhonxu/pseudo/o_pbe_v1.01.uspp.F.UPF
     MD5 check sum: 2bcb18d16ea4b960afae9ec6d52f22d2
     Pseudo is Ultrasoft + core correction, Zval =  6.0
     Generated by new atomic code, or converted to UPF format
     Using radial grid of  737 points,  5 beta functions with:
                l(1) =   0
                l(2) =   0
                l(3) =   1
                l(4) =   1
                l(5) =   2
     Q(r) pseudized with  8 coefficients,  rinner =    0.900   0.900   0.900
                                                       0.900   0.900

     PseudoPot. # 2 for Ti read from file:
     /home/camp/zhonxu/pseudo/ti_pbe_v1.uspp.F.UPF
     MD5 check sum: bcc8f6961b3b91f0cac3ca967d22d0fb
     Pseudo is Ultrasoft + core correction, Zval = 12.0
     Generated by new atomic code, or converted to UPF format
     Using radial grid of  851 points,  6 beta functions with:
                l(1) =   0
                l(2) =   0
                l(3) =   1
                l(4) =   1
                l(5) =   2
                l(6) =   2
     Q(r) pseudized with  6 coefficients,  rinner =    1.000   1.000   1.000
                                                       1.000   1.000

     PseudoPot. # 3 for H  read from file:
     /home/camp/zhonxu/pseudo/h_pbe_v1.uspp.F.UPF
     MD5 check sum: 3408e3ff4ec8b0a4e358431e7e038a48
     Pseudo is Ultrasoft, Zval =  1.0
     Generated by new atomic code, or converted to UPF format
     Using radial grid of  615 points,  2 beta functions with:
                l(1) =   0
                l(2) =   0
     Q(r) pseudized with  8 coefficients,  rinner =    0.700

     atomic species   valence    mass     pseudopotential
        O0             6.00    15.99940     O ( 1.00)
        Ti1           12.00    47.88000     Ti( 1.00)
        H2             1.00     1.00794     H ( 1.00)

     Simplified LDA+U calculation (l_max = 2) with parameters (eV):
     atomic species    L          U    alpha       J0     beta
        Ti1            2     0.0000   0.0000   0.0000   0.0000

     No symmetry found

   Cartesian axes

     site n.     atom                  positions (alat units)
         1           O0  tau(   1) = (   0.0000000   0.0000000   1.6912954  )
         2           O0  tau(   2) = (   0.0000000   0.5535432   1.7865040  )
         3           Ti1 tau(   3) = (   0.2500000   0.5535432   2.0182619  )
         4           Ti1 tau(   4) = (   0.0000000   0.0000000   2.0215280  )
         5           O0  tau(   5) = (   0.2500000   0.8967400   2.0132062  )
         6           O0  tau(   6) = (   0.2500000   0.2103464   2.0173223  )
         7           O0  tau(   7) = (   0.0000000   0.5535432   2.2297074  )
         8           O0  tau(   8) = (   0.0000000   0.0000000   2.3520737  )
         9           Ti1 tau(   9) = (   0.2500000   0.0000000   2.5974328  )
        10           Ti1 tau(  10) = (   0.0000000   0.5535432   2.5411040  )
        11           O0  tau(  11) = (   0.2500000   0.7638896   2.5876345  )
        12           O0  tau(  12) = (   0.2500000   0.3431968   2.5923323  )
        13           O0  tau(  13) = (   0.0000000   0.0000000   2.7826601  )
        14           O0  tau(  14) = (   0.5000000   0.0000000   1.6946510  )
        15           O0  tau(  15) = (   0.5000000   0.5535432   1.7849381  )
        16           Ti1 tau(  16) = (   0.7500000   0.5535432   2.0183066  )
        17           Ti1 tau(  17) = (   0.5000000   0.0000000   2.0277470  )
        18           O0  tau(  18) = (   0.7500000   0.8967400   2.0129377  )
        19           O0  tau(  19) = (   0.7500000   0.2103464   2.0175013  )
        20           O0  tau(  20) = (   0.5000000   0.5535432   2.2179405  )
        21           O0  tau(  21) = (   0.5000000   0.0000000   2.3528791  )
        22           Ti1 tau(  22) = (   0.7500000   0.0000000   2.5974328  )
        23           Ti1 tau(  23) = (   0.5000000   0.5535432   2.6181478  )
        24           O0  tau(  24) = (   0.7500000   0.7638896   2.5875898  )
        25           O0  tau(  25) = (   0.7500000   0.3431968   2.5922429  )
        26           O0  tau(  26) = (   0.5000000   0.0000000   2.7811837  )
        27           H2  tau(  27) = (  -0.0004600   0.6930693   1.6949194  )
        28           H2  tau(  28) = (   0.4997200   0.6918293   1.6916086  )
        29           H2  tau(  29) = (   0.1490000   0.0365781   1.6268238  )
        30           H2  tau(  30) = (   0.6482800   0.0381834   1.6297319  )
        31           O0  tau(  31) = (   0.5003100   0.5833902   2.9430115  )
        32           O0  tau(  32) = (   0.4991200   0.3876242   3.0783974  )
        33           H2  tau(  33) = (   0.5003600   0.4575034   3.2295322  )

     number of k points=    10  Methfessel-Paxton smearing, width (Ry)=  0.0100
                       cart. coord. in units 2pi/alat
        k(    1) = (   0.0000000   0.0000000   0.0000000), wk =   0.1250000
        k(    2) = (   0.0000000   0.2258180   0.0000000), wk =   0.2500000
        k(    3) = (   0.0000000  -0.4516359   0.0000000), wk =   0.1250000
        k(    4) = (   0.2500000   0.0000000   0.0000000), wk =   0.2500000
        k(    5) = (   0.2500000   0.2258180   0.0000000), wk =   0.2500000
        k(    6) = (   0.2500000  -0.4516359   0.0000000), wk =   0.2500000
        k(    7) = (  -0.5000000   0.0000000   0.0000000), wk =   0.1250000
        k(    8) = (  -0.5000000   0.2258180   0.0000000), wk =   0.2500000
        k(    9) = (  -0.5000000  -0.4516359   0.0000000), wk =   0.1250000
        k(   10) = (  -0.2500000   0.2258180   0.0000000), wk =   0.2500000

     Largest allocated arrays     est. size (Mb)     dimensions
     Largest temporary arrays     est. size (Mb)     dimensions

     Check: negative/imaginary core charge=   -0.000006    0.000000

     Initial potential from superposition of free atoms
     Check: negative starting charge=   -0.102033

     starting charge  212.99957, renormalised to  221.00000

     negative rho (up, down):  0.106E+00 0.000E+00
     Number of +U iterations with fixed ns =  0
     Starting occupations:
 --- enter write_ns ---
 LDA+U parameters:
U( 2)     =  0.00000000
alpha( 2) =  0.00000000
atom    3   Tr[ns(na)] =   2.00000
    eigenvalues:
  0.200  0.200  0.200  0.200  0.200
    eigenvectors:
  1.000  0.000  0.000  0.000  0.000
  0.000  1.000  0.000  0.000  0.000
  0.000  0.000  1.000  0.000  0.000
  0.000  0.000  0.000  1.000  0.000
  0.000  0.000  0.000  0.000  1.000
    occupations:
  0.200  0.000  0.000  0.000  0.000
  0.000  0.200  0.000  0.000  0.000
  0.000  0.000  0.200  0.000  0.000
  0.000  0.000  0.000  0.200  0.000
  0.000  0.000  0.000  0.000  0.200
atom    4   Tr[ns(na)] =   2.00000
    eigenvalues:
  0.200  0.200  0.200  0.200  0.200
    eigenvectors:
  1.000  0.000  0.000  0.000  0.000
  0.000  1.000  0.000  0.000  0.000
  0.000  0.000  1.000  0.000  0.000
  0.000  0.000  0.000  1.000  0.000
  0.000  0.000  0.000  0.000  1.000
    occupations:
  0.200  0.000  0.000  0.000  0.000
  0.000  0.200  0.000  0.000  0.000
  0.000  0.000  0.200  0.000  0.000
  0.000  0.000  0.000  0.200  0.000
  0.000  0.000  0.000  0.000  0.200
atom    9   Tr[ns(na)] =   2.00000
    eigenvalues:
  0.200  0.200  0.200  0.200  0.200
    eigenvectors:
  1.000  0.000  0.000  0.000  0.000
  0.000  1.000  0.000  0.000  0.000
  0.000  0.000  1.000  0.000  0.000
  0.000  0.000  0.000  1.000  0.000
  0.000  0.000  0.000  0.000  1.000
    occupations:
  0.200  0.000  0.000  0.000  0.000
  0.000  0.200  0.000  0.000  0.000
  0.000  0.000  0.200  0.000  0.000
  0.000  0.000  0.000  0.200  0.000
  0.000  0.000  0.000  0.000  0.200
atom   10   Tr[ns(na)] =   2.00000
    eigenvalues:
  0.200  0.200  0.200  0.200  0.200
    eigenvectors:
  1.000  0.000  0.000  0.000  0.000
  0.000  1.000  0.000  0.000  0.000
  0.000  0.000  1.000  0.000  0.000
  0.000  0.000  0.000  1.000  0.000
  0.000  0.000  0.000  0.000  1.000
    occupations:
  0.200  0.000  0.000  0.000  0.000
  0.000  0.200  0.000  0.000  0.000
  0.000  0.000  0.200  0.000  0.000
  0.000  0.000  0.000  0.200  0.000
  0.000  0.000  0.000  0.000  0.200
atom   16   Tr[ns(na)] =   2.00000
    eigenvalues:
  0.200  0.200  0.200  0.200  0.200
    eigenvectors:
  1.000  0.000  0.000  0.000  0.000
  0.000  1.000  0.000  0.000  0.000
  0.000  0.000  1.000  0.000  0.000
  0.000  0.000  0.000  1.000  0.000
  0.000  0.000  0.000  0.000  1.000
    occupations:
  0.200  0.000  0.000  0.000  0.000
  0.000  0.200  0.000  0.000  0.000
  0.000  0.000  0.200  0.000  0.000
  0.000  0.000  0.000  0.200  0.000
  0.000  0.000  0.000  0.000  0.200
atom   17   Tr[ns(na)] =   2.00000
    eigenvalues:
  0.200  0.200  0.200  0.200  0.200
    eigenvectors:
  1.000  0.000  0.000  0.000  0.000
  0.000  1.000  0.000  0.000  0.000
  0.000  0.000  1.000  0.000  0.000
  0.000  0.000  0.000  1.000  0.000
  0.000  0.000  0.000  0.000  1.000
    occupations:
  0.200  0.000  0.000  0.000  0.000
  0.000  0.200  0.000  0.000  0.000
  0.000  0.000  0.200  0.000  0.000
  0.000  0.000  0.000  0.200  0.000
  0.000  0.000  0.000  0.000  0.200
atom   22   Tr[ns(na)] =   2.00000
    eigenvalues:
  0.200  0.200  0.200  0.200  0.200
    eigenvectors:
  1.000  0.000  0.000  0.000  0.000
  0.000  1.000  0.000  0.000  0.000
  0.000  0.000  1.000  0.000  0.000
[...]
     Harris-Foulkes estimate   =   -1600.33013303 Ry
     estimated scf accuracy    <       0.00000148 Ry

     iteration # 29     ecut=    40.00 Ry     beta=0.70
     Davidson diagonalization with overlap
     ethr =  6.71E-10,  avg # of iterations =  1.0

     negative rho (up, down):  0.102E+00 0.000E+00

     End of self-consistent calculation
 --- enter write_ns ---
 LDA+U parameters:
U( 2)     =  0.00000000
alpha( 2) =  0.00000000
atom    3   Tr[ns(na)] =   2.87033
    eigenvalues:
  0.197  0.206  0.229  0.387  0.416
    eigenvectors:
  0.673  0.099  0.038  0.174  0.016
  0.003  0.001  0.001  0.140  0.856
  0.133  0.241  0.625  0.001  0.000
  0.163  0.019  0.006  0.685  0.127
  0.028  0.639  0.330  0.000  0.002
    occupations:
  0.235  0.004 -0.005  0.075  0.002
  0.004  0.411  0.002 -0.013  0.010
 -0.005  0.002  0.219  0.006 -0.011
  0.075 -0.013  0.006  0.355 -0.001
  0.002  0.010 -0.011 -0.001  0.214
atom    4   Tr[ns(na)] =   2.97139
    eigenvalues:
  0.188  0.222  0.241  0.412  0.423
    eigenvectors:
  0.006  0.003  0.000  0.000  0.991
  0.001  0.916  0.080  0.000  0.003
  0.000  0.079  0.920  0.000  0.000
  0.993  0.001  0.000  0.000  0.005
  0.000  0.000  0.000  1.000  0.000
    occupations:
  0.421  0.011  0.004 -0.017 -0.000
  0.011  0.224 -0.005  0.000 -0.002
  0.004 -0.005  0.240  0.001 -0.000
 -0.017  0.000  0.001  0.189 -0.000
 -0.000 -0.002 -0.000 -0.000  0.412
atom    9   Tr[ns(na)] =   2.95858
    eigenvalues:
  0.195  0.233  0.250  0.374  0.427
    eigenvectors:
  0.000  0.000  0.921  0.079  0.000
  0.000  0.000  0.000  0.000  1.000
  1.000  0.000  0.000  0.000  0.000
  0.000  0.000  0.079  0.921  0.000
  0.000  0.999  0.001  0.000  0.000
    occupations:
  0.260  0.000  0.001  0.033  0.000
  0.000  0.427 -0.000 -0.001  0.000
  0.001 -0.000  0.195  0.001 -0.000
  0.033 -0.001  0.001  0.365 -0.000
  0.000  0.000 -0.000 -0.000  0.233
atom   10   Tr[ns(na)] =   2.90537
    eigenvalues:
  0.196  0.240  0.250  0.342  0.424
    eigenvectors:
  0.015  0.000  0.000  0.985  0.000
  0.000  0.000  1.000  0.000  0.000
  0.000  1.000  0.000  0.000  0.000
  0.985  0.000  0.000  0.015  0.000
  0.000  0.000  0.000  0.000  1.000
    occupations:
  0.340 -0.000 -0.001 -0.017 -0.000
 -0.000  0.250 -0.000 -0.000  0.002
 -0.001 -0.000  0.240 -0.001  0.000
 -0.017 -0.000 -0.001  0.198  0.000
 -0.000  0.002  0.000  0.000  0.424
atom   16   Tr[ns(na)] =   2.87057
    eigenvalues:
  0.197  0.206  0.229  0.387  0.416
    eigenvectors:
  0.684  0.089  0.038  0.174  0.015
  0.003  0.001  0.001  0.139  0.856
  0.125  0.247  0.628  0.001  0.000
  0.166  0.017  0.006  0.686  0.126
  0.023  0.647  0.327  0.000  0.002
    occupations:
  0.235 -0.004 -0.005  0.075 -0.002
 -0.004  0.411 -0.002  0.013  0.010
 -0.005 -0.002  0.220  0.006  0.011
  0.075  0.013  0.006  0.355  0.001
 -0.002  0.010  0.011  0.001  0.214
atom   17   Tr[ns(na)] =   2.97015
    eigenvalues:
  0.186  0.223  0.242  0.409  0.425
    eigenvectors:
  0.006  0.003  0.000  0.000  0.992
  0.001  0.923  0.074  0.000  0.003
  0.000  0.073  0.926  0.000  0.000
  0.994  0.001  0.000  0.000  0.005
  0.000  0.000  0.000  1.000  0.000
    occupations:
  0.423  0.010  0.004 -0.017 -0.000
  0.010  0.225 -0.005  0.000 -0.002
  0.004 -0.005  0.241  0.001 -0.000
 -0.017  0.000  0.001  0.188 -0.000
 -0.000 -0.002 -0.000 -0.000  0.409
atom   22   Tr[ns(na)] =   2.95857
    eigenvalues:
  0.195  0.233  0.250  0.374  0.427
    eigenvectors:
  0.000  0.000  0.921  0.079  0.000
  0.000  0.000  0.000  0.000  1.000
  1.000  0.000  0.000  0.000  0.000
  0.000  0.000  0.079  0.921  0.000
  0.000  1.000  0.000  0.000  0.000
    occupations:
  0.260 -0.001  0.001  0.033 -0.000
 -0.001  0.427  0.000  0.001  0.000
  0.001  0.000  0.195  0.001  0.000
  0.033  0.001  0.001  0.365  0.000
 -0.000  0.000  0.000  0.000  0.233
atom   23   Tr[ns(na)] =   2.88896
    eigenvalues:
  0.193  0.199  0.261  0.364  0.428
    eigenvectors:
  0.007  0.001  0.000  0.993  0.000
  0.000  0.000  1.000  0.000  0.000
  0.452  0.547  0.000  0.001  0.000
  0.542  0.452  0.000  0.006  0.000
  0.000  0.000  0.000  0.000  1.000
    occupations:
  0.362 -0.000  0.006 -0.013 -0.000
 -0.000  0.261 -0.000 -0.000 -0.001
  0.006 -0.000  0.197  0.002  0.000
 -0.013 -0.000  0.002  0.197 -0.000
 -0.000 -0.001  0.000 -0.000  0.428
N of occupied +U levels =  23.3939163
 --- exit write_ns ---

          k = 0.0000 0.0000 0.0000 ( 29975 PWs)   bands (ev):

   -59.6141 -59.5755 -59.4105 -59.1937 -58.5239 -58.4802 -58.2315 -58.1905
   -36.1762 -35.8927 -35.8079 -35.7808 -35.7772 -35.7596 -35.7231 -35.7183
   -35.6075 -35.4645 -35.4263 -35.3504 -35.1609 -34.8610 -34.7547 -34.7510
   -34.7015 -34.6596 -34.6166 -34.5480 -34.5192 -34.4885 -34.3915 -34.2723
   -24.7335 -21.1450 -20.8318 -20.1646 -19.7967 -19.7408 -19.1784 -19.0343
   -19.0256 -18.9674 -18.9002 -18.8750 -18.7116 -18.5754 -18.4814 -18.4495
   -18.0192 -17.7300 -17.5996 -17.5873  -9.5774  -8.9349  -8.4990  -7.9071
    -7.6084  -7.5631  -7.5373  -7.2028  -7.1493  -6.6353  -6.6335  -6.4128
    -6.3884  -6.3292  -6.2892  -6.2064  -6.2049  -6.1130  -6.0909  -5.9403
    -5.9357  -5.8087  -5.7464  -5.7160  -5.4376  -5.0558  -5.0479  -4.8753
    -4.8064  -4.8014  -4.7719  -4.5678  -4.5596  -4.3836  -4.3511  -4.3093
    -4.1777  -4.1360  -4.0723  -4.0162  -3.7713  -3.7061  -3.6947  -3.6600
    -3.5593  -3.3315  -3.3044  -3.2394  -3.1434  -2.9713  -2.9182  -2.8456
    -2.6962  -2.5815  -2.5377  -2.4669  -2.3358  -2.2522  -2.1506  -0.5173
    -0.2761  -0.1786  -0.1284   0.0501   0.1348   0.3838   0.3963   0.4502
     0.6739   0.7087   0.9405   0.9931   1.0735   1.1658   1.2254   1.3294
     1.3687   1.5216   1.5974   1.7921   1.8722   1.9590   2.2228   2.3181
     2.4612   2.7172   2.7540   2.7630   3.0574   3.2103   3.3697   3.4165
     3.5281   3.6156   3.6602   3.9030   4.0867   4.1221   4.1971   4.2985
     4.7348   4.7711   4.7781   5.0671   5.3431   5.3606   5.6861   6.1498
     6.2094   6.5590   6.5812   6.7801   6.8946   7.0136   7.1063   7.1408
     7.1662   7.2211   7.4448   7.6149   7.6886   7.8225   7.8262   8.1407
     8.1888   8.3257   8.3387   8.3896   8.5261   8.7597   8.8410   8.9572
     9.0515   9.1115   9.3492   9.4262   9.4720   9.5488   9.5542   9.6637
     9.8689   9.8859  10.0383  10.1495  10.1751  10.1944  10.3241  10.3867
    10.7052  10.7300  10.7565  10.8561  10.9666  11.0197  11.0559  11.1424
    11.1997  11.2424  11.2701  11.3056  11.3526  11.4283  11.4396  11.5311
    11.7425  11.7876  11.8651  11.9433  12.0391  12.0710  12.1113  12.1647
    12.1685  12.2847  12.4373  12.4435  12.4742  12.5354  12.6059  12.6756
    12.8078  12.8329  12.8838  12.9158  13.1577  13.1867  13.2525  13.4475
    13.5932  13.6079  13.6337  13.6746  13.7082  13.7876  14.0397  14.0989
    14.2826  14.3068  14.4397  14.4994  14.5319  14.6570  14.7214  14.8251
    14.9037  14.9574  15.0498  15.0591  15.1173  15.2117  15.4280  15.5410
    15.6570  15.6604  15.7404  15.8199  15.8436  15.9271  16.1306  16.2252
    16.2412  16.3889  16.4037  16.5494  16.6554  16.8445  16.8980  16.9141
    16.9436  16.9916  17.0319  17.1159  17.2161  17.3482  17.3711  17.3915
    17.5349  17.5984  17.6052  17.6408  17.8266  17.9121  18.0221  18.0399
    18.0871  18.1657  18.3006  18.3616  18.3982  18.4992  18.5128  18.5816
    18.7255  18.7712  18.7901  18.9784  18.9939  19.0587  19.0887  19.1587
    19.2092  19.3200  19.3922  19.4845  19.5585  19.5968  19.6524

[...]

          k = 0.2500-0.4516 0.0000 ( 29882 PWs)   bands (ev):

[...]

          k =-0.5000 0.0000 0.0000 ( 29982 PWs)   bands (ev):

[...]

          k =-0.2500 0.2258 0.0000 ( 29912 PWs)   bands (ev):

   -59.6085 -59.5812 -59.4099 -59.1944 -58.5185 -58.4857 -58.2256 -58.1965
   -36.1175 -35.8829 -35.8357 -35.7782 -35.7634 -35.7521 -35.7353 -35.7287
   -35.5986 -35.4693 -35.4307 -35.3986 -35.0936 -34.8491 -34.7703 -34.7696
   -34.6876 -34.6551 -34.6201 -34.5459 -34.5225 -34.4792 -34.4039 -34.3397
   -24.7334 -21.0637 -20.8401 -20.1756 -19.6303 -19.5553 -19.1720 -19.1146
   -19.0560 -19.0101 -18.9690 -18.8528 -18.7936 -18.6752 -18.6063 -18.3077
   -17.9697 -17.7435 -17.6977 -17.6498  -9.5724  -8.8564  -8.5620  -7.9135
    -7.3384  -7.2820  -7.1290  -7.1027  -7.0126  -6.7000  -6.6534  -6.4798
    -6.4416  -6.3711  -6.3187  -6.2271  -6.1809  -6.1220  -6.1023  -5.8519
    -5.7685  -5.7145  -5.6181  -5.5307  -5.4018  -5.1585  -5.0238  -4.9443
    -4.8572  -4.8132  -4.6774  -4.6406  -4.5729  -4.5130  -4.4407  -4.3291
    -4.2645  -4.2328  -4.1780  -4.0988  -4.0634  -3.9249  -3.8817  -3.7777
    -3.7205  -3.6043  -3.4222  -3.3100  -3.1839  -2.9974  -2.9891  -2.8816
    -2.8198  -2.7529  -2.7182  -2.4832  -2.3487  -2.2512  -2.2090  -0.3033
    -0.2413  -0.1211   0.0602   0.2026   0.2667   0.3719   0.4358   0.6409
     0.6567   0.7152   0.7958   0.9872   1.0970   1.2551   1.2963   1.3313
     1.5595   1.6371   1.7361   1.8426   1.9641   2.0029   2.0985   2.2710
     2.3441   2.6646   2.8618   2.9275   2.9850   3.1287   3.1648   3.6743
     3.7400   3.8185   3.8482   4.0388   4.1400   4.3434   4.3983   4.4349
     4.5842   4.6863   4.9501   5.0445   5.1829   5.2244   5.5044   5.6114
     5.6780   5.9032   6.0205   6.1800   6.3943   6.5460   6.6577   6.9995
     7.0718   7.2362   7.4935   7.5442   7.6826   7.8784   7.9584   8.1003
     8.1794   8.3360   8.4813   8.5720   8.6549   8.8124   8.9043   9.0161
     9.1055   9.2111   9.2538   9.3724   9.4676   9.6499   9.7037   9.7862
     9.8638  10.0000  10.1936  10.2506  10.3220  10.3778  10.4807  10.5121
    10.6781  10.7680  10.9212  10.9683  11.0090  11.1360  11.2163  11.2949
    11.3613  11.4685  11.5201  11.5991  11.6268  11.7268  11.8001  11.9267
    12.0100  12.1294  12.1670  12.2643  12.3165  12.3492  12.4326  12.5281
    12.5547  12.6394  12.7246  12.8326  12.8666  12.9630  13.0208  13.0615
    13.1651  13.2801  13.3204  13.3683  13.4840  13.5816  13.6697  13.7857
    13.8543  13.9582  14.0316  14.0967  14.1482  14.2245  14.2908  14.3228
    14.3893  14.4719  14.5374  14.6253  14.6882  14.7745  14.8540  14.9250
    14.9493  15.0714  15.1502  15.2100  15.3133  15.3413  15.4034  15.4650
    15.5321  15.5892  15.6481  15.7108  15.7263  15.8642  15.9214  15.9745
    16.0202  16.1543  16.1795  16.2280  16.2764  16.3809  16.4317  16.5029
    16.5521  16.5872  16.6667  16.7232  16.7625  16.7932  16.8857  16.9882
    17.0778  17.1405  17.2244  17.2520  17.3049  17.3721  17.4388  17.4719
    17.5794  17.6465  17.7286  17.8435  17.8974  17.9925  18.0539  18.1304
    18.1920  18.2440  18.3464  18.3733  18.4343  18.5102  18.5617  18.6126
    18.6669  18.7581  18.8270  18.8817  18.9548  19.0759  19.1263

     the Fermi energy is    -2.1931 ev

!    total energy              =   -1600.33013253 Ry
     Harris-Foulkes estimate   =   -1600.33013285 Ry
     estimated scf accuracy    <       0.00000034 Ry

     The total energy is the sum of the following terms:

     one-electron contribution =  -19201.54935727 Ry
     hartree contribution      =    9625.72486362 Ry
     xc contribution           =    -284.68892675 Ry
     ewald contribution        =    8260.18478952 Ry
     Hubbard energy            =       0.00000000 Ry
     smearing contrib. (-TS)   =      -0.00150165 Ry

     convergence has been achieved in  29 iterations

     Forces acting on atoms (Ry/au):

     negative rho (up, down):  0.102E+00 0.000E+00
     atom    1 type  1   force =    -0.00027803   -0.01191291    0.00018518
     atom    2 type  1   force =     0.00012949    0.01799927    0.00005976
     atom    3 type  2   force =     0.05973773   -0.01219868   -0.00019338
     atom    4 type  2   force =    -0.00446083    0.00635218   -0.00072919
     atom    5 type  1   force =    -0.00151274   -0.08043019    0.00020778
     atom    6 type  1   force =    -0.00596514    0.08182972    0.00019514
     atom    7 type  1   force =     0.00009543   -0.00032725   -0.00060718
     atom    8 type  1   force =     0.00254083   -0.00037011   -0.00033599
     atom    9 type  2   force =     0.00037457   -0.00051426   -0.00023319
     atom   10 type  2   force =    -0.00004070    0.00133838   -0.00075685
     atom   11 type  1   force =    -0.01894837   -0.01803434   -0.00007034
     atom   12 type  1   force =    -0.01484586    0.02200527    0.00064945
     atom   13 type  1   force =     0.00038079   -0.00174851   -0.00003576
     atom   14 type  1   force =    -0.00187235   -0.01148757   -0.00085950
     atom   15 type  1   force =     0.00015896    0.01636234    0.00023211
     atom   16 type  2   force =    -0.05950728   -0.01268233   -0.00019824
     atom   17 type  2   force =    -0.00497586    0.00548120   -0.00033489
     atom   18 type  1   force =     0.00812307   -0.08028268    0.00017125
     atom   19 type  1   force =     0.00466105    0.08225540    0.00030273
     atom   20 type  1   force =    -0.00009299   -0.00007937   -0.00068960
     atom   21 type  1   force =     0.00266026    0.00008867    0.00035561
     atom   22 type  2   force =    -0.00149180   -0.00042280   -0.00019137
     atom   23 type  2   force =     0.00000299   -0.00222702   -0.00000518
     atom   24 type  1   force =     0.01917275   -0.01801168   -0.00004668
     atom   25 type  1   force =     0.01473635    0.02185333    0.00064136
     atom   26 type  1   force =     0.00043258   -0.00448273   -0.00003424
     atom   27 type  3   force =    -0.00000544    0.00003356    0.00031184
     atom   28 type  3   force =    -0.00007009   -0.00026846    0.00056239
     atom   29 type  3   force =     0.00032783   -0.00024272    0.00091705
     atom   30 type  3   force =     0.00052889   -0.00037935    0.00041045
     atom   31 type  1   force =     0.00011573   -0.00001570    0.00010387
     atom   32 type  1   force =    -0.00013037    0.00043882    0.00045029
     atom   33 type  3   force =     0.00001854    0.00008053   -0.00043469

     Total force =     0.002658     Total SCF correction =     0.001944
     SCF correction compared to forces is large: reduce conv_thr to get better values

     entering subroutine stress ...

     negative rho (up, down):  0.102E+00 0.000E+00
          total   stress  (Ry/bohr**3)                   (kbar)     P=   -4.56
  -0.00001522  -0.00000236   0.00000297         -2.24     -0.35      0.44
  -0.00000236  -0.00004380  -0.00000069         -0.35     -6.44     -0.10
   0.00000297  -0.00000069  -0.00003407          0.44     -0.10     -5.01

     BFGS Geometry Optimization

     bfgs converged in   1 scf cycles and   0 bfgs steps
     (criteria: energy < 0.10E-03, force < 0.10E-02)

     End of BFGS Geometry Optimization

     Final energy   =   -1600.3301325305 Ry
Begin final coordinates

ATOMIC_POSITIONS (crystal)
O0       0.000000000   0.000000000   0.378020000    0   0   1
O0       0.000000000   0.500000000   0.399300000    0   0   1
Ti1      0.250000000   0.500000000   0.451100000    0   0   1
Ti1      0.000000000   0.000000000   0.451830000    0   0   1
O0       0.250000000   0.810000000   0.449970000    0   0   1
O0       0.250000000   0.190000000   0.450890000    0   0   1
O0       0.000000000   0.500000000   0.498360000    0   0   1
O0       0.000000000   0.000000000   0.525710000    0   0   1
Ti1      0.250000000   0.000000000   0.580550000    0   0   1
Ti1      0.000000000   0.500000000   0.567960000    0   0   1
O0       0.250000000   0.690000000   0.578360000    0   0   1
O0       0.250000000   0.310000000   0.579410000    0   0   1
O0       0.000000000   0.000000000   0.621950000    0   0   1
O0       0.500000000   0.000000000   0.378770000    0   0   1
O0       0.500000000   0.500000000   0.398950000    0   0   1
Ti1      0.750000000   0.500000000   0.451110000    0   0   1
Ti1      0.500000000   0.000000000   0.453220000    0   0   1
O0       0.750000000   0.810000000   0.449910000    0   0   1
O0       0.750000000   0.190000000   0.450930000    0   0   1
O0       0.500000000   0.500000000   0.495730000    0   0   1
O0       0.500000000   0.000000000   0.525890000    0   0   1
Ti1      0.750000000   0.000000000   0.580550000    0   0   1
Ti1      0.500000000   0.500000000   0.585180000    0   0   1
O0       0.750000000   0.690000000   0.578350000    0   0   1
O0       0.750000000   0.310000000   0.579390000    0   0   1
O0       0.500000000   0.000000000   0.621620000    0   0   1
H2      -0.000460000   0.626030000   0.378830000
H2       0.499720000   0.624910000   0.378090000
H2       0.149000000   0.033040000   0.363610000
H2       0.648280000   0.034490000   0.364260000
O0       0.500310000   0.526960000   0.657790000
O0       0.499120000   0.350130000   0.688050000
H2       0.500360000   0.413250000   0.721830000
End final coordinates

     General routines

     Parallel routines
     Hubbard U routines

   This run was terminated on:  13:23:11  31May2014

   JOB DONE.