     Program PWSCF v.5.0.2 (svn rev. 9656) starts on 17May2014 at  7: 2:42

     Current dimensions of program PWSCF are:
     Max number of different atomic species (ntypx) = 10
     Max number of k-points (npk) =  40000
     Max angular momentum in pseudopotentials (lmaxx) =  3
     Reading input from pwscf.in
Warning: card &CELL ignored
Warning: card / ignored

     Subspace diagonalization in iterative solution of the eigenvalue problem:
     a serial algorithm will be used

     bravais-lattice index     =            0
     lattice parameter (alat)  =      11.7919  a.u.
     unit-cell volume          =    7123.6633 (a.u.)^3
     number of atoms/cell      =           30
     number of atomic types    =            3
     number of electrons       =       240.00
     number of Kohn-Sham states=          348
     kinetic-energy cutoff     =      40.0000  Ry
     charge density cutoff     =     500.0000  Ry
     convergence threshold     =      1.0E-06
     mixing beta               =       0.3000
     number of iterations used =            8  plain     mixing
     Exchange-correlation      = SLA  PW   PBE  PBE ( 1 4 3 4 0)
     EXX-fraction              =        0.00
     nstep                     =           50

     celldm(1)=  11.791891  celldm(2)=   0.000000  celldm(3)=   0.000000
     celldm(4)=   0.000000  celldm(5)=   0.000000  celldm(6)=   0.000000

     crystal axes: (cart. coord. in units of alat)
               a(1) = (   1.000000   0.000000   0.000000 )
               a(2) = (   0.000000   1.026665   0.000000 )
               a(3) = (   0.000000   0.000000   4.231793 )

     reciprocal axes: (cart. coord. in units 2 pi/alat)
               b(1) = (  1.000000  0.000000  0.000000 )
               b(2) = (  0.000000  0.974028  0.000000 )
               b(3) = (  0.000000  0.000000  0.236306 )

     PseudoPot. # 1 for O  read from file:
     /home/camp/zhonxu/pseudo/o_pbe_v1.01.uspp.F.UPF
     MD5 check sum: 2bcb18d16ea4b960afae9ec6d52f22d2
     Pseudo is Ultrasoft + core correction, Zval =  6.0
     Generated by new atomic code, or converted to UPF format
     Using radial grid of  737 points,  5 beta functions with:
                l(1) =   0
                l(2) =   0
                l(3) =   1
                l(4) =   1
                l(5) =   2
     Q(r) pseudized with  8 coefficients,  rinner =    0.900   0.900   0.900
                                                       0.900   0.900

     PseudoPot. # 2 for Ru read from file:
     /home/camp/zhonxu/pseudo/ru_pbe_v1.uspp.F.UPF
     MD5 check sum: df00be1c11b23341d9806d8f1dfa10cf
     Pseudo is Ultrasoft + core correction, Zval = 16.0
     Generated by new atomic code, or converted to UPF format
     Using radial grid of  967 points,  6 beta functions with:
                l(1) =   0
                l(2) =   0
                l(3) =   1
                l(4) =   1
                l(5) =   2
                l(6) =   2
     Q(r) pseudized with  8 coefficients,  rinner =    1.300   1.300   1.300
                                                       1.300   1.300

     PseudoPot. # 3 for H  read from file:
     /home/camp/zhonxu/pseudo/h_pbe_v1.uspp.F.UPF
     MD5 check sum: 3408e3ff4ec8b0a4e358431e7e038a48
     Pseudo is Ultrasoft, Zval =  1.0
     Generated by new atomic code, or converted to UPF format
     Using radial grid of  615 points,  2 beta functions with:
                l(1) =   0
                l(2) =   0
     Q(r) pseudized with  8 coefficients,  rinner =    0.700

     atomic species   valence    mass     pseudopotential
        O0             6.00    15.99940     O ( 1.00)
        Ru1           16.00   101.07000     Ru( 1.00)
        H2             1.00     1.00794     H ( 1.00)

     Simplified LDA+U calculation (l_max = 2) with parameters (eV):
     atomic species    L          U    alpha       J0     beta
        Ru1            2     0.0000   0.0000   0.0000   0.0000

     No symmetry found

   Cartesian axes

     site n.     atom                  positions (alat units)
         1           O0  tau(   1) = (   0.0000000   0.0000000   1.6080390  )
         2           O0  tau(   2) = (   0.0000000   0.5133323   1.7023233  )
         3           Ru1 tau(   3) = (   0.2500000   0.5133323   1.9175523  )
         4           Ru1 tau(   4) = (   0.0000000   0.0000000   1.9215302  )
         5           O0  tau(   5) = (   0.2500000   0.8315984   1.9195836  )
         6           O0  tau(   6) = (   0.2500000   0.1950663   1.9193297  )
         7           O0  tau(   7) = (   0.0000000   0.5133323   2.1106490  )
         8           O0  tau(   8) = (   0.0000000   0.0000000   2.2345136  )
         9           Ru1 tau(   9) = (   0.2500000   0.0000000   2.4487269  )
        10           Ru1 tau(  10) = (   0.0000000   0.5133323   2.4113179  )
        11           O0  tau(  11) = (   0.2500000   0.7083986   2.4387399  )
        12           O0  tau(  12) = (   0.2500000   0.3182660   2.4402210  )
        13           O0  tau(  13) = (   0.0000000   0.0000000   2.6238385  )
        14           O0  tau(  14) = (   0.5000000   0.0000000   1.6080390  )
        15           O0  tau(  15) = (   0.5000000   0.5133323   1.7023233  )
        16           Ru1 tau(  16) = (   0.7500000   0.5133323   1.9175523  )
        17           Ru1 tau(  17) = (   0.5000000   0.0000000   1.9215302  )
        18           O0  tau(  18) = (   0.7500000   0.8315984   1.9195836  )
        19           O0  tau(  19) = (   0.7500000   0.1950663   1.9193297  )
        20           O0  tau(  20) = (   0.5000000   0.5133323   2.1106490  )
        21           O0  tau(  21) = (   0.5000000   0.0000000   2.2345136  )
        22           Ru1 tau(  22) = (   0.7500000   0.0000000   2.4487269  )
        23           Ru1 tau(  23) = (   0.5000000   0.5133323   2.4113179  )
        24           O0  tau(  24) = (   0.7500000   0.7083986   2.4387399  )
        25           O0  tau(  25) = (   0.7500000   0.3182660   2.4401787  )
        26           O0  tau(  26) = (   0.5000000   0.0000000   2.6238385  )
        27           H2  tau(  27) = (  -0.0004100   0.6466653   1.6162063  )
        28           H2  tau(  28) = (   0.4995900   0.6466653   1.6162063  )
        29           H2  tau(  29) = (   0.1464700   0.0296706   1.5559879  )
        30           H2  tau(  30) = (   0.6464700   0.0296706   1.5559879  )

     number of k points=    10  Methfessel-Paxton smearing, width (Ry)=  0.0100
                       cart. coord. in units 2pi/alat
        k(    1) = (   0.0000000   0.0000000   0.0000000), wk =   0.1250000
        k(    2) = (   0.0000000   0.2435070   0.0000000), wk =   0.2500000
        k(    3) = (   0.0000000  -0.4870139   0.0000000), wk =   0.1250000
        k(    4) = (   0.2500000   0.0000000   0.0000000), wk =   0.2500000
        k(    5) = (   0.2500000   0.2435070   0.0000000), wk =   0.2500000
        k(    6) = (   0.2500000  -0.4870139   0.0000000), wk =   0.2500000
        k(    7) = (  -0.5000000   0.0000000   0.0000000), wk =   0.1250000
        k(    8) = (  -0.5000000   0.2435070   0.0000000), wk =   0.2500000
        k(    9) = (  -0.5000000  -0.4870139   0.0000000), wk =   0.1250000
        k(   10) = (  -0.2500000   0.2435070   0.0000000), wk =   0.2500000

     Largest allocated arrays     est. size (Mb)     dimensions
     Largest temporary arrays     est. size (Mb)     dimensions

     Check: negative/imaginary core charge=   -0.000003    0.000000

     Initial potential from superposition of free atoms
     Check: negative starting charge=   -0.522083

     starting charge  231.99981, renormalised to  240.00000

     negative rho (up, down):  0.540E+00 0.000E+00
     Number of +U iterations with fixed ns =  0
     Starting occupations:
 --- enter write_ns ---
 LDA+U parameters:
U( 2)     =  0.00000000
alpha( 2) =  0.00000000
atom    3   Tr[ns(na)] =   6.00000
    eigenvalues:
  0.600  0.600  0.600  0.600  0.600
    eigenvectors:
  1.000  0.000  0.000  0.000  0.000
  0.000  1.000  0.000  0.000  0.000
  0.000  0.000  1.000  0.000  0.000
  0.000  0.000  0.000  1.000  0.000
  0.000  0.000  0.000  0.000  1.000
    occupations:
  0.600  0.000  0.000  0.000  0.000
  0.000  0.600  0.000  0.000  0.000
  0.000  0.000  0.600  0.000  0.000
  0.000  0.000  0.000  0.600  0.000
  0.000  0.000  0.000  0.000  0.600
atom    4   Tr[ns(na)] =   6.00000
    eigenvalues:
  0.600  0.600  0.600  0.600  0.600
    eigenvectors:
  1.000  0.000  0.000  0.000  0.000
  0.000  1.000  0.000  0.000  0.000
  0.000  0.000  1.000  0.000  0.000
  0.000  0.000  0.000  1.000  0.000
  0.000  0.000  0.000  0.000  1.000
    occupations:
  0.600  0.000  0.000  0.000  0.000
  0.000  0.600  0.000  0.000  0.000
  0.000  0.000  0.600  0.000  0.000
  0.000  0.000  0.000  0.600  0.000
  0.000  0.000  0.000  0.000  0.600
atom    9   Tr[ns(na)] =   6.00000
    eigenvalues:
  0.600  0.600  0.600  0.600  0.600
    eigenvectors:
  1.000  0.000  0.000  0.000  0.000
  0.000  1.000  0.000  0.000  0.000
  0.000  0.000  1.000  0.000  0.000
  0.000  0.000  0.000  1.000  0.000
  0.000  0.000  0.000  0.000  1.000
    occupations:
  0.600  0.000  0.000  0.000  0.000
  0.000  0.600  0.000  0.000  0.000
  0.000  0.000  0.600  0.000  0.000
  0.000  0.000  0.000  0.600  0.000
  0.000  0.000  0.000  0.000  0.600
atom   10   Tr[ns(na)] =   6.00000
    eigenvalues:
  0.600  0.600  0.600  0.600  0.600
    eigenvectors:
  1.000  0.000  0.000  0.000  0.000
  0.000  1.000  0.000  0.000  0.000
  0.000  0.000  1.000  0.000  0.000
  0.000  0.000  0.000  1.000  0.000
  0.000  0.000  0.000  0.000  1.000
    occupations:
  0.600  0.000  0.000  0.000  0.000
  0.000  0.600  0.000  0.000  0.000
  0.000  0.000  0.600  0.000  0.000
  0.000  0.000  0.000  0.600  0.000
  0.000  0.000  0.000  0.000  0.600
atom   16   Tr[ns(na)] =   6.00000
    eigenvalues:
  0.600  0.600  0.600  0.600  0.600
    eigenvectors:
  1.000  0.000  0.000  0.000  0.000
  0.000  1.000  0.000  0.000  0.000
  0.000  0.000  1.000  0.000  0.000
  0.000  0.000  0.000  1.000  0.000
  0.000  0.000  0.000  0.000  1.000
    occupations:
  0.600  0.000  0.000  0.000  0.000
  0.000  0.600  0.000  0.000  0.000
  0.000  0.000  0.600  0.000  0.000
  0.000  0.000  0.000  0.600  0.000
  0.000  0.000  0.000  0.000  0.600
atom   17   Tr[ns(na)] =   6.00000
    eigenvalues:
  0.600  0.600  0.600  0.600  0.600
    eigenvectors:
  1.000  0.000  0.000  0.000  0.000
  0.000  1.000  0.000  0.000  0.000
  0.000  0.000  1.000  0.000  0.000
  0.000  0.000  0.000  1.000  0.000
  0.000  0.000  0.000  0.000  1.000
    occupations:
  0.600  0.000  0.000  0.000  0.000
  0.000  0.600  0.000  0.000  0.000
  0.000  0.000  0.600  0.000  0.000
  0.000  0.000  0.000  0.600  0.000
  0.000  0.000  0.000  0.000  0.600
atom   22   Tr[ns(na)] =   6.00000
    eigenvalues:
  0.600  0.600  0.600  0.600  0.600
    eigenvectors:
  1.000  0.000  0.000  0.000  0.000
  0.000  1.000  0.000  0.000  0.000
  0.000  0.000  1.000  0.000  0.000
  0.000  0.000  0.000  1.000  0.000
  0.000  0.000  0.000  0.000  1.000
    occupations:
  0.600  0.000  0.000  0.000  0.000
  0.000  0.600  0.000  0.000  0.000
  0.000  0.000  0.600  0.000  0.000
  0.000  0.000  0.000  0.600  0.000
[...]
     ethr =  1.20E-09,  avg # of iterations =  1.0

     negative rho (up, down):  0.577E+00 0.000E+00

     End of self-consistent calculation
 --- enter write_ns ---
 LDA+U parameters:
U( 2)     =  0.00000000
alpha( 2) =  0.00000000
atom    3   Tr[ns(na)] =   7.16177
    eigenvalues:
  0.529  0.570  0.738  0.815  0.929
    eigenvectors:
  0.000  0.200  0.006  0.000  0.793
  1.000  0.000  0.000  0.000  0.000
  0.000  0.000  0.991  0.000  0.009
  0.000  0.799  0.003  0.000  0.198
  0.000  0.000  0.000  1.000  0.000
    occupations:
  0.856  0.000  0.017 -0.143 -0.000
  0.000  0.529 -0.000 -0.000 -0.003
  0.017 -0.000  0.739 -0.006  0.000
 -0.143 -0.000 -0.006  0.642  0.000
 -0.000 -0.003  0.000  0.000  0.815
atom    4   Tr[ns(na)] =   7.13716
    eigenvalues:
  0.559  0.603  0.688  0.770  0.949
    eigenvectors:
  0.000  0.990  0.000  0.000  0.009
  0.000  0.000  0.017  0.983  0.000
  0.000  0.000  0.983  0.017  0.000
  0.000  0.009  0.000  0.000  0.991
  1.000  0.000  0.000  0.000  0.000
    occupations:
  0.606 -0.001 -0.000  0.033  0.001
 -0.001  0.768  0.011 -0.001 -0.000
 -0.000  0.011  0.689  0.002  0.000
  0.033 -0.001  0.002  0.946  0.000
  0.001 -0.000  0.000  0.000  0.559
atom    9   Tr[ns(na)] =   7.11405
    eigenvalues:
  0.584  0.601  0.760  0.805  0.807
    eigenvectors:
  0.000  0.143  0.001  0.260  0.596
  0.999  0.001  0.000  0.000  0.000
  0.000  0.000  0.999  0.000  0.000
  0.000  0.857  0.000  0.043  0.099
  0.000  0.000  0.000  0.696  0.304
    occupations:
  0.777  0.000 -0.001 -0.072  0.001
  0.000  0.584  0.001  0.000  0.000
 -0.001  0.001  0.760  0.000  0.000
 -0.072  0.000  0.000  0.630 -0.000
  0.001  0.000  0.000 -0.000  0.806
atom   10   Tr[ns(na)] =   7.15600
    eigenvalues:
  0.545  0.560  0.755  0.803  0.916
    eigenvectors:
  0.000  0.992  0.000  0.000  0.008
  0.000  0.000  0.000  1.000  0.000
  0.000  0.000  1.000  0.000  0.000
  0.000  0.008  0.000  0.000  0.992
  1.000  0.000  0.000  0.000  0.000
    occupations:
  0.563  0.000 -0.001  0.032 -0.000
  0.000  0.803  0.000  0.000 -0.001
 -0.001  0.000  0.755 -0.001  0.000
  0.032  0.000 -0.001  0.913 -0.000
 -0.000 -0.001  0.000 -0.000  0.545
atom   16   Tr[ns(na)] =   7.16215
    eigenvalues:
  0.529  0.570  0.738  0.815  0.929
    eigenvectors:
  0.000  0.200  0.006  0.000  0.793
  1.000  0.000  0.000  0.000  0.000
  0.000  0.000  0.991  0.000  0.009
  0.000  0.799  0.003  0.000  0.198
  0.000  0.000  0.000  1.000  0.000
    occupations:
  0.856  0.000  0.017 -0.143 -0.000
  0.000  0.529 -0.000 -0.000 -0.003
  0.017 -0.000  0.739 -0.006  0.000
 -0.143 -0.000 -0.006  0.642  0.000
 -0.000 -0.003  0.000  0.000  0.815
atom   17   Tr[ns(na)] =   7.13609
    eigenvalues:
  0.559  0.602  0.688  0.769  0.949
    eigenvectors:
  0.000  0.990  0.000  0.000  0.009
  0.000  0.000  0.017  0.983  0.000
  0.000  0.000  0.983  0.017  0.000
  0.000  0.009  0.000  0.000  0.991
  1.000  0.000  0.000  0.000  0.000
    occupations:
  0.606 -0.001 -0.000  0.033  0.001
 -0.001  0.768  0.011 -0.001 -0.000
 -0.000  0.011  0.689  0.002  0.000
  0.033 -0.001  0.002  0.946  0.000
  0.001 -0.000  0.000  0.000  0.559
atom   22   Tr[ns(na)] =   7.11387
    eigenvalues:
  0.584  0.601  0.760  0.805  0.807
    eigenvectors:
  0.000  0.143  0.001  0.262  0.595
  0.999  0.001  0.000  0.000  0.000
  0.000  0.000  0.999  0.000  0.000
  0.000  0.857  0.000  0.044  0.099
  0.000  0.000  0.000  0.694  0.306
    occupations:
  0.777  0.000 -0.001 -0.072  0.001
  0.000  0.584  0.001  0.000  0.000
 -0.001  0.001  0.760  0.001  0.000
 -0.072  0.000  0.001  0.630 -0.000
  0.001  0.000  0.000 -0.000  0.806
atom   23   Tr[ns(na)] =   7.15568
    eigenvalues:
  0.545  0.560  0.755  0.802  0.916
    eigenvectors:
  0.000  0.992  0.000  0.000  0.008
  0.000  0.000  0.000  1.000  0.000
  0.000  0.000  1.000  0.000  0.000
  0.000  0.008  0.000  0.000  0.992
  1.000  0.000  0.000  0.000  0.000
    occupations:
  0.563  0.000 -0.001  0.032 -0.000
  0.000  0.802  0.000  0.000 -0.001
 -0.001  0.000  0.755 -0.001 -0.000
  0.032  0.000 -0.001  0.913 -0.000
 -0.000 -0.001 -0.000 -0.000  0.545
N of occupied +U levels =  57.1367599
 --- exit write_ns ---

          k = 0.0000 0.0000 0.0000 ( 30363 PWs)   bands (ev):

   -74.6608 -74.6501 -74.4129 -74.4026 -74.2715 -74.2611 -74.1467 -74.1367
   -44.8208 -44.6432 -44.6364 -44.6301 -44.6292 -44.6160 -44.5401 -44.5170
   -44.5124 -44.5047 -44.3940 -44.3427 -44.3028 -44.2741 -44.2294 -44.1839
   -44.1832 -44.1633 -44.1627 -44.0970 -44.0684 -44.0544 -44.0257 -43.9918
   -21.0833 -20.5748 -20.5624 -20.3359 -20.3260 -20.1927 -19.8415 -19.7077
   -19.6167 -19.5554 -19.5122 -19.5083 -19.4621 -19.1831 -19.1255 -18.9773
   -18.9413 -18.7605  -9.2217  -9.1088  -8.9932  -8.3569  -8.1962  -8.0368
    -8.0210  -7.8107  -7.6891  -7.6697  -7.6625  -7.6577  -7.6194  -7.5915
    -7.4641  -7.4043  -7.2856  -7.1557  -7.1435  -6.9303  -6.7789  -6.6242
    -6.4019  -5.9877  -5.8714  -5.6587  -5.5199  -5.4772  -5.4465  -5.1741
    -5.1420  -5.0643  -4.9480  -4.9304  -4.8579  -4.7777  -4.7200  -4.5997
    -4.5561  -4.3962  -4.2951  -4.2455  -4.1520  -4.1191  -3.9074  -3.9072
    -3.7630  -3.6717  -3.5625  -3.4346  -3.2342  -3.2281  -3.1467  -2.7454
    -2.3222  -2.1591  -2.1239  -1.9676  -1.8454  -1.7656  -1.7164  -1.6780
    -1.5242  -1.4831  -1.4653  -1.3599  -1.2835  -1.2773  -1.0618  -1.0409
    -0.8315  -0.5518  -0.4972  -0.2525  -0.1874   0.0665   0.1866   0.2250
     0.4586   0.5265   1.3815   1.7998   2.0788   2.1576   2.2630   2.3216
     2.4753   2.5700   2.9584   3.4327   3.5430   3.5624   3.5738   3.6100
     3.8382   4.0732   4.2286   4.6791   5.0777   5.8817   6.1680   6.4431
     6.6719   7.0869   7.1434   7.1704   7.2136   7.3805   7.3861   7.5016
     7.7681   7.8642   7.9492   8.0102   8.0770   8.2606   8.2761   8.3525
     8.4209   8.5036   8.5749   8.7137   8.7278   8.7422   9.0235   9.0713
     9.1178   9.1756   9.2743   9.3214   9.3786   9.5924   9.7685   9.7851
     9.9088   9.9256  10.0629  10.2692  10.2808  10.6718  10.6771  10.7829
    10.8391  10.9777  11.0363  11.0906  11.2442  11.3442  11.3645  11.4534
    11.4575  11.5107  11.5719  11.6686  11.7068  11.7441  11.7490  11.7797
    11.9714  12.0114  12.0611  12.1295  12.1917  12.2636  12.3445  12.3623
    12.4490  12.4780  12.5399  12.6058  12.6875  12.6982  12.7095  12.8434
    12.9872  13.0345  13.0805  13.1408  13.2692  13.3454  13.3665  13.5256
    13.6172  13.6773  13.7665  13.8707  13.9486  14.0483  14.2022  14.2789
    14.3080  14.3824  14.5243  14.5757  14.6922  14.7189  14.9566  14.9980
    15.0197  15.2139  15.3403  15.4237  15.5115  15.5508  15.7541  15.8099
    15.8248  15.9044  15.9112  15.9997  16.1316  16.2356  16.2431  16.4510
    16.4565  16.6725  16.8699  16.8962  16.9426  17.0849  17.1790  17.2484
    17.2828  17.3153  17.3978  17.4263  17.5228  17.8474  17.8731  17.8943
    17.9470  18.0583  18.1220  18.2441  18.3438  18.4639  18.4727  18.4884
    18.6028  18.6176  18.6876  18.7463  18.8287  18.8624  18.9634  18.9805
    19.0172  19.0497  19.1472  19.2170  19.2872  19.2910  19.4237  19.4577
    19.5319  19.5525  19.6258  19.6710  19.7036  19.7584  19.8214  19.9170
    19.9482  19.9856  20.0593  20.1090  20.2272  20.2389  20.2480  20.3369
    20.4579  20.5340  20.6071  20.6926  20.7023  20.7390  20.7669  20.7988
    20.8088  20.8694  21.0260  21.1716  21.2189  21.2923  21.3607  21.4321
    21.4407  21.5577  21.6820  21.7221  21.7516  21.8137  21.9162  22.0176
    22.0311  22.1772  22.2560  22.2725

[...]

          k = 0.2500-0.4870 0.0000 ( 30468 PWs)   bands (ev):

[...]

          k =-0.5000 0.0000 0.0000 ( 30480 PWs)   bands (ev):

[...]

          k =-0.2500 0.2435 0.0000 ( 30434 PWs)   bands (ev):

   -74.6592 -74.6517 -74.4114 -74.4041 -74.2700 -74.2626 -74.1452 -74.1381
   -44.7943 -44.6642 -44.6408 -44.6311 -44.6274 -44.6189 -44.5358 -44.5164
   -44.5152 -44.5064 -44.3724 -44.3157 -44.2914 -44.2728 -44.2528 -44.1919
   -44.1893 -44.1884 -44.1373 -44.0939 -44.0727 -44.0504 -44.0298 -44.0171
   -20.9474 -20.5150 -20.4451 -20.3958 -20.2357 -20.1387 -19.8560 -19.7741
   -19.6916 -19.5552 -19.5265 -19.4801 -19.3319 -19.2927 -19.1835 -19.1541
   -19.0557 -18.8340  -9.0583  -8.5382  -8.4987  -8.4273  -8.0845  -8.0770
    -7.9453  -7.9300  -7.8841  -7.7249  -7.6186  -7.5919  -7.5476  -7.4729
    -7.3282  -7.3227  -7.1982  -7.1749  -6.7958  -6.7064  -6.6516  -6.5114
    -6.4337  -6.0642  -5.9341  -5.8433  -5.7433  -5.5526  -5.4661  -5.4379
    -5.3980  -5.2827  -5.2644  -5.1750  -5.0281  -4.9851  -4.8956  -4.8531
    -4.7253  -4.6794  -4.5249  -4.4666  -4.2274  -4.2156  -4.0913  -4.0597
    -3.9522  -3.8202  -3.7514  -3.4611  -3.4449  -3.1251  -3.0763  -2.7093
    -2.1523  -2.0530  -1.9097  -1.7545  -1.6316  -1.5732  -1.5275  -1.3732
    -1.3655  -1.3135  -1.2834  -1.2347  -1.2063  -1.1227  -1.0386  -0.9632
    -0.6126  -0.5023  -0.4499  -0.3424  -0.2940  -0.0683   0.0233   0.1875
     0.5659   0.7448   1.4518   1.6022   1.6588   2.0849   2.2052   2.5185
     2.6921   3.0119   3.1497   3.1597   3.2571   3.3610   3.6339   3.7033
     4.0689   4.2897   4.6903   5.1149   5.5542   5.8152   5.8805   5.9823
     6.1134   6.4182   6.5795   6.5985   6.6838   6.9112   6.9991   7.2218
     7.4909   7.5679   7.7585   7.9220   7.9349   8.2096   8.2675   8.3850
     8.4049   8.4678   8.6846   8.7313   8.8494   8.9906   9.1593   9.1681
     9.2407   9.4713   9.5074   9.7733   9.7953   9.8874   9.9496  10.0287
    10.1412  10.2507  10.3720  10.4278  10.4411  10.5889  10.6676  10.7120
    10.8416  10.9045  10.9980  11.1232  11.2702  11.2885  11.4373  11.4983
    11.6018  11.6295  11.6628  11.8064  11.8485  11.9480  12.0494  12.0523
    12.1515  12.2615  12.3731  12.4436  12.4987  12.5303  12.5923  12.6523
    12.7552  12.7805  12.9087  12.9147  12.9567  13.1035  13.2013  13.3147
    13.3318  13.4502  13.5031  13.6069  13.7063  13.7475  13.8510  13.9062
    13.9649  14.0290  14.1568  14.2851  14.3047  14.3728  14.4900  14.4966
    14.5638  14.6561  14.7218  14.7904  14.8495  14.9653  15.0289  15.0539
    15.1960  15.3501  15.5245  15.5666  15.6677  15.6860  15.7632  15.8389
    15.8408  15.9007  15.9436  15.9506  16.0276  16.0882  16.1591  16.2068
    16.2860  16.3771  16.4237  16.5368  16.6044  16.7068  16.7128  16.8031
    16.8227  16.8335  16.9960  17.0052  17.0514  17.2115  17.2148  17.3444
    17.4352  17.4816  17.5057  17.5656  17.5856  17.6364  17.7381  17.7518
    17.8618  17.8716  17.9941  18.0218  18.0849  18.1687  18.1747  18.3123
    18.3247  18.4568  18.4834  18.6011  18.6229  18.7412  18.7637  18.9149
    18.9971  19.0644  19.1361  19.1508  19.2579  19.2604  19.3431  19.4274
    19.4377  19.5344  19.5849  19.7758  19.7911  19.8534  19.9300  19.9391
    19.9944  20.1783  20.2153  20.3586  20.3660  20.5421  20.5986  20.6290
    20.7515  20.7530  20.8622  20.9013  20.9563  21.0123  21.0411  21.1293
    21.1637  21.2677  21.3247  21.3496  21.4156  21.4237  21.4803  21.5918
    21.6391  21.6706  21.7740  21.8024

     the Fermi energy is    -0.7606 ev

!    total energy              =   -2131.31621603 Ry
     Harris-Foulkes estimate   =   -2131.31621669 Ry
     estimated scf accuracy    <       0.00000080 Ry

     The total energy is the sum of the following terms:

     one-electron contribution =  -24448.18124909 Ry
     hartree contribution      =   12243.76311179 Ry
     xc contribution           =    -330.62591571 Ry
     ewald contribution        =   10403.72718313 Ry
     Hubbard energy            =       0.00000000 Ry
     smearing contrib. (-TS)   =       0.00065384 Ry

     convergence has been achieved in  25 iterations

     Forces acting on atoms (Ry/au):

     negative rho (up, down):  0.577E+00 0.000E+00
     atom    1 type  1   force =    -0.00552234   -0.01202204    0.00008194
     atom    2 type  1   force =    -0.00010545    0.00903221    0.00061552
     atom    3 type  2   force =    -0.00022403   -0.00016824   -0.00014007
     atom    4 type  2   force =     0.00399754    0.00671571   -0.00008385
     atom    5 type  1   force =     0.00183145   -0.02606061   -0.00044300
     atom    6 type  1   force =     0.00056849    0.02592724   -0.00027152
     atom    7 type  1   force =     0.00016824   -0.00203032    0.00017328
     atom    8 type  1   force =    -0.00015453   -0.00092595   -0.00075105
     atom    9 type  2   force =     0.00094060    0.00017798    0.00033871
     atom   10 type  2   force =     0.00006951    0.00042767   -0.00005999
     atom   11 type  1   force =     0.00005367   -0.00005537    0.00004924
     atom   12 type  1   force =     0.00006006   -0.00085801    0.00006607
     atom   13 type  1   force =    -0.00168199   -0.00010896    0.00081816
     atom   14 type  1   force =    -0.00545423   -0.01200790    0.00026994
     atom   15 type  1   force =    -0.00018202    0.00905776    0.00063913
     atom   16 type  2   force =    -0.00021099   -0.00017283   -0.00016582
     atom   17 type  2   force =     0.00400141    0.00671203   -0.00008143
     atom   18 type  1   force =     0.00154362   -0.02601586   -0.00043831
     atom   19 type  1   force =     0.00027938    0.02587968   -0.00026996
     atom   20 type  1   force =     0.00006107   -0.00202991    0.00022301
     atom   21 type  1   force =    -0.00014055   -0.00092588   -0.00090360
     atom   22 type  2   force =     0.00096506    0.00018571    0.00033738
     atom   23 type  2   force =     0.00004833    0.00042754   -0.00007427
     atom   24 type  1   force =    -0.00006325   -0.00004318    0.00005629
     atom   25 type  1   force =    -0.00005473   -0.00089541    0.00012428
     atom   26 type  1   force =    -0.00162369   -0.00010921    0.00075643
     atom   27 type  3   force =     0.00001488   -0.00035921   -0.00023781
     atom   28 type  3   force =     0.00001313   -0.00036196   -0.00023423
     atom   29 type  3   force =     0.00039676    0.00030290   -0.00019454
     atom   30 type  3   force =     0.00040462    0.00030441   -0.00019988

     Total force =     0.002320     Total SCF correction =     0.002029
     SCF correction compared to forces is large: reduce conv_thr to get better values

     BFGS Geometry Optimization

     bfgs converged in   1 scf cycles and   0 bfgs steps
     (criteria: energy < 0.10E-03, force < 0.10E-02)

     End of BFGS Geometry Optimization

     Final energy   =   -2131.3162160328 Ry
Begin final coordinates

ATOMIC_POSITIONS (crystal)
O0       0.000000000   0.000000000   0.379990000    0   0   1
O0       0.000000000   0.500000000   0.402270000    0   0   1
Ru1      0.250000000   0.500000000   0.453130000    0   0   1
Ru1      0.000000000   0.000000000   0.454070000    0   0   1
O0       0.250000000   0.810000000   0.453610000    0   0   1
O0       0.250000000   0.190000000   0.453550000    0   0   1
O0       0.000000000   0.500000000   0.498760000    0   0   1
O0       0.000000000   0.000000000   0.528030000    0   0   1
Ru1      0.250000000   0.000000000   0.578650000    0   0   1
Ru1      0.000000000   0.500000000   0.569810000    0   0   1
O0       0.250000000   0.690000000   0.576290000    0   0   1
O0       0.250000000   0.310000000   0.576640000    0   0   1
O0       0.000000000   0.000000000   0.620030000    0   0   1
O0       0.500000000   0.000000000   0.379990000    0   0   1
O0       0.500000000   0.500000000   0.402270000    0   0   1
Ru1      0.750000000   0.500000000   0.453130000    0   0   1
Ru1      0.500000000   0.000000000   0.454070000    0   0   1
O0       0.750000000   0.810000000   0.453610000    0   0   1
O0       0.750000000   0.190000000   0.453550000    0   0   1
O0       0.500000000   0.500000000   0.498760000    0   0   1
O0       0.500000000   0.000000000   0.528030000    0   0   1
Ru1      0.750000000   0.000000000   0.578650000    0   0   1
Ru1      0.500000000   0.500000000   0.569810000    0   0   1
O0       0.750000000   0.690000000   0.576290000    0   0   1
O0       0.750000000   0.310000000   0.576630000    0   0   1
O0       0.500000000   0.000000000   0.620030000    0   0   1
H2      -0.000410000   0.629870000   0.381920000
H2       0.499590000   0.629870000   0.381920000
H2       0.146470000   0.028900000   0.367690000
H2       0.646470000   0.028900000   0.367690000
End final coordinates

     General routines

     Parallel routines
     Hubbard U routines

   This run was terminated on:   8:25:11  17May2014

   JOB DONE.
Running PBS batch system epilogue script
Job id: 361769.audhumbla.fysik.dtu.dk
Username: zhonxu
Groupname: campgst
Jobname: RuO2/Eads-2-layers/bare-U-0.0
Sessionid: 3086
Queuename: verylong
Accounting:
This job has allocated the following 16 nodes:
c004 c004 c004 c004 c004 c004 c004 c004 c001 c001 c001 c001 c001 c001 c001 c001
Finished epilogue job 361769.audhumbla.fysik.dtu.dk for zhonxu