     Program PWSCF v.5.0.2 (svn rev. 9656) starts on  4May2014 at 18:45:40

     Current dimensions of program PWSCF are:
     Max number of different atomic species (ntypx) = 10
     Max number of k-points (npk) =  40000
     Max angular momentum in pseudopotentials (lmaxx) =  3
     Reading input from pwscf.in
Warning: card &CELL ignored
Warning: card / ignored

     Subspace diagonalization in iterative solution of the eigenvalue problem:
     a serial algorithm will be used

     bravais-lattice index     =            0
     lattice parameter (alat)  =      10.7336  a.u.
     unit-cell volume          =    6184.1966 (a.u.)^3
     number of atoms/cell      =           32
     number of atomic types    =            3
     number of electrons       =       239.00 (up: 131.00, down: 108.00)
     number of Kohn-Sham states=          346
     kinetic-energy cutoff     =      40.0000  Ry
     charge density cutoff     =     500.0000  Ry
     convergence threshold     =      1.0E-06
     mixing beta               =       0.7000
     number of iterations used =            8  plain     mixing
     Exchange-correlation      = SLA  PW   PBE  PBE ( 1 4 3 4 0)
     EXX-fraction              =        0.00
     nstep                     =           50

     celldm(1)=  10.733644  celldm(2)=   0.000000  celldm(3)=   0.000000
     celldm(4)=   0.000000  celldm(5)=   0.000000  celldm(6)=   0.000000

     crystal axes: (cart. coord. in units of alat)
               a(1) = (   1.000000   0.000000   0.000000 )
               a(2) = (   0.000000   1.085558   0.000000 )
               a(3) = (   0.000000   0.000000   4.606685 )

     reciprocal axes: (cart. coord. in units 2 pi/alat)
               b(1) = (  1.000000  0.000000  0.000000 )
               b(2) = (  0.000000  0.921185  0.000000 )
               b(3) = (  0.000000  0.000000  0.217076 )

     PseudoPot. # 1 for O  read from file:
     /home/camp/zhonxu/pseudo/o_pbe_v1.01.uspp.F.UPF
     MD5 check sum: 2bcb18d16ea4b960afae9ec6d52f22d2
     Pseudo is Ultrasoft + core correction, Zval =  6.0
     Generated by new atomic code, or converted to UPF format
     Using radial grid of  737 points,  5 beta functions with:
                l(1) =   0
                l(2) =   0
                l(3) =   1
                l(4) =   1
                l(5) =   2
     Q(r) pseudized with  8 coefficients,  rinner =    0.900   0.900   0.900
                                                       0.900   0.900

     PseudoPot. # 2 for Mn read from file:
     /home/camp/zhonxu/pseudo/mn_pbe_v1.uspp.F.UPF
     MD5 check sum: 5fd7c7b5c956fd19902447332617373a
     Pseudo is Ultrasoft + core correction, Zval = 15.0
     Generated by new atomic code, or converted to UPF format
     Using radial grid of  859 points,  6 beta functions with:
                l(1) =   0
                l(2) =   0
                l(3) =   1
                l(4) =   1
                l(5) =   2
                l(6) =   2
     Q(r) pseudized with  6 coefficients,  rinner =    1.150   1.150   1.150
                                                       1.150   1.150

     PseudoPot. # 3 for H  read from file:
     /home/camp/zhonxu/pseudo/h_pbe_v1.uspp.F.UPF
     MD5 check sum: 3408e3ff4ec8b0a4e358431e7e038a48
     Pseudo is Ultrasoft, Zval =  1.0
     Generated by new atomic code, or converted to UPF format
     Using radial grid of  615 points,  2 beta functions with:
                l(1) =   0
                l(2) =   0
     Q(r) pseudized with  8 coefficients,  rinner =    0.700

     atomic species   valence    mass     pseudopotential
        O0             6.00    15.99940     O ( 1.00)
        Mn1           15.00    54.93800     Mn( 1.00)
        H2             1.00     1.00794     H ( 1.00)

     Starting magnetic structure
     atomic species   magnetization
        O0           0.000
        Mn1          0.600
        H2           0.000

     Simplified LDA+U calculation (l_max = 2) with parameters (eV):
     atomic species    L          U    alpha       J0     beta
        Mn1            2     1.5000   0.0000   0.0000   0.0000

     No symmetry found

   Cartesian axes

     site n.     atom                  positions (alat units)
         1           O0  tau(   1) = (   0.0000000   0.0000000   1.7414191  )
         2           O0  tau(   2) = (   0.0000000   0.5427791   1.8381134  )
         3           Mn1 tau(   3) = (   0.2500000   0.5427791   2.0740217  )
         4           Mn1 tau(   4) = (   0.0000000   0.0000000   2.0686319  )
         5           O0  tau(   5) = (   0.2500000   0.8684466   2.0678488  )
         6           O0  tau(   6) = (   0.2500000   0.2171117   2.0737453  )
         7           O0  tau(   7) = (   0.0000000   0.5427791   2.2873573  )
         8           O0  tau(   8) = (   0.0000000   0.0000000   2.4132120  )
         9           Mn1 tau(   9) = (   0.2500000   0.0000000   2.6399991  )
        10           Mn1 tau(  10) = (   0.0000000   0.5427791   2.6085815  )
        11           O0  tau(  11) = (   0.2500000   0.7598908   2.6551551  )
        12           O0  tau(  12) = (   0.2500000   0.3256675   2.6556157  )
        13           O0  tau(  13) = (   0.0000000   0.0000000   2.8417258  )
        14           O0  tau(  14) = (   0.5000000   0.0000000   1.7428932  )
        15           O0  tau(  15) = (   0.5000000   0.5427791   1.8386662  )
        16           Mn1 tau(  16) = (   0.7500000   0.5427791   2.0740678  )
        17           Mn1 tau(  17) = (   0.5000000   0.0000000   2.0707510  )
        18           O0  tau(  18) = (   0.7500000   0.8684466   2.0677106  )
        19           O0  tau(  19) = (   0.7500000   0.2171117   2.0738835  )
        20           O0  tau(  20) = (   0.5000000   0.5427791   2.2871270  )
        21           O0  tau(  21) = (   0.5000000   0.0000000   2.4132120  )
        22           Mn1 tau(  22) = (   0.7500000   0.0000000   2.6413811  )
        23           Mn1 tau(  23) = (   0.5000000   0.5427791   2.6662572  )
        24           O0  tau(  24) = (   0.7500000   0.7598908   2.6473698  )
        25           O0  tau(  25) = (   0.7500000   0.3256675   2.6477844  )
        26           O0  tau(  26) = (   0.5000000   0.0000000   2.8412191  )
        27           H2  tau(  27) = (   0.0000400   0.7014118   1.7620570  )
        28           H2  tau(  28) = (   0.5000900   0.7016832   1.7629323  )
        29           H2  tau(  29) = (   0.1613600   0.0398291   1.6869220  )
        30           H2  tau(  30) = (   0.6610200   0.0399703   1.6876591  )
        31           O0  tau(  31) = (   0.5153900   0.5432351   2.9826904  )
        32           H2  tau(  32) = (   0.3575300   0.5430397   3.0540479  )

     number of k points=    20  Methfessel-Paxton smearing, width (Ry)=  0.0100
                       cart. coord. in units 2pi/alat
        k(    1) = (   0.0000000   0.0000000   0.0000000), wk =   0.0625000
        k(    2) = (   0.0000000   0.2302962   0.0000000), wk =   0.1250000
        k(    3) = (   0.0000000  -0.4605925   0.0000000), wk =   0.0625000
        k(    4) = (   0.2500000   0.0000000   0.0000000), wk =   0.1250000
        k(    5) = (   0.2500000   0.2302962   0.0000000), wk =   0.1250000
        k(    6) = (   0.2500000  -0.4605925   0.0000000), wk =   0.1250000
        k(    7) = (  -0.5000000   0.0000000   0.0000000), wk =   0.0625000
        k(    8) = (  -0.5000000   0.2302962   0.0000000), wk =   0.1250000
        k(    9) = (  -0.5000000  -0.4605925   0.0000000), wk =   0.0625000
        k(   10) = (  -0.2500000   0.2302962   0.0000000), wk =   0.1250000
        k(   11) = (   0.0000000   0.0000000   0.0000000), wk =   0.0625000
        k(   12) = (   0.0000000   0.2302962   0.0000000), wk =   0.1250000
        k(   13) = (   0.0000000  -0.4605925   0.0000000), wk =   0.0625000
        k(   14) = (   0.2500000   0.0000000   0.0000000), wk =   0.1250000
        k(   15) = (   0.2500000   0.2302962   0.0000000), wk =   0.1250000
        k(   16) = (   0.2500000  -0.4605925   0.0000000), wk =   0.1250000
        k(   17) = (  -0.5000000   0.0000000   0.0000000), wk =   0.0625000
        k(   18) = (  -0.5000000   0.2302962   0.0000000), wk =   0.1250000
        k(   19) = (  -0.5000000  -0.4605925   0.0000000), wk =   0.0625000
        k(   20) = (  -0.2500000   0.2302962   0.0000000), wk =   0.1250000

     Largest allocated arrays     est. size (Mb)     dimensions
     Largest temporary arrays     est. size (Mb)     dimensions

     Check: negative/imaginary core charge=   -0.000022    0.000000

     Initial potential from superposition of free atoms
     Check: negative starting charge=(component1):   -0.000716
     Check: negative starting charge=(component2):   -0.000389

     starting charge  230.99986, renormalised to  239.00000

     negative rho (up, down):  0.741E-03 0.403E-03
     Number of +U iterations with fixed ns =  0
     Starting occupations:
 --- enter write_ns ---
 LDA+U parameters:
U( 2)     =  1.50000000
alpha( 2) =  0.00000000
atom    3   Tr[ns(na)] (up, down, total) =   5.00000  0.00000  5.00000
   spin  1
    eigenvalues:
  1.000  1.000  1.000  1.000  1.000
    eigenvectors:
  1.000  0.000  0.000  0.000  0.000
  0.000  1.000  0.000  0.000  0.000
  0.000  0.000  1.000  0.000  0.000
  0.000  0.000  0.000  1.000  0.000
  0.000  0.000  0.000  0.000  1.000
    occupations:
  1.000  0.000  0.000  0.000  0.000
  0.000  1.000  0.000  0.000  0.000
  0.000  0.000  1.000  0.000  0.000
  0.000  0.000  0.000  1.000  0.000
  0.000  0.000  0.000  0.000  1.000
   spin  2
    eigenvalues:
  0.000  0.000  0.000  0.000  0.000
    eigenvectors:
  1.000  0.000  0.000  0.000  0.000
  0.000  1.000  0.000  0.000  0.000
  0.000  0.000  1.000  0.000  0.000
  0.000  0.000  0.000  1.000  0.000
  0.000  0.000  0.000  0.000  1.000
    occupations:
  0.000  0.000  0.000  0.000  0.000
  0.000  0.000  0.000  0.000  0.000
  0.000  0.000  0.000  0.000  0.000
  0.000  0.000  0.000  0.000  0.000
  0.000  0.000  0.000  0.000  0.000
atomic mag. moment =     5.000000
atom    4   Tr[ns(na)] (up, down, total) =   5.00000  0.00000  5.00000
   spin  1
    eigenvalues:
  1.000  1.000  1.000  1.000  1.000
    eigenvectors:
  1.000  0.000  0.000  0.000  0.000
  0.000  1.000  0.000  0.000  0.000
  0.000  0.000  1.000  0.000  0.000
  0.000  0.000  0.000  1.000  0.000
  0.000  0.000  0.000  0.000  1.000
    occupations:
  1.000  0.000  0.000  0.000  0.000
  0.000  1.000  0.000  0.000  0.000
  0.000  0.000  1.000  0.000  0.000
  0.000  0.000  0.000  1.000  0.000
  0.000  0.000  0.000  0.000  1.000
   spin  2
    eigenvalues:
  0.000  0.000  0.000  0.000  0.000
    eigenvectors:
  1.000  0.000  0.000  0.000  0.000
  0.000  1.000  0.000  0.000  0.000
  0.000  0.000  1.000  0.000  0.000
  0.000  0.000  0.000  1.000  0.000
  0.000  0.000  0.000  0.000  1.000
    occupations:
  0.000  0.000  0.000  0.000  0.000
  0.000  0.000  0.000  0.000  0.000
  0.000  0.000  0.000  0.000  0.000
  0.000  0.000  0.000  0.000  0.000
  0.000  0.000  0.000  0.000  0.000
atomic mag. moment =     5.000000
atom    9   Tr[ns(na)] (up, down, total) =   5.00000  0.00000  5.00000
   spin  1
    eigenvalues:
  1.000  1.000  1.000  1.000  1.000
[...]
   spin  1
    eigenvalues:
  0.563  0.612  0.990  1.000  1.003
    eigenvectors:
  0.000  0.999  0.000  0.000  0.001
  0.000  0.001  0.000  0.011  0.988
  0.000  0.000  0.001  0.989  0.011
  0.000  0.000  0.999  0.001  0.000
  1.000  0.000  0.000  0.000  0.000
    occupations:
  0.612 -0.012 -0.005  0.005 -0.000
 -0.012  1.002  0.000 -0.000  0.000
 -0.005  0.000  0.999  0.000  0.000
  0.005 -0.000  0.000  0.990  0.000
 -0.000  0.000  0.000  0.000  0.563
   spin  2
    eigenvalues:
  0.124  0.176  0.213  0.405  0.410
    eigenvectors:
  0.002  0.005  0.000  0.002  0.991
  0.001  0.937  0.058  0.000  0.005
  0.000  0.057  0.942  0.000  0.001
  0.998  0.001  0.000  0.000  0.002
  0.000  0.000  0.000  0.998  0.002
    occupations:
  0.408  0.016  0.005 -0.011 -0.000
  0.016  0.179 -0.008  0.001 -0.002
  0.005 -0.008  0.211  0.001 -0.000
 -0.011  0.001  0.001  0.125 -0.000
 -0.000 -0.002 -0.000 -0.000  0.405
atomic mag. moment =     2.839693
atom    9   Tr[ns(na)] (up, down, total) =   4.09556  1.46074  5.55630
   spin  1
    eigenvalues:
  0.609  0.617  0.917  0.960  0.993
    eigenvectors:
  0.204  0.000  0.000  0.000  0.796
  0.000  1.000  0.000  0.000  0.000
  0.000  0.000  0.070  0.930  0.000
  0.796  0.000  0.000  0.000  0.204
  0.000  0.000  0.930  0.070  0.000
    occupations:
  0.914  0.000 -0.000 -0.155  0.000
  0.000  0.617  0.000 -0.000 -0.000
 -0.000  0.000  0.957 -0.000  0.011
 -0.155 -0.000 -0.000  0.687  0.000
  0.000 -0.000  0.011  0.000  0.920
   spin  2
    eigenvalues:
  0.181  0.207  0.213  0.413  0.447
    eigenvectors:
  0.830  0.000  0.000  0.169  0.000
  0.000  0.000  0.000  0.000  1.000
  0.000  0.917  0.083  0.000  0.000
  0.169  0.000  0.000  0.830  0.000
  0.000  0.083  0.917  0.000  0.000
    occupations:
  0.220 -0.001  0.000  0.087 -0.000
 -0.001  0.447 -0.000  0.001 -0.000
  0.000 -0.000  0.207  0.000  0.002
  0.087  0.001  0.000  0.374 -0.000
 -0.000 -0.000  0.002 -0.000  0.213
atomic mag. moment =     2.634813
atom   10   Tr[ns(na)] (up, down, total) =   4.30399  1.14108  5.44506
   spin  1
    eigenvalues:
  0.588  0.724  0.993  0.995  1.004
    eigenvectors:
  0.000  0.996  0.001  0.004  0.000
  0.000  0.000  0.988  0.012  0.000
  0.000  0.000  0.000  0.000  1.000
  0.000  0.004  0.012  0.984  0.000
  1.000  0.000  0.000  0.000  0.000
    occupations:
  0.725 -0.004  0.001  0.017 -0.000
 -0.004  0.993  0.000  0.000 -0.000
  0.001  0.000  1.004 -0.000  0.003
  0.017  0.000 -0.000  0.994 -0.000
 -0.000 -0.000  0.003 -0.000  0.588
   spin  2
    eigenvalues:
  0.118  0.175  0.183  0.273  0.392
    eigenvectors:
  0.010  0.000  0.000  0.990  0.000
  0.000  1.000  0.000  0.000  0.000
  0.000  0.000  1.000  0.000  0.000
  0.990  0.000  0.000  0.010  0.000
  0.000  0.000  0.000  0.000  1.000
    occupations:
  0.271  0.001 -0.001 -0.015  0.000
  0.001  0.175 -0.000  0.000  0.000
 -0.001 -0.000  0.183 -0.000 -0.002
 -0.015  0.000 -0.000  0.120 -0.000
  0.000  0.000 -0.002 -0.000  0.392
atomic mag. moment =     3.162909
atom   16   Tr[ns(na)] (up, down, total) =   4.17437  1.32718  5.50154
   spin  1
    eigenvalues:
  0.588  0.596  0.992  0.994  1.004
    eigenvectors:
  0.018  0.231  0.738  0.005  0.007
  0.939  0.060  0.000  0.001  0.000
  0.000  0.000  0.008  0.002  0.990
  0.042  0.709  0.247  0.002  0.001
  0.001  0.000  0.007  0.991  0.001
    occupations:
  0.893  0.006 -0.004 -0.172  0.001
  0.006  0.589  0.001 -0.001 -0.010
 -0.004  0.001  1.004 -0.005 -0.000
 -0.172 -0.001 -0.005  0.694  0.000
  0.001 -0.010 -0.000  0.000  0.994
   spin  2
    eigenvalues:
  0.133  0.177  0.215  0.393  0.408
    eigenvectors:
  0.779  0.000  0.002  0.137  0.083
  0.000  0.003  0.000  0.418  0.579
  0.001  0.037  0.961  0.000  0.000
  0.220  0.000  0.000  0.444  0.336
  0.000  0.960  0.037  0.001  0.001
    occupations:
  0.192 -0.002 -0.001  0.110 -0.001
 -0.002  0.401 -0.001  0.009  0.011
 -0.001 -0.001  0.214  0.004  0.007
  0.110  0.009  0.004  0.341  0.000
 -0.001  0.011  0.007  0.000  0.179
atomic mag. moment =     2.847189
atom   17   Tr[ns(na)] (up, down, total) =   4.16580  1.32779  5.49359
   spin  1
    eigenvalues:
  0.563  0.612  0.991  0.998  1.002
    eigenvectors:
  0.000  0.999  0.000  0.000  0.001
  0.000  0.001  0.000  0.012  0.987
  0.000  0.000  0.001  0.987  0.012
  0.000  0.000  0.999  0.001  0.000
  1.000  0.000  0.000  0.000  0.000
    occupations:
  0.613 -0.012 -0.005  0.005 -0.000
 -0.012  1.002  0.000 -0.000  0.000
 -0.005  0.000  0.998  0.000  0.000
  0.005 -0.000  0.000  0.990  0.000
 -0.000  0.000  0.000  0.000  0.563
   spin  2
    eigenvalues:
  0.125  0.175  0.214  0.403  0.411
    eigenvectors:
  0.002  0.005  0.000  0.001  0.993
  0.001  0.942  0.053  0.000  0.004
  0.000  0.052  0.947  0.000  0.001
  0.998  0.001  0.000  0.000  0.001
  0.000  0.000  0.000  0.999  0.001
    occupations:
  0.410  0.016  0.005 -0.011 -0.000
  0.016  0.178 -0.008  0.000 -0.002
  0.005 -0.008  0.212  0.001 -0.000
 -0.011  0.000  0.001  0.125 -0.000
 -0.000 -0.002 -0.000 -0.000  0.403
atomic mag. moment =     2.838013
atom   22   Tr[ns(na)] (up, down, total) =   4.08599  1.47345  5.55944
   spin  1
    eigenvalues:
  0.609  0.615  0.913  0.956  0.993
    eigenvectors:
  0.203  0.002  0.000  0.000  0.796
  0.008  0.992  0.000  0.000  0.000
  0.000  0.000  0.084  0.916  0.000
  0.789  0.006  0.000  0.000  0.204
  0.000  0.000  0.916  0.084  0.000
    occupations:
  0.914  0.000 -0.000 -0.155  0.000
  0.000  0.615  0.000  0.001 -0.000
 -0.000  0.000  0.953 -0.000 -0.012
 -0.155  0.001 -0.000  0.687  0.000
  0.000 -0.000 -0.012  0.000  0.917
   spin  2
    eigenvalues:
  0.183  0.211  0.216  0.416  0.447
    eigenvectors:
  0.831  0.000  0.000  0.169  0.000
  0.000  0.000  0.000  0.000  0.999
  0.000  0.857  0.143  0.000  0.000
  0.169  0.000  0.000  0.831  0.000
  0.000  0.143  0.857  0.000  0.000
    occupations:
  0.222  0.001  0.000  0.087 -0.000
  0.001  0.447 -0.000 -0.001 -0.000
  0.000 -0.000  0.212  0.000 -0.002
  0.087 -0.001  0.000  0.377  0.000
 -0.000 -0.000 -0.002  0.000  0.215
atomic mag. moment =     2.612535
atom   23   Tr[ns(na)] (up, down, total) =   4.16897  1.31999  5.48896
   spin  1
    eigenvalues:
  0.573  0.617  0.986  0.991  1.001
    eigenvectors:
  0.000  1.000  0.000  0.000  0.000
  0.000  0.000  0.997  0.003  0.000
  0.000  0.000  0.000  0.000  1.000
  0.000  0.000  0.003  0.997  0.000
  1.000  0.000  0.000  0.000  0.000
    occupations:
  0.617  0.000  0.001  0.003 -0.000
  0.000  0.986  0.000 -0.000 -0.000
  0.001  0.000  1.001  0.000 -0.002
  0.003 -0.000  0.000  0.991 -0.000
 -0.000 -0.000 -0.002 -0.000  0.573
   spin  2
    eigenvalues:
  0.124  0.167  0.223  0.397  0.409
    eigenvectors:
  0.002  0.002  0.000  0.996  0.000
  0.001  0.997  0.000  0.002  0.000
  0.000  0.000  1.000  0.000  0.000
  0.998  0.000  0.000  0.002  0.000
  0.000  0.000  0.000  0.000  1.000
    occupations:
  0.396  0.010 -0.000 -0.012 -0.000
  0.010  0.168 -0.000 -0.002  0.000
 -0.000 -0.000  0.223  0.000  0.002
 -0.012 -0.002  0.000  0.125  0.000
 -0.000  0.000  0.002  0.000  0.409
atomic mag. moment =     2.848988
N of occupied +U levels =  44.0429436
 --- exit write_ns ---

 ------ SPIN UP ------------

[...]

 ------ SPIN DOWN ----------

[...]

          k = 0.2500-0.4606 0.0000 ( 26462 PWs)   bands (ev):

[...]

          k =-0.2500 0.2303 0.0000 ( 26396 PWs)   bands (ev):

   -80.7768 -80.7688 -80.5795 -80.5654 -80.4930 -80.4793 -80.4722 -80.2647
   -49.6919 -49.5957 -49.5500 -49.5376 -49.4946 -49.4826 -49.4805 -49.4660
   -49.4518 -49.4486 -49.4092 -49.3800 -49.3459 -49.3140 -49.2898 -49.2427
   -49.2400 -49.1575 -49.1416 -49.1368 -49.0977 -49.0775 -49.0653 -48.8807
   -21.8549 -21.4216 -21.0581 -20.8025 -20.6051 -20.3245 -20.2461 -20.1591
   -20.0443 -20.0157 -19.9379 -19.8478 -19.8251 -19.7093 -19.5548 -19.5165
   -19.3912 -19.2210 -19.0159  -9.3636  -9.1045  -8.5791  -8.4691  -8.4338
    -8.0922  -8.0153  -7.9396  -7.7726  -7.7295  -7.6324  -7.4932  -7.4012
    -7.2790  -7.2017  -7.1252  -7.0320  -6.9466  -6.9107  -6.7274  -6.6563
    -6.5033  -6.4424  -6.3960  -6.2639  -6.0744  -5.8586  -5.7782  -5.7335
    -5.6198  -5.5334  -5.4958  -5.4581  -5.3224  -5.2631  -5.1852  -4.9849
    -4.9399  -4.7630  -4.6920  -4.5658  -4.4771  -4.3516  -4.2522  -4.1902
    -4.1572  -4.0380  -3.8387  -3.7592  -3.6604  -3.5659  -3.4138  -3.3179
    -3.1382  -3.0380  -2.9450  -2.6421  -0.8399  -0.7234  -0.6925  -0.6728
    -0.5570  -0.5309  -0.4925  -0.4041  -0.3115  -0.2743  -0.2092  -0.1775
    -0.0816  -0.0287  -0.0177   0.1023   0.1818   0.2305   0.2702   0.3469
     0.4934   0.6075   0.6349   0.7446   0.8823   0.9583   1.0285   1.1715
     1.3912   1.4006   1.5569   1.7698   1.9428   1.9578   2.2388   2.3217
     2.3443   2.5682   2.7079   2.8105   3.7153   4.0636   4.3418   4.8147
     5.3238   5.6396   5.7555   6.0220   6.2702   6.4543   6.5486   6.6799
     6.7954   6.9556   7.0571   7.3704   7.5003   7.7443   7.9220   8.0267
     8.2742   8.3837   8.4773   8.6296   8.7207   8.9109   9.0818   9.1995
     9.3006   9.3522   9.4926   9.5907   9.7354   9.8494   9.9655  10.0894
    10.1700  10.2377  10.3882  10.4858  10.6262  10.7107  10.7894  10.9908
    11.0743  11.1362  11.2000  11.3033  11.4275  11.5013  11.5653  11.6891
    11.7477  11.8615  11.9181  12.0467  12.0744  12.1785  12.2285  12.4036
    12.4487  12.4869  12.6572  12.7403  12.8677  12.9099  12.9700  13.0418
    13.1142  13.1387  13.1831  13.2690  13.3903  13.4252  13.5204  13.5916
    13.6811  13.7945  13.8235  13.8599  13.9382  14.0209  14.0925  14.1029
    14.2089  14.3437  14.3982  14.5041  14.5437  14.6087  14.6954  14.7971
    14.8273  14.8705  14.9421  14.9947  15.0893  15.1556  15.2813  15.3207
    15.4284  15.4730  15.5880  15.6935  15.7313  15.8355  15.8767  16.0644
    16.0931  16.1989  16.2568  16.3315  16.4120  16.5079  16.5184  16.5598
    16.6523  16.7465  16.8746  16.9196  16.9867  17.0830  17.1366  17.2088
    17.2816  17.3475  17.4132  17.4775  17.5277  17.6503  17.6925  17.7612
    17.8437  17.9231  17.9850  18.0562  18.0986  18.2188  18.2872  18.3291
    18.3882  18.4829  18.5398  18.5875  18.6456  18.7653  18.8341  18.9422
    19.0401  19.0839  19.1596  19.1938  19.2439  19.3360  19.4169  19.4937
    19.5336  19.6379  19.7571  19.8194  19.8920  19.9563  20.0478  20.0793
    20.1253  20.2653  20.3332  20.3574  20.3788  20.5064  20.6295  20.6560
    20.7645  20.8830  20.9870  21.0203  21.0540  21.1141  21.1908  21.2341
    21.3939  21.4133  21.5063  21.5867  21.6607  21.7146  21.7530  21.8501
    21.9064  21.9979  22.0745  22.1346  22.2209  22.3445  22.4015  22.4995
    22.5681  22.6330

     the spin up/dw Fermi energies are    -2.0178   -2.3997 ev

!    total energy              =   -2321.63698698 Ry
     Harris-Foulkes estimate   =   -2321.63698699 Ry
     estimated scf accuracy    <          8.3E-09 Ry

     The total energy is the sum of the following terms:

     one-electron contribution =  -26736.37842569 Ry
     hartree contribution      =   13386.39240427 Ry
     xc contribution           =    -349.03456596 Ry
     ewald contribution        =   11376.75331699 Ry
     Hubbard energy            =       0.63024969 Ry
     smearing contrib. (-TS)   =       0.00003373 Ry

     total magnetization       =    23.00 Bohr mag/cell
     absolute magnetization    =    25.82 Bohr mag/cell

     convergence has been achieved in  17 iterations

     Forces acting on atoms (Ry/au):

     negative rho (up, down):  0.224E-02 0.132E-02
     atom    1 type  1   force =    -0.00459089   -0.01590971    0.00042157
     atom    2 type  1   force =     0.00026063    0.01226491    0.00006088
     atom    3 type  2   force =     0.03527607   -0.00345741    0.00003723
     atom    4 type  2   force =     0.00536575    0.01210034   -0.00005305
     atom    5 type  1   force =     0.00139817    0.00976948   -0.00011071
     atom    6 type  1   force =    -0.00447604   -0.01295833   -0.00002946
     atom    7 type  1   force =     0.00271782    0.00107345   -0.00053869
     atom    8 type  1   force =     0.00141374   -0.00174708   -0.00046320
     atom    9 type  2   force =     0.00173614    0.00018758    0.00004408
     atom   10 type  2   force =    -0.00433220   -0.00111346    0.00035173
     atom   11 type  1   force =    -0.02180992   -0.05492643    0.00002370
     atom   12 type  1   force =    -0.02207725    0.05512619    0.00003094
     atom   13 type  1   force =    -0.00180332   -0.00022916    0.00001702
     atom   14 type  1   force =    -0.00524413   -0.01625257    0.00049788
     atom   15 type  1   force =     0.00040177    0.01249118   -0.00026476
     atom   16 type  2   force =    -0.03642443   -0.00337006    0.00004033
     atom   17 type  2   force =     0.00570943    0.01210826   -0.00007573
     atom   18 type  1   force =     0.00467002    0.00950660   -0.00011604
     atom   19 type  1   force =    -0.00077190   -0.01294370   -0.00003331
     atom   20 type  1   force =    -0.00226464    0.00045960    0.00081243
     atom   21 type  1   force =    -0.00280996   -0.00167843   -0.00064874
     atom   22 type  2   force =     0.00104019    0.00036942    0.00008455
     atom   23 type  2   force =     0.00420328   -0.00040754    0.00034740
     atom   24 type  1   force =     0.02040137   -0.05001619   -0.00023766
     atom   25 type  1   force =     0.02078154    0.05017533   -0.00020991
     atom   26 type  1   force =     0.00146268   -0.00025887    0.00020023
     atom   27 type  3   force =     0.00000169   -0.00028411   -0.00036877
     atom   28 type  3   force =     0.00000776   -0.00008378   -0.00043120
     atom   29 type  3   force =    -0.00034099   -0.00001632   -0.00024605
     atom   30 type  3   force =    -0.00036005   -0.00002647   -0.00019357
     atom   31 type  1   force =     0.00037716    0.00003630    0.00075213
     atom   32 type  3   force =     0.00008051    0.00001097    0.00029877

     Total force =     0.002020     Total SCF correction =     0.000248
     SCF correction compared to forces is large: reduce conv_thr to get better values

     bfgs converged in  10 scf cycles and   9 bfgs steps
     (criteria: energy < 0.10E-03, force < 0.10E-02)

     End of BFGS Geometry Optimization

     Final energy   =   -2321.6369869793 Ry
Begin final coordinates

ATOMIC_POSITIONS (crystal)
O0       0.000000000   0.000000000   0.377348308    0   0   1
O0       0.000000000   0.500000000   0.398439903    0   0   1
Mn1      0.250000000   0.500000000   0.449866453    0   0   1
Mn1      0.000000000   0.000000000   0.448583133    0   0   1
O0       0.250000000   0.800000000   0.448578575    0   0   1
O0       0.250000000   0.200000000   0.450097034    0   0   1
O0       0.000000000   0.500000000   0.496174929    0   0   1
O0       0.000000000   0.000000000   0.524231687    0   0   1
Mn1      0.250000000   0.000000000   0.573166218    0   0   1
Mn1      0.000000000   0.500000000   0.566626872    0   0   1
O0       0.250000000   0.700000000   0.577279462    0   0   1
O0       0.250000000   0.300000000   0.577425639    0   0   1
O0       0.000000000   0.000000000   0.617839686    0   0   1
O0       0.500000000   0.000000000   0.377707001    0   0   1
O0       0.500000000   0.500000000   0.398611803    0   0   1
Mn1      0.750000000   0.500000000   0.449882981    0   0   1
Mn1      0.500000000   0.000000000   0.449091777    0   0   1
O0       0.750000000   0.800000000   0.448557238    0   0   1
O0       0.750000000   0.200000000   0.450093009    0   0   1
O0       0.500000000   0.500000000   0.496591951    0   0   1
O0       0.500000000   0.000000000   0.524222448    0   0   1
Mn1      0.750000000   0.000000000   0.573444688    0   0   1
Mn1      0.500000000   0.500000000   0.578442029    0   0   1
O0       0.750000000   0.700000000   0.575127871    0   0   1
O0       0.750000000   0.300000000   0.575294689    0   0   1
O0       0.500000000   0.000000000   0.617905302    0   0   1
H2       0.000119907   0.646897703   0.382274868
H2       0.500166783   0.647257972   0.382536410
H2       0.161907446   0.037034690   0.365920146
H2       0.661617778   0.037131423   0.366135752
O0       0.517157773   0.500410394   0.647685917
H2       0.358335592   0.500257325   0.662696222
End final coordinates

     General routines

     Parallel routines
     Hubbard U routines

   This run was terminated on:   9:30: 9   5May2014

   JOB DONE.
Running PBS batch system epilogue script
Job id: 340691.audhumbla.fysik.dtu.dk
Username: zhonxu
Groupname: campgst
Jobname: MnO2/Eads-2-layers/OH-U-1.5
Sessionid: 6478
Queuename: verylong
Accounting:
This job has allocated the following 16 nodes:
d070 d070 d070 d070 d070 d070 d070 d070 d026 d026 d026 d026 d026 d026 d026 d026
Finished epilogue job 340691.audhumbla.fysik.dtu.dk for zhonxu