     Program PWSCF v.5.0.2 (svn rev. 9656) starts on 30May2014 at  0:33:13

     Current dimensions of program PWSCF are:
     Max number of different atomic species (ntypx) = 10
     Max number of k-points (npk) =  40000
     Max angular momentum in pseudopotentials (lmaxx) =  3
     Reading input from pwscf.in
Warning: card &CELL ignored
Warning: card / ignored

     Subspace diagonalization in iterative solution of the eigenvalue problem:
     a serial algorithm will be used

     bravais-lattice index     =            0
     lattice parameter (alat)  =      12.0187  a.u.
     unit-cell volume          =    7280.5819 (a.u.)^3
     number of atoms/cell      =           33
     number of atomic types    =            3
     number of electrons       =       245.00
     number of Kohn-Sham states=          367
     kinetic-energy cutoff     =      40.0000  Ry
     charge density cutoff     =     500.0000  Ry
     convergence threshold     =      1.0E-06
     mixing beta               =       0.7000
     number of iterations used =            8  plain     mixing
     Exchange-correlation      = SLA  PW   PBE  PBE ( 1 4 3 4 0)
     EXX-fraction              =        0.00
     nstep                     =           50

     celldm(1)=  12.018658  celldm(2)=   0.000000  celldm(3)=   0.000000
     celldm(4)=   0.000000  celldm(5)=   0.000000  celldm(6)=   0.000000

     crystal axes: (cart. coord. in units of alat)
               a(1) = (   1.000000   0.000000   0.000000 )
               a(2) = (   0.000000   1.009517   0.000000 )
               a(3) = (   0.000000   0.000000   4.154171 )

     reciprocal axes: (cart. coord. in units 2 pi/alat)
               b(1) = (  1.000000  0.000000  0.000000 )
               b(2) = (  0.000000  0.990572  0.000000 )
               b(3) = (  0.000000  0.000000  0.240722 )

     PseudoPot. # 1 for O  read from file:
     /home/camp/zhonxu/pseudo/o_pbe_v1.01.uspp.F.UPF
     MD5 check sum: 2bcb18d16ea4b960afae9ec6d52f22d2
     Pseudo is Ultrasoft + core correction, Zval =  6.0
     Generated by new atomic code, or converted to UPF format
     Using radial grid of  737 points,  5 beta functions with:
                l(1) =   0
                l(2) =   0
                l(3) =   1
                l(4) =   1
                l(5) =   2
     Q(r) pseudized with  8 coefficients,  rinner =    0.900   0.900   0.900
                                                       0.900   0.900

     PseudoPot. # 2 for Ir read from file:
     /home/camp/zhonxu/pseudo/ir_pbe_v1.uspp.F.UPF
     MD5 check sum: abf987a9674477536ede83817f8f8b70
     Pseudo is Ultrasoft + core correction, Zval = 15.0
     Generated by new atomic code, or converted to UPF format
     Using radial grid of  983 points,  7 beta functions with:
                l(1) =   0
                l(2) =   0
                l(3) =   1
                l(4) =   1
                l(5) =   1
                l(6) =   2
                l(7) =   2
     Q(r) pseudized with  8 coefficients,  rinner =    1.350   1.350   1.350
                                                       1.350   1.350

     PseudoPot. # 3 for H  read from file:
     /home/camp/zhonxu/pseudo/h_pbe_v1.uspp.F.UPF
     MD5 check sum: 3408e3ff4ec8b0a4e358431e7e038a48
     Pseudo is Ultrasoft, Zval =  1.0
     Generated by new atomic code, or converted to UPF format
     Using radial grid of  615 points,  2 beta functions with:
                l(1) =   0
                l(2) =   0
     Q(r) pseudized with  8 coefficients,  rinner =    0.700

     atomic species   valence    mass     pseudopotential
        O0             6.00    15.99940     O ( 1.00)
        Ir1           15.00   192.22000     Ir( 1.00)
        H2             1.00     1.00794     H ( 1.00)

     Simplified LDA+U calculation (l_max = 2) with parameters (eV):
     atomic species    L          U    alpha       J0     beta
        Ir1            2     6.0000   0.0000   0.0000   0.0000

     No symmetry found

   Cartesian axes

     site n.     atom                  positions (alat units)
         1           O0  tau(   1) = (   0.0000000   0.0000000   1.5694875  )
         2           O0  tau(   2) = (   0.0000000   0.5047586   1.6702677  )
         3           Ir1 tau(   3) = (   0.2500000   0.5047586   1.8805934  )
         4           Ir1 tau(   4) = (   0.0000000   0.0000000   1.8807595  )
         5           O0  tau(   5) = (   0.2500000   0.8177090   1.8801779  )
         6           O0  tau(   6) = (   0.2500000   0.1918083   1.8787655  )
         7           O0  tau(   7) = (   0.0000000   0.5047586   2.0695666  )
         8           O0  tau(   8) = (   0.0000000   0.0000000   2.1948564  )
         9           Ir1 tau(   9) = (   0.2500000   0.0000000   2.3901025  )
        10           Ir1 tau(  10) = (   0.0000000   0.5047586   2.3742751  )
        11           O0  tau(  11) = (   0.2500000   0.6965669   2.3856575  )
        12           O0  tau(  12) = (   0.2500000   0.3129503   2.3949628  )
        13           O0  tau(  13) = (   0.0000000   0.0000000   2.5754200  )
        14           O0  tau(  14) = (   0.5000000   0.0000000   1.5694875  )
        15           O0  tau(  15) = (   0.5000000   0.5047586   1.6704338  )
        16           Ir1 tau(  16) = (   0.7500000   0.5047586   1.8805934  )
        17           Ir1 tau(  17) = (   0.5000000   0.0000000   1.8805518  )
        18           O0  tau(  18) = (   0.7500000   0.8177090   1.8801364  )
        19           O0  tau(  19) = (   0.7500000   0.1918083   1.8788486  )
        20           O0  tau(  20) = (   0.5000000   0.5047586   2.0759640  )
        21           O0  tau(  21) = (   0.5000000   0.0000000   2.1945241  )
        22           Ir1 tau(  22) = (   0.7500000   0.0000000   2.3900609  )
        23           Ir1 tau(  23) = (   0.5000000   0.5047586   2.3998648  )
        24           O0  tau(  24) = (   0.7500000   0.6965669   2.3856575  )
        25           O0  tau(  25) = (   0.7500000   0.3129503   2.3949628  )
        26           O0  tau(  26) = (   0.5000000   0.0000000   2.5728445  )
        27           H2  tau(  27) = (   0.0000400   0.6420328   1.5957418  )
        28           H2  tau(  28) = (   0.4999400   0.6424971   1.5965311  )
        29           H2  tau(  29) = (   0.1432100   0.0360095   1.5217560  )
        30           H2  tau(  30) = (   0.6436700   0.0339703   1.5215899  )
        31           O0  tau(  31) = (   0.4997900   0.5432313   2.6993805  )
        32           O0  tau(  32) = (   0.5001800   0.3480815   2.8224271  )
        33           H2  tau(  33) = (   0.4999800   0.4114489   2.9642920  )

     number of k points=    10  Methfessel-Paxton smearing, width (Ry)=  0.0100
                       cart. coord. in units 2pi/alat
        k(    1) = (   0.0000000   0.0000000   0.0000000), wk =   0.1250000
        k(    2) = (   0.0000000   0.2476431   0.0000000), wk =   0.2500000
        k(    3) = (   0.0000000  -0.4952862   0.0000000), wk =   0.1250000
        k(    4) = (   0.2500000   0.0000000   0.0000000), wk =   0.2500000
        k(    5) = (   0.2500000   0.2476431   0.0000000), wk =   0.2500000
        k(    6) = (   0.2500000  -0.4952862   0.0000000), wk =   0.2500000
        k(    7) = (  -0.5000000   0.0000000   0.0000000), wk =   0.1250000
        k(    8) = (  -0.5000000   0.2476431   0.0000000), wk =   0.2500000
        k(    9) = (  -0.5000000  -0.4952862   0.0000000), wk =   0.1250000
        k(   10) = (  -0.2500000   0.2476431   0.0000000), wk =   0.2500000

     Largest allocated arrays     est. size (Mb)     dimensions
     Largest temporary arrays     est. size (Mb)     dimensions

     Check: negative/imaginary core charge=   -0.000003    0.000000

     Initial potential from superposition of free atoms
     Check: negative starting charge=   -3.336869

     starting charge  240.99967, renormalised to  245.00000

     negative rho (up, down):  0.339E+01 0.000E+00
     Number of +U iterations with fixed ns =  0
     Starting occupations:
 --- enter write_ns ---
 LDA+U parameters:
U( 2)     =  6.00000000
alpha( 2) =  0.00000000
atom    3   Tr[ns(na)] =   7.00000
    eigenvalues:
  0.700  0.700  0.700  0.700  0.700
    eigenvectors:
  1.000  0.000  0.000  0.000  0.000
  0.000  1.000  0.000  0.000  0.000
  0.000  0.000  1.000  0.000  0.000
  0.000  0.000  0.000  1.000  0.000
  0.000  0.000  0.000  0.000  1.000
    occupations:
  0.700  0.000  0.000  0.000  0.000
  0.000  0.700  0.000  0.000  0.000
  0.000  0.000  0.700  0.000  0.000
  0.000  0.000  0.000  0.700  0.000
  0.000  0.000  0.000  0.000  0.700
atom    4   Tr[ns(na)] =   7.00000
    eigenvalues:
  0.700  0.700  0.700  0.700  0.700
    eigenvectors:
  1.000  0.000  0.000  0.000  0.000
  0.000  1.000  0.000  0.000  0.000
  0.000  0.000  1.000  0.000  0.000
  0.000  0.000  0.000  1.000  0.000
  0.000  0.000  0.000  0.000  1.000
    occupations:
  0.700  0.000  0.000  0.000  0.000
  0.000  0.700  0.000  0.000  0.000
  0.000  0.000  0.700  0.000  0.000
  0.000  0.000  0.000  0.700  0.000
  0.000  0.000  0.000  0.000  0.700
atom    9   Tr[ns(na)] =   7.00000
    eigenvalues:
  0.700  0.700  0.700  0.700  0.700
    eigenvectors:
  1.000  0.000  0.000  0.000  0.000
  0.000  1.000  0.000  0.000  0.000
  0.000  0.000  1.000  0.000  0.000
  0.000  0.000  0.000  1.000  0.000
  0.000  0.000  0.000  0.000  1.000
    occupations:
  0.700  0.000  0.000  0.000  0.000
  0.000  0.700  0.000  0.000  0.000
  0.000  0.000  0.700  0.000  0.000
  0.000  0.000  0.000  0.700  0.000
  0.000  0.000  0.000  0.000  0.700
atom   10   Tr[ns(na)] =   7.00000
    eigenvalues:
  0.700  0.700  0.700  0.700  0.700
    eigenvectors:
  1.000  0.000  0.000  0.000  0.000
  0.000  1.000  0.000  0.000  0.000
  0.000  0.000  1.000  0.000  0.000
  0.000  0.000  0.000  1.000  0.000
  0.000  0.000  0.000  0.000  1.000
    occupations:
  0.700  0.000  0.000  0.000  0.000
  0.000  0.700  0.000  0.000  0.000
  0.000  0.000  0.700  0.000  0.000
  0.000  0.000  0.000  0.700  0.000
  0.000  0.000  0.000  0.000  0.700
atom   16   Tr[ns(na)] =   7.00000
    eigenvalues:
  0.700  0.700  0.700  0.700  0.700
    eigenvectors:
  1.000  0.000  0.000  0.000  0.000
  0.000  1.000  0.000  0.000  0.000
  0.000  0.000  1.000  0.000  0.000
  0.000  0.000  0.000  1.000  0.000
  0.000  0.000  0.000  0.000  1.000
    occupations:
  0.700  0.000  0.000  0.000  0.000
  0.000  0.700  0.000  0.000  0.000
  0.000  0.000  0.700  0.000  0.000
  0.000  0.000  0.000  0.700  0.000
  0.000  0.000  0.000  0.000  0.700
atom   17   Tr[ns(na)] =   7.00000
    eigenvalues:
  0.700  0.700  0.700  0.700  0.700
    eigenvectors:
  1.000  0.000  0.000  0.000  0.000
  0.000  1.000  0.000  0.000  0.000
  0.000  0.000  1.000  0.000  0.000
  0.000  0.000  0.000  1.000  0.000
  0.000  0.000  0.000  0.000  1.000
    occupations:
  0.700  0.000  0.000  0.000  0.000
  0.000  0.700  0.000  0.000  0.000
  0.000  0.000  0.700  0.000  0.000
  0.000  0.000  0.000  0.700  0.000
  0.000  0.000  0.000  0.000  0.700
atom   22   Tr[ns(na)] =   7.00000
    eigenvalues:
  0.700  0.700  0.700  0.700  0.700
    eigenvectors:
  1.000  0.000  0.000  0.000  0.000
  0.000  1.000  0.000  0.000  0.000
[...]
 -0.001 -0.000 -0.003  0.001  0.912
atom   10   Tr[ns(na)] =   8.15570
    eigenvalues:
  0.577  0.612  0.949  0.955  0.986
    eigenvectors:
  0.991  0.000  0.000  0.000  0.009
  0.000  0.001  0.998  0.002  0.000
  0.000  0.000  0.002  0.998  0.000
  0.009  0.000  0.000  0.000  0.991
  0.000  0.999  0.001  0.000  0.000
    occupations:
  0.581  0.000  0.007  0.038 -0.000
  0.000  0.948 -0.000  0.000 -0.009
  0.007 -0.000  0.954 -0.000 -0.000
  0.038  0.000 -0.000  0.982  0.000
 -0.000 -0.009 -0.000  0.000  0.613
atom   16   Tr[ns(na)] =   8.20212
    eigenvalues:
  0.606  0.633  0.905  0.972  0.984
    eigenvectors:
  0.006  0.177  0.004  0.001  0.813
  0.976  0.024  0.000  0.000  0.000
  0.000  0.000  0.991  0.006  0.004
  0.019  0.799  0.000  0.000  0.182
  0.000  0.000  0.005  0.993  0.001
    occupations:
  0.919  0.005  0.003 -0.135  0.001
  0.005  0.607 -0.000  0.002 -0.005
  0.003 -0.000  0.906 -0.004 -0.005
 -0.135  0.002 -0.004  0.697 -0.000
  0.001 -0.005 -0.005 -0.000  0.972
atom   17   Tr[ns(na)] =   8.20251
    eigenvalues:
  0.619  0.670  0.891  0.935  0.986
    eigenvectors:
  0.000  0.989  0.000  0.000  0.011
  0.000  0.000  0.066  0.934  0.000
  0.000  0.000  0.934  0.066  0.000
  0.000  0.011  0.000  0.000  0.989
  1.000  0.000  0.000  0.000  0.000
    occupations:
  0.674 -0.003 -0.001  0.032  0.001
 -0.003  0.932  0.011  0.000 -0.002
 -0.001  0.011  0.894 -0.000  0.001
  0.032  0.000 -0.000  0.983  0.000
  0.001 -0.002  0.001  0.000  0.619
atom   22   Tr[ns(na)] =   8.19385
    eigenvalues:
  0.655  0.671  0.873  0.913  0.985
    eigenvectors:
  0.000  0.139  0.000  0.000  0.861
  1.000  0.000  0.000  0.000  0.000
  0.000  0.000  0.993  0.007  0.000
  0.000  0.861  0.000  0.000  0.139
  0.000  0.000  0.007  0.993  0.000
    occupations:
  0.941  0.001  0.000 -0.109  0.000
  0.001  0.655  0.001 -0.001 -0.000
  0.000  0.001  0.874 -0.004  0.003
 -0.109 -0.001 -0.004  0.714  0.001
  0.000 -0.000  0.003  0.001  0.913
atom   23   Tr[ns(na)] =   8.20967
    eigenvalues:
  0.620  0.663  0.878  0.959  0.985
    eigenvectors:
  0.000  0.992  0.000  0.003  0.005
  0.001  0.000  0.998  0.000  0.000
  0.000  0.002  0.000  0.996  0.002
  0.000  0.005  0.000  0.001  0.993
  0.999  0.000  0.001  0.000  0.000
    occupations:
  0.665 -0.000  0.014  0.023 -0.000
 -0.000  0.877 -0.001 -0.000 -0.010
  0.014 -0.001  0.958 -0.002  0.000
  0.023 -0.000 -0.002  0.984 -0.000
 -0.000 -0.010  0.000 -0.000  0.621
N of occupied +U levels =  65.5639852
 --- exit write_ns ---

     Threshold (ethr) on eigenvalues was too large:
     Diagonalizing with lowered threshold

     Davidson diagonalization with overlap
     ethr =  1.65E-08,  avg # of iterations =  2.0

[...]

     total energy              =   -2137.16376897 Ry
     Harris-Foulkes estimate   =   -2137.16376897 Ry
     estimated scf accuracy    <       0.00000002 Ry

     iteration # 15     ecut=    40.00 Ry     beta=0.70
     Davidson diagonalization with overlap
     ethr =  9.01E-12,  avg # of iterations =  1.0

     negative rho (up, down):  0.314E+01 0.000E+00

     End of self-consistent calculation
 --- enter write_ns ---
 LDA+U parameters:
U( 2)     =  6.00000000
alpha( 2) =  0.00000000
atom    3   Tr[ns(na)] =   8.20198
    eigenvalues:
  0.606  0.633  0.905  0.972  0.984
    eigenvectors:
  0.006  0.177  0.003  0.000  0.814
  0.975  0.025  0.000  0.000  0.000
  0.000  0.000  0.988  0.009  0.003
  0.019  0.798  0.000  0.000  0.182
  0.000  0.000  0.009  0.990  0.001
    occupations:
  0.919 -0.005  0.003 -0.135 -0.001
 -0.005  0.607 -0.001 -0.002 -0.005
  0.003 -0.001  0.906 -0.004  0.006
 -0.135 -0.002 -0.004  0.697 -0.000
 -0.001 -0.005  0.006 -0.000  0.972
atom    4   Tr[ns(na)] =   8.20344
    eigenvalues:
  0.619  0.670  0.890  0.936  0.986
    eigenvectors:
  0.000  0.989  0.000  0.000  0.011
  0.000  0.000  0.076  0.923  0.000
  0.000  0.000  0.924  0.076  0.000
  0.000  0.011  0.000  0.000  0.989
  1.000  0.000  0.000  0.000  0.000
    occupations:
  0.674 -0.003 -0.001  0.032  0.001
 -0.003  0.932  0.012  0.000 -0.002
 -0.001  0.012  0.894 -0.000  0.001
  0.032  0.000 -0.000  0.983  0.000
  0.001 -0.002  0.001  0.000  0.619
atom    9   Tr[ns(na)] =   8.19349
    eigenvalues:
  0.655  0.671  0.873  0.913  0.985
    eigenvectors:
  0.000  0.139  0.001  0.000  0.860
  0.998  0.002  0.000  0.000  0.000
  0.000  0.000  0.991  0.008  0.000
  0.002  0.859  0.000  0.000  0.139
  0.000  0.000  0.008  0.992  0.000
    occupations:
  0.941 -0.001  0.000 -0.109 -0.001
 -0.001  0.655  0.000  0.001 -0.000
  0.000  0.000  0.874 -0.004 -0.003
 -0.109  0.001 -0.004  0.714  0.001
 -0.001 -0.000 -0.003  0.001  0.912
atom   10   Tr[ns(na)] =   8.15604
    eigenvalues:
  0.577  0.612  0.948  0.955  0.986
    eigenvectors:
  0.991  0.000  0.000  0.000  0.009
  0.000  0.001  0.998  0.002  0.000
  0.000  0.000  0.002  0.998  0.000
  0.009  0.000  0.000  0.000  0.991
  0.000  0.999  0.001  0.000  0.000
    occupations:
  0.581  0.000  0.007  0.038 -0.000
  0.000  0.948 -0.000  0.000 -0.009
  0.007 -0.000  0.954 -0.000 -0.000
  0.038  0.000 -0.000  0.982  0.000
 -0.000 -0.009 -0.000  0.000  0.613
atom   16   Tr[ns(na)] =   8.20193
    eigenvalues:
  0.606  0.633  0.905  0.972  0.984
    eigenvectors:
  0.006  0.177  0.004  0.001  0.813
  0.976  0.024  0.000  0.000  0.000
  0.000  0.000  0.991  0.006  0.004
  0.019  0.799  0.000  0.000  0.182
  0.000  0.000  0.005  0.993  0.001
    occupations:
  0.919  0.005  0.003 -0.135  0.001
  0.005  0.607 -0.000  0.002 -0.005
  0.003 -0.000  0.906 -0.004 -0.005
 -0.135  0.002 -0.004  0.697 -0.000
  0.001 -0.005 -0.005 -0.000  0.972
atom   17   Tr[ns(na)] =   8.20228
    eigenvalues:
  0.619  0.670  0.891  0.935  0.986
    eigenvectors:
  0.000  0.989  0.000  0.000  0.011
  0.000  0.000  0.066  0.934  0.000
  0.000  0.000  0.934  0.066  0.000
  0.000  0.011  0.000  0.000  0.989
  1.000  0.000  0.000  0.000  0.000
    occupations:
  0.674 -0.003 -0.001  0.032  0.001
 -0.003  0.932  0.011  0.000 -0.002
 -0.001  0.011  0.894 -0.000  0.001
  0.032  0.000 -0.000  0.983  0.000
  0.001 -0.002  0.001  0.000  0.619
atom   22   Tr[ns(na)] =   8.19350
    eigenvalues:
  0.655  0.671  0.873  0.913  0.985
    eigenvectors:
  0.000  0.139  0.000  0.000  0.861
  1.000  0.000  0.000  0.000  0.000
  0.000  0.000  0.993  0.007  0.000
  0.000  0.861  0.000  0.000  0.139
  0.000  0.000  0.007  0.993  0.000
    occupations:
  0.941  0.002  0.000 -0.109  0.000
  0.002  0.655  0.001 -0.001 -0.000
  0.000  0.001  0.873 -0.004  0.003
 -0.109 -0.001 -0.004  0.714  0.001
  0.000 -0.000  0.003  0.001  0.913
atom   23   Tr[ns(na)] =   8.21034
    eigenvalues:
  0.620  0.663  0.878  0.959  0.985
    eigenvectors:
  0.000  0.992  0.000  0.003  0.005
  0.001  0.000  0.998  0.000  0.000
  0.000  0.002  0.000  0.996  0.002
  0.000  0.005  0.000  0.001  0.993
  0.999  0.000  0.001  0.000  0.000
    occupations:
  0.665 -0.000  0.014  0.023 -0.000
 -0.000  0.878 -0.001 -0.000 -0.010
  0.014 -0.001  0.958 -0.002  0.000
  0.023 -0.000 -0.002  0.984 -0.000
 -0.000 -0.010  0.000 -0.000  0.621
N of occupied +U levels =  65.5629933
 --- exit write_ns ---

[...]

          k = 0.2500-0.4953 0.0000 ( 31088 PWs)   bands (ev):

[...]

          k =-0.2500 0.2476 0.0000 ( 31099 PWs)   bands (ev):

   -50.0248 -49.9052 -49.8995 -49.8679 -49.8590 -49.8092 -49.7863 -49.7621
   -49.7604 -49.7552 -49.7513 -49.7313 -49.6137 -49.6037 -49.5211 -49.5179
   -49.5088 -49.5002 -49.4522 -49.4413 -49.4388 -49.3962 -49.3856 -49.3757
   -23.5809 -20.8957 -20.6482 -20.6079 -20.5216 -20.1963 -20.1545 -20.1362
   -19.9801 -19.8648 -19.6887 -19.6399 -19.4864 -19.4483 -19.3714 -19.2831
   -19.1961 -18.4887 -18.3125 -17.3347 -10.1569 -10.0228  -9.7445  -9.6709
    -9.3305  -9.2685  -9.1618  -9.1189  -8.9872  -8.6510  -8.4715  -8.4346
    -8.3639  -8.2365  -8.0792  -7.9399  -7.8560  -7.7724  -7.6879  -7.3599
    -7.2353  -7.1130  -7.0090  -6.8941  -6.8565  -6.7742  -6.6929  -6.6021
    -6.4183  -6.2402  -6.1369  -6.0309  -5.9678  -5.9009  -5.8040  -5.7367
    -5.6886  -5.6466  -5.5282  -5.3703  -5.2575  -5.1977  -5.1297  -4.9421
    -4.7553  -4.5665  -4.3991  -4.2992  -4.2010  -4.1530  -3.9653  -3.9210
    -3.7762  -3.6636  -3.4307  -3.3565  -3.2317  -3.1774  -3.1150  -3.0149
    -2.9428  -2.8047  -2.7789  -2.6193  -2.5957  -2.5249  -2.5113  -2.4362
    -2.2291  -2.2060  -2.1175  -1.9871  -1.6987  -1.4140  -1.2009  -1.1714
    -0.9819  -0.9496  -0.7116  -0.5590  -0.3742  -0.3012  -0.0970   0.5476
     1.5501   1.5717   1.8305   2.1504   2.3314   2.7454   2.8847   3.0967
     3.2564   3.4235   3.4699   3.6517   3.7214   3.9005   3.9247   4.0660
     4.2694   4.4977   4.7744   5.2825   5.4302   5.7953   6.0616   6.1111
     6.2440   6.4200   6.5848   6.6504   6.7554   7.0518   7.1700   7.3147
     7.5185   7.6910   7.8590   7.9185   7.9833   8.2061   8.2964   8.3670
     8.3772   8.4826   8.7505   8.8104   8.9031   9.0930   9.1339   9.2122
     9.2508   9.4342   9.5631   9.6263   9.7098   9.7878   9.8657   9.9821
    10.0517  10.0776  10.1434  10.1510  10.1560  10.1755  10.1767  10.1834
    10.2148  10.3309  10.3652  10.3671  10.4090  10.4934  10.5428  10.5822
    10.6820  10.7307  10.8434  10.9579  11.0039  11.0686  11.1885  11.2288
    11.3195  11.3906  11.4726  11.5802  11.7263  11.7650  11.8197  11.9074
    11.9269  12.0913  12.1313  12.2211  12.3553  12.5020  12.5322  12.5490
    12.6071  12.6946  12.8184  12.8923  12.9989  13.0304  13.0958  13.2114
    13.2648  13.3118  13.3983  13.5494  13.6460  13.7317  13.7824  13.8871
    13.9253  13.9963  14.0601  14.1696  14.2220  14.2826  14.3505  14.4445
    14.4667  14.5489  14.6560  14.7586  14.8375  14.8896  15.0941  15.1209
    15.1512  15.2407  15.3896  15.4146  15.5507  15.6141  15.6624  15.6904
    15.7304  15.7955  15.8479  15.9427  15.9735  16.0389  16.0794  16.1020
    16.2198  16.2786  16.3505  16.4059  16.4829  16.5379  16.5672  16.6415
    16.7151  16.7577  16.7918  16.8607  16.9556  17.0141  17.1840  17.2465
    17.2979  17.3367  17.4008  17.4472  17.5095  17.5984  17.6416  17.6964
    17.7336  17.8291  17.8567  17.8851  17.9251  18.0110  18.0642  18.1524
    18.2270  18.3158  18.3947  18.5123  18.6051  18.6936  18.7638  18.7878
    18.8186  18.8832  19.0389  19.0539  19.1292  19.2212  19.2752  19.3766
    19.3899  19.4691  19.5663  19.6385  19.6979  19.7641  19.8195  19.8631
    19.9556  20.0102  20.1441  20.2629  20.3082  20.3781  20.4483  20.5358
    20.6526  20.6846  20.7483  20.7966  20.8162  20.8834  20.9378  21.0463
    21.1197  21.1360  21.1918  21.2492  21.2868  21.3205  21.3584  21.4458
    21.5134  21.5784  21.6755  21.6967  21.7266  21.8494  21.8748  21.9323
    21.9907  22.0299  22.0822  22.1521  22.2273  22.3142  22.4038

     the Fermi energy is    -0.7740 ev

!    total energy              =   -2137.16376896 Ry
     Harris-Foulkes estimate   =   -2137.16376897 Ry
     estimated scf accuracy    <          9.0E-09 Ry

     The total energy is the sum of the following terms:

     one-electron contribution =  -23164.36973809 Ry
     hartree contribution      =   11634.59331884 Ry
     xc contribution           =    -584.25023002 Ry
     ewald contribution        =    9974.67223221 Ry
     Hubbard energy            =       2.19062912 Ry
     smearing contrib. (-TS)   =       0.00001898 Ry

     convergence has been achieved in  15 iterations

     Forces acting on atoms (Ry/au):

     negative rho (up, down):  0.314E+01 0.000E+00
     atom    1 type  1   force =    -0.00726696   -0.01243338    0.00002709
     atom    2 type  1   force =     0.00011100    0.00333156   -0.00053931
     atom    3 type  2   force =     0.03069132    0.00571343    0.00007624
     atom    4 type  2   force =     0.00848538    0.00718671    0.00014077
     atom    5 type  1   force =    -0.00495637   -0.01979720   -0.00026837
     atom    6 type  1   force =     0.00583243    0.01934740   -0.00009247
     atom    7 type  1   force =    -0.00044340   -0.00424609   -0.00012943
     atom    8 type  1   force =    -0.00308629    0.00076844   -0.00005431
     atom    9 type  2   force =     0.00638577    0.00061294    0.00009473
     atom   10 type  2   force =    -0.00013298    0.00048181   -0.00003171
     atom   11 type  1   force =    -0.00174055    0.02141600    0.00013811
     atom   12 type  1   force =     0.00474796   -0.01620572    0.00017782
     atom   13 type  1   force =    -0.00077536   -0.00278886   -0.00013078
     atom   14 type  1   force =    -0.00663611   -0.01252694    0.00017462
     atom   15 type  1   force =     0.00007401    0.00343960   -0.00021246
     atom   16 type  2   force =    -0.03036070    0.00558432    0.00006109
     atom   17 type  2   force =     0.00831078    0.00769240    0.00012064
     atom   18 type  1   force =    -0.00406065   -0.02048788   -0.00025835
     atom   19 type  1   force =     0.00646108    0.01878017   -0.00009427
     atom   20 type  1   force =    -0.00031651   -0.00723901    0.00049432
     atom   21 type  1   force =    -0.00317085    0.00146383   -0.00013294
     atom   22 type  2   force =    -0.00409540    0.00014828    0.00014345
     atom   23 type  2   force =    -0.00045737    0.00367318   -0.00021254
     atom   24 type  1   force =     0.00134936    0.02118337    0.00016424
     atom   25 type  1   force =    -0.00385070   -0.01634804    0.00022316
     atom   26 type  1   force =    -0.00093619   -0.00982502    0.00048442
     atom   27 type  3   force =     0.00001309    0.00040114    0.00024827
     atom   28 type  3   force =     0.00002169    0.00035704    0.00058898
     atom   29 type  3   force =    -0.00008167    0.00016213    0.00021865
     atom   30 type  3   force =    -0.00024687    0.00025573    0.00007543
     atom   31 type  1   force =    -0.00017058   -0.00044076   -0.00001856
     atom   32 type  1   force =     0.00029768    0.00082218   -0.00079432
     atom   33 type  3   force =     0.00000396   -0.00048278   -0.00068221

     Total force =     0.002129     Total SCF correction =     0.000197

     entering subroutine stress ...

     negative rho (up, down):  0.314E+01 0.000E+00
          total   stress  (Ry/bohr**3)                   (kbar)     P=  -15.80
  -0.00013083   0.00000819   0.00000374        -19.25      1.21      0.55
   0.00000819  -0.00014154   0.00000447          1.21    -20.82      0.66
   0.00000374   0.00000447  -0.00004981          0.55      0.66     -7.33

     bfgs converged in   9 scf cycles and   8 bfgs steps
     (criteria: energy < 0.10E-03, force < 0.10E-02)

     End of BFGS Geometry Optimization

     Final energy   =   -2137.1637689614 Ry
Begin final coordinates

ATOMIC_POSITIONS (crystal)
O0       0.000000000   0.000000000   0.378258254    0   0   1
O0       0.000000000   0.500000000   0.402951839    0   0   1
Ir1      0.250000000   0.500000000   0.453013900    0   0   1
Ir1      0.000000000   0.000000000   0.452846077    0   0   1
O0       0.250000000   0.810000000   0.452916921    0   0   1
O0       0.250000000   0.190000000   0.452404346    0   0   1
O0       0.000000000   0.500000000   0.499037130    0   0   1
O0       0.000000000   0.000000000   0.528213651    0   0   1
Ir1      0.250000000   0.000000000   0.574771803    0   0   1
Ir1      0.000000000   0.500000000   0.571724865    0   0   1
O0       0.250000000   0.690000000   0.573700372    0   0   1
O0       0.250000000   0.310000000   0.575914741    0   0   1
O0       0.000000000   0.000000000   0.619433678    0   0   1
O0       0.500000000   0.000000000   0.378069043    0   0   1
O0       0.500000000   0.500000000   0.402744869    0   0   1
Ir1      0.750000000   0.500000000   0.453010771    0   0   1
Ir1      0.500000000   0.000000000   0.452627452    0   0   1
O0       0.750000000   0.810000000   0.452910777    0   0   1
O0       0.750000000   0.190000000   0.452421899    0   0   1
O0       0.500000000   0.500000000   0.499991079    0   0   1
O0       0.500000000   0.000000000   0.528123562    0   0   1
Ir1      0.750000000   0.000000000   0.574773166    0   0   1
Ir1      0.500000000   0.500000000   0.577029948    0   0   1
O0       0.750000000   0.690000000   0.573708769    0   0   1
O0       0.750000000   0.310000000   0.575929245    0   0   1
O0       0.500000000   0.000000000   0.618988600    0   0   1
H2      -0.000117092   0.634220656   0.384486296
H2       0.499806395   0.635560302   0.384808275
H2       0.143063007   0.036159576   0.366724642
H2       0.643619226   0.034463629   0.366602984
O0       0.499389354   0.535823383   0.649518409
O0       0.500599124   0.345887202   0.678822471
H2       0.499996750   0.407942276   0.713090168
End final coordinates

     General routines

     Parallel routines
     Hubbard U routines

   This run was terminated on:  13:59:44  30May2014

   JOB DONE.