     Program PWSCF v.5.0.2 (svn rev. 9656) starts on 24Jan2014 at 16: 7:16

     Current dimensions of program PWSCF are:
     Max number of different atomic species (ntypx) = 10
     Max number of k-points (npk) =  40000
     Max angular momentum in pseudopotentials (lmaxx) =  3
     Reading input from IrO2-v-1.10.in

     Subspace diagonalization in iterative solution of the eigenvalue problem:
     a serial algorithm will be used

     bravais-lattice index     =            0
     lattice parameter (alat)  =       9.1109  a.u.
     unit-cell volume          =     487.3829 (a.u.)^3
     number of atoms/cell      =            6
     number of atomic types    =            2
     number of electrons       =        54.00
     number of Kohn-Sham states=           78
     kinetic-energy cutoff     =      40.0000  Ry
     charge density cutoff     =     500.0000  Ry
     convergence threshold     =      1.0E-06
     mixing beta               =       0.3000
     number of iterations used =            8  plain     mixing
     Exchange-correlation      = SLA  PW   PBE  PBE ( 1 4 3 4 0)
     EXX-fraction              =        0.00
     nstep                     =           50

     celldm(1)=   9.110907  celldm(2)=   0.000000  celldm(3)=   0.000000
     celldm(4)=   0.000000  celldm(5)=   0.000000  celldm(6)=   0.000000

     crystal axes: (cart. coord. in units of alat)
               a(1) = (   1.000000   0.000000   0.000000 )
               a(2) = (   0.000000   1.000000   0.000000 )
               a(3) = (   0.000000   0.000000   0.644444 )

     reciprocal axes: (cart. coord. in units 2 pi/alat)
               b(1) = (  1.000000  0.000000  0.000000 )
               b(2) = (  0.000000  1.000000  0.000000 )
               b(3) = (  0.000000  0.000000  1.551724 )

     PseudoPot. # 1 for Ir read from file:
     /home/camp/zhonxu/pseudo/ir_pbe_v1.uspp.F.UPF
     MD5 check sum: abf987a9674477536ede83817f8f8b70
     Pseudo is Ultrasoft + core correction, Zval = 15.0
     Generated by new atomic code, or converted to UPF format
     Using radial grid of  983 points,  7 beta functions with:
                l(1) =   0
                l(2) =   0
                l(3) =   1
                l(4) =   1
                l(5) =   1
                l(6) =   2
                l(7) =   2
     Q(r) pseudized with  8 coefficients,  rinner =    1.350   1.350   1.350
                                                       1.350   1.350

     PseudoPot. # 2 for O  read from file:
     /home/camp/zhonxu/pseudo/o_pbe_v1.01.uspp.F.UPF
     MD5 check sum: 2bcb18d16ea4b960afae9ec6d52f22d2
     Pseudo is Ultrasoft + core correction, Zval =  6.0
     Generated by new atomic code, or converted to UPF format
     Using radial grid of  737 points,  5 beta functions with:
                l(1) =   0
                l(2) =   0
                l(3) =   1
                l(4) =   1
                l(5) =   2
     Q(r) pseudized with  8 coefficients,  rinner =    0.900   0.900   0.900
                                                       0.900   0.900

     atomic species   valence    mass     pseudopotential
        Ir0           15.00   192.22000     Ir( 1.00)
        O1             6.00    15.99940     O ( 1.00)

     Starting magnetic structure
     atomic species   magnetization
        Ir0          0.000
        O1           0.000

      8 Sym. Ops., with inversion, found
          (note:  8 additional sym.ops. were found but ignored
           their fractional translations are incommensurate with FFT grid)

   Cartesian axes

     site n.     atom                  positions (alat units)
         1           Ir0 tau(   1) = (   0.0000000   0.0000000   0.0000000  )
         2           Ir0 tau(   2) = (   0.5000000   0.5000000   0.3222222  )
         3           O1  tau(   3) = (   0.3050000   0.3050000   0.0000000  )
         4           O1  tau(   4) = (  -0.3050000  -0.3050000   0.0000000  )
         5           O1  tau(   5) = (   0.8050000   0.1950000   0.3222222  )
         6           O1  tau(   6) = (   0.1950000   0.8050000   0.3222222  )

     number of k points=    54  Methfessel-Paxton smearing, width (Ry)=  0.0100
                       cart. coord. in units 2pi/alat
        k(    1) = (   0.0000000   0.0000000   0.0000000), wk =   0.0080000
        k(    2) = (   0.0000000   0.0000000   0.3103448), wk =   0.0160000
        k(    3) = (   0.0000000   0.0000000   0.6206897), wk =   0.0160000
        k(    4) = (   0.0000000   0.2000000   0.0000000), wk =   0.0320000
        k(    5) = (   0.0000000   0.2000000   0.3103448), wk =   0.0640000
        k(    6) = (   0.0000000   0.2000000   0.6206897), wk =   0.0640000
        k(    7) = (   0.0000000   0.4000000   0.0000000), wk =   0.0320000
        k(    8) = (   0.0000000   0.4000000   0.3103448), wk =   0.0640000
        k(    9) = (   0.0000000   0.4000000   0.6206897), wk =   0.0640000
        k(   10) = (   0.2000000   0.2000000   0.0000000), wk =   0.0160000
        k(   11) = (   0.2000000   0.2000000   0.3103448), wk =   0.0320000
        k(   12) = (   0.2000000   0.2000000   0.6206897), wk =   0.0320000
        k(   13) = (   0.2000000   0.4000000   0.0000000), wk =   0.0320000
        k(   14) = (   0.2000000   0.4000000   0.3103448), wk =   0.0640000
        k(   15) = (   0.2000000   0.4000000   0.6206897), wk =   0.0640000
        k(   16) = (   0.4000000   0.4000000   0.0000000), wk =   0.0160000
        k(   17) = (   0.4000000   0.4000000   0.3103448), wk =   0.0320000
        k(   18) = (   0.4000000   0.4000000   0.6206897), wk =   0.0320000
        k(   19) = (  -0.2000000   0.2000000   0.0000000), wk =   0.0160000
        k(   20) = (  -0.2000000   0.2000000  -0.3103448), wk =   0.0320000
        k(   21) = (  -0.2000000   0.2000000  -0.6206897), wk =   0.0320000
        k(   22) = (  -0.2000000   0.4000000   0.0000000), wk =   0.0320000
        k(   23) = (  -0.2000000   0.4000000  -0.3103448), wk =   0.0640000
        k(   24) = (  -0.2000000   0.4000000  -0.6206897), wk =   0.0640000
        k(   25) = (  -0.4000000   0.4000000   0.0000000), wk =   0.0160000
        k(   26) = (  -0.4000000   0.4000000  -0.3103448), wk =   0.0320000
        k(   27) = (  -0.4000000   0.4000000  -0.6206897), wk =   0.0320000
        k(   28) = (   0.0000000   0.0000000   0.0000000), wk =   0.0080000
        k(   29) = (   0.0000000   0.0000000   0.3103448), wk =   0.0160000
        k(   30) = (   0.0000000   0.0000000   0.6206897), wk =   0.0160000
        k(   31) = (   0.0000000   0.2000000   0.0000000), wk =   0.0320000
        k(   32) = (   0.0000000   0.2000000   0.3103448), wk =   0.0640000
        k(   33) = (   0.0000000   0.2000000   0.6206897), wk =   0.0640000
        k(   34) = (   0.0000000   0.4000000   0.0000000), wk =   0.0320000
        k(   35) = (   0.0000000   0.4000000   0.3103448), wk =   0.0640000
        k(   36) = (   0.0000000   0.4000000   0.6206897), wk =   0.0640000
        k(   37) = (   0.2000000   0.2000000   0.0000000), wk =   0.0160000
        k(   38) = (   0.2000000   0.2000000   0.3103448), wk =   0.0320000
        k(   39) = (   0.2000000   0.2000000   0.6206897), wk =   0.0320000
        k(   40) = (   0.2000000   0.4000000   0.0000000), wk =   0.0320000
        k(   41) = (   0.2000000   0.4000000   0.3103448), wk =   0.0640000
        k(   42) = (   0.2000000   0.4000000   0.6206897), wk =   0.0640000
        k(   43) = (   0.4000000   0.4000000   0.0000000), wk =   0.0160000
        k(   44) = (   0.4000000   0.4000000   0.3103448), wk =   0.0320000
        k(   45) = (   0.4000000   0.4000000   0.6206897), wk =   0.0320000
        k(   46) = (  -0.2000000   0.2000000   0.0000000), wk =   0.0160000
        k(   47) = (  -0.2000000   0.2000000  -0.3103448), wk =   0.0320000
        k(   48) = (  -0.2000000   0.2000000  -0.6206897), wk =   0.0320000
        k(   49) = (  -0.2000000   0.4000000   0.0000000), wk =   0.0320000
        k(   50) = (  -0.2000000   0.4000000  -0.3103448), wk =   0.0640000
        k(   51) = (  -0.2000000   0.4000000  -0.6206897), wk =   0.0640000
        k(   52) = (  -0.4000000   0.4000000   0.0000000), wk =   0.0160000
        k(   53) = (  -0.4000000   0.4000000  -0.3103448), wk =   0.0320000
        k(   54) = (  -0.4000000   0.4000000  -0.6206897), wk =   0.0320000

     Largest allocated arrays     est. size (Mb)     dimensions
     Largest temporary arrays     est. size (Mb)     dimensions

     Check: negative/imaginary core charge=   -0.000005    0.000000

     Initial potential from superposition of free atoms
     Check: negative starting charge=(component1):   -0.417231
     Check: negative starting charge=(component2):   -0.417231

     starting charge   52.99993, renormalised to   54.00000

     negative rho (up, down):  0.425E+00 0.425E+00
     Starting wfc are   40 randomized atomic wfcs

     Self-consistent Calculation

     iteration #  1     ecut=    40.00 Ry     beta=0.30
     Davidson diagonalization with overlap
     ethr =  1.00E-02,  avg # of iterations =  5.2

     negative rho (up, down):  0.400E+00 0.400E+00

     total energy              =    -500.31647534 Ry
     Harris-Foulkes estimate   =    -502.45126036 Ry
     estimated scf accuracy    <       4.64189076 Ry

     total magnetization       =    -0.00 Bohr mag/cell
     absolute magnetization    =     0.00 Bohr mag/cell

[...]

     End of self-consistent calculation

 ------ SPIN UP ------------

          k = 0.0000 0.0000 0.0000 (  2063 PWs)   bands (ev):

   -38.5840 -38.5836 -38.4402 -38.4399 -38.3911 -38.3842  -8.5352  -7.5319
    -6.8572  -6.8567   2.8106   3.1819   4.7100   4.7102   4.7908   7.0153
     7.0154   7.4316   8.5500   8.9961   8.9962   9.0436   9.0558   9.3073
     9.6182   9.6184  10.0636  11.7048  12.5600  14.9563  15.1455  15.1457
    16.3247  20.1314  20.1314  21.2251  21.2254  22.1123  23.6428  23.8380
    26.3565  26.6183  26.6183  28.1884  28.1974  30.4195  31.6323  31.6323
    32.6997  32.6998  34.1875  36.1885  36.3188  36.4482  36.4483  37.8381
    38.3168  38.9079  39.0749  40.1877  40.3760  40.3761  40.6909  40.6909
    41.2636  41.2638  42.2063  43.9251  44.7915  46.3784  46.3785  47.3236
    48.0970  48.0970  48.1663  48.5040  49.1798  49.1798

[...]

          k =-0.2000 0.2000 0.0000 (  2069 PWs)   bands (ev):

[...]

 ------ SPIN DOWN ----------

[...]

     the Fermi energy is    11.5405 ev

!    total energy              =    -501.23283999 Ry
     Harris-Foulkes estimate   =    -501.23283528 Ry
     estimated scf accuracy    <       0.00000058 Ry

     The total energy is the sum of the following terms:

     one-electron contribution =    -124.34410969 Ry
     hartree contribution      =      95.65824178 Ry
     xc contribution           =    -137.74830911 Ry
     ewald contribution        =    -334.79829581 Ry
     smearing contrib. (-TS)   =      -0.00036717 Ry

[...]

     convergence has been achieved in   9 iterations

     Forces acting on atoms (Ry/au):

     negative rho (up, down):  0.392E+00 0.392E+00
     atom    1 type  1   force =     0.00000000    0.00000000    0.00000000
     atom    2 type  1   force =     0.00000000    0.00000000    0.00000000
[...]
        k(   12) = (   0.2041357   0.2041357   0.5957761), wk =   0.0320000
        k(   13) = (   0.2041326   0.4082746   0.0000000), wk =   0.0320000
        k(   14) = (   0.2041326   0.4082746   0.2978880), wk =   0.0640000
        k(   15) = (   0.2041326   0.4082746   0.5957761), wk =   0.0640000
        k(   16) = (   0.4082714   0.4082714   0.0000000), wk =   0.0160000
        k(   17) = (   0.4082714   0.4082714   0.2978880), wk =   0.0320000
        k(   18) = (   0.4082714   0.4082714   0.5957761), wk =   0.0320000
        k(   19) = (  -0.2041420   0.2041420   0.0000000), wk =   0.0160000
        k(   20) = (  -0.2041420   0.2041420  -0.2978880), wk =   0.0320000
        k(   21) = (  -0.2041420   0.2041420  -0.5957761), wk =   0.0320000
        k(   22) = (  -0.2041452   0.4082809   0.0000000), wk =   0.0320000
        k(   23) = (  -0.2041452   0.4082809  -0.2978880), wk =   0.0640000
        k(   24) = (  -0.2041452   0.4082809  -0.5957761), wk =   0.0640000
        k(   25) = (  -0.4082841   0.4082841   0.0000000), wk =   0.0160000
        k(   26) = (  -0.4082841   0.4082841  -0.2978880), wk =   0.0320000
        k(   27) = (  -0.4082841   0.4082841  -0.5957761), wk =   0.0320000
        k(   28) = (   0.0000000   0.0000000   0.0000000), wk =   0.0080000
        k(   29) = (   0.0000000   0.0000000   0.2978880), wk =   0.0160000
        k(   30) = (   0.0000000   0.0000000   0.5957761), wk =   0.0160000
        k(   31) = (  -0.0000032   0.2041389   0.0000000), wk =   0.0320000
        k(   32) = (  -0.0000032   0.2041389   0.2978880), wk =   0.0640000
        k(   33) = (  -0.0000032   0.2041389   0.5957761), wk =   0.0640000
        k(   34) = (  -0.0000063   0.4082777   0.0000000), wk =   0.0320000
        k(   35) = (  -0.0000063   0.4082777   0.2978880), wk =   0.0640000
        k(   36) = (  -0.0000063   0.4082777   0.5957761), wk =   0.0640000
        k(   37) = (   0.2041357   0.2041357   0.0000000), wk =   0.0160000
        k(   38) = (   0.2041357   0.2041357   0.2978880), wk =   0.0320000
        k(   39) = (   0.2041357   0.2041357   0.5957761), wk =   0.0320000
        k(   40) = (   0.2041326   0.4082746   0.0000000), wk =   0.0320000
        k(   41) = (   0.2041326   0.4082746   0.2978880), wk =   0.0640000
        k(   42) = (   0.2041326   0.4082746   0.5957761), wk =   0.0640000
        k(   43) = (   0.4082714   0.4082714   0.0000000), wk =   0.0160000
        k(   44) = (   0.4082714   0.4082714   0.2978880), wk =   0.0320000
        k(   45) = (   0.4082714   0.4082714   0.5957761), wk =   0.0320000
        k(   46) = (  -0.2041420   0.2041420   0.0000000), wk =   0.0160000
        k(   47) = (  -0.2041420   0.2041420  -0.2978880), wk =   0.0320000
        k(   48) = (  -0.2041420   0.2041420  -0.5957761), wk =   0.0320000
        k(   49) = (  -0.2041452   0.4082809   0.0000000), wk =   0.0320000
        k(   50) = (  -0.2041452   0.4082809  -0.2978880), wk =   0.0640000
        k(   51) = (  -0.2041452   0.4082809  -0.5957761), wk =   0.0640000
        k(   52) = (  -0.4082841   0.4082841   0.0000000), wk =   0.0160000
        k(   53) = (  -0.4082841   0.4082841  -0.2978880), wk =   0.0320000
        k(   54) = (  -0.4082841   0.4082841  -0.5957761), wk =   0.0320000

     Check: negative/imaginary core charge=   -0.000005    0.000000
     Check: negative starting charge=(component1):   -0.835210

[...]

     Threshold (ethr) on eigenvalues was too large:
     Diagonalizing with lowered threshold

     Davidson diagonalization with overlap
     ethr =  1.99E-09,  avg # of iterations =  2.0

[...]

     Volume is kept fixed: isostatic pressure set to zero

     bfgs converged in   6 scf cycles and   5 bfgs steps
     (criteria: energy < 0.10E-03, force < 0.10E-02, cell < 0.50E+00)

     End of BFGS Geometry Optimization

     Final enthalpy =    -501.2439565319 Ry
Begin final coordinates
     new unit-cell volume =    487.38294 a.u.^3 (    72.22270 Ang^3 )

CELL_PARAMETERS (alat=  9.11090702)
   0.979725208   0.000015139   0.000000000
   0.000015139   0.979725208   0.000000000
   0.000000000   0.000000000   0.671393171

ATOMIC_POSITIONS (crystal)
Ir0      0.000000000   0.000000000   0.000000000    0   0   0
Ir0      0.500000000   0.500000000   0.500000000    0   0   0
O1       0.308696181   0.308696181   0.000000000    1   1   0
O1      -0.308696181  -0.308696181   0.000000000    1   1   0
O1       0.808697790   0.191302210   0.500000000    1   1   0
O1       0.191302210   0.808697790   0.500000000    1   1   0
End final coordinates

     A final scf calculation at the relaxed structure.
     The G-vectors are recalculated for the final unit cell
     Results may differ from those at the preceding step.

     bravais-lattice index     =            0
     lattice parameter (alat)  =       9.1109  a.u.
     unit-cell volume          =     487.3829 (a.u.)^3
     number of atoms/cell      =            6
     number of atomic types    =            2
     number of electrons       =        54.00
     number of Kohn-Sham states=           78
     kinetic-energy cutoff     =      40.0000  Ry
     charge density cutoff     =     500.0000  Ry
     convergence threshold     =      1.0E-08
     mixing beta               =       0.3000
     number of iterations used =            8  plain     mixing
     Exchange-correlation      = SLA  PW   PBE  PBE ( 1 4 3 4 0)
     EXX-fraction              =        0.00

     celldm(1)=   9.110907  celldm(2)=   0.000000  celldm(3)=   0.000000
     celldm(4)=   0.000000  celldm(5)=   0.000000  celldm(6)=   0.000000

     crystal axes: (cart. coord. in units of alat)
               a(1) = (   0.979725   0.000015   0.000000 )
               a(2) = (   0.000015   0.979725   0.000000 )
               a(3) = (   0.000000   0.000000   0.671393 )

     reciprocal axes: (cart. coord. in units 2 pi/alat)
               b(1) = (  1.020694 -0.000016  0.000000 )
               b(2) = ( -0.000016  1.020694  0.000000 )
               b(3) = (  0.000000  0.000000  1.489440 )

     PseudoPot. # 1 for Ir read from file:
     /home/camp/zhonxu/pseudo/ir_pbe_v1.uspp.F.UPF
     MD5 check sum: abf987a9674477536ede83817f8f8b70
     Pseudo is Ultrasoft + core correction, Zval = 15.0
     Generated by new atomic code, or converted to UPF format
     Using radial grid of  983 points,  7 beta functions with:
                l(1) =   0
                l(2) =   0
                l(3) =   1
                l(4) =   1
                l(5) =   1
                l(6) =   2
                l(7) =   2
     Q(r) pseudized with  8 coefficients,  rinner =    1.350   1.350   1.350
                                                       1.350   1.350

     PseudoPot. # 2 for O  read from file:
     /home/camp/zhonxu/pseudo/o_pbe_v1.01.uspp.F.UPF
     MD5 check sum: 2bcb18d16ea4b960afae9ec6d52f22d2
     Pseudo is Ultrasoft + core correction, Zval =  6.0
     Generated by new atomic code, or converted to UPF format
     Using radial grid of  737 points,  5 beta functions with:
                l(1) =   0
                l(2) =   0
                l(3) =   1
                l(4) =   1
                l(5) =   2
     Q(r) pseudized with  8 coefficients,  rinner =    0.900   0.900   0.900
                                                       0.900   0.900

     atomic species   valence    mass     pseudopotential
        Ir0           15.00   192.22000     Ir( 1.00)
        O1             6.00    15.99940     O ( 1.00)

     Starting magnetic structure
     atomic species   magnetization
        Ir0          0.000
        O1           0.000

      8 Sym. Ops., with inversion, found
          (note:  8 additional sym.ops. were found but ignored
           their fractional translations are incommensurate with FFT grid)

   Cartesian axes

     site n.     atom                  positions (alat units)
         1           Ir0 tau(   1) = (   0.0000000   0.0000000   0.0000000  )
         2           Ir0 tau(   2) = (   0.4898702   0.4898702   0.3356966  )
         3           O1  tau(   3) = (   0.3024421   0.3024421   0.0000000  )
         4           O1  tau(   4) = (  -0.3024421  -0.3024421   0.0000000  )
         5           O1  tau(   5) = (   0.7923045   0.1874358   0.3356966  )
         6           O1  tau(   6) = (   0.1874358   0.7923045   0.3356966  )

     number of k points=    54  Methfessel-Paxton smearing, width (Ry)=  0.0100
                       cart. coord. in units 2pi/alat
        k(    1) = (   0.0000000   0.0000000   0.0000000), wk =   0.0080000
        k(    2) = (   0.0000000   0.0000000   0.2978880), wk =   0.0160000
        k(    3) = (   0.0000000   0.0000000   0.5957761), wk =   0.0160000
        k(    4) = (  -0.0000032   0.2041389   0.0000000), wk =   0.0320000
        k(    5) = (  -0.0000032   0.2041389   0.2978880), wk =   0.0640000
        k(    6) = (  -0.0000032   0.2041389   0.5957761), wk =   0.0640000
        k(    7) = (  -0.0000063   0.4082777   0.0000000), wk =   0.0320000
        k(    8) = (  -0.0000063   0.4082777   0.2978880), wk =   0.0640000
        k(    9) = (  -0.0000063   0.4082777   0.5957761), wk =   0.0640000
        k(   10) = (   0.2041357   0.2041357   0.0000000), wk =   0.0160000
        k(   11) = (   0.2041357   0.2041357   0.2978880), wk =   0.0320000
        k(   12) = (   0.2041357   0.2041357   0.5957761), wk =   0.0320000
        k(   13) = (   0.2041326   0.4082746   0.0000000), wk =   0.0320000
        k(   14) = (   0.2041326   0.4082746   0.2978880), wk =   0.0640000
        k(   15) = (   0.2041326   0.4082746   0.5957761), wk =   0.0640000
        k(   16) = (   0.4082714   0.4082714   0.0000000), wk =   0.0160000
        k(   17) = (   0.4082714   0.4082714   0.2978880), wk =   0.0320000
        k(   18) = (   0.4082714   0.4082714   0.5957761), wk =   0.0320000
        k(   19) = (  -0.2041420   0.2041420   0.0000000), wk =   0.0160000
        k(   20) = (  -0.2041420   0.2041420  -0.2978880), wk =   0.0320000
        k(   21) = (  -0.2041420   0.2041420  -0.5957761), wk =   0.0320000
        k(   22) = (  -0.2041452   0.4082809   0.0000000), wk =   0.0320000
        k(   23) = (  -0.2041452   0.4082809  -0.2978880), wk =   0.0640000
        k(   24) = (  -0.2041452   0.4082809  -0.5957761), wk =   0.0640000
        k(   25) = (  -0.4082841   0.4082841   0.0000000), wk =   0.0160000
        k(   26) = (  -0.4082841   0.4082841  -0.2978880), wk =   0.0320000
        k(   27) = (  -0.4082841   0.4082841  -0.5957761), wk =   0.0320000
        k(   28) = (   0.0000000   0.0000000   0.0000000), wk =   0.0080000
        k(   29) = (   0.0000000   0.0000000   0.2978880), wk =   0.0160000
        k(   30) = (   0.0000000   0.0000000   0.5957761), wk =   0.0160000
        k(   31) = (  -0.0000032   0.2041389   0.0000000), wk =   0.0320000
        k(   32) = (  -0.0000032   0.2041389   0.2978880), wk =   0.0640000
        k(   33) = (  -0.0000032   0.2041389   0.5957761), wk =   0.0640000
        k(   34) = (  -0.0000063   0.4082777   0.0000000), wk =   0.0320000
        k(   35) = (  -0.0000063   0.4082777   0.2978880), wk =   0.0640000
        k(   36) = (  -0.0000063   0.4082777   0.5957761), wk =   0.0640000
        k(   37) = (   0.2041357   0.2041357   0.0000000), wk =   0.0160000
        k(   38) = (   0.2041357   0.2041357   0.2978880), wk =   0.0320000
        k(   39) = (   0.2041357   0.2041357   0.5957761), wk =   0.0320000
        k(   40) = (   0.2041326   0.4082746   0.0000000), wk =   0.0320000
        k(   41) = (   0.2041326   0.4082746   0.2978880), wk =   0.0640000
        k(   42) = (   0.2041326   0.4082746   0.5957761), wk =   0.0640000
        k(   43) = (   0.4082714   0.4082714   0.0000000), wk =   0.0160000
        k(   44) = (   0.4082714   0.4082714   0.2978880), wk =   0.0320000
        k(   45) = (   0.4082714   0.4082714   0.5957761), wk =   0.0320000
        k(   46) = (  -0.2041420   0.2041420   0.0000000), wk =   0.0160000
        k(   47) = (  -0.2041420   0.2041420  -0.2978880), wk =   0.0320000
        k(   48) = (  -0.2041420   0.2041420  -0.5957761), wk =   0.0320000
        k(   49) = (  -0.2041452   0.4082809   0.0000000), wk =   0.0320000
        k(   50) = (  -0.2041452   0.4082809  -0.2978880), wk =   0.0640000
        k(   51) = (  -0.2041452   0.4082809  -0.5957761), wk =   0.0640000
        k(   52) = (  -0.4082841   0.4082841   0.0000000), wk =   0.0160000
        k(   53) = (  -0.4082841   0.4082841  -0.2978880), wk =   0.0320000
        k(   54) = (  -0.4082841   0.4082841  -0.5957761), wk =   0.0320000

     Largest allocated arrays     est. size (Mb)     dimensions
     Largest temporary arrays     est. size (Mb)     dimensions

     Check: negative/imaginary core charge=   -0.000005    0.000000

     Initial potential from superposition of free atoms
     Check: negative starting charge=(component1):   -0.417426
     Check: negative starting charge=(component2):   -0.417426

     starting charge   52.99993, renormalised to   54.00000

     negative rho (up, down):  0.425E+00 0.425E+00
     Starting wfc are   40 randomized atomic wfcs

     Self-consistent Calculation

[...]

     total energy              =    -501.24424345 Ry
     Harris-Foulkes estimate   =    -501.24424283 Ry
     estimated scf accuracy    <       0.00000001 Ry

[...]

     iteration # 12     ecut=    40.00 Ry     beta=0.30
     Davidson diagonalization with overlap
     ethr =  2.56E-11,  avg # of iterations =  2.0

     negative rho (up, down):  0.391E+00 0.391E+00

     End of self-consistent calculation

 ------ SPIN UP ------------

[...]

 ------ SPIN DOWN ----------

[...]

          k = 0.4083 0.4083 0.5958 (  2091 PWs)   bands (ev):

[...]

          k =-0.4083 0.4083-0.5958 (  2091 PWs)   bands (ev):

   -38.5876 -38.5870 -38.5503 -38.5497 -38.3648 -38.3647  -7.3898  -7.3425
    -7.1895  -7.1634   4.1518   4.2182   4.6901   4.8092   5.1390   5.4987
     6.5272   6.5978   7.6631   7.8169   8.3318   8.6851  10.0504  10.0742
    10.1243  10.6520  11.0502  11.4990  12.9821  13.6067  14.0860  14.7028
    20.0371  20.4084  21.1162  21.1506  21.2035  21.2036  22.6283  23.1095
    23.9234  24.4983  27.7225  27.7747  29.4698  30.0284  30.7683  31.8492
    32.2403  32.4300  32.6357  33.8247  36.4464  36.8621  36.8912  36.9279
    38.5126  39.2315  39.8545  41.2402  41.3310  41.8606  42.1775  42.6762
    42.9394  43.0761  43.5366  44.3500  45.0407  45.3674  45.9536  46.6963
    47.0965  47.5263  47.8342  48.2864  48.5095  49.3494

     the Fermi energy is    11.5350 ev

!    total energy              =    -501.24424405 Ry
     Harris-Foulkes estimate   =    -501.24424346 Ry
     estimated scf accuracy    <          4.5E-09 Ry

     The total energy is the sum of the following terms:

     one-electron contribution =    -120.91683491 Ry
     hartree contribution      =      93.94755883 Ry
     xc contribution           =    -137.69490896 Ry
     ewald contribution        =    -336.57938692 Ry
     smearing contrib. (-TS)   =      -0.00067210 Ry

     total magnetization       =     0.00 Bohr mag/cell
     absolute magnetization    =     0.00 Bohr mag/cell

     convergence has been achieved in  12 iterations

     Forces acting on atoms (Ry/au):

     negative rho (up, down):  0.391E+00 0.391E+00
     atom    1 type  1   force =     0.00000000    0.00000000    0.00000000
     atom    2 type  1   force =     0.00000000    0.00000000    0.00000000
     atom    3 type  2   force =     0.00000190    0.00000190    0.00000000
     atom    4 type  2   force =    -0.00000190   -0.00000190    0.00000000
     atom    5 type  2   force =    -0.00000553    0.00000553    0.00000000
     atom    6 type  2   force =     0.00000553   -0.00000553    0.00000000

     Total force =     0.000012     Total SCF correction =     0.000044
     SCF correction compared to forces is large: reduce conv_thr to get better values

     entering subroutine stress ...

     negative rho (up, down):  0.391E+00 0.391E+00
          total   stress  (Ry/bohr**3)                   (kbar)     P= -217.90
  -0.00148835  -0.00000028   0.00000000       -218.94     -0.04      0.00
  -0.00000028  -0.00148835   0.00000000         -0.04   -218.94      0.00
   0.00000000   0.00000000  -0.00146706          0.00      0.00   -215.81

     General routines

     Parallel routines

   This run was terminated on:  16:53: 7  24Jan2014

   JOB DONE.
Running PBS batch system epilogue script
Job id: 251958.audhumbla.fysik.dtu.dk
Username: zhonxu
Groupname: campgst
Jobname: IrO2/fine-EOS/non-mag/IrO2-v-1.10
Sessionid: 15449
Queuename: verylong
Accounting:
This job has allocated the following 4 nodes:
q106 q106 q106 q106
Finished epilogue job 251958.audhumbla.fysik.dtu.dk for zhonxu