     Program PWSCF v.5.0.2 (svn rev. 9656) starts on 28Apr2014 at  2:19:45

     Current dimensions of program PWSCF are:
     Max number of different atomic species (ntypx) = 10
     Max number of k-points (npk) =  40000
     Max angular momentum in pseudopotentials (lmaxx) =  3
     Reading input from pwscf.in
Warning: card &CELL ignored
Warning: card / ignored

     Subspace diagonalization in iterative solution of the eigenvalue problem:
     a serial algorithm will be used

     bravais-lattice index     =            0
     lattice parameter (alat)  =      12.2076  a.u.
     unit-cell volume          =    7496.5096 (a.u.)^3
     number of atoms/cell      =           31
     number of atomic types    =            3
     number of electrons       =       246.00
     number of Kohn-Sham states=          369
     kinetic-energy cutoff     =      40.0000  Ry
     charge density cutoff     =     500.0000  Ry
     convergence threshold     =      1.0E-06
     mixing beta               =       0.7000
     number of iterations used =            8  plain     mixing
     Exchange-correlation      = SLA  PW   PBE  PBE ( 1 4 3 4 0)
     EXX-fraction              =        0.00
     nstep                     =           50

     celldm(1)=  12.207631  celldm(2)=   0.000000  celldm(3)=   0.000000
     celldm(4)=   0.000000  celldm(5)=   0.000000  celldm(6)=   0.000000

     crystal axes: (cart. coord. in units of alat)
               a(1) = (   1.000000   0.000000   0.000000 )
               a(2) = (   0.000000   1.004836   0.000000 )
               a(3) = (   0.000000   0.000000   4.100811 )

     reciprocal axes: (cart. coord. in units 2 pi/alat)
               b(1) = (  1.000000  0.000000  0.000000 )
               b(2) = (  0.000000  0.995187  0.000000 )
               b(3) = (  0.000000  0.000000  0.243854 )

     PseudoPot. # 1 for O  read from file:
     /home/camp/zhonxu/pseudo/o_pbe_v1.01.uspp.F.UPF
     MD5 check sum: 2bcb18d16ea4b960afae9ec6d52f22d2
     Pseudo is Ultrasoft + core correction, Zval =  6.0
     Generated by new atomic code, or converted to UPF format
     Using radial grid of  737 points,  5 beta functions with:
                l(1) =   0
                l(2) =   0
                l(3) =   1
                l(4) =   1
                l(5) =   2
     Q(r) pseudized with  8 coefficients,  rinner =    0.900   0.900   0.900
                                                       0.900   0.900

     PseudoPot. # 2 for Pt read from file:
     /home/camp/zhonxu/pseudo/pt_pbe_v1.uspp.F.UPF
     MD5 check sum: 4c71d6ad5ef119f1eb26a4d0b7884226
     Pseudo is Ultrasoft + core correction, Zval = 16.0
     Generated by new atomic code, or converted to UPF format
     Using radial grid of  985 points,  6 beta functions with:
                l(1) =   0
                l(2) =   0
                l(3) =   1
                l(4) =   1
                l(5) =   2
                l(6) =   2
     Q(r) pseudized with  8 coefficients,  rinner =    1.300   1.300   1.300
                                                       1.300   1.300

     PseudoPot. # 3 for H  read from file:
     /home/camp/zhonxu/pseudo/h_pbe_v1.uspp.F.UPF
     MD5 check sum: 3408e3ff4ec8b0a4e358431e7e038a48
     Pseudo is Ultrasoft, Zval =  1.0
     Generated by new atomic code, or converted to UPF format
     Using radial grid of  615 points,  2 beta functions with:
                l(1) =   0
                l(2) =   0
     Q(r) pseudized with  8 coefficients,  rinner =    0.700

     atomic species   valence    mass     pseudopotential
        O0             6.00    15.99940     O ( 1.00)
        Pt1           16.00   195.08000     Pt( 1.00)
        H2             1.00     1.00794     H ( 1.00)

     Simplified LDA+U calculation (l_max = 2) with parameters (eV):
     atomic species    L          U    alpha       J0     beta
        Pt1            2     2.5000   0.0000   0.0000   0.0000

     No symmetry found

   Cartesian axes

     site n.     atom                  positions (alat units)
         1           O0  tau(   1) = (   0.0000000   0.0000000   1.5489174  )
         2           O0  tau(   2) = (   0.0000000   0.5024180   1.6470088  )
         3           Pt1 tau(   3) = (   0.2500000   0.5024180   1.8504500  )
         4           Pt1 tau(   4) = (   0.0000000   0.0000000   1.8564782  )
         5           O0  tau(   5) = (   0.2500000   0.8139171   1.8182587  )
         6           O0  tau(   6) = (   0.2500000   0.1909188   1.8867012  )
         7           O0  tau(   7) = (   0.0000000   0.5024180   2.0373240  )
         8           O0  tau(   8) = (   0.0000000   0.0000000   2.1721997  )
         9           Pt1 tau(   9) = (   0.2500000   0.0000000   2.3623543  )
        10           Pt1 tau(  10) = (   0.0000000   0.5024180   2.3594017  )
        11           O0  tau(  11) = (   0.2500000   0.6933368   2.3215512  )
        12           O0  tau(  12) = (   0.2500000   0.3114991   2.4021322  )
        13           O0  tau(  13) = (   0.0000000   0.0000000   2.5481621  )
        14           O0  tau(  14) = (   0.5000000   0.0000000   1.5492455  )
        15           O0  tau(  15) = (   0.5000000   0.5024180   1.6439332  )
        16           Pt1 tau(  16) = (   0.7500000   0.5024180   1.8504910  )
        17           Pt1 tau(  17) = (   0.5000000   0.0000000   1.8565192  )
        18           O0  tau(  18) = (   0.7500000   0.8139171   1.8184227  )
        19           O0  tau(  19) = (   0.7500000   0.1909188   1.8866602  )
        20           O0  tau(  20) = (   0.5000000   0.5024180   2.0431061  )
        21           O0  tau(  21) = (   0.5000000   0.0000000   2.1716256  )
        22           Pt1 tau(  22) = (   0.7500000   0.0000000   2.3623953  )
        23           Pt1 tau(  23) = (   0.5000000   0.5024180   2.3697358  )
        24           O0  tau(  24) = (   0.7500000   0.6933368   2.3215102  )
        25           O0  tau(  25) = (   0.7500000   0.3114991   2.4021732  )
        26           O0  tau(  26) = (   0.5000000   0.0000000   2.5480390  )
        27           H2  tau(  27) = (   0.0001100   0.6425926   1.5814778  )
        28           H2  tau(  28) = (   0.5001800   0.6431151   1.5801656  )
        29           H2  tau(  29) = (   0.1426600   0.0364956   1.5073762  )
        30           H2  tau(  30) = (   0.6419200   0.0388771   1.5073762  )
        31           O0  tau(  31) = (   0.5000900   0.5753691   2.6428088  )

     number of k points=    10  Methfessel-Paxton smearing, width (Ry)=  0.0100
                       cart. coord. in units 2pi/alat
        k(    1) = (   0.0000000   0.0000000   0.0000000), wk =   0.1250000
        k(    2) = (   0.0000000   0.2487968   0.0000000), wk =   0.2500000
        k(    3) = (   0.0000000  -0.4975937   0.0000000), wk =   0.1250000
        k(    4) = (   0.2500000   0.0000000   0.0000000), wk =   0.2500000
        k(    5) = (   0.2500000   0.2487968   0.0000000), wk =   0.2500000
        k(    6) = (   0.2500000  -0.4975937   0.0000000), wk =   0.2500000
        k(    7) = (  -0.5000000   0.0000000   0.0000000), wk =   0.1250000
        k(    8) = (  -0.5000000   0.2487968   0.0000000), wk =   0.2500000
        k(    9) = (  -0.5000000  -0.4975937   0.0000000), wk =   0.1250000
        k(   10) = (  -0.2500000   0.2487968   0.0000000), wk =   0.2500000

     Largest allocated arrays     est. size (Mb)     dimensions
     Largest temporary arrays     est. size (Mb)     dimensions

     Check: negative/imaginary core charge=   -0.000003    0.000000

     Initial potential from superposition of free atoms
     Check: negative starting charge=   -1.533958

     starting charge  241.99985, renormalised to  246.00000

     negative rho (up, down):  0.156E+01 0.000E+00
     Number of +U iterations with fixed ns =  0
     Starting occupations:
 --- enter write_ns ---
 LDA+U parameters:
U( 2)     =  2.50000000
alpha( 2) =  0.00000000
atom    3   Tr[ns(na)] =   8.00000
    eigenvalues:
  0.800  0.800  0.800  0.800  0.800
    eigenvectors:
  1.000  0.000  0.000  0.000  0.000
  0.000  1.000  0.000  0.000  0.000
  0.000  0.000  1.000  0.000  0.000
  0.000  0.000  0.000  1.000  0.000
  0.000  0.000  0.000  0.000  1.000
    occupations:
  0.800  0.000  0.000  0.000  0.000
  0.000  0.800  0.000  0.000  0.000
  0.000  0.000  0.800  0.000  0.000
  0.000  0.000  0.000  0.800  0.000
  0.000  0.000  0.000  0.000  0.800
atom    4   Tr[ns(na)] =   8.00000
    eigenvalues:
  0.800  0.800  0.800  0.800  0.800
    eigenvectors:
  1.000  0.000  0.000  0.000  0.000
  0.000  1.000  0.000  0.000  0.000
  0.000  0.000  1.000  0.000  0.000
  0.000  0.000  0.000  1.000  0.000
  0.000  0.000  0.000  0.000  1.000
    occupations:
  0.800  0.000  0.000  0.000  0.000
  0.000  0.800  0.000  0.000  0.000
  0.000  0.000  0.800  0.000  0.000
  0.000  0.000  0.000  0.800  0.000
  0.000  0.000  0.000  0.000  0.800
atom    9   Tr[ns(na)] =   8.00000
    eigenvalues:
  0.800  0.800  0.800  0.800  0.800
    eigenvectors:
  1.000  0.000  0.000  0.000  0.000
  0.000  1.000  0.000  0.000  0.000
  0.000  0.000  1.000  0.000  0.000
  0.000  0.000  0.000  1.000  0.000
  0.000  0.000  0.000  0.000  1.000
    occupations:
  0.800  0.000  0.000  0.000  0.000
  0.000  0.800  0.000  0.000  0.000
  0.000  0.000  0.800  0.000  0.000
  0.000  0.000  0.000  0.800  0.000
  0.000  0.000  0.000  0.000  0.800
atom   10   Tr[ns(na)] =   8.00000
    eigenvalues:
  0.800  0.800  0.800  0.800  0.800
    eigenvectors:
  1.000  0.000  0.000  0.000  0.000
  0.000  1.000  0.000  0.000  0.000
  0.000  0.000  1.000  0.000  0.000
  0.000  0.000  0.000  1.000  0.000
  0.000  0.000  0.000  0.000  1.000
    occupations:
  0.800  0.000  0.000  0.000  0.000
  0.000  0.800  0.000  0.000  0.000
  0.000  0.000  0.800  0.000  0.000
  0.000  0.000  0.000  0.800  0.000
  0.000  0.000  0.000  0.000  0.800
atom   16   Tr[ns(na)] =   8.00000
    eigenvalues:
  0.800  0.800  0.800  0.800  0.800
    eigenvectors:
  1.000  0.000  0.000  0.000  0.000
  0.000  1.000  0.000  0.000  0.000
  0.000  0.000  1.000  0.000  0.000
  0.000  0.000  0.000  1.000  0.000
  0.000  0.000  0.000  0.000  1.000
    occupations:
  0.800  0.000  0.000  0.000  0.000
  0.000  0.800  0.000  0.000  0.000
  0.000  0.000  0.800  0.000  0.000
  0.000  0.000  0.000  0.800  0.000
  0.000  0.000  0.000  0.000  0.800
atom   17   Tr[ns(na)] =   8.00000
    eigenvalues:
  0.800  0.800  0.800  0.800  0.800
    eigenvectors:
  1.000  0.000  0.000  0.000  0.000
  0.000  1.000  0.000  0.000  0.000
  0.000  0.000  1.000  0.000  0.000
  0.000  0.000  0.000  1.000  0.000
  0.000  0.000  0.000  0.000  1.000
    occupations:
  0.800  0.000  0.000  0.000  0.000
  0.000  0.800  0.000  0.000  0.000
  0.000  0.000  0.800  0.000  0.000
  0.000  0.000  0.000  0.800  0.000
  0.000  0.000  0.000  0.000  0.800
atom   22   Tr[ns(na)] =   8.00000
    eigenvalues:
  0.800  0.800  0.800  0.800  0.800
    eigenvectors:
  1.000  0.000  0.000  0.000  0.000
  0.000  1.000  0.000  0.000  0.000
  0.000  0.000  1.000  0.000  0.000
  0.000  0.000  0.000  1.000  0.000
  0.000  0.000  0.000  0.000  1.000
    occupations:
  0.800  0.000  0.000  0.000  0.000
  0.000  0.800  0.000  0.000  0.000
[...]
  0.017  0.835  0.000  0.006  0.141
  0.000  0.000  0.991  0.007  0.002
    occupations:
  0.949  0.001 -0.009 -0.090  0.001
  0.001  0.709  0.001  0.001 -0.004
 -0.009  0.001  0.961 -0.025  0.001
 -0.090  0.001 -0.025  0.759 -0.000
  0.001 -0.004  0.001 -0.000  0.954
atom   10   Tr[ns(na)] =   8.73202
    eigenvalues:
  0.665  0.752  0.978  0.983  0.988
    eigenvectors:
  0.000  0.981  0.000  0.011  0.009
  0.013  0.000  0.987  0.000  0.000
  0.000  0.001  0.000  0.255  0.744
  0.000  0.019  0.000  0.734  0.247
  0.987  0.000  0.013  0.000  0.000
    occupations:
  0.757  0.000 -0.007  0.031  0.000
  0.000  0.974  0.000 -0.000 -0.036
 -0.007  0.000  0.986 -0.001 -0.000
  0.031 -0.000 -0.001  0.980 -0.000
  0.000 -0.036 -0.000 -0.000  0.669
atom   16   Tr[ns(na)] =   8.69709
    eigenvalues:
  0.690  0.701  0.984  0.985  0.988
    eigenvectors:
  0.040  0.135  0.571  0.248  0.007
  0.780  0.220  0.000  0.000  0.000
  0.001  0.004  0.003  0.088  0.905
  0.180  0.641  0.124  0.043  0.012
  0.000  0.000  0.302  0.621  0.076
    occupations:
  0.935 -0.003  0.008 -0.108  0.000
 -0.003  0.692 -0.002 -0.004 -0.004
  0.008 -0.002  0.987  0.018 -0.001
 -0.108 -0.004  0.018  0.750 -0.000
  0.000 -0.004 -0.001 -0.000  0.985
atom   17   Tr[ns(na)] =   8.68577
    eigenvalues:
  0.687  0.708  0.978  0.984  0.985
    eigenvectors:
  0.000  0.986  0.007  0.002  0.006
  0.010  0.000  0.038  0.938  0.013
  0.000  0.005  0.926  0.028  0.041
  0.000  0.009  0.029  0.022  0.940
  0.990  0.000  0.000  0.010  0.000
    occupations:
  0.712 -0.005 -0.019  0.026 -0.001
 -0.005  0.980  0.001  0.000  0.030
 -0.019  0.001  0.977  0.003  0.000
  0.026  0.000  0.003  0.982  0.000
 -0.001  0.030  0.000  0.000  0.690
atom   22   Tr[ns(na)] =   8.66261
    eigenvalues:
  0.708  0.720  0.954  0.964  0.985
    eigenvectors:
  0.001  0.135  0.001  0.011  0.853
  0.995  0.005  0.000  0.000  0.000
  0.000  0.012  0.010  0.974  0.004
  0.004  0.848  0.000  0.006  0.141
  0.000  0.000  0.988  0.010  0.001
    occupations:
  0.949 -0.000 -0.009 -0.090 -0.001
 -0.000  0.709 -0.001 -0.001 -0.004
 -0.009 -0.001  0.961 -0.025 -0.001
 -0.090 -0.001 -0.025  0.759  0.000
 -0.001 -0.004 -0.001  0.000  0.954
atom   23   Tr[ns(na)] =   8.64293
    eigenvalues:
  0.715  0.739  0.922  0.959  0.987
    eigenvectors:
  0.000  0.889  0.105  0.000  0.006
  0.018  0.000  0.000  0.982  0.000
  0.000  0.096  0.882  0.000  0.022
  0.000  0.015  0.013  0.000  0.971
  0.982  0.000  0.000  0.018  0.000
    occupations:
  0.760  0.000  0.053  0.026 -0.000
  0.000  0.955 -0.000  0.000 -0.032
  0.053 -0.000  0.906 -0.017 -0.000
  0.026  0.000 -0.017  0.982 -0.000
 -0.000 -0.032 -0.000 -0.000  0.719
N of occupied +U levels =  69.4669414
 --- exit write_ns ---

     Threshold (ethr) on eigenvalues was too large:
     Diagonalizing with lowered threshold

     Davidson diagonalization with overlap
     ethr =  2.99E-09,  avg # of iterations =  2.0

[...]

     total energy              =   -2280.12443107 Ry
     Harris-Foulkes estimate   =   -2280.12443107 Ry
     estimated scf accuracy    <       0.00000009 Ry

     iteration # 14     ecut=    40.00 Ry     beta=0.70
     Davidson diagonalization with overlap
     ethr =  4.76E-12,  avg # of iterations =  1.0

     negative rho (up, down):  0.158E+01 0.000E+00

     End of self-consistent calculation
 --- enter write_ns ---
 LDA+U parameters:
U( 2)     =  2.50000000
alpha( 2) =  0.00000000
atom    3   Tr[ns(na)] =   8.69690
    eigenvalues:
  0.690  0.701  0.984  0.985  0.988
    eigenvectors:
  0.040  0.135  0.567  0.253  0.006
  0.779  0.220  0.000  0.000  0.000
  0.001  0.004  0.004  0.089  0.902
  0.180  0.641  0.123  0.044  0.011
  0.000  0.000  0.306  0.614  0.080
    occupations:
  0.935  0.003  0.008 -0.108 -0.000
  0.003  0.692  0.002  0.004 -0.004
  0.008  0.002  0.987  0.018  0.001
 -0.108  0.004  0.018  0.750  0.001
 -0.000 -0.004  0.001  0.001  0.985
atom    4   Tr[ns(na)] =   8.68690
    eigenvalues:
  0.686  0.707  0.981  0.984  0.985
    eigenvectors:
  0.000  0.986  0.007  0.004  0.003
  0.010  0.000  0.121  0.841  0.028
  0.000  0.005  0.772  0.067  0.156
  0.000  0.009  0.099  0.079  0.813
  0.990  0.000  0.001  0.009  0.000
    occupations:
  0.711 -0.005 -0.019  0.026 -0.001
 -0.005  0.980  0.000  0.000  0.030
 -0.019  0.000  0.981  0.003  0.000
  0.026  0.000  0.003  0.982  0.000
 -0.001  0.030  0.000  0.000  0.689
atom    9   Tr[ns(na)] =   8.66271
    eigenvalues:
  0.708  0.720  0.954  0.964  0.985
    eigenvectors:
  0.003  0.132  0.001  0.010  0.854
  0.979  0.021  0.000  0.000  0.000
  0.000  0.012  0.007  0.978  0.004
  0.018  0.835  0.000  0.006  0.141
  0.000  0.000  0.992  0.006  0.002
    occupations:
  0.949  0.001 -0.009 -0.090  0.001
  0.001  0.709  0.001  0.001 -0.004
 -0.009  0.001  0.961 -0.025  0.001
 -0.090  0.001 -0.025  0.759 -0.000
  0.001 -0.004  0.001 -0.000  0.954
atom   10   Tr[ns(na)] =   8.73229
    eigenvalues:
  0.665  0.752  0.978  0.983  0.988
    eigenvectors:
  0.000  0.981  0.000  0.011  0.009
  0.013  0.000  0.987  0.000  0.000
  0.000  0.001  0.000  0.256  0.744
  0.000  0.019  0.000  0.734  0.248
  0.987  0.000  0.013  0.000  0.000
    occupations:
  0.757  0.000 -0.007  0.031  0.000
  0.000  0.974  0.000 -0.000 -0.036
 -0.007  0.000  0.986 -0.001 -0.000
  0.031 -0.000 -0.001  0.980 -0.000
  0.000 -0.036 -0.000 -0.000  0.669
atom   16   Tr[ns(na)] =   8.69693
    eigenvalues:
  0.690  0.701  0.984  0.985  0.988
    eigenvectors:
  0.040  0.135  0.571  0.248  0.007
  0.781  0.219  0.000  0.000  0.000
  0.001  0.004  0.003  0.088  0.905
  0.179  0.642  0.124  0.043  0.012
  0.000  0.000  0.303  0.620  0.076
    occupations:
  0.935 -0.003  0.008 -0.108  0.000
 -0.003  0.692 -0.002 -0.004 -0.004
  0.008 -0.002  0.987  0.018 -0.001
 -0.108 -0.004  0.018  0.750 -0.000
  0.000 -0.004 -0.001 -0.000  0.985
atom   17   Tr[ns(na)] =   8.68570
    eigenvalues:
  0.687  0.708  0.978  0.984  0.985
    eigenvectors:
  0.000  0.986  0.007  0.002  0.006
  0.010  0.000  0.038  0.939  0.013
  0.000  0.005  0.927  0.028  0.040
  0.000  0.009  0.029  0.022  0.940
  0.990  0.000  0.000  0.010  0.000
    occupations:
  0.712 -0.005 -0.019  0.026 -0.001
 -0.005  0.980  0.001  0.000  0.030
 -0.019  0.001  0.977  0.003  0.000
  0.026  0.000  0.003  0.982  0.000
 -0.001  0.030  0.000  0.000  0.690
atom   22   Tr[ns(na)] =   8.66270
    eigenvalues:
  0.708  0.720  0.954  0.964  0.985
    eigenvectors:
  0.001  0.135  0.001  0.011  0.853
  0.994  0.005  0.000  0.000  0.000
  0.000  0.012  0.009  0.974  0.004
  0.004  0.848  0.000  0.006  0.141
  0.000  0.000  0.989  0.009  0.001
    occupations:
  0.949 -0.000 -0.009 -0.090 -0.001
 -0.000  0.709 -0.001 -0.001 -0.004
 -0.009 -0.001  0.961 -0.025 -0.001
 -0.090 -0.001 -0.025  0.759  0.000
 -0.001 -0.004 -0.001  0.000  0.954
atom   23   Tr[ns(na)] =   8.64285
    eigenvalues:
  0.715  0.739  0.922  0.959  0.987
    eigenvectors:
  0.000  0.889  0.105  0.000  0.006
  0.018  0.000  0.000  0.982  0.000
  0.000  0.096  0.882  0.000  0.022
  0.000  0.015  0.013  0.000  0.971
  0.982  0.000  0.000  0.018  0.000
    occupations:
  0.760  0.000  0.053  0.026 -0.000
  0.000  0.955 -0.000  0.000 -0.032
  0.053 -0.000  0.906 -0.017 -0.000
  0.026  0.000 -0.017  0.982 -0.000
 -0.000 -0.032 -0.000 -0.000  0.719
N of occupied +U levels =  69.4669956
 --- exit write_ns ---

[...]

          k = 0.2500-0.4976 0.0000 ( 32026 PWs)   bands (ev):

[...]

          k =-0.2500 0.2488 0.0000 ( 32025 PWs)   bands (ev):

   -56.0759 -56.0026 -55.8839 -55.7365 -55.7114 -55.6965 -55.6735 -55.6125
   -55.5796 -55.5769 -55.5657 -55.5386 -55.5344 -55.4133 -55.3711 -55.3556
   -55.3510 -55.3071 -55.2936 -55.2887 -55.2651 -55.0162 -54.7727 -54.4613
   -22.1863 -21.9179 -21.3097 -21.1582 -20.8314 -20.7268 -20.7216 -20.5681
   -20.5155 -20.4580 -20.3682 -20.3060 -20.2916 -20.1289 -20.0610 -20.0527
   -19.3907 -19.1383 -18.9589 -10.5882 -10.3517 -10.2641 -10.1579  -9.7513
    -9.6682  -9.5822  -9.4041  -9.3762  -9.3390  -9.2628  -9.2116  -9.0461
    -8.9186  -8.8769  -8.7985  -8.7374  -8.6147  -8.2432  -8.1470  -8.0112
    -7.9761  -7.9518  -7.7795  -7.5756  -7.4422  -7.3510  -7.2211  -7.1522
    -7.0991  -7.0195  -6.9413  -6.7969  -6.7706  -6.7508  -6.6656  -6.5553
    -6.4709  -6.4029  -6.3050  -6.1194  -6.0407  -5.9044  -5.7687  -5.6829
    -5.5277  -5.3938  -5.3181  -5.2132  -5.1613  -5.0856  -4.9045  -4.7830
    -4.6947  -4.6278  -4.4925  -4.4007  -4.2416  -4.1194  -4.0201  -3.9863
    -3.8819  -3.8574  -3.7710  -3.6826  -3.5923  -3.5514  -3.2867  -3.2495
    -3.1326  -2.8844  -2.7619  -2.6135  -2.5750  -2.4828  -2.4246  -2.3100
    -2.1269  -2.0003  -1.8839  -1.7846  -1.6401  -1.1939  -1.0769  -0.7394
    -0.3955  -0.2355   0.0537   0.3388   0.5697   0.7147   0.7436   0.8872
     1.0838   1.2769   1.3360   1.7069   3.0616   3.8193   4.5969   5.0140
     5.0426   5.1172   5.3188   5.6471   6.0699   6.1551   6.1797   6.3176
     6.4390   6.5291   6.6757   6.8476   6.9442   6.9943   7.1013   7.2129
     7.3589   7.4759   7.5492   7.5810   7.6792   7.8639   7.9248   8.0212
     8.1484   8.2440   8.2943   8.4398   8.5468   8.6426   8.6654   8.7626
     8.8519   8.9916   9.1307   9.2861   9.3472   9.4644   9.5294   9.5911
     9.6967   9.8713  10.0124  10.1107  10.1922  10.2536  10.3173  10.3843
    10.5245  10.5814  10.6536  10.7691  10.8008  10.9526  11.0462  11.0785
    11.1693  11.2012  11.3647  11.4533  11.4817  11.7068  11.7332  11.7773
    11.8584  11.9444  11.9884  12.0675  12.1343  12.2271  12.2598  12.3259
    12.4074  12.4500  12.5155  12.5694  12.6358  12.7352  12.8154  12.8991
    12.9415  13.0274  13.1653  13.1853  13.2239  13.4278  13.5055  13.5478
    13.6252  13.6907  13.7627  13.8547  13.9108  13.9587  14.0316  14.1185
    14.1788  14.2927  14.4112  14.4986  14.5464  14.6293  14.7481  14.8273
    14.8704  14.9378  15.0957  15.2102  15.2461  15.3277  15.4085  15.4490
    15.5265  15.5795  15.6345  15.6698  15.7582  15.7692  15.8198  15.8843
    15.9974  16.0504  16.0765  16.1160  16.1606  16.1947  16.2572  16.3571
    16.4345  16.5005  16.5543  16.5880  16.6024  16.6595  16.6833  16.7156
    16.7504  16.7805  16.8067  16.8597  16.9104  16.9231  17.0242  17.1054
    17.1411  17.1980  17.2072  17.2520  17.2821  17.3579  17.4608  17.4996
    17.5398  17.5472  17.5885  17.6192  17.7316  17.7788  17.8953  17.9497
    18.0396  18.0820  18.1316  18.2260  18.2625  18.3752  18.4758  18.5118
    18.5888  18.6177  18.6876  18.7163  18.8157  18.8479  18.8960  19.0169
    19.0397  19.1546  19.1754  19.2043  19.3132  19.3587  19.4348  19.4538
    19.6363  19.7621  19.8165  19.8778  19.9415  19.9559  19.9813  20.0642
    20.1136  20.2146  20.2376  20.3000  20.3670  20.3784  20.4910  20.5746
    20.6427  20.6927  20.7528  20.8386  20.9194  20.9682  21.0169  21.0645
    21.0758  21.2274  21.2669  21.3742  21.4107  21.4664  21.5119  21.5552
    21.6055  21.6555  21.7262  21.7823  21.8253  21.8885  21.9923  22.0916
    22.1294

     the Fermi energy is    -1.8349 ev

!    total energy              =   -2280.12443107 Ry
     Harris-Foulkes estimate   =   -2280.12443107 Ry
     estimated scf accuracy    <          6.2E-09 Ry

     The total energy is the sum of the following terms:

     one-electron contribution =  -23659.21682568 Ry
     hartree contribution      =   11870.59063686 Ry
     xc contribution           =    -572.04805099 Ry
     ewald contribution        =   10079.84095544 Ry
     Hubbard energy            =       0.70910068 Ry
     smearing contrib. (-TS)   =      -0.00024737 Ry

     convergence has been achieved in  14 iterations

     Forces acting on atoms (Ry/au):

     negative rho (up, down):  0.158E+01 0.000E+00
     atom    1 type  1   force =    -0.00857661   -0.00427139   -0.00029973
     atom    2 type  1   force =     0.00014679    0.00416601    0.00034466
     atom    3 type  2   force =     0.01550541    0.00600861   -0.00002625
     atom    4 type  2   force =     0.01067213    0.00465571   -0.00014288
     atom    5 type  1   force =     0.00120336   -0.00397995    0.00032151
     atom    6 type  1   force =    -0.00020049   -0.00273454   -0.00006812
     atom    7 type  1   force =     0.00008102    0.00032508   -0.00038634
     atom    8 type  1   force =    -0.00415655    0.00259713   -0.00006880
     atom    9 type  2   force =     0.00482821   -0.00471030    0.00018184
     atom   10 type  2   force =    -0.00001643   -0.01934414   -0.00097491
     atom   11 type  1   force =    -0.00356104    0.00201997    0.00023131
     atom   12 type  1   force =    -0.00937227    0.01428940    0.00021689
     atom   13 type  1   force =    -0.00111254   -0.00843379   -0.00007363
     atom   14 type  1   force =    -0.00862606   -0.00309879   -0.00045591
     atom   15 type  1   force =     0.00017421    0.00189828    0.00025111
     atom   16 type  2   force =    -0.01626532    0.00589454   -0.00002570
     atom   17 type  2   force =     0.01056128    0.00487385   -0.00018436
     atom   18 type  1   force =     0.00124018   -0.00391109    0.00031542
     atom   19 type  1   force =     0.00018704   -0.00264811   -0.00005956
     atom   20 type  1   force =     0.00007753   -0.00405929   -0.00020826
     atom   21 type  1   force =    -0.00403559    0.00250830    0.00003975
     atom   22 type  2   force =    -0.00109043   -0.00459553    0.00018596
     atom   23 type  2   force =    -0.00019093    0.01358767    0.00041155
     atom   24 type  1   force =     0.00367421    0.00207058    0.00023303
     atom   25 type  1   force =     0.00950617    0.01424697    0.00022000
     atom   26 type  1   force =    -0.00107785   -0.01701661    0.00026227
     atom   27 type  3   force =    -0.00000856   -0.00026120   -0.00001897
     atom   28 type  3   force =    -0.00001930   -0.00020179   -0.00006763
     atom   29 type  3   force =     0.00017132   -0.00021325    0.00007260
     atom   30 type  3   force =     0.00028408   -0.00040288    0.00006931
     atom   31 type  1   force =    -0.00000297    0.00074056   -0.00029616

     Total force =     0.001868     Total SCF correction =     0.000114

     bfgs converged in  12 scf cycles and  11 bfgs steps
     (criteria: energy < 0.10E-03, force < 0.10E-02)

     End of BFGS Geometry Optimization

     Final energy   =   -2280.1244310680 Ry
Begin final coordinates

ATOMIC_POSITIONS (crystal)
O0       0.000000000   0.000000000   0.377720387    0   0   1
O0       0.000000000   0.500000000   0.401763628    0   0   1
Pt1      0.250000000   0.500000000   0.451269307    0   0   1
Pt1      0.000000000   0.000000000   0.452744117    0   0   1
O0       0.250000000   0.810000000   0.442883347    0   0   1
O0       0.250000000   0.190000000   0.460724348    0   0   1
O0       0.000000000   0.500000000   0.496815452    0   0   1
O0       0.000000000   0.000000000   0.529835452    0   0   1
Pt1      0.250000000   0.000000000   0.576037162    0   0   1
Pt1      0.000000000   0.500000000   0.574975701    0   0   1
O0       0.250000000   0.690000000   0.565206458    0   0   1
O0       0.250000000   0.310000000   0.586109462    0   0   1
O0       0.000000000   0.000000000   0.621421378    0   0   1
O0       0.500000000   0.000000000   0.377817828    0   0   1
O0       0.500000000   0.500000000   0.401102640    0   0   1
Pt1      0.750000000   0.500000000   0.451271983    0   0   1
Pt1      0.500000000   0.000000000   0.452760193    0   0   1
O0       0.750000000   0.810000000   0.442914282    0   0   1
O0       0.750000000   0.190000000   0.460722127    0   0   1
O0       0.500000000   0.500000000   0.498162608    0   0   1
O0       0.500000000   0.000000000   0.529688449    0   0   1
Pt1      0.750000000   0.000000000   0.576039281    0   0   1
Pt1      0.500000000   0.500000000   0.577385680    0   0   1
O0       0.750000000   0.690000000   0.565188567    0   0   1
O0       0.750000000   0.310000000   0.586113099    0   0   1
O0       0.500000000   0.000000000   0.621436738    0   0   1
H2       0.000100221   0.640187318   0.386136672
H2       0.500098020   0.640707044   0.385869060
H2       0.143119179   0.035082222   0.367723699
H2       0.642743006   0.036345077   0.367761115
O0       0.500122832   0.575956610   0.644069780
End final coordinates

     General routines

     Parallel routines
     Hubbard U routines

   This run was terminated on:  13:55: 7  28Apr2014

   JOB DONE.
Running PBS batch system epilogue script
Job id: 340472.audhumbla.fysik.dtu.dk
Username: zhonxu
Groupname: campgst
Jobname: PtO2/Eads-2-layers/O-U-2.5
Sessionid: 28795
Queuename: verylong
Accounting:
This job has allocated the following 16 nodes:
c028 c028 c028 c028 c028 c028 c028 c028 c023 c023 c023 c023 c023 c023 c023 c023
Finished epilogue job 340472.audhumbla.fysik.dtu.dk for zhonxu