     Program PWSCF v.5.0.2 (svn rev. 9656) starts on 23Jan2014 at 18:33:10

     Current dimensions of program PWSCF are:
     Max number of different atomic species (ntypx) = 10
     Max number of k-points (npk) =  40000
     Max angular momentum in pseudopotentials (lmaxx) =  3
     Reading input from SnO2-v-1.2.in

     Subspace diagonalization in iterative solution of the eigenvalue problem:
     a serial algorithm will be used

     bravais-lattice index     =            0
     lattice parameter (alat)  =       9.2016  a.u.
     unit-cell volume          =     502.0761 (a.u.)^3
     number of atoms/cell      =            6
     number of atomic types    =            2
     number of electrons       =        52.00
     number of Kohn-Sham states=           75
     kinetic-energy cutoff     =      40.0000  Ry
     charge density cutoff     =     500.0000  Ry
     convergence threshold     =      1.0E-06
     mixing beta               =       0.7000
     number of iterations used =            8  plain     mixing
     Exchange-correlation      = SLA  PW   PBE  PBE ( 1 4 3 4 0)
     EXX-fraction              =        0.00
     nstep                     =           50

     celldm(1)=   9.201558  celldm(2)=   0.000000  celldm(3)=   0.000000
     celldm(4)=   0.000000  celldm(5)=   0.000000  celldm(6)=   0.000000

     crystal axes: (cart. coord. in units of alat)
               a(1) = (   1.000000   0.000000   0.000000 )
               a(2) = (   0.000000   1.000000   0.000000 )
               a(3) = (   0.000000   0.000000   0.644444 )

     reciprocal axes: (cart. coord. in units 2 pi/alat)
               b(1) = (  1.000000  0.000000  0.000000 )
               b(2) = (  0.000000  1.000000  0.000000 )
               b(3) = (  0.000000  0.000000  1.551724 )

     PseudoPot. # 1 for Sn read from file:
     /home/camp/zhonxu/pseudo/sn_pbe_v1.uspp.F.UPF
     MD5 check sum: 4cf58ce39ec5d5d420df3dd08604eb00
     Pseudo is Ultrasoft + core correction, Zval = 14.0
     Generated by new atomic code, or converted to UPF format
     Using radial grid of  891 points,  6 beta functions with:
                l(1) =   0
                l(2) =   0
                l(3) =   1
                l(4) =   1
                l(5) =   2
                l(6) =   2
     Q(r) pseudized with  6 coefficients,  rinner =    1.200   1.200   1.200
                                                       1.200   1.200

     PseudoPot. # 2 for O  read from file:
     /home/camp/zhonxu/pseudo/o_pbe_v1.01.uspp.F.UPF
     MD5 check sum: 2bcb18d16ea4b960afae9ec6d52f22d2
     Pseudo is Ultrasoft + core correction, Zval =  6.0
     Generated by new atomic code, or converted to UPF format
     Using radial grid of  737 points,  5 beta functions with:
                l(1) =   0
                l(2) =   0
                l(3) =   1
                l(4) =   1
                l(5) =   2
     Q(r) pseudized with  8 coefficients,  rinner =    0.900   0.900   0.900
                                                       0.900   0.900

     atomic species   valence    mass     pseudopotential
        Sn0           14.00   118.71000     Sn( 1.00)
        O1             6.00    15.99940     O ( 1.00)

     Starting magnetic structure
     atomic species   magnetization
        Sn0          0.600
        O1           0.000

      8 Sym. Ops., with inversion, found
          (note:  8 additional sym.ops. were found but ignored
           their fractional translations are incommensurate with FFT grid)

   Cartesian axes

     site n.     atom                  positions (alat units)
         1           Sn0 tau(   1) = (   0.0000000   0.0000000   0.0000000  )
         2           Sn0 tau(   2) = (   0.5000000   0.5000000   0.3222222  )
         3           O1  tau(   3) = (   0.3050000   0.3050000   0.0000000  )
         4           O1  tau(   4) = (  -0.3050000  -0.3050000   0.0000000  )
         5           O1  tau(   5) = (   0.8050000   0.1950000   0.3222222  )
         6           O1  tau(   6) = (   0.1950000   0.8050000   0.3222222  )

     number of k points=    54  Methfessel-Paxton smearing, width (Ry)=  0.0100
                       cart. coord. in units 2pi/alat
        k(    1) = (   0.0000000   0.0000000   0.0000000), wk =   0.0080000
        k(    2) = (   0.0000000   0.0000000   0.3103448), wk =   0.0160000
        k(    3) = (   0.0000000   0.0000000   0.6206897), wk =   0.0160000
        k(    4) = (   0.0000000   0.2000000   0.0000000), wk =   0.0320000
        k(    5) = (   0.0000000   0.2000000   0.3103448), wk =   0.0640000
        k(    6) = (   0.0000000   0.2000000   0.6206897), wk =   0.0640000
        k(    7) = (   0.0000000   0.4000000   0.0000000), wk =   0.0320000
        k(    8) = (   0.0000000   0.4000000   0.3103448), wk =   0.0640000
        k(    9) = (   0.0000000   0.4000000   0.6206897), wk =   0.0640000
        k(   10) = (   0.2000000   0.2000000   0.0000000), wk =   0.0160000
        k(   11) = (   0.2000000   0.2000000   0.3103448), wk =   0.0320000
        k(   12) = (   0.2000000   0.2000000   0.6206897), wk =   0.0320000
        k(   13) = (   0.2000000   0.4000000   0.0000000), wk =   0.0320000
        k(   14) = (   0.2000000   0.4000000   0.3103448), wk =   0.0640000
        k(   15) = (   0.2000000   0.4000000   0.6206897), wk =   0.0640000
        k(   16) = (   0.4000000   0.4000000   0.0000000), wk =   0.0160000
        k(   17) = (   0.4000000   0.4000000   0.3103448), wk =   0.0320000
        k(   18) = (   0.4000000   0.4000000   0.6206897), wk =   0.0320000
        k(   19) = (  -0.2000000   0.2000000   0.0000000), wk =   0.0160000
        k(   20) = (  -0.2000000   0.2000000  -0.3103448), wk =   0.0320000
        k(   21) = (  -0.2000000   0.2000000  -0.6206897), wk =   0.0320000
        k(   22) = (  -0.2000000   0.4000000   0.0000000), wk =   0.0320000
        k(   23) = (  -0.2000000   0.4000000  -0.3103448), wk =   0.0640000
        k(   24) = (  -0.2000000   0.4000000  -0.6206897), wk =   0.0640000
        k(   25) = (  -0.4000000   0.4000000   0.0000000), wk =   0.0160000
        k(   26) = (  -0.4000000   0.4000000  -0.3103448), wk =   0.0320000
        k(   27) = (  -0.4000000   0.4000000  -0.6206897), wk =   0.0320000
        k(   28) = (   0.0000000   0.0000000   0.0000000), wk =   0.0080000
        k(   29) = (   0.0000000   0.0000000   0.3103448), wk =   0.0160000
        k(   30) = (   0.0000000   0.0000000   0.6206897), wk =   0.0160000
        k(   31) = (   0.0000000   0.2000000   0.0000000), wk =   0.0320000
        k(   32) = (   0.0000000   0.2000000   0.3103448), wk =   0.0640000
        k(   33) = (   0.0000000   0.2000000   0.6206897), wk =   0.0640000
        k(   34) = (   0.0000000   0.4000000   0.0000000), wk =   0.0320000
        k(   35) = (   0.0000000   0.4000000   0.3103448), wk =   0.0640000
        k(   36) = (   0.0000000   0.4000000   0.6206897), wk =   0.0640000
        k(   37) = (   0.2000000   0.2000000   0.0000000), wk =   0.0160000
        k(   38) = (   0.2000000   0.2000000   0.3103448), wk =   0.0320000
        k(   39) = (   0.2000000   0.2000000   0.6206897), wk =   0.0320000
        k(   40) = (   0.2000000   0.4000000   0.0000000), wk =   0.0320000
        k(   41) = (   0.2000000   0.4000000   0.3103448), wk =   0.0640000
        k(   42) = (   0.2000000   0.4000000   0.6206897), wk =   0.0640000
        k(   43) = (   0.4000000   0.4000000   0.0000000), wk =   0.0160000
        k(   44) = (   0.4000000   0.4000000   0.3103448), wk =   0.0320000
        k(   45) = (   0.4000000   0.4000000   0.6206897), wk =   0.0320000
        k(   46) = (  -0.2000000   0.2000000   0.0000000), wk =   0.0160000
        k(   47) = (  -0.2000000   0.2000000  -0.3103448), wk =   0.0320000
        k(   48) = (  -0.2000000   0.2000000  -0.6206897), wk =   0.0320000
        k(   49) = (  -0.2000000   0.4000000   0.0000000), wk =   0.0320000
        k(   50) = (  -0.2000000   0.4000000  -0.3103448), wk =   0.0640000
        k(   51) = (  -0.2000000   0.4000000  -0.6206897), wk =   0.0640000
        k(   52) = (  -0.4000000   0.4000000   0.0000000), wk =   0.0160000
        k(   53) = (  -0.4000000   0.4000000  -0.3103448), wk =   0.0320000
        k(   54) = (  -0.4000000   0.4000000  -0.6206897), wk =   0.0320000

     Largest allocated arrays     est. size (Mb)     dimensions
     Largest temporary arrays     est. size (Mb)     dimensions

     Check: negative/imaginary core charge=   -0.000004    0.000000

     Initial potential from superposition of free atoms

     starting charge   49.99990, renormalised to   52.00000
     Starting wfc are   34 randomized atomic wfcs

     Self-consistent Calculation

     iteration #  1     ecut=    40.00 Ry     beta=0.70
     Davidson diagonalization with overlap
     ethr =  1.00E-02,  avg # of iterations =  5.1

     total energy              =    -454.60178719 Ry
     Harris-Foulkes estimate   =    -454.85905990 Ry
     estimated scf accuracy    <       3.56553390 Ry

     total magnetization       =    -0.00 Bohr mag/cell
     absolute magnetization    =     0.87 Bohr mag/cell

[...]

     End of self-consistent calculation

 ------ SPIN UP ------------

          k = 0.0000 0.0000 0.0000 (  2127 PWs)   bands (ev):

   -12.1219 -11.4839 -11.1982 -11.1569 -11.1566 -11.0582 -11.0581 -10.9863
   -10.9687 -10.9685  -9.7886  -8.0801  -8.0795  -6.4809   0.8424   4.8584
     4.8586   5.4193   5.9890   6.9257   7.1015   7.8361   7.8366   8.1942
     8.1944   8.9855   9.9288  15.2157  15.4050  15.4052  19.1213  19.6872
    20.4838  20.4838  21.1609  21.3422  23.9579  26.3598  27.5992  27.7288
    28.5492  28.5493  28.8203  28.8204  29.3630  29.3630  29.4319  29.4339
    30.4815  31.0644  31.3150  32.1618  34.2446  34.2447  36.2787  36.2789
    36.3222  37.2548  38.6030  38.7359  38.7359  40.4931  40.7504  40.8112
    42.1001  42.1001  42.2367  42.6405  42.6406  42.7554  44.6334  44.8255
    45.6551  45.6551  46.4500

[...]

          k =-0.2000 0.2000 0.0000 (  2131 PWs)   bands (ev):

[...]

 ------ SPIN DOWN ----------

[...]

     the Fermi energy is     9.0888 ev

!    total energy              =    -455.50629224 Ry
     Harris-Foulkes estimate   =    -455.50629202 Ry
     estimated scf accuracy    <       0.00000019 Ry

     The total energy is the sum of the following terms:

     one-electron contribution =    -137.66196241 Ry
     hartree contribution      =     109.05407825 Ry
     xc contribution           =    -124.60419837 Ry
     ewald contribution        =    -302.29421942 Ry
     smearing contrib. (-TS)   =       0.00000971 Ry

[...]

     convergence has been achieved in   7 iterations

     Forces acting on atoms (Ry/au):

     atom    1 type  1   force =     0.00000000    0.00000000    0.00000000
     atom    2 type  1   force =     0.00000000    0.00000000    0.00000000
     atom    3 type  2   force =     0.00114869    0.00114869    0.00000000
     atom    4 type  2   force =    -0.00114869   -0.00114869    0.00000000
     atom    5 type  2   force =     0.00116194   -0.00116194    0.00000000
     atom    6 type  2   force =    -0.00116194    0.00116194    0.00000000

[...]
        k(    3) = (   0.0000000   0.0000000   0.6020680), wk =   0.0160000
        k(    4) = (  -0.0000022   0.2030694   0.0000000), wk =   0.0320000
        k(    5) = (  -0.0000022   0.2030694   0.3010340), wk =   0.0640000
        k(    6) = (  -0.0000022   0.2030694   0.6020680), wk =   0.0640000
        k(    7) = (  -0.0000044   0.4061388   0.0000000), wk =   0.0320000
        k(    8) = (  -0.0000044   0.4061388   0.3010340), wk =   0.0640000
        k(    9) = (  -0.0000044   0.4061388   0.6020680), wk =   0.0640000
        k(   10) = (   0.2030672   0.2030672   0.0000000), wk =   0.0160000
        k(   11) = (   0.2030672   0.2030672   0.3010340), wk =   0.0320000
        k(   12) = (   0.2030672   0.2030672   0.6020680), wk =   0.0320000
        k(   13) = (   0.2030650   0.4061366   0.0000000), wk =   0.0320000
        k(   14) = (   0.2030650   0.4061366   0.3010340), wk =   0.0640000
        k(   15) = (   0.2030650   0.4061366   0.6020680), wk =   0.0640000
        k(   16) = (   0.4061344   0.4061344   0.0000000), wk =   0.0160000
        k(   17) = (   0.4061344   0.4061344   0.3010340), wk =   0.0320000
        k(   18) = (   0.4061344   0.4061344   0.6020680), wk =   0.0320000
        k(   19) = (  -0.2030716   0.2030716   0.0000000), wk =   0.0160000
        k(   20) = (  -0.2030716   0.2030716  -0.3010340), wk =   0.0320000
        k(   21) = (  -0.2030716   0.2030716  -0.6020680), wk =   0.0320000
        k(   22) = (  -0.2030738   0.4061410   0.0000000), wk =   0.0320000
        k(   23) = (  -0.2030738   0.4061410  -0.3010340), wk =   0.0640000
        k(   24) = (  -0.2030738   0.4061410  -0.6020680), wk =   0.0640000
        k(   25) = (  -0.4061432   0.4061432   0.0000000), wk =   0.0160000
        k(   26) = (  -0.4061432   0.4061432  -0.3010340), wk =   0.0320000
        k(   27) = (  -0.4061432   0.4061432  -0.6020680), wk =   0.0320000
        k(   28) = (   0.0000000   0.0000000   0.0000000), wk =   0.0080000
        k(   29) = (   0.0000000   0.0000000   0.3010340), wk =   0.0160000
        k(   30) = (   0.0000000   0.0000000   0.6020680), wk =   0.0160000
        k(   31) = (  -0.0000022   0.2030694   0.0000000), wk =   0.0320000
        k(   32) = (  -0.0000022   0.2030694   0.3010340), wk =   0.0640000
        k(   33) = (  -0.0000022   0.2030694   0.6020680), wk =   0.0640000
        k(   34) = (  -0.0000044   0.4061388   0.0000000), wk =   0.0320000
        k(   35) = (  -0.0000044   0.4061388   0.3010340), wk =   0.0640000
        k(   36) = (  -0.0000044   0.4061388   0.6020680), wk =   0.0640000
        k(   37) = (   0.2030672   0.2030672   0.0000000), wk =   0.0160000
        k(   38) = (   0.2030672   0.2030672   0.3010340), wk =   0.0320000
        k(   39) = (   0.2030672   0.2030672   0.6020680), wk =   0.0320000
        k(   40) = (   0.2030650   0.4061366   0.0000000), wk =   0.0320000
        k(   41) = (   0.2030650   0.4061366   0.3010340), wk =   0.0640000
        k(   42) = (   0.2030650   0.4061366   0.6020680), wk =   0.0640000
        k(   43) = (   0.4061344   0.4061344   0.0000000), wk =   0.0160000
        k(   44) = (   0.4061344   0.4061344   0.3010340), wk =   0.0320000
        k(   45) = (   0.4061344   0.4061344   0.6020680), wk =   0.0320000
        k(   46) = (  -0.2030716   0.2030716   0.0000000), wk =   0.0160000
        k(   47) = (  -0.2030716   0.2030716  -0.3010340), wk =   0.0320000
        k(   48) = (  -0.2030716   0.2030716  -0.6020680), wk =   0.0320000
        k(   49) = (  -0.2030738   0.4061410   0.0000000), wk =   0.0320000
        k(   50) = (  -0.2030738   0.4061410  -0.3010340), wk =   0.0640000
        k(   51) = (  -0.2030738   0.4061410  -0.6020680), wk =   0.0640000
        k(   52) = (  -0.4061432   0.4061432   0.0000000), wk =   0.0160000
        k(   53) = (  -0.4061432   0.4061432  -0.3010340), wk =   0.0320000
        k(   54) = (  -0.4061432   0.4061432  -0.6020680), wk =   0.0320000

[...]

     Total force =     0.000125     Total SCF correction =     0.000019
     SCF correction compared to forces is large: reduce conv_thr to get better values

[...]

     Volume is kept fixed: isostatic pressure set to zero

     bfgs converged in   6 scf cycles and   5 bfgs steps
     (criteria: energy < 0.10E-03, force < 0.10E-02, cell < 0.50E+00)

     End of BFGS Geometry Optimization

     Final enthalpy =    -455.5112879259 Ry
Begin final coordinates
     new unit-cell volume =    502.07609 a.u.^3 (    74.40000 Ang^3 )

CELL_PARAMETERS (alat=  9.20155768)
   0.984884971   0.000010663   0.000000000
   0.000010663   0.984884971   0.000000000
   0.000000000   0.000000000   0.664376808

ATOMIC_POSITIONS (crystal)
Sn0      0.000000000   0.000000000   0.000000000    0   0   0
Sn0      0.500000000   0.500000000   0.500000000    0   0   0
O1       0.306225015   0.306225015   0.000000000    1   1   0
O1      -0.306225015  -0.306225015   0.000000000    1   1   0
O1       0.806223226   0.193776774   0.500000000    1   1   0
O1       0.193776774   0.806223226   0.500000000    1   1   0
End final coordinates

     A final scf calculation at the relaxed structure.
     The G-vectors are recalculated for the final unit cell
     Results may differ from those at the preceding step.

     bravais-lattice index     =            0
     lattice parameter (alat)  =       9.2016  a.u.
     unit-cell volume          =     502.0761 (a.u.)^3
     number of atoms/cell      =            6
     number of atomic types    =            2
     number of electrons       =        52.00
     number of Kohn-Sham states=           75
     kinetic-energy cutoff     =      40.0000  Ry
     charge density cutoff     =     500.0000  Ry
     convergence threshold     =      1.0E-08
     mixing beta               =       0.7000
     number of iterations used =            8  plain     mixing
     Exchange-correlation      = SLA  PW   PBE  PBE ( 1 4 3 4 0)
     EXX-fraction              =        0.00

     celldm(1)=   9.201558  celldm(2)=   0.000000  celldm(3)=   0.000000
     celldm(4)=   0.000000  celldm(5)=   0.000000  celldm(6)=   0.000000

     crystal axes: (cart. coord. in units of alat)
               a(1) = (   0.984885   0.000011   0.000000 )
               a(2) = (   0.000011   0.984885   0.000000 )
               a(3) = (   0.000000   0.000000   0.664377 )

     reciprocal axes: (cart. coord. in units 2 pi/alat)
               b(1) = (  1.015347 -0.000011  0.000000 )
               b(2) = ( -0.000011  1.015347  0.000000 )
               b(3) = (  0.000000  0.000000  1.505170 )

     PseudoPot. # 1 for Sn read from file:
     /home/camp/zhonxu/pseudo/sn_pbe_v1.uspp.F.UPF
     MD5 check sum: 4cf58ce39ec5d5d420df3dd08604eb00
     Pseudo is Ultrasoft + core correction, Zval = 14.0
     Generated by new atomic code, or converted to UPF format
     Using radial grid of  891 points,  6 beta functions with:
                l(1) =   0
                l(2) =   0
                l(3) =   1
                l(4) =   1
                l(5) =   2
                l(6) =   2
     Q(r) pseudized with  6 coefficients,  rinner =    1.200   1.200   1.200
                                                       1.200   1.200

     PseudoPot. # 2 for O  read from file:
     /home/camp/zhonxu/pseudo/o_pbe_v1.01.uspp.F.UPF
     MD5 check sum: 2bcb18d16ea4b960afae9ec6d52f22d2
     Pseudo is Ultrasoft + core correction, Zval =  6.0
     Generated by new atomic code, or converted to UPF format
     Using radial grid of  737 points,  5 beta functions with:
                l(1) =   0
                l(2) =   0
                l(3) =   1
                l(4) =   1
                l(5) =   2
     Q(r) pseudized with  8 coefficients,  rinner =    0.900   0.900   0.900
                                                       0.900   0.900

     atomic species   valence    mass     pseudopotential
        Sn0           14.00   118.71000     Sn( 1.00)
        O1             6.00    15.99940     O ( 1.00)

     Starting magnetic structure
     atomic species   magnetization
        Sn0          0.600
        O1           0.000

      8 Sym. Ops., with inversion, found
          (note:  8 additional sym.ops. were found but ignored
           their fractional translations are incommensurate with FFT grid)

   Cartesian axes

     site n.     atom                  positions (alat units)
         1           Sn0 tau(   1) = (   0.0000000   0.0000000   0.0000000  )
         2           Sn0 tau(   2) = (   0.4924478   0.4924478   0.3321884  )
         3           O1  tau(   3) = (   0.3015997   0.3015997   0.0000000  )
         4           O1  tau(   4) = (  -0.3015997  -0.3015997   0.0000000  )
         5           O1  tau(   5) = (   0.7940392   0.1908564   0.3321884  )
         6           O1  tau(   6) = (   0.1908564   0.7940392   0.3321884  )

     number of k points=    54  Methfessel-Paxton smearing, width (Ry)=  0.0100
                       cart. coord. in units 2pi/alat
        k(    1) = (   0.0000000   0.0000000   0.0000000), wk =   0.0080000
        k(    2) = (   0.0000000   0.0000000   0.3010340), wk =   0.0160000
        k(    3) = (   0.0000000   0.0000000   0.6020680), wk =   0.0160000
        k(    4) = (  -0.0000022   0.2030694   0.0000000), wk =   0.0320000
        k(    5) = (  -0.0000022   0.2030694   0.3010340), wk =   0.0640000
        k(    6) = (  -0.0000022   0.2030694   0.6020680), wk =   0.0640000
        k(    7) = (  -0.0000044   0.4061388   0.0000000), wk =   0.0320000
        k(    8) = (  -0.0000044   0.4061388   0.3010340), wk =   0.0640000
        k(    9) = (  -0.0000044   0.4061388   0.6020680), wk =   0.0640000
        k(   10) = (   0.2030672   0.2030672   0.0000000), wk =   0.0160000
        k(   11) = (   0.2030672   0.2030672   0.3010340), wk =   0.0320000
        k(   12) = (   0.2030672   0.2030672   0.6020680), wk =   0.0320000
        k(   13) = (   0.2030650   0.4061366   0.0000000), wk =   0.0320000
        k(   14) = (   0.2030650   0.4061366   0.3010340), wk =   0.0640000
        k(   15) = (   0.2030650   0.4061366   0.6020680), wk =   0.0640000
        k(   16) = (   0.4061344   0.4061344   0.0000000), wk =   0.0160000
        k(   17) = (   0.4061344   0.4061344   0.3010340), wk =   0.0320000
        k(   18) = (   0.4061344   0.4061344   0.6020680), wk =   0.0320000
        k(   19) = (  -0.2030716   0.2030716   0.0000000), wk =   0.0160000
        k(   20) = (  -0.2030716   0.2030716  -0.3010340), wk =   0.0320000
        k(   21) = (  -0.2030716   0.2030716  -0.6020680), wk =   0.0320000
        k(   22) = (  -0.2030738   0.4061410   0.0000000), wk =   0.0320000
        k(   23) = (  -0.2030738   0.4061410  -0.3010340), wk =   0.0640000
        k(   24) = (  -0.2030738   0.4061410  -0.6020680), wk =   0.0640000
        k(   25) = (  -0.4061432   0.4061432   0.0000000), wk =   0.0160000
        k(   26) = (  -0.4061432   0.4061432  -0.3010340), wk =   0.0320000
        k(   27) = (  -0.4061432   0.4061432  -0.6020680), wk =   0.0320000
        k(   28) = (   0.0000000   0.0000000   0.0000000), wk =   0.0080000
        k(   29) = (   0.0000000   0.0000000   0.3010340), wk =   0.0160000
        k(   30) = (   0.0000000   0.0000000   0.6020680), wk =   0.0160000
        k(   31) = (  -0.0000022   0.2030694   0.0000000), wk =   0.0320000
        k(   32) = (  -0.0000022   0.2030694   0.3010340), wk =   0.0640000
        k(   33) = (  -0.0000022   0.2030694   0.6020680), wk =   0.0640000
        k(   34) = (  -0.0000044   0.4061388   0.0000000), wk =   0.0320000
        k(   35) = (  -0.0000044   0.4061388   0.3010340), wk =   0.0640000
        k(   36) = (  -0.0000044   0.4061388   0.6020680), wk =   0.0640000
        k(   37) = (   0.2030672   0.2030672   0.0000000), wk =   0.0160000
        k(   38) = (   0.2030672   0.2030672   0.3010340), wk =   0.0320000
        k(   39) = (   0.2030672   0.2030672   0.6020680), wk =   0.0320000
        k(   40) = (   0.2030650   0.4061366   0.0000000), wk =   0.0320000
        k(   41) = (   0.2030650   0.4061366   0.3010340), wk =   0.0640000
        k(   42) = (   0.2030650   0.4061366   0.6020680), wk =   0.0640000
        k(   43) = (   0.4061344   0.4061344   0.0000000), wk =   0.0160000
        k(   44) = (   0.4061344   0.4061344   0.3010340), wk =   0.0320000
        k(   45) = (   0.4061344   0.4061344   0.6020680), wk =   0.0320000
        k(   46) = (  -0.2030716   0.2030716   0.0000000), wk =   0.0160000
        k(   47) = (  -0.2030716   0.2030716  -0.3010340), wk =   0.0320000
        k(   48) = (  -0.2030716   0.2030716  -0.6020680), wk =   0.0320000
        k(   49) = (  -0.2030738   0.4061410   0.0000000), wk =   0.0320000
        k(   50) = (  -0.2030738   0.4061410  -0.3010340), wk =   0.0640000
        k(   51) = (  -0.2030738   0.4061410  -0.6020680), wk =   0.0640000
        k(   52) = (  -0.4061432   0.4061432   0.0000000), wk =   0.0160000
        k(   53) = (  -0.4061432   0.4061432  -0.3010340), wk =   0.0320000
        k(   54) = (  -0.4061432   0.4061432  -0.6020680), wk =   0.0320000

     Largest allocated arrays     est. size (Mb)     dimensions
     Largest temporary arrays     est. size (Mb)     dimensions

     Check: negative/imaginary core charge=   -0.000004    0.000000

     Initial potential from superposition of free atoms

     starting charge   49.99990, renormalised to   52.00000
     Starting wfc are   34 randomized atomic wfcs

     Self-consistent Calculation

[...]

     total energy              =    -455.51131676 Ry
     Harris-Foulkes estimate   =    -455.51131689 Ry
     estimated scf accuracy    <       0.00000053 Ry

[...]

     iteration #  9     ecut=    40.00 Ry     beta=0.70
     Davidson diagonalization with overlap
     ethr =  1.01E-09,  avg # of iterations =  1.0

     End of self-consistent calculation

 ------ SPIN UP ------------

[...]

 ------ SPIN DOWN ----------

[...]

          k = 0.4061 0.4061 0.6021 (  2139 PWs)   bands (ev):

[...]

          k =-0.4061 0.4061-0.6021 (  2139 PWs)   bands (ev):

   -11.8608 -11.7820 -11.4578 -11.3437 -11.0245 -11.0225 -10.9883 -10.9855
   -10.9710 -10.9678  -8.1381  -7.9480  -6.8375  -6.7096   1.4133   1.5515
     4.4265   4.4292   5.2782   6.3085   6.5172   7.4532   7.9889   8.0317
     8.1771   8.2358  13.6783  13.8072  17.5591  17.9697  19.2175  19.5406
    19.7745  20.1489  21.6821  21.9579  23.3818  23.7589  23.8166  25.7270
    26.6039  26.8301  27.7056  28.7621  29.4351  29.4353  31.0490  31.5819
    33.1095  33.2627  33.9873  34.7938  34.9780  35.6072  36.2601  36.9378
    37.1207  38.6332  39.0624  39.3693  40.8432  41.1997  41.7784  42.1998
    42.3369  42.6960  43.1046  43.8428  43.8627  44.8642  44.9421  45.4998
    46.1618  46.5933  47.3697

     the Fermi energy is     9.1022 ev

!    total energy              =    -455.51131687 Ry
     Harris-Foulkes estimate   =    -455.51131687 Ry
     estimated scf accuracy    <          1.6E-09 Ry

     The total energy is the sum of the following terms:

     one-electron contribution =    -135.19456133 Ry
     hartree contribution      =     107.87804281 Ry
     xc contribution           =    -124.57098985 Ry
     ewald contribution        =    -303.62381911 Ry
     smearing contrib. (-TS)   =       0.00001061 Ry

     total magnetization       =    -0.00 Bohr mag/cell
     absolute magnetization    =     0.00 Bohr mag/cell

     convergence has been achieved in   9 iterations

     Forces acting on atoms (Ry/au):

     atom    1 type  1   force =     0.00000000    0.00000000    0.00000000
     atom    2 type  1   force =     0.00000000    0.00000000    0.00000000
     atom    3 type  2   force =     0.00007699    0.00007699    0.00000000
     atom    4 type  2   force =    -0.00007699   -0.00007699    0.00000000
     atom    5 type  2   force =     0.00009014   -0.00009014   -0.00000000
     atom    6 type  2   force =    -0.00009014    0.00009014   -0.00000000

     Total force =     0.000237     Total SCF correction =     0.000020

     entering subroutine stress ...

          total   stress  (Ry/bohr**3)                   (kbar)     P=   23.43
   0.00016020  -0.00000029   0.00000000         23.57     -0.04      0.00
  -0.00000029   0.00016020   0.00000000         -0.04     23.57      0.00
   0.00000000   0.00000000   0.00015751          0.00      0.00     23.17

     General routines

     Parallel routines

   This run was terminated on:  19:18:20  23Jan2014

   JOB DONE.
Running PBS batch system epilogue script
Job id: 251205.audhumbla.fysik.dtu.dk
Username: zhonxu
Groupname: campgst
Jobname: SnO2/coarse-EOS/SnO2-v-1.2
Sessionid: 27880
Queuename: verylong
Accounting:
This job has allocated the following 4 nodes:
q092 q092 q092 q092
Finished epilogue job 251205.audhumbla.fysik.dtu.dk for zhonxu