     Program PWSCF v.5.0.2 (svn rev. 9656) starts on 24Jan2014 at 15:16:23

     Current dimensions of program PWSCF are:
     Max number of different atomic species (ntypx) = 10
     Max number of k-points (npk) =  40000
     Max angular momentum in pseudopotentials (lmaxx) =  3
     Reading input from PtO2-v-0.90.in

     Subspace diagonalization in iterative solution of the eigenvalue problem:
     a serial algorithm will be used

     bravais-lattice index     =            0
     lattice parameter (alat)  =       8.6241  a.u.
     unit-cell volume          =     413.3564 (a.u.)^3
     number of atoms/cell      =            6
     number of atomic types    =            2
     number of electrons       =        56.00
     number of Kohn-Sham states=           84
     kinetic-energy cutoff     =      40.0000  Ry
     charge density cutoff     =     500.0000  Ry
     convergence threshold     =      1.0E-06
     mixing beta               =       0.3000
     number of iterations used =            8  plain     mixing
     Exchange-correlation      = SLA  PW   PBE  PBE ( 1 4 3 4 0)
     EXX-fraction              =        0.00
     nstep                     =           50

     celldm(1)=   8.624086  celldm(2)=   0.000000  celldm(3)=   0.000000
     celldm(4)=   0.000000  celldm(5)=   0.000000  celldm(6)=   0.000000

     crystal axes: (cart. coord. in units of alat)
               a(1) = (   1.000000   0.000000   0.000000 )
               a(2) = (   0.000000   1.000000   0.000000 )
               a(3) = (   0.000000   0.000000   0.644444 )

     reciprocal axes: (cart. coord. in units 2 pi/alat)
               b(1) = (  1.000000  0.000000  0.000000 )
               b(2) = (  0.000000  1.000000  0.000000 )
               b(3) = (  0.000000  0.000000  1.551724 )

     PseudoPot. # 1 for Pt read from file:
     /home/camp/zhonxu/pseudo/pt_pbe_v1.uspp.F.UPF
     MD5 check sum: 4c71d6ad5ef119f1eb26a4d0b7884226
     Pseudo is Ultrasoft + core correction, Zval = 16.0
     Generated by new atomic code, or converted to UPF format
     Using radial grid of  985 points,  6 beta functions with:
                l(1) =   0
                l(2) =   0
                l(3) =   1
                l(4) =   1
                l(5) =   2
                l(6) =   2
     Q(r) pseudized with  8 coefficients,  rinner =    1.300   1.300   1.300
                                                       1.300   1.300

     PseudoPot. # 2 for O  read from file:
     /home/camp/zhonxu/pseudo/o_pbe_v1.01.uspp.F.UPF
     MD5 check sum: 2bcb18d16ea4b960afae9ec6d52f22d2
     Pseudo is Ultrasoft + core correction, Zval =  6.0
     Generated by new atomic code, or converted to UPF format
     Using radial grid of  737 points,  5 beta functions with:
                l(1) =   0
                l(2) =   0
                l(3) =   1
                l(4) =   1
                l(5) =   2
     Q(r) pseudized with  8 coefficients,  rinner =    0.900   0.900   0.900
                                                       0.900   0.900

     atomic species   valence    mass     pseudopotential
        Pt0           16.00   195.08000     Pt( 1.00)
        O1             6.00    15.99940     O ( 1.00)

     Starting magnetic structure
     atomic species   magnetization
        Pt0          0.600
        O1           0.000

     16 Sym. Ops., with inversion, found ( 8 have fractional translation)

   Cartesian axes

     site n.     atom                  positions (alat units)
         1           Pt0 tau(   1) = (   0.0000000   0.0000000   0.0000000  )
         2           Pt0 tau(   2) = (   0.5000000   0.5000000   0.3222222  )
         3           O1  tau(   3) = (   0.3050000   0.3050000   0.0000000  )
         4           O1  tau(   4) = (  -0.3050000  -0.3050000   0.0000000  )
         5           O1  tau(   5) = (   0.8050000   0.1950000   0.3222222  )
         6           O1  tau(   6) = (   0.1950000   0.8050000   0.3222222  )

     number of k points=    36  Methfessel-Paxton smearing, width (Ry)=  0.0100
                       cart. coord. in units 2pi/alat
        k(    1) = (   0.0000000   0.0000000   0.0000000), wk =   0.0080000
        k(    2) = (   0.0000000   0.0000000   0.3103448), wk =   0.0160000
        k(    3) = (   0.0000000   0.0000000   0.6206897), wk =   0.0160000
        k(    4) = (   0.0000000   0.2000000   0.0000000), wk =   0.0320000
        k(    5) = (   0.0000000   0.2000000   0.3103448), wk =   0.0640000
        k(    6) = (   0.0000000   0.2000000   0.6206897), wk =   0.0640000
        k(    7) = (   0.0000000   0.4000000   0.0000000), wk =   0.0320000
        k(    8) = (   0.0000000   0.4000000   0.3103448), wk =   0.0640000
        k(    9) = (   0.0000000   0.4000000   0.6206897), wk =   0.0640000
        k(   10) = (   0.2000000   0.2000000   0.0000000), wk =   0.0320000
        k(   11) = (   0.2000000   0.2000000   0.3103448), wk =   0.0640000
        k(   12) = (   0.2000000   0.2000000   0.6206897), wk =   0.0640000
        k(   13) = (   0.2000000   0.4000000   0.0000000), wk =   0.0640000
        k(   14) = (   0.2000000   0.4000000   0.3103448), wk =   0.1280000
        k(   15) = (   0.2000000   0.4000000   0.6206897), wk =   0.1280000
        k(   16) = (   0.4000000   0.4000000   0.0000000), wk =   0.0320000
        k(   17) = (   0.4000000   0.4000000   0.3103448), wk =   0.0640000
        k(   18) = (   0.4000000   0.4000000   0.6206897), wk =   0.0640000
        k(   19) = (   0.0000000   0.0000000   0.0000000), wk =   0.0080000
        k(   20) = (   0.0000000   0.0000000   0.3103448), wk =   0.0160000
        k(   21) = (   0.0000000   0.0000000   0.6206897), wk =   0.0160000
        k(   22) = (   0.0000000   0.2000000   0.0000000), wk =   0.0320000
        k(   23) = (   0.0000000   0.2000000   0.3103448), wk =   0.0640000
        k(   24) = (   0.0000000   0.2000000   0.6206897), wk =   0.0640000
        k(   25) = (   0.0000000   0.4000000   0.0000000), wk =   0.0320000
        k(   26) = (   0.0000000   0.4000000   0.3103448), wk =   0.0640000
        k(   27) = (   0.0000000   0.4000000   0.6206897), wk =   0.0640000
        k(   28) = (   0.2000000   0.2000000   0.0000000), wk =   0.0320000
        k(   29) = (   0.2000000   0.2000000   0.3103448), wk =   0.0640000
        k(   30) = (   0.2000000   0.2000000   0.6206897), wk =   0.0640000
        k(   31) = (   0.2000000   0.4000000   0.0000000), wk =   0.0640000
        k(   32) = (   0.2000000   0.4000000   0.3103448), wk =   0.1280000
        k(   33) = (   0.2000000   0.4000000   0.6206897), wk =   0.1280000
        k(   34) = (   0.4000000   0.4000000   0.0000000), wk =   0.0320000
        k(   35) = (   0.4000000   0.4000000   0.3103448), wk =   0.0640000
        k(   36) = (   0.4000000   0.4000000   0.6206897), wk =   0.0640000

     Largest allocated arrays     est. size (Mb)     dimensions
     Largest temporary arrays     est. size (Mb)     dimensions

     Check: negative/imaginary core charge=   -0.000005    0.000000

     Initial potential from superposition of free atoms
     Check: negative starting charge=(component1):   -0.304823
     Check: negative starting charge=(component2):   -0.075549

     starting charge   54.99997, renormalised to   56.00000

     negative rho (up, down):  0.310E+00 0.769E-01
     Starting wfc are   40 randomized atomic wfcs

     Self-consistent Calculation

     iteration #  1     ecut=    40.00 Ry     beta=0.30
     Davidson diagonalization with overlap
     ethr =  1.00E-02,  avg # of iterations =  6.0

     negative rho (up, down):  0.276E+00 0.108E+00

     total energy              =    -542.77431134 Ry
     Harris-Foulkes estimate   =    -544.76232568 Ry
     estimated scf accuracy    <       6.34353109 Ry

     total magnetization       =     6.01 Bohr mag/cell
     absolute magnetization    =     6.07 Bohr mag/cell

[...]

     End of self-consistent calculation

 ------ SPIN UP ------------

          k = 0.0000 0.0000 0.0000 (  1787 PWs)   bands (ev):

   -39.9472 -39.9370 -39.8282 -39.8282 -39.7451 -39.7451  -6.5709  -5.2806
    -4.1425  -4.1425   4.3211   4.4712   6.2141   6.2141   6.5166   9.6101
     9.6101  10.0737  10.5868  11.0344  11.0986  11.2776  11.2776  11.4434
    12.0799  12.0799  13.2318  14.4210  15.4694  18.4219  18.4219  19.1860
    19.9998  23.8859  23.8859  26.8921  27.4876  28.1514  30.3431  31.4589
    31.4589  32.0792  32.5450  32.5702  32.5767  35.4206  35.9262  35.9262
    37.3543  37.3543  38.9479  41.2805  41.5157  41.5922  41.5922  43.5182
    43.7824  43.8153  44.5046  46.1844  46.1844  46.1978  46.5901  46.5901
    47.4649  47.4649  47.4828  49.7726  51.5469  53.1188  53.3919  53.3919
    54.1445  54.3771  54.3771  55.6612  55.6612  55.7113  55.7440  56.2666
    56.7683  57.2981  57.4058  62.0384

[...]

 ------ SPIN DOWN ----------

[...]

     the Fermi energy is    15.1774 ev

!    total energy              =    -544.86671933 Ry
     Harris-Foulkes estimate   =    -544.86671780 Ry
     estimated scf accuracy    <       0.00000025 Ry

     The total energy is the sum of the following terms:

     one-electron contribution =    -122.29022109 Ry
     hartree contribution      =     102.01706807 Ry
     xc contribution           =    -137.81005553 Ry
     ewald contribution        =    -386.78365513 Ry
     smearing contrib. (-TS)   =       0.00014436 Ry

[...]

     convergence has been achieved in  11 iterations

     Forces acting on atoms (Ry/au):

     negative rho (up, down):  0.196E+00 0.196E+00
     atom    1 type  1   force =     0.00000000    0.00000000    0.00000000
     atom    2 type  1   force =     0.00000000    0.00000000    0.00000000
     atom    3 type  2   force =    -0.02740230   -0.02740230    0.00000000
     atom    4 type  2   force =     0.02740230    0.02740230    0.00000000
     atom    5 type  2   force =    -0.02740230    0.02740230   -0.00000000
     atom    6 type  2   force =     0.02740230   -0.02740230   -0.00000000

     Total force =     0.077505     Total SCF correction =     0.000122

     entering subroutine stress ...

     negative rho (up, down):  0.196E+00 0.196E+00
          total   stress  (Ry/bohr**3)                   (kbar)     P=  317.13
   0.00135439   0.00000000   0.00000000        199.24      0.00      0.00
   0.00000000   0.00135439   0.00000000          0.00    199.24      0.00
   0.00000000   0.00000000   0.00375866          0.00      0.00    552.92

     Volume is kept fixed: isostatic pressure set to zero

     BFGS Geometry Optimization

     number of scf cycles    =   1
     number of bfgs steps    =   0

     enthalpy new            =    -544.8667193291 Ry

     new trust radius        =       0.1629382516 bohr
     new conv_thr            =       0.0000010000 Ry

     new unit-cell volume =    413.35641 a.u.^3 (    61.25310 Ang^3 )

CELL_PARAMETERS (alat=  8.62408573)
   0.980352908   0.000000000   0.000000000
   0.000000000   0.980352908   0.000000000
   0.000000000   0.000000000   0.670533687

ATOMIC_POSITIONS (crystal)
Pt0      0.000000000   0.000000000   0.000000000    0   0   0
Pt0      0.500000000   0.500000000   0.500000000    0   0   0
[...]
        k(   28) = (   0.2040082   0.2040082   0.0000000), wk =   0.0320000
        k(   29) = (   0.2040082   0.2040082   0.2982699), wk =   0.0640000
        k(   30) = (   0.2040082   0.2040082   0.5965398), wk =   0.0640000
        k(   31) = (   0.2040082   0.4080163   0.0000000), wk =   0.0640000
        k(   32) = (   0.2040082   0.4080163   0.2982699), wk =   0.1280000
        k(   33) = (   0.2040082   0.4080163   0.5965398), wk =   0.1280000
        k(   34) = (   0.4080163   0.4080163   0.0000000), wk =   0.0320000
        k(   35) = (   0.4080163   0.4080163   0.2982699), wk =   0.0640000
        k(   36) = (   0.4080163   0.4080163   0.5965398), wk =   0.0640000

     Check: negative/imaginary core charge=   -0.000005    0.000000
     Check: negative starting charge=(component1):   -0.382300

[...]

     enthalpy old            =    -544.8667193291 Ry
     enthalpy new            =    -544.8873566500 Ry

     CASE: enthalpy_new < enthalpy_old

[...]

     Total force =     0.019045     Total SCF correction =     0.000105

[...]

     Total force =     0.000518     Total SCF correction =     0.000078
     SCF correction compared to forces is large: reduce conv_thr to get better values

[...]

     number of scf cycles    =   5
     number of bfgs steps    =   4

     enthalpy old            =    -544.8969444644 Ry
     enthalpy new            =    -544.8975372207 Ry

     CASE: enthalpy_new < enthalpy_old

     new trust radius        =       0.0008345844 bohr
     new conv_thr            =       0.0000000100 Ry

     new unit-cell volume =    413.35641 a.u.^3 (    61.25310 Ang^3 )

[...]

ATOMIC_POSITIONS (crystal)
Pt0      0.000000000   0.000000000   0.000000000    0   0   0
Pt0      0.500000000   0.500000000   0.500000000    0   0   0
O1       0.309829724   0.309829724   0.000000000    1   1   0
O1      -0.309829724  -0.309829724   0.000000000    1   1   0
O1       0.809829724   0.190170276   0.500000000    1   1   0
O1       0.190170276   0.809829724   0.500000000    1   1   0

     Check: negative starting charge=(component1):   -0.383283
     NEW-OLD atomic charge density approx. for the potential
     NEW k-points:
        k(    1) = (   0.0000000   0.0000000   0.0000000), wk =   0.0080000
        k(    2) = (   0.0000000   0.0000000   0.2896202), wk =   0.0160000
        k(    3) = (   0.0000000   0.0000000   0.5792405), wk =   0.0160000
        k(    4) = (   0.0000000   0.2070322   0.0000000), wk =   0.0320000
        k(    5) = (   0.0000000   0.2070322   0.2896202), wk =   0.0640000
        k(    6) = (   0.0000000   0.2070322   0.5792405), wk =   0.0640000
        k(    7) = (   0.0000000   0.4140643   0.0000000), wk =   0.0320000
        k(    8) = (   0.0000000   0.4140643   0.2896202), wk =   0.0640000
        k(    9) = (   0.0000000   0.4140643   0.5792405), wk =   0.0640000
        k(   10) = (   0.2070322   0.2070322   0.0000000), wk =   0.0320000
        k(   11) = (   0.2070322   0.2070322   0.2896202), wk =   0.0640000
        k(   12) = (   0.2070322   0.2070322   0.5792405), wk =   0.0640000
        k(   13) = (   0.2070322   0.4140643   0.0000000), wk =   0.0640000
        k(   14) = (   0.2070322   0.4140643   0.2896202), wk =   0.1280000
        k(   15) = (   0.2070322   0.4140643   0.5792405), wk =   0.1280000
        k(   16) = (   0.4140643   0.4140643   0.0000000), wk =   0.0320000
        k(   17) = (   0.4140643   0.4140643   0.2896202), wk =   0.0640000
        k(   18) = (   0.4140643   0.4140643   0.5792405), wk =   0.0640000
        k(   19) = (   0.0000000   0.0000000   0.0000000), wk =   0.0080000
        k(   20) = (   0.0000000   0.0000000   0.2896202), wk =   0.0160000
        k(   21) = (   0.0000000   0.0000000   0.5792405), wk =   0.0160000
        k(   22) = (   0.0000000   0.2070322   0.0000000), wk =   0.0320000
        k(   23) = (   0.0000000   0.2070322   0.2896202), wk =   0.0640000
        k(   24) = (   0.0000000   0.2070322   0.5792405), wk =   0.0640000
        k(   25) = (   0.0000000   0.4140643   0.0000000), wk =   0.0320000
        k(   26) = (   0.0000000   0.4140643   0.2896202), wk =   0.0640000
        k(   27) = (   0.0000000   0.4140643   0.5792405), wk =   0.0640000
        k(   28) = (   0.2070322   0.2070322   0.0000000), wk =   0.0320000
        k(   29) = (   0.2070322   0.2070322   0.2896202), wk =   0.0640000
        k(   30) = (   0.2070322   0.2070322   0.5792405), wk =   0.0640000
        k(   31) = (   0.2070322   0.4140643   0.0000000), wk =   0.0640000
        k(   32) = (   0.2070322   0.4140643   0.2896202), wk =   0.1280000
        k(   33) = (   0.2070322   0.4140643   0.5792405), wk =   0.1280000
        k(   34) = (   0.4140643   0.4140643   0.0000000), wk =   0.0320000
        k(   35) = (   0.4140643   0.4140643   0.2896202), wk =   0.0640000
        k(   36) = (   0.4140643   0.4140643   0.5792405), wk =   0.0640000

     Check: negative/imaginary core charge=   -0.000005    0.000000
     Check: negative starting charge=(component1):   -0.383279

[...]

     Threshold (ethr) on eigenvalues was too large:
     Diagonalizing with lowered threshold

     Davidson diagonalization with overlap
     ethr =  3.98E-10,  avg # of iterations =  2.0

[...]

     Volume is kept fixed: isostatic pressure set to zero

     bfgs converged in   6 scf cycles and   5 bfgs steps
     (criteria: energy < 0.10E-03, force < 0.10E-02, cell < 0.50E+00)

     End of BFGS Geometry Optimization

     Final enthalpy =    -544.8975375328 Ry
Begin final coordinates
     new unit-cell volume =    413.35641 a.u.^3 (    61.25310 Ang^3 )

CELL_PARAMETERS (alat=  8.62408573)
   0.966033516   0.000000000   0.000000000
   0.000000000   0.966033516   0.000000000
   0.000000000   0.000000000   0.690559486

ATOMIC_POSITIONS (crystal)
Pt0      0.000000000   0.000000000   0.000000000    0   0   0
Pt0      0.500000000   0.500000000   0.500000000    0   0   0
O1       0.309829724   0.309829724   0.000000000    1   1   0
O1      -0.309829724  -0.309829724   0.000000000    1   1   0
O1       0.809829724   0.190170276   0.500000000    1   1   0
O1       0.190170276   0.809829724   0.500000000    1   1   0
End final coordinates

     A final scf calculation at the relaxed structure.
     The G-vectors are recalculated for the final unit cell
     Results may differ from those at the preceding step.

     bravais-lattice index     =            0
     lattice parameter (alat)  =       8.6241  a.u.
     unit-cell volume          =     413.3564 (a.u.)^3
     number of atoms/cell      =            6
     number of atomic types    =            2
     number of electrons       =        56.00
     number of Kohn-Sham states=           84
     kinetic-energy cutoff     =      40.0000  Ry
     charge density cutoff     =     500.0000  Ry
     convergence threshold     =      1.0E-08
     mixing beta               =       0.3000
     number of iterations used =            8  plain     mixing
     Exchange-correlation      = SLA  PW   PBE  PBE ( 1 4 3 4 0)
     EXX-fraction              =        0.00

     celldm(1)=   8.624086  celldm(2)=   0.000000  celldm(3)=   0.000000
     celldm(4)=   0.000000  celldm(5)=   0.000000  celldm(6)=   0.000000

     crystal axes: (cart. coord. in units of alat)
               a(1) = (   0.966034   0.000000   0.000000 )
               a(2) = (   0.000000   0.966034   0.000000 )
               a(3) = (   0.000000   0.000000   0.690559 )

     reciprocal axes: (cart. coord. in units 2 pi/alat)
               b(1) = (  1.035161  0.000000  0.000000 )
               b(2) = (  0.000000  1.035161  0.000000 )
               b(3) = (  0.000000  0.000000  1.448101 )

     PseudoPot. # 1 for Pt read from file:
     /home/camp/zhonxu/pseudo/pt_pbe_v1.uspp.F.UPF
     MD5 check sum: 4c71d6ad5ef119f1eb26a4d0b7884226
     Pseudo is Ultrasoft + core correction, Zval = 16.0
     Generated by new atomic code, or converted to UPF format
     Using radial grid of  985 points,  6 beta functions with:
                l(1) =   0
                l(2) =   0
                l(3) =   1
                l(4) =   1
                l(5) =   2
                l(6) =   2
     Q(r) pseudized with  8 coefficients,  rinner =    1.300   1.300   1.300
                                                       1.300   1.300

     PseudoPot. # 2 for O  read from file:
     /home/camp/zhonxu/pseudo/o_pbe_v1.01.uspp.F.UPF
     MD5 check sum: 2bcb18d16ea4b960afae9ec6d52f22d2
     Pseudo is Ultrasoft + core correction, Zval =  6.0
     Generated by new atomic code, or converted to UPF format
     Using radial grid of  737 points,  5 beta functions with:
                l(1) =   0
                l(2) =   0
                l(3) =   1
                l(4) =   1
                l(5) =   2
     Q(r) pseudized with  8 coefficients,  rinner =    0.900   0.900   0.900
                                                       0.900   0.900

     atomic species   valence    mass     pseudopotential
        Pt0           16.00   195.08000     Pt( 1.00)
        O1             6.00    15.99940     O ( 1.00)

     Starting magnetic structure
     atomic species   magnetization
        Pt0          0.600
        O1           0.000

     16 Sym. Ops., with inversion, found ( 8 have fractional translation)

   Cartesian axes

     site n.     atom                  positions (alat units)
         1           Pt0 tau(   1) = (   0.0000000   0.0000000   0.0000000  )
         2           Pt0 tau(   2) = (   0.4830168   0.4830168   0.3452797  )
         3           O1  tau(   3) = (   0.2993059   0.2993059   0.0000000  )
         4           O1  tau(   4) = (  -0.2993059  -0.2993059   0.0000000  )
         5           O1  tau(   5) = (   0.7823227   0.1837109   0.3452797  )
         6           O1  tau(   6) = (   0.1837109   0.7823227   0.3452797  )

     number of k points=    36  Methfessel-Paxton smearing, width (Ry)=  0.0100
                       cart. coord. in units 2pi/alat
        k(    1) = (   0.0000000   0.0000000   0.0000000), wk =   0.0080000
        k(    2) = (   0.0000000   0.0000000   0.2896202), wk =   0.0160000
        k(    3) = (   0.0000000   0.0000000   0.5792405), wk =   0.0160000
        k(    4) = (   0.0000000   0.2070322   0.0000000), wk =   0.0320000
        k(    5) = (   0.0000000   0.2070322   0.2896202), wk =   0.0640000
        k(    6) = (   0.0000000   0.2070322   0.5792405), wk =   0.0640000
        k(    7) = (   0.0000000   0.4140643   0.0000000), wk =   0.0320000
        k(    8) = (   0.0000000   0.4140643   0.2896202), wk =   0.0640000
        k(    9) = (   0.0000000   0.4140643   0.5792405), wk =   0.0640000
        k(   10) = (   0.2070322   0.2070322   0.0000000), wk =   0.0320000
        k(   11) = (   0.2070322   0.2070322   0.2896202), wk =   0.0640000
        k(   12) = (   0.2070322   0.2070322   0.5792405), wk =   0.0640000
        k(   13) = (   0.2070322   0.4140643   0.0000000), wk =   0.0640000
        k(   14) = (   0.2070322   0.4140643   0.2896202), wk =   0.1280000
        k(   15) = (   0.2070322   0.4140643   0.5792405), wk =   0.1280000
        k(   16) = (   0.4140643   0.4140643   0.0000000), wk =   0.0320000
        k(   17) = (   0.4140643   0.4140643   0.2896202), wk =   0.0640000
        k(   18) = (   0.4140643   0.4140643   0.5792405), wk =   0.0640000
        k(   19) = (   0.0000000   0.0000000   0.0000000), wk =   0.0080000
        k(   20) = (   0.0000000   0.0000000   0.2896202), wk =   0.0160000
        k(   21) = (   0.0000000   0.0000000   0.5792405), wk =   0.0160000
        k(   22) = (   0.0000000   0.2070322   0.0000000), wk =   0.0320000
        k(   23) = (   0.0000000   0.2070322   0.2896202), wk =   0.0640000
        k(   24) = (   0.0000000   0.2070322   0.5792405), wk =   0.0640000
        k(   25) = (   0.0000000   0.4140643   0.0000000), wk =   0.0320000
        k(   26) = (   0.0000000   0.4140643   0.2896202), wk =   0.0640000
        k(   27) = (   0.0000000   0.4140643   0.5792405), wk =   0.0640000
        k(   28) = (   0.2070322   0.2070322   0.0000000), wk =   0.0320000
        k(   29) = (   0.2070322   0.2070322   0.2896202), wk =   0.0640000
        k(   30) = (   0.2070322   0.2070322   0.5792405), wk =   0.0640000
        k(   31) = (   0.2070322   0.4140643   0.0000000), wk =   0.0640000
        k(   32) = (   0.2070322   0.4140643   0.2896202), wk =   0.1280000
        k(   33) = (   0.2070322   0.4140643   0.5792405), wk =   0.1280000
        k(   34) = (   0.4140643   0.4140643   0.0000000), wk =   0.0320000
        k(   35) = (   0.4140643   0.4140643   0.2896202), wk =   0.0640000
        k(   36) = (   0.4140643   0.4140643   0.5792405), wk =   0.0640000

     Largest allocated arrays     est. size (Mb)     dimensions
     Largest temporary arrays     est. size (Mb)     dimensions

     Check: negative/imaginary core charge=   -0.000005    0.000000

     Initial potential from superposition of free atoms
     Check: negative starting charge=(component1):   -0.306921
     Check: negative starting charge=(component2):   -0.076114

     starting charge   54.99997, renormalised to   56.00000

     negative rho (up, down):  0.313E+00 0.775E-01
     Starting wfc are   40 randomized atomic wfcs

     Self-consistent Calculation

     iteration #  1     ecut=    40.00 Ry     beta=0.30
     Davidson diagonalization with overlap
     c_bands:  1 eigenvalues not converged
     ethr =  1.00E-06,  avg # of iterations = 11.8

[...]

     total energy              =    -544.89836056 Ry
     Harris-Foulkes estimate   =    -544.89836037 Ry
     estimated scf accuracy    <       0.00000002 Ry

[...]

     iteration # 14     ecut=    40.00 Ry     beta=0.30
     Davidson diagonalization with overlap
     ethr =  3.26E-11,  avg # of iterations =  2.0

     negative rho (up, down):  0.197E+00 0.197E+00

     End of self-consistent calculation

 ------ SPIN UP ------------

[...]

 ------ SPIN DOWN ----------

[...]

          k = 0.4141 0.4141 0.5792 (  1766 PWs)   bands (ev):

   -40.0092 -40.0087 -39.7285 -39.7282 -39.6295 -39.6294  -4.9853  -4.9320
    -4.6132  -4.6059   5.9304   5.9802   6.4545   6.5629   7.1294   7.5515
     8.9439   9.0184   9.8229  10.0537  11.0948  11.5945  11.6125  11.7705
    12.6616  13.5226  13.5963  14.2891  15.7016  16.3016  17.4353  17.9998
    24.2559  24.8565  24.8888  24.9935  26.6488  27.0745  28.4077  29.0287
    31.8799  31.9005  32.5703  32.5851  34.1366  34.6766  35.7820  36.5900
    37.1654  37.5285  37.6296  39.1424  41.4653  41.8443  42.3607  42.5271
    43.4125  44.1661  45.9392  46.9481  47.1711  47.4629  47.9823  48.4029
    49.0694  49.1078  50.2714  50.5545  51.0182  51.7604  52.3430  52.5472
    53.0717  53.6101  53.8239  54.8477  55.4708  55.9351  56.3372  56.4003
    58.1632  58.2258  59.1657  59.5566

     the Fermi energy is    14.9988 ev

!    total energy              =    -544.89836074 Ry
     Harris-Foulkes estimate   =    -544.89836057 Ry
     estimated scf accuracy    <          6.6E-09 Ry

     The total energy is the sum of the following terms:

     one-electron contribution =    -115.37198662 Ry
     hartree contribution      =      98.63089544 Ry
     xc contribution           =    -137.69352111 Ry
     ewald contribution        =    -390.46348971 Ry
     smearing contrib. (-TS)   =      -0.00025874 Ry

     total magnetization       =     0.00 Bohr mag/cell
     absolute magnetization    =     0.00 Bohr mag/cell

     convergence has been achieved in  14 iterations

     Forces acting on atoms (Ry/au):

     negative rho (up, down):  0.197E+00 0.197E+00
     atom    1 type  1   force =     0.00000000    0.00000000   -0.00000000
     atom    2 type  1   force =     0.00000000    0.00000000    0.00000000
     atom    3 type  2   force =    -0.00015776   -0.00015776   -0.00000000
     atom    4 type  2   force =     0.00015776    0.00015776    0.00000000
     atom    5 type  2   force =    -0.00015776    0.00015776   -0.00000000
     atom    6 type  2   force =     0.00015776   -0.00015776   -0.00000000

     Total force =     0.000446     Total SCF correction =     0.000046
     SCF correction compared to forces is large: reduce conv_thr to get better values

     entering subroutine stress ...

     negative rho (up, down):  0.197E+00 0.197E+00
          total   stress  (Ry/bohr**3)                   (kbar)     P=  257.06
   0.00172975   0.00000000   0.00000000        254.46      0.00      0.00
   0.00000000   0.00172975   0.00000000          0.00    254.46      0.00
   0.00000000   0.00000000   0.00178279          0.00      0.00    262.26

     General routines

     Parallel routines

   This run was terminated on:  15:38:56  24Jan2014

   JOB DONE.