     Program PWSCF v.5.0.2 (svn rev. 9656) starts on  6May2014 at 15: 6: 4

     Current dimensions of program PWSCF are:
     Max number of different atomic species (ntypx) = 10
     Max number of k-points (npk) =  40000
     Max angular momentum in pseudopotentials (lmaxx) =  3
     Reading input from pwscf.in
Warning: card &CELL ignored
Warning: card / ignored

     Subspace diagonalization in iterative solution of the eigenvalue problem:
     a serial algorithm will be used

     Found symmetry operation: I + ( -0.5000  0.0000  0.0000)
     This is a supercell, fractional translations are disabled

     bravais-lattice index     =            0
     lattice parameter (alat)  =      11.2250  a.u.
     unit-cell volume          =    7005.5484 (a.u.)^3
     number of atoms/cell      =           30
     number of atomic types    =            3
     number of electrons       =       208.00
     number of Kohn-Sham states=          300
     kinetic-energy cutoff     =      40.0000  Ry
     charge density cutoff     =     500.0000  Ry
     convergence threshold     =      1.0E-06
     mixing beta               =       0.7000
     number of iterations used =            8  plain     mixing
     Exchange-correlation      = SLA  PW   PBE  PBE ( 1 4 3 4 0)
     EXX-fraction              =        0.00
     nstep                     =           50

     celldm(1)=  11.224973  celldm(2)=   0.000000  celldm(3)=   0.000000
     celldm(4)=   0.000000  celldm(5)=   0.000000  celldm(6)=   0.000000

     crystal axes: (cart. coord. in units of alat)
               a(1) = (   1.000000   0.000000   0.000000 )
               a(2) = (   0.000000   1.107086   0.000000 )
               a(3) = (   0.000000   0.000000   4.474090 )

     reciprocal axes: (cart. coord. in units 2 pi/alat)
               b(1) = (  1.000000  0.000000  0.000000 )
               b(2) = (  0.000000  0.903272  0.000000 )
               b(3) = (  0.000000  0.000000  0.223509 )

     PseudoPot. # 1 for O  read from file:
     /home/camp/zhonxu/pseudo/o_pbe_v1.01.uspp.F.UPF
     MD5 check sum: 2bcb18d16ea4b960afae9ec6d52f22d2
     Pseudo is Ultrasoft + core correction, Zval =  6.0
     Generated by new atomic code, or converted to UPF format
     Using radial grid of  737 points,  5 beta functions with:
                l(1) =   0
                l(2) =   0
                l(3) =   1
                l(4) =   1
                l(5) =   2
     Q(r) pseudized with  8 coefficients,  rinner =    0.900   0.900   0.900
                                                       0.900   0.900

     PseudoPot. # 2 for Ti read from file:
     /home/camp/zhonxu/pseudo/ti_pbe_v1.uspp.F.UPF
     MD5 check sum: bcc8f6961b3b91f0cac3ca967d22d0fb
     Pseudo is Ultrasoft + core correction, Zval = 12.0
     Generated by new atomic code, or converted to UPF format
     Using radial grid of  851 points,  6 beta functions with:
                l(1) =   0
                l(2) =   0
                l(3) =   1
                l(4) =   1
                l(5) =   2
                l(6) =   2
     Q(r) pseudized with  6 coefficients,  rinner =    1.000   1.000   1.000
                                                       1.000   1.000

     PseudoPot. # 3 for H  read from file:
     /home/camp/zhonxu/pseudo/h_pbe_v1.uspp.F.UPF
     MD5 check sum: 3408e3ff4ec8b0a4e358431e7e038a48
     Pseudo is Ultrasoft, Zval =  1.0
     Generated by new atomic code, or converted to UPF format
     Using radial grid of  615 points,  2 beta functions with:
                l(1) =   0
                l(2) =   0
     Q(r) pseudized with  8 coefficients,  rinner =    0.700

     atomic species   valence    mass     pseudopotential
        O0             6.00    15.99940     O ( 1.00)
        Ti1           12.00    47.88000     Ti( 1.00)
        H2             1.00     1.00794     H ( 1.00)

     Simplified LDA+U calculation (l_max = 2) with parameters (eV):
     atomic species    L          U    alpha       J0     beta
        Ti1            2     5.0000   0.0000   0.0000   0.0000

     No symmetry found

   Cartesian axes

     site n.     atom                  positions (alat units)
         1           O0  tau(   1) = (   0.0000000   0.0000000   1.6989461  )
         2           O0  tau(   2) = (   0.0000000   0.5535432   1.7901728  )
         3           Ti1 tau(   3) = (   0.2500000   0.5535432   2.0162933  )
         4           Ti1 tau(   4) = (   0.0000000   0.0000000   2.0248388  )
         5           O0  tau(   5) = (   0.2500000   0.8967400   2.0178145  )
         6           O0  tau(   6) = (   0.2500000   0.2103464   2.0226912  )
         7           O0  tau(   7) = (   0.0000000   0.5535432   2.2326603  )
         8           O0  tau(   8) = (   0.0000000   0.0000000   2.3559662  )
         9           Ti1 tau(   9) = (   0.2500000   0.0000000   2.5995804  )
        10           Ti1 tau(  10) = (   0.0000000   0.5535432   2.5483968  )
        11           O0  tau(  11) = (   0.2500000   0.7638896   2.5964932  )
        12           O0  tau(  12) = (   0.2500000   0.3431968   2.5965380  )
        13           O0  tau(  13) = (   0.0000000   0.0000000   2.7842708  )
        14           O0  tau(  14) = (   0.5000000   0.0000000   1.6989461  )
        15           O0  tau(  15) = (   0.5000000   0.5535432   1.7901728  )
        16           Ti1 tau(  16) = (   0.7500000   0.5535432   2.0162933  )
        17           Ti1 tau(  17) = (   0.5000000   0.0000000   2.0248388  )
        18           O0  tau(  18) = (   0.7500000   0.8967400   2.0178145  )
        19           O0  tau(  19) = (   0.7500000   0.2103464   2.0226912  )
        20           O0  tau(  20) = (   0.5000000   0.5535432   2.2326603  )
        21           O0  tau(  21) = (   0.5000000   0.0000000   2.3559662  )
        22           Ti1 tau(  22) = (   0.7500000   0.0000000   2.5995804  )
        23           Ti1 tau(  23) = (   0.5000000   0.5535432   2.5483968  )
        24           O0  tau(  24) = (   0.7500000   0.7638896   2.5964932  )
        25           O0  tau(  25) = (   0.7500000   0.3431968   2.5965380  )
        26           O0  tau(  26) = (   0.5000000   0.0000000   2.7842708  )
        27           H2  tau(  27) = (  -0.0005400   0.6991915   1.7063283  )
        28           H2  tau(  28) = (   0.4994600   0.6991915   1.7063283  )
        29           H2  tau(  29) = (   0.1501800   0.0252084   1.6321479  )
        30           H2  tau(  30) = (   0.6501800   0.0252084   1.6321479  )

     number of k points=    10  Methfessel-Paxton smearing, width (Ry)=  0.0100
                       cart. coord. in units 2pi/alat
        k(    1) = (   0.0000000   0.0000000   0.0000000), wk =   0.1250000
        k(    2) = (   0.0000000   0.2258180   0.0000000), wk =   0.2500000
        k(    3) = (   0.0000000  -0.4516359   0.0000000), wk =   0.1250000
        k(    4) = (   0.2500000   0.0000000   0.0000000), wk =   0.2500000
        k(    5) = (   0.2500000   0.2258180   0.0000000), wk =   0.2500000
        k(    6) = (   0.2500000  -0.4516359   0.0000000), wk =   0.2500000
        k(    7) = (  -0.5000000   0.0000000   0.0000000), wk =   0.1250000
        k(    8) = (  -0.5000000   0.2258180   0.0000000), wk =   0.2500000
        k(    9) = (  -0.5000000  -0.4516359   0.0000000), wk =   0.1250000
        k(   10) = (  -0.2500000   0.2258180   0.0000000), wk =   0.2500000

     Largest allocated arrays     est. size (Mb)     dimensions
     Largest temporary arrays     est. size (Mb)     dimensions

     Check: negative/imaginary core charge=   -0.000005    0.000000

     Initial potential from superposition of free atoms
     Check: negative starting charge=   -0.102816

     starting charge  199.99958, renormalised to  208.00000

     negative rho (up, down):  0.107E+00 0.000E+00
     Number of +U iterations with fixed ns =  0
     Starting occupations:
 --- enter write_ns ---
 LDA+U parameters:
U( 2)     =  5.00000000
alpha( 2) =  0.00000000
atom    3   Tr[ns(na)] =   2.00000
    eigenvalues:
  0.200  0.200  0.200  0.200  0.200
    eigenvectors:
  1.000  0.000  0.000  0.000  0.000
  0.000  1.000  0.000  0.000  0.000
  0.000  0.000  1.000  0.000  0.000
  0.000  0.000  0.000  1.000  0.000
  0.000  0.000  0.000  0.000  1.000
    occupations:
  0.200  0.000  0.000  0.000  0.000
  0.000  0.200  0.000  0.000  0.000
  0.000  0.000  0.200  0.000  0.000
  0.000  0.000  0.000  0.200  0.000
  0.000  0.000  0.000  0.000  0.200
atom    4   Tr[ns(na)] =   2.00000
    eigenvalues:
  0.200  0.200  0.200  0.200  0.200
    eigenvectors:
  1.000  0.000  0.000  0.000  0.000
  0.000  1.000  0.000  0.000  0.000
  0.000  0.000  1.000  0.000  0.000
  0.000  0.000  0.000  1.000  0.000
  0.000  0.000  0.000  0.000  1.000
    occupations:
  0.200  0.000  0.000  0.000  0.000
  0.000  0.200  0.000  0.000  0.000
  0.000  0.000  0.200  0.000  0.000
  0.000  0.000  0.000  0.200  0.000
  0.000  0.000  0.000  0.000  0.200
atom    9   Tr[ns(na)] =   2.00000
    eigenvalues:
  0.200  0.200  0.200  0.200  0.200
    eigenvectors:
  1.000  0.000  0.000  0.000  0.000
  0.000  1.000  0.000  0.000  0.000
  0.000  0.000  1.000  0.000  0.000
  0.000  0.000  0.000  1.000  0.000
  0.000  0.000  0.000  0.000  1.000
    occupations:
  0.200  0.000  0.000  0.000  0.000
  0.000  0.200  0.000  0.000  0.000
  0.000  0.000  0.200  0.000  0.000
  0.000  0.000  0.000  0.200  0.000
  0.000  0.000  0.000  0.000  0.200
atom   10   Tr[ns(na)] =   2.00000
    eigenvalues:
  0.200  0.200  0.200  0.200  0.200
    eigenvectors:
  1.000  0.000  0.000  0.000  0.000
  0.000  1.000  0.000  0.000  0.000
  0.000  0.000  1.000  0.000  0.000
  0.000  0.000  0.000  1.000  0.000
  0.000  0.000  0.000  0.000  1.000
    occupations:
  0.200  0.000  0.000  0.000  0.000
  0.000  0.200  0.000  0.000  0.000
  0.000  0.000  0.200  0.000  0.000
  0.000  0.000  0.000  0.200  0.000
  0.000  0.000  0.000  0.000  0.200
atom   16   Tr[ns(na)] =   2.00000
    eigenvalues:
  0.200  0.200  0.200  0.200  0.200
    eigenvectors:
  1.000  0.000  0.000  0.000  0.000
  0.000  1.000  0.000  0.000  0.000
  0.000  0.000  1.000  0.000  0.000
  0.000  0.000  0.000  1.000  0.000
  0.000  0.000  0.000  0.000  1.000
    occupations:
  0.200  0.000  0.000  0.000  0.000
  0.000  0.200  0.000  0.000  0.000
  0.000  0.000  0.200  0.000  0.000
  0.000  0.000  0.000  0.200  0.000
  0.000  0.000  0.000  0.000  0.200
atom   17   Tr[ns(na)] =   2.00000
    eigenvalues:
  0.200  0.200  0.200  0.200  0.200
    eigenvectors:
  1.000  0.000  0.000  0.000  0.000
  0.000  1.000  0.000  0.000  0.000
  0.000  0.000  1.000  0.000  0.000
  0.000  0.000  0.000  1.000  0.000
  0.000  0.000  0.000  0.000  1.000
    occupations:
  0.200  0.000  0.000  0.000  0.000
  0.000  0.200  0.000  0.000  0.000
  0.000  0.000  0.200  0.000  0.000
  0.000  0.000  0.000  0.200  0.000
  0.000  0.000  0.000  0.000  0.200
atom   22   Tr[ns(na)] =   2.00000
    eigenvalues:
  0.200  0.200  0.200  0.200  0.200
    eigenvectors:
  1.000  0.000  0.000  0.000  0.000
  0.000  1.000  0.000  0.000  0.000
  0.000  0.000  1.000  0.000  0.000
  0.000  0.000  0.000  1.000  0.000
  0.000  0.000  0.000  0.000  1.000
    occupations:
[...]
    eigenvectors:
  0.778  0.000  0.022  0.000  0.200
  0.000  0.002  0.000  0.998  0.000
  0.024  0.000  0.975  0.000  0.000
  0.198  0.000  0.003  0.000  0.799
  0.000  0.998  0.000  0.002  0.000
    occupations:
  0.193 -0.000 -0.005  0.114 -0.000
 -0.000  0.417  0.000 -0.000  0.013
 -0.005  0.000  0.183  0.008 -0.000
  0.114 -0.000  0.008  0.364 -0.000
 -0.000  0.013 -0.000 -0.000  0.157
atom    4   Tr[ns(na)] =   2.75658
    eigenvalues:
  0.139  0.171  0.197  0.423  0.448
    eigenvectors:
  0.007  0.003  0.000  0.000  0.990
  0.002  0.941  0.054  0.000  0.004
  0.001  0.053  0.946  0.000  0.000
  0.991  0.003  0.000  0.000  0.006
  0.000  0.000  0.000  1.000  0.000
    occupations:
  0.445  0.017  0.004 -0.024 -0.000
  0.017  0.174 -0.006  0.000 -0.003
  0.004 -0.006  0.195  0.001 -0.000
 -0.024  0.000  0.001  0.141 -0.000
 -0.000 -0.003 -0.000 -0.000  0.423
atom    9   Tr[ns(na)] =   2.75654
    eigenvalues:
  0.149  0.192  0.205  0.375  0.457
    eigenvectors:
  0.000  0.000  0.912  0.088  0.000
  0.000  0.000  0.000  0.000  1.000
  1.000  0.000  0.000  0.000  0.000
  0.000  0.000  0.088  0.912  0.000
  0.000  1.000  0.000  0.000  0.000
    occupations:
  0.220 -0.000  0.000  0.048 -0.000
 -0.000  0.457 -0.000 -0.000 -0.000
  0.000 -0.000  0.149  0.000  0.000
  0.048 -0.000  0.000  0.360 -0.000
 -0.000 -0.000  0.000 -0.000  0.192
atom   10   Tr[ns(na)] =   2.66384
    eigenvalues:
  0.150  0.192  0.205  0.324  0.461
    eigenvectors:
  0.027  0.000  0.000  0.973  0.000
  0.000  0.000  1.000  0.000  0.000
  0.000  1.000  0.000  0.000  0.000
  0.973  0.000  0.000  0.027  0.000
  0.000  0.000  0.000  0.000  1.000
    occupations:
  0.319 -0.000 -0.000 -0.028 -0.000
 -0.000  0.205 -0.000 -0.000  0.000
 -0.000 -0.000  0.192 -0.000  0.000
 -0.028 -0.000 -0.000  0.155 -0.000
 -0.000  0.000  0.000 -0.000  0.461
atom   16   Tr[ns(na)] =   2.62778
    eigenvalues:
  0.135  0.156  0.184  0.418  0.421
    eigenvectors:
  0.778  0.000  0.022  0.000  0.200
  0.000  0.002  0.000  0.998  0.000
  0.024  0.000  0.975  0.000  0.000
  0.198  0.000  0.003  0.000  0.799
  0.000  0.998  0.000  0.002  0.000
    occupations:
  0.193 -0.000 -0.005  0.114 -0.000
 -0.000  0.417  0.000 -0.000  0.013
 -0.005  0.000  0.183  0.008 -0.000
  0.114 -0.000  0.008  0.364 -0.000
 -0.000  0.013 -0.000 -0.000  0.157
atom   17   Tr[ns(na)] =   2.75658
    eigenvalues:
  0.139  0.171  0.197  0.423  0.448
    eigenvectors:
  0.007  0.003  0.000  0.000  0.990
  0.002  0.941  0.054  0.000  0.004
  0.001  0.053  0.946  0.000  0.000
  0.991  0.003  0.000  0.000  0.006
  0.000  0.000  0.000  1.000  0.000
    occupations:
  0.445  0.017  0.004 -0.024 -0.000
  0.017  0.174 -0.006  0.000 -0.003
  0.004 -0.006  0.195  0.001 -0.000
 -0.024  0.000  0.001  0.141 -0.000
 -0.000 -0.003 -0.000 -0.000  0.423
atom   22   Tr[ns(na)] =   2.75654
    eigenvalues:
  0.149  0.192  0.205  0.375  0.457
    eigenvectors:
  0.000  0.000  0.912  0.088  0.000
  0.000  0.000  0.000  0.000  1.000
  1.000  0.000  0.000  0.000  0.000
  0.000  0.000  0.088  0.912  0.000
  0.000  1.000  0.000  0.000  0.000
    occupations:
  0.220 -0.000  0.000  0.048 -0.000
 -0.000  0.457 -0.000 -0.000 -0.000
  0.000 -0.000  0.149  0.000  0.000
  0.048 -0.000  0.000  0.360 -0.000
 -0.000 -0.000  0.000 -0.000  0.192
atom   23   Tr[ns(na)] =   2.66384
    eigenvalues:
  0.150  0.192  0.205  0.324  0.461
    eigenvectors:
  0.027  0.000  0.000  0.973  0.000
  0.000  0.000  1.000  0.000  0.000
  0.000  1.000  0.000  0.000  0.000
  0.973  0.000  0.000  0.027  0.000
  0.000  0.000  0.000  0.000  1.000
    occupations:
  0.319 -0.000 -0.000 -0.028 -0.000
 -0.000  0.205 -0.000 -0.000  0.000
 -0.000 -0.000  0.192 -0.000  0.000
 -0.028 -0.000 -0.000  0.155 -0.000
 -0.000  0.000  0.000 -0.000  0.461
N of occupied +U levels =  21.6094833
 --- exit write_ns ---

     Threshold (ethr) on eigenvalues was too large:
     Diagonalizing with lowered threshold

     Davidson diagonalization with overlap
     ethr =  2.94E-09,  avg # of iterations =  3.0

[...]

     total energy              =   -1532.17710627 Ry
     Harris-Foulkes estimate   =   -1532.17710628 Ry
     estimated scf accuracy    <       0.00000004 Ry

     iteration #  7     ecut=    40.00 Ry     beta=0.70
     Davidson diagonalization with overlap
     ethr =  2.14E-11,  avg # of iterations =  1.0

     negative rho (up, down):  0.106E+00 0.000E+00

     End of self-consistent calculation
 --- enter write_ns ---
 LDA+U parameters:
U( 2)     =  5.00000000
alpha( 2) =  0.00000000
atom    3   Tr[ns(na)] =   2.62820
    eigenvalues:
  0.135  0.156  0.184  0.418  0.421
    eigenvectors:
  0.778  0.000  0.022  0.000  0.200
  0.000  0.002  0.000  0.998  0.000
  0.024  0.000  0.975  0.000  0.000
  0.198  0.000  0.003  0.000  0.799
  0.000  0.998  0.000  0.002  0.000
    occupations:
  0.193 -0.000 -0.005  0.114 -0.000
 -0.000  0.417  0.000 -0.000  0.013
 -0.005  0.000  0.183  0.008 -0.000
  0.114 -0.000  0.008  0.364 -0.000
 -0.000  0.013 -0.000 -0.000  0.157
atom    4   Tr[ns(na)] =   2.75661
    eigenvalues:
  0.139  0.171  0.197  0.423  0.448
    eigenvectors:
  0.007  0.003  0.000  0.000  0.990
  0.002  0.941  0.054  0.000  0.004
  0.001  0.053  0.946  0.000  0.000
  0.991  0.003  0.000  0.000  0.006
  0.000  0.000  0.000  1.000  0.000
    occupations:
  0.445  0.017  0.004 -0.024 -0.000
  0.017  0.174 -0.006  0.000 -0.003
  0.004 -0.006  0.195  0.001 -0.000
 -0.024  0.000  0.001  0.141 -0.000
 -0.000 -0.003 -0.000 -0.000  0.423
atom    9   Tr[ns(na)] =   2.75625
    eigenvalues:
  0.149  0.192  0.205  0.375  0.457
    eigenvectors:
  0.000  0.000  0.912  0.088  0.000
  0.000  0.000  0.000  0.000  1.000
  1.000  0.000  0.000  0.000  0.000
  0.000  0.000  0.088  0.912  0.000
  0.000  1.000  0.000  0.000  0.000
    occupations:
  0.220 -0.000  0.000  0.048 -0.000
 -0.000  0.457 -0.000 -0.000 -0.000
  0.000 -0.000  0.149  0.000  0.000
  0.048 -0.000  0.000  0.360 -0.000
 -0.000 -0.000  0.000 -0.000  0.192
atom   10   Tr[ns(na)] =   2.66392
    eigenvalues:
  0.150  0.192  0.205  0.324  0.462
    eigenvectors:
  0.027  0.000  0.000  0.973  0.000
  0.000  0.000  1.000  0.000  0.000
  0.000  1.000  0.000  0.000  0.000
  0.973  0.000  0.000  0.027  0.000
  0.000  0.000  0.000  0.000  1.000
    occupations:
  0.319 -0.000 -0.000 -0.028 -0.000
 -0.000  0.205 -0.000 -0.000  0.000
 -0.000 -0.000  0.192 -0.000  0.000
 -0.028 -0.000 -0.000  0.155 -0.000
 -0.000  0.000  0.000 -0.000  0.462
atom   16   Tr[ns(na)] =   2.62820
    eigenvalues:
  0.135  0.156  0.184  0.418  0.421
    eigenvectors:
  0.778  0.000  0.022  0.000  0.200
  0.000  0.002  0.000  0.998  0.000
  0.024  0.000  0.975  0.000  0.000
  0.198  0.000  0.003  0.000  0.799
  0.000  0.998  0.000  0.002  0.000
    occupations:
  0.193 -0.000 -0.005  0.114 -0.000
 -0.000  0.417  0.000 -0.000  0.013
 -0.005  0.000  0.183  0.008 -0.000
  0.114 -0.000  0.008  0.364 -0.000
 -0.000  0.013 -0.000 -0.000  0.157
atom   17   Tr[ns(na)] =   2.75661
    eigenvalues:
  0.139  0.171  0.197  0.423  0.448
    eigenvectors:
  0.007  0.003  0.000  0.000  0.990
  0.002  0.941  0.054  0.000  0.004
  0.001  0.053  0.946  0.000  0.000
  0.991  0.003  0.000  0.000  0.006
  0.000  0.000  0.000  1.000  0.000
    occupations:
  0.445  0.017  0.004 -0.024 -0.000
  0.017  0.174 -0.006  0.000 -0.003
  0.004 -0.006  0.195  0.001 -0.000
 -0.024  0.000  0.001  0.141 -0.000
 -0.000 -0.003 -0.000 -0.000  0.423
atom   22   Tr[ns(na)] =   2.75625
    eigenvalues:
  0.149  0.192  0.205  0.375  0.457
    eigenvectors:
  0.000  0.000  0.912  0.088  0.000
  0.000  0.000  0.000  0.000  1.000
  1.000  0.000  0.000  0.000  0.000
  0.000  0.000  0.088  0.912  0.000
  0.000  1.000  0.000  0.000  0.000
    occupations:
  0.220 -0.000  0.000  0.048 -0.000
 -0.000  0.457 -0.000 -0.000 -0.000
  0.000 -0.000  0.149  0.000  0.000
  0.048 -0.000  0.000  0.360 -0.000
 -0.000 -0.000  0.000 -0.000  0.192
atom   23   Tr[ns(na)] =   2.66392
    eigenvalues:
  0.150  0.192  0.205  0.324  0.462
    eigenvectors:
  0.027  0.000  0.000  0.973  0.000
  0.000  0.000  1.000  0.000  0.000
  0.000  1.000  0.000  0.000  0.000
  0.973  0.000  0.000  0.027  0.000
  0.000  0.000  0.000  0.000  1.000
    occupations:
  0.319 -0.000 -0.000 -0.028 -0.000
 -0.000  0.205 -0.000 -0.000  0.000
 -0.000 -0.000  0.192 -0.000  0.000
 -0.028 -0.000 -0.000  0.155 -0.000
 -0.000  0.000  0.000 -0.000  0.462
N of occupied +U levels =  21.6099675
 --- exit write_ns ---

[...]

          k = 0.2500-0.4516 0.0000 ( 29882 PWs)   bands (ev):

[...]

          k =-0.2500 0.2258 0.0000 ( 29912 PWs)   bands (ev):

   -61.8925 -61.8678 -61.5101 -61.4845 -60.2225 -60.1949 -59.7234 -59.6967
   -38.3299 -38.0961 -38.0645 -38.0306 -37.9244 -37.9034 -37.8241 -37.8129
   -37.7975 -37.6454 -37.5838 -37.5251 -36.7425 -36.5289 -36.4584 -36.4375
   -36.2520 -36.2299 -36.0631 -36.0415 -36.0265 -35.9066 -35.8412 -35.7240
   -22.2538 -22.0361 -20.9722 -20.7730 -20.3914 -20.2801 -19.9962 -19.7974
   -19.7633 -19.6834 -19.5509 -19.4887 -19.3888 -19.2307 -18.6401 -18.3081
   -17.9882 -17.9396  -9.8732  -9.6219  -8.1251  -7.9296  -7.8598  -7.8316
    -7.8010  -7.7295  -7.4079  -7.3720  -7.2355  -7.1777  -7.0696  -7.0619
    -6.9884  -6.8118  -6.7461  -6.6971  -6.4801  -6.4478  -6.1179  -6.0541
    -5.9958  -5.8034  -5.7565  -5.6530  -5.6281  -5.4850  -5.3625  -5.3487
    -5.2879  -5.1720  -5.1279  -5.0750  -5.0168  -5.0026  -4.8529  -4.7378
    -4.6589  -4.5270  -4.4262  -4.3912  -3.9319  -3.7014  -3.4886  -3.4275
    -3.3441  -3.2798  -3.1363  -3.0550  -3.0403  -2.8435  -2.7953  -2.6484
    -0.9855  -0.7269  -0.6050  -0.5615  -0.4960  -0.3910  -0.3017  -0.2571
     0.0276   0.0660   0.1151   0.1637   0.3099   0.4817   0.7255   0.8114
     1.0382   1.0933   1.1838   1.2346   1.2931   1.3720   1.4806   1.5585
     1.5630   1.6171   1.6467   1.7698   1.8308   2.0606   2.1535   2.3411
     2.7696   2.8944   3.0476   3.0675   3.3228   3.3736   3.4963   3.7595
     3.8985   4.0983   4.1764   4.5920   4.9644   4.9815   5.2625   5.7112
     5.7592   5.8787   5.9915   6.1115   6.1932   6.4998   6.5166   6.8238
     6.8762   7.1241   7.2660   7.3878   7.4968   7.6491   7.6517   7.8371
     7.8927   8.0343   8.0358   8.2271   8.4696   8.4836   8.6161   8.6327
     8.8047   8.9720   9.2446   9.2963   9.3114   9.4000   9.4520   9.4754
     9.4912   9.6431   9.8159   9.9990  10.0128  10.0870  10.2264  10.3734
    10.4367  10.5873  10.5875  10.7125  10.7884  10.9194  10.9223  10.9693
    11.0691  11.2202  11.2891  11.3443  11.3446  11.4663  11.5057  11.6070
    11.6328  11.7295  11.8709  11.9508  11.9534  11.9678  12.1075  12.2263
    12.2994  12.3564  12.5147  12.5964  12.6257  12.6348  12.7305  12.8587
    12.8733  12.9725  13.0092  13.2171  13.2212  13.3283  13.3396  13.4329
    13.5342  13.5894  13.6793  13.6823  13.7393  13.7653  13.8706  13.9986
    14.0363  14.1708  14.2012  14.2919  14.3418  14.4640  14.5681  14.5924
    14.6301  14.6455  14.7411  14.9295  14.9493  15.0009  15.0885  15.2324
    15.3257  15.3372  15.4888  15.4896  15.6414  15.6860  15.7030  15.7378
    15.8247  15.8819  15.9433  16.0152  16.0764  16.1285  16.2348  16.3141
    16.3983  16.5625  16.6199  16.6415  16.7389  16.8257  16.8527  16.8550
    16.8992  16.9971  17.0742  17.0886  17.2101  17.2372  17.3005  17.3927
    17.4037  17.4922  17.4976  17.6100  17.6996  17.7793  17.8039  17.9530
    18.0369  18.1536  18.2010  18.2356

     the Fermi energy is    -1.2287 ev

!    total energy              =   -1532.17710627 Ry
     Harris-Foulkes estimate   =   -1532.17710628 Ry
     estimated scf accuracy    <          4.3E-09 Ry

     The total energy is the sum of the following terms:

     one-electron contribution =  -18242.44000352 Ry
     hartree contribution      =    9132.95911150 Ry
     xc contribution           =    -269.66688092 Ry
     ewald contribution        =    7844.29682506 Ry
     Hubbard energy            =       2.67349347 Ry
     smearing contrib. (-TS)   =       0.00034813 Ry

     convergence has been achieved in   7 iterations

     Forces acting on atoms (Ry/au):

     negative rho (up, down):  0.106E+00 0.000E+00
     atom    1 type  1   force =    -0.00294661   -0.01702818   -0.00006956
     atom    2 type  1   force =     0.00003687    0.02290726   -0.00011714
     atom    3 type  2   force =     0.00014284   -0.01181681    0.00030472
     atom    4 type  2   force =     0.00000473    0.00948861    0.00019066
     atom    5 type  1   force =     0.00285385   -0.10867566    0.00033362
     atom    6 type  1   force =    -0.00117891    0.10634373    0.00035124
     atom    7 type  1   force =    -0.00004349    0.00067025    0.00071385
     atom    8 type  1   force =     0.00107840   -0.00152629   -0.00046093
     atom    9 type  2   force =    -0.00016318    0.00013836    0.00037875
     atom   10 type  2   force =    -0.00002595   -0.00045894   -0.00035319
     atom   11 type  1   force =     0.00002146   -0.04362588   -0.00007374
     atom   12 type  1   force =     0.00001473    0.04378930   -0.00008441
     atom   13 type  1   force =     0.00013412   -0.00007516   -0.00009122
     atom   14 type  1   force =    -0.00294661   -0.01702818   -0.00006956
     atom   15 type  1   force =     0.00003687    0.02290726   -0.00011714
     atom   16 type  2   force =     0.00014284   -0.01181681    0.00030472
     atom   17 type  2   force =     0.00000473    0.00948861    0.00019066
     atom   18 type  1   force =     0.00285385   -0.10867566    0.00033362
     atom   19 type  1   force =    -0.00117891    0.10634373    0.00035124
     atom   20 type  1   force =    -0.00004349    0.00067025    0.00071385
     atom   21 type  1   force =     0.00107840   -0.00152629   -0.00046093
     atom   22 type  2   force =    -0.00016319    0.00013836    0.00037875
     atom   23 type  2   force =    -0.00002595   -0.00045894   -0.00035320
     atom   24 type  1   force =     0.00002146   -0.04362588   -0.00007374
     atom   25 type  1   force =     0.00001473    0.04378930   -0.00008441
     atom   26 type  1   force =     0.00013412   -0.00007516   -0.00009122
     atom   27 type  3   force =     0.00000651   -0.00021922   -0.00085910
     atom   28 type  3   force =     0.00000651   -0.00021922   -0.00085910
     atom   29 type  3   force =     0.00006462    0.00008863   -0.00016354
     atom   30 type  3   force =     0.00006462    0.00008863   -0.00016354

     Total force =     0.002106     Total SCF correction =     0.000252
     SCF correction compared to forces is large: reduce conv_thr to get better values

     bfgs converged in  12 scf cycles and  11 bfgs steps
     (criteria: energy < 0.10E-03, force < 0.10E-02)

     End of BFGS Geometry Optimization

     Final energy   =   -1532.1771062723 Ry
Begin final coordinates

ATOMIC_POSITIONS (crystal)
O0       0.000000000   0.000000000   0.378177710    0   0   1
O0       0.000000000   0.500000000   0.398482255    0   0   1
Ti1      0.250000000   0.500000000   0.449931828    0   0   1
Ti1      0.000000000   0.000000000   0.451828947    0   0   1
O0       0.250000000   0.810000000   0.450465731    0   0   1
O0       0.250000000   0.190000000   0.451493295    0   0   1
O0       0.000000000   0.500000000   0.498737125    0   0   1
O0       0.000000000   0.000000000   0.527609908    0   0   1
Ti1      0.250000000   0.000000000   0.581735359    0   0   1
Ti1      0.000000000   0.500000000   0.571091869    0   0   1
O0       0.250000000   0.690000000   0.581547940    0   0   1
O0       0.250000000   0.310000000   0.581586681    0   0   1
O0       0.000000000   0.000000000   0.624408195    0   0   1
O0       0.500000000   0.000000000   0.378177710    0   0   1
O0       0.500000000   0.500000000   0.398482255    0   0   1
Ti1      0.750000000   0.500000000   0.449931829    0   0   1
Ti1      0.500000000   0.000000000   0.451828947    0   0   1
O0       0.750000000   0.810000000   0.450465731    0   0   1
O0       0.750000000   0.190000000   0.451493295    0   0   1
O0       0.500000000   0.500000000   0.498737125    0   0   1
O0       0.500000000   0.000000000   0.527609908    0   0   1
Ti1      0.750000000   0.000000000   0.581735359    0   0   1
Ti1      0.500000000   0.500000000   0.571091869    0   0   1
O0       0.750000000   0.690000000   0.581547940    0   0   1
O0       0.750000000   0.310000000   0.581586680    0   0   1
O0       0.500000000   0.000000000   0.624408195    0   0   1
H2      -0.000286004   0.632591328   0.380175922
H2       0.499713995   0.632591328   0.380175922
H2       0.152075413   0.023361479   0.364297236
H2       0.652075413   0.023361479   0.364297236
End final coordinates

     General routines

     Parallel routines
     Hubbard U routines

   This run was terminated on:  21: 4:40   6May2014

   JOB DONE.