     Program PWSCF v.5.0.2 (svn rev. 9656) starts on 29Apr2014 at  9:34:38

     Current dimensions of program PWSCF are:
     Max number of different atomic species (ntypx) = 10
     Max number of k-points (npk) =  40000
     Max angular momentum in pseudopotentials (lmaxx) =  3
     Reading input from pwscf.in
Warning: card &CELL ignored
Warning: card / ignored

     Subspace diagonalization in iterative solution of the eigenvalue problem:
     a serial algorithm will be used

     bravais-lattice index     =            0
     lattice parameter (alat)  =      11.2250  a.u.
     unit-cell volume          =    7005.5484 (a.u.)^3
     number of atoms/cell      =           32
     number of atomic types    =            3
     number of electrons       =       215.00
     number of Kohn-Sham states=          310
     kinetic-energy cutoff     =      40.0000  Ry
     charge density cutoff     =     500.0000  Ry
     convergence threshold     =      1.0E-06
     mixing beta               =       0.7000
     number of iterations used =            8  plain     mixing
     Exchange-correlation      = SLA  PW   PBE  PBE ( 1 4 3 4 0)
     EXX-fraction              =        0.00
     nstep                     =           50

     celldm(1)=  11.224973  celldm(2)=   0.000000  celldm(3)=   0.000000
     celldm(4)=   0.000000  celldm(5)=   0.000000  celldm(6)=   0.000000

     crystal axes: (cart. coord. in units of alat)
               a(1) = (   1.000000   0.000000   0.000000 )
               a(2) = (   0.000000   1.107086   0.000000 )
               a(3) = (   0.000000   0.000000   4.474090 )

     reciprocal axes: (cart. coord. in units 2 pi/alat)
               b(1) = (  1.000000  0.000000  0.000000 )
               b(2) = (  0.000000  0.903272  0.000000 )
               b(3) = (  0.000000  0.000000  0.223509 )

     PseudoPot. # 1 for O  read from file:
     /home/camp/zhonxu/pseudo/o_pbe_v1.01.uspp.F.UPF
     MD5 check sum: 2bcb18d16ea4b960afae9ec6d52f22d2
     Pseudo is Ultrasoft + core correction, Zval =  6.0
     Generated by new atomic code, or converted to UPF format
     Using radial grid of  737 points,  5 beta functions with:
                l(1) =   0
                l(2) =   0
                l(3) =   1
                l(4) =   1
                l(5) =   2
     Q(r) pseudized with  8 coefficients,  rinner =    0.900   0.900   0.900
                                                       0.900   0.900

     PseudoPot. # 2 for Ti read from file:
     /home/camp/zhonxu/pseudo/ti_pbe_v1.uspp.F.UPF
     MD5 check sum: bcc8f6961b3b91f0cac3ca967d22d0fb
     Pseudo is Ultrasoft + core correction, Zval = 12.0
     Generated by new atomic code, or converted to UPF format
     Using radial grid of  851 points,  6 beta functions with:
                l(1) =   0
                l(2) =   0
                l(3) =   1
                l(4) =   1
                l(5) =   2
                l(6) =   2
     Q(r) pseudized with  6 coefficients,  rinner =    1.000   1.000   1.000
                                                       1.000   1.000

     PseudoPot. # 3 for H  read from file:
     /home/camp/zhonxu/pseudo/h_pbe_v1.uspp.F.UPF
     MD5 check sum: 3408e3ff4ec8b0a4e358431e7e038a48
     Pseudo is Ultrasoft, Zval =  1.0
     Generated by new atomic code, or converted to UPF format
     Using radial grid of  615 points,  2 beta functions with:
                l(1) =   0
                l(2) =   0
     Q(r) pseudized with  8 coefficients,  rinner =    0.700

     atomic species   valence    mass     pseudopotential
        O0             6.00    15.99940     O ( 1.00)
        Ti1           12.00    47.88000     Ti( 1.00)
        H2             1.00     1.00794     H ( 1.00)

     Simplified LDA+U calculation (l_max = 2) with parameters (eV):
     atomic species    L          U    alpha       J0     beta
        Ti1            2     0.5000   0.0000   0.0000   0.0000

     No symmetry found

   Cartesian axes

     site n.     atom                  positions (alat units)
         1           O0  tau(   1) = (   0.0000000   0.0000000   1.6864186  )
         2           O0  tau(   2) = (   0.0000000   0.5535432   1.7740213  )
         3           Ti1 tau(   3) = (   0.2500000   0.5535432   2.0074793  )
         4           Ti1 tau(   4) = (   0.0000000   0.0000000   2.0324447  )
         5           O0  tau(   5) = (   0.2500000   0.8967400   2.0044817  )
         6           O0  tau(   6) = (   0.2500000   0.2103464   2.0092242  )
         7           O0  tau(   7) = (   0.0000000   0.5535432   2.2196854  )
         8           O0  tau(   8) = (   0.0000000   0.0000000   2.3507315  )
         9           Ti1 tau(   9) = (   0.2500000   0.0000000   2.6021753  )
        10           Ti1 tau(  10) = (   0.0000000   0.5535432   2.5345718  )
        11           O0  tau(  11) = (   0.2500000   0.7638896   2.5931377  )
        12           O0  tau(  12) = (   0.2500000   0.3431968   2.5930482  )
        13           O0  tau(  13) = (   0.0000000   0.0000000   2.7844945  )
        14           O0  tau(  14) = (   0.5000000   0.0000000   1.6873582  )
        15           O0  tau(  15) = (   0.5000000   0.5535432   1.7709789  )
        16           Ti1 tau(  16) = (   0.7500000   0.5535432   2.0079715  )
        17           Ti1 tau(  17) = (   0.5000000   0.0000000   2.0352187  )
        18           O0  tau(  18) = (   0.7500000   0.8967400   2.0040790  )
        19           O0  tau(  19) = (   0.7500000   0.2103464   2.0094479  )
        20           O0  tau(  20) = (   0.5000000   0.5535432   2.1971360  )
        21           O0  tau(  21) = (   0.5000000   0.0000000   2.3514026  )
        22           Ti1 tau(  22) = (   0.7500000   0.0000000   2.6024885  )
        23           Ti1 tau(  23) = (   0.5000000   0.5535432   2.6568935  )
        24           O0  tau(  24) = (   0.7500000   0.7638896   2.5904532  )
        25           O0  tau(  25) = (   0.7500000   0.3431968   2.5901848  )
        26           O0  tau(  26) = (   0.5000000   0.0000000   2.7844945  )
        27           H2  tau(  27) = (  -0.0007700   0.6889399   1.6773810  )
        28           H2  tau(  28) = (   0.4993300   0.6850208   1.6695513  )
        29           H2  tau(  29) = (   0.1496500   0.0435638   1.6275396  )
        30           H2  tau(  30) = (   0.6495100   0.0435638   1.6281213  )
        31           O0  tau(  31) = (   0.5047900   0.5534214   2.9586261  )
        32           H2  tau(  32) = (   0.3766100   0.5530007   3.0621118  )

     number of k points=    10  Methfessel-Paxton smearing, width (Ry)=  0.0100
                       cart. coord. in units 2pi/alat
        k(    1) = (   0.0000000   0.0000000   0.0000000), wk =   0.1250000
        k(    2) = (   0.0000000   0.2258180   0.0000000), wk =   0.2500000
        k(    3) = (   0.0000000  -0.4516359   0.0000000), wk =   0.1250000
        k(    4) = (   0.2500000   0.0000000   0.0000000), wk =   0.2500000
        k(    5) = (   0.2500000   0.2258180   0.0000000), wk =   0.2500000
        k(    6) = (   0.2500000  -0.4516359   0.0000000), wk =   0.2500000
        k(    7) = (  -0.5000000   0.0000000   0.0000000), wk =   0.1250000
        k(    8) = (  -0.5000000   0.2258180   0.0000000), wk =   0.2500000
        k(    9) = (  -0.5000000  -0.4516359   0.0000000), wk =   0.1250000
        k(   10) = (  -0.2500000   0.2258180   0.0000000), wk =   0.2500000

     Largest allocated arrays     est. size (Mb)     dimensions
     Largest temporary arrays     est. size (Mb)     dimensions

     Check: negative/imaginary core charge=   -0.000006    0.000000

     Initial potential from superposition of free atoms
     Check: negative starting charge=   -0.102331

     starting charge  206.99957, renormalised to  215.00000

     negative rho (up, down):  0.106E+00 0.000E+00
     Number of +U iterations with fixed ns =  0
     Starting occupations:
 --- enter write_ns ---
 LDA+U parameters:
U( 2)     =  0.50000000
alpha( 2) =  0.00000000
atom    3   Tr[ns(na)] =   2.00000
    eigenvalues:
  0.200  0.200  0.200  0.200  0.200
    eigenvectors:
  1.000  0.000  0.000  0.000  0.000
  0.000  1.000  0.000  0.000  0.000
  0.000  0.000  1.000  0.000  0.000
  0.000  0.000  0.000  1.000  0.000
  0.000  0.000  0.000  0.000  1.000
    occupations:
  0.200  0.000  0.000  0.000  0.000
  0.000  0.200  0.000  0.000  0.000
  0.000  0.000  0.200  0.000  0.000
  0.000  0.000  0.000  0.200  0.000
  0.000  0.000  0.000  0.000  0.200
atom    4   Tr[ns(na)] =   2.00000
    eigenvalues:
  0.200  0.200  0.200  0.200  0.200
    eigenvectors:
  1.000  0.000  0.000  0.000  0.000
  0.000  1.000  0.000  0.000  0.000
  0.000  0.000  1.000  0.000  0.000
  0.000  0.000  0.000  1.000  0.000
  0.000  0.000  0.000  0.000  1.000
    occupations:
  0.200  0.000  0.000  0.000  0.000
  0.000  0.200  0.000  0.000  0.000
  0.000  0.000  0.200  0.000  0.000
  0.000  0.000  0.000  0.200  0.000
  0.000  0.000  0.000  0.000  0.200
atom    9   Tr[ns(na)] =   2.00000
    eigenvalues:
  0.200  0.200  0.200  0.200  0.200
    eigenvectors:
  1.000  0.000  0.000  0.000  0.000
  0.000  1.000  0.000  0.000  0.000
  0.000  0.000  1.000  0.000  0.000
  0.000  0.000  0.000  1.000  0.000
  0.000  0.000  0.000  0.000  1.000
    occupations:
  0.200  0.000  0.000  0.000  0.000
  0.000  0.200  0.000  0.000  0.000
  0.000  0.000  0.200  0.000  0.000
  0.000  0.000  0.000  0.200  0.000
  0.000  0.000  0.000  0.000  0.200
atom   10   Tr[ns(na)] =   2.00000
    eigenvalues:
  0.200  0.200  0.200  0.200  0.200
    eigenvectors:
  1.000  0.000  0.000  0.000  0.000
  0.000  1.000  0.000  0.000  0.000
  0.000  0.000  1.000  0.000  0.000
  0.000  0.000  0.000  1.000  0.000
  0.000  0.000  0.000  0.000  1.000
    occupations:
  0.200  0.000  0.000  0.000  0.000
  0.000  0.200  0.000  0.000  0.000
  0.000  0.000  0.200  0.000  0.000
  0.000  0.000  0.000  0.200  0.000
  0.000  0.000  0.000  0.000  0.200
atom   16   Tr[ns(na)] =   2.00000
    eigenvalues:
  0.200  0.200  0.200  0.200  0.200
    eigenvectors:
  1.000  0.000  0.000  0.000  0.000
  0.000  1.000  0.000  0.000  0.000
  0.000  0.000  1.000  0.000  0.000
  0.000  0.000  0.000  1.000  0.000
  0.000  0.000  0.000  0.000  1.000
    occupations:
  0.200  0.000  0.000  0.000  0.000
  0.000  0.200  0.000  0.000  0.000
  0.000  0.000  0.200  0.000  0.000
  0.000  0.000  0.000  0.200  0.000
  0.000  0.000  0.000  0.000  0.200
atom   17   Tr[ns(na)] =   2.00000
    eigenvalues:
  0.200  0.200  0.200  0.200  0.200
    eigenvectors:
  1.000  0.000  0.000  0.000  0.000
  0.000  1.000  0.000  0.000  0.000
  0.000  0.000  1.000  0.000  0.000
  0.000  0.000  0.000  1.000  0.000
  0.000  0.000  0.000  0.000  1.000
    occupations:
  0.200  0.000  0.000  0.000  0.000
  0.000  0.200  0.000  0.000  0.000
  0.000  0.000  0.200  0.000  0.000
  0.000  0.000  0.000  0.200  0.000
  0.000  0.000  0.000  0.000  0.200
atom   22   Tr[ns(na)] =   2.00000
    eigenvalues:
  0.200  0.200  0.200  0.200  0.200
    eigenvectors:
  1.000  0.000  0.000  0.000  0.000
  0.000  1.000  0.000  0.000  0.000
  0.000  0.000  1.000  0.000  0.000
  0.000  0.000  0.000  1.000  0.000
  0.000  0.000  0.000  0.000  1.000
[...]
  0.009  0.414  0.003 -0.020  0.011
 -0.004  0.003  0.209  0.006 -0.015
  0.070 -0.020  0.006  0.359 -0.001
  0.002  0.011 -0.015 -0.001  0.212
atom    4   Tr[ns(na)] =   2.95382
    eigenvalues:
  0.182  0.222  0.237  0.412  0.424
    eigenvectors:
  0.006  0.002  0.000  0.000  0.992
  0.000  0.905  0.093  0.000  0.002
  0.000  0.092  0.907  0.000  0.000
  0.994  0.001  0.000  0.000  0.006
  0.000  0.000  0.000  1.000  0.000
    occupations:
  0.422  0.009  0.004 -0.018 -0.000
  0.009  0.224 -0.004 -0.000 -0.001
  0.004 -0.004  0.236  0.000 -0.000
 -0.018 -0.000  0.000  0.183 -0.000
 -0.000 -0.001 -0.000 -0.000  0.412
atom    9   Tr[ns(na)] =   2.93597
    eigenvalues:
  0.189  0.229  0.247  0.379  0.424
    eigenvectors:
  0.000  0.000  0.926  0.074  0.000
  0.000  0.000  0.000  0.000  1.000
  0.997  0.003  0.000  0.000  0.000
  0.000  0.000  0.074  0.926  0.000
  0.003  0.997  0.000  0.000  0.000
    occupations:
  0.257 -0.000 -0.000  0.035  0.000
 -0.000  0.424  0.000  0.000 -0.000
 -0.000  0.000  0.189  0.000  0.002
  0.035  0.000  0.000  0.369 -0.000
  0.000 -0.000  0.002 -0.000  0.228
atom   10   Tr[ns(na)] =   2.86716
    eigenvalues:
  0.186  0.244  0.246  0.335  0.423
    eigenvectors:
  0.016  0.000  0.000  0.984  0.000
  0.000  0.002  0.998  0.000  0.000
  0.000  0.998  0.002  0.000  0.000
  0.984  0.000  0.000  0.016  0.000
  0.000  0.000  0.000  0.000  1.000
    occupations:
  0.333  0.001 -0.000 -0.019 -0.000
  0.001  0.246 -0.000  0.000 -0.000
 -0.000 -0.000  0.244 -0.000 -0.000
 -0.019  0.000 -0.000  0.188  0.000
 -0.000 -0.000 -0.000  0.000  0.423
atom   16   Tr[ns(na)] =   2.86467
    eigenvalues:
  0.194  0.205  0.227  0.384  0.422
    eigenvectors:
  0.080  0.682  0.057  0.170  0.012
  0.004  0.003  0.003  0.172  0.819
  0.555  0.006  0.438  0.001  0.000
  0.023  0.143  0.009  0.658  0.167
  0.337  0.167  0.493  0.001  0.002
    occupations:
  0.238 -0.009 -0.004  0.069 -0.002
 -0.009  0.414 -0.003  0.020  0.010
 -0.004 -0.003  0.209  0.006  0.015
  0.069  0.020  0.006  0.359  0.001
 -0.002  0.010  0.015  0.001  0.213
atom   17   Tr[ns(na)] =   2.94684
    eigenvalues:
  0.181  0.221  0.237  0.410  0.424
    eigenvectors:
  0.006  0.002  0.000  0.000  0.992
  0.000  0.911  0.087  0.000  0.002
  0.000  0.086  0.913  0.000  0.000
  0.994  0.001  0.000  0.000  0.005
  0.000  0.000  0.000  1.000  0.000
    occupations:
  0.423  0.009  0.004 -0.018 -0.000
  0.009  0.223 -0.004 -0.000 -0.001
  0.004 -0.004  0.236  0.000 -0.000
 -0.018 -0.000  0.000  0.183 -0.000
 -0.000 -0.001 -0.000 -0.000  0.410
atom   22   Tr[ns(na)] =   2.93561
    eigenvalues:
  0.189  0.229  0.247  0.379  0.423
    eigenvectors:
  0.000  0.000  0.926  0.073  0.000
  0.000  0.000  0.000  0.000  1.000
  0.998  0.002  0.000  0.000  0.000
  0.000  0.000  0.073  0.927  0.000
  0.002  0.998  0.000  0.000  0.000
    occupations:
  0.257 -0.000 -0.000  0.034  0.000
 -0.000  0.423  0.000 -0.000 -0.000
 -0.000  0.000  0.190 -0.000 -0.002
  0.034 -0.000 -0.000  0.370 -0.000
  0.000 -0.000 -0.002 -0.000  0.229
atom   23   Tr[ns(na)] =   2.89993
    eigenvalues:
  0.167  0.237  0.269  0.376  0.401
    eigenvectors:
  0.011  0.040  0.000  0.949  0.000
  0.001  0.957  0.000  0.042  0.000
  0.000  0.000  1.000  0.000  0.000
  0.988  0.003  0.000  0.009  0.000
  0.000  0.000  0.000  0.000  1.000
    occupations:
  0.368  0.028  0.000 -0.020 -0.000
  0.028  0.243 -0.000 -0.000 -0.000
  0.000 -0.000  0.269 -0.000 -0.000
 -0.020 -0.000 -0.000  0.169 -0.000
 -0.000 -0.000 -0.000 -0.000  0.401
N of occupied +U levels =  23.2676530
 --- exit write_ns ---

     Threshold (ethr) on eigenvalues was too large:
     Diagonalizing with lowered threshold

     Davidson diagonalization with overlap
     ethr =  2.46E-08,  avg # of iterations =  2.0

[...]

     total energy              =   -1568.03642343 Ry
     Harris-Foulkes estimate   =   -1568.03642343 Ry
     estimated scf accuracy    <       0.00000001 Ry

     iteration # 11     ecut=    40.00 Ry     beta=0.70
     Davidson diagonalization with overlap
     ethr =  5.99E-12,  avg # of iterations =  1.0

     negative rho (up, down):  0.103E+00 0.000E+00

     End of self-consistent calculation
 --- enter write_ns ---
 LDA+U parameters:
U( 2)     =  0.50000000
alpha( 2) =  0.00000000
atom    3   Tr[ns(na)] =   2.86375
    eigenvalues:
  0.194  0.205  0.227  0.384  0.422
    eigenvectors:
  0.090  0.671  0.056  0.171  0.011
  0.004  0.003  0.003  0.169  0.821
  0.547  0.008  0.445  0.001  0.000
  0.025  0.143  0.009  0.659  0.165
  0.334  0.175  0.488  0.000  0.002
    occupations:
  0.238  0.009 -0.004  0.070  0.002
  0.009  0.414  0.003 -0.020  0.011
 -0.004  0.003  0.209  0.006 -0.015
  0.070 -0.020  0.006  0.359 -0.001
  0.002  0.011 -0.015 -0.001  0.212
atom    4   Tr[ns(na)] =   2.95398
    eigenvalues:
  0.182  0.222  0.237  0.412  0.424
    eigenvectors:
  0.006  0.002  0.000  0.000  0.992
  0.000  0.905  0.093  0.000  0.002
  0.000  0.092  0.907  0.000  0.000
  0.994  0.001  0.000  0.000  0.006
  0.000  0.000  0.000  1.000  0.000
    occupations:
  0.422  0.009  0.004 -0.018 -0.000
  0.009  0.224 -0.004 -0.000 -0.001
  0.004 -0.004  0.236  0.000 -0.000
 -0.018 -0.000  0.000  0.183 -0.000
 -0.000 -0.001 -0.000 -0.000  0.412
atom    9   Tr[ns(na)] =   2.93393
    eigenvalues:
  0.189  0.228  0.247  0.379  0.424
    eigenvectors:
  0.000  0.000  0.925  0.075  0.000
  0.000  0.000  0.000  0.000  1.000
  0.997  0.003  0.000  0.000  0.000
  0.000  0.000  0.075  0.925  0.000
  0.003  0.997  0.000  0.000  0.000
    occupations:
  0.257 -0.000 -0.000  0.035  0.000
 -0.000  0.424  0.000  0.000 -0.000
 -0.000  0.000  0.189  0.000  0.002
  0.035  0.000  0.000  0.369 -0.000
  0.000 -0.000  0.002 -0.000  0.228
atom   10   Tr[ns(na)] =   2.86686
    eigenvalues:
  0.186  0.244  0.246  0.335  0.423
    eigenvectors:
  0.016  0.000  0.000  0.984  0.000
  0.000  0.002  0.998  0.000  0.000
  0.000  0.998  0.002  0.000  0.000
  0.984  0.000  0.000  0.016  0.000
  0.000  0.000  0.000  0.000  1.000
    occupations:
  0.333  0.001 -0.000 -0.019 -0.000
  0.001  0.246 -0.000  0.000 -0.000
 -0.000 -0.000  0.244 -0.000 -0.000
 -0.019  0.000 -0.000  0.188  0.000
 -0.000 -0.000 -0.000  0.000  0.423
atom   16   Tr[ns(na)] =   2.86477
    eigenvalues:
  0.194  0.205  0.227  0.384  0.422
    eigenvectors:
  0.080  0.683  0.056  0.170  0.012
  0.004  0.003  0.003  0.172  0.819
  0.556  0.006  0.438  0.001  0.000
  0.023  0.143  0.009  0.657  0.168
  0.338  0.166  0.494  0.001  0.002
    occupations:
  0.238 -0.009 -0.004  0.069 -0.002
 -0.009  0.414 -0.003  0.020  0.010
 -0.004 -0.003  0.209  0.006  0.015
  0.069  0.020  0.006  0.359  0.001
 -0.002  0.010  0.015  0.001  0.213
atom   17   Tr[ns(na)] =   2.94712
    eigenvalues:
  0.181  0.221  0.237  0.410  0.424
    eigenvectors:
  0.006  0.002  0.000  0.000  0.992
  0.000  0.911  0.087  0.000  0.002
  0.000  0.086  0.913  0.000  0.000
  0.994  0.001  0.000  0.000  0.005
  0.000  0.000  0.000  1.000  0.000
    occupations:
  0.423  0.009  0.004 -0.018 -0.000
  0.009  0.223 -0.004 -0.000 -0.001
  0.004 -0.004  0.236  0.000 -0.000
 -0.018 -0.000  0.000  0.183 -0.000
 -0.000 -0.001 -0.000 -0.000  0.410
atom   22   Tr[ns(na)] =   2.93349
    eigenvalues:
  0.189  0.228  0.247  0.379  0.423
    eigenvectors:
  0.000  0.000  0.926  0.074  0.000
  0.000  0.000  0.000  0.000  1.000
  0.998  0.002  0.000  0.000  0.000
  0.000  0.000  0.074  0.926  0.000
  0.002  0.998  0.000  0.000  0.000
    occupations:
  0.257 -0.000 -0.000  0.035  0.000
 -0.000  0.423  0.000 -0.000 -0.000
 -0.000  0.000  0.189 -0.000 -0.002
  0.035 -0.000 -0.000  0.369 -0.000
  0.000 -0.000 -0.002 -0.000  0.228
atom   23   Tr[ns(na)] =   2.89897
    eigenvalues:
  0.167  0.237  0.268  0.376  0.401
    eigenvectors:
  0.011  0.039  0.000  0.949  0.000
  0.001  0.957  0.000  0.041  0.000
  0.000  0.000  1.000  0.000  0.000
  0.987  0.003  0.000  0.009  0.000
  0.000  0.000  0.000  0.000  1.000
    occupations:
  0.368  0.028  0.000 -0.020 -0.000
  0.028  0.243 -0.000 -0.000 -0.000
  0.000 -0.000  0.268 -0.000 -0.000
 -0.020 -0.000 -0.000  0.169 -0.000
 -0.000 -0.000 -0.000 -0.000  0.401
N of occupied +U levels =  23.2628793
 --- exit write_ns ---

[...]

          k = 0.2500-0.4516 0.0000 ( 29882 PWs)   bands (ev):

[...]

          k =-0.2500 0.2258 0.0000 ( 29912 PWs)   bands (ev):

   -60.0355 -60.0074 -59.8027 -59.4237 -59.1021 -59.0733 -58.7644 -58.7328
   -36.5289 -36.2986 -36.2459 -36.2021 -36.1844 -36.1780 -36.1562 -36.0737
   -35.9785 -35.7478 -35.6725 -35.6659 -35.6219 -35.4269 -35.3518 -35.3459
   -35.2390 -35.2326 -35.1978 -35.0576 -35.0298 -35.0233 -34.9476 -34.8769
   -21.3762 -21.1362 -20.4857 -20.4483 -20.1055 -19.7430 -19.6006 -19.5496
   -19.4883 -19.3624 -19.2779 -19.1706 -19.0945 -19.0688 -19.0389 -18.7192
   -18.4714 -18.1701 -18.1422  -9.1854  -8.9032  -8.3765  -7.8032  -7.6415
    -7.4579  -7.2698  -7.1969  -7.0725  -6.8862  -6.7267  -6.6967  -6.6815
    -6.6183  -6.4672  -6.4224  -6.3357  -6.2422  -6.1318  -6.0903  -5.9683
    -5.9404  -5.7417  -5.6008  -5.4428  -5.3593  -5.2832  -5.1836  -5.0816
    -5.0288  -5.0021  -4.8564  -4.8165  -4.7331  -4.7034  -4.6138  -4.5823
    -4.4815  -4.4215  -4.3391  -4.2554  -4.2068  -4.1229  -4.0361  -3.8949
    -3.7827  -3.6974  -3.5691  -3.4995  -3.4465  -3.3222  -3.2538  -3.1954
    -3.0771  -2.9556  -2.8331  -2.6943  -0.5229  -0.4425  -0.3933  -0.2218
    -0.0115   0.0395   0.1741   0.2743   0.3017   0.4221   0.5271   0.5922
     0.7263   0.8294   0.8579   0.9246   1.0663   1.1767   1.2428   1.3320
     1.4316   1.5765   1.5972   1.7148   1.8842   2.1862   2.2810   2.4553
     2.4847   2.7359   2.8231   3.2452   3.2828   3.3675   3.6066   3.6231
     3.8305   3.8698   3.9407   4.0852   4.1628   4.4845   4.4914   4.6267
     5.0188   5.2632   5.2801   5.5367   5.8032   5.8434   6.0625   6.1787
     6.3030   6.4302   6.5270   6.8384   6.9465   7.2714   7.3601   7.4595
     7.6185   7.8110   7.8813   7.9986   8.0822   8.1426   8.2139   8.3719
     8.5213   8.5759   8.7635   8.8403   8.9452   9.1279   9.2397   9.2983
     9.4150   9.5463   9.5826   9.6104   9.7960   9.9014  10.0273  10.0623
    10.1685  10.2604  10.3772  10.4905  10.5999  10.6546  10.7582  10.8037
    10.9647  10.9933  11.0464  11.1322  11.2916  11.3222  11.3991  11.4777
    11.4900  11.5786  11.6672  11.7563  11.8486  11.9801  11.9999  12.0638
    12.1503  12.2018  12.2328  12.3524  12.4083  12.4564  12.5288  12.6202
    12.7426  12.8344  12.8859  12.9035  12.9955  13.0144  13.0767  13.1607
    13.3624  13.3960  13.5293  13.6249  13.6642  13.7181  13.8526  13.8742
    13.9394  13.9844  14.1460  14.2064  14.2277  14.2987  14.4654  14.5125
    14.5446  14.5885  14.6575  14.6958  14.7707  14.8969  14.9899  15.0023
    15.0924  15.2197  15.2776  15.3261  15.3619  15.4265  15.5135  15.5838
    15.6535  15.6687  15.7881  15.8568  15.8937  15.9611  16.0567  16.0987
    16.2267  16.2842  16.3571  16.3954  16.4435  16.4847  16.6107  16.6980
    16.7478  16.7848  16.8174  16.8554  16.9772  17.0397  17.0678  17.1333
    17.2018  17.3204  17.3434  17.3833  17.4767  17.5063  17.6319  17.7549
    17.8173  17.8852  17.9374  17.9575  18.0927  18.1064  18.2384  18.2817
    18.3948  18.4299  18.4725  18.5482  18.6068  18.6958

     the Fermi energy is    -2.7135 ev

!    total energy              =   -1568.03642343 Ry
     Harris-Foulkes estimate   =   -1568.03642343 Ry
     estimated scf accuracy    <          4.4E-09 Ry

     The total energy is the sum of the following terms:

     one-electron contribution =  -18655.90294215 Ry
     hartree contribution      =    9347.83315834 Ry
     xc contribution           =    -277.59411542 Ry
     ewald contribution        =    8017.33683297 Ry
     Hubbard energy            =       0.29018848 Ry
     smearing contrib. (-TS)   =       0.00045436 Ry

     convergence has been achieved in  11 iterations

     Forces acting on atoms (Ry/au):

     negative rho (up, down):  0.103E+00 0.000E+00
     atom    1 type  1   force =    -0.00062104   -0.01058632    0.00027055
     atom    2 type  1   force =     0.00006701    0.01679018    0.00037917
     atom    3 type  2   force =     0.06164887   -0.01071619    0.00045067
     atom    4 type  2   force =    -0.00385272    0.00458608   -0.00040818
     atom    5 type  1   force =    -0.00279988   -0.07003596   -0.00078392
     atom    6 type  1   force =    -0.00506353    0.07201402   -0.00036705
     atom    7 type  1   force =     0.00129005    0.00084318   -0.00009214
     atom    8 type  1   force =     0.00266632   -0.00094576    0.00055724
     atom    9 type  2   force =     0.00044019   -0.00004856    0.00002044
     atom   10 type  2   force =    -0.00431990    0.00024651    0.00017734
     atom   11 type  1   force =    -0.01692671   -0.02380185   -0.00003089
     atom   12 type  1   force =    -0.01716931    0.02370168   -0.00003438
     atom   13 type  1   force =     0.00151237    0.00013021    0.00015280
     atom   14 type  1   force =    -0.00139735   -0.01011610   -0.00025366
     atom   15 type  1   force =     0.00011326    0.01336570    0.00043454
     atom   16 type  2   force =    -0.06161830   -0.01075380    0.00046028
     atom   17 type  2   force =    -0.00361024    0.00393060   -0.00016105
     atom   18 type  1   force =     0.00723449   -0.06953810   -0.00075398
     atom   19 type  1   force =     0.00558351    0.07217635   -0.00041314
     atom   20 type  1   force =    -0.00069263    0.00003754    0.00014196
     atom   21 type  1   force =     0.00167380   -0.00070040    0.00057133
     atom   22 type  2   force =    -0.00128993   -0.00005470   -0.00002774
     atom   23 type  2   force =    -0.00148061    0.00013217   -0.00026981
     atom   24 type  1   force =     0.01948918   -0.02217382   -0.00025910
     atom   25 type  1   force =     0.01906596    0.02211743   -0.00025625
     atom   26 type  1   force =    -0.00092115    0.00007334    0.00013477
     atom   27 type  3   force =     0.00001019    0.00003295    0.00044872
     atom   28 type  3   force =     0.00002378    0.00015288    0.00048298
     atom   29 type  3   force =    -0.00000846   -0.00047752    0.00006345
     atom   30 type  3   force =     0.00013933   -0.00033696   -0.00016092
     atom   31 type  1   force =     0.00031133    0.00000519   -0.00076944
     atom   32 type  3   force =     0.00050209   -0.00004998    0.00029544

     Total force =     0.002323     Total SCF correction =     0.000092

     bfgs converged in  10 scf cycles and   9 bfgs steps
     (criteria: energy < 0.10E-03, force < 0.10E-02)

     End of BFGS Geometry Optimization

     Final energy   =   -1568.0364234270 Ry
Begin final coordinates

ATOMIC_POSITIONS (crystal)
O0       0.000000000   0.000000000   0.377679660    0   0   1
O0       0.000000000   0.500000000   0.396533243    0   0   1
Ti1      0.250000000   0.500000000   0.448695047    0   0   1
Ti1      0.000000000   0.000000000   0.452865736    0   0   1
O0       0.250000000   0.810000000   0.448814722    0   0   1
O0       0.250000000   0.190000000   0.449561868    0   0   1
O0       0.000000000   0.500000000   0.496198186    0   0   1
O0       0.000000000   0.000000000   0.525310644    0   0   1
Ti1      0.250000000   0.000000000   0.581177335    0   0   1
Ti1      0.000000000   0.500000000   0.566475812    0   0   1
O0       0.250000000   0.690000000   0.579291444    0   0   1
O0       0.250000000   0.310000000   0.579281974    0   0   1
O0       0.000000000   0.000000000   0.622166418    0   0   1
O0       0.500000000   0.000000000   0.377961072    0   0   1
O0       0.500000000   0.500000000   0.395877113    0   0   1
Ti1      0.750000000   0.500000000   0.448812203    0   0   1
Ti1      0.500000000   0.000000000   0.453147574    0   0   1
O0       0.750000000   0.810000000   0.448788004    0   0   1
O0       0.750000000   0.190000000   0.449575539    0   0   1
O0       0.500000000   0.500000000   0.491279058    0   0   1
O0       0.500000000   0.000000000   0.525403939    0   0   1
Ti1      0.750000000   0.000000000   0.581277347    0   0   1
Ti1      0.500000000   0.500000000   0.593642261    0   0   1
O0       0.750000000   0.690000000   0.578891624    0   0   1
O0       0.750000000   0.310000000   0.578792780    0   0   1
O0       0.500000000   0.000000000   0.622169966    0   0   1
H2      -0.000704673   0.623321000   0.375215270
H2       0.499533306   0.619918860   0.373494513
H2       0.148848855   0.038394404   0.363983850
H2       0.648347837   0.038739129   0.364109244
O0       0.505545350   0.499925907   0.661189769
H2       0.378370608   0.499422092   0.684586784
End final coordinates

     General routines

     Parallel routines
     Hubbard U routines

   This run was terminated on:  15:56:55  29Apr2014

   JOB DONE.