     Program PWSCF v.5.0.2 (svn rev. 9656) starts on  6May2014 at  3:48:17

     Current dimensions of program PWSCF are:
     Max number of different atomic species (ntypx) = 10
     Max number of k-points (npk) =  40000
     Max angular momentum in pseudopotentials (lmaxx) =  3
     Reading input from pwscf.in
Warning: card &CELL ignored
Warning: card / ignored

     Subspace diagonalization in iterative solution of the eigenvalue problem:
     a serial algorithm will be used

     bravais-lattice index     =            0
     lattice parameter (alat)  =      11.7919  a.u.
     unit-cell volume          =    7123.6633 (a.u.)^3
     number of atoms/cell      =           30
     number of atomic types    =            3
     number of electrons       =       240.00
     number of Kohn-Sham states=          348
     kinetic-energy cutoff     =      40.0000  Ry
     charge density cutoff     =     500.0000  Ry
     convergence threshold     =      1.0E-06
     mixing beta               =       0.7000
     number of iterations used =            8  plain     mixing
     Exchange-correlation      = SLA  PW   PBE  PBE ( 1 4 3 4 0)
     EXX-fraction              =        0.00
     nstep                     =           50

     celldm(1)=  11.791891  celldm(2)=   0.000000  celldm(3)=   0.000000
     celldm(4)=   0.000000  celldm(5)=   0.000000  celldm(6)=   0.000000

     crystal axes: (cart. coord. in units of alat)
               a(1) = (   1.000000   0.000000   0.000000 )
               a(2) = (   0.000000   1.026665   0.000000 )
               a(3) = (   0.000000   0.000000   4.231793 )

     reciprocal axes: (cart. coord. in units 2 pi/alat)
               b(1) = (  1.000000  0.000000  0.000000 )
               b(2) = (  0.000000  0.974028  0.000000 )
               b(3) = (  0.000000  0.000000  0.236306 )

     PseudoPot. # 1 for O  read from file:
     /home/camp/zhonxu/pseudo/o_pbe_v1.01.uspp.F.UPF
     MD5 check sum: 2bcb18d16ea4b960afae9ec6d52f22d2
     Pseudo is Ultrasoft + core correction, Zval =  6.0
     Generated by new atomic code, or converted to UPF format
     Using radial grid of  737 points,  5 beta functions with:
                l(1) =   0
                l(2) =   0
                l(3) =   1
                l(4) =   1
                l(5) =   2
     Q(r) pseudized with  8 coefficients,  rinner =    0.900   0.900   0.900
                                                       0.900   0.900

     PseudoPot. # 2 for Ru read from file:
     /home/camp/zhonxu/pseudo/ru_pbe_v1.uspp.F.UPF
     MD5 check sum: df00be1c11b23341d9806d8f1dfa10cf
     Pseudo is Ultrasoft + core correction, Zval = 16.0
     Generated by new atomic code, or converted to UPF format
     Using radial grid of  967 points,  6 beta functions with:
                l(1) =   0
                l(2) =   0
                l(3) =   1
                l(4) =   1
                l(5) =   2
                l(6) =   2
     Q(r) pseudized with  8 coefficients,  rinner =    1.300   1.300   1.300
                                                       1.300   1.300

     PseudoPot. # 3 for H  read from file:
     /home/camp/zhonxu/pseudo/h_pbe_v1.uspp.F.UPF
     MD5 check sum: 3408e3ff4ec8b0a4e358431e7e038a48
     Pseudo is Ultrasoft, Zval =  1.0
     Generated by new atomic code, or converted to UPF format
     Using radial grid of  615 points,  2 beta functions with:
                l(1) =   0
                l(2) =   0
     Q(r) pseudized with  8 coefficients,  rinner =    0.700

     atomic species   valence    mass     pseudopotential
        O0             6.00    15.99940     O ( 1.00)
        Ru1           16.00   101.07000     Ru( 1.00)
        H2             1.00     1.00794     H ( 1.00)

     Simplified LDA+U calculation (l_max = 2) with parameters (eV):
     atomic species    L          U    alpha       J0     beta
        Ru1            2     0.5000   0.0000   0.0000   0.0000

     No symmetry found

   Cartesian axes

     site n.     atom                  positions (alat units)
         1           O0  tau(   1) = (   0.0000000   0.0000000   1.6080390  )
         2           O0  tau(   2) = (   0.0000000   0.5133323   1.7023233  )
         3           Ru1 tau(   3) = (   0.2500000   0.5133323   1.9175523  )
         4           Ru1 tau(   4) = (   0.0000000   0.0000000   1.9215302  )
         5           O0  tau(   5) = (   0.2500000   0.8315984   1.9195836  )
         6           O0  tau(   6) = (   0.2500000   0.1950663   1.9193297  )
         7           O0  tau(   7) = (   0.0000000   0.5133323   2.1106490  )
         8           O0  tau(   8) = (   0.0000000   0.0000000   2.2345136  )
         9           Ru1 tau(   9) = (   0.2500000   0.0000000   2.4487269  )
        10           Ru1 tau(  10) = (   0.0000000   0.5133323   2.4113179  )
        11           O0  tau(  11) = (   0.2500000   0.7083986   2.4387399  )
        12           O0  tau(  12) = (   0.2500000   0.3182660   2.4402210  )
        13           O0  tau(  13) = (   0.0000000   0.0000000   2.6238385  )
        14           O0  tau(  14) = (   0.5000000   0.0000000   1.6080390  )
        15           O0  tau(  15) = (   0.5000000   0.5133323   1.7023233  )
        16           Ru1 tau(  16) = (   0.7500000   0.5133323   1.9175523  )
        17           Ru1 tau(  17) = (   0.5000000   0.0000000   1.9215302  )
        18           O0  tau(  18) = (   0.7500000   0.8315984   1.9195836  )
        19           O0  tau(  19) = (   0.7500000   0.1950663   1.9193297  )
        20           O0  tau(  20) = (   0.5000000   0.5133323   2.1106490  )
        21           O0  tau(  21) = (   0.5000000   0.0000000   2.2345136  )
        22           Ru1 tau(  22) = (   0.7500000   0.0000000   2.4487269  )
        23           Ru1 tau(  23) = (   0.5000000   0.5133323   2.4113179  )
        24           O0  tau(  24) = (   0.7500000   0.7083986   2.4387399  )
        25           O0  tau(  25) = (   0.7500000   0.3182660   2.4401787  )
        26           O0  tau(  26) = (   0.5000000   0.0000000   2.6238385  )
        27           H2  tau(  27) = (  -0.0004100   0.6466653   1.6162063  )
        28           H2  tau(  28) = (   0.4995900   0.6466653   1.6162063  )
        29           H2  tau(  29) = (   0.1464700   0.0296706   1.5559879  )
        30           H2  tau(  30) = (   0.6464700   0.0296706   1.5559879  )

     number of k points=    10  Methfessel-Paxton smearing, width (Ry)=  0.0100
                       cart. coord. in units 2pi/alat
        k(    1) = (   0.0000000   0.0000000   0.0000000), wk =   0.1250000
        k(    2) = (   0.0000000   0.2435070   0.0000000), wk =   0.2500000
        k(    3) = (   0.0000000  -0.4870139   0.0000000), wk =   0.1250000
        k(    4) = (   0.2500000   0.0000000   0.0000000), wk =   0.2500000
        k(    5) = (   0.2500000   0.2435070   0.0000000), wk =   0.2500000
        k(    6) = (   0.2500000  -0.4870139   0.0000000), wk =   0.2500000
        k(    7) = (  -0.5000000   0.0000000   0.0000000), wk =   0.1250000
        k(    8) = (  -0.5000000   0.2435070   0.0000000), wk =   0.2500000
        k(    9) = (  -0.5000000  -0.4870139   0.0000000), wk =   0.1250000
        k(   10) = (  -0.2500000   0.2435070   0.0000000), wk =   0.2500000

     Largest allocated arrays     est. size (Mb)     dimensions
     Largest temporary arrays     est. size (Mb)     dimensions

     Check: negative/imaginary core charge=   -0.000003    0.000000

     Initial potential from superposition of free atoms
     Check: negative starting charge=   -0.522083

     starting charge  231.99981, renormalised to  240.00000

     negative rho (up, down):  0.540E+00 0.000E+00
     Number of +U iterations with fixed ns =  0
     Starting occupations:
 --- enter write_ns ---
 LDA+U parameters:
U( 2)     =  0.50000000
alpha( 2) =  0.00000000
atom    3   Tr[ns(na)] =   6.00000
    eigenvalues:
  0.600  0.600  0.600  0.600  0.600
    eigenvectors:
  1.000  0.000  0.000  0.000  0.000
  0.000  1.000  0.000  0.000  0.000
  0.000  0.000  1.000  0.000  0.000
  0.000  0.000  0.000  1.000  0.000
  0.000  0.000  0.000  0.000  1.000
    occupations:
  0.600  0.000  0.000  0.000  0.000
  0.000  0.600  0.000  0.000  0.000
  0.000  0.000  0.600  0.000  0.000
  0.000  0.000  0.000  0.600  0.000
  0.000  0.000  0.000  0.000  0.600
atom    4   Tr[ns(na)] =   6.00000
    eigenvalues:
  0.600  0.600  0.600  0.600  0.600
    eigenvectors:
  1.000  0.000  0.000  0.000  0.000
  0.000  1.000  0.000  0.000  0.000
  0.000  0.000  1.000  0.000  0.000
  0.000  0.000  0.000  1.000  0.000
  0.000  0.000  0.000  0.000  1.000
    occupations:
  0.600  0.000  0.000  0.000  0.000
  0.000  0.600  0.000  0.000  0.000
  0.000  0.000  0.600  0.000  0.000
  0.000  0.000  0.000  0.600  0.000
  0.000  0.000  0.000  0.000  0.600
atom    9   Tr[ns(na)] =   6.00000
    eigenvalues:
  0.600  0.600  0.600  0.600  0.600
    eigenvectors:
  1.000  0.000  0.000  0.000  0.000
  0.000  1.000  0.000  0.000  0.000
  0.000  0.000  1.000  0.000  0.000
  0.000  0.000  0.000  1.000  0.000
  0.000  0.000  0.000  0.000  1.000
    occupations:
  0.600  0.000  0.000  0.000  0.000
  0.000  0.600  0.000  0.000  0.000
  0.000  0.000  0.600  0.000  0.000
  0.000  0.000  0.000  0.600  0.000
  0.000  0.000  0.000  0.000  0.600
atom   10   Tr[ns(na)] =   6.00000
    eigenvalues:
  0.600  0.600  0.600  0.600  0.600
    eigenvectors:
  1.000  0.000  0.000  0.000  0.000
  0.000  1.000  0.000  0.000  0.000
  0.000  0.000  1.000  0.000  0.000
  0.000  0.000  0.000  1.000  0.000
  0.000  0.000  0.000  0.000  1.000
    occupations:
  0.600  0.000  0.000  0.000  0.000
  0.000  0.600  0.000  0.000  0.000
  0.000  0.000  0.600  0.000  0.000
  0.000  0.000  0.000  0.600  0.000
  0.000  0.000  0.000  0.000  0.600
atom   16   Tr[ns(na)] =   6.00000
    eigenvalues:
  0.600  0.600  0.600  0.600  0.600
    eigenvectors:
  1.000  0.000  0.000  0.000  0.000
  0.000  1.000  0.000  0.000  0.000
  0.000  0.000  1.000  0.000  0.000
  0.000  0.000  0.000  1.000  0.000
  0.000  0.000  0.000  0.000  1.000
    occupations:
  0.600  0.000  0.000  0.000  0.000
  0.000  0.600  0.000  0.000  0.000
  0.000  0.000  0.600  0.000  0.000
  0.000  0.000  0.000  0.600  0.000
  0.000  0.000  0.000  0.000  0.600
atom   17   Tr[ns(na)] =   6.00000
    eigenvalues:
  0.600  0.600  0.600  0.600  0.600
    eigenvectors:
  1.000  0.000  0.000  0.000  0.000
  0.000  1.000  0.000  0.000  0.000
  0.000  0.000  1.000  0.000  0.000
  0.000  0.000  0.000  1.000  0.000
  0.000  0.000  0.000  0.000  1.000
    occupations:
  0.600  0.000  0.000  0.000  0.000
  0.000  0.600  0.000  0.000  0.000
  0.000  0.000  0.600  0.000  0.000
  0.000  0.000  0.000  0.600  0.000
  0.000  0.000  0.000  0.000  0.600
atom   22   Tr[ns(na)] =   6.00000
    eigenvalues:
  0.600  0.600  0.600  0.600  0.600
    eigenvectors:
  1.000  0.000  0.000  0.000  0.000
  0.000  1.000  0.000  0.000  0.000
  0.000  0.000  1.000  0.000  0.000
  0.000  0.000  0.000  1.000  0.000
  0.000  0.000  0.000  0.000  1.000
    occupations:
  0.600  0.000  0.000  0.000  0.000
  0.000  0.600  0.000  0.000  0.000
  0.000  0.000  0.600  0.000  0.000
  0.000  0.000  0.000  0.600  0.000
[...]
 -0.000 -0.003  0.000  0.000  0.822
atom    4   Tr[ns(na)] =   7.14802
    eigenvalues:
  0.558  0.602  0.684  0.772  0.958
    eigenvectors:
  0.000  0.990  0.000  0.000  0.010
  0.000  0.000  0.017  0.983  0.000
  0.000  0.000  0.983  0.017  0.000
  0.000  0.010  0.000  0.000  0.990
  1.000  0.000  0.000  0.000  0.000
    occupations:
  0.606 -0.001 -0.000  0.035  0.001
 -0.001  0.770  0.011 -0.001 -0.000
 -0.000  0.011  0.685  0.002  0.000
  0.035 -0.001  0.002  0.954  0.000
  0.001 -0.000  0.000  0.000  0.558
atom    9   Tr[ns(na)] =   7.13293
    eigenvalues:
  0.582  0.599  0.760  0.811  0.814
    eigenvectors:
  0.000  0.142  0.001  0.293  0.564
  0.999  0.001  0.000  0.000  0.000
  0.000  0.000  0.999  0.000  0.000
  0.000  0.857  0.000  0.049  0.094
  0.000  0.000  0.000  0.658  0.342
    occupations:
  0.782  0.000 -0.001 -0.075  0.001
  0.000  0.582  0.001  0.000  0.000
 -0.001  0.001  0.760  0.000  0.000
 -0.075  0.000  0.000  0.630 -0.000
  0.001  0.000  0.000 -0.000  0.812
atom   10   Tr[ns(na)] =   7.16498
    eigenvalues:
  0.543  0.554  0.755  0.806  0.924
    eigenvectors:
  0.000  0.991  0.000  0.000  0.009
  0.000  0.000  0.000  1.000  0.000
  0.000  0.000  1.000  0.000  0.000
  0.000  0.009  0.000  0.000  0.991
  1.000  0.000  0.000  0.000  0.000
    occupations:
  0.558  0.000 -0.001  0.034  0.000
  0.000  0.806  0.000  0.000 -0.001
 -0.001  0.000  0.755 -0.002 -0.000
  0.034  0.000 -0.002  0.921 -0.000
  0.000 -0.001 -0.000 -0.000  0.543
atom   16   Tr[ns(na)] =   7.16343
    eigenvalues:
  0.526  0.568  0.734  0.818  0.935
    eigenvectors:
  0.000  0.199  0.007  0.000  0.794
  1.000  0.000  0.000  0.000  0.000
  0.000  0.000  0.990  0.000  0.010
  0.000  0.801  0.003  0.000  0.196
  0.000  0.000  0.000  1.000  0.000
    occupations:
  0.861 -0.000  0.018 -0.146 -0.000
 -0.000  0.526 -0.000 -0.000 -0.003
  0.018 -0.000  0.736 -0.007 -0.000
 -0.146 -0.000 -0.007  0.641  0.000
 -0.000 -0.003 -0.000  0.000  0.818
atom   17   Tr[ns(na)] =   7.14748
    eigenvalues:
  0.558  0.602  0.684  0.772  0.958
    eigenvectors:
  0.000  0.990  0.000  0.000  0.010
  0.000  0.000  0.017  0.983  0.000
  0.000  0.000  0.983  0.017  0.000
  0.000  0.010  0.000  0.000  0.990
  1.000  0.000  0.000  0.000  0.000
    occupations:
  0.606 -0.001 -0.000  0.035  0.001
 -0.001  0.770  0.011 -0.001 -0.001
 -0.000  0.011  0.685  0.002  0.000
  0.035 -0.001  0.002  0.954  0.000
  0.001 -0.001  0.000  0.000  0.558
atom   22   Tr[ns(na)] =   7.12965
    eigenvalues:
  0.582  0.599  0.760  0.811  0.813
    eigenvectors:
  0.000  0.142  0.001  0.363  0.495
  1.000  0.000  0.000  0.000  0.000
  0.000  0.000  0.999  0.000  0.000
  0.000  0.857  0.000  0.060  0.082
  0.000  0.000  0.000  0.577  0.423
    occupations:
  0.782  0.000 -0.001 -0.074  0.001
  0.000  0.582  0.001  0.000  0.000
 -0.001  0.001  0.760  0.000  0.000
 -0.074  0.000  0.000  0.629 -0.000
  0.001  0.000  0.000 -0.000  0.812
atom   23   Tr[ns(na)] =   7.17364
    eigenvalues:
  0.544  0.555  0.757  0.807  0.925
    eigenvectors:
  0.000  0.991  0.000  0.000  0.009
  0.000  0.000  0.000  1.000  0.000
  0.000  0.000  1.000  0.000  0.000
  0.000  0.009  0.000  0.000  0.991
  1.000  0.000  0.000  0.000  0.000
    occupations:
  0.558  0.000 -0.001  0.035 -0.000
  0.000  0.807  0.000  0.000 -0.001
 -0.001  0.000  0.757 -0.002 -0.000
  0.035  0.000 -0.002  0.921 -0.000
 -0.000 -0.001 -0.000 -0.000  0.544
N of occupied +U levels =  57.2414002
 --- exit write_ns ---

     Threshold (ethr) on eigenvalues was too large:
     Diagonalizing with lowered threshold

     Davidson diagonalization with overlap
     ethr =  9.48E-08,  avg # of iterations =  2.0

[...]

     total energy              =   -2131.04370217 Ry
     Harris-Foulkes estimate   =   -2131.04370219 Ry
     estimated scf accuracy    <       0.00000021 Ry

     iteration # 16     ecut=    40.00 Ry     beta=0.70
     Davidson diagonalization with overlap
     ethr =  5.82E-11,  avg # of iterations =  1.0

     negative rho (up, down):  0.576E+00 0.000E+00

     End of self-consistent calculation
 --- enter write_ns ---
 LDA+U parameters:
U( 2)     =  0.50000000
alpha( 2) =  0.00000000
atom    3   Tr[ns(na)] =   7.17402
    eigenvalues:
  0.526  0.569  0.736  0.820  0.936
    eigenvectors:
  0.000  0.199  0.007  0.000  0.795
  1.000  0.000  0.000  0.000  0.000
  0.000  0.000  0.991  0.000  0.009
  0.000  0.801  0.003  0.000  0.196
  0.000  0.000  0.000  1.000  0.000
    occupations:
  0.862  0.000  0.018 -0.146 -0.000
  0.000  0.526 -0.000 -0.000 -0.003
  0.018 -0.000  0.738 -0.007  0.000
 -0.146 -0.000 -0.007  0.641  0.000
 -0.000 -0.003  0.000  0.000  0.820
atom    4   Tr[ns(na)] =   7.14949
    eigenvalues:
  0.558  0.602  0.684  0.772  0.958
    eigenvectors:
  0.000  0.990  0.000  0.000  0.010
  0.000  0.000  0.017  0.983  0.000
  0.000  0.000  0.983  0.017  0.000
  0.000  0.010  0.000  0.000  0.990
  1.000  0.000  0.000  0.000  0.000
    occupations:
  0.606 -0.001 -0.000  0.035  0.001
 -0.001  0.770  0.011 -0.001 -0.000
 -0.000  0.011  0.686  0.002  0.000
  0.035 -0.001  0.002  0.955  0.000
  0.001 -0.000  0.000  0.000  0.558
atom    9   Tr[ns(na)] =   7.12885
    eigenvalues:
  0.582  0.599  0.760  0.810  0.813
    eigenvectors:
  0.000  0.142  0.001  0.357  0.500
  0.999  0.000  0.000  0.000  0.000
  0.000  0.000  0.999  0.000  0.000
  0.000  0.857  0.000  0.059  0.083
  0.000  0.000  0.000  0.583  0.417
    occupations:
  0.781  0.000 -0.001 -0.074  0.001
  0.000  0.582  0.001  0.000  0.000
 -0.001  0.001  0.760  0.000  0.000
 -0.074  0.000  0.000  0.630 -0.000
  0.001  0.000  0.000 -0.000  0.811
atom   10   Tr[ns(na)] =   7.17004
    eigenvalues:
  0.544  0.555  0.756  0.807  0.924
    eigenvectors:
  0.000  0.991  0.000  0.000  0.009
  0.000  0.000  0.000  1.000  0.000
  0.000  0.000  1.000  0.000  0.000
  0.000  0.009  0.000  0.000  0.991
  1.000  0.000  0.000  0.000  0.000
    occupations:
  0.558  0.000 -0.001  0.034  0.000
  0.000  0.807  0.000  0.000 -0.001
 -0.001  0.000  0.756 -0.002 -0.000
  0.034  0.000 -0.002  0.921 -0.000
  0.000 -0.001 -0.000 -0.000  0.544
atom   16   Tr[ns(na)] =   7.17403
    eigenvalues:
  0.526  0.569  0.736  0.820  0.936
    eigenvectors:
  0.000  0.199  0.007  0.000  0.795
  1.000  0.000  0.000  0.000  0.000
  0.000  0.000  0.991  0.000  0.009
  0.000  0.801  0.003  0.000  0.196
  0.000  0.000  0.000  1.000  0.000
    occupations:
  0.862 -0.000  0.018 -0.146 -0.000
 -0.000  0.526 -0.000 -0.000 -0.003
  0.018 -0.000  0.738 -0.007  0.000
 -0.146 -0.000 -0.007  0.641  0.000
 -0.000 -0.003  0.000  0.000  0.820
atom   17   Tr[ns(na)] =   7.14949
    eigenvalues:
  0.558  0.602  0.684  0.772  0.958
    eigenvectors:
  0.000  0.990  0.000  0.000  0.010
  0.000  0.000  0.017  0.983  0.000
  0.000  0.000  0.983  0.017  0.000
  0.000  0.010  0.000  0.000  0.990
  1.000  0.000  0.000  0.000  0.000
    occupations:
  0.606 -0.001 -0.000  0.035  0.001
 -0.001  0.770  0.011 -0.001 -0.000
 -0.000  0.011  0.686  0.002  0.000
  0.035 -0.001  0.002  0.955  0.000
  0.001 -0.000  0.000  0.000  0.558
atom   22   Tr[ns(na)] =   7.12881
    eigenvalues:
  0.582  0.599  0.760  0.810  0.813
    eigenvectors:
  0.000  0.142  0.001  0.351  0.506
  0.999  0.000  0.000  0.000  0.000
  0.000  0.000  0.999  0.000  0.000
  0.000  0.857  0.000  0.058  0.084
  0.000  0.000  0.000  0.591  0.409
    occupations:
  0.782  0.000 -0.001 -0.074  0.001
  0.000  0.582  0.001  0.000  0.000
 -0.001  0.001  0.760  0.000  0.000
 -0.074  0.000  0.000  0.630 -0.000
  0.001  0.000  0.000 -0.000  0.811
atom   23   Tr[ns(na)] =   7.17000
    eigenvalues:
  0.544  0.555  0.756  0.807  0.924
    eigenvectors:
  0.000  0.991  0.000  0.000  0.009
  0.000  0.000  0.000  1.000  0.000
  0.000  0.000  1.000  0.000  0.000
  0.000  0.009  0.000  0.000  0.991
  1.000  0.000  0.000  0.000  0.000
    occupations:
  0.558  0.000 -0.001  0.034  0.000
  0.000  0.807  0.000  0.000 -0.001
 -0.001  0.000  0.756 -0.002 -0.000
  0.034  0.000 -0.002  0.921 -0.000
  0.000 -0.001 -0.000 -0.000  0.544
N of occupied +U levels =  57.2447214
 --- exit write_ns ---

[...]

          k = 0.2500-0.4870 0.0000 ( 30468 PWs)   bands (ev):

[...]

          k =-0.2500 0.2435 0.0000 ( 30434 PWs)   bands (ev):

   -74.5783 -74.5708 -74.3356 -74.3283 -74.1992 -74.1918 -74.0574 -74.0503
   -44.7113 -44.5872 -44.5787 -44.5756 -44.5526 -44.5442 -44.4677 -44.4616
   -44.4586 -44.4423 -44.2908 -44.2430 -44.2141 -44.1953 -44.1723 -44.1162
   -44.1107 -44.1086 -44.0453 -44.0138 -43.9926 -43.9651 -43.9444 -43.9246
   -20.9337 -20.5041 -20.4314 -20.3844 -20.2286 -20.1283 -19.8488 -19.7750
   -19.6810 -19.5585 -19.5170 -19.4916 -19.3189 -19.2852 -19.1907 -19.1357
   -19.0625 -18.8437  -9.0768  -8.5654  -8.5004  -8.4512  -8.1117  -8.0979
    -7.9570  -7.9185  -7.9049  -7.7234  -7.6119  -7.6104  -7.5383  -7.4826
    -7.3428  -7.3386  -7.2027  -7.1903  -6.8039  -6.7043  -6.6749  -6.5013
    -6.4183  -6.0858  -5.9506  -5.8495  -5.7649  -5.5694  -5.4782  -5.4361
    -5.4062  -5.2961  -5.2688  -5.1728  -5.0334  -4.9849  -4.9008  -4.8634
    -4.7286  -4.6902  -4.5389  -4.4721  -4.2373  -4.2190  -4.0999  -4.0610
    -3.9557  -3.8329  -3.7589  -3.4627  -3.4574  -3.1331  -3.0883  -2.7190
    -2.2016  -2.1314  -1.9661  -1.7968  -1.6906  -1.6175  -1.5760  -1.4614
    -1.4298  -1.4112  -1.3412  -1.2961  -1.2859  -1.1667  -1.0862  -0.9867
    -0.6486  -0.5219  -0.4776  -0.3649  -0.3130  -0.0949   0.0070   0.1756
     0.5873   0.7717   1.4799   1.6430   1.6806   2.1367   2.2321   2.5503
     2.7253   3.0388   3.1737   3.1909   3.2913   3.3926   3.6664   3.7273
     4.0698   4.2931   4.6834   5.1094   5.5515   5.8134   5.8749   5.9833
     6.1098   6.4131   6.5733   6.5911   6.6896   6.9063   6.9921   7.2164
     7.4888   7.5618   7.7623   7.9181   7.9349   8.2125   8.2665   8.3937
     8.4039   8.4764   8.6892   8.7317   8.8476   8.9920   9.1612   9.1774
     9.2482   9.4753   9.5046   9.7713   9.7956   9.8984   9.9545  10.0320
    10.1356  10.2599  10.3653  10.4272  10.4399  10.5880  10.6666  10.7228
    10.8401  10.9023  11.0018  11.1273  11.2726  11.2933  11.4392  11.5106
    11.6003  11.6345  11.6628  11.8076  11.8556  11.9589  12.0466  12.0553
    12.1557  12.2673  12.3729  12.4465  12.4989  12.5399  12.6135  12.6551
    12.7615  12.7816  12.9174  12.9176  12.9569  13.1102  13.2046  13.3204
    13.3373  13.4523  13.5135  13.6140  13.7068  13.7509  13.8543  13.9190
    13.9713  14.0309  14.1625  14.2942  14.3155  14.3762  14.5018  14.5076
    14.5693  14.6704  14.7315  14.8051  14.8563  14.9773  15.0330  15.0671
    15.2041  15.3520  15.5213  15.5637  15.6676  15.6935  15.7637  15.8401
    15.8418  15.9027  15.9414  15.9522  16.0279  16.0889  16.1567  16.2017
    16.2873  16.3803  16.4268  16.5374  16.6045  16.7100  16.7174  16.8032
    16.8277  16.8381  17.0001  17.0122  17.0579  17.2161  17.2222  17.3525
    17.4380  17.4858  17.5011  17.5690  17.5882  17.6318  17.7352  17.7593
    17.8630  17.8730  17.9956  18.0178  18.0823  18.1654  18.1741  18.3158
    18.3260  18.4564  18.4897  18.6043  18.6238  18.7442  18.7624  18.9122
    18.9971  19.0616  19.1344  19.1571  19.2598  19.2603  19.3460  19.4264
    19.4406  19.5450  19.5913  19.7768  19.8017  19.8553  19.9376  19.9376
    20.0026  20.1842  20.2186  20.3687  20.3726  20.5479  20.6116  20.6331
    20.7545  20.7572  20.8674  20.9042  20.9632  21.0211  21.0463  21.1283
    21.1719  21.2674  21.3289  21.3547  21.4118  21.4239  21.4795  21.6017
    21.6414  21.6677  21.7787  21.8059

     the Fermi energy is    -0.7994 ev

!    total energy              =   -2131.04370217 Ry
     Harris-Foulkes estimate   =   -2131.04370218 Ry
     estimated scf accuracy    <          9.8E-09 Ry

     The total energy is the sum of the following terms:

     one-electron contribution =  -24451.90448575 Ry
     hartree contribution      =   12245.97091281 Ry
     xc contribution           =    -330.64927340 Ry
     ewald contribution        =   10405.26714320 Ry
     Hubbard energy            =       0.27136475 Ry
     smearing contrib. (-TS)   =       0.00063622 Ry

     convergence has been achieved in  16 iterations

     Forces acting on atoms (Ry/au):

     negative rho (up, down):  0.576E+00 0.000E+00
     atom    1 type  1   force =    -0.00490374   -0.01159345    0.00038065
     atom    2 type  1   force =    -0.00013852    0.00922432    0.00076638
     atom    3 type  2   force =    -0.00022831   -0.00029033    0.00064719
     atom    4 type  2   force =     0.00383927    0.00663163   -0.00002897
     atom    5 type  1   force =     0.00169345   -0.02738566   -0.00021607
     atom    6 type  1   force =     0.00059098    0.02729698   -0.00016743
     atom    7 type  1   force =     0.00011258   -0.00189678   -0.00043423
     atom    8 type  1   force =    -0.00009430   -0.00102237   -0.00016921
     atom    9 type  2   force =     0.00091358    0.00054004   -0.00018331
     atom   10 type  2   force =     0.00006304    0.00031260    0.00039786
     atom   11 type  1   force =     0.00000570    0.00174860   -0.00056130
     atom   12 type  1   force =     0.00000700   -0.00274203   -0.00063956
     atom   13 type  1   force =    -0.00166314   -0.00026516    0.00036934
     atom   14 type  1   force =    -0.00488668   -0.01159146    0.00039035
     atom   15 type  1   force =    -0.00014536    0.00922949    0.00076681
     atom   16 type  2   force =    -0.00024901   -0.00029886    0.00068761
     atom   17 type  2   force =     0.00384345    0.00663195   -0.00003135
     atom   18 type  1   force =     0.00168592   -0.02738309   -0.00021712
     atom   19 type  1   force =     0.00058438    0.02729403   -0.00017054
     atom   20 type  1   force =     0.00011566   -0.00189419   -0.00052763
     atom   21 type  1   force =    -0.00008836   -0.00102234   -0.00018593
     atom   22 type  2   force =     0.00094259    0.00054686   -0.00015741
     atom   23 type  2   force =     0.00005770    0.00031249    0.00046607
     atom   24 type  1   force =    -0.00001187    0.00174762   -0.00056945
     atom   25 type  1   force =    -0.00000947   -0.00275661   -0.00060916
     atom   26 type  1   force =    -0.00163515   -0.00026574    0.00034892
     atom   27 type  3   force =     0.00000180   -0.00066541   -0.00033712
     atom   28 type  3   force =    -0.00000019   -0.00067015   -0.00033559
     atom   29 type  3   force =    -0.00019343    0.00011504    0.00015759
     atom   30 type  3   force =    -0.00020957    0.00011197    0.00016262

     Total force =     0.002537     Total SCF correction =     0.000222

     bfgs converged in   3 scf cycles and   2 bfgs steps
     (criteria: energy < 0.10E-03, force < 0.10E-02)

     End of BFGS Geometry Optimization

     Final energy   =   -2131.0437021677 Ry
Begin final coordinates

ATOMIC_POSITIONS (crystal)
O0       0.000000000   0.000000000   0.380052015    0   0   1
O0       0.000000000   0.500000000   0.402329793    0   0   1
Ru1      0.250000000   0.500000000   0.453111528    0   0   1
Ru1      0.000000000   0.000000000   0.454087585    0   0   1
O0       0.250000000   0.810000000   0.453587028    0   0   1
O0       0.250000000   0.190000000   0.453531439    0   0   1
O0       0.000000000   0.500000000   0.498871774    0   0   1
O0       0.000000000   0.000000000   0.527927714    0   0   1
Ru1      0.250000000   0.000000000   0.578680723    0   0   1
Ru1      0.000000000   0.500000000   0.569747303    0   0   1
O0       0.250000000   0.690000000   0.576249694    0   0   1
O0       0.250000000   0.310000000   0.576594765    0   0   1
O0       0.000000000   0.000000000   0.620066916    0   0   1
O0       0.500000000   0.000000000   0.380051135    0   0   1
O0       0.500000000   0.500000000   0.402329890    0   0   1
Ru1      0.750000000   0.500000000   0.453109827    0   0   1
Ru1      0.500000000   0.000000000   0.454087578    0   0   1
O0       0.750000000   0.810000000   0.453586856    0   0   1
O0       0.750000000   0.190000000   0.453531263    0   0   1
O0       0.500000000   0.500000000   0.498875792    0   0   1
O0       0.500000000   0.000000000   0.527929184    0   0   1
Ru1      0.750000000   0.000000000   0.578678408    0   0   1
Ru1      0.500000000   0.500000000   0.569746751    0   0   1
O0       0.750000000   0.690000000   0.576250134    0   0   1
O0       0.750000000   0.310000000   0.576587964    0   0   1
O0       0.500000000   0.000000000   0.620065357    0   0   1
H2      -0.000409416   0.629646637   0.381908595
H2       0.499590151   0.629646522   0.381908466
H2       0.146440972   0.028936619   0.367692396
H2       0.646443315   0.028937187   0.367692126
End final coordinates

     General routines

     Parallel routines
     Hubbard U routines

   This run was terminated on:   7:16: 2   6May2014

   JOB DONE.