     Program PWSCF v.5.0.2 (svn rev. 9656) starts on 24Jan2014 at 14:12:22

     Current dimensions of program PWSCF are:
     Max number of different atomic species (ntypx) = 10
     Max number of k-points (npk) =  40000
     Max angular momentum in pseudopotentials (lmaxx) =  3
     Reading input from SnO2-v-0.95.in

     Subspace diagonalization in iterative solution of the eigenvalue problem:
     a serial algorithm will be used

     bravais-lattice index     =            0
     lattice parameter (alat)  =       9.0987  a.u.
     unit-cell volume          =     485.4283 (a.u.)^3
     number of atoms/cell      =            6
     number of atomic types    =            2
     number of electrons       =        52.00
     number of Kohn-Sham states=           75
     kinetic-energy cutoff     =      40.0000  Ry
     charge density cutoff     =     500.0000  Ry
     convergence threshold     =      1.0E-06
     mixing beta               =       0.3000
     number of iterations used =            8  plain     mixing
     Exchange-correlation      = SLA  PW   PBE  PBE ( 1 4 3 4 0)
     EXX-fraction              =        0.00
     nstep                     =           50

     celldm(1)=   9.098711  celldm(2)=   0.000000  celldm(3)=   0.000000
     celldm(4)=   0.000000  celldm(5)=   0.000000  celldm(6)=   0.000000

     crystal axes: (cart. coord. in units of alat)
               a(1) = (   1.000000   0.000000   0.000000 )
               a(2) = (   0.000000   1.000000   0.000000 )
               a(3) = (   0.000000   0.000000   0.644444 )

     reciprocal axes: (cart. coord. in units 2 pi/alat)
               b(1) = (  1.000000  0.000000  0.000000 )
               b(2) = (  0.000000  1.000000  0.000000 )
               b(3) = (  0.000000  0.000000  1.551724 )

     PseudoPot. # 1 for Sn read from file:
     /home/camp/zhonxu/pseudo/sn_pbe_v1.uspp.F.UPF
     MD5 check sum: 4cf58ce39ec5d5d420df3dd08604eb00
     Pseudo is Ultrasoft + core correction, Zval = 14.0
     Generated by new atomic code, or converted to UPF format
     Using radial grid of  891 points,  6 beta functions with:
                l(1) =   0
                l(2) =   0
                l(3) =   1
                l(4) =   1
                l(5) =   2
                l(6) =   2
     Q(r) pseudized with  6 coefficients,  rinner =    1.200   1.200   1.200
                                                       1.200   1.200

     PseudoPot. # 2 for O  read from file:
     /home/camp/zhonxu/pseudo/o_pbe_v1.01.uspp.F.UPF
     MD5 check sum: 2bcb18d16ea4b960afae9ec6d52f22d2
     Pseudo is Ultrasoft + core correction, Zval =  6.0
     Generated by new atomic code, or converted to UPF format
     Using radial grid of  737 points,  5 beta functions with:
                l(1) =   0
                l(2) =   0
                l(3) =   1
                l(4) =   1
                l(5) =   2
     Q(r) pseudized with  8 coefficients,  rinner =    0.900   0.900   0.900
                                                       0.900   0.900

     atomic species   valence    mass     pseudopotential
        Sn0           14.00   118.71000     Sn( 1.00)
        O1             6.00    15.99940     O ( 1.00)

     Starting magnetic structure
     atomic species   magnetization
        Sn0          0.000
        O1           0.000

      8 Sym. Ops., with inversion, found
          (note:  8 additional sym.ops. were found but ignored
           their fractional translations are incommensurate with FFT grid)

   Cartesian axes

     site n.     atom                  positions (alat units)
         1           Sn0 tau(   1) = (   0.0000000   0.0000000   0.0000000  )
         2           Sn0 tau(   2) = (   0.5000000   0.5000000   0.3222222  )
         3           O1  tau(   3) = (   0.3050000   0.3050000   0.0000000  )
         4           O1  tau(   4) = (  -0.3050000  -0.3050000   0.0000000  )
         5           O1  tau(   5) = (   0.8050000   0.1950000   0.3222222  )
         6           O1  tau(   6) = (   0.1950000   0.8050000   0.3222222  )

     number of k points=    54  Methfessel-Paxton smearing, width (Ry)=  0.0100
                       cart. coord. in units 2pi/alat
        k(    1) = (   0.0000000   0.0000000   0.0000000), wk =   0.0080000
        k(    2) = (   0.0000000   0.0000000   0.3103448), wk =   0.0160000
        k(    3) = (   0.0000000   0.0000000   0.6206897), wk =   0.0160000
        k(    4) = (   0.0000000   0.2000000   0.0000000), wk =   0.0320000
        k(    5) = (   0.0000000   0.2000000   0.3103448), wk =   0.0640000
        k(    6) = (   0.0000000   0.2000000   0.6206897), wk =   0.0640000
        k(    7) = (   0.0000000   0.4000000   0.0000000), wk =   0.0320000
        k(    8) = (   0.0000000   0.4000000   0.3103448), wk =   0.0640000
        k(    9) = (   0.0000000   0.4000000   0.6206897), wk =   0.0640000
        k(   10) = (   0.2000000   0.2000000   0.0000000), wk =   0.0160000
        k(   11) = (   0.2000000   0.2000000   0.3103448), wk =   0.0320000
        k(   12) = (   0.2000000   0.2000000   0.6206897), wk =   0.0320000
        k(   13) = (   0.2000000   0.4000000   0.0000000), wk =   0.0320000
        k(   14) = (   0.2000000   0.4000000   0.3103448), wk =   0.0640000
        k(   15) = (   0.2000000   0.4000000   0.6206897), wk =   0.0640000
        k(   16) = (   0.4000000   0.4000000   0.0000000), wk =   0.0160000
        k(   17) = (   0.4000000   0.4000000   0.3103448), wk =   0.0320000
        k(   18) = (   0.4000000   0.4000000   0.6206897), wk =   0.0320000
        k(   19) = (  -0.2000000   0.2000000   0.0000000), wk =   0.0160000
        k(   20) = (  -0.2000000   0.2000000  -0.3103448), wk =   0.0320000
        k(   21) = (  -0.2000000   0.2000000  -0.6206897), wk =   0.0320000
        k(   22) = (  -0.2000000   0.4000000   0.0000000), wk =   0.0320000
        k(   23) = (  -0.2000000   0.4000000  -0.3103448), wk =   0.0640000
        k(   24) = (  -0.2000000   0.4000000  -0.6206897), wk =   0.0640000
        k(   25) = (  -0.4000000   0.4000000   0.0000000), wk =   0.0160000
        k(   26) = (  -0.4000000   0.4000000  -0.3103448), wk =   0.0320000
        k(   27) = (  -0.4000000   0.4000000  -0.6206897), wk =   0.0320000
        k(   28) = (   0.0000000   0.0000000   0.0000000), wk =   0.0080000
        k(   29) = (   0.0000000   0.0000000   0.3103448), wk =   0.0160000
        k(   30) = (   0.0000000   0.0000000   0.6206897), wk =   0.0160000
        k(   31) = (   0.0000000   0.2000000   0.0000000), wk =   0.0320000
        k(   32) = (   0.0000000   0.2000000   0.3103448), wk =   0.0640000
        k(   33) = (   0.0000000   0.2000000   0.6206897), wk =   0.0640000
        k(   34) = (   0.0000000   0.4000000   0.0000000), wk =   0.0320000
        k(   35) = (   0.0000000   0.4000000   0.3103448), wk =   0.0640000
        k(   36) = (   0.0000000   0.4000000   0.6206897), wk =   0.0640000
        k(   37) = (   0.2000000   0.2000000   0.0000000), wk =   0.0160000
        k(   38) = (   0.2000000   0.2000000   0.3103448), wk =   0.0320000
        k(   39) = (   0.2000000   0.2000000   0.6206897), wk =   0.0320000
        k(   40) = (   0.2000000   0.4000000   0.0000000), wk =   0.0320000
        k(   41) = (   0.2000000   0.4000000   0.3103448), wk =   0.0640000
        k(   42) = (   0.2000000   0.4000000   0.6206897), wk =   0.0640000
        k(   43) = (   0.4000000   0.4000000   0.0000000), wk =   0.0160000
        k(   44) = (   0.4000000   0.4000000   0.3103448), wk =   0.0320000
        k(   45) = (   0.4000000   0.4000000   0.6206897), wk =   0.0320000
        k(   46) = (  -0.2000000   0.2000000   0.0000000), wk =   0.0160000
        k(   47) = (  -0.2000000   0.2000000  -0.3103448), wk =   0.0320000
        k(   48) = (  -0.2000000   0.2000000  -0.6206897), wk =   0.0320000
        k(   49) = (  -0.2000000   0.4000000   0.0000000), wk =   0.0320000
        k(   50) = (  -0.2000000   0.4000000  -0.3103448), wk =   0.0640000
        k(   51) = (  -0.2000000   0.4000000  -0.6206897), wk =   0.0640000
        k(   52) = (  -0.4000000   0.4000000   0.0000000), wk =   0.0160000
        k(   53) = (  -0.4000000   0.4000000  -0.3103448), wk =   0.0320000
        k(   54) = (  -0.4000000   0.4000000  -0.6206897), wk =   0.0320000

     Largest allocated arrays     est. size (Mb)     dimensions
     Largest temporary arrays     est. size (Mb)     dimensions

     Check: negative/imaginary core charge=   -0.000004    0.000000

     Initial potential from superposition of free atoms

     starting charge   49.99990, renormalised to   52.00000
     Starting wfc are   34 randomized atomic wfcs

     Self-consistent Calculation

     iteration #  1     ecut=    40.00 Ry     beta=0.30
     Davidson diagonalization with overlap
     ethr =  1.00E-02,  avg # of iterations =  5.1

     total energy              =    -455.37202565 Ry
     Harris-Foulkes estimate   =    -456.13799768 Ry
     estimated scf accuracy    <       1.66082218 Ry

     total magnetization       =    -0.00 Bohr mag/cell
     absolute magnetization    =     0.00 Bohr mag/cell

[...]

     End of self-consistent calculation

 ------ SPIN UP ------------

          k = 0.0000 0.0000 0.0000 (  2063 PWs)   bands (ev):

   -11.6759 -10.9724 -10.6239 -10.5828 -10.5827 -10.4670 -10.4649 -10.3806
   -10.3631 -10.3631  -9.4752  -7.6935  -7.6934  -5.9019   1.2406   5.2360
     5.2360   5.8215   6.3551   7.4706   7.5671   8.3585   8.3587   8.6641
     8.6641   9.4836  10.8018  16.0604  16.1097  16.1097  19.7673  20.5274
    21.3756  21.3756  21.9118  22.0675  25.0321  27.0018  28.4401  28.6662
    29.3551  29.3551  29.6899  29.6899  30.1073  30.1087  30.2041  30.2041
    31.4316  31.9194  32.2023  32.9576  35.2336  35.2336  37.3613  37.3614
    37.3660  38.1541  39.7338  39.8230  39.8230  41.4739  42.0553  42.0715
    43.2307  43.2308  43.6726  43.8127  43.9449  43.9449  45.7896  46.0483
    46.7770  46.7770  47.5687

[...]

          k =-0.2000 0.2000 0.0000 (  2061 PWs)   bands (ev):

[...]

 ------ SPIN DOWN ----------

[...]

     the Fermi energy is     9.5897 ev

!    total energy              =    -455.49624442 Ry
     Harris-Foulkes estimate   =    -455.49622933 Ry
     estimated scf accuracy    <       0.00000034 Ry

     The total energy is the sum of the following terms:

     one-electron contribution =    -132.56923738 Ry
     hartree contribution      =     107.55177012 Ry
     xc contribution           =    -124.76760022 Ry
     ewald contribution        =    -305.71118563 Ry
     smearing contrib. (-TS)   =       0.00000868 Ry

[...]

     convergence has been achieved in   7 iterations

     Forces acting on atoms (Ry/au):

     atom    1 type  1   force =     0.00000000    0.00000000    0.00000000
     atom    2 type  1   force =     0.00000000    0.00000000    0.00000000
     atom    3 type  2   force =    -0.00380423   -0.00380423    0.00000000
     atom    4 type  2   force =     0.00380423    0.00380423   -0.00000000
     atom    5 type  2   force =    -0.00380325    0.00380325    0.00000000
     atom    6 type  2   force =     0.00380325   -0.00380325    0.00000000

[...]
        k(    2) = (   0.0000000   0.0000000   0.2994572), wk =   0.0160000
        k(    3) = (   0.0000000   0.0000000   0.5989144), wk =   0.0160000
        k(    4) = (   0.0000000   0.2036033   0.0000000), wk =   0.0320000
        k(    5) = (   0.0000000   0.2036033   0.2994572), wk =   0.0640000
        k(    6) = (   0.0000000   0.2036033   0.5989144), wk =   0.0640000
        k(    7) = (   0.0000000   0.4072067   0.0000000), wk =   0.0320000
        k(    8) = (   0.0000000   0.4072067   0.2994572), wk =   0.0640000
        k(    9) = (   0.0000000   0.4072067   0.5989144), wk =   0.0640000
        k(   10) = (   0.2036033   0.2036033   0.0000000), wk =   0.0160000
        k(   11) = (   0.2036033   0.2036033   0.2994572), wk =   0.0320000
        k(   12) = (   0.2036033   0.2036033   0.5989144), wk =   0.0320000
        k(   13) = (   0.2036034   0.4072067   0.0000000), wk =   0.0320000
        k(   14) = (   0.2036034   0.4072067   0.2994572), wk =   0.0640000
        k(   15) = (   0.2036034   0.4072067   0.5989144), wk =   0.0640000
        k(   16) = (   0.4072067   0.4072067   0.0000000), wk =   0.0160000
        k(   17) = (   0.4072067   0.4072067   0.2994572), wk =   0.0320000
        k(   18) = (   0.4072067   0.4072067   0.5989144), wk =   0.0320000
        k(   19) = (  -0.2036033   0.2036033   0.0000000), wk =   0.0160000
        k(   20) = (  -0.2036033   0.2036033  -0.2994572), wk =   0.0320000
        k(   21) = (  -0.2036033   0.2036033  -0.5989144), wk =   0.0320000
        k(   22) = (  -0.2036033   0.4072066   0.0000000), wk =   0.0320000
        k(   23) = (  -0.2036033   0.4072066  -0.2994572), wk =   0.0640000
        k(   24) = (  -0.2036033   0.4072066  -0.5989144), wk =   0.0640000
        k(   25) = (  -0.4072066   0.4072066   0.0000000), wk =   0.0160000
        k(   26) = (  -0.4072066   0.4072066  -0.2994572), wk =   0.0320000
        k(   27) = (  -0.4072066   0.4072066  -0.5989144), wk =   0.0320000
        k(   28) = (   0.0000000   0.0000000   0.0000000), wk =   0.0080000
        k(   29) = (   0.0000000   0.0000000   0.2994572), wk =   0.0160000
        k(   30) = (   0.0000000   0.0000000   0.5989144), wk =   0.0160000
        k(   31) = (   0.0000000   0.2036033   0.0000000), wk =   0.0320000
        k(   32) = (   0.0000000   0.2036033   0.2994572), wk =   0.0640000
        k(   33) = (   0.0000000   0.2036033   0.5989144), wk =   0.0640000
        k(   34) = (   0.0000000   0.4072067   0.0000000), wk =   0.0320000
        k(   35) = (   0.0000000   0.4072067   0.2994572), wk =   0.0640000
        k(   36) = (   0.0000000   0.4072067   0.5989144), wk =   0.0640000
        k(   37) = (   0.2036033   0.2036033   0.0000000), wk =   0.0160000
        k(   38) = (   0.2036033   0.2036033   0.2994572), wk =   0.0320000
        k(   39) = (   0.2036033   0.2036033   0.5989144), wk =   0.0320000
        k(   40) = (   0.2036034   0.4072067   0.0000000), wk =   0.0320000
        k(   41) = (   0.2036034   0.4072067   0.2994572), wk =   0.0640000
        k(   42) = (   0.2036034   0.4072067   0.5989144), wk =   0.0640000
        k(   43) = (   0.4072067   0.4072067   0.0000000), wk =   0.0160000
        k(   44) = (   0.4072067   0.4072067   0.2994572), wk =   0.0320000
        k(   45) = (   0.4072067   0.4072067   0.5989144), wk =   0.0320000
        k(   46) = (  -0.2036033   0.2036033   0.0000000), wk =   0.0160000
        k(   47) = (  -0.2036033   0.2036033  -0.2994572), wk =   0.0320000
        k(   48) = (  -0.2036033   0.2036033  -0.5989144), wk =   0.0320000
        k(   49) = (  -0.2036033   0.4072066   0.0000000), wk =   0.0320000
        k(   50) = (  -0.2036033   0.4072066  -0.2994572), wk =   0.0640000
        k(   51) = (  -0.2036033   0.4072066  -0.5989144), wk =   0.0640000
        k(   52) = (  -0.4072066   0.4072066   0.0000000), wk =   0.0160000
        k(   53) = (  -0.4072066   0.4072066  -0.2994572), wk =   0.0320000
        k(   54) = (  -0.4072066   0.4072066  -0.5989144), wk =   0.0320000

[...]

     Volume is kept fixed: isostatic pressure set to zero

     bfgs converged in   6 scf cycles and   5 bfgs steps
     (criteria: energy < 0.10E-03, force < 0.10E-02, cell < 0.50E+00)

     End of BFGS Geometry Optimization

     Final enthalpy =    -455.5034089099 Ry
Begin final coordinates
     new unit-cell volume =    485.42829 a.u.^3 (    71.93305 Ang^3 )

CELL_PARAMETERS (alat=  9.09871090)
   0.982302219  -0.000000065   0.000000000
  -0.000000065   0.982302219   0.000000000
   0.000000000   0.000000000   0.667875071

ATOMIC_POSITIONS (crystal)
Sn0      0.000000000   0.000000000   0.000000000    0   0   0
Sn0      0.500000000   0.500000000   0.500000000    0   0   0
O1       0.305764348   0.305764348   0.000000000    1   1   0
O1      -0.305764348  -0.305764348   0.000000000    1   1   0
O1       0.805764558   0.194235442   0.500000000    1   1   0
O1       0.194235442   0.805764558   0.500000000    1   1   0
End final coordinates

     A final scf calculation at the relaxed structure.
     The G-vectors are recalculated for the final unit cell
     Results may differ from those at the preceding step.

     bravais-lattice index     =            0
     lattice parameter (alat)  =       9.0987  a.u.
     unit-cell volume          =     485.4283 (a.u.)^3
     number of atoms/cell      =            6
     number of atomic types    =            2
     number of electrons       =        52.00
     number of Kohn-Sham states=           75
     kinetic-energy cutoff     =      40.0000  Ry
     charge density cutoff     =     500.0000  Ry
     convergence threshold     =      1.0E-08
     mixing beta               =       0.3000
     number of iterations used =            8  plain     mixing
     Exchange-correlation      = SLA  PW   PBE  PBE ( 1 4 3 4 0)
     EXX-fraction              =        0.00

     celldm(1)=   9.098711  celldm(2)=   0.000000  celldm(3)=   0.000000
     celldm(4)=   0.000000  celldm(5)=   0.000000  celldm(6)=   0.000000

     crystal axes: (cart. coord. in units of alat)
               a(1) = (   0.982302  -0.000000   0.000000 )
               a(2) = (  -0.000000   0.982302   0.000000 )
               a(3) = (   0.000000   0.000000   0.667875 )

     reciprocal axes: (cart. coord. in units 2 pi/alat)
               b(1) = (  1.018017  0.000000 -0.000000 )
               b(2) = (  0.000000  1.018017 -0.000000 )
               b(3) = ( -0.000000 -0.000000  1.497286 )

     PseudoPot. # 1 for Sn read from file:
     /home/camp/zhonxu/pseudo/sn_pbe_v1.uspp.F.UPF
     MD5 check sum: 4cf58ce39ec5d5d420df3dd08604eb00
     Pseudo is Ultrasoft + core correction, Zval = 14.0
     Generated by new atomic code, or converted to UPF format
     Using radial grid of  891 points,  6 beta functions with:
                l(1) =   0
                l(2) =   0
                l(3) =   1
                l(4) =   1
                l(5) =   2
                l(6) =   2
     Q(r) pseudized with  6 coefficients,  rinner =    1.200   1.200   1.200
                                                       1.200   1.200

     PseudoPot. # 2 for O  read from file:
     /home/camp/zhonxu/pseudo/o_pbe_v1.01.uspp.F.UPF
     MD5 check sum: 2bcb18d16ea4b960afae9ec6d52f22d2
     Pseudo is Ultrasoft + core correction, Zval =  6.0
     Generated by new atomic code, or converted to UPF format
     Using radial grid of  737 points,  5 beta functions with:
                l(1) =   0
                l(2) =   0
                l(3) =   1
                l(4) =   1
                l(5) =   2
     Q(r) pseudized with  8 coefficients,  rinner =    0.900   0.900   0.900
                                                       0.900   0.900

     atomic species   valence    mass     pseudopotential
        Sn0           14.00   118.71000     Sn( 1.00)
        O1             6.00    15.99940     O ( 1.00)

     Starting magnetic structure
     atomic species   magnetization
        Sn0          0.000
        O1           0.000

      8 Sym. Ops., with inversion, found
          (note:  8 additional sym.ops. were found but ignored
           their fractional translations are incommensurate with FFT grid)

   Cartesian axes

     site n.     atom                  positions (alat units)
         1           Sn0 tau(   1) = (   0.0000000   0.0000000   0.0000000  )
         2           Sn0 tau(   2) = (   0.4911511   0.4911511   0.3339375  )
         3           O1  tau(   3) = (   0.3003530   0.3003530   0.0000000  )
         4           O1  tau(   4) = (  -0.3003530  -0.3003530   0.0000000  )
         5           O1  tau(   5) = (   0.7915043   0.1907979   0.3339375  )
         6           O1  tau(   6) = (   0.1907979   0.7915043   0.3339375  )

     number of k points=    54  Methfessel-Paxton smearing, width (Ry)=  0.0100
                       cart. coord. in units 2pi/alat
        k(    1) = (   0.0000000   0.0000000   0.0000000), wk =   0.0080000
        k(    2) = (   0.0000000   0.0000000   0.2994572), wk =   0.0160000
        k(    3) = (   0.0000000   0.0000000   0.5989144), wk =   0.0160000
        k(    4) = (   0.0000000   0.2036033   0.0000000), wk =   0.0320000
        k(    5) = (   0.0000000   0.2036033   0.2994572), wk =   0.0640000
        k(    6) = (   0.0000000   0.2036033   0.5989144), wk =   0.0640000
        k(    7) = (   0.0000000   0.4072067   0.0000000), wk =   0.0320000
        k(    8) = (   0.0000000   0.4072067   0.2994572), wk =   0.0640000
        k(    9) = (   0.0000000   0.4072067   0.5989144), wk =   0.0640000
        k(   10) = (   0.2036033   0.2036033   0.0000000), wk =   0.0160000
        k(   11) = (   0.2036033   0.2036033   0.2994572), wk =   0.0320000
        k(   12) = (   0.2036033   0.2036033   0.5989144), wk =   0.0320000
        k(   13) = (   0.2036034   0.4072067   0.0000000), wk =   0.0320000
        k(   14) = (   0.2036034   0.4072067   0.2994572), wk =   0.0640000
        k(   15) = (   0.2036034   0.4072067   0.5989144), wk =   0.0640000
        k(   16) = (   0.4072067   0.4072067   0.0000000), wk =   0.0160000
        k(   17) = (   0.4072067   0.4072067   0.2994572), wk =   0.0320000
        k(   18) = (   0.4072067   0.4072067   0.5989144), wk =   0.0320000
        k(   19) = (  -0.2036033   0.2036033   0.0000000), wk =   0.0160000
        k(   20) = (  -0.2036033   0.2036033  -0.2994572), wk =   0.0320000
        k(   21) = (  -0.2036033   0.2036033  -0.5989144), wk =   0.0320000
        k(   22) = (  -0.2036033   0.4072066   0.0000000), wk =   0.0320000
        k(   23) = (  -0.2036033   0.4072066  -0.2994572), wk =   0.0640000
        k(   24) = (  -0.2036033   0.4072066  -0.5989144), wk =   0.0640000
        k(   25) = (  -0.4072066   0.4072066   0.0000000), wk =   0.0160000
        k(   26) = (  -0.4072066   0.4072066  -0.2994572), wk =   0.0320000
        k(   27) = (  -0.4072066   0.4072066  -0.5989144), wk =   0.0320000
        k(   28) = (   0.0000000   0.0000000   0.0000000), wk =   0.0080000
        k(   29) = (   0.0000000   0.0000000   0.2994572), wk =   0.0160000
        k(   30) = (   0.0000000   0.0000000   0.5989144), wk =   0.0160000
        k(   31) = (   0.0000000   0.2036033   0.0000000), wk =   0.0320000
        k(   32) = (   0.0000000   0.2036033   0.2994572), wk =   0.0640000
        k(   33) = (   0.0000000   0.2036033   0.5989144), wk =   0.0640000
        k(   34) = (   0.0000000   0.4072067   0.0000000), wk =   0.0320000
        k(   35) = (   0.0000000   0.4072067   0.2994572), wk =   0.0640000
        k(   36) = (   0.0000000   0.4072067   0.5989144), wk =   0.0640000
        k(   37) = (   0.2036033   0.2036033   0.0000000), wk =   0.0160000
        k(   38) = (   0.2036033   0.2036033   0.2994572), wk =   0.0320000
        k(   39) = (   0.2036033   0.2036033   0.5989144), wk =   0.0320000
        k(   40) = (   0.2036034   0.4072067   0.0000000), wk =   0.0320000
        k(   41) = (   0.2036034   0.4072067   0.2994572), wk =   0.0640000
        k(   42) = (   0.2036034   0.4072067   0.5989144), wk =   0.0640000
        k(   43) = (   0.4072067   0.4072067   0.0000000), wk =   0.0160000
        k(   44) = (   0.4072067   0.4072067   0.2994572), wk =   0.0320000
        k(   45) = (   0.4072067   0.4072067   0.5989144), wk =   0.0320000
        k(   46) = (  -0.2036033   0.2036033   0.0000000), wk =   0.0160000
        k(   47) = (  -0.2036033   0.2036033  -0.2994572), wk =   0.0320000
        k(   48) = (  -0.2036033   0.2036033  -0.5989144), wk =   0.0320000
        k(   49) = (  -0.2036033   0.4072066   0.0000000), wk =   0.0320000
        k(   50) = (  -0.2036033   0.4072066  -0.2994572), wk =   0.0640000
        k(   51) = (  -0.2036033   0.4072066  -0.5989144), wk =   0.0640000
        k(   52) = (  -0.4072066   0.4072066   0.0000000), wk =   0.0160000
        k(   53) = (  -0.4072066   0.4072066  -0.2994572), wk =   0.0320000
        k(   54) = (  -0.4072066   0.4072066  -0.5989144), wk =   0.0320000

     Largest allocated arrays     est. size (Mb)     dimensions
     Largest temporary arrays     est. size (Mb)     dimensions

     Check: negative/imaginary core charge=   -0.000004    0.000000

     Initial potential from superposition of free atoms

     starting charge   49.99990, renormalised to   52.00000
     Starting wfc are   34 randomized atomic wfcs

     Self-consistent Calculation

[...]

     total energy              =    -455.50333885 Ry
     Harris-Foulkes estimate   =    -455.50333703 Ry
     estimated scf accuracy    <       0.00000001 Ry

[...]

     iteration # 10     ecut=    40.00 Ry     beta=0.30
     Davidson diagonalization with overlap
     ethr =  2.25E-11,  avg # of iterations =  1.0

     End of self-consistent calculation

 ------ SPIN UP ------------

[...]

 ------ SPIN DOWN ----------

[...]

          k = 0.4072 0.4072 0.5989 (  2080 PWs)   bands (ev):

[...]

          k =-0.4072 0.4072-0.5989 (  2080 PWs)   bands (ev):

   -11.3724 -11.2751 -10.9555 -10.8129 -10.4294 -10.4261 -10.3861 -10.3829
   -10.3746 -10.3699  -7.7031  -7.4807  -6.3362  -6.1835   1.7722   1.9146
     4.7933   4.7956   5.7406   6.7754   7.0625   7.9947   8.4634   8.5159
     8.6551   8.7149  14.5160  14.6482  18.3103  18.6983  19.9693  20.2934
    20.6208  20.9656  22.4093  22.6953  24.1821  24.5491  24.6323  26.6000
    27.5111  27.7677  28.5299  29.6140  30.1029  30.1034  31.8396  32.3925
    34.1081  34.2483  34.9311  35.8017  35.8481  36.4878  37.3914  38.0307
    38.1823  39.7537  40.1443  40.4423  42.0488  42.3936  42.8836  43.2940
    43.4208  43.8637  44.3197  44.9775  45.1547  46.0057  46.0692  46.5806
    47.3088  47.8403  48.4634

     the Fermi energy is     9.6095 ev

!    total energy              =    -455.50334060 Ry
     Harris-Foulkes estimate   =    -455.50333885 Ry
     estimated scf accuracy    <          2.5E-10 Ry

     The total energy is the sum of the following terms:

     one-electron contribution =    -129.52800143 Ry
     hartree contribution      =     106.09531314 Ry
     xc contribution           =    -124.72443003 Ry
     ewald contribution        =    -307.34623131 Ry
     smearing contrib. (-TS)   =       0.00000903 Ry

     total magnetization       =     0.00 Bohr mag/cell
     absolute magnetization    =     0.00 Bohr mag/cell

     convergence has been achieved in  10 iterations

     Forces acting on atoms (Ry/au):

     atom    1 type  1   force =     0.00000000    0.00000000    0.00000000
     atom    2 type  1   force =     0.00000000    0.00000000    0.00000000
     atom    3 type  2   force =     0.00005937    0.00005937   -0.00000000
     atom    4 type  2   force =    -0.00005937   -0.00005937   -0.00000000
     atom    5 type  2   force =     0.00005836   -0.00005836    0.00000000
     atom    6 type  2   force =    -0.00005836    0.00005836    0.00000000

     Total force =     0.000166     Total SCF correction =     0.000030
     SCF correction compared to forces is large: reduce conv_thr to get better values

     entering subroutine stress ...

          total   stress  (Ry/bohr**3)                   (kbar)     P=   91.54
   0.00062317   0.00000001   0.00000000         91.67      0.00      0.00
   0.00000001   0.00062317   0.00000000          0.00     91.67      0.00
   0.00000000   0.00000000   0.00062058          0.00      0.00     91.29

     General routines

     Parallel routines

   This run was terminated on:  14:58:20  24Jan2014

   JOB DONE.
Running PBS batch system epilogue script
Job id: 251975.audhumbla.fysik.dtu.dk
Username: zhonxu
Groupname: campgst
Jobname: SnO2/fine-EOS/non-mag/SnO2-v-0.95
Sessionid: 23997
Queuename: verylong
Accounting:
This job has allocated the following 4 nodes:
q021 q021 q021 q021
Finished epilogue job 251975.audhumbla.fysik.dtu.dk for zhonxu