     Program PWSCF v.5.0.2 (svn rev. 9656) starts on  6May2014 at 15:55:38

     Current dimensions of program PWSCF are:
     Max number of different atomic species (ntypx) = 10
     Max number of k-points (npk) =  40000
     Max angular momentum in pseudopotentials (lmaxx) =  3
     Reading input from pwscf.in
Warning: card &CELL ignored
Warning: card / ignored

     Subspace diagonalization in iterative solution of the eigenvalue problem:
     a serial algorithm will be used

     Found symmetry operation: I + ( -0.5000  0.0000  0.0000)
     This is a supercell, fractional translations are disabled

     bravais-lattice index     =            0
     lattice parameter (alat)  =      11.2250  a.u.
     unit-cell volume          =    7005.5484 (a.u.)^3
     number of atoms/cell      =           30
     number of atomic types    =            3
     number of electrons       =       208.00
     number of Kohn-Sham states=          300
     kinetic-energy cutoff     =      40.0000  Ry
     charge density cutoff     =     500.0000  Ry
     convergence threshold     =      1.0E-06
     mixing beta               =       0.7000
     number of iterations used =            8  plain     mixing
     Exchange-correlation      = SLA  PW   PBE  PBE ( 1 4 3 4 0)
     EXX-fraction              =        0.00
     nstep                     =           50

     celldm(1)=  11.224973  celldm(2)=   0.000000  celldm(3)=   0.000000
     celldm(4)=   0.000000  celldm(5)=   0.000000  celldm(6)=   0.000000

     crystal axes: (cart. coord. in units of alat)
               a(1) = (   1.000000   0.000000   0.000000 )
               a(2) = (   0.000000   1.107086   0.000000 )
               a(3) = (   0.000000   0.000000   4.474090 )

     reciprocal axes: (cart. coord. in units 2 pi/alat)
               b(1) = (  1.000000  0.000000  0.000000 )
               b(2) = (  0.000000  0.903272  0.000000 )
               b(3) = (  0.000000  0.000000  0.223509 )

     PseudoPot. # 1 for O  read from file:
     /home/camp/zhonxu/pseudo/o_pbe_v1.01.uspp.F.UPF
     MD5 check sum: 2bcb18d16ea4b960afae9ec6d52f22d2
     Pseudo is Ultrasoft + core correction, Zval =  6.0
     Generated by new atomic code, or converted to UPF format
     Using radial grid of  737 points,  5 beta functions with:
                l(1) =   0
                l(2) =   0
                l(3) =   1
                l(4) =   1
                l(5) =   2
     Q(r) pseudized with  8 coefficients,  rinner =    0.900   0.900   0.900
                                                       0.900   0.900

     PseudoPot. # 2 for Ti read from file:
     /home/camp/zhonxu/pseudo/ti_pbe_v1.uspp.F.UPF
     MD5 check sum: bcc8f6961b3b91f0cac3ca967d22d0fb
     Pseudo is Ultrasoft + core correction, Zval = 12.0
     Generated by new atomic code, or converted to UPF format
     Using radial grid of  851 points,  6 beta functions with:
                l(1) =   0
                l(2) =   0
                l(3) =   1
                l(4) =   1
                l(5) =   2
                l(6) =   2
     Q(r) pseudized with  6 coefficients,  rinner =    1.000   1.000   1.000
                                                       1.000   1.000

     PseudoPot. # 3 for H  read from file:
     /home/camp/zhonxu/pseudo/h_pbe_v1.uspp.F.UPF
     MD5 check sum: 3408e3ff4ec8b0a4e358431e7e038a48
     Pseudo is Ultrasoft, Zval =  1.0
     Generated by new atomic code, or converted to UPF format
     Using radial grid of  615 points,  2 beta functions with:
                l(1) =   0
                l(2) =   0
     Q(r) pseudized with  8 coefficients,  rinner =    0.700

     atomic species   valence    mass     pseudopotential
        O0             6.00    15.99940     O ( 1.00)
        Ti1           12.00    47.88000     Ti( 1.00)
        H2             1.00     1.00794     H ( 1.00)

     Simplified LDA+U calculation (l_max = 2) with parameters (eV):
     atomic species    L          U    alpha       J0     beta
        Ti1            2     8.0000   0.0000   0.0000   0.0000

     No symmetry found

   Cartesian axes

     site n.     atom                  positions (alat units)
         1           O0  tau(   1) = (   0.0000000   0.0000000   1.6989461  )
         2           O0  tau(   2) = (   0.0000000   0.5535432   1.7901728  )
         3           Ti1 tau(   3) = (   0.2500000   0.5535432   2.0162933  )
         4           Ti1 tau(   4) = (   0.0000000   0.0000000   2.0248388  )
         5           O0  tau(   5) = (   0.2500000   0.8967400   2.0178145  )
         6           O0  tau(   6) = (   0.2500000   0.2103464   2.0226912  )
         7           O0  tau(   7) = (   0.0000000   0.5535432   2.2326603  )
         8           O0  tau(   8) = (   0.0000000   0.0000000   2.3559662  )
         9           Ti1 tau(   9) = (   0.2500000   0.0000000   2.5995804  )
        10           Ti1 tau(  10) = (   0.0000000   0.5535432   2.5483968  )
        11           O0  tau(  11) = (   0.2500000   0.7638896   2.5964932  )
        12           O0  tau(  12) = (   0.2500000   0.3431968   2.5965380  )
        13           O0  tau(  13) = (   0.0000000   0.0000000   2.7842708  )
        14           O0  tau(  14) = (   0.5000000   0.0000000   1.6989461  )
        15           O0  tau(  15) = (   0.5000000   0.5535432   1.7901728  )
        16           Ti1 tau(  16) = (   0.7500000   0.5535432   2.0162933  )
        17           Ti1 tau(  17) = (   0.5000000   0.0000000   2.0248388  )
        18           O0  tau(  18) = (   0.7500000   0.8967400   2.0178145  )
        19           O0  tau(  19) = (   0.7500000   0.2103464   2.0226912  )
        20           O0  tau(  20) = (   0.5000000   0.5535432   2.2326603  )
        21           O0  tau(  21) = (   0.5000000   0.0000000   2.3559662  )
        22           Ti1 tau(  22) = (   0.7500000   0.0000000   2.5995804  )
        23           Ti1 tau(  23) = (   0.5000000   0.5535432   2.5483968  )
        24           O0  tau(  24) = (   0.7500000   0.7638896   2.5964932  )
        25           O0  tau(  25) = (   0.7500000   0.3431968   2.5965380  )
        26           O0  tau(  26) = (   0.5000000   0.0000000   2.7842708  )
        27           H2  tau(  27) = (  -0.0005400   0.6991915   1.7063283  )
        28           H2  tau(  28) = (   0.4994600   0.6991915   1.7063283  )
        29           H2  tau(  29) = (   0.1501800   0.0252084   1.6321479  )
        30           H2  tau(  30) = (   0.6501800   0.0252084   1.6321479  )

     number of k points=    10  Methfessel-Paxton smearing, width (Ry)=  0.0100
                       cart. coord. in units 2pi/alat
        k(    1) = (   0.0000000   0.0000000   0.0000000), wk =   0.1250000
        k(    2) = (   0.0000000   0.2258180   0.0000000), wk =   0.2500000
        k(    3) = (   0.0000000  -0.4516359   0.0000000), wk =   0.1250000
        k(    4) = (   0.2500000   0.0000000   0.0000000), wk =   0.2500000
        k(    5) = (   0.2500000   0.2258180   0.0000000), wk =   0.2500000
        k(    6) = (   0.2500000  -0.4516359   0.0000000), wk =   0.2500000
        k(    7) = (  -0.5000000   0.0000000   0.0000000), wk =   0.1250000
        k(    8) = (  -0.5000000   0.2258180   0.0000000), wk =   0.2500000
        k(    9) = (  -0.5000000  -0.4516359   0.0000000), wk =   0.1250000
        k(   10) = (  -0.2500000   0.2258180   0.0000000), wk =   0.2500000

     Largest allocated arrays     est. size (Mb)     dimensions
     Largest temporary arrays     est. size (Mb)     dimensions

     Check: negative/imaginary core charge=   -0.000005    0.000000

     Initial potential from superposition of free atoms
     Check: negative starting charge=   -0.102816

     starting charge  199.99958, renormalised to  208.00000

     negative rho (up, down):  0.107E+00 0.000E+00
     Number of +U iterations with fixed ns =  0
     Starting occupations:
 --- enter write_ns ---
 LDA+U parameters:
U( 2)     =  8.00000000
alpha( 2) =  0.00000000
atom    3   Tr[ns(na)] =   2.00000
    eigenvalues:
  0.200  0.200  0.200  0.200  0.200
    eigenvectors:
  1.000  0.000  0.000  0.000  0.000
  0.000  1.000  0.000  0.000  0.000
  0.000  0.000  1.000  0.000  0.000
  0.000  0.000  0.000  1.000  0.000
  0.000  0.000  0.000  0.000  1.000
    occupations:
  0.200  0.000  0.000  0.000  0.000
  0.000  0.200  0.000  0.000  0.000
  0.000  0.000  0.200  0.000  0.000
  0.000  0.000  0.000  0.200  0.000
  0.000  0.000  0.000  0.000  0.200
atom    4   Tr[ns(na)] =   2.00000
    eigenvalues:
  0.200  0.200  0.200  0.200  0.200
    eigenvectors:
  1.000  0.000  0.000  0.000  0.000
  0.000  1.000  0.000  0.000  0.000
  0.000  0.000  1.000  0.000  0.000
  0.000  0.000  0.000  1.000  0.000
  0.000  0.000  0.000  0.000  1.000
    occupations:
  0.200  0.000  0.000  0.000  0.000
  0.000  0.200  0.000  0.000  0.000
  0.000  0.000  0.200  0.000  0.000
  0.000  0.000  0.000  0.200  0.000
  0.000  0.000  0.000  0.000  0.200
atom    9   Tr[ns(na)] =   2.00000
    eigenvalues:
  0.200  0.200  0.200  0.200  0.200
    eigenvectors:
  1.000  0.000  0.000  0.000  0.000
  0.000  1.000  0.000  0.000  0.000
  0.000  0.000  1.000  0.000  0.000
  0.000  0.000  0.000  1.000  0.000
  0.000  0.000  0.000  0.000  1.000
    occupations:
  0.200  0.000  0.000  0.000  0.000
  0.000  0.200  0.000  0.000  0.000
  0.000  0.000  0.200  0.000  0.000
  0.000  0.000  0.000  0.200  0.000
  0.000  0.000  0.000  0.000  0.200
atom   10   Tr[ns(na)] =   2.00000
    eigenvalues:
  0.200  0.200  0.200  0.200  0.200
    eigenvectors:
  1.000  0.000  0.000  0.000  0.000
  0.000  1.000  0.000  0.000  0.000
  0.000  0.000  1.000  0.000  0.000
  0.000  0.000  0.000  1.000  0.000
  0.000  0.000  0.000  0.000  1.000
    occupations:
  0.200  0.000  0.000  0.000  0.000
  0.000  0.200  0.000  0.000  0.000
  0.000  0.000  0.200  0.000  0.000
  0.000  0.000  0.000  0.200  0.000
  0.000  0.000  0.000  0.000  0.200
atom   16   Tr[ns(na)] =   2.00000
    eigenvalues:
  0.200  0.200  0.200  0.200  0.200
    eigenvectors:
  1.000  0.000  0.000  0.000  0.000
  0.000  1.000  0.000  0.000  0.000
  0.000  0.000  1.000  0.000  0.000
  0.000  0.000  0.000  1.000  0.000
  0.000  0.000  0.000  0.000  1.000
    occupations:
  0.200  0.000  0.000  0.000  0.000
  0.000  0.200  0.000  0.000  0.000
  0.000  0.000  0.200  0.000  0.000
  0.000  0.000  0.000  0.200  0.000
  0.000  0.000  0.000  0.000  0.200
atom   17   Tr[ns(na)] =   2.00000
    eigenvalues:
  0.200  0.200  0.200  0.200  0.200
    eigenvectors:
  1.000  0.000  0.000  0.000  0.000
  0.000  1.000  0.000  0.000  0.000
  0.000  0.000  1.000  0.000  0.000
  0.000  0.000  0.000  1.000  0.000
  0.000  0.000  0.000  0.000  1.000
    occupations:
  0.200  0.000  0.000  0.000  0.000
  0.000  0.200  0.000  0.000  0.000
  0.000  0.000  0.200  0.000  0.000
  0.000  0.000  0.000  0.200  0.000
  0.000  0.000  0.000  0.000  0.200
atom   22   Tr[ns(na)] =   2.00000
    eigenvalues:
  0.200  0.200  0.200  0.200  0.200
    eigenvectors:
  1.000  0.000  0.000  0.000  0.000
  0.000  1.000  0.000  0.000  0.000
  0.000  0.000  1.000  0.000  0.000
  0.000  0.000  0.000  1.000  0.000
  0.000  0.000  0.000  0.000  1.000
    occupations:
[...]
  0.137 -0.000  0.008  0.376 -0.000
 -0.000  0.014  0.000 -0.000  0.120
atom    4   Tr[ns(na)] =   2.60517
    eigenvalues:
  0.111  0.135  0.151  0.437  0.468
    eigenvectors:
  0.007  0.003  0.000  0.000  0.990
  0.003  0.892  0.102  0.000  0.003
  0.001  0.101  0.898  0.000  0.000
  0.989  0.005  0.000  0.000  0.007
  0.000  0.000  0.000  1.000  0.000
    occupations:
  0.465  0.018  0.004 -0.029 -0.000
  0.018  0.138 -0.004 -0.000 -0.003
  0.004 -0.004  0.149  0.001 -0.000
 -0.029 -0.000  0.001  0.114 -0.000
 -0.000 -0.003 -0.000 -0.000  0.437
atom    9   Tr[ns(na)] =   2.60656
    eigenvalues:
  0.117  0.156  0.163  0.380  0.487
    eigenvectors:
  0.000  0.000  0.900  0.100  0.000
  0.000  0.000  0.000  0.000  1.000
  1.000  0.000  0.000  0.000  0.000
  0.000  0.000  0.100  0.900  0.000
  0.000  1.000  0.000  0.000  0.000
    occupations:
  0.185  0.000  0.000  0.065 -0.000
  0.000  0.487 -0.000  0.000 -0.000
  0.000 -0.000  0.117  0.000 -0.000
  0.065  0.000  0.000  0.358 -0.000
 -0.000 -0.000 -0.000 -0.000  0.156
atom   10   Tr[ns(na)] =   2.49983
    eigenvalues:
  0.121  0.147  0.168  0.313  0.500
    eigenvectors:
  0.028  0.000  0.000  0.972  0.000
  0.000  0.000  1.000  0.000  0.000
  0.000  1.000  0.000  0.000  0.000
  0.972  0.000  0.000  0.028  0.000
  0.000  0.000  0.000  0.000  1.000
    occupations:
  0.308 -0.000 -0.000 -0.032 -0.000
 -0.000  0.168 -0.000 -0.000  0.000
 -0.000 -0.000  0.147 -0.000  0.000
 -0.032 -0.000 -0.000  0.126 -0.000
 -0.000  0.000  0.000 -0.000  0.500
atom   16   Tr[ns(na)] =   2.47671
    eigenvalues:
  0.103  0.119  0.136  0.435  0.445
    eigenvectors:
  0.762  0.000  0.036  0.000  0.202
  0.000  0.002  0.000  0.998  0.000
  0.041  0.000  0.958  0.000  0.000
  0.196  0.000  0.006  0.000  0.798
  0.000  0.998  0.000  0.002  0.000
    occupations:
  0.173 -0.000 -0.003  0.137 -0.000
 -0.000  0.434  0.000 -0.000  0.014
 -0.003  0.000  0.135  0.008  0.000
  0.137 -0.000  0.008  0.376 -0.000
 -0.000  0.014  0.000 -0.000  0.120
atom   17   Tr[ns(na)] =   2.60517
    eigenvalues:
  0.111  0.135  0.151  0.437  0.468
    eigenvectors:
  0.007  0.003  0.000  0.000  0.990
  0.003  0.892  0.102  0.000  0.003
  0.001  0.101  0.898  0.000  0.000
  0.989  0.005  0.000  0.000  0.007
  0.000  0.000  0.000  1.000  0.000
    occupations:
  0.465  0.018  0.004 -0.029 -0.000
  0.018  0.138 -0.004 -0.000 -0.003
  0.004 -0.004  0.149  0.001 -0.000
 -0.029 -0.000  0.001  0.114 -0.000
 -0.000 -0.003 -0.000 -0.000  0.437
atom   22   Tr[ns(na)] =   2.60656
    eigenvalues:
  0.117  0.156  0.163  0.380  0.487
    eigenvectors:
  0.000  0.000  0.900  0.100  0.000
  0.000  0.000  0.000  0.000  1.000
  1.000  0.000  0.000  0.000  0.000
  0.000  0.000  0.100  0.900  0.000
  0.000  1.000  0.000  0.000  0.000
    occupations:
  0.185  0.000  0.000  0.065 -0.000
  0.000  0.487 -0.000  0.000 -0.000
  0.000 -0.000  0.117  0.000 -0.000
  0.065  0.000  0.000  0.358 -0.000
 -0.000 -0.000 -0.000 -0.000  0.156
atom   23   Tr[ns(na)] =   2.49983
    eigenvalues:
  0.121  0.147  0.168  0.313  0.500
    eigenvectors:
  0.028  0.000  0.000  0.972  0.000
  0.000  0.000  1.000  0.000  0.000
  0.000  1.000  0.000  0.000  0.000
  0.972  0.000  0.000  0.028  0.000
  0.000  0.000  0.000  0.000  1.000
    occupations:
  0.308 -0.000 -0.000 -0.032 -0.000
 -0.000  0.168 -0.000 -0.000  0.000
 -0.000 -0.000  0.147 -0.000  0.000
 -0.032 -0.000 -0.000  0.126 -0.000
 -0.000  0.000  0.000 -0.000  0.500
N of occupied +U levels =  20.3765232
 --- exit write_ns ---

     Threshold (ethr) on eigenvalues was too large:
     Diagonalizing with lowered threshold

     Davidson diagonalization with overlap
     ethr =  6.87E-09,  avg # of iterations =  2.0

[...]

     total energy              =   -1530.63559489 Ry
     Harris-Foulkes estimate   =   -1530.63559489 Ry
     estimated scf accuracy    <       0.00000002 Ry

     iteration #  8     ecut=    40.00 Ry     beta=0.70
     Davidson diagonalization with overlap
     ethr =  7.35E-12,  avg # of iterations =  1.0

     negative rho (up, down):  0.109E+00 0.000E+00

     End of self-consistent calculation
 --- enter write_ns ---
 LDA+U parameters:
U( 2)     =  8.00000000
alpha( 2) =  0.00000000
atom    3   Tr[ns(na)] =   2.47761
    eigenvalues:
  0.103  0.119  0.136  0.435  0.446
    eigenvectors:
  0.762  0.000  0.036  0.000  0.202
  0.000  0.002  0.000  0.998  0.000
  0.041  0.000  0.959  0.000  0.000
  0.197  0.000  0.006  0.000  0.798
  0.000  0.998  0.000  0.002  0.000
    occupations:
  0.174 -0.000 -0.003  0.137 -0.000
 -0.000  0.434  0.000 -0.000  0.014
 -0.003  0.000  0.135  0.008  0.000
  0.137 -0.000  0.008  0.377 -0.000
 -0.000  0.014  0.000 -0.000  0.120
atom    4   Tr[ns(na)] =   2.60499
    eigenvalues:
  0.111  0.135  0.151  0.437  0.468
    eigenvectors:
  0.007  0.003  0.000  0.000  0.990
  0.003  0.892  0.102  0.000  0.003
  0.001  0.101  0.898  0.000  0.000
  0.989  0.005  0.000  0.000  0.007
  0.000  0.000  0.000  1.000  0.000
    occupations:
  0.465  0.018  0.004 -0.029 -0.000
  0.018  0.138 -0.004 -0.000 -0.003
  0.004 -0.004  0.149  0.001 -0.000
 -0.029 -0.000  0.001  0.114 -0.000
 -0.000 -0.003 -0.000 -0.000  0.437
atom    9   Tr[ns(na)] =   2.60659
    eigenvalues:
  0.117  0.156  0.163  0.380  0.487
    eigenvectors:
  0.000  0.000  0.900  0.100  0.000
  0.000  0.000  0.000  0.000  1.000
  1.000  0.000  0.000  0.000  0.000
  0.000  0.000  0.100  0.900  0.000
  0.000  1.000  0.000  0.000  0.000
    occupations:
  0.185  0.000  0.000  0.065 -0.000
  0.000  0.487 -0.000  0.000 -0.000
  0.000 -0.000  0.117  0.000 -0.000
  0.065  0.000  0.000  0.358 -0.000
 -0.000 -0.000 -0.000 -0.000  0.156
atom   10   Tr[ns(na)] =   2.49935
    eigenvalues:
  0.121  0.147  0.168  0.313  0.500
    eigenvectors:
  0.028  0.000  0.000  0.972  0.000
  0.000  0.000  1.000  0.000  0.000
  0.000  1.000  0.000  0.000  0.000
  0.972  0.000  0.000  0.028  0.000
  0.000  0.000  0.000  0.000  1.000
    occupations:
  0.307 -0.000 -0.000 -0.032 -0.000
 -0.000  0.168 -0.000 -0.000  0.000
 -0.000 -0.000  0.147 -0.000  0.000
 -0.032 -0.000 -0.000  0.126 -0.000
 -0.000  0.000  0.000 -0.000  0.500
atom   16   Tr[ns(na)] =   2.47761
    eigenvalues:
  0.103  0.119  0.136  0.435  0.446
    eigenvectors:
  0.762  0.000  0.036  0.000  0.202
  0.000  0.002  0.000  0.998  0.000
  0.041  0.000  0.959  0.000  0.000
  0.197  0.000  0.006  0.000  0.798
  0.000  0.998  0.000  0.002  0.000
    occupations:
  0.174 -0.000 -0.003  0.137 -0.000
 -0.000  0.434  0.000 -0.000  0.014
 -0.003  0.000  0.135  0.008  0.000
  0.137 -0.000  0.008  0.377 -0.000
 -0.000  0.014  0.000 -0.000  0.120
atom   17   Tr[ns(na)] =   2.60499
    eigenvalues:
  0.111  0.135  0.151  0.437  0.468
    eigenvectors:
  0.007  0.003  0.000  0.000  0.990
  0.003  0.892  0.102  0.000  0.003
  0.001  0.101  0.898  0.000  0.000
  0.989  0.005  0.000  0.000  0.007
  0.000  0.000  0.000  1.000  0.000
    occupations:
  0.465  0.018  0.004 -0.029 -0.000
  0.018  0.138 -0.004 -0.000 -0.003
  0.004 -0.004  0.149  0.001 -0.000
 -0.029 -0.000  0.001  0.114 -0.000
 -0.000 -0.003 -0.000 -0.000  0.437
atom   22   Tr[ns(na)] =   2.60659
    eigenvalues:
  0.117  0.156  0.163  0.380  0.487
    eigenvectors:
  0.000  0.000  0.900  0.100  0.000
  0.000  0.000  0.000  0.000  1.000
  1.000  0.000  0.000  0.000  0.000
  0.000  0.000  0.100  0.900  0.000
  0.000  1.000  0.000  0.000  0.000
    occupations:
  0.185  0.000  0.000  0.065 -0.000
  0.000  0.487 -0.000  0.000 -0.000
  0.000 -0.000  0.117  0.000 -0.000
  0.065  0.000  0.000  0.358 -0.000
 -0.000 -0.000 -0.000 -0.000  0.156
atom   23   Tr[ns(na)] =   2.49935
    eigenvalues:
  0.121  0.147  0.168  0.313  0.500
    eigenvectors:
  0.028  0.000  0.000  0.972  0.000
  0.000  0.000  1.000  0.000  0.000
  0.000  1.000  0.000  0.000  0.000
  0.972  0.000  0.000  0.028  0.000
  0.000  0.000  0.000  0.000  1.000
    occupations:
  0.307 -0.000 -0.000 -0.032 -0.000
 -0.000  0.168 -0.000 -0.000  0.000
 -0.000 -0.000  0.147 -0.000  0.000
 -0.032 -0.000 -0.000  0.126 -0.000
 -0.000  0.000  0.000 -0.000  0.500
N of occupied +U levels =  20.3770723
 --- exit write_ns ---

[...]

          k = 0.2500-0.4516 0.0000 ( 29882 PWs)   bands (ev):

[...]

          k =-0.2500 0.2258 0.0000 ( 29912 PWs)   bands (ev):

   -62.5640 -62.5404 -62.3108 -62.2858 -60.8673 -60.8404 -60.3090 -60.2837
   -38.9422 -38.7444 -38.6918 -38.6815 -38.6337 -38.6197 -38.5806 -38.5606
   -38.5268 -38.3943 -38.3362 -38.2567 -37.3373 -37.1608 -37.0944 -37.0430
   -36.8571 -36.8360 -36.6577 -36.6374 -36.5307 -36.4474 -36.3876 -36.2496
   -22.2920 -22.0725 -20.9720 -20.7214 -20.4691 -20.3482 -20.1567 -19.9367
   -19.8422 -19.8154 -19.6268 -19.4992 -19.4337 -19.1948 -18.5879 -18.3281
   -17.8465 -17.8185  -9.8426  -9.6271  -8.0869  -7.9212  -7.9153  -7.8182
    -7.7755  -7.6708  -7.5347  -7.4407  -7.4258  -7.3939  -7.0960  -7.0645
    -7.0236  -6.8733  -6.7583  -6.6962  -6.5496  -6.3751  -6.0838  -5.9886
    -5.9484  -5.8149  -5.8028  -5.6525  -5.6403  -5.5246  -5.3980  -5.3383
    -5.3374  -5.2092  -5.1917  -5.1594  -5.0186  -4.9204  -4.8368  -4.7126
    -4.6561  -4.4970  -4.3672  -4.3054  -3.9310  -3.6085  -3.4591  -3.2768
    -3.2388  -3.1869  -3.0512  -2.8322  -2.8194  -2.7403  -2.7233  -2.5852
    -0.5601  -0.4738  -0.1990  -0.1860  -0.0534  -0.0232   0.0430   0.1089
     0.2478   0.3609   0.3888   0.4542   0.5752   0.6475   0.7527   0.7707
     0.9663   0.9680   1.0456   1.1340   1.5783   1.6204   1.7115   1.7503
     1.9993   2.0460   2.1694   2.1963   2.2377   2.3449   2.4659   2.5733
     2.6070   2.6702   2.7208   2.7940   3.1591   3.1628   3.3138   3.4762
     3.4766   3.8611   4.2422   4.6361   4.9751   5.0133   5.2887   5.6560
     5.7195   5.8479   6.0355   6.1543   6.2574   6.5633   6.5731   6.8378
     6.9321   7.0678   7.2283   7.3962   7.4054   7.6026   7.6070   7.8025
     7.9143   8.0226   8.0741   8.2490   8.4328   8.4688   8.5125   8.6285
     8.7887   8.9952   9.1647   9.2172   9.3368   9.3572   9.4216   9.4788
     9.5205   9.5858   9.7802   9.9610   9.9632  10.0545  10.2641  10.2819
    10.4570  10.5442  10.5742  10.6747  10.7001  10.8696  10.8806  10.9424
    10.9944  11.1571  11.2529  11.2729  11.3098  11.4377  11.4565  11.4760
    11.6150  11.7339  11.8347  11.8997  11.9590  11.9607  12.0802  12.1914
    12.2653  12.3534  12.4506  12.5351  12.5398  12.6281  12.7262  12.7827
    12.8790  12.9335  12.9738  13.1210  13.1427  13.2197  13.2484  13.3887
    13.3999  13.4353  13.5501  13.5670  13.6371  13.7176  13.7836  13.9322
    13.9739  14.1280  14.1310  14.2011  14.2640  14.4267  14.4573  14.4818
    14.5965  14.6266  14.6628  14.8597  14.8766  14.9868  15.0606  15.1221
    15.3095  15.3210  15.4273  15.5120  15.5921  15.6083  15.6709  15.7071
    15.8255  15.8500  15.9177  15.9764  15.9868  16.1225  16.2555  16.2749
    16.4133  16.4639  16.5367  16.6290  16.6887  16.7964  16.8458  16.8597
    16.9003  17.0452  17.0773  17.1283  17.1405  17.2338  17.2920  17.3123
    17.4172  17.4989  17.5345  17.6528  17.6800  17.7592  17.7761  17.8962
    18.0354  18.0671  18.1726  18.1915

     the Fermi energy is    -1.4965 ev

!    total energy              =   -1530.63559489 Ry
     Harris-Foulkes estimate   =   -1530.63559489 Ry
     estimated scf accuracy    <          1.1E-09 Ry

     The total energy is the sum of the following terms:

     one-electron contribution =  -18112.43729351 Ry
     hartree contribution      =    9066.12292243 Ry
     xc contribution           =    -269.55889440 Ry
     ewald contribution        =    7781.30911993 Ry
     Hubbard energy            =       3.92855066 Ry
     smearing contrib. (-TS)   =       0.00000000 Ry

     convergence has been achieved in   8 iterations

     Forces acting on atoms (Ry/au):

     negative rho (up, down):  0.109E+00 0.000E+00
     atom    1 type  1   force =    -0.00508897   -0.01824888   -0.00044208
     atom    2 type  1   force =     0.00003948    0.02206090    0.00024737
     atom    3 type  2   force =     0.00006164   -0.00868720    0.00035368
     atom    4 type  2   force =     0.00385396    0.01077541    0.00012949
     atom    5 type  1   force =     0.00201811   -0.10690839    0.00051129
     atom    6 type  1   force =    -0.00100249    0.10299729    0.00047498
     atom    7 type  1   force =    -0.00002990    0.00040585    0.00055334
     atom    8 type  1   force =    -0.00010210   -0.00175009   -0.00068394
     atom    9 type  2   force =     0.00010783    0.00015034    0.00027948
     atom   10 type  2   force =    -0.00001291   -0.00066653   -0.00078999
     atom   11 type  1   force =     0.00000549   -0.04016872    0.00020714
     atom   12 type  1   force =     0.00000778    0.04042262    0.00019331
     atom   13 type  1   force =    -0.00004935   -0.00009160   -0.00000617
     atom   14 type  1   force =    -0.00508900   -0.01824889   -0.00044207
     atom   15 type  1   force =     0.00003948    0.02206089    0.00024737
     atom   16 type  2   force =     0.00006164   -0.00868720    0.00035368
     atom   17 type  2   force =     0.00385397    0.01077541    0.00012948
     atom   18 type  1   force =     0.00201811   -0.10690839    0.00051129
     atom   19 type  1   force =    -0.00100249    0.10299729    0.00047498
     atom   20 type  1   force =    -0.00002990    0.00040585    0.00055333
     atom   21 type  1   force =    -0.00010210   -0.00175009   -0.00068394
     atom   22 type  2   force =     0.00010784    0.00015034    0.00027948
     atom   23 type  2   force =    -0.00001291   -0.00066653   -0.00078999
     atom   24 type  1   force =     0.00000549   -0.04016872    0.00020714
     atom   25 type  1   force =     0.00000778    0.04042261    0.00019331
     atom   26 type  1   force =    -0.00004935   -0.00009160   -0.00000616
     atom   27 type  3   force =    -0.00000184   -0.00048863   -0.00084456
     atom   28 type  3   force =    -0.00000184   -0.00048863   -0.00084455
     atom   29 type  3   force =     0.00019328    0.00019763   -0.00018334
     atom   30 type  3   force =     0.00019329    0.00019764   -0.00018334

     Total force =     0.002647     Total SCF correction =     0.000086

     bfgs converged in  13 scf cycles and  12 bfgs steps
     (criteria: energy < 0.10E-03, force < 0.10E-02)

     End of BFGS Geometry Optimization

     Final energy   =   -1530.6355948916 Ry
Begin final coordinates

ATOMIC_POSITIONS (crystal)
O0       0.000000000   0.000000000   0.376958988    0   0   1
O0       0.000000000   0.500000000   0.397274228    0   0   1
Ti1      0.250000000   0.500000000   0.449471736    0   0   1
Ti1      0.000000000   0.000000000   0.451274827    0   0   1
O0       0.250000000   0.810000000   0.449930116    0   0   1
O0       0.250000000   0.190000000   0.451065758    0   0   1
O0       0.000000000   0.500000000   0.498673711    0   0   1
O0       0.000000000   0.000000000   0.528221107    0   0   1
Ti1      0.250000000   0.000000000   0.582007313    0   0   1
Ti1      0.000000000   0.500000000   0.572479350    0   0   1
O0       0.250000000   0.690000000   0.582487952    0   0   1
O0       0.250000000   0.310000000   0.582555485    0   0   1
O0       0.000000000   0.000000000   0.625912799    0   0   1
O0       0.500000000   0.000000000   0.376958987    0   0   1
O0       0.500000000   0.500000000   0.397274228    0   0   1
Ti1      0.750000000   0.500000000   0.449471736    0   0   1
Ti1      0.500000000   0.000000000   0.451274826    0   0   1
O0       0.750000000   0.810000000   0.449930115    0   0   1
O0       0.750000000   0.190000000   0.451065758    0   0   1
O0       0.500000000   0.500000000   0.498673711    0   0   1
O0       0.500000000   0.000000000   0.528221106    0   0   1
Ti1      0.750000000   0.000000000   0.582007313    0   0   1
Ti1      0.500000000   0.500000000   0.572479349    0   0   1
O0       0.750000000   0.690000000   0.582487952    0   0   1
O0       0.750000000   0.310000000   0.582555485    0   0   1
O0       0.500000000   0.000000000   0.625912798    0   0   1
H2      -0.000147897   0.633700927   0.379423116
H2       0.499852101   0.633700918   0.379423112
H2       0.153283044   0.023976283   0.363833520
H2       0.653283040   0.023976271   0.363833516
End final coordinates

     General routines

     Parallel routines
     Hubbard U routines

   This run was terminated on:  22:50:53   6May2014

   JOB DONE.
Running PBS batch system epilogue script
Job id: 340824.audhumbla.fysik.dtu.dk
Username: zhonxu
Groupname: campgst
Jobname: TiO2/Eads-2-layers/bare-U-8.0
Sessionid: 4683
Queuename: verylong
Accounting:
This job has allocated the following 16 nodes:
d040 d040 d040 d040 d040 d040 d040 d040 d020 d020 d020 d020 d020 d020 d020 d020
Finished epilogue job 340824.audhumbla.fysik.dtu.dk for zhonxu