     Program PWSCF v.5.0.2 (svn rev. 9656) starts on  1Apr2014 at  7:31:24

     Current dimensions of program PWSCF are:
     Max number of different atomic species (ntypx) = 10
     Max number of k-points (npk) =  40000
     Max angular momentum in pseudopotentials (lmaxx) =  3
     Reading input from pwscf.in
Warning: card &CELL ignored
Warning: card / ignored

     Subspace diagonalization in iterative solution of the eigenvalue problem:
     a serial algorithm will be used

     bravais-lattice index     =            0
     lattice parameter (alat)  =      10.3179  a.u.
     unit-cell volume          =    6964.3238 (a.u.)^3
     number of atoms/cell      =           31
     number of atomic types    =            3
     number of electrons       =       230.00
     number of Kohn-Sham states=          345
     kinetic-energy cutoff     =      40.0000  Ry
     charge density cutoff     =     500.0000  Ry
     convergence threshold     =      1.0E-06
     mixing beta               =       0.7000
     number of iterations used =            8  plain     mixing
     Exchange-correlation      = SLA  PW   PBE  PBE ( 1 4 3 4 0)
     EXX-fraction              =        0.00
     nstep                     =           50

     celldm(1)=  10.317905  celldm(2)=   0.000000  celldm(3)=   0.000000
     celldm(4)=   0.000000  celldm(5)=   0.000000  celldm(6)=   0.000000

     crystal axes: (cart. coord. in units of alat)
               a(1) = (   1.000000   0.000000   0.000000 )
               a(2) = (   0.000000   1.282117   0.000000 )
               a(3) = (   0.000000   0.000000   4.945120 )

     reciprocal axes: (cart. coord. in units 2 pi/alat)
               b(1) = (  1.000000  0.000000  0.000000 )
               b(2) = (  0.000000  0.779960  0.000000 )
               b(3) = (  0.000000  0.000000  0.202220 )

     PseudoPot. # 1 for O  read from file:
     /home/camp/zhonxu/pseudo/o_pbe_v1.01.uspp.F.UPF
     MD5 check sum: 2bcb18d16ea4b960afae9ec6d52f22d2
     Pseudo is Ultrasoft + core correction, Zval =  6.0
     Generated by new atomic code, or converted to UPF format
     Using radial grid of  737 points,  5 beta functions with:
                l(1) =   0
                l(2) =   0
                l(3) =   1
                l(4) =   1
                l(5) =   2
     Q(r) pseudized with  8 coefficients,  rinner =    0.900   0.900   0.900
                                                       0.900   0.900

     PseudoPot. # 2 for Mo read from file:
     /home/camp/zhonxu/pseudo/mo_pbe_v1.uspp.F.UPF
     MD5 check sum: 30c4dcd161f5d35cd49bb5239c51a633
     Pseudo is Ultrasoft + core correction, Zval = 14.0
     Generated by new atomic code, or converted to UPF format
     Using radial grid of  889 points,  6 beta functions with:
                l(1) =   0
                l(2) =   0
                l(3) =   1
                l(4) =   1
                l(5) =   2
                l(6) =   2
     Q(r) pseudized with  6 coefficients,  rinner =    1.000   1.000   1.000
                                                       1.000   1.000

     PseudoPot. # 3 for H  read from file:
     /home/camp/zhonxu/pseudo/h_pbe_v1.uspp.F.UPF
     MD5 check sum: 3408e3ff4ec8b0a4e358431e7e038a48
     Pseudo is Ultrasoft, Zval =  1.0
     Generated by new atomic code, or converted to UPF format
     Using radial grid of  615 points,  2 beta functions with:
                l(1) =   0
                l(2) =   0
     Q(r) pseudized with  8 coefficients,  rinner =    0.700

     atomic species   valence    mass     pseudopotential
        O0             6.00    15.99940     O ( 1.00)
        Mo1           14.00    95.94000     Mo( 1.00)
        H2             1.00     1.00794     H ( 1.00)

     Starting magnetic structure
     atomic species   magnetization
        O0           0.000
        Mo1          0.000
        H2           0.000

     No symmetry found

   Cartesian axes

     site n.     atom                  positions (alat units)
         1           O0  tau(   1) = (   0.0000000   0.0000000   1.8465574  )
         2           O0  tau(   2) = (   0.0000000   0.6410583   1.8808271  )
         3           Mo1 tau(   3) = (   0.2500000   0.6410583   2.1650231  )
         4           Mo1 tau(   4) = (   0.0000000   0.0000000   2.2064633  )
         5           O0  tau(   5) = (   0.2500000   1.0000510   2.1927158  )
         6           O0  tau(   6) = (   0.2500000   0.2820657   2.1921224  )
         7           O0  tau(   7) = (   0.0000000   0.6410583   2.4520379  )
         8           O0  tau(   8) = (   0.0000000   0.0000000   2.5658746  )
         9           Mo1 tau(   9) = (   0.2500000   0.0000000   2.8596642  )
        10           Mo1 tau(  10) = (   0.0000000   0.6410583   2.7884050  )
        11           O0  tau(  11) = (   0.2500000   0.9231240   2.8369661  )
        12           O0  tau(  12) = (   0.2500000   0.3589927   2.8372628  )
        13           O0  tau(  13) = (   0.0000000   0.0000000   3.1104807  )
        14           O0  tau(  14) = (   0.5000000   0.0000000   1.8465574  )
        15           O0  tau(  15) = (   0.5000000   0.6410583   1.8808271  )
        16           Mo1 tau(  16) = (   0.7500000   0.6410583   2.1650231  )
        17           Mo1 tau(  17) = (   0.5000000   0.0000000   2.2064633  )
        18           O0  tau(  18) = (   0.7500000   1.0000510   2.1927158  )
        19           O0  tau(  19) = (   0.7500000   0.2820657   2.1921224  )
        20           O0  tau(  20) = (   0.5000000   0.6410583   2.4520379  )
        21           O0  tau(  21) = (   0.5000000   0.0000000   2.5658746  )
        22           Mo1 tau(  22) = (   0.7500000   0.0000000   2.8596642  )
        23           Mo1 tau(  23) = (   0.5000000   0.6410583   2.7884050  )
        24           O0  tau(  24) = (   0.7500000   0.9231240   2.8369661  )
        25           O0  tau(  25) = (   0.7500000   0.3589927   2.8372628  )
        26           O0  tau(  26) = (   0.5000000   0.0000000   3.1104807  )
        27           H2  tau(  27) = (  -0.0004900   0.7868222   1.7746059  )
        28           H2  tau(  28) = (   0.4995100   0.7868222   1.7746059  )
        29           H2  tau(  29) = (   0.1657500   0.0265270   1.7749026  )
        30           H2  tau(  30) = (   0.6657500   0.0265270   1.7749026  )
        31           O0  tau(  31) = (   0.5000000   0.6412122   3.1080081  )

     number of k points=    20  Methfessel-Paxton smearing, width (Ry)=  0.0100
                       cart. coord. in units 2pi/alat
        k(    1) = (   0.0000000   0.0000000   0.0000000), wk =   0.0625000
        k(    2) = (   0.0000000   0.1949901   0.0000000), wk =   0.1250000
        k(    3) = (   0.0000000  -0.3899801   0.0000000), wk =   0.0625000
        k(    4) = (   0.2500000   0.0000000   0.0000000), wk =   0.1250000
        k(    5) = (   0.2500000   0.1949901   0.0000000), wk =   0.1250000
        k(    6) = (   0.2500000  -0.3899801   0.0000000), wk =   0.1250000
        k(    7) = (  -0.5000000   0.0000000   0.0000000), wk =   0.0625000
        k(    8) = (  -0.5000000   0.1949901   0.0000000), wk =   0.1250000
        k(    9) = (  -0.5000000  -0.3899801   0.0000000), wk =   0.0625000
        k(   10) = (  -0.2500000   0.1949901   0.0000000), wk =   0.1250000
        k(   11) = (   0.0000000   0.0000000   0.0000000), wk =   0.0625000
        k(   12) = (   0.0000000   0.1949901   0.0000000), wk =   0.1250000
        k(   13) = (   0.0000000  -0.3899801   0.0000000), wk =   0.0625000
        k(   14) = (   0.2500000   0.0000000   0.0000000), wk =   0.1250000
        k(   15) = (   0.2500000   0.1949901   0.0000000), wk =   0.1250000
        k(   16) = (   0.2500000  -0.3899801   0.0000000), wk =   0.1250000
        k(   17) = (  -0.5000000   0.0000000   0.0000000), wk =   0.0625000
        k(   18) = (  -0.5000000   0.1949901   0.0000000), wk =   0.1250000
        k(   19) = (  -0.5000000  -0.3899801   0.0000000), wk =   0.0625000
        k(   20) = (  -0.2500000   0.1949901   0.0000000), wk =   0.1250000

     Largest allocated arrays     est. size (Mb)     dimensions
     Largest temporary arrays     est. size (Mb)     dimensions

     Check: negative/imaginary core charge=   -0.000003    0.000000

     Initial potential from superposition of free atoms
     Check: negative starting charge=(component1):   -0.001230
     Check: negative starting charge=(component2):   -0.001230

     starting charge  229.99143, renormalised to  230.00000

     negative rho (up, down):  0.123E-02 0.123E-02
     Starting wfc are  184 randomized atomic wfcs

     Self-consistent Calculation

     iteration #  1     ecut=    40.00 Ry     beta=0.70
     Davidson diagonalization with overlap
     ethr =  1.00E-02,  avg # of iterations =  6.3

     negative rho (up, down):  0.173E-02 0.172E-02

     total energy              =   -1727.31345051 Ry
     Harris-Foulkes estimate   =   -1734.41646555 Ry
     estimated scf accuracy    <       9.14667552 Ry

     total magnetization       =     0.00 Bohr mag/cell
     absolute magnetization    =     0.01 Bohr mag/cell

[...]

     End of self-consistent calculation

 ------ SPIN UP ------------

          k = 0.0000 0.0000 0.0000 ( 29769 PWs)   bands (ev):

   -62.9845 -62.8635 -62.8634 -62.7773 -62.7562 -62.7266 -62.6403 -62.5662
   -37.6818 -37.3372 -37.2893 -37.2673 -37.2549 -37.2247 -37.1704 -37.1173
   -37.1060 -37.0924 -36.9700 -36.9469 -36.9254 -36.9145 -36.9082 -36.8305
   -36.7867 -36.7330 -36.7116 -36.5897 -36.5410 -36.3037 -36.2205 -36.2001
   -21.3643 -21.0241 -20.4783 -20.2162 -20.1168 -19.9772 -19.7280 -19.5353
   -19.5285 -19.4736 -19.3001 -19.2632 -19.1357 -19.1307 -19.1256 -18.9568
   -18.4354 -18.2150 -17.1399  -9.4033  -9.1252  -8.8611  -8.6852  -8.5632
    -8.0923  -7.8147  -7.7375  -7.6615  -7.3729  -7.3486  -7.2983  -7.2690
    -7.1560  -6.9400  -6.8852  -6.7483  -6.7045  -6.5948  -6.5229  -6.5144
    -6.2787  -6.2756  -5.7176  -5.6831  -5.6223  -5.4484  -5.3180  -5.3146
    -5.3086  -5.0743  -5.0016  -4.9741  -4.8929  -4.8465  -4.6964  -4.5656
    -4.4857  -4.4825  -4.3764  -4.3093  -4.0701  -4.0551  -3.8723  -3.8570
    -3.5508  -3.5365  -3.5100  -3.4801  -3.4606  -3.2798  -3.2467  -3.1165
    -2.9806  -2.8792  -2.8688  -2.7528  -2.3361  -2.2292  -2.1749  -0.9547
    -0.7127  -0.4802  -0.3297  -0.0504   0.0145   0.1085   0.1495   0.2990
     0.3308   0.7223   0.8894   0.9835   1.4122   1.5408   1.6597   1.7256
     2.3848   2.5392   2.5656   2.6101   2.6166   2.7026   3.1159   3.5227
     3.6422   3.7454   3.9002   3.9577   4.0377   4.1646   4.2530   4.3063
     4.4086   4.5755   4.6203   4.7414   4.7898   5.1404   5.4569   5.6175
     5.7045   6.0454   6.4243   6.6109   6.7259   7.1456   7.3438   7.4290
     7.5867   7.7297   7.9807   8.0034   8.1035   8.2689   8.3001   8.3451
     8.4912   8.7858   8.8160   8.9979   9.0403   9.1535   9.1897   9.3136
     9.3376   9.5553   9.5572   9.6702   9.7298   9.8517   9.8953  10.0129
    10.0460  10.0712  10.1098  10.2874  10.3698  10.4822  10.5267  10.6317
    10.7994  10.9321  10.9612  11.0671  11.1540  11.3528  11.5680  11.5957
[...]
     atom   11 type  1   force =    -0.04328910   -0.01605842   -0.04305346
     atom   12 type  1   force =    -0.04349831    0.01551164   -0.04344956
     atom   13 type  1   force =    -0.00002425   -0.00052792   -0.01784732
     atom   14 type  1   force =    -0.00345854   -0.00480430    0.00121405
     atom   15 type  1   force =     0.00001275    0.00853039    0.00225224
     atom   16 type  2   force =     0.04241774   -0.00627485   -0.00499273
     atom   17 type  2   force =    -0.00060736    0.00399080    0.00124731
     atom   18 type  1   force =     0.00115643   -0.00074392    0.00153044
     atom   19 type  1   force =    -0.00134817   -0.00481384    0.00192801
     atom   20 type  1   force =     0.00005852    0.00217256   -0.14124776
     atom   21 type  1   force =     0.00295735    0.00034173   -0.00148212
     atom   22 type  2   force =    -0.01441561    0.00028387    0.01752991
     atom   23 type  2   force =     0.00000755    0.00003660    0.28308463
     atom   24 type  1   force =     0.04365190   -0.01606036   -0.04313294
     atom   25 type  1   force =     0.04340303    0.01550516   -0.04333016
     atom   26 type  1   force =    -0.00005439    0.00003674   -0.01397801
     atom   27 type  3   force =     0.00002177   -0.00093029   -0.00261407
     atom   28 type  3   force =     0.00002763    0.00086496    0.00064015
     atom   29 type  3   force =     0.00228390   -0.00084003   -0.00021491
     atom   30 type  3   force =     0.00042626   -0.00042735   -0.00019116
     atom   31 type  1   force =     0.00000314    0.00024571   -0.00029552

     Total force =     0.331062     Total SCF correction =     0.001661

     BFGS Geometry Optimization

     number of scf cycles    =   1
     number of bfgs steps    =   0

     energy   new            =   -1732.4112933994 Ry

     new trust radius        =       0.2830846279 bohr
     new conv_thr            =       0.0000010000 Ry

ATOMIC_POSITIONS (crystal)
O0       0.000000000   0.000000000   0.373518453    0   0   1
O0       0.000000000   0.500000000   0.380346790    0   0   1
Mo1      0.250000000   0.500000000   0.437715347    0   0   1
Mo1      0.000000000   0.000000000   0.445939427    0   0   1
O0       0.250000000   0.780000000   0.443435043    0   0   1
O0       0.250000000   0.220000000   0.443330767    0   0   1
O0       0.000000000   0.500000000   0.496095734    0   0   1
O0       0.000000000   0.000000000   0.518934923    0   0   1
Mo1      0.250000000   0.000000000   0.578622879    0   0   1
Mo1      0.000000000   0.500000000   0.564290084    0   0   1
O0       0.250000000   0.720000000   0.572846200    0   0   1
O0       0.250000000   0.280000000   0.572898437    0   0   1
O0       0.000000000   0.000000000   0.628650212    0   0   1
O0       0.500000000   0.000000000   0.373433794    0   0   1
O0       0.500000000   0.500000000   0.380384141    0   0   1
Mo1      0.750000000   0.500000000   0.437712148    0   0   1
Mo1      0.500000000   0.000000000   0.446214446    0   0   1
O0       0.750000000   0.780000000   0.443439995    0   0   1
O0       0.750000000   0.220000000   0.443327787    0   0   1
O0       0.500000000   0.500000000   0.493081700    0   0   1
O0       0.500000000   0.000000000   0.518840952    0   0   1
Mo1      0.750000000   0.000000000   0.578623567    0   0   1
Mo1      0.500000000   0.500000000   0.569418146    0   0   1
O0       0.750000000   0.720000000   0.572844642    0   0   1
O0       0.750000000   0.280000000   0.572900777    0   0   1
O0       0.500000000   0.000000000   0.628726046    0   0   1
H2      -0.000487890   0.613619677   0.358808767
H2       0.499512678   0.613755385   0.358872546
H2       0.165971353   0.020626500   0.358915788
H2       0.665791313   0.020657696   0.358916254
O0       0.500000304   0.500138574   0.628494208

     Check: negative starting charge=(component1):   -0.002460
     NEW-OLD atomic charge density approx. for the potential

     Check: negative/imaginary core charge=   -0.000003    0.000000
     Check: negative starting charge=(component1):   -0.002476

[...]

     energy   old            =   -1732.4112933994 Ry
     energy   new            =   -1732.4508481496 Ry

     CASE: energy  _new < energy  _old

[...]

     Threshold (ethr) on eigenvalues was too large:
     Diagonalizing with lowered threshold

     Davidson diagonalization with overlap
     ethr =  9.28E-08,  avg # of iterations =  1.0

[...]

     Total force =     0.002963     Total SCF correction =     0.000425
     SCF correction compared to forces is large: reduce conv_thr to get better values

[...]

     Total force =     0.002733     Total SCF correction =     0.000122

[...]

     number of scf cycles    =  25
     number of bfgs steps    =  24

     energy   old            =   -1732.5235505892 Ry
     energy   new            =   -1732.5235602743 Ry

     CASE: energy  _new < energy  _old

     new trust radius        =       0.0037499991 bohr
     new conv_thr            =       0.0000000100 Ry

ATOMIC_POSITIONS (crystal)
O0       0.000000000   0.000000000   0.370029662    0   0   1
O0       0.000000000   0.500000000   0.384102598    0   0   1
Mo1      0.250000000   0.500000000   0.442278799    0   0   1
Mo1      0.000000000   0.000000000   0.441891858    0   0   1
O0       0.250000000   0.780000000   0.442663681    0   0   1
O0       0.250000000   0.220000000   0.442733812    0   0   1
O0       0.000000000   0.500000000   0.498906540    0   0   1
O0       0.000000000   0.000000000   0.516129263    0   0   1
Mo1      0.250000000   0.000000000   0.574129070    0   0   1
Mo1      0.000000000   0.500000000   0.566487797    0   0   1
O0       0.250000000   0.720000000   0.570205120    0   0   1
O0       0.250000000   0.280000000   0.570167889    0   0   1
O0       0.000000000   0.000000000   0.624691869    0   0   1
O0       0.500000000   0.000000000   0.370614777    0   0   1
O0       0.500000000   0.500000000   0.384172654    0   0   1
Mo1      0.750000000   0.500000000   0.442290182    0   0   1
Mo1      0.500000000   0.000000000   0.443323100    0   0   1
O0       0.750000000   0.780000000   0.442825840    0   0   1
O0       0.750000000   0.220000000   0.442647119    0   0   1
O0       0.500000000   0.500000000   0.495775418    0   0   1
O0       0.500000000   0.000000000   0.515640592    0   0   1
Mo1      0.750000000   0.000000000   0.574131812    0   0   1
Mo1      0.500000000   0.500000000   0.580706980    0   0   1
O0       0.750000000   0.720000000   0.570207615    0   0   1
O0       0.750000000   0.280000000   0.570193677    0   0   1
O0       0.500000000   0.000000000   0.624491689    0   0   1
H2      -0.000660793   0.599535557   0.358484826
H2       0.499644512   0.621178699   0.365550324
H2       0.167397732   0.016433127   0.355608209
H2       0.663774637   0.020195319   0.355309286
O0       0.500018567   0.499756360   0.643187944

     Check: negative starting charge=(component1):   -0.002498
     NEW-OLD atomic charge density approx. for the potential

     Check: negative/imaginary core charge=   -0.000003    0.000000
     Check: negative starting charge=(component1):   -0.002499

[...]

     Self-consistent Calculation

[...]

     Threshold (ethr) on eigenvalues was too large:
     Diagonalizing with lowered threshold

     Davidson diagonalization with overlap
     ethr =  2.41E-09,  avg # of iterations =  3.0

[...]

     total energy              =   -1732.52356479 Ry
     Harris-Foulkes estimate   =   -1732.52356481 Ry
     estimated scf accuracy    <       0.00000014 Ry

[...]

     iteration # 10     ecut=    40.00 Ry     beta=0.70
     Davidson diagonalization with overlap
     ethr =  5.96E-11,  avg # of iterations =  1.0

     negative rho (up, down):  0.176E-02 0.176E-02

     End of self-consistent calculation

 ------ SPIN UP ------------

[...]

 ------ SPIN DOWN ----------

[...]

          k = 0.2500-0.3900 0.0000 ( 29726 PWs)   bands (ev):

[...]

          k =-0.2500 0.1950 0.0000 ( 29746 PWs)   bands (ev):

   -63.0354 -62.8035 -62.7171 -62.5914 -62.5832 -62.5435 -62.5077 -62.4797
   -37.6559 -37.3896 -37.2547 -37.1359 -37.0470 -37.0430 -36.9819 -36.9521
   -36.9380 -36.8698 -36.8345 -36.7700 -36.7489 -36.7298 -36.7058 -36.6898
   -36.6182 -36.5687 -36.5637 -36.5630 -36.5501 -36.4379 -36.2790 -36.1982
   -20.8395 -20.5505 -20.1100 -20.0106 -19.8903 -19.7041 -19.6343 -19.5489
   -19.4634 -19.2866 -19.1515 -19.0821 -19.0245 -18.9912 -18.9173 -18.8557
   -18.3785 -18.3473 -18.2203  -8.8585  -8.7400  -8.3878  -8.0436  -7.9064
    -7.8817  -7.8022  -7.6246  -7.5180  -7.4357  -7.3003  -7.1348  -7.0404
    -6.9091  -6.7343  -6.5867  -6.5172  -6.4667  -6.3434  -6.2772  -6.0543
    -5.9903  -5.9484  -5.8303  -5.6691  -5.5628  -5.4793  -5.3545  -5.2238
    -5.1817  -5.0818  -4.9457  -4.8219  -4.7603  -4.7264  -4.6110  -4.5934
    -4.5053  -4.3597  -4.2805  -4.2584  -4.1846  -3.9926  -3.9701  -3.8693
    -3.8384  -3.7737  -3.6543  -3.5705  -3.4996  -3.4411  -3.4171  -3.2754
    -3.1220  -3.0352  -2.9808  -2.7309  -1.7113  -1.5707  -1.4764  -0.7356
    -0.6584  -0.5239  -0.4585   0.0388   0.1243   0.4721   0.4956   0.6094
     0.8038   0.8383   0.9701   1.1440   1.2646   1.4356   1.5443   1.5897
     1.7225   1.7564   1.8004   2.0343   2.2031   3.1677   3.2333   3.4658
     3.5258   3.6609   3.8571   4.0704   4.1467   4.2967   4.5291   4.5995
     4.7189   4.9795   5.2667   5.3055   5.5745   5.6509   5.7644   5.8259
     5.9437   6.0627   6.3153   6.5391   6.7870   6.9753   7.1653   7.2316
     7.2781   7.6065   7.6485   7.8150   8.0535   8.1164   8.2942   8.3635
     8.5283   8.5989   8.6796   8.8084   9.0232   9.1351   9.2063   9.3645
     9.4929   9.5424   9.6406   9.6471   9.6998   9.7501   9.9717  10.0997
    10.1420  10.2413  10.3243  10.3777  10.5423  10.5938  10.6867  10.7507
    10.8644  10.9750  11.0413  11.2125  11.3834  11.4690  11.6042  11.6752
    11.7675  11.8163  11.9344  11.9833  12.0662  12.2914  12.3462  12.4192
    12.4508  12.4954  12.5570  12.6008  12.6617  12.8412  12.9141  12.9317
    13.0423  13.1849  13.2581  13.2712  13.3413  13.4235  13.4761  13.5434
    13.5959  13.6716  13.7121  13.7741  13.8827  13.9437  14.0407  14.1292
    14.1821  14.2252  14.3484  14.4229  14.4478  14.5622  14.6231  14.6868
    14.7119  14.7721  14.8734  14.9241  14.9456  15.0253  15.1854  15.2242
    15.3523  15.3726  15.4615  15.5665  15.6163  15.7325  15.7957  15.8703
    15.9462  15.9814  16.0654  16.1569  16.2054  16.2390  16.3121  16.3798
    16.4444  16.4687  16.5885  16.6473  16.7613  16.8607  16.8988  16.9695
    17.0857  17.1320  17.2571  17.2841  17.3266  17.4085  17.4746  17.5707
    17.6113  17.7052  17.7377  17.8049  17.9107  17.9908  18.0267  18.1166
    18.1526  18.2355  18.2783  18.3587  18.4120  18.4889  18.5907  18.6403
    18.7826  18.8267  18.9257  18.9777  19.0912  19.1246  19.1722  19.2450
    19.4298  19.4600  19.5838  19.6813  19.7078  19.8224  19.8522  19.9051
    19.9767  20.0481  20.1198  20.2157  20.2622  20.3192  20.3697  20.4365
    20.4570  20.5210  20.6007  20.6771  20.6878  20.7278  20.7947  20.8936
    20.9288  21.0103  21.0647  21.1420  21.2009  21.2596  21.3142  21.3957
    21.5056  21.5532  21.6184  21.6900  21.7620  21.7868  21.8327  21.8768
    21.9053

     the Fermi energy is    -0.1757 ev

!    total energy              =   -1732.52356480 Ry
     Harris-Foulkes estimate   =   -1732.52356480 Ry
     estimated scf accuracy    <          5.8E-09 Ry

     The total energy is the sum of the following terms:

     one-electron contribution =  -22102.74154723 Ry
     hartree contribution      =   11072.74042219 Ry
     xc contribution           =    -293.69632625 Ry
     ewald contribution        =    9591.17366693 Ry
     smearing contrib. (-TS)   =       0.00021956 Ry

     total magnetization       =     0.00 Bohr mag/cell
     absolute magnetization    =     0.00 Bohr mag/cell

     convergence has been achieved in  10 iterations

     Forces acting on atoms (Ry/au):

     negative rho (up, down):  0.176E-02 0.176E-02
     atom    1 type  1   force =     0.00108732   -0.00341941    0.00004197
     atom    2 type  1   force =    -0.00025102    0.00613105    0.00048746
     atom    3 type  2   force =    -0.05924294   -0.00953074    0.00007070
     atom    4 type  2   force =     0.00103273    0.00483799   -0.00008388
     atom    5 type  1   force =    -0.00320634    0.00665072   -0.00016812
     atom    6 type  1   force =    -0.00483594   -0.00726942   -0.00017362
     atom    7 type  1   force =     0.00020200    0.00051100   -0.00012601
     atom    8 type  1   force =     0.00315889    0.00039419    0.00017170
     atom    9 type  2   force =     0.00130409   -0.00027970    0.00004485
     atom   10 type  2   force =    -0.00011454    0.00024783   -0.00037146
     atom   11 type  1   force =    -0.01087272   -0.04272945   -0.00011680
     atom   12 type  1   force =    -0.01126008    0.04289117   -0.00012023
     atom   13 type  1   force =     0.00000400    0.00021599    0.00014099
     atom   14 type  1   force =    -0.00554670   -0.00630319   -0.00019990
     atom   15 type  1   force =     0.00007180    0.01115081    0.00031374
     atom   16 type  2   force =     0.05857739   -0.01013242    0.00003057
     atom   17 type  2   force =    -0.00195138    0.00256461    0.00009313
     atom   18 type  1   force =     0.00576365    0.00747117   -0.00017160
     atom   19 type  1   force =     0.00530030   -0.00740256   -0.00021123
     atom   20 type  1   force =     0.00025579    0.00394801   -0.00015914
     atom   21 type  1   force =     0.00312242    0.00047291   -0.00029829
     atom   22 type  2   force =    -0.00524558   -0.00091117    0.00006732
     atom   23 type  2   force =     0.00014885    0.00024551   -0.00045576
     atom   24 type  1   force =     0.01117638   -0.04258659   -0.00012480
     atom   25 type  1   force =     0.01105870    0.04298949   -0.00011772
     atom   26 type  1   force =     0.00004652    0.00035851    0.00030112
     atom   27 type  3   force =    -0.00000178   -0.00036304    0.00029685
     atom   28 type  3   force =    -0.00000455   -0.00011203    0.00022656
     atom   29 type  3   force =     0.00003856   -0.00000864    0.00019667
     atom   30 type  3   force =     0.00020344   -0.00003366    0.00020881
     atom   31 type  1   force =    -0.00001928    0.00000107    0.00020612

     Total force =     0.001290     Total SCF correction =     0.000172
     SCF correction compared to forces is large: reduce conv_thr to get better values

     bfgs converged in  26 scf cycles and  25 bfgs steps
     (criteria: energy < 0.10E-03, force < 0.10E-02)

     End of BFGS Geometry Optimization

     Final energy   =   -1732.5235647962 Ry
Begin final coordinates

ATOMIC_POSITIONS (crystal)
O0       0.000000000   0.000000000   0.370029662    0   0   1
O0       0.000000000   0.500000000   0.384102598    0   0   1
Mo1      0.250000000   0.500000000   0.442278799    0   0   1
Mo1      0.000000000   0.000000000   0.441891858    0   0   1
O0       0.250000000   0.780000000   0.442663681    0   0   1
O0       0.250000000   0.220000000   0.442733812    0   0   1
O0       0.000000000   0.500000000   0.498906540    0   0   1
O0       0.000000000   0.000000000   0.516129263    0   0   1
Mo1      0.250000000   0.000000000   0.574129070    0   0   1
Mo1      0.000000000   0.500000000   0.566487797    0   0   1
O0       0.250000000   0.720000000   0.570205120    0   0   1
O0       0.250000000   0.280000000   0.570167889    0   0   1
O0       0.000000000   0.000000000   0.624691869    0   0   1
O0       0.500000000   0.000000000   0.370614777    0   0   1
O0       0.500000000   0.500000000   0.384172654    0   0   1
Mo1      0.750000000   0.500000000   0.442290182    0   0   1
Mo1      0.500000000   0.000000000   0.443323100    0   0   1
O0       0.750000000   0.780000000   0.442825840    0   0   1
O0       0.750000000   0.220000000   0.442647119    0   0   1
O0       0.500000000   0.500000000   0.495775418    0   0   1
O0       0.500000000   0.000000000   0.515640592    0   0   1
Mo1      0.750000000   0.000000000   0.574131812    0   0   1
Mo1      0.500000000   0.500000000   0.580706980    0   0   1
O0       0.750000000   0.720000000   0.570207615    0   0   1
O0       0.750000000   0.280000000   0.570193677    0   0   1
O0       0.500000000   0.000000000   0.624491689    0   0   1
H2      -0.000660793   0.599535557   0.358484826
H2       0.499644512   0.621178699   0.365550324
H2       0.167397732   0.016433127   0.355608209
H2       0.663774637   0.020195319   0.355309286
O0       0.500018567   0.499756360   0.643187944
End final coordinates

     General routines

     Parallel routines

   This run was terminated on:   5:47: 5   3Apr2014

   JOB DONE.