     Program PWSCF v.5.0.2 (svn rev. 9656) starts on 12May2014 at  7:35:30

     Current dimensions of program PWSCF are:
     Max number of different atomic species (ntypx) = 10
     Max number of k-points (npk) =  40000
     Max angular momentum in pseudopotentials (lmaxx) =  3
     Reading input from pwscf.in
Warning: card &CELL ignored
Warning: card / ignored

     Subspace diagonalization in iterative solution of the eigenvalue problem:
     a serial algorithm will be used

     bravais-lattice index     =            0
     lattice parameter (alat)  =      11.1872  a.u.
     unit-cell volume          =   10442.1272 (a.u.)^3
     number of atoms/cell      =           51
     number of atomic types    =            3
     number of electrons       =       413.00
     number of Kohn-Sham states=          619
     kinetic-energy cutoff     =      40.0000  Ry
     charge density cutoff     =     500.0000  Ry
     convergence threshold     =      1.0E-06
     mixing beta               =       0.3000
     number of iterations used =            8  plain     mixing
     Exchange-correlation      = SLA  PW   PBE  PBE ( 1 4 3 4 0)
     EXX-fraction              =        0.00
     nstep                     =           50

     celldm(1)=  11.187179  celldm(2)=   0.000000  celldm(3)=   0.000000
     celldm(4)=   0.000000  celldm(5)=   0.000000  celldm(6)=   0.000000

     crystal axes: (cart. coord. in units of alat)
               a(1) = (   1.000000   0.000000   0.000000 )
               a(2) = (   0.000000   1.180104   0.000000 )
               a(3) = (   0.000000   0.000000   6.319854 )

     reciprocal axes: (cart. coord. in units 2 pi/alat)
               b(1) = (  1.000000  0.000000  0.000000 )
               b(2) = (  0.000000  0.847383  0.000000 )
               b(3) = (  0.000000  0.000000  0.158232 )

     PseudoPot. # 1 for O  read from file:
     /home/camp/zhonxu/pseudo/o_pbe_v1.01.uspp.F.UPF
     MD5 check sum: 2bcb18d16ea4b960afae9ec6d52f22d2
     Pseudo is Ultrasoft + core correction, Zval =  6.0
     Generated by new atomic code, or converted to UPF format
     Using radial grid of  737 points,  5 beta functions with:
                l(1) =   0
                l(2) =   0
                l(3) =   1
                l(4) =   1
                l(5) =   2
     Q(r) pseudized with  8 coefficients,  rinner =    0.900   0.900   0.900
                                                       0.900   0.900

     PseudoPot. # 2 for Nb read from file:
     /home/camp/zhonxu/pseudo/nb_pbe_v1.uspp.F.UPF
     MD5 check sum: 573aab8a2fa660278ed4a62cd769473f
     Pseudo is Ultrasoft + core correction, Zval = 13.0
     Generated by new atomic code, or converted to UPF format
     Using radial grid of  887 points,  6 beta functions with:
                l(1) =   0
                l(2) =   0
                l(3) =   1
                l(4) =   1
                l(5) =   2
                l(6) =   2
     Q(r) pseudized with  6 coefficients,  rinner =    1.000   1.000   1.000
                                                       1.000   1.000

     PseudoPot. # 3 for H  read from file:
     /home/camp/zhonxu/pseudo/h_pbe_v1.uspp.F.UPF
     MD5 check sum: 3408e3ff4ec8b0a4e358431e7e038a48
     Pseudo is Ultrasoft, Zval =  1.0
     Generated by new atomic code, or converted to UPF format
     Using radial grid of  615 points,  2 beta functions with:
                l(1) =   0
                l(2) =   0
     Q(r) pseudized with  8 coefficients,  rinner =    0.700

     atomic species   valence    mass     pseudopotential
        O0             6.00    15.99940     O ( 1.00)
        Nb1           13.00    92.90640     Nb( 1.00)
        H2             1.00     1.00794     H ( 1.00)

      2 Sym. Ops. (no inversion) found

   Cartesian axes

     site n.     atom                  positions (alat units)
         1           O0  tau(   1) = (   0.0000000   0.5900519   2.0270298  )
         2           Nb1 tau(   2) = (   0.2500000   0.5900519   2.2748313  )
         3           Nb1 tau(   3) = (   0.0000000   0.0000000   2.2748313  )
         4           O0  tau(   4) = (   0.2500000   0.9322821   2.2748313  )
         5           O0  tau(   5) = (   0.2500000   0.2478218   2.2748313  )
         6           O0  tau(   6) = (   0.0000000   0.5900519   2.5226959  )
         7           O0  tau(   7) = (   0.0000000   0.0000000   2.6170513  )
         8           Nb1 tau(   8) = (   0.2500000   0.0000000   2.8649160  )
         9           Nb1 tau(   9) = (   0.0000000   0.5900519   2.8649160  )
        10           O0  tau(  10) = (   0.2500000   0.8378738   2.8649160  )
        11           O0  tau(  11) = (   0.2500000   0.3422301   2.8649160  )
        12           O0  tau(  12) = (   0.0000000   0.0000000   3.1127175  )
        13           O0  tau(  13) = (   0.0000000   0.5900519   3.2016378  )
        14           Nb1 tau(  14) = (   0.2500000   0.5900519   3.4436882  )
        15           Nb1 tau(  15) = (   0.0000000   0.0000000   3.4612574  )
        16           O0  tau(  16) = (   0.2500000   0.9310784   3.4611310  )
        17           O0  tau(  17) = (   0.2500000   0.2490255   3.4611310  )
        18           O0  tau(  18) = (   0.0000000   0.5900519   3.6989471  )
        19           O0  tau(  19) = (   0.0000000   0.0000000   3.8174443  )
        20           Nb1 tau(  20) = (   0.2500000   0.0000000   4.0701753  )
        21           Nb1 tau(  21) = (   0.0000000   0.5900519   4.0169621  )
        22           O0  tau(  22) = (   0.2500000   0.8262851   4.0818038  )
        23           O0  tau(  23) = (   0.2500000   0.3538187   4.0818038  )
        24           O0  tau(  24) = (   0.0000000   0.0000000   4.2711466  )
        25           O0  tau(  25) = (   0.5000000   0.5900519   2.0270298  )
        26           Nb1 tau(  26) = (   0.7500000   0.5900519   2.2748313  )
        27           Nb1 tau(  27) = (   0.5000000   0.0000000   2.2748313  )
        28           O0  tau(  28) = (   0.7500000   0.9322821   2.2748313  )
        29           O0  tau(  29) = (   0.7500000   0.2478218   2.2748313  )
        30           O0  tau(  30) = (   0.5000000   0.5900519   2.5226959  )
        31           O0  tau(  31) = (   0.5000000   0.0000000   2.6170513  )
        32           Nb1 tau(  32) = (   0.7500000   0.0000000   2.8649160  )
        33           Nb1 tau(  33) = (   0.5000000   0.5900519   2.8649160  )
        34           O0  tau(  34) = (   0.7500000   0.8378738   2.8649160  )
        35           O0  tau(  35) = (   0.7500000   0.3422301   2.8649160  )
        36           O0  tau(  36) = (   0.5000000   0.0000000   3.1127175  )
        37           O0  tau(  37) = (   0.5000000   0.5900519   3.2016378  )
        38           Nb1 tau(  38) = (   0.7500000   0.5900519   3.4436882  )
        39           Nb1 tau(  39) = (   0.5000000   0.0000000   3.4612574  )
        40           O0  tau(  40) = (   0.7500000   0.9310784   3.4611310  )
        41           O0  tau(  41) = (   0.7500000   0.2490255   3.4611310  )
        42           O0  tau(  42) = (   0.5000000   0.5900519   3.6989471  )
        43           O0  tau(  43) = (   0.5000000   0.0000000   3.8174443  )
        44           Nb1 tau(  44) = (   0.7500000   0.0000000   4.0701753  )
        45           Nb1 tau(  45) = (   0.5000000   0.5900519   4.0169621  )
        46           O0  tau(  46) = (   0.7500000   0.8262851   4.0818038  )
        47           O0  tau(  47) = (   0.7500000   0.3538187   4.0818038  )
        48           O0  tau(  48) = (   0.5000000   0.0000000   4.2711466  )
        49           O0  tau(  49) = (   0.5000000   0.5900519   4.3548215  )
        50           O0  tau(  50) = (   0.5000000   0.3932578   4.4706644  )
        51           H2  tau(  51) = (   0.5000000   0.4432824   4.6306199  )

     number of k points=     9  Methfessel-Paxton smearing, width (Ry)=  0.0100
                       cart. coord. in units 2pi/alat
        k(    1) = (   0.0000000   0.0000000   0.0000000), wk =   0.1250000
        k(    2) = (   0.0000000   0.2118458   0.0000000), wk =   0.2500000
        k(    3) = (   0.0000000  -0.4236915   0.0000000), wk =   0.1250000
        k(    4) = (   0.2500000   0.0000000   0.0000000), wk =   0.2500000
        k(    5) = (   0.2500000   0.2118458   0.0000000), wk =   0.5000000
        k(    6) = (   0.2500000  -0.4236915   0.0000000), wk =   0.2500000
        k(    7) = (  -0.5000000   0.0000000   0.0000000), wk =   0.1250000
        k(    8) = (  -0.5000000   0.2118458   0.0000000), wk =   0.2500000
        k(    9) = (  -0.5000000  -0.4236915   0.0000000), wk =   0.1250000

     Largest allocated arrays     est. size (Mb)     dimensions
     Largest temporary arrays     est. size (Mb)     dimensions
[g090.dcsc.fysik.dtu.dk:00540] Set MCA parameter "orte_base_help_aggregate" to 0 to see all help / error messages

     Check: negative/imaginary core charge=   -0.000004    0.000000

     Initial potential from superposition of free atoms
     Check: negative starting charge=   -0.005076

     starting charge  412.95621, renormalised to  413.00000

     negative rho (up, down):  0.508E-02 0.000E+00
     Starting wfc are  345 randomized atomic wfcs

     Self-consistent Calculation

     iteration #  1     ecut=    40.00 Ry     beta=0.30
     Davidson diagonalization with overlap
     ethr =  1.00E-02,  avg # of iterations =  6.0

     negative rho (up, down):  0.460E-02 0.000E+00

     total energy              =   -2982.66731028 Ry
     Harris-Foulkes estimate   =   -2994.20859769 Ry
     estimated scf accuracy    <      25.92579959 Ry

[...]

     End of self-consistent calculation

          k = 0.0000 0.0000 0.0000 ( 44615 PWs)   bands (ev):

   -55.2612 -55.1718 -54.6732 -54.6698 -54.5917 -54.5815 -54.5779 -54.5719
   -54.5480 -54.5428 -54.4977 -54.4964 -54.4927 -54.4692 -54.4642 -54.3453
   -32.1785 -31.4590 -31.2816 -31.2794 -31.2191 -31.2023 -31.1795 -31.1743
   -31.1731 -31.1429 -31.1351 -31.1316 -31.1092 -31.1045 -30.9528 -30.9299
   -30.9006 -30.8824 -30.8755 -30.8335 -30.8229 -30.8134 -30.8019 -30.7652
   -30.7631 -30.7345 -30.7254 -30.7137 -30.6610 -30.6274 -30.6154 -30.5650
   -30.5532 -30.5428 -30.4640 -30.4574 -30.4523 -30.4429 -30.4232 -30.4021
   -30.3911 -30.3814 -30.3278 -30.3130 -30.3027 -30.2834 -30.2423 -30.2010
   -22.3460 -18.2789 -18.0512 -18.0179 -17.9468 -17.8971 -17.8593 -17.7444
   -17.6774 -17.6216 -17.5498 -17.4835 -17.3928 -17.3537 -17.3115 -17.2914
   -17.2580 -17.1203 -17.0311 -17.0190 -16.9898 -16.9391 -16.9234 -16.8897
   -16.7797 -16.6763 -16.6653 -16.6531 -16.6467 -16.5792 -16.4816 -15.4513
   -15.3270 -14.3698  -6.9689  -6.2048  -6.1444  -6.1148  -6.0974  -5.9866
    -5.8481  -5.7328  -5.6091  -5.4290  -5.3379  -5.3315  -5.2713  -5.1888
    -5.0635  -5.0633  -5.0016  -4.9835  -4.9513  -4.8987  -4.8543  -4.7843
    -4.7226  -4.6991  -4.6663  -4.6177  -4.4966  -4.3701  -4.3676  -4.3126
    -4.3027  -4.2892  -4.2247  -4.1504  -4.0614  -4.0002  -3.9453  -3.9113
    -3.8899  -3.8743  -3.8606  -3.8364  -3.8181  -3.7976  -3.7644  -3.7619
    -3.7199  -3.6692  -3.6620  -3.5592  -3.4858  -3.2412  -3.1526  -3.1354
[...]
O0       0.750000000   0.210000000   0.359950000    0   0   0
O0       0.500000000   0.500000000   0.399170000    0   0   0
O0       0.500000000   0.000000000   0.414100000    0   0   0
Nb1      0.750000000   0.000000000   0.453320000    0   0   0
Nb1      0.500000000   0.500000000   0.453320000    0   0   0
O0       0.750000000   0.710000000   0.453320000    0   0   0
O0       0.750000000   0.290000000   0.453320000    0   0   0
O0       0.500000000   0.000000000   0.492530000    0   0   0
O0       0.500000000   0.500000000   0.506600000    0   0   0
Nb1      0.750000000   0.500000000   0.544900000    0   0   0
Nb1      0.500000000   0.000000000   0.547680000    0   0   0
O0       0.750000000   0.788980000   0.547660000    0   0   0
O0       0.750000000   0.211020000   0.547660000    0   0   0
O0       0.500000000   0.500000000   0.585290000    0   0   0
O0       0.500000000   0.000000000   0.604040000    0   0   0
Nb1      0.750000000   0.000000000   0.644030000    0   0   0
Nb1      0.500000000   0.500000000   0.635610000    0   0   0
O0       0.750000000   0.700180000   0.645870000    0   0   0
O0       0.750000000   0.299820000   0.645870000    0   0   0
O0       0.500000000   0.000000000   0.675830000    0   0   0
O0       0.500000000   0.500000000   0.690940676    1   0   1
O0       0.500000000   0.333240000   0.711986216    1   0   1
H2       0.500000000   0.375630000   0.737010562    1   0   1

     Check: negative starting charge=   -0.005035
     NEW-OLD atomic charge density approx. for the potential

     Check: negative/imaginary core charge=   -0.000004    0.000000
     Check: negative starting charge=   -0.005036

[...]

     Self-consistent Calculation

[...]

     Threshold (ethr) on eigenvalues was too large:
     Diagonalizing with lowered threshold

     Davidson diagonalization with overlap
     ethr =  1.34E-08,  avg # of iterations =  1.2

[...]

     total energy              =   -2987.42296720 Ry
     Harris-Foulkes estimate   =   -2987.42296720 Ry
     estimated scf accuracy    <       0.00000001 Ry

     iteration # 10     ecut=    40.00 Ry     beta=0.30
     Davidson diagonalization with overlap
     ethr =  2.55E-12,  avg # of iterations =  2.0

     negative rho (up, down):  0.469E-02 0.000E+00

     End of self-consistent calculation

[...]

          k = 0.2500-0.4237 0.0000 ( 44580 PWs)   bands (ev):

[...]

          k =-0.5000-0.4237 0.0000 ( 44696 PWs)   bands (ev):

   -55.2789 -55.2787 -54.7426 -54.7077 -54.7077 -54.6295 -54.6152 -54.6138
   -54.6136 -54.6097 -54.5955 -54.5887 -54.5886 -54.5805 -54.5803 -54.4736
   -31.7615 -31.7551 -31.3827 -31.3731 -31.2934 -31.2929 -31.2213 -31.0056
   -31.0015 -30.9435 -30.9434 -30.9430 -30.9319 -30.9297 -30.9282 -30.9278
   -30.9107 -30.9107 -30.9044 -30.8982 -30.8861 -30.8560 -30.8499 -30.8235
   -30.8056 -30.8006 -30.7909 -30.7874 -30.7851 -30.7701 -30.7610 -30.7471
   -30.7383 -30.7381 -30.6721 -30.6396 -30.6387 -30.6266 -30.6202 -30.6188
   -30.6180 -30.6169 -30.5907 -30.5883 -30.5835 -30.5678 -30.5673 -30.5376
   -21.3007 -17.9456 -17.7777 -17.7495 -17.7330 -17.5531 -17.5517 -17.5492
   -17.5469 -17.4966 -17.4867 -17.4787 -17.4639 -17.3986 -17.3959 -17.3662
   -17.3532 -17.2257 -17.1846 -17.1667 -17.1648 -17.0830 -17.0830 -17.0617
   -17.0590 -17.0492 -17.0467 -17.0216 -17.0149 -16.9927 -16.9926 -15.5561
   -15.5558 -14.4033  -6.5735  -5.5298  -5.5224  -5.4868  -5.4581  -5.4383
    -5.4187  -5.3224  -5.3223  -5.3174  -5.3140  -5.2803  -5.2799  -5.0703
    -5.0679  -5.0560  -5.0336  -4.9077  -4.8673  -4.7823  -4.7777  -4.7601
    -4.7456  -4.6694  -4.6620  -4.6261  -4.5313  -4.4274  -4.4212  -4.3970
    -4.3906  -4.3167  -4.3150  -4.2475  -4.1393  -4.0979  -4.0559  -4.0304
    -4.0119  -3.9768  -3.9766  -3.9604  -3.9589  -3.9483  -3.9424  -3.9158
    -3.9077  -3.7243  -3.6575  -3.5713  -3.5376  -3.5136  -3.5134  -3.4385
    -3.4153  -3.3285  -3.2130  -3.1784  -3.1549  -3.1382  -3.0819  -2.8993
    -2.8800  -2.8680  -2.8168  -2.8150  -2.8035  -2.7942  -2.7917  -2.7597
    -2.7218  -2.6796  -2.6691  -2.6010  -2.5678  -2.3300  -2.3269  -2.2258
    -2.2239  -2.2081  -2.1901  -1.9796  -1.9509  -1.9139  -1.9137  -1.8127
    -1.7739  -1.7385  -1.7350  -1.6202  -1.5970  -1.5147  -1.5128  -1.4527
    -1.4467  -0.8590  -0.8588  -0.7382  -0.7380  -0.1187   0.9962   1.8650
     2.0210   2.0212   2.1207   2.1363   2.1767   2.2483   2.2492   2.3109
     2.3924   2.3998   2.4118   2.4241   2.4567   2.5028   2.5032   2.6678
     2.7122   2.7473   2.7485   3.0346   3.0370   3.1045   3.1304   3.1326
     3.1487   3.1952   3.2112   3.3154   3.3246   3.3391   3.3493   3.4716
     3.5231   3.5824   3.5956   3.7265   3.7340   3.8308   3.8786   3.9065
     3.9238   4.0723   4.0818   4.1021   4.1166   4.1318   4.2219   4.3053
     4.3076   4.9859   5.6360   5.6991   5.7740   5.8029   5.8335   5.8362
     5.8438   5.8442   5.9469   6.2206   6.2332   6.2375   6.3250   6.7240
     6.9386   6.9497   7.0495   7.0535   7.1330   7.2344   7.2695   7.2953
     7.3075   7.3111   7.3429   7.5969   7.6453   7.6993   7.7061   7.7173
     7.7177   7.7775   7.7885   7.7940   7.9134   7.9490   7.9934   8.0215
     8.0440   8.0651   8.1630   8.1744   8.2187   8.2939   8.3464   8.4377
     8.5903   8.6182   8.6960   8.8772   8.9992   9.0400   9.1255   9.2268
     9.2271   9.3062   9.3132   9.4257   9.7167   9.7649   9.7736   9.7916
     9.8706   9.8835   9.9154  10.0973  10.4843  10.4986  10.5225  10.5877
    10.6041  10.6691  10.6806  10.9396  11.3172  11.3566  11.3983  11.4190
    11.7778  11.8147  11.8394  11.9294  12.3585  12.4060  12.4235  12.6671
    12.7298  12.8122  12.8206  12.8549  12.9503  13.0155  13.0804  13.1139
    13.1380  13.1679  13.1700  13.1800  13.3317  13.3741  13.3967  13.4236
    13.5493  13.6081  13.6573  13.6990  13.7001  13.8430  13.8532  13.8833
    13.8993  13.9369  13.9657  14.0029  14.0223  14.0262  14.0387  14.0581
    14.0721  14.1934  14.1977  14.2226  14.2406  14.2642  14.2830  14.2982
    14.3443  14.3631  14.4185  14.4203  14.4499  14.4909  14.5198  14.6075
    14.6451  14.6585  14.7322  14.7350  14.7394  14.7715  14.8381  14.8883
    14.9208  15.0136  15.0424  15.0575  15.1121  15.1718  15.2190  15.2444
    15.3366  15.3532  15.4349  15.4374  15.4843  15.4987  15.5414  15.6008
    15.6289  15.6477  15.6787  15.7672  15.7770  15.8837  15.9328  16.0108
    16.1365  16.1419  16.2264  16.3074  16.3631  16.3632  16.3812  16.3921
    16.4125  16.4288  16.5081  16.5100  16.5382  16.5520  16.6145  16.6243
    16.6729  16.6740  16.7406  16.7916  16.8415  16.9047  16.9328  16.9963
    17.0248  17.0844  17.0952  17.1816  17.2620  17.2678  17.3615  17.3661
    17.3998  17.4027  17.4869  17.4903  17.5134  17.6037  17.6116  17.6471
    17.6786  17.6878  17.7225  17.8789  17.9727  17.9914  18.0240  18.0888
    18.2741  18.3028  18.3194  18.3568  18.3943  18.4281  18.5401  18.5498
    18.6200  18.6342  18.7075  18.7543  18.9641  18.9804  19.0716  19.0761
[...]
    20.1811  20.1865  20.2154  20.3083  20.3574  20.3759  20.5033  20.6193
    20.7824  20.8107  20.8926  20.8935  20.9583  20.9995  21.0475  21.0838
    21.1327  21.2059  21.2195  21.3052  21.3264  21.3382  21.3661  21.4054
    21.4101  21.5521  21.6259  21.6424  21.7746  21.7937  21.8609  21.9081
    21.9480  21.9977  22.0573  22.0875  22.1272  22.1812  22.1889  22.2569
    22.2741  22.3065  22.3109  22.3998  22.4618  22.4634  22.4955  22.5484
    22.5673  22.6082  22.6194  22.6485  22.6773  22.6992  22.7362  22.7430
    22.7442  22.7780  22.8115  22.8377  22.8392  22.8427  22.8649  22.8742
    22.8857  22.9243  22.9437  22.9909  22.9949  23.0237  23.0516  23.0635
    23.1445  23.1735  23.1982  23.2241  23.2387  23.2985  23.3670  23.3757
    23.4276  23.4748  23.5044  23.5511  23.5898  23.5936  23.6311  23.6797
    23.7100  23.7251  23.7843  23.7983  23.8352  24.0207  24.0566  24.0721
    24.1610  24.1663  24.2201  24.2863  24.2959  24.3209  24.3256  24.3485
    24.4771  24.5330  24.5731  24.5736  24.6345  24.6415  24.6954  24.6994
    24.7394  24.8293  24.8759

     the Fermi energy is     2.0386 ev

!    total energy              =   -2987.42296719 Ry
     Harris-Foulkes estimate   =   -2987.42296720 Ry
     estimated scf accuracy    <          7.1E-09 Ry

     The total energy is the sum of the following terms:

     one-electron contribution =  -65605.74135521 Ry
     hartree contribution      =   32867.72281970 Ry
     xc contribution           =    -539.51258269 Ry
     ewald contribution        =   30290.11035639 Ry
     smearing contrib. (-TS)   =      -0.00220538 Ry

     convergence has been achieved in  10 iterations

     Forces acting on atoms (Ry/au):

     negative rho (up, down):  0.469E-02 0.000E+00
     atom    1 type  1   force =     0.00000000    0.00004787    0.14337485
     atom    2 type  2   force =     0.00015378   -0.00001026   -0.14863421
     atom    3 type  2   force =     0.00000000   -0.00002383    0.07762074
     atom    4 type  1   force =    -0.00002945    0.01690601   -0.01268949
     atom    5 type  1   force =    -0.00001664   -0.01687800   -0.01266421
     atom    6 type  1   force =     0.00000000    0.00003216   -0.02361848
     atom    7 type  1   force =     0.00000000    0.00000309   -0.03270743
     atom    8 type  2   force =     0.00043674   -0.00003283   -0.00046411
     atom    9 type  2   force =     0.00000000   -0.00002360   -0.01287536
     atom   10 type  1   force =     0.00000944   -0.00303956   -0.00043623
     atom   11 type  1   force =    -0.00003095    0.00311128   -0.00043452
     atom   12 type  1   force =     0.00000000   -0.00000486    0.02187474
     atom   13 type  1   force =     0.00000000    0.00005633    0.00011890
     atom   14 type  2   force =     0.00267377   -0.00027637    0.00603791
     atom   15 type  2   force =     0.00000000    0.00004403   -0.00623320
     atom   16 type  1   force =    -0.00122403   -0.00058242    0.00017880
     atom   17 type  1   force =    -0.00123630    0.00050630    0.00007692
     atom   18 type  1   force =     0.00000000    0.00030837    0.00054906
     atom   19 type  1   force =     0.00000000   -0.00007046    0.00697071
     atom   20 type  2   force =     0.01010831    0.00167932    0.01140948
     atom   21 type  2   force =     0.00000000   -0.00272258    0.02754011
     atom   22 type  1   force =    -0.02938132    0.02385948   -0.03152365
     atom   23 type  1   force =    -0.03139727   -0.02181822   -0.03603134
     atom   24 type  1   force =     0.00000000   -0.00075209   -0.00691215
     atom   25 type  1   force =     0.00000000   -0.00003188    0.14338385
     atom   26 type  2   force =    -0.00015378   -0.00001026   -0.14863421
     atom   27 type  2   force =     0.00000000   -0.00003162    0.07756126
     atom   28 type  1   force =     0.00002945    0.01690601   -0.01268949
     atom   29 type  1   force =     0.00001664   -0.01687800   -0.01266421
     atom   30 type  1   force =     0.00000000   -0.00000547   -0.02401917
     atom   31 type  1   force =     0.00000000    0.00000190   -0.03269232
     atom   32 type  2   force =    -0.00043674   -0.00003283   -0.00046411
     atom   33 type  2   force =     0.00000000   -0.00009053   -0.01232502
     atom   34 type  1   force =    -0.00000944   -0.00303956   -0.00043623
     atom   35 type  1   force =     0.00003095    0.00311128   -0.00043452
     atom   36 type  1   force =     0.00000000   -0.00002466    0.02047618
     atom   37 type  1   force =     0.00000000   -0.00002720   -0.00167975
     atom   38 type  2   force =    -0.00267377   -0.00027637    0.00603791
     atom   39 type  2   force =     0.00000000    0.00011164    0.00005110
     atom   40 type  1   force =     0.00122403   -0.00058242    0.00017880
     atom   41 type  1   force =     0.00123630    0.00050630    0.00007692
     atom   42 type  1   force =     0.00000000   -0.00380285   -0.05357078
     atom   43 type  1   force =     0.00000000   -0.00008254   -0.00168197
     atom   44 type  2   force =    -0.01010831    0.00167932    0.01140948
     atom   45 type  2   force =     0.00000000   -0.00309528    0.15766425
     atom   46 type  1   force =     0.02938132    0.02385948   -0.03152365
     atom   47 type  1   force =     0.03139727   -0.02181822   -0.03603134
     atom   48 type  1   force =     0.00000000   -0.01023016   -0.01834724
     atom   49 type  1   force =     0.00000000    0.03823132    0.00013188
     atom   50 type  1   force =     0.00000000   -0.04860083   -0.00004065
     atom   51 type  3   force =     0.00000000    0.02393423   -0.00026480

     Total force =     0.000299     Total SCF correction =     0.000085
     SCF correction compared to forces is large: reduce conv_thr to get better values

     bfgs converged in   9 scf cycles and   8 bfgs steps
     (criteria: energy < 0.10E-03, force < 0.10E-02)

     End of BFGS Geometry Optimization

     Final energy   =   -2987.4229671923 Ry
Begin final coordinates

ATOMIC_POSITIONS (crystal)
O0       0.000000000   0.500000000   0.320740000    0   0   0
Nb1      0.250000000   0.500000000   0.359950000    0   0   0
Nb1      0.000000000   0.000000000   0.359950000    0   0   0
O0       0.250000000   0.790000000   0.359950000    0   0   0
O0       0.250000000   0.210000000   0.359950000    0   0   0
O0       0.000000000   0.500000000   0.399170000    0   0   0
O0       0.000000000   0.000000000   0.414100000    0   0   0
Nb1      0.250000000   0.000000000   0.453320000    0   0   0
Nb1      0.000000000   0.500000000   0.453320000    0   0   0
O0       0.250000000   0.710000000   0.453320000    0   0   0
O0       0.250000000   0.290000000   0.453320000    0   0   0
O0       0.000000000   0.000000000   0.492530000    0   0   0
O0       0.000000000   0.500000000   0.506600000    0   0   0
Nb1      0.250000000   0.500000000   0.544900000    0   0   0
Nb1      0.000000000   0.000000000   0.547680000    0   0   0
O0       0.250000000   0.788980000   0.547660000    0   0   0
O0       0.250000000   0.211020000   0.547660000    0   0   0
O0       0.000000000   0.500000000   0.585290000    0   0   0
O0       0.000000000   0.000000000   0.604040000    0   0   0
Nb1      0.250000000   0.000000000   0.644030000    0   0   0
Nb1      0.000000000   0.500000000   0.635610000    0   0   0
O0       0.250000000   0.700180000   0.645870000    0   0   0
O0       0.250000000   0.299820000   0.645870000    0   0   0
O0       0.000000000   0.000000000   0.675830000    0   0   0
O0       0.500000000   0.500000000   0.320740000    0   0   0
Nb1      0.750000000   0.500000000   0.359950000    0   0   0
Nb1      0.500000000   0.000000000   0.359950000    0   0   0
O0       0.750000000   0.790000000   0.359950000    0   0   0
O0       0.750000000   0.210000000   0.359950000    0   0   0
O0       0.500000000   0.500000000   0.399170000    0   0   0
O0       0.500000000   0.000000000   0.414100000    0   0   0
Nb1      0.750000000   0.000000000   0.453320000    0   0   0
Nb1      0.500000000   0.500000000   0.453320000    0   0   0
O0       0.750000000   0.710000000   0.453320000    0   0   0
O0       0.750000000   0.290000000   0.453320000    0   0   0
O0       0.500000000   0.000000000   0.492530000    0   0   0
O0       0.500000000   0.500000000   0.506600000    0   0   0
Nb1      0.750000000   0.500000000   0.544900000    0   0   0
Nb1      0.500000000   0.000000000   0.547680000    0   0   0
O0       0.750000000   0.788980000   0.547660000    0   0   0
O0       0.750000000   0.211020000   0.547660000    0   0   0
O0       0.500000000   0.500000000   0.585290000    0   0   0
O0       0.500000000   0.000000000   0.604040000    0   0   0
Nb1      0.750000000   0.000000000   0.644030000    0   0   0
Nb1      0.500000000   0.500000000   0.635610000    0   0   0
O0       0.750000000   0.700180000   0.645870000    0   0   0
O0       0.750000000   0.299820000   0.645870000    0   0   0
O0       0.500000000   0.000000000   0.675830000    0   0   0
O0       0.500000000   0.500000000   0.690940676    1   0   1
O0       0.500000000   0.333240000   0.711986216    1   0   1
H2       0.500000000   0.375630000   0.737010562    1   0   1
End final coordinates

     General routines

     Parallel routines

   This run was terminated on:  20:18:38  12May2014

   JOB DONE.
Running PBS batch system epilogue script
Job id: 349461.audhumbla.fysik.dtu.dk
Username: zhonxu
Groupname: campgst
Jobname: NbO2/Eads-4-layers/OOH
Sessionid: 466
Queuename: verylong
Accounting:
This job has allocated the following 32 nodes:
g090 g090 g090 g090 g090 g090 g090 g090 g090 g090 g090 g090 g090 g090 g090 g090 g089 g089 g089 g089 g089 g089 g089 g089 g089 g089 g089 g089 g089 g089 g089 g089
Finished epilogue job 349461.audhumbla.fysik.dtu.dk for zhonxu