     Program PWSCF v.5.0.2 (svn rev. 9656) starts on 28May2014 at  4:29:43

     Current dimensions of program PWSCF are:
     Max number of different atomic species (ntypx) = 10
     Max number of k-points (npk) =  40000
     Max angular momentum in pseudopotentials (lmaxx) =  3
     Reading input from pwscf.in
Warning: card &CELL ignored
Warning: card / ignored

     Subspace diagonalization in iterative solution of the eigenvalue problem:
     a serial algorithm will be used

     bravais-lattice index     =            0
     lattice parameter (alat)  =      10.3179  a.u.
     unit-cell volume          =    6964.3238 (a.u.)^3
     number of atoms/cell      =           33
     number of atomic types    =            3
     number of electrons       =       237.00
     number of Kohn-Sham states=          355
     kinetic-energy cutoff     =      40.0000  Ry
     charge density cutoff     =     500.0000  Ry
     convergence threshold     =      1.0E-06
     mixing beta               =       0.7000
     number of iterations used =            8  plain     mixing
     Exchange-correlation      = SLA  PW   PBE  PBE ( 1 4 3 4 0)
     EXX-fraction              =        0.00
     nstep                     =           50

     celldm(1)=  10.317905  celldm(2)=   0.000000  celldm(3)=   0.000000
     celldm(4)=   0.000000  celldm(5)=   0.000000  celldm(6)=   0.000000

     crystal axes: (cart. coord. in units of alat)
               a(1) = (   1.000000   0.000000   0.000000 )
               a(2) = (   0.000000   1.282117   0.000000 )
               a(3) = (   0.000000   0.000000   4.945120 )

     reciprocal axes: (cart. coord. in units 2 pi/alat)
               b(1) = (  1.000000  0.000000  0.000000 )
               b(2) = (  0.000000  0.779960  0.000000 )
               b(3) = (  0.000000  0.000000  0.202220 )

     PseudoPot. # 1 for O  read from file:
     /home/camp/zhonxu/pseudo/o_pbe_v1.01.uspp.F.UPF
     MD5 check sum: 2bcb18d16ea4b960afae9ec6d52f22d2
     Pseudo is Ultrasoft + core correction, Zval =  6.0
     Generated by new atomic code, or converted to UPF format
     Using radial grid of  737 points,  5 beta functions with:
                l(1) =   0
                l(2) =   0
                l(3) =   1
                l(4) =   1
                l(5) =   2
     Q(r) pseudized with  8 coefficients,  rinner =    0.900   0.900   0.900
                                                       0.900   0.900

     PseudoPot. # 2 for Mo read from file:
     /home/camp/zhonxu/pseudo/mo_pbe_v1.uspp.F.UPF
     MD5 check sum: 30c4dcd161f5d35cd49bb5239c51a633
     Pseudo is Ultrasoft + core correction, Zval = 14.0
     Generated by new atomic code, or converted to UPF format
     Using radial grid of  889 points,  6 beta functions with:
                l(1) =   0
                l(2) =   0
                l(3) =   1
                l(4) =   1
                l(5) =   2
                l(6) =   2
     Q(r) pseudized with  6 coefficients,  rinner =    1.000   1.000   1.000
                                                       1.000   1.000

     PseudoPot. # 3 for H  read from file:
     /home/camp/zhonxu/pseudo/h_pbe_v1.uspp.F.UPF
     MD5 check sum: 3408e3ff4ec8b0a4e358431e7e038a48
     Pseudo is Ultrasoft, Zval =  1.0
     Generated by new atomic code, or converted to UPF format
     Using radial grid of  615 points,  2 beta functions with:
                l(1) =   0
                l(2) =   0
     Q(r) pseudized with  8 coefficients,  rinner =    0.700

     atomic species   valence    mass     pseudopotential
        O0             6.00    15.99940     O ( 1.00)
        Mo1           14.00    95.94000     Mo( 1.00)
        H2             1.00     1.00794     H ( 1.00)

     Simplified LDA+U calculation (l_max = 2) with parameters (eV):
     atomic species    L          U    alpha       J0     beta
        Mo1            2     7.0000   0.0000   0.0000   0.0000

     No symmetry found

   Cartesian axes

     site n.     atom                  positions (alat units)
         1           O0  tau(   1) = (   0.0000000   0.0000000   1.8345407  )
         2           O0  tau(   2) = (   0.0000000   0.6410583   1.8924976  )
         3           Mo1 tau(   3) = (   0.2500000   0.6410583   2.1781772  )
         4           Mo1 tau(   4) = (   0.0000000   0.0000000   2.1929631  )
         5           O0  tau(   5) = (   0.2500000   1.0000510   2.1897982  )
         6           O0  tau(   6) = (   0.2500000   0.2820657   2.1891553  )
         7           O0  tau(   7) = (   0.0000000   0.6410583   2.4607413  )
         8           O0  tau(   8) = (   0.0000000   0.0000000   2.5556382  )
         9           Mo1 tau(   9) = (   0.2500000   0.0000000   2.8453728  )
        10           Mo1 tau(  10) = (   0.0000000   0.6410583   2.7952787  )
        11           O0  tau(  11) = (   0.2500000   0.9231240   2.8196582  )
        12           O0  tau(  12) = (   0.2500000   0.3589927   2.8248011  )
        13           O0  tau(  13) = (   0.0000000   0.0000000   3.0952003  )
        14           O0  tau(  14) = (   0.5000000   0.0000000   1.8353814  )
        15           O0  tau(  15) = (   0.5000000   0.6410583   1.8936349  )
        16           Mo1 tau(  16) = (   0.7500000   0.6410583   2.1781277  )
        17           Mo1 tau(  17) = (   0.5000000   0.0000000   2.1954851  )
        18           O0  tau(  18) = (   0.7500000   1.0000510   2.1899960  )
        19           O0  tau(  19) = (   0.7500000   0.2820657   2.1890564  )
        20           O0  tau(  20) = (   0.5000000   0.6410583   2.4612853  )
        21           O0  tau(  21) = (   0.5000000   0.0000000   2.5539074  )
        22           Mo1 tau(  22) = (   0.7500000   0.0000000   2.8439387  )
        23           Mo1 tau(  23) = (   0.5000000   0.6410583   2.8209934  )
        24           O0  tau(  24) = (   0.7500000   0.9231240   2.8195098  )
        25           O0  tau(  25) = (   0.7500000   0.3589927   2.8246033  )
        26           O0  tau(  26) = (   0.5000000   0.0000000   3.0932717  )
        27           H2  tau(  27) = (  -0.0005800   0.7846554   1.7836060  )
        28           H2  tau(  28) = (   0.4995100   0.7915788   1.7940402  )
        29           H2  tau(  29) = (   0.1672700   0.0232576   1.7642706  )
        30           H2  tau(  30) = (   0.6659000   0.0248346   1.7633310  )
        31           O0  tau(  31) = (   0.5002100   0.6666879   3.1760530  )
        32           O0  tau(  32) = (   0.4999400   0.4570233   3.3393409  )
        33           H2  tau(  33) = (   0.5000100   0.5446560   3.4973869  )

     number of k points=    10  Methfessel-Paxton smearing, width (Ry)=  0.0100
                       cart. coord. in units 2pi/alat
        k(    1) = (   0.0000000   0.0000000   0.0000000), wk =   0.1250000
        k(    2) = (   0.0000000   0.1949901   0.0000000), wk =   0.2500000
        k(    3) = (   0.0000000  -0.3899801   0.0000000), wk =   0.1250000
        k(    4) = (   0.2500000   0.0000000   0.0000000), wk =   0.2500000
        k(    5) = (   0.2500000   0.1949901   0.0000000), wk =   0.2500000
        k(    6) = (   0.2500000  -0.3899801   0.0000000), wk =   0.2500000
        k(    7) = (  -0.5000000   0.0000000   0.0000000), wk =   0.1250000
        k(    8) = (  -0.5000000   0.1949901   0.0000000), wk =   0.2500000
        k(    9) = (  -0.5000000  -0.3899801   0.0000000), wk =   0.1250000
        k(   10) = (  -0.2500000   0.1949901   0.0000000), wk =   0.2500000

     Largest allocated arrays     est. size (Mb)     dimensions
     Largest temporary arrays     est. size (Mb)     dimensions

     Check: negative/imaginary core charge=   -0.000003    0.000000

     Initial potential from superposition of free atoms
     Check: negative starting charge=   -0.002157

     starting charge  236.99142, renormalised to  237.00000

     negative rho (up, down):  0.216E-02 0.000E+00
     Number of +U iterations with fixed ns =  0
     Starting occupations:
 --- enter write_ns ---
 LDA+U parameters:
U( 2)     =  7.00000000
alpha( 2) =  0.00000000
atom    3   Tr[ns(na)] =   5.00000
    eigenvalues:
  0.500  0.500  0.500  0.500  0.500
    eigenvectors:
  1.000  0.000  0.000  0.000  0.000
  0.000  1.000  0.000  0.000  0.000
  0.000  0.000  1.000  0.000  0.000
  0.000  0.000  0.000  1.000  0.000
  0.000  0.000  0.000  0.000  1.000
    occupations:
  0.500  0.000  0.000  0.000  0.000
  0.000  0.500  0.000  0.000  0.000
  0.000  0.000  0.500  0.000  0.000
  0.000  0.000  0.000  0.500  0.000
  0.000  0.000  0.000  0.000  0.500
atom    4   Tr[ns(na)] =   5.00000
    eigenvalues:
  0.500  0.500  0.500  0.500  0.500
    eigenvectors:
  1.000  0.000  0.000  0.000  0.000
  0.000  1.000  0.000  0.000  0.000
  0.000  0.000  1.000  0.000  0.000
  0.000  0.000  0.000  1.000  0.000
  0.000  0.000  0.000  0.000  1.000
    occupations:
  0.500  0.000  0.000  0.000  0.000
  0.000  0.500  0.000  0.000  0.000
  0.000  0.000  0.500  0.000  0.000
  0.000  0.000  0.000  0.500  0.000
  0.000  0.000  0.000  0.000  0.500
atom    9   Tr[ns(na)] =   5.00000
    eigenvalues:
  0.500  0.500  0.500  0.500  0.500
    eigenvectors:
  1.000  0.000  0.000  0.000  0.000
  0.000  1.000  0.000  0.000  0.000
  0.000  0.000  1.000  0.000  0.000
  0.000  0.000  0.000  1.000  0.000
  0.000  0.000  0.000  0.000  1.000
    occupations:
  0.500  0.000  0.000  0.000  0.000
  0.000  0.500  0.000  0.000  0.000
  0.000  0.000  0.500  0.000  0.000
  0.000  0.000  0.000  0.500  0.000
  0.000  0.000  0.000  0.000  0.500
atom   10   Tr[ns(na)] =   5.00000
    eigenvalues:
  0.500  0.500  0.500  0.500  0.500
    eigenvectors:
  1.000  0.000  0.000  0.000  0.000
  0.000  1.000  0.000  0.000  0.000
  0.000  0.000  1.000  0.000  0.000
  0.000  0.000  0.000  1.000  0.000
  0.000  0.000  0.000  0.000  1.000
    occupations:
  0.500  0.000  0.000  0.000  0.000
  0.000  0.500  0.000  0.000  0.000
  0.000  0.000  0.500  0.000  0.000
  0.000  0.000  0.000  0.500  0.000
  0.000  0.000  0.000  0.000  0.500
atom   16   Tr[ns(na)] =   5.00000
    eigenvalues:
  0.500  0.500  0.500  0.500  0.500
    eigenvectors:
  1.000  0.000  0.000  0.000  0.000
  0.000  1.000  0.000  0.000  0.000
  0.000  0.000  1.000  0.000  0.000
  0.000  0.000  0.000  1.000  0.000
  0.000  0.000  0.000  0.000  1.000
    occupations:
  0.500  0.000  0.000  0.000  0.000
  0.000  0.500  0.000  0.000  0.000
  0.000  0.000  0.500  0.000  0.000
  0.000  0.000  0.000  0.500  0.000
  0.000  0.000  0.000  0.000  0.500
atom   17   Tr[ns(na)] =   5.00000
    eigenvalues:
  0.500  0.500  0.500  0.500  0.500
    eigenvectors:
  1.000  0.000  0.000  0.000  0.000
  0.000  1.000  0.000  0.000  0.000
  0.000  0.000  1.000  0.000  0.000
  0.000  0.000  0.000  1.000  0.000
  0.000  0.000  0.000  0.000  1.000
    occupations:
  0.500  0.000  0.000  0.000  0.000
  0.000  0.500  0.000  0.000  0.000
  0.000  0.000  0.500  0.000  0.000
  0.000  0.000  0.000  0.500  0.000
  0.000  0.000  0.000  0.000  0.500
atom   22   Tr[ns(na)] =   5.00000
    eigenvalues:
  0.500  0.500  0.500  0.500  0.500
    eigenvectors:
  1.000  0.000  0.000  0.000  0.000
  0.000  1.000  0.000  0.000  0.000
  0.000  0.000  1.000  0.000  0.000
[...]
  0.000  0.022  0.000  0.977  0.001
  0.001  0.000  0.999  0.000  0.000
    occupations:
  0.425 -0.002 -0.003  0.045 -0.000
 -0.002  0.927 -0.001  0.006 -0.003
 -0.003 -0.001  0.245 -0.006 -0.006
  0.045  0.006 -0.006  0.718 -0.000
 -0.000 -0.003 -0.006 -0.000  0.506
atom   16   Tr[ns(na)] =   5.82857
    eigenvalues:
  0.343  0.505  0.574  0.729  0.763
    eigenvectors:
  0.010  0.021  0.248  0.000  0.721
  0.000  0.954  0.041  0.003  0.002
  0.933  0.000  0.000  0.056  0.011
  0.002  0.022  0.710  0.000  0.266
  0.055  0.002  0.001  0.941  0.001
    occupations:
  0.707 -0.017  0.039 -0.083 -0.009
 -0.017  0.509 -0.005 -0.006 -0.011
  0.039 -0.005  0.369 -0.019  0.087
 -0.083 -0.006 -0.019  0.623  0.006
 -0.009 -0.011  0.087  0.006  0.707
atom   17   Tr[ns(na)] =   5.80459
    eigenvalues:
  0.363  0.521  0.594  0.624  0.800
    eigenvectors:
  0.000  0.000  0.970  0.030  0.000
  0.000  0.000  0.030  0.961  0.009
  0.999  0.001  0.000  0.000  0.000
  0.000  0.000  0.001  0.008  0.991
  0.001  0.999  0.000  0.000  0.000
    occupations:
  0.595 -0.005  0.002  0.002  0.000
 -0.005  0.625 -0.001  0.017 -0.002
  0.002 -0.001  0.363 -0.001 -0.005
  0.002  0.017 -0.001  0.798 -0.000
  0.000 -0.002 -0.005 -0.000  0.521
atom   22   Tr[ns(na)] =   5.78950
    eigenvalues:
  0.400  0.444  0.590  0.610  0.852
    eigenvectors:
  0.000  0.000  0.006  0.253  0.740
  0.000  0.000  0.980  0.020  0.000
  0.128  0.872  0.000  0.000  0.000
  0.000  0.000  0.014  0.727  0.260
  0.872  0.128  0.000  0.000  0.000
    occupations:
  0.789  0.003  0.000 -0.106 -0.003
  0.003  0.591 -0.001  0.001  0.000
  0.000 -0.001  0.438  0.001 -0.015
 -0.106  0.001  0.001  0.672  0.002
 -0.003  0.000 -0.015  0.002  0.405
atom   23   Tr[ns(na)] =   5.84566
    eigenvalues:
  0.466  0.481  0.528  0.610  0.838
    eigenvectors:
  0.003  0.000  0.000  0.987  0.010
  0.005  0.985  0.010  0.000  0.000
  0.980  0.006  0.010  0.003  0.000
  0.001  0.000  0.000  0.010  0.990
  0.012  0.009  0.980  0.000  0.000
    occupations:
  0.612 -0.001  0.008 -0.023 -0.000
 -0.001  0.481  0.000 -0.001 -0.005
  0.008  0.000  0.467  0.007  0.006
 -0.023 -0.001  0.007  0.836 -0.000
 -0.000 -0.005  0.006 -0.000  0.527
N of occupied +U levels =  46.3737787
 --- exit write_ns ---

     Threshold (ethr) on eigenvalues was too large:
     Diagonalizing with lowered threshold

     Davidson diagonalization with overlap
     ethr =  1.22E-08,  avg # of iterations =  2.0

[...]

     total energy              =   -1760.94866295 Ry
     Harris-Foulkes estimate   =   -1760.94866296 Ry
     estimated scf accuracy    <       0.00000001 Ry

     iteration # 23     ecut=    40.00 Ry     beta=0.70
     Davidson diagonalization with overlap
     ethr =  5.38E-12,  avg # of iterations =  2.0

     negative rho (up, down):  0.348E-02 0.000E+00

     End of self-consistent calculation
 --- enter write_ns ---
 LDA+U parameters:
U( 2)     =  7.00000000
alpha( 2) =  0.00000000
atom    3   Tr[ns(na)] =   5.78786
    eigenvalues:
  0.402  0.516  0.576  0.588  0.812
    eigenvectors:
  0.008  0.022  0.063  0.247  0.660
  0.000  0.956  0.002  0.041  0.002
  0.737  0.000  0.212  0.039  0.012
  0.000  0.021  0.054  0.599  0.325
  0.256  0.000  0.668  0.075  0.001
    occupations:
  0.732  0.018  0.035 -0.106  0.001
  0.018  0.520  0.003  0.005 -0.002
  0.035  0.003  0.451 -0.016 -0.077
 -0.106  0.005 -0.016  0.658  0.000
  0.001 -0.002 -0.077  0.000  0.533
atom    4   Tr[ns(na)] =   5.80389
    eigenvalues:
  0.327  0.520  0.583  0.693  0.780
    eigenvectors:
  0.000  0.000  0.991  0.007  0.002
  0.000  0.000  0.008  0.981  0.011
  1.000  0.000  0.000  0.000  0.000
  0.000  0.000  0.001  0.012  0.987
  0.000  1.000  0.000  0.000  0.000
    occupations:
  0.584  0.010  0.002  0.007  0.001
  0.010  0.693  0.003  0.009 -0.002
  0.002  0.003  0.327  0.001  0.001
  0.007  0.009  0.001  0.779 -0.000
  0.001 -0.002  0.001 -0.000  0.520
atom    9   Tr[ns(na)] =   5.87221
    eigenvalues:
  0.496  0.515  0.617  0.636  0.673
    eigenvectors:
  0.000  0.000  0.111  0.000  0.889
  0.000  0.000  0.007  0.991  0.002
  0.398  0.602  0.000  0.000  0.000
  0.000  0.000  0.882  0.009  0.109
  0.602  0.398  0.000  0.000  0.000
    occupations:
  0.667 -0.002 -0.000 -0.017 -0.002
 -0.002  0.636 -0.001 -0.001  0.001
 -0.000 -0.001  0.507  0.001  0.009
 -0.017 -0.001  0.001  0.623  0.000
 -0.002  0.001  0.009  0.000  0.503
atom   10   Tr[ns(na)] =   5.64168
    eigenvalues:
  0.245  0.418  0.506  0.724  0.927
    eigenvectors:
  0.000  0.978  0.000  0.022  0.000
  0.000  0.000  0.000  0.001  0.999
  0.999  0.000  0.001  0.000  0.000
  0.000  0.022  0.000  0.977  0.001
  0.001  0.000  0.999  0.000  0.000
    occupations:
  0.425 -0.002 -0.003  0.045 -0.000
 -0.002  0.927 -0.001  0.006 -0.003
 -0.003 -0.001  0.245 -0.006 -0.006
  0.045  0.006 -0.006  0.718 -0.000
 -0.000 -0.003 -0.006 -0.000  0.506
atom   16   Tr[ns(na)] =   5.82898
    eigenvalues:
  0.343  0.505  0.574  0.730  0.763
    eigenvectors:
  0.010  0.021  0.248  0.000  0.721
  0.000  0.954  0.040  0.003  0.002
  0.934  0.000  0.000  0.055  0.010
  0.002  0.022  0.711  0.000  0.265
  0.054  0.002  0.001  0.941  0.001
    occupations:
  0.706 -0.017  0.039 -0.083 -0.010
 -0.017  0.509 -0.005 -0.006 -0.011
  0.039 -0.005  0.368 -0.018  0.087
 -0.083 -0.006 -0.018  0.622  0.006
 -0.010 -0.011  0.087  0.006  0.708
atom   17   Tr[ns(na)] =   5.80496
    eigenvalues:
  0.363  0.522  0.594  0.624  0.800
    eigenvectors:
  0.000  0.000  0.968  0.032  0.000
  0.000  0.000  0.031  0.960  0.009
  0.999  0.001  0.000  0.000  0.000
  0.000  0.000  0.001  0.008  0.991
  0.001  0.999  0.000  0.000  0.000
    occupations:
  0.595 -0.005  0.002  0.002  0.000
 -0.005  0.624 -0.001  0.016 -0.002
  0.002 -0.001  0.363 -0.001 -0.005
  0.002  0.016 -0.001  0.799 -0.000
  0.000 -0.002 -0.005 -0.000  0.521
atom   22   Tr[ns(na)] =   5.78920
    eigenvalues:
  0.400  0.444  0.590  0.610  0.852
    eigenvectors:
  0.000  0.000  0.006  0.254  0.740
  0.000  0.000  0.980  0.020  0.000
  0.128  0.872  0.000  0.000  0.000
  0.000  0.000  0.014  0.726  0.260
  0.872  0.128  0.000  0.000  0.000
    occupations:
  0.789  0.003  0.000 -0.106 -0.003
  0.003  0.590 -0.001  0.001  0.000
  0.000 -0.001  0.438  0.001 -0.015
 -0.106  0.001  0.001  0.672  0.002
 -0.003  0.000 -0.015  0.002  0.405
atom   23   Tr[ns(na)] =   5.84431
    eigenvalues:
  0.465  0.481  0.528  0.610  0.838
    eigenvectors:
  0.003  0.000  0.000  0.987  0.010
  0.003  0.986  0.010  0.000  0.000
  0.981  0.005  0.010  0.003  0.000
  0.001  0.000  0.000  0.010  0.990
  0.012  0.009  0.980  0.000  0.000
    occupations:
  0.612 -0.001  0.008 -0.023 -0.000
 -0.001  0.481  0.000 -0.001 -0.005
  0.008  0.000  0.467  0.007  0.006
 -0.023 -0.001  0.007  0.836 -0.000
 -0.000 -0.005  0.006 -0.000  0.527
N of occupied +U levels =  46.3730955
 --- exit write_ns ---

[...]

          k = 0.2500-0.3900 0.0000 ( 29726 PWs)   bands (ev):

[...]

          k =-0.2500 0.1950 0.0000 ( 29746 PWs)   bands (ev):

   -62.3414 -61.9844 -61.9674 -61.7311 -61.6434 -61.4186 -61.3283 -61.2256
   -36.8553 -36.6541 -36.5782 -36.5468 -36.2505 -36.1782 -36.0556 -36.0279
   -35.9576 -35.9124 -35.8991 -35.8088 -35.7905 -35.7467 -35.7067 -35.6906
   -35.6761 -35.6593 -35.6086 -35.5632 -35.4805 -35.0268 -34.9822 -34.8154
   -23.0398 -20.0340 -19.7688 -19.3959 -19.3141 -19.1500 -19.0519 -19.0067
   -18.8957 -18.8477 -18.7532 -18.6064 -18.5945 -18.4737 -18.3322 -18.2652
   -18.0996 -18.0850 -17.8532 -16.6628  -8.4257  -8.2178  -8.0218  -7.9734
    -7.7653  -7.5735  -7.4937  -7.3912  -7.3490  -7.1990  -7.0836  -6.9741
    -6.8303  -6.6235  -6.4710  -6.3630  -6.1598  -5.9924  -5.9440  -5.8893
    -5.8124  -5.6758  -5.6225  -5.4595  -5.3048  -5.0871  -5.0068  -4.9012
    -4.7282  -4.6112  -4.5004  -4.4240  -4.3398  -4.2164  -4.1900  -4.0930
    -4.0526  -4.0252  -3.9789  -3.9328  -3.8406  -3.7857  -3.5435  -3.4524
    -3.3585  -3.3070  -3.2588  -3.1612  -3.1402  -3.0504  -2.9736  -2.7953
    -2.7403  -2.6412  -2.5713  -2.3867  -2.2963  -2.0722  -1.8083  -1.7029
    -1.6156  -1.3530  -0.7244  -0.6680  -0.3276  -0.1379   0.7052   0.8981
     1.0083   1.1035   1.1775   1.3205   1.4975   1.6662   1.7119   1.7918
     1.8692   1.9950   2.0807   2.3660   2.5091   2.7482   2.8309   3.2300
     3.6064   3.8643   3.9910   4.1352   4.2129   4.3640   4.4396   4.6221
     4.7292   4.7835   4.8221   4.9526   4.9877   5.1483   5.2799   5.5490
     5.9022   6.0428   6.1514   6.2174   6.3114   6.4829   6.5261   6.6230
     6.6916   6.9216   6.9895   7.2519   7.3345   7.4342   7.7292   7.7754
     8.0804   8.2341   8.4221   8.4986   8.5923   8.7433   8.8309   8.9568
     9.0425   9.1521   9.2351   9.3964   9.4920   9.5901   9.6913   9.7865
     9.8115   9.9808  10.0001  10.1214  10.2753  10.4379  10.5231  10.6312
    10.6960  10.8347  10.9497  10.9617  11.0579  11.1670  11.3397  11.3869
    11.4930  11.6789  11.7817  11.8678  11.9022  11.9729  12.0149  12.1675
    12.2014  12.2515  12.3609  12.3694  12.4451  12.5827  12.6363  12.8357
    12.9376  12.9866  13.0662  13.1483  13.2085  13.2848  13.3909  13.4348
    13.5334  13.5535  13.6136  13.7105  13.7635  13.8791  13.8966  13.9670
    14.0338  14.1085  14.1487  14.2019  14.2772  14.3036  14.3682  14.4223
    14.5063  14.5605  14.6346  14.7591  14.7857  14.8809  14.9083  15.0866
    15.1653  15.2421  15.3099  15.4430  15.4690  15.5253  15.6596  15.6966
    15.7895  15.8747  15.9071  16.0102  16.0911  16.1538  16.2678  16.3076
    16.3555  16.4422  16.5153  16.5556  16.6134  16.6319  16.7462  16.7768
    16.8775  16.8950  16.9880  17.0738  17.1061  17.1749  17.2580  17.3241
    17.3334  17.4078  17.5256  17.5985  17.7047  17.7619  17.8288  17.8958
    18.0352  18.0923  18.1453  18.2127  18.2500  18.3748  18.4239  18.5048
    18.5624  18.6473  18.7002  18.7913  18.9078  18.9698  19.0270  19.0876
    19.2109  19.3096  19.3706  19.4314  19.4760  19.5452  19.6176  19.7057
    19.8104  19.8783  19.9668  20.0529  20.1229  20.1675  20.1815  20.2596
    20.3188  20.3393  20.4429  20.4569  20.5129  20.5541  20.6036  20.6496
    20.7452  20.8165  20.8896  20.9546  21.0159  21.1205  21.1600  21.2222
    21.2662  21.4084  21.4243  21.4703  21.5330  21.5563  21.6003  21.6317
    21.6502  21.7327  21.8085  21.8667  21.9107  21.9573  22.0231  22.0772
    22.1598  22.1991  22.2844

     the Fermi energy is     0.2294 ev

!    total energy              =   -1760.94866296 Ry
     Harris-Foulkes estimate   =   -1760.94866296 Ry
     estimated scf accuracy    <          1.0E-08 Ry

     The total energy is the sum of the following terms:

     one-electron contribution =  -22549.89709969 Ry
     hartree contribution      =   11305.80530752 Ry
     xc contribution           =    -301.69023233 Ry
     ewald contribution        =    9780.31227995 Ry
     Hubbard energy            =       4.52132366 Ry
     smearing contrib. (-TS)   =      -0.00024208 Ry

     convergence has been achieved in  23 iterations

     Forces acting on atoms (Ry/au):

     negative rho (up, down):  0.348E-02 0.000E+00
     atom    1 type  1   force =    -0.00970962   -0.00680389   -0.00005595
     atom    2 type  1   force =     0.00177039    0.01001796    0.00002663
     atom    3 type  2   force =     0.01414764   -0.01109809    0.00012273
     atom    4 type  2   force =     0.00577625    0.00452646    0.00009653
     atom    5 type  1   force =     0.00469894   -0.03476087   -0.00068218
     atom    6 type  1   force =     0.00269211    0.03515618   -0.00077217
     atom    7 type  1   force =    -0.00067635    0.00212121   -0.00038973
     atom    8 type  1   force =     0.01487979    0.00100786    0.00064393
     atom    9 type  2   force =    -0.00581561   -0.00208628    0.00024502
     atom   10 type  2   force =     0.00224877    0.00129854   -0.00078388
     atom   11 type  1   force =    -0.00364068    0.01668631    0.00002927
     atom   12 type  1   force =     0.00008946   -0.01083073   -0.00000768
     atom   13 type  1   force =     0.01602277   -0.00187691    0.00014605
     atom   14 type  1   force =     0.00791521   -0.00400760    0.00007914
     atom   15 type  1   force =    -0.00059059    0.00602155    0.00065224
     atom   16 type  2   force =    -0.01839694   -0.00582245    0.00043562
     atom   17 type  2   force =    -0.01147909    0.00460163    0.00034134
     atom   18 type  1   force =     0.00139033   -0.00128413   -0.00062795
     atom   19 type  1   force =    -0.00182292   -0.00202484   -0.00059505
     atom   20 type  1   force =    -0.00176870   -0.00068350    0.00064862
     atom   21 type  1   force =     0.00159284    0.00189541    0.00098319
     atom   22 type  2   force =    -0.00143849   -0.00202152    0.00011806
     atom   23 type  2   force =    -0.00034383    0.00121363    0.00064228
     atom   24 type  1   force =     0.00244098    0.01828637    0.00026183
     atom   25 type  1   force =    -0.00052158   -0.01364972    0.00008150
     atom   26 type  1   force =    -0.01968847   -0.00635309   -0.00013157
     atom   27 type  3   force =     0.00019919    0.00014244   -0.00020587
     atom   28 type  3   force =    -0.00012721    0.00018963    0.00030445
     atom   29 type  3   force =    -0.00014653   -0.00005084   -0.00051252
     atom   30 type  3   force =    -0.00011309   -0.00013994   -0.00033635
     atom   31 type  1   force =     0.00052612    0.00018425    0.00025341
     atom   32 type  1   force =    -0.00028315   -0.00017128   -0.00019365
     atom   33 type  3   force =     0.00017207    0.00031625   -0.00081731

     Total force =     0.002783     Total SCF correction =     0.000185

     entering subroutine stress ...

     negative rho (up, down):  0.348E-02 0.000E+00
          total   stress  (Ry/bohr**3)                   (kbar)     P=   -4.23
  -0.00000587  -0.00000224  -0.00000272         -0.86     -0.33     -0.40
  -0.00000224  -0.00004460  -0.00000152         -0.33     -6.56     -0.22
  -0.00000272  -0.00000152  -0.00003569         -0.40     -0.22     -5.25

     bfgs converged in  25 scf cycles and  24 bfgs steps
     (criteria: energy < 0.10E-03, force < 0.10E-02)

     End of BFGS Geometry Optimization

     Final energy   =   -1760.9486629598 Ry
Begin final coordinates

ATOMIC_POSITIONS (crystal)
O0       0.000000000   0.000000000   0.369684569    0   0   1
O0       0.000000000   0.500000000   0.383010470    0   0   1
Mo1      0.250000000   0.500000000   0.441364593    0   0   1
Mo1      0.000000000   0.000000000   0.442002428    0   0   1
O0       0.250000000   0.780000000   0.442314977    0   0   1
O0       0.250000000   0.220000000   0.441808451    0   0   1
O0       0.000000000   0.500000000   0.496264805    0   0   1
O0       0.000000000   0.000000000   0.516451852    0   0   1
Mo1      0.250000000   0.000000000   0.579196298    0   0   1
Mo1      0.000000000   0.500000000   0.568628782    0   0   1
O0       0.250000000   0.720000000   0.572732521    0   0   1
O0       0.250000000   0.280000000   0.573576894    0   0   1
O0       0.000000000   0.000000000   0.624953710    0   0   1
O0       0.500000000   0.000000000   0.369990912    0   0   1
O0       0.500000000   0.500000000   0.383070431    0   0   1
Mo1      0.750000000   0.500000000   0.441338722    0   0   1
Mo1      0.500000000   0.000000000   0.441386662    0   0   1
O0       0.750000000   0.780000000   0.442049134    0   0   1
O0       0.750000000   0.220000000   0.442442378    0   0   1
O0       0.500000000   0.500000000   0.501070376    0   0   1
O0       0.500000000   0.000000000   0.515424534    0   0   1
Mo1      0.750000000   0.000000000   0.569390659    0   0   1
Mo1      0.500000000   0.500000000   0.570729047    0   0   1
O0       0.750000000   0.720000000   0.571472164    0   0   1
O0       0.750000000   0.280000000   0.572249614    0   0   1
O0       0.500000000   0.000000000   0.624556758    0   0   1
H2       0.001801840   0.619629121   0.363789543
H2       0.497522716   0.607449020   0.359733342
H2       0.165381340   0.022799157   0.355211596
H2       0.665253812   0.020264143   0.354884478
O0       0.502727348   0.514956436   0.642544750
O0       0.498603568   0.355630824   0.676412395
H2       0.500541081   0.426417934   0.708012154
End final coordinates

     General routines

     Parallel routines
     Hubbard U routines

   This run was terminated on:   3:16: 5  30May2014

   JOB DONE.
Running PBS batch system epilogue script
Job id: 373270.audhumbla.fysik.dtu.dk
Username: zhonxu
Groupname: campgst
Jobname: MoO2/Eads-2-layers/OOH-U-7.0
Sessionid: 13692
Queuename: verylong
Accounting:
This job has allocated the following 16 nodes:
a049 a049 a049 a049 a049 a049 a049 a049 a017 a017 a017 a017 a017 a017 a017 a017
Finished epilogue job 373270.audhumbla.fysik.dtu.dk for zhonxu