     Program PWSCF v.5.0.2 (svn rev. 9656) starts on 28Apr2014 at 13:36:43

     Current dimensions of program PWSCF are:
     Max number of different atomic species (ntypx) = 10
     Max number of k-points (npk) =  40000
     Max angular momentum in pseudopotentials (lmaxx) =  3
     Reading input from pwscf.in
Warning: card &CELL ignored
Warning: card / ignored

     Subspace diagonalization in iterative solution of the eigenvalue problem:
     a serial algorithm will be used

     bravais-lattice index     =            0
     lattice parameter (alat)  =      11.2250  a.u.
     unit-cell volume          =    7005.5484 (a.u.)^3
     number of atoms/cell      =           31
     number of atomic types    =            3
     number of electrons       =       214.00
     number of Kohn-Sham states=          309
     kinetic-energy cutoff     =      40.0000  Ry
     charge density cutoff     =     500.0000  Ry
     convergence threshold     =      1.0E-06
     mixing beta               =       0.7000
     number of iterations used =            8  plain     mixing
     Exchange-correlation      = SLA  PW   PBE  PBE ( 1 4 3 4 0)
     EXX-fraction              =        0.00
     nstep                     =           50

     celldm(1)=  11.224973  celldm(2)=   0.000000  celldm(3)=   0.000000
     celldm(4)=   0.000000  celldm(5)=   0.000000  celldm(6)=   0.000000

     crystal axes: (cart. coord. in units of alat)
               a(1) = (   1.000000   0.000000   0.000000 )
               a(2) = (   0.000000   1.107086   0.000000 )
               a(3) = (   0.000000   0.000000   4.474090 )

     reciprocal axes: (cart. coord. in units 2 pi/alat)
               b(1) = (  1.000000  0.000000  0.000000 )
               b(2) = (  0.000000  0.903272  0.000000 )
               b(3) = (  0.000000  0.000000  0.223509 )

     PseudoPot. # 1 for O  read from file:
     /home/camp/zhonxu/pseudo/o_pbe_v1.01.uspp.F.UPF
     MD5 check sum: 2bcb18d16ea4b960afae9ec6d52f22d2
     Pseudo is Ultrasoft + core correction, Zval =  6.0
     Generated by new atomic code, or converted to UPF format
     Using radial grid of  737 points,  5 beta functions with:
                l(1) =   0
                l(2) =   0
                l(3) =   1
                l(4) =   1
                l(5) =   2
     Q(r) pseudized with  8 coefficients,  rinner =    0.900   0.900   0.900
                                                       0.900   0.900

     PseudoPot. # 2 for Ti read from file:
     /home/camp/zhonxu/pseudo/ti_pbe_v1.uspp.F.UPF
     MD5 check sum: bcc8f6961b3b91f0cac3ca967d22d0fb
     Pseudo is Ultrasoft + core correction, Zval = 12.0
     Generated by new atomic code, or converted to UPF format
     Using radial grid of  851 points,  6 beta functions with:
                l(1) =   0
                l(2) =   0
                l(3) =   1
                l(4) =   1
                l(5) =   2
                l(6) =   2
     Q(r) pseudized with  6 coefficients,  rinner =    1.000   1.000   1.000
                                                       1.000   1.000

     PseudoPot. # 3 for H  read from file:
     /home/camp/zhonxu/pseudo/h_pbe_v1.uspp.F.UPF
     MD5 check sum: 3408e3ff4ec8b0a4e358431e7e038a48
     Pseudo is Ultrasoft, Zval =  1.0
     Generated by new atomic code, or converted to UPF format
     Using radial grid of  615 points,  2 beta functions with:
                l(1) =   0
                l(2) =   0
     Q(r) pseudized with  8 coefficients,  rinner =    0.700

     atomic species   valence    mass     pseudopotential
        O0             6.00    15.99940     O ( 1.00)
        Ti1           12.00    47.88000     Ti( 1.00)
        H2             1.00     1.00794     H ( 1.00)

     Simplified LDA+U calculation (l_max = 2) with parameters (eV):
     atomic species    L          U    alpha       J0     beta
        Ti1            2     5.0000   0.0000   0.0000   0.0000

     No symmetry found

   Cartesian axes

     site n.     atom                  positions (alat units)
         1           O0  tau(   1) = (   0.0000000   0.0000000   1.6912507  )
         2           O0  tau(   2) = (   0.0000000   0.5535432   1.7801061  )
         3           Ti1 tau(   3) = (   0.2500000   0.5535432   2.0136983  )
         4           Ti1 tau(   4) = (   0.0000000   0.0000000   2.0256889  )
         5           O0  tau(   5) = (   0.2500000   0.8967400   2.0101638  )
         6           O0  tau(   6) = (   0.2500000   0.2103464   2.0140115  )
         7           O0  tau(   7) = (   0.0000000   0.5535432   2.2264413  )
         8           O0  tau(   8) = (   0.0000000   0.0000000   2.3510894  )
         9           Ti1 tau(   9) = (   0.2500000   0.0000000   2.5997146  )
        10           Ti1 tau(  10) = (   0.0000000   0.5535432   2.5433858  )
        11           O0  tau(  11) = (   0.2500000   0.7638896   2.5969406  )
        12           O0  tau(  12) = (   0.2500000   0.3431968   2.5970301  )
        13           O0  tau(  13) = (   0.0000000   0.0000000   2.7842260  )
        14           O0  tau(  14) = (   0.5000000   0.0000000   1.6905348  )
        15           O0  tau(  15) = (   0.5000000   0.5535432   1.7767953  )
        16           Ti1 tau(  16) = (   0.7500000   0.5535432   2.0136983  )
        17           Ti1 tau(  17) = (   0.5000000   0.0000000   2.0204542  )
        18           O0  tau(  18) = (   0.7500000   0.8967400   2.0103875  )
        19           O0  tau(  19) = (   0.7500000   0.2103464   2.0134299  )
        20           O0  tau(  20) = (   0.5000000   0.5535432   2.2001336  )
        21           O0  tau(  21) = (   0.5000000   0.0000000   2.3501946  )
        22           Ti1 tau(  22) = (   0.7500000   0.0000000   2.5996698  )
        23           Ti1 tau(  23) = (   0.5000000   0.5535432   2.6765794  )
        24           O0  tau(  24) = (   0.7500000   0.7638896   2.5974328  )
        25           O0  tau(  25) = (   0.7500000   0.3431968   2.5965380  )
        26           O0  tau(  26) = (   0.5000000   0.0000000   2.7806915  )
        27           H2  tau(  27) = (  -0.0007400   0.6861389   1.6797970  )
        28           H2  tau(  28) = (   0.4994200   0.6816995   1.6713410  )
        29           H2  tau(  29) = (   0.1486600   0.0377184   1.6265106  )
        30           H2  tau(  30) = (   0.6489300   0.0363456   1.6257052  )
        31           O0  tau(  31) = (   0.4999900   0.5533882   2.9590287  )

     number of k points=    10  Methfessel-Paxton smearing, width (Ry)=  0.0100
                       cart. coord. in units 2pi/alat
        k(    1) = (   0.0000000   0.0000000   0.0000000), wk =   0.1250000
        k(    2) = (   0.0000000   0.2258180   0.0000000), wk =   0.2500000
        k(    3) = (   0.0000000  -0.4516359   0.0000000), wk =   0.1250000
        k(    4) = (   0.2500000   0.0000000   0.0000000), wk =   0.2500000
        k(    5) = (   0.2500000   0.2258180   0.0000000), wk =   0.2500000
        k(    6) = (   0.2500000  -0.4516359   0.0000000), wk =   0.2500000
        k(    7) = (  -0.5000000   0.0000000   0.0000000), wk =   0.1250000
        k(    8) = (  -0.5000000   0.2258180   0.0000000), wk =   0.2500000
        k(    9) = (  -0.5000000  -0.4516359   0.0000000), wk =   0.1250000
        k(   10) = (  -0.2500000   0.2258180   0.0000000), wk =   0.2500000

     Largest allocated arrays     est. size (Mb)     dimensions
     Largest temporary arrays     est. size (Mb)     dimensions

     Check: negative/imaginary core charge=   -0.000006    0.000000

     Initial potential from superposition of free atoms
     Check: negative starting charge=   -0.102438

     starting charge  205.99958, renormalised to  214.00000

     negative rho (up, down):  0.106E+00 0.000E+00
     Number of +U iterations with fixed ns =  0
     Starting occupations:
 --- enter write_ns ---
 LDA+U parameters:
U( 2)     =  5.00000000
alpha( 2) =  0.00000000
atom    3   Tr[ns(na)] =   2.00000
    eigenvalues:
  0.200  0.200  0.200  0.200  0.200
    eigenvectors:
  1.000  0.000  0.000  0.000  0.000
  0.000  1.000  0.000  0.000  0.000
  0.000  0.000  1.000  0.000  0.000
  0.000  0.000  0.000  1.000  0.000
  0.000  0.000  0.000  0.000  1.000
    occupations:
  0.200  0.000  0.000  0.000  0.000
  0.000  0.200  0.000  0.000  0.000
  0.000  0.000  0.200  0.000  0.000
  0.000  0.000  0.000  0.200  0.000
  0.000  0.000  0.000  0.000  0.200
atom    4   Tr[ns(na)] =   2.00000
    eigenvalues:
  0.200  0.200  0.200  0.200  0.200
    eigenvectors:
  1.000  0.000  0.000  0.000  0.000
  0.000  1.000  0.000  0.000  0.000
  0.000  0.000  1.000  0.000  0.000
  0.000  0.000  0.000  1.000  0.000
  0.000  0.000  0.000  0.000  1.000
    occupations:
  0.200  0.000  0.000  0.000  0.000
  0.000  0.200  0.000  0.000  0.000
  0.000  0.000  0.200  0.000  0.000
  0.000  0.000  0.000  0.200  0.000
  0.000  0.000  0.000  0.000  0.200
atom    9   Tr[ns(na)] =   2.00000
    eigenvalues:
  0.200  0.200  0.200  0.200  0.200
    eigenvectors:
  1.000  0.000  0.000  0.000  0.000
  0.000  1.000  0.000  0.000  0.000
  0.000  0.000  1.000  0.000  0.000
  0.000  0.000  0.000  1.000  0.000
  0.000  0.000  0.000  0.000  1.000
    occupations:
  0.200  0.000  0.000  0.000  0.000
  0.000  0.200  0.000  0.000  0.000
  0.000  0.000  0.200  0.000  0.000
  0.000  0.000  0.000  0.200  0.000
  0.000  0.000  0.000  0.000  0.200
atom   10   Tr[ns(na)] =   2.00000
    eigenvalues:
  0.200  0.200  0.200  0.200  0.200
    eigenvectors:
  1.000  0.000  0.000  0.000  0.000
  0.000  1.000  0.000  0.000  0.000
  0.000  0.000  1.000  0.000  0.000
  0.000  0.000  0.000  1.000  0.000
  0.000  0.000  0.000  0.000  1.000
    occupations:
  0.200  0.000  0.000  0.000  0.000
  0.000  0.200  0.000  0.000  0.000
  0.000  0.000  0.200  0.000  0.000
  0.000  0.000  0.000  0.200  0.000
  0.000  0.000  0.000  0.000  0.200
atom   16   Tr[ns(na)] =   2.00000
    eigenvalues:
  0.200  0.200  0.200  0.200  0.200
    eigenvectors:
  1.000  0.000  0.000  0.000  0.000
  0.000  1.000  0.000  0.000  0.000
  0.000  0.000  1.000  0.000  0.000
  0.000  0.000  0.000  1.000  0.000
  0.000  0.000  0.000  0.000  1.000
    occupations:
  0.200  0.000  0.000  0.000  0.000
  0.000  0.200  0.000  0.000  0.000
  0.000  0.000  0.200  0.000  0.000
  0.000  0.000  0.000  0.200  0.000
  0.000  0.000  0.000  0.000  0.200
atom   17   Tr[ns(na)] =   2.00000
    eigenvalues:
  0.200  0.200  0.200  0.200  0.200
    eigenvectors:
  1.000  0.000  0.000  0.000  0.000
  0.000  1.000  0.000  0.000  0.000
  0.000  0.000  1.000  0.000  0.000
  0.000  0.000  0.000  1.000  0.000
  0.000  0.000  0.000  0.000  1.000
    occupations:
  0.200  0.000  0.000  0.000  0.000
  0.000  0.200  0.000  0.000  0.000
  0.000  0.000  0.200  0.000  0.000
  0.000  0.000  0.000  0.200  0.000
  0.000  0.000  0.000  0.000  0.200
atom   22   Tr[ns(na)] =   2.00000
    eigenvalues:
  0.200  0.200  0.200  0.200  0.200
    eigenvectors:
  1.000  0.000  0.000  0.000  0.000
  0.000  1.000  0.000  0.000  0.000
  0.000  0.000  1.000  0.000  0.000
  0.000  0.000  0.000  1.000  0.000
  0.000  0.000  0.000  0.000  1.000
    occupations:
  0.200  0.000  0.000  0.000  0.000
  0.000  0.200  0.000  0.000  0.000
[...]
  0.088 -0.030  0.007  0.367 -0.002
  0.002  0.013 -0.019 -0.002  0.169
atom    4   Tr[ns(na)] =   2.74346
    eigenvalues:
  0.143  0.172  0.185  0.434  0.438
    eigenvectors:
  0.007  0.002  0.000  0.005  0.986
  0.002  0.775  0.221  0.000  0.003
  0.001  0.220  0.779  0.000  0.000
  0.990  0.003  0.000  0.000  0.007
  0.000  0.000  0.000  0.995  0.005
    occupations:
  0.435  0.014  0.005 -0.024 -0.000
  0.014  0.175 -0.005  0.000 -0.002
  0.005 -0.005  0.182  0.001 -0.000
 -0.024  0.000  0.001  0.145 -0.000
 -0.000 -0.002 -0.000 -0.000  0.434
atom    9   Tr[ns(na)] =   2.72545
    eigenvalues:
  0.143  0.182  0.197  0.393  0.448
    eigenvectors:
  0.000  0.000  0.893  0.107  0.000
  0.000  0.000  0.000  0.010  0.990
  0.991  0.009  0.000  0.000  0.000
  0.000  0.000  0.106  0.884  0.010
  0.009  0.991  0.000  0.000  0.000
    occupations:
  0.218  0.003 -0.000  0.060  0.000
  0.003  0.447  0.000 -0.007 -0.000
 -0.000  0.000  0.144 -0.000 -0.004
  0.060 -0.007 -0.000  0.373 -0.000
  0.000 -0.000 -0.004 -0.000  0.181
atom   10   Tr[ns(na)] =   2.64139
    eigenvalues:
  0.144  0.193  0.211  0.320  0.453
    eigenvectors:
  0.020  0.000  0.000  0.980  0.000
  0.000  0.000  1.000  0.000  0.000
  0.000  1.000  0.000  0.000  0.000
  0.980  0.000  0.000  0.020  0.000
  0.000  0.000  0.000  0.000  1.000
    occupations:
  0.317 -0.000 -0.000 -0.025 -0.000
 -0.000  0.211 -0.000  0.000 -0.000
 -0.000 -0.000  0.193 -0.000  0.000
 -0.025  0.000 -0.000  0.147  0.000
 -0.000 -0.000  0.000  0.000  0.453
atom   16   Tr[ns(na)] =   2.66766
    eigenvalues:
  0.142  0.165  0.184  0.394  0.448
    eigenvectors:
  0.021  0.735  0.065  0.166  0.012
  0.002  0.006  0.004  0.204  0.785
  0.646  0.001  0.353  0.000  0.000
  0.007  0.151  0.011  0.629  0.202
  0.324  0.107  0.567  0.001  0.002
    occupations:
  0.207 -0.015 -0.004  0.088 -0.003
 -0.015  0.434 -0.003  0.030  0.013
 -0.004 -0.003  0.157  0.007  0.019
  0.088  0.030  0.007  0.367  0.001
 -0.003  0.013  0.019  0.001  0.169
atom   17   Tr[ns(na)] =   2.74007
    eigenvalues:
  0.143  0.172  0.186  0.430  0.439
    eigenvectors:
  0.007  0.002  0.000  0.001  0.990
  0.002  0.799  0.197  0.000  0.002
  0.001  0.196  0.802  0.000  0.000
  0.991  0.003  0.000  0.000  0.007
  0.000  0.000  0.000  0.999  0.001
    occupations:
  0.437  0.013  0.005 -0.024 -0.000
  0.013  0.175 -0.005  0.000 -0.002
  0.005 -0.005  0.183  0.001 -0.000
 -0.024  0.000  0.001  0.145 -0.000
 -0.000 -0.002 -0.000 -0.000  0.430
atom   22   Tr[ns(na)] =   2.72542
    eigenvalues:
  0.143  0.182  0.197  0.393  0.448
    eigenvectors:
  0.000  0.000  0.893  0.107  0.000
  0.000  0.000  0.000  0.009  0.990
  0.991  0.009  0.000  0.000  0.000
  0.000  0.000  0.106  0.884  0.010
  0.009  0.991  0.000  0.000  0.000
    occupations:
  0.218 -0.003  0.000  0.060  0.000
 -0.003  0.447 -0.000  0.007 -0.000
  0.000 -0.000  0.144 -0.000  0.004
  0.060  0.007 -0.000  0.373 -0.000
  0.000 -0.000  0.004 -0.000  0.181
atom   23   Tr[ns(na)] =   2.86906
    eigenvalues:
  0.088  0.283  0.300  0.317  0.446
    eigenvectors:
  0.003  0.000  0.000  0.000  0.997
  0.000  0.000  1.000  0.000  0.000
  0.000  1.000  0.000  0.000  0.000
  0.997  0.000  0.000  0.000  0.003
  0.000  0.000  0.000  1.000  0.000
    occupations:
  0.445 -0.000 -0.000 -0.021 -0.000
 -0.000  0.300  0.000 -0.000  0.000
 -0.000  0.000  0.283 -0.000 -0.000
 -0.021 -0.000 -0.000  0.089 -0.000
 -0.000  0.000 -0.000 -0.000  0.317
N of occupied +U levels =  21.7800678
 --- exit write_ns ---

[...]

     total energy              =   -1564.12770272 Ry
     Harris-Foulkes estimate   =   -1564.12770273 Ry
     estimated scf accuracy    <       0.00000002 Ry

     iteration # 18     ecut=    40.00 Ry     beta=0.70
     Davidson diagonalization with overlap
     ethr =  7.42E-12,  avg # of iterations =  1.0

     negative rho (up, down):  0.106E+00 0.000E+00

     End of self-consistent calculation
 --- enter write_ns ---
 LDA+U parameters:
U( 2)     =  5.00000000
alpha( 2) =  0.00000000
atom    3   Tr[ns(na)] =   2.66729
    eigenvalues:
  0.142  0.165  0.184  0.394  0.448
    eigenvectors:
  0.022  0.736  0.065  0.166  0.012
  0.003  0.006  0.003  0.204  0.784
  0.645  0.001  0.353  0.000  0.000
  0.007  0.152  0.010  0.629  0.202
  0.324  0.106  0.568  0.000  0.002
    occupations:
  0.207  0.015 -0.004  0.088  0.002
  0.015  0.434  0.003 -0.030  0.013
 -0.004  0.003  0.157  0.007 -0.019
  0.088 -0.030  0.007  0.367 -0.002
  0.002  0.013 -0.019 -0.002  0.169
atom    4   Tr[ns(na)] =   2.74438
    eigenvalues:
  0.143  0.172  0.185  0.434  0.438
    eigenvectors:
  0.007  0.002  0.000  0.005  0.985
  0.002  0.776  0.219  0.000  0.003
  0.001  0.218  0.780  0.000  0.000
  0.990  0.003  0.000  0.000  0.007
  0.000  0.000  0.000  0.995  0.005
    occupations:
  0.435  0.014  0.005 -0.024 -0.000
  0.014  0.175 -0.005  0.000 -0.002
  0.005 -0.005  0.182  0.001 -0.000
 -0.024  0.000  0.001  0.145 -0.000
 -0.000 -0.002 -0.000 -0.000  0.434
atom    9   Tr[ns(na)] =   2.72474
    eigenvalues:
  0.143  0.182  0.197  0.393  0.448
    eigenvectors:
  0.000  0.000  0.893  0.107  0.000
  0.000  0.000  0.000  0.010  0.990
  0.991  0.009  0.000  0.000  0.000
  0.000  0.000  0.107  0.884  0.010
  0.009  0.991  0.000  0.000  0.000
    occupations:
  0.218  0.003 -0.000  0.061  0.000
  0.003  0.447  0.000 -0.007 -0.000
 -0.000  0.000  0.144 -0.000 -0.004
  0.061 -0.007 -0.000  0.372 -0.000
  0.000 -0.000 -0.004 -0.000  0.181
atom   10   Tr[ns(na)] =   2.64260
    eigenvalues:
  0.144  0.193  0.211  0.321  0.453
    eigenvectors:
  0.020  0.000  0.000  0.980  0.000
  0.000  0.000  1.000  0.000  0.000
  0.000  1.000  0.000  0.000  0.000
  0.980  0.000  0.000  0.020  0.000
  0.000  0.000  0.000  0.000  1.000
    occupations:
  0.317 -0.000 -0.000 -0.025 -0.000
 -0.000  0.211 -0.000  0.000 -0.000
 -0.000 -0.000  0.193 -0.000  0.000
 -0.025  0.000 -0.000  0.148  0.000
 -0.000 -0.000  0.000  0.000  0.453
atom   16   Tr[ns(na)] =   2.66739
    eigenvalues:
  0.142  0.165  0.184  0.394  0.448
    eigenvectors:
  0.021  0.735  0.065  0.166  0.012
  0.002  0.006  0.004  0.204  0.784
  0.645  0.001  0.353  0.000  0.000
  0.007  0.151  0.011  0.629  0.202
  0.324  0.107  0.567  0.001  0.002
    occupations:
  0.207 -0.015 -0.004  0.088 -0.003
 -0.015  0.434 -0.003  0.030  0.013
 -0.004 -0.003  0.157  0.007  0.019
  0.088  0.030  0.007  0.367  0.001
 -0.003  0.013  0.019  0.001  0.169
atom   17   Tr[ns(na)] =   2.74094
    eigenvalues:
  0.143  0.172  0.186  0.430  0.440
    eigenvectors:
  0.007  0.002  0.000  0.001  0.990
  0.002  0.800  0.196  0.000  0.002
  0.001  0.195  0.804  0.000  0.000
  0.991  0.003  0.000  0.000  0.007
  0.000  0.000  0.000  0.999  0.001
    occupations:
  0.437  0.013  0.005 -0.024 -0.000
  0.013  0.175 -0.005  0.000 -0.002
  0.005 -0.005  0.183  0.001 -0.000
 -0.024  0.000  0.001  0.145 -0.000
 -0.000 -0.002 -0.000 -0.000  0.430
atom   22   Tr[ns(na)] =   2.72470
    eigenvalues:
  0.143  0.182  0.197  0.393  0.448
    eigenvectors:
  0.000  0.000  0.893  0.107  0.000
  0.000  0.000  0.000  0.009  0.990
  0.991  0.009  0.000  0.000  0.000
  0.000  0.000  0.107  0.884  0.010
  0.009  0.991  0.000  0.000  0.000
    occupations:
  0.218 -0.003  0.000  0.061  0.000
 -0.003  0.447 -0.000  0.007 -0.000
  0.000 -0.000  0.144 -0.000  0.004
  0.061  0.007 -0.000  0.372 -0.000
  0.000 -0.000  0.004 -0.000  0.181
atom   23   Tr[ns(na)] =   2.87014
    eigenvalues:
  0.088  0.283  0.301  0.317  0.446
    eigenvectors:
  0.003  0.000  0.000  0.000  0.997
  0.000  0.000  1.000  0.000  0.000
  0.000  1.000  0.000  0.000  0.000
  0.997  0.000  0.000  0.000  0.003
  0.000  0.000  0.000  1.000  0.000
    occupations:
  0.445 -0.000 -0.000 -0.021 -0.000
 -0.000  0.301  0.000 -0.000  0.000
 -0.000  0.000  0.283 -0.000 -0.000
 -0.021 -0.000 -0.000  0.089 -0.000
 -0.000  0.000 -0.000 -0.000  0.317
N of occupied +U levels =  21.7821724
 --- exit write_ns ---

[...]

          k = 0.2500-0.4516 0.0000 ( 29882 PWs)   bands (ev):

[...]

          k =-0.2500 0.2258 0.0000 ( 29912 PWs)   bands (ev):

   -61.6592 -61.6337 -61.4384 -60.8498 -60.8223 -60.4050 -60.3785 -59.6256
   -38.0465 -37.8587 -37.8245 -37.8116 -37.7900 -37.7482 -37.7272 -37.5702
   -37.5680 -37.3306 -37.1329 -37.0640 -37.0293 -36.9240 -36.9013 -36.7392
   -36.6625 -36.6405 -36.6109 -36.5458 -36.4398 -35.9461 -35.9424 -35.8885
   -22.0295 -21.7808 -20.9840 -20.8010 -20.3167 -20.2820 -20.2562 -20.1918
   -19.9626 -19.9203 -19.8049 -19.7550 -19.6667 -19.5868 -19.3363 -19.2026
   -18.9139 -18.7261 -17.9606  -9.7500  -9.4938  -8.4571  -8.2524  -7.9515
    -7.7247  -7.5863  -7.5472  -7.5150  -7.4496  -7.3369  -7.2073  -7.1411
    -6.9819  -6.9664  -6.9165  -6.8207  -6.7813  -6.5742  -6.4976  -6.3893
    -6.2613  -6.1980  -6.0614  -5.8684  -5.7827  -5.7086  -5.6045  -5.5264
    -5.4943  -5.4292  -5.3984  -5.3265  -5.2235  -5.1818  -5.1136  -5.0557
    -4.9268  -4.8523  -4.8120  -4.6728  -4.5943  -4.4082  -4.3022  -4.2170
    -4.1985  -4.1348  -4.0741  -3.9878  -3.9322  -3.7782  -3.6534  -3.5755
    -3.5588  -3.5116  -3.4522  -3.3135  -0.6689  -0.5512  -0.4405  -0.3559
    -0.2140  -0.0793   0.0466   0.0984   0.1294   0.2490   0.3733   0.4639
     0.5090   0.5533   0.7078   0.8666   0.9109   0.9744   1.0442   1.0981
     1.1882   1.2688   1.3045   1.3976   1.4788   1.5187   1.6644   1.7935
     1.9885   2.0834   2.1516   2.3949   2.5703   2.6160   2.6782   2.8021
     2.9431   3.0156   3.1104   3.1968   3.2935   4.1295   4.4177   4.6296
     4.7182   4.9283   5.2284   5.8619   5.9525   6.0173   6.0476   6.3643
     6.4567   6.6224   6.7642   6.9459   7.0237   7.1554   7.2765   7.4262
     7.5758   7.6423   7.7283   7.8724   7.9420   8.0225   8.1705   8.3770
     8.5269   8.5565   8.6849   8.7635   9.0280   9.1430   9.1678   9.2922
     9.3146   9.4574   9.5273   9.5658   9.6651   9.8076   9.8860   9.9511
    10.0156  10.3064  10.3495  10.3846  10.5255  10.5915  10.7125  10.7470
    10.8491  10.9377  10.9878  11.1033  11.1326  11.2256  11.2989  11.3449
    11.4490  11.4576  11.5069  11.6592  11.6941  11.8076  11.9159  11.9384
    11.9892  12.0786  12.1286  12.1882  12.3316  12.3862  12.4461  12.4803
    12.5993  12.6902  12.7232  12.8231  12.8645  12.9346  13.0062  13.0862
    13.2227  13.2684  13.2945  13.4073  13.4449  13.4990  13.5728  13.6250
    13.7086  13.7303  13.8837  13.9366  14.0162  14.1074  14.1755  14.2368
    14.3632  14.4307  14.5121  14.5405  14.6661  14.7228  14.8157  14.9090
    14.9999  15.1146  15.1843  15.2476  15.2908  15.3888  15.4331  15.5290
    15.5923  15.6275  15.7486  15.7757  15.8340  15.9259  15.9542  16.0178
    16.1386  16.1988  16.2577  16.3642  16.4541  16.5558  16.6353  16.6763
    16.7545  16.8161  16.9062  16.9474  16.9880  17.0575  17.1190  17.1582
    17.2469  17.2614  17.3678  17.4658  17.5677  17.5953  17.6823  17.7250
    17.7682  17.8297  17.8837  18.0416  18.0631  18.1678  18.2018  18.2781
    18.3788  18.4961  18.5964  18.6387  18.6672

     the Fermi energy is    -3.3915 ev

!    total energy              =   -1564.12770272 Ry
     Harris-Foulkes estimate   =   -1564.12770272 Ry
     estimated scf accuracy    <          5.6E-09 Ry

     The total energy is the sum of the following terms:

     one-electron contribution =  -18276.15651763 Ry
     hartree contribution      =    9150.81472263 Ry
     xc contribution           =    -276.44289583 Ry
     ewald contribution        =    7834.97163296 Ry
     Hubbard energy            =       2.68505583 Ry
     smearing contrib. (-TS)   =       0.00029931 Ry

     convergence has been achieved in  18 iterations

     Forces acting on atoms (Ry/au):

     negative rho (up, down):  0.106E+00 0.000E+00
     atom    1 type  1   force =    -0.00243894   -0.01177704   -0.00003222
     atom    2 type  1   force =     0.00007003    0.01386373    0.00028026
     atom    3 type  2   force =     0.05689662   -0.00644548    0.00050638
     atom    4 type  2   force =     0.00065374    0.00738284   -0.00044799
     atom    5 type  1   force =    -0.00349427   -0.06840994   -0.00040339
     atom    6 type  1   force =    -0.00569026    0.06793127   -0.00062091
     atom    7 type  1   force =     0.00000207    0.00023676    0.00038694
     atom    8 type  1   force =     0.00069878   -0.00164754    0.00014548
     atom    9 type  2   force =     0.01271383    0.00042571    0.00053153
     atom   10 type  2   force =     0.00001020   -0.00013767   -0.00004008
     atom   11 type  1   force =    -0.02854548   -0.00382924    0.00021478
     atom   12 type  1   force =    -0.02886969    0.00414804    0.00021329
     atom   13 type  1   force =     0.00005354    0.00005374   -0.00053137
     atom   14 type  1   force =    -0.00323392   -0.01175501   -0.00000583
     atom   15 type  1   force =     0.00008330    0.01181653   -0.00004690
     atom   16 type  2   force =    -0.05668133   -0.00666151    0.00051450
     atom   17 type  2   force =     0.00043251    0.00702020   -0.00044523
     atom   18 type  1   force =     0.00677219   -0.06818019   -0.00040489
     atom   19 type  1   force =     0.00554089    0.06825562   -0.00053758
     atom   20 type  1   force =    -0.00012466   -0.00043616    0.00081218
     atom   21 type  1   force =     0.00078178   -0.00143204    0.00052676
     atom   22 type  2   force =    -0.01291348    0.00003825    0.00053271
     atom   23 type  2   force =     0.00001846   -0.00020637   -0.00020641
     atom   24 type  1   force =     0.02890576   -0.00382278    0.00018498
     atom   25 type  1   force =     0.02844501    0.00404784    0.00024201
     atom   26 type  1   force =     0.00010798   -0.00017602   -0.00006024
     atom   27 type  3   force =     0.00000910   -0.00022287   -0.00018184
     atom   28 type  3   force =    -0.00000484   -0.00012742   -0.00042370
     atom   29 type  3   force =    -0.00004343    0.00007942   -0.00006584
     atom   30 type  3   force =    -0.00015491   -0.00002604   -0.00042860
     atom   31 type  1   force =    -0.00000057   -0.00000664   -0.00020878

     Total force =     0.002176     Total SCF correction =     0.000177

     bfgs converged in  20 scf cycles and  19 bfgs steps
     (criteria: energy < 0.10E-03, force < 0.10E-02)

     End of BFGS Geometry Optimization

     Final energy   =   -1564.1277027201 Ry
Begin final coordinates

ATOMIC_POSITIONS (crystal)
O0       0.000000000   0.000000000   0.375547505    0   0   1
O0       0.000000000   0.500000000   0.395993817    0   0   1
Ti1      0.250000000   0.500000000   0.448881026    0   0   1
Ti1      0.000000000   0.000000000   0.450028542    0   0   1
O0       0.250000000   0.810000000   0.448102441    0   0   1
O0       0.250000000   0.190000000   0.449068234    0   0   1
O0       0.000000000   0.500000000   0.497472249    0   0   1
O0       0.000000000   0.000000000   0.525752614    0   0   1
Ti1      0.250000000   0.000000000   0.579706112    0   0   1
Ti1      0.000000000   0.500000000   0.569628980    0   0   1
O0       0.250000000   0.690000000   0.582669007    0   0   1
O0       0.250000000   0.310000000   0.582645225    0   0   1
O0       0.000000000   0.000000000   0.623775063    0   0   1
O0       0.500000000   0.000000000   0.375677377    0   0   1
O0       0.500000000   0.500000000   0.395247779    0   0   1
Ti1      0.750000000   0.500000000   0.448882900    0   0   1
Ti1      0.500000000   0.000000000   0.450287247    0   0   1
O0       0.750000000   0.810000000   0.448107799    0   0   1
O0       0.750000000   0.190000000   0.449027639    0   0   1
O0       0.500000000   0.500000000   0.491615170    0   0   1
O0       0.500000000   0.000000000   0.525414366    0   0   1
Ti1      0.750000000   0.000000000   0.579699926    0   0   1
Ti1      0.500000000   0.500000000   0.604137161    0   0   1
O0       0.750000000   0.690000000   0.582694311    0   0   1
O0       0.750000000   0.310000000   0.582612948    0   0   1
O0       0.500000000   0.000000000   0.622138609    0   0   1
H2      -0.000423401   0.624663984   0.375181947
H2       0.499657928   0.624995449   0.374579717
H2       0.149931779   0.035059663   0.361907099
H2       0.649570800   0.035836789   0.362012046
O0       0.500028970   0.499947744   0.667545143
End final coordinates

     General routines

     Parallel routines
     Hubbard U routines

   This run was terminated on:   9: 5:12  29Apr2014

   JOB DONE.
Running PBS batch system epilogue script
Job id: 340511.audhumbla.fysik.dtu.dk
Username: zhonxu
Groupname: campgst
Jobname: TiO2/Eads-2-layers/O-U-5.0
Sessionid: 30306
Queuename: verylong
Accounting:
This job has allocated the following 16 nodes:
d081 d081 d081 d081 d081 d081 d081 d081 d068 d068 d068 d068 d068 d068 d068 d068
Finished epilogue job 340511.audhumbla.fysik.dtu.dk for zhonxu