     Program PWSCF v.5.0.2 (svn rev. 9656) starts on 14May2014 at  7: 4: 0

     Current dimensions of program PWSCF are:
     Max number of different atomic species (ntypx) = 10
     Max number of k-points (npk) =  40000
     Max angular momentum in pseudopotentials (lmaxx) =  3
     Reading input from pwscf.in
Warning: card &CELL ignored
Warning: card / ignored

     Subspace diagonalization in iterative solution of the eigenvalue problem:
     a serial algorithm will be used

     bravais-lattice index     =            0
     lattice parameter (alat)  =      11.7541  a.u.
     unit-cell volume          =    7139.8207 (a.u.)^3
     number of atoms/cell      =           33
     number of atomic types    =            3
     number of electrons       =       245.00
     number of Kohn-Sham states=          367
     kinetic-energy cutoff     =      40.0000  Ry
     charge density cutoff     =     500.0000  Ry
     convergence threshold     =      1.0E-06
     mixing beta               =       0.3000
     number of iterations used =            8  plain     mixing
     Exchange-correlation      = SLA  PW   PBE  PBE ( 1 4 3 4 0)
     EXX-fraction              =        0.00
     nstep                     =           50

     celldm(1)=  11.754097  celldm(2)=   0.000000  celldm(3)=   0.000000
     celldm(4)=   0.000000  celldm(5)=   0.000000  celldm(6)=   0.000000

     crystal axes: (cart. coord. in units of alat)
               a(1) = (   1.000000   0.000000   0.000000 )
               a(2) = (   0.000000   1.034513   0.000000 )
               a(3) = (   0.000000   0.000000   4.249947 )

     reciprocal axes: (cart. coord. in units 2 pi/alat)
               b(1) = (  1.000000  0.000000  0.000000 )
               b(2) = (  0.000000  0.966638  0.000000 )
               b(3) = (  0.000000  0.000000  0.235297 )

     PseudoPot. # 1 for O  read from file:
     /home/camp/zhonxu/pseudo/o_pbe_v1.01.uspp.F.UPF
     MD5 check sum: 2bcb18d16ea4b960afae9ec6d52f22d2
     Pseudo is Ultrasoft + core correction, Zval =  6.0
     Generated by new atomic code, or converted to UPF format
     Using radial grid of  737 points,  5 beta functions with:
                l(1) =   0
                l(2) =   0
                l(3) =   1
                l(4) =   1
                l(5) =   2
     Q(r) pseudized with  8 coefficients,  rinner =    0.900   0.900   0.900
                                                       0.900   0.900

     PseudoPot. # 2 for Rh read from file:
     /home/camp/zhonxu/pseudo/rh_pbe_v1.uspp.F.UPF
     MD5 check sum: 37b626987ad0dd8ec6bf4cc9ef289918
     Pseudo is Ultrasoft + core correction, Zval = 15.0
     Generated by new atomic code, or converted to UPF format
     Using radial grid of  969 points,  7 beta functions with:
                l(1) =   0
                l(2) =   0
                l(3) =   1
                l(4) =   1
                l(5) =   2
                l(6) =   2
                l(7) =   2
     Q(r) pseudized with  6 coefficients,  rinner =    1.050   1.050   1.050
                                                       1.050   1.050

     PseudoPot. # 3 for H  read from file:
     /home/camp/zhonxu/pseudo/h_pbe_v1.uspp.F.UPF
     MD5 check sum: 3408e3ff4ec8b0a4e358431e7e038a48
     Pseudo is Ultrasoft, Zval =  1.0
     Generated by new atomic code, or converted to UPF format
     Using radial grid of  615 points,  2 beta functions with:
                l(1) =   0
                l(2) =   0
     Q(r) pseudized with  8 coefficients,  rinner =    0.700

     atomic species   valence    mass     pseudopotential
        O0             6.00    15.99940     O ( 1.00)
        Rh1           15.00   102.90550     Rh( 1.00)
        H2             1.00     1.00794     H ( 1.00)

     No symmetry found

   Cartesian axes

     site n.     atom                  positions (alat units)
         1           O0  tau(   1) = (   0.0000000   0.0000000   1.6092425  )
         2           O0  tau(   2) = (   0.0000000   0.5172566   1.7020614  )
         3           Rh1 tau(   3) = (   0.2500000   0.5172566   1.9209336  )
         4           Rh1 tau(   4) = (   0.0000000   0.0000000   1.9260761  )
         5           O0  tau(   5) = (   0.2500000   0.8379556   1.9243336  )
         6           O0  tau(   6) = (   0.2500000   0.1965575   1.9234411  )
         7           O0  tau(   7) = (   0.0000000   0.5172566   2.1185137  )
         8           O0  tau(   8) = (   0.0000000   0.0000000   2.2473721  )
         9           Rh1 tau(   9) = (   0.2500000   0.0000000   2.4498821  )
        10           Rh1 tau(  10) = (   0.0000000   0.5172566   2.4276124  )
        11           O0  tau(  11) = (   0.2500000   0.7138141   2.4560020  )
        12           O0  tau(  12) = (   0.2500000   0.3206991   2.4560870  )
        13           O0  tau(  13) = (   0.0000000   0.0000000   2.6421072  )
        14           O0  tau(  14) = (   0.5000000   0.0000000   1.6092425  )
        15           O0  tau(  15) = (   0.5000000   0.5172566   1.7020614  )
        16           Rh1 tau(  16) = (   0.7500000   0.5172566   1.9209336  )
        17           Rh1 tau(  17) = (   0.5000000   0.0000000   1.9260761  )
        18           O0  tau(  18) = (   0.7500000   0.8379556   1.9243336  )
        19           O0  tau(  19) = (   0.7500000   0.1965575   1.9234411  )
        20           O0  tau(  20) = (   0.5000000   0.5172566   2.1185137  )
        21           O0  tau(  21) = (   0.5000000   0.0000000   2.2473721  )
        22           Rh1 tau(  22) = (   0.7500000   0.0000000   2.4498821  )
        23           Rh1 tau(  23) = (   0.5000000   0.5172566   2.4276124  )
        24           O0  tau(  24) = (   0.7500000   0.7138141   2.4560020  )
        25           O0  tau(  25) = (   0.7500000   0.3206991   2.4560870  )
        26           O0  tau(  26) = (   0.5000000   0.0000000   2.6421072  )
        27           H2  tau(  27) = (  -0.0000700   0.6610229   1.6318947  )
        28           H2  tau(  28) = (   0.4999300   0.6610125   1.6318947  )
        29           H2  tau(  29) = (   0.1484400   0.0336527   1.5632581  )
        30           H2  tau(  30) = (   0.6484400   0.0336527   1.5632581  )
        31           O0  tau(  31) = (   0.4997300   0.5172566   2.7523933  )
        32           O0  tau(  32) = (   0.5003300   0.3299580   2.8682469  )
        33           H2  tau(  33) = (   0.4999300   0.3775663   3.0198000  )

     number of k points=    10  Methfessel-Paxton smearing, width (Ry)=  0.0100
                       cart. coord. in units 2pi/alat
        k(    1) = (   0.0000000   0.0000000   0.0000000), wk =   0.1250000
        k(    2) = (   0.0000000   0.2416596   0.0000000), wk =   0.2500000
        k(    3) = (   0.0000000  -0.4833191   0.0000000), wk =   0.1250000
        k(    4) = (   0.2500000   0.0000000   0.0000000), wk =   0.2500000
        k(    5) = (   0.2500000   0.2416596   0.0000000), wk =   0.2500000
        k(    6) = (   0.2500000  -0.4833191   0.0000000), wk =   0.2500000
        k(    7) = (  -0.5000000   0.0000000   0.0000000), wk =   0.1250000
        k(    8) = (  -0.5000000   0.2416596   0.0000000), wk =   0.2500000
        k(    9) = (  -0.5000000  -0.4833191   0.0000000), wk =   0.1250000
        k(   10) = (  -0.2500000   0.2416596   0.0000000), wk =   0.2500000

     Largest allocated arrays     est. size (Mb)     dimensions
     Largest temporary arrays     est. size (Mb)     dimensions

     Check: negative/imaginary core charge=   -0.000003    0.000000

     Initial potential from superposition of free atoms
     Check: negative starting charge=   -0.642745

     starting charge  240.99914, renormalised to  245.00000

     negative rho (up, down):  0.653E+00 0.000E+00
     Starting wfc are  181 randomized atomic wfcs

     Self-consistent Calculation

     iteration #  1     ecut=    40.00 Ry     beta=0.30
     Davidson diagonalization with overlap
     ethr =  1.00E-02,  avg # of iterations =  6.0

     negative rho (up, down):  0.662E+00 0.000E+00

     total energy              =   -2009.93766790 Ry
     Harris-Foulkes estimate   =   -2016.71956398 Ry
     estimated scf accuracy    <      14.80443501 Ry

[...]

     End of self-consistent calculation

          k = 0.0000 0.0000 0.0000 ( 30479 PWs)   bands (ev):

   -48.8686 -48.8478 -48.8421 -48.8365 -48.8276 -48.7993 -48.7889 -48.7304
   -48.7086 -48.6616 -48.6466 -48.6128 -48.5969 -48.5668 -48.5513 -48.5357
   -48.5309 -48.5026 -48.4384 -48.4221 -48.4119 -48.3953 -48.3942 -48.3291
   -24.7149 -20.9562 -20.5230 -20.4461 -20.3334 -19.8934 -19.7342 -19.6894
   -19.5969 -19.5700 -19.5531 -19.4543 -19.3944 -19.3471 -19.1176 -19.0717
   -19.0208 -18.3256 -18.1829 -17.1241  -9.4326  -9.2670  -9.1916  -8.9543
    -8.3381  -8.1417  -8.0601  -8.0375  -7.9585  -7.9225  -7.8475  -7.8311
    -7.7186  -7.5768  -7.5459  -7.4819  -7.3925  -7.3392  -7.2199  -7.1027
    -6.9334  -6.7979  -6.6451  -6.5025  -6.4095  -6.3503  -5.9686  -5.9392
    -5.8314  -5.8024  -5.4617  -5.2807  -5.1592  -5.0740  -4.9226  -4.8462
    -4.7887  -4.7201  -4.7078  -4.6380  -4.5781  -4.5572  -4.4732  -4.2877
    -4.1928  -4.0819  -4.0641  -3.9969  -3.8925  -3.8374  -3.8283  -3.6295
    -3.5988  -3.2857  -3.2594  -3.2468  -3.0869  -3.0789  -3.0180  -2.9918
    -2.9277  -2.8045  -2.6919  -2.6602  -2.5524  -2.4977  -2.4850  -2.4502
    -2.3097  -2.2111  -1.9653  -1.8528  -1.8339  -1.6577  -1.5264  -1.3933
    -1.1462  -1.0819  -1.0095  -0.9504  -0.7502  -0.6597  -0.4866  -0.3713
     0.0436   0.7461   0.7636   0.9198   0.9887   1.1053   1.2116   1.4762
     1.7755   1.8230   2.3634   2.4096   2.4937   2.7811   2.8407   3.2447
     3.5490   4.0486   4.5762   4.6753   5.0934   5.6775   6.0163   6.3532
     6.5769   6.7626   7.0274   7.2328   7.2784   7.3508   7.3793   7.5138
     7.6044   7.7270   7.7791   7.9565   7.9710   8.1873   8.2840   8.3396
     8.4779   8.4945   8.5300   8.6707   8.7068   8.7990   8.8847   9.0180
     9.0967   9.1753   9.2248   9.3542   9.5300   9.6552   9.6993   9.8237
     9.8539   9.9690  10.1564  10.2536  10.4560  10.5328  10.5350  10.6668
    10.8183  10.9328  10.9789  10.9989  11.0395  11.0701  11.1659  11.2953
    11.3658  11.4618  11.4668  11.5292  11.5855  11.6487  11.6892  11.7917
    11.8504  11.8971  11.9699  11.9954  12.1202  12.2064  12.2464  12.2744
    12.3344  12.4019  12.4234  12.5055  12.5549  12.6472  12.7065  12.7663
    12.7784  12.8683  12.9003  13.0383  13.0847  13.1114  13.2149  13.2702
    13.5722  13.6617  13.7343  13.8266  13.8598  13.9003  13.9245  13.9657
    14.1219  14.2817  14.3459  14.4196  14.6026  14.6100  14.7243  14.7928
    14.8562  15.0698  15.2470  15.2924  15.3830  15.4517  15.5218  15.6224
    15.6476  15.7826  15.8449  15.9104  16.0646  16.1050  16.3065  16.3905
    16.4221  16.4713  16.6184  16.6757  16.8321  16.9898  17.1095  17.1342
    17.1628  17.2027  17.2327  17.3132  17.3924  17.5294  17.6045  17.6413
    17.7662  17.8357  17.9956  18.0772  18.1858  18.2991  18.3922  18.4136
    18.4715  18.5185  18.5356  18.6029  18.6600  18.7305  18.8227  18.8786
    18.8953  18.9501  18.9851  19.0196  19.0691  19.1447  19.2276  19.3022
[...]
     atom   23 type  2   force =     0.00003986   -0.02905905    0.10643437
     atom   24 type  1   force =     0.01283999    0.01081893   -0.01911499
     atom   25 type  1   force =     0.01416217   -0.01244719   -0.02297815
     atom   26 type  1   force =    -0.00108666   -0.02019007   -0.01171352
     atom   27 type  3   force =    -0.00000718   -0.00060794    0.00095212
     atom   28 type  3   force =    -0.00002394   -0.00008106    0.00096598
     atom   29 type  3   force =     0.00009643    0.00045134    0.00077738
     atom   30 type  3   force =     0.00010223    0.00038819    0.00079968
     atom   31 type  1   force =    -0.00051264    0.07956426    0.00047767
     atom   32 type  1   force =     0.00067798   -0.05322189    0.00012991
     atom   33 type  3   force =    -0.00017522    0.01525306   -0.00078495

     Total force =     0.151737     Total SCF correction =     0.001922

     BFGS Geometry Optimization

     number of scf cycles    =   1
     number of bfgs steps    =   0

     energy   new            =   -2013.6253352165 Ry

     new trust radius        =       0.1064343684 bohr
     new conv_thr            =       0.0000010000 Ry

ATOMIC_POSITIONS (crystal)
O0       0.000000000   0.000000000   0.378624101    0   0   1
O0       0.000000000   0.500000000   0.400586381    0   0   1
Rh1      0.250000000   0.500000000   0.451945007    0   0   1
Rh1      0.000000000   0.000000000   0.453192764    0   0   1
O0       0.250000000   0.810000000   0.452760615    0   0   1
O0       0.250000000   0.190000000   0.452558608    0   0   1
O0       0.000000000   0.500000000   0.498479959    0   0   1
O0       0.000000000   0.000000000   0.528818858    0   0   1
Rh1      0.250000000   0.000000000   0.576470953    0   0   1
Rh1      0.000000000   0.500000000   0.571280125    0   0   1
O0       0.250000000   0.690000000   0.577507815    0   0   1
O0       0.250000000   0.310000000   0.577449248    0   0   1
O0       0.000000000   0.000000000   0.621744953    0   0   1
O0       0.500000000   0.000000000   0.378625212    0   0   1
O0       0.500000000   0.500000000   0.400481811    0   0   1
Rh1      0.750000000   0.500000000   0.451944690    0   0   1
Rh1      0.500000000   0.000000000   0.453200650    0   0   1
O0       0.750000000   0.810000000   0.452761406    0   0   1
O0       0.750000000   0.190000000   0.452558360    0   0   1
O0       0.500000000   0.500000000   0.498134072    0   0   1
O0       0.500000000   0.000000000   0.528832883    0   0   1
Rh1      0.750000000   0.000000000   0.576471595    0   0   1
Rh1      0.500000000   0.500000000   0.573340635    0   0   1
O0       0.750000000   0.690000000   0.577507350    0   0   1
O0       0.750000000   0.310000000   0.577450016    0   0   1
O0       0.500000000   0.000000000   0.621445515    0   0   1
H2      -0.000070611   0.638920004   0.383999060
H2       0.499927963   0.638953334   0.383999337
H2       0.148448204   0.032567117   0.367845562
H2       0.648448697   0.032561924   0.367846008
O0       0.499730000   0.506543239   0.647639562    0   1   1
O0       0.500330000   0.314573116   0.674892601    0   1   1
H2       0.499930000   0.366224388   0.710534287    0   1   1

     Check: negative starting charge=   -0.642745
     NEW-OLD atomic charge density approx. for the potential

     Check: negative/imaginary core charge=   -0.000003    0.000000
     Check: negative starting charge=   -0.642874

[...]

     energy   old            =   -2013.6253352165 Ry
     energy   new            =   -2013.6419609639 Ry

     CASE: energy  _new < energy  _old

[...]

     Threshold (ethr) on eigenvalues was too large:
     Diagonalizing with lowered threshold

     Davidson diagonalization with overlap
     ethr =  5.46E-08,  avg # of iterations =  2.0

[...]

     Total force =     0.002067     Total SCF correction =     0.000278
     SCF correction compared to forces is large: reduce conv_thr to get better values

     number of scf cycles    =  28
     number of bfgs steps    =  27

     energy   old            =   -2013.6603305338 Ry
     energy   new            =   -2013.6603401405 Ry

     CASE: energy  _new < energy  _old

     new trust radius        =       0.0035235788 bohr
     new conv_thr            =       0.0000000100 Ry

ATOMIC_POSITIONS (crystal)
O0       0.000000000   0.000000000   0.377791645    0   0   1
O0       0.000000000   0.500000000   0.401369813    0   0   1
Rh1      0.250000000   0.500000000   0.452847964    0   0   1
Rh1      0.000000000   0.000000000   0.452372087    0   0   1
O0       0.250000000   0.810000000   0.452158999    0   0   1
O0       0.250000000   0.190000000   0.452020426    0   0   1
O0       0.000000000   0.500000000   0.498426260    0   0   1
O0       0.000000000   0.000000000   0.527854176    0   0   1
Rh1      0.250000000   0.000000000   0.575123831    0   0   1
Rh1      0.000000000   0.500000000   0.570573677    0   0   1
O0       0.250000000   0.690000000   0.574675016    0   0   1
O0       0.250000000   0.310000000   0.577105000    0   0   1
O0       0.000000000   0.000000000   0.620555370    0   0   1
O0       0.500000000   0.000000000   0.377847309    0   0   1
O0       0.500000000   0.500000000   0.401549514    0   0   1
Rh1      0.750000000   0.500000000   0.452842592    0   0   1
Rh1      0.500000000   0.000000000   0.452371222    0   0   1
O0       0.750000000   0.810000000   0.452130135    0   0   1
O0       0.750000000   0.190000000   0.452060161    0   0   1
O0       0.500000000   0.500000000   0.500113327    0   0   1
O0       0.500000000   0.000000000   0.527731521    0   0   1
Rh1      0.750000000   0.000000000   0.575118322    0   0   1
Rh1      0.500000000   0.500000000   0.578054967    0   0   1
O0       0.750000000   0.690000000   0.574666956    0   0   1
O0       0.750000000   0.310000000   0.577096169    0   0   1
O0       0.500000000   0.000000000   0.620022597    0   0   1
H2       0.000053332   0.638742905   0.384829898
H2       0.499920715   0.638835718   0.384985415
H2       0.147773879   0.035961304   0.367148285
H2       0.648437177   0.033462069   0.367173538
O0       0.499730000   0.537122657   0.650623668    0   1   1
O0       0.500330000   0.345423246   0.678455135    0   1   1
H2       0.499930000   0.402161374   0.713235004    0   1   1

     Check: negative starting charge=   -0.646059
     NEW-OLD atomic charge density approx. for the potential

     Check: negative/imaginary core charge=   -0.000003    0.000000
     Check: negative starting charge=   -0.646065

[...]

     Self-consistent Calculation

[...]

     Threshold (ethr) on eigenvalues was too large:
     Diagonalizing with lowered threshold

     Davidson diagonalization with overlap
     ethr =  4.07E-09,  avg # of iterations =  4.0

[...]

     total energy              =   -2013.66034527 Ry
     Harris-Foulkes estimate   =   -2013.66034527 Ry
     estimated scf accuracy    <       0.00000008 Ry

     iteration # 15     ecut=    40.00 Ry     beta=0.30
     Davidson diagonalization with overlap
     ethr =  5.67E-12,  avg # of iterations =  1.0

     negative rho (up, down):  0.695E+00 0.000E+00

     End of self-consistent calculation

[...]

          k = 0.2500-0.4833 0.0000 ( 30510 PWs)   bands (ev):

[...]

          k =-0.2500 0.2417 0.0000 ( 30481 PWs)   bands (ev):

   -48.9820 -48.9311 -48.9247 -48.8878 -48.8681 -48.8650 -48.8405 -48.8043
   -48.7841 -48.7746 -48.7303 -48.7199 -48.7042 -48.6944 -48.6099 -48.6058
   -48.5623 -48.5345 -48.5141 -48.5084 -48.4941 -48.4843 -48.4816 -48.4690
   -23.9291 -20.8933 -20.5901 -20.3796 -20.2651 -20.1237 -19.8583 -19.7907
   -19.6533 -19.6181 -19.5172 -19.4367 -19.4007 -19.3523 -19.2410 -19.1719
   -19.1252 -18.4077 -18.2626 -17.4231  -9.0316  -8.9345  -8.7580  -8.7067
    -8.5327  -8.1390  -8.0677  -8.0614  -8.0338  -7.9772  -7.9036  -7.8524
    -7.8183  -7.6896  -7.6101  -7.4423  -7.2664  -7.2359  -7.1694  -6.9903
    -6.8661  -6.7012  -6.5834  -6.5507  -6.4743  -6.3024  -5.9865  -5.8782
    -5.7580  -5.7422  -5.6284  -5.5622  -5.5219  -5.4543  -5.3829  -5.3521
    -5.3189  -5.1499  -5.0702  -5.0005  -4.9150  -4.8128  -4.6655  -4.5977
    -4.3504  -4.3270  -4.2267  -4.1379  -4.0387  -3.9760  -3.8764  -3.7488
    -3.6691  -3.5530  -3.4453  -3.1560  -3.0489  -2.9618  -2.8950  -2.8154
    -2.6373  -2.6147  -2.5586  -2.5116  -2.4705  -2.3697  -2.3054  -2.2533
    -2.1865  -2.1623  -2.1058  -1.9862  -1.8232  -1.6359  -1.4272  -1.3303
    -1.2842  -1.2495  -1.1047  -0.9924  -0.8884  -0.7905  -0.7176  -0.3826
     0.1180   0.2116   0.4164   0.8587   0.9959   1.3318   1.4136   1.7023
     1.8141   1.9805   2.0329   2.1927   2.3092   2.3747   2.6638   3.3699
     3.9445   4.1317   4.5500   5.0646   5.2858   5.5880   5.9461   5.9565
     6.0274   6.2770   6.4179   6.5673   6.6003   6.9262   6.9842   7.2281
     7.4267   7.5590   7.7462   7.8500   7.8953   8.2242   8.2604   8.2894
     8.3734   8.4416   8.6795   8.7632   8.8944   9.0112   9.1003   9.1778
     9.2505   9.3967   9.5116   9.6201   9.7764   9.8412   9.9308   9.9680
    10.0634  10.1835  10.2605  10.3572  10.4488  10.5529  10.5969  10.6743
    10.7607  10.9039  10.9880  11.1135  11.1625  11.1997  11.2812  11.3419
    11.4736  11.5074  11.6491  11.6968  11.7355  11.7879  11.8534  11.9504
    12.0012  12.1312  12.2045  12.3100  12.3524  12.4538  12.5265  12.5630
    12.6049  12.6946  12.7619  12.8179  12.9102  12.9612  13.0581  13.1611
    13.2533  13.3405  13.4185  13.5168  13.5907  13.6610  13.7606  13.8071
    13.8266  13.9479  13.9908  14.1074  14.1840  14.2798  14.3279  14.3775
    14.4631  14.5003  14.5391  14.6757  14.7326  14.7907  14.9119  14.9944
    15.0429  15.1284  15.2498  15.3385  15.4480  15.5116  15.5354  15.6054
    15.7031  15.7275  15.7767  15.8367  15.9337  15.9823  16.0273  16.0718
    16.1446  16.1778  16.3282  16.3693  16.4129  16.4683  16.5325  16.5835
    16.6132  16.6870  16.7453  16.8071  16.8771  16.9913  17.0554  17.1450
    17.2180  17.2397  17.3050  17.3742  17.4517  17.4759  17.5513  17.6158
    17.7065  17.7346  17.7796  17.8999  17.9360  17.9965  18.0845  18.1110
    18.2062  18.2346  18.3366  18.4185  18.4958  18.6283  18.6620  18.7085
    18.8704  18.9230  18.9818  19.0210  19.0547  19.1625  19.2247  19.2654
    19.3244  19.3829  19.4711  19.5462  19.5984  19.6830  19.7313  19.8686
    19.9205  19.9671  20.0742  20.1239  20.1844  20.3147  20.3905  20.4635
    20.5430  20.6166  20.7000  20.7487  20.7870  20.8444  20.9009  20.9876
    21.0700  21.1265  21.1837  21.2221  21.2503  21.3540  21.3862  21.4634
    21.5127  21.5726  21.6486  21.6883  21.7430  21.8014  21.8337  21.9475
    22.0228  22.0545  22.0965  22.1762  22.2959  22.3360  22.4144  22.4380
    22.4958  22.5660  22.6695  22.6978  22.7765  22.8541  22.9107

     the Fermi energy is    -1.1553 ev

!    total energy              =   -2013.66034527 Ry
     Harris-Foulkes estimate   =   -2013.66034527 Ry
     estimated scf accuracy    <          3.0E-09 Ry

     The total energy is the sum of the following terms:

     one-electron contribution =  -23694.82297913 Ry
     hartree contribution      =   11901.48329996 Ry
     xc contribution           =    -379.80297753 Ry
     ewald contribution        =   10159.48275257 Ry
     smearing contrib. (-TS)   =      -0.00044115 Ry

     convergence has been achieved in  15 iterations

     Forces acting on atoms (Ry/au):

     negative rho (up, down):  0.695E+00 0.000E+00
     atom    1 type  1   force =    -0.00709320   -0.01355229   -0.00002585
     atom    2 type  1   force =     0.00021438    0.00645046    0.00006060
     atom    3 type  2   force =     0.02968032    0.00308269   -0.00001156
     atom    4 type  2   force =     0.00807345    0.00858442    0.00008560
     atom    5 type  1   force =    -0.00161013   -0.03262791   -0.00011905
     atom    6 type  1   force =     0.00070959    0.03028896    0.00007223
     atom    7 type  1   force =    -0.00017621   -0.00314382    0.00028816
     atom    8 type  1   force =    -0.00267020    0.00076570    0.00024659
     atom    9 type  2   force =     0.00543014    0.00157331    0.00024420
     atom   10 type  2   force =    -0.00012620   -0.00098448    0.00030794
     atom   11 type  1   force =    -0.01210612    0.01360738   -0.00032192
     atom   12 type  1   force =    -0.00646307   -0.00764046    0.00000710
     atom   13 type  1   force =    -0.00083173   -0.00292623    0.00013933
     atom   14 type  1   force =    -0.00639825   -0.01359342   -0.00014264
     atom   15 type  1   force =     0.00013064    0.00675541    0.00011550
     atom   16 type  2   force =    -0.03009647    0.00323086   -0.00001407
     atom   17 type  2   force =     0.00806376    0.00942421   -0.00009411
     atom   18 type  1   force =     0.00047834   -0.03312158   -0.00010703
     atom   19 type  1   force =     0.00251389    0.02991774    0.00006494
     atom   20 type  1   force =    -0.00014361   -0.00486096   -0.00022719
     atom   21 type  1   force =    -0.00293463    0.00117910    0.00002760
     atom   22 type  2   force =    -0.00269885    0.00159284    0.00024324
     atom   23 type  2   force =    -0.00023588    0.00092399   -0.00061264
     atom   24 type  1   force =     0.01197736    0.01358018   -0.00032436
     atom   25 type  1   force =     0.00717123   -0.00775267    0.00001298
     atom   26 type  1   force =    -0.00098624   -0.01093905    0.00036953
     atom   27 type  3   force =    -0.00000882   -0.00004775   -0.00005899
     atom   28 type  3   force =    -0.00000565   -0.00008200   -0.00000023
     atom   29 type  3   force =     0.00003819   -0.00008839   -0.00004158
     atom   30 type  3   force =     0.00007369    0.00001487    0.00006149
     atom   31 type  1   force =    -0.00012938    0.00005781    0.00055913
     atom   32 type  1   force =     0.00016656    0.00008225   -0.00042634
     atom   33 type  3   force =    -0.00000689    0.00024882   -0.00037857

     Total force =     0.001408     Total SCF correction =     0.000085

     bfgs converged in  29 scf cycles and  28 bfgs steps
     (criteria: energy < 0.10E-03, force < 0.10E-02)

     End of BFGS Geometry Optimization

     Final energy   =   -2013.6603452659 Ry
Begin final coordinates

ATOMIC_POSITIONS (crystal)
O0       0.000000000   0.000000000   0.377791645    0   0   1
O0       0.000000000   0.500000000   0.401369813    0   0   1
Rh1      0.250000000   0.500000000   0.452847964    0   0   1
Rh1      0.000000000   0.000000000   0.452372087    0   0   1
O0       0.250000000   0.810000000   0.452158999    0   0   1
O0       0.250000000   0.190000000   0.452020426    0   0   1
O0       0.000000000   0.500000000   0.498426260    0   0   1
O0       0.000000000   0.000000000   0.527854176    0   0   1
Rh1      0.250000000   0.000000000   0.575123831    0   0   1
Rh1      0.000000000   0.500000000   0.570573677    0   0   1
O0       0.250000000   0.690000000   0.574675016    0   0   1
O0       0.250000000   0.310000000   0.577105000    0   0   1
O0       0.000000000   0.000000000   0.620555370    0   0   1
O0       0.500000000   0.000000000   0.377847309    0   0   1
O0       0.500000000   0.500000000   0.401549514    0   0   1
Rh1      0.750000000   0.500000000   0.452842592    0   0   1
Rh1      0.500000000   0.000000000   0.452371222    0   0   1
O0       0.750000000   0.810000000   0.452130135    0   0   1
O0       0.750000000   0.190000000   0.452060161    0   0   1
O0       0.500000000   0.500000000   0.500113327    0   0   1
O0       0.500000000   0.000000000   0.527731521    0   0   1
Rh1      0.750000000   0.000000000   0.575118322    0   0   1
Rh1      0.500000000   0.500000000   0.578054967    0   0   1
O0       0.750000000   0.690000000   0.574666956    0   0   1
O0       0.750000000   0.310000000   0.577096169    0   0   1
O0       0.500000000   0.000000000   0.620022597    0   0   1
H2       0.000053332   0.638742905   0.384829898
H2       0.499920715   0.638835718   0.384985415
H2       0.147773879   0.035961304   0.367148285
H2       0.648437177   0.033462069   0.367173538
O0       0.499730000   0.537122657   0.650623668    0   1   1
O0       0.500330000   0.345423246   0.678455135    0   1   1
H2       0.499930000   0.402161374   0.713235004    0   1   1
End final coordinates

     General routines

     Parallel routines

   This run was terminated on:  14: 8: 1  15May2014

   JOB DONE.
Running PBS batch system epilogue script
Job id: 359635.audhumbla.fysik.dtu.dk
Username: zhonxu
Groupname: campgst
Jobname: RhO2/Eads-2-layers/OOH-relax-surf
Sessionid: 27458
Queuename: verylong
Accounting:
This job has allocated the following 16 nodes:
d045 d045 d045 d045 d045 d045 d045 d045 d041 d041 d041 d041 d041 d041 d041 d041
Finished epilogue job 359635.audhumbla.fysik.dtu.dk for zhonxu