     Program PWSCF v.5.0.2 (svn rev. 9656) starts on 28Apr2014 at  9:56: 8

     Current dimensions of program PWSCF are:
     Max number of different atomic species (ntypx) = 10
     Max number of k-points (npk) =  40000
     Max angular momentum in pseudopotentials (lmaxx) =  3
     Reading input from pwscf.in
Warning: card &CELL ignored
Warning: card / ignored

     Subspace diagonalization in iterative solution of the eigenvalue problem:
     a serial algorithm will be used

     bravais-lattice index     =            0
     lattice parameter (alat)  =      11.2250  a.u.
     unit-cell volume          =    7005.5484 (a.u.)^3
     number of atoms/cell      =           31
     number of atomic types    =            3
     number of electrons       =       214.00
     number of Kohn-Sham states=          309
     kinetic-energy cutoff     =      40.0000  Ry
     charge density cutoff     =     500.0000  Ry
     convergence threshold     =      1.0E-06
     mixing beta               =       0.7000
     number of iterations used =            8  plain     mixing
     Exchange-correlation      = SLA  PW   PBE  PBE ( 1 4 3 4 0)
     EXX-fraction              =        0.00
     nstep                     =           50

     celldm(1)=  11.224973  celldm(2)=   0.000000  celldm(3)=   0.000000
     celldm(4)=   0.000000  celldm(5)=   0.000000  celldm(6)=   0.000000

     crystal axes: (cart. coord. in units of alat)
               a(1) = (   1.000000   0.000000   0.000000 )
               a(2) = (   0.000000   1.107086   0.000000 )
               a(3) = (   0.000000   0.000000   4.474090 )

     reciprocal axes: (cart. coord. in units 2 pi/alat)
               b(1) = (  1.000000  0.000000  0.000000 )
               b(2) = (  0.000000  0.903272  0.000000 )
               b(3) = (  0.000000  0.000000  0.223509 )

     PseudoPot. # 1 for O  read from file:
     /home/camp/zhonxu/pseudo/o_pbe_v1.01.uspp.F.UPF
     MD5 check sum: 2bcb18d16ea4b960afae9ec6d52f22d2
     Pseudo is Ultrasoft + core correction, Zval =  6.0
     Generated by new atomic code, or converted to UPF format
     Using radial grid of  737 points,  5 beta functions with:
                l(1) =   0
                l(2) =   0
                l(3) =   1
                l(4) =   1
                l(5) =   2
     Q(r) pseudized with  8 coefficients,  rinner =    0.900   0.900   0.900
                                                       0.900   0.900

     PseudoPot. # 2 for Ti read from file:
     /home/camp/zhonxu/pseudo/ti_pbe_v1.uspp.F.UPF
     MD5 check sum: bcc8f6961b3b91f0cac3ca967d22d0fb
     Pseudo is Ultrasoft + core correction, Zval = 12.0
     Generated by new atomic code, or converted to UPF format
     Using radial grid of  851 points,  6 beta functions with:
                l(1) =   0
                l(2) =   0
                l(3) =   1
                l(4) =   1
                l(5) =   2
                l(6) =   2
     Q(r) pseudized with  6 coefficients,  rinner =    1.000   1.000   1.000
                                                       1.000   1.000

     PseudoPot. # 3 for H  read from file:
     /home/camp/zhonxu/pseudo/h_pbe_v1.uspp.F.UPF
     MD5 check sum: 3408e3ff4ec8b0a4e358431e7e038a48
     Pseudo is Ultrasoft, Zval =  1.0
     Generated by new atomic code, or converted to UPF format
     Using radial grid of  615 points,  2 beta functions with:
                l(1) =   0
                l(2) =   0
     Q(r) pseudized with  8 coefficients,  rinner =    0.700

     atomic species   valence    mass     pseudopotential
        O0             6.00    15.99940     O ( 1.00)
        Ti1           12.00    47.88000     Ti( 1.00)
        H2             1.00     1.00794     H ( 1.00)

     Simplified LDA+U calculation (l_max = 2) with parameters (eV):
     atomic species    L          U    alpha       J0     beta
        Ti1            2     2.0000   0.0000   0.0000   0.0000

     No symmetry found

   Cartesian axes

     site n.     atom                  positions (alat units)
         1           O0  tau(   1) = (   0.0000000   0.0000000   1.6912507  )
         2           O0  tau(   2) = (   0.0000000   0.5535432   1.7801061  )
         3           Ti1 tau(   3) = (   0.2500000   0.5535432   2.0136983  )
         4           Ti1 tau(   4) = (   0.0000000   0.0000000   2.0256889  )
         5           O0  tau(   5) = (   0.2500000   0.8967400   2.0101638  )
         6           O0  tau(   6) = (   0.2500000   0.2103464   2.0140115  )
         7           O0  tau(   7) = (   0.0000000   0.5535432   2.2264413  )
         8           O0  tau(   8) = (   0.0000000   0.0000000   2.3510894  )
         9           Ti1 tau(   9) = (   0.2500000   0.0000000   2.5997146  )
        10           Ti1 tau(  10) = (   0.0000000   0.5535432   2.5433858  )
        11           O0  tau(  11) = (   0.2500000   0.7638896   2.5969406  )
        12           O0  tau(  12) = (   0.2500000   0.3431968   2.5970301  )
        13           O0  tau(  13) = (   0.0000000   0.0000000   2.7842260  )
        14           O0  tau(  14) = (   0.5000000   0.0000000   1.6905348  )
        15           O0  tau(  15) = (   0.5000000   0.5535432   1.7767953  )
        16           Ti1 tau(  16) = (   0.7500000   0.5535432   2.0136983  )
        17           Ti1 tau(  17) = (   0.5000000   0.0000000   2.0204542  )
        18           O0  tau(  18) = (   0.7500000   0.8967400   2.0103875  )
        19           O0  tau(  19) = (   0.7500000   0.2103464   2.0134299  )
        20           O0  tau(  20) = (   0.5000000   0.5535432   2.2001336  )
        21           O0  tau(  21) = (   0.5000000   0.0000000   2.3501946  )
        22           Ti1 tau(  22) = (   0.7500000   0.0000000   2.5996698  )
        23           Ti1 tau(  23) = (   0.5000000   0.5535432   2.6765794  )
        24           O0  tau(  24) = (   0.7500000   0.7638896   2.5974328  )
        25           O0  tau(  25) = (   0.7500000   0.3431968   2.5965380  )
        26           O0  tau(  26) = (   0.5000000   0.0000000   2.7806915  )
        27           H2  tau(  27) = (  -0.0007400   0.6861389   1.6797970  )
        28           H2  tau(  28) = (   0.4994200   0.6816995   1.6713410  )
        29           H2  tau(  29) = (   0.1486600   0.0377184   1.6265106  )
        30           H2  tau(  30) = (   0.6489300   0.0363456   1.6257052  )
        31           O0  tau(  31) = (   0.4999900   0.5533882   2.9590287  )

     number of k points=    10  Methfessel-Paxton smearing, width (Ry)=  0.0100
                       cart. coord. in units 2pi/alat
        k(    1) = (   0.0000000   0.0000000   0.0000000), wk =   0.1250000
        k(    2) = (   0.0000000   0.2258180   0.0000000), wk =   0.2500000
        k(    3) = (   0.0000000  -0.4516359   0.0000000), wk =   0.1250000
        k(    4) = (   0.2500000   0.0000000   0.0000000), wk =   0.2500000
        k(    5) = (   0.2500000   0.2258180   0.0000000), wk =   0.2500000
        k(    6) = (   0.2500000  -0.4516359   0.0000000), wk =   0.2500000
        k(    7) = (  -0.5000000   0.0000000   0.0000000), wk =   0.1250000
        k(    8) = (  -0.5000000   0.2258180   0.0000000), wk =   0.2500000
        k(    9) = (  -0.5000000  -0.4516359   0.0000000), wk =   0.1250000
        k(   10) = (  -0.2500000   0.2258180   0.0000000), wk =   0.2500000

     Largest allocated arrays     est. size (Mb)     dimensions
     Largest temporary arrays     est. size (Mb)     dimensions

     Check: negative/imaginary core charge=   -0.000006    0.000000

     Initial potential from superposition of free atoms
     Check: negative starting charge=   -0.102438

     starting charge  205.99958, renormalised to  214.00000

     negative rho (up, down):  0.106E+00 0.000E+00
     Number of +U iterations with fixed ns =  0
     Starting occupations:
 --- enter write_ns ---
 LDA+U parameters:
U( 2)     =  2.00000000
alpha( 2) =  0.00000000
atom    3   Tr[ns(na)] =   2.00000
    eigenvalues:
  0.200  0.200  0.200  0.200  0.200
    eigenvectors:
  1.000  0.000  0.000  0.000  0.000
  0.000  1.000  0.000  0.000  0.000
  0.000  0.000  1.000  0.000  0.000
  0.000  0.000  0.000  1.000  0.000
  0.000  0.000  0.000  0.000  1.000
    occupations:
  0.200  0.000  0.000  0.000  0.000
  0.000  0.200  0.000  0.000  0.000
  0.000  0.000  0.200  0.000  0.000
  0.000  0.000  0.000  0.200  0.000
  0.000  0.000  0.000  0.000  0.200
atom    4   Tr[ns(na)] =   2.00000
    eigenvalues:
  0.200  0.200  0.200  0.200  0.200
    eigenvectors:
  1.000  0.000  0.000  0.000  0.000
  0.000  1.000  0.000  0.000  0.000
  0.000  0.000  1.000  0.000  0.000
  0.000  0.000  0.000  1.000  0.000
  0.000  0.000  0.000  0.000  1.000
    occupations:
  0.200  0.000  0.000  0.000  0.000
  0.000  0.200  0.000  0.000  0.000
  0.000  0.000  0.200  0.000  0.000
  0.000  0.000  0.000  0.200  0.000
  0.000  0.000  0.000  0.000  0.200
atom    9   Tr[ns(na)] =   2.00000
    eigenvalues:
  0.200  0.200  0.200  0.200  0.200
    eigenvectors:
  1.000  0.000  0.000  0.000  0.000
  0.000  1.000  0.000  0.000  0.000
  0.000  0.000  1.000  0.000  0.000
  0.000  0.000  0.000  1.000  0.000
  0.000  0.000  0.000  0.000  1.000
    occupations:
  0.200  0.000  0.000  0.000  0.000
  0.000  0.200  0.000  0.000  0.000
  0.000  0.000  0.200  0.000  0.000
  0.000  0.000  0.000  0.200  0.000
  0.000  0.000  0.000  0.000  0.200
atom   10   Tr[ns(na)] =   2.00000
    eigenvalues:
  0.200  0.200  0.200  0.200  0.200
    eigenvectors:
  1.000  0.000  0.000  0.000  0.000
  0.000  1.000  0.000  0.000  0.000
  0.000  0.000  1.000  0.000  0.000
  0.000  0.000  0.000  1.000  0.000
  0.000  0.000  0.000  0.000  1.000
    occupations:
  0.200  0.000  0.000  0.000  0.000
  0.000  0.200  0.000  0.000  0.000
  0.000  0.000  0.200  0.000  0.000
  0.000  0.000  0.000  0.200  0.000
  0.000  0.000  0.000  0.000  0.200
atom   16   Tr[ns(na)] =   2.00000
    eigenvalues:
  0.200  0.200  0.200  0.200  0.200
    eigenvectors:
  1.000  0.000  0.000  0.000  0.000
  0.000  1.000  0.000  0.000  0.000
  0.000  0.000  1.000  0.000  0.000
  0.000  0.000  0.000  1.000  0.000
  0.000  0.000  0.000  0.000  1.000
    occupations:
  0.200  0.000  0.000  0.000  0.000
  0.000  0.200  0.000  0.000  0.000
  0.000  0.000  0.200  0.000  0.000
  0.000  0.000  0.000  0.200  0.000
  0.000  0.000  0.000  0.000  0.200
atom   17   Tr[ns(na)] =   2.00000
    eigenvalues:
  0.200  0.200  0.200  0.200  0.200
    eigenvectors:
  1.000  0.000  0.000  0.000  0.000
  0.000  1.000  0.000  0.000  0.000
  0.000  0.000  1.000  0.000  0.000
  0.000  0.000  0.000  1.000  0.000
  0.000  0.000  0.000  0.000  1.000
    occupations:
  0.200  0.000  0.000  0.000  0.000
  0.000  0.200  0.000  0.000  0.000
  0.000  0.000  0.200  0.000  0.000
  0.000  0.000  0.000  0.200  0.000
  0.000  0.000  0.000  0.000  0.200
atom   22   Tr[ns(na)] =   2.00000
    eigenvalues:
  0.200  0.200  0.200  0.200  0.200
    eigenvectors:
  1.000  0.000  0.000  0.000  0.000
  0.000  1.000  0.000  0.000  0.000
  0.000  0.000  1.000  0.000  0.000
  0.000  0.000  0.000  1.000  0.000
  0.000  0.000  0.000  0.000  1.000
    occupations:
  0.200  0.000  0.000  0.000  0.000
  0.000  0.200  0.000  0.000  0.000
[...]
  0.028  0.719  0.074  0.169  0.010
  0.003  0.005  0.004  0.181  0.808
  0.624  0.001  0.375  0.001  0.000
  0.009  0.149  0.012  0.649  0.181
  0.335  0.126  0.536  0.000  0.002
    occupations:
  0.231  0.012 -0.004  0.072  0.002
  0.012  0.419  0.003 -0.024  0.011
 -0.004  0.003  0.191  0.006 -0.017
  0.072 -0.024  0.006  0.361 -0.002
  0.002  0.011 -0.017 -0.002  0.200
atom    4   Tr[ns(na)] =   2.88578
    eigenvalues:
  0.170  0.206  0.221  0.420  0.427
    eigenvectors:
  0.006  0.003  0.000  0.001  0.990
  0.001  0.878  0.119  0.000  0.003
  0.000  0.118  0.881  0.000  0.000
  0.993  0.001  0.000  0.000  0.006
  0.000  0.000  0.000  0.999  0.001
    occupations:
  0.424  0.011  0.004 -0.020 -0.000
  0.011  0.208 -0.005  0.000 -0.002
  0.004 -0.005  0.219  0.000 -0.000
 -0.020  0.000  0.000  0.172 -0.000
 -0.000 -0.002 -0.000 -0.000  0.420
atom    9   Tr[ns(na)] =   2.87092
    eigenvalues:
  0.174  0.214  0.233  0.385  0.429
    eigenvectors:
  0.000  0.000  0.914  0.086  0.000
  0.000  0.000  0.000  0.005  0.995
  0.997  0.003  0.000  0.000  0.000
  0.000  0.000  0.086  0.910  0.005
  0.003  0.997  0.000  0.000  0.000
    occupations:
  0.246  0.001 -0.000  0.043  0.000
  0.001  0.428  0.000 -0.004 -0.000
 -0.000  0.000  0.175 -0.000 -0.002
  0.043 -0.004 -0.000  0.372 -0.000
  0.000 -0.000 -0.002 -0.000  0.214
atom   10   Tr[ns(na)] =   2.78951
    eigenvalues:
  0.176  0.224  0.237  0.326  0.432
    eigenvectors:
  0.017  0.000  0.000  0.983  0.000
  0.000  0.000  1.000  0.000  0.000
  0.000  1.000  0.000  0.000  0.000
  0.983  0.000  0.000  0.017  0.000
  0.000  0.000  0.000  0.000  1.000
    occupations:
  0.324 -0.000 -0.000 -0.020 -0.000
 -0.000  0.237 -0.000 -0.000 -0.000
 -0.000 -0.000  0.224 -0.000  0.000
 -0.020 -0.000 -0.000  0.179  0.000
 -0.000 -0.000  0.000  0.000  0.432
atom   16   Tr[ns(na)] =   2.80548
    eigenvalues:
  0.177  0.196  0.215  0.385  0.430
    eigenvectors:
  0.028  0.719  0.075  0.169  0.010
  0.003  0.005  0.004  0.181  0.807
  0.624  0.001  0.374  0.001  0.000
  0.009  0.148  0.012  0.649  0.181
  0.336  0.127  0.535  0.001  0.002
    occupations:
  0.231 -0.012 -0.004  0.072 -0.003
 -0.012  0.419 -0.003  0.024  0.011
 -0.004 -0.003  0.191  0.007  0.017
  0.072  0.024  0.007  0.361  0.001
 -0.003  0.011  0.017  0.001  0.200
atom   17   Tr[ns(na)] =   2.88079
    eigenvalues:
  0.170  0.204  0.221  0.417  0.428
    eigenvectors:
  0.006  0.003  0.000  0.000  0.991
  0.001  0.888  0.108  0.000  0.003
  0.000  0.108  0.892  0.000  0.000
  0.993  0.001  0.000  0.000  0.006
  0.000  0.000  0.000  1.000  0.000
    occupations:
  0.425  0.012  0.004 -0.020 -0.000
  0.012  0.207 -0.005  0.000 -0.002
  0.004 -0.005  0.219  0.000 -0.000
 -0.020  0.000  0.000  0.172 -0.000
 -0.000 -0.002 -0.000 -0.000  0.417
atom   22   Tr[ns(na)] =   2.87083
    eigenvalues:
  0.175  0.214  0.233  0.385  0.429
    eigenvectors:
  0.000  0.000  0.914  0.086  0.000
  0.000  0.000  0.000  0.004  0.995
  0.997  0.003  0.000  0.000  0.000
  0.000  0.000  0.086  0.910  0.004
  0.003  0.997  0.000  0.000  0.000
    occupations:
  0.246 -0.002  0.000  0.043  0.000
 -0.002  0.428  0.000  0.003 -0.000
  0.000  0.000  0.175 -0.000  0.002
  0.043  0.003 -0.000  0.372 -0.000
  0.000 -0.000  0.002 -0.000  0.214
atom   23   Tr[ns(na)] =   3.00058
    eigenvalues:
  0.118  0.297  0.309  0.340  0.437
    eigenvectors:
  0.003  0.000  0.000  0.000  0.997
  0.000  0.000  1.000  0.000  0.000
  0.000  1.000  0.000  0.000  0.000
  0.997  0.000  0.000  0.000  0.003
  0.000  0.000  0.000  1.000  0.000
    occupations:
  0.436 -0.000  0.000 -0.018 -0.000
 -0.000  0.309  0.000 -0.000  0.000
  0.000  0.000  0.297 -0.000 -0.000
 -0.018 -0.000 -0.000  0.119 -0.000
 -0.000  0.000 -0.000 -0.000  0.340
N of occupied +U levels =  22.9094030
 --- exit write_ns ---

[...]

     total energy              =   -1565.78933477 Ry
     Harris-Foulkes estimate   =   -1565.78933478 Ry
     estimated scf accuracy    <       0.00000006 Ry

     iteration # 13     ecut=    40.00 Ry     beta=0.70
     Davidson diagonalization with overlap
     ethr =  2.81E-11,  avg # of iterations =  1.0

     negative rho (up, down):  0.103E+00 0.000E+00

     End of self-consistent calculation
 --- enter write_ns ---
 LDA+U parameters:
U( 2)     =  2.00000000
alpha( 2) =  0.00000000
atom    3   Tr[ns(na)] =   2.80618
    eigenvalues:
  0.177  0.196  0.215  0.385  0.430
    eigenvectors:
  0.029  0.719  0.074  0.169  0.010
  0.003  0.005  0.004  0.181  0.808
  0.624  0.001  0.375  0.001  0.000
  0.009  0.149  0.012  0.649  0.181
  0.335  0.126  0.536  0.000  0.002
    occupations:
  0.231  0.012 -0.004  0.072  0.002
  0.012  0.419  0.003 -0.024  0.011
 -0.004  0.003  0.191  0.006 -0.017
  0.072 -0.024  0.006  0.361 -0.002
  0.002  0.011 -0.017 -0.002  0.200
atom    4   Tr[ns(na)] =   2.88599
    eigenvalues:
  0.170  0.206  0.221  0.420  0.427
    eigenvectors:
  0.006  0.003  0.000  0.001  0.990
  0.001  0.878  0.118  0.000  0.003
  0.000  0.118  0.882  0.000  0.000
  0.993  0.001  0.000  0.000  0.006
  0.000  0.000  0.000  0.999  0.001
    occupations:
  0.424  0.011  0.004 -0.020 -0.000
  0.011  0.208 -0.005  0.000 -0.002
  0.004 -0.005  0.219  0.000 -0.000
 -0.020  0.000  0.000  0.172 -0.000
 -0.000 -0.002 -0.000 -0.000  0.420
atom    9   Tr[ns(na)] =   2.87027
    eigenvalues:
  0.174  0.214  0.233  0.385  0.429
    eigenvectors:
  0.000  0.000  0.914  0.086  0.000
  0.000  0.000  0.000  0.005  0.995
  0.997  0.003  0.000  0.000  0.000
  0.000  0.000  0.086  0.910  0.005
  0.003  0.997  0.000  0.000  0.000
    occupations:
  0.246  0.001 -0.000  0.043  0.000
  0.001  0.428  0.000 -0.004 -0.000
 -0.000  0.000  0.175 -0.000 -0.002
  0.043 -0.004 -0.000  0.372 -0.000
  0.000 -0.000 -0.002 -0.000  0.214
atom   10   Tr[ns(na)] =   2.78852
    eigenvalues:
  0.176  0.224  0.237  0.326  0.432
    eigenvectors:
  0.017  0.000  0.000  0.983  0.000
  0.000  0.000  1.000  0.000  0.000
  0.000  1.000  0.000  0.000  0.000
  0.983  0.000  0.000  0.017  0.000
  0.000  0.000  0.000  0.000  1.000
    occupations:
  0.324 -0.000 -0.000 -0.020 -0.000
 -0.000  0.237 -0.000 -0.000 -0.000
 -0.000 -0.000  0.224 -0.000  0.000
 -0.020 -0.000 -0.000  0.179  0.000
 -0.000 -0.000  0.000  0.000  0.432
atom   16   Tr[ns(na)] =   2.80616
    eigenvalues:
  0.177  0.196  0.215  0.385  0.430
    eigenvectors:
  0.028  0.719  0.075  0.169  0.010
  0.003  0.005  0.004  0.181  0.807
  0.624  0.001  0.374  0.001  0.000
  0.009  0.148  0.012  0.649  0.181
  0.336  0.127  0.535  0.001  0.002
    occupations:
  0.231 -0.012 -0.004  0.072 -0.003
 -0.012  0.419 -0.003  0.024  0.011
 -0.004 -0.003  0.191  0.007  0.017
  0.072  0.024  0.007  0.361  0.001
 -0.003  0.011  0.017  0.001  0.200
atom   17   Tr[ns(na)] =   2.88102
    eigenvalues:
  0.170  0.205  0.221  0.417  0.428
    eigenvectors:
  0.006  0.003  0.000  0.000  0.991
  0.001  0.888  0.108  0.000  0.003
  0.000  0.108  0.892  0.000  0.000
  0.993  0.001  0.000  0.000  0.006
  0.000  0.000  0.000  1.000  0.000
    occupations:
  0.425  0.012  0.004 -0.020 -0.000
  0.012  0.207 -0.005  0.000 -0.002
  0.004 -0.005  0.219  0.000 -0.000
 -0.020  0.000  0.000  0.172 -0.000
 -0.000 -0.002 -0.000 -0.000  0.417
atom   22   Tr[ns(na)] =   2.87018
    eigenvalues:
  0.174  0.214  0.233  0.385  0.429
    eigenvectors:
  0.000  0.000  0.914  0.086  0.000
  0.000  0.000  0.000  0.004  0.995
  0.997  0.003  0.000  0.000  0.000
  0.000  0.000  0.086  0.910  0.005
  0.003  0.997  0.000  0.000  0.000
    occupations:
  0.246 -0.002  0.000  0.043  0.000
 -0.002  0.428  0.000  0.004 -0.000
  0.000  0.000  0.175 -0.000  0.002
  0.043  0.004 -0.000  0.372 -0.000
  0.000 -0.000  0.002 -0.000  0.214
atom   23   Tr[ns(na)] =   3.00112
    eigenvalues:
  0.118  0.296  0.309  0.340  0.437
    eigenvectors:
  0.003  0.000  0.000  0.000  0.997
  0.000  0.000  1.000  0.000  0.000
  0.000  1.000  0.000  0.000  0.000
  0.997  0.000  0.000  0.000  0.003
  0.000  0.000  0.000  1.000  0.000
    occupations:
  0.436 -0.000  0.000 -0.018 -0.000
 -0.000  0.309  0.000 -0.000  0.000
  0.000  0.000  0.296 -0.000 -0.000
 -0.018 -0.000 -0.000  0.119 -0.000
 -0.000  0.000 -0.000 -0.000  0.340
N of occupied +U levels =  22.9094271
 --- exit write_ns ---

[...]

          k = 0.2500-0.4516 0.0000 ( 29882 PWs)   bands (ev):

[...]

          k =-0.2500 0.2258 0.0000 ( 29912 PWs)   bands (ev):

   -60.9757 -60.9488 -60.6780 -60.1551 -60.1264 -59.7011 -59.6729 -59.0028
   -37.4308 -37.2131 -37.1634 -37.1452 -37.1226 -37.1008 -37.0111 -36.8785
   -36.8435 -36.6902 -36.4625 -36.3898 -36.3764 -36.2692 -36.2463 -36.1227
   -35.9759 -35.9523 -35.9485 -35.8757 -35.7955 -35.3588 -35.3537 -35.3234
   -21.9924 -21.7370 -21.0203 -20.7966 -20.3126 -20.2681 -20.2478 -20.1872
   -19.9739 -19.8856 -19.7865 -19.7646 -19.6428 -19.5673 -19.3301 -19.1915
   -18.8858 -18.7688 -17.9745  -9.7807  -9.5128  -8.5136  -8.2793  -8.0002
    -7.7550  -7.6456  -7.6291  -7.5626  -7.4024  -7.3456  -7.2242  -7.1392
    -7.0246  -6.9855  -6.8976  -6.8226  -6.7777  -6.6144  -6.5443  -6.4616
    -6.2936  -6.2030  -6.0505  -5.9250  -5.7943  -5.7463  -5.6628  -5.5468
    -5.5043  -5.4380  -5.4127  -5.3332  -5.2521  -5.1859  -5.1023  -5.0179
    -4.9511  -4.9024  -4.8380  -4.7198  -4.6528  -4.4701  -4.4022  -4.2181
    -4.1885  -4.1419  -4.1223  -4.0032  -3.9565  -3.8647  -3.6857  -3.6694
    -3.6001  -3.5454  -3.4772  -3.3369  -0.9768  -0.9251  -0.8323  -0.7114
    -0.4115  -0.3347  -0.2513  -0.2246  -0.1359   0.0116   0.1256   0.2366
     0.2808   0.3222   0.5579   0.6050   0.6263   0.7751   0.8712   0.9769
     1.0671   1.1773   1.2363   1.4321   1.6890   1.7659   1.8580   1.9943
     2.0960   2.1527   2.4412   2.6926   2.8098   2.9696   3.0249   3.0815
     3.2101   3.3531   3.5128   3.6354   3.7310   4.0685   4.4657   4.5992
     4.6821   4.8793   5.2268   5.8122   5.9090   6.0095   6.1020   6.3270
     6.3783   6.5757   6.7544   6.9143   7.0261   7.2355   7.2982   7.4191
     7.5861   7.6707   7.7463   7.8886   7.9193   8.0389   8.1943   8.3520
     8.5017   8.6761   8.7178   8.7505   9.0081   9.1555   9.1933   9.2997
     9.3478   9.4635   9.5633   9.5930   9.7116   9.8097   9.8863   9.9967
    10.0629  10.2867  10.3357  10.4556  10.5473  10.6639  10.7462  10.8214
    10.9303  10.9708  11.0512  11.1075  11.1412  11.2629  11.3450  11.3875
    11.4415  11.4976  11.6036  11.6979  11.7639  11.8558  11.9146  12.0082
    12.0463  12.0714  12.1443  12.2605  12.3909  12.4136  12.4804  12.5096
    12.6083  12.7137  12.7947  12.8765  12.9123  12.9768  13.0406  13.1655
    13.2779  13.3123  13.3860  13.4373  13.5545  13.6086  13.6848  13.7113
    13.7812  13.8579  13.9446  14.0501  14.0909  14.1603  14.2462  14.3076
    14.4189  14.4961  14.5475  14.5851  14.6992  14.7437  14.8533  14.9621
    15.0663  15.1596  15.2171  15.2736  15.3592  15.4258  15.4753  15.5659
    15.5969  15.6567  15.7729  15.8226  15.8330  15.9639  16.0008  16.0657
    16.1431  16.2088  16.2875  16.3467  16.5012  16.5805  16.6732  16.7010
    16.7812  16.8516  16.8859  16.9229  16.9682  17.0511  17.1062  17.2068
    17.2551  17.2997  17.3935  17.4621  17.5650  17.6033  17.6498  17.6907
    17.7620  17.8274  17.9318  18.0397  18.1158  18.1946  18.2289  18.3020
    18.3820  18.4964  18.6015  18.6274  18.6613

     the Fermi energy is    -3.4205 ev

!    total energy              =   -1565.78933476 Ry
     Harris-Foulkes estimate   =   -1565.78933477 Ry
     estimated scf accuracy    <          8.7E-09 Ry

     The total energy is the sum of the following terms:

     one-electron contribution =  -18450.81415957 Ry
     hartree contribution      =    9240.10897879 Ry
     xc contribution           =    -276.62730171 Ry
     ewald contribution        =    7920.40454231 Ry
     Hubbard energy            =       1.13822305 Ry
     smearing contrib. (-TS)   =       0.00038235 Ry

     convergence has been achieved in  13 iterations

     Forces acting on atoms (Ry/au):

     negative rho (up, down):  0.103E+00 0.000E+00
     atom    1 type  1   force =    -0.00095468   -0.01085492    0.00038587
     atom    2 type  1   force =     0.00015560    0.01536429   -0.00000325
     atom    3 type  2   force =     0.05846878   -0.00927689    0.00039974
     atom    4 type  2   force =    -0.00220478    0.00562242   -0.00043433
     atom    5 type  1   force =    -0.00303357   -0.06692971    0.00011495
     atom    6 type  1   force =    -0.00563005    0.06804911    0.00032871
     atom    7 type  1   force =    -0.00001087    0.00062032    0.00067169
     atom    8 type  1   force =     0.00151262   -0.00132316   -0.00045677
     atom    9 type  2   force =     0.00975018    0.00026164    0.00013023
     atom   10 type  2   force =     0.00002743    0.00010086    0.00012241
     atom   11 type  1   force =    -0.03266000   -0.00296017   -0.00009912
     atom   12 type  1   force =    -0.03290706    0.00329708   -0.00002294
     atom   13 type  1   force =     0.00011284    0.00011383   -0.00006062
     atom   14 type  1   force =    -0.00180438   -0.01036522   -0.00029685
     atom   15 type  1   force =     0.00002253    0.01185162    0.00007872
     atom   16 type  2   force =    -0.05812972   -0.00888513    0.00039565
     atom   17 type  2   force =    -0.00225705    0.00504743   -0.00039974
     atom   18 type  1   force =     0.00739277   -0.06680285    0.00021900
     atom   19 type  1   force =     0.00530209    0.06823012    0.00014731
     atom   20 type  1   force =    -0.00020444   -0.00028047    0.00006154
     atom   21 type  1   force =     0.00161117   -0.00104499   -0.00083329
     atom   22 type  2   force =    -0.01010918   -0.00001516    0.00013000
     atom   23 type  2   force =     0.00002783   -0.00016736    0.00037236
     atom   24 type  1   force =     0.03300965   -0.00287455   -0.00002045
     atom   25 type  1   force =     0.03246061    0.00318049   -0.00010249
     atom   26 type  1   force =     0.00018787   -0.00013968   -0.00088662
     atom   27 type  3   force =    -0.00004123   -0.00009134   -0.00030445
     atom   28 type  3   force =     0.00001686   -0.00003949   -0.00003425
     atom   29 type  3   force =    -0.00025068    0.00004999   -0.00002429
     atom   30 type  3   force =     0.00013699    0.00025993    0.00008934
     atom   31 type  1   force =     0.00000188    0.00000199    0.00033193

     Total force =     0.001957     Total SCF correction =     0.000340
     SCF correction compared to forces is large: reduce conv_thr to get better values

     bfgs converged in  13 scf cycles and  12 bfgs steps
     (criteria: energy < 0.10E-03, force < 0.10E-02)

     End of BFGS Geometry Optimization

     Final energy   =   -1565.7893347649 Ry
Begin final coordinates

ATOMIC_POSITIONS (crystal)
O0       0.000000000   0.000000000   0.377191074    0   0   1
O0       0.000000000   0.500000000   0.397066581    0   0   1
Ti1      0.250000000   0.500000000   0.449498312    0   0   1
Ti1      0.000000000   0.000000000   0.451785243    0   0   1
O0       0.250000000   0.810000000   0.448908822    0   0   1
O0       0.250000000   0.190000000   0.449706349    0   0   1
O0       0.000000000   0.500000000   0.497378709    0   0   1
O0       0.000000000   0.000000000   0.525678108    0   0   1
Ti1      0.250000000   0.000000000   0.580859114    0   0   1
Ti1      0.000000000   0.500000000   0.568710771    0   0   1
O0       0.250000000   0.690000000   0.581179397    0   0   1
O0       0.250000000   0.310000000   0.581123637    0   0   1
O0       0.000000000   0.000000000   0.622986646    0   0   1
O0       0.500000000   0.000000000   0.377248278    0   0   1
O0       0.500000000   0.500000000   0.396247000    0   0   1
Ti1      0.750000000   0.500000000   0.449494117    0   0   1
Ti1      0.500000000   0.000000000   0.451498681    0   0   1
O0       0.750000000   0.810000000   0.448887487    0   0   1
O0       0.750000000   0.190000000   0.449701487    0   0   1
O0       0.500000000   0.500000000   0.491584526    0   0   1
O0       0.500000000   0.000000000   0.525505442    0   0   1
Ti1      0.750000000   0.000000000   0.580850311    0   0   1
Ti1      0.500000000   0.500000000   0.600044095    0   0   1
O0       0.750000000   0.690000000   0.581198360    0   0   1
O0       0.750000000   0.310000000   0.581098007    0   0   1
O0       0.500000000   0.000000000   0.621877181    0   0   1
H2      -0.000484611   0.622756284   0.375604472
H2       0.499416775   0.619396823   0.373741357
H2       0.149361708   0.034520137   0.363138872
H2       0.648912548   0.033714784   0.362899189
O0       0.500041578   0.499898764   0.663348376
End final coordinates

     General routines

     Parallel routines
     Hubbard U routines

   This run was terminated on:  20:55:51  28Apr2014

   JOB DONE.