     Program PWSCF v.5.0.2 (svn rev. 9656) starts on 26Apr2014 at 20:56:44

     Current dimensions of program PWSCF are:
     Max number of different atomic species (ntypx) = 10
     Max number of k-points (npk) =  40000
     Max angular momentum in pseudopotentials (lmaxx) =  3
     Reading input from pwscf.in
Warning: card &CELL ignored
Warning: card / ignored

     Subspace diagonalization in iterative solution of the eigenvalue problem:
     a serial algorithm will be used

     bravais-lattice index     =            0
     lattice parameter (alat)  =      11.7919  a.u.
     unit-cell volume          =    7123.6633 (a.u.)^3
     number of atoms/cell      =           31
     number of atomic types    =            3
     number of electrons       =       246.00
     number of Kohn-Sham states=          357
     kinetic-energy cutoff     =      40.0000  Ry
     charge density cutoff     =     500.0000  Ry
     convergence threshold     =      1.0E-06
     mixing beta               =       0.7000
     number of iterations used =            8  plain     mixing
     Exchange-correlation      = SLA  PW   PBE  PBE ( 1 4 3 4 0)
     EXX-fraction              =        0.00
     nstep                     =           50

     celldm(1)=  11.791891  celldm(2)=   0.000000  celldm(3)=   0.000000
     celldm(4)=   0.000000  celldm(5)=   0.000000  celldm(6)=   0.000000

     crystal axes: (cart. coord. in units of alat)
               a(1) = (   1.000000   0.000000   0.000000 )
               a(2) = (   0.000000   1.026665   0.000000 )
               a(3) = (   0.000000   0.000000   4.231793 )

     reciprocal axes: (cart. coord. in units 2 pi/alat)
               b(1) = (  1.000000  0.000000  0.000000 )
               b(2) = (  0.000000  0.974028  0.000000 )
               b(3) = (  0.000000  0.000000  0.236306 )

     PseudoPot. # 1 for O  read from file:
     /home/camp/zhonxu/pseudo/o_pbe_v1.01.uspp.F.UPF
     MD5 check sum: 2bcb18d16ea4b960afae9ec6d52f22d2
     Pseudo is Ultrasoft + core correction, Zval =  6.0
     Generated by new atomic code, or converted to UPF format
     Using radial grid of  737 points,  5 beta functions with:
                l(1) =   0
                l(2) =   0
                l(3) =   1
                l(4) =   1
                l(5) =   2
     Q(r) pseudized with  8 coefficients,  rinner =    0.900   0.900   0.900
                                                       0.900   0.900

     PseudoPot. # 2 for Ru read from file:
     /home/camp/zhonxu/pseudo/ru_pbe_v1.uspp.F.UPF
     MD5 check sum: df00be1c11b23341d9806d8f1dfa10cf
     Pseudo is Ultrasoft + core correction, Zval = 16.0
     Generated by new atomic code, or converted to UPF format
     Using radial grid of  967 points,  6 beta functions with:
                l(1) =   0
                l(2) =   0
                l(3) =   1
                l(4) =   1
                l(5) =   2
                l(6) =   2
     Q(r) pseudized with  8 coefficients,  rinner =    1.300   1.300   1.300
                                                       1.300   1.300

     PseudoPot. # 3 for H  read from file:
     /home/camp/zhonxu/pseudo/h_pbe_v1.uspp.F.UPF
     MD5 check sum: 3408e3ff4ec8b0a4e358431e7e038a48
     Pseudo is Ultrasoft, Zval =  1.0
     Generated by new atomic code, or converted to UPF format
     Using radial grid of  615 points,  2 beta functions with:
                l(1) =   0
                l(2) =   0
     Q(r) pseudized with  8 coefficients,  rinner =    0.700

     atomic species   valence    mass     pseudopotential
        O0             6.00    15.99940     O ( 1.00)
        Ru1           16.00   101.07000     Ru( 1.00)
        H2             1.00     1.00794     H ( 1.00)

     Simplified LDA+U calculation (l_max = 2) with parameters (eV):
     atomic species    L          U    alpha       J0     beta
        Ru1            2     3.5000   0.0000   0.0000   0.0000

     No symmetry found

   Cartesian axes

     site n.     atom                  positions (alat units)
         1           O0  tau(   1) = (   0.0000000   0.0000000   1.6006333  )
         2           O0  tau(   2) = (   0.0000000   0.5133323   1.7090519  )
         3           Ru1 tau(   3) = (   0.2500000   0.5133323   1.9249579  )
         4           Ru1 tau(   4) = (   0.0000000   0.0000000   1.9138706  )
         5           O0  tau(   5) = (   0.2500000   0.8315984   1.9151825  )
         6           O0  tau(   6) = (   0.2500000   0.1950663   1.9148016  )
         7           O0  tau(   7) = (   0.0000000   0.5133323   2.1086177  )
         8           O0  tau(   8) = (   0.0000000   0.0000000   2.2256691  )
         9           Ru1 tau(   9) = (   0.2500000   0.0000000   2.4381898  )
        10           Ru1 tau(  10) = (   0.0000000   0.5133323   2.4080594  )
        11           O0  tau(  11) = (   0.2500000   0.7083986   2.4344235  )
        12           O0  tau(  12) = (   0.2500000   0.3182660   2.4336618  )
        13           O0  tau(  13) = (   0.0000000   0.0000000   2.6157981  )
        14           O0  tau(  14) = (   0.5000000   0.0000000   1.6005064  )
        15           O0  tau(  15) = (   0.5000000   0.5133323   1.7116333  )
        16           Ru1 tau(  16) = (   0.7500000   0.5133323   1.9249156  )
        17           Ru1 tau(  17) = (   0.5000000   0.0000000   1.9130666  )
        18           O0  tau(  18) = (   0.7500000   0.8315984   1.9150979  )
        19           O0  tau(  19) = (   0.7500000   0.1950663   1.9148440  )
        20           O0  tau(  20) = (   0.5000000   0.5133323   2.1279570  )
        21           O0  tau(  21) = (   0.5000000   0.0000000   2.2254152  )
        22           Ru1 tau(  22) = (   0.7500000   0.0000000   2.4382321  )
        23           Ru1 tau(  23) = (   0.5000000   0.5133323   2.4678123  )
        24           O0  tau(  24) = (   0.7500000   0.7083986   2.4345927  )
        25           O0  tau(  25) = (   0.7500000   0.3182660   2.4334925  )
        26           O0  tau(  26) = (   0.5000000   0.0000000   2.6078847  )
        27           H2  tau(  27) = (  -0.0002600   0.6438727   1.6192532  )
        28           H2  tau(  28) = (   0.4995800   0.6393041   1.6156985  )
        29           H2  tau(  29) = (   0.1450800   0.0331921   1.5470588  )
        30           H2  tau(  30) = (   0.6459600   0.0301326   1.5471435  )
        31           O0  tau(  31) = (   0.5000500   0.5106527   2.7413977  )

     number of k points=    10  Methfessel-Paxton smearing, width (Ry)=  0.0100
                       cart. coord. in units 2pi/alat
        k(    1) = (   0.0000000   0.0000000   0.0000000), wk =   0.1250000
        k(    2) = (   0.0000000   0.2435070   0.0000000), wk =   0.2500000
        k(    3) = (   0.0000000  -0.4870139   0.0000000), wk =   0.1250000
        k(    4) = (   0.2500000   0.0000000   0.0000000), wk =   0.2500000
        k(    5) = (   0.2500000   0.2435070   0.0000000), wk =   0.2500000
        k(    6) = (   0.2500000  -0.4870139   0.0000000), wk =   0.2500000
        k(    7) = (  -0.5000000   0.0000000   0.0000000), wk =   0.1250000
        k(    8) = (  -0.5000000   0.2435070   0.0000000), wk =   0.2500000
        k(    9) = (  -0.5000000  -0.4870139   0.0000000), wk =   0.1250000
        k(   10) = (  -0.2500000   0.2435070   0.0000000), wk =   0.2500000

     Largest allocated arrays     est. size (Mb)     dimensions
     Largest temporary arrays     est. size (Mb)     dimensions

     Check: negative/imaginary core charge=   -0.000003    0.000000

     Initial potential from superposition of free atoms
     Check: negative starting charge=   -0.520948

     starting charge  237.99981, renormalised to  246.00000

     negative rho (up, down):  0.538E+00 0.000E+00
     Number of +U iterations with fixed ns =  0
     Starting occupations:
 --- enter write_ns ---
 LDA+U parameters:
U( 2)     =  3.50000000
alpha( 2) =  0.00000000
atom    3   Tr[ns(na)] =   6.00000
    eigenvalues:
  0.600  0.600  0.600  0.600  0.600
    eigenvectors:
  1.000  0.000  0.000  0.000  0.000
  0.000  1.000  0.000  0.000  0.000
  0.000  0.000  1.000  0.000  0.000
  0.000  0.000  0.000  1.000  0.000
  0.000  0.000  0.000  0.000  1.000
    occupations:
  0.600  0.000  0.000  0.000  0.000
  0.000  0.600  0.000  0.000  0.000
  0.000  0.000  0.600  0.000  0.000
  0.000  0.000  0.000  0.600  0.000
  0.000  0.000  0.000  0.000  0.600
atom    4   Tr[ns(na)] =   6.00000
    eigenvalues:
  0.600  0.600  0.600  0.600  0.600
    eigenvectors:
  1.000  0.000  0.000  0.000  0.000
  0.000  1.000  0.000  0.000  0.000
  0.000  0.000  1.000  0.000  0.000
  0.000  0.000  0.000  1.000  0.000
  0.000  0.000  0.000  0.000  1.000
    occupations:
  0.600  0.000  0.000  0.000  0.000
  0.000  0.600  0.000  0.000  0.000
  0.000  0.000  0.600  0.000  0.000
  0.000  0.000  0.000  0.600  0.000
  0.000  0.000  0.000  0.000  0.600
atom    9   Tr[ns(na)] =   6.00000
    eigenvalues:
  0.600  0.600  0.600  0.600  0.600
    eigenvectors:
  1.000  0.000  0.000  0.000  0.000
  0.000  1.000  0.000  0.000  0.000
  0.000  0.000  1.000  0.000  0.000
  0.000  0.000  0.000  1.000  0.000
  0.000  0.000  0.000  0.000  1.000
    occupations:
  0.600  0.000  0.000  0.000  0.000
  0.000  0.600  0.000  0.000  0.000
  0.000  0.000  0.600  0.000  0.000
  0.000  0.000  0.000  0.600  0.000
  0.000  0.000  0.000  0.000  0.600
atom   10   Tr[ns(na)] =   6.00000
    eigenvalues:
  0.600  0.600  0.600  0.600  0.600
    eigenvectors:
  1.000  0.000  0.000  0.000  0.000
  0.000  1.000  0.000  0.000  0.000
  0.000  0.000  1.000  0.000  0.000
  0.000  0.000  0.000  1.000  0.000
  0.000  0.000  0.000  0.000  1.000
    occupations:
  0.600  0.000  0.000  0.000  0.000
  0.000  0.600  0.000  0.000  0.000
  0.000  0.000  0.600  0.000  0.000
  0.000  0.000  0.000  0.600  0.000
  0.000  0.000  0.000  0.000  0.600
atom   16   Tr[ns(na)] =   6.00000
    eigenvalues:
  0.600  0.600  0.600  0.600  0.600
    eigenvectors:
  1.000  0.000  0.000  0.000  0.000
  0.000  1.000  0.000  0.000  0.000
  0.000  0.000  1.000  0.000  0.000
  0.000  0.000  0.000  1.000  0.000
  0.000  0.000  0.000  0.000  1.000
    occupations:
  0.600  0.000  0.000  0.000  0.000
  0.000  0.600  0.000  0.000  0.000
  0.000  0.000  0.600  0.000  0.000
  0.000  0.000  0.000  0.600  0.000
  0.000  0.000  0.000  0.000  0.600
atom   17   Tr[ns(na)] =   6.00000
    eigenvalues:
  0.600  0.600  0.600  0.600  0.600
    eigenvectors:
  1.000  0.000  0.000  0.000  0.000
  0.000  1.000  0.000  0.000  0.000
  0.000  0.000  1.000  0.000  0.000
  0.000  0.000  0.000  1.000  0.000
  0.000  0.000  0.000  0.000  1.000
    occupations:
  0.600  0.000  0.000  0.000  0.000
  0.000  0.600  0.000  0.000  0.000
  0.000  0.000  0.600  0.000  0.000
  0.000  0.000  0.000  0.600  0.000
  0.000  0.000  0.000  0.000  0.600
atom   22   Tr[ns(na)] =   6.00000
    eigenvalues:
  0.600  0.600  0.600  0.600  0.600
    eigenvectors:
  1.000  0.000  0.000  0.000  0.000
  0.000  1.000  0.000  0.000  0.000
  0.000  0.000  1.000  0.000  0.000
  0.000  0.000  0.000  1.000  0.000
  0.000  0.000  0.000  0.000  1.000
    occupations:
  0.600  0.000  0.000  0.000  0.000
  0.000  0.600  0.000  0.000  0.000
[...]
    eigenvectors:
  0.001  0.161  0.000  0.661  0.178
  0.991  0.009  0.000  0.000  0.000
  0.000  0.000  0.987  0.002  0.010
  0.008  0.830  0.000  0.127  0.034
  0.000  0.000  0.012  0.210  0.778
    occupations:
  0.790 -0.002 -0.000 -0.086  0.002
 -0.002  0.574  0.001  0.003  0.000
 -0.000  0.001  0.784  0.000 -0.005
 -0.086  0.003  0.000  0.631 -0.001
  0.002  0.000 -0.005 -0.001  0.831
atom   10   Tr[ns(na)] =   7.24431
    eigenvalues:
  0.528  0.531  0.747  0.852  0.965
    eigenvectors:
  0.987  0.000  0.000  0.000  0.013
  0.000  0.000  0.000  1.000  0.000
  0.000  0.000  1.000  0.000  0.000
  0.013  0.000  0.000  0.000  0.987
  0.000  1.000  0.000  0.000  0.000
    occupations:
  0.533  0.000 -0.001  0.049  0.000
  0.000  0.852  0.001  0.000  0.001
 -0.001  0.001  0.747 -0.001  0.000
  0.049  0.000 -0.001  0.959  0.000
  0.000  0.001  0.000  0.000  0.531
atom   16   Tr[ns(na)] =   7.21123
    eigenvalues:
  0.517  0.560  0.677  0.878  0.973
    eigenvectors:
  0.000  0.177  0.006  0.001  0.816
  0.998  0.001  0.000  0.000  0.000
  0.000  0.003  0.981  0.003  0.013
  0.001  0.819  0.009  0.000  0.171
  0.000  0.000  0.003  0.996  0.000
    occupations:
  0.898 -0.003  0.033 -0.155  0.000
 -0.003  0.517 -0.002  0.003 -0.005
  0.033 -0.002  0.681 -0.008  0.012
 -0.155  0.003 -0.008  0.632 -0.001
  0.000 -0.005  0.012 -0.001  0.877
atom   17   Tr[ns(na)] =   7.21036
    eigenvalues:
  0.554  0.606  0.661  0.803  0.982
    eigenvectors:
  0.001  0.988  0.000  0.000  0.012
  0.000  0.000  0.016  0.984  0.000
  0.000  0.000  0.984  0.016  0.000
  0.000  0.012  0.000  0.000  0.988
  0.999  0.001  0.000  0.000  0.000
    occupations:
  0.610 -0.001 -0.000  0.040  0.001
 -0.001  0.801  0.018 -0.001 -0.001
 -0.000  0.018  0.663  0.001  0.000
  0.040 -0.001  0.001  0.977  0.000
  0.001 -0.001  0.000  0.000  0.554
atom   22   Tr[ns(na)] =   7.22046
    eigenvalues:
  0.573  0.592  0.780  0.829  0.835
    eigenvectors:
  0.000  0.162  0.004  0.404  0.430
  0.997  0.003  0.000  0.000  0.000
  0.000  0.000  0.985  0.000  0.014
  0.003  0.835  0.001  0.078  0.083
  0.000  0.000  0.009  0.518  0.473
    occupations:
  0.793  0.003  0.004 -0.088  0.002
  0.003  0.573  0.001 -0.003 -0.001
  0.004  0.001  0.781 -0.001  0.005
 -0.088 -0.003 -0.001  0.631 -0.001
  0.002 -0.001  0.005 -0.001  0.832
atom   23   Tr[ns(na)] =   7.21226
    eigenvalues:
  0.579  0.663  0.673  0.710  0.982
    eigenvectors:
  0.000  0.981  0.012  0.000  0.007
  0.000  0.000  0.000  1.000  0.000
  0.000  0.012  0.988  0.000  0.000
  0.000  0.007  0.000  0.000  0.993
  1.000  0.000  0.000  0.000  0.000
    occupations:
  0.666 -0.000 -0.001  0.026 -0.000
 -0.000  0.710  0.000  0.000  0.001
 -0.001  0.000  0.672  0.002 -0.000
  0.026  0.000  0.002  0.980 -0.000
 -0.000  0.001 -0.000 -0.000  0.579
N of occupied +U levels =  57.7459241
 --- exit write_ns ---

     Threshold (ethr) on eigenvalues was too large:
     Diagonalizing with lowered threshold

     Davidson diagonalization with overlap
     ethr =  2.08E-08,  avg # of iterations =  2.0

[...]

     total energy              =   -2161.58550721 Ry
     Harris-Foulkes estimate   =   -2161.58550722 Ry
     estimated scf accuracy    <       0.00000003 Ry

     iteration # 21     ecut=    40.00 Ry     beta=0.70
     Davidson diagonalization with overlap
     ethr =  4.83E-12,  avg # of iterations =  1.0

     negative rho (up, down):  0.576E+00 0.000E+00

     End of self-consistent calculation
 --- enter write_ns ---
 LDA+U parameters:
U( 2)     =  3.50000000
alpha( 2) =  0.00000000
atom    3   Tr[ns(na)] =   7.21174
    eigenvalues:
  0.517  0.561  0.677  0.877  0.974
    eigenvectors:
  0.000  0.177  0.006  0.001  0.816
  0.998  0.002  0.000  0.000  0.000
  0.000  0.003  0.983  0.002  0.013
  0.002  0.819  0.009  0.000  0.171
  0.000  0.000  0.002  0.997  0.000
    occupations:
  0.898  0.003  0.033 -0.155 -0.000
  0.003  0.517  0.002 -0.003 -0.005
  0.033  0.002  0.681 -0.008 -0.009
 -0.155 -0.003 -0.008  0.632  0.001
 -0.000 -0.005 -0.009  0.001  0.877
atom    4   Tr[ns(na)] =   7.21746
    eigenvalues:
  0.555  0.605  0.663  0.807  0.980
    eigenvectors:
  0.001  0.987  0.000  0.000  0.012
  0.000  0.000  0.023  0.977  0.000
  0.000  0.000  0.977  0.023  0.000
  0.000  0.012  0.000  0.000  0.988
  0.999  0.001  0.000  0.000  0.000
    occupations:
  0.609 -0.001 -0.000  0.041  0.002
 -0.001  0.804  0.022 -0.001 -0.001
 -0.000  0.022  0.666  0.002  0.000
  0.041 -0.001  0.002  0.975  0.000
  0.002 -0.001  0.000  0.000  0.555
atom    9   Tr[ns(na)] =   7.21682
    eigenvalues:
  0.574  0.593  0.783  0.826  0.833
    eigenvectors:
  0.001  0.161  0.000  0.675  0.163
  0.991  0.009  0.000  0.000  0.000
  0.000  0.000  0.988  0.002  0.010
  0.008  0.830  0.000  0.130  0.032
  0.000  0.000  0.012  0.193  0.795
    occupations:
  0.789 -0.002 -0.000 -0.086  0.002
 -0.002  0.574  0.001  0.003  0.000
 -0.000  0.001  0.783  0.000 -0.005
 -0.086  0.003  0.000  0.631 -0.001
  0.002  0.000 -0.005 -0.001  0.831
atom   10   Tr[ns(na)] =   7.24489
    eigenvalues:
  0.528  0.531  0.747  0.852  0.965
    eigenvectors:
  0.987  0.000  0.000  0.000  0.013
  0.000  0.000  0.000  1.000  0.000
  0.000  0.000  1.000  0.000  0.000
  0.013  0.000  0.000  0.000  0.987
  0.000  1.000  0.000  0.000  0.000
    occupations:
  0.533  0.000 -0.001  0.049  0.000
  0.000  0.852  0.001  0.000  0.001
 -0.001  0.001  0.747 -0.001  0.000
  0.049  0.000 -0.001  0.959  0.000
  0.000  0.001  0.000  0.000  0.531
atom   16   Tr[ns(na)] =   7.21190
    eigenvalues:
  0.517  0.560  0.677  0.878  0.973
    eigenvectors:
  0.000  0.177  0.006  0.001  0.816
  0.998  0.001  0.000  0.000  0.000
  0.000  0.003  0.981  0.003  0.013
  0.001  0.819  0.009  0.000  0.171
  0.000  0.000  0.004  0.996  0.000
    occupations:
  0.898 -0.003  0.033 -0.155  0.000
 -0.003  0.517 -0.002  0.003 -0.005
  0.033 -0.002  0.681 -0.008  0.012
 -0.155  0.003 -0.008  0.632 -0.001
  0.000 -0.005  0.012 -0.001  0.877
atom   17   Tr[ns(na)] =   7.21163
    eigenvalues:
  0.554  0.606  0.662  0.803  0.982
    eigenvectors:
  0.001  0.988  0.000  0.000  0.012
  0.000  0.000  0.016  0.984  0.000
  0.000  0.000  0.984  0.016  0.000
  0.000  0.012  0.000  0.000  0.988
  0.999  0.001  0.000  0.000  0.000
    occupations:
  0.610 -0.001 -0.000  0.040  0.001
 -0.001  0.801  0.018 -0.001 -0.001
 -0.000  0.018  0.664  0.001  0.000
  0.040 -0.001  0.001  0.977  0.000
  0.001 -0.001  0.000  0.000  0.554
atom   22   Tr[ns(na)] =   7.21774
    eigenvalues:
  0.573  0.592  0.779  0.829  0.835
    eigenvectors:
  0.000  0.162  0.004  0.416  0.418
  0.997  0.003  0.000  0.000  0.000
  0.000  0.000  0.985  0.000  0.014
  0.003  0.835  0.001  0.080  0.081
  0.000  0.000  0.009  0.504  0.487
    occupations:
  0.793  0.003  0.004 -0.088  0.002
  0.003  0.573  0.001 -0.003 -0.001
  0.004  0.001  0.780 -0.001  0.005
 -0.088 -0.003 -0.001  0.631 -0.001
  0.002 -0.001  0.005 -0.001  0.832
atom   23   Tr[ns(na)] =   7.21299
    eigenvalues:
  0.579  0.663  0.673  0.710  0.982
    eigenvectors:
  0.000  0.981  0.012  0.000  0.007
  0.000  0.000  0.000  1.000  0.000
  0.000  0.012  0.988  0.000  0.000
  0.000  0.007  0.000  0.000  0.993
  1.000  0.000  0.000  0.000  0.000
    occupations:
  0.666 -0.000 -0.001  0.026 -0.000
 -0.000  0.710  0.000  0.000  0.001
 -0.001  0.000  0.673  0.002 -0.000
  0.026  0.000  0.002  0.980 -0.000
 -0.000  0.001 -0.000 -0.000  0.579
N of occupied +U levels =  57.7451815
 --- exit write_ns ---

[...]

          k = 0.2500-0.4870 0.0000 ( 30468 PWs)   bands (ev):

[...]

          k =-0.2500 0.2435 0.0000 ( 30434 PWs)   bands (ev):

   -75.1384 -74.4136 -74.4004 -74.2164 -74.2043 -73.8957 -73.7893 -73.7816
   -45.6762 -44.9455 -44.7838 -44.5846 -44.5386 -44.5246 -44.4449 -44.3881
   -44.3796 -44.3249 -44.3011 -44.2740 -44.1420 -44.0792 -44.0234 -44.0145
   -44.0085 -43.9630 -43.8350 -43.7857 -43.7504 -43.7134 -43.6251 -43.5174
   -21.0501 -20.5878 -20.5520 -20.4835 -20.3272 -20.1345 -20.0568 -19.9346
   -19.8828 -19.8476 -19.6312 -19.5845 -19.5473 -19.5054 -19.4687 -19.3904
   -19.3178 -19.1584 -18.9184  -9.3748  -9.1042  -8.9501  -8.7993  -8.6766
    -8.6507  -8.4623  -8.3337  -8.0808  -8.0061  -7.9303  -7.8554  -7.8024
    -7.7229  -7.6878  -7.5977  -7.5116  -7.3426  -7.1963  -7.0323  -6.9638
    -6.7836  -6.5495  -6.4992  -6.3151  -6.2407  -6.1430  -5.9731  -5.9007
    -5.8672  -5.7882  -5.7216  -5.5713  -5.4931  -5.3810  -5.3206  -5.2750
    -5.1951  -5.0716  -5.0222  -4.9652  -4.7606  -4.7007  -4.6144  -4.4957
    -4.3509  -4.2836  -4.2011  -4.1404  -4.0103  -3.9010  -3.8123  -3.7025
    -3.4872  -3.4049  -3.2587  -3.0436  -2.8934  -2.4976  -2.4495  -2.3906
    -2.3857  -2.2243  -2.1995  -2.1527  -2.0394  -2.0095  -1.9139  -1.8529
    -1.7416  -1.4024  -1.3912  -1.2200  -1.1218  -0.8027  -0.6829  -0.5965
    -0.4715  -0.4229  -0.2946  -0.0495   0.8277   1.2083   1.5324   1.5837
     1.8756   2.2779   2.4673   2.7514   2.9302   3.0179   3.1336   3.2249
     3.3430   3.3885   3.6425   3.8232   4.0152   4.6976   4.7741   5.2627
     5.5556   5.5982   5.7690   6.3489   6.5486   6.6068   6.6873   6.7612
     6.8339   6.9535   7.0876   7.3061   7.5665   7.7839   7.8940   7.9953
     8.2341   8.3207   8.3717   8.4813   8.5316   8.6022   8.7072   8.7553
     8.9737   9.1722   9.2420   9.3555   9.5102   9.6224   9.8037   9.8611
     9.9974  10.0853  10.1259  10.1539  10.2832  10.3452  10.3625  10.5002
    10.5977  10.6471  10.7172  10.9028  10.9561  11.1070  11.1984  11.2868
    11.4009  11.5207  11.5301  11.5972  11.6778  11.7766  11.8166  11.8592
    11.9506  12.0125  12.1219  12.1812  12.2397  12.3216  12.4962  12.5230
    12.5918  12.6176  12.6924  12.7389  12.8255  12.8589  12.9324  13.0252
    13.0828  13.1863  13.2866  13.3686  13.4201  13.5125  13.5741  13.6476
    13.7775  13.8378  13.9582  14.0058  14.1428  14.1955  14.2372  14.3233
    14.4420  14.4905  14.5674  14.6146  14.6425  14.7970  14.8676  14.9377
    15.0413  15.0780  15.1225  15.2215  15.3287  15.4200  15.5492  15.5899
    15.6447  15.7142  15.7850  15.8399  15.8916  15.9390  15.9758  16.0774
    16.1088  16.1714  16.3042  16.3274  16.3630  16.4557  16.5528  16.6209
    16.6715  16.7388  16.7855  16.8083  16.8823  16.9301  16.9809  17.0692
    17.1524  17.2147  17.2901  17.3832  17.4287  17.4726  17.5046  17.6031
    17.7084  17.7288  17.8336  17.8523  17.9210  17.9589  18.0362  18.0820
    18.2256  18.2455  18.2999  18.3210  18.4263  18.4982  18.6090  18.6430
    18.6887  18.8207  18.8509  18.9303  19.0457  19.1060  19.1665  19.1865
    19.2842  19.3519  19.4556  19.4947  19.5245  19.6071  19.7307  19.7548
    19.8424  19.8888  19.9515  19.9968  20.1614  20.1965  20.3066  20.3757
    20.4843  20.5565  20.6126  20.6755  20.7937  20.7991  20.8877  20.9009
    20.9665  21.0407  21.0997  21.1646  21.2444  21.3029  21.3467  21.3986
    21.5189  21.5296  21.5829  21.6374  21.6891  21.7700  21.8294  21.9527
    21.9648  22.0377  22.0465  22.0998  22.1481

     the Fermi energy is    -1.2878 ev

!    total energy              =   -2161.58550721 Ry
     Harris-Foulkes estimate   =   -2161.58550722 Ry
     estimated scf accuracy    <          8.5E-09 Ry

     The total energy is the sum of the following terms:

     one-electron contribution =  -25153.89815352 Ry
     hartree contribution      =   12598.88249988 Ry
     xc contribution           =    -337.75896392 Ry
     ewald contribution        =   10729.36230020 Ry
     Hubbard energy            =       1.82699818 Ry
     smearing contrib. (-TS)   =      -0.00018803 Ry

     convergence has been achieved in  21 iterations

     Forces acting on atoms (Ry/au):

     negative rho (up, down):  0.576E+00 0.000E+00
     atom    1 type  1   force =    -0.00462687   -0.00812676    0.00068935
     atom    2 type  1   force =     0.00007983    0.00339783   -0.00045709
     atom    3 type  2   force =     0.03467393    0.00310755    0.00015170
     atom    4 type  2   force =     0.00272030    0.00513749   -0.00002044
     atom    5 type  1   force =     0.00262397   -0.03978200   -0.00051603
     atom    6 type  1   force =     0.00326885    0.04076559   -0.00050172
     atom    7 type  1   force =    -0.00003126   -0.00279385   -0.00056539
     atom    8 type  1   force =     0.00037785   -0.00165948    0.00081597
     atom    9 type  2   force =    -0.00158800    0.00325843    0.00012478
     atom   10 type  2   force =     0.00006733   -0.00219796    0.00013038
     atom   11 type  1   force =    -0.00681612    0.01269736    0.00016159
     atom   12 type  1   force =    -0.00864074   -0.01360883    0.00010077
     atom   13 type  1   force =    -0.00085015   -0.00101634    0.00024134
     atom   14 type  1   force =    -0.00394390   -0.00787842    0.00070460
     atom   15 type  1   force =    -0.00014713    0.00321225   -0.00047533
     atom   16 type  2   force =    -0.03524410    0.00412910    0.00015895
     atom   17 type  2   force =     0.00222142    0.00525159    0.00009301
     atom   18 type  1   force =    -0.00064544   -0.04048675   -0.00054212
     atom   19 type  1   force =     0.00124048    0.03997693   -0.00048263
     atom   20 type  1   force =    -0.00023657   -0.00324310    0.00012548
     atom   21 type  1   force =    -0.00021460   -0.00164549    0.00078416
     atom   22 type  2   force =     0.00235257    0.00306243    0.00004195
     atom   23 type  2   force =    -0.00009467    0.00155520    0.00005145
     atom   24 type  1   force =     0.00711491    0.01309576    0.00009344
     atom   25 type  1   force =     0.00870521   -0.01413876    0.00005304
     atom   26 type  1   force =    -0.00185381   -0.00133499    0.00009349
     atom   27 type  3   force =    -0.00000300    0.00010739   -0.00048156
     atom   28 type  3   force =    -0.00000180   -0.00005866   -0.00094381
     atom   29 type  3   force =    -0.00027759   -0.00045055    0.00020524
     atom   30 type  3   force =    -0.00030107   -0.00032323    0.00018336
     atom   31 type  1   force =     0.00007014   -0.00000972   -0.00001796

     Total force =     0.002443     Total SCF correction =     0.000160

     bfgs converged in  12 scf cycles and  11 bfgs steps
     (criteria: energy < 0.10E-03, force < 0.10E-02)

     End of BFGS Geometry Optimization

     Final energy   =   -2161.5855072083 Ry
Begin final coordinates

ATOMIC_POSITIONS (crystal)
O0       0.000000000   0.000000000   0.379153915    0   0   1
O0       0.000000000   0.500000000   0.404017987    0   0   1
Ru1      0.250000000   0.500000000   0.454729569    0   0   1
Ru1      0.000000000   0.000000000   0.452721376    0   0   1
O0       0.250000000   0.810000000   0.452909128    0   0   1
O0       0.250000000   0.190000000   0.452778997    0   0   1
O0       0.000000000   0.500000000   0.499202243    0   0   1
O0       0.000000000   0.000000000   0.525283415    0   0   1
Ru1      0.250000000   0.000000000   0.575973747    0   0   1
Ru1      0.000000000   0.500000000   0.568903167    0   0   1
O0       0.250000000   0.690000000   0.574850496    0   0   1
O0       0.250000000   0.310000000   0.574765425    0   0   1
O0       0.000000000   0.000000000   0.617695805    0   0   1
O0       0.500000000   0.000000000   0.378995444    0   0   1
O0       0.500000000   0.500000000   0.405028403    0   0   1
Ru1      0.750000000   0.500000000   0.454723076    0   0   1
Ru1      0.500000000   0.000000000   0.452491668    0   0   1
O0       0.750000000   0.810000000   0.452892481    0   0   1
O0       0.750000000   0.190000000   0.452793369    0   0   1
O0       0.500000000   0.500000000   0.503474509    0   0   1
O0       0.500000000   0.000000000   0.525419135    0   0   1
Ru1      0.750000000   0.000000000   0.575883466    0   0   1
Ru1      0.500000000   0.500000000   0.582025857    0   0   1
O0       0.750000000   0.690000000   0.574869939    0   0   1
O0       0.750000000   0.310000000   0.574646889    0   0   1
O0       0.500000000   0.000000000   0.615962149    0   0   1
H2      -0.000447381   0.624830019   0.382175839
H2       0.499426167   0.619162082   0.381422338
H2       0.145525766   0.030656685   0.366406882
H2       0.646160203   0.028177752   0.366298402
O0       0.500123783   0.497242623   0.646474884
End final coordinates

     General routines

     Parallel routines
     Hubbard U routines

   This run was terminated on:  12:12:13  27Apr2014

   JOB DONE.
Running PBS batch system epilogue script
Job id: 340440.audhumbla.fysik.dtu.dk
Username: zhonxu
Groupname: campgst
Jobname: RuO2/Eads-2-layers/O-U-3.5
Sessionid: 472
Queuename: verylong
Accounting:
This job has allocated the following 16 nodes:
b039 b039 b039 b039 b039 b039 b039 b039 b037 b037 b037 b037 b037 b037 b037 b037
Finished epilogue job 340440.audhumbla.fysik.dtu.dk for zhonxu