     Program PWSCF v.5.0.2 (svn rev. 9656) starts on 28May2014 at  8:21: 0

     Current dimensions of program PWSCF are:
     Max number of different atomic species (ntypx) = 10
     Max number of k-points (npk) =  40000
     Max angular momentum in pseudopotentials (lmaxx) =  3
     Reading input from pwscf.in
Warning: card &CELL ignored
Warning: card / ignored

     Subspace diagonalization in iterative solution of the eigenvalue problem:
     a serial algorithm will be used

     bravais-lattice index     =            0
     lattice parameter (alat)  =      12.0187  a.u.
     unit-cell volume          =    7280.5819 (a.u.)^3
     number of atoms/cell      =           33
     number of atomic types    =            3
     number of electrons       =       245.00
     number of Kohn-Sham states=          367
     kinetic-energy cutoff     =      40.0000  Ry
     charge density cutoff     =     500.0000  Ry
     convergence threshold     =      1.0E-06
     mixing beta               =       0.7000
     number of iterations used =            8  plain     mixing
     Exchange-correlation      = SLA  PW   PBE  PBE ( 1 4 3 4 0)
     EXX-fraction              =        0.00
     nstep                     =           50

     celldm(1)=  12.018658  celldm(2)=   0.000000  celldm(3)=   0.000000
     celldm(4)=   0.000000  celldm(5)=   0.000000  celldm(6)=   0.000000

     crystal axes: (cart. coord. in units of alat)
               a(1) = (   1.000000   0.000000   0.000000 )
               a(2) = (   0.000000   1.009517   0.000000 )
               a(3) = (   0.000000   0.000000   4.154171 )

     reciprocal axes: (cart. coord. in units 2 pi/alat)
               b(1) = (  1.000000  0.000000  0.000000 )
               b(2) = (  0.000000  0.990572  0.000000 )
               b(3) = (  0.000000  0.000000  0.240722 )

     PseudoPot. # 1 for O  read from file:
     /home/camp/zhonxu/pseudo/o_pbe_v1.01.uspp.F.UPF
     MD5 check sum: 2bcb18d16ea4b960afae9ec6d52f22d2
     Pseudo is Ultrasoft + core correction, Zval =  6.0
     Generated by new atomic code, or converted to UPF format
     Using radial grid of  737 points,  5 beta functions with:
                l(1) =   0
                l(2) =   0
                l(3) =   1
                l(4) =   1
                l(5) =   2
     Q(r) pseudized with  8 coefficients,  rinner =    0.900   0.900   0.900
                                                       0.900   0.900

     PseudoPot. # 2 for Ir read from file:
     /home/camp/zhonxu/pseudo/ir_pbe_v1.uspp.F.UPF
     MD5 check sum: abf987a9674477536ede83817f8f8b70
     Pseudo is Ultrasoft + core correction, Zval = 15.0
     Generated by new atomic code, or converted to UPF format
     Using radial grid of  983 points,  7 beta functions with:
                l(1) =   0
                l(2) =   0
                l(3) =   1
                l(4) =   1
                l(5) =   1
                l(6) =   2
                l(7) =   2
     Q(r) pseudized with  8 coefficients,  rinner =    1.350   1.350   1.350
                                                       1.350   1.350

     PseudoPot. # 3 for H  read from file:
     /home/camp/zhonxu/pseudo/h_pbe_v1.uspp.F.UPF
     MD5 check sum: 3408e3ff4ec8b0a4e358431e7e038a48
     Pseudo is Ultrasoft, Zval =  1.0
     Generated by new atomic code, or converted to UPF format
     Using radial grid of  615 points,  2 beta functions with:
                l(1) =   0
                l(2) =   0
     Q(r) pseudized with  8 coefficients,  rinner =    0.700

     atomic species   valence    mass     pseudopotential
        O0             6.00    15.99940     O ( 1.00)
        Ir1           15.00   192.22000     Ir( 1.00)
        H2             1.00     1.00794     H ( 1.00)

     Simplified LDA+U calculation (l_max = 2) with parameters (eV):
     atomic species    L          U    alpha       J0     beta
        Ir1            2     1.5000   0.0000   0.0000   0.0000

     No symmetry found

   Cartesian axes

     site n.     atom                  positions (alat units)
         1           O0  tau(   1) = (   0.0000000   0.0000000   1.5694875  )
         2           O0  tau(   2) = (   0.0000000   0.5047586   1.6702677  )
         3           Ir1 tau(   3) = (   0.2500000   0.5047586   1.8805934  )
         4           Ir1 tau(   4) = (   0.0000000   0.0000000   1.8807595  )
         5           O0  tau(   5) = (   0.2500000   0.8177090   1.8801779  )
         6           O0  tau(   6) = (   0.2500000   0.1918083   1.8787655  )
         7           O0  tau(   7) = (   0.0000000   0.5047586   2.0695666  )
         8           O0  tau(   8) = (   0.0000000   0.0000000   2.1948564  )
         9           Ir1 tau(   9) = (   0.2500000   0.0000000   2.3901025  )
        10           Ir1 tau(  10) = (   0.0000000   0.5047586   2.3742751  )
        11           O0  tau(  11) = (   0.2500000   0.6965669   2.3856575  )
        12           O0  tau(  12) = (   0.2500000   0.3129503   2.3949628  )
        13           O0  tau(  13) = (   0.0000000   0.0000000   2.5754200  )
        14           O0  tau(  14) = (   0.5000000   0.0000000   1.5694875  )
        15           O0  tau(  15) = (   0.5000000   0.5047586   1.6704338  )
        16           Ir1 tau(  16) = (   0.7500000   0.5047586   1.8805934  )
        17           Ir1 tau(  17) = (   0.5000000   0.0000000   1.8805518  )
        18           O0  tau(  18) = (   0.7500000   0.8177090   1.8801364  )
        19           O0  tau(  19) = (   0.7500000   0.1918083   1.8788486  )
        20           O0  tau(  20) = (   0.5000000   0.5047586   2.0759640  )
        21           O0  tau(  21) = (   0.5000000   0.0000000   2.1945241  )
        22           Ir1 tau(  22) = (   0.7500000   0.0000000   2.3900609  )
        23           Ir1 tau(  23) = (   0.5000000   0.5047586   2.3998648  )
        24           O0  tau(  24) = (   0.7500000   0.6965669   2.3856575  )
        25           O0  tau(  25) = (   0.7500000   0.3129503   2.3949628  )
        26           O0  tau(  26) = (   0.5000000   0.0000000   2.5728445  )
        27           H2  tau(  27) = (   0.0000400   0.6420328   1.5957418  )
        28           H2  tau(  28) = (   0.4999400   0.6424971   1.5965311  )
        29           H2  tau(  29) = (   0.1432100   0.0360095   1.5217560  )
        30           H2  tau(  30) = (   0.6436700   0.0339703   1.5215899  )
        31           O0  tau(  31) = (   0.4997900   0.5432313   2.6993805  )
        32           O0  tau(  32) = (   0.5001800   0.3480815   2.8224271  )
        33           H2  tau(  33) = (   0.4999800   0.4114489   2.9642920  )

     number of k points=    10  Methfessel-Paxton smearing, width (Ry)=  0.0100
                       cart. coord. in units 2pi/alat
        k(    1) = (   0.0000000   0.0000000   0.0000000), wk =   0.1250000
        k(    2) = (   0.0000000   0.2476431   0.0000000), wk =   0.2500000
        k(    3) = (   0.0000000  -0.4952862   0.0000000), wk =   0.1250000
        k(    4) = (   0.2500000   0.0000000   0.0000000), wk =   0.2500000
        k(    5) = (   0.2500000   0.2476431   0.0000000), wk =   0.2500000
        k(    6) = (   0.2500000  -0.4952862   0.0000000), wk =   0.2500000
        k(    7) = (  -0.5000000   0.0000000   0.0000000), wk =   0.1250000
        k(    8) = (  -0.5000000   0.2476431   0.0000000), wk =   0.2500000
        k(    9) = (  -0.5000000  -0.4952862   0.0000000), wk =   0.1250000
        k(   10) = (  -0.2500000   0.2476431   0.0000000), wk =   0.2500000

     Largest allocated arrays     est. size (Mb)     dimensions
     Largest temporary arrays     est. size (Mb)     dimensions

     Check: negative/imaginary core charge=   -0.000003    0.000000

     Initial potential from superposition of free atoms
     Check: negative starting charge=   -3.336869

     starting charge  240.99967, renormalised to  245.00000

     negative rho (up, down):  0.339E+01 0.000E+00
     Number of +U iterations with fixed ns =  0
     Starting occupations:
 --- enter write_ns ---
 LDA+U parameters:
U( 2)     =  1.50000000
alpha( 2) =  0.00000000
atom    3   Tr[ns(na)] =   7.00000
    eigenvalues:
  0.700  0.700  0.700  0.700  0.700
    eigenvectors:
  1.000  0.000  0.000  0.000  0.000
  0.000  1.000  0.000  0.000  0.000
  0.000  0.000  1.000  0.000  0.000
  0.000  0.000  0.000  1.000  0.000
  0.000  0.000  0.000  0.000  1.000
    occupations:
  0.700  0.000  0.000  0.000  0.000
  0.000  0.700  0.000  0.000  0.000
  0.000  0.000  0.700  0.000  0.000
  0.000  0.000  0.000  0.700  0.000
  0.000  0.000  0.000  0.000  0.700
atom    4   Tr[ns(na)] =   7.00000
    eigenvalues:
  0.700  0.700  0.700  0.700  0.700
    eigenvectors:
  1.000  0.000  0.000  0.000  0.000
  0.000  1.000  0.000  0.000  0.000
  0.000  0.000  1.000  0.000  0.000
  0.000  0.000  0.000  1.000  0.000
  0.000  0.000  0.000  0.000  1.000
    occupations:
  0.700  0.000  0.000  0.000  0.000
  0.000  0.700  0.000  0.000  0.000
  0.000  0.000  0.700  0.000  0.000
  0.000  0.000  0.000  0.700  0.000
  0.000  0.000  0.000  0.000  0.700
atom    9   Tr[ns(na)] =   7.00000
    eigenvalues:
  0.700  0.700  0.700  0.700  0.700
    eigenvectors:
  1.000  0.000  0.000  0.000  0.000
  0.000  1.000  0.000  0.000  0.000
  0.000  0.000  1.000  0.000  0.000
  0.000  0.000  0.000  1.000  0.000
  0.000  0.000  0.000  0.000  1.000
    occupations:
  0.700  0.000  0.000  0.000  0.000
  0.000  0.700  0.000  0.000  0.000
  0.000  0.000  0.700  0.000  0.000
  0.000  0.000  0.000  0.700  0.000
  0.000  0.000  0.000  0.000  0.700
atom   10   Tr[ns(na)] =   7.00000
    eigenvalues:
  0.700  0.700  0.700  0.700  0.700
    eigenvectors:
  1.000  0.000  0.000  0.000  0.000
  0.000  1.000  0.000  0.000  0.000
  0.000  0.000  1.000  0.000  0.000
  0.000  0.000  0.000  1.000  0.000
  0.000  0.000  0.000  0.000  1.000
    occupations:
  0.700  0.000  0.000  0.000  0.000
  0.000  0.700  0.000  0.000  0.000
  0.000  0.000  0.700  0.000  0.000
  0.000  0.000  0.000  0.700  0.000
  0.000  0.000  0.000  0.000  0.700
atom   16   Tr[ns(na)] =   7.00000
    eigenvalues:
  0.700  0.700  0.700  0.700  0.700
    eigenvectors:
  1.000  0.000  0.000  0.000  0.000
  0.000  1.000  0.000  0.000  0.000
  0.000  0.000  1.000  0.000  0.000
  0.000  0.000  0.000  1.000  0.000
  0.000  0.000  0.000  0.000  1.000
    occupations:
  0.700  0.000  0.000  0.000  0.000
  0.000  0.700  0.000  0.000  0.000
  0.000  0.000  0.700  0.000  0.000
  0.000  0.000  0.000  0.700  0.000
  0.000  0.000  0.000  0.000  0.700
atom   17   Tr[ns(na)] =   7.00000
    eigenvalues:
  0.700  0.700  0.700  0.700  0.700
    eigenvectors:
  1.000  0.000  0.000  0.000  0.000
  0.000  1.000  0.000  0.000  0.000
  0.000  0.000  1.000  0.000  0.000
  0.000  0.000  0.000  1.000  0.000
  0.000  0.000  0.000  0.000  1.000
    occupations:
  0.700  0.000  0.000  0.000  0.000
  0.000  0.700  0.000  0.000  0.000
  0.000  0.000  0.700  0.000  0.000
  0.000  0.000  0.000  0.700  0.000
  0.000  0.000  0.000  0.000  0.700
atom   22   Tr[ns(na)] =   7.00000
    eigenvalues:
  0.700  0.700  0.700  0.700  0.700
    eigenvectors:
  1.000  0.000  0.000  0.000  0.000
  0.000  1.000  0.000  0.000  0.000
[...]
  0.034  0.000  0.000  0.976  0.000
 -0.000 -0.008 -0.000  0.000  0.609
atom   16   Tr[ns(na)] =   8.08292
    eigenvalues:
  0.606  0.631  0.872  0.959  0.973
    eigenvectors:
  0.006  0.180  0.003  0.002  0.809
  0.976  0.024  0.000  0.000  0.000
  0.000  0.000  0.993  0.003  0.003
  0.018  0.796  0.000  0.001  0.185
  0.000  0.000  0.003  0.994  0.003
    occupations:
  0.909  0.005  0.005 -0.133  0.001
  0.005  0.606 -0.000  0.002 -0.006
  0.005 -0.000  0.873 -0.004 -0.005
 -0.133  0.002 -0.004  0.694 -0.000
  0.001 -0.006 -0.005 -0.000  0.959
atom   17   Tr[ns(na)] =   8.06516
    eigenvalues:
  0.618  0.664  0.860  0.910  0.981
    eigenvectors:
  0.000  0.990  0.000  0.000  0.010
  0.000  0.000  0.041  0.959  0.000
  0.000  0.000  0.959  0.041  0.000
  0.000  0.010  0.000  0.000  0.990
  1.000  0.000  0.000  0.000  0.000
    occupations:
  0.667 -0.003 -0.001  0.031  0.001
 -0.003  0.908  0.010  0.000 -0.001
 -0.001  0.010  0.862 -0.000  0.001
  0.031  0.000 -0.000  0.977  0.000
  0.001 -0.001  0.001  0.000  0.618
atom   22   Tr[ns(na)] =   8.04408
    eigenvalues:
  0.651  0.667  0.840  0.886  0.978
    eigenvectors:
  0.000  0.141  0.001  0.000  0.858
  1.000  0.000  0.000  0.000  0.000
  0.000  0.000  0.993  0.006  0.000
  0.000  0.858  0.000  0.000  0.141
  0.000  0.000  0.006  0.994  0.000
    occupations:
  0.934  0.002  0.001 -0.108  0.000
  0.002  0.651  0.001 -0.001 -0.000
  0.001  0.001  0.841 -0.004  0.003
 -0.108 -0.001 -0.004  0.711  0.000
  0.000 -0.000  0.003  0.000  0.885
atom   23   Tr[ns(na)] =   8.08008
    eigenvalues:
  0.617  0.657  0.849  0.939  0.978
    eigenvectors:
  0.000  0.993  0.000  0.003  0.004
  0.002  0.000  0.998  0.000  0.000
  0.000  0.003  0.000  0.996  0.001
  0.000  0.004  0.000  0.001  0.995
  0.998  0.000  0.002  0.000  0.000
    occupations:
  0.659 -0.000  0.014  0.021 -0.000
 -0.000  0.849 -0.001 -0.000 -0.009
  0.014 -0.001  0.938 -0.002  0.000
  0.021 -0.000 -0.002  0.977 -0.000
 -0.000 -0.009  0.000 -0.000  0.617
N of occupied +U levels =  64.5143286
 --- exit write_ns ---

     Threshold (ethr) on eigenvalues was too large:
     Diagonalizing with lowered threshold

     Davidson diagonalization with overlap
     ethr =  1.29E-09,  avg # of iterations =  2.8

[...]

     total energy              =   -2138.87335061 Ry
     Harris-Foulkes estimate   =   -2138.87335061 Ry
     estimated scf accuracy    <       0.00000002 Ry

     iteration # 12     ecut=    40.00 Ry     beta=0.70
     Davidson diagonalization with overlap
     ethr =  6.86E-12,  avg # of iterations =  1.0

     negative rho (up, down):  0.313E+01 0.000E+00

     End of self-consistent calculation
 --- enter write_ns ---
 LDA+U parameters:
U( 2)     =  1.50000000
alpha( 2) =  0.00000000
atom    3   Tr[ns(na)] =   8.08302
    eigenvalues:
  0.606  0.632  0.872  0.959  0.973
    eigenvectors:
  0.006  0.180  0.003  0.002  0.809
  0.975  0.025  0.000  0.000  0.000
  0.000  0.000  0.991  0.006  0.003
  0.019  0.795  0.000  0.000  0.185
  0.000  0.000  0.005  0.992  0.003
    occupations:
  0.909 -0.005  0.005 -0.133 -0.001
 -0.005  0.606 -0.001 -0.002 -0.006
  0.005 -0.001  0.873 -0.004  0.006
 -0.133 -0.002 -0.004  0.694 -0.000
 -0.001 -0.006  0.006 -0.000  0.959
atom    4   Tr[ns(na)] =   8.06715
    eigenvalues:
  0.618  0.664  0.861  0.910  0.980
    eigenvectors:
  0.000  0.990  0.000  0.000  0.010
  0.000  0.000  0.054  0.946  0.000
  0.000  0.000  0.946  0.054  0.000
  0.000  0.010  0.000  0.000  0.990
  1.000  0.000  0.000  0.000  0.000
    occupations:
  0.667 -0.003 -0.001  0.031  0.001
 -0.003  0.908  0.011  0.000 -0.001
 -0.001  0.011  0.864 -0.000  0.000
  0.031  0.000 -0.000  0.977  0.000
  0.001 -0.001  0.000  0.000  0.618
atom    9   Tr[ns(na)] =   8.04424
    eigenvalues:
  0.651  0.667  0.841  0.886  0.978
    eigenvectors:
  0.000  0.141  0.001  0.000  0.858
  0.999  0.001  0.000  0.000  0.000
  0.000  0.000  0.992  0.007  0.000
  0.001  0.857  0.000  0.000  0.141
  0.000  0.000  0.007  0.993  0.000
    occupations:
  0.934 -0.001  0.001 -0.108 -0.001
 -0.001  0.651 -0.000  0.001 -0.001
  0.001 -0.000  0.841 -0.004 -0.004
 -0.108  0.001 -0.004  0.711  0.001
 -0.001 -0.001 -0.004  0.001  0.885
atom   10   Tr[ns(na)] =   8.04784
    eigenvalues:
  0.593  0.609  0.920  0.923  0.979
    eigenvectors:
  0.992  0.000  0.000  0.000  0.008
  0.000  0.001  0.007  0.992  0.000
  0.000  0.000  0.992  0.007  0.000
  0.008  0.000  0.000  0.000  0.992
  0.000  0.999  0.000  0.001  0.000
    occupations:
  0.596  0.000  0.006  0.034 -0.000
  0.000  0.923 -0.000  0.000 -0.008
  0.006 -0.000  0.920  0.000 -0.000
  0.034  0.000  0.000  0.976  0.000
 -0.000 -0.008 -0.000  0.000  0.609
atom   16   Tr[ns(na)] =   8.08295
    eigenvalues:
  0.606  0.632  0.872  0.959  0.973
    eigenvectors:
  0.006  0.180  0.003  0.002  0.809
  0.976  0.024  0.000  0.000  0.000
  0.000  0.000  0.993  0.003  0.003
  0.018  0.796  0.000  0.001  0.185
  0.000  0.000  0.003  0.994  0.003
    occupations:
  0.909  0.005  0.005 -0.133  0.001
  0.005  0.606 -0.000  0.002 -0.006
  0.005 -0.000  0.873 -0.004 -0.005
 -0.133  0.002 -0.004  0.694 -0.000
  0.001 -0.006 -0.005 -0.000  0.959
atom   17   Tr[ns(na)] =   8.06511
    eigenvalues:
  0.618  0.664  0.860  0.910  0.981
    eigenvectors:
  0.000  0.990  0.000  0.000  0.010
  0.000  0.000  0.041  0.959  0.000
  0.000  0.000  0.959  0.041  0.000
  0.000  0.010  0.000  0.000  0.990
  1.000  0.000  0.000  0.000  0.000
    occupations:
  0.667 -0.003 -0.001  0.031  0.001
 -0.003  0.908  0.010  0.000 -0.001
 -0.001  0.010  0.862 -0.000  0.001
  0.031  0.000 -0.000  0.977  0.000
  0.001 -0.001  0.001  0.000  0.618
atom   22   Tr[ns(na)] =   8.04437
    eigenvalues:
  0.651  0.667  0.841  0.886  0.978
    eigenvectors:
  0.000  0.141  0.001  0.000  0.858
  1.000  0.000  0.000  0.000  0.000
  0.000  0.000  0.993  0.006  0.000
  0.000  0.858  0.000  0.000  0.141
  0.000  0.000  0.006  0.994  0.000
    occupations:
  0.934  0.002  0.001 -0.108  0.000
  0.002  0.651  0.001 -0.001 -0.000
  0.001  0.001  0.841 -0.004  0.003
 -0.108 -0.001 -0.004  0.711  0.000
  0.000 -0.000  0.003  0.000  0.885
atom   23   Tr[ns(na)] =   8.07997
    eigenvalues:
  0.617  0.657  0.849  0.939  0.978
    eigenvectors:
  0.000  0.993  0.000  0.003  0.004
  0.002  0.000  0.998  0.000  0.000
  0.000  0.003  0.000  0.996  0.001
  0.000  0.004  0.000  0.001  0.995
  0.998  0.000  0.002  0.000  0.000
    occupations:
  0.659 -0.000  0.015  0.021 -0.000
 -0.000  0.849 -0.001 -0.000 -0.009
  0.015 -0.001  0.938 -0.002  0.000
  0.021 -0.000 -0.002  0.977 -0.000
 -0.000 -0.009  0.000 -0.000  0.617
N of occupied +U levels =  64.5146483
 --- exit write_ns ---

[...]

          k = 0.2500-0.4953 0.0000 ( 31088 PWs)   bands (ev):

[...]

          k =-0.2500 0.2476 0.0000 ( 31099 PWs)   bands (ev):

   -50.6077 -50.5898 -50.5827 -50.4789 -50.4772 -50.4399 -50.4297 -50.4174
   -50.4042 -50.3644 -50.2992 -50.2726 -50.2577 -50.2440 -50.1978 -50.1959
   -50.1524 -50.0967 -50.0937 -50.0914 -50.0861 -50.0813 -50.0643 -49.9365
   -23.1110 -21.0025 -20.6250 -20.5873 -20.5254 -20.1879 -20.0487 -20.0307
   -19.8841 -19.7546 -19.6426 -19.5633 -19.4871 -19.4095 -19.2899 -19.2099
   -19.1111 -18.3073 -18.1697 -17.1406  -9.3933  -9.3058  -9.2031  -8.8614
    -8.5639  -8.4604  -8.4360  -8.3604  -8.2734  -8.2007  -8.1287  -8.0614
    -8.0198  -7.8874  -7.7817  -7.6499  -7.5485  -7.4462  -7.3261  -7.0672
    -7.0155  -6.8468  -6.7300  -6.6701  -6.6077  -6.3734  -6.1246  -6.0322
    -5.8925  -5.7967  -5.7625  -5.6869  -5.6067  -5.5468  -5.4822  -5.4650
    -5.3406  -5.2034  -5.0957  -4.9783  -4.8770  -4.8213  -4.6677  -4.5266
    -4.3277  -4.2819  -4.1645  -4.0302  -3.9482  -3.8931  -3.7442  -3.6404
    -3.4610  -3.2937  -3.2412  -2.9367  -2.8590  -2.7156  -2.6734  -2.4951
    -2.2810  -2.2776  -2.2527  -2.1634  -2.0888  -2.0089  -1.9400  -1.8960
    -1.8239  -1.7568  -1.6885  -1.5395  -1.3432  -1.1273  -0.8940  -0.8145
    -0.6724  -0.6374  -0.4136  -0.2723  -0.1324  -0.0414   0.1345   0.4346
     1.3953   1.4545   1.6764   2.0722   2.1717   2.6179   2.6886   2.9579
     3.0920   3.2771   3.3115   3.5629   3.5935   3.7653   3.8307   4.0827
     4.2153   4.4443   4.8370   5.3351   5.3973   5.8808   6.0025   6.0871
     6.3264   6.4667   6.6037   6.7145   6.8083   7.0705   7.2183   7.3144
     7.5313   7.6759   7.8277   7.9123   8.0041   8.1457   8.2660   8.3478
     8.3727   8.5250   8.7231   8.7955   8.8665   9.0440   9.1029   9.1689
     9.1993   9.3697   9.4611   9.4821   9.4903   9.4981   9.4996   9.5536
     9.5774   9.6285   9.6356   9.6793   9.6811   9.7629   9.8320   9.9331
    10.0109  10.1393  10.2324  10.2805  10.3544  10.4028  10.5159  10.5553
    10.6371  10.7097  10.8235  10.8925  10.9543  11.0347  11.1509  11.1985
    11.3236  11.3932  11.4596  11.5925  11.6621  11.7595  11.8004  11.9142
    11.9723  12.0574  12.1811  12.2520  12.3475  12.4599  12.5016  12.5588
    12.5758  12.6967  12.7904  12.8813  12.9265  13.0191  13.0884  13.1313
    13.2070  13.3065  13.3703  13.4661  13.5736  13.6744  13.7047  13.7963
    13.8954  13.9494  14.0427  14.0861  14.1224  14.1887  14.3001  14.3985
    14.4650  14.5172  14.6339  14.7093  14.8323  14.8811  15.0284  15.0802
    15.1335  15.2338  15.3849  15.4374  15.4907  15.6143  15.6765  15.6813
    15.7349  15.7702  15.8561  15.9022  15.9614  16.0189  16.0689  16.0885
    16.2250  16.2600  16.3463  16.3856  16.4737  16.5180  16.5490  16.5885
    16.7011  16.7525  16.7818  16.8273  16.8989  16.9645  17.1539  17.2366
    17.3010  17.3412  17.4092  17.4912  17.5466  17.5862  17.6251  17.6811
    17.7435  17.8278  17.8658  17.9002  17.9169  18.0173  18.0614  18.1420
    18.2372  18.3340  18.3784  18.5111  18.6087  18.7054  18.7507  18.7921
    18.8360  18.8709  19.0216  19.0341  19.0835  19.1772  19.2374  19.3544
    19.3823  19.4110  19.5403  19.6267  19.6804  19.7600  19.7976  19.8387
    19.9285  19.9886  20.1274  20.1634  20.2588  20.3295  20.4560  20.5156
    20.5626  20.6388  20.7297  20.7619  20.8032  20.8669  20.9002  21.0373
    21.0960  21.1444  21.1831  21.2558  21.2661  21.3057  21.3412  21.4117
    21.5161  21.5351  21.6374  21.6755  21.7450  21.8064  21.8533  21.8965
    21.9716  21.9889  22.0647  22.1269  22.1956  22.2711  22.3829

     the Fermi energy is    -0.4771 ev

!    total energy              =   -2138.87335060 Ry
     Harris-Foulkes estimate   =   -2138.87335061 Ry
     estimated scf accuracy    <          6.3E-09 Ry

     The total energy is the sum of the following terms:

     one-electron contribution =  -23108.33502932 Ry
     hartree contribution      =   11604.06702350 Ry
     xc contribution           =    -584.13842652 Ry
     ewald contribution        =    9948.93943877 Ry
     Hubbard energy            =       0.59348785 Ry
     smearing contrib. (-TS)   =       0.00015511 Ry

     convergence has been achieved in  12 iterations

     Forces acting on atoms (Ry/au):

     negative rho (up, down):  0.313E+01 0.000E+00
     atom    1 type  1   force =    -0.00793079   -0.01363066   -0.00035502
     atom    2 type  1   force =     0.00018165    0.00552697    0.00003668
     atom    3 type  2   force =     0.03087623    0.00453366   -0.00004897
     atom    4 type  2   force =     0.00919641    0.00771369   -0.00010933
     atom    5 type  1   force =    -0.00306393   -0.02129306    0.00027872
     atom    6 type  1   force =     0.00347886    0.02018534    0.00030434
     atom    7 type  1   force =    -0.00032927   -0.00342884   -0.00016244
     atom    8 type  1   force =    -0.00313082    0.00048762   -0.00009190
     atom    9 type  2   force =     0.00738320    0.00144758   -0.00012314
     atom   10 type  2   force =    -0.00010741   -0.00081376   -0.00056477
     atom   11 type  1   force =    -0.00569754    0.01460461    0.00017737
     atom   12 type  1   force =     0.00021531   -0.00922986    0.00022347
     atom   13 type  1   force =    -0.00086007   -0.00298070    0.00018814
     atom   14 type  1   force =    -0.00709677   -0.01369638   -0.00009534
     atom   15 type  1   force =     0.00011820    0.00574296    0.00007992
     atom   16 type  2   force =    -0.03083099    0.00440269   -0.00005133
     atom   17 type  2   force =     0.00899335    0.00830786    0.00000465
     atom   18 type  1   force =    -0.00199866   -0.02175177    0.00025312
     atom   19 type  1   force =     0.00421605    0.01982401    0.00030585
     atom   20 type  1   force =    -0.00027076   -0.00639000    0.00003150
     atom   21 type  1   force =    -0.00328356    0.00129490   -0.00014824
     atom   22 type  2   force =    -0.00491887    0.00117983   -0.00011583
     atom   23 type  2   force =    -0.00029049    0.00259872   -0.00001651
     atom   24 type  1   force =     0.00549232    0.01448030    0.00019855
     atom   25 type  1   force =     0.00043543   -0.00933882    0.00026116
     atom   26 type  1   force =    -0.00104704   -0.01024547   -0.00034962
     atom   27 type  3   force =    -0.00000800   -0.00000666    0.00020822
     atom   28 type  3   force =     0.00000093    0.00004173    0.00030742
     atom   29 type  3   force =     0.00018175    0.00006156    0.00021922
     atom   30 type  3   force =     0.00001885    0.00009296    0.00005943
     atom   31 type  1   force =    -0.00012461   -0.00009448    0.00002309
     atom   32 type  1   force =     0.00019717    0.00028604   -0.00047996
     atom   33 type  3   force =     0.00000387    0.00008742   -0.00044845

     Total force =     0.001436     Total SCF correction =     0.000179
     SCF correction compared to forces is large: reduce conv_thr to get better values

     entering subroutine stress ...

     negative rho (up, down):  0.313E+01 0.000E+00
          total   stress  (Ry/bohr**3)                   (kbar)     P=  -13.59
  -0.00010376   0.00000555   0.00000394        -15.26      0.82      0.58
   0.00000555  -0.00012412   0.00000510          0.82    -18.26      0.75
   0.00000394   0.00000510  -0.00004920          0.58      0.75     -7.24

     bfgs converged in   7 scf cycles and   6 bfgs steps
     (criteria: energy < 0.10E-03, force < 0.10E-02)

     End of BFGS Geometry Optimization

     Final energy   =   -2138.8733506030 Ry
Begin final coordinates

ATOMIC_POSITIONS (crystal)
O0       0.000000000   0.000000000   0.377991163    0   0   1
O0       0.000000000   0.500000000   0.402362850    0   0   1
Ir1      0.250000000   0.500000000   0.452802572    0   0   1
Ir1      0.000000000   0.000000000   0.452801778    0   0   1
O0       0.250000000   0.810000000   0.452654661    0   0   1
O0       0.250000000   0.190000000   0.452292261    0   0   1
O0       0.000000000   0.500000000   0.498542393    0   0   1
O0       0.000000000   0.000000000   0.528372348    0   0   1
Ir1      0.250000000   0.000000000   0.575213323    0   0   1
Ir1      0.000000000   0.500000000   0.571569586    0   0   1
O0       0.250000000   0.690000000   0.574034211    0   0   1
O0       0.250000000   0.310000000   0.576333981    0   0   1
O0       0.000000000   0.000000000   0.619823055    0   0   1
O0       0.500000000   0.000000000   0.377865475    0   0   1
O0       0.500000000   0.500000000   0.402308103    0   0   1
Ir1      0.750000000   0.500000000   0.452798703    0   0   1
Ir1      0.500000000   0.000000000   0.452642335    0   0   1
O0       0.750000000   0.810000000   0.452649843    0   0   1
O0       0.750000000   0.190000000   0.452309552    0   0   1
O0       0.500000000   0.500000000   0.499773083    0   0   1
O0       0.500000000   0.000000000   0.528265610    0   0   1
Ir1      0.750000000   0.000000000   0.575211589    0   0   1
Ir1      0.500000000   0.500000000   0.577504974    0   0   1
O0       0.750000000   0.690000000   0.574035862    0   0   1
O0       0.750000000   0.310000000   0.576339884    0   0   1
O0       0.500000000   0.000000000   0.619321121    0   0   1
H2       0.000001625   0.635316191   0.384211352
H2       0.499906086   0.636077289   0.384432765
H2       0.143031982   0.035674909   0.366387547
H2       0.643655463   0.033812177   0.366335940
O0       0.499596716   0.537474938   0.649694390
O0       0.500394548   0.345170165   0.679258646
H2       0.499988671   0.407792493   0.713429046
End final coordinates

     General routines

     Parallel routines
     Hubbard U routines

   This run was terminated on:  17: 9: 3  28May2014

   JOB DONE.
Running PBS batch system epilogue script
Job id: 373276.audhumbla.fysik.dtu.dk
Username: zhonxu
Groupname: campgst
Jobname: IrO2/Eads-2-layers/OOH-U-1.5
Sessionid: 14117
Queuename: verylong
Accounting:
This job has allocated the following 16 nodes:
d068 d068 d068 d068 d068 d068 d068 d068 d019 d019 d019 d019 d019 d019 d019 d019
Finished epilogue job 373276.audhumbla.fysik.dtu.dk for zhonxu