     Program PWSCF v.5.0.2 (svn rev. 9656) starts on 23Jan2014 at 20:34: 1

     Current dimensions of program PWSCF are:
     Max number of different atomic species (ntypx) = 10
     Max number of k-points (npk) =  40000
     Max angular momentum in pseudopotentials (lmaxx) =  3
     Reading input from MnO2-v-1.1.in

     Subspace diagonalization in iterative solution of the eigenvalue problem:
     a serial algorithm will be used

     bravais-lattice index     =            0
     lattice parameter (alat)  =       8.9385  a.u.
     unit-cell volume          =     460.2364 (a.u.)^3
     number of atoms/cell      =            6
     number of atomic types    =            2
     number of electrons       =        54.00
     number of Kohn-Sham states=           78
     kinetic-energy cutoff     =      40.0000  Ry
     charge density cutoff     =     500.0000  Ry
     convergence threshold     =      1.0E-06
     mixing beta               =       0.7000
     number of iterations used =            8  plain     mixing
     Exchange-correlation      = SLA  PW   PBE  PBE ( 1 4 3 4 0)
     EXX-fraction              =        0.00
     nstep                     =           50

     celldm(1)=   8.938511  celldm(2)=   0.000000  celldm(3)=   0.000000
     celldm(4)=   0.000000  celldm(5)=   0.000000  celldm(6)=   0.000000

     crystal axes: (cart. coord. in units of alat)
               a(1) = (   1.000000   0.000000   0.000000 )
               a(2) = (   0.000000   1.000000   0.000000 )
               a(3) = (   0.000000   0.000000   0.644444 )

     reciprocal axes: (cart. coord. in units 2 pi/alat)
               b(1) = (  1.000000  0.000000  0.000000 )
               b(2) = (  0.000000  1.000000  0.000000 )
               b(3) = (  0.000000  0.000000  1.551724 )

     PseudoPot. # 1 for Mn read from file:
     /home/camp/zhonxu/pseudo/mn_pbe_v1.uspp.F.UPF
     MD5 check sum: 5fd7c7b5c956fd19902447332617373a
     Pseudo is Ultrasoft + core correction, Zval = 15.0
     Generated by new atomic code, or converted to UPF format
     Using radial grid of  859 points,  6 beta functions with:
                l(1) =   0
                l(2) =   0
                l(3) =   1
                l(4) =   1
                l(5) =   2
                l(6) =   2
     Q(r) pseudized with  6 coefficients,  rinner =    1.150   1.150   1.150
                                                       1.150   1.150

     PseudoPot. # 2 for O  read from file:
     /home/camp/zhonxu/pseudo/o_pbe_v1.01.uspp.F.UPF
     MD5 check sum: 2bcb18d16ea4b960afae9ec6d52f22d2
     Pseudo is Ultrasoft + core correction, Zval =  6.0
     Generated by new atomic code, or converted to UPF format
     Using radial grid of  737 points,  5 beta functions with:
                l(1) =   0
                l(2) =   0
                l(3) =   1
                l(4) =   1
                l(5) =   2
     Q(r) pseudized with  8 coefficients,  rinner =    0.900   0.900   0.900
                                                       0.900   0.900

     atomic species   valence    mass     pseudopotential
        Mn0           15.00    54.93800     Mn( 1.00)
        O1             6.00    15.99940     O ( 1.00)

     Starting magnetic structure
     atomic species   magnetization
        Mn0          0.600
        O1           0.000

      8 Sym. Ops., with inversion, found
          (note:  8 additional sym.ops. were found but ignored
           their fractional translations are incommensurate with FFT grid)

   Cartesian axes

     site n.     atom                  positions (alat units)
         1           Mn0 tau(   1) = (   0.0000000   0.0000000   0.0000000  )
         2           Mn0 tau(   2) = (   0.5000000   0.5000000   0.3222222  )
         3           O1  tau(   3) = (   0.3050000   0.3050000   0.0000000  )
         4           O1  tau(   4) = (  -0.3050000  -0.3050000   0.0000000  )
         5           O1  tau(   5) = (   0.8050000   0.1950000   0.3222222  )
         6           O1  tau(   6) = (   0.1950000   0.8050000   0.3222222  )

     number of k points=    54  Methfessel-Paxton smearing, width (Ry)=  0.0100
                       cart. coord. in units 2pi/alat
        k(    1) = (   0.0000000   0.0000000   0.0000000), wk =   0.0080000
        k(    2) = (   0.0000000   0.0000000   0.3103448), wk =   0.0160000
        k(    3) = (   0.0000000   0.0000000   0.6206897), wk =   0.0160000
        k(    4) = (   0.0000000   0.2000000   0.0000000), wk =   0.0320000
        k(    5) = (   0.0000000   0.2000000   0.3103448), wk =   0.0640000
        k(    6) = (   0.0000000   0.2000000   0.6206897), wk =   0.0640000
        k(    7) = (   0.0000000   0.4000000   0.0000000), wk =   0.0320000
        k(    8) = (   0.0000000   0.4000000   0.3103448), wk =   0.0640000
        k(    9) = (   0.0000000   0.4000000   0.6206897), wk =   0.0640000
        k(   10) = (   0.2000000   0.2000000   0.0000000), wk =   0.0160000
        k(   11) = (   0.2000000   0.2000000   0.3103448), wk =   0.0320000
        k(   12) = (   0.2000000   0.2000000   0.6206897), wk =   0.0320000
        k(   13) = (   0.2000000   0.4000000   0.0000000), wk =   0.0320000
        k(   14) = (   0.2000000   0.4000000   0.3103448), wk =   0.0640000
        k(   15) = (   0.2000000   0.4000000   0.6206897), wk =   0.0640000
        k(   16) = (   0.4000000   0.4000000   0.0000000), wk =   0.0160000
        k(   17) = (   0.4000000   0.4000000   0.3103448), wk =   0.0320000
        k(   18) = (   0.4000000   0.4000000   0.6206897), wk =   0.0320000
        k(   19) = (  -0.2000000   0.2000000   0.0000000), wk =   0.0160000
        k(   20) = (  -0.2000000   0.2000000  -0.3103448), wk =   0.0320000
        k(   21) = (  -0.2000000   0.2000000  -0.6206897), wk =   0.0320000
        k(   22) = (  -0.2000000   0.4000000   0.0000000), wk =   0.0320000
        k(   23) = (  -0.2000000   0.4000000  -0.3103448), wk =   0.0640000
        k(   24) = (  -0.2000000   0.4000000  -0.6206897), wk =   0.0640000
        k(   25) = (  -0.4000000   0.4000000   0.0000000), wk =   0.0160000
        k(   26) = (  -0.4000000   0.4000000  -0.3103448), wk =   0.0320000
        k(   27) = (  -0.4000000   0.4000000  -0.6206897), wk =   0.0320000
        k(   28) = (   0.0000000   0.0000000   0.0000000), wk =   0.0080000
        k(   29) = (   0.0000000   0.0000000   0.3103448), wk =   0.0160000
        k(   30) = (   0.0000000   0.0000000   0.6206897), wk =   0.0160000
        k(   31) = (   0.0000000   0.2000000   0.0000000), wk =   0.0320000
        k(   32) = (   0.0000000   0.2000000   0.3103448), wk =   0.0640000
        k(   33) = (   0.0000000   0.2000000   0.6206897), wk =   0.0640000
        k(   34) = (   0.0000000   0.4000000   0.0000000), wk =   0.0320000
        k(   35) = (   0.0000000   0.4000000   0.3103448), wk =   0.0640000
        k(   36) = (   0.0000000   0.4000000   0.6206897), wk =   0.0640000
        k(   37) = (   0.2000000   0.2000000   0.0000000), wk =   0.0160000
        k(   38) = (   0.2000000   0.2000000   0.3103448), wk =   0.0320000
        k(   39) = (   0.2000000   0.2000000   0.6206897), wk =   0.0320000
        k(   40) = (   0.2000000   0.4000000   0.0000000), wk =   0.0320000
        k(   41) = (   0.2000000   0.4000000   0.3103448), wk =   0.0640000
        k(   42) = (   0.2000000   0.4000000   0.6206897), wk =   0.0640000
        k(   43) = (   0.4000000   0.4000000   0.0000000), wk =   0.0160000
        k(   44) = (   0.4000000   0.4000000   0.3103448), wk =   0.0320000
        k(   45) = (   0.4000000   0.4000000   0.6206897), wk =   0.0320000
        k(   46) = (  -0.2000000   0.2000000   0.0000000), wk =   0.0160000
        k(   47) = (  -0.2000000   0.2000000  -0.3103448), wk =   0.0320000
        k(   48) = (  -0.2000000   0.2000000  -0.6206897), wk =   0.0320000
        k(   49) = (  -0.2000000   0.4000000   0.0000000), wk =   0.0320000
        k(   50) = (  -0.2000000   0.4000000  -0.3103448), wk =   0.0640000
        k(   51) = (  -0.2000000   0.4000000  -0.6206897), wk =   0.0640000
        k(   52) = (  -0.4000000   0.4000000   0.0000000), wk =   0.0160000
        k(   53) = (  -0.4000000   0.4000000  -0.3103448), wk =   0.0320000
        k(   54) = (  -0.4000000   0.4000000  -0.6206897), wk =   0.0320000

     Largest allocated arrays     est. size (Mb)     dimensions
     Largest temporary arrays     est. size (Mb)     dimensions

     Check: negative/imaginary core charge=   -0.000057    0.000000

     Initial potential from superposition of free atoms

     starting charge   51.99998, renormalised to   54.00000
     Starting wfc are   42 randomized atomic wfcs

     Self-consistent Calculation

     iteration #  1     ecut=    40.00 Ry     beta=0.70
     Davidson diagonalization with overlap
     ethr =  1.00E-02,  avg # of iterations =  5.1

     total energy              =    -553.29666197 Ry
     Harris-Foulkes estimate   =    -554.27742209 Ry
     estimated scf accuracy    <       4.02898123 Ry

     total magnetization       =     6.00 Bohr mag/cell
     absolute magnetization    =     7.71 Bohr mag/cell

[...]

     End of self-consistent calculation

 ------ SPIN UP ------------

          k = 0.0000 0.0000 0.0000 (  1955 PWs)   bands (ev):

   -74.6546 -74.6539 -43.3196 -43.3163 -43.2738 -43.2738 -43.2384 -43.2383
   -11.0150  -9.6799  -9.4901  -9.4900   0.8312   1.4243   2.2292   2.6027
     2.6027   4.2512   4.2512   4.7473   4.7621   4.8529   4.9494   4.9494
     5.1044   6.1946   6.4548   6.6255   6.6255   7.0245   7.1260   9.3216
     9.3216   9.7554  13.4691  17.4727  17.4728  19.5483  20.9050  21.0085
    22.4573  23.5302  23.5302  24.1573  26.7235  27.9459  29.4727  30.2322
    30.2322  30.6488  30.6489  30.6529  31.7410  31.7410  32.5681  32.7805
    33.4574  34.3182  37.1302  37.1303  37.3779  37.7399  37.7400  40.2204
    40.5862  41.6003  41.6003  43.3677  43.4210  43.9636  43.9637  44.2849
    44.4434  46.0301  46.0301  46.0845  47.4615  49.0401

[...]

          k =-0.2000 0.2000 0.0000 (  1967 PWs)   bands (ev):

[...]

 ------ SPIN DOWN ----------

[...]

     the Fermi energy is     7.1801 ev

!    total energy              =    -554.89349626 Ry
     Harris-Foulkes estimate   =    -554.89349671 Ry
     estimated scf accuracy    <       0.00000090 Ry

     The total energy is the sum of the following terms:

     one-electron contribution =    -309.94356327 Ry
     hartree contribution      =     176.70655639 Ry
     xc contribution           =     -80.40054165 Ry
     ewald contribution        =    -341.25552168 Ry
     smearing contrib. (-TS)   =      -0.00042605 Ry

[...]

     convergence has been achieved in  10 iterations

     Forces acting on atoms (Ry/au):

     atom    1 type  1   force =     0.00000000    0.00000000    0.00000000
     atom    2 type  1   force =     0.00000000    0.00000000    0.00000000
     atom    3 type  2   force =     0.01664551    0.01664551   -0.00000000
     atom    4 type  2   force =    -0.01664551   -0.01664551    0.00000000
     atom    5 type  2   force =     0.01664522   -0.01664522    0.00000000
     atom    6 type  2   force =    -0.01664522    0.01664522    0.00000000

[...]
     NEW k-points:
        k(    1) = (   0.0000000   0.0000000   0.0000000), wk =   0.0080000
        k(    2) = (   0.0000000   0.0000000   0.3195717), wk =   0.0160000
        k(    3) = (   0.0000000   0.0000000   0.6391433), wk =   0.0160000
        k(    4) = (   0.0000002   0.1970916   0.0000000), wk =   0.0320000
        k(    5) = (   0.0000002   0.1970916   0.3195717), wk =   0.0640000
        k(    6) = (   0.0000002   0.1970916   0.6391433), wk =   0.0640000
        k(    7) = (   0.0000004   0.3941832   0.0000000), wk =   0.0320000
        k(    8) = (   0.0000004   0.3941832   0.3195717), wk =   0.0640000
        k(    9) = (   0.0000004   0.3941832   0.6391433), wk =   0.0640000
        k(   10) = (   0.1970918   0.1970918   0.0000000), wk =   0.0160000
        k(   11) = (   0.1970918   0.1970918   0.3195717), wk =   0.0320000
        k(   12) = (   0.1970918   0.1970918   0.6391433), wk =   0.0320000
        k(   13) = (   0.1970920   0.3941834   0.0000000), wk =   0.0320000
        k(   14) = (   0.1970920   0.3941834   0.3195717), wk =   0.0640000
        k(   15) = (   0.1970920   0.3941834   0.6391433), wk =   0.0640000
        k(   16) = (   0.3941836   0.3941836   0.0000000), wk =   0.0160000
        k(   17) = (   0.3941836   0.3941836   0.3195717), wk =   0.0320000
        k(   18) = (   0.3941836   0.3941836   0.6391433), wk =   0.0320000
        k(   19) = (  -0.1970914   0.1970914   0.0000000), wk =   0.0160000
        k(   20) = (  -0.1970914   0.1970914  -0.3195717), wk =   0.0320000
        k(   21) = (  -0.1970914   0.1970914  -0.6391433), wk =   0.0320000
        k(   22) = (  -0.1970912   0.3941830   0.0000000), wk =   0.0320000
        k(   23) = (  -0.1970912   0.3941830  -0.3195717), wk =   0.0640000
        k(   24) = (  -0.1970912   0.3941830  -0.6391433), wk =   0.0640000
        k(   25) = (  -0.3941828   0.3941828   0.0000000), wk =   0.0160000
        k(   26) = (  -0.3941828   0.3941828  -0.3195717), wk =   0.0320000
        k(   27) = (  -0.3941828   0.3941828  -0.6391433), wk =   0.0320000
        k(   28) = (   0.0000000   0.0000000   0.0000000), wk =   0.0080000
        k(   29) = (   0.0000000   0.0000000   0.3195717), wk =   0.0160000
        k(   30) = (   0.0000000   0.0000000   0.6391433), wk =   0.0160000
        k(   31) = (   0.0000002   0.1970916   0.0000000), wk =   0.0320000
        k(   32) = (   0.0000002   0.1970916   0.3195717), wk =   0.0640000
        k(   33) = (   0.0000002   0.1970916   0.6391433), wk =   0.0640000
        k(   34) = (   0.0000004   0.3941832   0.0000000), wk =   0.0320000
        k(   35) = (   0.0000004   0.3941832   0.3195717), wk =   0.0640000
        k(   36) = (   0.0000004   0.3941832   0.6391433), wk =   0.0640000
        k(   37) = (   0.1970918   0.1970918   0.0000000), wk =   0.0160000
        k(   38) = (   0.1970918   0.1970918   0.3195717), wk =   0.0320000
        k(   39) = (   0.1970918   0.1970918   0.6391433), wk =   0.0320000
        k(   40) = (   0.1970920   0.3941834   0.0000000), wk =   0.0320000
        k(   41) = (   0.1970920   0.3941834   0.3195717), wk =   0.0640000
        k(   42) = (   0.1970920   0.3941834   0.6391433), wk =   0.0640000
        k(   43) = (   0.3941836   0.3941836   0.0000000), wk =   0.0160000
        k(   44) = (   0.3941836   0.3941836   0.3195717), wk =   0.0320000
        k(   45) = (   0.3941836   0.3941836   0.6391433), wk =   0.0320000
        k(   46) = (  -0.1970914   0.1970914   0.0000000), wk =   0.0160000
        k(   47) = (  -0.1970914   0.1970914  -0.3195717), wk =   0.0320000
        k(   48) = (  -0.1970914   0.1970914  -0.6391433), wk =   0.0320000
        k(   49) = (  -0.1970912   0.3941830   0.0000000), wk =   0.0320000
        k(   50) = (  -0.1970912   0.3941830  -0.3195717), wk =   0.0640000
        k(   51) = (  -0.1970912   0.3941830  -0.6391433), wk =   0.0640000
        k(   52) = (  -0.3941828   0.3941828   0.0000000), wk =   0.0160000
        k(   53) = (  -0.3941828   0.3941828  -0.3195717), wk =   0.0320000
        k(   54) = (  -0.3941828   0.3941828  -0.6391433), wk =   0.0320000

[...]

     Threshold (ethr) on eigenvalues was too large:
     Diagonalizing with lowered threshold

     Davidson diagonalization with overlap
     ethr =  1.61E-09,  avg # of iterations =  2.0

[...]

     Volume is kept fixed: isostatic pressure set to zero

     bfgs converged in   8 scf cycles and   7 bfgs steps
     (criteria: energy < 0.10E-03, force < 0.10E-02, cell < 0.50E+00)

     End of BFGS Geometry Optimization

     Final enthalpy =    -554.9020965837 Ry
Begin final coordinates
     new unit-cell volume =    460.23642 a.u.^3 (    68.20000 Ang^3 )

CELL_PARAMETERS (alat=  8.93851073)
   1.014756595  -0.000000983   0.000000000
  -0.000000983   1.014756595   0.000000000
   0.000000000   0.000000000   0.625837696

ATOMIC_POSITIONS (crystal)
Mn0      0.000000000   0.000000000   0.000000000    0   0   0
Mn0      0.500000000   0.500000000   0.500000000    0   0   0
O1       0.314986467   0.314986467   0.000000000    1   1   0
O1      -0.314986467  -0.314986467   0.000000000    1   1   0
O1       0.814986128   0.185013872   0.500000000    1   1   0
O1       0.185013872   0.814986128   0.500000000    1   1   0
End final coordinates

     A final scf calculation at the relaxed structure.
     The G-vectors are recalculated for the final unit cell
     Results may differ from those at the preceding step.

     bravais-lattice index     =            0
     lattice parameter (alat)  =       8.9385  a.u.
     unit-cell volume          =     460.2364 (a.u.)^3
     number of atoms/cell      =            6
     number of atomic types    =            2
     number of electrons       =        54.00
     number of Kohn-Sham states=           78
     kinetic-energy cutoff     =      40.0000  Ry
     charge density cutoff     =     500.0000  Ry
     convergence threshold     =      1.0E-08
     mixing beta               =       0.7000
     number of iterations used =            8  plain     mixing
     Exchange-correlation      = SLA  PW   PBE  PBE ( 1 4 3 4 0)
     EXX-fraction              =        0.00

     celldm(1)=   8.938511  celldm(2)=   0.000000  celldm(3)=   0.000000
     celldm(4)=   0.000000  celldm(5)=   0.000000  celldm(6)=   0.000000

     crystal axes: (cart. coord. in units of alat)
               a(1) = (   1.014757  -0.000001   0.000000 )
               a(2) = (  -0.000001   1.014757   0.000000 )
               a(3) = (   0.000000   0.000000   0.625838 )

     reciprocal axes: (cart. coord. in units 2 pi/alat)
               b(1) = (  0.985458  0.000001 -0.000000 )
               b(2) = (  0.000001  0.985458 -0.000000 )
               b(3) = ( -0.000000 -0.000000  1.597858 )

     PseudoPot. # 1 for Mn read from file:
     /home/camp/zhonxu/pseudo/mn_pbe_v1.uspp.F.UPF
     MD5 check sum: 5fd7c7b5c956fd19902447332617373a
     Pseudo is Ultrasoft + core correction, Zval = 15.0
     Generated by new atomic code, or converted to UPF format
     Using radial grid of  859 points,  6 beta functions with:
                l(1) =   0
                l(2) =   0
                l(3) =   1
                l(4) =   1
                l(5) =   2
                l(6) =   2
     Q(r) pseudized with  6 coefficients,  rinner =    1.150   1.150   1.150
                                                       1.150   1.150

     PseudoPot. # 2 for O  read from file:
     /home/camp/zhonxu/pseudo/o_pbe_v1.01.uspp.F.UPF
     MD5 check sum: 2bcb18d16ea4b960afae9ec6d52f22d2
     Pseudo is Ultrasoft + core correction, Zval =  6.0
     Generated by new atomic code, or converted to UPF format
     Using radial grid of  737 points,  5 beta functions with:
                l(1) =   0
                l(2) =   0
                l(3) =   1
                l(4) =   1
                l(5) =   2
     Q(r) pseudized with  8 coefficients,  rinner =    0.900   0.900   0.900
                                                       0.900   0.900

     atomic species   valence    mass     pseudopotential
        Mn0           15.00    54.93800     Mn( 1.00)
        O1             6.00    15.99940     O ( 1.00)

     Starting magnetic structure
     atomic species   magnetization
        Mn0          0.600
        O1           0.000

      8 Sym. Ops., with inversion, found
          (note:  8 additional sym.ops. were found but ignored
           their fractional translations are incommensurate with FFT grid)

   Cartesian axes

     site n.     atom                  positions (alat units)
         1           Mn0 tau(   1) = (   0.0000000   0.0000000   0.0000000  )
         2           Mn0 tau(   2) = (   0.5073778   0.5073778   0.3129188  )
         3           O1  tau(   3) = (   0.3196343   0.3196343   0.0000000  )
         4           O1  tau(   4) = (  -0.3196343  -0.3196343   0.0000000  )
         5           O1  tau(   5) = (   0.8270124   0.1877432   0.3129188  )
         6           O1  tau(   6) = (   0.1877432   0.8270124   0.3129188  )

     number of k points=    54  Methfessel-Paxton smearing, width (Ry)=  0.0100
                       cart. coord. in units 2pi/alat
        k(    1) = (   0.0000000   0.0000000   0.0000000), wk =   0.0080000
        k(    2) = (   0.0000000   0.0000000   0.3195717), wk =   0.0160000
        k(    3) = (   0.0000000   0.0000000   0.6391433), wk =   0.0160000
        k(    4) = (   0.0000002   0.1970916   0.0000000), wk =   0.0320000
        k(    5) = (   0.0000002   0.1970916   0.3195717), wk =   0.0640000
        k(    6) = (   0.0000002   0.1970916   0.6391433), wk =   0.0640000
        k(    7) = (   0.0000004   0.3941832   0.0000000), wk =   0.0320000
        k(    8) = (   0.0000004   0.3941832   0.3195717), wk =   0.0640000
        k(    9) = (   0.0000004   0.3941832   0.6391433), wk =   0.0640000
        k(   10) = (   0.1970918   0.1970918   0.0000000), wk =   0.0160000
        k(   11) = (   0.1970918   0.1970918   0.3195717), wk =   0.0320000
        k(   12) = (   0.1970918   0.1970918   0.6391433), wk =   0.0320000
        k(   13) = (   0.1970920   0.3941834   0.0000000), wk =   0.0320000
        k(   14) = (   0.1970920   0.3941834   0.3195717), wk =   0.0640000
        k(   15) = (   0.1970920   0.3941834   0.6391433), wk =   0.0640000
        k(   16) = (   0.3941836   0.3941836   0.0000000), wk =   0.0160000
        k(   17) = (   0.3941836   0.3941836   0.3195717), wk =   0.0320000
        k(   18) = (   0.3941836   0.3941836   0.6391433), wk =   0.0320000
        k(   19) = (  -0.1970914   0.1970914   0.0000000), wk =   0.0160000
        k(   20) = (  -0.1970914   0.1970914  -0.3195717), wk =   0.0320000
        k(   21) = (  -0.1970914   0.1970914  -0.6391433), wk =   0.0320000
        k(   22) = (  -0.1970912   0.3941830   0.0000000), wk =   0.0320000
        k(   23) = (  -0.1970912   0.3941830  -0.3195717), wk =   0.0640000
        k(   24) = (  -0.1970912   0.3941830  -0.6391433), wk =   0.0640000
        k(   25) = (  -0.3941828   0.3941828   0.0000000), wk =   0.0160000
        k(   26) = (  -0.3941828   0.3941828  -0.3195717), wk =   0.0320000
        k(   27) = (  -0.3941828   0.3941828  -0.6391433), wk =   0.0320000
        k(   28) = (   0.0000000   0.0000000   0.0000000), wk =   0.0080000
        k(   29) = (   0.0000000   0.0000000   0.3195717), wk =   0.0160000
        k(   30) = (   0.0000000   0.0000000   0.6391433), wk =   0.0160000
        k(   31) = (   0.0000002   0.1970916   0.0000000), wk =   0.0320000
        k(   32) = (   0.0000002   0.1970916   0.3195717), wk =   0.0640000
        k(   33) = (   0.0000002   0.1970916   0.6391433), wk =   0.0640000
        k(   34) = (   0.0000004   0.3941832   0.0000000), wk =   0.0320000
        k(   35) = (   0.0000004   0.3941832   0.3195717), wk =   0.0640000
        k(   36) = (   0.0000004   0.3941832   0.6391433), wk =   0.0640000
        k(   37) = (   0.1970918   0.1970918   0.0000000), wk =   0.0160000
        k(   38) = (   0.1970918   0.1970918   0.3195717), wk =   0.0320000
        k(   39) = (   0.1970918   0.1970918   0.6391433), wk =   0.0320000
        k(   40) = (   0.1970920   0.3941834   0.0000000), wk =   0.0320000
        k(   41) = (   0.1970920   0.3941834   0.3195717), wk =   0.0640000
        k(   42) = (   0.1970920   0.3941834   0.6391433), wk =   0.0640000
        k(   43) = (   0.3941836   0.3941836   0.0000000), wk =   0.0160000
        k(   44) = (   0.3941836   0.3941836   0.3195717), wk =   0.0320000
        k(   45) = (   0.3941836   0.3941836   0.6391433), wk =   0.0320000
        k(   46) = (  -0.1970914   0.1970914   0.0000000), wk =   0.0160000
        k(   47) = (  -0.1970914   0.1970914  -0.3195717), wk =   0.0320000
        k(   48) = (  -0.1970914   0.1970914  -0.6391433), wk =   0.0320000
        k(   49) = (  -0.1970912   0.3941830   0.0000000), wk =   0.0320000
        k(   50) = (  -0.1970912   0.3941830  -0.3195717), wk =   0.0640000
        k(   51) = (  -0.1970912   0.3941830  -0.6391433), wk =   0.0640000
        k(   52) = (  -0.3941828   0.3941828   0.0000000), wk =   0.0160000
        k(   53) = (  -0.3941828   0.3941828  -0.3195717), wk =   0.0320000
        k(   54) = (  -0.3941828   0.3941828  -0.6391433), wk =   0.0320000

     Largest allocated arrays     est. size (Mb)     dimensions
     Largest temporary arrays     est. size (Mb)     dimensions

     Check: negative/imaginary core charge=   -0.000056    0.000000

     Initial potential from superposition of free atoms

     starting charge   51.99998, renormalised to   54.00000
     Starting wfc are   42 randomized atomic wfcs

     Self-consistent Calculation

[...]

     total energy              =    -554.90230820 Ry
     Harris-Foulkes estimate   =    -554.90230819 Ry
     estimated scf accuracy    <       0.00000002 Ry

[...]

     iteration # 13     ecut=    40.00 Ry     beta=0.70
     Davidson diagonalization with overlap
     ethr =  3.12E-11,  avg # of iterations =  2.0

     End of self-consistent calculation

 ------ SPIN UP ------------

[...]

 ------ SPIN DOWN ----------

[...]

          k = 0.3942 0.3942 0.6391 (  1968 PWs)   bands (ev):

[...]

          k =-0.3942 0.3942-0.6391 (  1968 PWs)   bands (ev):

   -70.9568 -70.9568 -39.8812 -39.8812 -39.6759 -39.6758 -39.5973 -39.5971
    -9.9986  -9.9487  -9.7743  -9.7734   2.1321   2.2364   2.6978   2.7063
     3.4600   3.5103   4.2014   4.2727   5.5661   5.6303   5.9403   6.1937
     8.5120   8.7199   8.8006   8.8413   9.1958   9.3497   9.8306  10.1416
    10.6183  10.9455  18.3580  18.8127  19.5040  19.9197  21.3833  21.3877
    22.0978  22.3019  23.8276  23.9401  25.3446  25.8547  27.2215  28.5229
    29.8275  30.1720  30.3489  31.3236  34.1542  34.3930  35.1708  35.7974
    37.4716  37.6894  39.0091  39.3540  40.2426  40.5096  40.6103  41.0697
    41.1927  41.9134  42.7436  43.2780  43.6609  44.7879  45.6353  46.1116
    46.7913  47.0338  47.4040  47.5686  49.4131  49.7312

     the Fermi energy is     7.2504 ev

!    total energy              =    -554.90230821 Ry
     Harris-Foulkes estimate   =    -554.90230821 Ry
     estimated scf accuracy    <          4.2E-10 Ry

     The total energy is the sum of the following terms:

     one-electron contribution =    -318.09857598 Ry
     hartree contribution      =     180.76210008 Ry
     xc contribution           =     -80.47617039 Ry
     ewald contribution        =    -337.08906884 Ry
     smearing contrib. (-TS)   =      -0.00059308 Ry

     total magnetization       =     6.00 Bohr mag/cell
     absolute magnetization    =     6.66 Bohr mag/cell

     convergence has been achieved in  13 iterations

     Forces acting on atoms (Ry/au):

     atom    1 type  1   force =     0.00000000    0.00000000    0.00000000
     atom    2 type  1   force =     0.00000000    0.00000000    0.00000000
     atom    3 type  2   force =    -0.00002191   -0.00002191    0.00000000
     atom    4 type  2   force =     0.00002191    0.00002191    0.00000000
     atom    5 type  2   force =    -0.00001780    0.00001780    0.00000000
     atom    6 type  2   force =     0.00001780   -0.00001780    0.00000000

     Total force =     0.000056     Total SCF correction =     0.000015
     SCF correction compared to forces is large: reduce conv_thr to get better values

     entering subroutine stress ...

          total   stress  (Ry/bohr**3)                   (kbar)     P= -234.01
  -0.00158021   0.00000001   0.00000000       -232.46      0.00      0.00
   0.00000001  -0.00158021   0.00000000          0.00   -232.46      0.00
   0.00000000   0.00000000  -0.00161188          0.00      0.00   -237.12

     General routines

     Parallel routines

   This run was terminated on:  21:21:35  23Jan2014

   JOB DONE.