     Program PWSCF v.5.0.2 (svn rev. 9656) starts on 13May2014 at  0:23: 3

     Current dimensions of program PWSCF are:
     Max number of different atomic species (ntypx) = 10
     Max number of k-points (npk) =  40000
     Max angular momentum in pseudopotentials (lmaxx) =  3
     Reading input from pwscf.in
Warning: card &CELL ignored
Warning: card / ignored

     Subspace diagonalization in iterative solution of the eigenvalue problem:
     a serial algorithm will be used

     bravais-lattice index     =            0
     lattice parameter (alat)  =      10.7336  a.u.
     unit-cell volume          =    6184.1966 (a.u.)^3
     number of atoms/cell      =           32
     number of atomic types    =            3
     number of electrons       =       239.00 (up: 131.00, down: 108.00)
     number of Kohn-Sham states=          346
     kinetic-energy cutoff     =      40.0000  Ry
     charge density cutoff     =     500.0000  Ry
     convergence threshold     =      1.0E-06
     mixing beta               =       0.7000
     number of iterations used =            8  plain     mixing
     Exchange-correlation      = SLA  PW   PBE  PBE ( 1 4 3 4 0)
     EXX-fraction              =        0.00
     nstep                     =           50

     celldm(1)=  10.733644  celldm(2)=   0.000000  celldm(3)=   0.000000
     celldm(4)=   0.000000  celldm(5)=   0.000000  celldm(6)=   0.000000

     crystal axes: (cart. coord. in units of alat)
               a(1) = (   1.000000   0.000000   0.000000 )
               a(2) = (   0.000000   1.085558   0.000000 )
               a(3) = (   0.000000   0.000000   4.606685 )

     reciprocal axes: (cart. coord. in units 2 pi/alat)
               b(1) = (  1.000000  0.000000  0.000000 )
               b(2) = (  0.000000  0.921185  0.000000 )
               b(3) = (  0.000000  0.000000  0.217076 )

     PseudoPot. # 1 for O  read from file:
     /home/camp/zhonxu/pseudo/o_pbe_v1.01.uspp.F.UPF
     MD5 check sum: 2bcb18d16ea4b960afae9ec6d52f22d2
     Pseudo is Ultrasoft + core correction, Zval =  6.0
     Generated by new atomic code, or converted to UPF format
     Using radial grid of  737 points,  5 beta functions with:
                l(1) =   0
                l(2) =   0
                l(3) =   1
                l(4) =   1
                l(5) =   2
     Q(r) pseudized with  8 coefficients,  rinner =    0.900   0.900   0.900
                                                       0.900   0.900

     PseudoPot. # 2 for Mn read from file:
     /home/camp/zhonxu/pseudo/mn_pbe_v1.uspp.F.UPF
     MD5 check sum: 5fd7c7b5c956fd19902447332617373a
     Pseudo is Ultrasoft + core correction, Zval = 15.0
     Generated by new atomic code, or converted to UPF format
     Using radial grid of  859 points,  6 beta functions with:
                l(1) =   0
                l(2) =   0
                l(3) =   1
                l(4) =   1
                l(5) =   2
                l(6) =   2
     Q(r) pseudized with  6 coefficients,  rinner =    1.150   1.150   1.150
                                                       1.150   1.150

     PseudoPot. # 3 for H  read from file:
     /home/camp/zhonxu/pseudo/h_pbe_v1.uspp.F.UPF
     MD5 check sum: 3408e3ff4ec8b0a4e358431e7e038a48
     Pseudo is Ultrasoft, Zval =  1.0
     Generated by new atomic code, or converted to UPF format
     Using radial grid of  615 points,  2 beta functions with:
                l(1) =   0
                l(2) =   0
     Q(r) pseudized with  8 coefficients,  rinner =    0.700

     atomic species   valence    mass     pseudopotential
        O0             6.00    15.99940     O ( 1.00)
        Mn1           15.00    54.93800     Mn( 1.00)
        H2             1.00     1.00794     H ( 1.00)

     Starting magnetic structure
     atomic species   magnetization
        O0           0.000
        Mn1          0.600
        H2           0.000

     Simplified LDA+U calculation (l_max = 2) with parameters (eV):
     atomic species    L          U    alpha       J0     beta
        Mn1            2     0.0000   0.0000   0.0000   0.0000

     No symmetry found

   Cartesian axes

     site n.     atom                  positions (alat units)
         1           O0  tau(   1) = (   0.0000000   0.0000000   1.7414191  )
         2           O0  tau(   2) = (   0.0000000   0.5427791   1.8381134  )
         3           Mn1 tau(   3) = (   0.2500000   0.5427791   2.0740217  )
         4           Mn1 tau(   4) = (   0.0000000   0.0000000   2.0686319  )
         5           O0  tau(   5) = (   0.2500000   0.8684466   2.0678488  )
         6           O0  tau(   6) = (   0.2500000   0.2171117   2.0737453  )
         7           O0  tau(   7) = (   0.0000000   0.5427791   2.2873573  )
         8           O0  tau(   8) = (   0.0000000   0.0000000   2.4132120  )
         9           Mn1 tau(   9) = (   0.2500000   0.0000000   2.6399991  )
        10           Mn1 tau(  10) = (   0.0000000   0.5427791   2.6085815  )
        11           O0  tau(  11) = (   0.2500000   0.7598908   2.6551551  )
        12           O0  tau(  12) = (   0.2500000   0.3256675   2.6556157  )
        13           O0  tau(  13) = (   0.0000000   0.0000000   2.8417258  )
        14           O0  tau(  14) = (   0.5000000   0.0000000   1.7428932  )
        15           O0  tau(  15) = (   0.5000000   0.5427791   1.8386662  )
        16           Mn1 tau(  16) = (   0.7500000   0.5427791   2.0740678  )
        17           Mn1 tau(  17) = (   0.5000000   0.0000000   2.0707510  )
        18           O0  tau(  18) = (   0.7500000   0.8684466   2.0677106  )
        19           O0  tau(  19) = (   0.7500000   0.2171117   2.0738835  )
        20           O0  tau(  20) = (   0.5000000   0.5427791   2.2871270  )
        21           O0  tau(  21) = (   0.5000000   0.0000000   2.4132120  )
        22           Mn1 tau(  22) = (   0.7500000   0.0000000   2.6413811  )
        23           Mn1 tau(  23) = (   0.5000000   0.5427791   2.6662572  )
        24           O0  tau(  24) = (   0.7500000   0.7598908   2.6473698  )
        25           O0  tau(  25) = (   0.7500000   0.3256675   2.6477844  )
        26           O0  tau(  26) = (   0.5000000   0.0000000   2.8412191  )
        27           H2  tau(  27) = (   0.0000400   0.7014118   1.7620570  )
        28           H2  tau(  28) = (   0.5000900   0.7016832   1.7629323  )
        29           H2  tau(  29) = (   0.1613600   0.0398291   1.6869220  )
        30           H2  tau(  30) = (   0.6610200   0.0399703   1.6876591  )
        31           O0  tau(  31) = (   0.5153900   0.5432351   2.9826904  )
        32           H2  tau(  32) = (   0.3575300   0.5430397   3.0540479  )

     number of k points=    20  Methfessel-Paxton smearing, width (Ry)=  0.0100
                       cart. coord. in units 2pi/alat
        k(    1) = (   0.0000000   0.0000000   0.0000000), wk =   0.0625000
        k(    2) = (   0.0000000   0.2302962   0.0000000), wk =   0.1250000
        k(    3) = (   0.0000000  -0.4605925   0.0000000), wk =   0.0625000
        k(    4) = (   0.2500000   0.0000000   0.0000000), wk =   0.1250000
        k(    5) = (   0.2500000   0.2302962   0.0000000), wk =   0.1250000
        k(    6) = (   0.2500000  -0.4605925   0.0000000), wk =   0.1250000
        k(    7) = (  -0.5000000   0.0000000   0.0000000), wk =   0.0625000
        k(    8) = (  -0.5000000   0.2302962   0.0000000), wk =   0.1250000
        k(    9) = (  -0.5000000  -0.4605925   0.0000000), wk =   0.0625000
        k(   10) = (  -0.2500000   0.2302962   0.0000000), wk =   0.1250000
        k(   11) = (   0.0000000   0.0000000   0.0000000), wk =   0.0625000
        k(   12) = (   0.0000000   0.2302962   0.0000000), wk =   0.1250000
        k(   13) = (   0.0000000  -0.4605925   0.0000000), wk =   0.0625000
        k(   14) = (   0.2500000   0.0000000   0.0000000), wk =   0.1250000
        k(   15) = (   0.2500000   0.2302962   0.0000000), wk =   0.1250000
        k(   16) = (   0.2500000  -0.4605925   0.0000000), wk =   0.1250000
        k(   17) = (  -0.5000000   0.0000000   0.0000000), wk =   0.0625000
        k(   18) = (  -0.5000000   0.2302962   0.0000000), wk =   0.1250000
        k(   19) = (  -0.5000000  -0.4605925   0.0000000), wk =   0.0625000
        k(   20) = (  -0.2500000   0.2302962   0.0000000), wk =   0.1250000

     Largest allocated arrays     est. size (Mb)     dimensions
     Largest temporary arrays     est. size (Mb)     dimensions

     Check: negative/imaginary core charge=   -0.000022    0.000000

     Initial potential from superposition of free atoms
     Check: negative starting charge=(component1):   -0.000716
     Check: negative starting charge=(component2):   -0.000389

     starting charge  230.99986, renormalised to  239.00000

     negative rho (up, down):  0.741E-03 0.403E-03
     Number of +U iterations with fixed ns =  0
     Starting occupations:
 --- enter write_ns ---
 LDA+U parameters:
U( 2)     =  0.00000000
alpha( 2) =  0.00000000
atom    3   Tr[ns(na)] (up, down, total) =   5.00000  0.00000  5.00000
   spin  1
    eigenvalues:
  1.000  1.000  1.000  1.000  1.000
    eigenvectors:
  1.000  0.000  0.000  0.000  0.000
  0.000  1.000  0.000  0.000  0.000
  0.000  0.000  1.000  0.000  0.000
  0.000  0.000  0.000  1.000  0.000
  0.000  0.000  0.000  0.000  1.000
    occupations:
  1.000  0.000  0.000  0.000  0.000
  0.000  1.000  0.000  0.000  0.000
  0.000  0.000  1.000  0.000  0.000
  0.000  0.000  0.000  1.000  0.000
  0.000  0.000  0.000  0.000  1.000
   spin  2
    eigenvalues:
  0.000  0.000  0.000  0.000  0.000
    eigenvectors:
  1.000  0.000  0.000  0.000  0.000
  0.000  1.000  0.000  0.000  0.000
  0.000  0.000  1.000  0.000  0.000
  0.000  0.000  0.000  1.000  0.000
  0.000  0.000  0.000  0.000  1.000
    occupations:
  0.000  0.000  0.000  0.000  0.000
  0.000  0.000  0.000  0.000  0.000
  0.000  0.000  0.000  0.000  0.000
  0.000  0.000  0.000  0.000  0.000
  0.000  0.000  0.000  0.000  0.000
atomic mag. moment =     5.000000
atom    4   Tr[ns(na)] (up, down, total) =   5.00000  0.00000  5.00000
   spin  1
    eigenvalues:
  1.000  1.000  1.000  1.000  1.000
    eigenvectors:
  1.000  0.000  0.000  0.000  0.000
  0.000  1.000  0.000  0.000  0.000
  0.000  0.000  1.000  0.000  0.000
  0.000  0.000  0.000  1.000  0.000
  0.000  0.000  0.000  0.000  1.000
    occupations:
  1.000  0.000  0.000  0.000  0.000
  0.000  1.000  0.000  0.000  0.000
  0.000  0.000  1.000  0.000  0.000
  0.000  0.000  0.000  1.000  0.000
  0.000  0.000  0.000  0.000  1.000
   spin  2
    eigenvalues:
  0.000  0.000  0.000  0.000  0.000
    eigenvectors:
  1.000  0.000  0.000  0.000  0.000
  0.000  1.000  0.000  0.000  0.000
  0.000  0.000  1.000  0.000  0.000
  0.000  0.000  0.000  1.000  0.000
  0.000  0.000  0.000  0.000  1.000
    occupations:
  0.000  0.000  0.000  0.000  0.000
  0.000  0.000  0.000  0.000  0.000
  0.000  0.000  0.000  0.000  0.000
  0.000  0.000  0.000  0.000  0.000
  0.000  0.000  0.000  0.000  0.000
atomic mag. moment =     5.000000
atom    9   Tr[ns(na)] (up, down, total) =   5.00000  0.00000  5.00000
   spin  1
    eigenvalues:
  1.000  1.000  1.000  1.000  1.000
[...]
atom   16   Tr[ns(na)] (up, down, total) =   4.11566  1.43086  5.54653
   spin  1
    eigenvalues:
  0.563  0.575  0.987  0.989  1.003
    eigenvectors:
  0.006  0.246  0.727  0.014  0.007
  0.985  0.014  0.001  0.000  0.000
  0.000  0.000  0.007  0.002  0.991
  0.009  0.739  0.247  0.004  0.001
  0.001  0.000  0.019  0.980  0.001
    occupations:
  0.883  0.009 -0.005 -0.179  0.001
  0.009  0.563  0.001 -0.003 -0.010
 -0.005  0.001  1.002 -0.005 -0.000
 -0.179 -0.003 -0.005  0.679  0.000
  0.001 -0.010 -0.000  0.000  0.988
   spin  2
    eigenvalues:
  0.157  0.208  0.249  0.400  0.417
    eigenvectors:
  0.773  0.000  0.001  0.168  0.058
  0.001  0.003  0.000  0.308  0.688
  0.000  0.043  0.955  0.001  0.000
  0.225  0.000  0.000  0.522  0.253
  0.001  0.953  0.043  0.001  0.002
    occupations:
  0.213 -0.004 -0.000  0.103 -0.002
 -0.004  0.411 -0.001  0.011  0.011
 -0.000 -0.001  0.247  0.004  0.008
  0.103  0.011  0.004  0.350  0.001
 -0.002  0.011  0.008  0.001  0.210
atomic mag. moment =     2.684803
atom   17   Tr[ns(na)] (up, down, total) =   4.10087  1.43950  5.54037
   spin  1
    eigenvalues:
  0.545  0.586  0.985  0.989  0.996
    eigenvectors:
  0.000  0.999  0.000  0.000  0.001
  0.000  0.001  0.001  0.019  0.978
  0.000  0.000  0.026  0.953  0.020
  0.000  0.000  0.972  0.028  0.000
  1.000  0.000  0.000  0.000  0.000
    occupations:
  0.586 -0.012 -0.004  0.003 -0.000
 -0.012  0.996  0.001 -0.000  0.001
 -0.004  0.001  0.989  0.001  0.000
  0.003 -0.000  0.001  0.985  0.000
 -0.000  0.001  0.000  0.000  0.545
   spin  2
    eigenvalues:
  0.147  0.205  0.252  0.411  0.424
    eigenvectors:
  0.001  0.006  0.000  0.000  0.993
  0.000  0.957  0.038  0.000  0.005
  0.000  0.037  0.962  0.000  0.001
  0.999  0.000  0.000  0.000  0.001
  0.000  0.000  0.000  1.000  0.000
    occupations:
  0.423  0.016  0.005 -0.008 -0.000
  0.016  0.208 -0.009  0.000 -0.001
  0.005 -0.009  0.251  0.001 -0.000
 -0.008  0.000  0.001  0.147 -0.000
 -0.000 -0.001 -0.000 -0.000  0.411
atomic mag. moment =     2.661367
atom   22   Tr[ns(na)] (up, down, total) =   3.95577  1.66040  5.61618
   spin  1
    eigenvalues:
  0.586  0.588  0.881  0.914  0.987
    eigenvectors:
  0.034  0.162  0.000  0.000  0.804
  0.831  0.169  0.000  0.000  0.000
  0.000  0.000  0.034  0.966  0.000
  0.135  0.669  0.000  0.000  0.196
  0.000  0.000  0.966  0.034  0.000
    occupations:
  0.908  0.001 -0.000 -0.158 -0.000
  0.001  0.587  0.000  0.000 -0.000
 -0.000  0.000  0.913 -0.000 -0.006
 -0.158  0.000 -0.000  0.666  0.000
 -0.000 -0.000 -0.006  0.000  0.882
   spin  2
    eigenvalues:
  0.228  0.264  0.275  0.429  0.464
    eigenvectors:
  0.841  0.000  0.000  0.159  0.000
  0.000  0.000  0.000  0.000  1.000
  0.000  0.970  0.030  0.000  0.000
  0.159  0.000  0.000  0.841  0.000
  0.000  0.030  0.970  0.000  0.000
    occupations:
  0.260 -0.000  0.000  0.074 -0.000
 -0.000  0.464 -0.000 -0.000 -0.000
  0.000 -0.000  0.264 -0.000 -0.002
  0.074 -0.000 -0.000  0.397 -0.000
 -0.000 -0.000 -0.002 -0.000  0.275
atomic mag. moment =     2.295374
atom   23   Tr[ns(na)] (up, down, total) =   4.09573  1.44071  5.53643
   spin  1
    eigenvalues:
  0.551  0.585  0.974  0.986  1.000
    eigenvectors:
  0.000  1.000  0.000  0.000  0.000
  0.000  0.000  0.999  0.000  0.000
  0.000  0.000  0.000  0.000  1.000
  0.000  0.000  0.000  1.000  0.000
  1.000  0.000  0.000  0.000  0.000
    occupations:
  0.585 -0.003  0.001  0.001 -0.000
 -0.003  0.974  0.000  0.000 -0.000
  0.001  0.000  1.000  0.000 -0.002
  0.001  0.000  0.000  0.986 -0.000
 -0.000 -0.000 -0.002 -0.000  0.551
   spin  2
    eigenvalues:
  0.143  0.198  0.272  0.411  0.417
    eigenvectors:
  0.001  0.006  0.000  0.993  0.000
  0.001  0.994  0.000  0.005  0.000
  0.000  0.000  1.000  0.000  0.000
  0.998  0.000  0.000  0.001  0.000
  0.000  0.000  0.000  0.000  1.000
    occupations:
  0.409  0.016 -0.000 -0.010 -0.000
  0.016  0.199 -0.000 -0.002  0.000
 -0.000 -0.000  0.272  0.000  0.001
 -0.010 -0.002  0.000  0.144 -0.000
 -0.000  0.000  0.001 -0.000  0.417
atomic mag. moment =     2.655017
N of occupied +U levels =  44.4419328
 --- exit write_ns ---

 ------ SPIN UP ------------

          k = 0.0000 0.0000 0.0000 ( 26393 PWs)   bands (ev):

   -84.0384 -84.0284 -83.9345 -83.7610 -83.7513 -83.7468 -83.5753 -83.5610
   -52.8814 -52.7699 -52.7094 -52.6726 -52.6491 -52.6459 -52.6344 -52.6334
   -52.6077 -52.5633 -52.5628 -52.5124 -52.4559 -52.4386 -52.3830 -52.3193
   -52.3178 -52.3040 -52.2981 -52.2566 -52.2454 -52.1954 -52.1536 -52.1304
   -22.0434 -21.3493 -21.3162 -21.0241 -20.6847 -20.3050 -20.2513 -20.2011
   -20.1853 -20.0122 -19.9260 -19.8988 -19.8686 -19.7987 -19.7797 -19.6977
   -19.3243 -19.0694 -18.9163  -9.9126  -9.6927  -9.6097  -9.3457  -9.0788
    -8.5624  -8.5315  -8.5058  -8.3950  -8.3376  -8.1951  -8.1416  -8.0773
    -7.9590  -7.8084  -7.7579  -7.7069  -7.6287  -7.5302  -7.4886  -7.2223
    -7.1787  -7.1210  -7.0085  -6.8012  -6.7203  -6.7044  -6.6175  -6.1281
    -6.0344  -5.9754  -5.9299  -5.7917  -5.5983  -5.5147  -5.4793  -5.4258
    -5.3122  -5.1626  -5.1018  -5.0707  -4.9556  -4.8926  -4.8501  -4.7337
    -4.7235  -4.5929  -4.5664  -4.5437  -4.4684  -4.4533  -4.4254  -4.2373
    -4.1847  -4.0379  -4.0074  -3.9469  -3.9339  -3.9247  -3.7589  -3.7427
    -3.5581  -3.4263  -3.4082  -3.3434  -3.2431  -3.0876  -2.8880  -2.8595
    -2.7607  -2.6284  -2.5855  -2.5310  -2.4054  -2.3679  -2.2894  -2.1533
    -1.9118  -1.8727  -1.8345  -1.6392  -1.5216  -0.9428  -0.6127  -0.3624
    -0.1855  -0.1718  -0.0219   0.0311   0.2284   0.4362   0.5319   0.8024
     0.8433   1.1630   1.3030   1.4544   3.0597   3.4098   3.7437   4.2349
     4.7430   5.4880   6.0450   6.2608   6.6352   6.9183   7.0632   7.2078
     7.2444   7.5193   7.5763   7.6427   7.7498   7.9494   8.1594   8.2232
     8.2384   8.3509   8.3668   8.4579   8.5297   8.7500   8.8657   8.9226
     9.0070   9.2295   9.3664   9.4062   9.4230   9.4751   9.5844   9.7299
     9.8321   9.9106  10.0500  10.2675  10.3357  10.3451  10.5109  10.5473
    10.6642  10.7602  10.9026  11.0623  11.0943  11.1345  11.2699  11.3825
    11.5094  11.5414  11.6348  11.7273  11.8846  11.9406  12.0778  12.2062
    12.2270  12.2876  12.3083  12.3642  12.4264  12.5004  12.5781  12.5877
    12.6242  12.6821  12.7503  12.8300  12.9214  12.9543  13.0769  13.0884
    13.1594  13.1916  13.2272  13.2654  13.3061  13.4451  13.5046  13.6889
    13.7345  13.7802  13.8344  13.9410  14.0087  14.0478  14.1832  14.2036
    14.3058  14.3338  14.3792  14.4536  14.5244  14.6379  14.7323  14.8130
    14.8939  15.0004  15.1291  15.1805  15.2184  15.3078  15.3456  15.3898
    15.5346  15.6713  15.7671  15.8515  15.9645  16.0827  16.2142  16.3011
    16.3631  16.4986  16.5490  16.7087  16.7528  16.8009  16.9183  17.0805
    17.1532  17.2596  17.4121  17.4913  17.5802  17.6930  17.7182  17.8957
    17.9142  17.9515  17.9887  18.2457  18.4080  18.4381  18.4577  18.6771
    18.7512  18.7857  18.8487  18.8779  18.9517  19.0901  19.1886  19.2508
    19.4008  19.4912  19.5358  19.5501  19.5648  19.6914  19.7455  19.8704
    19.9094  19.9705  20.0244  20.0558  20.1375  20.2557  20.3100  20.3398
    20.4851  20.5446  20.6422  20.7116  20.8027  20.9652  21.0455  21.1965
    21.2233  21.3227  21.3412  21.4244  21.4695  21.5120  21.5883  21.6470
    21.7865  21.8173  21.9052  22.0715  22.0829  22.1931  22.2796  22.3411
    22.3539  22.3654  22.4329  22.4750  22.5566  22.6122  22.6981  22.7224
    22.7964  22.8788

[...]

          k =-0.5000 0.0000 0.0000 ( 26466 PWs)   bands (ev):

[...]

 ------ SPIN DOWN ----------

[...]

          k = 0.2500-0.4606 0.0000 ( 26462 PWs)   bands (ev):

[...]

          k =-0.2500 0.2303 0.0000 ( 26396 PWs)   bands (ev):

   -80.7125 -80.7038 -80.6865 -80.6530 -80.4625 -80.4600 -80.4466 -80.3589
   -49.6356 -49.5914 -49.5670 -49.5538 -49.5385 -49.4818 -49.4678 -49.4610
   -49.4276 -49.4174 -49.4086 -49.4046 -49.3060 -49.2933 -49.2785 -49.2602
   -49.2428 -49.2075 -49.2066 -49.1377 -49.1341 -49.0759 -49.0635 -49.0192
   -21.8009 -21.3657 -21.0090 -20.7560 -20.5875 -20.2678 -20.1867 -20.1049
   -20.0020 -19.9639 -19.8991 -19.8135 -19.7786 -19.6683 -19.5010 -19.4526
   -19.2922 -18.9781 -18.8273  -9.3791  -9.1103  -8.6009  -8.5126  -8.4491
    -8.0909  -8.0207  -7.9642  -7.8185  -7.7837  -7.6610  -7.5321  -7.4442
    -7.3046  -7.2084  -7.1492  -7.0485  -6.9555  -6.8943  -6.7438  -6.6750
    -6.5173  -6.4436  -6.3971  -6.2602  -6.0378  -5.8482  -5.7632  -5.7164
    -5.6003  -5.5426  -5.4860  -5.4395  -5.3495  -5.2760  -5.1781  -4.9830
    -4.9329  -4.7458  -4.6794  -4.5593  -4.4686  -4.3149  -4.2052  -4.1565
    -4.1246  -4.0077  -3.8007  -3.6672  -3.6188  -3.5510  -3.3229  -3.2458
    -3.0436  -2.9878  -2.8748  -2.5848  -1.2372  -1.1417  -1.0675  -1.0024
    -0.9832  -0.9444  -0.8611  -0.7964  -0.6943  -0.6338  -0.5869  -0.5099
    -0.4631  -0.4498  -0.3878  -0.2633  -0.1654  -0.0702   0.0011   0.0906
     0.1779   0.3179   0.3598   0.4722   0.5953   0.8842   0.9490   1.0523
     1.3472   1.3725   1.5004   1.7126   1.8676   1.9123   2.2246   2.3355
     2.3540   2.5755   2.6725   2.7939   3.7030   4.0388   4.3207   4.7932
     5.3065   5.6216   5.7459   6.0081   6.2477   6.4342   6.5290   6.6633
     6.7853   6.9453   7.0502   7.3545   7.4936   7.7286   7.9163   8.0675
     8.2786   8.3797   8.4625   8.6150   8.7099   8.8989   9.0839   9.2254
     9.3285   9.3819   9.5365   9.6317   9.7538   9.8638   9.9627  10.0841
    10.1715  10.2757  10.4065  10.5089  10.6406  10.7070  10.7982  10.9942
    11.0941  11.1330  11.2093  11.3240  11.4384  11.5235  11.5794  11.6842
    11.7706  11.8905  11.9456  12.0728  12.1043  12.2034  12.2505  12.4017
    12.4589  12.5223  12.6645  12.7550  12.8787  12.9036  12.9779  13.0720
    13.1495  13.1701  13.2192  13.2826  13.3976  13.4301  13.5398  13.6025
    13.6876  13.8455  13.8611  13.8801  13.9681  14.0458  14.0960  14.1415
    14.2215  14.3574  14.4464  14.5433  14.5897  14.6750  14.7445  14.8483
    14.8747  14.9140  14.9990  15.0402  15.1077  15.2076  15.3080  15.3733
    15.4788  15.5179  15.6258  15.7163  15.7524  15.8491  15.9042  16.0764
    16.1016  16.2014  16.2548  16.3471  16.4252  16.5137  16.5250  16.5759
    16.6672  16.7664  16.8886  16.9229  17.0050  17.0997  17.1334  17.2202
    17.2901  17.3573  17.4416  17.4972  17.5307  17.6667  17.7042  17.7653
    17.8339  17.9339  17.9843  18.0577  18.1029  18.2247  18.2867  18.3376
    18.3836  18.4877  18.5337  18.5783  18.6332  18.7629  18.8309  18.9460
    19.0385  19.0763  19.1505  19.1921  19.2525  19.3360  19.4184  19.4908
    19.5384  19.6300  19.7456  19.7974  19.9020  19.9441  20.0408  20.0769
    20.1346  20.2637  20.3444  20.3662  20.4011  20.5177  20.6499  20.6786
    20.7953  20.8983  20.9847  21.0133  21.0505  21.1187  21.1911  21.2301
    21.3973  21.4169  21.5212  21.5954  21.6613  21.7174  21.7660  21.8657
    21.9261  22.0071  22.0791  22.1417  22.2322  22.3639  22.3921  22.5070
    22.5724  22.6340

     the spin up/dw Fermi energies are    -1.7893   -1.7153 ev

!    total energy              =   -2322.29176906 Ry
     Harris-Foulkes estimate   =   -2322.29176986 Ry
     estimated scf accuracy    <       0.00000095 Ry

     The total energy is the sum of the following terms:

     one-electron contribution =  -26820.11035381 Ry
     hartree contribution      =   13428.70610921 Ry
     xc contribution           =    -348.85833526 Ry
     ewald contribution        =   11417.97081976 Ry
     Hubbard energy            =       0.00000000 Ry
     smearing contrib. (-TS)   =      -0.00000895 Ry

     total magnetization       =    23.00 Bohr mag/cell
     absolute magnetization    =    24.03 Bohr mag/cell

     convergence has been achieved in  39 iterations

     Forces acting on atoms (Ry/au):

     negative rho (up, down):  0.230E-02 0.126E-02
     atom    1 type  1   force =    -0.00456639   -0.01559102    0.00016254
     atom    2 type  1   force =     0.00032771    0.01246729    0.00016394
     atom    3 type  2   force =     0.03826239   -0.00409031   -0.00021963
     atom    4 type  2   force =     0.00408370    0.01143890   -0.00006042
     atom    5 type  1   force =     0.00193800    0.00916508    0.00024854
     atom    6 type  1   force =    -0.00483712   -0.01131464    0.00023523
     atom    7 type  1   force =     0.00225669    0.00102801   -0.00062033
     atom    8 type  1   force =     0.00176867   -0.00162382    0.00002911
     atom    9 type  2   force =     0.00246828    0.00003034   -0.00020919
     atom   10 type  2   force =    -0.00457928   -0.00108594    0.00066786
     atom   11 type  1   force =    -0.02273096   -0.05781829    0.00007418
     atom   12 type  1   force =    -0.02295027    0.05800489    0.00007471
     atom   13 type  1   force =    -0.00222038   -0.00017180    0.00025300
     atom   14 type  1   force =    -0.00516331   -0.01591902    0.00002481
     atom   15 type  1   force =     0.00033545    0.01194215   -0.00059383
     atom   16 type  2   force =    -0.03931350   -0.00397972   -0.00021436
     atom   17 type  2   force =     0.00435865    0.01133980   -0.00043986
     atom   18 type  1   force =     0.00552143    0.00885321    0.00021744
     atom   19 type  1   force =    -0.00088711   -0.01141001    0.00021376
     atom   20 type  1   force =    -0.00171610    0.00024869    0.00058785
     atom   21 type  1   force =    -0.00170333   -0.00152858   -0.00004991
     atom   22 type  2   force =    -0.00003407    0.00020305    0.00011043
     atom   23 type  2   force =     0.00310790   -0.00036810   -0.00013785
     atom   24 type  1   force =     0.02194007   -0.05241065   -0.00029218
     atom   25 type  1   force =     0.02218999    0.05256690   -0.00027442
     atom   26 type  1   force =     0.00143018   -0.00014329   -0.00011251
     atom   27 type  3   force =    -0.00000093   -0.00020247    0.00016509
     atom   28 type  3   force =    -0.00001158    0.00047202   -0.00016987
     atom   29 type  3   force =     0.00001827   -0.00005058    0.00002117
     atom   30 type  3   force =     0.00002772   -0.00004318    0.00007507
     atom   31 type  1   force =     0.00002454   -0.00001433    0.00011366
     atom   32 type  3   force =     0.00065469    0.00000543   -0.00004404

     Total force =     0.001785     Total SCF correction =     0.001807
     SCF correction compared to forces is large: reduce conv_thr to get better values

     BFGS Geometry Optimization

     bfgs converged in   1 scf cycles and   0 bfgs steps
     (criteria: energy < 0.10E-03, force < 0.10E-02)

     End of BFGS Geometry Optimization

     Final energy   =   -2322.2917690630 Ry
Begin final coordinates

ATOMIC_POSITIONS (crystal)
O0       0.000000000   0.000000000   0.378020000    0   0   1
O0       0.000000000   0.500000000   0.399010000    0   0   1
Mn1      0.250000000   0.500000000   0.450220000    0   0   1
Mn1      0.000000000   0.000000000   0.449050000    0   0   1
O0       0.250000000   0.800000000   0.448880000    0   0   1
O0       0.250000000   0.200000000   0.450160000    0   0   1
O0       0.000000000   0.500000000   0.496530000    0   0   1
O0       0.000000000   0.000000000   0.523850000    0   0   1
Mn1      0.250000000   0.000000000   0.573080000    0   0   1
Mn1      0.000000000   0.500000000   0.566260000    0   0   1
O0       0.250000000   0.700000000   0.576370000    0   0   1
O0       0.250000000   0.300000000   0.576470000    0   0   1
O0       0.000000000   0.000000000   0.616870000    0   0   1
O0       0.500000000   0.000000000   0.378340000    0   0   1
O0       0.500000000   0.500000000   0.399130000    0   0   1
Mn1      0.750000000   0.500000000   0.450230000    0   0   1
Mn1      0.500000000   0.000000000   0.449510000    0   0   1
O0       0.750000000   0.800000000   0.448850000    0   0   1
O0       0.750000000   0.200000000   0.450190000    0   0   1
O0       0.500000000   0.500000000   0.496480000    0   0   1
O0       0.500000000   0.000000000   0.523850000    0   0   1
Mn1      0.750000000   0.000000000   0.573380000    0   0   1
Mn1      0.500000000   0.500000000   0.578780000    0   0   1
O0       0.750000000   0.700000000   0.574680000    0   0   1
O0       0.750000000   0.300000000   0.574770000    0   0   1
O0       0.500000000   0.000000000   0.616760000    0   0   1
H2       0.000040000   0.646130000   0.382500000
H2       0.500090000   0.646380000   0.382690000
H2       0.161360000   0.036690000   0.366190000
H2       0.661020000   0.036820000   0.366350000
O0       0.515390000   0.500420000   0.647470000
H2       0.357530000   0.500240000   0.662960000
End final coordinates

     General routines

     Parallel routines
     Hubbard U routines

   This run was terminated on:   3:12:54  13May2014

   JOB DONE.