     Program PWSCF v.5.0.2 (svn rev. 9656) starts on 28May2014 at  7:59:18

     Current dimensions of program PWSCF are:
     Max number of different atomic species (ntypx) = 10
     Max number of k-points (npk) =  40000
     Max angular momentum in pseudopotentials (lmaxx) =  3
     Reading input from pwscf.in
Warning: card &CELL ignored
Warning: card / ignored

     Subspace diagonalization in iterative solution of the eigenvalue problem:
     a serial algorithm will be used

     bravais-lattice index     =            0
     lattice parameter (alat)  =      12.0187  a.u.
     unit-cell volume          =    7280.5819 (a.u.)^3
     number of atoms/cell      =           33
     number of atomic types    =            3
     number of electrons       =       245.00
     number of Kohn-Sham states=          367
     kinetic-energy cutoff     =      40.0000  Ry
     charge density cutoff     =     500.0000  Ry
     convergence threshold     =      1.0E-06
     mixing beta               =       0.7000
     number of iterations used =            8  plain     mixing
     Exchange-correlation      = SLA  PW   PBE  PBE ( 1 4 3 4 0)
     EXX-fraction              =        0.00
     nstep                     =           50

     celldm(1)=  12.018658  celldm(2)=   0.000000  celldm(3)=   0.000000
     celldm(4)=   0.000000  celldm(5)=   0.000000  celldm(6)=   0.000000

     crystal axes: (cart. coord. in units of alat)
               a(1) = (   1.000000   0.000000   0.000000 )
               a(2) = (   0.000000   1.009517   0.000000 )
               a(3) = (   0.000000   0.000000   4.154171 )

     reciprocal axes: (cart. coord. in units 2 pi/alat)
               b(1) = (  1.000000  0.000000  0.000000 )
               b(2) = (  0.000000  0.990572  0.000000 )
               b(3) = (  0.000000  0.000000  0.240722 )

     PseudoPot. # 1 for O  read from file:
     /home/camp/zhonxu/pseudo/o_pbe_v1.01.uspp.F.UPF
     MD5 check sum: 2bcb18d16ea4b960afae9ec6d52f22d2
     Pseudo is Ultrasoft + core correction, Zval =  6.0
     Generated by new atomic code, or converted to UPF format
     Using radial grid of  737 points,  5 beta functions with:
                l(1) =   0
                l(2) =   0
                l(3) =   1
                l(4) =   1
                l(5) =   2
     Q(r) pseudized with  8 coefficients,  rinner =    0.900   0.900   0.900
                                                       0.900   0.900

     PseudoPot. # 2 for Ir read from file:
     /home/camp/zhonxu/pseudo/ir_pbe_v1.uspp.F.UPF
     MD5 check sum: abf987a9674477536ede83817f8f8b70
     Pseudo is Ultrasoft + core correction, Zval = 15.0
     Generated by new atomic code, or converted to UPF format
     Using radial grid of  983 points,  7 beta functions with:
                l(1) =   0
                l(2) =   0
                l(3) =   1
                l(4) =   1
                l(5) =   1
                l(6) =   2
                l(7) =   2
     Q(r) pseudized with  8 coefficients,  rinner =    1.350   1.350   1.350
                                                       1.350   1.350

     PseudoPot. # 3 for H  read from file:
     /home/camp/zhonxu/pseudo/h_pbe_v1.uspp.F.UPF
     MD5 check sum: 3408e3ff4ec8b0a4e358431e7e038a48
     Pseudo is Ultrasoft, Zval =  1.0
     Generated by new atomic code, or converted to UPF format
     Using radial grid of  615 points,  2 beta functions with:
                l(1) =   0
                l(2) =   0
     Q(r) pseudized with  8 coefficients,  rinner =    0.700

     atomic species   valence    mass     pseudopotential
        O0             6.00    15.99940     O ( 1.00)
        Ir1           15.00   192.22000     Ir( 1.00)
        H2             1.00     1.00794     H ( 1.00)

     Simplified LDA+U calculation (l_max = 2) with parameters (eV):
     atomic species    L          U    alpha       J0     beta
        Ir1            2     0.5000   0.0000   0.0000   0.0000

     No symmetry found

   Cartesian axes

     site n.     atom                  positions (alat units)
         1           O0  tau(   1) = (   0.0000000   0.0000000   1.5694875  )
         2           O0  tau(   2) = (   0.0000000   0.5047586   1.6702677  )
         3           Ir1 tau(   3) = (   0.2500000   0.5047586   1.8805934  )
         4           Ir1 tau(   4) = (   0.0000000   0.0000000   1.8807595  )
         5           O0  tau(   5) = (   0.2500000   0.8177090   1.8801779  )
         6           O0  tau(   6) = (   0.2500000   0.1918083   1.8787655  )
         7           O0  tau(   7) = (   0.0000000   0.5047586   2.0695666  )
         8           O0  tau(   8) = (   0.0000000   0.0000000   2.1948564  )
         9           Ir1 tau(   9) = (   0.2500000   0.0000000   2.3901025  )
        10           Ir1 tau(  10) = (   0.0000000   0.5047586   2.3742751  )
        11           O0  tau(  11) = (   0.2500000   0.6965669   2.3856575  )
        12           O0  tau(  12) = (   0.2500000   0.3129503   2.3949628  )
        13           O0  tau(  13) = (   0.0000000   0.0000000   2.5754200  )
        14           O0  tau(  14) = (   0.5000000   0.0000000   1.5694875  )
        15           O0  tau(  15) = (   0.5000000   0.5047586   1.6704338  )
        16           Ir1 tau(  16) = (   0.7500000   0.5047586   1.8805934  )
        17           Ir1 tau(  17) = (   0.5000000   0.0000000   1.8805518  )
        18           O0  tau(  18) = (   0.7500000   0.8177090   1.8801364  )
        19           O0  tau(  19) = (   0.7500000   0.1918083   1.8788486  )
        20           O0  tau(  20) = (   0.5000000   0.5047586   2.0759640  )
        21           O0  tau(  21) = (   0.5000000   0.0000000   2.1945241  )
        22           Ir1 tau(  22) = (   0.7500000   0.0000000   2.3900609  )
        23           Ir1 tau(  23) = (   0.5000000   0.5047586   2.3998648  )
        24           O0  tau(  24) = (   0.7500000   0.6965669   2.3856575  )
        25           O0  tau(  25) = (   0.7500000   0.3129503   2.3949628  )
        26           O0  tau(  26) = (   0.5000000   0.0000000   2.5728445  )
        27           H2  tau(  27) = (   0.0000400   0.6420328   1.5957418  )
        28           H2  tau(  28) = (   0.4999400   0.6424971   1.5965311  )
        29           H2  tau(  29) = (   0.1432100   0.0360095   1.5217560  )
        30           H2  tau(  30) = (   0.6436700   0.0339703   1.5215899  )
        31           O0  tau(  31) = (   0.4997900   0.5432313   2.6993805  )
        32           O0  tau(  32) = (   0.5001800   0.3480815   2.8224271  )
        33           H2  tau(  33) = (   0.4999800   0.4114489   2.9642920  )

     number of k points=    10  Methfessel-Paxton smearing, width (Ry)=  0.0100
                       cart. coord. in units 2pi/alat
        k(    1) = (   0.0000000   0.0000000   0.0000000), wk =   0.1250000
        k(    2) = (   0.0000000   0.2476431   0.0000000), wk =   0.2500000
        k(    3) = (   0.0000000  -0.4952862   0.0000000), wk =   0.1250000
        k(    4) = (   0.2500000   0.0000000   0.0000000), wk =   0.2500000
        k(    5) = (   0.2500000   0.2476431   0.0000000), wk =   0.2500000
        k(    6) = (   0.2500000  -0.4952862   0.0000000), wk =   0.2500000
        k(    7) = (  -0.5000000   0.0000000   0.0000000), wk =   0.1250000
        k(    8) = (  -0.5000000   0.2476431   0.0000000), wk =   0.2500000
        k(    9) = (  -0.5000000  -0.4952862   0.0000000), wk =   0.1250000
        k(   10) = (  -0.2500000   0.2476431   0.0000000), wk =   0.2500000

     Largest allocated arrays     est. size (Mb)     dimensions
     Largest temporary arrays     est. size (Mb)     dimensions

     Check: negative/imaginary core charge=   -0.000003    0.000000

     Initial potential from superposition of free atoms
     Check: negative starting charge=   -3.336869

     starting charge  240.99967, renormalised to  245.00000

     negative rho (up, down):  0.339E+01 0.000E+00
     Number of +U iterations with fixed ns =  0
     Starting occupations:
 --- enter write_ns ---
 LDA+U parameters:
U( 2)     =  0.50000000
alpha( 2) =  0.00000000
atom    3   Tr[ns(na)] =   7.00000
    eigenvalues:
  0.700  0.700  0.700  0.700  0.700
    eigenvectors:
  1.000  0.000  0.000  0.000  0.000
  0.000  1.000  0.000  0.000  0.000
  0.000  0.000  1.000  0.000  0.000
  0.000  0.000  0.000  1.000  0.000
  0.000  0.000  0.000  0.000  1.000
    occupations:
  0.700  0.000  0.000  0.000  0.000
  0.000  0.700  0.000  0.000  0.000
  0.000  0.000  0.700  0.000  0.000
  0.000  0.000  0.000  0.700  0.000
  0.000  0.000  0.000  0.000  0.700
atom    4   Tr[ns(na)] =   7.00000
    eigenvalues:
  0.700  0.700  0.700  0.700  0.700
    eigenvectors:
  1.000  0.000  0.000  0.000  0.000
  0.000  1.000  0.000  0.000  0.000
  0.000  0.000  1.000  0.000  0.000
  0.000  0.000  0.000  1.000  0.000
  0.000  0.000  0.000  0.000  1.000
    occupations:
  0.700  0.000  0.000  0.000  0.000
  0.000  0.700  0.000  0.000  0.000
  0.000  0.000  0.700  0.000  0.000
  0.000  0.000  0.000  0.700  0.000
  0.000  0.000  0.000  0.000  0.700
atom    9   Tr[ns(na)] =   7.00000
    eigenvalues:
  0.700  0.700  0.700  0.700  0.700
    eigenvectors:
  1.000  0.000  0.000  0.000  0.000
  0.000  1.000  0.000  0.000  0.000
  0.000  0.000  1.000  0.000  0.000
  0.000  0.000  0.000  1.000  0.000
  0.000  0.000  0.000  0.000  1.000
    occupations:
  0.700  0.000  0.000  0.000  0.000
  0.000  0.700  0.000  0.000  0.000
  0.000  0.000  0.700  0.000  0.000
  0.000  0.000  0.000  0.700  0.000
  0.000  0.000  0.000  0.000  0.700
atom   10   Tr[ns(na)] =   7.00000
    eigenvalues:
  0.700  0.700  0.700  0.700  0.700
    eigenvectors:
  1.000  0.000  0.000  0.000  0.000
  0.000  1.000  0.000  0.000  0.000
  0.000  0.000  1.000  0.000  0.000
  0.000  0.000  0.000  1.000  0.000
  0.000  0.000  0.000  0.000  1.000
    occupations:
  0.700  0.000  0.000  0.000  0.000
  0.000  0.700  0.000  0.000  0.000
  0.000  0.000  0.700  0.000  0.000
  0.000  0.000  0.000  0.700  0.000
  0.000  0.000  0.000  0.000  0.700
atom   16   Tr[ns(na)] =   7.00000
    eigenvalues:
  0.700  0.700  0.700  0.700  0.700
    eigenvectors:
  1.000  0.000  0.000  0.000  0.000
  0.000  1.000  0.000  0.000  0.000
  0.000  0.000  1.000  0.000  0.000
  0.000  0.000  0.000  1.000  0.000
  0.000  0.000  0.000  0.000  1.000
    occupations:
  0.700  0.000  0.000  0.000  0.000
  0.000  0.700  0.000  0.000  0.000
  0.000  0.000  0.700  0.000  0.000
  0.000  0.000  0.000  0.700  0.000
  0.000  0.000  0.000  0.000  0.700
atom   17   Tr[ns(na)] =   7.00000
    eigenvalues:
  0.700  0.700  0.700  0.700  0.700
    eigenvectors:
  1.000  0.000  0.000  0.000  0.000
  0.000  1.000  0.000  0.000  0.000
  0.000  0.000  1.000  0.000  0.000
  0.000  0.000  0.000  1.000  0.000
  0.000  0.000  0.000  0.000  1.000
    occupations:
  0.700  0.000  0.000  0.000  0.000
  0.000  0.700  0.000  0.000  0.000
  0.000  0.000  0.700  0.000  0.000
  0.000  0.000  0.000  0.700  0.000
  0.000  0.000  0.000  0.000  0.700
atom   22   Tr[ns(na)] =   7.00000
    eigenvalues:
  0.700  0.700  0.700  0.700  0.700
    eigenvectors:
  1.000  0.000  0.000  0.000  0.000
  0.000  1.000  0.000  0.000  0.000
[...]
  0.000  0.999  0.000  0.001  0.000
    occupations:
  0.603  0.000  0.006  0.033 -0.000
  0.000  0.915 -0.000  0.000 -0.008
  0.006 -0.000  0.908  0.000  0.000
  0.033  0.000  0.000  0.974  0.000
 -0.000 -0.008  0.000  0.000  0.609
atom   16   Tr[ns(na)] =   8.05311
    eigenvalues:
  0.606  0.631  0.866  0.954  0.969
    eigenvectors:
  0.005  0.182  0.003  0.003  0.806
  0.979  0.021  0.000  0.000  0.000
  0.000  0.000  0.994  0.002  0.003
  0.016  0.797  0.000  0.001  0.186
  0.000  0.000  0.002  0.994  0.004
    occupations:
  0.905  0.005  0.005 -0.132  0.001
  0.005  0.607 -0.000  0.002 -0.006
  0.005 -0.000  0.867 -0.004 -0.004
 -0.132  0.002 -0.004  0.694 -0.000
  0.001 -0.006 -0.004 -0.000  0.954
atom   17   Tr[ns(na)] =   8.03594
    eigenvalues:
  0.618  0.663  0.854  0.904  0.979
    eigenvectors:
  0.000  0.990  0.000  0.000  0.010
  0.000  0.000  0.037  0.963  0.000
  0.000  0.000  0.963  0.037  0.000
  0.000  0.010  0.000  0.000  0.990
  1.000  0.000  0.000  0.000  0.000
    occupations:
  0.666 -0.003 -0.001  0.031  0.001
 -0.003  0.902  0.009  0.000 -0.001
 -0.001  0.009  0.856 -0.000  0.000
  0.031  0.000 -0.000  0.976  0.000
  0.001 -0.001  0.000  0.000  0.618
atom   22   Tr[ns(na)] =   8.01107
    eigenvalues:
  0.651  0.666  0.835  0.879  0.975
    eigenvectors:
  0.000  0.142  0.001  0.000  0.857
  1.000  0.000  0.000  0.000  0.000
  0.000  0.000  0.994  0.006  0.000
  0.000  0.858  0.000  0.000  0.142
  0.000  0.000  0.006  0.994  0.000
    occupations:
  0.931  0.002  0.001 -0.108  0.000
  0.002  0.651  0.001 -0.001 -0.000
  0.001  0.001  0.835 -0.004  0.003
 -0.108 -0.001 -0.004  0.710  0.000
  0.000 -0.000  0.003  0.000  0.879
atom   23   Tr[ns(na)] =   8.04540
    eigenvalues:
  0.616  0.656  0.843  0.932  0.976
    eigenvectors:
  0.000  0.993  0.000  0.003  0.004
  0.002  0.000  0.998  0.000  0.000
  0.000  0.003  0.000  0.996  0.001
  0.000  0.004  0.000  0.001  0.995
  0.998  0.000  0.002  0.000  0.000
    occupations:
  0.658 -0.000  0.014  0.021 -0.000
 -0.000  0.842 -0.001 -0.000 -0.009
  0.014 -0.001  0.931 -0.002  0.000
  0.021 -0.000 -0.002  0.974 -0.000
 -0.000 -0.009  0.000 -0.000  0.617
N of occupied +U levels =  64.2662739
 --- exit write_ns ---

[...]

     total energy              =   -2139.27278523 Ry
     Harris-Foulkes estimate   =   -2139.27278571 Ry
     estimated scf accuracy    <       0.00000260 Ry

     iteration #  9     ecut=    40.00 Ry     beta=0.70
     Davidson diagonalization with overlap
     ethr =  1.06E-09,  avg # of iterations =  1.0

     negative rho (up, down):  0.313E+01 0.000E+00

     End of self-consistent calculation
 --- enter write_ns ---
 LDA+U parameters:
U( 2)     =  0.50000000
alpha( 2) =  0.00000000
atom    3   Tr[ns(na)] =   8.05375
    eigenvalues:
  0.606  0.632  0.866  0.954  0.969
    eigenvectors:
  0.005  0.182  0.003  0.002  0.807
  0.978  0.022  0.000  0.000  0.000
  0.000  0.000  0.993  0.004  0.003
  0.017  0.796  0.000  0.001  0.186
  0.000  0.000  0.004  0.993  0.003
    occupations:
  0.905 -0.005  0.005 -0.132 -0.001
 -0.005  0.607 -0.000 -0.002 -0.006
  0.005 -0.000  0.867 -0.004  0.005
 -0.132 -0.002 -0.004  0.694 -0.000
 -0.001 -0.006  0.005 -0.000  0.953
atom    4   Tr[ns(na)] =   8.03470
    eigenvalues:
  0.618  0.663  0.855  0.903  0.978
    eigenvectors:
  0.000  0.990  0.000  0.000  0.010
  0.000  0.000  0.050  0.950  0.000
  0.000  0.000  0.950  0.050  0.000
  0.000  0.010  0.000  0.000  0.990
  1.000  0.000  0.000  0.000  0.000
    occupations:
  0.666 -0.003 -0.001  0.031  0.001
 -0.003  0.901  0.010  0.000 -0.001
 -0.001  0.010  0.858 -0.000  0.000
  0.031  0.000 -0.000  0.975  0.000
  0.001 -0.001  0.000  0.000  0.618
atom    9   Tr[ns(na)] =   8.00984
    eigenvalues:
  0.651  0.666  0.834  0.879  0.975
    eigenvectors:
  0.000  0.142  0.001  0.000  0.857
  0.999  0.001  0.000  0.000  0.000
  0.000  0.000  0.992  0.007  0.001
  0.001  0.857  0.000  0.000  0.142
  0.000  0.000  0.007  0.993  0.000
    occupations:
  0.931 -0.001  0.002 -0.108 -0.001
 -0.001  0.651 -0.000  0.001 -0.000
  0.002 -0.000  0.835 -0.004 -0.004
 -0.108  0.001 -0.004  0.710  0.001
 -0.001 -0.000 -0.004  0.001  0.879
atom   10   Tr[ns(na)] =   8.01792
    eigenvalues:
  0.600  0.608  0.908  0.915  0.977
    eigenvectors:
  0.992  0.000  0.000  0.000  0.008
  0.000  0.001  0.001  0.998  0.000
  0.000  0.000  0.998  0.001  0.000
  0.008  0.000  0.000  0.000  0.992
  0.000  0.999  0.000  0.001  0.000
    occupations:
  0.603  0.000  0.006  0.033 -0.000
  0.000  0.915 -0.000  0.000 -0.008
  0.006 -0.000  0.908  0.000  0.000
  0.033  0.000  0.000  0.974  0.000
 -0.000 -0.008  0.000  0.000  0.609
atom   16   Tr[ns(na)] =   8.05364
    eigenvalues:
  0.606  0.632  0.866  0.954  0.969
    eigenvectors:
  0.005  0.182  0.003  0.003  0.807
  0.979  0.021  0.000  0.000  0.000
  0.000  0.000  0.994  0.002  0.003
  0.016  0.797  0.000  0.001  0.186
  0.000  0.000  0.002  0.994  0.004
    occupations:
  0.905  0.004  0.005 -0.132  0.001
  0.004  0.607 -0.000  0.002 -0.006
  0.005 -0.000  0.867 -0.004 -0.004
 -0.132  0.002 -0.004  0.694 -0.000
  0.001 -0.006 -0.004 -0.000  0.954
atom   17   Tr[ns(na)] =   8.03238
    eigenvalues:
  0.618  0.663  0.853  0.903  0.979
    eigenvectors:
  0.000  0.990  0.000  0.000  0.010
  0.000  0.000  0.036  0.964  0.000
  0.000  0.000  0.964  0.036  0.000
  0.000  0.010  0.000  0.000  0.990
  1.000  0.000  0.000  0.000  0.000
    occupations:
  0.666 -0.003 -0.001  0.031  0.001
 -0.003  0.901  0.009  0.000 -0.001
 -0.001  0.009  0.855 -0.000  0.000
  0.031  0.000 -0.000  0.976  0.000
  0.001 -0.001  0.000  0.000  0.618
atom   22   Tr[ns(na)] =   8.01007
    eigenvalues:
  0.650  0.666  0.834  0.879  0.975
    eigenvectors:
  0.000  0.142  0.001  0.000  0.857
  1.000  0.000  0.000  0.000  0.000
  0.000  0.000  0.993  0.006  0.000
  0.000  0.858  0.000  0.000  0.142
  0.000  0.000  0.006  0.994  0.000
    occupations:
  0.931  0.002  0.001 -0.108  0.000
  0.002  0.650  0.001 -0.001 -0.000
  0.001  0.001  0.835 -0.004  0.003
 -0.108 -0.001 -0.004  0.710  0.000
  0.000 -0.000  0.003  0.000  0.879
atom   23   Tr[ns(na)] =   8.04844
    eigenvalues:
  0.616  0.656  0.844  0.932  0.976
    eigenvectors:
  0.000  0.993  0.000  0.003  0.004
  0.002  0.000  0.998  0.000  0.000
  0.000  0.003  0.000  0.996  0.001
  0.000  0.004  0.000  0.001  0.995
  0.998  0.000  0.002  0.000  0.000
    occupations:
  0.658 -0.000  0.014  0.021 -0.000
 -0.000  0.844 -0.001 -0.000 -0.009
  0.014 -0.001  0.931 -0.002  0.000
  0.021 -0.000 -0.002  0.974 -0.000
 -0.000 -0.009  0.000 -0.000  0.617
N of occupied +U levels =  64.2607350
 --- exit write_ns ---

[...]

          k = 0.2500-0.4953 0.0000 ( 31088 PWs)   bands (ev):

[...]

          k =-0.2500 0.2476 0.0000 ( 31099 PWs)   bands (ev):

   -50.7436 -50.7388 -50.7280 -50.6256 -50.6167 -50.5871 -50.5813 -50.5691
   -50.5515 -50.5083 -50.4256 -50.4091 -50.4010 -50.3931 -50.3594 -50.3584
   -50.3148 -50.2569 -50.2437 -50.2401 -50.2372 -50.2295 -50.2239 -50.0786
   -22.9972 -21.0361 -20.6526 -20.5912 -20.5139 -20.2103 -20.0529 -20.0143
   -19.8443 -19.7533 -19.6446 -19.5263 -19.4963 -19.4043 -19.2755 -19.1982
   -19.0988 -18.2750 -18.1405 -17.0944  -9.2883  -9.1870  -9.1200  -8.7747
    -8.4699  -8.4038  -8.3308  -8.3203  -8.1769  -8.1512  -8.0434  -7.9914
    -7.9423  -7.8346  -7.6983  -7.5744  -7.4979  -7.3608  -7.2353  -7.0541
    -6.9604  -6.8324  -6.6853  -6.5986  -6.5573  -6.2918  -6.0298  -5.9445
    -5.8020  -5.7529  -5.7014  -5.6326  -5.5607  -5.4959  -5.4522  -5.4269
    -5.2818  -5.1459  -5.0234  -4.9001  -4.8128  -4.7476  -4.5910  -4.4762
    -4.2836  -4.2175  -4.1436  -3.9963  -3.9020  -3.8136  -3.6957  -3.5971
    -3.4247  -3.2330  -3.1905  -2.8923  -2.8361  -2.6371  -2.5423  -2.3734
    -2.1402  -2.1196  -2.0464  -2.0103  -1.9092  -1.8691  -1.7839  -1.7490
    -1.7017  -1.6370  -1.5751  -1.3789  -1.2545  -1.0600  -0.8240  -0.7136
    -0.6025  -0.5644  -0.3525  -0.2131  -0.0890   0.0134   0.1768   0.4201
     1.3505   1.4201   1.6240   2.0449   2.1278   2.5753   2.6305   2.9225
     3.0465   3.2333   3.2649   3.5293   3.5634   3.7268   3.8036   4.0735
     4.1972   4.4412   4.8512   5.3443   5.3910   5.9011   5.9846   6.0793
     6.3433   6.4785   6.6102   6.7306   6.8212   7.0728   7.2277   7.3159
     7.5331   7.6629   7.8021   7.9046   8.0102   8.1353   8.2590   8.3427
     8.3679   8.5337   8.7087   8.7819   8.8641   9.0186   9.0852   9.1675
     9.1908   9.3166   9.3262   9.3360   9.3416   9.3486   9.3530   9.4910
     9.5064   9.5132   9.5384   9.5623   9.6335   9.7493   9.8219   9.9236
     9.9954  10.1334  10.2160  10.2536  10.3490  10.3987  10.5085  10.5438
    10.6275  10.7093  10.8150  10.8681  10.9559  11.0229  11.1435  11.1881
    11.3195  11.3961  11.4508  11.5922  11.6426  11.7600  11.8011  11.9119
    11.9784  12.0538  12.1952  12.2552  12.3432  12.4473  12.4889  12.5450
    12.5787  12.6961  12.7806  12.8606  12.9299  13.0163  13.0646  13.1213
    13.1985  13.3079  13.3615  13.4407  13.5407  13.6570  13.6798  13.7754
    13.8817  13.9432  14.0314  14.0647  14.1047  14.1691  14.2843  14.3859
    14.4638  14.5093  14.6271  14.6983  14.8329  14.8782  15.0050  15.0696
    15.1262  15.2323  15.3794  15.4428  15.4766  15.6111  15.6652  15.6838
    15.7348  15.7642  15.8631  15.8801  15.9568  16.0099  16.0723  16.0945
    16.2236  16.2534  16.3482  16.3808  16.4637  16.5110  16.5448  16.5805
    16.6956  16.7504  16.7824  16.8211  16.8808  16.9603  17.1497  17.2374
    17.2949  17.3470  17.4077  17.5037  17.5537  17.5856  17.6187  17.6806
    17.7474  17.8241  17.8716  17.9032  17.9187  18.0192  18.0608  18.1424
    18.2422  18.3385  18.3756  18.5111  18.6089  18.7090  18.7419  18.7900
    18.8394  18.8708  19.0067  19.0323  19.0771  19.1672  19.2327  19.3457
    19.3793  19.4005  19.5355  19.6204  19.6763  19.7569  19.7876  19.8391
    19.9162  19.9849  20.1246  20.1400  20.2386  20.3135  20.4501  20.5114
    20.5485  20.6251  20.7187  20.7590  20.8014  20.8560  20.9017  21.0349
    21.0856  21.1437  21.1690  21.2461  21.2682  21.2973  21.3421  21.4113
    21.5035  21.5329  21.6213  21.6726  21.7502  21.7902  21.8461  21.8906
    21.9676  21.9827  22.0599  22.1211  22.1871  22.2654  22.3778

     the Fermi energy is    -0.4134 ev

!    total energy              =   -2139.27278503 Ry
     Harris-Foulkes estimate   =   -2139.27278557 Ry
     estimated scf accuracy    <       0.00000059 Ry

     The total energy is the sum of the following terms:

     one-electron contribution =  -23087.04834675 Ry
     hartree contribution      =   11592.83475736 Ry
     xc contribution           =    -584.10534672 Ry
     ewald contribution        =    9938.84415018 Ry
     Hubbard energy            =       0.20167112 Ry
     smearing contrib. (-TS)   =       0.00032978 Ry

     convergence has been achieved in   9 iterations

     Forces acting on atoms (Ry/au):

     negative rho (up, down):  0.313E+01 0.000E+00
     atom    1 type  1   force =    -0.00737156   -0.01382118    0.00020277
     atom    2 type  1   force =     0.00018115    0.00658569    0.00062741
     atom    3 type  2   force =     0.03048969    0.00397958    0.00029439
     atom    4 type  2   force =     0.00908695    0.00782788    0.00041679
     atom    5 type  1   force =    -0.00262986   -0.02105855   -0.00013324
     atom    6 type  1   force =     0.00285597    0.01979556   -0.00002310
     atom    7 type  1   force =    -0.00029119   -0.00314517    0.00072616
     atom    8 type  1   force =    -0.00305437    0.00030397    0.00013518
     atom    9 type  2   force =     0.00712645    0.00175212    0.00000005
     atom   10 type  2   force =    -0.00010639   -0.00113284   -0.00000297
     atom   11 type  1   force =    -0.00692853    0.01235815   -0.00057874
     atom   12 type  1   force =    -0.00114265   -0.00694750   -0.00018168
     atom   13 type  1   force =    -0.00089099   -0.00295941   -0.00022067
     atom   14 type  1   force =    -0.00695852   -0.01396239   -0.00017431
     atom   15 type  1   force =     0.00014467    0.00671205    0.00023934
     atom   16 type  2   force =    -0.03052679    0.00386483    0.00024478
     atom   17 type  2   force =     0.00914912    0.00845373   -0.00002192
     atom   18 type  1   force =    -0.00145377   -0.02147146   -0.00009842
     atom   19 type  1   force =     0.00368054    0.01947962   -0.00002734
     atom   20 type  1   force =    -0.00025755   -0.00612064   -0.00039192
     atom   21 type  1   force =    -0.00330452    0.00122443   -0.00008922
     atom   22 type  2   force =    -0.00464583    0.00149028    0.00007655
     atom   23 type  2   force =    -0.00016636    0.00250220   -0.00027683
     atom   24 type  1   force =     0.00683033    0.01232967   -0.00058784
     atom   25 type  1   force =     0.00165204   -0.00703290   -0.00018200
     atom   26 type  1   force =    -0.00105775   -0.01035057    0.00037587
     atom   27 type  3   force =    -0.00001430   -0.00042789    0.00009679
     atom   28 type  3   force =    -0.00001342   -0.00027015    0.00013507
     atom   29 type  3   force =    -0.00025538   -0.00007849   -0.00002274
     atom   30 type  3   force =    -0.00013642    0.00003578    0.00006041
     atom   31 type  1   force =    -0.00014785   -0.00066343    0.00015160
     atom   32 type  1   force =     0.00015158    0.00060364   -0.00043986
     atom   33 type  3   force =     0.00000552    0.00014339   -0.00033035

     Total force =     0.002043     Total SCF correction =     0.002693
     SCF correction compared to forces is large: reduce conv_thr to get better values

     entering subroutine stress ...

     negative rho (up, down):  0.313E+01 0.000E+00
          total   stress  (Ry/bohr**3)                   (kbar)     P=  -12.88
  -0.00009675   0.00000489   0.00000394        -14.23      0.72      0.58
   0.00000489  -0.00011681   0.00000523          0.72    -17.18      0.77
   0.00000394   0.00000523  -0.00004911          0.58      0.77     -7.22

     bfgs converged in   2 scf cycles and   1 bfgs steps
     (criteria: energy < 0.10E-03, force < 0.10E-02)

     End of BFGS Geometry Optimization

     Final energy   =   -2139.2727850276 Ry
Begin final coordinates

ATOMIC_POSITIONS (crystal)
O0       0.000000000   0.000000000   0.377825013    0   0   1
O0       0.000000000   0.500000000   0.402085196    0   0   1
Ir1      0.250000000   0.500000000   0.452681568    0   0   1
Ir1      0.000000000   0.000000000   0.452733607    0   0   1
O0       0.250000000   0.810000000   0.452601247    0   0   1
O0       0.250000000   0.190000000   0.452263621    0   0   1
O0       0.000000000   0.500000000   0.498256208    0   0   1
O0       0.000000000   0.000000000   0.528371759    0   0   1
Ir1      0.250000000   0.000000000   0.575329101    0   0   1
Ir1      0.000000000   0.500000000   0.571511456    0   0   1
O0       0.250000000   0.690000000   0.574266994    0   0   1
O0       0.250000000   0.310000000   0.576516778    0   0   1
O0       0.000000000   0.000000000   0.619957453    0   0   1
O0       0.500000000   0.000000000   0.377820718    0   0   1
O0       0.500000000   0.500000000   0.402120438    0   0   1
Ir1      0.750000000   0.500000000   0.452679123    0   0   1
Ir1      0.500000000   0.000000000   0.452667152    0   0   1
O0       0.750000000   0.810000000   0.452592302    0   0   1
O0       0.750000000   0.190000000   0.452283914    0   0   1
O0       0.500000000   0.500000000   0.499728017    0   0   1
O0       0.500000000   0.000000000   0.528285729    0   0   1
Ir1      0.750000000   0.000000000   0.575322905    0   0   1
Ir1      0.500000000   0.500000000   0.577681041    0   0   1
O0       0.750000000   0.690000000   0.574266630    0   0   1
O0       0.750000000   0.310000000   0.576516468    0   0   1
O0       0.500000000   0.000000000   0.619357314    0   0   1
H2       0.000038492   0.635911675   0.384136793
H2       0.499938862   0.636381506   0.384328314
H2       0.143200641   0.035665882   0.366317778
H2       0.643686652   0.033659751   0.366278775
O0       0.499777549   0.537983865   0.649825584
O0       0.500192145   0.344914853   0.679401880
H2       0.499980405   0.407578613   0.713559123
End final coordinates

     General routines

     Parallel routines
     Hubbard U routines

   This run was terminated on:  10:45: 2  28May2014

   JOB DONE.
Running PBS batch system epilogue script
Job id: 373274.audhumbla.fysik.dtu.dk
Username: zhonxu
Groupname: campgst
Jobname: IrO2/Eads-2-layers/OOH-U-0.5
Sessionid: 1569
Queuename: verylong
Accounting:
This job has allocated the following 16 nodes:
a029 a029 a029 a029 a029 a029 a029 a029 a013 a013 a013 a013 a013 a013 a013 a013
Finished epilogue job 373274.audhumbla.fysik.dtu.dk for zhonxu