     Program PWSCF v.5.0.2 (svn rev. 9656) starts on 14Feb2014 at 21: 1:45

     Current dimensions of program PWSCF are:
     Max number of different atomic species (ntypx) = 10
     Max number of k-points (npk) =  40000
     Max angular momentum in pseudopotentials (lmaxx) =  3
     Reading input from alpha_0.07/alpha_0.07.in
Warning: card &IONS ignored
Warning: card / ignored
Warning: card &CELL ignored
Warning: card / ignored

     Subspace diagonalization in iterative solution of the eigenvalue problem:
     a serial algorithm will be used

     bravais-lattice index     =            0
     lattice parameter (alat)  =      18.7083  a.u.
     unit-cell volume          =    3545.1269 (a.u.)^3
     number of atoms/cell      =           48
     number of atomic types    =            3
     number of electrons       =       432.00
     number of Kohn-Sham states=          648
     kinetic-energy cutoff     =      40.0000  Ry
     charge density cutoff     =     500.0000  Ry
     convergence threshold     =      1.0E-06
     mixing beta               =       0.7000
     number of iterations used =            8  plain     mixing
     Exchange-correlation      = SLA  PW   PBE  PBE ( 1 4 3 4 0)
     EXX-fraction              =        0.00

     celldm(1)=  18.708289  celldm(2)=   0.000000  celldm(3)=   0.000000
     celldm(4)=   0.000000  celldm(5)=   0.000000  celldm(6)=   0.000000

     crystal axes: (cart. coord. in units of alat)
               a(1) = (   1.000000   0.000000   0.000000 )
               a(2) = (   0.000000   1.000000   0.000000 )
               a(3) = (   0.000000   0.000000   0.541414 )

     reciprocal axes: (cart. coord. in units 2 pi/alat)
               b(1) = (  1.000000  0.000000  0.000000 )
               b(2) = (  0.000000  1.000000  0.000000 )
               b(3) = (  0.000000  0.000000  1.847015 )

     PseudoPot. # 1 for Re read from file:
     /home/camp/zhonxu/pseudo/re_pbe_v1.uspp.F.UPF
     MD5 check sum: 6f5a5dcaf9c96c20d0ffdde0de57afc6
     Pseudo is Ultrasoft + core correction, Zval = 15.0
     Generated by new atomic code, or converted to UPF format
     Using radial grid of  981 points,  8 beta functions with:
                l(1) =   0
                l(2) =   0
                l(3) =   1
                l(4) =   1
                l(5) =   2
                l(6) =   2
                l(7) =   3
                l(8) =   3
     Q(r) pseudized with  8 coefficients,  rinner =    1.000   1.000   1.000
                                                       1.000   1.000   1.000
                                                       1.000

     PseudoPot. # 2 for O  read from file:
     /home/camp/zhonxu/pseudo/o_pbe_v1.01.uspp.F.UPF
     MD5 check sum: 2bcb18d16ea4b960afae9ec6d52f22d2
     Pseudo is Ultrasoft + core correction, Zval =  6.0
     Generated by new atomic code, or converted to UPF format
     Using radial grid of  737 points,  5 beta functions with:
                l(1) =   0
                l(2) =   0
                l(3) =   1
                l(4) =   1
                l(5) =   2
     Q(r) pseudized with  8 coefficients,  rinner =    0.900   0.900   0.900
                                                       0.900   0.900

     PseudoPot. # 3 for O  read from file:
     /home/camp/zhonxu/pseudo/o_pbe_v1.01.uspp.F.UPF
     MD5 check sum: 2bcb18d16ea4b960afae9ec6d52f22d2
     Pseudo is Ultrasoft + core correction, Zval =  6.0
     Generated by new atomic code, or converted to UPF format
     Using radial grid of  737 points,  5 beta functions with:
                l(1) =   0
                l(2) =   0
                l(3) =   1
                l(4) =   1
                l(5) =   2
     Q(r) pseudized with  8 coefficients,  rinner =    0.900   0.900   0.900
                                                       0.900   0.900

     atomic species   valence    mass     pseudopotential
        Re0           15.00   186.20700     Re( 1.00)
        O1             6.00    15.99940     O ( 1.00)
        O2             6.00    15.99940     O ( 1.00)

     Starting magnetic structure
     atomic species   magnetization
        Re0          0.000
        O1           0.000
        O2           0.000

     Simplified LDA+U calculation (l_max = 2) with parameters (eV):
     atomic species    L          U    alpha       J0     beta
        Re0            2     0.0000   0.0000   0.0000   0.0000
        O1             1     0.0000   0.0700   0.0000   0.0000
        O2             1     0.0000   0.0000   0.0000   0.0000

      4 Sym. Ops. (no inversion) found

   Cartesian axes

     site n.     atom                  positions (alat units)
         1           Re0 tau(   1) = (  -0.1400000  -0.1400000   0.0000000  )
         2           Re0 tau(   2) = (   0.1100000   0.1100000   0.1353535  )
         3           Re0 tau(   3) = (  -0.1400000  -0.1400000   0.2707071  )
         4           Re0 tau(   4) = (   0.1100000   0.1100000   0.4060606  )
         5           Re0 tau(   5) = (  -0.1400000   0.3600000   0.0000000  )
         6           Re0 tau(   6) = (   0.1100000   0.6100000   0.1353535  )
         7           Re0 tau(   7) = (  -0.1400000   0.3600000   0.2707071  )
         8           Re0 tau(   8) = (   0.1100000   0.6100000   0.4060606  )
         9           Re0 tau(   9) = (   0.3600000  -0.1400000   0.0000000  )
        10           Re0 tau(  10) = (   0.6100000   0.1100000   0.1353535  )
        11           Re0 tau(  11) = (   0.3600000  -0.1400000   0.2707071  )
        12           Re0 tau(  12) = (   0.6100000   0.1100000   0.4060606  )
        13           Re0 tau(  13) = (   0.3600000   0.3600000   0.0000000  )
        14           Re0 tau(  14) = (   0.6100000   0.6100000   0.1353535  )
        15           Re0 tau(  15) = (   0.3600000   0.3600000   0.2707071  )
        16           Re0 tau(  16) = (   0.6100000   0.6100000   0.4060606  )
        17           O1  tau(  17) = (   0.0000000   0.0000000   0.0000000  )
        18           O2  tau(  18) = (  -0.2800000  -0.2800000   0.0000000  )
        19           O2  tau(  19) = (   0.2500000  -0.0300000   0.1353535  )
        20           O2  tau(  20) = (  -0.0300000   0.2500000   0.1353535  )
        21           O2  tau(  21) = (   0.0000000   0.0000000   0.2707071  )
        22           O2  tau(  22) = (  -0.2800000  -0.2800000   0.2707071  )
        23           O2  tau(  23) = (   0.2500000  -0.0300000   0.4060606  )
        24           O2  tau(  24) = (  -0.0300000   0.2500000   0.4060606  )
        25           O2  tau(  25) = (   0.0000000   0.5000000   0.0000000  )
        26           O2  tau(  26) = (  -0.2800000   0.2200000   0.0000000  )
        27           O2  tau(  27) = (   0.2500000   0.4700000   0.1353535  )
        28           O2  tau(  28) = (  -0.0300000   0.7500000   0.1353535  )
        29           O2  tau(  29) = (   0.0000000   0.5000000   0.2707071  )
        30           O2  tau(  30) = (  -0.2800000   0.2200000   0.2707071  )
        31           O2  tau(  31) = (   0.2500000   0.4700000   0.4060606  )
        32           O2  tau(  32) = (  -0.0300000   0.7500000   0.4060606  )
        33           O2  tau(  33) = (   0.5000000   0.0000000   0.0000000  )
        34           O2  tau(  34) = (   0.2200000  -0.2800000   0.0000000  )
        35           O2  tau(  35) = (   0.7500000  -0.0300000   0.1353535  )
        36           O2  tau(  36) = (   0.4700000   0.2500000   0.1353535  )
        37           O2  tau(  37) = (   0.5000000   0.0000000   0.2707071  )
        38           O2  tau(  38) = (   0.2200000  -0.2800000   0.2707071  )
        39           O2  tau(  39) = (   0.7500000  -0.0300000   0.4060606  )
        40           O2  tau(  40) = (   0.4700000   0.2500000   0.4060606  )
        41           O2  tau(  41) = (   0.5000000   0.5000000   0.0000000  )
        42           O2  tau(  42) = (   0.2200000   0.2200000   0.0000000  )
        43           O2  tau(  43) = (   0.7500000   0.4700000   0.1353535  )
        44           O2  tau(  44) = (   0.4700000   0.7500000   0.1353535  )
        45           O2  tau(  45) = (   0.5000000   0.5000000   0.2707071  )
        46           O2  tau(  46) = (   0.2200000   0.2200000   0.2707071  )
        47           O2  tau(  47) = (   0.7500000   0.4700000   0.4060606  )
        48           O2  tau(  48) = (   0.4700000   0.7500000   0.4060606  )

     number of k points=    42  Methfessel-Paxton smearing, width (Ry)=  0.0100
                       cart. coord. in units 2pi/alat
        k(    1) = (   0.0000000   0.0000000   0.0000000), wk =   0.0156250
        k(    2) = (   0.0000000   0.0000000   0.4617537), wk =   0.0312500
        k(    3) = (   0.0000000   0.0000000  -0.9235075), wk =   0.0156250
        k(    4) = (   0.0000000   0.2500000   0.0000000), wk =   0.0625000
        k(    5) = (   0.0000000   0.2500000   0.4617537), wk =   0.1250000
        k(    6) = (   0.0000000   0.2500000  -0.9235075), wk =   0.0625000
        k(    7) = (   0.0000000  -0.5000000   0.0000000), wk =   0.0312500
        k(    8) = (   0.0000000  -0.5000000   0.4617537), wk =   0.0625000
        k(    9) = (   0.0000000  -0.5000000  -0.9235075), wk =   0.0312500
        k(   10) = (   0.2500000   0.2500000   0.0000000), wk =   0.0312500
        k(   11) = (   0.2500000   0.2500000   0.4617537), wk =   0.0625000
        k(   12) = (   0.2500000   0.2500000  -0.9235075), wk =   0.0312500
        k(   13) = (   0.2500000  -0.5000000   0.0000000), wk =   0.0625000
        k(   14) = (   0.2500000  -0.5000000   0.4617537), wk =   0.1250000
        k(   15) = (   0.2500000  -0.5000000  -0.9235075), wk =   0.0625000
        k(   16) = (  -0.5000000  -0.5000000   0.0000000), wk =   0.0156250
        k(   17) = (  -0.5000000  -0.5000000   0.4617537), wk =   0.0312500
        k(   18) = (  -0.5000000  -0.5000000  -0.9235075), wk =   0.0156250
        k(   19) = (   0.2500000  -0.2500000   0.0000000), wk =   0.0312500
        k(   20) = (   0.2500000  -0.2500000   0.4617537), wk =   0.0625000
        k(   21) = (   0.2500000  -0.2500000  -0.9235075), wk =   0.0312500
        k(   22) = (   0.0000000   0.0000000   0.0000000), wk =   0.0156250
        k(   23) = (   0.0000000   0.0000000   0.4617537), wk =   0.0312500
        k(   24) = (   0.0000000   0.0000000  -0.9235075), wk =   0.0156250
        k(   25) = (   0.0000000   0.2500000   0.0000000), wk =   0.0625000
        k(   26) = (   0.0000000   0.2500000   0.4617537), wk =   0.1250000
        k(   27) = (   0.0000000   0.2500000  -0.9235075), wk =   0.0625000
        k(   28) = (   0.0000000  -0.5000000   0.0000000), wk =   0.0312500
        k(   29) = (   0.0000000  -0.5000000   0.4617537), wk =   0.0625000
        k(   30) = (   0.0000000  -0.5000000  -0.9235075), wk =   0.0312500
        k(   31) = (   0.2500000   0.2500000   0.0000000), wk =   0.0312500
        k(   32) = (   0.2500000   0.2500000   0.4617537), wk =   0.0625000
        k(   33) = (   0.2500000   0.2500000  -0.9235075), wk =   0.0312500
        k(   34) = (   0.2500000  -0.5000000   0.0000000), wk =   0.0625000
        k(   35) = (   0.2500000  -0.5000000   0.4617537), wk =   0.1250000
[...]
    eigenvectors:
  0.000  1.000  0.000
  0.500  0.000  0.500
  0.500  0.000  0.500
    occupations:
  0.908 -0.000 -0.000
 -0.000  0.907 -0.003
 -0.000 -0.003  0.907
   spin  2
    eigenvalues:
  0.904  0.908  0.911
    eigenvectors:
  0.000  1.000  0.000
  0.500  0.000  0.500
  0.500  0.000  0.500
    occupations:
  0.908 -0.000 -0.000
 -0.000  0.907 -0.003
 -0.000 -0.003  0.907
atomic mag. moment =     0.000000
atom   42   Tr[ns(na)] (up, down, total) =   2.72336  2.72336  5.44672
   spin  1
    eigenvalues:
  0.904  0.908  0.911
    eigenvectors:
  0.000  1.000  0.000
  0.500  0.000  0.500
  0.500  0.000  0.500
    occupations:
  0.908 -0.000 -0.000
 -0.000  0.907 -0.003
 -0.000 -0.003  0.907
   spin  2
    eigenvalues:
  0.904  0.908  0.911
    eigenvectors:
  0.000  1.000  0.000
  0.500  0.000  0.500
  0.500  0.000  0.500
    occupations:
  0.908 -0.000 -0.000
 -0.000  0.907 -0.003
 -0.000 -0.003  0.907
atomic mag. moment =     0.000000
atom   43   Tr[ns(na)] (up, down, total) =   2.72339  2.72339  5.44679
   spin  1
    eigenvalues:
  0.904  0.908  0.911
    eigenvectors:
  0.000  1.000  0.000
  0.500  0.000  0.500
  0.500  0.000  0.500
    occupations:
  0.908 -0.000 -0.000
 -0.000  0.907  0.003
 -0.000  0.003  0.907
   spin  2
    eigenvalues:
  0.904  0.908  0.911
    eigenvectors:
  0.000  1.000  0.000
  0.500  0.000  0.500
  0.500  0.000  0.500
    occupations:
  0.908 -0.000 -0.000
 -0.000  0.907  0.003
 -0.000  0.003  0.907
atomic mag. moment =    -0.000000
atom   44   Tr[ns(na)] (up, down, total) =   2.72339  2.72339  5.44679
   spin  1
    eigenvalues:
  0.904  0.908  0.911
    eigenvectors:
  0.000  1.000  0.000
  0.500  0.000  0.500
  0.500  0.000  0.500
    occupations:
  0.908 -0.000 -0.000
 -0.000  0.907  0.003
 -0.000  0.003  0.907
   spin  2
    eigenvalues:
  0.904  0.908  0.911
    eigenvectors:
  0.000  1.000  0.000
  0.500  0.000  0.500
  0.500  0.000  0.500
    occupations:
  0.908 -0.000 -0.000
 -0.000  0.907  0.003
 -0.000  0.003  0.907
atomic mag. moment =    -0.000000
atom   45   Tr[ns(na)] (up, down, total) =   2.72342  2.72342  5.44684
   spin  1
    eigenvalues:
  0.904  0.908  0.911
    eigenvectors:
  0.000  1.000  0.000
  0.500  0.000  0.500
  0.500  0.000  0.500
    occupations:
  0.908 -0.000 -0.000
 -0.000  0.907 -0.003
 -0.000 -0.003  0.907
   spin  2
    eigenvalues:
  0.904  0.908  0.911
    eigenvectors:
  0.000  1.000  0.000
  0.500  0.000  0.500
  0.500  0.000  0.500
    occupations:
  0.908 -0.000 -0.000
 -0.000  0.907 -0.003
 -0.000 -0.003  0.907
atomic mag. moment =     0.000000
atom   46   Tr[ns(na)] (up, down, total) =   2.72330  2.72330  5.44659
   spin  1
    eigenvalues:
  0.904  0.908  0.911
    eigenvectors:
  0.000  1.000  0.000
  0.500  0.000  0.500
  0.500  0.000  0.500
    occupations:
  0.908 -0.000 -0.000
 -0.000  0.907 -0.003
 -0.000 -0.003  0.907
   spin  2
    eigenvalues:
  0.904  0.908  0.911
    eigenvectors:
  0.000  1.000  0.000
  0.500  0.000  0.500
  0.500  0.000  0.500
    occupations:
  0.908 -0.000 -0.000
 -0.000  0.907 -0.003
 -0.000 -0.003  0.907
atomic mag. moment =     0.000000
atom   47   Tr[ns(na)] (up, down, total) =   2.72339  2.72339  5.44679
   spin  1
    eigenvalues:
  0.904  0.908  0.911
    eigenvectors:
  0.000  1.000  0.000
  0.500  0.000  0.500
  0.500  0.000  0.500
    occupations:
  0.908  0.000  0.000
  0.000  0.907  0.003
  0.000  0.003  0.907
   spin  2
    eigenvalues:
  0.904  0.908  0.911
    eigenvectors:
  0.000  1.000  0.000
  0.500  0.000  0.500
  0.500  0.000  0.500
    occupations:
  0.908  0.000  0.000
  0.000  0.907  0.003
  0.000  0.003  0.907
atomic mag. moment =    -0.000000
atom   48   Tr[ns(na)] (up, down, total) =   2.72339  2.72339  5.44679
   spin  1
    eigenvalues:
  0.904  0.908  0.911
    eigenvectors:
  0.000  1.000  0.000
  0.500  0.000  0.500
  0.500  0.000  0.500
    occupations:
  0.908  0.000  0.000
  0.000  0.907  0.003
  0.000  0.003  0.907
   spin  2
    eigenvalues:
  0.904  0.908  0.911
    eigenvectors:
  0.000  1.000  0.000
  0.500  0.000  0.500
  0.500  0.000  0.500
    occupations:
  0.908  0.000  0.000
  0.000  0.907  0.003
  0.000  0.003  0.907
atomic mag. moment =    -0.000000
N of occupied +U levels = 278.5180102
 --- exit write_ns ---

 ------ SPIN UP ------------

          k = 0.0000 0.0000 0.0000 ( 15161 PWs)   bands (ev):

   -67.0591 -67.0585 -67.0584 -67.0584 -67.0583 -67.0579 -67.0576 -67.0562
   -67.0032 -67.0032 -67.0031 -67.0031 -67.0030 -67.0030 -67.0021 -67.0016
   -29.2643 -29.2642 -29.2641 -29.2639 -29.2628 -29.2627 -29.2624 -29.2618
   -29.0396 -29.0396 -29.0348 -29.0348 -29.0102 -29.0101 -29.0099 -29.0097
   -28.9792 -28.9791 -28.9787 -28.9787 -28.9535 -28.9533 -28.9493 -28.9491
   -28.8924 -28.8923 -28.8919 -28.8919 -28.8910 -28.8909 -28.8904 -28.8903
   -28.8687 -28.8686 -28.8683 -28.8682 -28.8681 -28.8680 -28.8676 -28.8667
   -28.3965 -28.3900 -28.3899 -28.3899 -28.3898 -28.3894 -28.3892 -28.3826
    -6.7976  -6.2258  -6.2239  -6.0016  -5.9977  -5.9975  -5.9970  -5.7339
    -5.7086  -5.7052  -5.7052  -5.7052  -5.3277  -5.3230  -5.3227  -5.3225
    -5.3177  -5.3168  -5.2694  -5.2679  -5.0959  -5.0941  -5.0335  -5.0317
    -5.0195  -5.0179  -4.9381  -4.9365  -4.5618  -4.5583  -4.5583  -4.5583
     4.5633   4.8139   4.8166   5.0723   5.5191   5.5191   5.5196   5.5231
     5.7543   5.7544   5.7549   5.7591   6.0509   6.0510   6.0514   6.0553
     6.1434   6.3219   6.3239   6.3523   6.3543   6.5914   6.5925   7.0128
     7.0129   7.0130   7.0170   7.1517   7.1534   7.2483   7.2501   7.2855
     7.2862   7.2871   7.2894   7.3357   7.3371   7.7512   7.7517   7.7518
     7.7563   8.2115   8.2118   8.2126   8.2164   8.5501   8.5522   8.6688
     8.6704   8.6770   8.6779   8.7051   8.7068   8.8859   8.8859   8.8860
     8.8892   8.9486   8.9489   9.2061   9.2062   9.2066   9.2092   9.2640
     9.2664   9.4232   9.4236   9.4241   9.4266   9.8391   9.8402   9.9671
     9.9690  10.1954  10.1962  10.5218  10.5218  10.5218  10.5252  10.6471
    10.6473  10.6474  10.6512  10.6783  10.8178  10.8346  10.8358  10.8851
    10.8852  10.9026  10.9029  10.9237  10.9240  10.9243  10.9277  11.0131
    11.0617  11.0636  11.4132  11.6929  11.8500  11.8500  11.8501  11.8504
    12.4051  12.4051  12.4052  12.4052  13.2026  13.7893  13.7896  14.3732
    14.3734  14.4606  14.4608  14.7589  14.7591  14.7752  14.7753  14.8092
    14.8094  15.3811  15.3811  15.3812  15.3818  15.3850  15.3850  15.3850
    15.3856  15.7289  15.7290  15.7290  15.7290  15.9412  15.9416  16.9084
    17.0559  17.0565  17.0565  17.0566  17.2015  17.3997  17.3998  17.4213
    17.4214  17.8064  17.8065  17.8065  17.8066  18.0415  18.0421  18.1585
    18.1586  18.1587  18.1588  18.3599  18.6861  18.6862  18.7554  18.7557
    18.7559  18.7561  18.8791  18.8791  18.8961  18.8962  19.2239  19.2239
    19.3173  19.3174  19.6222  19.6224  21.3606  21.3616  21.3622  21.3624
    21.4503  21.4503  21.4503  21.4504  21.5525  22.8847  22.8849  22.9229
    22.9230  23.0928  23.0932  23.4543  23.4543  23.4550  23.4550  23.5186
    23.5191  23.7565  23.7565  24.4044  24.4046  24.6294  24.6295  24.6297
    24.6302  25.3389  25.6734  25.6736  25.7373  25.9304  25.9304  25.9306
    25.9309  25.9616  25.9620  25.9628  25.9628  26.2454  26.3706  26.3706
    26.3711  26.3711  26.6417  26.6420  27.4464  27.4467  27.6434  27.6434
    28.0538  28.0540  28.2759  28.2761  28.2762  28.2763  28.4122  28.4123
    28.5704  28.5706  28.6710  28.6714  28.6715  28.6717  29.0144  29.0149
    29.0153  29.0153  29.4637  29.4640  29.6221  29.6226  29.8155  29.8156
    30.5231  30.6091  30.6091  31.2122  31.2122  31.2131  31.2131  32.2443
    32.2450  32.2451  32.2452  32.7966  32.7970  32.8423  32.8423  32.8427
    32.8428  32.8499  32.8502  32.9897  32.9898  33.1955  33.1956  33.8236
    34.0026  34.0029  34.1071  34.1071  34.2539  34.2539  34.8700  34.8704
    34.8705  34.8708  34.9498  35.0857  35.0857  35.0860  35.0862  35.3182
    35.3185  35.9363  35.9369  35.9381  35.9381  36.0655  36.0657  36.0989
    36.0992  36.1433  36.4276  36.4277  36.4280  36.4282  36.4998  36.5001
    36.7614  36.7617  37.3580  37.3584  37.3586  37.3589  37.4409  37.4414
    37.5129  37.5132  37.5292  37.9760  37.9761  37.9822  38.4419  38.4423
    38.5560  38.5568  38.5569  38.5570  38.7380  38.7384  38.7385  38.7386
    38.7691  38.7694  39.4201  39.4201  39.4201  39.4204  39.7548  39.7552
    39.9090  39.9091  40.1541  40.1543  40.1545  40.1548  40.5727  40.9994
    41.0000  41.1658  41.1661  41.1881  41.1883  42.1102  42.1111  42.1111
    42.1113  42.6571  42.6575  42.7747  42.7747  42.7748  42.7751  43.3277
    43.3277  43.3284  43.3285  43.3452  43.3457  43.3463  43.3463  43.5750
    43.8315  43.8321  43.8989  43.8992  44.0121  44.0121  44.2916  44.2923
    44.2925  44.2926  44.3321  44.4837  44.4838  44.7057  44.7057  44.9412
[...]
    47.6044  47.6048  47.6464  47.6466  48.0314  48.0321  48.2169  48.2179
    48.2179  48.2179  48.3675  48.3679  48.3720  48.3730  48.3734  48.3734
    48.9294  48.9304  48.9304  48.9305  49.0715  49.0720  49.2805  49.2810
    49.3903  49.3907  49.4764  49.4768  49.7697  49.7701  50.0860  50.0862
    50.1824  50.1827  50.1833  50.1834  50.7628  50.7629  50.7631  50.7634
    50.8810  50.8812  50.8813  50.8814  51.0950  51.0953  51.2646  51.2648
    51.4493  51.4495  51.4515  51.5410  51.5413  51.5415  51.5415  51.7698
    51.9085  52.1512  52.1513  52.1514  52.1517  52.3195  52.3197  52.3761
    52.3765  52.4635  52.4642  52.4643  52.4643  52.7843  52.8441  52.8448
    52.8450  52.8450  53.2684  53.3564  53.3567  53.4335  53.4342  53.4350
    53.4350  53.6459  53.6463  54.4444  54.4448  54.4584  54.4584  54.4589
    54.4589  54.4608  54.4611  54.7756  54.7757  54.7760  54.7760  54.8586
    54.8587  54.9473  54.9475  54.9476  54.9478  55.2183  55.2184  55.6173
    55.6173  55.6538  55.8061  55.8062  55.8523  55.8525  55.8583  55.8585
    55.8586  55.8587  56.1376  56.1379  56.2197  56.2200  56.2745  56.2749

[...]

          k =-0.5000-0.5000 0.0000 ( 15164 PWs)   bands (ev):

[...]

 ------ SPIN DOWN ----------

[...]

          k =-0.5000-0.5000-0.9235 ( 15168 PWs)   bands (ev):

[...]

          k = 0.2500-0.2500-0.9235 ( 15156 PWs)   bands (ev):

   -67.0317 -67.0312 -67.0311 -67.0310 -67.0309 -67.0308 -67.0307 -67.0307
   -67.0307 -67.0306 -67.0305 -67.0303 -67.0301 -67.0298 -67.0292 -67.0283
   -28.9675 -28.9673 -28.9649 -28.9646 -28.9603 -28.9602 -28.9586 -28.9584
   -28.9584 -28.9583 -28.9567 -28.9567 -28.9410 -28.9410 -28.9406 -28.9404
   -28.9377 -28.9376 -28.9374 -28.9374 -28.9202 -28.9201 -28.9185 -28.9184
   -28.9183 -28.9183 -28.9170 -28.9169 -28.9100 -28.9099 -28.9080 -28.9077
   -28.8415 -28.8413 -28.8382 -28.8381 -28.8378 -28.8376 -28.8375 -28.8374
   -28.8368 -28.8367 -28.8345 -28.8343 -28.8343 -28.8341 -28.8338 -28.8334
    -6.0372  -6.0350  -5.8253  -5.8220  -5.8219  -5.8218  -5.7216  -5.7185
    -5.5958  -5.5953  -5.5347  -5.5298  -5.5295  -5.5294  -5.3479  -5.3463
    -5.1502  -5.1463  -5.1460  -5.1439  -5.1340  -5.1299  -5.1298  -5.1294
    -5.1228  -5.1217  -5.1215  -5.1214  -5.1049  -5.1046  -5.1007  -5.0980
     5.8095   5.8096   5.8105   5.8126   5.8241   5.8264   5.8334   5.8360
     5.9562   5.9587   5.9809   5.9810   5.9813   5.9848   6.0110   6.0136
     6.7595   6.7601   6.8036   6.8040   7.0384   7.0385   7.0401   7.0402
     7.0404   7.0433   7.1911   7.1913   7.2995   7.2997   7.3015   7.3028
     7.3061   7.3093   7.6124   7.6125   7.6155   7.6175   7.9098   7.9101
     7.9242   7.9245   7.9248   7.9270   7.9421   7.9425   8.1864   8.1865
     8.1871   8.1881   8.4520   8.4550   8.4618   8.4644   8.4851   8.4892
     9.0386   9.0386   9.0415   9.0422   9.1565   9.1571   9.2210   9.2221
     9.3106   9.3107   9.3113   9.3123   9.3144   9.3150   9.3397   9.3397
     9.4350   9.4350   9.6377   9.6381   9.6395   9.6396   9.9600   9.9607
    10.1719  10.1749  10.4381  10.4406  10.5098  10.5099  10.5102  10.5114
    10.7912  10.7912  11.0710  11.0715  11.0715  11.0748  11.4060  11.4076
    13.2228  13.2229  13.2595  13.2595  13.2596  13.2598  13.4170  13.4176
    13.4780  13.4786  13.5745  13.5746  13.5760  13.5762  13.5762  13.5762
    13.6656  13.6656  13.8698  13.8701  14.0140  14.0141  14.0141  14.0142
    14.3534  14.3536  14.4525  14.4527  14.6934  14.6936  14.7014  14.7015
    14.7016  14.7018  15.2227  15.2229  15.2620  15.2621  15.2621  15.2625
    15.5124  15.5127  15.8434  15.8435  15.8436  15.8439  16.3621  16.3622
    17.1405  17.1415  17.1416  17.1420  17.7846  17.7847  17.8969  17.8970
    17.9284  17.9285  17.9285  17.9286  18.5394  18.5396  18.7573  18.7576
    18.8109  18.8112  19.0749  19.0753  19.4330  19.4331  19.4333  19.4334
    19.7386  19.7386  20.4341  20.4343  20.4346  20.4347  20.9325  20.9327
    21.2237  21.2241  22.3339  22.3346  22.3350  22.3355  22.8993  22.8999
    23.7028  23.7038  23.7044  23.7047  23.8180  23.8188  23.9123  23.9133
    24.4669  24.4675  25.0581  25.0590  25.1927  25.1936  25.1937  25.1943
    25.3362  25.3369  25.3922  25.3926  25.3932  25.3933  25.7333  25.7339
    26.8586  26.8591  27.4328  27.4333  27.4334  27.4338  27.6141  27.6145
    28.4010  28.4012  28.4014  28.4019  28.4395  28.4397  28.5917  28.5918
    28.8635  28.8637  28.8651  28.8652  28.9047  28.9049  28.9412  28.9417
    28.9664  28.9665  28.9670  28.9672  29.1982  29.1983  29.4348  29.4354
    29.6406  29.6410  29.6412  29.6417  29.8409  29.8414  29.9314  29.9317
    30.5035  30.5037  30.7816  30.7817  30.7818  30.7819  30.8956  30.8956
    30.9041  30.9042  30.9997  30.9999  31.9314  31.9315  31.9317  31.9320
    32.2814  32.2822  32.4620  32.4622  32.4626  32.4627  33.5187  33.5189
    33.5193  33.5193  33.6012  33.6017  33.6914  33.6917  34.3472  34.3474
    34.6691  34.6699  35.0408  35.0410  35.2618  35.2623  35.2624  35.2624
    36.0157  36.0163  36.4385  36.4386  36.4386  36.4387  36.4545  36.4545
    36.4874  36.4880  36.4887  36.4887  36.9508  36.9511  37.0031  37.0034
    37.0037  37.0037  37.4161  37.4167  37.5409  37.5411  37.6907  37.6909
    38.0667  38.0670  38.0676  38.0678  38.3120  38.3122  38.3355  38.3360
    38.7242  38.7246  38.8513  38.8514  39.0148  39.0158  39.2039  39.2043
    39.2046  39.2048  39.3466  39.3470  39.3544  39.3545  39.3546  39.3549
    39.7238  39.7242  39.8370  39.8373  40.1311  40.1317  40.2658  40.2658
    40.2659  40.2662  41.0236  41.0237  41.0239  41.0242  41.4219  41.4226
    41.5623  41.5631  41.9596  41.9599  41.9600  41.9603  42.0141  42.0142
    42.5350  42.5353  43.1423  43.1424  43.1432  43.1434  43.2988  43.2990
    43.4068  43.4077  43.4078  43.4081  43.4471  43.4472  43.5337  43.5338
    43.8371  43.8373  43.9982  43.9986  43.9987  43.9989  44.0749  44.0751
[...]
    48.2089  48.2095  48.2982  48.2987  48.4106  48.4113  48.4114  48.4116
    48.6448  48.6449  48.8333  48.8335  48.9442  48.9444  48.9452  48.9453
    49.0190  49.0194  49.1054  49.1059  49.1773  49.1780  49.1781  49.1782
    49.2073  49.2073  49.2913  49.2915  49.5964  49.5971  49.5976  49.5977
    49.6750  49.6751  49.7891  49.7893  49.7896  49.7897  49.9177  49.9178
    50.0926  50.0938  50.4777  50.4779  50.4781  50.4784  50.8704  50.8707
    50.8830  50.8833  50.8834  50.8837  51.1960  51.1964  51.7391  51.7392
    51.7393  51.7395  51.7426  51.7429  52.0854  52.0857  52.1356  52.1360
    52.1364  52.1366  52.3431  52.3433  52.3610  52.3611  52.3753  52.3755
    52.8628  52.8630  52.9405  52.9408  52.9416  52.9417  53.2444  53.2450
    53.2451  53.2452  53.4181  53.4183  53.6410  53.6411  53.8034  53.8037
    53.8040  53.8041  53.9098  53.9107  54.3199  54.3204  54.5983  54.5985
    54.9995  54.9999  55.0001  55.0002  55.1314  55.1317  55.2314  55.2317
    55.2318  55.2320  55.4322  55.4323  55.4661  55.4661  55.5071  55.5072
    56.0936  56.0938  56.0938  56.0940  56.2176  56.2178  56.4329  56.4330

     the Fermi energy is    14.7612 ev

!    total energy              =   -4148.30057158 Ry
     Harris-Foulkes estimate   =   -4148.30057229 Ry
     estimated scf accuracy    <       0.00000076 Ry

     The total energy is the sum of the following terms:

     one-electron contribution =   -1009.78446414 Ry
     hartree contribution      =     745.82774987 Ry
     xc contribution           =   -1140.44935651 Ry
     ewald contribution        =   -2743.92224506 Ry
     Hubbard energy            =       0.02800443 Ry
     smearing contrib. (-TS)   =      -0.00026017 Ry

     total magnetization       =     0.00 Bohr mag/cell
     absolute magnetization    =     0.00 Bohr mag/cell

     convergence has been achieved in   8 iterations

     Writing output data file pwscf.save

     General routines

     Parallel routines
     Hubbard U routines

   This run was terminated on:   1:21:58  15Feb2014

   JOB DONE.