     Program PWSCF v.5.0.2 (svn rev. 9656) starts on 14Feb2014 at  8:14:12

     Current dimensions of program PWSCF are:
     Max number of different atomic species (ntypx) = 10
     Max number of k-points (npk) =  40000
     Max angular momentum in pseudopotentials (lmaxx) =  3
     Reading input from alpha_-0.15/alpha_-0.15.in
Warning: card &IONS ignored
Warning: card / ignored
Warning: card &CELL ignored
Warning: card / ignored

     Subspace diagonalization in iterative solution of the eigenvalue problem:
     a serial algorithm will be used

     bravais-lattice index     =            0
     lattice parameter (alat)  =      18.7083  a.u.
     unit-cell volume          =    3545.1269 (a.u.)^3
     number of atoms/cell      =           48
     number of atomic types    =            3
     number of electrons       =       432.00
     number of Kohn-Sham states=          648
     kinetic-energy cutoff     =      40.0000  Ry
     charge density cutoff     =     500.0000  Ry
     convergence threshold     =      1.0E-06
     mixing beta               =       0.7000
     number of iterations used =            8  plain     mixing
     Exchange-correlation      = SLA  PW   PBE  PBE ( 1 4 3 4 0)
     EXX-fraction              =        0.00

     celldm(1)=  18.708289  celldm(2)=   0.000000  celldm(3)=   0.000000
     celldm(4)=   0.000000  celldm(5)=   0.000000  celldm(6)=   0.000000

     crystal axes: (cart. coord. in units of alat)
               a(1) = (   1.000000   0.000000   0.000000 )
               a(2) = (   0.000000   1.000000   0.000000 )
               a(3) = (   0.000000   0.000000   0.541414 )

     reciprocal axes: (cart. coord. in units 2 pi/alat)
               b(1) = (  1.000000  0.000000  0.000000 )
               b(2) = (  0.000000  1.000000  0.000000 )
               b(3) = (  0.000000  0.000000  1.847015 )

     PseudoPot. # 1 for Re read from file:
     /home/camp/zhonxu/pseudo/re_pbe_v1.uspp.F.UPF
     MD5 check sum: 6f5a5dcaf9c96c20d0ffdde0de57afc6
     Pseudo is Ultrasoft + core correction, Zval = 15.0
     Generated by new atomic code, or converted to UPF format
     Using radial grid of  981 points,  8 beta functions with:
                l(1) =   0
                l(2) =   0
                l(3) =   1
                l(4) =   1
                l(5) =   2
                l(6) =   2
                l(7) =   3
                l(8) =   3
     Q(r) pseudized with  8 coefficients,  rinner =    1.000   1.000   1.000
                                                       1.000   1.000   1.000
                                                       1.000

     PseudoPot. # 2 for O  read from file:
     /home/camp/zhonxu/pseudo/o_pbe_v1.01.uspp.F.UPF
     MD5 check sum: 2bcb18d16ea4b960afae9ec6d52f22d2
     Pseudo is Ultrasoft + core correction, Zval =  6.0
     Generated by new atomic code, or converted to UPF format
     Using radial grid of  737 points,  5 beta functions with:
                l(1) =   0
                l(2) =   0
                l(3) =   1
                l(4) =   1
                l(5) =   2
     Q(r) pseudized with  8 coefficients,  rinner =    0.900   0.900   0.900
                                                       0.900   0.900

     PseudoPot. # 3 for O  read from file:
     /home/camp/zhonxu/pseudo/o_pbe_v1.01.uspp.F.UPF
     MD5 check sum: 2bcb18d16ea4b960afae9ec6d52f22d2
     Pseudo is Ultrasoft + core correction, Zval =  6.0
     Generated by new atomic code, or converted to UPF format
     Using radial grid of  737 points,  5 beta functions with:
                l(1) =   0
                l(2) =   0
                l(3) =   1
                l(4) =   1
                l(5) =   2
     Q(r) pseudized with  8 coefficients,  rinner =    0.900   0.900   0.900
                                                       0.900   0.900

     atomic species   valence    mass     pseudopotential
        Re0           15.00   186.20700     Re( 1.00)
        O1             6.00    15.99940     O ( 1.00)
        O2             6.00    15.99940     O ( 1.00)

     Starting magnetic structure
     atomic species   magnetization
        Re0          0.000
        O1           0.000
        O2           0.000

     Simplified LDA+U calculation (l_max = 2) with parameters (eV):
     atomic species    L          U    alpha       J0     beta
        Re0            2     0.0000   0.0000   0.0000   0.0000
        O1             1     0.0000  -0.1500   0.0000   0.0000
        O2             1     0.0000   0.0000   0.0000   0.0000

      4 Sym. Ops. (no inversion) found

   Cartesian axes

     site n.     atom                  positions (alat units)
         1           Re0 tau(   1) = (  -0.1400000  -0.1400000   0.0000000  )
         2           Re0 tau(   2) = (   0.1100000   0.1100000   0.1353535  )
         3           Re0 tau(   3) = (  -0.1400000  -0.1400000   0.2707071  )
         4           Re0 tau(   4) = (   0.1100000   0.1100000   0.4060606  )
         5           Re0 tau(   5) = (  -0.1400000   0.3600000   0.0000000  )
         6           Re0 tau(   6) = (   0.1100000   0.6100000   0.1353535  )
         7           Re0 tau(   7) = (  -0.1400000   0.3600000   0.2707071  )
         8           Re0 tau(   8) = (   0.1100000   0.6100000   0.4060606  )
         9           Re0 tau(   9) = (   0.3600000  -0.1400000   0.0000000  )
        10           Re0 tau(  10) = (   0.6100000   0.1100000   0.1353535  )
        11           Re0 tau(  11) = (   0.3600000  -0.1400000   0.2707071  )
        12           Re0 tau(  12) = (   0.6100000   0.1100000   0.4060606  )
        13           Re0 tau(  13) = (   0.3600000   0.3600000   0.0000000  )
        14           Re0 tau(  14) = (   0.6100000   0.6100000   0.1353535  )
        15           Re0 tau(  15) = (   0.3600000   0.3600000   0.2707071  )
        16           Re0 tau(  16) = (   0.6100000   0.6100000   0.4060606  )
        17           O1  tau(  17) = (   0.0000000   0.0000000   0.0000000  )
        18           O2  tau(  18) = (  -0.2800000  -0.2800000   0.0000000  )
        19           O2  tau(  19) = (   0.2500000  -0.0300000   0.1353535  )
        20           O2  tau(  20) = (  -0.0300000   0.2500000   0.1353535  )
        21           O2  tau(  21) = (   0.0000000   0.0000000   0.2707071  )
        22           O2  tau(  22) = (  -0.2800000  -0.2800000   0.2707071  )
        23           O2  tau(  23) = (   0.2500000  -0.0300000   0.4060606  )
        24           O2  tau(  24) = (  -0.0300000   0.2500000   0.4060606  )
        25           O2  tau(  25) = (   0.0000000   0.5000000   0.0000000  )
        26           O2  tau(  26) = (  -0.2800000   0.2200000   0.0000000  )
        27           O2  tau(  27) = (   0.2500000   0.4700000   0.1353535  )
        28           O2  tau(  28) = (  -0.0300000   0.7500000   0.1353535  )
        29           O2  tau(  29) = (   0.0000000   0.5000000   0.2707071  )
        30           O2  tau(  30) = (  -0.2800000   0.2200000   0.2707071  )
        31           O2  tau(  31) = (   0.2500000   0.4700000   0.4060606  )
        32           O2  tau(  32) = (  -0.0300000   0.7500000   0.4060606  )
        33           O2  tau(  33) = (   0.5000000   0.0000000   0.0000000  )
        34           O2  tau(  34) = (   0.2200000  -0.2800000   0.0000000  )
        35           O2  tau(  35) = (   0.7500000  -0.0300000   0.1353535  )
        36           O2  tau(  36) = (   0.4700000   0.2500000   0.1353535  )
        37           O2  tau(  37) = (   0.5000000   0.0000000   0.2707071  )
        38           O2  tau(  38) = (   0.2200000  -0.2800000   0.2707071  )
        39           O2  tau(  39) = (   0.7500000  -0.0300000   0.4060606  )
        40           O2  tau(  40) = (   0.4700000   0.2500000   0.4060606  )
        41           O2  tau(  41) = (   0.5000000   0.5000000   0.0000000  )
        42           O2  tau(  42) = (   0.2200000   0.2200000   0.0000000  )
        43           O2  tau(  43) = (   0.7500000   0.4700000   0.1353535  )
        44           O2  tau(  44) = (   0.4700000   0.7500000   0.1353535  )
        45           O2  tau(  45) = (   0.5000000   0.5000000   0.2707071  )
        46           O2  tau(  46) = (   0.2200000   0.2200000   0.2707071  )
        47           O2  tau(  47) = (   0.7500000   0.4700000   0.4060606  )
        48           O2  tau(  48) = (   0.4700000   0.7500000   0.4060606  )

     number of k points=    42  Methfessel-Paxton smearing, width (Ry)=  0.0100
                       cart. coord. in units 2pi/alat
        k(    1) = (   0.0000000   0.0000000   0.0000000), wk =   0.0156250
        k(    2) = (   0.0000000   0.0000000   0.4617537), wk =   0.0312500
        k(    3) = (   0.0000000   0.0000000  -0.9235075), wk =   0.0156250
        k(    4) = (   0.0000000   0.2500000   0.0000000), wk =   0.0625000
        k(    5) = (   0.0000000   0.2500000   0.4617537), wk =   0.1250000
        k(    6) = (   0.0000000   0.2500000  -0.9235075), wk =   0.0625000
        k(    7) = (   0.0000000  -0.5000000   0.0000000), wk =   0.0312500
        k(    8) = (   0.0000000  -0.5000000   0.4617537), wk =   0.0625000
        k(    9) = (   0.0000000  -0.5000000  -0.9235075), wk =   0.0312500
        k(   10) = (   0.2500000   0.2500000   0.0000000), wk =   0.0312500
        k(   11) = (   0.2500000   0.2500000   0.4617537), wk =   0.0625000
        k(   12) = (   0.2500000   0.2500000  -0.9235075), wk =   0.0312500
        k(   13) = (   0.2500000  -0.5000000   0.0000000), wk =   0.0625000
        k(   14) = (   0.2500000  -0.5000000   0.4617537), wk =   0.1250000
        k(   15) = (   0.2500000  -0.5000000  -0.9235075), wk =   0.0625000
        k(   16) = (  -0.5000000  -0.5000000   0.0000000), wk =   0.0156250
        k(   17) = (  -0.5000000  -0.5000000   0.4617537), wk =   0.0312500
        k(   18) = (  -0.5000000  -0.5000000  -0.9235075), wk =   0.0156250
        k(   19) = (   0.2500000  -0.2500000   0.0000000), wk =   0.0312500
        k(   20) = (   0.2500000  -0.2500000   0.4617537), wk =   0.0625000
        k(   21) = (   0.2500000  -0.2500000  -0.9235075), wk =   0.0312500
        k(   22) = (   0.0000000   0.0000000   0.0000000), wk =   0.0156250
        k(   23) = (   0.0000000   0.0000000   0.4617537), wk =   0.0312500
        k(   24) = (   0.0000000   0.0000000  -0.9235075), wk =   0.0156250
        k(   25) = (   0.0000000   0.2500000   0.0000000), wk =   0.0625000
        k(   26) = (   0.0000000   0.2500000   0.4617537), wk =   0.1250000
        k(   27) = (   0.0000000   0.2500000  -0.9235075), wk =   0.0625000
        k(   28) = (   0.0000000  -0.5000000   0.0000000), wk =   0.0312500
        k(   29) = (   0.0000000  -0.5000000   0.4617537), wk =   0.0625000
        k(   30) = (   0.0000000  -0.5000000  -0.9235075), wk =   0.0312500
        k(   31) = (   0.2500000   0.2500000   0.0000000), wk =   0.0312500
        k(   32) = (   0.2500000   0.2500000   0.4617537), wk =   0.0625000
        k(   33) = (   0.2500000   0.2500000  -0.9235075), wk =   0.0312500
        k(   34) = (   0.2500000  -0.5000000   0.0000000), wk =   0.0625000
        k(   35) = (   0.2500000  -0.5000000   0.4617537), wk =   0.1250000
[...]
    eigenvectors:
  0.000  1.000  0.000
  0.500  0.000  0.500
  0.500  0.000  0.500
    occupations:
  0.908 -0.000 -0.000
 -0.000  0.907 -0.003
 -0.000 -0.003  0.907
   spin  2
    eigenvalues:
  0.904  0.908  0.911
    eigenvectors:
  0.000  1.000  0.000
  0.500  0.000  0.500
  0.500  0.000  0.500
    occupations:
  0.908 -0.000 -0.000
 -0.000  0.907 -0.003
 -0.000 -0.003  0.907
atomic mag. moment =     0.000000
atom   42   Tr[ns(na)] (up, down, total) =   2.72337  2.72337  5.44675
   spin  1
    eigenvalues:
  0.904  0.908  0.911
    eigenvectors:
  0.000  1.000  0.000
  0.500  0.000  0.500
  0.500  0.000  0.500
    occupations:
  0.908 -0.000 -0.000
 -0.000  0.907 -0.003
 -0.000 -0.003  0.907
   spin  2
    eigenvalues:
  0.904  0.908  0.911
    eigenvectors:
  0.000  1.000  0.000
  0.500  0.000  0.500
  0.500  0.000  0.500
    occupations:
  0.908 -0.000 -0.000
 -0.000  0.907 -0.003
 -0.000 -0.003  0.907
atomic mag. moment =     0.000000
atom   43   Tr[ns(na)] (up, down, total) =   2.72339  2.72339  5.44678
   spin  1
    eigenvalues:
  0.904  0.908  0.911
    eigenvectors:
  0.000  1.000  0.000
  0.500  0.000  0.500
  0.500  0.000  0.500
    occupations:
  0.908  0.000  0.000
  0.000  0.907  0.003
  0.000  0.003  0.907
   spin  2
    eigenvalues:
  0.904  0.908  0.911
    eigenvectors:
  0.000  1.000  0.000
  0.500  0.000  0.500
  0.500  0.000  0.500
    occupations:
  0.908  0.000  0.000
  0.000  0.907  0.003
  0.000  0.003  0.907
atomic mag. moment =    -0.000000
atom   44   Tr[ns(na)] (up, down, total) =   2.72339  2.72339  5.44678
   spin  1
    eigenvalues:
  0.904  0.908  0.911
    eigenvectors:
  0.000  1.000  0.000
  0.500  0.000  0.500
  0.500  0.000  0.500
    occupations:
  0.908  0.000  0.000
  0.000  0.907  0.003
  0.000  0.003  0.907
   spin  2
    eigenvalues:
  0.904  0.908  0.911
    eigenvectors:
  0.000  1.000  0.000
  0.500  0.000  0.500
  0.500  0.000  0.500
    occupations:
  0.908  0.000  0.000
  0.000  0.907  0.003
  0.000  0.003  0.907
atomic mag. moment =    -0.000000
atom   45   Tr[ns(na)] (up, down, total) =   2.72344  2.72344  5.44687
   spin  1
    eigenvalues:
  0.904  0.908  0.911
    eigenvectors:
  0.000  1.000  0.000
  0.500  0.000  0.500
  0.500  0.000  0.500
    occupations:
  0.908 -0.000 -0.000
 -0.000  0.907 -0.003
 -0.000 -0.003  0.907
   spin  2
    eigenvalues:
  0.904  0.908  0.911
    eigenvectors:
  0.000  1.000  0.000
  0.500  0.000  0.500
  0.500  0.000  0.500
    occupations:
  0.908 -0.000 -0.000
 -0.000  0.907 -0.003
 -0.000 -0.003  0.907
atomic mag. moment =     0.000000
atom   46   Tr[ns(na)] (up, down, total) =   2.72343  2.72343  5.44686
   spin  1
    eigenvalues:
  0.904  0.908  0.911
    eigenvectors:
  0.000  1.000  0.000
  0.500  0.000  0.500
  0.500  0.000  0.500
    occupations:
  0.908 -0.000 -0.000
 -0.000  0.907 -0.003
 -0.000 -0.003  0.907
   spin  2
    eigenvalues:
  0.904  0.908  0.911
    eigenvectors:
  0.000  1.000  0.000
  0.500  0.000  0.500
  0.500  0.000  0.500
    occupations:
  0.908 -0.000 -0.000
 -0.000  0.907 -0.003
 -0.000 -0.003  0.907
atomic mag. moment =     0.000000
atom   47   Tr[ns(na)] (up, down, total) =   2.72339  2.72339  5.44678
   spin  1
    eigenvalues:
  0.904  0.908  0.911
    eigenvectors:
  0.000  1.000  0.000
  0.500  0.000  0.500
  0.500  0.000  0.500
    occupations:
  0.908 -0.000 -0.000
 -0.000  0.907  0.003
 -0.000  0.003  0.907
   spin  2
    eigenvalues:
  0.904  0.908  0.911
    eigenvectors:
  0.000  1.000  0.000
  0.500  0.000  0.500
  0.500  0.000  0.500
    occupations:
  0.908 -0.000 -0.000
 -0.000  0.907  0.003
 -0.000  0.003  0.907
atomic mag. moment =    -0.000000
atom   48   Tr[ns(na)] (up, down, total) =   2.72339  2.72339  5.44678
   spin  1
    eigenvalues:
  0.904  0.908  0.911
    eigenvectors:
  0.000  1.000  0.000
  0.500  0.000  0.500
  0.500  0.000  0.500
    occupations:
  0.908 -0.000 -0.000
 -0.000  0.907  0.003
 -0.000  0.003  0.907
   spin  2
    eigenvalues:
  0.904  0.908  0.911
    eigenvectors:
  0.000  1.000  0.000
  0.500  0.000  0.500
  0.500  0.000  0.500
    occupations:
  0.908 -0.000 -0.000
 -0.000  0.907  0.003
 -0.000  0.003  0.907
atomic mag. moment =    -0.000000
N of occupied +U levels = 278.5172773
 --- exit write_ns ---

 ------ SPIN UP ------------

          k = 0.0000 0.0000 0.0000 ( 15161 PWs)   bands (ev):

   -67.0640 -67.0622 -67.0608 -67.0604 -67.0603 -67.0602 -67.0601 -67.0596
   -67.0076 -67.0070 -67.0052 -67.0052 -67.0050 -67.0050 -67.0049 -67.0047
   -29.2678 -29.2670 -29.2663 -29.2661 -29.2650 -29.2650 -29.2648 -29.2646
   -29.0421 -29.0419 -29.0371 -29.0370 -29.0129 -29.0127 -29.0122 -29.0120
   -28.9822 -28.9817 -28.9812 -28.9810 -28.9565 -28.9559 -28.9520 -28.9517
   -28.8957 -28.8950 -28.8943 -28.8941 -28.8933 -28.8930 -28.8929 -28.8928
   -28.8730 -28.8715 -28.8705 -28.8704 -28.8701 -28.8700 -28.8699 -28.8699
   -28.3989 -28.3928 -28.3926 -28.3919 -28.3917 -28.3917 -28.3916 -28.3849
    -6.7965  -6.2258  -6.2222  -6.0003  -5.9996  -5.9992  -5.9919  -5.7330
    -5.7069  -5.7068  -5.7067  -5.6991  -5.3246  -5.3246  -5.3244  -5.3212
    -5.3182  -5.3110  -5.2693  -5.2649  -5.0958  -5.0920  -5.0331  -5.0301
    -5.0198  -5.0143  -4.9380  -4.9334  -4.5600  -4.5600  -4.5597  -4.5512
     4.5560   4.8065   4.8124   5.0680   5.5086   5.5163   5.5172   5.5174
     5.7421   5.7515   5.7525   5.7527   6.0400   6.0484   6.0492   6.0493
     6.1363   6.3137   6.3193   6.3452   6.3482   6.5846   6.5868   7.0018
     7.0107   7.0111   7.0114   7.1455   7.1491   7.2421   7.2467   7.2781
     7.2839   7.2843   7.2844   7.3301   7.3322   7.7389   7.7494   7.7498
     7.7502   8.1993   8.2078   8.2094   8.2100   8.5442   8.5489   8.6636
     8.6673   8.6707   8.6725   8.7005   8.7035   8.8781   8.8842   8.8842
     8.8845   8.9427   8.9431   9.1978   9.2038   9.2046   9.2048   9.2583
     9.2628   9.4148   9.4199   9.4208   9.4218   9.8330   9.8358   9.9618
     9.9658  10.1903  10.1918  10.5133  10.5201  10.5202  10.5205  10.6370
    10.6453  10.6455  10.6458  10.6738  10.8160  10.8294  10.8320  10.8833
    10.8836  10.8973  10.8988  10.9161  10.9221  10.9224  10.9225  11.0115
    11.0566  11.0603  11.4092  11.6891  11.8475  11.8479  11.8481  11.8482
    12.4034  12.4036  12.4036  12.4037  13.2009  13.7870  13.7875  14.3712
    14.3717  14.4583  14.4587  14.7568  14.7573  14.7735  14.7736  14.8075
    14.8077  15.3778  15.3795  15.3797  15.3799  15.3826  15.3833  15.3833
    15.3835  15.7269  15.7271  15.7271  15.7273  15.9391  15.9397  16.9071
    17.0545  17.0546  17.0547  17.0561  17.1994  17.3978  17.3978  17.4193
    17.4194  17.8044  17.8045  17.8045  17.8047  18.0397  18.0412  18.1566
    18.1566  18.1567  18.1570  18.3602  18.6845  18.6845  18.7536  18.7540
    18.7544  18.7554  18.8771  18.8772  18.8942  18.8942  19.2221  19.2224
    19.3155  19.3158  19.6204  19.6206  21.3606  21.3612  21.3618  21.3640
    21.4484  21.4484  21.4485  21.4487  21.5509  22.8854  22.8858  22.9223
    22.9224  23.0927  23.0935  23.4536  23.4538  23.4552  23.4555  23.5183
    23.5192  23.7569  23.7569  24.4042  24.4047  24.6289  24.6298  24.6303
    24.6303  25.3388  25.6733  25.6736  25.7374  25.9301  25.9308  25.9312
    25.9313  25.9613  25.9614  25.9632  25.9640  26.2463  26.3706  26.3707
    26.3716  26.3717  26.6415  26.6419  27.4469  27.4474  27.6442  27.6443
    28.0537  28.0541  28.2755  28.2757  28.2761  28.2765  28.4117  28.4120
    28.5705  28.5709  28.6707  28.6711  28.6713  28.6724  29.0145  29.0146
    29.0154  29.0165  29.4635  29.4641  29.6221  29.6233  29.8157  29.8160
    30.5230  30.6092  30.6092  31.2120  31.2121  31.2136  31.2138  32.2441
    32.2443  32.2448  32.2461  32.7963  32.7972  32.8415  32.8416  32.8425
    32.8426  32.8496  32.8501  32.9894  32.9895  33.1950  33.1951  33.8239
    34.0027  34.0033  34.1069  34.1071  34.2537  34.2537  34.8697  34.8703
    34.8705  34.8715  34.9494  35.0853  35.0857  35.0862  35.0862  35.3183
    35.3191  35.9363  35.9364  35.9383  35.9396  36.0651  36.0657  36.0985
    36.0992  36.1435  36.4271  36.4276  36.4282  36.4285  36.4994  36.4999
    36.7612  36.7617  37.3574  37.3580  37.3584  37.3591  37.4409  37.4419
    37.5126  37.5132  37.5296  37.9764  37.9767  37.9822  38.4419  38.4427
    38.5562  38.5564  38.5566  38.5584  38.7375  38.7379  38.7380  38.7389
    38.7689  38.7697  39.4198  39.4204  39.4204  39.4205  39.7548  39.7556
    39.9087  39.9089  40.1538  40.1546  40.1550  40.1554  40.5725  40.9987
    41.0002  41.1659  41.1666  41.1878  41.1884  42.1097  42.1101  42.1101
    42.1124  42.6570  42.6580  42.7741  42.7748  42.7750  42.7752  43.3271
    43.3274  43.3288  43.3289  43.3453  43.3454  43.3463  43.3475  43.5746
    43.8310  43.8322  43.8986  43.8992  44.0121  44.0124  44.2913  44.2916
    44.2921  44.2935  44.3318  44.4838  44.4838  44.7054  44.7054  44.9413
[...]
    47.6044  47.6054  47.6458  47.6462  48.0309  48.0323  48.2169  48.2169
    48.2171  48.2194  48.3670  48.3681  48.3718  48.3719  48.3730  48.3748
    48.9293  48.9295  48.9295  48.9318  49.0711  49.0722  49.2800  49.2810
    49.3902  49.3909  49.4764  49.4772  49.7692  49.7701  50.0860  50.0865
    50.1824  50.1827  50.1836  50.1843  50.7623  50.7629  50.7633  50.7635
    50.8809  50.8812  50.8814  50.8818  51.0950  51.0959  51.2640  51.2645
    51.4489  51.4493  51.4513  51.5404  51.5405  51.5408  51.5415  51.7699
    51.9094  52.1507  52.1513  52.1515  52.1517  52.3195  52.3198  52.3758
    52.3767  52.4637  52.4638  52.4639  52.4654  52.7840  52.8433  52.8434
    52.8440  52.8455  53.2690  53.3561  53.3567  53.4335  53.4337  53.4352
    53.4366  53.6457  53.6465  54.4444  54.4452  54.4580  54.4580  54.4592
    54.4592  54.4605  54.4612  54.7752  54.7754  54.7760  54.7762  54.8580
    54.8583  54.9472  54.9475  54.9477  54.9480  55.2187  55.2191  55.6171
    55.6171  55.6534  55.8058  55.8059  55.8518  55.8521  55.8580  55.8582
    55.8584  55.8588  56.1369  56.1375  56.2192  56.2199  56.2745  56.2753

[...]

          k =-0.5000-0.5000 0.0000 ( 15164 PWs)   bands (ev):

[...]

 ------ SPIN DOWN ----------

[...]

          k =-0.5000-0.5000-0.9235 ( 15168 PWs)   bands (ev):

[...]

          k = 0.2500-0.2500-0.9235 ( 15156 PWs)   bands (ev):

   -67.0377 -67.0355 -67.0349 -67.0333 -67.0332 -67.0331 -67.0330 -67.0329
   -67.0328 -67.0328 -67.0326 -67.0326 -67.0324 -67.0323 -67.0321 -67.0320
   -28.9700 -28.9698 -28.9673 -28.9671 -28.9631 -28.9625 -28.9612 -28.9608
   -28.9606 -28.9605 -28.9591 -28.9589 -28.9442 -28.9441 -28.9432 -28.9430
   -28.9410 -28.9400 -28.9395 -28.9395 -28.9228 -28.9224 -28.9211 -28.9208
   -28.9206 -28.9204 -28.9193 -28.9192 -28.9138 -28.9124 -28.9107 -28.9105
   -28.8442 -28.8441 -28.8413 -28.8408 -28.8404 -28.8399 -28.8397 -28.8396
   -28.8391 -28.8389 -28.8372 -28.8369 -28.8366 -28.8365 -28.8360 -28.8359
    -6.0374  -6.0333  -5.8240  -5.8239  -5.8237  -5.8182  -5.7207  -5.7148
    -5.5968  -5.5960  -5.5316  -5.5315  -5.5313  -5.5213  -5.3480  -5.3451
    -5.1480  -5.1478  -5.1458  -5.1422  -5.1317  -5.1315  -5.1315  -5.1266
    -5.1233  -5.1232  -5.1231  -5.1157  -5.1061  -5.1057  -5.0999  -5.0827
     5.7925   5.8059   5.8079   5.8080   5.8184   5.8225   5.8294   5.8311
     5.9468   5.9545   5.9732   5.9786   5.9792   5.9793   6.0059   6.0089
     6.7506   6.7525   6.7958   6.7969   7.0300   7.0358   7.0371   7.0383
     7.0385   7.0387   7.1882   7.1886   7.2874   7.2929   7.2967   7.2978
     7.3003   7.3037   7.6000   7.6050   7.6106   7.6108   7.9069   7.9076
     7.9165   7.9218   7.9223   7.9228   7.9396   7.9401   8.1811   8.1833
     8.1846   8.1850   8.4409   8.4499   8.4547   8.4602   8.4770   8.4834
     9.0294   9.0306   9.0371   9.0372   9.1532   9.1547   9.2153   9.2177
     9.3028   9.3073   9.3091   9.3092   9.3105   9.3115   9.3327   9.3334
     9.4329   9.4329   9.6318   9.6322   9.6354   9.6361   9.9572   9.9586
    10.1632  10.1700  10.4308  10.4365  10.5047  10.5068  10.5079  10.5081
    10.7872  10.7873  11.0619  11.0696  11.0696  11.0697  11.4011  11.4044
    13.2212  13.2214  13.2572  13.2578  13.2580  13.2582  13.4149  13.4161
    13.4760  13.4771  13.5724  13.5726  13.5742  13.5744  13.5745  13.5745
    13.6635  13.6638  13.8681  13.8684  14.0120  14.0123  14.0124  14.0126
    14.3513  14.3517  14.4502  14.4506  14.6917  14.6919  14.6989  14.6993
    14.6996  14.6997  15.2211  15.2212  15.2593  15.2601  15.2603  15.2604
    15.5100  15.5108  15.8409  15.8418  15.8419  15.8420  16.3598  16.3603
    17.1392  17.1396  17.1397  17.1420  17.7826  17.7829  17.8950  17.8952
    17.9263  17.9266  17.9267  17.9267  18.5378  18.5382  18.7553  18.7559
    18.8089  18.8095  19.0737  19.0742  19.4308  19.4313  19.4315  19.4319
    19.7367  19.7368  20.4324  20.4328  20.4334  20.4339  20.9320  20.9320
    21.2226  21.2234  22.3335  22.3345  22.3350  22.3365  22.8991  22.9004
    23.7028  23.7035  23.7042  23.7063  23.8181  23.8198  23.9120  23.9139
    24.4668  24.4680  25.0576  25.0592  25.1925  25.1937  25.1937  25.1955
    25.3367  25.3381  25.3920  25.3921  25.3934  25.3940  25.7330  25.7341
    26.8579  26.8589  27.4327  27.4335  27.4336  27.4345  27.6146  27.6155
    28.4006  28.4017  28.4020  28.4023  28.4393  28.4396  28.5925  28.5928
    28.8634  28.8635  28.8658  28.8663  28.9049  28.9053  28.9406  28.9413
    28.9657  28.9660  28.9669  28.9673  29.1985  29.1987  29.4344  29.4355
    29.6403  29.6413  29.6416  29.6424  29.8407  29.8417  29.9317  29.9322
    30.5034  30.5038  30.7811  30.7813  30.7816  30.7818  30.8952  30.8953
    30.9037  30.9040  30.9999  31.0002  31.9309  31.9315  31.9318  31.9320
    32.2810  32.2824  32.4615  32.4617  32.4623  32.4627  33.5184  33.5186
    33.5192  33.5196  33.6007  33.6017  33.6910  33.6914  34.3468  34.3472
    34.6694  34.6711  35.0401  35.0404  35.2616  35.2617  35.2618  35.2628
    36.0153  36.0165  36.4380  36.4383  36.4384  36.4386  36.4548  36.4549
    36.4876  36.4877  36.4890  36.4904  36.9500  36.9505  37.0030  37.0030
    37.0034  37.0040  37.4161  37.4173  37.5409  37.5413  37.6903  37.6907
    38.0665  38.0669  38.0679  38.0685  38.3112  38.3116  38.3353  38.3363
    38.7235  38.7242  38.8509  38.8510  39.0146  39.0166  39.2036  39.2039
    39.2046  39.2052  39.3464  39.3472  39.3540  39.3544  39.3547  39.3550
    39.7233  39.7241  39.8363  39.8368  40.1312  40.1325  40.2650  40.2655
    40.2659  40.2660  41.0227  41.0234  41.0236  41.0239  41.4219  41.4233
    41.5622  41.5639  41.9592  41.9599  41.9600  41.9604  42.0144  42.0145
    42.5347  42.5352  43.1419  43.1424  43.1437  43.1438  43.2984  43.2988
    43.4068  43.4073  43.4077  43.4098  43.4471  43.4473  43.5332  43.5333
    43.8361  43.8365  43.9974  43.9977  43.9979  43.9988  44.0752  44.0755
[...]
    48.2090  48.2103  48.2982  48.2991  48.4101  48.4104  48.4109  48.4122
    48.6445  48.6445  48.8333  48.8338  48.9437  48.9439  48.9456  48.9461
    49.0191  49.0200  49.1055  49.1065  49.1771  49.1773  49.1774  49.1792
    49.2065  49.2066  49.2906  49.2912  49.5964  49.5967  49.5979  49.5993
    49.6749  49.6750  49.7889  49.7890  49.7898  49.7900  49.9170  49.9175
    50.0927  50.0950  50.4775  50.4781  50.4785  50.4788  50.8699  50.8705
    50.8826  50.8832  50.8836  50.8842  51.1959  51.1969  51.7388  51.7392
    51.7394  51.7396  51.7419  51.7427  52.0857  52.0862  52.1354  52.1357
    52.1365  52.1371  52.3428  52.3431  52.3610  52.3613  52.3754  52.3759
    52.8625  52.8627  52.9403  52.9405  52.9419  52.9426  53.2443  53.2445
    53.2446  53.2458  53.4178  53.4183  53.6406  53.6406  53.8036  53.8036
    53.8044  53.8048  53.9098  53.9117  54.3194  54.3203  54.5985  54.5990
    54.9994  54.9997  55.0000  55.0007  55.1311  55.1318  55.2312  55.2318
    55.2318  55.2325  55.4320  55.4324  55.4661  55.4661  55.5073  55.5074
    56.0933  56.0935  56.0936  56.0940  56.2178  56.2182  56.4323  56.4326

     the Fermi energy is    14.7594 ev

!    total energy              =   -4148.38867792 Ry
     Harris-Foulkes estimate   =   -4148.38867870 Ry
     estimated scf accuracy    <       0.00000082 Ry

     The total energy is the sum of the following terms:

     one-electron contribution =   -1009.77407730 Ry
     hartree contribution      =     745.81899891 Ry
     xc contribution           =   -1140.45096286 Ry
     ewald contribution        =   -2743.92224506 Ry
     Hubbard energy            =      -0.06013510 Ry
     smearing contrib. (-TS)   =      -0.00025651 Ry

     total magnetization       =     0.00 Bohr mag/cell
     absolute magnetization    =     0.00 Bohr mag/cell

     convergence has been achieved in   9 iterations

     Writing output data file pwscf.save

     General routines

     Parallel routines
     Hubbard U routines

   This run was terminated on:  12:57:30  14Feb2014

   JOB DONE.