     Program PWSCF v.5.0.2 (svn rev. 9656) starts on 15Feb2014 at  1:26: 1

     Current dimensions of program PWSCF are:
     Max number of different atomic species (ntypx) = 10
     Max number of k-points (npk) =  40000
     Max angular momentum in pseudopotentials (lmaxx) =  3
     Reading input from alpha_0.15/alpha_0.15.in
Warning: card &IONS ignored
Warning: card / ignored
Warning: card &CELL ignored
Warning: card / ignored

     Subspace diagonalization in iterative solution of the eigenvalue problem:
     a serial algorithm will be used

     bravais-lattice index     =            0
     lattice parameter (alat)  =      18.7083  a.u.
     unit-cell volume          =    3545.1269 (a.u.)^3
     number of atoms/cell      =           48
     number of atomic types    =            3
     number of electrons       =       432.00
     number of Kohn-Sham states=          648
     kinetic-energy cutoff     =      40.0000  Ry
     charge density cutoff     =     500.0000  Ry
     convergence threshold     =      1.0E-06
     mixing beta               =       0.7000
     number of iterations used =            8  plain     mixing
     Exchange-correlation      = SLA  PW   PBE  PBE ( 1 4 3 4 0)
     EXX-fraction              =        0.00

     celldm(1)=  18.708289  celldm(2)=   0.000000  celldm(3)=   0.000000
     celldm(4)=   0.000000  celldm(5)=   0.000000  celldm(6)=   0.000000

     crystal axes: (cart. coord. in units of alat)
               a(1) = (   1.000000   0.000000   0.000000 )
               a(2) = (   0.000000   1.000000   0.000000 )
               a(3) = (   0.000000   0.000000   0.541414 )

     reciprocal axes: (cart. coord. in units 2 pi/alat)
               b(1) = (  1.000000  0.000000  0.000000 )
               b(2) = (  0.000000  1.000000  0.000000 )
               b(3) = (  0.000000  0.000000  1.847015 )

     PseudoPot. # 1 for Re read from file:
     /home/camp/zhonxu/pseudo/re_pbe_v1.uspp.F.UPF
     MD5 check sum: 6f5a5dcaf9c96c20d0ffdde0de57afc6
     Pseudo is Ultrasoft + core correction, Zval = 15.0
     Generated by new atomic code, or converted to UPF format
     Using radial grid of  981 points,  8 beta functions with:
                l(1) =   0
                l(2) =   0
                l(3) =   1
                l(4) =   1
                l(5) =   2
                l(6) =   2
                l(7) =   3
                l(8) =   3
     Q(r) pseudized with  8 coefficients,  rinner =    1.000   1.000   1.000
                                                       1.000   1.000   1.000
                                                       1.000

     PseudoPot. # 2 for O  read from file:
     /home/camp/zhonxu/pseudo/o_pbe_v1.01.uspp.F.UPF
     MD5 check sum: 2bcb18d16ea4b960afae9ec6d52f22d2
     Pseudo is Ultrasoft + core correction, Zval =  6.0
     Generated by new atomic code, or converted to UPF format
     Using radial grid of  737 points,  5 beta functions with:
                l(1) =   0
                l(2) =   0
                l(3) =   1
                l(4) =   1
                l(5) =   2
     Q(r) pseudized with  8 coefficients,  rinner =    0.900   0.900   0.900
                                                       0.900   0.900

     PseudoPot. # 3 for O  read from file:
     /home/camp/zhonxu/pseudo/o_pbe_v1.01.uspp.F.UPF
     MD5 check sum: 2bcb18d16ea4b960afae9ec6d52f22d2
     Pseudo is Ultrasoft + core correction, Zval =  6.0
     Generated by new atomic code, or converted to UPF format
     Using radial grid of  737 points,  5 beta functions with:
                l(1) =   0
                l(2) =   0
                l(3) =   1
                l(4) =   1
                l(5) =   2
     Q(r) pseudized with  8 coefficients,  rinner =    0.900   0.900   0.900
                                                       0.900   0.900

     atomic species   valence    mass     pseudopotential
        Re0           15.00   186.20700     Re( 1.00)
        O1             6.00    15.99940     O ( 1.00)
        O2             6.00    15.99940     O ( 1.00)

     Starting magnetic structure
     atomic species   magnetization
        Re0          0.000
        O1           0.000
        O2           0.000

     Simplified LDA+U calculation (l_max = 2) with parameters (eV):
     atomic species    L          U    alpha       J0     beta
        Re0            2     0.0000   0.0000   0.0000   0.0000
        O1             1     0.0000   0.1500   0.0000   0.0000
        O2             1     0.0000   0.0000   0.0000   0.0000

      4 Sym. Ops. (no inversion) found

   Cartesian axes

     site n.     atom                  positions (alat units)
         1           Re0 tau(   1) = (  -0.1400000  -0.1400000   0.0000000  )
         2           Re0 tau(   2) = (   0.1100000   0.1100000   0.1353535  )
         3           Re0 tau(   3) = (  -0.1400000  -0.1400000   0.2707071  )
         4           Re0 tau(   4) = (   0.1100000   0.1100000   0.4060606  )
         5           Re0 tau(   5) = (  -0.1400000   0.3600000   0.0000000  )
         6           Re0 tau(   6) = (   0.1100000   0.6100000   0.1353535  )
         7           Re0 tau(   7) = (  -0.1400000   0.3600000   0.2707071  )
         8           Re0 tau(   8) = (   0.1100000   0.6100000   0.4060606  )
         9           Re0 tau(   9) = (   0.3600000  -0.1400000   0.0000000  )
        10           Re0 tau(  10) = (   0.6100000   0.1100000   0.1353535  )
        11           Re0 tau(  11) = (   0.3600000  -0.1400000   0.2707071  )
        12           Re0 tau(  12) = (   0.6100000   0.1100000   0.4060606  )
        13           Re0 tau(  13) = (   0.3600000   0.3600000   0.0000000  )
        14           Re0 tau(  14) = (   0.6100000   0.6100000   0.1353535  )
        15           Re0 tau(  15) = (   0.3600000   0.3600000   0.2707071  )
        16           Re0 tau(  16) = (   0.6100000   0.6100000   0.4060606  )
        17           O1  tau(  17) = (   0.0000000   0.0000000   0.0000000  )
        18           O2  tau(  18) = (  -0.2800000  -0.2800000   0.0000000  )
        19           O2  tau(  19) = (   0.2500000  -0.0300000   0.1353535  )
        20           O2  tau(  20) = (  -0.0300000   0.2500000   0.1353535  )
        21           O2  tau(  21) = (   0.0000000   0.0000000   0.2707071  )
        22           O2  tau(  22) = (  -0.2800000  -0.2800000   0.2707071  )
        23           O2  tau(  23) = (   0.2500000  -0.0300000   0.4060606  )
        24           O2  tau(  24) = (  -0.0300000   0.2500000   0.4060606  )
        25           O2  tau(  25) = (   0.0000000   0.5000000   0.0000000  )
        26           O2  tau(  26) = (  -0.2800000   0.2200000   0.0000000  )
        27           O2  tau(  27) = (   0.2500000   0.4700000   0.1353535  )
        28           O2  tau(  28) = (  -0.0300000   0.7500000   0.1353535  )
        29           O2  tau(  29) = (   0.0000000   0.5000000   0.2707071  )
        30           O2  tau(  30) = (  -0.2800000   0.2200000   0.2707071  )
        31           O2  tau(  31) = (   0.2500000   0.4700000   0.4060606  )
        32           O2  tau(  32) = (  -0.0300000   0.7500000   0.4060606  )
        33           O2  tau(  33) = (   0.5000000   0.0000000   0.0000000  )
        34           O2  tau(  34) = (   0.2200000  -0.2800000   0.0000000  )
        35           O2  tau(  35) = (   0.7500000  -0.0300000   0.1353535  )
        36           O2  tau(  36) = (   0.4700000   0.2500000   0.1353535  )
        37           O2  tau(  37) = (   0.5000000   0.0000000   0.2707071  )
        38           O2  tau(  38) = (   0.2200000  -0.2800000   0.2707071  )
        39           O2  tau(  39) = (   0.7500000  -0.0300000   0.4060606  )
        40           O2  tau(  40) = (   0.4700000   0.2500000   0.4060606  )
        41           O2  tau(  41) = (   0.5000000   0.5000000   0.0000000  )
        42           O2  tau(  42) = (   0.2200000   0.2200000   0.0000000  )
        43           O2  tau(  43) = (   0.7500000   0.4700000   0.1353535  )
        44           O2  tau(  44) = (   0.4700000   0.7500000   0.1353535  )
        45           O2  tau(  45) = (   0.5000000   0.5000000   0.2707071  )
        46           O2  tau(  46) = (   0.2200000   0.2200000   0.2707071  )
        47           O2  tau(  47) = (   0.7500000   0.4700000   0.4060606  )
        48           O2  tau(  48) = (   0.4700000   0.7500000   0.4060606  )

     number of k points=    42  Methfessel-Paxton smearing, width (Ry)=  0.0100
                       cart. coord. in units 2pi/alat
        k(    1) = (   0.0000000   0.0000000   0.0000000), wk =   0.0156250
        k(    2) = (   0.0000000   0.0000000   0.4617537), wk =   0.0312500
        k(    3) = (   0.0000000   0.0000000  -0.9235075), wk =   0.0156250
        k(    4) = (   0.0000000   0.2500000   0.0000000), wk =   0.0625000
        k(    5) = (   0.0000000   0.2500000   0.4617537), wk =   0.1250000
        k(    6) = (   0.0000000   0.2500000  -0.9235075), wk =   0.0625000
        k(    7) = (   0.0000000  -0.5000000   0.0000000), wk =   0.0312500
        k(    8) = (   0.0000000  -0.5000000   0.4617537), wk =   0.0625000
        k(    9) = (   0.0000000  -0.5000000  -0.9235075), wk =   0.0312500
        k(   10) = (   0.2500000   0.2500000   0.0000000), wk =   0.0312500
        k(   11) = (   0.2500000   0.2500000   0.4617537), wk =   0.0625000
        k(   12) = (   0.2500000   0.2500000  -0.9235075), wk =   0.0312500
        k(   13) = (   0.2500000  -0.5000000   0.0000000), wk =   0.0625000
        k(   14) = (   0.2500000  -0.5000000   0.4617537), wk =   0.1250000
        k(   15) = (   0.2500000  -0.5000000  -0.9235075), wk =   0.0625000
        k(   16) = (  -0.5000000  -0.5000000   0.0000000), wk =   0.0156250
        k(   17) = (  -0.5000000  -0.5000000   0.4617537), wk =   0.0312500
        k(   18) = (  -0.5000000  -0.5000000  -0.9235075), wk =   0.0156250
        k(   19) = (   0.2500000  -0.2500000   0.0000000), wk =   0.0312500
        k(   20) = (   0.2500000  -0.2500000   0.4617537), wk =   0.0625000
        k(   21) = (   0.2500000  -0.2500000  -0.9235075), wk =   0.0312500
        k(   22) = (   0.0000000   0.0000000   0.0000000), wk =   0.0156250
        k(   23) = (   0.0000000   0.0000000   0.4617537), wk =   0.0312500
        k(   24) = (   0.0000000   0.0000000  -0.9235075), wk =   0.0156250
        k(   25) = (   0.0000000   0.2500000   0.0000000), wk =   0.0625000
        k(   26) = (   0.0000000   0.2500000   0.4617537), wk =   0.1250000
        k(   27) = (   0.0000000   0.2500000  -0.9235075), wk =   0.0625000
        k(   28) = (   0.0000000  -0.5000000   0.0000000), wk =   0.0312500
        k(   29) = (   0.0000000  -0.5000000   0.4617537), wk =   0.0625000
        k(   30) = (   0.0000000  -0.5000000  -0.9235075), wk =   0.0312500
        k(   31) = (   0.2500000   0.2500000   0.0000000), wk =   0.0312500
        k(   32) = (   0.2500000   0.2500000   0.4617537), wk =   0.0625000
        k(   33) = (   0.2500000   0.2500000  -0.9235075), wk =   0.0312500
        k(   34) = (   0.2500000  -0.5000000   0.0000000), wk =   0.0625000
        k(   35) = (   0.2500000  -0.5000000   0.4617537), wk =   0.1250000
[...]
    eigenvectors:
  0.000  1.000  0.000
  0.500  0.000  0.500
  0.500  0.000  0.500
    occupations:
  0.908 -0.000 -0.000
 -0.000  0.907 -0.003
 -0.000 -0.003  0.907
   spin  2
    eigenvalues:
  0.904  0.908  0.911
    eigenvectors:
  0.000  1.000  0.000
  0.500  0.000  0.500
  0.500  0.000  0.500
    occupations:
  0.908 -0.000 -0.000
 -0.000  0.907 -0.003
 -0.000 -0.003  0.907
atomic mag. moment =     0.000000
atom   42   Tr[ns(na)] (up, down, total) =   2.72340  2.72340  5.44680
   spin  1
    eigenvalues:
  0.904  0.908  0.911
    eigenvectors:
  0.000  1.000  0.000
  0.500  0.000  0.500
  0.500  0.000  0.500
    occupations:
  0.908 -0.000 -0.000
 -0.000  0.907 -0.003
 -0.000 -0.003  0.907
   spin  2
    eigenvalues:
  0.904  0.908  0.911
    eigenvectors:
  0.000  1.000  0.000
  0.500  0.000  0.500
  0.500  0.000  0.500
    occupations:
  0.908 -0.000 -0.000
 -0.000  0.907 -0.003
 -0.000 -0.003  0.907
atomic mag. moment =     0.000000
atom   43   Tr[ns(na)] (up, down, total) =   2.72339  2.72339  5.44679
   spin  1
    eigenvalues:
  0.904  0.908  0.911
    eigenvectors:
  0.000  1.000  0.000
  0.500  0.000  0.500
  0.500  0.000  0.500
    occupations:
  0.908 -0.000 -0.000
 -0.000  0.907  0.003
 -0.000  0.003  0.907
   spin  2
    eigenvalues:
  0.904  0.908  0.911
    eigenvectors:
  0.000  1.000  0.000
  0.500  0.000  0.500
  0.500  0.000  0.500
    occupations:
  0.908 -0.000 -0.000
 -0.000  0.907  0.003
 -0.000  0.003  0.907
atomic mag. moment =    -0.000000
atom   44   Tr[ns(na)] (up, down, total) =   2.72339  2.72339  5.44679
   spin  1
    eigenvalues:
  0.904  0.908  0.911
    eigenvectors:
  0.000  1.000  0.000
  0.500  0.000  0.500
  0.500  0.000  0.500
    occupations:
  0.908 -0.000 -0.000
 -0.000  0.907  0.003
 -0.000  0.003  0.907
   spin  2
    eigenvalues:
  0.904  0.908  0.911
    eigenvectors:
  0.000  1.000  0.000
  0.500  0.000  0.500
  0.500  0.000  0.500
    occupations:
  0.908 -0.000 -0.000
 -0.000  0.907  0.003
 -0.000  0.003  0.907
atomic mag. moment =    -0.000000
atom   45   Tr[ns(na)] (up, down, total) =   2.72335  2.72335  5.44671
   spin  1
    eigenvalues:
  0.904  0.908  0.911
    eigenvectors:
  0.000  1.000  0.000
  0.500  0.000  0.500
  0.500  0.000  0.500
    occupations:
  0.908 -0.000 -0.000
 -0.000  0.907 -0.003
 -0.000 -0.003  0.907
   spin  2
    eigenvalues:
  0.904  0.908  0.911
    eigenvectors:
  0.000  1.000  0.000
  0.500  0.000  0.500
  0.500  0.000  0.500
    occupations:
  0.908 -0.000 -0.000
 -0.000  0.907 -0.003
 -0.000 -0.003  0.907
atomic mag. moment =     0.000000
atom   46   Tr[ns(na)] (up, down, total) =   2.72336  2.72336  5.44672
   spin  1
    eigenvalues:
  0.904  0.908  0.911
    eigenvectors:
  0.000  1.000  0.000
  0.500  0.000  0.500
  0.500  0.000  0.500
    occupations:
  0.908 -0.000 -0.000
 -0.000  0.907 -0.003
 -0.000 -0.003  0.907
   spin  2
    eigenvalues:
  0.904  0.908  0.911
    eigenvectors:
  0.000  1.000  0.000
  0.500  0.000  0.500
  0.500  0.000  0.500
    occupations:
  0.908 -0.000 -0.000
 -0.000  0.907 -0.003
 -0.000 -0.003  0.907
atomic mag. moment =     0.000000
atom   47   Tr[ns(na)] (up, down, total) =   2.72339  2.72339  5.44679
   spin  1
    eigenvalues:
  0.904  0.908  0.911
    eigenvectors:
  0.000  1.000  0.000
  0.500  0.000  0.500
  0.500  0.000  0.500
    occupations:
  0.908  0.000  0.000
  0.000  0.907  0.003
  0.000  0.003  0.907
   spin  2
    eigenvalues:
  0.904  0.908  0.911
    eigenvectors:
  0.000  1.000  0.000
  0.500  0.000  0.500
  0.500  0.000  0.500
    occupations:
  0.908  0.000  0.000
  0.000  0.907  0.003
  0.000  0.003  0.907
atomic mag. moment =    -0.000000
atom   48   Tr[ns(na)] (up, down, total) =   2.72339  2.72339  5.44679
   spin  1
    eigenvalues:
  0.904  0.908  0.911
    eigenvectors:
  0.000  1.000  0.000
  0.500  0.000  0.500
  0.500  0.000  0.500
    occupations:
  0.908  0.000  0.000
  0.000  0.907  0.003
  0.000  0.003  0.907
   spin  2
    eigenvalues:
  0.904  0.908  0.911
    eigenvectors:
  0.000  1.000  0.000
  0.500  0.000  0.500
  0.500  0.000  0.500
    occupations:
  0.908  0.000  0.000
  0.000  0.907  0.003
  0.000  0.003  0.907
atomic mag. moment =    -0.000000
N of occupied +U levels = 278.5182319
 --- exit write_ns ---

 ------ SPIN UP ------------

          k = 0.0000 0.0000 0.0000 ( 15161 PWs)   bands (ev):

   -67.0584 -67.0578 -67.0577 -67.0577 -67.0576 -67.0571 -67.0560 -67.0534
   -67.0026 -67.0025 -67.0024 -67.0024 -67.0023 -67.0023 -66.9999 -66.9995
   -29.2635 -29.2635 -29.2631 -29.2631 -29.2621 -29.2620 -29.2609 -29.2601
   -29.0388 -29.0386 -29.0340 -29.0339 -29.0095 -29.0095 -29.0087 -29.0085
   -28.9784 -28.9783 -28.9776 -28.9773 -28.9526 -28.9523 -28.9484 -28.9477
   -28.8917 -28.8916 -28.8912 -28.8911 -28.8902 -28.8902 -28.8892 -28.8883
   -28.8680 -28.8679 -28.8676 -28.8675 -28.8674 -28.8674 -28.8660 -28.8645
   -28.3956 -28.3893 -28.3892 -28.3891 -28.3891 -28.3882 -28.3878 -28.3817
    -6.7981  -6.2275  -6.2232  -6.0054  -5.9971  -5.9968  -5.9961  -5.7349
    -5.7120  -5.7046  -5.7046  -5.7045  -5.3339  -5.3223  -5.3221  -5.3221
    -5.3175  -5.3162  -5.2704  -5.2673  -5.0977  -5.0935  -5.0355  -5.0311
    -5.0201  -5.0171  -4.9393  -4.9360  -4.5652  -4.5578  -4.5577  -4.5576
     4.5658   4.8145   4.8200   5.0739   5.5197   5.5198   5.5207   5.5281
     5.7550   5.7551   5.7561   5.7649   6.0516   6.0516   6.0524   6.0607
     6.1459   6.3229   6.3264   6.3539   6.3583   6.5930   6.5955   7.0133
     7.0135   7.0139   7.0221   7.1527   7.1562   7.2489   7.2522   7.2861
     7.2869   7.2882   7.2937   7.3370   7.3407   7.7517   7.7522   7.7526
     7.7624   8.2121   8.2127   8.2144   8.2224   8.5505   8.5549   8.6694
     8.6725   8.6786   8.6806   8.7057   8.7093   8.8865   8.8866   8.8866
     8.8934   8.9504   8.9512   9.2066   9.2068   9.2077   9.2128   9.2644
     9.2697   9.4237   9.4247   9.4257   9.4310   9.8403   9.8427   9.9675
     9.9717  10.1967  10.1984  10.5223  10.5224  10.5225  10.5293  10.6476
    10.6479  10.6481  10.6560  10.6800  10.8185  10.8356  10.8379  10.8856
    10.8859  10.9040  10.9043  10.9244  10.9244  10.9248  10.9338  11.0138
    11.0623  11.0662  11.4147  11.6943  11.8506  11.8507  11.8509  11.8515
    12.4056  12.4056  12.4058  12.4058  13.2033  13.7901  13.7906  14.3737
    14.3743  14.4613  14.4617  14.7594  14.7600  14.7758  14.7760  14.8099
    14.8100  15.3815  15.3816  15.3818  15.3828  15.3855  15.3855  15.3856
    15.3872  15.7296  15.7296  15.7297  15.7299  15.9418  15.9424  16.9088
    17.0558  17.0572  17.0573  17.0573  17.2023  17.4004  17.4005  17.4221
    17.4221  17.8071  17.8071  17.8073  17.8074  18.0415  18.0430  18.1592
    18.1592  18.1595  18.1595  18.3598  18.6868  18.6869  18.7554  18.7563
    18.7565  18.7571  18.8798  18.8798  18.8968  18.8969  19.2243  19.2247
    19.3178  19.3181  19.6229  19.6231  21.3594  21.3616  21.3624  21.3629
    21.4508  21.4510  21.4511  21.4511  21.5531  22.8842  22.8847  22.9231
    22.9233  23.0926  23.0933  23.4537  23.4541  23.4554  23.4555  23.5184
    23.5194  23.7564  23.7564  24.4042  24.4047  24.6291  24.6292  24.6297
    24.6306  25.3390  25.6734  25.6737  25.7373  25.9300  25.9301  25.9304
    25.9312  25.9608  25.9616  25.9632  25.9634  26.2451  26.3702  26.3703
    26.3712  26.3712  26.6417  26.6421  27.4461  27.4466  27.6430  27.6432
    28.0537  28.0540  28.2757  28.2761  28.2764  28.2766  28.4122  28.4125
    28.5702  28.5706  28.6704  28.6715  28.6717  28.6721  29.0136  29.0147
    29.0155  29.0156  29.4635  29.4642  29.6217  29.6228  29.8153  29.8156
    30.5232  30.6091  30.6091  31.2116  31.2118  31.2134  31.2135  32.2436
    32.2450  32.2454  32.2456  32.7963  32.7972  32.8422  32.8422  32.8431
    32.8433  32.8498  32.8504  32.9898  32.9899  33.1957  33.1958  33.8235
    34.0024  34.0030  34.1070  34.1072  34.2540  34.2540  34.8694  34.8704
    34.8705  34.8711  34.9500  35.0856  35.0856  35.0860  35.0865  35.3179
    35.3186  35.9353  35.9366  35.9385  35.9386  36.0653  36.0660  36.0988
    36.0995  36.1433  36.4273  36.4274  36.4281  36.4286  36.4998  36.5003
    36.7614  36.7619  37.3577  37.3584  37.3588  37.3594  37.4405  37.4416
    37.5127  37.5133  37.5291  37.9757  37.9760  37.9822  38.4417  38.4425
    38.5551  38.5569  38.5571  38.5573  38.7377  38.7385  38.7387  38.7391
    38.7688  38.7697  39.4200  39.4201  39.4201  39.4207  39.7545  39.7553
    39.9090  39.9092  40.1537  40.1540  40.1544  40.1552  40.5727  40.9990
    41.0005  41.1655  41.1662  41.1879  41.1885  42.1093  42.1115  42.1115
    42.1119  42.6567  42.6577  42.7745  42.7745  42.7749  42.7754  43.3273
    43.3273  43.3288  43.3290  43.3444  43.3456  43.3465  43.3466  43.5752
    43.8313  43.8325  43.8988  43.8994  44.0119  44.0122  44.2909  44.2924
    44.2928  44.2931  44.3322  44.4837  44.4837  44.7059  44.7059  44.9411
[...]
    47.6039  47.6050  47.6465  47.6469  48.0311  48.0325  48.2159  48.2182
    48.2183  48.2183  48.3672  48.3683  48.3710  48.3729  48.3740  48.3740
    48.9285  48.9307  48.9308  48.9310  49.0713  49.0723  49.2803  49.2813
    49.3901  49.3909  49.4761  49.4769  49.7695  49.7705  50.0859  50.0863
    50.1818  50.1825  50.1835  50.1837  50.7626  50.7628  50.7632  50.7638
    50.8807  50.8811  50.8813  50.8816  51.0946  51.0955  51.2647  51.2651
    51.4493  51.4497  51.4516  51.5409  51.5415  51.5419  51.5419  51.7698
    51.9082  52.1510  52.1513  52.1515  52.1520  52.3194  52.3197  52.3758
    52.3768  52.4628  52.4644  52.4645  52.4645  52.7845  52.8436  52.8451
    52.8456  52.8456  53.2681  53.3563  53.3569  53.4324  53.4339  53.4354
    53.4355  53.6457  53.6465  54.4440  54.4449  54.4582  54.4583  54.4592
    54.4592  54.4606  54.4613  54.7755  54.7756  54.7761  54.7763  54.8587
    54.8590  54.9471  54.9474  54.9477  54.9480  55.2179  55.2183  55.6173
    55.6174  55.6539  55.8063  55.8063  55.8524  55.8527  55.8582  55.8585
    55.8587  55.8590  56.1377  56.1383  56.2197  56.2203  56.2743  56.2750

[...]

          k =-0.5000-0.5000 0.0000 ( 15164 PWs)   bands (ev):

[...]

 ------ SPIN DOWN ----------

[...]

          k =-0.5000-0.5000-0.9235 ( 15168 PWs)   bands (ev):

[...]

          k = 0.2500-0.2500-0.9235 ( 15156 PWs)   bands (ev):

   -67.0308 -67.0305 -67.0304 -67.0303 -67.0303 -67.0301 -67.0301 -67.0300
   -67.0299 -67.0298 -67.0298 -67.0296 -67.0294 -67.0278 -67.0271 -67.0246
   -28.9665 -28.9665 -28.9638 -28.9638 -28.9596 -28.9592 -28.9580 -28.9576
   -28.9576 -28.9570 -28.9560 -28.9555 -28.9404 -28.9402 -28.9396 -28.9392
   -28.9371 -28.9368 -28.9366 -28.9353 -28.9195 -28.9191 -28.9179 -28.9175
   -28.9175 -28.9170 -28.9162 -28.9158 -28.9093 -28.9088 -28.9072 -28.9056
   -28.8406 -28.8405 -28.8375 -28.8374 -28.8371 -28.8367 -28.8364 -28.8363
   -28.8360 -28.8355 -28.8338 -28.8336 -28.8333 -28.8331 -28.8324 -28.8318
    -6.0392  -6.0342  -5.8287  -5.8214  -5.8212  -5.8212  -5.7244  -5.7178
    -5.5959  -5.5947  -5.5396  -5.5292  -5.5290  -5.5289  -5.3491  -5.3458
    -5.1606  -5.1458  -5.1453  -5.1433  -5.1354  -5.1292  -5.1292  -5.1289
    -5.1226  -5.1211  -5.1210  -5.1209  -5.1047  -5.1041  -5.1013  -5.0975
     5.8101   5.8102   5.8119   5.8149   5.8247   5.8284   5.8342   5.8416
     5.9568   5.9613   5.9816   5.9816   5.9822   5.9898   6.0117   6.0192
     6.7618   6.7628   6.8062   6.8071   7.0392   7.0393   7.0407   7.0408
     7.0411   7.0475   7.1920   7.1924   7.3001   7.3004   7.3036   7.3059
     7.3075   7.3154   7.6130   7.6132   7.6195   7.6236   7.9106   7.9112
     7.9248   7.9253   7.9259   7.9305   7.9429   7.9439   8.1868   8.1872
     8.1884   8.1907   8.4526   8.4581   8.4624   8.4680   8.4857   8.4955
     9.0391   9.0391   9.0452   9.0467   9.1571   9.1586   9.2221   9.2246
     9.3111   9.3113   9.3127   9.3133   9.3159   9.3181   9.3425   9.3431
     9.4358   9.4358   9.6382   9.6390   9.6425   9.6426   9.9606   9.9621
    10.1725  10.1790  10.4386  10.4441  10.5102  10.5104  10.5116  10.5144
    10.7926  10.7927  11.0717  11.0718  11.0719  11.0800  11.4065  11.4102
    13.2234  13.2235  13.2600  13.2601  13.2602  13.2609  13.4172  13.4185
    13.4784  13.4794  13.5752  13.5754  13.5767  13.5767  13.5768  13.5769
    13.6662  13.6666  13.8706  13.8707  14.0146  14.0147  14.0148  14.0151
    14.3541  14.3545  14.4531  14.4536  14.6941  14.6942  14.7020  14.7022
    14.7024  14.7029  15.2234  15.2236  15.2626  15.2626  15.2629  15.2636
    15.5129  15.5137  15.8440  15.8441  15.8442  15.8451  16.3626  16.3632
    17.1400  17.1422  17.1422  17.1429  17.7852  17.7855  17.8976  17.8979
    17.9291  17.9292  17.9292  17.9295  18.5399  18.5403  18.7577  18.7583
    18.8114  18.8120  19.0754  19.0758  19.4334  19.4337  19.4339  19.4344
    19.7392  19.7394  20.4342  20.4346  20.4352  20.4356  20.9328  20.9328
    21.2239  21.2246  22.3331  22.3346  22.3351  22.3361  22.8989  22.9002
    23.7016  23.7037  23.7046  23.7052  23.8174  23.8190  23.9118  23.9136
    24.4665  24.4677  25.0577  25.0594  25.1917  25.1936  25.1936  25.1948
    25.3355  25.3370  25.3917  25.3924  25.3936  25.3936  25.7331  25.7342
    26.8585  26.8595  27.4323  27.4333  27.4333  27.4341  27.6136  27.6145
    28.4007  28.4009  28.4013  28.4023  28.4395  28.4398  28.5913  28.5915
    28.8625  28.8631  28.8655  28.8657  28.9046  28.9050  28.9412  28.9420
    28.9662  28.9665  28.9673  28.9677  29.1980  29.1982  29.4346  29.4357
    29.6400  29.6408  29.6411  29.6421  29.8406  29.8416  29.9311  29.9316
    30.5033  30.5038  30.7815  30.7817  30.7820  30.7821  30.8957  30.8958
    30.9040  30.9044  30.9995  30.9998  31.9312  31.9314  31.9317  31.9323
    32.2811  32.2825  32.4619  32.4622  32.4629  32.4630  33.5184  33.5188
    33.5194  33.5196  33.6011  33.6020  33.6915  33.6919  34.3473  34.3477
    34.6684  34.6700  35.0410  35.0413  35.2615  35.2625  35.2627  35.2627
    36.0154  36.0166  36.4384  36.4387  36.4387  36.4390  36.4543  36.4543
    36.4863  36.4877  36.4890  36.4890  36.9510  36.9514  37.0029  37.0035
    37.0039  37.0039  37.4157  37.4168  37.5408  37.5412  37.6907  37.6911
    38.0662  38.0668  38.0678  38.0682  38.3122  38.3126  38.3352  38.3363
    38.7242  38.7249  38.8514  38.8515  39.0142  39.0162  39.2035  39.2042
    39.2049  39.2051  39.3464  39.3472  39.3542  39.3544  39.3547  39.3552
    39.7237  39.7245  39.8371  39.8376  40.1306  40.1318  40.2657  40.2658
    40.2661  40.2666  41.0235  41.0238  41.0241  41.0247  41.4214  41.4227
    41.5617  41.5634  41.9595  41.9599  41.9600  41.9606  42.0139  42.0141
    42.5350  42.5355  43.1419  43.1420  43.1433  43.1438  43.2988  43.2992
    43.4056  43.4076  43.4080  43.4085  43.4471  43.4473  43.5339  43.5340
    43.8374  43.8377  43.9980  43.9989  43.9991  43.9994  44.0747  44.0750
[...]
    48.2084  48.2097  48.2979  48.2988  48.4101  48.4114  48.4118  48.4121
    48.6449  48.6450  48.8331  48.8336  48.9435  48.9440  48.9456  48.9458
    49.0187  49.0196  49.1050  49.1060  49.1765  49.1783  49.1784  49.1786
    49.2076  49.2076  49.2913  49.2919  49.5954  49.5968  49.5979  49.5982
    49.6750  49.6752  49.7889  49.7891  49.7898  49.7899  49.9177  49.9182
    50.0919  50.0942  50.4773  50.4777  50.4781  50.4787  50.8704  50.8710
    50.8826  50.8832  50.8835  50.8841  51.1957  51.1966  51.7390  51.7391
    51.7393  51.7398  51.7426  51.7433  52.0851  52.0856  52.1352  52.1358
    52.1366  52.1369  52.3431  52.3434  52.3608  52.3612  52.3751  52.3755
    52.8629  52.8631  52.9398  52.9405  52.9419  52.9421  53.2440  53.2452
    53.2453  53.2455  53.4180  53.4185  53.6412  53.6412  53.8029  53.8035
    53.8042  53.8043  53.9091  53.9110  54.3199  54.3207  54.5980  54.5985
    54.9992  54.9999  55.0002  55.0005  55.1312  55.1319  55.2310  55.2317
    55.2317  55.2323  55.4321  55.4324  55.4661  55.4661  55.5070  55.5071
    56.0935  56.0939  56.0940  56.0942  56.2174  56.2178  56.4329  56.4332

     the Fermi energy is    14.7619 ev

!    total energy              =   -4148.26857946 Ry
     Harris-Foulkes estimate   =   -4148.26857973 Ry
     estimated scf accuracy    <       0.00000030 Ry

     The total energy is the sum of the following terms:

     one-electron contribution =   -1009.78814749 Ry
     hartree contribution      =     745.83100938 Ry
     xc contribution           =   -1140.44889761 Ry
     ewald contribution        =   -2743.92224506 Ry
     Hubbard energy            =       0.05996267 Ry
     smearing contrib. (-TS)   =      -0.00026134 Ry

     total magnetization       =     0.00 Bohr mag/cell
     absolute magnetization    =     0.00 Bohr mag/cell

     convergence has been achieved in  10 iterations

     Writing output data file pwscf.save

     General routines

     Parallel routines
     Hubbard U routines

   This run was terminated on:   6:35:20  15Feb2014

   JOB DONE.