     Program PWSCF v.5.0.2 (svn rev. 9656) starts on 24Jan2014 at 14:48:45

     Current dimensions of program PWSCF are:
     Max number of different atomic species (ntypx) = 10
     Max number of k-points (npk) =  40000
     Max angular momentum in pseudopotentials (lmaxx) =  3
     Reading input from MnO2-v-1.05.in

     Subspace diagonalization in iterative solution of the eigenvalue problem:
     a serial algorithm will be used

     bravais-lattice index     =            0
     lattice parameter (alat)  =       8.5575  a.u.
     unit-cell volume          =     403.8595 (a.u.)^3
     number of atoms/cell      =            6
     number of atomic types    =            2
     number of electrons       =        54.00
     number of Kohn-Sham states=           78
     kinetic-energy cutoff     =      40.0000  Ry
     charge density cutoff     =     500.0000  Ry
     convergence threshold     =      1.0E-06
     mixing beta               =       0.3000
     number of iterations used =            8  plain     mixing
     Exchange-correlation      = SLA  PW   PBE  PBE ( 1 4 3 4 0)
     EXX-fraction              =        0.00
     nstep                     =           50

     celldm(1)=   8.557527  celldm(2)=   0.000000  celldm(3)=   0.000000
     celldm(4)=   0.000000  celldm(5)=   0.000000  celldm(6)=   0.000000

     crystal axes: (cart. coord. in units of alat)
               a(1) = (   1.000000   0.000000   0.000000 )
               a(2) = (   0.000000   1.000000   0.000000 )
               a(3) = (   0.000000   0.000000   0.644444 )

     reciprocal axes: (cart. coord. in units 2 pi/alat)
               b(1) = (  1.000000  0.000000  0.000000 )
               b(2) = (  0.000000  1.000000  0.000000 )
               b(3) = (  0.000000  0.000000  1.551724 )

     PseudoPot. # 1 for Mn read from file:
     /home/camp/zhonxu/pseudo/mn_pbe_v1.uspp.F.UPF
     MD5 check sum: 5fd7c7b5c956fd19902447332617373a
     Pseudo is Ultrasoft + core correction, Zval = 15.0
     Generated by new atomic code, or converted to UPF format
     Using radial grid of  859 points,  6 beta functions with:
                l(1) =   0
                l(2) =   0
                l(3) =   1
                l(4) =   1
                l(5) =   2
                l(6) =   2
     Q(r) pseudized with  6 coefficients,  rinner =    1.150   1.150   1.150
                                                       1.150   1.150

     PseudoPot. # 2 for O  read from file:
     /home/camp/zhonxu/pseudo/o_pbe_v1.01.uspp.F.UPF
     MD5 check sum: 2bcb18d16ea4b960afae9ec6d52f22d2
     Pseudo is Ultrasoft + core correction, Zval =  6.0
     Generated by new atomic code, or converted to UPF format
     Using radial grid of  737 points,  5 beta functions with:
                l(1) =   0
                l(2) =   0
                l(3) =   1
                l(4) =   1
                l(5) =   2
     Q(r) pseudized with  8 coefficients,  rinner =    0.900   0.900   0.900
                                                       0.900   0.900

     atomic species   valence    mass     pseudopotential
        Mn0           15.00    54.93800     Mn( 1.00)
        O1             6.00    15.99940     O ( 1.00)

     Starting magnetic structure
     atomic species   magnetization
        Mn0          0.000
        O1           0.000

     16 Sym. Ops., with inversion, found ( 8 have fractional translation)

   Cartesian axes

     site n.     atom                  positions (alat units)
         1           Mn0 tau(   1) = (   0.0000000   0.0000000   0.0000000  )
         2           Mn0 tau(   2) = (   0.5000000   0.5000000   0.3222222  )
         3           O1  tau(   3) = (   0.3050000   0.3050000   0.0000000  )
         4           O1  tau(   4) = (  -0.3050000  -0.3050000   0.0000000  )
         5           O1  tau(   5) = (   0.8050000   0.1950000   0.3222222  )
         6           O1  tau(   6) = (   0.1950000   0.8050000   0.3222222  )

     number of k points=    36  Methfessel-Paxton smearing, width (Ry)=  0.0100
                       cart. coord. in units 2pi/alat
        k(    1) = (   0.0000000   0.0000000   0.0000000), wk =   0.0080000
        k(    2) = (   0.0000000   0.0000000   0.3103448), wk =   0.0160000
        k(    3) = (   0.0000000   0.0000000   0.6206897), wk =   0.0160000
        k(    4) = (   0.0000000   0.2000000   0.0000000), wk =   0.0320000
        k(    5) = (   0.0000000   0.2000000   0.3103448), wk =   0.0640000
        k(    6) = (   0.0000000   0.2000000   0.6206897), wk =   0.0640000
        k(    7) = (   0.0000000   0.4000000   0.0000000), wk =   0.0320000
        k(    8) = (   0.0000000   0.4000000   0.3103448), wk =   0.0640000
        k(    9) = (   0.0000000   0.4000000   0.6206897), wk =   0.0640000
        k(   10) = (   0.2000000   0.2000000   0.0000000), wk =   0.0320000
        k(   11) = (   0.2000000   0.2000000   0.3103448), wk =   0.0640000
        k(   12) = (   0.2000000   0.2000000   0.6206897), wk =   0.0640000
        k(   13) = (   0.2000000   0.4000000   0.0000000), wk =   0.0640000
        k(   14) = (   0.2000000   0.4000000   0.3103448), wk =   0.1280000
        k(   15) = (   0.2000000   0.4000000   0.6206897), wk =   0.1280000
        k(   16) = (   0.4000000   0.4000000   0.0000000), wk =   0.0320000
        k(   17) = (   0.4000000   0.4000000   0.3103448), wk =   0.0640000
        k(   18) = (   0.4000000   0.4000000   0.6206897), wk =   0.0640000
        k(   19) = (   0.0000000   0.0000000   0.0000000), wk =   0.0080000
        k(   20) = (   0.0000000   0.0000000   0.3103448), wk =   0.0160000
        k(   21) = (   0.0000000   0.0000000   0.6206897), wk =   0.0160000
        k(   22) = (   0.0000000   0.2000000   0.0000000), wk =   0.0320000
        k(   23) = (   0.0000000   0.2000000   0.3103448), wk =   0.0640000
        k(   24) = (   0.0000000   0.2000000   0.6206897), wk =   0.0640000
        k(   25) = (   0.0000000   0.4000000   0.0000000), wk =   0.0320000
        k(   26) = (   0.0000000   0.4000000   0.3103448), wk =   0.0640000
        k(   27) = (   0.0000000   0.4000000   0.6206897), wk =   0.0640000
        k(   28) = (   0.2000000   0.2000000   0.0000000), wk =   0.0320000
        k(   29) = (   0.2000000   0.2000000   0.3103448), wk =   0.0640000
        k(   30) = (   0.2000000   0.2000000   0.6206897), wk =   0.0640000
        k(   31) = (   0.2000000   0.4000000   0.0000000), wk =   0.0640000
        k(   32) = (   0.2000000   0.4000000   0.3103448), wk =   0.1280000
        k(   33) = (   0.2000000   0.4000000   0.6206897), wk =   0.1280000
        k(   34) = (   0.4000000   0.4000000   0.0000000), wk =   0.0320000
        k(   35) = (   0.4000000   0.4000000   0.3103448), wk =   0.0640000
        k(   36) = (   0.4000000   0.4000000   0.6206897), wk =   0.0640000

     Largest allocated arrays     est. size (Mb)     dimensions
     Largest temporary arrays     est. size (Mb)     dimensions

     Check: negative/imaginary core charge=   -0.000059    0.000000

     Initial potential from superposition of free atoms

     starting charge   51.99998, renormalised to   54.00000
     Starting wfc are   42 randomized atomic wfcs

     Self-consistent Calculation

     iteration #  1     ecut=    40.00 Ry     beta=0.30
     Davidson diagonalization with overlap
     ethr =  1.00E-02,  avg # of iterations =  4.9

     total energy              =    -554.03571545 Ry
     Harris-Foulkes estimate   =    -555.28096184 Ry
     estimated scf accuracy    <       2.63844101 Ry

     total magnetization       =     0.00 Bohr mag/cell
     absolute magnetization    =     0.00 Bohr mag/cell

[...]

     End of self-consistent calculation

 ------ SPIN UP ------------

          k = 0.0000 0.0000 0.0000 (  1723 PWs)   bands (ev):

   -70.5551 -70.5532 -39.3453 -39.3453 -39.2433 -39.2433 -39.1437 -39.1367
   -10.0949  -8.4612  -8.1952  -8.1952   2.2127   3.1257   3.6292   4.5285
     4.5285   5.5672   5.5672   6.1663   7.7519   8.1593   8.1593   8.3017
     8.5514   8.8923   8.8944   8.8944   9.0955  10.2996  10.6628  12.7885
    12.7885  13.4602  16.6676  20.3911  20.3911  23.1760  23.6355  24.2628
    26.1366  27.3943  27.3943  28.2006  29.2685  32.0617  33.2264  33.5409
    33.5409  34.4528  34.4528  34.8533  35.5198  35.5198  35.7731  36.9643
    38.1037  38.8367  41.7383  41.7981  41.7981  41.9975  41.9975  44.2710
    45.3298  46.3760  46.3760  47.6759  48.7766  48.7843  48.7843  49.0572
    50.0369  51.1074  51.7329  51.7329  53.8193  53.9792

[...]

 ------ SPIN DOWN ----------

[...]

     the Fermi energy is     9.4600 ev

!    total energy              =    -554.84799391 Ry
     Harris-Foulkes estimate   =    -554.84799211 Ry
     estimated scf accuracy    <       0.00000013 Ry

     The total energy is the sum of the following terms:

     one-electron contribution =    -286.80473160 Ry
     hartree contribution      =     168.72768938 Ry
     xc contribution           =     -80.32200866 Ry
     ewald contribution        =    -356.44833175 Ry
     smearing contrib. (-TS)   =      -0.00061127 Ry

[...]

     convergence has been achieved in  11 iterations

     Forces acting on atoms (Ry/au):

     atom    1 type  1   force =     0.00000000    0.00000000    0.00000000
     atom    2 type  1   force =     0.00000000    0.00000000    0.00000000
     atom    3 type  2   force =    -0.00115291   -0.00115291    0.00000000
     atom    4 type  2   force =     0.00115291    0.00115291    0.00000000
     atom    5 type  2   force =    -0.00115291    0.00115291    0.00000000
     atom    6 type  2   force =     0.00115291   -0.00115291    0.00000000

     Total force =     0.003261     Total SCF correction =     0.000102

     entering subroutine stress ...

          total   stress  (Ry/bohr**3)                   (kbar)     P= -227.37
  -0.00137863   0.00000000   0.00000000       -202.80      0.00      0.00
   0.00000000  -0.00137863   0.00000000          0.00   -202.80      0.00
   0.00000000   0.00000000  -0.00187966          0.00      0.00   -276.51

     Volume is kept fixed: isostatic pressure set to zero

     BFGS Geometry Optimization

     number of scf cycles    =   1
     number of bfgs steps    =   0

     enthalpy new            =    -554.8479939062 Ry

     new trust radius        =       0.0335624061 bohr
     new conv_thr            =       0.0000010000 Ry

     new unit-cell volume =    403.85948 a.u.^3 (    59.84580 Ang^3 )

CELL_PARAMETERS (alat=  8.55752677)
   1.004192761   0.000000000   0.000000000
   0.000000000   1.004192761   0.000000000
   0.000000000   0.000000000   0.639074239

ATOMIC_POSITIONS (crystal)
Mn0      0.000000000   0.000000000   0.000000000    0   0   0
Mn0      0.500000000   0.500000000   0.500000000    0   0   0
O1       0.304865276   0.304865276   0.000000000    1   1   0
O1      -0.304865276  -0.304865276   0.000000000    1   1   0
O1       0.804865276   0.195134724   0.500000000    1   1   0
O1       0.195134724   0.804865276   0.500000000    1   1   0

     NEW-OLD atomic charge density approx. for the potential
     NEW k-points:
        k(    1) = (   0.0000000   0.0000000   0.0000000), wk =   0.0080000
[...]
        k(   13) = (   0.1991649   0.3983299   0.0000000), wk =   0.0640000
        k(   14) = (   0.1991649   0.3983299   0.3129527), wk =   0.1280000
        k(   15) = (   0.1991649   0.3983299   0.6259054), wk =   0.1280000
        k(   16) = (   0.3983299   0.3983299   0.0000000), wk =   0.0320000
        k(   17) = (   0.3983299   0.3983299   0.3129527), wk =   0.0640000
        k(   18) = (   0.3983299   0.3983299   0.6259054), wk =   0.0640000
        k(   19) = (   0.0000000   0.0000000   0.0000000), wk =   0.0080000
        k(   20) = (   0.0000000   0.0000000   0.3129527), wk =   0.0160000
        k(   21) = (   0.0000000   0.0000000   0.6259054), wk =   0.0160000
        k(   22) = (   0.0000000   0.1991649   0.0000000), wk =   0.0320000
        k(   23) = (   0.0000000   0.1991649   0.3129527), wk =   0.0640000
        k(   24) = (   0.0000000   0.1991649   0.6259054), wk =   0.0640000
        k(   25) = (   0.0000000   0.3983299   0.0000000), wk =   0.0320000
        k(   26) = (   0.0000000   0.3983299   0.3129527), wk =   0.0640000
        k(   27) = (   0.0000000   0.3983299   0.6259054), wk =   0.0640000
        k(   28) = (   0.1991649   0.1991649   0.0000000), wk =   0.0320000
        k(   29) = (   0.1991649   0.1991649   0.3129527), wk =   0.0640000
        k(   30) = (   0.1991649   0.1991649   0.6259054), wk =   0.0640000
        k(   31) = (   0.1991649   0.3983299   0.0000000), wk =   0.0640000
        k(   32) = (   0.1991649   0.3983299   0.3129527), wk =   0.1280000
        k(   33) = (   0.1991649   0.3983299   0.6259054), wk =   0.1280000
        k(   34) = (   0.3983299   0.3983299   0.0000000), wk =   0.0320000
        k(   35) = (   0.3983299   0.3983299   0.3129527), wk =   0.0640000
        k(   36) = (   0.3983299   0.3983299   0.6259054), wk =   0.0640000

[...]

     Total force =     0.003161     Total SCF correction =     0.001092
     SCF correction compared to forces is large: reduce conv_thr to get better values

[...]

     enthalpy old            =    -554.8479939062 Ry
     enthalpy new            =    -554.8494668421 Ry

     CASE: enthalpy_new < enthalpy_old

[...]

     number of scf cycles    =   4
     number of bfgs steps    =   3

     enthalpy old            =    -554.8505466642 Ry
     enthalpy new            =    -554.8510823726 Ry

     CASE: enthalpy_new < enthalpy_old

     new trust radius        =       0.0028975467 bohr
     new conv_thr            =       0.0000000100 Ry

     new unit-cell volume =    403.85948 a.u.^3 (    59.84580 Ang^3 )

[...]

ATOMIC_POSITIONS (crystal)
Mn0      0.000000000   0.000000000   0.000000000    0   0   0
Mn0      0.500000000   0.500000000   0.500000000    0   0   0
O1       0.304151438   0.304151438   0.000000000    1   1   0
O1      -0.304151438  -0.304151438   0.000000000    1   1   0
O1       0.804151438   0.195848562   0.500000000    1   1   0
O1       0.195848562   0.804151438   0.500000000    1   1   0

     NEW-OLD atomic charge density approx. for the potential
     NEW k-points:
        k(    1) = (   0.0000000   0.0000000   0.0000000), wk =   0.0080000
        k(    2) = (   0.0000000   0.0000000   0.3197250), wk =   0.0160000
        k(    3) = (   0.0000000   0.0000000   0.6394499), wk =   0.0160000
        k(    4) = (   0.0000000   0.1970444   0.0000000), wk =   0.0320000
        k(    5) = (   0.0000000   0.1970444   0.3197250), wk =   0.0640000
        k(    6) = (   0.0000000   0.1970444   0.6394499), wk =   0.0640000
        k(    7) = (   0.0000000   0.3940887   0.0000000), wk =   0.0320000
        k(    8) = (   0.0000000   0.3940887   0.3197250), wk =   0.0640000
        k(    9) = (   0.0000000   0.3940887   0.6394499), wk =   0.0640000
        k(   10) = (   0.1970444   0.1970444   0.0000000), wk =   0.0320000
        k(   11) = (   0.1970444   0.1970444   0.3197250), wk =   0.0640000
        k(   12) = (   0.1970444   0.1970444   0.6394499), wk =   0.0640000
        k(   13) = (   0.1970444   0.3940887   0.0000000), wk =   0.0640000
        k(   14) = (   0.1970444   0.3940887   0.3197250), wk =   0.1280000
        k(   15) = (   0.1970444   0.3940887   0.6394499), wk =   0.1280000
        k(   16) = (   0.3940887   0.3940887   0.0000000), wk =   0.0320000
        k(   17) = (   0.3940887   0.3940887   0.3197250), wk =   0.0640000
        k(   18) = (   0.3940887   0.3940887   0.6394499), wk =   0.0640000
        k(   19) = (   0.0000000   0.0000000   0.0000000), wk =   0.0080000
        k(   20) = (   0.0000000   0.0000000   0.3197250), wk =   0.0160000
        k(   21) = (   0.0000000   0.0000000   0.6394499), wk =   0.0160000
        k(   22) = (   0.0000000   0.1970444   0.0000000), wk =   0.0320000
        k(   23) = (   0.0000000   0.1970444   0.3197250), wk =   0.0640000
        k(   24) = (   0.0000000   0.1970444   0.6394499), wk =   0.0640000
        k(   25) = (   0.0000000   0.3940887   0.0000000), wk =   0.0320000
        k(   26) = (   0.0000000   0.3940887   0.3197250), wk =   0.0640000
        k(   27) = (   0.0000000   0.3940887   0.6394499), wk =   0.0640000
        k(   28) = (   0.1970444   0.1970444   0.0000000), wk =   0.0320000
        k(   29) = (   0.1970444   0.1970444   0.3197250), wk =   0.0640000
        k(   30) = (   0.1970444   0.1970444   0.6394499), wk =   0.0640000
        k(   31) = (   0.1970444   0.3940887   0.0000000), wk =   0.0640000
        k(   32) = (   0.1970444   0.3940887   0.3197250), wk =   0.1280000
        k(   33) = (   0.1970444   0.3940887   0.6394499), wk =   0.1280000
        k(   34) = (   0.3940887   0.3940887   0.0000000), wk =   0.0320000
        k(   35) = (   0.3940887   0.3940887   0.3197250), wk =   0.0640000
        k(   36) = (   0.3940887   0.3940887   0.6394499), wk =   0.0640000

[...]

     Threshold (ethr) on eigenvalues was too large:
     Diagonalizing with lowered threshold

     Davidson diagonalization with overlap
     ethr =  3.10E-09,  avg # of iterations =  2.0

[...]

     Volume is kept fixed: isostatic pressure set to zero

     bfgs converged in   5 scf cycles and   4 bfgs steps
     (criteria: energy < 0.10E-03, force < 0.10E-02, cell < 0.50E+00)

     End of BFGS Geometry Optimization

     Final enthalpy =    -554.8510888112 Ry
Begin final coordinates
     new unit-cell volume =    403.85948 a.u.^3 (    59.84580 Ang^3 )

CELL_PARAMETERS (alat=  8.55752677)
   1.014999921   0.000000000   0.000000000
   0.000000000   1.014999921   0.000000000
   0.000000000   0.000000000   0.625537669

ATOMIC_POSITIONS (crystal)
Mn0      0.000000000   0.000000000   0.000000000    0   0   0
Mn0      0.500000000   0.500000000   0.500000000    0   0   0
O1       0.304151438   0.304151438   0.000000000    1   1   0
O1      -0.304151438  -0.304151438   0.000000000    1   1   0
O1       0.804151438   0.195848562   0.500000000    1   1   0
O1       0.195848562   0.804151438   0.500000000    1   1   0
End final coordinates

     A final scf calculation at the relaxed structure.
     The G-vectors are recalculated for the final unit cell
     Results may differ from those at the preceding step.

     bravais-lattice index     =            0
     lattice parameter (alat)  =       8.5575  a.u.
     unit-cell volume          =     403.8595 (a.u.)^3
     number of atoms/cell      =            6
     number of atomic types    =            2
     number of electrons       =        54.00
     number of Kohn-Sham states=           78
     kinetic-energy cutoff     =      40.0000  Ry
     charge density cutoff     =     500.0000  Ry
     convergence threshold     =      1.0E-08
     mixing beta               =       0.3000
     number of iterations used =            8  plain     mixing
     Exchange-correlation      = SLA  PW   PBE  PBE ( 1 4 3 4 0)
     EXX-fraction              =        0.00

     celldm(1)=   8.557527  celldm(2)=   0.000000  celldm(3)=   0.000000
     celldm(4)=   0.000000  celldm(5)=   0.000000  celldm(6)=   0.000000

     crystal axes: (cart. coord. in units of alat)
               a(1) = (   1.015000   0.000000   0.000000 )
               a(2) = (   0.000000   1.015000   0.000000 )
               a(3) = (   0.000000   0.000000   0.625538 )

     reciprocal axes: (cart. coord. in units 2 pi/alat)
               b(1) = (  0.985222  0.000000  0.000000 )
               b(2) = (  0.000000  0.985222  0.000000 )
               b(3) = (  0.000000  0.000000  1.598625 )

     PseudoPot. # 1 for Mn read from file:
     /home/camp/zhonxu/pseudo/mn_pbe_v1.uspp.F.UPF
     MD5 check sum: 5fd7c7b5c956fd19902447332617373a
     Pseudo is Ultrasoft + core correction, Zval = 15.0
     Generated by new atomic code, or converted to UPF format
     Using radial grid of  859 points,  6 beta functions with:
                l(1) =   0
                l(2) =   0
                l(3) =   1
                l(4) =   1
                l(5) =   2
                l(6) =   2
     Q(r) pseudized with  6 coefficients,  rinner =    1.150   1.150   1.150
                                                       1.150   1.150

     PseudoPot. # 2 for O  read from file:
     /home/camp/zhonxu/pseudo/o_pbe_v1.01.uspp.F.UPF
     MD5 check sum: 2bcb18d16ea4b960afae9ec6d52f22d2
     Pseudo is Ultrasoft + core correction, Zval =  6.0
     Generated by new atomic code, or converted to UPF format
     Using radial grid of  737 points,  5 beta functions with:
                l(1) =   0
                l(2) =   0
                l(3) =   1
                l(4) =   1
                l(5) =   2
     Q(r) pseudized with  8 coefficients,  rinner =    0.900   0.900   0.900
                                                       0.900   0.900

     atomic species   valence    mass     pseudopotential
        Mn0           15.00    54.93800     Mn( 1.00)
        O1             6.00    15.99940     O ( 1.00)

     Starting magnetic structure
     atomic species   magnetization
        Mn0          0.000
        O1           0.000

     16 Sym. Ops., with inversion, found ( 8 have fractional translation)

   Cartesian axes

     site n.     atom                  positions (alat units)
         1           Mn0 tau(   1) = (   0.0000000   0.0000000   0.0000000  )
         2           Mn0 tau(   2) = (   0.5075000   0.5075000   0.3127688  )
         3           O1  tau(   3) = (   0.3087137   0.3087137   0.0000000  )
         4           O1  tau(   4) = (  -0.3087137  -0.3087137   0.0000000  )
         5           O1  tau(   5) = (   0.8162136   0.1987863   0.3127688  )
         6           O1  tau(   6) = (   0.1987863   0.8162136   0.3127688  )

     number of k points=    36  Methfessel-Paxton smearing, width (Ry)=  0.0100
                       cart. coord. in units 2pi/alat
        k(    1) = (   0.0000000   0.0000000   0.0000000), wk =   0.0080000
        k(    2) = (   0.0000000   0.0000000   0.3197250), wk =   0.0160000
        k(    3) = (   0.0000000   0.0000000   0.6394499), wk =   0.0160000
        k(    4) = (   0.0000000   0.1970444   0.0000000), wk =   0.0320000
        k(    5) = (   0.0000000   0.1970444   0.3197250), wk =   0.0640000
        k(    6) = (   0.0000000   0.1970444   0.6394499), wk =   0.0640000
        k(    7) = (   0.0000000   0.3940887   0.0000000), wk =   0.0320000
        k(    8) = (   0.0000000   0.3940887   0.3197250), wk =   0.0640000
        k(    9) = (   0.0000000   0.3940887   0.6394499), wk =   0.0640000
        k(   10) = (   0.1970444   0.1970444   0.0000000), wk =   0.0320000
        k(   11) = (   0.1970444   0.1970444   0.3197250), wk =   0.0640000
        k(   12) = (   0.1970444   0.1970444   0.6394499), wk =   0.0640000
        k(   13) = (   0.1970444   0.3940887   0.0000000), wk =   0.0640000
        k(   14) = (   0.1970444   0.3940887   0.3197250), wk =   0.1280000
        k(   15) = (   0.1970444   0.3940887   0.6394499), wk =   0.1280000
        k(   16) = (   0.3940887   0.3940887   0.0000000), wk =   0.0320000
        k(   17) = (   0.3940887   0.3940887   0.3197250), wk =   0.0640000
        k(   18) = (   0.3940887   0.3940887   0.6394499), wk =   0.0640000
        k(   19) = (   0.0000000   0.0000000   0.0000000), wk =   0.0080000
        k(   20) = (   0.0000000   0.0000000   0.3197250), wk =   0.0160000
        k(   21) = (   0.0000000   0.0000000   0.6394499), wk =   0.0160000
        k(   22) = (   0.0000000   0.1970444   0.0000000), wk =   0.0320000
        k(   23) = (   0.0000000   0.1970444   0.3197250), wk =   0.0640000
        k(   24) = (   0.0000000   0.1970444   0.6394499), wk =   0.0640000
        k(   25) = (   0.0000000   0.3940887   0.0000000), wk =   0.0320000
        k(   26) = (   0.0000000   0.3940887   0.3197250), wk =   0.0640000
        k(   27) = (   0.0000000   0.3940887   0.6394499), wk =   0.0640000
        k(   28) = (   0.1970444   0.1970444   0.0000000), wk =   0.0320000
        k(   29) = (   0.1970444   0.1970444   0.3197250), wk =   0.0640000
        k(   30) = (   0.1970444   0.1970444   0.6394499), wk =   0.0640000
        k(   31) = (   0.1970444   0.3940887   0.0000000), wk =   0.0640000
        k(   32) = (   0.1970444   0.3940887   0.3197250), wk =   0.1280000
        k(   33) = (   0.1970444   0.3940887   0.6394499), wk =   0.1280000
        k(   34) = (   0.3940887   0.3940887   0.0000000), wk =   0.0320000
        k(   35) = (   0.3940887   0.3940887   0.3197250), wk =   0.0640000
        k(   36) = (   0.3940887   0.3940887   0.6394499), wk =   0.0640000

     Largest allocated arrays     est. size (Mb)     dimensions
     Largest temporary arrays     est. size (Mb)     dimensions

     Check: negative/imaginary core charge=   -0.000059    0.000000

     Initial potential from superposition of free atoms

     starting charge   51.99998, renormalised to   54.00000
     Starting wfc are   42 randomized atomic wfcs

     Self-consistent Calculation

[...]

     total energy              =    -554.85131889 Ry
     Harris-Foulkes estimate   =    -554.85131822 Ry
     estimated scf accuracy    <       0.00000002 Ry

[...]

     iteration # 12     ecut=    40.00 Ry     beta=0.30
     Davidson diagonalization with overlap
     ethr =  2.92E-11,  avg # of iterations =  2.0

     End of self-consistent calculation

 ------ SPIN UP ------------

[...]

 ------ SPIN DOWN ----------

[...]

          k = 0.3941 0.3941 0.6394 (  1718 PWs)   bands (ev):

   -70.5915 -70.5914 -39.3261 -39.3257 -39.3172 -39.3164 -39.3071 -39.3068
    -8.6331  -8.5499  -8.4657  -8.4357   3.2284   3.3663   3.5799   3.6162
     4.5570   4.7545   5.3467   5.3756   6.7489   6.8585   7.2240   7.5386
     9.0421   9.4250   9.4702   9.5068   9.7824  10.0492  11.3393  11.8632
    12.1889  12.6970  20.8278  21.2610  21.9784  22.3552  24.2970  24.3623
    25.1812  25.3002  26.4775  26.5108  27.8211  28.1521  30.4886  32.0929
    32.6320  33.2422  33.7587  34.6439  37.9140  38.0592  38.9597  39.5980
    41.8180  42.1350  42.7562  43.4643  44.1051  44.1131  44.9368  45.3447
    45.9333  46.6603  47.3085  47.9154  47.9616  48.9015  49.6141  50.4361
    50.5303  51.2118  52.1274  52.2666  54.4042  54.5303

     the Fermi energy is     9.5021 ev

!    total energy              =    -554.85131952 Ry
     Harris-Foulkes estimate   =    -554.85131889 Ry
     estimated scf accuracy    <          1.4E-09 Ry

     The total energy is the sum of the following terms:

     one-electron contribution =    -290.06556071 Ry
     hartree contribution      =     170.28259507 Ry
     xc contribution           =     -80.34071939 Ry
     ewald contribution        =    -354.72789286 Ry
     smearing contrib. (-TS)   =       0.00025838 Ry

     total magnetization       =     0.00 Bohr mag/cell
     absolute magnetization    =     0.00 Bohr mag/cell

     convergence has been achieved in  12 iterations

     Forces acting on atoms (Ry/au):

     atom    1 type  1   force =     0.00000000    0.00000000    0.00000000
     atom    2 type  1   force =     0.00000000    0.00000000    0.00000000
     atom    3 type  2   force =    -0.00053141   -0.00053141   -0.00000000
     atom    4 type  2   force =     0.00053141    0.00053141    0.00000000
     atom    5 type  2   force =    -0.00053141    0.00053141   -0.00000000
     atom    6 type  2   force =     0.00053141   -0.00053141   -0.00000000

     Total force =     0.001503     Total SCF correction =     0.000015

     entering subroutine stress ...

          total   stress  (Ry/bohr**3)                   (kbar)     P= -219.36
  -0.00148093   0.00000000   0.00000000       -217.85      0.00      0.00
   0.00000000  -0.00148093   0.00000000          0.00   -217.85      0.00
   0.00000000   0.00000000  -0.00151175          0.00      0.00   -222.39

     General routines

     Parallel routines

   This run was terminated on:  15: 8: 7  24Jan2014

   JOB DONE.