     Program PWSCF v.5.0.2 (svn rev. 9656) starts on  9May2014 at  6:14: 8

     Current dimensions of program PWSCF are:
     Max number of different atomic species (ntypx) = 10
     Max number of k-points (npk) =  40000
     Max angular momentum in pseudopotentials (lmaxx) =  3
     Reading input from pwscf.in
Warning: card &CELL ignored
Warning: card / ignored

     Subspace diagonalization in iterative solution of the eigenvalue problem:
     a serial algorithm will be used

     bravais-lattice index     =            0
     lattice parameter (alat)  =      11.1872  a.u.
     unit-cell volume          =    7531.8600 (a.u.)^3
     number of atoms/cell      =           30
     number of atomic types    =            3
     number of electrons       =       216.00
     number of Kohn-Sham states=          324
     kinetic-energy cutoff     =      40.0000  Ry
     charge density cutoff     =     500.0000  Ry
     convergence threshold     =      1.0E-06
     mixing beta               =       0.7000
     number of iterations used =            8  plain     mixing
     Exchange-correlation      = SLA  PW   PBE  PBE ( 1 4 3 4 0)
     EXX-fraction              =        0.00
     nstep                     =           50

     celldm(1)=  11.187179  celldm(2)=   0.000000  celldm(3)=   0.000000
     celldm(4)=   0.000000  celldm(5)=   0.000000  celldm(6)=   0.000000

     crystal axes: (cart. coord. in units of alat)
               a(1) = (   1.000000   0.000000   0.000000 )
               a(2) = (   0.000000   1.180104   0.000000 )
               a(3) = (   0.000000   0.000000   4.558482 )

     reciprocal axes: (cart. coord. in units 2 pi/alat)
               b(1) = (  1.000000  0.000000  0.000000 )
               b(2) = (  0.000000  0.847383  0.000000 )
               b(3) = (  0.000000  0.000000  0.219371 )

     PseudoPot. # 1 for O  read from file:
     /home/camp/zhonxu/pseudo/o_pbe_v1.01.uspp.F.UPF
     MD5 check sum: 2bcb18d16ea4b960afae9ec6d52f22d2
     Pseudo is Ultrasoft + core correction, Zval =  6.0
     Generated by new atomic code, or converted to UPF format
     Using radial grid of  737 points,  5 beta functions with:
                l(1) =   0
                l(2) =   0
                l(3) =   1
                l(4) =   1
                l(5) =   2
     Q(r) pseudized with  8 coefficients,  rinner =    0.900   0.900   0.900
                                                       0.900   0.900

     PseudoPot. # 2 for Nb read from file:
     /home/camp/zhonxu/pseudo/nb_pbe_v1.uspp.F.UPF
     MD5 check sum: 573aab8a2fa660278ed4a62cd769473f
     Pseudo is Ultrasoft + core correction, Zval = 13.0
     Generated by new atomic code, or converted to UPF format
     Using radial grid of  887 points,  6 beta functions with:
                l(1) =   0
                l(2) =   0
                l(3) =   1
                l(4) =   1
                l(5) =   2
                l(6) =   2
     Q(r) pseudized with  6 coefficients,  rinner =    1.000   1.000   1.000
                                                       1.000   1.000

     PseudoPot. # 3 for H  read from file:
     /home/camp/zhonxu/pseudo/h_pbe_v1.uspp.F.UPF
     MD5 check sum: 3408e3ff4ec8b0a4e358431e7e038a48
     Pseudo is Ultrasoft, Zval =  1.0
     Generated by new atomic code, or converted to UPF format
     Using radial grid of  615 points,  2 beta functions with:
                l(1) =   0
                l(2) =   0
     Q(r) pseudized with  8 coefficients,  rinner =    0.700

     atomic species   valence    mass     pseudopotential
        O0             6.00    15.99940     O ( 1.00)
        Nb1           13.00    92.90640     Nb( 1.00)
        H2             1.00     1.00794     H ( 1.00)

     Simplified LDA+U calculation (l_max = 2) with parameters (eV):
     atomic species    L          U    alpha       J0     beta
        Nb1            2     7.0000   0.0000   0.0000   0.0000

     No symmetry found

   Cartesian axes

     site n.     atom                  positions (alat units)
         1           O0  tau(   1) = (   0.0000000   0.0000000   1.7080633  )
         2           O0  tau(   2) = (   0.0000000   0.5900519   1.7583889  )
         3           Nb1 tau(   3) = (   0.2500000   0.5900519   2.0066439  )
         4           Nb1 tau(   4) = (   0.0000000   0.0000000   2.0401487  )
         5           O0  tau(   5) = (   0.2500000   0.9322821   2.0429294  )
         6           O0  tau(   6) = (   0.2500000   0.2478218   2.0431118  )
         7           O0  tau(   7) = (   0.0000000   0.5900519   2.2709903  )
         8           O0  tau(   8) = (   0.0000000   0.0000000   2.3999042  )
         9           Nb1 tau(   9) = (   0.2500000   0.0000000   2.6489340  )
        10           Nb1 tau(  10) = (   0.0000000   0.5900519   2.5868019  )
        11           O0  tau(  11) = (   0.2500000   0.8378738   2.6444667  )
        12           O0  tau(  12) = (   0.2500000   0.3422301   2.6445123  )
        13           O0  tau(  13) = (   0.0000000   0.0000000   2.8518777  )
        14           O0  tau(  14) = (   0.5000000   0.0000000   1.7080633  )
        15           O0  tau(  15) = (   0.5000000   0.5900519   1.7583889  )
        16           Nb1 tau(  16) = (   0.7500000   0.5900519   2.0066439  )
        17           Nb1 tau(  17) = (   0.5000000   0.0000000   2.0401487  )
        18           O0  tau(  18) = (   0.7500000   0.9322821   2.0429294  )
        19           O0  tau(  19) = (   0.7500000   0.2478218   2.0431118  )
        20           O0  tau(  20) = (   0.5000000   0.5900519   2.2709903  )
        21           O0  tau(  21) = (   0.5000000   0.0000000   2.3999497  )
        22           Nb1 tau(  22) = (   0.7500000   0.0000000   2.6489340  )
        23           Nb1 tau(  23) = (   0.5000000   0.5900519   2.5867563  )
        24           O0  tau(  24) = (   0.7500000   0.8378738   2.6444667  )
        25           O0  tau(  25) = (   0.7500000   0.3422301   2.6445123  )
        26           O0  tau(  26) = (   0.5000000   0.0000000   2.8518777  )
        27           H2  tau(  27) = (  -0.0004200   0.5934860   1.5928705  )
        28           H2  tau(  28) = (   0.4995800   0.5932146   1.5928249  )
        29           H2  tau(  29) = (   0.1513000  -0.0014397   1.6372701  )
        30           H2  tau(  30) = (   0.6512900  -0.0014397   1.6372701  )

     number of k points=    10  Methfessel-Paxton smearing, width (Ry)=  0.0100
                       cart. coord. in units 2pi/alat
        k(    1) = (   0.0000000   0.0000000   0.0000000), wk =   0.1250000
        k(    2) = (   0.0000000   0.2118458   0.0000000), wk =   0.2500000
        k(    3) = (   0.0000000  -0.4236915   0.0000000), wk =   0.1250000
        k(    4) = (   0.2500000   0.0000000   0.0000000), wk =   0.2500000
        k(    5) = (   0.2500000   0.2118458   0.0000000), wk =   0.2500000
        k(    6) = (   0.2500000  -0.4236915   0.0000000), wk =   0.2500000
        k(    7) = (  -0.5000000   0.0000000   0.0000000), wk =   0.1250000
        k(    8) = (  -0.5000000   0.2118458   0.0000000), wk =   0.2500000
        k(    9) = (  -0.5000000  -0.4236915   0.0000000), wk =   0.1250000
        k(   10) = (  -0.2500000   0.2118458   0.0000000), wk =   0.2500000

     Largest allocated arrays     est. size (Mb)     dimensions
     Largest temporary arrays     est. size (Mb)     dimensions

     Check: negative/imaginary core charge=   -0.000003    0.000000

     Initial potential from superposition of free atoms
     Check: negative starting charge=   -0.003843

     starting charge  215.97807, renormalised to  216.00000

     negative rho (up, down):  0.384E-02 0.000E+00
     Number of +U iterations with fixed ns =  0
     Starting occupations:
 --- enter write_ns ---
 LDA+U parameters:
U( 2)     =  7.00000000
alpha( 2) =  0.00000000
atom    3   Tr[ns(na)] =   3.00000
    eigenvalues:
  0.300  0.300  0.300  0.300  0.300
    eigenvectors:
  1.000  0.000  0.000  0.000  0.000
  0.000  1.000  0.000  0.000  0.000
  0.000  0.000  1.000  0.000  0.000
  0.000  0.000  0.000  1.000  0.000
  0.000  0.000  0.000  0.000  1.000
    occupations:
  0.300  0.000  0.000  0.000  0.000
  0.000  0.300  0.000  0.000  0.000
  0.000  0.000  0.300  0.000  0.000
  0.000  0.000  0.000  0.300  0.000
  0.000  0.000  0.000  0.000  0.300
atom    4   Tr[ns(na)] =   3.00000
    eigenvalues:
  0.300  0.300  0.300  0.300  0.300
    eigenvectors:
  1.000  0.000  0.000  0.000  0.000
  0.000  1.000  0.000  0.000  0.000
  0.000  0.000  1.000  0.000  0.000
  0.000  0.000  0.000  1.000  0.000
  0.000  0.000  0.000  0.000  1.000
    occupations:
  0.300  0.000  0.000  0.000  0.000
  0.000  0.300  0.000  0.000  0.000
  0.000  0.000  0.300  0.000  0.000
  0.000  0.000  0.000  0.300  0.000
  0.000  0.000  0.000  0.000  0.300
atom    9   Tr[ns(na)] =   3.00000
    eigenvalues:
  0.300  0.300  0.300  0.300  0.300
    eigenvectors:
  1.000  0.000  0.000  0.000  0.000
  0.000  1.000  0.000  0.000  0.000
  0.000  0.000  1.000  0.000  0.000
  0.000  0.000  0.000  1.000  0.000
  0.000  0.000  0.000  0.000  1.000
    occupations:
  0.300  0.000  0.000  0.000  0.000
  0.000  0.300  0.000  0.000  0.000
  0.000  0.000  0.300  0.000  0.000
  0.000  0.000  0.000  0.300  0.000
  0.000  0.000  0.000  0.000  0.300
atom   10   Tr[ns(na)] =   3.00000
    eigenvalues:
  0.300  0.300  0.300  0.300  0.300
    eigenvectors:
  1.000  0.000  0.000  0.000  0.000
  0.000  1.000  0.000  0.000  0.000
  0.000  0.000  1.000  0.000  0.000
  0.000  0.000  0.000  1.000  0.000
  0.000  0.000  0.000  0.000  1.000
    occupations:
  0.300  0.000  0.000  0.000  0.000
  0.000  0.300  0.000  0.000  0.000
  0.000  0.000  0.300  0.000  0.000
  0.000  0.000  0.000  0.300  0.000
  0.000  0.000  0.000  0.000  0.300
atom   16   Tr[ns(na)] =   3.00000
    eigenvalues:
  0.300  0.300  0.300  0.300  0.300
    eigenvectors:
  1.000  0.000  0.000  0.000  0.000
  0.000  1.000  0.000  0.000  0.000
  0.000  0.000  1.000  0.000  0.000
  0.000  0.000  0.000  1.000  0.000
  0.000  0.000  0.000  0.000  1.000
    occupations:
  0.300  0.000  0.000  0.000  0.000
  0.000  0.300  0.000  0.000  0.000
  0.000  0.000  0.300  0.000  0.000
  0.000  0.000  0.000  0.300  0.000
  0.000  0.000  0.000  0.000  0.300
atom   17   Tr[ns(na)] =   3.00000
    eigenvalues:
  0.300  0.300  0.300  0.300  0.300
    eigenvectors:
  1.000  0.000  0.000  0.000  0.000
  0.000  1.000  0.000  0.000  0.000
  0.000  0.000  1.000  0.000  0.000
  0.000  0.000  0.000  1.000  0.000
  0.000  0.000  0.000  0.000  1.000
    occupations:
  0.300  0.000  0.000  0.000  0.000
  0.000  0.300  0.000  0.000  0.000
  0.000  0.000  0.300  0.000  0.000
  0.000  0.000  0.000  0.300  0.000
  0.000  0.000  0.000  0.000  0.300
atom   22   Tr[ns(na)] =   3.00000
    eigenvalues:
  0.300  0.300  0.300  0.300  0.300
    eigenvectors:
  1.000  0.000  0.000  0.000  0.000
  0.000  1.000  0.000  0.000  0.000
  0.000  0.000  1.000  0.000  0.000
  0.000  0.000  0.000  1.000  0.000
  0.000  0.000  0.000  0.000  1.000
    occupations:
  0.300  0.000  0.000  0.000  0.000
  0.000  0.300  0.000  0.000  0.000
  0.000  0.000  0.300  0.000  0.000
  0.000  0.000  0.000  0.300  0.000
[...]
  0.996  0.000  0.000  0.003  0.001
  0.000  1.000  0.000  0.000  0.000
  0.001  0.000  0.000  0.000  0.999
  0.000  0.000  1.000  0.000  0.000
    occupations:
  0.580  0.014 -0.000  0.000  0.000
  0.014  0.303  0.000 -0.015 -0.000
 -0.000  0.000  0.330  0.000  0.002
  0.000 -0.015  0.000  0.786  0.000
  0.000 -0.000  0.002  0.000  0.553
atom    9   Tr[ns(na)] =   5.25474
    eigenvalues:
  0.445  0.456  0.463  0.629  0.634
    eigenvectors:
  0.879  0.000  0.000  0.121  0.000
  0.000  0.000  0.000  0.000  1.000
  0.000  1.000  0.000  0.000  0.000
  0.121  0.000  0.000  0.879  0.000
  0.000  0.000  1.000  0.000  0.000
    occupations:
  0.467  0.000  0.000  0.060  0.000
  0.000  0.634  0.000  0.000 -0.000
  0.000  0.000  0.456 -0.000  0.000
  0.060  0.000 -0.000  0.607 -0.000
  0.000 -0.000  0.000 -0.000  0.463
atom   10   Tr[ns(na)] =   5.05212
    eigenvalues:
  0.321  0.424  0.487  0.513  0.781
    eigenvectors:
  0.000  0.000  0.998  0.000  0.002
  0.000  1.000  0.000  0.000  0.000
  1.000  0.000  0.000  0.000  0.000
  0.000  0.000  0.002  0.000  0.998
  0.000  0.000  0.000  1.000  0.000
    occupations:
  0.488  0.000 -0.000 -0.012  0.000
  0.000  0.424  0.000  0.000  0.000
 -0.000  0.000  0.321 -0.000 -0.000
 -0.012  0.000 -0.000  0.780 -0.000
  0.000  0.000 -0.000 -0.000  0.513
atom   16   Tr[ns(na)] =   5.06662
    eigenvalues:
  0.316  0.329  0.506  0.598  0.785
    eigenvectors:
  0.000  0.000  0.000  0.339  0.661
  0.000  0.000  1.000  0.000  0.000
  0.001  0.999  0.000  0.000  0.000
  0.000  0.000  0.000  0.661  0.339
  0.999  0.001  0.000  0.000  0.000
    occupations:
  0.721  0.000  0.001 -0.089  0.000
  0.000  0.506  0.000 -0.000  0.000
  0.001  0.000  0.329 -0.000 -0.000
 -0.089 -0.000 -0.000  0.661 -0.000
  0.000  0.000 -0.000 -0.000  0.316
atom   17   Tr[ns(na)] =   5.10618
    eigenvalues:
  0.302  0.330  0.553  0.581  0.786
    eigenvectors:
  0.003  0.000  0.000  0.997  0.000
  0.996  0.000  0.000  0.003  0.001
  0.000  1.000  0.000  0.000  0.000
  0.001  0.000  0.000  0.000  0.999
  0.000  0.000  1.000  0.000  0.000
    occupations:
  0.580  0.014 -0.000  0.000  0.000
  0.014  0.303  0.000 -0.015 -0.000
 -0.000  0.000  0.330 -0.000  0.002
  0.000 -0.015 -0.000  0.786  0.000
  0.000 -0.000  0.002  0.000  0.553
atom   22   Tr[ns(na)] =   5.25474
    eigenvalues:
  0.445  0.456  0.463  0.629  0.634
    eigenvectors:
  0.879  0.000  0.000  0.121  0.000
  0.000  0.000  0.000  0.000  1.000
  0.000  1.000  0.000  0.000  0.000
  0.121  0.000  0.000  0.879  0.000
  0.000  0.000  1.000  0.000  0.000
    occupations:
  0.467  0.000  0.000  0.060  0.000
  0.000  0.634  0.000  0.000 -0.000
  0.000  0.000  0.456 -0.000  0.000
  0.060  0.000 -0.000  0.607 -0.000
  0.000 -0.000  0.000 -0.000  0.463
atom   23   Tr[ns(na)] =   5.05186
    eigenvalues:
  0.321  0.424  0.487  0.513  0.781
    eigenvectors:
  0.000  0.000  0.998  0.000  0.002
  0.000  1.000  0.000  0.000  0.000
  1.000  0.000  0.000  0.000  0.000
  0.000  0.000  0.002  0.000  0.998
  0.000  0.000  0.000  1.000  0.000
    occupations:
  0.488  0.000 -0.000 -0.012  0.000
  0.000  0.424  0.000  0.000  0.000
 -0.000  0.000  0.321 -0.000 -0.000
 -0.012  0.000 -0.000  0.780 -0.000
  0.000  0.000 -0.000 -0.000  0.513
N of occupied +U levels =  40.9590819
 --- exit write_ns ---

     Threshold (ethr) on eigenvalues was too large:
     Diagonalizing with lowered threshold

     Davidson diagonalization with overlap
     ethr =  1.64E-09,  avg # of iterations =  2.7

[...]

     total energy              =   -1525.34250227 Ry
     Harris-Foulkes estimate   =   -1525.34250228 Ry
     estimated scf accuracy    <       0.00000002 Ry

     iteration #  7     ecut=    40.00 Ry     beta=0.70
     Davidson diagonalization with overlap
     ethr =  1.02E-11,  avg # of iterations =  2.0

     negative rho (up, down):  0.365E-02 0.000E+00

     End of self-consistent calculation
 --- enter write_ns ---
 LDA+U parameters:
U( 2)     =  7.00000000
alpha( 2) =  0.00000000
atom    3   Tr[ns(na)] =   5.06624
    eigenvalues:
  0.316  0.329  0.506  0.598  0.785
    eigenvectors:
  0.000  0.000  0.000  0.339  0.661
  0.000  0.000  1.000  0.000  0.000
  0.001  0.999  0.000  0.000  0.000
  0.000  0.000  0.000  0.661  0.339
  0.999  0.001  0.000  0.000  0.000
    occupations:
  0.721  0.000  0.001 -0.089 -0.000
  0.000  0.506 -0.000 -0.000  0.000
  0.001 -0.000  0.329 -0.000 -0.000
 -0.089 -0.000 -0.000  0.661  0.000
 -0.000  0.000 -0.000  0.000  0.316
atom    4   Tr[ns(na)] =   5.10627
    eigenvalues:
  0.302  0.330  0.553  0.581  0.786
    eigenvectors:
  0.003  0.000  0.000  0.997  0.000
  0.996  0.000  0.000  0.003  0.001
  0.000  1.000  0.000  0.000  0.000
  0.001  0.000  0.000  0.000  0.999
  0.000  0.000  1.000  0.000  0.000
    occupations:
  0.580  0.014 -0.000  0.000  0.000
  0.014  0.303  0.000 -0.016 -0.000
 -0.000  0.000  0.330  0.000  0.002
  0.000 -0.016  0.000  0.786  0.000
  0.000 -0.000  0.002  0.000  0.553
atom    9   Tr[ns(na)] =   5.25506
    eigenvalues:
  0.445  0.456  0.463  0.629  0.634
    eigenvectors:
  0.879  0.000  0.000  0.121  0.000
  0.000  0.000  0.000  0.000  1.000
  0.000  1.000  0.000  0.000  0.000
  0.121  0.000  0.000  0.879  0.000
  0.000  0.000  1.000  0.000  0.000
    occupations:
  0.468  0.000  0.000  0.060  0.000
  0.000  0.634  0.000  0.000 -0.000
  0.000  0.000  0.456 -0.000  0.000
  0.060  0.000 -0.000  0.607 -0.000
  0.000 -0.000  0.000 -0.000  0.463
atom   10   Tr[ns(na)] =   5.05200
    eigenvalues:
  0.321  0.424  0.487  0.513  0.781
    eigenvectors:
  0.000  0.000  0.998  0.000  0.002
  0.000  1.000  0.000  0.000  0.000
  1.000  0.000  0.000  0.000  0.000
  0.000  0.000  0.002  0.000  0.998
  0.000  0.000  0.000  1.000  0.000
    occupations:
  0.488  0.000 -0.000 -0.013  0.000
  0.000  0.424  0.000  0.000  0.000
 -0.000  0.000  0.321 -0.000 -0.000
 -0.013  0.000 -0.000  0.780 -0.000
  0.000  0.000 -0.000 -0.000  0.513
atom   16   Tr[ns(na)] =   5.06624
    eigenvalues:
  0.316  0.329  0.506  0.598  0.785
    eigenvectors:
  0.000  0.000  0.000  0.339  0.661
  0.000  0.000  1.000  0.000  0.000
  0.001  0.999  0.000  0.000  0.000
  0.000  0.000  0.000  0.661  0.339
  0.999  0.001  0.000  0.000  0.000
    occupations:
  0.721  0.000  0.001 -0.089  0.000
  0.000  0.506  0.000 -0.000  0.000
  0.001  0.000  0.329 -0.000 -0.000
 -0.089 -0.000 -0.000  0.661 -0.000
  0.000  0.000 -0.000 -0.000  0.316
atom   17   Tr[ns(na)] =   5.10627
    eigenvalues:
  0.302  0.330  0.553  0.581  0.786
    eigenvectors:
  0.003  0.000  0.000  0.997  0.000
  0.996  0.000  0.000  0.003  0.001
  0.000  1.000  0.000  0.000  0.000
  0.001  0.000  0.000  0.000  0.999
  0.000  0.000  1.000  0.000  0.000
    occupations:
  0.580  0.014 -0.000  0.000  0.000
  0.014  0.303  0.000 -0.016 -0.000
 -0.000  0.000  0.330 -0.000  0.002
  0.000 -0.016 -0.000  0.786  0.000
  0.000 -0.000  0.002  0.000  0.553
atom   22   Tr[ns(na)] =   5.25506
    eigenvalues:
  0.445  0.456  0.463  0.629  0.634
    eigenvectors:
  0.879  0.000  0.000  0.121  0.000
  0.000  0.000  0.000  0.000  1.000
  0.000  1.000  0.000  0.000  0.000
  0.121  0.000  0.000  0.879  0.000
  0.000  0.000  1.000  0.000  0.000
    occupations:
  0.468  0.000  0.000  0.060  0.000
  0.000  0.634  0.000  0.000 -0.000
  0.000  0.000  0.456 -0.000  0.000
  0.060  0.000 -0.000  0.607 -0.000
  0.000 -0.000  0.000 -0.000  0.463
atom   23   Tr[ns(na)] =   5.05204
    eigenvalues:
  0.321  0.424  0.487  0.513  0.781
    eigenvectors:
  0.000  0.000  0.998  0.000  0.002
  0.000  1.000  0.000  0.000  0.000
  1.000  0.000  0.000  0.000  0.000
  0.000  0.000  0.002  0.000  0.998
  0.000  0.000  0.000  1.000  0.000
    occupations:
  0.488  0.000 -0.000 -0.013  0.000
  0.000  0.424  0.000  0.000  0.000
 -0.000  0.000  0.321 -0.000 -0.000
 -0.013  0.000 -0.000  0.780 -0.000
  0.000  0.000 -0.000 -0.000  0.513
N of occupied +U levels =  40.9592009
 --- exit write_ns ---

[...]

          k = 0.2500-0.4237 0.0000 ( 32188 PWs)   bands (ev):

[...]

          k =-0.2500 0.2118 0.0000 ( 32165 PWs)   bands (ev):

   -56.4434 -56.3734 -56.1077 -56.0477 -55.7098 -55.6494 -55.5874 -55.5260
   -33.1888 -32.6552 -32.5323 -32.5217 -32.4713 -32.4690 -32.4574 -32.4444
   -32.4292 -32.4282 -32.3235 -32.0972 -32.0482 -31.9824 -31.9097 -31.8698
   -31.8345 -31.8223 -31.5973 -31.4694 -31.4392 -31.3167 -31.2868 -31.2816
   -20.4740 -20.3143 -19.2830 -19.2452 -18.9627 -18.8863 -18.7931 -18.7785
   -18.7526 -18.7262 -18.6640 -18.6004 -18.0398 -17.9773 -17.9610 -17.9102
   -17.8256 -17.7768  -9.2292  -8.6656  -7.2869  -7.2468  -7.2386  -6.8571
    -6.5913  -6.5608  -6.4509  -6.3679  -6.3010  -6.2139  -6.1654  -5.9320
    -5.8519  -5.7934  -5.4885  -5.4490  -5.3855  -5.2219  -5.0413  -4.9600
    -4.8419  -4.7949  -4.6778  -4.4672  -4.4043  -4.2551  -4.2209  -4.1566
    -4.0817  -4.0746  -3.9083  -3.8803  -3.8756  -3.7786  -3.6502  -3.6464
    -3.4797  -3.4511  -3.4101  -3.2823  -3.2556  -3.1683  -3.1182  -3.1052
    -3.0122  -2.9757  -2.7762  -2.6728  -2.5906  -2.4939  -2.3087  -2.1037
    -1.6539  -0.6242  -0.2677   1.0688   1.3716   1.6292   1.6842   1.7588
     1.8341   1.9336   2.1509   2.2344   2.3175   2.4767   2.5361   2.5879
     2.6839   2.7176   2.9486   2.9901   3.1011   3.1525   3.1909   3.2212
     3.3430   3.5064   3.8652   4.2525   4.4056   4.5159   4.6354   4.6861
     4.7839   4.8621   4.9109   5.1187   5.1657   5.2021   5.2953   5.5638
     5.7292   5.8260   5.9007   5.9645   6.1550   6.2516   6.3596   6.4180
     6.4474   6.4795   6.6124   6.7339   6.8975   6.9041   7.1749   7.2283
     7.2479   7.5899   7.6930   7.8016   7.8991   7.9770   8.1332   8.1503
     8.2365   8.3522   8.4525   8.6612   8.7318   8.8819   9.0099   9.0847
     9.0995   9.2202   9.3374   9.4315   9.5804   9.5950   9.7050   9.7473
     9.8837   9.9886  10.0044  10.2018  10.2356  10.3656  10.4484  10.6198
    10.6970  10.7708  10.9619  10.9814  11.0208  11.0832  11.1712  11.2035
    11.2653  11.4165  11.4542  11.4641  11.5590  11.5786  11.7427  11.9004
    11.9290  12.0450  12.1307  12.1751  12.2494  12.2716  12.4410  12.4936
    12.6383  12.6727  12.7471  12.7563  12.8699  12.8774  12.9355  12.9896
    13.0266  13.1033  13.2070  13.2546  13.3248  13.4422  13.4984  13.5086
    13.5747  13.7121  13.7673  13.8777  13.9371  13.9538  13.9896  14.0911
    14.1203  14.3042  14.3472  14.4036  14.4512  14.5745  14.6169  14.8606
    14.9061  14.9237  15.0287  15.1431  15.1956  15.2517  15.2867  15.3765
    15.3918  15.4091  15.5060  15.5384  15.6183  15.7290  15.8020  15.8193
    15.8578  15.9039  16.0301  16.0353  16.0677  16.2715  16.2791  16.3951
    16.4762  16.5868  16.6183  16.6422  16.7338  16.7735  16.7929  16.9025
    16.9940  17.0048  17.0654  17.2670  17.2870  17.3016  17.3938  17.4385
    17.5163  17.5571  17.6291  17.7115  17.7392  17.8495  17.8703  17.9985
    18.0323  18.0450  18.1064  18.2581  18.3555  18.4422  18.5077  18.6139
    18.6621  18.7452  18.7568  18.8136  18.8705  18.9303  18.9379  19.0501
    19.1288  19.1987  19.2928  19.2982  19.3555  19.4003  19.4116  19.5136
    19.5342  19.6001  19.6505  19.7141

     the Fermi energy is     1.0137 ev

!    total energy              =   -1525.34250228 Ry
     Harris-Foulkes estimate   =   -1525.34250228 Ry
     estimated scf accuracy    <          4.0E-09 Ry

     The total energy is the sum of the following terms:

     one-electron contribution =  -18177.20012649 Ry
     hartree contribution      =    9115.41851474 Ry
     xc contribution           =    -279.78805345 Ry
     ewald contribution        =    7811.56713010 Ry
     Hubbard energy            =       4.66039635 Ry
     smearing contrib. (-TS)   =      -0.00036353 Ry

     convergence has been achieved in   7 iterations

     Forces acting on atoms (Ry/au):

     negative rho (up, down):  0.365E-02 0.000E+00
     atom    1 type  1   force =    -0.00004734   -0.00033743   -0.00021246
     atom    2 type  1   force =    -0.00005484    0.00030224    0.00063366
     atom    3 type  2   force =     0.00017011   -0.00013568    0.00062536
     atom    4 type  2   force =    -0.00062896    0.00010851   -0.00005992
     atom    5 type  1   force =     0.00027493   -0.05115044   -0.00014711
     atom    6 type  1   force =     0.00028980    0.05112414   -0.00013849
     atom    7 type  1   force =    -0.00015047    0.00000188   -0.00051772
     atom    8 type  1   force =     0.00034892    0.00000439   -0.00047683
     atom    9 type  2   force =     0.00005571   -0.00000473   -0.00015645
     atom   10 type  2   force =     0.00001372   -0.00001053   -0.00009644
     atom   11 type  1   force =    -0.00000958   -0.02519651    0.00015942
     atom   12 type  1   force =    -0.00000928    0.02520157    0.00016166
     atom   13 type  1   force =     0.00006244    0.00000185    0.00060995
     atom   14 type  1   force =    -0.00005107   -0.00032180   -0.00021347
     atom   15 type  1   force =    -0.00005549    0.00029018    0.00047264
     atom   16 type  2   force =     0.00018709   -0.00013762    0.00062533
     atom   17 type  2   force =    -0.00062932    0.00010494   -0.00005789
     atom   18 type  1   force =     0.00028539   -0.05115023   -0.00014739
     atom   19 type  1   force =     0.00028563    0.05112393   -0.00013808
     atom   20 type  1   force =    -0.00015027   -0.00001166   -0.00052281
     atom   21 type  1   force =     0.00034909    0.00000425   -0.00047499
     atom   22 type  2   force =     0.00004791   -0.00000463   -0.00015645
     atom   23 type  2   force =     0.00001366   -0.00001201   -0.00008892
     atom   24 type  1   force =     0.00000003   -0.02519645    0.00015944
     atom   25 type  1   force =    -0.00000018    0.02520159    0.00016169
     atom   26 type  1   force =     0.00006247    0.00000170    0.00060630
     atom   27 type  3   force =     0.00000321   -0.00009742    0.00008028
     atom   28 type  3   force =     0.00000356   -0.00011313    0.00022952
     atom   29 type  3   force =    -0.00033484    0.00020584   -0.00045951
     atom   30 type  3   force =    -0.00033203    0.00020326   -0.00046033

     Total force =     0.002074     Total SCF correction =     0.000074

     bfgs converged in  14 scf cycles and  13 bfgs steps
     (criteria: energy < 0.10E-03, force < 0.10E-02)

     End of BFGS Geometry Optimization

     Final energy   =   -1525.3425022759 Ry
Begin final coordinates

ATOMIC_POSITIONS (crystal)
O0       0.000000000   0.000000000   0.372706133    0   0   1
O0       0.000000000   0.500000000   0.384472782    0   0   1
Nb1      0.250000000   0.500000000   0.439862176    0   0   1
Nb1      0.000000000   0.000000000   0.445993918    0   0   1
O0       0.250000000   0.790000000   0.448175071    0   0   1
O0       0.250000000   0.210000000   0.448164972    0   0   1
O0       0.000000000   0.500000000   0.497712795    0   0   1
O0       0.000000000   0.000000000   0.528173360    0   0   1
Nb1      0.250000000   0.000000000   0.581360618    0   0   1
Nb1      0.000000000   0.500000000   0.567536252    0   0   1
O0       0.250000000   0.710000000   0.582618988    0   0   1
O0       0.250000000   0.290000000   0.582618990    0   0   1
O0       0.000000000   0.000000000   0.625994895    0   0   1
O0       0.500000000   0.000000000   0.372706208    0   0   1
O0       0.500000000   0.500000000   0.384474434    0   0   1
Nb1      0.750000000   0.500000000   0.439862164    0   0   1
Nb1      0.500000000   0.000000000   0.445993883    0   0   1
O0       0.750000000   0.790000000   0.448174662    0   0   1
O0       0.750000000   0.210000000   0.448165030    0   0   1
O0       0.500000000   0.500000000   0.497712481    0   0   1
O0       0.500000000   0.000000000   0.528173160    0   0   1
Nb1      0.750000000   0.000000000   0.581360620    0   0   1
Nb1      0.500000000   0.500000000   0.567535708    0   0   1
O0       0.750000000   0.710000000   0.582618972    0   0   1
O0       0.750000000   0.290000000   0.582618992    0   0   1
O0       0.500000000   0.000000000   0.625995243    0   0   1
H2      -0.000393457   0.502596526   0.348323019
H2       0.499606575   0.502327926   0.348320702
H2       0.153685308  -0.000393963   0.358531967
H2       0.653684483  -0.000404173   0.358531807
End final coordinates

     General routines

     Parallel routines
     Hubbard U routines

   This run was terminated on:  14:47: 2   9May2014

   JOB DONE.
Running PBS batch system epilogue script
Job id: 340856.audhumbla.fysik.dtu.dk
Username: zhonxu
Groupname: campgst
Jobname: NbO2/Eads-2-layers/bare-U-7.0
Sessionid: 20953
Queuename: verylong
Accounting:
This job has allocated the following 16 nodes:
a048 a048 a048 a048 a048 a048 a048 a048 a043 a043 a043 a043 a043 a043 a043 a043
Finished epilogue job 340856.audhumbla.fysik.dtu.dk for zhonxu