     Program PWSCF v.5.0.2 (svn rev. 9656) starts on 10May2014 at  1: 6:14

     Current dimensions of program PWSCF are:
     Max number of different atomic species (ntypx) = 10
     Max number of k-points (npk) =  40000
     Max angular momentum in pseudopotentials (lmaxx) =  3
     Reading input from pwscf.in
Warning: card &CELL ignored
Warning: card / ignored

     Subspace diagonalization in iterative solution of the eigenvalue problem:
     a serial algorithm will be used

     bravais-lattice index     =            0
     lattice parameter (alat)  =      12.0187  a.u.
     unit-cell volume          =    7280.5819 (a.u.)^3
     number of atoms/cell      =           32
     number of atomic types    =            3
     number of electrons       =       239.00
     number of Kohn-Sham states=          358
     kinetic-energy cutoff     =      40.0000  Ry
     charge density cutoff     =     500.0000  Ry
     convergence threshold     =      1.0E-06
     mixing beta               =       0.7000
     number of iterations used =            8  plain     mixing
     Exchange-correlation      = SLA  PW   PBE  PBE ( 1 4 3 4 0)
     EXX-fraction              =        0.00
     nstep                     =           50

     celldm(1)=  12.018658  celldm(2)=   0.000000  celldm(3)=   0.000000
     celldm(4)=   0.000000  celldm(5)=   0.000000  celldm(6)=   0.000000

     crystal axes: (cart. coord. in units of alat)
               a(1) = (   1.000000   0.000000   0.000000 )
               a(2) = (   0.000000   1.009517   0.000000 )
               a(3) = (   0.000000   0.000000   4.154171 )

     reciprocal axes: (cart. coord. in units 2 pi/alat)
               b(1) = (  1.000000  0.000000  0.000000 )
               b(2) = (  0.000000  0.990572  0.000000 )
               b(3) = (  0.000000  0.000000  0.240722 )

     PseudoPot. # 1 for O  read from file:
     /home/camp/zhonxu/pseudo/o_pbe_v1.01.uspp.F.UPF
     MD5 check sum: 2bcb18d16ea4b960afae9ec6d52f22d2
     Pseudo is Ultrasoft + core correction, Zval =  6.0
     Generated by new atomic code, or converted to UPF format
     Using radial grid of  737 points,  5 beta functions with:
                l(1) =   0
                l(2) =   0
                l(3) =   1
                l(4) =   1
                l(5) =   2
     Q(r) pseudized with  8 coefficients,  rinner =    0.900   0.900   0.900
                                                       0.900   0.900

     PseudoPot. # 2 for Ir read from file:
     /home/camp/zhonxu/pseudo/ir_pbe_v1.uspp.F.UPF
     MD5 check sum: abf987a9674477536ede83817f8f8b70
     Pseudo is Ultrasoft + core correction, Zval = 15.0
     Generated by new atomic code, or converted to UPF format
     Using radial grid of  983 points,  7 beta functions with:
                l(1) =   0
                l(2) =   0
                l(3) =   1
                l(4) =   1
                l(5) =   1
                l(6) =   2
                l(7) =   2
     Q(r) pseudized with  8 coefficients,  rinner =    1.350   1.350   1.350
                                                       1.350   1.350

     PseudoPot. # 3 for H  read from file:
     /home/camp/zhonxu/pseudo/h_pbe_v1.uspp.F.UPF
     MD5 check sum: 3408e3ff4ec8b0a4e358431e7e038a48
     Pseudo is Ultrasoft, Zval =  1.0
     Generated by new atomic code, or converted to UPF format
     Using radial grid of  615 points,  2 beta functions with:
                l(1) =   0
                l(2) =   0
     Q(r) pseudized with  8 coefficients,  rinner =    0.700

     atomic species   valence    mass     pseudopotential
        O0             6.00    15.99940     O ( 1.00)
        Ir1           15.00   192.22000     Ir( 1.00)
        H2             1.00     1.00794     H ( 1.00)

     Simplified LDA+U calculation (l_max = 2) with parameters (eV):
     atomic species    L          U    alpha       J0     beta
        Ir1            2     0.0000   0.0000   0.0000   0.0000

     No symmetry found

   Cartesian axes

     site n.     atom                  positions (alat units)
         1           O0  tau(   1) = (   0.0000000   0.0000000   1.5715230  )
         2           O0  tau(   2) = (   0.0000000   0.5047586   1.6723863  )
         3           Ir1 tau(   3) = (   0.2500000   0.5047586   1.8804272  )
         4           Ir1 tau(   4) = (   0.0000000   0.0000000   1.8823796  )
         5           O0  tau(   5) = (   0.2500000   0.8177090   1.8809672  )
         6           O0  tau(   6) = (   0.2500000   0.1918083   1.8797625  )
         7           O0  tau(   7) = (   0.0000000   0.5047586   2.0697743  )
         8           O0  tau(   8) = (   0.0000000   0.0000000   2.1967673  )
         9           Ir1 tau(   9) = (   0.2500000   0.0000000   2.3926365  )
        10           Ir1 tau(  10) = (   0.0000000   0.5047586   2.3747736  )
        11           O0  tau(  11) = (   0.2500000   0.6965669   2.3923873  )
        12           O0  tau(  12) = (   0.2500000   0.3129503   2.3927196  )
        13           O0  tau(  13) = (   0.0000000   0.0000000   2.5779541  )
        14           O0  tau(  14) = (   0.5000000   0.0000000   1.5704845  )
        15           O0  tau(  15) = (   0.5000000   0.5047586   1.6698107  )
        16           Ir1 tau(  16) = (   0.7500000   0.5047586   1.8805103  )
        17           Ir1 tau(  17) = (   0.5000000   0.0000000   1.8817565  )
        18           O0  tau(  18) = (   0.7500000   0.8177090   1.8810503  )
        19           O0  tau(  19) = (   0.7500000   0.1918083   1.8797625  )
        20           O0  tau(  20) = (   0.5000000   0.5047586   2.0748424  )
        21           O0  tau(  21) = (   0.5000000   0.0000000   2.1964350  )
        22           Ir1 tau(  22) = (   0.7500000   0.0000000   2.3925119  )
        23           Ir1 tau(  23) = (   0.5000000   0.5047586   2.3910995  )
        24           O0  tau(  24) = (   0.7500000   0.6965669   2.3896040  )
        25           O0  tau(  25) = (   0.7500000   0.3129503   2.3900194  )
        26           O0  tau(  26) = (   0.5000000   0.0000000   2.5760847  )
        27           H2  tau(  27) = (  -0.0000400   0.6399431   1.5942048  )
        28           H2  tau(  28) = (   0.5000100   0.6429817   1.5968219  )
        29           H2  tau(  29) = (   0.1437000   0.0339904   1.5235839  )
        30           H2  tau(  30) = (   0.6431700   0.0357369   1.5224622  )
        31           O0  tau(  31) = (   0.5156900   0.5047586   2.6944786  )
        32           H2  tau(  32) = (   0.3744100   0.5050918   2.7575805  )

     number of k points=    10  Methfessel-Paxton smearing, width (Ry)=  0.0100
                       cart. coord. in units 2pi/alat
        k(    1) = (   0.0000000   0.0000000   0.0000000), wk =   0.1250000
        k(    2) = (   0.0000000   0.2476431   0.0000000), wk =   0.2500000
        k(    3) = (   0.0000000  -0.4952862   0.0000000), wk =   0.1250000
        k(    4) = (   0.2500000   0.0000000   0.0000000), wk =   0.2500000
        k(    5) = (   0.2500000   0.2476431   0.0000000), wk =   0.2500000
        k(    6) = (   0.2500000  -0.4952862   0.0000000), wk =   0.2500000
        k(    7) = (  -0.5000000   0.0000000   0.0000000), wk =   0.1250000
        k(    8) = (  -0.5000000   0.2476431   0.0000000), wk =   0.2500000
        k(    9) = (  -0.5000000  -0.4952862   0.0000000), wk =   0.1250000
        k(   10) = (  -0.2500000   0.2476431   0.0000000), wk =   0.2500000

     Largest allocated arrays     est. size (Mb)     dimensions
     Largest temporary arrays     est. size (Mb)     dimensions

     Check: negative/imaginary core charge=   -0.000003    0.000000

     Initial potential from superposition of free atoms
     Check: negative starting charge=   -3.334647

     starting charge  234.99967, renormalised to  239.00000

     negative rho (up, down):  0.339E+01 0.000E+00
     Number of +U iterations with fixed ns =  0
     Starting occupations:
 --- enter write_ns ---
 LDA+U parameters:
U( 2)     =  0.00000000
alpha( 2) =  0.00000000
atom    3   Tr[ns(na)] =   7.00000
    eigenvalues:
  0.700  0.700  0.700  0.700  0.700
    eigenvectors:
  1.000  0.000  0.000  0.000  0.000
  0.000  1.000  0.000  0.000  0.000
  0.000  0.000  1.000  0.000  0.000
  0.000  0.000  0.000  1.000  0.000
  0.000  0.000  0.000  0.000  1.000
    occupations:
  0.700  0.000  0.000  0.000  0.000
  0.000  0.700  0.000  0.000  0.000
  0.000  0.000  0.700  0.000  0.000
  0.000  0.000  0.000  0.700  0.000
  0.000  0.000  0.000  0.000  0.700
atom    4   Tr[ns(na)] =   7.00000
    eigenvalues:
  0.700  0.700  0.700  0.700  0.700
    eigenvectors:
  1.000  0.000  0.000  0.000  0.000
  0.000  1.000  0.000  0.000  0.000
  0.000  0.000  1.000  0.000  0.000
  0.000  0.000  0.000  1.000  0.000
  0.000  0.000  0.000  0.000  1.000
    occupations:
  0.700  0.000  0.000  0.000  0.000
  0.000  0.700  0.000  0.000  0.000
  0.000  0.000  0.700  0.000  0.000
  0.000  0.000  0.000  0.700  0.000
  0.000  0.000  0.000  0.000  0.700
atom    9   Tr[ns(na)] =   7.00000
    eigenvalues:
  0.700  0.700  0.700  0.700  0.700
    eigenvectors:
  1.000  0.000  0.000  0.000  0.000
  0.000  1.000  0.000  0.000  0.000
  0.000  0.000  1.000  0.000  0.000
  0.000  0.000  0.000  1.000  0.000
  0.000  0.000  0.000  0.000  1.000
    occupations:
  0.700  0.000  0.000  0.000  0.000
  0.000  0.700  0.000  0.000  0.000
  0.000  0.000  0.700  0.000  0.000
  0.000  0.000  0.000  0.700  0.000
  0.000  0.000  0.000  0.000  0.700
atom   10   Tr[ns(na)] =   7.00000
    eigenvalues:
  0.700  0.700  0.700  0.700  0.700
    eigenvectors:
  1.000  0.000  0.000  0.000  0.000
  0.000  1.000  0.000  0.000  0.000
  0.000  0.000  1.000  0.000  0.000
  0.000  0.000  0.000  1.000  0.000
  0.000  0.000  0.000  0.000  1.000
    occupations:
  0.700  0.000  0.000  0.000  0.000
  0.000  0.700  0.000  0.000  0.000
  0.000  0.000  0.700  0.000  0.000
  0.000  0.000  0.000  0.700  0.000
  0.000  0.000  0.000  0.000  0.700
atom   16   Tr[ns(na)] =   7.00000
    eigenvalues:
  0.700  0.700  0.700  0.700  0.700
    eigenvectors:
  1.000  0.000  0.000  0.000  0.000
  0.000  1.000  0.000  0.000  0.000
  0.000  0.000  1.000  0.000  0.000
  0.000  0.000  0.000  1.000  0.000
  0.000  0.000  0.000  0.000  1.000
    occupations:
  0.700  0.000  0.000  0.000  0.000
  0.000  0.700  0.000  0.000  0.000
  0.000  0.000  0.700  0.000  0.000
  0.000  0.000  0.000  0.700  0.000
  0.000  0.000  0.000  0.000  0.700
atom   17   Tr[ns(na)] =   7.00000
    eigenvalues:
  0.700  0.700  0.700  0.700  0.700
    eigenvectors:
  1.000  0.000  0.000  0.000  0.000
  0.000  1.000  0.000  0.000  0.000
  0.000  0.000  1.000  0.000  0.000
  0.000  0.000  0.000  1.000  0.000
  0.000  0.000  0.000  0.000  1.000
    occupations:
  0.700  0.000  0.000  0.000  0.000
  0.000  0.700  0.000  0.000  0.000
  0.000  0.000  0.700  0.000  0.000
  0.000  0.000  0.000  0.700  0.000
  0.000  0.000  0.000  0.000  0.700
atom   22   Tr[ns(na)] =   7.00000
    eigenvalues:
  0.700  0.700  0.700  0.700  0.700
    eigenvectors:
  1.000  0.000  0.000  0.000  0.000
  0.000  1.000  0.000  0.000  0.000
  0.000  0.000  1.000  0.000  0.000
  0.000  0.000  0.000  1.000  0.000
[...]

     negative rho (up, down):  0.312E+01 0.000E+00

     End of self-consistent calculation
 --- enter write_ns ---
 LDA+U parameters:
U( 2)     =  0.00000000
alpha( 2) =  0.00000000
atom    3   Tr[ns(na)] =   8.04560
    eigenvalues:
  0.605  0.632  0.869  0.948  0.969
    eigenvectors:
  0.002  0.186  0.003  0.001  0.809
  0.993  0.006  0.000  0.000  0.000
  0.000  0.000  0.978  0.020  0.002
  0.005  0.808  0.000  0.000  0.187
  0.000  0.000  0.019  0.979  0.001
    occupations:
  0.906 -0.005  0.004 -0.132 -0.002
 -0.005  0.605 -0.001 -0.000 -0.005
  0.004 -0.001  0.870 -0.004  0.011
 -0.132 -0.000 -0.004  0.695 -0.000
 -0.002 -0.005  0.011 -0.000  0.946
atom    4   Tr[ns(na)] =   8.01756
    eigenvalues:
  0.618  0.663  0.849  0.902  0.977
    eigenvectors:
  0.000  0.990  0.000  0.000  0.010
  0.000  0.000  0.032  0.968  0.000
  0.000  0.000  0.968  0.032  0.000
  0.000  0.010  0.000  0.000  0.990
  1.000  0.000  0.000  0.000  0.000
    occupations:
  0.666 -0.003 -0.001  0.031  0.001
 -0.003  0.900  0.009  0.000 -0.001
 -0.001  0.009  0.850 -0.000  0.000
  0.031  0.000 -0.000  0.974  0.000
  0.001 -0.001  0.000  0.000  0.618
atom    9   Tr[ns(na)] =   7.99379
    eigenvalues:
  0.650  0.664  0.833  0.877  0.974
    eigenvectors:
  0.000  0.143  0.000  0.000  0.857
  1.000  0.000  0.000  0.000  0.000
  0.000  0.000  0.999  0.001  0.000
  0.000  0.856  0.000  0.000  0.143
  0.000  0.000  0.001  0.999  0.000
    occupations:
  0.929 -0.000  0.000 -0.108 -0.001
 -0.000  0.650  0.000  0.000 -0.000
  0.000  0.000  0.833 -0.000 -0.001
 -0.108  0.000 -0.000  0.709  0.001
 -0.001 -0.000 -0.001  0.001  0.877
atom   10   Tr[ns(na)] =   8.00613
    eigenvalues:
  0.608  0.610  0.900  0.908  0.977
    eigenvectors:
  0.001  0.992  0.000  0.000  0.007
  0.000  0.000  1.000  0.000  0.000
  0.000  0.000  0.000  1.000  0.000
  0.000  0.007  0.000  0.000  0.993
  0.999  0.001  0.000  0.000  0.000
    occupations:
  0.612 -0.003  0.001  0.031 -0.000
 -0.003  0.900 -0.000 -0.000 -0.000
  0.001 -0.000  0.908  0.000  0.001
  0.031 -0.000  0.000  0.975  0.000
 -0.000 -0.000  0.001  0.000  0.608
atom   16   Tr[ns(na)] =   8.04495
    eigenvalues:
  0.606  0.632  0.868  0.948  0.969
    eigenvectors:
  0.002  0.186  0.003  0.001  0.808
  0.992  0.008  0.000  0.000  0.000
  0.000  0.000  0.981  0.016  0.002
  0.006  0.806  0.000  0.000  0.187
  0.000  0.000  0.016  0.982  0.002
    occupations:
  0.905  0.005  0.004 -0.132  0.002
  0.005  0.606  0.001  0.000 -0.005
  0.004  0.001  0.870 -0.004 -0.010
 -0.132  0.000 -0.004  0.695 -0.000
  0.002 -0.005 -0.010 -0.000  0.946
atom   17   Tr[ns(na)] =   8.01696
    eigenvalues:
  0.617  0.662  0.854  0.898  0.977
    eigenvectors:
  0.000  0.990  0.000  0.000  0.009
  0.000  0.000  0.055  0.945  0.000
  0.000  0.000  0.945  0.055  0.000
  0.000  0.009  0.000  0.000  0.991
  1.000  0.000  0.000  0.000  0.000
    occupations:
  0.665 -0.003 -0.001  0.030  0.001
 -0.003  0.895  0.010  0.000 -0.001
 -0.001  0.010  0.856 -0.000  0.000
  0.030  0.000 -0.000  0.974  0.000
  0.001 -0.001  0.000  0.000  0.617
atom   22   Tr[ns(na)] =   7.98847
    eigenvalues:
  0.650  0.665  0.827  0.879  0.973
    eigenvectors:
  0.000  0.142  0.000  0.000  0.858
  1.000  0.000  0.000  0.000  0.000
  0.000  0.000  1.000  0.000  0.000
  0.000  0.858  0.000  0.000  0.142
  0.000  0.000  0.000  1.000  0.000
    occupations:
  0.930  0.001 -0.000 -0.108 -0.000
  0.001  0.650  0.000 -0.000 -0.000
 -0.000  0.000  0.827 -0.000  0.001
 -0.108 -0.000 -0.000  0.709  0.000
 -0.000 -0.000  0.001  0.000  0.879
atom   23   Tr[ns(na)] =   8.00032
    eigenvalues:
  0.620  0.666  0.831  0.906  0.976
    eigenvectors:
  0.000  0.990  0.000  0.000  0.010
  0.000  0.000  0.000  1.000  0.000
  0.000  0.000  1.000  0.000  0.000
  0.000  0.010  0.000  0.000  0.990
  1.000  0.000  0.000  0.000  0.000
    occupations:
  0.669  0.005  0.000  0.030 -0.000
  0.005  0.906 -0.000 -0.000 -0.000
  0.000 -0.000  0.831  0.000 -0.001
  0.030 -0.000  0.000  0.973  0.000
 -0.000 -0.000 -0.001  0.000  0.620
N of occupied +U levels =  64.1137739
 --- exit write_ns ---

          k = 0.0000 0.0000 0.0000 ( 31045 PWs)   bands (ev):

   -51.2288 -51.2252 -51.2130 -51.1614 -51.1219 -51.0771 -51.0652 -51.0446
   -51.0429 -51.0197 -50.9636 -50.9126 -50.9058 -50.8952 -50.8785 -50.8726
   -50.8615 -50.8529 -50.7693 -50.7511 -50.7322 -50.7319 -50.7052 -50.5572
   -21.6802 -21.2753 -21.0955 -21.0669 -20.5143 -20.3784 -20.3208 -20.2681
   -20.1902 -20.1463 -20.1441 -19.9311 -19.7521 -19.7195 -19.6804 -19.6220
   -19.4630 -18.5883 -18.4869 -10.2261 -10.2087  -9.8216  -8.9630  -8.7586
    -8.6706  -8.6571  -8.6519  -8.6316  -8.5939  -8.5708  -8.4586  -8.3203
    -8.2417  -8.1403  -8.0259  -7.9673  -7.8910  -7.8151  -7.5819  -7.2933
    -7.2107  -7.0522  -6.9618  -6.5862  -6.3499  -6.3360  -6.3061  -5.9374
    -5.7458  -5.6377  -5.5478  -5.4392  -5.4049  -5.2958  -5.2759  -5.2011
    -5.1069  -5.0129  -4.9295  -4.7593  -4.7550  -4.7459  -4.5274  -4.4588
    -4.3463  -4.2288  -4.1205  -3.9696  -3.9361  -3.8608  -3.8124  -3.5347
    -3.4309  -3.3502  -3.1047  -3.0626  -3.0546  -3.0189  -2.8816  -2.8772
    -2.5840  -2.5574  -2.5059  -2.4247  -2.3309  -2.2628  -2.1559  -1.9822
    -1.8102  -1.6317  -1.5792  -1.4700  -1.4263  -1.0920  -0.8376  -0.7354
    -0.6542  -0.4022  -0.3676  -0.0684   0.1942   0.8181   1.2831   1.4171
     1.4613   1.4874   1.6320   2.0462   2.3268   2.5963   2.7548   3.0490
     3.2028   3.3632   3.3723   3.5512   3.7915   4.1723   4.3956   4.8750
     4.9753   5.7896   5.9708   6.2654   6.3229   6.9061   6.9351   6.9806
     7.2582   7.5549   7.7021   7.7509   7.7818   7.9061   7.9958   8.0278
     8.0385   8.1064   8.1745   8.2727   8.3092   8.3469   8.3962   8.4442
     8.4934   8.6122   8.6437   8.7046   8.7151   8.8332   8.8562   8.8569
     8.8728   8.8832   8.9964   9.0010   9.0070   9.0244   9.0491   9.2019
     9.2633   9.3595   9.4041   9.4544   9.6174   9.6808   9.8507  10.0335
    10.0771  10.2120  10.2732  10.3689  10.5155  10.5670  10.6736  10.8533
    10.8899  10.9912  11.0092  11.0612  11.1259  11.1844  11.2305  11.2815
    11.4199  11.4303  11.6108  11.7378  11.7584  11.8083  11.8195  11.8678
    11.9540  12.0476  12.0797  12.1286  12.1906  12.2559  12.2660  12.3883
    12.4606  12.4835  12.5203  12.6162  12.6442  12.7544  12.8178  12.8448
    12.8851  13.0519  13.2290  13.2600  13.3718  13.4324  13.6084  13.7021
    13.7728  13.8350  13.9617  14.0388  14.0469  14.1950  14.2496  14.3048
    14.4366  14.5063  14.5931  14.6475  14.7745  14.8881  15.1014  15.1247
    15.2223  15.3604  15.4096  15.4901  15.6298  15.6999  15.7085  15.7813
    15.8502  15.9732  16.0322  16.0694  16.0963  16.2631  16.2992  16.5053
    16.6357  16.7544  16.8111  16.8824  16.9500  17.1437  17.2228  17.2922
    17.3280  17.3455  17.4613  17.5697  17.6238  17.7583  17.8101  17.8402
    17.9244  17.9681  18.0279  18.1601  18.2295  18.3874  18.5016  18.5840
    18.6479  18.6996  18.7453  18.7952  18.8716  18.9470  18.9587  19.0556
    19.1347  19.1546  19.2270  19.2419  19.2740  19.3036  19.3391  19.4603
    19.5764  19.6327  19.6649  19.7213  19.7681  19.7971  19.8237  19.8877
    19.9397  20.0399  20.0789  20.1539  20.1886  20.2279  20.4264  20.4384
    20.5158  20.5478  20.5960  20.6382  20.6809  20.7626  20.8246  20.8924
    20.9699  21.0408  21.0911  21.2376  21.2596  21.2820  21.4284  21.5764
    21.6011  21.6467  21.7134  21.7960  21.8139  21.8780  21.9141  21.9429
    22.0028  22.1402  22.1552  22.1629  22.1994  22.2370

[...]

          k = 0.2500-0.4953 0.0000 ( 31088 PWs)   bands (ev):

[...]

          k =-0.5000 0.0000 0.0000 ( 31104 PWs)   bands (ev):

[...]

          k =-0.2500 0.2476 0.0000 ( 31099 PWs)   bands (ev):

   -51.2282 -51.2252 -51.2140 -51.1554 -51.1080 -51.0760 -51.0540 -51.0452
   -51.0414 -51.0330 -50.9785 -50.9087 -50.9080 -50.8973 -50.8803 -50.8726
   -50.8577 -50.8461 -50.7820 -50.7491 -50.7353 -50.7312 -50.7062 -50.5574
   -21.5039 -21.1171 -21.0597 -20.9332 -20.6267 -20.4664 -20.4389 -20.2727
   -20.1762 -20.1426 -20.0764 -19.9130 -19.8889 -19.8407 -19.7371 -19.6696
   -19.4933 -18.6324 -18.5410  -9.7218  -9.5779  -9.5248  -9.1903  -8.8692
    -8.7507  -8.6669  -8.6020  -8.5304  -8.4896  -8.4470  -8.3936  -8.3424
    -8.2864  -7.9572  -7.8998  -7.7955  -7.6540  -7.5110  -7.4181  -7.2928
    -7.0992  -7.0534  -6.9838  -6.5847  -6.4064  -6.3375  -6.2373  -6.1496
    -6.1041  -6.0681  -5.9855  -5.9155  -5.8744  -5.7708  -5.6736  -5.5605
    -5.4528  -5.3559  -5.2001  -4.9879  -4.9072  -4.8101  -4.6649  -4.6323
    -4.4730  -4.4213  -4.2159  -4.1165  -4.0792  -3.9103  -3.7260  -3.6238
    -3.3519  -3.2739  -3.2399  -3.0336  -2.6256  -2.5285  -2.4607  -2.4061
    -2.3367  -2.2967  -2.2563  -2.1735  -2.1321  -2.0962  -2.0497  -1.9169
    -1.8856  -1.6980  -1.5247  -1.3783  -1.0759  -0.9584  -0.7860  -0.7673
    -0.6871  -0.5016  -0.3849  -0.2160  -0.0217   0.9131   0.9564   1.2020
     1.6152   1.6905   2.1127   2.2089   2.6035   2.6592   2.7873   2.8523
     3.0906   3.2544   3.2970   3.6519   3.7879   4.3015   4.8659   5.2903
     5.4492   5.5940   5.7016   6.0348   6.2908   6.5688   6.6557   6.7006
     6.7667   6.9508   7.1633   7.2370   7.3470   7.4105   7.5365   7.6785
     7.9133   8.0317   8.0675   8.1382   8.2538   8.4466   8.5003   8.5353
     8.7141   8.7470   8.8240   8.8341   8.8566   8.8573   8.8734   8.9013
     8.9534   8.9975   9.0017   9.0069   9.0452   9.1455   9.1902   9.4030
     9.5214   9.5788   9.6756   9.7352   9.8089   9.8937  10.0541  10.1318
    10.2165  10.3118  10.3741  10.4590  10.4830  10.5211  10.6023  10.8112
    10.8583  10.9774  10.9954  11.0614  11.1292  11.2309  11.3923  11.5240
    11.5641  11.6743  11.6956  11.7735  11.8186  11.9735  12.1516  12.1925
    12.2434  12.2859  12.3554  12.4292  12.5434  12.6220  12.6455  12.7224
    12.7646  12.8036  12.9084  12.9820  13.0527  13.1033  13.1740  13.1970
    13.2936  13.4046  13.4287  13.5852  13.6311  13.7637  13.8566  13.9125
    13.9750  14.0408  14.1240  14.2018  14.2938  14.3835  14.4432  14.5302
    14.6795  14.7240  14.7695  14.8992  14.9888  15.1402  15.2105  15.2900
    15.3955  15.4206  15.5073  15.5445  15.6088  15.7655  15.8079  15.8540
    15.9059  15.9609  15.9836  16.0812  16.1269  16.1552  16.2133  16.2886
    16.3649  16.4022  16.4198  16.4879  16.5332  16.6306  16.6985  16.7538
    16.7990  16.8939  17.0954  17.1334  17.1679  17.2971  17.3198  17.4064
    17.4733  17.5373  17.5525  17.6186  17.6756  17.7246  17.7557  17.8544
    17.9171  17.9705  18.0188  18.1303  18.2044  18.2534  18.3067  18.3672
    18.4737  18.5516  18.6221  18.6689  18.7564  18.8567  18.9278  18.9648
    19.0332  19.1025  19.1263  19.2165  19.2626  19.3237  19.3723  19.5103
    19.5580  19.6111  19.6931  19.7295  19.8509  19.9092  19.9776  20.0532
    20.1150  20.2146  20.3329  20.3752  20.4282  20.5437  20.6072  20.7058
    20.7398  20.7669  20.8475  20.8741  20.9194  20.9842  21.0602  21.1228
    21.1821  21.2746  21.3022  21.3708  21.4281  21.4653  21.5256  21.5636
    21.6919  21.7390  21.8049  21.8357  21.9001  21.9544

     the Fermi energy is    -0.7772 ev

!    total energy              =   -2107.45476434 Ry
     Harris-Foulkes estimate   =   -2107.45476460 Ry
     estimated scf accuracy    <       0.00000028 Ry

     The total energy is the sum of the following terms:

     one-electron contribution =  -22716.97753163 Ry
     hartree contribution      =   11401.53128381 Ry
     xc contribution           =    -577.09967296 Ry
     ewald contribution        =    9785.09123782 Ry
     Hubbard energy            =       0.00000000 Ry
     smearing contrib. (-TS)   =      -0.00008137 Ry

     convergence has been achieved in  38 iterations

     Forces acting on atoms (Ry/au):

     negative rho (up, down):  0.312E+01 0.000E+00
     atom    1 type  1   force =    -0.00708123   -0.01398182   -0.00001337
     atom    2 type  1   force =     0.00049062    0.00528117   -0.00052911
     atom    3 type  2   force =     0.03239391    0.00627230    0.00008050
     atom    4 type  2   force =     0.00929221    0.00851196    0.00012252
     atom    5 type  1   force =    -0.00216137   -0.01651421    0.00009638
     atom    6 type  1   force =     0.00314873    0.01412118    0.00012579
     atom    7 type  1   force =     0.00132290   -0.00164465    0.00044895
     atom    8 type  1   force =    -0.00273015   -0.00069862    0.00002270
     atom    9 type  2   force =     0.00822560    0.00019677    0.00031482
     atom   10 type  2   force =    -0.00740354   -0.00138917    0.00051902
     atom   11 type  1   force =    -0.00767781    0.00663868    0.00012105
     atom   12 type  1   force =    -0.00756248   -0.00633532    0.00012513
     atom   13 type  1   force =    -0.00102822   -0.00009894    0.00005246
     atom   14 type  1   force =    -0.00776050   -0.01463530    0.00003927
     atom   15 type  1   force =     0.00034103    0.00692958    0.00025835
     atom   16 type  2   force =    -0.03346501    0.00565414   -0.00017855
     atom   17 type  2   force =     0.00979326    0.00870216    0.00005637
     atom   18 type  1   force =    -0.00166521   -0.01628601    0.00013002
     atom   19 type  1   force =     0.00273107    0.01470491    0.00016173
     atom   20 type  1   force =    -0.00080574   -0.00475542   -0.00072303
     atom   21 type  1   force =    -0.00389480   -0.00058372    0.00028005
     atom   22 type  2   force =    -0.00543738    0.00044457    0.00027137
     atom   23 type  2   force =     0.00250727   -0.00046932   -0.00077251
     atom   24 type  1   force =     0.00920279    0.01016485   -0.00056559
     atom   25 type  1   force =     0.00975783   -0.01019790   -0.00054872
     atom   26 type  1   force =    -0.00117111   -0.00019785   -0.00018467
     atom   27 type  3   force =    -0.00002516    0.00020336    0.00002466
     atom   28 type  3   force =     0.00001452   -0.00013866    0.00002947
     atom   29 type  3   force =    -0.00001185   -0.00001911   -0.00015974
     atom   30 type  3   force =    -0.00015411    0.00008673   -0.00007706
     atom   31 type  1   force =     0.00041170   -0.00000313    0.00009645
     atom   32 type  3   force =     0.00040225    0.00003682    0.00037530

     Total force =     0.001901     Total SCF correction =     0.001227
     SCF correction compared to forces is large: reduce conv_thr to get better values

     BFGS Geometry Optimization

     bfgs converged in   1 scf cycles and   0 bfgs steps
     (criteria: energy < 0.10E-03, force < 0.10E-02)

     End of BFGS Geometry Optimization

     Final energy   =   -2107.4547643364 Ry
Begin final coordinates

ATOMIC_POSITIONS (crystal)
O0       0.000000000   0.000000000   0.378300000    0   0   1
O0       0.000000000   0.500000000   0.402580000    0   0   1
Ir1      0.250000000   0.500000000   0.452660000    0   0   1
Ir1      0.000000000   0.000000000   0.453130000    0   0   1
O0       0.250000000   0.810000000   0.452790000    0   0   1
O0       0.250000000   0.190000000   0.452500000    0   0   1
O0       0.000000000   0.500000000   0.498240000    0   0   1
O0       0.000000000   0.000000000   0.528810000    0   0   1
Ir1      0.250000000   0.000000000   0.575960000    0   0   1
Ir1      0.000000000   0.500000000   0.571660000    0   0   1
O0       0.250000000   0.690000000   0.575900000    0   0   1
O0       0.250000000   0.310000000   0.575980000    0   0   1
O0       0.000000000   0.000000000   0.620570000    0   0   1
O0       0.500000000   0.000000000   0.378050000    0   0   1
O0       0.500000000   0.500000000   0.401960000    0   0   1
Ir1      0.750000000   0.500000000   0.452680000    0   0   1
Ir1      0.500000000   0.000000000   0.452980000    0   0   1
O0       0.750000000   0.810000000   0.452810000    0   0   1
O0       0.750000000   0.190000000   0.452500000    0   0   1
O0       0.500000000   0.500000000   0.499460000    0   0   1
O0       0.500000000   0.000000000   0.528730000    0   0   1
Ir1      0.750000000   0.000000000   0.575930000    0   0   1
Ir1      0.500000000   0.500000000   0.575590000    0   0   1
O0       0.750000000   0.690000000   0.575230000    0   0   1
O0       0.750000000   0.310000000   0.575330000    0   0   1
O0       0.500000000   0.000000000   0.620120000    0   0   1
H2      -0.000040000   0.633910000   0.383760000
H2       0.500010000   0.636920000   0.384390000
H2       0.143700000   0.033670000   0.366760000
H2       0.643170000   0.035400000   0.366490000
O0       0.515690000   0.500000000   0.648620000
H2       0.374410000   0.500330000   0.663810000
End final coordinates

     General routines

     Parallel routines
     Hubbard U routines

   This run was terminated on:   3:19:52  10May2014

   JOB DONE.