     Program PWSCF v.5.0.2 (svn rev. 9656) starts on 10May2014 at  7:40:10

     Current dimensions of program PWSCF are:
     Max number of different atomic species (ntypx) = 10
     Max number of k-points (npk) =  40000
     Max angular momentum in pseudopotentials (lmaxx) =  3
     Reading input from pwscf.in
Warning: card &CELL ignored
Warning: card / ignored

     Subspace diagonalization in iterative solution of the eigenvalue problem:
     a serial algorithm will be used

     bravais-lattice index     =            0
     lattice parameter (alat)  =      11.7541  a.u.
     unit-cell volume          =    7139.8207 (a.u.)^3
     number of atoms/cell      =           32
     number of atomic types    =            3
     number of electrons       =       239.00
     number of Kohn-Sham states=          358
     kinetic-energy cutoff     =      40.0000  Ry
     charge density cutoff     =     500.0000  Ry
     convergence threshold     =      1.0E-06
     mixing beta               =       0.3000
     number of iterations used =            8  plain     mixing
     Exchange-correlation      = SLA  PW   PBE  PBE ( 1 4 3 4 0)
     EXX-fraction              =        0.00
     nstep                     =           50

     celldm(1)=  11.754097  celldm(2)=   0.000000  celldm(3)=   0.000000
     celldm(4)=   0.000000  celldm(5)=   0.000000  celldm(6)=   0.000000

     crystal axes: (cart. coord. in units of alat)
               a(1) = (   1.000000   0.000000   0.000000 )
               a(2) = (   0.000000   1.034513   0.000000 )
               a(3) = (   0.000000   0.000000   4.249947 )

     reciprocal axes: (cart. coord. in units 2 pi/alat)
               b(1) = (  1.000000  0.000000  0.000000 )
               b(2) = (  0.000000  0.966638  0.000000 )
               b(3) = (  0.000000  0.000000  0.235297 )

     PseudoPot. # 1 for O  read from file:
     /home/camp/zhonxu/pseudo/o_pbe_v1.01.uspp.F.UPF
     MD5 check sum: 2bcb18d16ea4b960afae9ec6d52f22d2
     Pseudo is Ultrasoft + core correction, Zval =  6.0
     Generated by new atomic code, or converted to UPF format
     Using radial grid of  737 points,  5 beta functions with:
                l(1) =   0
                l(2) =   0
                l(3) =   1
                l(4) =   1
                l(5) =   2
     Q(r) pseudized with  8 coefficients,  rinner =    0.900   0.900   0.900
                                                       0.900   0.900

     PseudoPot. # 2 for Rh read from file:
     /home/camp/zhonxu/pseudo/rh_pbe_v1.uspp.F.UPF
     MD5 check sum: 37b626987ad0dd8ec6bf4cc9ef289918
     Pseudo is Ultrasoft + core correction, Zval = 15.0
     Generated by new atomic code, or converted to UPF format
     Using radial grid of  969 points,  7 beta functions with:
                l(1) =   0
                l(2) =   0
                l(3) =   1
                l(4) =   1
                l(5) =   2
                l(6) =   2
                l(7) =   2
     Q(r) pseudized with  6 coefficients,  rinner =    1.050   1.050   1.050
                                                       1.050   1.050

     PseudoPot. # 3 for H  read from file:
     /home/camp/zhonxu/pseudo/h_pbe_v1.uspp.F.UPF
     MD5 check sum: 3408e3ff4ec8b0a4e358431e7e038a48
     Pseudo is Ultrasoft, Zval =  1.0
     Generated by new atomic code, or converted to UPF format
     Using radial grid of  615 points,  2 beta functions with:
                l(1) =   0
                l(2) =   0
     Q(r) pseudized with  8 coefficients,  rinner =    0.700

     atomic species   valence    mass     pseudopotential
        O0             6.00    15.99940     O ( 1.00)
        Rh1           15.00   102.90550     Rh( 1.00)
        H2             1.00     1.00794     H ( 1.00)

     Simplified LDA+U calculation (l_max = 2) with parameters (eV):
     atomic species    L          U    alpha       J0     beta
        Rh1            2     2.0000   0.0000   0.0000   0.0000

     No symmetry found

   Cartesian axes

     site n.     atom                  positions (alat units)
         1           O0  tau(   1) = (   0.0000000   0.0000000   1.6077125  )
         2           O0  tau(   2) = (   0.0000000   0.5172566   1.7060138  )
         3           Rh1 tau(   3) = (   0.2500000   0.5172566   1.9233561  )
         4           Rh1 tau(   4) = (   0.0000000   0.0000000   1.9242061  )
         5           O0  tau(   5) = (   0.2500000   0.8379556   1.9221236  )
         6           O0  tau(   6) = (   0.2500000   0.1965575   1.9218261  )
         7           O0  tau(   7) = (   0.0000000   0.5172566   2.1180887  )
         8           O0  tau(   8) = (   0.0000000   0.0000000   2.2452046  )
         9           Rh1 tau(   9) = (   0.2500000   0.0000000   2.4467796  )
        10           Rh1 tau(  10) = (   0.0000000   0.5172566   2.4248074  )
        11           O0  tau(  11) = (   0.2500000   0.7138141   2.4490746  )
        12           O0  tau(  12) = (   0.2500000   0.3206991   2.4494996  )
        13           O0  tau(  13) = (   0.0000000   0.0000000   2.6392597  )
        14           O0  tau(  14) = (   0.5000000   0.0000000   1.6071175  )
        15           O0  tau(  15) = (   0.5000000   0.5172566   1.7046963  )
        16           Rh1 tau(  16) = (   0.7500000   0.5172566   1.9233561  )
        17           Rh1 tau(  17) = (   0.5000000   0.0000000   1.9236961  )
        18           O0  tau(  18) = (   0.7500000   0.8379556   1.9222086  )
        19           O0  tau(  19) = (   0.7500000   0.1965575   1.9219111  )
        20           O0  tau(  20) = (   0.5000000   0.5172566   2.1234861  )
        21           O0  tau(  21) = (   0.5000000   0.0000000   2.2446521  )
        22           Rh1 tau(  22) = (   0.7500000   0.0000000   2.4466946  )
        23           Rh1 tau(  23) = (   0.5000000   0.5172566   2.4467371  )
        24           O0  tau(  24) = (   0.7500000   0.7138141   2.4449521  )
        25           O0  tau(  25) = (   0.7500000   0.3206991   2.4452921  )
        26           O0  tau(  26) = (   0.5000000   0.0000000   2.6379847  )
        27           H2  tau(  27) = (  -0.0000100   0.6596573   1.6332972  )
        28           H2  tau(  28) = (   0.4999400   0.6612505   1.6349547  )
        29           H2  tau(  29) = (   0.1484100   0.0351631   1.5627056  )
        30           H2  tau(  30) = (   0.6482100   0.0356700   1.5619406  )
        31           O0  tau(  31) = (   0.5154200   0.5168841   2.7565583  )
        32           H2  tau(  32) = (   0.3686900   0.5167083   2.8162275  )

     number of k points=    10  Methfessel-Paxton smearing, width (Ry)=  0.0100
                       cart. coord. in units 2pi/alat
        k(    1) = (   0.0000000   0.0000000   0.0000000), wk =   0.1250000
        k(    2) = (   0.0000000   0.2416596   0.0000000), wk =   0.2500000
        k(    3) = (   0.0000000  -0.4833191   0.0000000), wk =   0.1250000
        k(    4) = (   0.2500000   0.0000000   0.0000000), wk =   0.2500000
        k(    5) = (   0.2500000   0.2416596   0.0000000), wk =   0.2500000
        k(    6) = (   0.2500000  -0.4833191   0.0000000), wk =   0.2500000
        k(    7) = (  -0.5000000   0.0000000   0.0000000), wk =   0.1250000
        k(    8) = (  -0.5000000   0.2416596   0.0000000), wk =   0.2500000
        k(    9) = (  -0.5000000  -0.4833191   0.0000000), wk =   0.1250000
        k(   10) = (  -0.2500000   0.2416596   0.0000000), wk =   0.2500000

     Largest allocated arrays     est. size (Mb)     dimensions
     Largest temporary arrays     est. size (Mb)     dimensions

     Check: negative/imaginary core charge=   -0.000003    0.000000

     Initial potential from superposition of free atoms
     Check: negative starting charge=   -0.644969

     starting charge  234.99914, renormalised to  239.00000

     negative rho (up, down):  0.656E+00 0.000E+00
     Number of +U iterations with fixed ns =  0
     Starting occupations:
 --- enter write_ns ---
 LDA+U parameters:
U( 2)     =  2.00000000
alpha( 2) =  0.00000000
atom    3   Tr[ns(na)] =   7.00000
    eigenvalues:
  0.700  0.700  0.700  0.700  0.700
    eigenvectors:
  1.000  0.000  0.000  0.000  0.000
  0.000  1.000  0.000  0.000  0.000
  0.000  0.000  1.000  0.000  0.000
  0.000  0.000  0.000  1.000  0.000
  0.000  0.000  0.000  0.000  1.000
    occupations:
  0.700  0.000  0.000  0.000  0.000
  0.000  0.700  0.000  0.000  0.000
  0.000  0.000  0.700  0.000  0.000
  0.000  0.000  0.000  0.700  0.000
  0.000  0.000  0.000  0.000  0.700
atom    4   Tr[ns(na)] =   7.00000
    eigenvalues:
  0.700  0.700  0.700  0.700  0.700
    eigenvectors:
  1.000  0.000  0.000  0.000  0.000
  0.000  1.000  0.000  0.000  0.000
  0.000  0.000  1.000  0.000  0.000
  0.000  0.000  0.000  1.000  0.000
  0.000  0.000  0.000  0.000  1.000
    occupations:
  0.700  0.000  0.000  0.000  0.000
  0.000  0.700  0.000  0.000  0.000
  0.000  0.000  0.700  0.000  0.000
  0.000  0.000  0.000  0.700  0.000
  0.000  0.000  0.000  0.000  0.700
atom    9   Tr[ns(na)] =   7.00000
    eigenvalues:
  0.700  0.700  0.700  0.700  0.700
    eigenvectors:
  1.000  0.000  0.000  0.000  0.000
  0.000  1.000  0.000  0.000  0.000
  0.000  0.000  1.000  0.000  0.000
  0.000  0.000  0.000  1.000  0.000
  0.000  0.000  0.000  0.000  1.000
    occupations:
  0.700  0.000  0.000  0.000  0.000
  0.000  0.700  0.000  0.000  0.000
  0.000  0.000  0.700  0.000  0.000
  0.000  0.000  0.000  0.700  0.000
  0.000  0.000  0.000  0.000  0.700
atom   10   Tr[ns(na)] =   7.00000
    eigenvalues:
  0.700  0.700  0.700  0.700  0.700
    eigenvectors:
  1.000  0.000  0.000  0.000  0.000
  0.000  1.000  0.000  0.000  0.000
  0.000  0.000  1.000  0.000  0.000
  0.000  0.000  0.000  1.000  0.000
  0.000  0.000  0.000  0.000  1.000
    occupations:
  0.700  0.000  0.000  0.000  0.000
  0.000  0.700  0.000  0.000  0.000
  0.000  0.000  0.700  0.000  0.000
  0.000  0.000  0.000  0.700  0.000
  0.000  0.000  0.000  0.000  0.700
atom   16   Tr[ns(na)] =   7.00000
    eigenvalues:
  0.700  0.700  0.700  0.700  0.700
    eigenvectors:
  1.000  0.000  0.000  0.000  0.000
  0.000  1.000  0.000  0.000  0.000
  0.000  0.000  1.000  0.000  0.000
  0.000  0.000  0.000  1.000  0.000
  0.000  0.000  0.000  0.000  1.000
    occupations:
  0.700  0.000  0.000  0.000  0.000
  0.000  0.700  0.000  0.000  0.000
  0.000  0.000  0.700  0.000  0.000
  0.000  0.000  0.000  0.700  0.000
  0.000  0.000  0.000  0.000  0.700
atom   17   Tr[ns(na)] =   7.00000
    eigenvalues:
  0.700  0.700  0.700  0.700  0.700
    eigenvectors:
  1.000  0.000  0.000  0.000  0.000
  0.000  1.000  0.000  0.000  0.000
  0.000  0.000  1.000  0.000  0.000
  0.000  0.000  0.000  1.000  0.000
  0.000  0.000  0.000  0.000  1.000
    occupations:
  0.700  0.000  0.000  0.000  0.000
  0.000  0.700  0.000  0.000  0.000
  0.000  0.000  0.700  0.000  0.000
  0.000  0.000  0.000  0.700  0.000
  0.000  0.000  0.000  0.000  0.700
atom   22   Tr[ns(na)] =   7.00000
    eigenvalues:
  0.700  0.700  0.700  0.700  0.700
    eigenvectors:
  1.000  0.000  0.000  0.000  0.000
  0.000  1.000  0.000  0.000  0.000
  0.000  0.000  1.000  0.000  0.000
  0.000  0.000  0.000  1.000  0.000
[...]
  0.925  0.000 -0.000 -0.118 -0.000
  0.000  0.638  0.000  0.001 -0.000
 -0.000  0.000  0.849 -0.000 -0.003
 -0.118  0.001 -0.000  0.698  0.001
 -0.000 -0.000 -0.003  0.001  0.886
atom   10   Tr[ns(na)] =   8.00253
    eigenvalues:
  0.596  0.609  0.909  0.911  0.976
    eigenvectors:
  0.000  0.992  0.000  0.000  0.008
  0.000  0.000  1.000  0.000  0.000
  0.000  0.000  0.000  1.000  0.000
  0.000  0.008  0.000  0.000  0.992
  1.000  0.000  0.000  0.000  0.000
    occupations:
  0.612 -0.003  0.001  0.032 -0.000
 -0.003  0.909 -0.000  0.000 -0.000
  0.001 -0.000  0.911  0.000  0.003
  0.032  0.000  0.000  0.973  0.000
 -0.000 -0.000  0.003  0.000  0.596
atom   16   Tr[ns(na)] =   8.00936
    eigenvalues:
  0.587  0.609  0.884  0.953  0.972
    eigenvectors:
  0.007  0.194  0.002  0.001  0.795
  0.972  0.027  0.000  0.000  0.000
  0.000  0.000  0.974  0.024  0.002
  0.020  0.778  0.000  0.000  0.201
  0.000  0.000  0.023  0.975  0.001
    occupations:
  0.898  0.006  0.003 -0.146  0.002
  0.006  0.588  0.001  0.001 -0.006
  0.003  0.001  0.885 -0.004 -0.010
 -0.146  0.001 -0.004  0.682  0.000
  0.002 -0.006 -0.010  0.000  0.951
atom   17   Tr[ns(na)] =   7.99863
    eigenvalues:
  0.602  0.649  0.864  0.910  0.975
    eigenvectors:
  0.001  0.992  0.000  0.000  0.007
  0.000  0.000  0.068  0.931  0.000
  0.000  0.000  0.931  0.068  0.000
  0.000  0.007  0.000  0.000  0.993
  0.999  0.001  0.000  0.000  0.000
    occupations:
  0.652 -0.004 -0.001  0.027  0.001
 -0.004  0.906  0.011  0.001 -0.001
 -0.001  0.011  0.867 -0.001  0.001
  0.027  0.001 -0.001  0.972  0.000
  0.001 -0.001  0.001  0.000  0.602
atom   22   Tr[ns(na)] =   7.98770
    eigenvalues:
  0.639  0.649  0.842  0.889  0.975
    eigenvectors:
  0.000  0.151  0.000  0.000  0.849
  1.000  0.000  0.000  0.000  0.000
  0.000  0.000  0.996  0.004  0.000
  0.000  0.849  0.000  0.000  0.151
  0.000  0.000  0.004  0.996  0.000
    occupations:
  0.926  0.001 -0.000 -0.117 -0.000
  0.001  0.639  0.000 -0.000 -0.000
 -0.000  0.000  0.842 -0.000  0.003
 -0.117 -0.000 -0.000  0.698  0.001
 -0.000 -0.000  0.003  0.001  0.889
atom   23   Tr[ns(na)] =   7.99048
    eigenvalues:
  0.607  0.652  0.844  0.919  0.973
    eigenvectors:
  0.000  0.992  0.000  0.000  0.008
  0.000  0.000  0.000  1.000  0.000
  0.000  0.000  1.000  0.000  0.000
  0.000  0.008  0.000  0.000  0.992
  1.000  0.000  0.000  0.000  0.000
    occupations:
  0.655  0.005 -0.000  0.029 -0.000
  0.005  0.919 -0.000 -0.000 -0.000
 -0.000 -0.000  0.844  0.000 -0.002
  0.029 -0.000  0.000  0.971  0.000
 -0.000 -0.000 -0.002  0.000  0.607
N of occupied +U levels =  63.9887989
 --- exit write_ns ---

     Threshold (ethr) on eigenvalues was too large:
     Diagonalizing with lowered threshold

     Davidson diagonalization with overlap
     ethr =  1.34E-08,  avg # of iterations =  2.8

[...]

     total energy              =   -1980.81412181 Ry
     Harris-Foulkes estimate   =   -1980.81412181 Ry
     estimated scf accuracy    <       0.00000018 Ry

     iteration # 14     ecut=    40.00 Ry     beta=0.30
     Davidson diagonalization with overlap
     ethr =  1.41E-11,  avg # of iterations =  1.0

     negative rho (up, down):  0.694E+00 0.000E+00

     End of self-consistent calculation
 --- enter write_ns ---
 LDA+U parameters:
U( 2)     =  2.00000000
alpha( 2) =  0.00000000
atom    3   Tr[ns(na)] =   8.01069
    eigenvalues:
  0.587  0.609  0.884  0.954  0.972
    eigenvectors:
  0.007  0.195  0.002  0.001  0.795
  0.975  0.024  0.000  0.000  0.000
  0.000  0.000  0.968  0.030  0.002
  0.018  0.780  0.000  0.000  0.201
  0.000  0.000  0.029  0.969  0.001
    occupations:
  0.898 -0.006  0.003 -0.146 -0.002
 -0.006  0.587 -0.001 -0.001 -0.006
  0.003 -0.001  0.887 -0.004  0.012
 -0.146 -0.001 -0.004  0.682 -0.000
 -0.002 -0.006  0.012 -0.000  0.951
atom    4   Tr[ns(na)] =   7.99937
    eigenvalues:
  0.602  0.650  0.862  0.912  0.974
    eigenvectors:
  0.000  0.992  0.000  0.000  0.007
  0.000  0.000  0.046  0.953  0.000
  0.000  0.000  0.954  0.046  0.000
  0.000  0.007  0.000  0.000  0.993
  0.999  0.000  0.000  0.000  0.000
    occupations:
  0.652 -0.004 -0.001  0.027  0.001
 -0.004  0.909  0.011  0.001 -0.000
 -0.001  0.011  0.864 -0.001  0.001
  0.027  0.001 -0.001  0.972  0.000
  0.001 -0.000  0.001  0.000  0.602
atom    9   Tr[ns(na)] =   7.99135
    eigenvalues:
  0.638  0.648  0.849  0.886  0.975
    eigenvectors:
  0.001  0.151  0.000  0.000  0.847
  0.990  0.010  0.000  0.000  0.000
  0.000  0.000  0.994  0.006  0.000
  0.008  0.839  0.000  0.000  0.153
  0.000  0.000  0.006  0.994  0.000
    occupations:
  0.925  0.000 -0.000 -0.118 -0.000
  0.000  0.638  0.000  0.001 -0.000
 -0.000  0.000  0.849 -0.000 -0.003
 -0.118  0.001 -0.000  0.698  0.001
 -0.000 -0.000 -0.003  0.001  0.886
atom   10   Tr[ns(na)] =   8.00066
    eigenvalues:
  0.596  0.609  0.909  0.911  0.976
    eigenvectors:
  0.000  0.992  0.000  0.000  0.008
  0.000  0.000  1.000  0.000  0.000
  0.000  0.000  0.000  1.000  0.000
  0.000  0.008  0.000  0.000  0.992
  1.000  0.000  0.000  0.000  0.000
    occupations:
  0.612 -0.003  0.001  0.032 -0.000
 -0.003  0.909 -0.000  0.000 -0.000
  0.001 -0.000  0.911  0.000  0.003
  0.032  0.000  0.000  0.973  0.000
 -0.000 -0.000  0.003  0.000  0.596
atom   16   Tr[ns(na)] =   8.01042
    eigenvalues:
  0.587  0.609  0.884  0.953  0.972
    eigenvectors:
  0.007  0.194  0.002  0.001  0.795
  0.972  0.027  0.000  0.000  0.000
  0.000  0.000  0.974  0.024  0.002
  0.020  0.778  0.000  0.000  0.201
  0.000  0.000  0.023  0.975  0.001
    occupations:
  0.898  0.006  0.003 -0.146  0.002
  0.006  0.588  0.001  0.001 -0.006
  0.003  0.001  0.886 -0.004 -0.010
 -0.146  0.001 -0.004  0.682  0.000
  0.002 -0.006 -0.010  0.000  0.952
atom   17   Tr[ns(na)] =   7.99888
    eigenvalues:
  0.602  0.649  0.864  0.910  0.975
    eigenvectors:
  0.001  0.992  0.000  0.000  0.007
  0.000  0.000  0.068  0.931  0.000
  0.000  0.000  0.932  0.068  0.000
  0.000  0.007  0.000  0.000  0.993
  0.999  0.001  0.000  0.000  0.000
    occupations:
  0.652 -0.004 -0.001  0.027  0.001
 -0.004  0.907  0.011  0.001 -0.001
 -0.001  0.011  0.867 -0.001  0.001
  0.027  0.001 -0.001  0.972  0.000
  0.001 -0.001  0.001  0.000  0.602
atom   22   Tr[ns(na)] =   7.98792
    eigenvalues:
  0.639  0.649  0.842  0.889  0.975
    eigenvectors:
  0.000  0.151  0.000  0.000  0.849
  1.000  0.000  0.000  0.000  0.000
  0.000  0.000  0.996  0.004  0.000
  0.000  0.849  0.000  0.000  0.151
  0.000  0.000  0.004  0.996  0.000
    occupations:
  0.926  0.001 -0.000 -0.117 -0.000
  0.001  0.639  0.000 -0.000 -0.000
 -0.000  0.000  0.842 -0.000  0.003
 -0.117 -0.000 -0.000  0.698  0.001
 -0.000 -0.000  0.003  0.001  0.889
atom   23   Tr[ns(na)] =   7.98969
    eigenvalues:
  0.607  0.652  0.844  0.919  0.973
    eigenvectors:
  0.000  0.992  0.000  0.000  0.008
  0.000  0.000  0.000  1.000  0.000
  0.000  0.000  1.000  0.000  0.000
  0.000  0.008  0.000  0.000  0.992
  1.000  0.000  0.000  0.000  0.000
    occupations:
  0.655  0.006 -0.000  0.029 -0.000
  0.006  0.919 -0.000 -0.000 -0.000
 -0.000 -0.000  0.844  0.000 -0.002
  0.029 -0.000  0.000  0.971  0.000
 -0.000 -0.000 -0.002  0.000  0.607
N of occupied +U levels =  63.9889763
 --- exit write_ns ---

[...]

          k = 0.2500-0.4833 0.0000 ( 30510 PWs)   bands (ev):

[...]

          k =-0.2500 0.2417 0.0000 ( 30481 PWs)   bands (ev):

   -49.2220 -49.1760 -49.1564 -49.1431 -49.1073 -49.0840 -49.0674 -49.0563
   -49.0533 -49.0246 -49.0177 -49.0156 -48.9368 -48.9341 -48.9120 -48.8261
   -48.8205 -48.7815 -48.7522 -48.7297 -48.7258 -48.7245 -48.7161 -48.6920
   -21.3752 -21.0909 -20.9388 -20.8108 -20.5783 -20.4141 -20.3510 -20.3146
   -20.2089 -20.1435 -20.0813 -20.0308 -19.9842 -19.9694 -19.8362 -19.8053
   -19.7298 -18.9892 -18.8659  -9.6638  -9.5337  -9.4505  -9.2110  -8.8540
    -8.8188  -8.7846  -8.6876  -8.6081  -8.5555  -8.5227  -8.4468  -8.4046
    -8.2940  -8.0992  -8.0279  -7.8629  -7.8399  -7.6106  -7.4227  -7.3336
    -7.2646  -7.1938  -7.0552  -6.8215  -6.7277  -6.6628  -6.5114  -6.3186
    -6.2919  -6.2394  -6.2056  -6.1093  -6.0297  -5.9675  -5.8981  -5.8416
    -5.7486  -5.6890  -5.5650  -5.4062  -5.3151  -5.2195  -5.0627  -4.9312
    -4.8729  -4.7601  -4.6645  -4.5422  -4.4456  -4.4110  -4.2268  -4.0496
    -3.9804  -3.7937  -3.7247  -3.6350  -3.5761  -3.5247  -3.4049  -3.3546
    -3.2785  -3.2171  -3.1426  -3.1118  -3.0585  -3.0175  -2.9643  -2.8862
    -2.8368  -2.7347  -2.4282  -2.2470  -2.0841  -1.9470  -1.8160  -1.7872
    -1.7467  -1.5737  -1.4773  -1.3829  -0.8799  -0.3368  -0.2666   0.0304
     0.3639   0.5524   0.8487   0.9997   1.3291   1.3870   1.5475   1.5836
     1.7146   1.8424   1.9036   2.2444   3.6826   3.9110   4.6015   4.9912
     5.3676   5.4993   5.5716   5.8797   6.1463   6.3729   6.4684   6.4914
     6.5413   6.7871   6.9003   7.0987   7.2660   7.4589   7.5529   7.7057
     7.8915   7.9415   8.0715   8.1710   8.2053   8.3498   8.4472   8.5579
     8.7398   8.8352   8.9154   8.9650   9.0949   9.2508   9.4594   9.5562
     9.6218   9.7306   9.7971   9.9051   9.9218  10.0030  10.1941  10.2190
    10.3417  10.3670  10.4189  10.5834  10.7028  10.7372  10.8387  10.9395
    11.0153  11.0711  11.1937  11.2064  11.3248  11.3790  11.4901  11.5563
    11.5848  11.6980  11.7842  11.7863  11.8917  12.0290  12.1324  12.1907
    12.2358  12.2802  12.3312  12.4230  12.4992  12.5384  12.6360  12.6953
    12.7794  12.8300  12.9134  12.9886  13.1044  13.1627  13.2420  13.2765
    13.3526  13.4065  13.5020  13.5441  13.7135  13.7869  13.8388  13.9321
    13.9625  14.0209  14.1447  14.1896  14.2694  14.3147  14.4030  14.4535
    14.5845  14.6322  14.6981  14.7942  14.9719  15.0571  15.1964  15.3135
    15.3559  15.3936  15.4844  15.5347  15.5810  15.5903  15.6969  15.7761
    15.8050  15.8502  15.9247  16.0336  16.0849  16.1303  16.1905  16.2998
    16.3530  16.4087  16.4329  16.4792  16.5142  16.5784  16.6268  16.7249
    16.7596  16.8544  16.9414  17.0140  17.0879  17.1939  17.2257  17.2583
    17.3581  17.4023  17.4826  17.5183  17.5788  17.6485  17.7451  17.8382
    17.8824  17.9565  18.0298  18.0890  18.1078  18.2403  18.2778  18.3192
    18.4411  18.5219  18.6005  18.6766  18.7542  18.8116  18.8436  18.9310
    18.9815  19.0271  19.1168  19.1339  19.2399  19.2755  19.3191  19.4598
    19.5299  19.5924  19.6327  19.7232  19.7789  19.8748  19.9487  20.0476
    20.1442  20.2062  20.2785  20.3685  20.4859  20.5618  20.5838  20.6553
    20.7219  20.7826  20.8407  20.9055  20.9676  21.0592  21.1673  21.1827
    21.2353  21.2875  21.3136  21.3833  21.4230  21.4710  21.5315  21.6686
    21.7238  21.7955  21.8303  21.8639  21.9300  21.9823  22.0627  22.1189
    22.2031  22.2513  22.3652  22.4188  22.4902  22.5512

     the Fermi energy is    -1.8126 ev

!    total energy              =   -1980.81412180 Ry
     Harris-Foulkes estimate   =   -1980.81412181 Ry
     estimated scf accuracy    <          8.2E-09 Ry

     The total energy is the sum of the following terms:

     one-electron contribution =  -23340.94590816 Ry
     hartree contribution      =   11719.07063790 Ry
     xc contribution           =    -372.88336008 Ry
     ewald contribution        =   10013.13966242 Ry
     Hubbard energy            =       0.80624908 Ry
     smearing contrib. (-TS)   =      -0.00140297 Ry

     convergence has been achieved in  14 iterations

     Forces acting on atoms (Ry/au):

     negative rho (up, down):  0.694E+00 0.000E+00
     atom    1 type  1   force =    -0.00718043   -0.01321212   -0.00044960
     atom    2 type  1   force =     0.00046159    0.00480549    0.00031274
     atom    3 type  2   force =     0.03107984    0.00697725   -0.00041630
     atom    4 type  2   force =     0.00839448    0.00919238   -0.00020948
     atom    5 type  1   force =    -0.00233841   -0.02987247    0.00035440
     atom    6 type  1   force =     0.00199131    0.02637123    0.00042538
     atom    7 type  1   force =     0.00197611   -0.00124595   -0.00016593
     atom    8 type  1   force =    -0.00146554   -0.00093701    0.00015166
     atom    9 type  2   force =     0.00465779   -0.00016393   -0.00027053
     atom   10 type  2   force =    -0.00619393   -0.00156220   -0.00046377
     atom   11 type  1   force =    -0.01091148    0.01066817    0.00028421
     atom   12 type  1   force =    -0.01110420   -0.01046669    0.00028192
     atom   13 type  1   force =    -0.00111334    0.00000554   -0.00005841
     atom   14 type  1   force =    -0.00699595   -0.01338654   -0.00018894
     atom   15 type  1   force =     0.00025183    0.00513986    0.00023431
     atom   16 type  2   force =    -0.03233895    0.00590585   -0.00040586
     atom   17 type  2   force =     0.00853172    0.00928614   -0.00007567
     atom   18 type  1   force =    -0.00066765   -0.02974775    0.00034913
     atom   19 type  1   force =     0.00312553    0.02705197    0.00041561
     atom   20 type  1   force =    -0.00145976   -0.00468359   -0.00065229
     atom   21 type  1   force =    -0.00424328   -0.00058398    0.00004306
     atom   22 type  2   force =    -0.00119397    0.00048475   -0.00019729
     atom   23 type  2   force =     0.00246085    0.00008863    0.00004786
     atom   24 type  1   force =     0.01138523    0.01562366    0.00013539
     atom   25 type  1   force =     0.01219074   -0.01579245    0.00013238
     atom   26 type  1   force =    -0.00092917   -0.00016588   -0.00071466
     atom   27 type  3   force =    -0.00001273   -0.00005823    0.00043291
     atom   28 type  3   force =     0.00000178    0.00000384    0.00047347
     atom   29 type  3   force =     0.00021549    0.00016203    0.00005936
     atom   30 type  3   force =     0.00005516    0.00021443   -0.00009250
     atom   31 type  1   force =     0.00070026   -0.00005156    0.00050164
     atom   32 type  3   force =     0.00066908   -0.00005086   -0.00027419

     Total force =     0.002172     Total SCF correction =     0.000338
     SCF correction compared to forces is large: reduce conv_thr to get better values

     bfgs converged in   7 scf cycles and   6 bfgs steps
     (criteria: energy < 0.10E-03, force < 0.10E-02)

     End of BFGS Geometry Optimization

     Final energy   =   -1980.8141218044 Ry
Begin final coordinates

ATOMIC_POSITIONS (crystal)
O0       0.000000000   0.000000000   0.378414393    0   0   1
O0       0.000000000   0.500000000   0.401792862    0   0   1
Rh1      0.250000000   0.500000000   0.452707786    0   0   1
Rh1      0.000000000   0.000000000   0.452760299    0   0   1
O0       0.250000000   0.810000000   0.452295848    0   0   1
O0       0.250000000   0.190000000   0.452155882    0   0   1
O0       0.000000000   0.500000000   0.498834238    0   0   1
O0       0.000000000   0.000000000   0.528246404    0   0   1
Rh1      0.250000000   0.000000000   0.575645843    0   0   1
Rh1      0.000000000   0.500000000   0.570636853    0   0   1
O0       0.250000000   0.690000000   0.576106978    0   0   1
O0       0.250000000   0.310000000   0.576189683    0   0   1
O0       0.000000000   0.000000000   0.620961102    0   0   1
O0       0.500000000   0.000000000   0.378168631    0   0   1
O0       0.500000000   0.500000000   0.401418680    0   0   1
Rh1      0.750000000   0.500000000   0.452705962    0   0   1
Rh1      0.500000000   0.000000000   0.452514430    0   0   1
O0       0.750000000   0.810000000   0.452305756    0   0   1
O0       0.750000000   0.190000000   0.452170908    0   0   1
O0       0.500000000   0.500000000   0.499911862    0   0   1
O0       0.500000000   0.000000000   0.528125906    0   0   1
Rh1      0.750000000   0.000000000   0.575581159    0   0   1
Rh1      0.500000000   0.500000000   0.575456477    0   0   1
O0       0.750000000   0.690000000   0.574998752    0   0   1
O0       0.750000000   0.310000000   0.575064117    0   0   1
O0       0.500000000   0.000000000   0.620763934    0   0   1
H2      -0.000070934   0.636884578   0.384411209
H2       0.499901483   0.638619130   0.384818912
H2       0.148145017   0.034154599   0.367659363
H2       0.648065196   0.034813574   0.367478857
O0       0.516169103   0.499575154   0.648244426
H2       0.369918611   0.499405745   0.662572488
End final coordinates

     General routines

     Parallel routines
     Hubbard U routines

   This run was terminated on:  14:39:23  10May2014

   JOB DONE.
Running PBS batch system epilogue script
Job id: 351078.audhumbla.fysik.dtu.dk
Username: zhonxu
Groupname: campgst
Jobname: RhO2/Eads-2-layers/OH-U-2.0
Sessionid: 7732
Queuename: verylong
Accounting:
This job has allocated the following 16 nodes:
c073 c073 c073 c073 c073 c073 c073 c073 c045 c045 c045 c045 c045 c045 c045 c045
Finished epilogue job 351078.audhumbla.fysik.dtu.dk for zhonxu