     Program PWSCF v.5.0.2 (svn rev. 9656) starts on  1Jun2014 at 11:57:51

     Current dimensions of program PWSCF are:
     Max number of different atomic species (ntypx) = 10
     Max number of k-points (npk) =  40000
     Max angular momentum in pseudopotentials (lmaxx) =  3
     Reading input from pwscf.in
Warning: card &CELL ignored
Warning: card / ignored

     Subspace diagonalization in iterative solution of the eigenvalue problem:
     a serial algorithm will be used

     bravais-lattice index     =            0
     lattice parameter (alat)  =      10.1289  a.u.
     unit-cell volume          =    6836.7721 (a.u.)^3
     number of atoms/cell      =           33
     number of atomic types    =            3
     number of electrons       =       245.00
     number of Kohn-Sham states=          367
     kinetic-energy cutoff     =      40.0000  Ry
     charge density cutoff     =     500.0000  Ry
     convergence threshold     =      1.0E-06
     mixing beta               =       0.7000
     number of iterations used =            8  plain     mixing
     Exchange-correlation      = SLA  PW   PBE  PBE ( 1 4 3 4 0)
     EXX-fraction              =        0.00
     nstep                     =           50

     celldm(1)=  10.128932  celldm(2)=   0.000000  celldm(3)=   0.000000
     celldm(4)=   0.000000  celldm(5)=   0.000000  celldm(6)=   0.000000

     crystal axes: (cart. coord. in units of alat)
               a(1) = (   1.000000   0.000000   0.000000 )
               a(2) = (   0.000000   1.306037   0.000000 )
               a(3) = (   0.000000   0.000000   5.037380 )

     reciprocal axes: (cart. coord. in units 2 pi/alat)
               b(1) = (  1.000000  0.000000  0.000000 )
               b(2) = (  0.000000  0.765675  0.000000 )
               b(3) = (  0.000000  0.000000  0.198516 )

     PseudoPot. # 1 for O  read from file:
     /home/camp/zhonxu/pseudo/o_pbe_v1.01.uspp.F.UPF
     MD5 check sum: 2bcb18d16ea4b960afae9ec6d52f22d2
     Pseudo is Ultrasoft + core correction, Zval =  6.0
     Generated by new atomic code, or converted to UPF format
     Using radial grid of  737 points,  5 beta functions with:
                l(1) =   0
                l(2) =   0
                l(3) =   1
                l(4) =   1
                l(5) =   2
     Q(r) pseudized with  8 coefficients,  rinner =    0.900   0.900   0.900
                                                       0.900   0.900

     PseudoPot. # 2 for Re read from file:
     /home/camp/zhonxu/pseudo/re_pbe_v1.uspp.F.UPF
     MD5 check sum: 6f5a5dcaf9c96c20d0ffdde0de57afc6
     Pseudo is Ultrasoft + core correction, Zval = 15.0
     Generated by new atomic code, or converted to UPF format
     Using radial grid of  981 points,  8 beta functions with:
                l(1) =   0
                l(2) =   0
                l(3) =   1
                l(4) =   1
                l(5) =   2
                l(6) =   2
                l(7) =   3
                l(8) =   3
     Q(r) pseudized with  8 coefficients,  rinner =    1.000   1.000   1.000
                                                       1.000   1.000   1.000
                                                       1.000

     PseudoPot. # 3 for H  read from file:
     /home/camp/zhonxu/pseudo/h_pbe_v1.uspp.F.UPF
     MD5 check sum: 3408e3ff4ec8b0a4e358431e7e038a48
     Pseudo is Ultrasoft, Zval =  1.0
     Generated by new atomic code, or converted to UPF format
     Using radial grid of  615 points,  2 beta functions with:
                l(1) =   0
                l(2) =   0
     Q(r) pseudized with  8 coefficients,  rinner =    0.700

     atomic species   valence    mass     pseudopotential
        O0             6.00    15.99940     O ( 1.00)
        Re1           15.00   186.20700     Re( 1.00)
        H2             1.00     1.00794     H ( 1.00)

     Simplified LDA+U calculation (l_max = 2) with parameters (eV):
     atomic species    L          U    alpha       J0     beta
        Re1            2     3.5000   0.0000   0.0000   0.0000

     No symmetry found

   Cartesian axes

     site n.     atom                  positions (alat units)
         1           O0  tau(   1) = (   0.0000000   0.0000000   1.8623194  )
         2           O0  tau(   2) = (   0.0000000   0.6530184   1.9253370  )
         3           Re1 tau(   3) = (   0.2500000   0.6530184   2.2271768  )
         4           Re1 tau(   4) = (   0.0000000   0.0000000   2.2287384  )
         5           O0  tau(   5) = (   0.2500000   1.0187087   2.2217869  )
         6           O0  tau(   6) = (   0.2500000   0.2873281   2.2210816  )
         7           O0  tau(   7) = (   0.0000000   0.6530184   2.5071544  )
         8           O0  tau(   8) = (   0.0000000   0.0000000   2.5894652  )
         9           Re1 tau(   9) = (   0.2500000   0.0000000   2.8894412  )
        10           Re1 tau(  10) = (   0.0000000   0.6530184   2.8583102  )
        11           O0  tau(  11) = (   0.2500000   0.9403465   2.8756892  )
        12           O0  tau(  12) = (   0.2500000   0.3656903   2.8872751  )
        13           O0  tau(  13) = (   0.0000000   0.0000000   3.1516368  )
        14           O0  tau(  14) = (   0.5000000   0.0000000   1.8624705  )
        15           O0  tau(  15) = (   0.5000000   0.6530184   1.9269994  )
        16           Re1 tau(  16) = (   0.7500000   0.6530184   2.2271768  )
        17           Re1 tau(  17) = (   0.5000000   0.0000000   2.2274287  )
        18           O0  tau(  18) = (   0.7500000   1.0187087   2.2214342  )
        19           O0  tau(  19) = (   0.7500000   0.2873281   2.2214846  )
        20           O0  tau(  20) = (   0.5000000   0.6530184   2.5086153  )
        21           O0  tau(  21) = (   0.5000000   0.0000000   2.5899690  )
        22           Re1 tau(  22) = (   0.7500000   0.0000000   2.8888367  )
        23           Re1 tau(  23) = (   0.5000000   0.6530184   2.9018835  )
        24           O0  tau(  24) = (   0.7500000   0.9403465   2.8756892  )
        25           O0  tau(  25) = (   0.7500000   0.3656903   2.8872248  )
        26           O0  tau(  26) = (   0.5000000   0.0000000   3.1466498  )
        27           H2  tau(  27) = (  -0.0002100   0.8169913   1.8417165  )
        28           H2  tau(  28) = (   0.4996400   0.8147057   1.8388956  )
        29           H2  tau(  29) = (   0.1678400   0.0328729   1.7887233  )
        30           H2  tau(  30) = (   0.6697500   0.0291246   1.7904864  )
        31           O0  tau(  31) = (   0.4996300   0.6876806   3.2307741  )
        32           O0  tau(  32) = (   0.5002900   0.4188329   3.4291461  )
        33           H2  tau(  33) = (   0.4999500   0.5176477   3.5843478  )

     number of k points=    10  Methfessel-Paxton smearing, width (Ry)=  0.0100
                       cart. coord. in units 2pi/alat
        k(    1) = (   0.0000000   0.0000000   0.0000000), wk =   0.1250000
        k(    2) = (   0.0000000   0.1914188   0.0000000), wk =   0.2500000
        k(    3) = (   0.0000000  -0.3828376   0.0000000), wk =   0.1250000
        k(    4) = (   0.2500000   0.0000000   0.0000000), wk =   0.2500000
        k(    5) = (   0.2500000   0.1914188   0.0000000), wk =   0.2500000
        k(    6) = (   0.2500000  -0.3828376   0.0000000), wk =   0.2500000
        k(    7) = (  -0.5000000   0.0000000   0.0000000), wk =   0.1250000
        k(    8) = (  -0.5000000   0.1914188   0.0000000), wk =   0.2500000
        k(    9) = (  -0.5000000  -0.3828376   0.0000000), wk =   0.1250000
        k(   10) = (  -0.2500000   0.1914188   0.0000000), wk =   0.2500000

     Largest allocated arrays     est. size (Mb)     dimensions
     Largest temporary arrays     est. size (Mb)     dimensions

     Check: negative/imaginary core charge=   -0.000003    0.000000

     Initial potential from superposition of free atoms
     Check: negative starting charge=   -0.236968

     starting charge  240.99957, renormalised to  245.00000

     negative rho (up, down):  0.241E+00 0.000E+00
     Number of +U iterations with fixed ns =  0
     Starting occupations:
 --- enter write_ns ---
 LDA+U parameters:
U( 2)     =  3.50000000
alpha( 2) =  0.00000000
atom    3   Tr[ns(na)] =   5.00000
    eigenvalues:
  0.500  0.500  0.500  0.500  0.500
    eigenvectors:
  1.000  0.000  0.000  0.000  0.000
  0.000  1.000  0.000  0.000  0.000
  0.000  0.000  1.000  0.000  0.000
  0.000  0.000  0.000  1.000  0.000
  0.000  0.000  0.000  0.000  1.000
    occupations:
  0.500  0.000  0.000  0.000  0.000
  0.000  0.500  0.000  0.000  0.000
  0.000  0.000  0.500  0.000  0.000
  0.000  0.000  0.000  0.500  0.000
  0.000  0.000  0.000  0.000  0.500
atom    4   Tr[ns(na)] =   5.00000
    eigenvalues:
  0.500  0.500  0.500  0.500  0.500
    eigenvectors:
  1.000  0.000  0.000  0.000  0.000
  0.000  1.000  0.000  0.000  0.000
  0.000  0.000  1.000  0.000  0.000
  0.000  0.000  0.000  1.000  0.000
  0.000  0.000  0.000  0.000  1.000
    occupations:
  0.500  0.000  0.000  0.000  0.000
  0.000  0.500  0.000  0.000  0.000
  0.000  0.000  0.500  0.000  0.000
  0.000  0.000  0.000  0.500  0.000
  0.000  0.000  0.000  0.000  0.500
atom    9   Tr[ns(na)] =   5.00000
    eigenvalues:
  0.500  0.500  0.500  0.500  0.500
    eigenvectors:
  1.000  0.000  0.000  0.000  0.000
  0.000  1.000  0.000  0.000  0.000
  0.000  0.000  1.000  0.000  0.000
  0.000  0.000  0.000  1.000  0.000
  0.000  0.000  0.000  0.000  1.000
    occupations:
  0.500  0.000  0.000  0.000  0.000
  0.000  0.500  0.000  0.000  0.000
  0.000  0.000  0.500  0.000  0.000
  0.000  0.000  0.000  0.500  0.000
  0.000  0.000  0.000  0.000  0.500
atom   10   Tr[ns(na)] =   5.00000
    eigenvalues:
  0.500  0.500  0.500  0.500  0.500
    eigenvectors:
  1.000  0.000  0.000  0.000  0.000
  0.000  1.000  0.000  0.000  0.000
  0.000  0.000  1.000  0.000  0.000
  0.000  0.000  0.000  1.000  0.000
  0.000  0.000  0.000  0.000  1.000
    occupations:
  0.500  0.000  0.000  0.000  0.000
  0.000  0.500  0.000  0.000  0.000
  0.000  0.000  0.500  0.000  0.000
  0.000  0.000  0.000  0.500  0.000
  0.000  0.000  0.000  0.000  0.500
atom   16   Tr[ns(na)] =   5.00000
    eigenvalues:
  0.500  0.500  0.500  0.500  0.500
    eigenvectors:
  1.000  0.000  0.000  0.000  0.000
  0.000  1.000  0.000  0.000  0.000
  0.000  0.000  1.000  0.000  0.000
  0.000  0.000  0.000  1.000  0.000
  0.000  0.000  0.000  0.000  1.000
    occupations:
  0.500  0.000  0.000  0.000  0.000
  0.000  0.500  0.000  0.000  0.000
  0.000  0.000  0.500  0.000  0.000
  0.000  0.000  0.000  0.500  0.000
  0.000  0.000  0.000  0.000  0.500
atom   17   Tr[ns(na)] =   5.00000
    eigenvalues:
  0.500  0.500  0.500  0.500  0.500
    eigenvectors:
  1.000  0.000  0.000  0.000  0.000
  0.000  1.000  0.000  0.000  0.000
  0.000  0.000  1.000  0.000  0.000
  0.000  0.000  0.000  1.000  0.000
  0.000  0.000  0.000  0.000  1.000
    occupations:
  0.500  0.000  0.000  0.000  0.000
  0.000  0.500  0.000  0.000  0.000
  0.000  0.000  0.500  0.000  0.000
  0.000  0.000  0.000  0.500  0.000
  0.000  0.000  0.000  0.000  0.500
atom   22   Tr[ns(na)] =   5.00000
    eigenvalues:
  0.500  0.500  0.500  0.500  0.500
[...]
 -0.008 -0.000  0.007  0.746 -0.000
  0.000 -0.003 -0.000 -0.000  0.539
atom   16   Tr[ns(na)] =   6.57424
    eigenvalues:
  0.542  0.571  0.580  0.772  0.822
    eigenvectors:
  0.005  0.322  0.005  0.667  0.001
  0.989  0.009  0.000  0.001  0.001
  0.001  0.047  0.931  0.005  0.016
  0.003  0.621  0.049  0.326  0.000
  0.001  0.001  0.015  0.002  0.982
    occupations:
  0.705  0.006  0.013 -0.094  0.000
  0.006  0.543  0.000 -0.001 -0.008
  0.013  0.000  0.584 -0.007 -0.030
 -0.094 -0.001 -0.007  0.637  0.000
  0.000 -0.008 -0.030  0.000  0.818
atom   17   Tr[ns(na)] =   6.55986
    eigenvalues:
  0.570  0.605  0.606  0.719  0.781
    eigenvectors:
  0.000  0.044  0.944  0.001  0.010
  0.000  0.005  0.001  0.994  0.000
  0.000  0.950  0.044  0.006  0.000
  0.000  0.001  0.010  0.000  0.990
  1.000  0.000  0.000  0.000  0.000
    occupations:
  0.608  0.003  0.000 -0.018  0.001
  0.003  0.718  0.008 -0.000 -0.002
  0.000  0.008  0.606  0.001 -0.000
 -0.018 -0.000  0.001  0.779 -0.000
  0.001 -0.002 -0.000 -0.000  0.570
atom   22   Tr[ns(na)] =   6.56419
    eigenvalues:
  0.595  0.606  0.608  0.722  0.751
    eigenvectors:
  0.250  0.002  0.001  0.012  0.735
  0.000  0.570  0.430  0.000  0.000
  0.010  0.402  0.530  0.057  0.001
  0.739  0.003  0.005  0.004  0.249
  0.000  0.024  0.033  0.927  0.015
    occupations:
  0.711 -0.001  0.000 -0.068  0.003
 -0.001  0.606  0.001  0.001  0.000
  0.000  0.001  0.613 -0.001  0.027
 -0.068  0.001 -0.001  0.635 -0.002
  0.003  0.000  0.027 -0.002  0.716
atom   23   Tr[ns(na)] =   6.60697
    eigenvalues:
  0.550  0.561  0.594  0.782  0.817
    eigenvectors:
  0.000  0.000  0.968  0.025  0.007
  0.147  0.852  0.000  0.000  0.000
  0.000  0.000  0.002  0.064  0.935
  0.000  0.000  0.030  0.911  0.058
  0.853  0.147  0.000  0.000  0.000
    occupations:
  0.600  0.000 -0.010 -0.033 -0.000
  0.000  0.559 -0.005 -0.001 -0.004
 -0.010 -0.005  0.814  0.007  0.000
 -0.033 -0.001  0.007  0.778  0.000
 -0.000 -0.004  0.000  0.000  0.551
N of occupied +U levels =  52.5522220
 --- exit write_ns ---

     Threshold (ethr) on eigenvalues was too large:
     Diagonalizing with lowered threshold

     Davidson diagonalization with overlap
     ethr =  8.09E-09,  avg # of iterations =  2.0

[...]

     total energy              =   -2206.33198017 Ry
     Harris-Foulkes estimate   =   -2206.33198018 Ry
     estimated scf accuracy    <       0.00000012 Ry

     iteration # 14     ecut=    40.00 Ry     beta=0.70
     Davidson diagonalization with overlap
     ethr =  7.82E-12,  avg # of iterations =  1.0

     negative rho (up, down):  0.242E+00 0.000E+00

     End of self-consistent calculation
 --- enter write_ns ---
 LDA+U parameters:
U( 2)     =  3.50000000
alpha( 2) =  0.00000000
atom    3   Tr[ns(na)] =   6.57368
    eigenvalues:
  0.543  0.572  0.578  0.772  0.822
    eigenvectors:
  0.006  0.320  0.006  0.667  0.001
  0.989  0.009  0.000  0.001  0.001
  0.001  0.055  0.922  0.005  0.017
  0.003  0.615  0.056  0.326  0.000
  0.001  0.001  0.016  0.002  0.981
    occupations:
  0.705 -0.006  0.013 -0.094 -0.001
 -0.006  0.543 -0.000  0.001 -0.007
  0.013 -0.000  0.583 -0.007  0.031
 -0.094  0.001 -0.007  0.637 -0.000
 -0.001 -0.007  0.031 -0.000  0.818
atom    4   Tr[ns(na)] =   6.56184
    eigenvalues:
  0.571  0.609  0.619  0.699  0.784
    eigenvectors:
  0.000  0.985  0.000  0.001  0.013
  0.000  0.001  0.013  0.985  0.000
  0.000  0.000  0.987  0.013  0.000
  0.000  0.013  0.000  0.000  0.987
  0.999  0.000  0.000  0.000  0.000
    occupations:
  0.611  0.004  0.000 -0.020  0.001
  0.004  0.698  0.009 -0.000 -0.002
  0.000  0.009  0.620  0.000 -0.000
 -0.020 -0.000  0.000  0.781 -0.000
  0.001 -0.002 -0.000 -0.000  0.571
atom    9   Tr[ns(na)] =   6.56200
    eigenvalues:
  0.596  0.608  0.609  0.721  0.746
    eigenvectors:
  0.248  0.001  0.001  0.014  0.736
  0.001  0.549  0.450  0.000  0.000
  0.007  0.424  0.510  0.057  0.001
  0.743  0.001  0.006  0.004  0.246
  0.001  0.025  0.032  0.924  0.018
    occupations:
  0.708  0.002 -0.001 -0.065  0.003
  0.002  0.609 -0.001 -0.001  0.000
 -0.001 -0.001  0.615 -0.001 -0.026
 -0.065 -0.001 -0.001  0.634 -0.002
  0.003  0.000 -0.026 -0.002  0.715
atom   10   Tr[ns(na)] =   6.54792
    eigenvalues:
  0.476  0.539  0.656  0.747  0.856
    eigenvectors:
  0.999  0.000  0.000  0.001  0.000
  0.000  0.000  0.000  0.000  1.000
  0.000  0.000  0.994  0.006  0.000
  0.001  0.000  0.006  0.993  0.000
  0.000  1.000  0.000  0.000  0.000
    occupations:
  0.476  0.000 -0.002 -0.008  0.000
  0.000  0.856  0.002 -0.000 -0.003
 -0.002  0.002  0.656  0.007 -0.000
 -0.008 -0.000  0.007  0.746 -0.000
  0.000 -0.003 -0.000 -0.000  0.539
atom   16   Tr[ns(na)] =   6.57377
    eigenvalues:
  0.542  0.571  0.579  0.772  0.822
    eigenvectors:
  0.005  0.322  0.005  0.667  0.001
  0.989  0.009  0.000  0.001  0.001
  0.001  0.048  0.930  0.005  0.016
  0.003  0.620  0.050  0.326  0.000
  0.001  0.001  0.015  0.002  0.982
    occupations:
  0.705  0.006  0.013 -0.094  0.000
  0.006  0.543  0.000 -0.001 -0.008
  0.013  0.000  0.584 -0.007 -0.030
 -0.094 -0.001 -0.007  0.637  0.000
  0.000 -0.008 -0.030  0.000  0.818
atom   17   Tr[ns(na)] =   6.55994
    eigenvalues:
  0.570  0.605  0.606  0.719  0.781
    eigenvectors:
  0.000  0.053  0.936  0.001  0.010
  0.000  0.005  0.002  0.994  0.000
  0.000  0.942  0.053  0.006  0.000
  0.000  0.001  0.009  0.000  0.990
  1.000  0.000  0.000  0.000  0.000
    occupations:
  0.608  0.003  0.000 -0.018  0.001
  0.003  0.718  0.008 -0.000 -0.002
  0.000  0.008  0.606  0.001 -0.000
 -0.018 -0.000  0.001  0.779 -0.000
  0.001 -0.002 -0.000 -0.000  0.570
atom   22   Tr[ns(na)] =   6.56498
    eigenvalues:
  0.595  0.606  0.608  0.723  0.751
    eigenvectors:
  0.250  0.002  0.001  0.012  0.735
  0.000  0.587  0.412  0.000  0.000
  0.010  0.385  0.547  0.057  0.001
  0.739  0.003  0.005  0.004  0.249
  0.000  0.023  0.034  0.927  0.015
    occupations:
  0.712 -0.001  0.000 -0.068  0.003
 -0.001  0.607  0.001  0.001 -0.000
  0.000  0.001  0.614 -0.002  0.027
 -0.068  0.001 -0.002  0.635 -0.002
  0.003 -0.000  0.027 -0.002  0.716
atom   23   Tr[ns(na)] =   6.60591
    eigenvalues:
  0.550  0.561  0.594  0.782  0.817
    eigenvectors:
  0.000  0.000  0.968  0.025  0.007
  0.154  0.845  0.000  0.000  0.000
  0.000  0.000  0.002  0.063  0.935
  0.000  0.000  0.030  0.912  0.058
  0.846  0.154  0.000  0.000  0.000
    occupations:
  0.600  0.000 -0.010 -0.033 -0.000
  0.000  0.559 -0.005 -0.001 -0.004
 -0.010 -0.005  0.814  0.007  0.000
 -0.033 -0.001  0.007  0.778  0.000
 -0.000 -0.004  0.000  0.000  0.551
N of occupied +U levels =  52.5500429
 --- exit write_ns ---

[...]

          k = 0.2500-0.3828 0.0000 ( 29202 PWs)   bands (ev):

[...]

          k =-0.2500 0.1914 0.0000 ( 29229 PWs)   bands (ev):

   -80.9756 -80.9354 -80.7751 -80.7255 -80.5290 -80.4470 -80.4084 -80.2826
   -43.0797 -42.9550 -42.9348 -42.8873 -42.8664 -42.8252 -42.7821 -42.7637
   -42.6953 -42.6207 -42.5711 -42.5249 -42.4995 -42.4595 -42.4557 -42.4301
   -42.3788 -42.3197 -42.3177 -42.2973 -42.2394 -42.1208 -41.9574 -41.8229
   -20.8873 -20.5169 -20.1519 -20.0883 -19.9351 -19.7898 -19.6816 -19.5953
   -19.5510 -19.4650 -19.3292 -19.1933 -19.0673 -18.9801 -18.9316 -18.8142
   -18.7842 -18.2032 -17.9741 -16.8923  -8.7501  -8.5916  -8.5489  -8.5131
    -8.4628  -8.1313  -8.1188  -8.0654  -7.7557  -7.6688  -7.6081  -7.4925
    -7.4152  -7.3120  -7.0608  -6.9485  -6.7760  -6.6150  -6.4930  -6.3801
    -6.3528  -6.1902  -6.0276  -5.9230  -5.7586  -5.6217  -5.5581  -5.4635
    -5.3485  -5.2319  -5.1301  -5.0448  -4.8305  -4.7866  -4.7238  -4.6108
    -4.5552  -4.5115  -4.4687  -4.3667  -4.2914  -4.1769  -4.0576  -3.8697
    -3.7234  -3.6308  -3.5934  -3.5326  -3.4824  -3.3142  -3.2008  -3.1084
    -3.0834  -2.9329  -2.8322  -2.6398  -2.5774  -2.4555  -2.1141  -1.8825
    -1.7508  -1.4217  -1.0542  -0.8403  -0.8030  -0.5490  -0.0491   0.1199
     0.3210   0.4945   0.7078   0.9186   0.9882   1.0295   1.2955   1.3740
     1.5495   1.6182   1.7815   1.8846   1.9682   2.1153   2.3127   2.5995
     3.0967   3.9103   3.9231   4.1036   4.1375   4.3352   4.4696   4.6734
     4.8033   4.8304   5.0485   5.1055   5.1866   5.3244   5.4233   5.8611
     6.0142   6.0704   6.2762   6.4855   6.6500   6.6987   6.8164   6.8950
     7.0965   7.2670   7.4389   7.5546   7.7400   7.8387   8.0269   8.1568
     8.3487   8.5291   8.6614   8.6991   8.7972   8.8723   9.0839   9.1597
     9.2553   9.4368   9.5266   9.6498   9.7862   9.8370   9.9135  10.0032
    10.0667  10.0899  10.1877  10.3089  10.4113  10.5011  10.5943  10.6472
    10.6651  10.7570  10.9573  11.0447  11.1734  11.2244  11.4435  11.5174
    11.5603  11.6577  11.7824  11.8323  12.0529  12.0606  12.2727  12.3790
    12.5251  12.5871  12.6354  12.6814  12.7399  12.7919  12.9047  12.9602
    13.0781  13.1365  13.2304  13.2932  13.4135  13.5532  13.6206  13.7132
    13.7423  13.8583  13.9155  13.9671  14.0434  14.1033  14.1765  14.2555
    14.3471  14.3876  14.4494  14.4903  14.5240  14.6333  14.6621  14.7554
    14.8145  14.8349  14.9305  14.9761  15.0485  15.0761  15.1355  15.1865
    15.2730  15.4031  15.4360  15.4569  15.6277  15.6978  15.7835  15.9008
    16.0067  16.0980  16.1647  16.2419  16.3377  16.3742  16.4427  16.5008
    16.5823  16.7174  16.7789  16.8551  16.9197  17.0057  17.0590  17.1817
    17.2525  17.3204  17.3669  17.3839  17.4931  17.5487  17.6252  17.7004
    17.8004  17.8140  17.9009  18.0066  18.0548  18.1084  18.2549  18.3442
    18.3690  18.4458  18.5055  18.5398  18.6625  18.7053  18.7353  18.8271
    18.8528  18.9481  19.0961  19.1295  19.1859  19.2528  19.3713  19.4587
    19.5309  19.6143  19.6853  19.7821  19.8312  19.9397  20.0292  20.1262
    20.2164  20.3180  20.3980  20.4528  20.5046  20.5948  20.6082  20.6918
    20.7648  20.8519  20.8725  20.9155  20.9640  21.0030  21.1023  21.1715
    21.2243  21.2915  21.3244  21.4113  21.5185  21.5787  21.6372  21.7180
    21.7548  21.8327  21.8816  21.9501  22.0088  22.0621  22.1103  22.2001
    22.2624  22.3273  22.3528  22.4167  22.4515  22.5060  22.5645  22.6184
    22.6786  22.7130  22.7693  22.8310  22.8596  22.9016  23.0152  23.0375
    23.1076  23.1336  23.1979  23.2421  23.2974  23.3542  23.3950

     the Fermi energy is     0.5715 ev

!    total energy              =   -2206.33198017 Ry
     Harris-Foulkes estimate   =   -2206.33198017 Ry
     estimated scf accuracy    <          6.1E-09 Ry

     The total energy is the sum of the following terms:

     one-electron contribution =  -24703.52399922 Ry
     hartree contribution      =   12374.51630868 Ry
     xc contribution           =    -602.05396932 Ry
     ewald contribution        =   10722.51300722 Ry
     Hubbard energy            =       2.21692170 Ry
     smearing contrib. (-TS)   =      -0.00024923 Ry

     convergence has been achieved in  14 iterations

     Forces acting on atoms (Ry/au):

     negative rho (up, down):  0.242E+00 0.000E+00
     atom    1 type  1   force =    -0.00354687   -0.00618206    0.00021222
     atom    2 type  1   force =     0.00004308    0.00378916   -0.00049602
     atom    3 type  2   force =     0.02174135   -0.00230971   -0.00001186
     atom    4 type  2   force =     0.00045443    0.00680709   -0.00067559
     atom    5 type  1   force =     0.00283986    0.00340072    0.00031356
     atom    6 type  1   force =     0.00156936   -0.00441294    0.00029590
     atom    7 type  1   force =    -0.00042841   -0.00254950   -0.00023541
     atom    8 type  1   force =     0.00379795    0.00231714   -0.00069471
     atom    9 type  2   force =    -0.03742276   -0.00444558   -0.00006671
     atom   10 type  2   force =    -0.00019968    0.00170625   -0.00037448
     atom   11 type  1   force =    -0.01953120    0.00047583    0.00027550
     atom   12 type  1   force =    -0.01242272    0.01077623   -0.00044563
     atom   13 type  1   force =     0.00007484   -0.00382054    0.00039226
     atom   14 type  1   force =    -0.00293415   -0.00565512   -0.00011863
     atom   15 type  1   force =    -0.00000920    0.00420432   -0.00030613
     atom   16 type  2   force =    -0.02135681   -0.00274857   -0.00001582
     atom   17 type  2   force =     0.00198977    0.00694034   -0.00001268
     atom   18 type  1   force =     0.00018291    0.00346954    0.00029463
     atom   19 type  1   force =    -0.00095206   -0.00416893    0.00027607
     atom   20 type  1   force =    -0.00068793    0.00092855   -0.00006625
     atom   21 type  1   force =     0.00227584    0.00178042   -0.00045482
     atom   22 type  2   force =     0.03351210   -0.00170370    0.00021258
     atom   23 type  2   force =     0.00100832   -0.00843716    0.00032978
     atom   24 type  1   force =     0.01899129   -0.00138134    0.00034200
     atom   25 type  1   force =     0.01246753    0.00966776   -0.00024915
     atom   26 type  1   force =    -0.00078126   -0.01065681    0.00014182
     atom   27 type  3   force =     0.00000615    0.00034244    0.00017216
     atom   28 type  3   force =     0.00000318    0.00005815   -0.00036914
     atom   29 type  3   force =    -0.00058388   -0.00013298    0.00023480
     atom   30 type  3   force =    -0.00027842    0.00003406    0.00023797
     atom   31 type  1   force =    -0.00023363    0.00088164    0.00019039
     atom   32 type  1   force =     0.00039514    0.00055320    0.00021569
     atom   33 type  3   force =     0.00001590    0.00047207    0.00045569

     Total force =     0.002350     Total SCF correction =     0.000389
     SCF correction compared to forces is large: reduce conv_thr to get better values

     entering subroutine stress ...

     negative rho (up, down):  0.242E+00 0.000E+00
          total   stress  (Ry/bohr**3)                   (kbar)     P=  -10.43
  -0.00007373  -0.00000025   0.00000234        -10.85     -0.04      0.34
  -0.00000025  -0.00009499  -0.00000638         -0.04    -13.97     -0.94
   0.00000234  -0.00000638  -0.00004394          0.34     -0.94     -6.46

     bfgs converged in  17 scf cycles and  16 bfgs steps
     (criteria: energy < 0.10E-03, force < 0.10E-02)

     End of BFGS Geometry Optimization

     Final energy   =   -2206.3319801690 Ry
Begin final coordinates

ATOMIC_POSITIONS (crystal)
O0       0.000000000   0.000000000   0.370809585    0   0   1
O0       0.000000000   0.500000000   0.382885392    0   0   1
Re1      0.250000000   0.500000000   0.442239231    0   0   1
Re1      0.000000000   0.000000000   0.443167557    0   0   1
O0       0.250000000   0.780000000   0.441523920    0   0   1
O0       0.250000000   0.220000000   0.441309974    0   0   1
O0       0.000000000   0.500000000   0.497761468    0   0   1
O0       0.000000000   0.000000000   0.513913774    0   0   1
Re1      0.250000000   0.000000000   0.573969154    0   0   1
Re1      0.000000000   0.500000000   0.567576907    0   0   1
O0       0.250000000   0.720000000   0.571254052    0   0   1
O0       0.250000000   0.280000000   0.573201716    0   0   1
O0       0.000000000   0.000000000   0.625955668    0   0   1
O0       0.500000000   0.000000000   0.370582637    0   0   1
O0       0.500000000   0.500000000   0.382617418    0   0   1
Re1      0.750000000   0.500000000   0.442231929    0   0   1
Re1      0.500000000   0.000000000   0.442703524    0   0   1
O0       0.750000000   0.780000000   0.441473690    0   0   1
O0       0.750000000   0.220000000   0.441428140    0   0   1
O0       0.500000000   0.500000000   0.498001473    0   0   1
O0       0.500000000   0.000000000   0.514211692    0   0   1
Re1      0.750000000   0.000000000   0.573682504    0   0   1
Re1      0.500000000   0.500000000   0.574456226    0   0   1
O0       0.750000000   0.720000000   0.571150482    0   0   1
O0       0.750000000   0.280000000   0.573136657    0   0   1
O0       0.500000000   0.000000000   0.625091680    0   0   1
H2      -0.000257840   0.623206675   0.365218616
H2       0.499557550   0.624596022   0.365575924
H2       0.168429738   0.024390931   0.356211159
H2       0.669957108   0.021907642   0.356308477
O0       0.498879587   0.524622830   0.641800443
O0       0.502020966   0.337092460   0.675562354
H2       0.499856364   0.404045889   0.707716578
End final coordinates

     General routines

     Parallel routines
     Hubbard U routines

   This run was terminated on:  16:54:54   2Jun2014

   JOB DONE.
Running PBS batch system epilogue script
Job id: 373382.audhumbla.fysik.dtu.dk
Username: zhonxu
Groupname: campgst
Jobname: ReO2/Eads-2-layers/OOH-U-3.5
Sessionid: 11521
Queuename: verylong
Accounting:
This job has allocated the following 16 nodes:
d051 d051 d051 d051 d051 d051 d051 d051 d001 d001 d001 d001 d001 d001 d001 d001
Finished epilogue job 373382.audhumbla.fysik.dtu.dk for zhonxu