     Program PWSCF v.5.0.2 (svn rev. 9656) starts on 24Jan2014 at 16: 6: 5

     Current dimensions of program PWSCF are:
     Max number of different atomic species (ntypx) = 10
     Max number of k-points (npk) =  40000
     Max angular momentum in pseudopotentials (lmaxx) =  3
     Reading input from IrO2-v-1.05.in

     Subspace diagonalization in iterative solution of the eigenvalue problem:
     a serial algorithm will be used

     bravais-lattice index     =            0
     lattice parameter (alat)  =       8.9707  a.u.
     unit-cell volume          =     465.2292 (a.u.)^3
     number of atoms/cell      =            6
     number of atomic types    =            2
     number of electrons       =        54.00
     number of Kohn-Sham states=           78
     kinetic-energy cutoff     =      40.0000  Ry
     charge density cutoff     =     500.0000  Ry
     convergence threshold     =      1.0E-06
     mixing beta               =       0.3000
     number of iterations used =            8  plain     mixing
     Exchange-correlation      = SLA  PW   PBE  PBE ( 1 4 3 4 0)
     EXX-fraction              =        0.00
     nstep                     =           50

     celldm(1)=   8.970717  celldm(2)=   0.000000  celldm(3)=   0.000000
     celldm(4)=   0.000000  celldm(5)=   0.000000  celldm(6)=   0.000000

     crystal axes: (cart. coord. in units of alat)
               a(1) = (   1.000000   0.000000   0.000000 )
               a(2) = (   0.000000   1.000000   0.000000 )
               a(3) = (   0.000000   0.000000   0.644444 )

     reciprocal axes: (cart. coord. in units 2 pi/alat)
               b(1) = (  1.000000  0.000000  0.000000 )
               b(2) = (  0.000000  1.000000  0.000000 )
               b(3) = (  0.000000  0.000000  1.551724 )

     PseudoPot. # 1 for Ir read from file:
     /home/camp/zhonxu/pseudo/ir_pbe_v1.uspp.F.UPF
     MD5 check sum: abf987a9674477536ede83817f8f8b70
     Pseudo is Ultrasoft + core correction, Zval = 15.0
     Generated by new atomic code, or converted to UPF format
     Using radial grid of  983 points,  7 beta functions with:
                l(1) =   0
                l(2) =   0
                l(3) =   1
                l(4) =   1
                l(5) =   1
                l(6) =   2
                l(7) =   2
     Q(r) pseudized with  8 coefficients,  rinner =    1.350   1.350   1.350
                                                       1.350   1.350

     PseudoPot. # 2 for O  read from file:
     /home/camp/zhonxu/pseudo/o_pbe_v1.01.uspp.F.UPF
     MD5 check sum: 2bcb18d16ea4b960afae9ec6d52f22d2
     Pseudo is Ultrasoft + core correction, Zval =  6.0
     Generated by new atomic code, or converted to UPF format
     Using radial grid of  737 points,  5 beta functions with:
                l(1) =   0
                l(2) =   0
                l(3) =   1
                l(4) =   1
                l(5) =   2
     Q(r) pseudized with  8 coefficients,  rinner =    0.900   0.900   0.900
                                                       0.900   0.900

     atomic species   valence    mass     pseudopotential
        Ir0           15.00   192.22000     Ir( 1.00)
        O1             6.00    15.99940     O ( 1.00)

     Starting magnetic structure
     atomic species   magnetization
        Ir0          0.000
        O1           0.000

      8 Sym. Ops., with inversion, found
          (note:  8 additional sym.ops. were found but ignored
           their fractional translations are incommensurate with FFT grid)

   Cartesian axes

     site n.     atom                  positions (alat units)
         1           Ir0 tau(   1) = (   0.0000000   0.0000000   0.0000000  )
         2           Ir0 tau(   2) = (   0.5000000   0.5000000   0.3222222  )
         3           O1  tau(   3) = (   0.3050000   0.3050000   0.0000000  )
         4           O1  tau(   4) = (  -0.3050000  -0.3050000   0.0000000  )
         5           O1  tau(   5) = (   0.8050000   0.1950000   0.3222222  )
         6           O1  tau(   6) = (   0.1950000   0.8050000   0.3222222  )

     number of k points=    54  Methfessel-Paxton smearing, width (Ry)=  0.0100
                       cart. coord. in units 2pi/alat
        k(    1) = (   0.0000000   0.0000000   0.0000000), wk =   0.0080000
        k(    2) = (   0.0000000   0.0000000   0.3103448), wk =   0.0160000
        k(    3) = (   0.0000000   0.0000000   0.6206897), wk =   0.0160000
        k(    4) = (   0.0000000   0.2000000   0.0000000), wk =   0.0320000
        k(    5) = (   0.0000000   0.2000000   0.3103448), wk =   0.0640000
        k(    6) = (   0.0000000   0.2000000   0.6206897), wk =   0.0640000
        k(    7) = (   0.0000000   0.4000000   0.0000000), wk =   0.0320000
        k(    8) = (   0.0000000   0.4000000   0.3103448), wk =   0.0640000
        k(    9) = (   0.0000000   0.4000000   0.6206897), wk =   0.0640000
        k(   10) = (   0.2000000   0.2000000   0.0000000), wk =   0.0160000
        k(   11) = (   0.2000000   0.2000000   0.3103448), wk =   0.0320000
        k(   12) = (   0.2000000   0.2000000   0.6206897), wk =   0.0320000
        k(   13) = (   0.2000000   0.4000000   0.0000000), wk =   0.0320000
        k(   14) = (   0.2000000   0.4000000   0.3103448), wk =   0.0640000
        k(   15) = (   0.2000000   0.4000000   0.6206897), wk =   0.0640000
        k(   16) = (   0.4000000   0.4000000   0.0000000), wk =   0.0160000
        k(   17) = (   0.4000000   0.4000000   0.3103448), wk =   0.0320000
        k(   18) = (   0.4000000   0.4000000   0.6206897), wk =   0.0320000
        k(   19) = (  -0.2000000   0.2000000   0.0000000), wk =   0.0160000
        k(   20) = (  -0.2000000   0.2000000  -0.3103448), wk =   0.0320000
        k(   21) = (  -0.2000000   0.2000000  -0.6206897), wk =   0.0320000
        k(   22) = (  -0.2000000   0.4000000   0.0000000), wk =   0.0320000
        k(   23) = (  -0.2000000   0.4000000  -0.3103448), wk =   0.0640000
        k(   24) = (  -0.2000000   0.4000000  -0.6206897), wk =   0.0640000
        k(   25) = (  -0.4000000   0.4000000   0.0000000), wk =   0.0160000
        k(   26) = (  -0.4000000   0.4000000  -0.3103448), wk =   0.0320000
        k(   27) = (  -0.4000000   0.4000000  -0.6206897), wk =   0.0320000
        k(   28) = (   0.0000000   0.0000000   0.0000000), wk =   0.0080000
        k(   29) = (   0.0000000   0.0000000   0.3103448), wk =   0.0160000
        k(   30) = (   0.0000000   0.0000000   0.6206897), wk =   0.0160000
        k(   31) = (   0.0000000   0.2000000   0.0000000), wk =   0.0320000
        k(   32) = (   0.0000000   0.2000000   0.3103448), wk =   0.0640000
        k(   33) = (   0.0000000   0.2000000   0.6206897), wk =   0.0640000
        k(   34) = (   0.0000000   0.4000000   0.0000000), wk =   0.0320000
        k(   35) = (   0.0000000   0.4000000   0.3103448), wk =   0.0640000
        k(   36) = (   0.0000000   0.4000000   0.6206897), wk =   0.0640000
        k(   37) = (   0.2000000   0.2000000   0.0000000), wk =   0.0160000
        k(   38) = (   0.2000000   0.2000000   0.3103448), wk =   0.0320000
        k(   39) = (   0.2000000   0.2000000   0.6206897), wk =   0.0320000
        k(   40) = (   0.2000000   0.4000000   0.0000000), wk =   0.0320000
        k(   41) = (   0.2000000   0.4000000   0.3103448), wk =   0.0640000
        k(   42) = (   0.2000000   0.4000000   0.6206897), wk =   0.0640000
        k(   43) = (   0.4000000   0.4000000   0.0000000), wk =   0.0160000
        k(   44) = (   0.4000000   0.4000000   0.3103448), wk =   0.0320000
        k(   45) = (   0.4000000   0.4000000   0.6206897), wk =   0.0320000
        k(   46) = (  -0.2000000   0.2000000   0.0000000), wk =   0.0160000
        k(   47) = (  -0.2000000   0.2000000  -0.3103448), wk =   0.0320000
        k(   48) = (  -0.2000000   0.2000000  -0.6206897), wk =   0.0320000
        k(   49) = (  -0.2000000   0.4000000   0.0000000), wk =   0.0320000
        k(   50) = (  -0.2000000   0.4000000  -0.3103448), wk =   0.0640000
        k(   51) = (  -0.2000000   0.4000000  -0.6206897), wk =   0.0640000
        k(   52) = (  -0.4000000   0.4000000   0.0000000), wk =   0.0160000
        k(   53) = (  -0.4000000   0.4000000  -0.3103448), wk =   0.0320000
        k(   54) = (  -0.4000000   0.4000000  -0.6206897), wk =   0.0320000

     Largest allocated arrays     est. size (Mb)     dimensions
     Largest temporary arrays     est. size (Mb)     dimensions

     Check: negative/imaginary core charge=   -0.000005    0.000000

     Initial potential from superposition of free atoms
     Check: negative starting charge=(component1):   -0.416708
     Check: negative starting charge=(component2):   -0.416708

     starting charge   52.99993, renormalised to   54.00000

     negative rho (up, down):  0.425E+00 0.425E+00
     Starting wfc are   40 randomized atomic wfcs

     Self-consistent Calculation

     iteration #  1     ecut=    40.00 Ry     beta=0.30
     Davidson diagonalization with overlap
     ethr =  1.00E-02,  avg # of iterations =  5.1

     negative rho (up, down):  0.399E+00 0.399E+00

     total energy              =    -500.40367024 Ry
     Harris-Foulkes estimate   =    -502.43118069 Ry
     estimated scf accuracy    <       4.41642485 Ry

     total magnetization       =     0.00 Bohr mag/cell
     absolute magnetization    =     0.00 Bohr mag/cell

[...]

     End of self-consistent calculation

 ------ SPIN UP ------------

          k = 0.0000 0.0000 0.0000 (  1959 PWs)   bands (ev):

   -37.7353 -37.7352 -37.5904 -37.5903 -37.5362 -37.5273  -8.0200  -6.9449
    -6.1605  -6.1603   3.3067   3.6530   5.2657   5.2658   5.2726   7.6948
     7.6949   8.1420   9.3106   9.7435   9.7435   9.8345   9.8593  10.1347
    10.4722  10.4722  10.8998  12.8283  13.6113  16.1774  16.3576  16.3577
    17.6189  21.1624  21.1624  22.1447  22.1449  23.6180  24.7776  24.9398
    27.5128  27.9829  27.9829  29.1667  29.5657  31.7718  32.7897  32.7897
    33.9221  33.9221  35.3977  37.6520  37.8271  37.9181  37.9181  39.6536
    40.0874  40.1955  40.6119  41.9082  41.9082  41.9315  42.3460  42.3461
    42.9612  42.9612  43.6257  45.4488  46.6683  48.3336  48.3336  49.0415
    49.7667  49.7961  49.7961  50.4223  50.9972  50.9972

[...]

          k =-0.2000 0.2000 0.0000 (  1983 PWs)   bands (ev):

[...]

 ------ SPIN DOWN ----------

[...]

     the Fermi energy is    12.4982 ev

!    total energy              =    -501.25173223 Ry
     Harris-Foulkes estimate   =    -501.25172767 Ry
     estimated scf accuracy    <       0.00000031 Ry

     The total energy is the sum of the following terms:

     one-electron contribution =    -116.65062560 Ry
     hartree contribution      =      93.40568230 Ry
     xc contribution           =    -137.97607314 Ry
     ewald contribution        =    -340.03036427 Ry
     smearing contrib. (-TS)   =      -0.00035153 Ry

[...]

     convergence has been achieved in   9 iterations

     Forces acting on atoms (Ry/au):

     negative rho (up, down):  0.390E+00 0.390E+00
     atom    1 type  1   force =     0.00000000    0.00000000    0.00000000
     atom    2 type  1   force =     0.00000000    0.00000000    0.00000000
[...]
        k(   13) = (   0.2048436   0.4096856   0.0000000), wk =   0.0320000
        k(   14) = (   0.2048436   0.4096856   0.2958450), wk =   0.0640000
        k(   15) = (   0.2048436   0.4096856   0.5916900), wk =   0.0640000
        k(   16) = (   0.4096862   0.4096862   0.0000000), wk =   0.0160000
        k(   17) = (   0.4096862   0.4096862   0.2958450), wk =   0.0320000
        k(   18) = (   0.4096862   0.4096862   0.5916900), wk =   0.0320000
        k(   19) = (  -0.2048420   0.2048420   0.0000000), wk =   0.0160000
        k(   20) = (  -0.2048420   0.2048420  -0.2958450), wk =   0.0320000
        k(   21) = (  -0.2048420   0.2048420  -0.5916900), wk =   0.0320000
        k(   22) = (  -0.2048414   0.4096845   0.0000000), wk =   0.0320000
        k(   23) = (  -0.2048414   0.4096845  -0.2958450), wk =   0.0640000
        k(   24) = (  -0.2048414   0.4096845  -0.5916900), wk =   0.0640000
        k(   25) = (  -0.4096840   0.4096840   0.0000000), wk =   0.0160000
        k(   26) = (  -0.4096840   0.4096840  -0.2958450), wk =   0.0320000
        k(   27) = (  -0.4096840   0.4096840  -0.5916900), wk =   0.0320000
        k(   28) = (   0.0000000   0.0000000   0.0000000), wk =   0.0080000
        k(   29) = (   0.0000000   0.0000000   0.2958450), wk =   0.0160000
        k(   30) = (   0.0000000   0.0000000   0.5916900), wk =   0.0160000
        k(   31) = (   0.0000005   0.2048425   0.0000000), wk =   0.0320000
        k(   32) = (   0.0000005   0.2048425   0.2958450), wk =   0.0640000
        k(   33) = (   0.0000005   0.2048425   0.5916900), wk =   0.0640000
        k(   34) = (   0.0000011   0.4096851   0.0000000), wk =   0.0320000
        k(   35) = (   0.0000011   0.4096851   0.2958450), wk =   0.0640000
        k(   36) = (   0.0000011   0.4096851   0.5916900), wk =   0.0640000
        k(   37) = (   0.2048431   0.2048431   0.0000000), wk =   0.0160000
        k(   38) = (   0.2048431   0.2048431   0.2958450), wk =   0.0320000
        k(   39) = (   0.2048431   0.2048431   0.5916900), wk =   0.0320000
        k(   40) = (   0.2048436   0.4096856   0.0000000), wk =   0.0320000
        k(   41) = (   0.2048436   0.4096856   0.2958450), wk =   0.0640000
        k(   42) = (   0.2048436   0.4096856   0.5916900), wk =   0.0640000
        k(   43) = (   0.4096862   0.4096862   0.0000000), wk =   0.0160000
        k(   44) = (   0.4096862   0.4096862   0.2958450), wk =   0.0320000
        k(   45) = (   0.4096862   0.4096862   0.5916900), wk =   0.0320000
        k(   46) = (  -0.2048420   0.2048420   0.0000000), wk =   0.0160000
        k(   47) = (  -0.2048420   0.2048420  -0.2958450), wk =   0.0320000
        k(   48) = (  -0.2048420   0.2048420  -0.5916900), wk =   0.0320000
        k(   49) = (  -0.2048414   0.4096845   0.0000000), wk =   0.0320000
        k(   50) = (  -0.2048414   0.4096845  -0.2958450), wk =   0.0640000
        k(   51) = (  -0.2048414   0.4096845  -0.5916900), wk =   0.0640000
        k(   52) = (  -0.4096840   0.4096840   0.0000000), wk =   0.0160000
        k(   53) = (  -0.4096840   0.4096840  -0.2958450), wk =   0.0320000
        k(   54) = (  -0.4096840   0.4096840  -0.5916900), wk =   0.0320000

     Check: negative/imaginary core charge=   -0.000005    0.000000
     Check: negative starting charge=(component1):   -0.834794

[...]

     Threshold (ethr) on eigenvalues was too large:
     Diagonalizing with lowered threshold

     Davidson diagonalization with overlap
     ethr =  1.01E-10,  avg # of iterations =  2.1

[...]

     Total force =     0.000031     Total SCF correction =     0.000022
     SCF correction compared to forces is large: reduce conv_thr to get better values

[...]

     Volume is kept fixed: isostatic pressure set to zero

     bfgs converged in   7 scf cycles and   6 bfgs steps
     (criteria: energy < 0.10E-03, force < 0.10E-02, cell < 0.50E+00)

     End of BFGS Geometry Optimization

     Final enthalpy =    -501.2675969537 Ry
Begin final coordinates
     new unit-cell volume =    465.22917 a.u.^3 (    68.93985 Ang^3 )

CELL_PARAMETERS (alat=  8.97071692)
   0.976359696  -0.000002610   0.000000000
  -0.000002610   0.976359696   0.000000000
   0.000000000   0.000000000   0.676029732

ATOMIC_POSITIONS (crystal)
Ir0      0.000000000   0.000000000   0.000000000    0   0   0
Ir0      0.500000000   0.500000000   0.500000000    0   0   0
O1       0.308360414   0.308360414   0.000000000    1   1   0
O1      -0.308360414  -0.308360414   0.000000000    1   1   0
O1       0.808361332   0.191638668   0.500000000    1   1   0
O1       0.191638668   0.808361332   0.500000000    1   1   0
End final coordinates

     A final scf calculation at the relaxed structure.
     The G-vectors are recalculated for the final unit cell
     Results may differ from those at the preceding step.

     bravais-lattice index     =            0
     lattice parameter (alat)  =       8.9707  a.u.
     unit-cell volume          =     465.2292 (a.u.)^3
     number of atoms/cell      =            6
     number of atomic types    =            2
     number of electrons       =        54.00
     number of Kohn-Sham states=           78
     kinetic-energy cutoff     =      40.0000  Ry
     charge density cutoff     =     500.0000  Ry
     convergence threshold     =      1.0E-08
     mixing beta               =       0.3000
     number of iterations used =            8  plain     mixing
     Exchange-correlation      = SLA  PW   PBE  PBE ( 1 4 3 4 0)
     EXX-fraction              =        0.00

     celldm(1)=   8.970717  celldm(2)=   0.000000  celldm(3)=   0.000000
     celldm(4)=   0.000000  celldm(5)=   0.000000  celldm(6)=   0.000000

     crystal axes: (cart. coord. in units of alat)
               a(1) = (   0.976360  -0.000003   0.000000 )
               a(2) = (  -0.000003   0.976360   0.000000 )
               a(3) = (   0.000000   0.000000   0.676030 )

     reciprocal axes: (cart. coord. in units 2 pi/alat)
               b(1) = (  1.024213  0.000003 -0.000000 )
               b(2) = (  0.000003  1.024213 -0.000000 )
               b(3) = ( -0.000000 -0.000000  1.479225 )

     PseudoPot. # 1 for Ir read from file:
     /home/camp/zhonxu/pseudo/ir_pbe_v1.uspp.F.UPF
     MD5 check sum: abf987a9674477536ede83817f8f8b70
     Pseudo is Ultrasoft + core correction, Zval = 15.0
     Generated by new atomic code, or converted to UPF format
     Using radial grid of  983 points,  7 beta functions with:
                l(1) =   0
                l(2) =   0
                l(3) =   1
                l(4) =   1
                l(5) =   1
                l(6) =   2
                l(7) =   2
     Q(r) pseudized with  8 coefficients,  rinner =    1.350   1.350   1.350
                                                       1.350   1.350

     PseudoPot. # 2 for O  read from file:
     /home/camp/zhonxu/pseudo/o_pbe_v1.01.uspp.F.UPF
     MD5 check sum: 2bcb18d16ea4b960afae9ec6d52f22d2
     Pseudo is Ultrasoft + core correction, Zval =  6.0
     Generated by new atomic code, or converted to UPF format
     Using radial grid of  737 points,  5 beta functions with:
                l(1) =   0
                l(2) =   0
                l(3) =   1
                l(4) =   1
                l(5) =   2
     Q(r) pseudized with  8 coefficients,  rinner =    0.900   0.900   0.900
                                                       0.900   0.900

     atomic species   valence    mass     pseudopotential
        Ir0           15.00   192.22000     Ir( 1.00)
        O1             6.00    15.99940     O ( 1.00)

     Starting magnetic structure
     atomic species   magnetization
        Ir0          0.000
        O1           0.000

      8 Sym. Ops., with inversion, found
          (note:  8 additional sym.ops. were found but ignored
           their fractional translations are incommensurate with FFT grid)

   Cartesian axes

     site n.     atom                  positions (alat units)
         1           Ir0 tau(   1) = (   0.0000000   0.0000000   0.0000000  )
         2           Ir0 tau(   2) = (   0.4881785   0.4881785   0.3380149  )
         3           O1  tau(   3) = (   0.3010699   0.3010699   0.0000000  )
         4           O1  tau(   4) = (  -0.3010699  -0.3010699   0.0000000  )
         5           O1  tau(   5) = (   0.7892509   0.1871062   0.3380149  )
         6           O1  tau(   6) = (   0.1871062   0.7892509   0.3380149  )

     number of k points=    54  Methfessel-Paxton smearing, width (Ry)=  0.0100
                       cart. coord. in units 2pi/alat
        k(    1) = (   0.0000000   0.0000000   0.0000000), wk =   0.0080000
        k(    2) = (   0.0000000   0.0000000   0.2958450), wk =   0.0160000
        k(    3) = (   0.0000000   0.0000000   0.5916900), wk =   0.0160000
        k(    4) = (   0.0000005   0.2048425   0.0000000), wk =   0.0320000
        k(    5) = (   0.0000005   0.2048425   0.2958450), wk =   0.0640000
        k(    6) = (   0.0000005   0.2048425   0.5916900), wk =   0.0640000
        k(    7) = (   0.0000011   0.4096851   0.0000000), wk =   0.0320000
        k(    8) = (   0.0000011   0.4096851   0.2958450), wk =   0.0640000
        k(    9) = (   0.0000011   0.4096851   0.5916900), wk =   0.0640000
        k(   10) = (   0.2048431   0.2048431   0.0000000), wk =   0.0160000
        k(   11) = (   0.2048431   0.2048431   0.2958450), wk =   0.0320000
        k(   12) = (   0.2048431   0.2048431   0.5916900), wk =   0.0320000
        k(   13) = (   0.2048436   0.4096856   0.0000000), wk =   0.0320000
        k(   14) = (   0.2048436   0.4096856   0.2958450), wk =   0.0640000
        k(   15) = (   0.2048436   0.4096856   0.5916900), wk =   0.0640000
        k(   16) = (   0.4096862   0.4096862   0.0000000), wk =   0.0160000
        k(   17) = (   0.4096862   0.4096862   0.2958450), wk =   0.0320000
        k(   18) = (   0.4096862   0.4096862   0.5916900), wk =   0.0320000
        k(   19) = (  -0.2048420   0.2048420   0.0000000), wk =   0.0160000
        k(   20) = (  -0.2048420   0.2048420  -0.2958450), wk =   0.0320000
        k(   21) = (  -0.2048420   0.2048420  -0.5916900), wk =   0.0320000
        k(   22) = (  -0.2048414   0.4096845   0.0000000), wk =   0.0320000
        k(   23) = (  -0.2048414   0.4096845  -0.2958450), wk =   0.0640000
        k(   24) = (  -0.2048414   0.4096845  -0.5916900), wk =   0.0640000
        k(   25) = (  -0.4096840   0.4096840   0.0000000), wk =   0.0160000
        k(   26) = (  -0.4096840   0.4096840  -0.2958450), wk =   0.0320000
        k(   27) = (  -0.4096840   0.4096840  -0.5916900), wk =   0.0320000
        k(   28) = (   0.0000000   0.0000000   0.0000000), wk =   0.0080000
        k(   29) = (   0.0000000   0.0000000   0.2958450), wk =   0.0160000
        k(   30) = (   0.0000000   0.0000000   0.5916900), wk =   0.0160000
        k(   31) = (   0.0000005   0.2048425   0.0000000), wk =   0.0320000
        k(   32) = (   0.0000005   0.2048425   0.2958450), wk =   0.0640000
        k(   33) = (   0.0000005   0.2048425   0.5916900), wk =   0.0640000
        k(   34) = (   0.0000011   0.4096851   0.0000000), wk =   0.0320000
        k(   35) = (   0.0000011   0.4096851   0.2958450), wk =   0.0640000
        k(   36) = (   0.0000011   0.4096851   0.5916900), wk =   0.0640000
        k(   37) = (   0.2048431   0.2048431   0.0000000), wk =   0.0160000
        k(   38) = (   0.2048431   0.2048431   0.2958450), wk =   0.0320000
        k(   39) = (   0.2048431   0.2048431   0.5916900), wk =   0.0320000
        k(   40) = (   0.2048436   0.4096856   0.0000000), wk =   0.0320000
        k(   41) = (   0.2048436   0.4096856   0.2958450), wk =   0.0640000
        k(   42) = (   0.2048436   0.4096856   0.5916900), wk =   0.0640000
        k(   43) = (   0.4096862   0.4096862   0.0000000), wk =   0.0160000
        k(   44) = (   0.4096862   0.4096862   0.2958450), wk =   0.0320000
        k(   45) = (   0.4096862   0.4096862   0.5916900), wk =   0.0320000
        k(   46) = (  -0.2048420   0.2048420   0.0000000), wk =   0.0160000
        k(   47) = (  -0.2048420   0.2048420  -0.2958450), wk =   0.0320000
        k(   48) = (  -0.2048420   0.2048420  -0.5916900), wk =   0.0320000
        k(   49) = (  -0.2048414   0.4096845   0.0000000), wk =   0.0320000
        k(   50) = (  -0.2048414   0.4096845  -0.2958450), wk =   0.0640000
        k(   51) = (  -0.2048414   0.4096845  -0.5916900), wk =   0.0640000
        k(   52) = (  -0.4096840   0.4096840   0.0000000), wk =   0.0160000
        k(   53) = (  -0.4096840   0.4096840  -0.2958450), wk =   0.0320000
        k(   54) = (  -0.4096840   0.4096840  -0.5916900), wk =   0.0320000

     Largest allocated arrays     est. size (Mb)     dimensions
     Largest temporary arrays     est. size (Mb)     dimensions

     Check: negative/imaginary core charge=   -0.000005    0.000000

     Initial potential from superposition of free atoms
     Check: negative starting charge=(component1):   -0.417400
     Check: negative starting charge=(component2):   -0.417400

     starting charge   52.99993, renormalised to   54.00000

     negative rho (up, down):  0.425E+00 0.425E+00
     Starting wfc are   40 randomized atomic wfcs

     Self-consistent Calculation

[...]

     total energy              =    -501.26804032 Ry
     Harris-Foulkes estimate   =    -501.26803915 Ry
     estimated scf accuracy    <       0.00000003 Ry

[...]

     iteration # 11     ecut=    40.00 Ry     beta=0.30
     Davidson diagonalization with overlap
     ethr =  5.41E-11,  avg # of iterations =  1.4

     negative rho (up, down):  0.391E+00 0.391E+00

     End of self-consistent calculation

 ------ SPIN UP ------------

[...]

 ------ SPIN DOWN ----------

[...]

          k = 0.4097 0.4097 0.5917 (  2003 PWs)   bands (ev):

[...]

          k =-0.4097 0.4097-0.5917 (  2003 PWs)   bands (ev):

   -37.7490 -37.7479 -37.7178 -37.7165 -37.5102 -37.5101  -6.7660  -6.7128
    -6.5313  -6.4985   4.6982   4.7707   5.2290   5.3365   5.7629   6.1341
     7.2567   7.3137   8.3316   8.5095   9.1218   9.4736  10.8946  10.9309
    10.9748  11.5647  11.9403  12.4477  14.0874  14.6737  15.3225  15.8986
    21.2908  21.7860  22.1119  22.1135  22.1242  22.1831  23.7362  24.1712
    25.1477  25.7312  28.9296  28.9539  30.7464  31.3084  32.2030  33.1383
    33.6597  33.9393  34.0388  35.3241  37.9490  38.3591  38.3849  38.4583
    39.8725  40.5719  41.5199  42.7950  43.0058  43.3751  43.8044  44.2380
    44.5818  44.6600  45.3554  45.9546  46.6742  47.2318  47.5702  48.3025
    48.6006  49.2608  49.4806  49.9825  50.3923  51.2199

     the Fermi energy is    12.4880 ev

!    total energy              =    -501.26804145 Ry
     Harris-Foulkes estimate   =    -501.26804032 Ry
     estimated scf accuracy    <          7.1E-09 Ry

     The total energy is the sum of the following terms:

     one-electron contribution =    -112.38743658 Ry
     hartree contribution      =      91.27176738 Ry
     xc contribution           =    -137.90482205 Ry
     ewald contribution        =    -342.24682129 Ry
     smearing contrib. (-TS)   =      -0.00072891 Ry

     total magnetization       =     0.00 Bohr mag/cell
     absolute magnetization    =     0.00 Bohr mag/cell

     convergence has been achieved in  11 iterations

     Forces acting on atoms (Ry/au):

     negative rho (up, down):  0.391E+00 0.391E+00
     atom    1 type  1   force =     0.00000000    0.00000000    0.00000000
     atom    2 type  1   force =     0.00000000    0.00000000    0.00000000
     atom    3 type  2   force =     0.00006514    0.00006514    0.00000000
     atom    4 type  2   force =    -0.00006514   -0.00006514   -0.00000000
     atom    5 type  2   force =     0.00005910   -0.00005910    0.00000000
     atom    6 type  2   force =    -0.00005910    0.00005910    0.00000000

     Total force =     0.000176     Total SCF correction =     0.000008

     entering subroutine stress ...

     negative rho (up, down):  0.391E+00 0.391E+00
          total   stress  (Ry/bohr**3)                   (kbar)     P= -136.37
  -0.00093661  -0.00000002   0.00000000       -137.78     -0.00      0.00
  -0.00000002  -0.00093661   0.00000000         -0.00   -137.78      0.00
   0.00000000   0.00000000  -0.00090785          0.00      0.00   -133.55

     General routines

     Parallel routines

   This run was terminated on:  16:46:13  24Jan2014

   JOB DONE.
Running PBS batch system epilogue script
Job id: 251957.audhumbla.fysik.dtu.dk
Username: zhonxu
Groupname: campgst
Jobname: IrO2/fine-EOS/non-mag/IrO2-v-1.05
Sessionid: 13919
Queuename: verylong
Accounting:
This job has allocated the following 4 nodes:
q020 q020 q020 q020
Finished epilogue job 251957.audhumbla.fysik.dtu.dk for zhonxu