     Program PWSCF v.5.0.2 (svn rev. 9656) starts on 31Jan2014 at 16:41:13

     Current dimensions of program PWSCF are:
     Max number of different atomic species (ntypx) = 10
     Max number of k-points (npk) =  40000
     Max angular momentum in pseudopotentials (lmaxx) =  3
     Waiting for input...
     Reading input from standard input

     Subspace diagonalization in iterative solution of the eigenvalue problem:
     a serial algorithm will be used

     bravais-lattice index     =            0
     lattice parameter (alat)  =       8.8274  a.u.
     unit-cell volume          =     443.2846 (a.u.)^3
     number of atoms/cell      =            6
     number of atomic types    =            2
     number of electrons       =        54.00
     number of Kohn-Sham states=           81
     kinetic-energy cutoff     =      40.0000  Ry
     charge density cutoff     =     500.0000  Ry
     convergence threshold     =      1.0E-06
     mixing beta               =       0.3000
     number of iterations used =            8  plain     mixing
     Exchange-correlation      = SLA  PW   PBE  PBE ( 1 4 3 4 0)
     EXX-fraction              =        0.00
     nstep                     =           50

     celldm(1)=   8.827391  celldm(2)=   0.000000  celldm(3)=   0.000000
     celldm(4)=   0.000000  celldm(5)=   0.000000  celldm(6)=   0.000000

     crystal axes: (cart. coord. in units of alat)
               a(1) = (   1.000000   0.000000   0.000000 )
               a(2) = (   0.000000   1.000000   0.000000 )
               a(3) = (   0.000000   0.000000   0.644444 )

     reciprocal axes: (cart. coord. in units 2 pi/alat)
               b(1) = (  1.000000  0.000000  0.000000 )
               b(2) = (  0.000000  1.000000  0.000000 )
               b(3) = (  0.000000  0.000000  1.551724 )

     PseudoPot. # 1 for Re read from file:
     /home/camp/zhonxu/pseudo/re_pbe_v1.uspp.F.UPF
     MD5 check sum: 6f5a5dcaf9c96c20d0ffdde0de57afc6
     Pseudo is Ultrasoft + core correction, Zval = 15.0
     Generated by new atomic code, or converted to UPF format
     Using radial grid of  981 points,  8 beta functions with:
                l(1) =   0
                l(2) =   0
                l(3) =   1
                l(4) =   1
                l(5) =   2
                l(6) =   2
                l(7) =   3
                l(8) =   3
     Q(r) pseudized with  8 coefficients,  rinner =    1.000   1.000   1.000
                                                       1.000   1.000   1.000
                                                       1.000

     PseudoPot. # 2 for O  read from file:
     /home/camp/zhonxu/pseudo/o_pbe_v1.01.uspp.F.UPF
     MD5 check sum: 2bcb18d16ea4b960afae9ec6d52f22d2
     Pseudo is Ultrasoft + core correction, Zval =  6.0
     Generated by new atomic code, or converted to UPF format
     Using radial grid of  737 points,  5 beta functions with:
                l(1) =   0
                l(2) =   0
                l(3) =   1
                l(4) =   1
                l(5) =   2
     Q(r) pseudized with  8 coefficients,  rinner =    0.900   0.900   0.900
                                                       0.900   0.900

     atomic species   valence    mass     pseudopotential
        Re0           15.00   186.20700     Re( 1.00)
        O1             6.00    15.99940     O ( 1.00)

     Starting magnetic structure
     atomic species   magnetization
        Re0          0.000
        O1           0.000

      8 Sym. Ops., with inversion, found
          (note:  8 additional sym.ops. were found but ignored
           their fractional translations are incommensurate with FFT grid)

   Cartesian axes

     site n.     atom                  positions (alat units)
         1           Re0 tau(   1) = (   0.0000000   0.0000000   0.0000000  )
         2           Re0 tau(   2) = (   0.5000000   0.5000000   0.3222222  )
         3           O1  tau(   3) = (   0.3050000   0.3050000   0.0000000  )
         4           O1  tau(   4) = (  -0.3050000  -0.3050000   0.0000000  )
         5           O1  tau(   5) = (   0.8050000   0.1950000   0.3222222  )
         6           O1  tau(   6) = (   0.1950000   0.8050000   0.3222222  )

     number of k points=    54  Methfessel-Paxton smearing, width (Ry)=  0.0100
                       cart. coord. in units 2pi/alat
        k(    1) = (   0.0000000   0.0000000   0.0000000), wk =   0.0080000
        k(    2) = (   0.0000000   0.0000000   0.3103448), wk =   0.0160000
        k(    3) = (   0.0000000   0.0000000   0.6206897), wk =   0.0160000
        k(    4) = (   0.0000000   0.2000000   0.0000000), wk =   0.0320000
        k(    5) = (   0.0000000   0.2000000   0.3103448), wk =   0.0640000
        k(    6) = (   0.0000000   0.2000000   0.6206897), wk =   0.0640000
        k(    7) = (   0.0000000   0.4000000   0.0000000), wk =   0.0320000
        k(    8) = (   0.0000000   0.4000000   0.3103448), wk =   0.0640000
        k(    9) = (   0.0000000   0.4000000   0.6206897), wk =   0.0640000
        k(   10) = (   0.2000000   0.2000000   0.0000000), wk =   0.0160000
        k(   11) = (   0.2000000   0.2000000   0.3103448), wk =   0.0320000
        k(   12) = (   0.2000000   0.2000000   0.6206897), wk =   0.0320000
        k(   13) = (   0.2000000   0.4000000   0.0000000), wk =   0.0320000
        k(   14) = (   0.2000000   0.4000000   0.3103448), wk =   0.0640000
        k(   15) = (   0.2000000   0.4000000   0.6206897), wk =   0.0640000
        k(   16) = (   0.4000000   0.4000000   0.0000000), wk =   0.0160000
        k(   17) = (   0.4000000   0.4000000   0.3103448), wk =   0.0320000
        k(   18) = (   0.4000000   0.4000000   0.6206897), wk =   0.0320000
        k(   19) = (  -0.2000000   0.2000000   0.0000000), wk =   0.0160000
        k(   20) = (  -0.2000000   0.2000000  -0.3103448), wk =   0.0320000
        k(   21) = (  -0.2000000   0.2000000  -0.6206897), wk =   0.0320000
        k(   22) = (  -0.2000000   0.4000000   0.0000000), wk =   0.0320000
        k(   23) = (  -0.2000000   0.4000000  -0.3103448), wk =   0.0640000
        k(   24) = (  -0.2000000   0.4000000  -0.6206897), wk =   0.0640000
        k(   25) = (  -0.4000000   0.4000000   0.0000000), wk =   0.0160000
        k(   26) = (  -0.4000000   0.4000000  -0.3103448), wk =   0.0320000
        k(   27) = (  -0.4000000   0.4000000  -0.6206897), wk =   0.0320000
        k(   28) = (   0.0000000   0.0000000   0.0000000), wk =   0.0080000
        k(   29) = (   0.0000000   0.0000000   0.3103448), wk =   0.0160000
        k(   30) = (   0.0000000   0.0000000   0.6206897), wk =   0.0160000
        k(   31) = (   0.0000000   0.2000000   0.0000000), wk =   0.0320000
        k(   32) = (   0.0000000   0.2000000   0.3103448), wk =   0.0640000
        k(   33) = (   0.0000000   0.2000000   0.6206897), wk =   0.0640000
        k(   34) = (   0.0000000   0.4000000   0.0000000), wk =   0.0320000
        k(   35) = (   0.0000000   0.4000000   0.3103448), wk =   0.0640000
        k(   36) = (   0.0000000   0.4000000   0.6206897), wk =   0.0640000
        k(   37) = (   0.2000000   0.2000000   0.0000000), wk =   0.0160000
        k(   38) = (   0.2000000   0.2000000   0.3103448), wk =   0.0320000
        k(   39) = (   0.2000000   0.2000000   0.6206897), wk =   0.0320000
        k(   40) = (   0.2000000   0.4000000   0.0000000), wk =   0.0320000
        k(   41) = (   0.2000000   0.4000000   0.3103448), wk =   0.0640000
        k(   42) = (   0.2000000   0.4000000   0.6206897), wk =   0.0640000
        k(   43) = (   0.4000000   0.4000000   0.0000000), wk =   0.0160000
        k(   44) = (   0.4000000   0.4000000   0.3103448), wk =   0.0320000
        k(   45) = (   0.4000000   0.4000000   0.6206897), wk =   0.0320000
        k(   46) = (  -0.2000000   0.2000000   0.0000000), wk =   0.0160000
        k(   47) = (  -0.2000000   0.2000000  -0.3103448), wk =   0.0320000
        k(   48) = (  -0.2000000   0.2000000  -0.6206897), wk =   0.0320000
        k(   49) = (  -0.2000000   0.4000000   0.0000000), wk =   0.0320000
        k(   50) = (  -0.2000000   0.4000000  -0.3103448), wk =   0.0640000
        k(   51) = (  -0.2000000   0.4000000  -0.6206897), wk =   0.0640000
        k(   52) = (  -0.4000000   0.4000000   0.0000000), wk =   0.0160000
        k(   53) = (  -0.4000000   0.4000000  -0.3103448), wk =   0.0320000
        k(   54) = (  -0.4000000   0.4000000  -0.6206897), wk =   0.0320000

     Largest allocated arrays     est. size (Mb)     dimensions
     Largest temporary arrays     est. size (Mb)     dimensions

     Check: negative/imaginary core charge=   -0.000004    0.000000

     Initial potential from superposition of free atoms
     Check: negative starting charge=(component1):   -0.029247
     Check: negative starting charge=(component2):   -0.029247

     starting charge   52.99990, renormalised to   54.00000

     negative rho (up, down):  0.298E-01 0.298E-01
     Starting wfc are   42 randomized atomic wfcs

     Self-consistent Calculation

     iteration #  1     ecut=    40.00 Ry     beta=0.30
     Davidson diagonalization with overlap
     ethr =  1.00E-02,  avg # of iterations =  5.1

     negative rho (up, down):  0.317E-01 0.317E-01

     total energy              =    -518.23075631 Ry
     Harris-Foulkes estimate   =    -518.74696412 Ry
     estimated scf accuracy    <       1.15908903 Ry

     total magnetization       =     0.00 Bohr mag/cell
     absolute magnetization    =     0.00 Bohr mag/cell

[...]

     End of self-consistent calculation

 ------ SPIN UP ------------

          k = 0.0000 0.0000 0.0000 (  1899 PWs)   bands (ev):

   -66.5046 -66.5015 -28.4102 -28.4102 -28.3885 -28.3625 -28.3081 -28.3081
    -6.9488  -5.8863  -4.7643  -4.7641   4.6794   5.0920   6.4317   6.9118
     6.9119   9.0678   9.0679   9.5867  10.6802  10.9240  10.9240  11.5195
    13.2302  13.2367  14.0738  14.2085  14.2086  17.2756  17.4462  18.3166
    20.5053  20.5054  21.9547  22.8048  22.8048  26.6629  26.9456  27.1847
    29.8270  30.2478  30.4196  30.4196  32.6391  33.6247  34.3974  34.3974
    35.4741  35.4741  36.6457  40.1383  40.5600  40.5600  40.9746  41.8431
    42.8603  43.8386  43.8959  43.8959  44.0745  44.6183  44.6183  45.2102
    45.6724  46.2047  46.2048  47.0715  49.3280  51.3101  51.3102  51.9198
    52.2568  52.3606  52.3606  53.0122  53.7088  53.7088  53.7398  53.8326
    54.6382

[...]

          k =-0.2000 0.2000 0.0000 (  1907 PWs)   bands (ev):

[...]

 ------ SPIN DOWN ----------

[...]

     the Fermi energy is    14.9249 ev

!    total energy              =    -518.46473197 Ry
     Harris-Foulkes estimate   =    -518.46472346 Ry
     estimated scf accuracy    <       0.00000048 Ry

     The total energy is the sum of the following terms:

     one-electron contribution =    -121.68348803 Ry
     hartree contribution      =      91.42623717 Ry
     xc contribution           =    -142.65580136 Ry
     ewald contribution        =    -345.55124792 Ry
     smearing contrib. (-TS)   =      -0.00043183 Ry

[...]

     convergence has been achieved in   8 iterations

     Forces acting on atoms (Ry/au):

     negative rho (up, down):  0.293E-01 0.293E-01
[...]
        k(    9) = (  -0.0000001   0.3777224   0.6960638), wk =   0.0640000
        k(   10) = (   0.1888611   0.1888611   0.0000000), wk =   0.0160000
        k(   11) = (   0.1888611   0.1888611   0.3480319), wk =   0.0320000
        k(   12) = (   0.1888611   0.1888611   0.6960638), wk =   0.0320000
        k(   13) = (   0.1888611   0.3777223   0.0000000), wk =   0.0320000
        k(   14) = (   0.1888611   0.3777223   0.3480319), wk =   0.0640000
        k(   15) = (   0.1888611   0.3777223   0.6960638), wk =   0.0640000
        k(   16) = (   0.3777223   0.3777223   0.0000000), wk =   0.0160000
        k(   17) = (   0.3777223   0.3777223   0.3480319), wk =   0.0320000
        k(   18) = (   0.3777223   0.3777223   0.6960638), wk =   0.0320000
        k(   19) = (  -0.1888613   0.1888613   0.0000000), wk =   0.0160000
        k(   20) = (  -0.1888613   0.1888613  -0.3480319), wk =   0.0320000
        k(   21) = (  -0.1888613   0.1888613  -0.6960638), wk =   0.0320000
        k(   22) = (  -0.1888613   0.3777224   0.0000000), wk =   0.0320000
        k(   23) = (  -0.1888613   0.3777224  -0.3480319), wk =   0.0640000
        k(   24) = (  -0.1888613   0.3777224  -0.6960638), wk =   0.0640000
        k(   25) = (  -0.3777225   0.3777225   0.0000000), wk =   0.0160000
        k(   26) = (  -0.3777225   0.3777225  -0.3480319), wk =   0.0320000
        k(   27) = (  -0.3777225   0.3777225  -0.6960638), wk =   0.0320000
        k(   28) = (   0.0000000   0.0000000   0.0000000), wk =   0.0080000
        k(   29) = (   0.0000000   0.0000000   0.3480319), wk =   0.0160000
        k(   30) = (   0.0000000   0.0000000   0.6960638), wk =   0.0160000
        k(   31) = (  -0.0000001   0.1888612   0.0000000), wk =   0.0320000
        k(   32) = (  -0.0000001   0.1888612   0.3480319), wk =   0.0640000
        k(   33) = (  -0.0000001   0.1888612   0.6960638), wk =   0.0640000
        k(   34) = (  -0.0000001   0.3777224   0.0000000), wk =   0.0320000
        k(   35) = (  -0.0000001   0.3777224   0.3480319), wk =   0.0640000
        k(   36) = (  -0.0000001   0.3777224   0.6960638), wk =   0.0640000
        k(   37) = (   0.1888611   0.1888611   0.0000000), wk =   0.0160000
        k(   38) = (   0.1888611   0.1888611   0.3480319), wk =   0.0320000
        k(   39) = (   0.1888611   0.1888611   0.6960638), wk =   0.0320000
        k(   40) = (   0.1888611   0.3777223   0.0000000), wk =   0.0320000
        k(   41) = (   0.1888611   0.3777223   0.3480319), wk =   0.0640000
        k(   42) = (   0.1888611   0.3777223   0.6960638), wk =   0.0640000
        k(   43) = (   0.3777223   0.3777223   0.0000000), wk =   0.0160000
        k(   44) = (   0.3777223   0.3777223   0.3480319), wk =   0.0320000
        k(   45) = (   0.3777223   0.3777223   0.6960638), wk =   0.0320000
        k(   46) = (  -0.1888613   0.1888613   0.0000000), wk =   0.0160000
        k(   47) = (  -0.1888613   0.1888613  -0.3480319), wk =   0.0320000
        k(   48) = (  -0.1888613   0.1888613  -0.6960638), wk =   0.0320000
        k(   49) = (  -0.1888613   0.3777224   0.0000000), wk =   0.0320000
        k(   50) = (  -0.1888613   0.3777224  -0.3480319), wk =   0.0640000
        k(   51) = (  -0.1888613   0.3777224  -0.6960638), wk =   0.0640000
        k(   52) = (  -0.3777225   0.3777225   0.0000000), wk =   0.0160000
        k(   53) = (  -0.3777225   0.3777225  -0.3480319), wk =   0.0320000
        k(   54) = (  -0.3777225   0.3777225  -0.6960638), wk =   0.0320000

     Check: negative/imaginary core charge=   -0.000003    0.000000
     Check: negative starting charge=(component1):   -0.057202

[...]

     Threshold (ethr) on eigenvalues was too large:
     Diagonalizing with lowered threshold

     Davidson diagonalization with overlap
     ethr =  9.63E-10,  avg # of iterations =  1.9

[...]

     Volume is kept fixed: isostatic pressure set to zero

     bfgs converged in   9 scf cycles and   8 bfgs steps
     (criteria: energy < 0.10E-03, force < 0.10E-02, cell < 0.50E+00)

     End of BFGS Geometry Optimization

     Final enthalpy =    -518.5495946739 Ry
Begin final coordinates
     new unit-cell volume =    443.28460 a.u.^3 (    65.68800 Ang^3 )

CELL_PARAMETERS (alat=  8.82739148)
   1.058978776   0.000000304   0.000000000
   0.000000304   1.058978776   0.000000000
   0.000000000   0.000000000   0.574660005

ATOMIC_POSITIONS (crystal)
Re0      0.000000000   0.000000000   0.000000000    0   0   0
Re0      0.500000000   0.500000000   0.500000000    0   0   0
O1       0.281284221   0.281284221   0.000000000    1   1   0
O1      -0.281284221  -0.281284221   0.000000000    1   1   0
O1       0.781283734   0.218716266   0.500000000    1   1   0
O1       0.218716266   0.781283734   0.500000000    1   1   0
End final coordinates

     A final scf calculation at the relaxed structure.
     The G-vectors are recalculated for the final unit cell
     Results may differ from those at the preceding step.

     bravais-lattice index     =            0
     lattice parameter (alat)  =       8.8274  a.u.
     unit-cell volume          =     443.2846 (a.u.)^3
     number of atoms/cell      =            6
     number of atomic types    =            2
     number of electrons       =        54.00
     number of Kohn-Sham states=           81
     kinetic-energy cutoff     =      40.0000  Ry
     charge density cutoff     =     500.0000  Ry
     convergence threshold     =      1.0E-08
     mixing beta               =       0.3000
     number of iterations used =            8  plain     mixing
     Exchange-correlation      = SLA  PW   PBE  PBE ( 1 4 3 4 0)
     EXX-fraction              =        0.00

     celldm(1)=   8.827391  celldm(2)=   0.000000  celldm(3)=   0.000000
     celldm(4)=   0.000000  celldm(5)=   0.000000  celldm(6)=   0.000000

     crystal axes: (cart. coord. in units of alat)
               a(1) = (   1.058979   0.000000   0.000000 )
               a(2) = (   0.000000   1.058979   0.000000 )
               a(3) = (   0.000000   0.000000   0.574660 )

     reciprocal axes: (cart. coord. in units 2 pi/alat)
               b(1) = (  0.944306 -0.000000  0.000000 )
               b(2) = ( -0.000000  0.944306  0.000000 )
               b(3) = (  0.000000  0.000000  1.740159 )

     PseudoPot. # 1 for Re read from file:
     /home/camp/zhonxu/pseudo/re_pbe_v1.uspp.F.UPF
     MD5 check sum: 6f5a5dcaf9c96c20d0ffdde0de57afc6
     Pseudo is Ultrasoft + core correction, Zval = 15.0
     Generated by new atomic code, or converted to UPF format
     Using radial grid of  981 points,  8 beta functions with:
                l(1) =   0
                l(2) =   0
                l(3) =   1
                l(4) =   1
                l(5) =   2
                l(6) =   2
                l(7) =   3
                l(8) =   3
     Q(r) pseudized with  8 coefficients,  rinner =    1.000   1.000   1.000
                                                       1.000   1.000   1.000
                                                       1.000

     PseudoPot. # 2 for O  read from file:
     /home/camp/zhonxu/pseudo/o_pbe_v1.01.uspp.F.UPF
     MD5 check sum: 2bcb18d16ea4b960afae9ec6d52f22d2
     Pseudo is Ultrasoft + core correction, Zval =  6.0
     Generated by new atomic code, or converted to UPF format
     Using radial grid of  737 points,  5 beta functions with:
                l(1) =   0
                l(2) =   0
                l(3) =   1
                l(4) =   1
                l(5) =   2
     Q(r) pseudized with  8 coefficients,  rinner =    0.900   0.900   0.900
                                                       0.900   0.900

     atomic species   valence    mass     pseudopotential
        Re0           15.00   186.20700     Re( 1.00)
        O1             6.00    15.99940     O ( 1.00)

     Starting magnetic structure
     atomic species   magnetization
        Re0          0.000
        O1           0.000

      8 Sym. Ops., with inversion, found
          (note:  8 additional sym.ops. were found but ignored
           their fractional translations are incommensurate with FFT grid)

   Cartesian axes

     site n.     atom                  positions (alat units)
         1           Re0 tau(   1) = (   0.0000000   0.0000000   0.0000000  )
         2           Re0 tau(   2) = (   0.5294895   0.5294895   0.2873300  )
         3           O1  tau(   3) = (   0.2978741   0.2978741   0.0000000  )
         4           O1  tau(   4) = (  -0.2978741  -0.2978741   0.0000000  )
         5           O1  tau(   5) = (   0.8273630   0.2316161   0.2873300  )
         6           O1  tau(   6) = (   0.2316161   0.8273630   0.2873300  )

     number of k points=    54  Methfessel-Paxton smearing, width (Ry)=  0.0100
                       cart. coord. in units 2pi/alat
        k(    1) = (   0.0000000   0.0000000   0.0000000), wk =   0.0080000
        k(    2) = (   0.0000000   0.0000000   0.3480319), wk =   0.0160000
        k(    3) = (   0.0000000   0.0000000   0.6960638), wk =   0.0160000
        k(    4) = (  -0.0000001   0.1888612   0.0000000), wk =   0.0320000
        k(    5) = (  -0.0000001   0.1888612   0.3480319), wk =   0.0640000
        k(    6) = (  -0.0000001   0.1888612   0.6960638), wk =   0.0640000
        k(    7) = (  -0.0000001   0.3777224   0.0000000), wk =   0.0320000
        k(    8) = (  -0.0000001   0.3777224   0.3480319), wk =   0.0640000
        k(    9) = (  -0.0000001   0.3777224   0.6960638), wk =   0.0640000
        k(   10) = (   0.1888611   0.1888611   0.0000000), wk =   0.0160000
        k(   11) = (   0.1888611   0.1888611   0.3480319), wk =   0.0320000
        k(   12) = (   0.1888611   0.1888611   0.6960638), wk =   0.0320000
        k(   13) = (   0.1888611   0.3777223   0.0000000), wk =   0.0320000
        k(   14) = (   0.1888611   0.3777223   0.3480319), wk =   0.0640000
        k(   15) = (   0.1888611   0.3777223   0.6960638), wk =   0.0640000
        k(   16) = (   0.3777223   0.3777223   0.0000000), wk =   0.0160000
        k(   17) = (   0.3777223   0.3777223   0.3480319), wk =   0.0320000
        k(   18) = (   0.3777223   0.3777223   0.6960638), wk =   0.0320000
        k(   19) = (  -0.1888613   0.1888613   0.0000000), wk =   0.0160000
        k(   20) = (  -0.1888613   0.1888613  -0.3480319), wk =   0.0320000
        k(   21) = (  -0.1888613   0.1888613  -0.6960638), wk =   0.0320000
        k(   22) = (  -0.1888613   0.3777224   0.0000000), wk =   0.0320000
        k(   23) = (  -0.1888613   0.3777224  -0.3480319), wk =   0.0640000
        k(   24) = (  -0.1888613   0.3777224  -0.6960638), wk =   0.0640000
        k(   25) = (  -0.3777225   0.3777225   0.0000000), wk =   0.0160000
        k(   26) = (  -0.3777225   0.3777225  -0.3480319), wk =   0.0320000
        k(   27) = (  -0.3777225   0.3777225  -0.6960638), wk =   0.0320000
        k(   28) = (   0.0000000   0.0000000   0.0000000), wk =   0.0080000
        k(   29) = (   0.0000000   0.0000000   0.3480319), wk =   0.0160000
        k(   30) = (   0.0000000   0.0000000   0.6960638), wk =   0.0160000
        k(   31) = (  -0.0000001   0.1888612   0.0000000), wk =   0.0320000
        k(   32) = (  -0.0000001   0.1888612   0.3480319), wk =   0.0640000
        k(   33) = (  -0.0000001   0.1888612   0.6960638), wk =   0.0640000
        k(   34) = (  -0.0000001   0.3777224   0.0000000), wk =   0.0320000
        k(   35) = (  -0.0000001   0.3777224   0.3480319), wk =   0.0640000
        k(   36) = (  -0.0000001   0.3777224   0.6960638), wk =   0.0640000
        k(   37) = (   0.1888611   0.1888611   0.0000000), wk =   0.0160000
        k(   38) = (   0.1888611   0.1888611   0.3480319), wk =   0.0320000
        k(   39) = (   0.1888611   0.1888611   0.6960638), wk =   0.0320000
        k(   40) = (   0.1888611   0.3777223   0.0000000), wk =   0.0320000
        k(   41) = (   0.1888611   0.3777223   0.3480319), wk =   0.0640000
        k(   42) = (   0.1888611   0.3777223   0.6960638), wk =   0.0640000
        k(   43) = (   0.3777223   0.3777223   0.0000000), wk =   0.0160000
        k(   44) = (   0.3777223   0.3777223   0.3480319), wk =   0.0320000
        k(   45) = (   0.3777223   0.3777223   0.6960638), wk =   0.0320000
        k(   46) = (  -0.1888613   0.1888613   0.0000000), wk =   0.0160000
        k(   47) = (  -0.1888613   0.1888613  -0.3480319), wk =   0.0320000
        k(   48) = (  -0.1888613   0.1888613  -0.6960638), wk =   0.0320000
        k(   49) = (  -0.1888613   0.3777224   0.0000000), wk =   0.0320000
        k(   50) = (  -0.1888613   0.3777224  -0.3480319), wk =   0.0640000
        k(   51) = (  -0.1888613   0.3777224  -0.6960638), wk =   0.0640000
        k(   52) = (  -0.3777225   0.3777225   0.0000000), wk =   0.0160000
        k(   53) = (  -0.3777225   0.3777225  -0.3480319), wk =   0.0320000
        k(   54) = (  -0.3777225   0.3777225  -0.6960638), wk =   0.0320000

     Largest allocated arrays     est. size (Mb)     dimensions
     Largest temporary arrays     est. size (Mb)     dimensions

     Check: negative/imaginary core charge=   -0.000004    0.000000

     Initial potential from superposition of free atoms
     Check: negative starting charge=(component1):   -0.030222
     Check: negative starting charge=(component2):   -0.030222

     starting charge   52.99990, renormalised to   54.00000

     negative rho (up, down):  0.308E-01 0.308E-01
     Starting wfc are   42 randomized atomic wfcs

     Self-consistent Calculation

[...]

     total energy              =    -518.55112686 Ry
     Harris-Foulkes estimate   =    -518.55112471 Ry
     estimated scf accuracy    <       0.00000011 Ry

[...]

     iteration # 10     ecut=    40.00 Ry     beta=0.30
     Davidson diagonalization with overlap
     ethr =  2.11E-10,  avg # of iterations =  1.0

     negative rho (up, down):  0.313E-01 0.313E-01

     End of self-consistent calculation

 ------ SPIN UP ------------

[...]

 ------ SPIN DOWN ----------

[...]

          k = 0.3777 0.3777 0.6961 (  1900 PWs)   bands (ev):

[...]

          k =-0.3777 0.3777-0.6961 (  1900 PWs)   bands (ev):

   -67.0194 -67.0193 -29.2097 -29.2092 -28.9097 -28.9078 -28.8762 -28.8750
    -5.5217  -5.3096  -5.1532  -4.9154   5.9479   6.3269   6.5034   6.8067
     6.8729   7.6044   7.7031   8.4311   9.6569   9.8396  10.6653  10.8842
    13.4364  13.7269  14.5746  14.9742  16.3271  16.4225  18.2090  19.1930
    19.4806  20.2838  23.1363  23.5896  23.9699  24.0976  27.7354  27.7933
    28.4987  28.6690  30.4775  30.7811  31.9252  32.5850  33.1051  33.7693
    36.1288  36.4317  37.3680  37.4914  39.8892  40.2530  41.3731  41.8122
    42.0682  42.3160  43.8647  44.7135  44.9086  45.3008  45.6809  46.2430
    46.6969  46.8851  47.1414  47.8259  48.5458  48.5817  49.2262  49.4254
    50.8040  51.8015  54.2458  54.9763  55.2579  55.6162  56.3723  56.5025
    57.7963

     the Fermi energy is    14.7576 ev

!    total energy              =    -518.55112897 Ry
     Harris-Foulkes estimate   =    -518.55112689 Ry
     estimated scf accuracy    <          8.0E-09 Ry

     The total energy is the sum of the following terms:

     one-electron contribution =    -126.42058929 Ry
     hartree contribution      =      93.31114447 Ry
     xc contribution           =    -142.55832983 Ry
     ewald contribution        =    -342.88290247 Ry
     smearing contrib. (-TS)   =      -0.00045185 Ry

     total magnetization       =     0.00 Bohr mag/cell
     absolute magnetization    =     0.00 Bohr mag/cell

     convergence has been achieved in  10 iterations

     Forces acting on atoms (Ry/au):

     negative rho (up, down):  0.313E-01 0.313E-01
     atom    1 type  1   force =     0.00000000    0.00000000    0.00000000
     atom    2 type  1   force =     0.00000000    0.00000000    0.00000000
     atom    3 type  2   force =    -0.00011856   -0.00011856    0.00000000
     atom    4 type  2   force =     0.00011856    0.00011856    0.00000000
     atom    5 type  2   force =    -0.00011743    0.00011743   -0.00000000
     atom    6 type  2   force =     0.00011743   -0.00011743   -0.00000000

     Total force =     0.000334     Total SCF correction =     0.000038
     SCF correction compared to forces is large: reduce conv_thr to get better values

     entering subroutine stress ...

     negative rho (up, down):  0.313E-01 0.313E-01
          total   stress  (Ry/bohr**3)                   (kbar)     P=  -21.02
  -0.00012257   0.00000003   0.00000000        -18.03      0.00      0.00
   0.00000003  -0.00012257   0.00000000          0.00    -18.03      0.00
   0.00000000   0.00000000  -0.00018355          0.00      0.00    -27.00

     General routines

     Parallel routines

   This run was terminated on:  19:45:39  31Jan2014

   JOB DONE.