     Program PWSCF v.5.0.2 (svn rev. 9656) starts on  6May2014 at  5: 9:16

     Current dimensions of program PWSCF are:
     Max number of different atomic species (ntypx) = 10
     Max number of k-points (npk) =  40000
     Max angular momentum in pseudopotentials (lmaxx) =  3
     Reading input from pwscf.in
Warning: card &CELL ignored
Warning: card / ignored

     Subspace diagonalization in iterative solution of the eigenvalue problem:
     a serial algorithm will be used

     bravais-lattice index     =            0
     lattice parameter (alat)  =      11.7919  a.u.
     unit-cell volume          =    7123.6633 (a.u.)^3
     number of atoms/cell      =           30
     number of atomic types    =            3
     number of electrons       =       240.00
     number of Kohn-Sham states=          348
     kinetic-energy cutoff     =      40.0000  Ry
     charge density cutoff     =     500.0000  Ry
     convergence threshold     =      1.0E-06
     mixing beta               =       0.7000
     number of iterations used =            8  plain     mixing
     Exchange-correlation      = SLA  PW   PBE  PBE ( 1 4 3 4 0)
     EXX-fraction              =        0.00
     nstep                     =           50

     celldm(1)=  11.791891  celldm(2)=   0.000000  celldm(3)=   0.000000
     celldm(4)=   0.000000  celldm(5)=   0.000000  celldm(6)=   0.000000

     crystal axes: (cart. coord. in units of alat)
               a(1) = (   1.000000   0.000000   0.000000 )
               a(2) = (   0.000000   1.026665   0.000000 )
               a(3) = (   0.000000   0.000000   4.231793 )

     reciprocal axes: (cart. coord. in units 2 pi/alat)
               b(1) = (  1.000000  0.000000  0.000000 )
               b(2) = (  0.000000  0.974028  0.000000 )
               b(3) = (  0.000000  0.000000  0.236306 )

     PseudoPot. # 1 for O  read from file:
     /home/camp/zhonxu/pseudo/o_pbe_v1.01.uspp.F.UPF
     MD5 check sum: 2bcb18d16ea4b960afae9ec6d52f22d2
     Pseudo is Ultrasoft + core correction, Zval =  6.0
     Generated by new atomic code, or converted to UPF format
     Using radial grid of  737 points,  5 beta functions with:
                l(1) =   0
                l(2) =   0
                l(3) =   1
                l(4) =   1
                l(5) =   2
     Q(r) pseudized with  8 coefficients,  rinner =    0.900   0.900   0.900
                                                       0.900   0.900

     PseudoPot. # 2 for Ru read from file:
     /home/camp/zhonxu/pseudo/ru_pbe_v1.uspp.F.UPF
     MD5 check sum: df00be1c11b23341d9806d8f1dfa10cf
     Pseudo is Ultrasoft + core correction, Zval = 16.0
     Generated by new atomic code, or converted to UPF format
     Using radial grid of  967 points,  6 beta functions with:
                l(1) =   0
                l(2) =   0
                l(3) =   1
                l(4) =   1
                l(5) =   2
                l(6) =   2
     Q(r) pseudized with  8 coefficients,  rinner =    1.300   1.300   1.300
                                                       1.300   1.300

     PseudoPot. # 3 for H  read from file:
     /home/camp/zhonxu/pseudo/h_pbe_v1.uspp.F.UPF
     MD5 check sum: 3408e3ff4ec8b0a4e358431e7e038a48
     Pseudo is Ultrasoft, Zval =  1.0
     Generated by new atomic code, or converted to UPF format
     Using radial grid of  615 points,  2 beta functions with:
                l(1) =   0
                l(2) =   0
     Q(r) pseudized with  8 coefficients,  rinner =    0.700

     atomic species   valence    mass     pseudopotential
        O0             6.00    15.99940     O ( 1.00)
        Ru1           16.00   101.07000     Ru( 1.00)
        H2             1.00     1.00794     H ( 1.00)

     Simplified LDA+U calculation (l_max = 2) with parameters (eV):
     atomic species    L          U    alpha       J0     beta
        Ru1            2     6.5000   0.0000   0.0000   0.0000

     No symmetry found

   Cartesian axes

     site n.     atom                  positions (alat units)
         1           O0  tau(   1) = (   0.0000000   0.0000000   1.6080390  )
         2           O0  tau(   2) = (   0.0000000   0.5133323   1.7023233  )
         3           Ru1 tau(   3) = (   0.2500000   0.5133323   1.9175523  )
         4           Ru1 tau(   4) = (   0.0000000   0.0000000   1.9215302  )
         5           O0  tau(   5) = (   0.2500000   0.8315984   1.9195836  )
         6           O0  tau(   6) = (   0.2500000   0.1950663   1.9193297  )
         7           O0  tau(   7) = (   0.0000000   0.5133323   2.1106490  )
         8           O0  tau(   8) = (   0.0000000   0.0000000   2.2345136  )
         9           Ru1 tau(   9) = (   0.2500000   0.0000000   2.4487269  )
        10           Ru1 tau(  10) = (   0.0000000   0.5133323   2.4113179  )
        11           O0  tau(  11) = (   0.2500000   0.7083986   2.4387399  )
        12           O0  tau(  12) = (   0.2500000   0.3182660   2.4402210  )
        13           O0  tau(  13) = (   0.0000000   0.0000000   2.6238385  )
        14           O0  tau(  14) = (   0.5000000   0.0000000   1.6080390  )
        15           O0  tau(  15) = (   0.5000000   0.5133323   1.7023233  )
        16           Ru1 tau(  16) = (   0.7500000   0.5133323   1.9175523  )
        17           Ru1 tau(  17) = (   0.5000000   0.0000000   1.9215302  )
        18           O0  tau(  18) = (   0.7500000   0.8315984   1.9195836  )
        19           O0  tau(  19) = (   0.7500000   0.1950663   1.9193297  )
        20           O0  tau(  20) = (   0.5000000   0.5133323   2.1106490  )
        21           O0  tau(  21) = (   0.5000000   0.0000000   2.2345136  )
        22           Ru1 tau(  22) = (   0.7500000   0.0000000   2.4487269  )
        23           Ru1 tau(  23) = (   0.5000000   0.5133323   2.4113179  )
        24           O0  tau(  24) = (   0.7500000   0.7083986   2.4387399  )
        25           O0  tau(  25) = (   0.7500000   0.3182660   2.4401787  )
        26           O0  tau(  26) = (   0.5000000   0.0000000   2.6238385  )
        27           H2  tau(  27) = (  -0.0004100   0.6466653   1.6162063  )
        28           H2  tau(  28) = (   0.4995900   0.6466653   1.6162063  )
        29           H2  tau(  29) = (   0.1464700   0.0296706   1.5559879  )
        30           H2  tau(  30) = (   0.6464700   0.0296706   1.5559879  )

     number of k points=    10  Methfessel-Paxton smearing, width (Ry)=  0.0100
                       cart. coord. in units 2pi/alat
        k(    1) = (   0.0000000   0.0000000   0.0000000), wk =   0.1250000
        k(    2) = (   0.0000000   0.2435070   0.0000000), wk =   0.2500000
        k(    3) = (   0.0000000  -0.4870139   0.0000000), wk =   0.1250000
        k(    4) = (   0.2500000   0.0000000   0.0000000), wk =   0.2500000
        k(    5) = (   0.2500000   0.2435070   0.0000000), wk =   0.2500000
        k(    6) = (   0.2500000  -0.4870139   0.0000000), wk =   0.2500000
        k(    7) = (  -0.5000000   0.0000000   0.0000000), wk =   0.1250000
        k(    8) = (  -0.5000000   0.2435070   0.0000000), wk =   0.2500000
        k(    9) = (  -0.5000000  -0.4870139   0.0000000), wk =   0.1250000
        k(   10) = (  -0.2500000   0.2435070   0.0000000), wk =   0.2500000

     Largest allocated arrays     est. size (Mb)     dimensions
     Largest temporary arrays     est. size (Mb)     dimensions

     Check: negative/imaginary core charge=   -0.000003    0.000000

     Initial potential from superposition of free atoms
     Check: negative starting charge=   -0.522083

     starting charge  231.99981, renormalised to  240.00000

     negative rho (up, down):  0.540E+00 0.000E+00
     Number of +U iterations with fixed ns =  0
     Starting occupations:
 --- enter write_ns ---
 LDA+U parameters:
U( 2)     =  6.50000000
alpha( 2) =  0.00000000
atom    3   Tr[ns(na)] =   6.00000
    eigenvalues:
  0.600  0.600  0.600  0.600  0.600
    eigenvectors:
  1.000  0.000  0.000  0.000  0.000
  0.000  1.000  0.000  0.000  0.000
  0.000  0.000  1.000  0.000  0.000
  0.000  0.000  0.000  1.000  0.000
  0.000  0.000  0.000  0.000  1.000
    occupations:
  0.600  0.000  0.000  0.000  0.000
  0.000  0.600  0.000  0.000  0.000
  0.000  0.000  0.600  0.000  0.000
  0.000  0.000  0.000  0.600  0.000
  0.000  0.000  0.000  0.000  0.600
atom    4   Tr[ns(na)] =   6.00000
    eigenvalues:
  0.600  0.600  0.600  0.600  0.600
    eigenvectors:
  1.000  0.000  0.000  0.000  0.000
  0.000  1.000  0.000  0.000  0.000
  0.000  0.000  1.000  0.000  0.000
  0.000  0.000  0.000  1.000  0.000
  0.000  0.000  0.000  0.000  1.000
    occupations:
  0.600  0.000  0.000  0.000  0.000
  0.000  0.600  0.000  0.000  0.000
  0.000  0.000  0.600  0.000  0.000
  0.000  0.000  0.000  0.600  0.000
  0.000  0.000  0.000  0.000  0.600
atom    9   Tr[ns(na)] =   6.00000
    eigenvalues:
  0.600  0.600  0.600  0.600  0.600
    eigenvectors:
  1.000  0.000  0.000  0.000  0.000
  0.000  1.000  0.000  0.000  0.000
  0.000  0.000  1.000  0.000  0.000
  0.000  0.000  0.000  1.000  0.000
  0.000  0.000  0.000  0.000  1.000
    occupations:
  0.600  0.000  0.000  0.000  0.000
  0.000  0.600  0.000  0.000  0.000
  0.000  0.000  0.600  0.000  0.000
  0.000  0.000  0.000  0.600  0.000
  0.000  0.000  0.000  0.000  0.600
atom   10   Tr[ns(na)] =   6.00000
    eigenvalues:
  0.600  0.600  0.600  0.600  0.600
    eigenvectors:
  1.000  0.000  0.000  0.000  0.000
  0.000  1.000  0.000  0.000  0.000
  0.000  0.000  1.000  0.000  0.000
  0.000  0.000  0.000  1.000  0.000
  0.000  0.000  0.000  0.000  1.000
    occupations:
  0.600  0.000  0.000  0.000  0.000
  0.000  0.600  0.000  0.000  0.000
  0.000  0.000  0.600  0.000  0.000
  0.000  0.000  0.000  0.600  0.000
  0.000  0.000  0.000  0.000  0.600
atom   16   Tr[ns(na)] =   6.00000
    eigenvalues:
  0.600  0.600  0.600  0.600  0.600
    eigenvectors:
  1.000  0.000  0.000  0.000  0.000
  0.000  1.000  0.000  0.000  0.000
  0.000  0.000  1.000  0.000  0.000
  0.000  0.000  0.000  1.000  0.000
  0.000  0.000  0.000  0.000  1.000
    occupations:
  0.600  0.000  0.000  0.000  0.000
  0.000  0.600  0.000  0.000  0.000
  0.000  0.000  0.600  0.000  0.000
  0.000  0.000  0.000  0.600  0.000
  0.000  0.000  0.000  0.000  0.600
atom   17   Tr[ns(na)] =   6.00000
    eigenvalues:
  0.600  0.600  0.600  0.600  0.600
    eigenvectors:
  1.000  0.000  0.000  0.000  0.000
  0.000  1.000  0.000  0.000  0.000
  0.000  0.000  1.000  0.000  0.000
  0.000  0.000  0.000  1.000  0.000
  0.000  0.000  0.000  0.000  1.000
    occupations:
  0.600  0.000  0.000  0.000  0.000
  0.000  0.600  0.000  0.000  0.000
  0.000  0.000  0.600  0.000  0.000
  0.000  0.000  0.000  0.600  0.000
  0.000  0.000  0.000  0.000  0.600
atom   22   Tr[ns(na)] =   6.00000
    eigenvalues:
  0.600  0.600  0.600  0.600  0.600
    eigenvectors:
  1.000  0.000  0.000  0.000  0.000
  0.000  1.000  0.000  0.000  0.000
  0.000  0.000  1.000  0.000  0.000
  0.000  0.000  0.000  1.000  0.000
  0.000  0.000  0.000  0.000  1.000
    occupations:
  0.600  0.000  0.000  0.000  0.000
  0.000  0.600  0.000  0.000  0.000
  0.000  0.000  0.600  0.000  0.000
  0.000  0.000  0.000  0.600  0.000
[...]
 -0.000 -0.007  0.001 -0.000  0.917
atom    4   Tr[ns(na)] =   7.26746
    eigenvalues:
  0.551  0.609  0.637  0.850  0.986
    eigenvectors:
  0.001  0.983  0.000  0.000  0.015
  0.000  0.000  0.017  0.983  0.000
  0.000  0.000  0.983  0.017  0.000
  0.000  0.015  0.000  0.000  0.985
  0.998  0.001  0.000  0.000  0.000
    occupations:
  0.614 -0.001  0.000  0.046  0.002
 -0.001  0.847  0.027 -0.001 -0.002
  0.000  0.027  0.641  0.002  0.000
  0.046 -0.001  0.002  0.980  0.000
  0.002 -0.002  0.000  0.000  0.551
atom    9   Tr[ns(na)] =   7.30518
    eigenvalues:
  0.552  0.576  0.765  0.873  0.886
    eigenvectors:
  0.000  0.135  0.004  0.611  0.250
  1.000  0.000  0.000  0.000  0.000
  0.000  0.000  0.995  0.004  0.001
  0.000  0.864  0.001  0.094  0.040
  0.000  0.000  0.000  0.291  0.709
    occupations:
  0.835  0.001 -0.008 -0.102  0.005
  0.001  0.552  0.002  0.000  0.001
 -0.008  0.002  0.766  0.001  0.001
 -0.102  0.000  0.001  0.617 -0.003
  0.005  0.001  0.001 -0.003  0.882
atom   10   Tr[ns(na)] =   7.29900
    eigenvalues:
  0.497  0.522  0.777  0.878  0.976
    eigenvectors:
  0.985  0.000  0.000  0.000  0.015
  0.000  0.000  0.000  1.000  0.000
  0.000  0.000  1.000  0.000  0.000
  0.015  0.000  0.000  0.000  0.985
  0.000  1.000  0.000  0.000  0.000
    occupations:
  0.504  0.000  0.002  0.058  0.000
  0.000  0.878  0.000  0.000 -0.001
  0.002  0.000  0.777 -0.003 -0.000
  0.058  0.000 -0.003  0.969 -0.000
  0.000 -0.001 -0.000 -0.000  0.522
atom   16   Tr[ns(na)] =   7.27459
    eigenvalues:
  0.492  0.543  0.704  0.917  0.981
    eigenvectors:
  0.000  0.180  0.008  0.000  0.812
  1.000  0.000  0.000  0.000  0.000
  0.000  0.002  0.983  0.000  0.015
  0.000  0.818  0.008  0.000  0.173
  0.000  0.000  0.000  1.000  0.000
    occupations:
  0.900 -0.000  0.034 -0.166 -0.000
 -0.000  0.492 -0.000 -0.000 -0.007
  0.034 -0.000  0.708 -0.008  0.001
 -0.166 -0.000 -0.008  0.620 -0.000
 -0.000 -0.007  0.001 -0.000  0.917
atom   17   Tr[ns(na)] =   7.26763
    eigenvalues:
  0.551  0.609  0.637  0.850  0.986
    eigenvectors:
  0.001  0.983  0.000  0.000  0.015
  0.000  0.000  0.017  0.983  0.000
  0.000  0.000  0.983  0.017  0.000
  0.000  0.015  0.000  0.000  0.985
  0.998  0.001  0.000  0.000  0.000
    occupations:
  0.614 -0.001  0.000  0.046  0.002
 -0.001  0.847  0.027 -0.001 -0.002
  0.000  0.027  0.641  0.002  0.000
  0.046 -0.001  0.002  0.981  0.000
  0.002 -0.002  0.000  0.000  0.551
atom   22   Tr[ns(na)] =   7.30660
    eigenvalues:
  0.552  0.576  0.763  0.875  0.887
    eigenvectors:
  0.000  0.136  0.003  0.520  0.341
  1.000  0.000  0.000  0.000  0.000
  0.000  0.000  0.995  0.003  0.001
  0.000  0.864  0.001  0.080  0.055
  0.000  0.000  0.000  0.397  0.603
    occupations:
  0.838  0.001 -0.008 -0.104  0.005
  0.001  0.552  0.002  0.000  0.001
 -0.008  0.002  0.764  0.001  0.001
 -0.104  0.000  0.001  0.617 -0.003
  0.005  0.001  0.001 -0.003  0.882
atom   23   Tr[ns(na)] =   7.29918
    eigenvalues:
  0.496  0.522  0.777  0.878  0.976
    eigenvectors:
  0.985  0.000  0.000  0.000  0.015
  0.000  0.000  0.000  1.000  0.000
  0.000  0.000  1.000  0.000  0.000
  0.015  0.000  0.000  0.000  0.985
  0.000  1.000  0.000  0.000  0.000
    occupations:
  0.504  0.000  0.002  0.058  0.000
  0.000  0.878  0.000  0.000 -0.001
  0.002  0.000  0.777 -0.003 -0.000
  0.058  0.000 -0.003  0.969 -0.000
  0.000 -0.001 -0.000 -0.000  0.522
N of occupied +U levels =  58.2942373
 --- exit write_ns ---

     Threshold (ethr) on eigenvalues was too large:
     Diagonalizing with lowered threshold

     Davidson diagonalization with overlap
     ethr =  6.87E-08,  avg # of iterations =  1.0

[...]

     total energy              =   -2127.94313867 Ry
     Harris-Foulkes estimate   =   -2127.94313867 Ry
     estimated scf accuracy    <       0.00000002 Ry

     iteration # 18     ecut=    40.00 Ry     beta=0.70
     Davidson diagonalization with overlap
     ethr =  8.06E-12,  avg # of iterations =  1.0

     negative rho (up, down):  0.568E+00 0.000E+00

     End of self-consistent calculation
 --- enter write_ns ---
 LDA+U parameters:
U( 2)     =  6.50000000
alpha( 2) =  0.00000000
atom    3   Tr[ns(na)] =   7.27718
    eigenvalues:
  0.492  0.543  0.705  0.917  0.981
    eigenvectors:
  0.000  0.180  0.008  0.000  0.812
  1.000  0.000  0.000  0.000  0.000
  0.000  0.002  0.983  0.000  0.015
  0.000  0.818  0.008  0.000  0.173
  0.000  0.000  0.000  1.000  0.000
    occupations:
  0.900 -0.000  0.033 -0.166 -0.000
 -0.000  0.492 -0.000 -0.000 -0.007
  0.033 -0.000  0.709 -0.008  0.001
 -0.166 -0.000 -0.008  0.620 -0.000
 -0.000 -0.007  0.001 -0.000  0.917
atom    4   Tr[ns(na)] =   7.26883
    eigenvalues:
  0.551  0.609  0.637  0.851  0.986
    eigenvectors:
  0.001  0.983  0.000  0.000  0.015
  0.000  0.000  0.017  0.983  0.000
  0.000  0.000  0.983  0.017  0.000
  0.000  0.015  0.000  0.000  0.985
  0.998  0.001  0.000  0.000  0.000
    occupations:
  0.614 -0.001  0.000  0.046  0.002
 -0.001  0.847  0.027 -0.001 -0.002
  0.000  0.027  0.641  0.002  0.000
  0.046 -0.001  0.002  0.980  0.000
  0.002 -0.002  0.000  0.000  0.551
atom    9   Tr[ns(na)] =   7.30309
    eigenvalues:
  0.552  0.576  0.765  0.872  0.885
    eigenvectors:
  0.000  0.136  0.004  0.623  0.238
  1.000  0.000  0.000  0.000  0.000
  0.000  0.000  0.995  0.004  0.001
  0.000  0.864  0.001  0.096  0.038
  0.000  0.000  0.000  0.277  0.723
    occupations:
  0.835  0.001 -0.008 -0.102  0.005
  0.001  0.552  0.002  0.000  0.001
 -0.008  0.002  0.766  0.001  0.001
 -0.102  0.000  0.001  0.617 -0.003
  0.005  0.001  0.001 -0.003  0.882
atom   10   Tr[ns(na)] =   7.29818
    eigenvalues:
  0.496  0.522  0.777  0.878  0.976
    eigenvectors:
  0.985  0.000  0.000  0.000  0.015
  0.000  0.000  0.000  1.000  0.000
  0.000  0.000  1.000  0.000  0.000
  0.015  0.000  0.000  0.000  0.985
  0.000  1.000  0.000  0.000  0.000
    occupations:
  0.503  0.000  0.002  0.058  0.000
  0.000  0.878  0.000  0.000 -0.001
  0.002  0.000  0.777 -0.003 -0.000
  0.058  0.000 -0.003  0.969 -0.000
  0.000 -0.001 -0.000 -0.000  0.522
atom   16   Tr[ns(na)] =   7.27729
    eigenvalues:
  0.492  0.543  0.705  0.918  0.981
    eigenvectors:
  0.000  0.180  0.008  0.000  0.812
  1.000  0.000  0.000  0.000  0.000
  0.000  0.002  0.983  0.000  0.015
  0.000  0.818  0.008  0.000  0.173
  0.000  0.000  0.000  1.000  0.000
    occupations:
  0.900 -0.000  0.033 -0.166 -0.000
 -0.000  0.492 -0.000 -0.000 -0.007
  0.033 -0.000  0.709 -0.008  0.001
 -0.166 -0.000 -0.008  0.620 -0.000
 -0.000 -0.007  0.001 -0.000  0.917
atom   17   Tr[ns(na)] =   7.26884
    eigenvalues:
  0.551  0.609  0.638  0.851  0.986
    eigenvectors:
  0.001  0.983  0.000  0.000  0.015
  0.000  0.000  0.017  0.983  0.000
  0.000  0.000  0.983  0.017  0.000
  0.000  0.015  0.000  0.000  0.985
  0.998  0.001  0.000  0.000  0.000
    occupations:
  0.614 -0.001  0.000  0.046  0.002
 -0.001  0.847  0.027 -0.000 -0.002
  0.000  0.027  0.641  0.002  0.000
  0.046 -0.000  0.002  0.981  0.000
  0.002 -0.002  0.000  0.000  0.551
atom   22   Tr[ns(na)] =   7.30357
    eigenvalues:
  0.552  0.576  0.763  0.874  0.887
    eigenvectors:
  0.000  0.136  0.003  0.523  0.338
  1.000  0.000  0.000  0.000  0.000
  0.000  0.000  0.995  0.003  0.001
  0.000  0.864  0.001  0.081  0.054
  0.000  0.000  0.000  0.393  0.607
    occupations:
  0.838  0.001 -0.008 -0.104  0.005
  0.001  0.552  0.002  0.000  0.001
 -0.008  0.002  0.763  0.001  0.001
 -0.104  0.000  0.001  0.617 -0.003
  0.005  0.001  0.001 -0.003  0.882
atom   23   Tr[ns(na)] =   7.29821
    eigenvalues:
  0.496  0.522  0.777  0.878  0.976
    eigenvectors:
  0.985  0.000  0.000  0.000  0.015
  0.000  0.000  0.000  1.000  0.000
  0.000  0.000  1.000  0.000  0.000
  0.015  0.000  0.000  0.000  0.985
  0.000  1.000  0.000  0.000  0.000
    occupations:
  0.503  0.000  0.002  0.058  0.000
  0.000  0.878  0.000  0.000 -0.001
  0.002  0.000  0.777 -0.003 -0.000
  0.058  0.000 -0.003  0.969 -0.000
  0.000 -0.001 -0.000 -0.000  0.522
N of occupied +U levels =  58.2951883
 --- exit write_ns ---

[...]

          k = 0.2500-0.4870 0.0000 ( 30468 PWs)   bands (ev):

[...]

          k =-0.2500 0.2435 0.0000 ( 30434 PWs)   bands (ev):

   -73.6602 -73.6531 -73.4715 -73.4597 -73.2461 -73.2380 -73.1459 -73.1389
   -43.9984 -43.9898 -43.6445 -43.6347 -43.6048 -43.6023 -43.5991 -43.5141
   -43.5013 -43.4804 -43.4645 -43.4346 -43.4115 -43.3814 -43.3493 -43.3474
   -43.2898 -43.1751 -43.1561 -43.1536 -43.0591 -43.0405 -43.0368 -42.9169
   -20.6776 -20.2707 -20.2490 -20.1331 -20.1056 -19.9518 -19.8424 -19.7883
   -19.6571 -19.6311 -19.5718 -19.3212 -19.2854 -19.2246 -19.0900 -19.0288
   -19.0110 -18.8845  -9.5350  -9.1289  -9.0765  -8.9317  -8.8335  -8.5404
    -8.5151  -8.4820  -7.9114  -7.8843  -7.7764  -7.6856  -7.5535  -7.4713
    -7.4469  -7.4338  -7.2841  -7.2390  -7.0230  -6.7839  -6.7561  -6.4716
    -6.2771  -6.2165  -6.1665  -6.0712  -6.0145  -5.8670  -5.7359  -5.6936
    -5.5870  -5.5296  -5.4237  -5.2814  -5.1613  -5.0927  -5.0034  -4.9696
    -4.8795  -4.8768  -4.6961  -4.5780  -4.3738  -4.2405  -4.1857  -4.1384
    -4.0674  -3.8958  -3.8757  -3.6644  -3.5386  -3.3667  -3.2641  -3.0582
    -2.8965  -2.8720  -2.8046  -2.6982  -2.6445  -2.5622  -2.5357  -2.3073
    -2.2864  -2.1931  -2.1137  -2.0815  -1.7324  -1.7151  -1.5544  -1.3199
    -1.0820  -0.8704  -0.7033  -0.6176  -0.4730  -0.3922  -0.2633   0.0817
     1.1144   1.2557   1.9492   1.9958   2.1680   2.5612   2.7649   3.0067
     3.1743   3.3941   3.5798   3.5938   3.7068   3.8220   3.9520   4.0446
     4.0669   4.4358   4.6152   5.0585   5.5178   5.6620   5.7357   6.0840
     6.1241   6.3565   6.4940   6.5005   6.7782   6.8334   6.9095   7.1326
     7.4473   7.5106   7.8271   7.9011   7.9438   8.1986   8.2272   8.3385
     8.5068   8.5496   8.7297   8.7482   8.8675   9.0327   9.1811   9.2478
     9.3243   9.5087   9.5376   9.7896   9.7996   9.9893   9.9946  10.0739
    10.0869  10.2490  10.3307  10.3969  10.4505  10.5993  10.6139  10.8099
    10.8558  10.8854  11.0839  11.1858  11.3367  11.3815  11.4744  11.5366
    11.5827  11.6621  11.7410  11.8453  11.8890  11.9895  12.0316  12.1013
    12.1715  12.3153  12.4113  12.4420  12.5697  12.5973  12.6927  12.7304
    12.7907  12.9042  12.9370  12.9933  13.0760  13.1592  13.2347  13.3752
    13.3801  13.4864  13.6543  13.6808  13.7317  13.7909  13.8885  14.0049
    14.0632  14.1424  14.2400  14.3530  14.3744  14.4306  14.5782  14.6144
    14.6556  14.7900  14.8807  14.9861  15.0048  15.0860  15.1200  15.2803
    15.2810  15.4158  15.4623  15.5167  15.6652  15.7259  15.7722  15.8027
    15.8141  15.9273  15.9490  15.9876  16.0284  16.0970  16.1506  16.1904
    16.3007  16.4380  16.4611  16.5434  16.5897  16.7172  16.7195  16.8374
    16.8646  16.9013  17.0267  17.0379  17.1511  17.2188  17.3438  17.3903
    17.4296  17.4831  17.5043  17.5793  17.6426  17.6516  17.7076  17.8420
    17.8788  17.8983  17.9691  18.0078  18.0641  18.1490  18.1622  18.3176
    18.3178  18.4487  18.5652  18.6445  18.6691  18.7459  18.7656  18.8807
    18.9698  19.0251  19.1022  19.1907  19.2442  19.2719  19.3913  19.4145
    19.4912  19.6377  19.7226  19.7722  19.8489  19.8559  19.9118  20.0249
    20.1566  20.1890  20.2639  20.4465  20.4498  20.5912  20.6749  20.7498
    20.8019  20.8293  20.9185  20.9251  21.0244  21.0938  21.0944  21.1415
    21.2389  21.2795  21.3206  21.3355  21.3860  21.4907  21.5052  21.6149
    21.6911  21.7301  21.8423  21.8777

     the Fermi energy is    -1.2126 ev

!    total energy              =   -2127.94313867 Ry
     Harris-Foulkes estimate   =   -2127.94313867 Ry
     estimated scf accuracy    <          2.0E-09 Ry

     The total energy is the sum of the following terms:

     one-electron contribution =  -24508.86215885 Ry
     hartree contribution      =   12278.72600419 Ry
     xc contribution           =    -330.96226808 Ry
     ewald contribution        =   10429.95835410 Ry
     Hubbard energy            =       3.19569115 Ry
     smearing contrib. (-TS)   =       0.00123882 Ry

     convergence has been achieved in  18 iterations

     Forces acting on atoms (Ry/au):

     negative rho (up, down):  0.568E+00 0.000E+00
     atom    1 type  1   force =    -0.00462304   -0.00749544    0.00030217
     atom    2 type  1   force =    -0.00000056    0.00239026   -0.00042261
     atom    3 type  2   force =    -0.00007975    0.00522189   -0.00070980
     atom    4 type  2   force =     0.00274530    0.00430571    0.00049372
     atom    5 type  1   force =    -0.00082157   -0.03906167    0.00033584
     atom    6 type  1   force =     0.00403091    0.03863847    0.00020629
     atom    7 type  1   force =    -0.00034121   -0.00212696    0.00027889
     atom    8 type  1   force =     0.00042985   -0.00059217    0.00045819
     atom    9 type  2   force =     0.00089957    0.00040853    0.00024731
     atom   10 type  2   force =     0.00022136   -0.00159216   -0.00002878
     atom   11 type  1   force =    -0.00058489    0.02670816    0.00012238
     atom   12 type  1   force =     0.00046837   -0.02686922    0.00007440
     atom   13 type  1   force =    -0.00119189    0.00005066   -0.00049236
     atom   14 type  1   force =    -0.00464720   -0.00750466    0.00028946
     atom   15 type  1   force =    -0.00005287    0.00238860   -0.00042591
     atom   16 type  2   force =    -0.00009956    0.00522401   -0.00071718
     atom   17 type  2   force =     0.00287613    0.00430575    0.00048579
     atom   18 type  1   force =    -0.00083003   -0.03898158    0.00033378
     atom   19 type  1   force =     0.00402871    0.03857069    0.00020075
     atom   20 type  1   force =    -0.00038530   -0.00211831    0.00026817
     atom   21 type  1   force =    -0.00040238   -0.00059003    0.00046612
     atom   22 type  2   force =     0.00089671    0.00043307   -0.00014556
     atom   23 type  2   force =     0.00014082   -0.00160011   -0.00003432
     atom   24 type  1   force =    -0.00057008    0.02677553   -0.00000325
     atom   25 type  1   force =     0.00045350   -0.02694836   -0.00003866
     atom   26 type  1   force =    -0.00231334    0.00009465   -0.00047475
     atom   27 type  3   force =     0.00002303    0.00012426   -0.00010243
     atom   28 type  3   force =     0.00001586    0.00012477   -0.00010520
     atom   29 type  3   force =    -0.00014402   -0.00014438   -0.00043167
     atom   30 type  3   force =    -0.00014243   -0.00013996   -0.00043078

     Total force =     0.001999     Total SCF correction =     0.000119

     bfgs converged in  16 scf cycles and  15 bfgs steps
     (criteria: energy < 0.10E-03, force < 0.10E-02)

     End of BFGS Geometry Optimization

     Final energy   =   -2127.9431386659 Ry
Begin final coordinates

ATOMIC_POSITIONS (crystal)
O0       0.000000000   0.000000000   0.381455871    0   0   1
O0       0.000000000   0.500000000   0.402561902    0   0   1
Ru1      0.250000000   0.500000000   0.452706635    0   0   1
Ru1      0.000000000   0.000000000   0.454836756    0   0   1
O0       0.250000000   0.810000000   0.453960798    0   0   1
O0       0.250000000   0.190000000   0.453801800    0   0   1
O0       0.000000000   0.500000000   0.499757234    0   0   1
O0       0.000000000   0.000000000   0.527056311    0   0   1
Ru1      0.250000000   0.000000000   0.578666996    0   0   1
Ru1      0.000000000   0.500000000   0.569863762    0   0   1
O0       0.250000000   0.690000000   0.575638655    0   0   1
O0       0.250000000   0.310000000   0.575865368    0   0   1
O0       0.000000000   0.000000000   0.620138914    0   0   1
O0       0.500000000   0.000000000   0.381456216    0   0   1
O0       0.500000000   0.500000000   0.402562209    0   0   1
Ru1      0.750000000   0.500000000   0.452705138    0   0   1
Ru1      0.500000000   0.000000000   0.454836040    0   0   1
O0       0.750000000   0.810000000   0.453960271    0   0   1
O0       0.750000000   0.190000000   0.453800442    0   0   1
O0       0.500000000   0.500000000   0.499758102    0   0   1
O0       0.500000000   0.000000000   0.527055712    0   0   1
Ru1      0.750000000   0.000000000   0.578586167    0   0   1
Ru1      0.500000000   0.500000000   0.569865196    0   0   1
O0       0.750000000   0.690000000   0.575610391    0   0   1
O0       0.750000000   0.310000000   0.575835865    0   0   1
O0       0.500000000   0.000000000   0.620138742    0   0   1
H2      -0.000708757   0.619583768   0.379115971
H2       0.499285816   0.619584310   0.379116481
H2       0.147044161   0.026354868   0.369078436
H2       0.647040970   0.026357958   0.369077618
End final coordinates

     General routines

     Parallel routines
     Hubbard U routines

   This run was terminated on:   0:56:59   7May2014

   JOB DONE.