     Program PWSCF v.5.0.2 (svn rev. 9656) starts on 14Feb2014 at 13:33:54

     Current dimensions of program PWSCF are:
     Max number of different atomic species (ntypx) = 10
     Max number of k-points (npk) =  40000
     Max angular momentum in pseudopotentials (lmaxx) =  3
     Reading input from alpha_-0.07/alpha_-0.07.in
Warning: card &IONS ignored
Warning: card / ignored
Warning: card &CELL ignored
Warning: card / ignored

     Subspace diagonalization in iterative solution of the eigenvalue problem:
     a serial algorithm will be used

     bravais-lattice index     =            0
     lattice parameter (alat)  =      18.6705  a.u.
     unit-cell volume          =    3899.7090 (a.u.)^3
     number of atoms/cell      =           48
     number of atomic types    =            3
     number of electrons       =       400.00
     number of Kohn-Sham states=          600
     kinetic-energy cutoff     =      40.0000  Ry
     charge density cutoff     =     500.0000  Ry
     convergence threshold     =      1.0E-06
     mixing beta               =       0.7000
     number of iterations used =            8  plain     mixing
     Exchange-correlation      = SLA  PW   PBE  PBE ( 1 4 3 4 0)
     EXX-fraction              =        0.00

     celldm(1)=  18.670494  celldm(2)=   0.000000  celldm(3)=   0.000000
     celldm(4)=   0.000000  celldm(5)=   0.000000  celldm(6)=   0.000000

     crystal axes: (cart. coord. in units of alat)
               a(1) = (   1.000000   0.000000   0.000000 )
               a(2) = (   0.000000   1.000000   0.000000 )
               a(3) = (   0.000000   0.000000   0.599190 )

     reciprocal axes: (cart. coord. in units 2 pi/alat)
               b(1) = (  1.000000  0.000000  0.000000 )
               b(2) = (  0.000000  1.000000  0.000000 )
               b(3) = (  0.000000  0.000000  1.668919 )

     PseudoPot. # 1 for Nb read from file:
     /home/camp/zhonxu/pseudo/nb_pbe_v1.uspp.F.UPF
     MD5 check sum: 573aab8a2fa660278ed4a62cd769473f
     Pseudo is Ultrasoft + core correction, Zval = 13.0
     Generated by new atomic code, or converted to UPF format
     Using radial grid of  887 points,  6 beta functions with:
                l(1) =   0
                l(2) =   0
                l(3) =   1
                l(4) =   1
                l(5) =   2
                l(6) =   2
     Q(r) pseudized with  6 coefficients,  rinner =    1.000   1.000   1.000
                                                       1.000   1.000

     PseudoPot. # 2 for Nb read from file:
     /home/camp/zhonxu/pseudo/nb_pbe_v1.uspp.F.UPF
     MD5 check sum: 573aab8a2fa660278ed4a62cd769473f
     Pseudo is Ultrasoft + core correction, Zval = 13.0
     Generated by new atomic code, or converted to UPF format
     Using radial grid of  887 points,  6 beta functions with:
                l(1) =   0
                l(2) =   0
                l(3) =   1
                l(4) =   1
                l(5) =   2
                l(6) =   2
     Q(r) pseudized with  6 coefficients,  rinner =    1.000   1.000   1.000
                                                       1.000   1.000

     PseudoPot. # 3 for O  read from file:
     /home/camp/zhonxu/pseudo/o_pbe_v1.01.uspp.F.UPF
     MD5 check sum: 2bcb18d16ea4b960afae9ec6d52f22d2
     Pseudo is Ultrasoft + core correction, Zval =  6.0
     Generated by new atomic code, or converted to UPF format
     Using radial grid of  737 points,  5 beta functions with:
                l(1) =   0
                l(2) =   0
                l(3) =   1
                l(4) =   1
                l(5) =   2
     Q(r) pseudized with  8 coefficients,  rinner =    0.900   0.900   0.900
                                                       0.900   0.900

     atomic species   valence    mass     pseudopotential
        Nb0           13.00    92.90640     Nb( 1.00)
        Nb1           13.00    92.90640     Nb( 1.00)
        O2             6.00    15.99940     O ( 1.00)

     Starting magnetic structure
     atomic species   magnetization
        Nb0          0.000
        Nb1          0.000
        O2           0.000

     Simplified LDA+U calculation (l_max = 2) with parameters (eV):
     atomic species    L          U    alpha       J0     beta
        Nb0            2     0.0000  -0.0700   0.0000   0.0000
        Nb1            2     0.0000   0.0000   0.0000   0.0000
        O2             1     0.0000   0.0000   0.0000   0.0000

      8 Sym. Ops., with inversion, found

   Cartesian axes

     site n.     atom                  positions (alat units)
         1           Nb0 tau(   1) = (   0.0000000   0.0000000   0.0000000  )
         2           Nb1 tau(   2) = (   0.2500000   0.2500000   0.1497976  )
         3           Nb1 tau(   3) = (   0.0000000   0.0000000   0.2995951  )
         4           Nb1 tau(   4) = (   0.2500000   0.2500000   0.4493927  )
         5           Nb1 tau(   5) = (   0.0000000   0.5000000   0.0000000  )
         6           Nb1 tau(   6) = (   0.2500000   0.7500000   0.1497976  )
         7           Nb1 tau(   7) = (   0.0000000   0.5000000   0.2995951  )
         8           Nb1 tau(   8) = (   0.2500000   0.7500000   0.4493927  )
         9           Nb1 tau(   9) = (   0.5000000   0.0000000   0.0000000  )
        10           Nb1 tau(  10) = (   0.7500000   0.2500000   0.1497976  )
        11           Nb1 tau(  11) = (   0.5000000   0.0000000   0.2995951  )
        12           Nb1 tau(  12) = (   0.7500000   0.2500000   0.4493927  )
        13           Nb1 tau(  13) = (   0.5000000   0.5000000   0.0000000  )
        14           Nb1 tau(  14) = (   0.7500000   0.7500000   0.1497976  )
        15           Nb1 tau(  15) = (   0.5000000   0.5000000   0.2995951  )
        16           Nb1 tau(  16) = (   0.7500000   0.7500000   0.4493927  )
        17           O2  tau(  17) = (   0.1450000   0.1450000   0.0000000  )
        18           O2  tau(  18) = (  -0.1450000  -0.1450000   0.0000000  )
        19           O2  tau(  19) = (   0.3950000   0.1050000   0.1497976  )
        20           O2  tau(  20) = (   0.1050000   0.3950000   0.1497976  )
        21           O2  tau(  21) = (   0.1450000   0.1450000   0.2995951  )
        22           O2  tau(  22) = (  -0.1450000  -0.1450000   0.2995951  )
        23           O2  tau(  23) = (   0.3950000   0.1050000   0.4493927  )
        24           O2  tau(  24) = (   0.1050000   0.3950000   0.4493927  )
        25           O2  tau(  25) = (   0.1450000   0.6450000   0.0000000  )
        26           O2  tau(  26) = (  -0.1450000   0.3550000   0.0000000  )
        27           O2  tau(  27) = (   0.3950000   0.6050000   0.1497976  )
        28           O2  tau(  28) = (   0.1050000   0.8950000   0.1497976  )
        29           O2  tau(  29) = (   0.1450000   0.6450000   0.2995951  )
        30           O2  tau(  30) = (  -0.1450000   0.3550000   0.2995951  )
        31           O2  tau(  31) = (   0.3950000   0.6050000   0.4493927  )
        32           O2  tau(  32) = (   0.1050000   0.8950000   0.4493927  )
        33           O2  tau(  33) = (   0.6450000   0.1450000   0.0000000  )
        34           O2  tau(  34) = (   0.3550000  -0.1450000   0.0000000  )
        35           O2  tau(  35) = (   0.8950000   0.1050000   0.1497976  )
        36           O2  tau(  36) = (   0.6050000   0.3950000   0.1497976  )
        37           O2  tau(  37) = (   0.6450000   0.1450000   0.2995951  )
        38           O2  tau(  38) = (   0.3550000  -0.1450000   0.2995951  )
        39           O2  tau(  39) = (   0.8950000   0.1050000   0.4493927  )
        40           O2  tau(  40) = (   0.6050000   0.3950000   0.4493927  )
        41           O2  tau(  41) = (   0.6450000   0.6450000   0.0000000  )
        42           O2  tau(  42) = (   0.3550000   0.3550000   0.0000000  )
        43           O2  tau(  43) = (   0.8950000   0.6050000   0.1497976  )
        44           O2  tau(  44) = (   0.6050000   0.8950000   0.1497976  )
        45           O2  tau(  45) = (   0.6450000   0.6450000   0.2995951  )
        46           O2  tau(  46) = (   0.3550000   0.3550000   0.2995951  )
        47           O2  tau(  47) = (   0.8950000   0.6050000   0.4493927  )
        48           O2  tau(  48) = (   0.6050000   0.8950000   0.4493927  )

     number of k points=    42  Methfessel-Paxton smearing, width (Ry)=  0.0100
                       cart. coord. in units 2pi/alat
        k(    1) = (   0.0000000   0.0000000   0.0000000), wk =   0.0156250
        k(    2) = (   0.0000000   0.0000000   0.4172297), wk =   0.0312500
        k(    3) = (   0.0000000   0.0000000  -0.8344595), wk =   0.0156250
        k(    4) = (   0.0000000   0.2500000   0.0000000), wk =   0.0625000
        k(    5) = (   0.0000000   0.2500000   0.4172297), wk =   0.1250000
        k(    6) = (   0.0000000   0.2500000  -0.8344595), wk =   0.0625000
        k(    7) = (   0.0000000  -0.5000000   0.0000000), wk =   0.0312500
        k(    8) = (   0.0000000  -0.5000000   0.4172297), wk =   0.0625000
        k(    9) = (   0.0000000  -0.5000000  -0.8344595), wk =   0.0312500
        k(   10) = (   0.2500000   0.2500000   0.0000000), wk =   0.0312500
        k(   11) = (   0.2500000   0.2500000   0.4172297), wk =   0.0625000
        k(   12) = (   0.2500000   0.2500000  -0.8344595), wk =   0.0312500
        k(   13) = (   0.2500000  -0.5000000   0.0000000), wk =   0.0625000
        k(   14) = (   0.2500000  -0.5000000   0.4172297), wk =   0.1250000
        k(   15) = (   0.2500000  -0.5000000  -0.8344595), wk =   0.0625000
        k(   16) = (  -0.5000000  -0.5000000   0.0000000), wk =   0.0156250
        k(   17) = (  -0.5000000  -0.5000000   0.4172297), wk =   0.0312500
        k(   18) = (  -0.5000000  -0.5000000  -0.8344595), wk =   0.0156250
        k(   19) = (  -0.2500000   0.2500000   0.0000000), wk =   0.0312500
        k(   20) = (  -0.2500000   0.2500000  -0.4172297), wk =   0.0625000
        k(   21) = (  -0.2500000   0.2500000   0.8344595), wk =   0.0312500
        k(   22) = (   0.0000000   0.0000000   0.0000000), wk =   0.0156250
        k(   23) = (   0.0000000   0.0000000   0.4172297), wk =   0.0312500
        k(   24) = (   0.0000000   0.0000000  -0.8344595), wk =   0.0156250
        k(   25) = (   0.0000000   0.2500000   0.0000000), wk =   0.0625000
        k(   26) = (   0.0000000   0.2500000   0.4172297), wk =   0.1250000
        k(   27) = (   0.0000000   0.2500000  -0.8344595), wk =   0.0625000
        k(   28) = (   0.0000000  -0.5000000   0.0000000), wk =   0.0312500
        k(   29) = (   0.0000000  -0.5000000   0.4172297), wk =   0.0625000
        k(   30) = (   0.0000000  -0.5000000  -0.8344595), wk =   0.0312500
        k(   31) = (   0.2500000   0.2500000   0.0000000), wk =   0.0312500
        k(   32) = (   0.2500000   0.2500000   0.4172297), wk =   0.0625000
        k(   33) = (   0.2500000   0.2500000  -0.8344595), wk =   0.0312500
        k(   34) = (   0.2500000  -0.5000000   0.0000000), wk =   0.0625000
        k(   35) = (   0.2500000  -0.5000000   0.4172297), wk =   0.1250000
        k(   36) = (   0.2500000  -0.5000000  -0.8344595), wk =   0.0625000
[...]
  0.913  0.916  0.917
    eigenvectors:
  0.000  0.000  1.000
  0.500  0.500  0.000
  0.500  0.500  0.000
    occupations:
  0.917 -0.000 -0.000
 -0.000  0.914  0.002
 -0.000  0.002  0.914
   spin  2
    eigenvalues:
  0.913  0.916  0.917
    eigenvectors:
  0.000  0.000  1.000
  0.500  0.500  0.000
  0.500  0.500  0.000
    occupations:
  0.917 -0.000 -0.000
 -0.000  0.914  0.002
 -0.000  0.002  0.914
atomic mag. moment =    -0.000000
atom   42   Tr[ns(na)] (up, down, total) =   2.74571  2.74571  5.49141
   spin  1
    eigenvalues:
  0.913  0.916  0.917
    eigenvectors:
  0.000  0.000  1.000
  0.500  0.500  0.000
  0.500  0.500  0.000
    occupations:
  0.917 -0.000 -0.000
 -0.000  0.914  0.002
 -0.000  0.002  0.914
   spin  2
    eigenvalues:
  0.913  0.916  0.917
    eigenvectors:
  0.000  0.000  1.000
  0.500  0.500  0.000
  0.500  0.500  0.000
    occupations:
  0.917 -0.000 -0.000
 -0.000  0.914  0.002
 -0.000  0.002  0.914
atomic mag. moment =    -0.000000
atom   43   Tr[ns(na)] (up, down, total) =   2.74569  2.74569  5.49138
   spin  1
    eigenvalues:
  0.913  0.916  0.917
    eigenvectors:
  0.000  0.000  1.000
  0.500  0.500  0.000
  0.500  0.500  0.000
    occupations:
  0.917  0.000  0.000
  0.000  0.914 -0.002
  0.000 -0.002  0.914
   spin  2
    eigenvalues:
  0.913  0.916  0.917
    eigenvectors:
  0.000  0.000  1.000
  0.500  0.500  0.000
  0.500  0.500  0.000
    occupations:
  0.917  0.000  0.000
  0.000  0.914 -0.002
  0.000 -0.002  0.914
atomic mag. moment =    -0.000000
atom   44   Tr[ns(na)] (up, down, total) =   2.74569  2.74569  5.49138
   spin  1
    eigenvalues:
  0.913  0.916  0.917
    eigenvectors:
  0.000  0.000  1.000
  0.500  0.500  0.000
  0.500  0.500  0.000
    occupations:
  0.917  0.000  0.000
  0.000  0.914 -0.002
  0.000 -0.002  0.914
   spin  2
    eigenvalues:
  0.913  0.916  0.917
    eigenvectors:
  0.000  0.000  1.000
  0.500  0.500  0.000
  0.500  0.500  0.000
    occupations:
  0.917  0.000  0.000
  0.000  0.914 -0.002
  0.000 -0.002  0.914
atomic mag. moment =    -0.000000
atom   45   Tr[ns(na)] (up, down, total) =   2.74569  2.74569  5.49137
   spin  1
    eigenvalues:
  0.913  0.916  0.917
    eigenvectors:
  0.000  0.000  1.000
  0.500  0.500  0.000
  0.500  0.500  0.000
    occupations:
  0.917 -0.000 -0.000
 -0.000  0.914  0.002
 -0.000  0.002  0.914
   spin  2
    eigenvalues:
  0.913  0.916  0.917
    eigenvectors:
  0.000  0.000  1.000
  0.500  0.500  0.000
  0.500  0.500  0.000
    occupations:
  0.917 -0.000 -0.000
 -0.000  0.914  0.002
 -0.000  0.002  0.914
atomic mag. moment =    -0.000000
atom   46   Tr[ns(na)] (up, down, total) =   2.74569  2.74569  5.49137
   spin  1
    eigenvalues:
  0.913  0.916  0.917
    eigenvectors:
  0.000  0.000  1.000
  0.500  0.500  0.000
  0.500  0.500  0.000
    occupations:
  0.917 -0.000 -0.000
 -0.000  0.914  0.002
 -0.000  0.002  0.914
   spin  2
    eigenvalues:
  0.913  0.916  0.917
    eigenvectors:
  0.000  0.000  1.000
  0.500  0.500  0.000
  0.500  0.500  0.000
    occupations:
  0.917 -0.000 -0.000
 -0.000  0.914  0.002
 -0.000  0.002  0.914
atomic mag. moment =    -0.000000
atom   47   Tr[ns(na)] (up, down, total) =   2.74569  2.74569  5.49138
   spin  1
    eigenvalues:
  0.913  0.916  0.917
    eigenvectors:
  0.000  0.000  1.000
  0.500  0.500  0.000
  0.500  0.500  0.000
    occupations:
  0.917 -0.000 -0.000
 -0.000  0.914 -0.002
 -0.000 -0.002  0.914
   spin  2
    eigenvalues:
  0.913  0.916  0.917
    eigenvectors:
  0.000  0.000  1.000
  0.500  0.500  0.000
  0.500  0.500  0.000
    occupations:
  0.917 -0.000 -0.000
 -0.000  0.914 -0.002
 -0.000 -0.002  0.914
atomic mag. moment =    -0.000000
atom   48   Tr[ns(na)] (up, down, total) =   2.74569  2.74569  5.49138
   spin  1
    eigenvalues:
  0.913  0.916  0.917
    eigenvectors:
  0.000  0.000  1.000
  0.500  0.500  0.000
  0.500  0.500  0.000
    occupations:
  0.917 -0.000 -0.000
 -0.000  0.914 -0.002
 -0.000 -0.002  0.914
   spin  2
    eigenvalues:
  0.913  0.916  0.917
    eigenvectors:
  0.000  0.000  1.000
  0.500  0.500  0.000
  0.500  0.500  0.000
    occupations:
  0.917 -0.000 -0.000
 -0.000  0.914 -0.002
 -0.000 -0.002  0.914
atomic mag. moment =    -0.000000
N of occupied +U levels = 259.8551590
 --- exit write_ns ---

 ------ SPIN UP ------------

          k = 0.0000 0.0000 0.0000 ( 16699 PWs)   bands (ev):

   -44.1446 -44.1373 -44.1370 -44.1370 -44.1367 -44.1367 -44.1300 -44.1171
   -44.0584 -44.0583 -44.0583 -44.0583 -44.0582 -44.0580 -44.0579 -44.0130
   -20.7447 -20.7446 -20.7440 -20.7374 -20.7239 -20.7234 -20.7231 -20.7018
   -20.4915 -20.4897 -20.4785 -20.4745 -20.4308 -20.4307 -20.4306 -20.4178
   -20.3544 -20.3534 -20.3520 -20.3443 -20.3301 -20.3300 -20.3289 -20.3013
   -20.1881 -20.1877 -20.1875 -20.1764 -20.1296 -20.1280 -20.1209 -20.1128
   -19.9738 -19.9732 -19.9721 -19.9719 -19.9717 -19.9716 -19.9714 -19.9360
   -19.8893 -19.8704 -19.8703 -19.8703 -19.8703 -19.8700 -19.8551 -19.8338
    -7.7337  -7.3794  -7.3748  -7.2391  -7.2344  -7.2318  -7.2317  -7.1394
    -7.0281  -7.0274  -7.0272  -7.0272  -6.8385  -6.8340  -6.7886  -6.7854
    -6.5869  -6.5822  -6.5821  -6.5806  -6.5253  -6.5229  -6.4651  -6.4629
    -6.1672  -6.1667  -6.1018  -6.1012  -6.0039  -6.0038  -6.0031  -6.0020
     4.2552   4.3357   4.3378   4.4488   4.9153   4.9188   4.9207   4.9208
     5.0393   5.1597   5.1605   5.1609   5.1609   5.4121   5.4157   5.4164
     5.4176   5.4661   5.4680   5.5420   5.5474   5.7943   5.7953   6.2024
     6.2065   6.2628   6.2644   6.2927   6.2933   6.2935   6.2952   6.5364
     6.5369   6.5696   6.5747   6.5752   6.5753   6.5804   6.5811   6.5887
     6.5892   6.6679   6.6690   6.7012   6.7023   6.7267   6.7279   6.7280
     6.7281   7.1651   7.1653   7.1664   7.1669   7.4499   7.4502   7.4545
     7.4566   7.5700   7.5722   7.6036   7.6038   7.8764   7.8776   7.8779
     7.8782   8.0317   8.0320   8.0326   8.0333   8.3846   8.3856   8.4084
     8.4091   8.4091   8.4108   8.4224   8.4226   8.4394   8.6748   8.6753
     8.7473   8.7473   8.7476   8.7479   8.8173   8.8182   9.0223   9.0223
     9.1122   9.1124   9.1126   9.1130   9.1363   9.1805   9.1809   9.8045
    11.3506  11.4027  11.4045  11.6081  12.0939  12.0946  12.0955  12.0958
    12.1717  12.1733  12.1735  12.1739  12.7924  13.3221  13.3224  13.3252
    13.3260  13.4961  13.4962  13.5409  13.5411  13.7295  13.7299  13.7587
    13.7589  14.2247  14.2248  14.2253  14.2268  14.4194  14.4195  14.4199
    14.4213  14.4525  14.4528  14.4530  14.4531  14.7402  14.7406  15.3178
    15.3189  15.3361  15.3363  15.3364  15.3389  15.3456  15.3479  15.8744
    15.9956  16.4043  16.5454  16.5454  16.5466  16.5468  17.0579  17.0591
    17.2699  17.2700  17.2702  17.2740  17.3330  17.3334  17.3356  17.3362
    17.3362  17.3393  17.8821  17.8834  17.9049  17.9057  17.9071  17.9087
    18.0213  18.0229  18.0550  18.0568  19.1860  19.1869  19.1876  19.1890
    19.5867  19.5867  19.5885  19.5899  19.8341  20.1354  20.1355  20.5006
    20.5010  20.9899  20.9901  21.1771  21.1778  21.1778  21.1803  21.7320
    21.7322  21.9612  21.9633  21.9704  21.9716  22.5165  22.5175  22.5184
    22.5189  23.0034  23.0048  23.6535  23.6544  23.6546  23.6550  23.7214
    23.7633  23.7636  23.7647  23.7660  24.0453  24.0461  24.4390  24.4397
    24.4399  24.4419  24.8617  24.8622  25.0886  25.2593  25.2606  25.4460
    25.8545  25.8546  26.1721  26.1738  26.3690  26.3715  26.3844  26.3845
    26.3859  26.3861  26.4252  26.4266  26.4268  26.4272  27.1559  27.3577
    27.3583  27.3589  27.3616  27.3643  27.3646  27.5210  27.5220  27.7345
    27.7345  28.3922  28.3922  28.3929  28.3934  28.5199  28.5927  28.5928
    29.0212  29.0212  29.0238  29.0264  29.9286  29.9305  29.9314  29.9320
    30.4134  30.4135  30.4157  30.4180  30.6863  30.6864  30.6866  30.6887
    30.8126  30.8136  31.3022  31.3040  31.3503  31.3518  31.4051  31.4055
    31.4883  31.7163  31.7168  32.0938  32.4862  32.4888  32.5169  32.5170
    32.5188  32.5197  32.5515  32.5516  32.5722  32.5726  32.9983  33.1501
    33.1506  33.1506  33.1557  33.4516  33.4526  33.4530  33.4551  33.6422
    33.6448  33.8963  33.8978  34.2436  34.2443  34.2446  34.2465  34.2709
    34.2718  34.2976  34.3002  34.5787  34.5806  34.9052  34.9060  34.9065
    34.9087  35.3365  35.3379  36.1864  36.1882  36.1882  36.1892  36.1927
    36.1940  36.4324  36.4325  36.4333  36.4335  36.4778  36.6410  36.6411
    36.7651  36.7657  36.9831  37.1526  37.1531  37.1536  37.1560  37.2136
    37.2147  37.7214  37.7226  38.0861  38.0872  38.0877  38.0900  38.2167
    38.5396  38.5397  38.5412  38.5425  39.2287  39.2294  39.2297  39.2305
    39.3096  39.3111  39.3600  39.3607  39.6939  39.6949  39.6961  39.6963
    39.7107  39.7141  39.7647  39.7661  39.8227  40.1647  40.2531  40.2550
    40.2919  40.2931  40.6084  40.6085  40.6099  40.6128  40.8489  40.8494
    40.8507  40.8512  40.9229  40.9238  41.2423  41.2437  41.4308  41.4329
    41.5695  41.5696  41.8968  41.9094  41.9095  41.9097  41.9100  41.9350
    41.9357  42.0188  42.1232  42.1238  42.1264  42.1266  42.1577  42.3217
    42.3243  42.3400  42.3401  42.3406  42.3462  42.3615  42.3625  42.3659
    42.3684  42.3689  42.3689  42.3746  42.3748  42.6816  42.6824  42.7122
    42.7127  42.8449  42.8460  42.9668  42.9682  43.0976  43.1866  43.1876
    43.2309  43.2342  43.7203  43.7216  43.7218  43.7230  43.7254  43.7258
    43.7266  43.7278  43.7282  43.7283  43.7297  43.7312  43.8786  43.8797
    44.1211  44.1224  44.3289  44.3306  44.5062  44.5066  44.5066  44.5096
    44.8532  44.8549  45.1255  45.3167  45.3176  45.3243  45.3251  45.8271
    45.8277  45.8278  45.8281  45.8289  45.8349  46.2933  46.2939  46.2945
    46.2959  46.5322  46.5337  46.5342  46.5348  46.6924  46.6952  46.8255
    46.8259  46.8270  46.8272  46.8658  46.9115  46.9119  46.9124  46.9150
    46.9586  46.9588  47.0462  47.0465  47.1001  47.1006  47.1015  47.1021
    47.3126  47.3129  47.5832  47.5858  47.9136  48.2481  48.2485  48.2499

[...]

          k =-0.5000-0.5000 0.0000 ( 16684 PWs)   bands (ev):

[...]

 ------ SPIN DOWN ----------

[...]

          k = 0.2500-0.5000-0.8345 ( 16684 PWs)   bands (ev):

[...]

          k =-0.2500 0.2500 0.8345 ( 16644 PWs)   bands (ev):

   -44.1029 -44.1024 -44.1001 -44.1000 -44.0998 -44.0992 -44.0986 -44.0978
   -44.0968 -44.0963 -44.0958 -44.0957 -44.0955 -44.0932 -44.0925 -44.0310
   -20.4317 -20.4316 -20.4314 -20.4276 -20.4268 -20.4268 -20.4244 -20.4239
   -20.4239 -20.4235 -20.4221 -20.4203 -20.4178 -20.4175 -20.4148 -20.3743
   -20.3159 -20.3153 -20.3133 -20.3131 -20.2947 -20.2942 -20.2939 -20.2925
   -20.2916 -20.2898 -20.2885 -20.2724 -20.2722 -20.2721 -20.2609 -20.2381
   -20.0806 -20.0800 -20.0799 -20.0799 -20.0674 -20.0669 -20.0662 -20.0660
   -20.0660 -20.0651 -20.0646 -20.0552 -20.0544 -20.0529 -20.0509 -20.0064
    -7.1525  -7.1517  -7.0282  -7.0274  -7.0271  -7.0261  -6.9617  -6.9592
    -6.8969  -6.8956  -6.8844  -6.8816  -6.8798  -6.8796  -6.7907  -6.7900
    -6.4904  -6.4895  -6.4858  -6.4839  -6.4684  -6.4662  -6.4659  -6.4659
    -6.4580  -6.4577  -6.4576  -6.4568  -6.4506  -6.4496  -6.4437  -6.4431
     5.0887   5.0899   5.1748   5.1750   5.1898   5.1900   5.1902   5.1907
     5.2313   5.2322   5.2423   5.2438   5.2440   5.2442   5.3064   5.3067
     5.5960   5.6004   5.6563   5.6563   5.8524   5.8533   5.8549   5.8567
     5.8985   5.9004   6.0923   6.0990   6.0992   6.1003   6.1242   6.1263
     6.1415   6.1436   6.4814   6.4819   6.4826   6.4832   6.7360   6.7361
     6.7653   6.7656   6.7663   6.7666   6.7670   6.7679   6.9635   6.9642
     6.9647   6.9653   7.1796   7.1798   7.1833   7.1839   7.2305   7.2314
     7.7005   7.7008   7.7009   7.7015   7.8689   7.8694   7.8913   7.8927
     7.8930   7.8943   7.9152   7.9162   8.0159   8.0165   8.0335   8.0344
     8.0498   8.0520   8.1601   8.1604   8.1604   8.1613   8.3886   8.3888
     8.5428   8.5429   8.6320   8.6331   8.8041   8.8043   8.8045   8.8049
     8.9346   8.9350   9.1653   9.1656   9.1658   9.1658   9.3537   9.3537
    12.6411  12.6412  12.7546  12.7555  12.7557  12.7558  12.8669  12.8672
    12.9769  12.9771  13.0488  13.0498  13.1016  13.1018  13.1018  13.1023
    13.1736  13.1744  13.2501  13.2507  13.2882  13.2892  13.2894  13.2910
    13.5398  13.5403  13.5865  13.5866  13.7247  13.7252  13.7352  13.7355
    13.7356  13.7360  14.0778  14.0779  14.2776  14.2777  14.2783  14.2784
    14.3805  14.3806  14.7502  14.7502  14.7507  14.7517  15.1646  15.1651
    16.3597  16.3598  16.3602  16.3611  16.7688  16.7690  16.9105  16.9113
    16.9223  16.9224  16.9231  16.9256  17.2707  17.2709  17.5803  17.5808
    17.6922  17.6929  17.7844  17.7856  17.9253  17.9253  17.9269  17.9294
    18.2765  18.2782  18.6947  18.6952  18.6953  18.6983  18.7390  18.7393
    19.3667  19.3684  20.0205  20.0214  20.0219  20.0231  20.5001  20.5007
    21.0761  21.0781  21.2453  21.2454  21.2471  21.2472  22.3521  22.3536
    22.5113  22.5122  22.7972  22.7983  22.9745  22.9763  23.3125  23.3128
    23.3128  23.3138  23.9785  23.9799  23.9806  23.9822  24.6388  24.6397
    24.7425  24.7430  24.7917  24.7919  24.7926  24.7942  24.8325  24.8327
    24.9196  24.9211  24.9461  24.9479  25.1180  25.1187  25.1188  25.1202
    25.7635  25.7641  25.7642  25.7652  25.7878  25.7895  26.0609  26.0611
    26.1150  26.1151  26.1159  26.1166  26.3750  26.3765  26.7343  26.7360
    26.9666  26.9672  26.9685  26.9693  27.4197  27.4219  27.9153  27.9163
    28.1349  28.1360  28.4169  28.4180  28.4822  28.4834  28.4837  28.4839
    28.6094  28.6098  28.6594  28.6606  29.6709  29.6723  29.6739  29.6748
    29.7650  29.7679  30.2846  30.2847  30.2847  30.2880  30.9409  30.9411
    30.9419  30.9422  31.0529  31.0549  31.4141  31.4161  31.4867  31.4882
    32.1335  32.1353  32.1808  32.1834  32.3873  32.3875  32.3889  32.3895
    32.6553  32.6559  33.0888  33.0894  33.0897  33.0920  33.2279  33.2284
    33.3141  33.3154  33.4499  33.4500  33.6003  33.6010  33.6023  33.6024
    33.9414  33.9416  33.9431  33.9431  34.2523  34.2538  34.2539  34.2539
    34.4904  34.4910  34.8094  34.8097  34.9871  34.9875  35.3156  35.3162
    35.4550  35.4550  35.7121  35.7123  35.7125  35.7127  35.7689  35.7692
    35.8005  35.8021  35.8448  35.8449  35.8453  35.8455  36.1368  36.1374
    36.3536  36.3543  36.7758  36.7762  36.8292  36.8297  36.8311  36.8323
    36.9862  36.9866  37.1688  37.1693  37.1700  37.1702  38.1606  38.1618
    38.2202  38.2227  38.2497  38.2502  38.2899  38.2910  38.5315  38.5315
    38.5325  38.5327  38.6119  38.6127  39.0698  39.0702  39.0706  39.0725
    39.0974  39.0975  39.5986  39.5991  40.3525  40.3535  40.3539  40.3549
    40.4984  40.4993  40.5756  40.5761  40.6152  40.6157  40.6159  40.6162
    40.9363  40.9385  40.9958  40.9965  41.0052  41.0060  41.0069  41.0088
    41.1735  41.1741  41.3922  41.3955  41.6217  41.6226  41.6228  41.6232
    41.6608  41.6612  41.6614  41.6637  41.8689  41.8704  42.0582  42.0586
    42.1959  42.1960  42.1960  42.1970  42.8100  42.8116  43.0090  43.0094
    43.0246  43.0259  43.0511  43.0525  43.2444  43.2471  43.3560  43.3564
    43.3574  43.3591  43.4170  43.4194  43.6291  43.6310  43.9463  43.9463
    43.9463  43.9464  44.1122  44.1144  44.2901  44.2903  44.3337  44.3350
    44.3370  44.3371  44.3971  44.3972  44.3980  44.3982  44.7473  44.7480
    44.7986  44.7989  44.7990  44.7992  44.8000  44.8031  44.8729  44.8755
    45.0845  45.0858  45.1437  45.1439  45.1440  45.1463  45.1709  45.1719
    45.2400  45.2406  45.6788  45.6789  45.6804  45.6810  45.7339  45.7348
    45.8536  45.8541  45.9043  45.9049  45.9063  45.9066  45.9146  45.9158
    46.4010  46.4012  46.4179  46.4184  46.4185  46.4190  46.6246  46.6255
    47.0420  47.0422  47.0424  47.0426  47.0585  47.0588  47.2886  47.2887
    47.2905  47.2914  47.4467  47.4476  47.5033  47.5041  47.8495  47.8495

     the Fermi energy is    12.5555 ev

!    total energy              =   -2922.42722151 Ry
     Harris-Foulkes estimate   =   -2922.42722176 Ry
     estimated scf accuracy    <       0.00000031 Ry

     The total energy is the sum of the following terms:

     one-electron contribution =    -784.88862587 Ry
     hartree contribution      =     606.82118104 Ry
     xc contribution           =    -525.15265527 Ry
     ewald contribution        =   -2219.17932603 Ry
     Hubbard energy            =      -0.02713724 Ry
     smearing contrib. (-TS)   =      -0.00065813 Ry

     total magnetization       =     0.00 Bohr mag/cell
     absolute magnetization    =     0.00 Bohr mag/cell

     convergence has been achieved in   8 iterations

     Writing output data file pwscf.save

     General routines

     Parallel routines
     Hubbard U routines

   This run was terminated on:  17:33: 1  14Feb2014

   JOB DONE.