     Program PWSCF v.5.0.2 (svn rev. 9656) starts on 14Feb2014 at 20: 5:46

     Current dimensions of program PWSCF are:
     Max number of different atomic species (ntypx) = 10
     Max number of k-points (npk) =  40000
     Max angular momentum in pseudopotentials (lmaxx) =  3
     Reading input from alpha_0.07/alpha_0.07.in
Warning: card &IONS ignored
Warning: card / ignored
Warning: card &CELL ignored
Warning: card / ignored

     Subspace diagonalization in iterative solution of the eigenvalue problem:
     a serial algorithm will be used

     bravais-lattice index     =            0
     lattice parameter (alat)  =      18.6705  a.u.
     unit-cell volume          =    3899.7090 (a.u.)^3
     number of atoms/cell      =           48
     number of atomic types    =            3
     number of electrons       =       400.00
     number of Kohn-Sham states=          600
     kinetic-energy cutoff     =      40.0000  Ry
     charge density cutoff     =     500.0000  Ry
     convergence threshold     =      1.0E-06
     mixing beta               =       0.7000
     number of iterations used =            8  plain     mixing
     Exchange-correlation      = SLA  PW   PBE  PBE ( 1 4 3 4 0)
     EXX-fraction              =        0.00

     celldm(1)=  18.670494  celldm(2)=   0.000000  celldm(3)=   0.000000
     celldm(4)=   0.000000  celldm(5)=   0.000000  celldm(6)=   0.000000

     crystal axes: (cart. coord. in units of alat)
               a(1) = (   1.000000   0.000000   0.000000 )
               a(2) = (   0.000000   1.000000   0.000000 )
               a(3) = (   0.000000   0.000000   0.599190 )

     reciprocal axes: (cart. coord. in units 2 pi/alat)
               b(1) = (  1.000000  0.000000  0.000000 )
               b(2) = (  0.000000  1.000000  0.000000 )
               b(3) = (  0.000000  0.000000  1.668919 )

     PseudoPot. # 1 for Nb read from file:
     /home/camp/zhonxu/pseudo/nb_pbe_v1.uspp.F.UPF
     MD5 check sum: 573aab8a2fa660278ed4a62cd769473f
     Pseudo is Ultrasoft + core correction, Zval = 13.0
     Generated by new atomic code, or converted to UPF format
     Using radial grid of  887 points,  6 beta functions with:
                l(1) =   0
                l(2) =   0
                l(3) =   1
                l(4) =   1
                l(5) =   2
                l(6) =   2
     Q(r) pseudized with  6 coefficients,  rinner =    1.000   1.000   1.000
                                                       1.000   1.000

     PseudoPot. # 2 for Nb read from file:
     /home/camp/zhonxu/pseudo/nb_pbe_v1.uspp.F.UPF
     MD5 check sum: 573aab8a2fa660278ed4a62cd769473f
     Pseudo is Ultrasoft + core correction, Zval = 13.0
     Generated by new atomic code, or converted to UPF format
     Using radial grid of  887 points,  6 beta functions with:
                l(1) =   0
                l(2) =   0
                l(3) =   1
                l(4) =   1
                l(5) =   2
                l(6) =   2
     Q(r) pseudized with  6 coefficients,  rinner =    1.000   1.000   1.000
                                                       1.000   1.000

     PseudoPot. # 3 for O  read from file:
     /home/camp/zhonxu/pseudo/o_pbe_v1.01.uspp.F.UPF
     MD5 check sum: 2bcb18d16ea4b960afae9ec6d52f22d2
     Pseudo is Ultrasoft + core correction, Zval =  6.0
     Generated by new atomic code, or converted to UPF format
     Using radial grid of  737 points,  5 beta functions with:
                l(1) =   0
                l(2) =   0
                l(3) =   1
                l(4) =   1
                l(5) =   2
     Q(r) pseudized with  8 coefficients,  rinner =    0.900   0.900   0.900
                                                       0.900   0.900

     atomic species   valence    mass     pseudopotential
        Nb0           13.00    92.90640     Nb( 1.00)
        Nb1           13.00    92.90640     Nb( 1.00)
        O2             6.00    15.99940     O ( 1.00)

     Starting magnetic structure
     atomic species   magnetization
        Nb0          0.000
        Nb1          0.000
        O2           0.000

     Simplified LDA+U calculation (l_max = 2) with parameters (eV):
     atomic species    L          U    alpha       J0     beta
        Nb0            2     0.0000   0.0700   0.0000   0.0000
        Nb1            2     0.0000   0.0000   0.0000   0.0000
        O2             1     0.0000   0.0000   0.0000   0.0000

      8 Sym. Ops., with inversion, found

   Cartesian axes

     site n.     atom                  positions (alat units)
         1           Nb0 tau(   1) = (   0.0000000   0.0000000   0.0000000  )
         2           Nb1 tau(   2) = (   0.2500000   0.2500000   0.1497976  )
         3           Nb1 tau(   3) = (   0.0000000   0.0000000   0.2995951  )
         4           Nb1 tau(   4) = (   0.2500000   0.2500000   0.4493927  )
         5           Nb1 tau(   5) = (   0.0000000   0.5000000   0.0000000  )
         6           Nb1 tau(   6) = (   0.2500000   0.7500000   0.1497976  )
         7           Nb1 tau(   7) = (   0.0000000   0.5000000   0.2995951  )
         8           Nb1 tau(   8) = (   0.2500000   0.7500000   0.4493927  )
         9           Nb1 tau(   9) = (   0.5000000   0.0000000   0.0000000  )
        10           Nb1 tau(  10) = (   0.7500000   0.2500000   0.1497976  )
        11           Nb1 tau(  11) = (   0.5000000   0.0000000   0.2995951  )
        12           Nb1 tau(  12) = (   0.7500000   0.2500000   0.4493927  )
        13           Nb1 tau(  13) = (   0.5000000   0.5000000   0.0000000  )
        14           Nb1 tau(  14) = (   0.7500000   0.7500000   0.1497976  )
        15           Nb1 tau(  15) = (   0.5000000   0.5000000   0.2995951  )
        16           Nb1 tau(  16) = (   0.7500000   0.7500000   0.4493927  )
        17           O2  tau(  17) = (   0.1450000   0.1450000   0.0000000  )
        18           O2  tau(  18) = (  -0.1450000  -0.1450000   0.0000000  )
        19           O2  tau(  19) = (   0.3950000   0.1050000   0.1497976  )
        20           O2  tau(  20) = (   0.1050000   0.3950000   0.1497976  )
        21           O2  tau(  21) = (   0.1450000   0.1450000   0.2995951  )
        22           O2  tau(  22) = (  -0.1450000  -0.1450000   0.2995951  )
        23           O2  tau(  23) = (   0.3950000   0.1050000   0.4493927  )
        24           O2  tau(  24) = (   0.1050000   0.3950000   0.4493927  )
        25           O2  tau(  25) = (   0.1450000   0.6450000   0.0000000  )
        26           O2  tau(  26) = (  -0.1450000   0.3550000   0.0000000  )
        27           O2  tau(  27) = (   0.3950000   0.6050000   0.1497976  )
        28           O2  tau(  28) = (   0.1050000   0.8950000   0.1497976  )
        29           O2  tau(  29) = (   0.1450000   0.6450000   0.2995951  )
        30           O2  tau(  30) = (  -0.1450000   0.3550000   0.2995951  )
        31           O2  tau(  31) = (   0.3950000   0.6050000   0.4493927  )
        32           O2  tau(  32) = (   0.1050000   0.8950000   0.4493927  )
        33           O2  tau(  33) = (   0.6450000   0.1450000   0.0000000  )
        34           O2  tau(  34) = (   0.3550000  -0.1450000   0.0000000  )
        35           O2  tau(  35) = (   0.8950000   0.1050000   0.1497976  )
        36           O2  tau(  36) = (   0.6050000   0.3950000   0.1497976  )
        37           O2  tau(  37) = (   0.6450000   0.1450000   0.2995951  )
        38           O2  tau(  38) = (   0.3550000  -0.1450000   0.2995951  )
        39           O2  tau(  39) = (   0.8950000   0.1050000   0.4493927  )
        40           O2  tau(  40) = (   0.6050000   0.3950000   0.4493927  )
        41           O2  tau(  41) = (   0.6450000   0.6450000   0.0000000  )
        42           O2  tau(  42) = (   0.3550000   0.3550000   0.0000000  )
        43           O2  tau(  43) = (   0.8950000   0.6050000   0.1497976  )
        44           O2  tau(  44) = (   0.6050000   0.8950000   0.1497976  )
        45           O2  tau(  45) = (   0.6450000   0.6450000   0.2995951  )
        46           O2  tau(  46) = (   0.3550000   0.3550000   0.2995951  )
        47           O2  tau(  47) = (   0.8950000   0.6050000   0.4493927  )
        48           O2  tau(  48) = (   0.6050000   0.8950000   0.4493927  )

     number of k points=    42  Methfessel-Paxton smearing, width (Ry)=  0.0100
                       cart. coord. in units 2pi/alat
        k(    1) = (   0.0000000   0.0000000   0.0000000), wk =   0.0156250
        k(    2) = (   0.0000000   0.0000000   0.4172297), wk =   0.0312500
        k(    3) = (   0.0000000   0.0000000  -0.8344595), wk =   0.0156250
        k(    4) = (   0.0000000   0.2500000   0.0000000), wk =   0.0625000
        k(    5) = (   0.0000000   0.2500000   0.4172297), wk =   0.1250000
        k(    6) = (   0.0000000   0.2500000  -0.8344595), wk =   0.0625000
        k(    7) = (   0.0000000  -0.5000000   0.0000000), wk =   0.0312500
        k(    8) = (   0.0000000  -0.5000000   0.4172297), wk =   0.0625000
        k(    9) = (   0.0000000  -0.5000000  -0.8344595), wk =   0.0312500
        k(   10) = (   0.2500000   0.2500000   0.0000000), wk =   0.0312500
        k(   11) = (   0.2500000   0.2500000   0.4172297), wk =   0.0625000
        k(   12) = (   0.2500000   0.2500000  -0.8344595), wk =   0.0312500
        k(   13) = (   0.2500000  -0.5000000   0.0000000), wk =   0.0625000
        k(   14) = (   0.2500000  -0.5000000   0.4172297), wk =   0.1250000
        k(   15) = (   0.2500000  -0.5000000  -0.8344595), wk =   0.0625000
        k(   16) = (  -0.5000000  -0.5000000   0.0000000), wk =   0.0156250
        k(   17) = (  -0.5000000  -0.5000000   0.4172297), wk =   0.0312500
        k(   18) = (  -0.5000000  -0.5000000  -0.8344595), wk =   0.0156250
        k(   19) = (  -0.2500000   0.2500000   0.0000000), wk =   0.0312500
        k(   20) = (  -0.2500000   0.2500000  -0.4172297), wk =   0.0625000
        k(   21) = (  -0.2500000   0.2500000   0.8344595), wk =   0.0312500
        k(   22) = (   0.0000000   0.0000000   0.0000000), wk =   0.0156250
        k(   23) = (   0.0000000   0.0000000   0.4172297), wk =   0.0312500
        k(   24) = (   0.0000000   0.0000000  -0.8344595), wk =   0.0156250
        k(   25) = (   0.0000000   0.2500000   0.0000000), wk =   0.0625000
        k(   26) = (   0.0000000   0.2500000   0.4172297), wk =   0.1250000
        k(   27) = (   0.0000000   0.2500000  -0.8344595), wk =   0.0625000
        k(   28) = (   0.0000000  -0.5000000   0.0000000), wk =   0.0312500
        k(   29) = (   0.0000000  -0.5000000   0.4172297), wk =   0.0625000
        k(   30) = (   0.0000000  -0.5000000  -0.8344595), wk =   0.0312500
        k(   31) = (   0.2500000   0.2500000   0.0000000), wk =   0.0312500
        k(   32) = (   0.2500000   0.2500000   0.4172297), wk =   0.0625000
        k(   33) = (   0.2500000   0.2500000  -0.8344595), wk =   0.0312500
        k(   34) = (   0.2500000  -0.5000000   0.0000000), wk =   0.0625000
        k(   35) = (   0.2500000  -0.5000000   0.4172297), wk =   0.1250000
        k(   36) = (   0.2500000  -0.5000000  -0.8344595), wk =   0.0625000
[...]
  0.913  0.916  0.917
    eigenvectors:
  0.000  0.000  1.000
  0.500  0.500  0.000
  0.500  0.500  0.000
    occupations:
  0.917 -0.000 -0.000
 -0.000  0.914  0.002
 -0.000  0.002  0.914
   spin  2
    eigenvalues:
  0.913  0.916  0.917
    eigenvectors:
  0.000  0.000  1.000
  0.500  0.500  0.000
  0.500  0.500  0.000
    occupations:
  0.917 -0.000 -0.000
 -0.000  0.914  0.002
 -0.000  0.002  0.914
atomic mag. moment =    -0.000000
atom   42   Tr[ns(na)] (up, down, total) =   2.74570  2.74570  5.49140
   spin  1
    eigenvalues:
  0.913  0.916  0.917
    eigenvectors:
  0.000  0.000  1.000
  0.500  0.500  0.000
  0.500  0.500  0.000
    occupations:
  0.917 -0.000 -0.000
 -0.000  0.914  0.002
 -0.000  0.002  0.914
   spin  2
    eigenvalues:
  0.913  0.916  0.917
    eigenvectors:
  0.000  0.000  1.000
  0.500  0.500  0.000
  0.500  0.500  0.000
    occupations:
  0.917 -0.000 -0.000
 -0.000  0.914  0.002
 -0.000  0.002  0.914
atomic mag. moment =    -0.000000
atom   43   Tr[ns(na)] (up, down, total) =   2.74570  2.74570  5.49141
   spin  1
    eigenvalues:
  0.913  0.916  0.917
    eigenvectors:
  0.000  0.000  1.000
  0.500  0.500  0.000
  0.500  0.500  0.000
    occupations:
  0.917 -0.000  0.000
 -0.000  0.914 -0.002
  0.000 -0.002  0.914
   spin  2
    eigenvalues:
  0.913  0.916  0.917
    eigenvectors:
  0.000  0.000  1.000
  0.500  0.500  0.000
  0.500  0.500  0.000
    occupations:
  0.917 -0.000  0.000
 -0.000  0.914 -0.002
  0.000 -0.002  0.914
atomic mag. moment =    -0.000000
atom   44   Tr[ns(na)] (up, down, total) =   2.74570  2.74570  5.49141
   spin  1
    eigenvalues:
  0.913  0.916  0.917
    eigenvectors:
  0.000  0.000  1.000
  0.500  0.500  0.000
  0.500  0.500  0.000
    occupations:
  0.917  0.000 -0.000
  0.000  0.914 -0.002
 -0.000 -0.002  0.914
   spin  2
    eigenvalues:
  0.913  0.916  0.917
    eigenvectors:
  0.000  0.000  1.000
  0.500  0.500  0.000
  0.500  0.500  0.000
    occupations:
  0.917  0.000 -0.000
  0.000  0.914 -0.002
 -0.000 -0.002  0.914
atomic mag. moment =    -0.000000
atom   45   Tr[ns(na)] (up, down, total) =   2.74571  2.74571  5.49142
   spin  1
    eigenvalues:
  0.913  0.916  0.917
    eigenvectors:
  0.000  0.000  1.000
  0.500  0.500  0.000
  0.500  0.500  0.000
    occupations:
  0.917 -0.000 -0.000
 -0.000  0.914  0.002
 -0.000  0.002  0.914
   spin  2
    eigenvalues:
  0.913  0.916  0.917
    eigenvectors:
  0.000  0.000  1.000
  0.500  0.500  0.000
  0.500  0.500  0.000
    occupations:
  0.917 -0.000 -0.000
 -0.000  0.914  0.002
 -0.000  0.002  0.914
atomic mag. moment =    -0.000000
atom   46   Tr[ns(na)] (up, down, total) =   2.74571  2.74571  5.49142
   spin  1
    eigenvalues:
  0.913  0.916  0.917
    eigenvectors:
  0.000  0.000  1.000
  0.500  0.500  0.000
  0.500  0.500  0.000
    occupations:
  0.917 -0.000 -0.000
 -0.000  0.914  0.002
 -0.000  0.002  0.914
   spin  2
    eigenvalues:
  0.913  0.916  0.917
    eigenvectors:
  0.000  0.000  1.000
  0.500  0.500  0.000
  0.500  0.500  0.000
    occupations:
  0.917 -0.000 -0.000
 -0.000  0.914  0.002
 -0.000  0.002  0.914
atomic mag. moment =    -0.000000
atom   47   Tr[ns(na)] (up, down, total) =   2.74570  2.74570  5.49141
   spin  1
    eigenvalues:
  0.913  0.916  0.917
    eigenvectors:
  0.000  0.000  1.000
  0.500  0.500  0.000
  0.500  0.500  0.000
    occupations:
  0.917  0.000 -0.000
  0.000  0.914 -0.002
 -0.000 -0.002  0.914
   spin  2
    eigenvalues:
  0.913  0.916  0.917
    eigenvectors:
  0.000  0.000  1.000
  0.500  0.500  0.000
  0.500  0.500  0.000
    occupations:
  0.917  0.000 -0.000
  0.000  0.914 -0.002
 -0.000 -0.002  0.914
atomic mag. moment =    -0.000000
atom   48   Tr[ns(na)] (up, down, total) =   2.74570  2.74570  5.49141
   spin  1
    eigenvalues:
  0.913  0.916  0.917
    eigenvectors:
  0.000  0.000  1.000
  0.500  0.500  0.000
  0.500  0.500  0.000
    occupations:
  0.917 -0.000  0.000
 -0.000  0.914 -0.002
  0.000 -0.002  0.914
   spin  2
    eigenvalues:
  0.913  0.916  0.917
    eigenvectors:
  0.000  0.000  1.000
  0.500  0.500  0.000
  0.500  0.500  0.000
    occupations:
  0.917 -0.000  0.000
 -0.000  0.914 -0.002
  0.000 -0.002  0.914
atomic mag. moment =    -0.000000
N of occupied +U levels = 259.8400292
 --- exit write_ns ---

 ------ SPIN UP ------------

          k = 0.0000 0.0000 0.0000 ( 16699 PWs)   bands (ev):

   -44.1768 -44.1397 -44.1328 -44.1326 -44.1325 -44.1323 -44.1321 -44.1250
   -44.0728 -44.0541 -44.0541 -44.0540 -44.0539 -44.0538 -44.0534 -44.0534
   -20.7632 -20.7413 -20.7404 -20.7400 -20.7269 -20.7194 -20.7187 -20.7186
   -20.5039 -20.4903 -20.4802 -20.4769 -20.4412 -20.4267 -20.4266 -20.4260
   -20.3647 -20.3503 -20.3485 -20.3480 -20.3324 -20.3270 -20.3259 -20.3253
   -20.2047 -20.1836 -20.1830 -20.1830 -20.1355 -20.1277 -20.1212 -20.1196
   -19.9945 -19.9693 -19.9687 -19.9678 -19.9677 -19.9675 -19.9672 -19.9669
   -19.9004 -19.8808 -19.8661 -19.8661 -19.8661 -19.8660 -19.8656 -19.8469
    -7.7314  -7.3720  -7.3677  -7.2280  -7.2278  -7.2254  -7.2209  -7.1316
    -7.0247  -7.0247  -7.0244  -7.0237  -6.8310  -6.8267  -6.7824  -6.7785
    -6.5801  -6.5785  -6.5784  -6.5740  -6.5210  -6.5185  -6.4610  -6.4585
    -6.1649  -6.1644  -6.0994  -6.0989  -6.0021  -6.0010  -6.0002  -6.0001
     4.2616   4.3406   4.3426   4.4542   4.9253   4.9254   4.9272   4.9305
     5.0511   5.1647   5.1648   5.1652   5.1660   5.4187   5.4200   5.4208
     5.4240   5.4704   5.4725   5.5494   5.5550   5.7977   5.7988   6.2088
     6.2131   6.2664   6.2681   6.2954   6.2972   6.2975   6.2980   6.5411
     6.5415   6.5778   6.5779   6.5782   6.5831   6.5836   6.5843   6.5933
     6.5938   6.6713   6.6724   6.7045   6.7054   6.7315   6.7316   6.7319
     6.7331   7.1667   7.1672   7.1683   7.1686   7.4521   7.4524   7.4597
     7.4619   7.5747   7.5770   7.6056   7.6058   7.8812   7.8816   7.8818
     7.8830   8.0334   8.0342   8.0348   8.0351   8.3884   8.3894   8.4109
     8.4128   8.4129   8.4135   8.4246   8.4248   8.4417   8.6774   8.6780
     8.7499   8.7501   8.7504   8.7505   8.8198   8.8206   9.0250   9.0250
     9.1150   9.1154   9.1157   9.1158   9.1389   9.1833   9.1837   9.8077
    11.3557  11.4082  11.4101  11.6133  12.0992  12.0995  12.1005  12.1011
    12.1768  12.1773  12.1776  12.1791  12.7969  13.3255  13.3261  13.3293
    13.3303  13.4995  13.4996  13.5442  13.5444  13.7332  13.7339  13.7624
    13.7629  14.2272  14.2283  14.2288  14.2292  14.4216  14.4228  14.4232
    14.4236  14.4560  14.4561  14.4564  14.4566  14.7437  14.7438  15.3204
    15.3218  15.3375  15.3404  15.3406  15.3408  15.3487  15.3497  15.8774
    15.9983  16.4052  16.5480  16.5481  16.5494  16.5494  17.0607  17.0622
    17.2699  17.2737  17.2739  17.2743  17.3337  17.3350  17.3377  17.3392
    17.3393  17.3402  17.8838  17.8854  17.9068  17.9083  17.9105  17.9107
    18.0231  18.0243  18.0574  18.0589  19.1875  19.1889  19.1896  19.1906
    19.5877  19.5889  19.5907  19.5908  19.8358  20.1370  20.1371  20.5010
    20.5012  20.9906  20.9908  21.1770  21.1795  21.1795  21.1803  21.7331
    21.7332  21.9612  21.9630  21.9710  21.9723  22.5168  22.5174  22.5183
    22.5193  23.0036  23.0049  23.6550  23.6555  23.6557  23.6565  23.7238
    23.7634  23.7645  23.7658  23.7660  24.0471  24.0480  24.4393  24.4413
    24.4415  24.4422  24.8627  24.8632  25.0884  25.2599  25.2611  25.4468
    25.8549  25.8551  26.1724  26.1741  26.3696  26.3720  26.3843  26.3848
    26.3861  26.3863  26.4256  26.4258  26.4261  26.4274  27.1555  27.3569
    27.3597  27.3602  27.3608  27.3641  27.3644  27.5204  27.5212  27.7353
    27.7353  28.3924  28.3929  28.3935  28.3936  28.5204  28.5928  28.5930
    29.0195  29.0219  29.0246  29.0246  29.9285  29.9300  29.9312  29.9312
    30.4119  30.4141  30.4163  30.4164  30.6860  30.6880  30.6882  30.6883
    30.8123  30.8133  31.3022  31.3039  31.3507  31.3521  31.4044  31.4050
    31.4876  31.7163  31.7168  32.0946  32.4860  32.4885  32.5169  32.5176
    32.5197  32.5197  32.5522  32.5525  32.5729  32.5734  32.9990  33.1478
    33.1526  33.1529  33.1532  33.4508  33.4529  33.4533  33.4544  33.6424
    33.6449  33.8962  33.8976  34.2430  34.2448  34.2451  34.2459  34.2711
    34.2719  34.2976  34.3000  34.5789  34.5808  34.9046  34.9069  34.9073
    34.9081  35.3362  35.3376  36.1858  36.1875  36.1876  36.1894  36.1927
    36.1942  36.4328  36.4330  36.4337  36.4338  36.4774  36.6412  36.6413
    36.7656  36.7662  36.9826  37.1521  37.1544  37.1548  37.1553  37.2130
    37.2141  37.7216  37.7228  38.0856  38.0876  38.0882  38.0893  38.2161
    38.5388  38.5399  38.5416  38.5417  39.2291  39.2299  39.2303  39.2309
    39.3096  39.3111  39.3604  39.3611  39.6943  39.6944  39.6953  39.6967
    39.7105  39.7134  39.7645  39.7659  39.8239  40.1643  40.2532  40.2549
    40.2919  40.2930  40.6068  40.6096  40.6111  40.6113  40.8489  40.8494
    40.8508  40.8513  40.9220  40.9229  41.2427  41.2440  41.4309  41.4330
    41.5702  41.5703  41.8973  41.9097  41.9101  41.9104  41.9104  41.9348
    41.9356  42.0178  42.1234  42.1236  42.1263  42.1268  42.1563  42.3211
    42.3241  42.3364  42.3428  42.3433  42.3435  42.3614  42.3623  42.3670
    42.3671  42.3671  42.3694  42.3745  42.3746  42.6820  42.6828  42.7118
    42.7123  42.8442  42.8452  42.9669  42.9682  43.0971  43.1872  43.1882
    43.2311  43.2342  43.7201  43.7206  43.7214  43.7228  43.7252  43.7270
    43.7274  43.7278  43.7281  43.7282  43.7296  43.7302  43.8783  43.8792
    44.1219  44.1231  44.3294  44.3310  44.5053  44.5081  44.5082  44.5086
    44.8526  44.8542  45.1255  45.3170  45.3178  45.3247  45.3255  45.8230
    45.8285  45.8294  45.8297  45.8300  45.8303  46.2928  46.2943  46.2948
    46.2954  46.5330  46.5336  46.5342  46.5356  46.6916  46.6945  46.8251
    46.8252  46.8261  46.8266  46.8652  46.9098  46.9123  46.9129  46.9132
    46.9584  46.9585  47.0462  47.0465  47.1002  47.1007  47.1016  47.1021
    47.3130  47.3133  47.5831  47.5855  47.9148  48.2484  48.2498  48.2502

[...]

          k =-0.5000-0.5000 0.0000 ( 16684 PWs)   bands (ev):

[...]

 ------ SPIN DOWN ----------

[...]

          k = 0.2500-0.5000-0.8345 ( 16684 PWs)   bands (ev):

[...]

          k =-0.2500 0.2500 0.8345 ( 16644 PWs)   bands (ev):

   -44.1586 -44.0986 -44.0980 -44.0959 -44.0956 -44.0951 -44.0947 -44.0942
   -44.0934 -44.0924 -44.0918 -44.0915 -44.0913 -44.0907 -44.0888 -44.0881
   -20.4728 -20.4354 -20.4277 -20.4274 -20.4262 -20.4241 -20.4220 -20.4219
   -20.4212 -20.4203 -20.4192 -20.4190 -20.4189 -20.4155 -20.4126 -20.4101
   -20.3357 -20.3112 -20.3106 -20.3090 -20.3086 -20.2906 -20.2899 -20.2893
   -20.2883 -20.2871 -20.2854 -20.2843 -20.2734 -20.2681 -20.2680 -20.2678
   -20.1195 -20.0760 -20.0760 -20.0758 -20.0754 -20.0632 -20.0626 -20.0621
   -20.0618 -20.0610 -20.0608 -20.0602 -20.0521 -20.0509 -20.0494 -20.0486
    -7.1485  -7.1477  -7.0246  -7.0235  -7.0231  -7.0226  -6.9529  -6.9511
    -6.8934  -6.8923  -6.8761  -6.8757  -6.8738  -6.8711  -6.7844  -6.7835
    -6.4873  -6.4862  -6.4794  -6.4787  -6.4622  -6.4621  -6.4618  -6.4592
    -6.4551  -6.4542  -6.4539  -6.4538  -6.4473  -6.4466  -6.4389  -6.4375
     5.0936   5.0948   5.1785   5.1787   5.1930   5.1937   5.1939   5.1941
     5.2343   5.2352   5.2473   5.2475   5.2479   5.2495   5.3099   5.3102
     5.6030   5.6071   5.6635   5.6638   5.8576   5.8595   5.8607   5.8620
     5.9023   5.9044   6.1017   6.1028   6.1029   6.1097   6.1289   6.1310
     6.1480   6.1499   6.4853   6.4859   6.4865   6.4872   6.7394   6.7395
     6.7684   6.7693   6.7702   6.7702   6.7711   6.7715   6.9674   6.9681
     6.9684   6.9691   7.1826   7.1829   7.1867   7.1874   7.2354   7.2362
     7.7033   7.7039   7.7041   7.7044   7.8719   7.8722   7.8945   7.8957
     7.8961   7.8973   7.9203   7.9215   8.0180   8.0186   8.0368   8.0377
     8.0541   8.0564   8.1631   8.1640   8.1640   8.1643   8.3916   8.3918
     8.5459   8.5460   8.6349   8.6361   8.8072   8.8077   8.8079   8.8080
     8.9376   8.9380   9.1685   9.1685   9.1687   9.1690   9.3567   9.3567
    12.6460  12.6461  12.7594  12.7595  12.7596  12.7607  12.8709  12.8712
    12.9807  12.9809  13.0530  13.0541  13.1051  13.1056  13.1058  13.1061
    13.1774  13.1783  13.2539  13.2545  13.2916  13.2935  13.2938  13.2948
    13.5430  13.5434  13.5898  13.5899  13.7288  13.7293  13.7388  13.7393
    13.7393  13.7397  14.0815  14.0816  14.2807  14.2807  14.2813  14.2814
    14.3838  14.3840  14.7528  14.7534  14.7540  14.7543  15.1676  15.1681
    16.3625  16.3632  16.3637  16.3639  16.7710  16.7713  16.9126  16.9138
    16.9238  16.9254  16.9263  16.9267  17.2729  17.2731  17.5833  17.5839
    17.6954  17.6961  17.7871  17.7883  17.9255  17.9278  17.9294  17.9295
    18.2781  18.2798  18.6957  18.6985  18.6986  18.6993  18.7395  18.7397
    19.3681  19.3697  20.0220  20.0231  20.0237  20.0247  20.5008  20.5014
    21.0782  21.0802  21.2467  21.2469  21.2485  21.2486  22.3517  22.3533
    22.5126  22.5135  22.7989  22.7999  22.9747  22.9766  23.3137  23.3147
    23.3148  23.3150  23.9781  23.9797  23.9804  23.9818  24.6392  24.6401
    24.7441  24.7447  24.7915  24.7932  24.7939  24.7941  24.8326  24.8329
    24.9204  24.9220  24.9456  24.9473  25.1180  25.1194  25.1194  25.1201
    25.7637  25.7646  25.7648  25.7654  25.7888  25.7906  26.0617  26.0618
    26.1152  26.1159  26.1168  26.1169  26.3760  26.3776  26.7333  26.7349
    26.9664  26.9672  26.9685  26.9691  27.4198  27.4220  27.9157  27.9168
    28.1335  28.1346  28.4180  28.4192  28.4831  28.4832  28.4834  28.4846
    28.6087  28.6090  28.6599  28.6611  29.6696  29.6704  29.6721  29.6735
    29.7648  29.7677  30.2831  30.2863  30.2863  30.2865  30.9417  30.9419
    30.9427  30.9429  31.0536  31.0556  31.4125  31.4145  31.4853  31.4867
    32.1344  32.1363  32.1801  32.1829  32.3869  32.3874  32.3889  32.3891
    32.6568  32.6574  33.0879  33.0903  33.0904  33.0910  33.2275  33.2280
    33.3116  33.3128  33.4507  33.4508  33.6007  33.6007  33.6021  33.6028
    33.9421  33.9422  33.9437  33.9438  34.2529  34.2530  34.2530  34.2545
    34.4886  34.4892  34.8090  34.8093  34.9864  34.9868  35.3160  35.3166
    35.4559  35.4560  35.7119  35.7121  35.7123  35.7125  35.7701  35.7703
    35.8001  35.8018  35.8449  35.8451  35.8454  35.8454  36.1377  36.1383
    36.3541  36.3548  36.7763  36.7766  36.8274  36.8284  36.8299  36.8304
    36.9864  36.9867  37.1692  37.1694  37.1702  37.1706  38.1603  38.1616
    38.2187  38.2212  38.2500  38.2506  38.2898  38.2909  38.5310  38.5311
    38.5321  38.5321  38.6124  38.6132  39.0689  39.0707  39.0711  39.0715
    39.0975  39.0976  39.5992  39.5997  40.3531  40.3540  40.3545  40.3554
    40.4981  40.4990  40.5766  40.5771  40.6163  40.6166  40.6168  40.6174
    40.9370  40.9393  40.9940  40.9948  41.0035  41.0055  41.0065  41.0072
    41.1736  41.1742  41.3904  41.3937  41.6219  41.6224  41.6227  41.6236
    41.6600  41.6621  41.6623  41.6628  41.8692  41.8707  42.0584  42.0587
    42.1969  42.1980  42.1980  42.1980  42.8097  42.8112  43.0108  43.0112
    43.0251  43.0264  43.0519  43.0532  43.2426  43.2456  43.3544  43.3564
    43.3572  43.3576  43.4164  43.4185  43.6279  43.6297  43.9481  43.9482
    43.9482  43.9482  44.1113  44.1136  44.2894  44.2897  44.3325  44.3325
    44.3342  44.3356  44.3972  44.3975  44.3982  44.3983  44.7482  44.7489
    44.7970  44.7999  44.8010  44.8011  44.8012  44.8017  44.8726  44.8749
    45.0856  45.0870  45.1431  45.1453  45.1453  45.1456  45.1705  45.1715
    45.2400  45.2406  45.6781  45.6786  45.6802  45.6803  45.7337  45.7345
    45.8540  45.8544  45.9039  45.9042  45.9057  45.9062  45.9145  45.9156
    46.4021  46.4023  46.4184  46.4189  46.4190  46.4195  46.6240  46.6250
    47.0419  47.0422  47.0423  47.0426  47.0592  47.0595  47.2881  47.2889
    47.2908  47.2909  47.4483  47.4492  47.5026  47.5034  47.8499  47.8500

     the Fermi energy is    12.5600 ev

!    total energy              =   -2922.37312053 Ry
     Harris-Foulkes estimate   =   -2922.37312135 Ry
     estimated scf accuracy    <       0.00000094 Ry

     The total energy is the sum of the following terms:

     one-electron contribution =    -784.88448050 Ry
     hartree contribution      =     606.82130627 Ry
     xc contribution           =    -525.15692821 Ry
     ewald contribution        =   -2219.17932603 Ry
     Hubbard energy            =       0.02695907 Ry
     smearing contrib. (-TS)   =      -0.00065112 Ry

     total magnetization       =     0.00 Bohr mag/cell
     absolute magnetization    =     0.00 Bohr mag/cell

     convergence has been achieved in   8 iterations

     Writing output data file pwscf.save

     General routines

     Parallel routines
     Hubbard U routines

   This run was terminated on:   0:10:25  15Feb2014

   JOB DONE.