     Program PWSCF v.5.0.2 (svn rev. 9656) starts on 15Feb2014 at  0:14:48

     Current dimensions of program PWSCF are:
     Max number of different atomic species (ntypx) = 10
     Max number of k-points (npk) =  40000
     Max angular momentum in pseudopotentials (lmaxx) =  3
     Reading input from alpha_0.15/alpha_0.15.in
Warning: card &IONS ignored
Warning: card / ignored
Warning: card &CELL ignored
Warning: card / ignored

     Subspace diagonalization in iterative solution of the eigenvalue problem:
     a serial algorithm will be used

     bravais-lattice index     =            0
     lattice parameter (alat)  =      18.6705  a.u.
     unit-cell volume          =    3899.7090 (a.u.)^3
     number of atoms/cell      =           48
     number of atomic types    =            3
     number of electrons       =       400.00
     number of Kohn-Sham states=          600
     kinetic-energy cutoff     =      40.0000  Ry
     charge density cutoff     =     500.0000  Ry
     convergence threshold     =      1.0E-06
     mixing beta               =       0.7000
     number of iterations used =            8  plain     mixing
     Exchange-correlation      = SLA  PW   PBE  PBE ( 1 4 3 4 0)
     EXX-fraction              =        0.00

     celldm(1)=  18.670494  celldm(2)=   0.000000  celldm(3)=   0.000000
     celldm(4)=   0.000000  celldm(5)=   0.000000  celldm(6)=   0.000000

     crystal axes: (cart. coord. in units of alat)
               a(1) = (   1.000000   0.000000   0.000000 )
               a(2) = (   0.000000   1.000000   0.000000 )
               a(3) = (   0.000000   0.000000   0.599190 )

     reciprocal axes: (cart. coord. in units 2 pi/alat)
               b(1) = (  1.000000  0.000000  0.000000 )
               b(2) = (  0.000000  1.000000  0.000000 )
               b(3) = (  0.000000  0.000000  1.668919 )

     PseudoPot. # 1 for Nb read from file:
     /home/camp/zhonxu/pseudo/nb_pbe_v1.uspp.F.UPF
     MD5 check sum: 573aab8a2fa660278ed4a62cd769473f
     Pseudo is Ultrasoft + core correction, Zval = 13.0
     Generated by new atomic code, or converted to UPF format
     Using radial grid of  887 points,  6 beta functions with:
                l(1) =   0
                l(2) =   0
                l(3) =   1
                l(4) =   1
                l(5) =   2
                l(6) =   2
     Q(r) pseudized with  6 coefficients,  rinner =    1.000   1.000   1.000
                                                       1.000   1.000

     PseudoPot. # 2 for Nb read from file:
     /home/camp/zhonxu/pseudo/nb_pbe_v1.uspp.F.UPF
     MD5 check sum: 573aab8a2fa660278ed4a62cd769473f
     Pseudo is Ultrasoft + core correction, Zval = 13.0
     Generated by new atomic code, or converted to UPF format
     Using radial grid of  887 points,  6 beta functions with:
                l(1) =   0
                l(2) =   0
                l(3) =   1
                l(4) =   1
                l(5) =   2
                l(6) =   2
     Q(r) pseudized with  6 coefficients,  rinner =    1.000   1.000   1.000
                                                       1.000   1.000

     PseudoPot. # 3 for O  read from file:
     /home/camp/zhonxu/pseudo/o_pbe_v1.01.uspp.F.UPF
     MD5 check sum: 2bcb18d16ea4b960afae9ec6d52f22d2
     Pseudo is Ultrasoft + core correction, Zval =  6.0
     Generated by new atomic code, or converted to UPF format
     Using radial grid of  737 points,  5 beta functions with:
                l(1) =   0
                l(2) =   0
                l(3) =   1
                l(4) =   1
                l(5) =   2
     Q(r) pseudized with  8 coefficients,  rinner =    0.900   0.900   0.900
                                                       0.900   0.900

     atomic species   valence    mass     pseudopotential
        Nb0           13.00    92.90640     Nb( 1.00)
        Nb1           13.00    92.90640     Nb( 1.00)
        O2             6.00    15.99940     O ( 1.00)

     Starting magnetic structure
     atomic species   magnetization
        Nb0          0.000
        Nb1          0.000
        O2           0.000

     Simplified LDA+U calculation (l_max = 2) with parameters (eV):
     atomic species    L          U    alpha       J0     beta
        Nb0            2     0.0000   0.1500   0.0000   0.0000
        Nb1            2     0.0000   0.0000   0.0000   0.0000
        O2             1     0.0000   0.0000   0.0000   0.0000

      8 Sym. Ops., with inversion, found

   Cartesian axes

     site n.     atom                  positions (alat units)
         1           Nb0 tau(   1) = (   0.0000000   0.0000000   0.0000000  )
         2           Nb1 tau(   2) = (   0.2500000   0.2500000   0.1497976  )
         3           Nb1 tau(   3) = (   0.0000000   0.0000000   0.2995951  )
         4           Nb1 tau(   4) = (   0.2500000   0.2500000   0.4493927  )
         5           Nb1 tau(   5) = (   0.0000000   0.5000000   0.0000000  )
         6           Nb1 tau(   6) = (   0.2500000   0.7500000   0.1497976  )
         7           Nb1 tau(   7) = (   0.0000000   0.5000000   0.2995951  )
         8           Nb1 tau(   8) = (   0.2500000   0.7500000   0.4493927  )
         9           Nb1 tau(   9) = (   0.5000000   0.0000000   0.0000000  )
        10           Nb1 tau(  10) = (   0.7500000   0.2500000   0.1497976  )
        11           Nb1 tau(  11) = (   0.5000000   0.0000000   0.2995951  )
        12           Nb1 tau(  12) = (   0.7500000   0.2500000   0.4493927  )
        13           Nb1 tau(  13) = (   0.5000000   0.5000000   0.0000000  )
        14           Nb1 tau(  14) = (   0.7500000   0.7500000   0.1497976  )
        15           Nb1 tau(  15) = (   0.5000000   0.5000000   0.2995951  )
        16           Nb1 tau(  16) = (   0.7500000   0.7500000   0.4493927  )
        17           O2  tau(  17) = (   0.1450000   0.1450000   0.0000000  )
        18           O2  tau(  18) = (  -0.1450000  -0.1450000   0.0000000  )
        19           O2  tau(  19) = (   0.3950000   0.1050000   0.1497976  )
        20           O2  tau(  20) = (   0.1050000   0.3950000   0.1497976  )
        21           O2  tau(  21) = (   0.1450000   0.1450000   0.2995951  )
        22           O2  tau(  22) = (  -0.1450000  -0.1450000   0.2995951  )
        23           O2  tau(  23) = (   0.3950000   0.1050000   0.4493927  )
        24           O2  tau(  24) = (   0.1050000   0.3950000   0.4493927  )
        25           O2  tau(  25) = (   0.1450000   0.6450000   0.0000000  )
        26           O2  tau(  26) = (  -0.1450000   0.3550000   0.0000000  )
        27           O2  tau(  27) = (   0.3950000   0.6050000   0.1497976  )
        28           O2  tau(  28) = (   0.1050000   0.8950000   0.1497976  )
        29           O2  tau(  29) = (   0.1450000   0.6450000   0.2995951  )
        30           O2  tau(  30) = (  -0.1450000   0.3550000   0.2995951  )
        31           O2  tau(  31) = (   0.3950000   0.6050000   0.4493927  )
        32           O2  tau(  32) = (   0.1050000   0.8950000   0.4493927  )
        33           O2  tau(  33) = (   0.6450000   0.1450000   0.0000000  )
        34           O2  tau(  34) = (   0.3550000  -0.1450000   0.0000000  )
        35           O2  tau(  35) = (   0.8950000   0.1050000   0.1497976  )
        36           O2  tau(  36) = (   0.6050000   0.3950000   0.1497976  )
        37           O2  tau(  37) = (   0.6450000   0.1450000   0.2995951  )
        38           O2  tau(  38) = (   0.3550000  -0.1450000   0.2995951  )
        39           O2  tau(  39) = (   0.8950000   0.1050000   0.4493927  )
        40           O2  tau(  40) = (   0.6050000   0.3950000   0.4493927  )
        41           O2  tau(  41) = (   0.6450000   0.6450000   0.0000000  )
        42           O2  tau(  42) = (   0.3550000   0.3550000   0.0000000  )
        43           O2  tau(  43) = (   0.8950000   0.6050000   0.1497976  )
        44           O2  tau(  44) = (   0.6050000   0.8950000   0.1497976  )
        45           O2  tau(  45) = (   0.6450000   0.6450000   0.2995951  )
        46           O2  tau(  46) = (   0.3550000   0.3550000   0.2995951  )
        47           O2  tau(  47) = (   0.8950000   0.6050000   0.4493927  )
        48           O2  tau(  48) = (   0.6050000   0.8950000   0.4493927  )

     number of k points=    42  Methfessel-Paxton smearing, width (Ry)=  0.0100
                       cart. coord. in units 2pi/alat
        k(    1) = (   0.0000000   0.0000000   0.0000000), wk =   0.0156250
        k(    2) = (   0.0000000   0.0000000   0.4172297), wk =   0.0312500
        k(    3) = (   0.0000000   0.0000000  -0.8344595), wk =   0.0156250
        k(    4) = (   0.0000000   0.2500000   0.0000000), wk =   0.0625000
        k(    5) = (   0.0000000   0.2500000   0.4172297), wk =   0.1250000
        k(    6) = (   0.0000000   0.2500000  -0.8344595), wk =   0.0625000
        k(    7) = (   0.0000000  -0.5000000   0.0000000), wk =   0.0312500
        k(    8) = (   0.0000000  -0.5000000   0.4172297), wk =   0.0625000
        k(    9) = (   0.0000000  -0.5000000  -0.8344595), wk =   0.0312500
        k(   10) = (   0.2500000   0.2500000   0.0000000), wk =   0.0312500
        k(   11) = (   0.2500000   0.2500000   0.4172297), wk =   0.0625000
        k(   12) = (   0.2500000   0.2500000  -0.8344595), wk =   0.0312500
        k(   13) = (   0.2500000  -0.5000000   0.0000000), wk =   0.0625000
        k(   14) = (   0.2500000  -0.5000000   0.4172297), wk =   0.1250000
        k(   15) = (   0.2500000  -0.5000000  -0.8344595), wk =   0.0625000
        k(   16) = (  -0.5000000  -0.5000000   0.0000000), wk =   0.0156250
        k(   17) = (  -0.5000000  -0.5000000   0.4172297), wk =   0.0312500
        k(   18) = (  -0.5000000  -0.5000000  -0.8344595), wk =   0.0156250
        k(   19) = (  -0.2500000   0.2500000   0.0000000), wk =   0.0312500
        k(   20) = (  -0.2500000   0.2500000  -0.4172297), wk =   0.0625000
        k(   21) = (  -0.2500000   0.2500000   0.8344595), wk =   0.0312500
        k(   22) = (   0.0000000   0.0000000   0.0000000), wk =   0.0156250
        k(   23) = (   0.0000000   0.0000000   0.4172297), wk =   0.0312500
        k(   24) = (   0.0000000   0.0000000  -0.8344595), wk =   0.0156250
        k(   25) = (   0.0000000   0.2500000   0.0000000), wk =   0.0625000
        k(   26) = (   0.0000000   0.2500000   0.4172297), wk =   0.1250000
        k(   27) = (   0.0000000   0.2500000  -0.8344595), wk =   0.0625000
        k(   28) = (   0.0000000  -0.5000000   0.0000000), wk =   0.0312500
        k(   29) = (   0.0000000  -0.5000000   0.4172297), wk =   0.0625000
        k(   30) = (   0.0000000  -0.5000000  -0.8344595), wk =   0.0312500
        k(   31) = (   0.2500000   0.2500000   0.0000000), wk =   0.0312500
        k(   32) = (   0.2500000   0.2500000   0.4172297), wk =   0.0625000
        k(   33) = (   0.2500000   0.2500000  -0.8344595), wk =   0.0312500
        k(   34) = (   0.2500000  -0.5000000   0.0000000), wk =   0.0625000
        k(   35) = (   0.2500000  -0.5000000   0.4172297), wk =   0.1250000
        k(   36) = (   0.2500000  -0.5000000  -0.8344595), wk =   0.0625000
[...]
  0.913  0.916  0.917
    eigenvectors:
  0.000  0.000  1.000
  0.500  0.500  0.000
  0.500  0.500  0.000
    occupations:
  0.917 -0.000 -0.000
 -0.000  0.914  0.002
 -0.000  0.002  0.914
   spin  2
    eigenvalues:
  0.913  0.916  0.917
    eigenvectors:
  0.000  0.000  1.000
  0.500  0.500  0.000
  0.500  0.500  0.000
    occupations:
  0.917 -0.000 -0.000
 -0.000  0.914  0.002
 -0.000  0.002  0.914
atomic mag. moment =    -0.000000
atom   42   Tr[ns(na)] (up, down, total) =   2.74568  2.74568  5.49137
   spin  1
    eigenvalues:
  0.913  0.916  0.917
    eigenvectors:
  0.000  0.000  1.000
  0.500  0.500  0.000
  0.500  0.500  0.000
    occupations:
  0.917 -0.000 -0.000
 -0.000  0.914  0.002
 -0.000  0.002  0.914
   spin  2
    eigenvalues:
  0.913  0.916  0.917
    eigenvectors:
  0.000  0.000  1.000
  0.500  0.500  0.000
  0.500  0.500  0.000
    occupations:
  0.917 -0.000 -0.000
 -0.000  0.914  0.002
 -0.000  0.002  0.914
atomic mag. moment =    -0.000000
atom   43   Tr[ns(na)] (up, down, total) =   2.74571  2.74571  5.49142
   spin  1
    eigenvalues:
  0.913  0.916  0.917
    eigenvectors:
  0.000  0.000  1.000
  0.500  0.500  0.000
  0.500  0.500  0.000
    occupations:
  0.917 -0.000 -0.000
 -0.000  0.914 -0.002
 -0.000 -0.002  0.914
   spin  2
    eigenvalues:
  0.913  0.916  0.917
    eigenvectors:
  0.000  0.000  1.000
  0.500  0.500  0.000
  0.500  0.500  0.000
    occupations:
  0.917 -0.000 -0.000
 -0.000  0.914 -0.002
 -0.000 -0.002  0.914
atomic mag. moment =    -0.000000
atom   44   Tr[ns(na)] (up, down, total) =   2.74571  2.74571  5.49142
   spin  1
    eigenvalues:
  0.913  0.916  0.917
    eigenvectors:
  0.000  0.000  1.000
  0.500  0.500  0.000
  0.500  0.500  0.000
    occupations:
  0.917 -0.000 -0.000
 -0.000  0.914 -0.002
 -0.000 -0.002  0.914
   spin  2
    eigenvalues:
  0.913  0.916  0.917
    eigenvectors:
  0.000  0.000  1.000
  0.500  0.500  0.000
  0.500  0.500  0.000
    occupations:
  0.917 -0.000 -0.000
 -0.000  0.914 -0.002
 -0.000 -0.002  0.914
atomic mag. moment =    -0.000000
atom   45   Tr[ns(na)] (up, down, total) =   2.74571  2.74571  5.49143
   spin  1
    eigenvalues:
  0.913  0.916  0.917
    eigenvectors:
  0.000  0.000  1.000
  0.500  0.500  0.000
  0.500  0.500  0.000
    occupations:
  0.917 -0.000 -0.000
 -0.000  0.914  0.002
 -0.000  0.002  0.914
   spin  2
    eigenvalues:
  0.913  0.916  0.917
    eigenvectors:
  0.000  0.000  1.000
  0.500  0.500  0.000
  0.500  0.500  0.000
    occupations:
  0.917 -0.000 -0.000
 -0.000  0.914  0.002
 -0.000  0.002  0.914
atomic mag. moment =    -0.000000
atom   46   Tr[ns(na)] (up, down, total) =   2.74571  2.74571  5.49143
   spin  1
    eigenvalues:
  0.913  0.916  0.917
    eigenvectors:
  0.000  0.000  1.000
  0.500  0.500  0.000
  0.500  0.500  0.000
    occupations:
  0.917 -0.000 -0.000
 -0.000  0.914  0.002
 -0.000  0.002  0.914
   spin  2
    eigenvalues:
  0.913  0.916  0.917
    eigenvectors:
  0.000  0.000  1.000
  0.500  0.500  0.000
  0.500  0.500  0.000
    occupations:
  0.917 -0.000 -0.000
 -0.000  0.914  0.002
 -0.000  0.002  0.914
atomic mag. moment =    -0.000000
atom   47   Tr[ns(na)] (up, down, total) =   2.74571  2.74571  5.49142
   spin  1
    eigenvalues:
  0.913  0.916  0.917
    eigenvectors:
  0.000  0.000  1.000
  0.500  0.500  0.000
  0.500  0.500  0.000
    occupations:
  0.917  0.000  0.000
  0.000  0.914 -0.002
  0.000 -0.002  0.914
   spin  2
    eigenvalues:
  0.913  0.916  0.917
    eigenvectors:
  0.000  0.000  1.000
  0.500  0.500  0.000
  0.500  0.500  0.000
    occupations:
  0.917  0.000  0.000
  0.000  0.914 -0.002
  0.000 -0.002  0.914
atomic mag. moment =    -0.000000
atom   48   Tr[ns(na)] (up, down, total) =   2.74571  2.74571  5.49142
   spin  1
    eigenvalues:
  0.913  0.916  0.917
    eigenvectors:
  0.000  0.000  1.000
  0.500  0.500  0.000
  0.500  0.500  0.000
    occupations:
  0.917  0.000  0.000
  0.000  0.914 -0.002
  0.000 -0.002  0.914
   spin  2
    eigenvalues:
  0.913  0.916  0.917
    eigenvectors:
  0.000  0.000  1.000
  0.500  0.500  0.000
  0.500  0.500  0.000
    occupations:
  0.917  0.000  0.000
  0.000  0.914 -0.002
  0.000 -0.002  0.914
atomic mag. moment =    -0.000000
N of occupied +U levels = 259.8312315
 --- exit write_ns ---

 ------ SPIN UP ------------

          k = 0.0000 0.0000 0.0000 ( 16699 PWs)   bands (ev):

   -44.2430 -44.1372 -44.1303 -44.1300 -44.1299 -44.1293 -44.1292 -44.1225
   -44.0759 -44.0516 -44.0516 -44.0514 -44.0511 -44.0509 -44.0506 -44.0506
   -20.7974 -20.7404 -20.7379 -20.7373 -20.7264 -20.7167 -20.7160 -20.7159
   -20.5464 -20.4914 -20.4792 -20.4759 -20.4483 -20.4243 -20.4241 -20.4233
   -20.3736 -20.3478 -20.3458 -20.3456 -20.3315 -20.3257 -20.3235 -20.3226
   -20.2416 -20.1811 -20.1802 -20.1799 -20.1407 -20.1260 -20.1190 -20.1177
   -20.0123 -19.9667 -19.9662 -19.9651 -19.9651 -19.9649 -19.9644 -19.9642
   -19.9281 -19.8802 -19.8636 -19.8634 -19.8634 -19.8634 -19.8629 -19.8447
    -7.7301  -7.3704  -7.3615  -7.2258  -7.2255  -7.2206  -7.2111  -7.1268
    -7.0233  -7.0233  -7.0226  -7.0212  -6.8292  -6.8208  -6.7806  -6.7716
    -6.5799  -6.5764  -6.5762  -6.5672  -6.5200  -6.5142  -6.4598  -6.4543
    -6.1640  -6.1628  -6.0983  -6.0973  -6.0023  -5.9998  -5.9981  -5.9979
     4.2651   4.3423   4.3465   4.4571   4.9279   4.9282   4.9319   4.9388
     5.0578   5.1669   5.1672   5.1676   5.1696   5.4194   5.4222   5.4237
     5.4304   5.4718   5.4766   5.5506   5.5624   5.7991   5.8014   6.2101
     6.2193   6.2676   6.2710   6.2955   6.2994   6.2998   6.3011   6.5436
     6.5444   6.5793   6.5795   6.5797   6.5843   6.5870   6.5915   6.5958
     6.5966   6.6725   6.6749   6.7059   6.7077   6.7334   6.7339   6.7342
     6.7369   7.1665   7.1676   7.1701   7.1707   7.4531   7.4538   7.4616
     7.4660   7.5762   7.5811   7.6067   7.6070   7.8830   7.8838   7.8841
     7.8868   8.0335   8.0351   8.0364   8.0371   8.3899   8.3922   8.4107
     8.4151   8.4151   8.4163   8.4258   8.4262   8.4432   8.6787   8.6798
     8.7509   8.7515   8.7523   8.7524   8.8208   8.8225   9.0265   9.0265
     9.1162   9.1170   9.1176   9.1180   9.1404   9.1847   9.1856   9.8095
    11.3585  11.4105  11.4143  11.6163  12.1011  12.1019  12.1038  12.1051
    12.1786  12.1796  12.1801  12.1832  12.7995  13.3273  13.3282  13.3313
    13.3331  13.5014  13.5015  13.5462  13.5463  13.7352  13.7363  13.7645
    13.7653  14.2271  14.2301  14.2312  14.2318  14.4214  14.4246  14.4254
    14.4260  14.4576  14.4579  14.4585  14.4590  14.7453  14.7460  15.3196
    15.3243  15.3366  15.3429  15.3433  15.3434  15.3504  15.3522  15.8791
    15.9998  16.4058  16.5486  16.5488  16.5518  16.5519  17.0617  17.0645
    17.2673  17.2758  17.2763  17.2768  17.3317  17.3363  17.3386  17.3411
    17.3411  17.3429  17.8831  17.8874  17.9068  17.9103  17.9129  17.9130
    18.0231  18.0261  18.0579  18.0613  19.1866  19.1896  19.1912  19.1933
    19.5863  19.5892  19.5931  19.5933  19.8368  20.1378  20.1381  20.5010
    20.5016  20.9908  20.9914  21.1750  21.1805  21.1805  21.1821  21.7336
    21.7338  21.9600  21.9640  21.9707  21.9735  22.5156  22.5168  22.5188
    22.5210  23.0030  23.0058  23.6550  23.6560  23.6564  23.6582  23.7252
    23.7619  23.7644  23.7670  23.7677  24.0477  24.0496  24.4377  24.4422
    24.4426  24.4441  24.8630  24.8641  25.0884  25.2595  25.2622  25.4472
    25.8550  25.8554  26.1715  26.1753  26.3683  26.3736  26.3829  26.3844
    26.3871  26.3874  26.4251  26.4253  26.4259  26.4288  27.1552  27.3540
    27.3602  27.3614  27.3626  27.3639  27.3644  27.5198  27.5214  27.7357
    27.7358  28.3919  28.3929  28.3943  28.3945  28.5207  28.5928  28.5932
    29.0153  29.0208  29.0265  29.0267  29.9267  29.9289  29.9317  29.9328
    30.4084  30.4132  30.4180  30.4182  30.6844  30.6888  30.6893  30.6894
    30.8116  30.8138  31.3011  31.3049  31.3499  31.3532  31.4039  31.4049
    31.4872  31.7160  31.7172  32.0950  32.4842  32.4899  32.5153  32.5165
    32.5213  32.5214  32.5525  32.5534  32.5731  32.5741  32.9993  33.1433
    33.1538  33.1542  33.1551  33.4484  33.4528  33.4537  33.4560  33.6409
    33.6464  33.8954  33.8983  34.2410  34.2449  34.2456  34.2472  34.2706
    34.2726  34.2962  34.3014  34.5778  34.5820  34.9023  34.9072  34.9081
    34.9099  35.3353  35.3383  36.1831  36.1870  36.1873  36.1912  36.1921
    36.1955  36.4323  36.4328  36.4345  36.4347  36.4773  36.6412  36.6416
    36.7653  36.7668  36.9823  37.1500  37.1548  37.1557  37.1568  37.2121
    37.2144  37.7209  37.7236  38.0831  38.0874  38.0888  38.0912  38.2159
    38.5365  38.5391  38.5428  38.5430  39.2283  39.2301  39.2308  39.2321
    39.3086  39.3119  39.3603  39.3618  39.6930  39.6934  39.6949  39.6983
    39.7089  39.7150  39.7636  39.7666  39.8246  40.1641  40.2522  40.2561
    40.2913  40.2936  40.6032  40.6095  40.6127  40.6130  40.8476  40.8487
    40.8517  40.8527  40.9210  40.9230  41.2420  41.2450  41.4297  41.4343
    41.5706  41.5708  41.8973  41.9094  41.9103  41.9109  41.9113  41.9343
    41.9359  42.0172  42.1215  42.1220  42.1277  42.1289  42.1556  42.3182
    42.3255  42.3295  42.3442  42.3451  42.3456  42.3607  42.3621  42.3668
    42.3669  42.3670  42.3715  42.3745  42.3747  42.6818  42.6835  42.7114
    42.7123  42.8432  42.8454  42.9661  42.9691  43.0968  43.1869  43.1892
    43.2293  43.2361  43.7184  43.7186  43.7212  43.7236  43.7244  43.7267
    43.7274  43.7274  43.7290  43.7296  43.7304  43.7317  43.8774  43.8796
    44.1215  44.1243  44.3287  44.3323  44.5027  44.5090  44.5092  44.5100
    44.8512  44.8548  45.1256  45.3166  45.3184  45.3244  45.3262  45.8160
    45.8284  45.8304  45.8307  45.8313  45.8320  46.2910  46.2941  46.2953
    46.2967  46.5319  46.5332  46.5344  46.5376  46.6894  46.6958  46.8239
    46.8242  46.8260  46.8273  46.8652  46.9070  46.9122  46.9134  46.9142
    46.9583  46.9585  47.0461  47.0468  47.0990  47.1002  47.1022  47.1033
    47.3130  47.3137  47.5816  47.5869  47.9156  48.2476  48.2496  48.2505

[...]

          k =-0.5000-0.5000 0.0000 ( 16684 PWs)   bands (ev):

[...]

 ------ SPIN DOWN ----------

[...]

          k = 0.2500-0.5000-0.8345 ( 16684 PWs)   bands (ev):

[...]

          k =-0.2500 0.2500 0.8345 ( 16644 PWs)   bands (ev):

   -44.2333 -44.0961 -44.0952 -44.0933 -44.0926 -44.0924 -44.0920 -44.0917
   -44.0907 -44.0900 -44.0890 -44.0889 -44.0884 -44.0880 -44.0859 -44.0857
   -20.5368 -20.4693 -20.4270 -20.4247 -20.4242 -20.4229 -20.4197 -20.4195
   -20.4192 -20.4177 -20.4167 -20.4166 -20.4166 -20.4131 -20.4093 -20.4078
   -20.3675 -20.3085 -20.3081 -20.3064 -20.3061 -20.2901 -20.2874 -20.2865
   -20.2860 -20.2842 -20.2823 -20.2820 -20.2745 -20.2657 -20.2654 -20.2653
   -20.1817 -20.0736 -20.0735 -20.0731 -20.0722 -20.0607 -20.0600 -20.0595
   -20.0590 -20.0583 -20.0579 -20.0578 -20.0507 -20.0483 -20.0471 -20.0458
    -7.1467  -7.1451  -7.0241  -7.0214  -7.0207  -7.0197  -6.9495  -6.9462
    -6.8922  -6.8900  -6.8739  -6.8734  -6.8690  -6.8635  -6.7811  -6.7787
    -6.4862  -6.4838  -6.4774  -6.4765  -6.4601  -6.4598  -6.4591  -6.4546
    -6.4541  -6.4519  -6.4517  -6.4513  -6.4454  -6.4443  -6.4359  -6.4315
     5.0957   5.0981   5.1803   5.1806   5.1943   5.1957   5.1962   5.1966
     5.2356   5.2374   5.2493   5.2498   5.2502   5.2534   5.3117   5.3125
     5.6043   5.6127   5.6674   5.6683   5.8580   5.8622   5.8643   5.8674
     5.9034   5.9082   6.1024   6.1049   6.1052   6.1192   6.1305   6.1350
     6.1509   6.1549   6.4863   6.4877   6.4893   6.4907   6.7413   6.7414
     6.7688   6.7706   6.7723   6.7726   6.7741   6.7750   6.9686   6.9700
     6.9709   6.9724   7.1842   7.1848   7.1883   7.1899   7.2378   7.2395
     7.7044   7.7056   7.7061   7.7068   7.8732   7.8737   7.8950   7.8972
     7.8981   7.9005   7.9226   7.9253   8.0188   8.0202   8.0380   8.0400
     8.0554   8.0603   8.1641   8.1661   8.1661   8.1668   8.3932   8.3937
     8.5477   8.5479   8.6359   8.6385   8.8084   8.8095   8.8099   8.8101
     8.9391   8.9400   9.1699   9.1700   9.1704   9.1711   9.3584   9.3585
    12.6487  12.6490  12.7616  12.7617  12.7620  12.7641  12.8731  12.8737
    12.9829  12.9832  13.0548  13.0572  13.1068  13.1079  13.1082  13.1083
    13.1791  13.1810  13.2557  13.2571  13.2922  13.2959  13.2964  13.2982
    13.5446  13.5456  13.5918  13.5920  13.7307  13.7319  13.7406  13.7415
    13.7417  13.7423  14.0835  14.0837  14.2819  14.2821  14.2834  14.2837
    14.3857  14.3860  14.7530  14.7551  14.7565  14.7565  15.1691  15.1701
    16.3630  16.3650  16.3662  16.3662  16.7721  16.7727  16.9122  16.9156
    16.9237  16.9269  16.9288  16.9291  17.2740  17.2744  17.5849  17.5861
    17.6969  17.6983  17.7879  17.7905  17.9230  17.9283  17.9319  17.9320
    18.2780  18.2816  18.6939  18.7004  18.7007  18.7019  18.7399  18.7402
    19.3680  19.3714  20.0214  20.0238  20.0251  20.0271  20.5008  20.5021
    21.0783  21.0826  21.2464  21.2468  21.2503  21.2506  22.3506  22.3539
    22.5128  22.5147  22.7993  22.8015  22.9738  22.9778  23.3137  23.3158
    23.3159  23.3164  23.9758  23.9792  23.9807  23.9837  24.6389  24.6408
    24.7448  24.7459  24.7899  24.7936  24.7949  24.7954  24.8325  24.8332
    24.9201  24.9235  24.9444  24.9480  25.1167  25.1197  25.1199  25.1214
    25.7628  25.7649  25.7652  25.7664  25.7885  25.7922  26.0621  26.0622
    26.1144  26.1160  26.1177  26.1180  26.3758  26.3791  26.7318  26.7352
    26.9647  26.9665  26.9693  26.9705  27.4187  27.4233  27.9154  27.9176
    28.1321  28.1343  28.4178  28.4205  28.4827  28.4828  28.4835  28.4860
    28.6082  28.6088  28.6596  28.6620  29.6665  29.6685  29.6718  29.6751
    29.7633  29.7692  30.2801  30.2872  30.2873  30.2875  30.9414  30.9420
    30.9436  30.9442  31.0529  31.0572  31.4104  31.4147  31.4836  31.4867
    32.1340  32.1379  32.1782  32.1840  32.3853  32.3866  32.3896  32.3902
    32.6573  32.6587  33.0854  33.0905  33.0911  33.0924  33.2268  33.2280
    33.3095  33.3121  33.4512  33.4513  33.5997  33.6000  33.6028  33.6043
    33.9415  33.9417  33.9449  33.9452  34.2524  34.2524  34.2526  34.2558
    34.4873  34.4886  34.8085  34.8092  34.9858  34.9867  35.3160  35.3171
    35.4564  35.4566  35.7112  35.7118  35.7124  35.7128  35.7707  35.7711
    35.7988  35.8025  35.8446  35.8450  35.8457  35.8459  36.1379  36.1392
    36.3540  36.3555  36.7762  36.7770  36.8246  36.8270  36.8300  36.8313
    36.9863  36.9870  37.1687  37.1690  37.1708  37.1717  38.1595  38.1621
    38.2163  38.2216  38.2499  38.2511  38.2891  38.2915  38.5300  38.5304
    38.5324  38.5325  38.6123  38.6140  39.0668  39.0707  39.0716  39.0724
    39.0977  39.0977  39.5994  39.6003  40.3519  40.3541  40.3551  40.3572
    40.4974  40.4993  40.5768  40.5780  40.6164  40.6170  40.6176  40.6188
    40.9360  40.9410  40.9926  40.9940  41.0001  41.0048  41.0067  41.0085
    41.1732  41.1746  41.3874  41.3945  41.6210  41.6221  41.6227  41.6247
    41.6581  41.6625  41.6630  41.6638  41.8685  41.8717  42.0584  42.0590
    42.1969  42.1991  42.1992  42.1993  42.8086  42.8119  43.0116  43.0125
    43.0247  43.0273  43.0515  43.0545  43.2395  43.2462  43.3511  43.3556
    43.3578  43.3587  43.4152  43.4193  43.6265  43.6301  43.9490  43.9493
    43.9493  43.9494  44.1092  44.1143  44.2885  44.2894  44.3296  44.3302
    44.3341  44.3368  44.3966  44.3975  44.3989  44.3990  44.7484  44.7498
    44.7930  44.7999  44.8021  44.8022  44.8025  44.8035  44.8715  44.8759
    45.0855  45.0885  45.1414  45.1461  45.1462  45.1465  45.1697  45.1718
    45.2397  45.2409  45.6764  45.6775  45.6810  45.6811  45.7331  45.7349
    45.8539  45.8549  45.9021  45.9031  45.9061  45.9073  45.9140  45.9162
    46.4026  46.4030  46.4181  46.4193  46.4194  46.4204  46.6232  46.6252
    47.0414  47.0420  47.0423  47.0429  47.0595  47.0600  47.2861  47.2881
    47.2920  47.2922  47.4487  47.4507  47.5019  47.5035  47.8502  47.8502

     the Fermi energy is    12.5627 ev

!    total energy              =   -2922.34236277 Ry
     Harris-Foulkes estimate   =   -2922.34236303 Ry
     estimated scf accuracy    <       0.00000029 Ry

     The total energy is the sum of the following terms:

     one-electron contribution =    -784.88198671 Ry
     hartree contribution      =     606.82145403 Ry
     xc contribution           =    -525.15941898 Ry
     ewald contribution        =   -2219.17932603 Ry
     Hubbard energy            =       0.05756239 Ry
     smearing contrib. (-TS)   =      -0.00064747 Ry

     total magnetization       =     0.00 Bohr mag/cell
     absolute magnetization    =     0.00 Bohr mag/cell

     convergence has been achieved in  11 iterations

     Writing output data file pwscf.save

     General routines

     Parallel routines
     Hubbard U routines

   This run was terminated on:   5:39:27  15Feb2014

   JOB DONE.