     Program PWSCF v.5.0.2 (svn rev. 9656) starts on 29May2014 at 22:29:12

     Current dimensions of program PWSCF are:
     Max number of different atomic species (ntypx) = 10
     Max number of k-points (npk) =  40000
     Max angular momentum in pseudopotentials (lmaxx) =  3
     Reading input from pwscf.in
Warning: card &CELL ignored
Warning: card / ignored

     Subspace diagonalization in iterative solution of the eigenvalue problem:
     a serial algorithm will be used

     bravais-lattice index     =            0
     lattice parameter (alat)  =      12.0187  a.u.
     unit-cell volume          =    7280.5819 (a.u.)^3
     number of atoms/cell      =           33
     number of atomic types    =            3
     number of electrons       =       245.00
     number of Kohn-Sham states=          367
     kinetic-energy cutoff     =      40.0000  Ry
     charge density cutoff     =     500.0000  Ry
     convergence threshold     =      1.0E-06
     mixing beta               =       0.7000
     number of iterations used =            8  plain     mixing
     Exchange-correlation      = SLA  PW   PBE  PBE ( 1 4 3 4 0)
     EXX-fraction              =        0.00
     nstep                     =           50

     celldm(1)=  12.018658  celldm(2)=   0.000000  celldm(3)=   0.000000
     celldm(4)=   0.000000  celldm(5)=   0.000000  celldm(6)=   0.000000

     crystal axes: (cart. coord. in units of alat)
               a(1) = (   1.000000   0.000000   0.000000 )
               a(2) = (   0.000000   1.009517   0.000000 )
               a(3) = (   0.000000   0.000000   4.154171 )

     reciprocal axes: (cart. coord. in units 2 pi/alat)
               b(1) = (  1.000000  0.000000  0.000000 )
               b(2) = (  0.000000  0.990572  0.000000 )
               b(3) = (  0.000000  0.000000  0.240722 )

     PseudoPot. # 1 for O  read from file:
     /home/camp/zhonxu/pseudo/o_pbe_v1.01.uspp.F.UPF
     MD5 check sum: 2bcb18d16ea4b960afae9ec6d52f22d2
     Pseudo is Ultrasoft + core correction, Zval =  6.0
     Generated by new atomic code, or converted to UPF format
     Using radial grid of  737 points,  5 beta functions with:
                l(1) =   0
                l(2) =   0
                l(3) =   1
                l(4) =   1
                l(5) =   2
     Q(r) pseudized with  8 coefficients,  rinner =    0.900   0.900   0.900
                                                       0.900   0.900

     PseudoPot. # 2 for Ir read from file:
     /home/camp/zhonxu/pseudo/ir_pbe_v1.uspp.F.UPF
     MD5 check sum: abf987a9674477536ede83817f8f8b70
     Pseudo is Ultrasoft + core correction, Zval = 15.0
     Generated by new atomic code, or converted to UPF format
     Using radial grid of  983 points,  7 beta functions with:
                l(1) =   0
                l(2) =   0
                l(3) =   1
                l(4) =   1
                l(5) =   1
                l(6) =   2
                l(7) =   2
     Q(r) pseudized with  8 coefficients,  rinner =    1.350   1.350   1.350
                                                       1.350   1.350

     PseudoPot. # 3 for H  read from file:
     /home/camp/zhonxu/pseudo/h_pbe_v1.uspp.F.UPF
     MD5 check sum: 3408e3ff4ec8b0a4e358431e7e038a48
     Pseudo is Ultrasoft, Zval =  1.0
     Generated by new atomic code, or converted to UPF format
     Using radial grid of  615 points,  2 beta functions with:
                l(1) =   0
                l(2) =   0
     Q(r) pseudized with  8 coefficients,  rinner =    0.700

     atomic species   valence    mass     pseudopotential
        O0             6.00    15.99940     O ( 1.00)
        Ir1           15.00   192.22000     Ir( 1.00)
        H2             1.00     1.00794     H ( 1.00)

     Simplified LDA+U calculation (l_max = 2) with parameters (eV):
     atomic species    L          U    alpha       J0     beta
        Ir1            2     3.0000   0.0000   0.0000   0.0000

     No symmetry found

   Cartesian axes

     site n.     atom                  positions (alat units)
         1           O0  tau(   1) = (   0.0000000   0.0000000   1.5694875  )
         2           O0  tau(   2) = (   0.0000000   0.5047586   1.6702677  )
         3           Ir1 tau(   3) = (   0.2500000   0.5047586   1.8805934  )
         4           Ir1 tau(   4) = (   0.0000000   0.0000000   1.8807595  )
         5           O0  tau(   5) = (   0.2500000   0.8177090   1.8801779  )
         6           O0  tau(   6) = (   0.2500000   0.1918083   1.8787655  )
         7           O0  tau(   7) = (   0.0000000   0.5047586   2.0695666  )
         8           O0  tau(   8) = (   0.0000000   0.0000000   2.1948564  )
         9           Ir1 tau(   9) = (   0.2500000   0.0000000   2.3901025  )
        10           Ir1 tau(  10) = (   0.0000000   0.5047586   2.3742751  )
        11           O0  tau(  11) = (   0.2500000   0.6965669   2.3856575  )
        12           O0  tau(  12) = (   0.2500000   0.3129503   2.3949628  )
        13           O0  tau(  13) = (   0.0000000   0.0000000   2.5754200  )
        14           O0  tau(  14) = (   0.5000000   0.0000000   1.5694875  )
        15           O0  tau(  15) = (   0.5000000   0.5047586   1.6704338  )
        16           Ir1 tau(  16) = (   0.7500000   0.5047586   1.8805934  )
        17           Ir1 tau(  17) = (   0.5000000   0.0000000   1.8805518  )
        18           O0  tau(  18) = (   0.7500000   0.8177090   1.8801364  )
        19           O0  tau(  19) = (   0.7500000   0.1918083   1.8788486  )
        20           O0  tau(  20) = (   0.5000000   0.5047586   2.0759640  )
        21           O0  tau(  21) = (   0.5000000   0.0000000   2.1945241  )
        22           Ir1 tau(  22) = (   0.7500000   0.0000000   2.3900609  )
        23           Ir1 tau(  23) = (   0.5000000   0.5047586   2.3998648  )
        24           O0  tau(  24) = (   0.7500000   0.6965669   2.3856575  )
        25           O0  tau(  25) = (   0.7500000   0.3129503   2.3949628  )
        26           O0  tau(  26) = (   0.5000000   0.0000000   2.5728445  )
        27           H2  tau(  27) = (   0.0000400   0.6420328   1.5957418  )
        28           H2  tau(  28) = (   0.4999400   0.6424971   1.5965311  )
        29           H2  tau(  29) = (   0.1432100   0.0360095   1.5217560  )
        30           H2  tau(  30) = (   0.6436700   0.0339703   1.5215899  )
        31           O0  tau(  31) = (   0.4997900   0.5432313   2.6993805  )
        32           O0  tau(  32) = (   0.5001800   0.3480815   2.8224271  )
        33           H2  tau(  33) = (   0.4999800   0.4114489   2.9642920  )

     number of k points=    10  Methfessel-Paxton smearing, width (Ry)=  0.0100
                       cart. coord. in units 2pi/alat
        k(    1) = (   0.0000000   0.0000000   0.0000000), wk =   0.1250000
        k(    2) = (   0.0000000   0.2476431   0.0000000), wk =   0.2500000
        k(    3) = (   0.0000000  -0.4952862   0.0000000), wk =   0.1250000
        k(    4) = (   0.2500000   0.0000000   0.0000000), wk =   0.2500000
        k(    5) = (   0.2500000   0.2476431   0.0000000), wk =   0.2500000
        k(    6) = (   0.2500000  -0.4952862   0.0000000), wk =   0.2500000
        k(    7) = (  -0.5000000   0.0000000   0.0000000), wk =   0.1250000
        k(    8) = (  -0.5000000   0.2476431   0.0000000), wk =   0.2500000
        k(    9) = (  -0.5000000  -0.4952862   0.0000000), wk =   0.1250000
        k(   10) = (  -0.2500000   0.2476431   0.0000000), wk =   0.2500000

     Largest allocated arrays     est. size (Mb)     dimensions
     Largest temporary arrays     est. size (Mb)     dimensions

     Check: negative/imaginary core charge=   -0.000003    0.000000

     Initial potential from superposition of free atoms
     Check: negative starting charge=   -3.336869

     starting charge  240.99967, renormalised to  245.00000

     negative rho (up, down):  0.339E+01 0.000E+00
     Number of +U iterations with fixed ns =  0
     Starting occupations:
 --- enter write_ns ---
 LDA+U parameters:
U( 2)     =  3.00000000
alpha( 2) =  0.00000000
atom    3   Tr[ns(na)] =   7.00000
    eigenvalues:
  0.700  0.700  0.700  0.700  0.700
    eigenvectors:
  1.000  0.000  0.000  0.000  0.000
  0.000  1.000  0.000  0.000  0.000
  0.000  0.000  1.000  0.000  0.000
  0.000  0.000  0.000  1.000  0.000
  0.000  0.000  0.000  0.000  1.000
    occupations:
  0.700  0.000  0.000  0.000  0.000
  0.000  0.700  0.000  0.000  0.000
  0.000  0.000  0.700  0.000  0.000
  0.000  0.000  0.000  0.700  0.000
  0.000  0.000  0.000  0.000  0.700
atom    4   Tr[ns(na)] =   7.00000
    eigenvalues:
  0.700  0.700  0.700  0.700  0.700
    eigenvectors:
  1.000  0.000  0.000  0.000  0.000
  0.000  1.000  0.000  0.000  0.000
  0.000  0.000  1.000  0.000  0.000
  0.000  0.000  0.000  1.000  0.000
  0.000  0.000  0.000  0.000  1.000
    occupations:
  0.700  0.000  0.000  0.000  0.000
  0.000  0.700  0.000  0.000  0.000
  0.000  0.000  0.700  0.000  0.000
  0.000  0.000  0.000  0.700  0.000
  0.000  0.000  0.000  0.000  0.700
atom    9   Tr[ns(na)] =   7.00000
    eigenvalues:
  0.700  0.700  0.700  0.700  0.700
    eigenvectors:
  1.000  0.000  0.000  0.000  0.000
  0.000  1.000  0.000  0.000  0.000
  0.000  0.000  1.000  0.000  0.000
  0.000  0.000  0.000  1.000  0.000
  0.000  0.000  0.000  0.000  1.000
    occupations:
  0.700  0.000  0.000  0.000  0.000
  0.000  0.700  0.000  0.000  0.000
  0.000  0.000  0.700  0.000  0.000
  0.000  0.000  0.000  0.700  0.000
  0.000  0.000  0.000  0.000  0.700
atom   10   Tr[ns(na)] =   7.00000
    eigenvalues:
  0.700  0.700  0.700  0.700  0.700
    eigenvectors:
  1.000  0.000  0.000  0.000  0.000
  0.000  1.000  0.000  0.000  0.000
  0.000  0.000  1.000  0.000  0.000
  0.000  0.000  0.000  1.000  0.000
  0.000  0.000  0.000  0.000  1.000
    occupations:
  0.700  0.000  0.000  0.000  0.000
  0.000  0.700  0.000  0.000  0.000
  0.000  0.000  0.700  0.000  0.000
  0.000  0.000  0.000  0.700  0.000
  0.000  0.000  0.000  0.000  0.700
atom   16   Tr[ns(na)] =   7.00000
    eigenvalues:
  0.700  0.700  0.700  0.700  0.700
    eigenvectors:
  1.000  0.000  0.000  0.000  0.000
  0.000  1.000  0.000  0.000  0.000
  0.000  0.000  1.000  0.000  0.000
  0.000  0.000  0.000  1.000  0.000
  0.000  0.000  0.000  0.000  1.000
    occupations:
  0.700  0.000  0.000  0.000  0.000
  0.000  0.700  0.000  0.000  0.000
  0.000  0.000  0.700  0.000  0.000
  0.000  0.000  0.000  0.700  0.000
  0.000  0.000  0.000  0.000  0.700
atom   17   Tr[ns(na)] =   7.00000
    eigenvalues:
  0.700  0.700  0.700  0.700  0.700
    eigenvectors:
  1.000  0.000  0.000  0.000  0.000
  0.000  1.000  0.000  0.000  0.000
  0.000  0.000  1.000  0.000  0.000
  0.000  0.000  0.000  1.000  0.000
  0.000  0.000  0.000  0.000  1.000
    occupations:
  0.700  0.000  0.000  0.000  0.000
  0.000  0.700  0.000  0.000  0.000
  0.000  0.000  0.700  0.000  0.000
  0.000  0.000  0.000  0.700  0.000
  0.000  0.000  0.000  0.000  0.700
atom   22   Tr[ns(na)] =   7.00000
    eigenvalues:
  0.700  0.700  0.700  0.700  0.700
    eigenvectors:
  1.000  0.000  0.000  0.000  0.000
  0.000  1.000  0.000  0.000  0.000
[...]
  0.036  0.000  0.000  0.979  0.000
 -0.000 -0.009 -0.000  0.000  0.610
atom   16   Tr[ns(na)] =   8.12498
    eigenvalues:
  0.606  0.632  0.883  0.965  0.978
    eigenvectors:
  0.006  0.178  0.003  0.001  0.811
  0.975  0.025  0.000  0.000  0.000
  0.000  0.000  0.992  0.004  0.003
  0.019  0.797  0.000  0.000  0.183
  0.000  0.000  0.004  0.994  0.002
    occupations:
  0.913  0.005  0.004 -0.134  0.001
  0.005  0.606 -0.000  0.002 -0.006
  0.004 -0.000  0.883 -0.004 -0.005
 -0.134  0.002 -0.004  0.695 -0.000
  0.001 -0.006 -0.005 -0.000  0.965
atom   17   Tr[ns(na)] =   8.11280
    eigenvalues:
  0.618  0.666  0.871  0.919  0.983
    eigenvectors:
  0.000  0.989  0.000  0.000  0.010
  0.000  0.000  0.049  0.950  0.000
  0.000  0.000  0.950  0.049  0.000
  0.000  0.010  0.000  0.000  0.990
  1.000  0.000  0.000  0.000  0.000
    occupations:
  0.669 -0.003 -0.001  0.032  0.001
 -0.003  0.917  0.011  0.000 -0.002
 -0.001  0.011  0.873 -0.000  0.001
  0.032  0.000 -0.000  0.980  0.000
  0.001 -0.002  0.001  0.000  0.618
atom   22   Tr[ns(na)] =   8.09505
    eigenvalues:
  0.652  0.668  0.851  0.895  0.981
    eigenvectors:
  0.000  0.140  0.001  0.000  0.859
  1.000  0.000  0.000  0.000  0.000
  0.000  0.000  0.993  0.006  0.000
  0.000  0.859  0.000  0.000  0.140
  0.000  0.000  0.006  0.994  0.000
    occupations:
  0.937  0.002  0.001 -0.109  0.000
  0.002  0.652  0.001 -0.001 -0.000
  0.001  0.001  0.851 -0.004  0.003
 -0.109 -0.001 -0.004  0.712  0.000
  0.000 -0.000  0.003  0.000  0.895
atom   23   Tr[ns(na)] =   8.12498
    eigenvalues:
  0.618  0.659  0.858  0.947  0.981
    eigenvectors:
  0.000  0.993  0.000  0.003  0.004
  0.002  0.000  0.998  0.000  0.000
  0.000  0.003  0.000  0.996  0.001
  0.000  0.005  0.000  0.001  0.994
  0.998  0.000  0.002  0.000  0.000
    occupations:
  0.661 -0.000  0.015  0.022 -0.000
 -0.000  0.857 -0.001 -0.000 -0.009
  0.015 -0.001  0.946 -0.002  0.000
  0.022 -0.000 -0.002  0.980 -0.000
 -0.000 -0.009  0.000 -0.000  0.618
N of occupied +U levels =  64.8803667
 --- exit write_ns ---

     Threshold (ethr) on eigenvalues was too large:
     Diagonalizing with lowered threshold

     Davidson diagonalization with overlap
     ethr =  5.08E-09,  avg # of iterations =  2.0

[...]

     total energy              =   -2138.28808174 Ry
     Harris-Foulkes estimate   =   -2138.28808175 Ry
     estimated scf accuracy    <       0.00000010 Ry

     iteration # 14     ecut=    40.00 Ry     beta=0.70
     Davidson diagonalization with overlap
     ethr =  6.65E-12,  avg # of iterations =  1.0

     negative rho (up, down):  0.313E+01 0.000E+00

     End of self-consistent calculation
 --- enter write_ns ---
 LDA+U parameters:
U( 2)     =  3.00000000
alpha( 2) =  0.00000000
atom    3   Tr[ns(na)] =   8.12474
    eigenvalues:
  0.606  0.632  0.882  0.965  0.978
    eigenvectors:
  0.006  0.178  0.003  0.001  0.811
  0.974  0.026  0.000  0.000  0.000
  0.000  0.000  0.990  0.007  0.003
  0.020  0.796  0.000  0.000  0.184
  0.000  0.000  0.007  0.991  0.002
    occupations:
  0.913 -0.005  0.004 -0.134 -0.001
 -0.005  0.606 -0.001 -0.002 -0.005
  0.004 -0.001  0.883 -0.004  0.007
 -0.134 -0.002 -0.004  0.695 -0.000
 -0.001 -0.005  0.007 -0.000  0.964
atom    4   Tr[ns(na)] =   8.11435
    eigenvalues:
  0.618  0.666  0.871  0.920  0.983
    eigenvectors:
  0.000  0.989  0.000  0.000  0.010
  0.000  0.000  0.061  0.938  0.000
  0.000  0.000  0.939  0.061  0.000
  0.000  0.010  0.000  0.000  0.990
  1.000  0.000  0.000  0.000  0.000
    occupations:
  0.669 -0.003 -0.001  0.032  0.001
 -0.003  0.917  0.012  0.000 -0.001
 -0.001  0.012  0.874 -0.000  0.000
  0.032  0.000 -0.000  0.979  0.000
  0.001 -0.001  0.000  0.000  0.618
atom    9   Tr[ns(na)] =   8.09516
    eigenvalues:
  0.652  0.668  0.851  0.895  0.981
    eigenvectors:
  0.000  0.140  0.001  0.000  0.859
  0.998  0.002  0.000  0.000  0.000
  0.000  0.000  0.992  0.007  0.000
  0.001  0.858  0.000  0.000  0.140
  0.000  0.000  0.007  0.993  0.000
    occupations:
  0.937 -0.001  0.001 -0.109 -0.001
 -0.001  0.652 -0.000  0.001 -0.001
  0.001 -0.000  0.851 -0.004 -0.004
 -0.109  0.001 -0.004  0.712  0.001
 -0.001 -0.001 -0.004  0.001  0.895
atom   10   Tr[ns(na)] =   8.08795
    eigenvalues:
  0.586  0.609  0.933  0.934  0.982
    eigenvectors:
  0.992  0.000  0.000  0.000  0.008
  0.000  0.001  0.978  0.021  0.000
  0.000  0.000  0.021  0.978  0.000
  0.008  0.000  0.000  0.000  0.992
  0.000  0.999  0.001  0.000  0.000
    occupations:
  0.589  0.000  0.007  0.036 -0.000
  0.000  0.932 -0.000  0.000 -0.009
  0.007 -0.000  0.934  0.000 -0.000
  0.036  0.000  0.000  0.979  0.000
 -0.000 -0.009 -0.000  0.000  0.610
atom   16   Tr[ns(na)] =   8.12466
    eigenvalues:
  0.606  0.632  0.882  0.965  0.978
    eigenvectors:
  0.006  0.178  0.003  0.001  0.811
  0.975  0.025  0.000  0.000  0.000
  0.000  0.000  0.992  0.004  0.003
  0.019  0.797  0.000  0.000  0.183
  0.000  0.000  0.004  0.994  0.002
    occupations:
  0.913  0.005  0.004 -0.134  0.001
  0.005  0.606 -0.000  0.002 -0.006
  0.004 -0.000  0.883 -0.004 -0.005
 -0.134  0.002 -0.004  0.695 -0.000
  0.001 -0.006 -0.005 -0.000  0.965
atom   17   Tr[ns(na)] =   8.11256
    eigenvalues:
  0.618  0.666  0.870  0.919  0.983
    eigenvectors:
  0.000  0.989  0.000  0.000  0.010
  0.000  0.000  0.049  0.950  0.000
  0.000  0.000  0.951  0.049  0.000
  0.000  0.010  0.000  0.000  0.990
  1.000  0.000  0.000  0.000  0.000
    occupations:
  0.669 -0.003 -0.001  0.032  0.001
 -0.003  0.917  0.011  0.000 -0.002
 -0.001  0.011  0.873 -0.000  0.001
  0.032  0.000 -0.000  0.980  0.000
  0.001 -0.002  0.001  0.000  0.618
atom   22   Tr[ns(na)] =   8.09522
    eigenvalues:
  0.652  0.668  0.851  0.895  0.981
    eigenvectors:
  0.000  0.140  0.001  0.000  0.859
  1.000  0.000  0.000  0.000  0.000
  0.000  0.000  0.993  0.006  0.000
  0.000  0.859  0.000  0.000  0.140
  0.000  0.000  0.006  0.994  0.000
    occupations:
  0.937  0.002  0.001 -0.109  0.000
  0.002  0.652  0.001 -0.001 -0.000
  0.001  0.001  0.851 -0.004  0.003
 -0.109 -0.001 -0.004  0.712  0.000
  0.000 -0.000  0.003  0.000  0.895
atom   23   Tr[ns(na)] =   8.12508
    eigenvalues:
  0.618  0.659  0.858  0.947  0.981
    eigenvectors:
  0.000  0.993  0.000  0.003  0.004
  0.002  0.000  0.998  0.000  0.000
  0.000  0.003  0.000  0.996  0.001
  0.000  0.005  0.000  0.001  0.994
  0.998  0.000  0.002  0.000  0.000
    occupations:
  0.661 -0.000  0.015  0.022 -0.000
 -0.000  0.857 -0.001 -0.000 -0.009
  0.015 -0.001  0.946 -0.002  0.000
  0.022 -0.000 -0.002  0.980 -0.000
 -0.000 -0.009  0.000 -0.000  0.618
N of occupied +U levels =  64.8797203
 --- exit write_ns ---

[...]

          k = 0.2500-0.4953 0.0000 ( 31088 PWs)   bands (ev):

[...]

          k =-0.2500 0.2476 0.0000 ( 31099 PWs)   bands (ev):

   -50.4141 -50.3665 -50.3605 -50.2745 -50.2691 -50.2302 -50.2077 -50.1963
   -50.1914 -50.1546 -50.1109 -50.0882 -50.0403 -50.0285 -49.9662 -49.9636
   -49.9267 -49.8903 -49.8854 -49.8748 -49.8611 -49.8472 -49.8340 -49.7352
   -23.2763 -20.9607 -20.6063 -20.5780 -20.5496 -20.1715 -20.0662 -20.0430
   -19.9536 -19.7717 -19.6474 -19.6158 -19.4824 -19.4207 -19.3172 -19.2268
   -19.1365 -18.3688 -18.2153 -17.2124  -9.5949  -9.5118  -9.3506  -9.0566
    -8.7409  -8.6441  -8.6065  -8.5845  -8.3725  -8.3083  -8.2539  -8.2069
    -8.1403  -7.9894  -7.9007  -7.7493  -7.6317  -7.5906  -7.4546  -7.1069
    -7.0921  -6.8729  -6.8311  -6.7628  -6.6792  -6.5044  -6.3026  -6.1996
    -6.0600  -5.9221  -5.8535  -5.7780  -5.7067  -5.6434  -5.5375  -5.5263
    -5.4477  -5.3291  -5.2365  -5.0756  -4.9855  -4.9523  -4.8039  -4.6200
    -4.4463  -4.3853  -4.2209  -4.1107  -4.0360  -3.9973  -3.8143  -3.7218
    -3.5373  -3.4377  -3.2835  -3.0645  -2.9283  -2.8856  -2.7919  -2.6849
    -2.5810  -2.4962  -2.4578  -2.4020  -2.2847  -2.2080  -2.1753  -2.1058
    -1.9855  -1.9187  -1.8554  -1.7357  -1.4743  -1.2295  -0.9997  -0.9558
    -0.7802  -0.7486  -0.5133  -0.3692  -0.2095  -0.1298   0.0602   0.4684
     1.4524   1.4974   1.7378   2.1016   2.2300   2.6663   2.7646   3.0055
     3.1507   3.3318   3.3703   3.5994   3.6338   3.8147   3.8632   4.0839
     4.2360   4.4546   4.8163   5.3191   5.4085   5.8508   6.0265   6.0972
     6.2998   6.4495   6.5972   6.6917   6.7899   7.0658   7.2032   7.3140
     7.5275   7.6863   7.8510   7.9176   7.9939   8.1633   8.2752   8.3553
     8.3759   8.5103   8.7389   8.8052   8.8750   9.0711   9.1208   9.1710
     9.2164   9.4007   9.5539   9.6212   9.6375   9.6681   9.7069   9.7135
     9.7212   9.7222   9.7736   9.8258   9.8432   9.9154   9.9164   9.9501
    10.0293  10.1419  10.2326  10.3161  10.3696  10.4215  10.5214  10.5694
    10.6514  10.7140  10.8296  10.9273  10.9571  11.0479  11.1618  11.2106
    11.3236  11.3888  11.4667  11.5896  11.6913  11.7591  11.7997  11.9153
    11.9551  12.0692  12.1618  12.2433  12.3525  12.4759  12.5172  12.5546
    12.5877  12.6960  12.8012  12.9054  12.9295  13.0212  13.0996  13.1620
    13.2216  13.3039  13.3812  13.4997  13.6074  13.6962  13.7323  13.8312
    13.9088  13.9561  14.0537  14.1138  14.1521  14.2196  14.3178  14.4144
    14.4654  14.5286  14.6416  14.7260  14.8328  14.8852  15.0566  15.0939
    15.1401  15.2356  15.3909  15.4243  15.5131  15.6174  15.6728  15.6892
    15.7336  15.7818  15.8464  15.9280  15.9647  16.0316  16.0717  16.0827
    16.2226  16.2715  16.3453  16.3913  16.4823  16.5253  16.5555  16.6038
    16.7074  16.7546  16.7819  16.8382  16.9238  16.9740  17.1631  17.2369
    17.3051  17.3347  17.4104  17.4744  17.5334  17.5904  17.6336  17.6866
    17.7371  17.8319  17.8592  17.8931  17.9198  18.0155  18.0625  18.1437
    18.2324  18.3277  18.3834  18.5116  18.6086  18.7004  18.7620  18.7894
    18.8318  18.8732  19.0328  19.0417  19.0983  19.1929  19.2454  19.3644
    19.3845  19.4302  19.5483  19.6333  19.6853  19.7626  19.8092  19.8427
    19.9415  19.9937  20.1321  20.1980  20.2797  20.3494  20.4578  20.5241
    20.5871  20.6572  20.7387  20.7748  20.8022  20.8779  20.9048  21.0402
    21.1078  21.1420  21.1943  21.2574  21.2720  21.3170  21.3420  21.4187
    21.5168  21.5504  21.6573  21.6782  21.7383  21.8300  21.8558  21.9086
    21.9777  22.0012  22.0700  22.1337  22.2075  22.2833  22.3896

     the Fermi energy is    -0.5787 ev

!    total energy              =   -2138.28808175 Ry
     Harris-Foulkes estimate   =   -2138.28808175 Ry
     estimated scf accuracy    <          1.4E-09 Ry

     The total energy is the sum of the following terms:

     one-electron contribution =  -23131.31599191 Ry
     hartree contribution      =   11616.40747035 Ry
     xc contribution           =    -584.17940084 Ry
     ewald contribution        =    9959.64526494 Ry
     Hubbard energy            =       1.15450691 Ry
     smearing contrib. (-TS)   =       0.00006881 Ry

     convergence has been achieved in  14 iterations

     Forces acting on atoms (Ry/au):

     negative rho (up, down):  0.313E+01 0.000E+00
     atom    1 type  1   force =    -0.00753796   -0.01315773   -0.00005962
     atom    2 type  1   force =     0.00015178    0.00461224   -0.00032785
     atom    3 type  2   force =     0.03115551    0.00501537    0.00006133
     atom    4 type  2   force =     0.00890265    0.00751171    0.00012679
     atom    5 type  1   force =    -0.00374867   -0.02116307   -0.00012175
     atom    6 type  1   force =     0.00438602    0.02027452   -0.00004617
     atom    7 type  1   force =    -0.00038422   -0.00375815    0.00010545
     atom    8 type  1   force =    -0.00313050    0.00062382    0.00002975
     atom    9 type  2   force =     0.00699398    0.00114036    0.00003333
     atom   10 type  2   force =    -0.00011966   -0.00032274   -0.00010848
     atom   11 type  1   force =    -0.00427110    0.01729047    0.00007729
     atom   12 type  1   force =     0.00191853   -0.01199065    0.00010447
     atom   13 type  1   force =    -0.00083306   -0.00291089   -0.00025278
     atom   14 type  1   force =    -0.00680015   -0.01324274    0.00013067
     atom   15 type  1   force =     0.00010415    0.00486295   -0.00011400
     atom   16 type  2   force =    -0.03099211    0.00487437    0.00004309
     atom   17 type  2   force =     0.00873858    0.00808859    0.00008666
     atom   18 type  1   force =    -0.00281404   -0.02171013   -0.00011963
     atom   19 type  1   force =     0.00502867    0.01984279   -0.00004548
     atom   20 type  1   force =    -0.00029009   -0.00670290    0.00019888
     atom   21 type  1   force =    -0.00324183    0.00135887   -0.00007956
     atom   22 type  2   force =    -0.00458881    0.00080205    0.00008449
     atom   23 type  2   force =    -0.00036890    0.00299069   -0.00013180
     atom   24 type  1   force =     0.00398556    0.01710333    0.00009669
     atom   25 type  1   force =    -0.00115199   -0.01211167    0.00014173
     atom   26 type  1   force =    -0.00099801   -0.01006098    0.00023768
     atom   27 type  3   force =     0.00000643    0.00024649    0.00015038
     atom   28 type  3   force =     0.00001365    0.00019552    0.00034876
     atom   29 type  3   force =    -0.00003500    0.00006116    0.00014149
     atom   30 type  3   force =    -0.00018784    0.00011308    0.00002836
     atom   31 type  1   force =    -0.00013177   -0.00024233    0.00012835
     atom   32 type  1   force =     0.00023487    0.00054227   -0.00052315
     atom   33 type  3   force =     0.00000534   -0.00017668   -0.00042537

     Total force =     0.001308     Total SCF correction =     0.000143
     SCF correction compared to forces is large: reduce conv_thr to get better values

     entering subroutine stress ...

     negative rho (up, down):  0.313E+01 0.000E+00
          total   stress  (Ry/bohr**3)                   (kbar)     P=  -14.41
  -0.00011321   0.00000652   0.00000385        -16.65      0.96      0.57
   0.00000652  -0.00013187   0.00000483          0.96    -19.40      0.71
   0.00000385   0.00000483  -0.00004873          0.57      0.71     -7.17

     bfgs converged in   9 scf cycles and   8 bfgs steps
     (criteria: energy < 0.10E-03, force < 0.10E-02)

     End of BFGS Geometry Optimization

     Final energy   =   -2138.2880817475 Ry
Begin final coordinates

ATOMIC_POSITIONS (crystal)
O0       0.000000000   0.000000000   0.378091261    0   0   1
O0       0.000000000   0.500000000   0.402607011    0   0   1
Ir1      0.250000000   0.500000000   0.452893271    0   0   1
Ir1      0.000000000   0.000000000   0.452816093    0   0   1
O0       0.250000000   0.810000000   0.452771935    0   0   1
O0       0.250000000   0.190000000   0.452350813    0   0   1
O0       0.000000000   0.500000000   0.498755716    0   0   1
O0       0.000000000   0.000000000   0.528311956    0   0   1
Ir1      0.250000000   0.000000000   0.575034481    0   0   1
Ir1      0.000000000   0.500000000   0.571597564    0   0   1
O0       0.250000000   0.690000000   0.573899726    0   0   1
O0       0.250000000   0.310000000   0.576165080    0   0   1
O0       0.000000000   0.000000000   0.619679758    0   0   1
O0       0.500000000   0.000000000   0.377934750    0   0   1
O0       0.500000000   0.500000000   0.402492260    0   0   1
Ir1      0.750000000   0.500000000   0.452889916    0   0   1
Ir1      0.500000000   0.000000000   0.452626210    0   0   1
O0       0.750000000   0.810000000   0.452765376    0   0   1
O0       0.750000000   0.190000000   0.452367553    0   0   1
O0       0.500000000   0.500000000   0.499857723    0   0   1
O0       0.500000000   0.000000000   0.528203082    0   0   1
Ir1      0.750000000   0.000000000   0.575034055    0   0   1
Ir1      0.500000000   0.500000000   0.577339079    0   0   1
O0       0.750000000   0.690000000   0.573904826    0   0   1
O0       0.750000000   0.310000000   0.576177171    0   0   1
O0       0.500000000   0.000000000   0.619164988    0   0   1
H2      -0.000046400   0.634882726   0.384331620
H2       0.499868947   0.635898153   0.384600751
H2       0.143081412   0.035851899   0.366533824
H2       0.643661057   0.034070258   0.366438820
O0       0.499491811   0.536884227   0.649591400
O0       0.500525901   0.345421813   0.679073980
H2       0.499992733   0.407927064   0.713267954
End final coordinates

     General routines

     Parallel routines
     Hubbard U routines

   This run was terminated on:   9:40: 7  30May2014

   JOB DONE.
Running PBS batch system epilogue script
Job id: 373279.audhumbla.fysik.dtu.dk
Username: zhonxu
Groupname: campgst
Jobname: IrO2/Eads-2-layers/OOH-U-3.0
Sessionid: 29968
Queuename: verylong
Accounting:
This job has allocated the following 16 nodes:
a059 a059 a059 a059 a059 a059 a059 a059 a058 a058 a058 a058 a058 a058 a058 a058
Finished epilogue job 373279.audhumbla.fysik.dtu.dk for zhonxu