     Program PWSCF v.5.0.2 (svn rev. 9656) starts on  4May2014 at 20:48:38

     Current dimensions of program PWSCF are:
     Max number of different atomic species (ntypx) = 10
     Max number of k-points (npk) =  40000
     Max angular momentum in pseudopotentials (lmaxx) =  3
     Reading input from pwscf.in
Warning: card &CELL ignored
Warning: card / ignored

     Subspace diagonalization in iterative solution of the eigenvalue problem:
     a serial algorithm will be used

     bravais-lattice index     =            0
     lattice parameter (alat)  =      10.7336  a.u.
     unit-cell volume          =    6184.1966 (a.u.)^3
     number of atoms/cell      =           32
     number of atomic types    =            3
     number of electrons       =       239.00 (up: 131.00, down: 108.00)
     number of Kohn-Sham states=          346
     kinetic-energy cutoff     =      40.0000  Ry
     charge density cutoff     =     500.0000  Ry
     convergence threshold     =      1.0E-06
     mixing beta               =       0.7000
     number of iterations used =            8  plain     mixing
     Exchange-correlation      = SLA  PW   PBE  PBE ( 1 4 3 4 0)
     EXX-fraction              =        0.00
     nstep                     =           50

     celldm(1)=  10.733644  celldm(2)=   0.000000  celldm(3)=   0.000000
     celldm(4)=   0.000000  celldm(5)=   0.000000  celldm(6)=   0.000000

     crystal axes: (cart. coord. in units of alat)
               a(1) = (   1.000000   0.000000   0.000000 )
               a(2) = (   0.000000   1.085558   0.000000 )
               a(3) = (   0.000000   0.000000   4.606685 )

     reciprocal axes: (cart. coord. in units 2 pi/alat)
               b(1) = (  1.000000  0.000000  0.000000 )
               b(2) = (  0.000000  0.921185  0.000000 )
               b(3) = (  0.000000  0.000000  0.217076 )

     PseudoPot. # 1 for O  read from file:
     /home/camp/zhonxu/pseudo/o_pbe_v1.01.uspp.F.UPF
     MD5 check sum: 2bcb18d16ea4b960afae9ec6d52f22d2
     Pseudo is Ultrasoft + core correction, Zval =  6.0
     Generated by new atomic code, or converted to UPF format
     Using radial grid of  737 points,  5 beta functions with:
                l(1) =   0
                l(2) =   0
                l(3) =   1
                l(4) =   1
                l(5) =   2
     Q(r) pseudized with  8 coefficients,  rinner =    0.900   0.900   0.900
                                                       0.900   0.900

     PseudoPot. # 2 for Mn read from file:
     /home/camp/zhonxu/pseudo/mn_pbe_v1.uspp.F.UPF
     MD5 check sum: 5fd7c7b5c956fd19902447332617373a
     Pseudo is Ultrasoft + core correction, Zval = 15.0
     Generated by new atomic code, or converted to UPF format
     Using radial grid of  859 points,  6 beta functions with:
                l(1) =   0
                l(2) =   0
                l(3) =   1
                l(4) =   1
                l(5) =   2
                l(6) =   2
     Q(r) pseudized with  6 coefficients,  rinner =    1.150   1.150   1.150
                                                       1.150   1.150

     PseudoPot. # 3 for H  read from file:
     /home/camp/zhonxu/pseudo/h_pbe_v1.uspp.F.UPF
     MD5 check sum: 3408e3ff4ec8b0a4e358431e7e038a48
     Pseudo is Ultrasoft, Zval =  1.0
     Generated by new atomic code, or converted to UPF format
     Using radial grid of  615 points,  2 beta functions with:
                l(1) =   0
                l(2) =   0
     Q(r) pseudized with  8 coefficients,  rinner =    0.700

     atomic species   valence    mass     pseudopotential
        O0             6.00    15.99940     O ( 1.00)
        Mn1           15.00    54.93800     Mn( 1.00)
        H2             1.00     1.00794     H ( 1.00)

     Starting magnetic structure
     atomic species   magnetization
        O0           0.000
        Mn1          0.600
        H2           0.000

     Simplified LDA+U calculation (l_max = 2) with parameters (eV):
     atomic species    L          U    alpha       J0     beta
        Mn1            2     7.5000   0.0000   0.0000   0.0000

     No symmetry found

   Cartesian axes

     site n.     atom                  positions (alat units)
         1           O0  tau(   1) = (   0.0000000   0.0000000   1.7414191  )
         2           O0  tau(   2) = (   0.0000000   0.5427791   1.8381134  )
         3           Mn1 tau(   3) = (   0.2500000   0.5427791   2.0740217  )
         4           Mn1 tau(   4) = (   0.0000000   0.0000000   2.0686319  )
         5           O0  tau(   5) = (   0.2500000   0.8684466   2.0678488  )
         6           O0  tau(   6) = (   0.2500000   0.2171117   2.0737453  )
         7           O0  tau(   7) = (   0.0000000   0.5427791   2.2873573  )
         8           O0  tau(   8) = (   0.0000000   0.0000000   2.4132120  )
         9           Mn1 tau(   9) = (   0.2500000   0.0000000   2.6399991  )
        10           Mn1 tau(  10) = (   0.0000000   0.5427791   2.6085815  )
        11           O0  tau(  11) = (   0.2500000   0.7598908   2.6551551  )
        12           O0  tau(  12) = (   0.2500000   0.3256675   2.6556157  )
        13           O0  tau(  13) = (   0.0000000   0.0000000   2.8417258  )
        14           O0  tau(  14) = (   0.5000000   0.0000000   1.7428932  )
        15           O0  tau(  15) = (   0.5000000   0.5427791   1.8386662  )
        16           Mn1 tau(  16) = (   0.7500000   0.5427791   2.0740678  )
        17           Mn1 tau(  17) = (   0.5000000   0.0000000   2.0707510  )
        18           O0  tau(  18) = (   0.7500000   0.8684466   2.0677106  )
        19           O0  tau(  19) = (   0.7500000   0.2171117   2.0738835  )
        20           O0  tau(  20) = (   0.5000000   0.5427791   2.2871270  )
        21           O0  tau(  21) = (   0.5000000   0.0000000   2.4132120  )
        22           Mn1 tau(  22) = (   0.7500000   0.0000000   2.6413811  )
        23           Mn1 tau(  23) = (   0.5000000   0.5427791   2.6662572  )
        24           O0  tau(  24) = (   0.7500000   0.7598908   2.6473698  )
        25           O0  tau(  25) = (   0.7500000   0.3256675   2.6477844  )
        26           O0  tau(  26) = (   0.5000000   0.0000000   2.8412191  )
        27           H2  tau(  27) = (   0.0000400   0.7014118   1.7620570  )
        28           H2  tau(  28) = (   0.5000900   0.7016832   1.7629323  )
        29           H2  tau(  29) = (   0.1613600   0.0398291   1.6869220  )
        30           H2  tau(  30) = (   0.6610200   0.0399703   1.6876591  )
        31           O0  tau(  31) = (   0.5153900   0.5432351   2.9826904  )
        32           H2  tau(  32) = (   0.3575300   0.5430397   3.0540479  )

     number of k points=    20  Methfessel-Paxton smearing, width (Ry)=  0.0100
                       cart. coord. in units 2pi/alat
        k(    1) = (   0.0000000   0.0000000   0.0000000), wk =   0.0625000
        k(    2) = (   0.0000000   0.2302962   0.0000000), wk =   0.1250000
        k(    3) = (   0.0000000  -0.4605925   0.0000000), wk =   0.0625000
        k(    4) = (   0.2500000   0.0000000   0.0000000), wk =   0.1250000
        k(    5) = (   0.2500000   0.2302962   0.0000000), wk =   0.1250000
        k(    6) = (   0.2500000  -0.4605925   0.0000000), wk =   0.1250000
        k(    7) = (  -0.5000000   0.0000000   0.0000000), wk =   0.0625000
        k(    8) = (  -0.5000000   0.2302962   0.0000000), wk =   0.1250000
        k(    9) = (  -0.5000000  -0.4605925   0.0000000), wk =   0.0625000
        k(   10) = (  -0.2500000   0.2302962   0.0000000), wk =   0.1250000
        k(   11) = (   0.0000000   0.0000000   0.0000000), wk =   0.0625000
        k(   12) = (   0.0000000   0.2302962   0.0000000), wk =   0.1250000
        k(   13) = (   0.0000000  -0.4605925   0.0000000), wk =   0.0625000
        k(   14) = (   0.2500000   0.0000000   0.0000000), wk =   0.1250000
        k(   15) = (   0.2500000   0.2302962   0.0000000), wk =   0.1250000
        k(   16) = (   0.2500000  -0.4605925   0.0000000), wk =   0.1250000
        k(   17) = (  -0.5000000   0.0000000   0.0000000), wk =   0.0625000
        k(   18) = (  -0.5000000   0.2302962   0.0000000), wk =   0.1250000
        k(   19) = (  -0.5000000  -0.4605925   0.0000000), wk =   0.0625000
        k(   20) = (  -0.2500000   0.2302962   0.0000000), wk =   0.1250000

     Largest allocated arrays     est. size (Mb)     dimensions
     Largest temporary arrays     est. size (Mb)     dimensions

     Check: negative/imaginary core charge=   -0.000022    0.000000

     Initial potential from superposition of free atoms
     Check: negative starting charge=(component1):   -0.000716
     Check: negative starting charge=(component2):   -0.000389

     starting charge  230.99986, renormalised to  239.00000

     negative rho (up, down):  0.741E-03 0.403E-03
     Number of +U iterations with fixed ns =  0
     Starting occupations:
 --- enter write_ns ---
 LDA+U parameters:
U( 2)     =  7.50000000
alpha( 2) =  0.00000000
atom    3   Tr[ns(na)] (up, down, total) =   5.00000  0.00000  5.00000
   spin  1
    eigenvalues:
  1.000  1.000  1.000  1.000  1.000
    eigenvectors:
  1.000  0.000  0.000  0.000  0.000
  0.000  1.000  0.000  0.000  0.000
  0.000  0.000  1.000  0.000  0.000
  0.000  0.000  0.000  1.000  0.000
  0.000  0.000  0.000  0.000  1.000
    occupations:
  1.000  0.000  0.000  0.000  0.000
  0.000  1.000  0.000  0.000  0.000
  0.000  0.000  1.000  0.000  0.000
  0.000  0.000  0.000  1.000  0.000
  0.000  0.000  0.000  0.000  1.000
   spin  2
    eigenvalues:
  0.000  0.000  0.000  0.000  0.000
    eigenvectors:
  1.000  0.000  0.000  0.000  0.000
  0.000  1.000  0.000  0.000  0.000
  0.000  0.000  1.000  0.000  0.000
  0.000  0.000  0.000  1.000  0.000
  0.000  0.000  0.000  0.000  1.000
    occupations:
  0.000  0.000  0.000  0.000  0.000
  0.000  0.000  0.000  0.000  0.000
  0.000  0.000  0.000  0.000  0.000
  0.000  0.000  0.000  0.000  0.000
  0.000  0.000  0.000  0.000  0.000
atomic mag. moment =     5.000000
atom    4   Tr[ns(na)] (up, down, total) =   5.00000  0.00000  5.00000
   spin  1
    eigenvalues:
  1.000  1.000  1.000  1.000  1.000
    eigenvectors:
  1.000  0.000  0.000  0.000  0.000
  0.000  1.000  0.000  0.000  0.000
  0.000  0.000  1.000  0.000  0.000
  0.000  0.000  0.000  1.000  0.000
  0.000  0.000  0.000  0.000  1.000
    occupations:
  1.000  0.000  0.000  0.000  0.000
  0.000  1.000  0.000  0.000  0.000
  0.000  0.000  1.000  0.000  0.000
  0.000  0.000  0.000  1.000  0.000
  0.000  0.000  0.000  0.000  1.000
   spin  2
    eigenvalues:
  0.000  0.000  0.000  0.000  0.000
    eigenvectors:
  1.000  0.000  0.000  0.000  0.000
  0.000  1.000  0.000  0.000  0.000
  0.000  0.000  1.000  0.000  0.000
  0.000  0.000  0.000  1.000  0.000
  0.000  0.000  0.000  0.000  1.000
    occupations:
  0.000  0.000  0.000  0.000  0.000
  0.000  0.000  0.000  0.000  0.000
  0.000  0.000  0.000  0.000  0.000
  0.000  0.000  0.000  0.000  0.000
  0.000  0.000  0.000  0.000  0.000
atomic mag. moment =     5.000000
atom    9   Tr[ns(na)] (up, down, total) =   5.00000  0.00000  5.00000
   spin  1
    eigenvalues:
  1.000  1.000  1.000  1.000  1.000
[...]
atomic mag. moment =     3.798187
atom    4   Tr[ns(na)] (up, down, total) =   4.56115  0.74748  5.30863
   spin  1
    eigenvalues:
  0.745  0.811  0.997  1.003  1.005
    eigenvectors:
  0.000  0.997  0.001  0.002  0.000
  0.000  0.001  0.000  0.900  0.098
  0.000  0.001  0.000  0.098  0.901
  0.000  0.001  0.998  0.000  0.000
  1.000  0.000  0.000  0.000  0.000
    occupations:
  0.811 -0.006 -0.006  0.006 -0.001
 -0.006  1.003 -0.001  0.000  0.005
 -0.006 -0.001  1.004  0.000 -0.000
  0.006  0.000  0.000  0.997 -0.000
 -0.001  0.005 -0.000 -0.000  0.746
   spin  2
    eigenvalues:
  0.063  0.068  0.073  0.239  0.304
    eigenvectors:
  0.009  0.000  0.000  0.990  0.000
  0.020  0.186  0.791  0.001  0.002
  0.097  0.694  0.207  0.001  0.000
  0.873  0.119  0.000  0.007  0.000
  0.000  0.000  0.002  0.000  0.998
    occupations:
  0.237  0.005  0.006 -0.015  0.000
  0.005  0.073 -0.002  0.000 -0.011
  0.006 -0.002  0.069  0.001 -0.000
 -0.015  0.000  0.001  0.065 -0.000
  0.000 -0.011 -0.000 -0.000  0.304
atomic mag. moment =     3.813670
atom    9   Tr[ns(na)] (up, down, total) =   4.53648  0.79561  5.33209
   spin  1
    eigenvalues:
  0.765  0.782  0.991  0.997  1.001
    eigenvectors:
  0.236  0.000  0.000  0.000  0.763
  0.000  1.000  0.000  0.000  0.000
  0.000  0.000  0.000  1.000  0.000
  0.763  0.000  0.000  0.000  0.236
  0.000  0.000  1.000  0.000  0.000
    occupations:
  0.945  0.001 -0.000 -0.100  0.000
  0.001  0.782 -0.000 -0.001  0.000
 -0.000 -0.000  0.997 -0.000 -0.000
 -0.100 -0.001 -0.000  0.821  0.000
  0.000  0.000 -0.000  0.000  0.991
   spin  2
    eigenvalues:
  0.065  0.075  0.082  0.283  0.291
    eigenvectors:
  0.801  0.000  0.000  0.023  0.175
  0.000  0.000  0.000  0.888  0.112
  0.000  0.000  1.000  0.000  0.000
  0.199  0.000  0.000  0.088  0.713
  0.000  1.000  0.000  0.000  0.000
    occupations:
  0.109  0.000  0.000  0.090 -0.000
  0.000  0.284 -0.000  0.003 -0.000
  0.000 -0.000  0.082  0.001  0.000
  0.090  0.003  0.001  0.245 -0.000
 -0.000 -0.000  0.000 -0.000  0.075
atomic mag. moment =     3.740867
atom   10   Tr[ns(na)] (up, down, total) =   4.72810  0.53075  5.25885
   spin  1
    eigenvalues:
  0.766  0.968  0.998  0.998  0.999
    eigenvectors:
  0.000  0.965  0.010  0.026  0.000
  0.000  0.001  0.834  0.164  0.001
  0.000  0.000  0.001  0.000  0.998
  0.000  0.035  0.155  0.810  0.001
  1.000  0.000  0.000  0.000  0.000
    occupations:
  0.969 -0.001  0.000  0.005  0.000
 -0.001  0.998 -0.000  0.000 -0.002
  0.000 -0.000  0.999  0.000  0.004
  0.005  0.000  0.000  0.997 -0.000
  0.000 -0.002  0.004 -0.000  0.766
   spin  2
    eigenvalues:
  0.050  0.059  0.065  0.116  0.241
    eigenvectors:
  0.036  0.000  0.000  0.964  0.000
  0.000  0.000  1.000  0.000  0.000
  0.000  1.000  0.000  0.000  0.000
  0.964  0.000  0.000  0.036  0.000
  0.000  0.000  0.000  0.000  1.000
    occupations:
  0.114  0.000 -0.000 -0.012  0.000
  0.000  0.065  0.000 -0.000  0.001
 -0.000  0.000  0.059 -0.000 -0.002
 -0.012 -0.000 -0.000  0.052 -0.000
  0.000  0.001 -0.002 -0.000  0.241
atomic mag. moment =     4.197355
atom   16   Tr[ns(na)] (up, down, total) =   4.55605  0.75645  5.31249
   spin  1
    eigenvalues:
  0.759  0.793  0.999  1.001  1.003
    eigenvectors:
  0.253  0.007  0.000  0.505  0.235
  0.007  0.989  0.001  0.002  0.001
  0.000  0.000  0.000  0.315  0.684
  0.740  0.002  0.000  0.178  0.080
  0.000  0.001  0.999  0.000  0.000
    occupations:
  0.939 -0.008 -0.001 -0.106 -0.000
 -0.008  0.794 -0.001  0.008 -0.007
 -0.001 -0.001  1.003 -0.000 -0.000
 -0.106  0.008 -0.000  0.821  0.000
 -0.000 -0.007 -0.000  0.000  0.999
   spin  2
    eigenvalues:
  0.056  0.070  0.080  0.251  0.300
    eigenvectors:
  0.770  0.000  0.000  0.013  0.217
  0.001  0.001  0.000  0.961  0.037
  0.001  0.058  0.941  0.000  0.001
  0.228  0.000  0.002  0.025  0.746
  0.000  0.941  0.057  0.001  0.000
    occupations:
  0.112  0.000 -0.003  0.101  0.000
  0.000  0.252  0.000 -0.011  0.006
 -0.003  0.000  0.079 -0.005 -0.002
  0.101 -0.011 -0.005  0.243 -0.001
  0.000  0.006 -0.002 -0.001  0.070
atomic mag. moment =     3.799602
atom   17   Tr[ns(na)] (up, down, total) =   4.56205  0.74605  5.30810
   spin  1
    eigenvalues:
  0.746  0.811  0.997  1.003  1.004
    eigenvectors:
  0.000  0.997  0.001  0.002  0.000
  0.000  0.001  0.000  0.778  0.221
  0.000  0.001  0.000  0.220  0.779
  0.000  0.001  0.999  0.000  0.000
  1.000  0.000  0.000  0.000  0.000
    occupations:
  0.812 -0.006 -0.006  0.006 -0.001
 -0.006  1.003 -0.000  0.000  0.005
 -0.006 -0.000  1.004  0.000 -0.001
  0.006  0.000  0.000  0.997 -0.000
 -0.001  0.005 -0.001 -0.000  0.746
   spin  2
    eigenvalues:
  0.063  0.068  0.073  0.237  0.305
    eigenvectors:
  0.009  0.000  0.000  0.990  0.000
  0.022  0.167  0.809  0.001  0.002
  0.103  0.706  0.189  0.001  0.000
  0.866  0.127  0.000  0.007  0.000
  0.000  0.000  0.002  0.000  0.998
    occupations:
  0.236  0.005  0.006 -0.015  0.000
  0.005  0.073 -0.002  0.000 -0.011
  0.006 -0.002  0.069  0.001  0.001
 -0.015  0.000  0.001  0.065 -0.000
  0.000 -0.011  0.001 -0.000  0.304
atomic mag. moment =     3.816007
atom   22   Tr[ns(na)] (up, down, total) =   4.53074  0.80337  5.33411
   spin  1
    eigenvalues:
  0.762  0.781  0.990  0.997  1.001
    eigenvectors:
  0.241  0.000  0.000  0.000  0.758
  0.001  0.999  0.000  0.000  0.000
  0.000  0.000  0.003  0.997  0.000
  0.758  0.001  0.000  0.000  0.241
  0.000  0.000  0.997  0.003  0.000
    occupations:
  0.943 -0.000 -0.000 -0.102 -0.000
 -0.000  0.781  0.000  0.001  0.000
 -0.000  0.000  0.997 -0.001 -0.000
 -0.102  0.001 -0.001  0.820 -0.000
 -0.000  0.000 -0.000 -0.000  0.990
   spin  2
    eigenvalues:
  0.064  0.076  0.082  0.284  0.297
    eigenvectors:
  0.798  0.000  0.000  0.008  0.194
  0.000  0.000  0.000  0.966  0.034
  0.000  0.002  0.998  0.000  0.000
  0.202  0.000  0.000  0.027  0.771
  0.000  0.998  0.002  0.000  0.000
    occupations:
  0.111 -0.000  0.000  0.093 -0.000
 -0.000  0.284 -0.000 -0.003 -0.000
  0.000 -0.000  0.082  0.001 -0.000
  0.093 -0.003  0.001  0.250  0.000
 -0.000 -0.000 -0.000  0.000  0.076
atomic mag. moment =     3.727367
atom   23   Tr[ns(na)] (up, down, total) =   4.59980  0.69064  5.29043
   spin  1
    eigenvalues:
  0.748  0.848  0.999  1.002  1.002
    eigenvectors:
  0.000  0.998  0.002  0.000  0.000
  0.000  0.000  0.005  0.000  0.995
  0.000  0.000  0.000  0.999  0.001
  0.000  0.002  0.993  0.001  0.005
  1.000  0.000  0.000  0.000  0.000
    occupations:
  0.848  0.002  0.002  0.006  0.000
  0.002  1.002 -0.000 -0.000 -0.002
  0.002 -0.000  1.002 -0.000 -0.004
  0.006 -0.000 -0.000  0.999  0.000
  0.000 -0.002 -0.004  0.000  0.748
   spin  2
    eigenvalues:
  0.059  0.064  0.066  0.200  0.301
    eigenvectors:
  0.000  0.010  0.000  0.989  0.000
  0.000  0.006  0.994  0.000  0.000
  0.997  0.002  0.000  0.000  0.000
  0.002  0.982  0.006  0.011  0.000
  0.000  0.000  0.000  0.000  1.000
    occupations:
  0.199 -0.001 -0.001 -0.014  0.000
 -0.001  0.066 -0.000  0.000  0.002
 -0.001 -0.000  0.059 -0.000  0.004
 -0.014  0.000 -0.000  0.065 -0.000
  0.000  0.002  0.004 -0.000  0.301
atomic mag. moment =     3.909165
N of occupied +U levels =  42.4573496
 --- exit write_ns ---

 ------ SPIN UP ------------

[...]

 ------ SPIN DOWN ----------

[...]

          k = 0.2500-0.4606 0.0000 ( 26462 PWs)   bands (ev):

[...]

          k =-0.2500 0.2303 0.0000 ( 26396 PWs)   bands (ev):

   -79.7243 -79.7136 -79.7114 -79.7018 -79.5776 -79.5690 -79.5284 -78.8109
   -48.6237 -48.5981 -48.5960 -48.5947 -48.5863 -48.5750 -48.5732 -48.5258
   -48.5057 -48.5024 -48.4730 -48.4497 -48.4399 -48.4347 -48.4312 -48.4214
   -48.4175 -48.3962 -48.2237 -48.2157 -48.1500 -47.8646 -47.7707 -47.3464
   -21.5071 -21.2048 -20.9974 -20.8193 -20.6688 -20.4592 -20.3226 -20.3086
   -20.2096 -20.0661 -20.0193 -19.9566 -19.8480 -19.8286 -19.7576 -19.6736
   -19.5632 -19.4357 -19.3863  -8.7503  -8.4957  -8.1726  -8.0927  -8.0736
    -7.8664  -7.7375  -7.6140  -7.3249  -7.2584  -7.0747  -6.9766  -6.8961
    -6.8001  -6.7288  -6.6911  -6.5615  -6.4778  -6.3482  -6.2445  -6.1689
    -6.0482  -5.9911  -5.8952  -5.8105  -5.7225  -5.6250  -5.5625  -5.5461
    -5.4333  -5.3854  -5.3121  -5.2234  -5.1239  -5.0958  -5.0026  -4.9132
    -4.8555  -4.7206  -4.6621  -4.5830  -4.5138  -4.3989  -4.3820  -4.3214
    -4.2197  -4.1476  -4.0346  -3.9122  -3.8705  -3.6764  -3.6125  -3.5230
    -3.4048  -3.2268  -3.1669  -2.9253   2.1358   2.2385   2.2755   2.2862
     2.3531   2.4035   2.4297   2.4493   2.4906   2.5433   2.6193   2.6442
     2.6672   2.6993   2.7293   2.8121   2.8403   2.9548   3.0063   3.0137
     3.0792   3.1493   3.1596   3.1899   3.2439   3.2980   3.3883   3.4125
     3.4314   3.5100   3.5539   3.5923   3.6672   3.7156   3.7807   3.8122
     3.8919   3.9251   3.9545   4.0002   4.0923   4.1964   4.4523   4.9264
     5.4524   5.7767   5.9821   6.0313   6.3114   6.4524   6.5525   6.6072
     6.7729   6.9466   7.1396   7.3668   7.5167   7.7054   7.9108   8.0229
     8.2777   8.3508   8.4744   8.4967   8.5424   8.6927   8.9142   9.0149
     9.2095   9.2971   9.4001   9.5239   9.5883   9.6742   9.9223   9.9902
    10.0364  10.2200  10.2932  10.3905  10.4524  10.6532  10.7342  10.8493
    10.9130  11.0441  11.0785  11.1864  11.2829  11.3509  11.4816  11.5921
    11.6829  11.7275  11.7797  11.8456  11.9458  12.0059  12.0712  12.2329
    12.3271  12.4534  12.5584  12.6033  12.6533  12.7704  12.8848  12.9236
    13.0002  13.0940  13.1276  13.1615  13.2362  13.2907  13.3479  13.4493
    13.5007  13.5582  13.6082  13.6205  13.6841  13.8112  13.8593  13.9328
    14.0281  14.1281  14.1783  14.2253  14.3052  14.3415  14.4140  14.5515
    14.5971  14.6700  14.7937  14.8741  14.9852  15.0094  15.0900  15.1881
    15.2698  15.3643  15.4474  15.5855  15.6718  15.8117  15.9263  15.9678
    16.0608  16.1712  16.2106  16.2729  16.3221  16.4022  16.4636  16.5614
    16.6289  16.6697  16.8116  16.8615  16.9407  17.0055  17.0910  17.1752
    17.2066  17.3071  17.4340  17.4626  17.5723  17.6133  17.6690  17.7940
    17.8498  17.9065  17.9913  18.0967  18.1616  18.2508  18.2715  18.3360
    18.4206  18.5114  18.5734  18.6346  18.6722  18.8200  18.8558  18.9080
    19.0501  19.0850  19.1396  19.2348  19.2868  19.3106  19.4123  19.4805
    19.6348  19.7353  19.7773  19.8799  19.9251  19.9867  20.0400  20.1001
    20.1460  20.2067  20.2307  20.3129  20.3978  20.4823  20.6026  20.6225
    20.7209  20.8436  20.8995  21.0411  21.0978  21.1270  21.1935  21.2295
    21.2945  21.3620  21.5433  21.5659  21.6119  21.7172  21.7769  21.8119
    21.8784  21.9298  22.0636  22.1124  22.1686  22.2964  22.3453  22.4331
    22.5113  22.5959

     the spin up/dw Fermi energies are    -2.3247   -0.3323 ev

!    total energy              =   -2319.56884857 Ry
     Harris-Foulkes estimate   =   -2319.56884858 Ry
     estimated scf accuracy    <          3.1E-09 Ry

     The total energy is the sum of the following terms:

     one-electron contribution =  -25625.69107243 Ry
     hartree contribution      =   12833.74149188 Ry
     xc contribution           =    -349.95878102 Ry
     ewald contribution        =   10820.35694116 Ry
     Hubbard energy            =       1.98211657 Ry
     smearing contrib. (-TS)   =       0.00045526 Ry

     total magnetization       =    23.00 Bohr mag/cell
     absolute magnetization    =    39.35 Bohr mag/cell

     convergence has been achieved in  19 iterations

     Forces acting on atoms (Ry/au):

     negative rho (up, down):  0.141E-02 0.142E-02
     atom    1 type  1   force =    -0.00259780   -0.01048940    0.00070519
     atom    2 type  1   force =     0.00093122    0.00467371   -0.00038201
     atom    3 type  2   force =     0.01279237    0.00285372    0.00038359
     atom    4 type  2   force =     0.00516166    0.00924915   -0.00059521
     atom    5 type  1   force =     0.00192911    0.00798583   -0.00067350
     atom    6 type  1   force =     0.00022285   -0.01391549   -0.00032583
     atom    7 type  1   force =     0.00120094    0.00335531    0.00079222
     atom    8 type  1   force =     0.00007881   -0.00269875    0.00066000
     atom    9 type  2   force =     0.01056177   -0.00001033   -0.00088494
     atom   10 type  2   force =     0.00107437   -0.00284908   -0.00031251
     atom   11 type  1   force =    -0.01940932   -0.01211063    0.00025594
     atom   12 type  1   force =    -0.01924443    0.01325537    0.00056666
     atom   13 type  1   force =    -0.00198976   -0.00070936    0.00029755
     atom   14 type  1   force =    -0.00364869   -0.01039768    0.00084699
     atom   15 type  1   force =     0.00034455    0.00370952    0.00015713
     atom   16 type  2   force =    -0.01512633    0.00337711    0.00033917
     atom   17 type  2   force =     0.00540584    0.00929185   -0.00062367
     atom   18 type  1   force =     0.00025258    0.00780645   -0.00061260
     atom   19 type  1   force =    -0.00345758   -0.01398077   -0.00027381
     atom   20 type  1   force =    -0.00035252    0.00431107   -0.00025250
     atom   21 type  1   force =    -0.00255408   -0.00286292    0.00028572
     atom   22 type  2   force =    -0.00905694    0.00066520   -0.00072638
     atom   23 type  2   force =     0.00005416   -0.00120115    0.00040902
     atom   24 type  1   force =     0.01857081   -0.00697939   -0.00015651
     atom   25 type  1   force =     0.01931683    0.00775148    0.00004767
     atom   26 type  1   force =     0.00085936   -0.00070784    0.00031952
     atom   27 type  3   force =     0.00001572    0.00049340    0.00044332
     atom   28 type  3   force =     0.00001887    0.00012960    0.00054409
     atom   29 type  3   force =    -0.00044230   -0.00015355   -0.00042780
     atom   30 type  3   force =    -0.00048322   -0.00014529   -0.00043169
     atom   31 type  1   force =    -0.00054035    0.00028423   -0.00069777
     atom   32 type  3   force =     0.00011151    0.00001864    0.00032296

     Total force =     0.003060     Total SCF correction =     0.000281

     bfgs converged in  23 scf cycles and  22 bfgs steps
     (criteria: energy < 0.10E-03, force < 0.10E-02)

     End of BFGS Geometry Optimization

     Final energy   =   -2319.5688485744 Ry
Begin final coordinates

ATOMIC_POSITIONS (crystal)
O0       0.000000000   0.000000000   0.370322922    0   0   1
O0       0.000000000   0.500000000   0.390779427    0   0   1
Mn1      0.250000000   0.500000000   0.445162943    0   0   1
Mn1      0.000000000   0.000000000   0.445802274    0   0   1
O0       0.250000000   0.800000000   0.443804591    0   0   1
O0       0.250000000   0.200000000   0.449069163    0   0   1
O0       0.000000000   0.500000000   0.493495298    0   0   1
O0       0.000000000   0.000000000   0.525550615    0   0   1
Mn1      0.250000000   0.000000000   0.575315631    0   0   1
Mn1      0.000000000   0.500000000   0.570335585    0   0   1
O0       0.250000000   0.700000000   0.586304832    0   0   1
O0       0.250000000   0.300000000   0.587031243    0   0   1
O0       0.000000000   0.000000000   0.625952765    0   0   1
O0       0.500000000   0.000000000   0.370121516    0   0   1
O0       0.500000000   0.500000000   0.391140586    0   0   1
Mn1      0.750000000   0.500000000   0.445223714    0   0   1
Mn1      0.500000000   0.000000000   0.445529283    0   0   1
O0       0.750000000   0.800000000   0.443372756    0   0   1
O0       0.750000000   0.200000000   0.448878754    0   0   1
O0       0.500000000   0.500000000   0.497713388    0   0   1
O0       0.500000000   0.000000000   0.525546809    0   0   1
Mn1      0.750000000   0.000000000   0.575088947    0   0   1
Mn1      0.500000000   0.500000000   0.580362528    0   0   1
O0       0.750000000   0.700000000   0.584338118    0   0   1
O0       0.750000000   0.300000000   0.585265671    0   0   1
O0       0.500000000   0.000000000   0.626695390    0   0   1
H2       0.000567089   0.648333956   0.375464438
H2       0.500855478   0.647378933   0.375502463
H2       0.161086161   0.046415041   0.360217331
H2       0.660622598   0.047874097   0.360087775
O0       0.515154215   0.503477484   0.657781353
H2       0.351716954   0.500233514   0.670621894
End final coordinates

     General routines

     Parallel routines
     Hubbard U routines

   This run was terminated on:  13:28:31   6May2014

   JOB DONE.
Running PBS batch system epilogue script
Job id: 340703.audhumbla.fysik.dtu.dk
Username: zhonxu
Groupname: campgst
Jobname: MnO2/Eads-2-layers/OH-U-7.5
Sessionid: 22794
Queuename: verylong
Accounting:
This job has allocated the following 16 nodes:
b112 b112 b112 b112 b112 b112 b112 b112 b096 b096 b096 b096 b096 b096 b096 b096
Finished epilogue job 340703.audhumbla.fysik.dtu.dk for zhonxu