     Program PWSCF v.5.0.2 (svn rev. 9656) starts on 10May2014 at  2:31:46

     Current dimensions of program PWSCF are:
     Max number of different atomic species (ntypx) = 10
     Max number of k-points (npk) =  40000
     Max angular momentum in pseudopotentials (lmaxx) =  3
     Reading input from pwscf.in
Warning: card &CELL ignored
Warning: card / ignored

     Subspace diagonalization in iterative solution of the eigenvalue problem:
     a serial algorithm will be used

     bravais-lattice index     =            0
     lattice parameter (alat)  =      12.2076  a.u.
     unit-cell volume          =    7496.5096 (a.u.)^3
     number of atoms/cell      =           32
     number of atomic types    =            3
     number of electrons       =       247.00
     number of Kohn-Sham states=          370
     kinetic-energy cutoff     =      40.0000  Ry
     charge density cutoff     =     500.0000  Ry
     convergence threshold     =      1.0E-06
     mixing beta               =       0.7000
     number of iterations used =            8  plain     mixing
     Exchange-correlation      = SLA  PW   PBE  PBE ( 1 4 3 4 0)
     EXX-fraction              =        0.00
     nstep                     =           50

     celldm(1)=  12.207631  celldm(2)=   0.000000  celldm(3)=   0.000000
     celldm(4)=   0.000000  celldm(5)=   0.000000  celldm(6)=   0.000000

     crystal axes: (cart. coord. in units of alat)
               a(1) = (   1.000000   0.000000   0.000000 )
               a(2) = (   0.000000   1.004836   0.000000 )
               a(3) = (   0.000000   0.000000   4.100811 )

     reciprocal axes: (cart. coord. in units 2 pi/alat)
               b(1) = (  1.000000  0.000000  0.000000 )
               b(2) = (  0.000000  0.995187  0.000000 )
               b(3) = (  0.000000  0.000000  0.243854 )

     PseudoPot. # 1 for O  read from file:
     /home/camp/zhonxu/pseudo/o_pbe_v1.01.uspp.F.UPF
     MD5 check sum: 2bcb18d16ea4b960afae9ec6d52f22d2
     Pseudo is Ultrasoft + core correction, Zval =  6.0
     Generated by new atomic code, or converted to UPF format
     Using radial grid of  737 points,  5 beta functions with:
                l(1) =   0
                l(2) =   0
                l(3) =   1
                l(4) =   1
                l(5) =   2
     Q(r) pseudized with  8 coefficients,  rinner =    0.900   0.900   0.900
                                                       0.900   0.900

     PseudoPot. # 2 for Pt read from file:
     /home/camp/zhonxu/pseudo/pt_pbe_v1.uspp.F.UPF
     MD5 check sum: 4c71d6ad5ef119f1eb26a4d0b7884226
     Pseudo is Ultrasoft + core correction, Zval = 16.0
     Generated by new atomic code, or converted to UPF format
     Using radial grid of  985 points,  6 beta functions with:
                l(1) =   0
                l(2) =   0
                l(3) =   1
                l(4) =   1
                l(5) =   2
                l(6) =   2
     Q(r) pseudized with  8 coefficients,  rinner =    1.300   1.300   1.300
                                                       1.300   1.300

     PseudoPot. # 3 for H  read from file:
     /home/camp/zhonxu/pseudo/h_pbe_v1.uspp.F.UPF
     MD5 check sum: 3408e3ff4ec8b0a4e358431e7e038a48
     Pseudo is Ultrasoft, Zval =  1.0
     Generated by new atomic code, or converted to UPF format
     Using radial grid of  615 points,  2 beta functions with:
                l(1) =   0
                l(2) =   0
     Q(r) pseudized with  8 coefficients,  rinner =    0.700

     atomic species   valence    mass     pseudopotential
        O0             6.00    15.99940     O ( 1.00)
        Pt1           16.00   195.08000     Pt( 1.00)
        H2             1.00     1.00794     H ( 1.00)

     Simplified LDA+U calculation (l_max = 2) with parameters (eV):
     atomic species    L          U    alpha       J0     beta
        Pt1            2     0.0000   0.0000   0.0000   0.0000

     No symmetry found

   Cartesian axes

     site n.     atom                  positions (alat units)
         1           O0  tau(   1) = (   0.0000000   0.0000000   1.5486303  )
         2           O0  tau(   2) = (   0.0000000   0.5024180   1.6456145  )
         3           Pt1 tau(   3) = (   0.2500000   0.5024180   1.8492198  )
         4           Pt1 tau(   4) = (   0.0000000   0.0000000   1.8561502  )
         5           O0  tau(   5) = (   0.2500000   0.8139171   1.8185047  )
         6           O0  tau(   6) = (   0.2500000   0.1909188   1.8850199  )
         7           O0  tau(   7) = (   0.0000000   0.5024180   2.0364218  )
         8           O0  tau(   8) = (   0.0000000   0.0000000   2.1712565  )
         9           Pt1 tau(   9) = (   0.2500000   0.0000000   2.3611651  )
        10           Pt1 tau(  10) = (   0.0000000   0.5024180   2.3568182  )
        11           O0  tau(  11) = (   0.2500000   0.6933368   2.3352889  )
        12           O0  tau(  12) = (   0.2500000   0.3114991   2.3978263  )
        13           O0  tau(  13) = (   0.0000000   0.0000000   2.5469728  )
        14           O0  tau(  14) = (   0.5000000   0.0000000   1.5487944  )
        15           O0  tau(  15) = (   0.5000000   0.5024180   1.6432360  )
        16           Pt1 tau(  16) = (   0.7500000   0.5024180   1.8492608  )
        17           Pt1 tau(  17) = (   0.5000000   0.0000000   1.8561092  )
        18           O0  tau(  18) = (   0.7500000   0.8139171   1.8183407  )
        19           O0  tau(  19) = (   0.7500000   0.1909188   1.8850199  )
        20           O0  tau(  20) = (   0.5000000   0.5024180   2.0398255  )
        21           O0  tau(  21) = (   0.5000000   0.0000000   2.1711335  )
        22           Pt1 tau(  22) = (   0.7500000   0.0000000   2.3611651  )
        23           Pt1 tau(  23) = (   0.5000000   0.5024180   2.3633795  )
        24           O0  tau(  24) = (   0.7500000   0.6933368   2.3343868  )
        25           O0  tau(  25) = (   0.7500000   0.3114991   2.3965141  )
        26           O0  tau(  26) = (   0.5000000   0.0000000   2.5473419  )
        27           H2  tau(  27) = (   0.0000800   0.6431151   1.5815188  )
        28           H2  tau(  28) = (   0.4999900   0.6432457   1.5795915  )
        29           H2  tau(  29) = (   0.1433600   0.0342348   1.5075812  )
        30           H2  tau(  30) = (   0.6432100   0.0348377   1.5077042  )
        31           O0  tau(  31) = (   0.5002800   0.5276996   2.6647891  )
        32           H2  tau(  32) = (   0.4897800   0.3840985   2.7162543  )

     number of k points=    10  Methfessel-Paxton smearing, width (Ry)=  0.0100
                       cart. coord. in units 2pi/alat
        k(    1) = (   0.0000000   0.0000000   0.0000000), wk =   0.1250000
        k(    2) = (   0.0000000   0.2487968   0.0000000), wk =   0.2500000
        k(    3) = (   0.0000000  -0.4975937   0.0000000), wk =   0.1250000
        k(    4) = (   0.2500000   0.0000000   0.0000000), wk =   0.2500000
        k(    5) = (   0.2500000   0.2487968   0.0000000), wk =   0.2500000
        k(    6) = (   0.2500000  -0.4975937   0.0000000), wk =   0.2500000
        k(    7) = (  -0.5000000   0.0000000   0.0000000), wk =   0.1250000
        k(    8) = (  -0.5000000   0.2487968   0.0000000), wk =   0.2500000
        k(    9) = (  -0.5000000  -0.4975937   0.0000000), wk =   0.1250000
        k(   10) = (  -0.2500000   0.2487968   0.0000000), wk =   0.2500000

     Largest allocated arrays     est. size (Mb)     dimensions
     Largest temporary arrays     est. size (Mb)     dimensions

     Check: negative/imaginary core charge=   -0.000003    0.000000

     Initial potential from superposition of free atoms
     Check: negative starting charge=   -1.535574

     starting charge  242.99984, renormalised to  247.00000

     negative rho (up, down):  0.156E+01 0.000E+00
     Number of +U iterations with fixed ns =  0
     Starting occupations:
 --- enter write_ns ---
 LDA+U parameters:
U( 2)     =  0.00000000
alpha( 2) =  0.00000000
atom    3   Tr[ns(na)] =   8.00000
    eigenvalues:
  0.800  0.800  0.800  0.800  0.800
    eigenvectors:
  1.000  0.000  0.000  0.000  0.000
  0.000  1.000  0.000  0.000  0.000
  0.000  0.000  1.000  0.000  0.000
  0.000  0.000  0.000  1.000  0.000
  0.000  0.000  0.000  0.000  1.000
    occupations:
  0.800  0.000  0.000  0.000  0.000
  0.000  0.800  0.000  0.000  0.000
  0.000  0.000  0.800  0.000  0.000
  0.000  0.000  0.000  0.800  0.000
  0.000  0.000  0.000  0.000  0.800
atom    4   Tr[ns(na)] =   8.00000
    eigenvalues:
  0.800  0.800  0.800  0.800  0.800
    eigenvectors:
  1.000  0.000  0.000  0.000  0.000
  0.000  1.000  0.000  0.000  0.000
  0.000  0.000  1.000  0.000  0.000
  0.000  0.000  0.000  1.000  0.000
  0.000  0.000  0.000  0.000  1.000
    occupations:
  0.800  0.000  0.000  0.000  0.000
  0.000  0.800  0.000  0.000  0.000
  0.000  0.000  0.800  0.000  0.000
  0.000  0.000  0.000  0.800  0.000
  0.000  0.000  0.000  0.000  0.800
atom    9   Tr[ns(na)] =   8.00000
    eigenvalues:
  0.800  0.800  0.800  0.800  0.800
    eigenvectors:
  1.000  0.000  0.000  0.000  0.000
  0.000  1.000  0.000  0.000  0.000
  0.000  0.000  1.000  0.000  0.000
  0.000  0.000  0.000  1.000  0.000
  0.000  0.000  0.000  0.000  1.000
    occupations:
  0.800  0.000  0.000  0.000  0.000
  0.000  0.800  0.000  0.000  0.000
  0.000  0.000  0.800  0.000  0.000
  0.000  0.000  0.000  0.800  0.000
  0.000  0.000  0.000  0.000  0.800
atom   10   Tr[ns(na)] =   8.00000
    eigenvalues:
  0.800  0.800  0.800  0.800  0.800
    eigenvectors:
  1.000  0.000  0.000  0.000  0.000
  0.000  1.000  0.000  0.000  0.000
  0.000  0.000  1.000  0.000  0.000
  0.000  0.000  0.000  1.000  0.000
  0.000  0.000  0.000  0.000  1.000
    occupations:
  0.800  0.000  0.000  0.000  0.000
  0.000  0.800  0.000  0.000  0.000
  0.000  0.000  0.800  0.000  0.000
  0.000  0.000  0.000  0.800  0.000
  0.000  0.000  0.000  0.000  0.800
atom   16   Tr[ns(na)] =   8.00000
    eigenvalues:
  0.800  0.800  0.800  0.800  0.800
    eigenvectors:
  1.000  0.000  0.000  0.000  0.000
  0.000  1.000  0.000  0.000  0.000
  0.000  0.000  1.000  0.000  0.000
  0.000  0.000  0.000  1.000  0.000
  0.000  0.000  0.000  0.000  1.000
    occupations:
  0.800  0.000  0.000  0.000  0.000
  0.000  0.800  0.000  0.000  0.000
  0.000  0.000  0.800  0.000  0.000
  0.000  0.000  0.000  0.800  0.000
  0.000  0.000  0.000  0.000  0.800
atom   17   Tr[ns(na)] =   8.00000
    eigenvalues:
  0.800  0.800  0.800  0.800  0.800
    eigenvectors:
  1.000  0.000  0.000  0.000  0.000
  0.000  1.000  0.000  0.000  0.000
  0.000  0.000  1.000  0.000  0.000
  0.000  0.000  0.000  1.000  0.000
  0.000  0.000  0.000  0.000  1.000
    occupations:
  0.800  0.000  0.000  0.000  0.000
  0.000  0.800  0.000  0.000  0.000
  0.000  0.000  0.800  0.000  0.000
  0.000  0.000  0.000  0.800  0.000
  0.000  0.000  0.000  0.000  0.800
atom   22   Tr[ns(na)] =   8.00000
    eigenvalues:
  0.800  0.800  0.800  0.800  0.800
    eigenvectors:
  1.000  0.000  0.000  0.000  0.000
  0.000  1.000  0.000  0.000  0.000
  0.000  0.000  1.000  0.000  0.000
  0.000  0.000  0.000  1.000  0.000
  0.000  0.000  0.000  0.000  1.000
[...]
 -0.109  0.005  0.015  0.744  0.001
  0.000 -0.002 -0.000  0.001  0.982
atom    4   Tr[ns(na)] =   8.62702
    eigenvalues:
  0.682  0.700  0.972  0.978  0.982
    eigenvectors:
  0.000  0.987  0.005  0.001  0.007
  0.007  0.000  0.036  0.955  0.002
  0.000  0.004  0.942  0.033  0.021
  0.000  0.009  0.016  0.005  0.970
  0.993  0.000  0.000  0.006  0.000
    occupations:
  0.703 -0.005 -0.017  0.026 -0.001
 -0.005  0.976  0.001  0.000  0.024
 -0.017  0.001  0.971  0.003  0.000
  0.026  0.000  0.003  0.979  0.000
 -0.001  0.024  0.000  0.000  0.684
atom    9   Tr[ns(na)] =   8.58979
    eigenvalues:
  0.703  0.715  0.947  0.948  0.982
    eigenvectors:
  0.000  0.140  0.008  0.001  0.851
  1.000  0.000  0.000  0.000  0.000
  0.000  0.006  0.941  0.048  0.005
  0.000  0.855  0.002  0.000  0.144
  0.000  0.000  0.048  0.951  0.000
    occupations:
  0.945  0.000 -0.004 -0.093  0.000
  0.000  0.703 -0.000 -0.000 -0.003
 -0.004 -0.000  0.946 -0.017  0.000
 -0.093 -0.000 -0.017  0.754  0.000
  0.000 -0.003  0.000  0.000  0.948
atom   10   Tr[ns(na)] =   8.66279
    eigenvalues:
  0.658  0.749  0.971  0.973  0.980
    eigenvectors:
  0.000  0.985  0.000  0.000  0.014
  0.004  0.000  0.871  0.124  0.000
  0.000  0.000  0.118  0.811  0.071
  0.000  0.014  0.007  0.064  0.915
  0.996  0.000  0.004  0.001  0.000
    occupations:
  0.752 -0.001 -0.004  0.027  0.000
 -0.001  0.970 -0.000  0.000 -0.020
 -0.004 -0.000  0.973 -0.001  0.000
  0.027  0.000 -0.001  0.976 -0.000
  0.000 -0.020  0.000 -0.000  0.660
atom   16   Tr[ns(na)] =   8.63902
    eigenvalues:
  0.678  0.694  0.980  0.982  0.985
    eigenvectors:
  0.025  0.151  0.755  0.004  0.065
  0.862  0.138  0.000  0.000  0.000
  0.000  0.003  0.096  0.005  0.897
  0.113  0.709  0.147  0.001  0.031
  0.000  0.000  0.002  0.990  0.008
    occupations:
  0.930 -0.003  0.005 -0.109 -0.000
 -0.003  0.681 -0.001 -0.005 -0.002
  0.005 -0.001  0.983  0.015  0.000
 -0.109 -0.005  0.015  0.744 -0.000
 -0.000 -0.002  0.000 -0.000  0.982
atom   17   Tr[ns(na)] =   8.62461
    eigenvalues:
  0.682  0.700  0.971  0.978  0.982
    eigenvectors:
  0.000  0.987  0.005  0.001  0.007
  0.007  0.000  0.042  0.948  0.002
  0.000  0.004  0.937  0.038  0.020
  0.000  0.009  0.015  0.005  0.971
  0.993  0.000  0.000  0.007  0.000
    occupations:
  0.703 -0.005 -0.017  0.026 -0.000
 -0.005  0.976  0.001  0.000  0.024
 -0.017  0.001  0.970  0.003  0.000
  0.026  0.000  0.003  0.979  0.000
 -0.000  0.024  0.000  0.000  0.684
atom   22   Tr[ns(na)] =   8.58902
    eigenvalues:
  0.703  0.715  0.946  0.948  0.982
    eigenvectors:
  0.000  0.140  0.008  0.001  0.851
  0.997  0.003  0.000  0.000  0.000
  0.000  0.005  0.910  0.079  0.005
  0.003  0.852  0.002  0.000  0.144
  0.000  0.000  0.081  0.919  0.000
    occupations:
  0.945  0.000 -0.004 -0.093 -0.000
  0.000  0.703  0.000  0.001 -0.003
 -0.004  0.000  0.945 -0.017 -0.001
 -0.093  0.001 -0.017  0.754 -0.000
 -0.000 -0.003 -0.001 -0.000  0.948
atom   23   Tr[ns(na)] =   8.60591
    eigenvalues:
  0.682  0.704  0.955  0.979  0.982
    eigenvectors:
  0.000  0.983  0.000  0.003  0.014
  0.008  0.000  0.988  0.004  0.000
  0.000  0.010  0.004  0.830  0.155
  0.000  0.007  0.000  0.163  0.830
  0.992  0.000  0.007  0.000  0.000
    occupations:
  0.709  0.000  0.028  0.023 -0.000
  0.000  0.954  0.002 -0.000 -0.024
  0.028  0.002  0.977 -0.001 -0.000
  0.023 -0.000 -0.001  0.979 -0.000
 -0.000 -0.024 -0.000 -0.000  0.684
N of occupied +U levels =  68.9772355
 --- exit write_ns ---

          k = 0.0000 0.0000 0.0000 ( 32157 PWs)   bands (ev):

   -55.8660 -55.8109 -55.7490 -55.7444 -55.7398 -55.6976 -55.6959 -55.6506
   -55.6438 -55.5507 -55.5452 -55.4810 -55.4723 -55.4668 -55.4602 -55.4297
   -55.4013 -55.3938 -55.3908 -55.3900 -55.3206 -55.0634 -54.8245 -54.5633
   -21.9953 -21.6156 -21.2224 -21.0283 -20.4142 -20.4040 -20.2545 -20.2492
   -20.1670 -20.1544 -20.0553 -20.0109 -19.9500 -19.8011 -19.7283 -19.7252
   -19.5598 -18.9124 -18.7625 -10.4071 -10.2575 -10.0330  -9.3790  -9.1904
    -9.0771  -8.9992  -8.9581  -8.8732  -8.8418  -8.7816  -8.7277  -8.6609
    -8.6096  -8.5176  -8.3574  -8.2698  -8.1925  -8.0295  -7.7121  -7.6004
    -7.5572  -7.3964  -7.2578  -6.9372  -6.8631  -6.7255  -6.6448  -6.3133
    -6.1053  -5.9637  -5.8684  -5.7621  -5.7413  -5.6924  -5.6229  -5.5338
    -5.4044  -5.3034  -5.2334  -5.1859  -5.0525  -5.0201  -4.9582  -4.8384
    -4.8078  -4.7155  -4.6938  -4.6793  -4.6518  -4.5876  -4.5562  -4.4461
    -4.4034  -4.2954  -4.2752  -4.2460  -4.2344  -4.0740  -3.9984  -3.9700
    -3.9533  -3.7864  -3.6313  -3.5645  -3.3210  -3.1199  -2.9234  -2.7708
    -2.7633  -2.6496  -2.4512  -2.2925  -2.2713  -2.0760  -2.0193  -1.8901
    -1.8312  -1.6294  -1.5308  -1.2548  -1.2260  -0.8217  -0.3959  -0.3639
    -0.3494  -0.1615   0.0559   0.2777   0.6305   0.9850   1.0791   1.4341
     1.4612   1.6665   1.9903   2.1197   2.4847   3.4144   4.2158   4.6780
     4.7314   5.5324   5.6254   5.8507   5.8855   6.2304   6.6038   6.6984
     6.9061   6.9875   7.0138   7.0354   7.1775   7.3328   7.5064   7.6027
     7.6599   7.6938   7.7729   7.7843   7.8483   7.9152   7.9452   8.0443
     8.1209   8.1844   8.2389   8.3700   8.4791   8.5137   8.5312   8.7298
     8.7546   8.9550   9.0126   9.1274   9.1641   9.2123   9.4330   9.5387
     9.5744   9.6594   9.8344   9.9009   9.9814  10.0235  10.2030  10.3038
    10.3130  10.5526  10.5699  10.7470  10.8137  10.8231  10.9155  10.9513
    10.9798  10.9950  11.2518  11.2756  11.3332  11.4310  11.4744  11.5257
    11.5921  11.6478  11.7569  11.8418  11.8866  11.9167  12.0237  12.0625
    12.1376  12.1993  12.2240  12.2441  12.3372  12.4519  12.5210  12.5976
    12.6650  12.7311  12.7554  12.8710  13.0467  13.2318  13.2466  13.3245
    13.3897  13.5596  13.6101  13.6825  13.7166  13.7277  13.9181  14.0272
    14.0768  14.1336  14.2712  14.3069  14.4008  14.5600  14.6075  14.6231
    14.6826  14.8012  14.9140  14.9726  15.0276  15.2352  15.3489  15.3598
    15.4219  15.5163  15.6164  15.6802  15.7056  15.7926  15.8703  15.9346
    15.9823  16.0469  16.1415  16.3051  16.3476  16.4406  16.4669  16.5003
    16.5676  16.5810  16.6097  16.6225  16.6496  16.6925  16.7841  16.8028
    16.8807  16.8931  17.0669  17.1702  17.1863  17.2824  17.3344  17.3479
    17.4202  17.6025  17.6510  17.7723  17.8607  17.8882  17.9471  18.0326
    18.1572  18.1997  18.2102  18.2300  18.3604  18.4503  18.4520  18.5435
    18.6344  18.6729  18.7183  18.7472  18.7992  18.8350  18.8993  18.9599
    19.0375  19.1022  19.1351  19.1839  19.2144  19.2475  19.3199  19.3720
    19.4505  19.4796  19.5213  19.6368  19.7172  19.7419  19.7720  19.8547
    19.9449  19.9713  20.0208  20.0801  20.1056  20.1434  20.2064  20.2835
    20.3794  20.5638  20.6524  20.6897  20.8383  20.8806  20.9241  20.9914
    21.0356  21.1093  21.1782  21.2469  21.2795  21.2981  21.3732  21.4888
    21.5878  21.6284  21.6374  21.7227  21.7538  21.7758  21.7951  21.8214
    21.8404  21.8735  21.9684  22.0152  22.0596  22.0899  22.1067  22.1524
    22.2202  22.2310

[...]

          k = 0.2500-0.4976 0.0000 ( 32026 PWs)   bands (ev):

[...]

          k =-0.5000 0.0000 0.0000 ( 31984 PWs)   bands (ev):

[...]

          k =-0.2500 0.2488 0.0000 ( 32025 PWs)   bands (ev):

   -55.8580 -55.8189 -55.7440 -55.7413 -55.7403 -55.7037 -55.6899 -55.6516
   -55.6498 -55.5495 -55.5458 -55.4805 -55.4728 -55.4661 -55.4609 -55.4297
   -55.3994 -55.3946 -55.3920 -55.3902 -55.3207 -55.0641 -54.8246 -54.5633
   -21.9152 -21.6363 -21.0526 -20.8396 -20.5404 -20.4094 -20.3617 -20.2551
   -20.2051 -20.0959 -20.0624 -20.0089 -19.9416 -19.8506 -19.8194 -19.7864
   -19.6503 -18.9379 -18.8167  -9.9991  -9.7487  -9.6572  -9.5623  -9.1788
    -9.1500  -9.0468  -8.8949  -8.8371  -8.8178  -8.6485  -8.6045  -8.5301
    -8.4094  -8.3934  -8.3204  -8.1858  -8.0272  -7.8547  -7.6787  -7.5772
    -7.4918  -7.4211  -7.1799  -6.9654  -6.7615  -6.7238  -6.6300  -6.5451
    -6.5269  -6.4594  -6.3821  -6.2886  -6.1972  -6.1589  -6.1317  -5.9292
    -5.8625  -5.7790  -5.6423  -5.5376  -5.4195  -5.3172  -5.2753  -5.0054
    -4.9656  -4.8547  -4.7814  -4.6972  -4.5640  -4.5420  -4.3678  -4.2071
    -4.1395  -3.9913  -3.8858  -3.8017  -3.7449  -3.7312  -3.5622  -3.5103
    -3.4778  -3.4113  -3.3385  -3.2534  -3.2250  -3.1902  -3.1229  -2.9178
    -2.7976  -2.5310  -2.3744  -2.2758  -2.1513  -2.0700  -2.0097  -1.9272
    -1.8675  -1.6912  -1.5186  -1.4719  -1.3607  -0.9159  -0.7003  -0.4876
    -0.1453   0.0438   0.3931   0.6102   0.8461   0.9683   1.1027   1.1538
     1.3956   1.5202   1.5585   1.9438   3.2403   3.9410   4.6612   5.0765
     5.1402   5.2205   5.3025   5.5685   6.0476   6.2025   6.2705   6.3499
     6.5066   6.5953   6.6898   6.7782   6.9018   6.9747   7.1467   7.2312
     7.3929   7.4936   7.5488   7.6726   7.7331   7.8480   7.9615   8.0494
     8.2134   8.3190   8.3517   8.4289   8.4936   8.5990   8.6980   8.7604
     8.8844   8.9753   9.0445   9.1956   9.3427   9.4424   9.5714   9.6383
     9.7408   9.8100   9.9487  10.0744  10.1532  10.2062  10.2714  10.3624
    10.5237  10.5678  10.6229  10.7004  10.7679  10.9444  10.9914  11.0939
    11.1759  11.2228  11.3563  11.4293  11.5053  11.6372  11.7165  11.8078
    11.8838  11.9027  12.0004  12.0348  12.0846  12.2333  12.2851  12.3379
    12.3957  12.4321  12.5228  12.5489  12.6373  12.7081  12.7922  12.8799
    12.9280  13.0119  13.0851  13.1821  13.2138  13.4314  13.5029  13.5535
    13.5957  13.6838  13.7333  13.7990  13.9230  13.9581  14.0503  14.0743
    14.1387  14.2638  14.3712  14.4444  14.5270  14.6067  14.7034  14.8258
    14.8845  14.9865  15.0594  15.1332  15.1949  15.2985  15.3265  15.4016
    15.4543  15.5046  15.5572  15.6290  15.6814  15.7281  15.7687  15.8388
    15.9082  15.9772  16.0112  16.0597  16.1310  16.2048  16.2862  16.3319
    16.3627  16.3914  16.4464  16.5266  16.5830  16.5903  16.6062  16.6193
    16.6245  16.6510  16.7383  16.7989  16.8229  16.9289  16.9785  17.0343
    17.0924  17.1428  17.2078  17.2301  17.2917  17.3045  17.3751  17.4424
    17.4860  17.5365  17.5732  17.6146  17.6473  17.7461  17.8939  17.9370
    18.0131  18.0634  18.1270  18.1764  18.2428  18.3288  18.4634  18.4689
    18.5791  18.6058  18.6450  18.7081  18.7814  18.8344  18.8749  18.9643
    19.0158  19.1120  19.1730  19.2110  19.2798  19.3397  19.4417  19.5256
    19.6582  19.6853  19.8225  19.8592  19.9373  19.9885  20.0310  20.0634
    20.0994  20.1535  20.2629  20.3232  20.3461  20.3958  20.4696  20.5586
    20.6435  20.6609  20.7277  20.8126  20.8853  20.9690  21.0009  21.0441
    21.0838  21.2010  21.2718  21.3119  21.3484  21.3766  21.4681  21.5099
    21.5716  21.6373  21.6968  21.7606  21.7856  21.9020  22.0052  22.0687
    22.1189  22.1796

     the Fermi energy is    -1.4572 ev

!    total energy              =   -2282.19833916 Ry
     Harris-Foulkes estimate   =   -2282.19833962 Ry
     estimated scf accuracy    <       0.00000049 Ry

     The total energy is the sum of the following terms:

     one-electron contribution =  -23697.63346736 Ry
     hartree contribution      =   11891.21638355 Ry
     xc contribution           =    -572.97545860 Ry
     ewald contribution        =   10097.19420028 Ry
     Hubbard energy            =       0.00000000 Ry
     smearing contrib. (-TS)   =       0.00000297 Ry

     convergence has been achieved in  26 iterations

     Forces acting on atoms (Ry/au):

     negative rho (up, down):  0.158E+01 0.000E+00
     atom    1 type  1   force =    -0.00809313   -0.00457799    0.00005887
     atom    2 type  1   force =     0.00032459    0.00347178    0.00042345
     atom    3 type  2   force =     0.00922183    0.00799247    0.00010503
     atom    4 type  2   force =     0.01055650    0.00333355   -0.00068171
     atom    5 type  1   force =     0.00108258   -0.00461220   -0.00008492
     atom    6 type  1   force =     0.00002531   -0.00157363    0.00007072
     atom    7 type  1   force =     0.00038706   -0.00138705    0.00053655
     atom    8 type  1   force =    -0.00417090   -0.00156747   -0.00087746
     atom    9 type  2   force =     0.00338455    0.00333168    0.00003843
     atom   10 type  2   force =    -0.00066666   -0.01861543    0.00028963
     atom   11 type  1   force =     0.00062224    0.00152057    0.00007941
     atom   12 type  1   force =    -0.01181747    0.00498732    0.00058471
     atom   13 type  1   force =    -0.00128357   -0.00555485    0.00009741
     atom   14 type  1   force =    -0.00803050   -0.00425772   -0.00018892
     atom   15 type  1   force =     0.00021618    0.00231666    0.00033260
     atom   16 type  2   force =    -0.01033444    0.00823781   -0.00020270
     atom   17 type  2   force =     0.01044214    0.00453577   -0.00032694
     atom   18 type  1   force =     0.00118186   -0.00472456    0.00021550
     atom   19 type  1   force =    -0.00014943   -0.00156440    0.00003326
     atom   20 type  1   force =     0.00000630   -0.00134928    0.00001740
     atom   21 type  1   force =    -0.00393176    0.00071849   -0.00014834
     atom   22 type  2   force =     0.00071071    0.00370092   -0.00031528
     atom   23 type  2   force =     0.00015192   -0.00107539    0.00020724
     atom   24 type  1   force =    -0.00047602    0.00259587    0.00033059
     atom   25 type  1   force =     0.01169730    0.00551498    0.00065767
     atom   26 type  1   force =    -0.00108106   -0.00264665   -0.00017487
     atom   27 type  3   force =    -0.00003971    0.00025592   -0.00024918
     atom   28 type  3   force =     0.00008197    0.00019338   -0.00010744
     atom   29 type  3   force =    -0.00007161    0.00001252   -0.00038626
     atom   30 type  3   force =    -0.00012263   -0.00001835   -0.00042146
     atom   31 type  1   force =    -0.00033339    0.00074108   -0.00004818
     atom   32 type  3   force =     0.00050924    0.00006419    0.00013519

     Total force =     0.002174     Total SCF correction =     0.002418
     SCF correction compared to forces is large: reduce conv_thr to get better values

     BFGS Geometry Optimization

     bfgs converged in   1 scf cycles and   0 bfgs steps
     (criteria: energy < 0.10E-03, force < 0.10E-02)

     End of BFGS Geometry Optimization

     Final energy   =   -2282.1983391601 Ry
Begin final coordinates

ATOMIC_POSITIONS (crystal)
O0       0.000000000   0.000000000   0.377640000    0   0   1
O0       0.000000000   0.500000000   0.401290000    0   0   1
Pt1      0.250000000   0.500000000   0.450940000    0   0   1
Pt1      0.000000000   0.000000000   0.452630000    0   0   1
O0       0.250000000   0.810000000   0.443450000    0   0   1
O0       0.250000000   0.190000000   0.459670000    0   0   1
O0       0.000000000   0.500000000   0.496590000    0   0   1
O0       0.000000000   0.000000000   0.529470000    0   0   1
Pt1      0.250000000   0.000000000   0.575780000    0   0   1
Pt1      0.000000000   0.500000000   0.574720000    0   0   1
O0       0.250000000   0.690000000   0.569470000    0   0   1
O0       0.250000000   0.310000000   0.584720000    0   0   1
O0       0.000000000   0.000000000   0.621090000    0   0   1
O0       0.500000000   0.000000000   0.377680000    0   0   1
O0       0.500000000   0.500000000   0.400710000    0   0   1
Pt1      0.750000000   0.500000000   0.450950000    0   0   1
Pt1      0.500000000   0.000000000   0.452620000    0   0   1
O0       0.750000000   0.810000000   0.443410000    0   0   1
O0       0.750000000   0.190000000   0.459670000    0   0   1
O0       0.500000000   0.500000000   0.497420000    0   0   1
O0       0.500000000   0.000000000   0.529440000    0   0   1
Pt1      0.750000000   0.000000000   0.575780000    0   0   1
Pt1      0.500000000   0.500000000   0.576320000    0   0   1
O0       0.750000000   0.690000000   0.569250000    0   0   1
O0       0.750000000   0.310000000   0.584400000    0   0   1
O0       0.500000000   0.000000000   0.621180000    0   0   1
H2       0.000080000   0.640020000   0.385660000
H2       0.499990000   0.640150000   0.385190000
H2       0.143360000   0.034070000   0.367630000
H2       0.643210000   0.034670000   0.367660000
O0       0.500280000   0.525160000   0.649820000
H2       0.489780000   0.382250000   0.662370000
End final coordinates

     General routines

     Parallel routines
     Hubbard U routines

   This run was terminated on:   4: 5:37  10May2014

   JOB DONE.
Running PBS batch system epilogue script
Job id: 351068.audhumbla.fysik.dtu.dk
Username: zhonxu
Groupname: campgst
Jobname: PtO2/Eads-2-layers/OH-U-0.0
Sessionid: 4063
Queuename: verylong
Accounting:
This job has allocated the following 16 nodes:
b078 b078 b078 b078 b078 b078 b078 b078 b077 b077 b077 b077 b077 b077 b077 b077
Finished epilogue job 351068.audhumbla.fysik.dtu.dk for zhonxu