     Program PWSCF v.5.0.2 (svn rev. 9656) starts on  6May2014 at  0: 2:48

     Current dimensions of program PWSCF are:
     Max number of different atomic species (ntypx) = 10
     Max number of k-points (npk) =  40000
     Max angular momentum in pseudopotentials (lmaxx) =  3
     Reading input from pwscf.in
Warning: card &CELL ignored
Warning: card / ignored

     Subspace diagonalization in iterative solution of the eigenvalue problem:
     a serial algorithm will be used

     bravais-lattice index     =            0
     lattice parameter (alat)  =      12.0187  a.u.
     unit-cell volume          =    7280.5819 (a.u.)^3
     number of atoms/cell      =           30
     number of atomic types    =            3
     number of electrons       =       232.00
     number of Kohn-Sham states=          348
     kinetic-energy cutoff     =      40.0000  Ry
     charge density cutoff     =     500.0000  Ry
     convergence threshold     =      1.0E-06
     mixing beta               =       0.7000
     number of iterations used =            8  plain     mixing
     Exchange-correlation      = SLA  PW   PBE  PBE ( 1 4 3 4 0)
     EXX-fraction              =        0.00
     nstep                     =           50

     celldm(1)=  12.018658  celldm(2)=   0.000000  celldm(3)=   0.000000
     celldm(4)=   0.000000  celldm(5)=   0.000000  celldm(6)=   0.000000

     crystal axes: (cart. coord. in units of alat)
               a(1) = (   1.000000   0.000000   0.000000 )
               a(2) = (   0.000000   1.009517   0.000000 )
               a(3) = (   0.000000   0.000000   4.154171 )

     reciprocal axes: (cart. coord. in units 2 pi/alat)
               b(1) = (  1.000000  0.000000  0.000000 )
               b(2) = (  0.000000  0.990572  0.000000 )
               b(3) = (  0.000000  0.000000  0.240722 )

     PseudoPot. # 1 for O  read from file:
     /home/camp/zhonxu/pseudo/o_pbe_v1.01.uspp.F.UPF
     MD5 check sum: 2bcb18d16ea4b960afae9ec6d52f22d2
     Pseudo is Ultrasoft + core correction, Zval =  6.0
     Generated by new atomic code, or converted to UPF format
     Using radial grid of  737 points,  5 beta functions with:
                l(1) =   0
                l(2) =   0
                l(3) =   1
                l(4) =   1
                l(5) =   2
     Q(r) pseudized with  8 coefficients,  rinner =    0.900   0.900   0.900
                                                       0.900   0.900

     PseudoPot. # 2 for Ir read from file:
     /home/camp/zhonxu/pseudo/ir_pbe_v1.uspp.F.UPF
     MD5 check sum: abf987a9674477536ede83817f8f8b70
     Pseudo is Ultrasoft + core correction, Zval = 15.0
     Generated by new atomic code, or converted to UPF format
     Using radial grid of  983 points,  7 beta functions with:
                l(1) =   0
                l(2) =   0
                l(3) =   1
                l(4) =   1
                l(5) =   1
                l(6) =   2
                l(7) =   2
     Q(r) pseudized with  8 coefficients,  rinner =    1.350   1.350   1.350
                                                       1.350   1.350

     PseudoPot. # 3 for H  read from file:
     /home/camp/zhonxu/pseudo/h_pbe_v1.uspp.F.UPF
     MD5 check sum: 3408e3ff4ec8b0a4e358431e7e038a48
     Pseudo is Ultrasoft, Zval =  1.0
     Generated by new atomic code, or converted to UPF format
     Using radial grid of  615 points,  2 beta functions with:
                l(1) =   0
                l(2) =   0
     Q(r) pseudized with  8 coefficients,  rinner =    0.700

     atomic species   valence    mass     pseudopotential
        O0             6.00    15.99940     O ( 1.00)
        Ir1           15.00   192.22000     Ir( 1.00)
        H2             1.00     1.00794     H ( 1.00)

     Simplified LDA+U calculation (l_max = 2) with parameters (eV):
     atomic species    L          U    alpha       J0     beta
        Ir1            2     5.5000   0.0000   0.0000   0.0000

     No symmetry found

   Cartesian axes

     site n.     atom                  positions (alat units)
         1           O0  tau(   1) = (   0.0000000   0.0000000   1.5730185  )
         2           O0  tau(   2) = (   0.0000000   0.5047586   1.6673182  )
         3           Ir1 tau(   3) = (   0.2500000   0.5047586   1.8780178  )
         4           Ir1 tau(   4) = (   0.0000000   0.0000000   1.8842906  )
         5           O0  tau(   5) = (   0.2500000   0.8177090   1.8825458  )
         6           O0  tau(   6) = (   0.2500000   0.1918083   1.8810503  )
         7           O0  tau(   7) = (   0.0000000   0.5047586   2.0695666  )
         8           O0  tau(   8) = (   0.0000000   0.0000000   2.1991352  )
         9           Ir1 tau(   9) = (   0.2500000   0.0000000   2.3955860  )
        10           Ir1 tau(  10) = (   0.0000000   0.5047586   2.3764768  )
        11           O0  tau(  11) = (   0.2500000   0.6965669   2.3975800  )
        12           O0  tau(  12) = (   0.2500000   0.3129503   2.3977461  )
        13           O0  tau(  13) = (   0.0000000   0.0000000   2.5806958  )
        14           O0  tau(  14) = (   0.5000000   0.0000000   1.5730185  )
        15           O0  tau(  15) = (   0.5000000   0.5047586   1.6673182  )
        16           Ir1 tau(  16) = (   0.7500000   0.5047586   1.8780178  )
        17           Ir1 tau(  17) = (   0.5000000   0.0000000   1.8842906  )
        18           O0  tau(  18) = (   0.7500000   0.8177090   1.8825458  )
        19           O0  tau(  19) = (   0.7500000   0.1918083   1.8810503  )
        20           O0  tau(  20) = (   0.5000000   0.5047586   2.0695666  )
        21           O0  tau(  21) = (   0.5000000   0.0000000   2.1991352  )
        22           Ir1 tau(  22) = (   0.7500000   0.0000000   2.3955860  )
        23           Ir1 tau(  23) = (   0.5000000   0.5047586   2.3764768  )
        24           O0  tau(  24) = (   0.7500000   0.6965669   2.3975800  )
        25           O0  tau(  25) = (   0.7500000   0.3129503   2.3977461  )
        26           O0  tau(  26) = (   0.5000000   0.0000000   2.5807374  )
        27           H2  tau(  27) = (  -0.0000500   0.6423962   1.5933324  )
        28           H2  tau(  28) = (   0.4999500   0.6423962   1.5933324  )
        29           H2  tau(  29) = (   0.1436500   0.0338188   1.5249132  )
        30           H2  tau(  30) = (   0.6436500   0.0338188   1.5249132  )

     number of k points=    10  Methfessel-Paxton smearing, width (Ry)=  0.0100
                       cart. coord. in units 2pi/alat
        k(    1) = (   0.0000000   0.0000000   0.0000000), wk =   0.1250000
        k(    2) = (   0.0000000   0.2476431   0.0000000), wk =   0.2500000
        k(    3) = (   0.0000000  -0.4952862   0.0000000), wk =   0.1250000
        k(    4) = (   0.2500000   0.0000000   0.0000000), wk =   0.2500000
        k(    5) = (   0.2500000   0.2476431   0.0000000), wk =   0.2500000
        k(    6) = (   0.2500000  -0.4952862   0.0000000), wk =   0.2500000
        k(    7) = (  -0.5000000   0.0000000   0.0000000), wk =   0.1250000
        k(    8) = (  -0.5000000   0.2476431   0.0000000), wk =   0.2500000
        k(    9) = (  -0.5000000  -0.4952862   0.0000000), wk =   0.1250000
        k(   10) = (  -0.2500000   0.2476431   0.0000000), wk =   0.2500000

     Largest allocated arrays     est. size (Mb)     dimensions
     Largest temporary arrays     est. size (Mb)     dimensions

     Check: negative/imaginary core charge=   -0.000003    0.000000

     Initial potential from superposition of free atoms
     Check: negative starting charge=   -3.334716

     starting charge  227.99968, renormalised to  232.00000

     negative rho (up, down):  0.339E+01 0.000E+00
     Number of +U iterations with fixed ns =  0
     Starting occupations:
 --- enter write_ns ---
 LDA+U parameters:
U( 2)     =  5.50000000
alpha( 2) =  0.00000000
atom    3   Tr[ns(na)] =   7.00000
    eigenvalues:
  0.700  0.700  0.700  0.700  0.700
    eigenvectors:
  1.000  0.000  0.000  0.000  0.000
  0.000  1.000  0.000  0.000  0.000
  0.000  0.000  1.000  0.000  0.000
  0.000  0.000  0.000  1.000  0.000
  0.000  0.000  0.000  0.000  1.000
    occupations:
  0.700  0.000  0.000  0.000  0.000
  0.000  0.700  0.000  0.000  0.000
  0.000  0.000  0.700  0.000  0.000
  0.000  0.000  0.000  0.700  0.000
  0.000  0.000  0.000  0.000  0.700
atom    4   Tr[ns(na)] =   7.00000
    eigenvalues:
  0.700  0.700  0.700  0.700  0.700
    eigenvectors:
  1.000  0.000  0.000  0.000  0.000
  0.000  1.000  0.000  0.000  0.000
  0.000  0.000  1.000  0.000  0.000
  0.000  0.000  0.000  1.000  0.000
  0.000  0.000  0.000  0.000  1.000
    occupations:
  0.700  0.000  0.000  0.000  0.000
  0.000  0.700  0.000  0.000  0.000
  0.000  0.000  0.700  0.000  0.000
  0.000  0.000  0.000  0.700  0.000
  0.000  0.000  0.000  0.000  0.700
atom    9   Tr[ns(na)] =   7.00000
    eigenvalues:
  0.700  0.700  0.700  0.700  0.700
    eigenvectors:
  1.000  0.000  0.000  0.000  0.000
  0.000  1.000  0.000  0.000  0.000
  0.000  0.000  1.000  0.000  0.000
  0.000  0.000  0.000  1.000  0.000
  0.000  0.000  0.000  0.000  1.000
    occupations:
  0.700  0.000  0.000  0.000  0.000
  0.000  0.700  0.000  0.000  0.000
  0.000  0.000  0.700  0.000  0.000
  0.000  0.000  0.000  0.700  0.000
  0.000  0.000  0.000  0.000  0.700
atom   10   Tr[ns(na)] =   7.00000
    eigenvalues:
  0.700  0.700  0.700  0.700  0.700
    eigenvectors:
  1.000  0.000  0.000  0.000  0.000
  0.000  1.000  0.000  0.000  0.000
  0.000  0.000  1.000  0.000  0.000
  0.000  0.000  0.000  1.000  0.000
  0.000  0.000  0.000  0.000  1.000
    occupations:
  0.700  0.000  0.000  0.000  0.000
  0.000  0.700  0.000  0.000  0.000
  0.000  0.000  0.700  0.000  0.000
  0.000  0.000  0.000  0.700  0.000
  0.000  0.000  0.000  0.000  0.700
atom   16   Tr[ns(na)] =   7.00000
    eigenvalues:
  0.700  0.700  0.700  0.700  0.700
    eigenvectors:
  1.000  0.000  0.000  0.000  0.000
  0.000  1.000  0.000  0.000  0.000
  0.000  0.000  1.000  0.000  0.000
  0.000  0.000  0.000  1.000  0.000
  0.000  0.000  0.000  0.000  1.000
    occupations:
  0.700  0.000  0.000  0.000  0.000
  0.000  0.700  0.000  0.000  0.000
  0.000  0.000  0.700  0.000  0.000
  0.000  0.000  0.000  0.700  0.000
  0.000  0.000  0.000  0.000  0.700
atom   17   Tr[ns(na)] =   7.00000
    eigenvalues:
  0.700  0.700  0.700  0.700  0.700
    eigenvectors:
  1.000  0.000  0.000  0.000  0.000
  0.000  1.000  0.000  0.000  0.000
  0.000  0.000  1.000  0.000  0.000
  0.000  0.000  0.000  1.000  0.000
  0.000  0.000  0.000  0.000  1.000
    occupations:
  0.700  0.000  0.000  0.000  0.000
  0.000  0.700  0.000  0.000  0.000
  0.000  0.000  0.700  0.000  0.000
  0.000  0.000  0.000  0.700  0.000
  0.000  0.000  0.000  0.000  0.700
atom   22   Tr[ns(na)] =   7.00000
    eigenvalues:
  0.700  0.700  0.700  0.700  0.700
    eigenvectors:
  1.000  0.000  0.000  0.000  0.000
  0.000  1.000  0.000  0.000  0.000
  0.000  0.000  1.000  0.000  0.000
  0.000  0.000  0.000  1.000  0.000
  0.000  0.000  0.000  0.000  1.000
    occupations:
  0.700  0.000  0.000  0.000  0.000
  0.000  0.700  0.000  0.000  0.000
  0.000  0.000  0.700  0.000  0.000
[...]
 -0.001  0.012  0.887 -0.000  0.001
  0.032  0.000 -0.000  0.982  0.000
  0.001 -0.002  0.001  0.000  0.620
atom    9   Tr[ns(na)] =   8.17532
    eigenvalues:
  0.653  0.669  0.871  0.910  0.985
    eigenvectors:
  0.000  0.142  0.000  0.000  0.858
  1.000  0.000  0.000  0.000  0.000
  0.000  0.000  1.000  0.000  0.000
  0.000  0.857  0.000  0.000  0.142
  0.000  0.000  0.000  1.000  0.000
    occupations:
  0.940  0.000 -0.000 -0.110 -0.000
  0.000  0.653  0.000  0.000 -0.000
 -0.000  0.000  0.871 -0.000 -0.000
 -0.110  0.000 -0.000  0.714  0.001
 -0.000 -0.000 -0.000  0.001  0.910
atom   10   Tr[ns(na)] =   8.14117
    eigenvalues:
  0.577  0.611  0.943  0.955  0.985
    eigenvectors:
  0.993  0.000  0.000  0.000  0.007
  0.000  0.000  1.000  0.000  0.000
  0.000  0.000  0.000  1.000  0.000
  0.007  0.000  0.000  0.000  0.993
  0.000  1.000  0.000  0.000  0.000
    occupations:
  0.580  0.000  0.001  0.033 -0.000
  0.000  0.943 -0.000  0.000 -0.000
  0.001 -0.000  0.955 -0.000  0.000
  0.033  0.000 -0.000  0.982  0.000
 -0.000 -0.000  0.000  0.000  0.611
atom   16   Tr[ns(na)] =   8.19777
    eigenvalues:
  0.602  0.629  0.915  0.975  0.979
    eigenvectors:
  0.000  0.190  0.003  0.001  0.806
  1.000  0.000  0.000  0.000  0.000
  0.000  0.000  0.996  0.000  0.003
  0.000  0.810  0.000  0.000  0.190
  0.000  0.000  0.000  0.999  0.001
    occupations:
  0.912 -0.000  0.002 -0.137 -0.000
 -0.000  0.602 -0.000 -0.000 -0.005
  0.002 -0.000  0.915 -0.004  0.001
 -0.137 -0.000 -0.004  0.695 -0.000
 -0.000 -0.005  0.001 -0.000  0.975
atom   17   Tr[ns(na)] =   8.18711
    eigenvalues:
  0.620  0.670  0.884  0.934  0.986
    eigenvectors:
  0.000  0.989  0.000  0.000  0.011
  0.000  0.000  0.065  0.935  0.000
  0.000  0.000  0.935  0.065  0.000
  0.000  0.011  0.000  0.000  0.989
  0.999  0.000  0.000  0.000  0.000
    occupations:
  0.674 -0.003 -0.001  0.032  0.001
 -0.003  0.930  0.012  0.000 -0.002
 -0.001  0.012  0.887 -0.000  0.001
  0.032  0.000 -0.000  0.982  0.000
  0.001 -0.002  0.001  0.000  0.620
atom   22   Tr[ns(na)] =   8.17546
    eigenvalues:
  0.653  0.669  0.871  0.910  0.985
    eigenvectors:
  0.000  0.142  0.000  0.000  0.858
  1.000  0.000  0.000  0.000  0.000
  0.000  0.000  1.000  0.000  0.000
  0.000  0.857  0.000  0.000  0.142
  0.000  0.000  0.000  1.000  0.000
    occupations:
  0.940  0.000 -0.000 -0.110 -0.000
  0.000  0.653  0.000  0.000 -0.000
 -0.000  0.000  0.871 -0.000 -0.000
 -0.110  0.000 -0.000  0.714  0.001
 -0.000 -0.000 -0.000  0.001  0.910
atom   23   Tr[ns(na)] =   8.14115
    eigenvalues:
  0.577  0.611  0.943  0.955  0.985
    eigenvectors:
  0.993  0.000  0.000  0.000  0.007
  0.000  0.000  1.000  0.000  0.000
  0.000  0.000  0.000  1.000  0.000
  0.007  0.000  0.000  0.000  0.993
  0.000  1.000  0.000  0.000  0.000
    occupations:
  0.580  0.000  0.001  0.033 -0.000
  0.000  0.943 -0.000  0.000 -0.000
  0.001 -0.000  0.955 -0.000  0.000
  0.033  0.000 -0.000  0.982  0.000
 -0.000 -0.000  0.000  0.000  0.611
N of occupied +U levels =  65.4028728
 --- exit write_ns ---

     Threshold (ethr) on eigenvalues was too large:
     Diagonalizing with lowered threshold

     Davidson diagonalization with overlap
     ethr =  1.33E-08,  avg # of iterations =  2.0

[...]

     total energy              =   -2071.89351125 Ry
     Harris-Foulkes estimate   =   -2071.89351125 Ry
     estimated scf accuracy    <       0.00000001 Ry

     iteration # 14     ecut=    40.00 Ry     beta=0.70
     Davidson diagonalization with overlap
     ethr =  5.55E-12,  avg # of iterations =  1.0

     negative rho (up, down):  0.314E+01 0.000E+00

     End of self-consistent calculation
 --- enter write_ns ---
 LDA+U parameters:
U( 2)     =  5.50000000
alpha( 2) =  0.00000000
atom    3   Tr[ns(na)] =   8.19695
    eigenvalues:
  0.601  0.629  0.915  0.975  0.979
    eigenvectors:
  0.000  0.190  0.003  0.001  0.806
  1.000  0.000  0.000  0.000  0.000
  0.000  0.000  0.996  0.000  0.003
  0.000  0.810  0.000  0.000  0.190
  0.000  0.000  0.000  0.999  0.001
    occupations:
  0.912 -0.000  0.002 -0.137 -0.000
 -0.000  0.602 -0.000 -0.000 -0.005
  0.002 -0.000  0.915 -0.004  0.001
 -0.137 -0.000 -0.004  0.695 -0.000
 -0.000 -0.005  0.001 -0.000  0.975
atom    4   Tr[ns(na)] =   8.18674
    eigenvalues:
  0.620  0.670  0.884  0.934  0.986
    eigenvectors:
  0.000  0.989  0.000  0.000  0.011
  0.000  0.000  0.065  0.935  0.000
  0.000  0.000  0.935  0.065  0.000
  0.000  0.011  0.000  0.000  0.989
  0.999  0.000  0.000  0.000  0.000
    occupations:
  0.674 -0.003 -0.001  0.032  0.001
 -0.003  0.930  0.012  0.000 -0.002
 -0.001  0.012  0.887 -0.000  0.001
  0.032  0.000 -0.000  0.982  0.000
  0.001 -0.002  0.001  0.000  0.620
atom    9   Tr[ns(na)] =   8.17606
    eigenvalues:
  0.653  0.669  0.871  0.911  0.985
    eigenvectors:
  0.000  0.142  0.000  0.000  0.858
  1.000  0.000  0.000  0.000  0.000
  0.000  0.000  1.000  0.000  0.000
  0.000  0.857  0.000  0.000  0.142
  0.000  0.000  0.000  1.000  0.000
    occupations:
  0.940  0.000 -0.000 -0.110 -0.000
  0.000  0.653  0.000  0.000 -0.000
 -0.000  0.000  0.871 -0.000 -0.000
 -0.110  0.000 -0.000  0.714  0.001
 -0.000 -0.000 -0.000  0.001  0.911
atom   10   Tr[ns(na)] =   8.14179
    eigenvalues:
  0.577  0.611  0.943  0.955  0.985
    eigenvectors:
  0.993  0.000  0.000  0.000  0.007
  0.000  0.000  1.000  0.000  0.000
  0.000  0.000  0.000  1.000  0.000
  0.007  0.000  0.000  0.000  0.993
  0.000  1.000  0.000  0.000  0.000
    occupations:
  0.580  0.000  0.001  0.033 -0.000
  0.000  0.943 -0.000  0.000 -0.000
  0.001 -0.000  0.955 -0.000  0.000
  0.033  0.000 -0.000  0.982  0.000
 -0.000 -0.000  0.000  0.000  0.611
atom   16   Tr[ns(na)] =   8.19695
    eigenvalues:
  0.601  0.629  0.915  0.975  0.979
    eigenvectors:
  0.000  0.190  0.003  0.001  0.806
  1.000  0.000  0.000  0.000  0.000
  0.000  0.000  0.996  0.000  0.003
  0.000  0.810  0.000  0.000  0.190
  0.000  0.000  0.000  0.999  0.001
    occupations:
  0.912 -0.000  0.002 -0.137 -0.000
 -0.000  0.602 -0.000 -0.000 -0.005
  0.002 -0.000  0.915 -0.004  0.001
 -0.137 -0.000 -0.004  0.695 -0.000
 -0.000 -0.005  0.001 -0.000  0.975
atom   17   Tr[ns(na)] =   8.18673
    eigenvalues:
  0.620  0.670  0.884  0.934  0.986
    eigenvectors:
  0.000  0.989  0.000  0.000  0.011
  0.000  0.000  0.065  0.935  0.000
  0.000  0.000  0.935  0.065  0.000
  0.000  0.011  0.000  0.000  0.989
  0.999  0.000  0.000  0.000  0.000
    occupations:
  0.674 -0.003 -0.001  0.032  0.001
 -0.003  0.930  0.012  0.000 -0.002
 -0.001  0.012  0.887 -0.000  0.001
  0.032  0.000 -0.000  0.982  0.000
  0.001 -0.002  0.001  0.000  0.620
atom   22   Tr[ns(na)] =   8.17604
    eigenvalues:
  0.653  0.669  0.871  0.911  0.985
    eigenvectors:
  0.000  0.142  0.000  0.000  0.858
  1.000  0.000  0.000  0.000  0.000
  0.000  0.000  1.000  0.000  0.000
  0.000  0.857  0.000  0.000  0.142
  0.000  0.000  0.000  1.000  0.000
    occupations:
  0.940  0.000 -0.000 -0.110 -0.000
  0.000  0.653  0.000  0.000 -0.000
 -0.000  0.000  0.871 -0.000 -0.000
 -0.110  0.000 -0.000  0.714  0.001
 -0.000 -0.000 -0.000  0.001  0.911
atom   23   Tr[ns(na)] =   8.14179
    eigenvalues:
  0.577  0.611  0.943  0.955  0.985
    eigenvectors:
  0.993  0.000  0.000  0.000  0.007
  0.000  0.000  1.000  0.000  0.000
  0.000  0.000  0.000  1.000  0.000
  0.007  0.000  0.000  0.000  0.993
  0.000  1.000  0.000  0.000  0.000
    occupations:
  0.580  0.000  0.001  0.033 -0.000
  0.000  0.943 -0.000  0.000 -0.000
  0.001 -0.000  0.955 -0.000  0.000
  0.033  0.000 -0.000  0.982  0.000
 -0.000 -0.000  0.000  0.000  0.611
N of occupied +U levels =  65.4030501
 --- exit write_ns ---

[...]

          k = 0.2500-0.4953 0.0000 ( 31088 PWs)   bands (ev):

[...]

          k =-0.2500 0.2476 0.0000 ( 31099 PWs)   bands (ev):

   -50.4284 -50.4238 -50.4194 -50.3590 -50.3446 -50.3441 -50.3171 -50.3068
   -50.2783 -50.2731 -50.2431 -50.2312 -50.1963 -50.1879 -50.0770 -50.0400
   -50.0357 -50.0061 -49.9710 -49.9602 -49.9597 -49.9501 -49.9097 -49.8991
   -21.4238 -21.1086 -21.0875 -21.0420 -20.6784 -20.6248 -20.5747 -20.4447
   -20.3712 -20.3247 -20.1643 -20.1303 -19.9589 -19.9285 -19.8549 -19.6864
   -18.8991 -18.7649 -10.5535 -10.3855 -10.2006 -10.0637  -9.6961  -9.5841
    -9.5321  -9.4056  -9.1479  -8.9139  -8.9072  -8.8186  -8.6844  -8.5724
    -8.4744  -8.3445  -8.1305  -8.1113  -7.8130  -7.6447  -7.5121  -7.4850
    -7.2952  -7.2227  -7.1581  -7.0328  -6.9940  -6.6879  -6.6136  -6.5363
    -6.4085  -6.3713  -6.2418  -6.1271  -6.1005  -6.0916  -5.9829  -5.8171
    -5.7079  -5.6009  -5.4397  -5.3149  -5.0716  -4.8856  -4.8503  -4.7640
    -4.6215  -4.4352  -4.3828  -4.2692  -3.8764  -3.8650  -3.8127  -3.5959
    -3.5669  -3.4853  -3.4079  -3.3566  -3.2707  -3.2252  -3.0653  -2.9835
    -2.9695  -2.8793  -2.7314  -2.6440  -2.5119  -2.4477  -2.1583  -1.8868
    -1.6516  -1.4480  -1.4450  -1.2124  -1.1908  -0.9378  -0.7695  -0.5854
    -0.0824   0.1020   1.0510   1.1438   1.6627   1.7607   1.8367   2.2731
     2.4841   2.7447   2.9455   2.9619   3.2336   3.2603   3.4007   3.4666
     3.8045   4.3478   4.7279   5.1426   5.4106   5.6023   5.6855   5.8878
     6.1338   6.2906   6.5198   6.5630   6.6106   6.8029   7.0170   7.0595
     7.3286   7.3914   7.4841   7.6757   7.6960   7.8825   8.0189   8.0925
     8.1651   8.3367   8.4509   8.4738   8.5915   8.8120   8.8142   8.9239
     8.9286   9.1726   9.2408   9.2546   9.3500   9.5383   9.5687   9.5736
     9.6366   9.6547   9.6583   9.6618   9.6620   9.7082   9.7907   9.8148
     9.8229  10.0093  10.0590  10.0879  10.1980  10.2919  10.2958  10.4170
    10.4250  10.5298  10.6099  10.7339  10.7956  10.8327  10.9802  11.0319
    11.0608  11.2648  11.3469  11.4329  11.5415  11.5759  11.7206  11.7534
    11.7822  11.9452  12.1053  12.1166  12.1607  12.2841  12.3759  12.3978
    12.5073  12.5803  12.6412  12.7342  12.7774  12.7985  12.8176  12.9181
    13.0862  13.1553  13.1635  13.2549  13.3345  13.3536  13.5135  13.6498
    13.6559  13.7494  13.8745  13.8804  14.0084  14.0139  14.1046  14.1342
    14.2706  14.3650  14.4105  14.5403  14.5765  14.7544  14.7717  14.8910
    14.9106  15.2098  15.2531  15.3662  15.3750  15.5309  15.5732  15.5843
    15.6187  15.7445  15.7866  15.8288  15.8592  15.8907  15.9688  16.0335
    16.0793  16.1473  16.1678  16.2860  16.3307  16.4017  16.4272  16.4505
    16.6191  16.6530  16.7189  16.7415  16.8145  16.8383  17.0776  17.1298
    17.2079  17.3598  17.3712  17.4331  17.4338  17.4756  17.5549  17.5743
    17.6350  17.7327  17.7553  17.8240  17.8914  17.8937  17.9729  17.9887
    18.1703  18.2300  18.3044  18.3921  18.4782  18.4951  18.5997  18.6180
    18.8190  18.8362  18.9135  18.9633  19.0318  19.1308  19.1377  19.2214
    19.2843  19.2887  19.3521  19.4808  19.6014  19.6095  19.7247  19.7746
    19.8250  19.9459  20.0103  20.1217  20.1406  20.3080  20.3388  20.3596
    20.4834  20.5624  20.6181  20.6641  20.7111  20.7801  20.8137  20.8996
    20.9137  20.9879  21.0445  21.1282  21.1669  21.2659  21.3101  21.3423
    21.3605  21.4460  21.4700  21.5635

     the Fermi energy is    -1.2199 ev

!    total energy              =   -2071.89351125 Ry
     Harris-Foulkes estimate   =   -2071.89351125 Ry
     estimated scf accuracy    <          1.1E-09 Ry

     The total energy is the sum of the following terms:

     one-electron contribution =  -22075.83634476 Ry
     hartree contribution      =   11081.23619522 Ry
     xc contribution           =    -569.42247632 Ry
     ewald contribution        =    9490.12383661 Ry
     Hubbard energy            =       2.00683217 Ry
     smearing contrib. (-TS)   =      -0.00155417 Ry

     convergence has been achieved in  14 iterations

     Forces acting on atoms (Ry/au):

     negative rho (up, down):  0.314E+01 0.000E+00
     atom    1 type  1   force =    -0.00721815   -0.01271664   -0.00004294
     atom    2 type  1   force =     0.00005884    0.00309144   -0.00049548
     atom    3 type  2   force =     0.00013962    0.00613410   -0.00009644
     atom    4 type  2   force =     0.00882954    0.00742699   -0.00018946
     atom    5 type  1   force =    -0.00482023   -0.01456223   -0.00042153
     atom    6 type  1   force =     0.00634442    0.01296398   -0.00029330
     atom    7 type  1   force =    -0.00045541   -0.00230465    0.00038931
     atom    8 type  1   force =    -0.00327359   -0.00047530   -0.00014665
     atom    9 type  2   force =     0.00114438    0.00016129   -0.00013559
     atom   10 type  2   force =    -0.00000224   -0.00111049    0.00039415
     atom   11 type  1   force =    -0.00008582    0.02038542    0.00020691
     atom   12 type  1   force =     0.00020360   -0.02008805    0.00021373
     atom   13 type  1   force =    -0.00078642   -0.00008691   -0.00015068
     atom   14 type  1   force =    -0.00722062   -0.01271755   -0.00003878
     atom   15 type  1   force =     0.00006197    0.00309040   -0.00049525
     atom   16 type  2   force =     0.00014011    0.00613395   -0.00009718
     atom   17 type  2   force =     0.00883193    0.00742671   -0.00018800
     atom   18 type  1   force =    -0.00482601   -0.01456249   -0.00042193
     atom   19 type  1   force =     0.00633890    0.01296453   -0.00029394
     atom   20 type  1   force =    -0.00045150   -0.00230468    0.00039144
     atom   21 type  1   force =    -0.00326586   -0.00047521   -0.00013425
     atom   22 type  2   force =     0.00113364    0.00016171   -0.00013331
     atom   23 type  2   force =     0.00000092   -0.00111050    0.00039611
     atom   24 type  1   force =    -0.00008841    0.02039018    0.00020787
     atom   25 type  1   force =     0.00020104   -0.02009280    0.00021462
     atom   26 type  1   force =    -0.00077539   -0.00008691   -0.00017070
     atom   27 type  3   force =     0.00002265    0.00075389    0.00078936
     atom   28 type  3   force =     0.00002271    0.00075536    0.00078844
     atom   29 type  3   force =    -0.00010653    0.00042625   -0.00002137
     atom   30 type  3   force =    -0.00009809    0.00042824   -0.00002514

     Total force =     0.002192     Total SCF correction =     0.000086

     bfgs converged in   9 scf cycles and   8 bfgs steps
     (criteria: energy < 0.10E-03, force < 0.10E-02)

     End of BFGS Geometry Optimization

     Final energy   =   -2071.8935112453 Ry
Begin final coordinates

ATOMIC_POSITIONS (crystal)
O0       0.000000000   0.000000000   0.379051065    0   0   1
O0       0.000000000   0.500000000   0.402323655    0   0   1
Ir1      0.250000000   0.500000000   0.452667158    0   0   1
Ir1      0.000000000   0.000000000   0.453575792    0   0   1
O0       0.250000000   0.810000000   0.453499269    0   0   1
O0       0.250000000   0.190000000   0.452970968    0   0   1
O0       0.000000000   0.500000000   0.499064871    0   0   1
O0       0.000000000   0.000000000   0.528995005    0   0   1
Ir1      0.250000000   0.000000000   0.575804930    0   0   1
Ir1      0.000000000   0.500000000   0.572074201    0   0   1
O0       0.250000000   0.690000000   0.575913880    0   0   1
O0       0.250000000   0.310000000   0.575923191    0   0   1
O0       0.000000000   0.000000000   0.620461667    0   0   1
O0       0.500000000   0.000000000   0.379051136    0   0   1
O0       0.500000000   0.500000000   0.402323709    0   0   1
Ir1      0.750000000   0.500000000   0.452667244    0   0   1
Ir1      0.500000000   0.000000000   0.453575663    0   0   1
O0       0.750000000   0.810000000   0.453499509    0   0   1
O0       0.750000000   0.190000000   0.452971211    0   0   1
O0       0.500000000   0.500000000   0.499064724    0   0   1
O0       0.500000000   0.000000000   0.528994551    0   0   1
Ir1      0.750000000   0.000000000   0.575804818    0   0   1
Ir1      0.500000000   0.500000000   0.572074052    0   0   1
O0       0.750000000   0.690000000   0.575913373    0   0   1
O0       0.750000000   0.310000000   0.575922702    0   0   1
O0       0.500000000   0.000000000   0.620462346    0   0   1
H2      -0.000231549   0.635494382   0.384366104
H2       0.499768517   0.635494172   0.384366155
H2       0.143435969   0.034653528   0.367493427
H2       0.643435399   0.034653468   0.367493625
End final coordinates

     General routines

     Parallel routines
     Hubbard U routines

   This run was terminated on:   9:19:24   6May2014

   JOB DONE.
Running PBS batch system epilogue script
Job id: 340768.audhumbla.fysik.dtu.dk
Username: zhonxu
Groupname: campgst
Jobname: IrO2/Eads-2-layers/bare-U-5.5
Sessionid: 2673
Queuename: verylong
Accounting:
This job has allocated the following 16 nodes:
b053 b053 b053 b053 b053 b053 b053 b053 b040 b040 b040 b040 b040 b040 b040 b040
Finished epilogue job 340768.audhumbla.fysik.dtu.dk for zhonxu