     Program PWSCF v.5.0.2 (svn rev. 9656) starts on  6May2014 at  5: 1:19

     Current dimensions of program PWSCF are:
     Max number of different atomic species (ntypx) = 10
     Max number of k-points (npk) =  40000
     Max angular momentum in pseudopotentials (lmaxx) =  3
     Reading input from pwscf.in
Warning: card &CELL ignored
Warning: card / ignored

     Subspace diagonalization in iterative solution of the eigenvalue problem:
     a serial algorithm will be used

     bravais-lattice index     =            0
     lattice parameter (alat)  =      11.7919  a.u.
     unit-cell volume          =    7123.6633 (a.u.)^3
     number of atoms/cell      =           30
     number of atomic types    =            3
     number of electrons       =       240.00
     number of Kohn-Sham states=          348
     kinetic-energy cutoff     =      40.0000  Ry
     charge density cutoff     =     500.0000  Ry
     convergence threshold     =      1.0E-06
     mixing beta               =       0.7000
     number of iterations used =            8  plain     mixing
     Exchange-correlation      = SLA  PW   PBE  PBE ( 1 4 3 4 0)
     EXX-fraction              =        0.00
     nstep                     =           50

     celldm(1)=  11.791891  celldm(2)=   0.000000  celldm(3)=   0.000000
     celldm(4)=   0.000000  celldm(5)=   0.000000  celldm(6)=   0.000000

     crystal axes: (cart. coord. in units of alat)
               a(1) = (   1.000000   0.000000   0.000000 )
               a(2) = (   0.000000   1.026665   0.000000 )
               a(3) = (   0.000000   0.000000   4.231793 )

     reciprocal axes: (cart. coord. in units 2 pi/alat)
               b(1) = (  1.000000  0.000000  0.000000 )
               b(2) = (  0.000000  0.974028  0.000000 )
               b(3) = (  0.000000  0.000000  0.236306 )

     PseudoPot. # 1 for O  read from file:
     /home/camp/zhonxu/pseudo/o_pbe_v1.01.uspp.F.UPF
     MD5 check sum: 2bcb18d16ea4b960afae9ec6d52f22d2
     Pseudo is Ultrasoft + core correction, Zval =  6.0
     Generated by new atomic code, or converted to UPF format
     Using radial grid of  737 points,  5 beta functions with:
                l(1) =   0
                l(2) =   0
                l(3) =   1
                l(4) =   1
                l(5) =   2
     Q(r) pseudized with  8 coefficients,  rinner =    0.900   0.900   0.900
                                                       0.900   0.900

     PseudoPot. # 2 for Ru read from file:
     /home/camp/zhonxu/pseudo/ru_pbe_v1.uspp.F.UPF
     MD5 check sum: df00be1c11b23341d9806d8f1dfa10cf
     Pseudo is Ultrasoft + core correction, Zval = 16.0
     Generated by new atomic code, or converted to UPF format
     Using radial grid of  967 points,  6 beta functions with:
                l(1) =   0
                l(2) =   0
                l(3) =   1
                l(4) =   1
                l(5) =   2
                l(6) =   2
     Q(r) pseudized with  8 coefficients,  rinner =    1.300   1.300   1.300
                                                       1.300   1.300

     PseudoPot. # 3 for H  read from file:
     /home/camp/zhonxu/pseudo/h_pbe_v1.uspp.F.UPF
     MD5 check sum: 3408e3ff4ec8b0a4e358431e7e038a48
     Pseudo is Ultrasoft, Zval =  1.0
     Generated by new atomic code, or converted to UPF format
     Using radial grid of  615 points,  2 beta functions with:
                l(1) =   0
                l(2) =   0
     Q(r) pseudized with  8 coefficients,  rinner =    0.700

     atomic species   valence    mass     pseudopotential
        O0             6.00    15.99940     O ( 1.00)
        Ru1           16.00   101.07000     Ru( 1.00)
        H2             1.00     1.00794     H ( 1.00)

     Simplified LDA+U calculation (l_max = 2) with parameters (eV):
     atomic species    L          U    alpha       J0     beta
        Ru1            2     5.5000   0.0000   0.0000   0.0000

     No symmetry found

   Cartesian axes

     site n.     atom                  positions (alat units)
         1           O0  tau(   1) = (   0.0000000   0.0000000   1.6080390  )
         2           O0  tau(   2) = (   0.0000000   0.5133323   1.7023233  )
         3           Ru1 tau(   3) = (   0.2500000   0.5133323   1.9175523  )
         4           Ru1 tau(   4) = (   0.0000000   0.0000000   1.9215302  )
         5           O0  tau(   5) = (   0.2500000   0.8315984   1.9195836  )
         6           O0  tau(   6) = (   0.2500000   0.1950663   1.9193297  )
         7           O0  tau(   7) = (   0.0000000   0.5133323   2.1106490  )
         8           O0  tau(   8) = (   0.0000000   0.0000000   2.2345136  )
         9           Ru1 tau(   9) = (   0.2500000   0.0000000   2.4487269  )
        10           Ru1 tau(  10) = (   0.0000000   0.5133323   2.4113179  )
        11           O0  tau(  11) = (   0.2500000   0.7083986   2.4387399  )
        12           O0  tau(  12) = (   0.2500000   0.3182660   2.4402210  )
        13           O0  tau(  13) = (   0.0000000   0.0000000   2.6238385  )
        14           O0  tau(  14) = (   0.5000000   0.0000000   1.6080390  )
        15           O0  tau(  15) = (   0.5000000   0.5133323   1.7023233  )
        16           Ru1 tau(  16) = (   0.7500000   0.5133323   1.9175523  )
        17           Ru1 tau(  17) = (   0.5000000   0.0000000   1.9215302  )
        18           O0  tau(  18) = (   0.7500000   0.8315984   1.9195836  )
        19           O0  tau(  19) = (   0.7500000   0.1950663   1.9193297  )
        20           O0  tau(  20) = (   0.5000000   0.5133323   2.1106490  )
        21           O0  tau(  21) = (   0.5000000   0.0000000   2.2345136  )
        22           Ru1 tau(  22) = (   0.7500000   0.0000000   2.4487269  )
        23           Ru1 tau(  23) = (   0.5000000   0.5133323   2.4113179  )
        24           O0  tau(  24) = (   0.7500000   0.7083986   2.4387399  )
        25           O0  tau(  25) = (   0.7500000   0.3182660   2.4401787  )
        26           O0  tau(  26) = (   0.5000000   0.0000000   2.6238385  )
        27           H2  tau(  27) = (  -0.0004100   0.6466653   1.6162063  )
        28           H2  tau(  28) = (   0.4995900   0.6466653   1.6162063  )
        29           H2  tau(  29) = (   0.1464700   0.0296706   1.5559879  )
        30           H2  tau(  30) = (   0.6464700   0.0296706   1.5559879  )

     number of k points=    10  Methfessel-Paxton smearing, width (Ry)=  0.0100
                       cart. coord. in units 2pi/alat
        k(    1) = (   0.0000000   0.0000000   0.0000000), wk =   0.1250000
        k(    2) = (   0.0000000   0.2435070   0.0000000), wk =   0.2500000
        k(    3) = (   0.0000000  -0.4870139   0.0000000), wk =   0.1250000
        k(    4) = (   0.2500000   0.0000000   0.0000000), wk =   0.2500000
        k(    5) = (   0.2500000   0.2435070   0.0000000), wk =   0.2500000
        k(    6) = (   0.2500000  -0.4870139   0.0000000), wk =   0.2500000
        k(    7) = (  -0.5000000   0.0000000   0.0000000), wk =   0.1250000
        k(    8) = (  -0.5000000   0.2435070   0.0000000), wk =   0.2500000
        k(    9) = (  -0.5000000  -0.4870139   0.0000000), wk =   0.1250000
        k(   10) = (  -0.2500000   0.2435070   0.0000000), wk =   0.2500000

     Largest allocated arrays     est. size (Mb)     dimensions
     Largest temporary arrays     est. size (Mb)     dimensions

     Check: negative/imaginary core charge=   -0.000003    0.000000

     Initial potential from superposition of free atoms
     Check: negative starting charge=   -0.522083

     starting charge  231.99981, renormalised to  240.00000

     negative rho (up, down):  0.540E+00 0.000E+00
     Number of +U iterations with fixed ns =  0
     Starting occupations:
 --- enter write_ns ---
 LDA+U parameters:
U( 2)     =  5.50000000
alpha( 2) =  0.00000000
atom    3   Tr[ns(na)] =   6.00000
    eigenvalues:
  0.600  0.600  0.600  0.600  0.600
    eigenvectors:
  1.000  0.000  0.000  0.000  0.000
  0.000  1.000  0.000  0.000  0.000
  0.000  0.000  1.000  0.000  0.000
  0.000  0.000  0.000  1.000  0.000
  0.000  0.000  0.000  0.000  1.000
    occupations:
  0.600  0.000  0.000  0.000  0.000
  0.000  0.600  0.000  0.000  0.000
  0.000  0.000  0.600  0.000  0.000
  0.000  0.000  0.000  0.600  0.000
  0.000  0.000  0.000  0.000  0.600
atom    4   Tr[ns(na)] =   6.00000
    eigenvalues:
  0.600  0.600  0.600  0.600  0.600
    eigenvectors:
  1.000  0.000  0.000  0.000  0.000
  0.000  1.000  0.000  0.000  0.000
  0.000  0.000  1.000  0.000  0.000
  0.000  0.000  0.000  1.000  0.000
  0.000  0.000  0.000  0.000  1.000
    occupations:
  0.600  0.000  0.000  0.000  0.000
  0.000  0.600  0.000  0.000  0.000
  0.000  0.000  0.600  0.000  0.000
  0.000  0.000  0.000  0.600  0.000
  0.000  0.000  0.000  0.000  0.600
atom    9   Tr[ns(na)] =   6.00000
    eigenvalues:
  0.600  0.600  0.600  0.600  0.600
    eigenvectors:
  1.000  0.000  0.000  0.000  0.000
  0.000  1.000  0.000  0.000  0.000
  0.000  0.000  1.000  0.000  0.000
  0.000  0.000  0.000  1.000  0.000
  0.000  0.000  0.000  0.000  1.000
    occupations:
  0.600  0.000  0.000  0.000  0.000
  0.000  0.600  0.000  0.000  0.000
  0.000  0.000  0.600  0.000  0.000
  0.000  0.000  0.000  0.600  0.000
  0.000  0.000  0.000  0.000  0.600
atom   10   Tr[ns(na)] =   6.00000
    eigenvalues:
  0.600  0.600  0.600  0.600  0.600
    eigenvectors:
  1.000  0.000  0.000  0.000  0.000
  0.000  1.000  0.000  0.000  0.000
  0.000  0.000  1.000  0.000  0.000
  0.000  0.000  0.000  1.000  0.000
  0.000  0.000  0.000  0.000  1.000
    occupations:
  0.600  0.000  0.000  0.000  0.000
  0.000  0.600  0.000  0.000  0.000
  0.000  0.000  0.600  0.000  0.000
  0.000  0.000  0.000  0.600  0.000
  0.000  0.000  0.000  0.000  0.600
atom   16   Tr[ns(na)] =   6.00000
    eigenvalues:
  0.600  0.600  0.600  0.600  0.600
    eigenvectors:
  1.000  0.000  0.000  0.000  0.000
  0.000  1.000  0.000  0.000  0.000
  0.000  0.000  1.000  0.000  0.000
  0.000  0.000  0.000  1.000  0.000
  0.000  0.000  0.000  0.000  1.000
    occupations:
  0.600  0.000  0.000  0.000  0.000
  0.000  0.600  0.000  0.000  0.000
  0.000  0.000  0.600  0.000  0.000
  0.000  0.000  0.000  0.600  0.000
  0.000  0.000  0.000  0.000  0.600
atom   17   Tr[ns(na)] =   6.00000
    eigenvalues:
  0.600  0.600  0.600  0.600  0.600
    eigenvectors:
  1.000  0.000  0.000  0.000  0.000
  0.000  1.000  0.000  0.000  0.000
  0.000  0.000  1.000  0.000  0.000
  0.000  0.000  0.000  1.000  0.000
  0.000  0.000  0.000  0.000  1.000
    occupations:
  0.600  0.000  0.000  0.000  0.000
  0.000  0.600  0.000  0.000  0.000
  0.000  0.000  0.600  0.000  0.000
  0.000  0.000  0.000  0.600  0.000
  0.000  0.000  0.000  0.000  0.600
atom   22   Tr[ns(na)] =   6.00000
    eigenvalues:
  0.600  0.600  0.600  0.600  0.600
    eigenvectors:
  1.000  0.000  0.000  0.000  0.000
  0.000  1.000  0.000  0.000  0.000
  0.000  0.000  1.000  0.000  0.000
  0.000  0.000  0.000  1.000  0.000
  0.000  0.000  0.000  0.000  1.000
    occupations:
  0.600  0.000  0.000  0.000  0.000
  0.000  0.600  0.000  0.000  0.000
  0.000  0.000  0.600  0.000  0.000
  0.000  0.000  0.000  0.600  0.000
[...]
  0.552  0.607  0.650  0.832  0.985
    eigenvectors:
  0.001  0.985  0.000  0.000  0.014
  0.000  0.000  0.017  0.982  0.000
  0.000  0.000  0.982  0.018  0.000
  0.000  0.014  0.000  0.000  0.986
  0.999  0.001  0.000  0.000  0.000
    occupations:
  0.612 -0.001  0.000  0.044  0.002
 -0.001  0.829  0.024 -0.001 -0.001
  0.000  0.024  0.654  0.002  0.000
  0.044 -0.001  0.002  0.979  0.000
  0.002 -0.001  0.000  0.000  0.552
atom    9   Tr[ns(na)] =   7.27854
    eigenvalues:
  0.559  0.581  0.759  0.865  0.876
    eigenvectors:
  0.000  0.136  0.003  0.515  0.347
  1.000  0.000  0.000  0.000  0.000
  0.000  0.000  0.996  0.002  0.001
  0.000  0.864  0.001  0.080  0.055
  0.000  0.000  0.000  0.403  0.596
    occupations:
  0.830  0.001 -0.007 -0.099  0.004
  0.001  0.559  0.002  0.000  0.001
 -0.007  0.002  0.759  0.001  0.000
 -0.099  0.000  0.001  0.620 -0.003
  0.004  0.001  0.000 -0.003  0.871
atom   10   Tr[ns(na)] =   7.28380
    eigenvalues:
  0.507  0.527  0.770  0.866  0.973
    eigenvectors:
  0.986  0.000  0.000  0.000  0.014
  0.000  0.000  0.000  1.000  0.000
  0.000  0.000  1.000  0.000  0.000
  0.014  0.000  0.000  0.000  0.986
  0.000  1.000  0.000  0.000  0.000
    occupations:
  0.514  0.000  0.001  0.055  0.000
  0.000  0.866  0.001  0.000 -0.001
  0.001  0.001  0.770 -0.003 -0.000
  0.055  0.000 -0.003  0.966 -0.000
  0.000 -0.001 -0.000 -0.000  0.527
atom   16   Tr[ns(na)] =   7.26668
    eigenvalues:
  0.498  0.547  0.713  0.899  0.977
    eigenvectors:
  0.000  0.182  0.008  0.000  0.810
  1.000  0.000  0.000  0.000  0.000
  0.000  0.001  0.985  0.000  0.014
  0.000  0.816  0.007  0.000  0.177
  0.000  0.000  0.000  1.000  0.000
    occupations:
  0.897  0.000  0.031 -0.164 -0.000
  0.000  0.498 -0.000 -0.000 -0.006
  0.031 -0.000  0.716 -0.008  0.001
 -0.164 -0.000 -0.008  0.624 -0.000
 -0.000 -0.006  0.001 -0.000  0.899
atom   17   Tr[ns(na)] =   7.25211
    eigenvalues:
  0.552  0.607  0.650  0.832  0.985
    eigenvectors:
  0.001  0.985  0.000  0.000  0.014
  0.000  0.000  0.017  0.982  0.000
  0.000  0.000  0.982  0.018  0.000
  0.000  0.014  0.000  0.000  0.986
  0.999  0.001  0.000  0.000  0.000
    occupations:
  0.612 -0.001  0.000  0.044  0.002
 -0.001  0.829  0.024 -0.001 -0.001
  0.000  0.024  0.654  0.002  0.000
  0.044 -0.001  0.002  0.979  0.000
  0.002 -0.001  0.000  0.000  0.552
atom   22   Tr[ns(na)] =   7.27897
    eigenvalues:
  0.559  0.581  0.759  0.865  0.876
    eigenvectors:
  0.000  0.136  0.003  0.514  0.347
  1.000  0.000  0.000  0.000  0.000
  0.000  0.000  0.996  0.002  0.001
  0.000  0.864  0.001  0.079  0.055
  0.000  0.000  0.000  0.404  0.596
    occupations:
  0.830  0.001 -0.007 -0.099  0.004
  0.001  0.559  0.002  0.000  0.001
 -0.007  0.002  0.759  0.001  0.000
 -0.099  0.000  0.001  0.620 -0.003
  0.004  0.001  0.000 -0.003  0.871
atom   23   Tr[ns(na)] =   7.28337
    eigenvalues:
  0.507  0.526  0.770  0.866  0.973
    eigenvectors:
  0.986  0.000  0.000  0.000  0.014
  0.000  0.000  0.000  1.000  0.000
  0.000  0.000  1.000  0.000  0.000
  0.014  0.000  0.000  0.000  0.986
  0.000  1.000  0.000  0.000  0.000
    occupations:
  0.514  0.000  0.001  0.055  0.000
  0.000  0.866  0.001  0.000 -0.001
  0.001  0.001  0.770 -0.003 -0.000
  0.055  0.000 -0.003  0.966 -0.000
  0.000 -0.001 -0.000 -0.000  0.526
N of occupied +U levels =  58.1623372
 --- exit write_ns ---

     Threshold (ethr) on eigenvalues was too large:
     Diagonalizing with lowered threshold

     Davidson diagonalization with overlap
     ethr =  5.69E-08,  avg # of iterations =  2.0

[...]

     total energy              =   -2128.43895657 Ry
     Harris-Foulkes estimate   =   -2128.43895658 Ry
     estimated scf accuracy    <       0.00000007 Ry

     iteration # 15     ecut=    40.00 Ry     beta=0.70
     Davidson diagonalization with overlap
     ethr =  7.50E-12,  avg # of iterations =  1.0

     negative rho (up, down):  0.569E+00 0.000E+00

     End of self-consistent calculation
 --- enter write_ns ---
 LDA+U parameters:
U( 2)     =  5.50000000
alpha( 2) =  0.00000000
atom    3   Tr[ns(na)] =   7.26920
    eigenvalues:
  0.498  0.547  0.714  0.899  0.977
    eigenvectors:
  0.000  0.182  0.008  0.000  0.810
  1.000  0.000  0.000  0.000  0.000
  0.000  0.001  0.985  0.000  0.014
  0.000  0.816  0.007  0.000  0.177
  0.000  0.000  0.000  1.000  0.000
    occupations:
  0.897  0.000  0.030 -0.164 -0.000
  0.000  0.498 -0.000 -0.000 -0.006
  0.030 -0.000  0.717 -0.008  0.001
 -0.164 -0.000 -0.008  0.624 -0.000
 -0.000 -0.006  0.001 -0.000  0.899
atom    4   Tr[ns(na)] =   7.25374
    eigenvalues:
  0.552  0.607  0.651  0.832  0.985
    eigenvectors:
  0.001  0.985  0.000  0.000  0.014
  0.000  0.000  0.018  0.982  0.000
  0.000  0.000  0.982  0.018  0.000
  0.000  0.014  0.000  0.000  0.986
  0.999  0.001  0.000  0.000  0.000
    occupations:
  0.612 -0.001  0.000  0.044  0.002
 -0.001  0.829  0.024 -0.001 -0.001
  0.000  0.024  0.654  0.002  0.000
  0.044 -0.001  0.002  0.979  0.000
  0.002 -0.001  0.000  0.000  0.552
atom    9   Tr[ns(na)] =   7.27654
    eigenvalues:
  0.559  0.581  0.758  0.865  0.875
    eigenvectors:
  0.000  0.136  0.002  0.523  0.339
  1.000  0.000  0.000  0.000  0.000
  0.000  0.000  0.997  0.002  0.001
  0.000  0.864  0.001  0.081  0.054
  0.000  0.000  0.000  0.394  0.606
    occupations:
  0.829  0.001 -0.006 -0.098  0.004
  0.001  0.559  0.002  0.000  0.001
 -0.006  0.002  0.759  0.001  0.000
 -0.098  0.000  0.001  0.620 -0.003
  0.004  0.001  0.000 -0.003  0.871
atom   10   Tr[ns(na)] =   7.28215
    eigenvalues:
  0.507  0.526  0.770  0.866  0.972
    eigenvectors:
  0.986  0.000  0.000  0.000  0.014
  0.000  0.000  0.000  1.000  0.000
  0.000  0.000  1.000  0.000  0.000
  0.014  0.000  0.000  0.000  0.986
  0.000  1.000  0.000  0.000  0.000
    occupations:
  0.513  0.000  0.001  0.055  0.000
  0.000  0.866  0.001  0.000 -0.001
  0.001  0.001  0.770 -0.003 -0.000
  0.055  0.000 -0.003  0.966 -0.000
  0.000 -0.001 -0.000 -0.000  0.527
atom   16   Tr[ns(na)] =   7.26919
    eigenvalues:
  0.498  0.547  0.714  0.899  0.977
    eigenvectors:
  0.000  0.182  0.008  0.000  0.810
  1.000  0.000  0.000  0.000  0.000
  0.000  0.001  0.985  0.000  0.014
  0.000  0.816  0.007  0.000  0.177
  0.000  0.000  0.000  1.000  0.000
    occupations:
  0.897  0.000  0.030 -0.164 -0.000
  0.000  0.498 -0.000 -0.000 -0.006
  0.030 -0.000  0.717 -0.008  0.001
 -0.164 -0.000 -0.008  0.624 -0.000
 -0.000 -0.006  0.001 -0.000  0.899
atom   17   Tr[ns(na)] =   7.25371
    eigenvalues:
  0.552  0.607  0.651  0.832  0.985
    eigenvectors:
  0.001  0.985  0.000  0.000  0.014
  0.000  0.000  0.018  0.982  0.000
  0.000  0.000  0.982  0.018  0.000
  0.000  0.014  0.000  0.000  0.986
  0.999  0.001  0.000  0.000  0.000
    occupations:
  0.612 -0.001  0.000  0.044  0.002
 -0.001  0.829  0.024 -0.001 -0.001
  0.000  0.024  0.654  0.002  0.000
  0.044 -0.001  0.002  0.979  0.000
  0.002 -0.001  0.000  0.000  0.552
atom   22   Tr[ns(na)] =   7.27658
    eigenvalues:
  0.559  0.581  0.758  0.865  0.875
    eigenvectors:
  0.000  0.136  0.002  0.523  0.339
  1.000  0.000  0.000  0.000  0.000
  0.000  0.000  0.997  0.002  0.001
  0.000  0.864  0.001  0.081  0.054
  0.000  0.000  0.000  0.394  0.606
    occupations:
  0.829  0.001 -0.006 -0.098  0.004
  0.001  0.559  0.002  0.000  0.001
 -0.006  0.002  0.759  0.001  0.000
 -0.098  0.000  0.001  0.620 -0.003
  0.004  0.001  0.000 -0.003  0.871
atom   23   Tr[ns(na)] =   7.28211
    eigenvalues:
  0.507  0.526  0.770  0.866  0.972
    eigenvectors:
  0.986  0.000  0.000  0.000  0.014
  0.000  0.000  0.000  1.000  0.000
  0.000  0.000  1.000  0.000  0.000
  0.014  0.000  0.000  0.000  0.986
  0.000  1.000  0.000  0.000  0.000
    occupations:
  0.513  0.000  0.001  0.055  0.000
  0.000  0.866  0.001  0.000 -0.001
  0.001  0.001  0.770 -0.003 -0.000
  0.055  0.000 -0.003  0.966 -0.000
  0.000 -0.001 -0.000 -0.000  0.526
N of occupied +U levels =  58.1632174
 --- exit write_ns ---

[...]

          k = 0.2500-0.4870 0.0000 ( 30468 PWs)   bands (ev):

[...]

          k =-0.2500 0.2435 0.0000 ( 30434 PWs)   bands (ev):

   -73.7491 -73.7418 -73.6600 -73.6519 -73.4065 -73.3986 -73.2614 -73.2543
   -44.0800 -44.0714 -43.7999 -43.7904 -43.7841 -43.6987 -43.6871 -43.6776
   -43.6534 -43.6468 -43.6128 -43.5923 -43.5701 -43.4941 -43.4586 -43.4581
   -43.4428 -43.3116 -43.2612 -43.2409 -43.2137 -43.1915 -43.1805 -43.0568
   -20.7298 -20.3041 -20.2567 -20.1957 -20.1529 -19.9885 -19.8041 -19.7903
   -19.6648 -19.6342 -19.5723 -19.3297 -19.3072 -19.2280 -19.1255 -19.0368
   -19.0178 -18.8765  -9.4203  -8.9792  -8.9558  -8.7768  -8.6469  -8.4284
    -8.3805  -8.3255  -7.8491  -7.8406  -7.7491  -7.6718  -7.5345  -7.4570
    -7.4324  -7.4226  -7.3386  -7.2036  -6.9912  -6.7770  -6.7369  -6.4546
    -6.2499  -6.2388  -6.1291  -6.0155  -5.9590  -5.7927  -5.6785  -5.6214
    -5.5175  -5.4825  -5.3794  -5.2259  -5.1282  -5.0833  -4.9566  -4.9562
    -4.8344  -4.8285  -4.6643  -4.5470  -4.3396  -4.2309  -4.1659  -4.1144
    -4.0411  -3.8809  -3.8469  -3.6015  -3.5128  -3.2821  -3.2191  -2.9714
    -2.8211  -2.7292  -2.6076  -2.5710  -2.4656  -2.4309  -2.3832  -2.1871
    -2.1867  -2.0596  -1.9851  -1.9787  -1.6662  -1.6217  -1.4886  -1.2545
    -1.0069  -0.7937  -0.6746  -0.5652  -0.4478  -0.3379  -0.2146   0.0951
     1.0046   1.1585   1.8730   1.9529   2.0731   2.5164   2.6728   2.9323
     3.1193   3.3459   3.5309   3.5378   3.6262   3.7522   3.9444   3.9905
     4.0431   4.4136   4.6217   5.0638   5.5241   5.6926   5.7603   6.0602
     6.1178   6.3665   6.5093   6.5105   6.7690   6.8453   6.9210   7.1487
     7.4556   7.5164   7.8200   7.9015   7.9441   8.2049   8.2380   8.3499
     8.4972   8.5533   8.7283   8.7506   8.8521   9.0202   9.1784   9.2394
     9.3153   9.5045   9.5308   9.7926   9.7939   9.9924   9.9937  10.0752
    10.0763  10.2700  10.3286  10.4064  10.4450  10.5956  10.6237  10.8064
    10.8495  10.8886  11.0693  11.1797  11.3274  11.3705  11.4662  11.5405
    11.5821  11.6635  11.7292  11.8369  11.8940  11.9973  12.0323  12.0995
    12.1728  12.3162  12.4007  12.4500  12.5541  12.5947  12.6880  12.7271
    12.7872  12.9080  12.9092  12.9885  13.0497  13.1578  13.2314  13.3745
    13.3778  13.4818  13.6401  13.6739  13.7263  13.7858  13.8727  14.0018
    14.0508  14.1286  14.2243  14.3551  14.3675  14.4255  14.5771  14.6027
    14.6380  14.7719  14.8653  14.9616  14.9959  15.0692  15.1042  15.2478
    15.2763  15.4039  15.4726  15.5170  15.6678  15.7307  15.7661  15.8089
    15.8215  15.9282  15.9464  15.9835  16.0275  16.0967  16.1577  16.1836
    16.2993  16.4278  16.4578  16.5440  16.5941  16.7177  16.7190  16.8334
    16.8632  16.8908  17.0205  17.0363  17.1405  17.2195  17.3321  17.4065
    17.4199  17.4810  17.5044  17.5843  17.6356  17.6463  17.7120  17.8279
    17.8818  17.8905  17.9757  18.0051  18.0626  18.1485  18.1634  18.3200
    18.3203  18.4494  18.5553  18.6417  18.6597  18.7432  18.7630  18.8807
    18.9765  19.0294  19.1072  19.1869  19.2468  19.2735  19.3830  19.4158
    19.4839  19.6261  19.7005  19.7732  19.8494  19.8518  19.9117  20.0173
    20.1278  20.1966  20.2546  20.4397  20.4442  20.5880  20.6707  20.7414
    20.7924  20.8265  20.9092  20.9137  21.0186  21.0876  21.0941  21.1319
    21.2441  21.2660  21.3249  21.3481  21.3871  21.4731  21.4996  21.6227
    21.6826  21.7134  21.8323  21.8689

     the Fermi energy is    -1.1440 ev

!    total energy              =   -2128.43895657 Ry
     Harris-Foulkes estimate   =   -2128.43895658 Ry
     estimated scf accuracy    <          6.7E-09 Ry

     The total energy is the sum of the following terms:

     one-electron contribution =  -24516.90018114 Ry
     hartree contribution      =   12282.07986417 Ry
     xc contribution           =    -330.92221147 Ry
     ewald contribution        =   10434.55205639 Ry
     Hubbard energy            =       2.75014539 Ry
     smearing contrib. (-TS)   =       0.00137009 Ry

     convergence has been achieved in  15 iterations

     Forces acting on atoms (Ry/au):

     negative rho (up, down):  0.569E+00 0.000E+00
     atom    1 type  1   force =    -0.00449935   -0.00809768    0.00030984
     atom    2 type  1   force =    -0.00013621    0.00323348   -0.00022899
     atom    3 type  2   force =    -0.00018739    0.00452921   -0.00046461
     atom    4 type  2   force =     0.00260092    0.00462684    0.00043181
     atom    5 type  1   force =    -0.00014526   -0.03614103    0.00028334
     atom    6 type  1   force =     0.00330693    0.03593320    0.00013000
     atom    7 type  1   force =    -0.00012115   -0.00216407    0.00011853
     atom    8 type  1   force =     0.00014044   -0.00085991    0.00055426
     atom    9 type  2   force =     0.00081181    0.00101045    0.00005151
     atom   10 type  2   force =     0.00013647   -0.00122442   -0.00013424
     atom   11 type  1   force =    -0.00029800    0.02239220   -0.00007420
     atom   12 type  1   force =     0.00025127   -0.02295983   -0.00013628
     atom   13 type  1   force =    -0.00166196   -0.00021524   -0.00037940
     atom   14 type  1   force =    -0.00448927   -0.00809645    0.00032198
     atom   15 type  1   force =    -0.00013133    0.00323377   -0.00022504
     atom   16 type  2   force =    -0.00018736    0.00452519   -0.00046575
     atom   17 type  2   force =     0.00260141    0.00462672    0.00043162
     atom   18 type  1   force =    -0.00015359   -0.03614096    0.00028098
     atom   19 type  1   force =     0.00329849    0.03593421    0.00012566
     atom   20 type  1   force =    -0.00012597   -0.00216409    0.00014068
     atom   21 type  1   force =     0.00012808   -0.00086006    0.00053910
     atom   22 type  2   force =     0.00081310    0.00101213    0.00003078
     atom   23 type  2   force =     0.00012835   -0.00122455   -0.00014113
     atom   24 type  1   force =    -0.00030925    0.02238676   -0.00006480
     atom   25 type  1   force =     0.00024021   -0.02295980   -0.00011552
     atom   26 type  1   force =    -0.00167117   -0.00021542   -0.00037456
     atom   27 type  3   force =     0.00001647    0.00008064   -0.00008456
     atom   28 type  3   force =     0.00001630    0.00008205   -0.00008504
     atom   29 type  3   force =    -0.00018372   -0.00014113   -0.00038812
     atom   30 type  3   force =    -0.00018927   -0.00014220   -0.00038786

     Total force =     0.001655     Total SCF correction =     0.000190
     SCF correction compared to forces is large: reduce conv_thr to get better values

     bfgs converged in  16 scf cycles and  15 bfgs steps
     (criteria: energy < 0.10E-03, force < 0.10E-02)

     End of BFGS Geometry Optimization

     Final energy   =   -2128.4389565723 Ry
Begin final coordinates

ATOMIC_POSITIONS (crystal)
O0       0.000000000   0.000000000   0.381192051    0   0   1
O0       0.000000000   0.500000000   0.402804636    0   0   1
Ru1      0.250000000   0.500000000   0.452958130    0   0   1
Ru1      0.000000000   0.000000000   0.454681043    0   0   1
O0       0.250000000   0.810000000   0.453916403    0   0   1
O0       0.250000000   0.190000000   0.453764719    0   0   1
O0       0.000000000   0.500000000   0.499724916    0   0   1
O0       0.000000000   0.000000000   0.527149486    0   0   1
Ru1      0.250000000   0.000000000   0.578489103    0   0   1
Ru1      0.000000000   0.500000000   0.569813133    0   0   1
O0       0.250000000   0.690000000   0.575609527    0   0   1
O0       0.250000000   0.310000000   0.575836918    0   0   1
O0       0.000000000   0.000000000   0.619999070    0   0   1
O0       0.500000000   0.000000000   0.381191418    0   0   1
O0       0.500000000   0.500000000   0.402804334    0   0   1
Ru1      0.750000000   0.500000000   0.452958324    0   0   1
Ru1      0.500000000   0.000000000   0.454680860    0   0   1
O0       0.750000000   0.810000000   0.453916670    0   0   1
O0       0.750000000   0.190000000   0.453765139    0   0   1
O0       0.500000000   0.500000000   0.499724164    0   0   1
O0       0.500000000   0.000000000   0.527149933    0   0   1
Ru1      0.750000000   0.000000000   0.578489258    0   0   1
Ru1      0.500000000   0.500000000   0.569812788    0   0   1
O0       0.750000000   0.690000000   0.575607997    0   0   1
O0       0.750000000   0.310000000   0.575833437    0   0   1
O0       0.500000000   0.000000000   0.619998959    0   0   1
H2      -0.000670219   0.620801384   0.379687480
H2       0.499330081   0.620802182   0.379687445
H2       0.146865660   0.027114997   0.368811279
H2       0.646867163   0.027115743   0.368811381
End final coordinates

     General routines

     Parallel routines
     Hubbard U routines

   This run was terminated on:  23:44:35   6May2014

   JOB DONE.