     Program PWSCF v.5.0.2 (svn rev. 9656) starts on 24Jan2014 at 14:41:51

     Current dimensions of program PWSCF are:
     Max number of different atomic species (ntypx) = 10
     Max number of k-points (npk) =  40000
     Max angular momentum in pseudopotentials (lmaxx) =  3
     Reading input from MnO2-v-0.95.in

     Subspace diagonalization in iterative solution of the eigenvalue problem:
     a serial algorithm will be used

     bravais-lattice index     =            0
     lattice parameter (alat)  =       8.2767  a.u.
     unit-cell volume          =     365.3967 (a.u.)^3
     number of atoms/cell      =            6
     number of atomic types    =            2
     number of electrons       =        54.00
     number of Kohn-Sham states=           78
     kinetic-energy cutoff     =      40.0000  Ry
     charge density cutoff     =     500.0000  Ry
     convergence threshold     =      1.0E-06
     mixing beta               =       0.3000
     number of iterations used =            8  plain     mixing
     Exchange-correlation      = SLA  PW   PBE  PBE ( 1 4 3 4 0)
     EXX-fraction              =        0.00
     nstep                     =           50

     celldm(1)=   8.276747  celldm(2)=   0.000000  celldm(3)=   0.000000
     celldm(4)=   0.000000  celldm(5)=   0.000000  celldm(6)=   0.000000

     crystal axes: (cart. coord. in units of alat)
               a(1) = (   1.000000   0.000000   0.000000 )
               a(2) = (   0.000000   1.000000   0.000000 )
               a(3) = (   0.000000   0.000000   0.644444 )

     reciprocal axes: (cart. coord. in units 2 pi/alat)
               b(1) = (  1.000000  0.000000  0.000000 )
               b(2) = (  0.000000  1.000000  0.000000 )
               b(3) = (  0.000000  0.000000  1.551724 )

     PseudoPot. # 1 for Mn read from file:
     /home/camp/zhonxu/pseudo/mn_pbe_v1.uspp.F.UPF
     MD5 check sum: 5fd7c7b5c956fd19902447332617373a
     Pseudo is Ultrasoft + core correction, Zval = 15.0
     Generated by new atomic code, or converted to UPF format
     Using radial grid of  859 points,  6 beta functions with:
                l(1) =   0
                l(2) =   0
                l(3) =   1
                l(4) =   1
                l(5) =   2
                l(6) =   2
     Q(r) pseudized with  6 coefficients,  rinner =    1.150   1.150   1.150
                                                       1.150   1.150

     PseudoPot. # 2 for O  read from file:
     /home/camp/zhonxu/pseudo/o_pbe_v1.01.uspp.F.UPF
     MD5 check sum: 2bcb18d16ea4b960afae9ec6d52f22d2
     Pseudo is Ultrasoft + core correction, Zval =  6.0
     Generated by new atomic code, or converted to UPF format
     Using radial grid of  737 points,  5 beta functions with:
                l(1) =   0
                l(2) =   0
                l(3) =   1
                l(4) =   1
                l(5) =   2
     Q(r) pseudized with  8 coefficients,  rinner =    0.900   0.900   0.900
                                                       0.900   0.900

     atomic species   valence    mass     pseudopotential
        Mn0           15.00    54.93800     Mn( 1.00)
        O1             6.00    15.99940     O ( 1.00)

     Starting magnetic structure
     atomic species   magnetization
        Mn0          0.000
        O1           0.000

     16 Sym. Ops., with inversion, found ( 8 have fractional translation)

   Cartesian axes

     site n.     atom                  positions (alat units)
         1           Mn0 tau(   1) = (   0.0000000   0.0000000   0.0000000  )
         2           Mn0 tau(   2) = (   0.5000000   0.5000000   0.3222222  )
         3           O1  tau(   3) = (   0.3050000   0.3050000   0.0000000  )
         4           O1  tau(   4) = (  -0.3050000  -0.3050000   0.0000000  )
         5           O1  tau(   5) = (   0.8050000   0.1950000   0.3222222  )
         6           O1  tau(   6) = (   0.1950000   0.8050000   0.3222222  )

     number of k points=    36  Methfessel-Paxton smearing, width (Ry)=  0.0100
                       cart. coord. in units 2pi/alat
        k(    1) = (   0.0000000   0.0000000   0.0000000), wk =   0.0080000
        k(    2) = (   0.0000000   0.0000000   0.3103448), wk =   0.0160000
        k(    3) = (   0.0000000   0.0000000   0.6206897), wk =   0.0160000
        k(    4) = (   0.0000000   0.2000000   0.0000000), wk =   0.0320000
        k(    5) = (   0.0000000   0.2000000   0.3103448), wk =   0.0640000
        k(    6) = (   0.0000000   0.2000000   0.6206897), wk =   0.0640000
        k(    7) = (   0.0000000   0.4000000   0.0000000), wk =   0.0320000
        k(    8) = (   0.0000000   0.4000000   0.3103448), wk =   0.0640000
        k(    9) = (   0.0000000   0.4000000   0.6206897), wk =   0.0640000
        k(   10) = (   0.2000000   0.2000000   0.0000000), wk =   0.0320000
        k(   11) = (   0.2000000   0.2000000   0.3103448), wk =   0.0640000
        k(   12) = (   0.2000000   0.2000000   0.6206897), wk =   0.0640000
        k(   13) = (   0.2000000   0.4000000   0.0000000), wk =   0.0640000
        k(   14) = (   0.2000000   0.4000000   0.3103448), wk =   0.1280000
        k(   15) = (   0.2000000   0.4000000   0.6206897), wk =   0.1280000
        k(   16) = (   0.4000000   0.4000000   0.0000000), wk =   0.0320000
        k(   17) = (   0.4000000   0.4000000   0.3103448), wk =   0.0640000
        k(   18) = (   0.4000000   0.4000000   0.6206897), wk =   0.0640000
        k(   19) = (   0.0000000   0.0000000   0.0000000), wk =   0.0080000
        k(   20) = (   0.0000000   0.0000000   0.3103448), wk =   0.0160000
        k(   21) = (   0.0000000   0.0000000   0.6206897), wk =   0.0160000
        k(   22) = (   0.0000000   0.2000000   0.0000000), wk =   0.0320000
        k(   23) = (   0.0000000   0.2000000   0.3103448), wk =   0.0640000
        k(   24) = (   0.0000000   0.2000000   0.6206897), wk =   0.0640000
        k(   25) = (   0.0000000   0.4000000   0.0000000), wk =   0.0320000
        k(   26) = (   0.0000000   0.4000000   0.3103448), wk =   0.0640000
        k(   27) = (   0.0000000   0.4000000   0.6206897), wk =   0.0640000
        k(   28) = (   0.2000000   0.2000000   0.0000000), wk =   0.0320000
        k(   29) = (   0.2000000   0.2000000   0.3103448), wk =   0.0640000
        k(   30) = (   0.2000000   0.2000000   0.6206897), wk =   0.0640000
        k(   31) = (   0.2000000   0.4000000   0.0000000), wk =   0.0640000
        k(   32) = (   0.2000000   0.4000000   0.3103448), wk =   0.1280000
        k(   33) = (   0.2000000   0.4000000   0.6206897), wk =   0.1280000
        k(   34) = (   0.4000000   0.4000000   0.0000000), wk =   0.0320000
        k(   35) = (   0.4000000   0.4000000   0.3103448), wk =   0.0640000
        k(   36) = (   0.4000000   0.4000000   0.6206897), wk =   0.0640000

     Largest allocated arrays     est. size (Mb)     dimensions
     Largest temporary arrays     est. size (Mb)     dimensions

     Check: negative/imaginary core charge=   -0.000063    0.000000

     Initial potential from superposition of free atoms

     starting charge   51.99998, renormalised to   54.00000
     Starting wfc are   42 randomized atomic wfcs

     Self-consistent Calculation

     iteration #  1     ecut=    40.00 Ry     beta=0.30
     Davidson diagonalization with overlap
     ethr =  1.00E-02,  avg # of iterations =  4.9

     total energy              =    -554.13666077 Ry
     Harris-Foulkes estimate   =    -555.29818833 Ry
     estimated scf accuracy    <       2.47023998 Ry

     total magnetization       =    -0.00 Bohr mag/cell
     absolute magnetization    =     0.00 Bohr mag/cell

[...]

     End of self-consistent calculation

 ------ SPIN UP ------------

          k = 0.0000 0.0000 0.0000 (  1559 PWs)   bands (ev):

   -68.8340 -68.8306 -37.6424 -37.6424 -37.5490 -37.5490 -37.4437 -37.4328
    -9.1153  -7.2079  -6.8125  -6.8125   3.2338   4.1192   4.5346   5.6899
     5.6899   6.8866   6.8866   7.5850   9.3564   9.7612   9.7612   9.9073
    10.1889  10.5970  10.6009  10.6009  10.8156  12.3936  12.6526  15.0412
    15.0412  15.8508  19.2234  22.6728  22.6728  25.6193  26.0600  26.8507
    29.3411  30.4148  30.4148  31.1222  31.4449  35.2251  36.0946  36.2075
    36.2075  37.3917  37.3917  37.9356  38.4375  38.4375  38.4861  40.1175
    41.8109  42.4375  45.4697  45.5233  45.5233  45.5415  45.5415  47.4717
    49.0127  50.3639  50.3639  51.1242  52.4943  52.6797  52.6797  53.4554
    54.6924  55.3193  56.4781  56.4782  57.9102  57.9111

[...]

 ------ SPIN DOWN ----------

[...]

     the Fermi energy is    11.2638 ev

!    total energy              =    -554.87428667 Ry
     Harris-Foulkes estimate   =    -554.87428404 Ry
     estimated scf accuracy    <       0.00000006 Ry

     The total energy is the sum of the following terms:

     one-electron contribution =    -268.18255830 Ry
     hartree contribution      =     162.57340536 Ry
     xc contribution           =     -80.72411246 Ry
     ewald contribution        =    -368.54044089 Ry
     smearing contrib. (-TS)   =      -0.00058037 Ry

[...]

     convergence has been achieved in  10 iterations

     Forces acting on atoms (Ry/au):

     atom    1 type  1   force =     0.00000000    0.00000000    0.00000000
     atom    2 type  1   force =     0.00000000    0.00000000    0.00000000
     atom    3 type  2   force =    -0.01620642   -0.01620642    0.00000000
     atom    4 type  2   force =     0.01620642    0.01620642    0.00000000
     atom    5 type  2   force =    -0.01620642    0.01620642    0.00000000
     atom    6 type  2   force =     0.01620642   -0.01620642   -0.00000000

     Total force =     0.045839     Total SCF correction =     0.000122

     entering subroutine stress ...

          total   stress  (Ry/bohr**3)                   (kbar)     P=  -11.55
  -0.00000532   0.00000000   0.00000000         -0.78      0.00      0.00
   0.00000000  -0.00000532   0.00000000          0.00     -0.78      0.00
   0.00000000   0.00000000  -0.00022486          0.00      0.00    -33.08

     Volume is kept fixed: isostatic pressure set to zero

     BFGS Geometry Optimization

     number of scf cycles    =   1
     number of bfgs steps    =   0

     enthalpy new            =    -554.8742866709 Ry

     new trust radius        =       0.0229193366 bohr
     new conv_thr            =       0.0000010000 Ry

     new unit-cell volume =    365.39667 a.u.^3 (    54.14620 Ang^3 )

CELL_PARAMETERS (alat=  8.27674742)
   1.001832857   0.000000000   0.000000000
   0.000000000   1.001832857   0.000000000
   0.000000000   0.000000000   0.642088575

ATOMIC_POSITIONS (crystal)
Mn0      0.000000000   0.000000000   0.000000000    0   0   0
Mn0      0.500000000   0.500000000   0.500000000    0   0   0
O1       0.303041934   0.303041934   0.000000000    1   1   0
O1      -0.303041934  -0.303041934   0.000000000    1   1   0
O1       0.803041934   0.196958066   0.500000000    1   1   0
O1       0.196958066   0.803041934   0.500000000    1   1   0

     NEW-OLD atomic charge density approx. for the potential
     NEW k-points:
        k(    1) = (   0.0000000   0.0000000   0.0000000), wk =   0.0080000
[...]
        k(   23) = (   0.0000000   0.1996341   0.3114835), wk =   0.0640000
        k(   24) = (   0.0000000   0.1996341   0.6229670), wk =   0.0640000
        k(   25) = (   0.0000000   0.3992682   0.0000000), wk =   0.0320000
        k(   26) = (   0.0000000   0.3992682   0.3114835), wk =   0.0640000
        k(   27) = (   0.0000000   0.3992682   0.6229670), wk =   0.0640000
        k(   28) = (   0.1996341   0.1996341   0.0000000), wk =   0.0320000
        k(   29) = (   0.1996341   0.1996341   0.3114835), wk =   0.0640000
        k(   30) = (   0.1996341   0.1996341   0.6229670), wk =   0.0640000
        k(   31) = (   0.1996341   0.3992682   0.0000000), wk =   0.0640000
        k(   32) = (   0.1996341   0.3992682   0.3114835), wk =   0.1280000
        k(   33) = (   0.1996341   0.3992682   0.6229670), wk =   0.1280000
        k(   34) = (   0.3992682   0.3992682   0.0000000), wk =   0.0320000
        k(   35) = (   0.3992682   0.3992682   0.3114835), wk =   0.0640000
        k(   36) = (   0.3992682   0.3992682   0.6229670), wk =   0.0640000

[...]

     enthalpy old            =    -554.8742866709 Ry
     enthalpy new            =    -554.8764140755 Ry

     CASE: enthalpy_new < enthalpy_old

[...]

     Total force =     0.001530     Total SCF correction =     0.000328
     SCF correction compared to forces is large: reduce conv_thr to get better values

[...]

     Threshold (ethr) on eigenvalues was too large:
     Diagonalizing with lowered threshold

     Davidson diagonalization with overlap
     ethr =  9.23E-08,  avg # of iterations =  1.1

[...]

     number of scf cycles    =   6
     number of bfgs steps    =   5

     enthalpy old            =    -554.8794291757 Ry
     enthalpy new            =    -554.8794330189 Ry

     CASE: enthalpy_new < enthalpy_old

     new trust radius        =       0.0010478750 bohr
     new conv_thr            =       0.0000000100 Ry

     new unit-cell volume =    365.39667 a.u.^3 (    54.14620 Ang^3 )

[...]

ATOMIC_POSITIONS (crystal)
Mn0      0.000000000   0.000000000   0.000000000    0   0   0
Mn0      0.500000000   0.500000000   0.500000000    0   0   0
O1       0.297413757   0.297413757   0.000000000    1   1   0
O1      -0.297413757  -0.297413757   0.000000000    1   1   0
O1       0.797413757   0.202586243   0.500000000    1   1   0
O1       0.202586243   0.797413757   0.500000000    1   1   0

     NEW-OLD atomic charge density approx. for the potential
     NEW k-points:
        k(    1) = (   0.0000000   0.0000000   0.0000000), wk =   0.0080000
        k(    2) = (   0.0000000   0.0000000   0.3176058), wk =   0.0160000
        k(    3) = (   0.0000000   0.0000000   0.6352116), wk =   0.0160000
        k(    4) = (   0.0000000   0.1977006   0.0000000), wk =   0.0320000
        k(    5) = (   0.0000000   0.1977006   0.3176058), wk =   0.0640000
        k(    6) = (   0.0000000   0.1977006   0.6352116), wk =   0.0640000
        k(    7) = (   0.0000000   0.3954013   0.0000000), wk =   0.0320000
        k(    8) = (   0.0000000   0.3954013   0.3176058), wk =   0.0640000
        k(    9) = (   0.0000000   0.3954013   0.6352116), wk =   0.0640000
        k(   10) = (   0.1977006   0.1977006   0.0000000), wk =   0.0320000
        k(   11) = (   0.1977006   0.1977006   0.3176058), wk =   0.0640000
        k(   12) = (   0.1977006   0.1977006   0.6352116), wk =   0.0640000
        k(   13) = (   0.1977006   0.3954013   0.0000000), wk =   0.0640000
        k(   14) = (   0.1977006   0.3954013   0.3176058), wk =   0.1280000
        k(   15) = (   0.1977006   0.3954013   0.6352116), wk =   0.1280000
        k(   16) = (   0.3954013   0.3954013   0.0000000), wk =   0.0320000
        k(   17) = (   0.3954013   0.3954013   0.3176058), wk =   0.0640000
        k(   18) = (   0.3954013   0.3954013   0.6352116), wk =   0.0640000
        k(   19) = (   0.0000000   0.0000000   0.0000000), wk =   0.0080000
        k(   20) = (   0.0000000   0.0000000   0.3176058), wk =   0.0160000
        k(   21) = (   0.0000000   0.0000000   0.6352116), wk =   0.0160000
        k(   22) = (   0.0000000   0.1977006   0.0000000), wk =   0.0320000
        k(   23) = (   0.0000000   0.1977006   0.3176058), wk =   0.0640000
        k(   24) = (   0.0000000   0.1977006   0.6352116), wk =   0.0640000
        k(   25) = (   0.0000000   0.3954013   0.0000000), wk =   0.0320000
        k(   26) = (   0.0000000   0.3954013   0.3176058), wk =   0.0640000
        k(   27) = (   0.0000000   0.3954013   0.6352116), wk =   0.0640000
        k(   28) = (   0.1977006   0.1977006   0.0000000), wk =   0.0320000
        k(   29) = (   0.1977006   0.1977006   0.3176058), wk =   0.0640000
        k(   30) = (   0.1977006   0.1977006   0.6352116), wk =   0.0640000
        k(   31) = (   0.1977006   0.3954013   0.0000000), wk =   0.0640000
        k(   32) = (   0.1977006   0.3954013   0.3176058), wk =   0.1280000
        k(   33) = (   0.1977006   0.3954013   0.6352116), wk =   0.1280000
        k(   34) = (   0.3954013   0.3954013   0.0000000), wk =   0.0320000
        k(   35) = (   0.3954013   0.3954013   0.3176058), wk =   0.0640000
        k(   36) = (   0.3954013   0.3954013   0.6352116), wk =   0.0640000

[...]

     Threshold (ethr) on eigenvalues was too large:
     Diagonalizing with lowered threshold

     Davidson diagonalization with overlap
     ethr =  9.58E-10,  avg # of iterations =  2.0

[...]

     Total force =     0.000242     Total SCF correction =     0.000078
     SCF correction compared to forces is large: reduce conv_thr to get better values

[...]

     Volume is kept fixed: isostatic pressure set to zero

     bfgs converged in   7 scf cycles and   6 bfgs steps
     (criteria: energy < 0.10E-03, force < 0.10E-02, cell < 0.50E+00)

     End of BFGS Geometry Optimization

     Final enthalpy =    -554.8794340142 Ry
Begin final coordinates
     new unit-cell volume =    365.39667 a.u.^3 (    54.14620 Ang^3 )

CELL_PARAMETERS (alat=  8.27674742)
   1.011630578   0.000000000   0.000000000
   0.000000000   1.011630578   0.000000000
   0.000000000   0.000000000   0.629711447

ATOMIC_POSITIONS (crystal)
Mn0      0.000000000   0.000000000   0.000000000    0   0   0
Mn0      0.500000000   0.500000000   0.500000000    0   0   0
O1       0.297413757   0.297413757   0.000000000    1   1   0
O1      -0.297413757  -0.297413757   0.000000000    1   1   0
O1       0.797413757   0.202586243   0.500000000    1   1   0
O1       0.202586243   0.797413757   0.500000000    1   1   0
End final coordinates

     A final scf calculation at the relaxed structure.
     The G-vectors are recalculated for the final unit cell
     Results may differ from those at the preceding step.

     bravais-lattice index     =            0
     lattice parameter (alat)  =       8.2767  a.u.
     unit-cell volume          =     365.3967 (a.u.)^3
     number of atoms/cell      =            6
     number of atomic types    =            2
     number of electrons       =        54.00
     number of Kohn-Sham states=           78
     kinetic-energy cutoff     =      40.0000  Ry
     charge density cutoff     =     500.0000  Ry
     convergence threshold     =      1.0E-08
     mixing beta               =       0.3000
     number of iterations used =            8  plain     mixing
     Exchange-correlation      = SLA  PW   PBE  PBE ( 1 4 3 4 0)
     EXX-fraction              =        0.00

     celldm(1)=   8.276747  celldm(2)=   0.000000  celldm(3)=   0.000000
     celldm(4)=   0.000000  celldm(5)=   0.000000  celldm(6)=   0.000000

     crystal axes: (cart. coord. in units of alat)
               a(1) = (   1.011631   0.000000   0.000000 )
               a(2) = (   0.000000   1.011631   0.000000 )
               a(3) = (   0.000000   0.000000   0.629711 )

     reciprocal axes: (cart. coord. in units 2 pi/alat)
               b(1) = (  0.988503  0.000000  0.000000 )
               b(2) = (  0.000000  0.988503  0.000000 )
               b(3) = (  0.000000  0.000000  1.588029 )

     PseudoPot. # 1 for Mn read from file:
     /home/camp/zhonxu/pseudo/mn_pbe_v1.uspp.F.UPF
     MD5 check sum: 5fd7c7b5c956fd19902447332617373a
     Pseudo is Ultrasoft + core correction, Zval = 15.0
     Generated by new atomic code, or converted to UPF format
     Using radial grid of  859 points,  6 beta functions with:
                l(1) =   0
                l(2) =   0
                l(3) =   1
                l(4) =   1
                l(5) =   2
                l(6) =   2
     Q(r) pseudized with  6 coefficients,  rinner =    1.150   1.150   1.150
                                                       1.150   1.150

     PseudoPot. # 2 for O  read from file:
     /home/camp/zhonxu/pseudo/o_pbe_v1.01.uspp.F.UPF
     MD5 check sum: 2bcb18d16ea4b960afae9ec6d52f22d2
     Pseudo is Ultrasoft + core correction, Zval =  6.0
     Generated by new atomic code, or converted to UPF format
     Using radial grid of  737 points,  5 beta functions with:
                l(1) =   0
                l(2) =   0
                l(3) =   1
                l(4) =   1
                l(5) =   2
     Q(r) pseudized with  8 coefficients,  rinner =    0.900   0.900   0.900
                                                       0.900   0.900

     atomic species   valence    mass     pseudopotential
        Mn0           15.00    54.93800     Mn( 1.00)
        O1             6.00    15.99940     O ( 1.00)

     Starting magnetic structure
     atomic species   magnetization
        Mn0          0.000
        O1           0.000

     16 Sym. Ops., with inversion, found ( 8 have fractional translation)

   Cartesian axes

     site n.     atom                  positions (alat units)
         1           Mn0 tau(   1) = (   0.0000000   0.0000000   0.0000000  )
         2           Mn0 tau(   2) = (   0.5058153   0.5058153   0.3148557  )
         3           O1  tau(   3) = (   0.3008729   0.3008729   0.0000000  )
         4           O1  tau(   4) = (  -0.3008729  -0.3008729   0.0000000  )
         5           O1  tau(   5) = (   0.8066881   0.2049424   0.3148557  )
         6           O1  tau(   6) = (   0.2049424   0.8066881   0.3148557  )

     number of k points=    36  Methfessel-Paxton smearing, width (Ry)=  0.0100
                       cart. coord. in units 2pi/alat
        k(    1) = (   0.0000000   0.0000000   0.0000000), wk =   0.0080000
        k(    2) = (   0.0000000   0.0000000   0.3176058), wk =   0.0160000
        k(    3) = (   0.0000000   0.0000000   0.6352116), wk =   0.0160000
        k(    4) = (   0.0000000   0.1977006   0.0000000), wk =   0.0320000
        k(    5) = (   0.0000000   0.1977006   0.3176058), wk =   0.0640000
        k(    6) = (   0.0000000   0.1977006   0.6352116), wk =   0.0640000
        k(    7) = (   0.0000000   0.3954013   0.0000000), wk =   0.0320000
        k(    8) = (   0.0000000   0.3954013   0.3176058), wk =   0.0640000
        k(    9) = (   0.0000000   0.3954013   0.6352116), wk =   0.0640000
        k(   10) = (   0.1977006   0.1977006   0.0000000), wk =   0.0320000
        k(   11) = (   0.1977006   0.1977006   0.3176058), wk =   0.0640000
        k(   12) = (   0.1977006   0.1977006   0.6352116), wk =   0.0640000
        k(   13) = (   0.1977006   0.3954013   0.0000000), wk =   0.0640000
        k(   14) = (   0.1977006   0.3954013   0.3176058), wk =   0.1280000
        k(   15) = (   0.1977006   0.3954013   0.6352116), wk =   0.1280000
        k(   16) = (   0.3954013   0.3954013   0.0000000), wk =   0.0320000
        k(   17) = (   0.3954013   0.3954013   0.3176058), wk =   0.0640000
        k(   18) = (   0.3954013   0.3954013   0.6352116), wk =   0.0640000
        k(   19) = (   0.0000000   0.0000000   0.0000000), wk =   0.0080000
        k(   20) = (   0.0000000   0.0000000   0.3176058), wk =   0.0160000
        k(   21) = (   0.0000000   0.0000000   0.6352116), wk =   0.0160000
        k(   22) = (   0.0000000   0.1977006   0.0000000), wk =   0.0320000
        k(   23) = (   0.0000000   0.1977006   0.3176058), wk =   0.0640000
        k(   24) = (   0.0000000   0.1977006   0.6352116), wk =   0.0640000
        k(   25) = (   0.0000000   0.3954013   0.0000000), wk =   0.0320000
        k(   26) = (   0.0000000   0.3954013   0.3176058), wk =   0.0640000
        k(   27) = (   0.0000000   0.3954013   0.6352116), wk =   0.0640000
        k(   28) = (   0.1977006   0.1977006   0.0000000), wk =   0.0320000
        k(   29) = (   0.1977006   0.1977006   0.3176058), wk =   0.0640000
        k(   30) = (   0.1977006   0.1977006   0.6352116), wk =   0.0640000
        k(   31) = (   0.1977006   0.3954013   0.0000000), wk =   0.0640000
        k(   32) = (   0.1977006   0.3954013   0.3176058), wk =   0.1280000
        k(   33) = (   0.1977006   0.3954013   0.6352116), wk =   0.1280000
        k(   34) = (   0.3954013   0.3954013   0.0000000), wk =   0.0320000
        k(   35) = (   0.3954013   0.3954013   0.3176058), wk =   0.0640000
        k(   36) = (   0.3954013   0.3954013   0.6352116), wk =   0.0640000

     Largest allocated arrays     est. size (Mb)     dimensions
     Largest temporary arrays     est. size (Mb)     dimensions

     Check: negative/imaginary core charge=   -0.000064    0.000000

     Initial potential from superposition of free atoms

     starting charge   51.99998, renormalised to   54.00000
     Starting wfc are   42 randomized atomic wfcs

     Self-consistent Calculation

[...]

     total energy              =    -554.87941914 Ry
     Harris-Foulkes estimate   =    -554.87941849 Ry
     estimated scf accuracy    <       0.00000006 Ry

[...]

     iteration # 12     ecut=    40.00 Ry     beta=0.30
     Davidson diagonalization with overlap
     ethr =  4.10E-11,  avg # of iterations =  1.2

     End of self-consistent calculation

 ------ SPIN UP ------------

[...]

 ------ SPIN DOWN ----------

[...]

          k = 0.3954 0.3954 0.6352 (  1543 PWs)   bands (ev):

   -68.9107 -68.9106 -37.7091 -37.7090 -37.6547 -37.6532 -37.6395 -37.6387
    -7.3360  -7.2205  -7.1371  -7.0696   4.3089   4.4631   4.5850   4.6506
     5.7713   6.0689   6.6392   6.7310   8.0446   8.2040   8.9784   9.2431
    10.7287  11.2840  11.2888  11.2999  11.4430  11.8447  13.4699  14.2030
    14.2367  14.9330  23.0581  23.4300  24.4516  24.7623  26.8999  27.0148
    28.1024  28.2336  29.0104  29.0773  30.2153  30.4895  33.6883  35.4298
    35.7110  36.2992  37.0959  37.7675  41.3788  41.4570  42.3857  43.0591
    45.3675  45.8298  46.0972  47.0621  47.2624  47.4937  48.4103  48.8594
    49.8804  50.6708  51.2437  52.0740  52.1305  52.7440  53.1792  54.0808
    54.4601  55.0911  56.0580  56.1224  58.3042  58.9342

     the Fermi energy is    11.3175 ev

!    total energy              =    -554.87941978 Ry
     Harris-Foulkes estimate   =    -554.87941915 Ry
     estimated scf accuracy    <          2.1E-09 Ry

     The total energy is the sum of the following terms:

     one-electron contribution =    -268.42044017 Ry
     hartree contribution      =     162.59085292 Ry
     xc contribution           =     -80.70010540 Ry
     ewald contribution        =    -368.34940935 Ry
     smearing contrib. (-TS)   =      -0.00031778 Ry

     total magnetization       =     0.00 Bohr mag/cell
     absolute magnetization    =     0.00 Bohr mag/cell

     convergence has been achieved in  12 iterations

     Forces acting on atoms (Ry/au):

     atom    1 type  1   force =     0.00000000    0.00000000    0.00000000
     atom    2 type  1   force =     0.00000000    0.00000000    0.00000000
     atom    3 type  2   force =     0.00010360    0.00010360    0.00000000
     atom    4 type  2   force =    -0.00010360   -0.00010360    0.00000000
     atom    5 type  2   force =     0.00010360   -0.00010360    0.00000000
     atom    6 type  2   force =    -0.00010360    0.00010360    0.00000000

     Total force =     0.000293     Total SCF correction =     0.000010

     entering subroutine stress ...

          total   stress  (Ry/bohr**3)                   (kbar)     P=  -34.63
  -0.00022594   0.00000000   0.00000000        -33.24      0.00      0.00
   0.00000000  -0.00022594   0.00000000          0.00    -33.24      0.00
   0.00000000   0.00000000  -0.00025427          0.00      0.00    -37.40

     General routines

     Parallel routines

   This run was terminated on:  15: 4: 9  24Jan2014

   JOB DONE.
Running PBS batch system epilogue script
Job id: 252000.audhumbla.fysik.dtu.dk
Username: zhonxu
Groupname: campgst
Jobname: MnO2/fine-EOS/non-mag/MnO2-v-0.95
Sessionid: 13586
Queuename: verylong
Accounting:
This job has allocated the following 4 nodes:
q020 q020 q020 q020
Finished epilogue job 252000.audhumbla.fysik.dtu.dk for zhonxu