     Program PWSCF v.5.0.2 (svn rev. 9656) starts on 12May2014 at  8:41:56

     Current dimensions of program PWSCF are:
     Max number of different atomic species (ntypx) = 10
     Max number of k-points (npk) =  40000
     Max angular momentum in pseudopotentials (lmaxx) =  3
     Reading input from pwscf.in
Warning: card &CELL ignored
Warning: card / ignored

     Subspace diagonalization in iterative solution of the eigenvalue problem:
     a serial algorithm will be used

     bravais-lattice index     =            0
     lattice parameter (alat)  =      10.9604  a.u.
     unit-cell volume          =    8672.0454 (a.u.)^3
     number of atoms/cell      =           51
     number of atomic types    =            3
     number of electrons       =       429.00
     number of Kohn-Sham states=          619
     kinetic-energy cutoff     =      40.0000  Ry
     charge density cutoff     =     500.0000  Ry
     convergence threshold     =      1.0E-06
     mixing beta               =       0.3000
     number of iterations used =            8  plain     mixing
     Exchange-correlation      = SLA  PW   PBE  PBE ( 1 4 3 4 0)
     EXX-fraction              =        0.00
     nstep                     =           50

     celldm(1)=  10.960412  celldm(2)=   0.000000  celldm(3)=   0.000000
     celldm(4)=   0.000000  celldm(5)=   0.000000  celldm(6)=   0.000000

     crystal axes: (cart. coord. in units of alat)
               a(1) = (   1.000000   0.000000   0.000000 )
               a(2) = (   0.000000   1.067975   0.000000 )
               a(3) = (   0.000000   0.000000   6.167084 )

     reciprocal axes: (cart. coord. in units 2 pi/alat)
               b(1) = (  1.000000  0.000000  0.000000 )
               b(2) = (  0.000000  0.936351  0.000000 )
               b(3) = (  0.000000  0.000000  0.162151 )

     PseudoPot. # 1 for O  read from file:
     /home/camp/zhonxu/pseudo/o_pbe_v1.01.uspp.F.UPF
     MD5 check sum: 2bcb18d16ea4b960afae9ec6d52f22d2
     Pseudo is Ultrasoft + core correction, Zval =  6.0
     Generated by new atomic code, or converted to UPF format
     Using radial grid of  737 points,  5 beta functions with:
                l(1) =   0
                l(2) =   0
                l(3) =   1
                l(4) =   1
                l(5) =   2
     Q(r) pseudized with  8 coefficients,  rinner =    0.900   0.900   0.900
                                                       0.900   0.900

     PseudoPot. # 2 for Cr read from file:
     /home/camp/zhonxu/pseudo/cr_pbe_v1.uspp.F.UPF
     MD5 check sum: 68b6f918d1762dccfb11451fe85b0e0e
     Pseudo is Ultrasoft + core correction, Zval = 14.0
     Generated by new atomic code, or converted to UPF format
     Using radial grid of  857 points,  6 beta functions with:
                l(1) =   0
                l(2) =   0
                l(3) =   1
                l(4) =   1
                l(5) =   2
                l(6) =   2
     Q(r) pseudized with  6 coefficients,  rinner =    1.000   1.000   1.000
                                                       1.000   1.000

     PseudoPot. # 3 for H  read from file:
     /home/camp/zhonxu/pseudo/h_pbe_v1.uspp.F.UPF
     MD5 check sum: 3408e3ff4ec8b0a4e358431e7e038a48
     Pseudo is Ultrasoft, Zval =  1.0
     Generated by new atomic code, or converted to UPF format
     Using radial grid of  615 points,  2 beta functions with:
                l(1) =   0
                l(2) =   0
     Q(r) pseudized with  8 coefficients,  rinner =    0.700

     atomic species   valence    mass     pseudopotential
        O0             6.00    15.99940     O ( 1.00)
        Cr1           14.00    51.99600     Cr( 1.00)
        H2             1.00     1.00794     H ( 1.00)

     Starting magnetic structure
     atomic species   magnetization
        O0           0.000
        Cr1          0.600
        H2           0.000

      2 Sym. Ops. (no inversion) found

   Cartesian axes

     site n.     atom                  positions (alat units)
         1           O0  tau(   1) = (   0.0000000   0.5339875   2.0689949  )
         2           Cr1 tau(   2) = (   0.2500000   0.5339875   2.2825610  )
         3           Cr1 tau(   3) = (   0.0000000   0.0000000   2.2825610  )
         4           O0  tau(   4) = (   0.2500000   0.8543801   2.2825610  )
         5           O0  tau(   5) = (   0.2500000   0.2135950   2.2825610  )
         6           O0  tau(   6) = (   0.0000000   0.5339875   2.4961271  )
         7           O0  tau(   7) = (   0.0000000   0.0000000   2.6029410  )
         8           Cr1 tau(   8) = (   0.2500000   0.0000000   2.8165688  )
         9           Cr1 tau(   9) = (   0.0000000   0.5339875   2.8165688  )
        10           O0  tau(  10) = (   0.2500000   0.7475825   2.8165688  )
        11           O0  tau(  11) = (   0.2500000   0.3203925   2.8165688  )
        12           O0  tau(  12) = (   0.0000000   0.0000000   3.0301349  )
        13           O0  tau(  13) = (   0.0000000   0.5339875   3.1461377  )
        14           Cr1 tau(  14) = (   0.2500000   0.5339875   3.3524267  )
        15           Cr1 tau(  15) = (   0.0000000   0.0000000   3.3742582  )
        16           O0  tau(  16) = (   0.2500000   0.8575519   3.3646375  )
        17           O0  tau(  17) = (   0.2500000   0.2104231   3.3646375  )
        18           O0  tau(  18) = (   0.0000000   0.5339875   3.5754901  )
        19           O0  tau(  19) = (   0.0000000   0.0000000   3.6982767  )
        20           Cr1 tau(  20) = (   0.2500000   0.0000000   3.9359561  )
        21           Cr1 tau(  21) = (   0.0000000   0.5339875   3.8803907  )
        22           O0  tau(  22) = (   0.2500000   0.7373300   3.9313925  )
        23           O0  tau(  23) = (   0.2500000   0.3306451   3.9313925  )
        24           O0  tau(  24) = (   0.0000000   0.0000000   4.1178851  )
        25           O0  tau(  25) = (   0.5000000   0.5339875   2.0689949  )
        26           Cr1 tau(  26) = (   0.7500000   0.5339875   2.2825610  )
        27           Cr1 tau(  27) = (   0.5000000   0.0000000   2.2825610  )
        28           O0  tau(  28) = (   0.7500000   0.8543801   2.2825610  )
        29           O0  tau(  29) = (   0.7500000   0.2135950   2.2825610  )
        30           O0  tau(  30) = (   0.5000000   0.5339875   2.4961271  )
        31           O0  tau(  31) = (   0.5000000   0.0000000   2.6029410  )
        32           Cr1 tau(  32) = (   0.7500000   0.0000000   2.8165688  )
        33           Cr1 tau(  33) = (   0.5000000   0.5339875   2.8165688  )
        34           O0  tau(  34) = (   0.7500000   0.7475825   2.8165688  )
        35           O0  tau(  35) = (   0.7500000   0.3203925   2.8165688  )
        36           O0  tau(  36) = (   0.5000000   0.0000000   3.0301349  )
        37           O0  tau(  37) = (   0.5000000   0.5339875   3.1461377  )
        38           Cr1 tau(  38) = (   0.7500000   0.5339875   3.3524267  )
        39           Cr1 tau(  39) = (   0.5000000   0.0000000   3.3742582  )
        40           O0  tau(  40) = (   0.7500000   0.8575519   3.3646375  )
        41           O0  tau(  41) = (   0.7500000   0.2104231   3.3646375  )
        42           O0  tau(  42) = (   0.5000000   0.5339875   3.5754901  )
        43           O0  tau(  43) = (   0.5000000   0.0000000   3.6982767  )
        44           Cr1 tau(  44) = (   0.7500000   0.0000000   3.9359561  )
        45           Cr1 tau(  45) = (   0.5000000   0.5339875   3.8803907  )
        46           O0  tau(  46) = (   0.7500000   0.7373300   3.9313925  )
        47           O0  tau(  47) = (   0.7500000   0.3306451   3.9313925  )
        48           O0  tau(  48) = (   0.5000000   0.0000000   4.1178851  )
        49           O0  tau(  49) = (   0.5000000   0.5339875   4.2251924  )
        50           O0  tau(  50) = (   0.5000000   0.3331228   4.3434770  )
        51           H2  tau(  51) = (   0.5000000   0.3841720   4.5067814  )

     number of k points=    18  Methfessel-Paxton smearing, width (Ry)=  0.0100
                       cart. coord. in units 2pi/alat
        k(    1) = (   0.0000000   0.0000000   0.0000000), wk =   0.0625000
        k(    2) = (   0.0000000   0.2340879   0.0000000), wk =   0.1250000
        k(    3) = (   0.0000000  -0.4681757   0.0000000), wk =   0.0625000
        k(    4) = (   0.2500000   0.0000000   0.0000000), wk =   0.1250000
        k(    5) = (   0.2500000   0.2340879   0.0000000), wk =   0.2500000
        k(    6) = (   0.2500000  -0.4681757   0.0000000), wk =   0.1250000
        k(    7) = (  -0.5000000   0.0000000   0.0000000), wk =   0.0625000
        k(    8) = (  -0.5000000   0.2340879   0.0000000), wk =   0.1250000
        k(    9) = (  -0.5000000  -0.4681757   0.0000000), wk =   0.0625000
        k(   10) = (   0.0000000   0.0000000   0.0000000), wk =   0.0625000
        k(   11) = (   0.0000000   0.2340879   0.0000000), wk =   0.1250000
        k(   12) = (   0.0000000  -0.4681757   0.0000000), wk =   0.0625000
        k(   13) = (   0.2500000   0.0000000   0.0000000), wk =   0.1250000
        k(   14) = (   0.2500000   0.2340879   0.0000000), wk =   0.2500000
        k(   15) = (   0.2500000  -0.4681757   0.0000000), wk =   0.1250000
        k(   16) = (  -0.5000000   0.0000000   0.0000000), wk =   0.0625000
        k(   17) = (  -0.5000000   0.2340879   0.0000000), wk =   0.1250000
        k(   18) = (  -0.5000000  -0.4681757   0.0000000), wk =   0.0625000

     Largest allocated arrays     est. size (Mb)     dimensions
     Largest temporary arrays     est. size (Mb)     dimensions

     Check: negative/imaginary core charge=   -0.000015    0.000000

     Initial potential from superposition of free atoms
     Check: negative starting charge=(component1):   -0.001986
     Check: negative starting charge=(component2):   -0.000507

     starting charge  412.99975, renormalised to  429.00000

     negative rho (up, down):  0.206E-02 0.527E-03
     Starting wfc are  297 randomized atomic wfcs

     Self-consistent Calculation

     iteration #  1     ecut=    40.00 Ry     beta=0.30
     Davidson diagonalization with overlap
     ethr =  1.00E-02,  avg # of iterations =  5.6

     negative rho (up, down):  0.211E-02 0.799E-03

     total energy              =   -3549.32470443 Ry
     Harris-Foulkes estimate   =   -3916.80224782 Ry
     estimated scf accuracy    <     742.77866367 Ry

     total magnetization       =    56.34 Bohr mag/cell
     absolute magnetization    =    60.02 Bohr mag/cell

[...]

     End of self-consistent calculation

 ------ SPIN UP ------------

          k = 0.0000 0.0000 0.0000 ( 36905 PWs)   bands (ev):

   -73.1514 -73.1265 -73.1110 -73.1006 -73.0639 -73.0492 -73.0329 -73.0183
   -72.9752 -72.9594 -72.9246 -72.9097 -72.9047 -72.8903 -72.8805 -72.8658
   -44.5653 -44.5562 -44.5553 -44.5387 -44.4633 -44.4388 -44.4159 -44.4085
   -44.4037 -44.4025 -44.4012 -44.3849 -44.3839 -44.3729 -44.3677 -44.3663
   -44.3649 -44.3596 -44.3547 -44.3493 -44.3344 -44.3293 -44.3196 -44.3165
   -44.3090 -44.3034 -44.3018 -44.2990 -44.2960 -44.2937 -44.2922 -44.2912
[...]
O0       0.500000000   0.500000000   0.335490000    0   0   0
Cr1      0.750000000   0.500000000   0.370120000    0   0   0
Cr1      0.500000000   0.000000000   0.370120000    0   0   0
O0       0.750000000   0.800000000   0.370120000    0   0   0
O0       0.750000000   0.200000000   0.370120000    0   0   0
O0       0.500000000   0.500000000   0.404750000    0   0   0
O0       0.500000000   0.000000000   0.422070000    0   0   0
Cr1      0.750000000   0.000000000   0.456710000    0   0   0
Cr1      0.500000000   0.500000000   0.456710000    0   0   0
O0       0.750000000   0.700000000   0.456710000    0   0   0
O0       0.750000000   0.300000000   0.456710000    0   0   0
O0       0.500000000   0.000000000   0.491340000    0   0   0
O0       0.500000000   0.500000000   0.510150000    0   0   0
Cr1      0.750000000   0.500000000   0.543600000    0   0   0
Cr1      0.500000000   0.000000000   0.547140000    0   0   0
O0       0.750000000   0.802970000   0.545580000    0   0   0
O0       0.750000000   0.197030000   0.545580000    0   0   0
O0       0.500000000   0.500000000   0.579770000    0   0   0
O0       0.500000000   0.000000000   0.599680000    0   0   0
Cr1      0.750000000   0.000000000   0.638220000    0   0   0
Cr1      0.500000000   0.500000000   0.629210000    0   0   0
O0       0.750000000   0.690400000   0.637480000    0   0   0
O0       0.750000000   0.309600000   0.637480000    0   0   0
O0       0.500000000   0.000000000   0.667720000    0   0   0
O0       0.500000000   0.500000000   0.690838715    1   0   1
O0       0.500000000   0.311920000   0.711091659    1   0   1
H2       0.500000000   0.359720000   0.737484037    1   0   1

     Check: negative starting charge=(component1):   -0.002418
     NEW-OLD atomic charge density approx. for the potential

     Check: negative/imaginary core charge=   -0.000015    0.000000
     Check: negative starting charge=(component1):   -0.002419

[...]

     Self-consistent Calculation

[...]

     Threshold (ethr) on eigenvalues was too large:
     Diagonalizing with lowered threshold

     Davidson diagonalization with overlap
     ethr =  2.44E-08,  avg # of iterations =  1.0

[...]

     total energy              =   -3914.36704752 Ry
     Harris-Foulkes estimate   =   -3914.36704752 Ry
     estimated scf accuracy    <       0.00000002 Ry

[...]

     iteration # 19     ecut=    40.00 Ry     beta=0.30
     Davidson diagonalization with overlap
     ethr =  3.86E-12,  avg # of iterations =  1.0

     negative rho (up, down):  0.597E-02 0.229E-02

     End of self-consistent calculation

 ------ SPIN UP ------------

[...]

 ------ SPIN DOWN ----------

[...]

          k = 0.2500-0.4682 0.0000 ( 37058 PWs)   bands (ev):

[...]

          k =-0.5000-0.4682 0.0000 ( 37080 PWs)   bands (ev):

   -71.0798 -71.0798 -70.8996 -70.8996 -70.8342 -70.7826 -70.7826 -70.7453
   -70.6358 -70.6348 -70.6347 -70.6347 -70.5571 -70.5547 -70.2176 -70.2153
   -42.5438 -42.5409 -42.4884 -42.4884 -42.4713 -42.4103 -42.4103 -42.4083
   -42.4054 -42.3999 -42.3605 -42.3579 -42.2289 -42.2268 -42.1997 -42.1995
   -42.1995 -42.1977 -42.1572 -42.1569 -42.1426 -42.0832 -42.0832 -42.0637
   -42.0637 -42.0593 -42.0066 -41.9577 -41.9577 -41.9506 -41.9505 -41.9287
   -41.8933 -41.8929 -41.8678 -41.8676 -41.8577 -41.8561 -41.8241 -41.8207
   -41.8036 -41.8010 -41.7511 -41.7501 -41.5225 -41.5201 -41.4889 -41.4875
   -23.5411 -18.5952 -18.5780 -18.3975 -18.3972 -18.3106 -18.3072 -18.1930
   -18.1771 -18.0736 -18.0676 -17.9957 -17.9813 -17.9199 -17.9137 -17.8442
   -17.8425 -17.6944 -17.6890 -17.5656 -17.5652 -17.5366 -17.5330 -17.5057
   -17.5036 -17.4486 -17.4165 -17.2776 -17.2762 -17.1963 -17.1721 -16.3579
   -16.3574 -15.8666  -7.9580  -6.3427  -5.9625  -5.8847  -5.6677  -5.6663
    -5.6067  -5.4218  -5.4122  -5.3728  -5.3686  -5.3535  -5.3513  -5.3226
    -5.3224  -5.3077  -5.2853  -5.2126  -5.2126  -5.2053  -5.1717  -5.1189
    -5.1182  -5.0075  -4.9875  -4.9214  -4.9213  -4.9178  -4.9099  -4.8702
    -4.8585  -4.7362  -4.6880  -4.5388  -4.5350  -4.5211  -4.5210  -4.5049
    -4.4589  -4.4576  -4.4399  -4.4394  -4.4032  -4.2502  -4.2018  -4.1015
    -4.0906  -3.9095  -3.9027  -3.8118  -3.7327  -3.6909  -3.6487  -3.6415
    -3.6197  -3.5770  -3.5719  -3.3938  -3.3926  -3.3371  -3.3326  -3.2724
    -3.2695  -3.1644  -3.1624  -3.0795  -3.0528  -2.9657  -2.9628  -2.9293
    -2.9292  -2.7712  -2.7665  -2.5881  -2.5789  -2.4912  -2.4804  -2.3547
    -2.3545  -2.1006  -2.0905  -2.0163  -1.7725  -1.6933  -1.6866  -1.6309
    -1.6298  -1.5864  -1.5783  -1.4870  -1.4662  -1.2912  -1.2900  -1.2352
    -1.2318  -1.1011  -1.0985  -1.0384  -0.9390  -0.9364  -0.5709   1.3606
     1.3756   1.5305   1.5321   1.6510   1.6542   1.6631   1.6712   1.7883
     1.9168   1.9280   1.9522   2.0112   2.0116   2.0712   2.0718   2.2866
     2.2898   2.3310   2.3527   2.3658   2.3660   2.4415   2.4897   2.5350
     2.5416   2.5440   2.5488   2.6164   2.6171   2.6746   2.6751   2.6751
     2.6777   2.8703   2.8708   2.8778   2.8778   2.8815   2.8866   2.9283
     2.9366   2.9711   3.0008   3.0161   3.0169   3.0432   3.0433   3.4211
     3.4218   3.6053   3.8386   3.8663   3.9143   3.9748   3.9758   3.9866
     4.0038   4.0788   4.0839   4.0973   4.0982   4.2331   4.2845   4.5934
     4.5996   4.7003   4.7198   4.9129   4.9239   5.1091   5.1318   5.2177
     5.3533   5.3764   5.5736   5.5835   5.6618   5.6618   5.7736   5.7738
     6.0377   6.4548   6.7811   6.8605   6.9946   6.9954   7.0854   7.1294
     7.2748   7.3417   7.5428   7.5491   7.6990   7.7703   7.8890   7.9321
     8.1871   8.2795   8.3143   8.4458   8.7846   8.8449   8.9024   9.1320
     9.4556   9.4986   9.6188   9.9268  10.1857  10.2649  10.3702  10.4199
    10.8169  10.8540  10.8630  10.8941  11.1895  11.2003  11.2587  11.2768
    11.5084  11.5618  11.6036  11.6171  11.9033  12.0961  12.1277  12.1633
    12.4548  12.4843  12.4948  12.5288  12.8907  13.0154  13.0383  13.0708
    13.5403  13.5529  13.7346  13.8226  13.8531  13.9252  13.9400  14.0850
    14.0936  14.2098  14.2752  14.4198  14.6394  14.6967  14.7525  14.7528
    14.7816  14.8013  14.8783  14.8805  14.9212  14.9345  14.9823  15.0008
    15.0428  15.0448  15.1737  15.2002  15.2233  15.2355  15.2587  15.2644
    15.2987  15.3216  15.3806  15.3985  15.4056  15.4342  15.4774  15.5410
    15.5702  15.6204  15.6784  15.6864  15.7306  15.7551  15.7602  15.7769
    15.7899  15.8353  15.8559  15.9226  15.9314  15.9359  15.9479  15.9740
    16.0206  16.0286  16.0557  16.1011  16.1122  16.1405  16.1607  16.2099
    16.2442  16.2936  16.3529  16.3809  16.3919  16.4696  16.5280  16.5339
    16.6140  16.6244  16.6893  16.7072  16.7664  16.7877  16.8214  16.9231
    16.9350  16.9547  16.9585  17.0480  17.0577  17.0787  17.1007  17.1597
    17.2108  17.2135  17.2295  17.2839  17.3486  17.3488  17.4391  17.4643
    17.4846  17.5283  17.6579  17.6607  17.7216  17.7652  17.7819  17.7820
    17.9393  17.9565  17.9762  18.0100  18.0710  18.0764  18.1052  18.1315
    18.2337  18.2338  18.3673  18.3968  18.4420  18.4977  18.5244  18.5707
    18.6516  18.7013  18.7538  18.7564  18.9259  18.9279  18.9581  18.9863
    19.0098  19.0324  19.0578  19.0694  19.1374  19.1465  19.1747  19.3556
    19.4427  19.5061  19.5344  19.5696  19.5984  19.6703  19.6859  19.7371
[...]
    21.1549  21.1883  21.2122  21.2800  21.3908  21.4074  21.4403  21.5026
    21.6222  21.7586  21.8617  22.0391  22.1119  22.1120  22.1734  22.2081
    22.2962  22.3206  22.3715  22.4056  22.4272  22.5532  22.5764  22.5966
    22.6212  22.7631  22.8476  22.9914  22.9973  23.0718  23.1447  23.2236
    23.2738  23.3301  23.4866  23.6594  23.7450  23.7700  23.7911  23.8060
    23.8850  23.9015  23.9676  24.0177  24.1485  24.1678  24.1775  24.1922
    24.2066  24.2080  24.2598  24.2872  24.3007  24.3083  24.3723  24.4359
    24.4429  24.5434  24.6240  24.6825  24.7134  24.7957  24.8127  24.9138
    24.9329  24.9611  24.9778  25.0242  25.0604  25.1320  25.1353  25.3460
    25.4040  25.5042  25.5237  25.5375  25.5830  25.6333  25.6720  25.6919
    25.7734  25.8105  25.8344  25.8508  25.8793  25.9483  25.9716  26.0211
    26.0863  26.1159  26.2031  26.2803  26.3019  26.3280  26.3686  26.3966
    26.4453  26.5183  26.5244  26.5654  26.5799  26.6400  26.6910  26.7066
    26.7516  26.8072  26.8667  26.9310  26.9694  27.0041  27.0497  27.0543
    27.0592  27.0626  27.1033

     the Fermi energy is     0.6592 ev

!    total energy              =   -3914.36704747 Ry
     Harris-Foulkes estimate   =   -3914.36704751 Ry
     estimated scf accuracy    <          9.8E-09 Ry

     The total energy is the sum of the following terms:

     one-electron contribution =  -84227.01175133 Ry
     hartree contribution      =   42173.45265389 Ry
     xc contribution           =    -610.29364064 Ry
     ewald contribution        =   38749.48703930 Ry
     smearing contrib. (-TS)   =      -0.00134870 Ry

     total magnetization       =    31.00 Bohr mag/cell
     absolute magnetization    =    37.36 Bohr mag/cell

     convergence has been achieved in  19 iterations

     Forces acting on atoms (Ry/au):

     negative rho (up, down):  0.597E-02 0.229E-02
     atom    1 type  1   force =     0.00000000   -0.00003471    0.07093405
     atom    2 type  2   force =    -0.00027497    0.00004066   -0.11750173
     atom    3 type  2   force =     0.00000000    0.00000726    0.08163158
     atom    4 type  1   force =    -0.00004366    0.04266712   -0.03636017
     atom    5 type  1   force =    -0.00005317   -0.04268052   -0.03636263
     atom    6 type  1   force =     0.00000000   -0.00003409    0.01579281
     atom    7 type  1   force =     0.00000000   -0.00000782   -0.01061157
     atom    8 type  2   force =    -0.00003834    0.00000468    0.02317731
     atom    9 type  2   force =     0.00000000    0.00008223   -0.00625910
     atom   10 type  1   force =     0.00000294   -0.01823671    0.00324870
     atom   11 type  1   force =     0.00000836    0.01822264    0.00326749
     atom   12 type  1   force =     0.00000000    0.00002415    0.00560275
     atom   13 type  1   force =     0.00000000    0.00002625    0.00235260
     atom   14 type  2   force =     0.00561898   -0.00025542   -0.00012643
     atom   15 type  2   force =     0.00000000   -0.00015037    0.00051830
     atom   16 type  1   force =    -0.00010222    0.00019809    0.00036273
     atom   17 type  1   force =    -0.00016372   -0.00014045    0.00038305
     atom   18 type  1   force =     0.00000000    0.00018311   -0.00008592
     atom   19 type  1   force =     0.00000000   -0.00078605   -0.00101700
     atom   20 type  2   force =     0.00375146    0.00181227    0.00319481
     atom   21 type  2   force =     0.00000000   -0.00091235   -0.00013033
     atom   22 type  1   force =    -0.01301849    0.00776153   -0.01361745
     atom   23 type  1   force =    -0.01818303   -0.00972466   -0.01909680
     atom   24 type  1   force =     0.00000000   -0.00040436    0.00175790
     atom   25 type  1   force =     0.00000000    0.00000735    0.07123072
     atom   26 type  2   force =     0.00027497    0.00004066   -0.11750173
     atom   27 type  2   force =     0.00000000    0.00000732    0.08150766
     atom   28 type  1   force =     0.00004366    0.04266712   -0.03636017
     atom   29 type  1   force =     0.00005317   -0.04268052   -0.03636263
     atom   30 type  1   force =     0.00000000   -0.00001101    0.01543398
     atom   31 type  1   force =     0.00000000   -0.00000623   -0.01051736
     atom   32 type  2   force =     0.00003834    0.00000468    0.02317731
     atom   33 type  2   force =     0.00000000    0.00003103   -0.00613097
     atom   34 type  1   force =    -0.00000294   -0.01823671    0.00324870
     atom   35 type  1   force =    -0.00000836    0.01822264    0.00326749
     atom   36 type  1   force =     0.00000000    0.00001338    0.00574908
     atom   37 type  1   force =     0.00000000   -0.00010589   -0.00063641
     atom   38 type  2   force =    -0.00561898   -0.00025542   -0.00012643
     atom   39 type  2   force =     0.00000000   -0.00004767    0.00054035
     atom   40 type  1   force =     0.00010222    0.00019809    0.00036273
     atom   41 type  1   force =     0.00016372   -0.00014045    0.00038305
     atom   42 type  1   force =     0.00000000    0.00114191   -0.00838512
     atom   43 type  1   force =     0.00000000   -0.00008143   -0.00045716
     atom   44 type  2   force =    -0.00375146    0.00181227    0.00319481
     atom   45 type  2   force =     0.00000000   -0.01329589    0.08841461
     atom   46 type  1   force =     0.01301849    0.00776153   -0.01361745
     atom   47 type  1   force =     0.01818303   -0.00972466   -0.01909680
     atom   48 type  1   force =     0.00000000   -0.01592795   -0.01813892
     atom   49 type  1   force =     0.00000000    0.03290731    0.00002537
     atom   50 type  1   force =     0.00000000   -0.01448461    0.00015906
     atom   51 type  3   force =     0.00000000    0.01252064   -0.00041875

     Total force =     0.000449     Total SCF correction =     0.000068
     SCF correction compared to forces is large: reduce conv_thr to get better values

     bfgs converged in  11 scf cycles and  10 bfgs steps
     (criteria: energy < 0.10E-03, force < 0.10E-02)

     End of BFGS Geometry Optimization

     Final energy   =   -3914.3670474723 Ry
Begin final coordinates

ATOMIC_POSITIONS (crystal)
O0       0.000000000   0.500000000   0.335490000    0   0   0
Cr1      0.250000000   0.500000000   0.370120000    0   0   0
Cr1      0.000000000   0.000000000   0.370120000    0   0   0
O0       0.250000000   0.800000000   0.370120000    0   0   0
O0       0.250000000   0.200000000   0.370120000    0   0   0
O0       0.000000000   0.500000000   0.404750000    0   0   0
O0       0.000000000   0.000000000   0.422070000    0   0   0
Cr1      0.250000000   0.000000000   0.456710000    0   0   0
Cr1      0.000000000   0.500000000   0.456710000    0   0   0
O0       0.250000000   0.700000000   0.456710000    0   0   0
O0       0.250000000   0.300000000   0.456710000    0   0   0
O0       0.000000000   0.000000000   0.491340000    0   0   0
O0       0.000000000   0.500000000   0.510150000    0   0   0
Cr1      0.250000000   0.500000000   0.543600000    0   0   0
Cr1      0.000000000   0.000000000   0.547140000    0   0   0
O0       0.250000000   0.802970000   0.545580000    0   0   0
O0       0.250000000   0.197030000   0.545580000    0   0   0
O0       0.000000000   0.500000000   0.579770000    0   0   0
O0       0.000000000   0.000000000   0.599680000    0   0   0
Cr1      0.250000000   0.000000000   0.638220000    0   0   0
Cr1      0.000000000   0.500000000   0.629210000    0   0   0
O0       0.250000000   0.690400000   0.637480000    0   0   0
O0       0.250000000   0.309600000   0.637480000    0   0   0
O0       0.000000000   0.000000000   0.667720000    0   0   0
O0       0.500000000   0.500000000   0.335490000    0   0   0
Cr1      0.750000000   0.500000000   0.370120000    0   0   0
Cr1      0.500000000   0.000000000   0.370120000    0   0   0
O0       0.750000000   0.800000000   0.370120000    0   0   0
O0       0.750000000   0.200000000   0.370120000    0   0   0
O0       0.500000000   0.500000000   0.404750000    0   0   0
O0       0.500000000   0.000000000   0.422070000    0   0   0
Cr1      0.750000000   0.000000000   0.456710000    0   0   0
Cr1      0.500000000   0.500000000   0.456710000    0   0   0
O0       0.750000000   0.700000000   0.456710000    0   0   0
O0       0.750000000   0.300000000   0.456710000    0   0   0
O0       0.500000000   0.000000000   0.491340000    0   0   0
O0       0.500000000   0.500000000   0.510150000    0   0   0
Cr1      0.750000000   0.500000000   0.543600000    0   0   0
Cr1      0.500000000   0.000000000   0.547140000    0   0   0
O0       0.750000000   0.802970000   0.545580000    0   0   0
O0       0.750000000   0.197030000   0.545580000    0   0   0
O0       0.500000000   0.500000000   0.579770000    0   0   0
O0       0.500000000   0.000000000   0.599680000    0   0   0
Cr1      0.750000000   0.000000000   0.638220000    0   0   0
Cr1      0.500000000   0.500000000   0.629210000    0   0   0
O0       0.750000000   0.690400000   0.637480000    0   0   0
O0       0.750000000   0.309600000   0.637480000    0   0   0
O0       0.500000000   0.000000000   0.667720000    0   0   0
O0       0.500000000   0.500000000   0.690838715    1   0   1
O0       0.500000000   0.311920000   0.711091659    1   0   1
H2       0.500000000   0.359720000   0.737484037    1   0   1
End final coordinates

     General routines

     Parallel routines

   This run was terminated on:  20: 2:15  13May2014

   JOB DONE.