     Program PWSCF v.5.0.2 (svn rev. 9656) starts on  5May2014 at 20:28:45

     Current dimensions of program PWSCF are:
     Max number of different atomic species (ntypx) = 10
     Max number of k-points (npk) =  40000
     Max angular momentum in pseudopotentials (lmaxx) =  3
     Reading input from pwscf.in
Warning: card &CELL ignored
Warning: card / ignored

     Subspace diagonalization in iterative solution of the eigenvalue problem:
     a serial algorithm will be used

     bravais-lattice index     =            0
     lattice parameter (alat)  =      12.0187  a.u.
     unit-cell volume          =    7280.5819 (a.u.)^3
     number of atoms/cell      =           30
     number of atomic types    =            3
     number of electrons       =       232.00
     number of Kohn-Sham states=          348
     kinetic-energy cutoff     =      40.0000  Ry
     charge density cutoff     =     500.0000  Ry
     convergence threshold     =      1.0E-06
     mixing beta               =       0.7000
     number of iterations used =            8  plain     mixing
     Exchange-correlation      = SLA  PW   PBE  PBE ( 1 4 3 4 0)
     EXX-fraction              =        0.00
     nstep                     =           50

     celldm(1)=  12.018658  celldm(2)=   0.000000  celldm(3)=   0.000000
     celldm(4)=   0.000000  celldm(5)=   0.000000  celldm(6)=   0.000000

     crystal axes: (cart. coord. in units of alat)
               a(1) = (   1.000000   0.000000   0.000000 )
               a(2) = (   0.000000   1.009517   0.000000 )
               a(3) = (   0.000000   0.000000   4.154171 )

     reciprocal axes: (cart. coord. in units 2 pi/alat)
               b(1) = (  1.000000  0.000000  0.000000 )
               b(2) = (  0.000000  0.990572  0.000000 )
               b(3) = (  0.000000  0.000000  0.240722 )

     PseudoPot. # 1 for O  read from file:
     /home/camp/zhonxu/pseudo/o_pbe_v1.01.uspp.F.UPF
     MD5 check sum: 2bcb18d16ea4b960afae9ec6d52f22d2
     Pseudo is Ultrasoft + core correction, Zval =  6.0
     Generated by new atomic code, or converted to UPF format
     Using radial grid of  737 points,  5 beta functions with:
                l(1) =   0
                l(2) =   0
                l(3) =   1
                l(4) =   1
                l(5) =   2
     Q(r) pseudized with  8 coefficients,  rinner =    0.900   0.900   0.900
                                                       0.900   0.900

     PseudoPot. # 2 for Ir read from file:
     /home/camp/zhonxu/pseudo/ir_pbe_v1.uspp.F.UPF
     MD5 check sum: abf987a9674477536ede83817f8f8b70
     Pseudo is Ultrasoft + core correction, Zval = 15.0
     Generated by new atomic code, or converted to UPF format
     Using radial grid of  983 points,  7 beta functions with:
                l(1) =   0
                l(2) =   0
                l(3) =   1
                l(4) =   1
                l(5) =   1
                l(6) =   2
                l(7) =   2
     Q(r) pseudized with  8 coefficients,  rinner =    1.350   1.350   1.350
                                                       1.350   1.350

     PseudoPot. # 3 for H  read from file:
     /home/camp/zhonxu/pseudo/h_pbe_v1.uspp.F.UPF
     MD5 check sum: 3408e3ff4ec8b0a4e358431e7e038a48
     Pseudo is Ultrasoft, Zval =  1.0
     Generated by new atomic code, or converted to UPF format
     Using radial grid of  615 points,  2 beta functions with:
                l(1) =   0
                l(2) =   0
     Q(r) pseudized with  8 coefficients,  rinner =    0.700

     atomic species   valence    mass     pseudopotential
        O0             6.00    15.99940     O ( 1.00)
        Ir1           15.00   192.22000     Ir( 1.00)
        H2             1.00     1.00794     H ( 1.00)

     Simplified LDA+U calculation (l_max = 2) with parameters (eV):
     atomic species    L          U    alpha       J0     beta
        Ir1            2     3.5000   0.0000   0.0000   0.0000

     No symmetry found

   Cartesian axes

     site n.     atom                  positions (alat units)
         1           O0  tau(   1) = (   0.0000000   0.0000000   1.5730185  )
         2           O0  tau(   2) = (   0.0000000   0.5047586   1.6673182  )
         3           Ir1 tau(   3) = (   0.2500000   0.5047586   1.8780178  )
         4           Ir1 tau(   4) = (   0.0000000   0.0000000   1.8842906  )
         5           O0  tau(   5) = (   0.2500000   0.8177090   1.8825458  )
         6           O0  tau(   6) = (   0.2500000   0.1918083   1.8810503  )
         7           O0  tau(   7) = (   0.0000000   0.5047586   2.0695666  )
         8           O0  tau(   8) = (   0.0000000   0.0000000   2.1991352  )
         9           Ir1 tau(   9) = (   0.2500000   0.0000000   2.3955860  )
        10           Ir1 tau(  10) = (   0.0000000   0.5047586   2.3764768  )
        11           O0  tau(  11) = (   0.2500000   0.6965669   2.3975800  )
        12           O0  tau(  12) = (   0.2500000   0.3129503   2.3977461  )
        13           O0  tau(  13) = (   0.0000000   0.0000000   2.5806958  )
        14           O0  tau(  14) = (   0.5000000   0.0000000   1.5730185  )
        15           O0  tau(  15) = (   0.5000000   0.5047586   1.6673182  )
        16           Ir1 tau(  16) = (   0.7500000   0.5047586   1.8780178  )
        17           Ir1 tau(  17) = (   0.5000000   0.0000000   1.8842906  )
        18           O0  tau(  18) = (   0.7500000   0.8177090   1.8825458  )
        19           O0  tau(  19) = (   0.7500000   0.1918083   1.8810503  )
        20           O0  tau(  20) = (   0.5000000   0.5047586   2.0695666  )
        21           O0  tau(  21) = (   0.5000000   0.0000000   2.1991352  )
        22           Ir1 tau(  22) = (   0.7500000   0.0000000   2.3955860  )
        23           Ir1 tau(  23) = (   0.5000000   0.5047586   2.3764768  )
        24           O0  tau(  24) = (   0.7500000   0.6965669   2.3975800  )
        25           O0  tau(  25) = (   0.7500000   0.3129503   2.3977461  )
        26           O0  tau(  26) = (   0.5000000   0.0000000   2.5807374  )
        27           H2  tau(  27) = (  -0.0000500   0.6423962   1.5933324  )
        28           H2  tau(  28) = (   0.4999500   0.6423962   1.5933324  )
        29           H2  tau(  29) = (   0.1436500   0.0338188   1.5249132  )
        30           H2  tau(  30) = (   0.6436500   0.0338188   1.5249132  )

     number of k points=    10  Methfessel-Paxton smearing, width (Ry)=  0.0100
                       cart. coord. in units 2pi/alat
        k(    1) = (   0.0000000   0.0000000   0.0000000), wk =   0.1250000
        k(    2) = (   0.0000000   0.2476431   0.0000000), wk =   0.2500000
        k(    3) = (   0.0000000  -0.4952862   0.0000000), wk =   0.1250000
        k(    4) = (   0.2500000   0.0000000   0.0000000), wk =   0.2500000
        k(    5) = (   0.2500000   0.2476431   0.0000000), wk =   0.2500000
        k(    6) = (   0.2500000  -0.4952862   0.0000000), wk =   0.2500000
        k(    7) = (  -0.5000000   0.0000000   0.0000000), wk =   0.1250000
        k(    8) = (  -0.5000000   0.2476431   0.0000000), wk =   0.2500000
        k(    9) = (  -0.5000000  -0.4952862   0.0000000), wk =   0.1250000
        k(   10) = (  -0.2500000   0.2476431   0.0000000), wk =   0.2500000

     Largest allocated arrays     est. size (Mb)     dimensions
     Largest temporary arrays     est. size (Mb)     dimensions

     Check: negative/imaginary core charge=   -0.000003    0.000000

     Initial potential from superposition of free atoms
     Check: negative starting charge=   -3.334716

     starting charge  227.99968, renormalised to  232.00000

     negative rho (up, down):  0.339E+01 0.000E+00
     Number of +U iterations with fixed ns =  0
     Starting occupations:
 --- enter write_ns ---
 LDA+U parameters:
U( 2)     =  3.50000000
alpha( 2) =  0.00000000
atom    3   Tr[ns(na)] =   7.00000
    eigenvalues:
  0.700  0.700  0.700  0.700  0.700
    eigenvectors:
  1.000  0.000  0.000  0.000  0.000
  0.000  1.000  0.000  0.000  0.000
  0.000  0.000  1.000  0.000  0.000
  0.000  0.000  0.000  1.000  0.000
  0.000  0.000  0.000  0.000  1.000
    occupations:
  0.700  0.000  0.000  0.000  0.000
  0.000  0.700  0.000  0.000  0.000
  0.000  0.000  0.700  0.000  0.000
  0.000  0.000  0.000  0.700  0.000
  0.000  0.000  0.000  0.000  0.700
atom    4   Tr[ns(na)] =   7.00000
    eigenvalues:
  0.700  0.700  0.700  0.700  0.700
    eigenvectors:
  1.000  0.000  0.000  0.000  0.000
  0.000  1.000  0.000  0.000  0.000
  0.000  0.000  1.000  0.000  0.000
  0.000  0.000  0.000  1.000  0.000
  0.000  0.000  0.000  0.000  1.000
    occupations:
  0.700  0.000  0.000  0.000  0.000
  0.000  0.700  0.000  0.000  0.000
  0.000  0.000  0.700  0.000  0.000
  0.000  0.000  0.000  0.700  0.000
  0.000  0.000  0.000  0.000  0.700
atom    9   Tr[ns(na)] =   7.00000
    eigenvalues:
  0.700  0.700  0.700  0.700  0.700
    eigenvectors:
  1.000  0.000  0.000  0.000  0.000
  0.000  1.000  0.000  0.000  0.000
  0.000  0.000  1.000  0.000  0.000
  0.000  0.000  0.000  1.000  0.000
  0.000  0.000  0.000  0.000  1.000
    occupations:
  0.700  0.000  0.000  0.000  0.000
  0.000  0.700  0.000  0.000  0.000
  0.000  0.000  0.700  0.000  0.000
  0.000  0.000  0.000  0.700  0.000
  0.000  0.000  0.000  0.000  0.700
atom   10   Tr[ns(na)] =   7.00000
    eigenvalues:
  0.700  0.700  0.700  0.700  0.700
    eigenvectors:
  1.000  0.000  0.000  0.000  0.000
  0.000  1.000  0.000  0.000  0.000
  0.000  0.000  1.000  0.000  0.000
  0.000  0.000  0.000  1.000  0.000
  0.000  0.000  0.000  0.000  1.000
    occupations:
  0.700  0.000  0.000  0.000  0.000
  0.000  0.700  0.000  0.000  0.000
  0.000  0.000  0.700  0.000  0.000
  0.000  0.000  0.000  0.700  0.000
  0.000  0.000  0.000  0.000  0.700
atom   16   Tr[ns(na)] =   7.00000
    eigenvalues:
  0.700  0.700  0.700  0.700  0.700
    eigenvectors:
  1.000  0.000  0.000  0.000  0.000
  0.000  1.000  0.000  0.000  0.000
  0.000  0.000  1.000  0.000  0.000
  0.000  0.000  0.000  1.000  0.000
  0.000  0.000  0.000  0.000  1.000
    occupations:
  0.700  0.000  0.000  0.000  0.000
  0.000  0.700  0.000  0.000  0.000
  0.000  0.000  0.700  0.000  0.000
  0.000  0.000  0.000  0.700  0.000
  0.000  0.000  0.000  0.000  0.700
atom   17   Tr[ns(na)] =   7.00000
    eigenvalues:
  0.700  0.700  0.700  0.700  0.700
    eigenvectors:
  1.000  0.000  0.000  0.000  0.000
  0.000  1.000  0.000  0.000  0.000
  0.000  0.000  1.000  0.000  0.000
  0.000  0.000  0.000  1.000  0.000
  0.000  0.000  0.000  0.000  1.000
    occupations:
  0.700  0.000  0.000  0.000  0.000
  0.000  0.700  0.000  0.000  0.000
  0.000  0.000  0.700  0.000  0.000
  0.000  0.000  0.000  0.700  0.000
  0.000  0.000  0.000  0.000  0.700
atom   22   Tr[ns(na)] =   7.00000
    eigenvalues:
  0.700  0.700  0.700  0.700  0.700
    eigenvectors:
  1.000  0.000  0.000  0.000  0.000
  0.000  1.000  0.000  0.000  0.000
  0.000  0.000  1.000  0.000  0.000
  0.000  0.000  0.000  1.000  0.000
  0.000  0.000  0.000  0.000  1.000
    occupations:
  0.700  0.000  0.000  0.000  0.000
  0.000  0.700  0.000  0.000  0.000
  0.000  0.000  0.700  0.000  0.000
[...]
  0.000 -0.006  0.001 -0.000  0.970
atom    4   Tr[ns(na)] =   8.12855
    eigenvalues:
  0.619  0.667  0.871  0.924  0.983
    eigenvectors:
  0.000  0.989  0.000  0.000  0.010
  0.000  0.000  0.055  0.945  0.000
  0.000  0.000  0.945  0.055  0.000
  0.000  0.010  0.000  0.000  0.990
  1.000  0.000  0.000  0.000  0.000
    occupations:
  0.671 -0.003 -0.001  0.032  0.001
 -0.003  0.921  0.012  0.000 -0.002
 -0.001  0.012  0.874 -0.000  0.000
  0.032  0.000 -0.000  0.980  0.000
  0.001 -0.002  0.000  0.000  0.619
atom    9   Tr[ns(na)] =   8.11019
    eigenvalues:
  0.651  0.666  0.857  0.898  0.982
    eigenvectors:
  0.000  0.143  0.000  0.000  0.857
  1.000  0.000  0.000  0.000  0.000
  0.000  0.000  1.000  0.000  0.000
  0.000  0.856  0.000  0.000  0.143
  0.000  0.000  0.000  1.000  0.000
    occupations:
  0.937  0.000 -0.000 -0.111 -0.000
  0.000  0.651  0.000  0.000 -0.000
 -0.000  0.000  0.857 -0.000 -0.000
 -0.111  0.000 -0.000  0.712  0.001
 -0.000 -0.000 -0.000  0.001  0.898
atom   10   Tr[ns(na)] =   8.09637
    eigenvalues:
  0.583  0.609  0.932  0.942  0.982
    eigenvectors:
  0.994  0.000  0.000  0.000  0.006
  0.000  0.000  1.000  0.000  0.000
  0.000  0.000  0.000  1.000  0.000
  0.006  0.000  0.000  0.000  0.994
  0.000  1.000  0.000  0.000  0.000
    occupations:
  0.586  0.000  0.001  0.030 -0.000
  0.000  0.932 -0.000  0.000 -0.000
  0.001 -0.000  0.942  0.000  0.000
  0.030  0.000  0.000  0.979  0.000
 -0.000 -0.000  0.000  0.000  0.609
atom   16   Tr[ns(na)] =   8.14886
    eigenvalues:
  0.602  0.627  0.901  0.971  0.974
    eigenvectors:
  0.000  0.192  0.003  0.001  0.804
  1.000  0.000  0.000  0.000  0.000
  0.000  0.000  0.996  0.000  0.003
  0.000  0.808  0.000  0.000  0.191
  0.000  0.000  0.000  0.998  0.001
    occupations:
  0.907 -0.000  0.003 -0.136  0.000
 -0.000  0.602 -0.000 -0.000 -0.006
  0.003 -0.000  0.901 -0.004  0.001
 -0.136 -0.000 -0.004  0.694 -0.000
  0.000 -0.006  0.001 -0.000  0.970
atom   17   Tr[ns(na)] =   8.12786
    eigenvalues:
  0.619  0.667  0.871  0.923  0.983
    eigenvectors:
  0.000  0.989  0.000  0.000  0.010
  0.000  0.000  0.055  0.945  0.000
  0.000  0.000  0.945  0.055  0.000
  0.000  0.010  0.000  0.000  0.990
  1.000  0.000  0.000  0.000  0.000
    occupations:
  0.671 -0.003 -0.001  0.032  0.001
 -0.003  0.920  0.012  0.000 -0.002
 -0.001  0.012  0.874 -0.000  0.000
  0.032  0.000 -0.000  0.980  0.000
  0.001 -0.002  0.000  0.000  0.619
atom   22   Tr[ns(na)] =   8.11051
    eigenvalues:
  0.651  0.667  0.858  0.898  0.982
    eigenvectors:
  0.000  0.143  0.000  0.000  0.857
  1.000  0.000  0.000  0.000  0.000
  0.000  0.000  1.000  0.000  0.000
  0.000  0.856  0.000  0.000  0.143
  0.000  0.000  0.000  1.000  0.000
    occupations:
  0.937  0.000 -0.000 -0.111 -0.000
  0.000  0.651  0.000  0.000 -0.000
 -0.000  0.000  0.858 -0.000 -0.000
 -0.111  0.000 -0.000  0.712  0.001
 -0.000 -0.000 -0.000  0.001  0.898
atom   23   Tr[ns(na)] =   8.09634
    eigenvalues:
  0.583  0.609  0.932  0.942  0.982
    eigenvectors:
  0.994  0.000  0.000  0.000  0.006
  0.000  0.000  1.000  0.000  0.000
  0.000  0.000  0.000  1.000  0.000
  0.006  0.000  0.000  0.000  0.994
  0.000  1.000  0.000  0.000  0.000
    occupations:
  0.586  0.000  0.001  0.030 -0.000
  0.000  0.932 -0.000  0.000 -0.000
  0.001 -0.000  0.942  0.000  0.000
  0.030  0.000  0.000  0.979  0.000
 -0.000 -0.000  0.000  0.000  0.609
N of occupied +U levels =  64.9673870
 --- exit write_ns ---

     Threshold (ethr) on eigenvalues was too large:
     Diagonalizing with lowered threshold

     Davidson diagonalization with overlap
     ethr =  4.16E-08,  avg # of iterations =  1.6

[...]

     total energy              =   -2072.63624281 Ry
     Harris-Foulkes estimate   =   -2072.63624282 Ry
     estimated scf accuracy    <       0.00000006 Ry

     iteration # 14     ecut=    40.00 Ry     beta=0.70
     Davidson diagonalization with overlap
     ethr =  1.42E-11,  avg # of iterations =  1.0

     negative rho (up, down):  0.314E+01 0.000E+00

     End of self-consistent calculation
 --- enter write_ns ---
 LDA+U parameters:
U( 2)     =  3.50000000
alpha( 2) =  0.00000000
atom    3   Tr[ns(na)] =   8.14778
    eigenvalues:
  0.602  0.627  0.900  0.970  0.974
    eigenvectors:
  0.000  0.192  0.003  0.001  0.804
  1.000  0.000  0.000  0.000  0.000
  0.000  0.000  0.996  0.000  0.003
  0.000  0.808  0.000  0.000  0.191
  0.000  0.000  0.000  0.998  0.001
    occupations:
  0.907 -0.000  0.003 -0.136  0.000
 -0.000  0.602 -0.000 -0.000 -0.006
  0.003 -0.000  0.901 -0.004  0.001
 -0.136 -0.000 -0.004  0.694 -0.000
  0.000 -0.006  0.001 -0.000  0.970
atom    4   Tr[ns(na)] =   8.12694
    eigenvalues:
  0.619  0.667  0.871  0.923  0.983
    eigenvectors:
  0.000  0.989  0.000  0.000  0.010
  0.000  0.000  0.055  0.945  0.000
  0.000  0.000  0.945  0.055  0.000
  0.000  0.010  0.000  0.000  0.990
  1.000  0.000  0.000  0.000  0.000
    occupations:
  0.671 -0.003 -0.001  0.032  0.001
 -0.003  0.920  0.012  0.000 -0.002
 -0.001  0.012  0.873 -0.000  0.000
  0.032  0.000 -0.000  0.980  0.000
  0.001 -0.002  0.000  0.000  0.619
atom    9   Tr[ns(na)] =   8.11138
    eigenvalues:
  0.651  0.667  0.858  0.898  0.982
    eigenvectors:
  0.000  0.143  0.000  0.000  0.857
  1.000  0.000  0.000  0.000  0.000
  0.000  0.000  1.000  0.000  0.000
  0.000  0.856  0.000  0.000  0.143
  0.000  0.000  0.000  1.000  0.000
    occupations:
  0.937  0.000 -0.000 -0.111 -0.000
  0.000  0.651  0.000  0.000 -0.000
 -0.000  0.000  0.858 -0.000 -0.000
 -0.111  0.000 -0.000  0.712  0.001
 -0.000 -0.000 -0.000  0.001  0.898
atom   10   Tr[ns(na)] =   8.09811
    eigenvalues:
  0.584  0.609  0.932  0.943  0.982
    eigenvectors:
  0.994  0.000  0.000  0.000  0.006
  0.000  0.000  1.000  0.000  0.000
  0.000  0.000  0.000  1.000  0.000
  0.006  0.000  0.000  0.000  0.994
  0.000  1.000  0.000  0.000  0.000
    occupations:
  0.586  0.000  0.001  0.030 -0.000
  0.000  0.932 -0.000  0.000 -0.000
  0.001 -0.000  0.943  0.000  0.000
  0.030  0.000  0.000  0.979  0.000
 -0.000 -0.000  0.000  0.000  0.609
atom   16   Tr[ns(na)] =   8.14775
    eigenvalues:
  0.602  0.627  0.900  0.970  0.974
    eigenvectors:
  0.000  0.192  0.003  0.001  0.804
  1.000  0.000  0.000  0.000  0.000
  0.000  0.000  0.996  0.000  0.003
  0.000  0.808  0.000  0.000  0.191
  0.000  0.000  0.000  0.998  0.001
    occupations:
  0.907 -0.000  0.003 -0.136  0.000
 -0.000  0.602 -0.000 -0.000 -0.006
  0.003 -0.000  0.901 -0.004  0.001
 -0.136 -0.000 -0.004  0.694 -0.000
  0.000 -0.006  0.001 -0.000  0.970
atom   17   Tr[ns(na)] =   8.12694
    eigenvalues:
  0.619  0.667  0.871  0.923  0.983
    eigenvectors:
  0.000  0.989  0.000  0.000  0.010
  0.000  0.000  0.055  0.945  0.000
  0.000  0.000  0.945  0.055  0.000
  0.000  0.010  0.000  0.000  0.990
  1.000  0.000  0.000  0.000  0.000
    occupations:
  0.671 -0.003 -0.001  0.032  0.001
 -0.003  0.920  0.012  0.000 -0.002
 -0.001  0.012  0.873 -0.000  0.000
  0.032  0.000 -0.000  0.980  0.000
  0.001 -0.002  0.000  0.000  0.619
atom   22   Tr[ns(na)] =   8.11131
    eigenvalues:
  0.651  0.667  0.858  0.898  0.982
    eigenvectors:
  0.000  0.143  0.000  0.000  0.857
  1.000  0.000  0.000  0.000  0.000
  0.000  0.000  1.000  0.000  0.000
  0.000  0.856  0.000  0.000  0.143
  0.000  0.000  0.000  1.000  0.000
    occupations:
  0.937  0.000 -0.000 -0.111 -0.000
  0.000  0.651  0.000  0.000 -0.000
 -0.000  0.000  0.858 -0.000 -0.000
 -0.111  0.000 -0.000  0.712  0.001
 -0.000 -0.000 -0.000  0.001  0.898
atom   23   Tr[ns(na)] =   8.09810
    eigenvalues:
  0.584  0.609  0.932  0.943  0.982
    eigenvectors:
  0.994  0.000  0.000  0.000  0.006
  0.000  0.000  1.000  0.000  0.000
  0.000  0.000  0.000  1.000  0.000
  0.006  0.000  0.000  0.000  0.994
  0.000  1.000  0.000  0.000  0.000
    occupations:
  0.586  0.000  0.001  0.030 -0.000
  0.000  0.932 -0.000  0.000 -0.000
  0.001 -0.000  0.943  0.000  0.000
  0.030  0.000  0.000  0.979  0.000
 -0.000 -0.000  0.000  0.000  0.609
N of occupied +U levels =  64.9683029
 --- exit write_ns ---

[...]

          k = 0.2500-0.4953 0.0000 ( 31088 PWs)   bands (ev):

[...]

          k =-0.2500 0.2476 0.0000 ( 31099 PWs)   bands (ev):

   -50.6879 -50.6833 -50.6728 -50.6142 -50.6061 -50.5973 -50.5574 -50.4865
   -50.4839 -50.4620 -50.4571 -50.4511 -50.4422 -50.4118 -50.3311 -50.3118
   -50.3077 -50.2615 -50.2387 -50.2294 -50.2155 -50.2048 -50.1083 -50.0976
   -21.4459 -21.0632 -21.0606 -21.0214 -20.6388 -20.5400 -20.4598 -20.4346
   -20.3631 -20.2313 -20.1145 -20.0800 -19.9153 -19.8963 -19.7883 -19.6139
   -18.7847 -18.6694 -10.1620 -10.0125  -9.9116  -9.6239  -9.1743  -9.1512
    -9.1201  -8.9163  -8.7789  -8.7564  -8.7186  -8.6826  -8.5085  -8.4483
    -8.2823  -8.2267  -8.0426  -7.9111  -7.5670  -7.5203  -7.3837  -7.3057
    -7.1909  -6.9637  -6.8904  -6.7642  -6.6847  -6.4594  -6.3871  -6.3145
    -6.2137  -6.1692  -6.0062  -5.9916  -5.9380  -5.8576  -5.7556  -5.6281
    -5.4557  -5.3444  -5.1736  -5.0731  -4.9487  -4.7211  -4.6964  -4.6420
    -4.4968  -4.3067  -4.2263  -3.9909  -3.7573  -3.6171  -3.5368  -3.3919
    -3.3719  -3.1818  -3.1597  -3.0544  -2.9990  -2.9078  -2.9049  -2.7541
    -2.7307  -2.6325  -2.5409  -2.4001  -2.2888  -2.2432  -1.9736  -1.7317
    -1.4610  -1.2839  -1.2791  -1.0497  -1.0403  -0.7926  -0.6221  -0.4563
    -0.1092   0.0791   1.0100   1.1395   1.6562   1.6770   1.8140   2.2241
     2.4223   2.7016   2.9008   2.9254   3.2037   3.2368   3.3688   3.4426
     3.7893   4.3356   4.7479   5.1599   5.4102   5.5941   5.6902   5.8811
     6.1364   6.2934   6.5333   6.5769   6.6268   6.8162   7.0377   7.0766
     7.3167   7.3895   7.4640   7.6486   7.6890   7.8771   8.0051   8.0824
     8.1636   8.3467   8.4484   8.4625   8.5822   8.7767   8.8152   8.8943
     8.9175   9.1462   9.1961   9.2438   9.3032   9.3056   9.3389   9.3952
     9.3959   9.4685   9.4687   9.5308   9.5378   9.5432   9.6306   9.7001
     9.7672   9.9504  10.0359  10.0931  10.1888  10.3020  10.3032  10.4149
    10.4187  10.4973  10.5946  10.7437  10.7991  10.8282  10.9588  11.0298
    11.0412  11.2472  11.3436  11.4266  11.5439  11.5742  11.7075  11.7453
    11.7872  11.9412  12.0863  12.1232  12.1667  12.2892  12.3272  12.3895
    12.5161  12.5901  12.6308  12.7297  12.7310  12.7915  12.8223  12.9153
    13.0755  13.1214  13.1501  13.2298  13.3081  13.3397  13.4784  13.6135
    13.6199  13.7406  13.8663  13.8734  13.9933  13.9955  14.0774  14.1309
    14.2619  14.3548  14.4090  14.5173  14.5652  14.7460  14.7545  14.8799
    14.8887  15.1998  15.2237  15.3620  15.3686  15.5328  15.5401  15.5756
    15.6198  15.7511  15.7795  15.8272  15.8631  15.8975  15.9761  16.0432
    16.0667  16.1308  16.1583  16.2726  16.3316  16.3823  16.4252  16.4399
    16.5896  16.6514  16.7117  16.7461  16.7989  16.8319  17.0796  17.1386
    17.1980  17.3551  17.3702  17.4368  17.4386  17.4785  17.5611  17.5815
    17.6421  17.7301  17.7430  17.8343  17.8984  17.9091  17.9697  17.9812
    18.1765  18.2283  18.3062  18.3870  18.4724  18.4825  18.5886  18.6160
    18.7966  18.8400  18.9185  18.9537  19.0387  19.1226  19.1321  19.2080
    19.2732  19.2872  19.3500  19.4567  19.5826  19.6092  19.7189  19.7573
    19.8284  19.9331  19.9905  20.0880  20.1270  20.2908  20.3400  20.3481
    20.4610  20.5483  20.6022  20.6421  20.6856  20.7752  20.8060  20.8877
    20.8938  20.9679  21.0261  21.1245  21.1465  21.2721  21.3184  21.3426
    21.3590  21.4407  21.4647  21.5509

     the Fermi energy is    -1.0600 ev

!    total energy              =   -2072.63624281 Ry
     Harris-Foulkes estimate   =   -2072.63624282 Ry
     estimated scf accuracy    <          8.2E-09 Ry

     The total energy is the sum of the following terms:

     one-electron contribution =  -22052.42941545 Ry
     hartree contribution      =   11068.62859606 Ry
     xc contribution           =    -569.37039684 Ry
     ewald contribution        =    9479.21322354 Ry
     Hubbard energy            =       1.32332442 Ry
     smearing contrib. (-TS)   =      -0.00157454 Ry

     convergence has been achieved in  14 iterations

     Forces acting on atoms (Ry/au):

     negative rho (up, down):  0.314E+01 0.000E+00
     atom    1 type  1   force =    -0.00745771   -0.01330362   -0.00002767
     atom    2 type  1   force =     0.00007817    0.00439705   -0.00030722
     atom    3 type  2   force =     0.00008114    0.00558710   -0.00078190
     atom    4 type  2   force =     0.00910077    0.00764577   -0.00052995
     atom    5 type  1   force =    -0.00388546   -0.01578424   -0.00014229
     atom    6 type  1   force =     0.00527186    0.01404985   -0.00004069
     atom    7 type  1   force =    -0.00042102   -0.00197386    0.00098129
     atom    8 type  1   force =    -0.00331131   -0.00047770    0.00000791
     atom    9 type  2   force =     0.00118566    0.00013571   -0.00037330
     atom   10 type  2   force =    -0.00000290   -0.00126225   -0.00062059
     atom   11 type  1   force =    -0.00008337    0.01551581    0.00055719
     atom   12 type  1   force =     0.00019927   -0.01514436    0.00056574
     atom   13 type  1   force =    -0.00084398   -0.00009978   -0.00018615
     atom   14 type  1   force =    -0.00746311   -0.01330547   -0.00002524
     atom   15 type  1   force =     0.00008715    0.00439591   -0.00030672
     atom   16 type  2   force =     0.00008058    0.00558638   -0.00078060
     atom   17 type  2   force =     0.00911109    0.00764554   -0.00052947
     atom   18 type  1   force =    -0.00388591   -0.01578605   -0.00013866
     atom   19 type  1   force =     0.00527168    0.01405187   -0.00003655
     atom   20 type  1   force =    -0.00040292   -0.00197389    0.00098164
     atom   21 type  1   force =    -0.00327743   -0.00047767    0.00003439
     atom   22 type  2   force =     0.00117457    0.00013615   -0.00037245
     atom   23 type  2   force =     0.00001031   -0.00126233   -0.00061780
     atom   24 type  1   force =    -0.00008497    0.01552718    0.00055227
     atom   25 type  1   force =     0.00019766   -0.01515573    0.00056075
     atom   26 type  1   force =    -0.00081361   -0.00009970   -0.00020961
     atom   27 type  3   force =     0.00001830    0.00036158    0.00091728
     atom   28 type  3   force =     0.00001842    0.00036253    0.00091645
     atom   29 type  3   force =     0.00001844    0.00035295   -0.00002140
     atom   30 type  3   force =     0.00002864    0.00035528   -0.00002663

     Total force =     0.002918     Total SCF correction =     0.000182

     bfgs converged in   8 scf cycles and   7 bfgs steps
     (criteria: energy < 0.10E-03, force < 0.10E-02)

     End of BFGS Geometry Optimization

     Final energy   =   -2072.6362428117 Ry
Begin final coordinates

ATOMIC_POSITIONS (crystal)
O0       0.000000000   0.000000000   0.378946753    0   0   1
O0       0.000000000   0.500000000   0.402089876    0   0   1
Ir1      0.250000000   0.500000000   0.452568210    0   0   1
Ir1      0.000000000   0.000000000   0.453584248    0   0   1
O0       0.250000000   0.810000000   0.453407675    0   0   1
O0       0.250000000   0.190000000   0.452936513    0   0   1
O0       0.000000000   0.500000000   0.498890850    0   0   1
O0       0.000000000   0.000000000   0.529094919    0   0   1
Ir1      0.250000000   0.000000000   0.576021453    0   0   1
Ir1      0.000000000   0.500000000   0.572058815    0   0   1
O0       0.250000000   0.690000000   0.576172515    0   0   1
O0       0.250000000   0.310000000   0.576194909    0   0   1
O0       0.000000000   0.000000000   0.620660866    0   0   1
O0       0.500000000   0.000000000   0.378946522    0   0   1
O0       0.500000000   0.500000000   0.402089858    0   0   1
Ir1      0.750000000   0.500000000   0.452568177    0   0   1
Ir1      0.500000000   0.000000000   0.453583891    0   0   1
O0       0.750000000   0.810000000   0.453407577    0   0   1
O0       0.750000000   0.190000000   0.452936418    0   0   1
O0       0.500000000   0.500000000   0.498890758    0   0   1
O0       0.500000000   0.000000000   0.529093946    0   0   1
Ir1      0.750000000   0.000000000   0.576021592    0   0   1
Ir1      0.500000000   0.500000000   0.572058673    0   0   1
O0       0.750000000   0.690000000   0.576172729    0   0   1
O0       0.750000000   0.310000000   0.576195122    0   0   1
O0       0.500000000   0.000000000   0.620661824    0   0   1
H2      -0.000180993   0.635818479   0.384184577
H2       0.499819022   0.635818454   0.384184613
H2       0.143470052   0.034327167   0.367372958
H2       0.643469570   0.034327305   0.367373164
End final coordinates

     General routines

     Parallel routines
     Hubbard U routines

   This run was terminated on:   4: 6:26   6May2014

   JOB DONE.