     Program PWSCF v.5.0.2 (svn rev. 9656) starts on 19Mar2014 at 12: 1:22

     Current dimensions of program PWSCF are:
     Max number of different atomic species (ntypx) = 10
     Max number of k-points (npk) =  40000
     Max angular momentum in pseudopotentials (lmaxx) =  3
     Reading input from pwscf.in
Warning: card &CELL ignored
Warning: card / ignored

     Subspace diagonalization in iterative solution of the eigenvalue problem:
     a serial algorithm will be used

     bravais-lattice index     =            0
     lattice parameter (alat)  =      11.2250  a.u.
     unit-cell volume          =    7005.5484 (a.u.)^3
     number of atoms/cell      =           32
     number of atomic types    =            3
     number of electrons       =       215.00
     number of Kohn-Sham states=          310
     kinetic-energy cutoff     =      40.0000  Ry
     charge density cutoff     =     500.0000  Ry
     convergence threshold     =      1.0E-06
     mixing beta               =       0.7000
     number of iterations used =            8  plain     mixing
     Exchange-correlation      = SLA  PW   PBE  PBE ( 1 4 3 4 0)
     EXX-fraction              =        0.00
     nstep                     =           50

     celldm(1)=  11.224973  celldm(2)=   0.000000  celldm(3)=   0.000000
     celldm(4)=   0.000000  celldm(5)=   0.000000  celldm(6)=   0.000000

     crystal axes: (cart. coord. in units of alat)
               a(1) = (   1.000000   0.000000   0.000000 )
               a(2) = (   0.000000   1.107086   0.000000 )
               a(3) = (   0.000000   0.000000   4.474090 )

     reciprocal axes: (cart. coord. in units 2 pi/alat)
               b(1) = (  1.000000  0.000000  0.000000 )
               b(2) = (  0.000000  0.903272  0.000000 )
               b(3) = (  0.000000  0.000000  0.223509 )

     PseudoPot. # 1 for O  read from file:
     /home/camp/zhonxu/pseudo/o_pbe_v1.01.uspp.F.UPF
     MD5 check sum: 2bcb18d16ea4b960afae9ec6d52f22d2
     Pseudo is Ultrasoft + core correction, Zval =  6.0
     Generated by new atomic code, or converted to UPF format
     Using radial grid of  737 points,  5 beta functions with:
                l(1) =   0
                l(2) =   0
                l(3) =   1
                l(4) =   1
                l(5) =   2
     Q(r) pseudized with  8 coefficients,  rinner =    0.900   0.900   0.900
                                                       0.900   0.900

     PseudoPot. # 2 for Ti read from file:
     /home/camp/zhonxu/pseudo/ti_pbe_v1.uspp.F.UPF
     MD5 check sum: bcc8f6961b3b91f0cac3ca967d22d0fb
     Pseudo is Ultrasoft + core correction, Zval = 12.0
     Generated by new atomic code, or converted to UPF format
     Using radial grid of  851 points,  6 beta functions with:
                l(1) =   0
                l(2) =   0
                l(3) =   1
                l(4) =   1
                l(5) =   2
                l(6) =   2
     Q(r) pseudized with  6 coefficients,  rinner =    1.000   1.000   1.000
                                                       1.000   1.000

     PseudoPot. # 3 for H  read from file:
     /home/camp/zhonxu/pseudo/h_pbe_v1.uspp.F.UPF
     MD5 check sum: 3408e3ff4ec8b0a4e358431e7e038a48
     Pseudo is Ultrasoft, Zval =  1.0
     Generated by new atomic code, or converted to UPF format
     Using radial grid of  615 points,  2 beta functions with:
                l(1) =   0
                l(2) =   0
     Q(r) pseudized with  8 coefficients,  rinner =    0.700

     atomic species   valence    mass     pseudopotential
        O0             6.00    15.99940     O ( 1.00)
        Ti1           12.00    47.88000     Ti( 1.00)
        H2             1.00     1.00794     H ( 1.00)

     Starting magnetic structure
     atomic species   magnetization
        O0           0.000
        Ti1          0.000
        H2           0.000

     No symmetry found

   Cartesian axes

     site n.     atom                  positions (alat units)
         1           O0  tau(   1) = (   0.0000000   0.0000000   1.6989461  )
         2           O0  tau(   2) = (   0.0000000   0.5535432   1.7901728  )
         3           Ti1 tau(   3) = (   0.2500000   0.5535432   2.0162933  )
         4           Ti1 tau(   4) = (   0.0000000   0.0000000   2.0248388  )
         5           O0  tau(   5) = (   0.2500000   0.8967400   2.0178145  )
         6           O0  tau(   6) = (   0.2500000   0.2103464   2.0226912  )
         7           O0  tau(   7) = (   0.0000000   0.5535432   2.2326603  )
         8           O0  tau(   8) = (   0.0000000   0.0000000   2.3559662  )
         9           Ti1 tau(   9) = (   0.2500000   0.0000000   2.5995804  )
        10           Ti1 tau(  10) = (   0.0000000   0.5535432   2.5483968  )
        11           O0  tau(  11) = (   0.2500000   0.7638896   2.5964932  )
        12           O0  tau(  12) = (   0.2500000   0.3431968   2.5965380  )
        13           O0  tau(  13) = (   0.0000000   0.0000000   2.7842708  )
        14           O0  tau(  14) = (   0.5000000   0.0000000   1.6989461  )
        15           O0  tau(  15) = (   0.5000000   0.5535432   1.7901728  )
        16           Ti1 tau(  16) = (   0.7500000   0.5535432   2.0162933  )
        17           Ti1 tau(  17) = (   0.5000000   0.0000000   2.0248388  )
        18           O0  tau(  18) = (   0.7500000   0.8967400   2.0178145  )
        19           O0  tau(  19) = (   0.7500000   0.2103464   2.0226912  )
        20           O0  tau(  20) = (   0.5000000   0.5535432   2.2326603  )
        21           O0  tau(  21) = (   0.5000000   0.0000000   2.3559662  )
        22           Ti1 tau(  22) = (   0.7500000   0.0000000   2.5995804  )
        23           Ti1 tau(  23) = (   0.5000000   0.5535432   2.5483968  )
        24           O0  tau(  24) = (   0.7500000   0.7638896   2.5964932  )
        25           O0  tau(  25) = (   0.7500000   0.3431968   2.5965380  )
        26           O0  tau(  26) = (   0.5000000   0.0000000   2.7842708  )
        27           H2  tau(  27) = (  -0.0005400   0.6991915   1.7063283  )
        28           H2  tau(  28) = (   0.4994600   0.6991915   1.7063283  )
        29           H2  tau(  29) = (   0.1501800   0.0252084   1.6321479  )
        30           H2  tau(  30) = (   0.6501800   0.0252084   1.6321479  )
        31           O0  tau(  31) = (   0.5000000   0.5535432   2.7910267  )
        32           H2  tau(  32) = (   0.3569000   0.5535432   2.8499057  )

     number of k points=    20  Methfessel-Paxton smearing, width (Ry)=  0.0100
                       cart. coord. in units 2pi/alat
        k(    1) = (   0.0000000   0.0000000   0.0000000), wk =   0.0625000
        k(    2) = (   0.0000000   0.2258180   0.0000000), wk =   0.1250000
        k(    3) = (   0.0000000  -0.4516359   0.0000000), wk =   0.0625000
        k(    4) = (   0.2500000   0.0000000   0.0000000), wk =   0.1250000
        k(    5) = (   0.2500000   0.2258180   0.0000000), wk =   0.1250000
        k(    6) = (   0.2500000  -0.4516359   0.0000000), wk =   0.1250000
        k(    7) = (  -0.5000000   0.0000000   0.0000000), wk =   0.0625000
        k(    8) = (  -0.5000000   0.2258180   0.0000000), wk =   0.1250000
        k(    9) = (  -0.5000000  -0.4516359   0.0000000), wk =   0.0625000
        k(   10) = (  -0.2500000   0.2258180   0.0000000), wk =   0.1250000
        k(   11) = (   0.0000000   0.0000000   0.0000000), wk =   0.0625000
        k(   12) = (   0.0000000   0.2258180   0.0000000), wk =   0.1250000
        k(   13) = (   0.0000000  -0.4516359   0.0000000), wk =   0.0625000
        k(   14) = (   0.2500000   0.0000000   0.0000000), wk =   0.1250000
        k(   15) = (   0.2500000   0.2258180   0.0000000), wk =   0.1250000
        k(   16) = (   0.2500000  -0.4516359   0.0000000), wk =   0.1250000
        k(   17) = (  -0.5000000   0.0000000   0.0000000), wk =   0.0625000
        k(   18) = (  -0.5000000   0.2258180   0.0000000), wk =   0.1250000
        k(   19) = (  -0.5000000  -0.4516359   0.0000000), wk =   0.0625000
        k(   20) = (  -0.2500000   0.2258180   0.0000000), wk =   0.1250000

     Largest allocated arrays     est. size (Mb)     dimensions
     Largest temporary arrays     est. size (Mb)     dimensions

     Check: negative/imaginary core charge=   -0.000006    0.000000

     Initial potential from superposition of free atoms
     Check: negative starting charge=(component1):   -0.051328
     Check: negative starting charge=(component2):   -0.051328

     starting charge  206.99957, renormalised to  215.00000

     negative rho (up, down):  0.533E-01 0.533E-01
     Starting wfc are  161 randomized atomic wfcs

     Self-consistent Calculation

     iteration #  1     ecut=    40.00 Ry     beta=0.70
     Davidson diagonalization with overlap
     ethr =  1.00E-02,  avg # of iterations =  6.0

     negative rho (up, down):  0.578E-01 0.578E-01

     total energy              =   -1563.74088970 Ry
     Harris-Foulkes estimate   =   -1569.48198705 Ry
     estimated scf accuracy    <       7.05118157 Ry

     total magnetization       =    -0.00 Bohr mag/cell
     absolute magnetization    =     0.01 Bohr mag/cell

[...]

     End of self-consistent calculation

 ------ SPIN UP ------------

          k = 0.0000 0.0000 0.0000 ( 29975 PWs)   bands (ev):

   -60.4145 -60.3764 -59.5632 -59.1322 -59.0865 -58.5921 -58.5648 -58.5182
   -36.9526 -36.6788 -36.5800 -36.5490 -36.5334 -36.5119 -36.4264 -35.9627
   -35.8745 -35.7822 -35.7372 -35.4760 -35.3680 -35.3202 -35.2603 -35.2217
   -35.0890 -34.8726 -34.8378 -34.8225 -34.7817 -34.7340 -34.6132 -34.5834
   -22.0670 -21.7919 -21.7315 -20.6084 -20.3786 -19.9573 -19.8257 -19.7358
   -19.6446 -19.4835 -19.3705 -19.2086 -19.1244 -19.0662 -18.9388 -18.7496
   -18.5298 -18.0590 -17.9556 -10.3124  -9.7480  -9.3717  -8.3064  -8.2321
    -7.9480  -7.7898  -7.7295  -7.6823  -7.4970  -7.1351  -7.0976  -6.9005
    -6.8835  -6.7407  -6.7279  -6.6089  -6.5881  -6.4453  -6.2459  -6.2019
    -6.0350  -6.0230  -5.8981  -5.7541  -5.4661  -5.4602  -5.3988  -5.3525
    -5.1658  -5.0795  -5.0566  -4.9374  -4.8718  -4.8152  -4.7943  -4.6587
    -4.5868  -4.3802  -4.3487  -4.3064  -4.1511  -4.0020  -3.9592  -3.8974
    -3.8131  -3.6037  -3.5311  -3.3397  -3.3050  -3.2509  -3.0887  -3.0306
    -2.9437  -2.8284  -2.7464  -2.5559  -1.3227  -0.9049  -0.7168  -0.6256
    -0.5376  -0.3122  -0.2571  -0.2319   0.3087   0.4044   0.7033   0.7124
     0.7276   0.7443   0.7617   0.9856   1.0327   1.1513   1.2912   1.4006
     1.4289   1.4754   1.9397   1.9662   1.9907   2.0629   2.2510   2.5697
     2.6269   2.6399   3.2223   3.4628   3.4828   3.5385   3.5739   3.6109
     3.6832   3.9873   4.1486   4.2658   4.4046   4.5844   4.6446   4.9806
     5.3635   5.6167   5.7609   5.7983   6.3131   6.4578   6.5870   6.9219
     6.9716   7.0140   7.1544   7.1967   7.4229   7.5868   7.7060   7.7219
     7.7513   7.8098   7.9243   7.9431   8.0862   8.2441   8.3313   8.3783
     8.4444   8.6211   8.7889   8.8481   8.8570   8.9438   9.0564   9.0709
     9.2132   9.2881   9.4861   9.6042   9.6362   9.6702   9.8116   9.9142
[...]
     atom   14 type  1   force =    -0.00047326   -0.01421256   -0.00519910
     atom   15 type  1   force =     0.00017592    0.02805909   -0.01209185
     atom   16 type  2   force =    -0.03273040   -0.01580672    0.03376838
     atom   17 type  2   force =    -0.00566361    0.00792745    0.00911464
     atom   18 type  1   force =     0.00531356   -0.09278600   -0.00209587
     atom   19 type  1   force =     0.00112908    0.09219246   -0.00264963
     atom   20 type  1   force =    -0.00596446    0.00064264   -0.18971534
     atom   21 type  1   force =     0.00272254   -0.00140499   -0.00865730
     atom   22 type  2   force =     0.00506634    0.00031643    0.01618522
     atom   23 type  2   force =     0.05394912   -0.00023945   -0.67410538
     atom   24 type  1   force =     0.08329280    0.02781749   -0.04409680
     atom   25 type  1   force =     0.08325311   -0.02758166   -0.04450493
     atom   26 type  1   force =    -0.00135631   -0.00011841    0.00457141
     atom   27 type  3   force =    -0.00007778   -0.00446780   -0.00057994
     atom   28 type  3   force =    -0.00004469   -0.00590647   -0.00081626
     atom   29 type  3   force =    -0.00034061    0.00087982   -0.00060283
     atom   30 type  3   force =     0.00138074    0.00081423   -0.00083712
     atom   31 type  1   force =     0.10761085    0.00002461    0.88946554
     atom   32 type  3   force =    -0.13353724   -0.00002761    0.10432590

     Total force =     0.911836     Total SCF correction =     0.000392

     BFGS Geometry Optimization

     number of scf cycles    =   1
     number of bfgs steps    =   0

     energy   new            =   -1567.9007787449 Ry

     new trust radius        =       0.5000000000 bohr
     new conv_thr            =       0.0000010000 Ry

ATOMIC_POSITIONS (crystal)
O0       0.000000000   0.000000000   0.379730000    0   0   0
O0       0.000000000   0.500000000   0.400120000    0   0   0
Ti1      0.250000000   0.500000000   0.450660000    0   0   0
Ti1      0.000000000   0.000000000   0.452570000    0   0   0
O0       0.250000000   0.810000000   0.451000000    0   0   0
O0       0.250000000   0.190000000   0.452090000    0   0   0
O0       0.000000000   0.500000000   0.499020000    0   0   0
O0       0.000000000   0.000000000   0.526580000    0   0   0
Ti1      0.250000000   0.000000000   0.581030000    0   0   0
Ti1      0.000000000   0.500000000   0.569590000    0   0   0
O0       0.250000000   0.690000000   0.580340000    0   0   0
O0       0.250000000   0.310000000   0.580350000    0   0   0
O0       0.000000000   0.000000000   0.622310000    0   0   0
O0       0.500000000   0.000000000   0.379730000    0   0   0
O0       0.500000000   0.500000000   0.400120000    0   0   0
Ti1      0.750000000   0.500000000   0.450660000    0   0   0
Ti1      0.500000000   0.000000000   0.452570000    0   0   0
O0       0.750000000   0.810000000   0.451000000    0   0   0
O0       0.750000000   0.190000000   0.452090000    0   0   0
O0       0.500000000   0.500000000   0.499020000    0   0   0
O0       0.500000000   0.000000000   0.526580000    0   0   0
Ti1      0.750000000   0.000000000   0.581030000    0   0   0
Ti1      0.500000000   0.500000000   0.569590000    0   0   0
O0       0.750000000   0.690000000   0.580340000    0   0   0
O0       0.750000000   0.310000000   0.580350000    0   0   0
O0       0.500000000   0.000000000   0.622310000    0   0   0
H2      -0.000540000   0.631560000   0.381380000    0   0   0
H2       0.499460000   0.631560000   0.381380000    0   0   0
H2       0.150180000   0.022770000   0.364800000    0   0   0
H2       0.650180000   0.022770000   0.364800000    0   0   0
O0       0.505350031   0.500001105   0.633703816
H2       0.350261001   0.499998760   0.638139278

     Check: negative starting charge=(component1):   -0.102657
     NEW-OLD atomic charge density approx. for the potential

     Check: negative/imaginary core charge=   -0.000006    0.000000
     Check: negative starting charge=(component1):   -0.102785

[...]

     energy   old            =   -1567.9007787449 Ry
     energy   new            =   -1568.1623099318 Ry

     CASE: energy  _new < energy  _old

[...]

     Threshold (ethr) on eigenvalues was too large:
     Diagonalizing with lowered threshold

     Davidson diagonalization with overlap
     ethr =  4.74E-08,  avg # of iterations =  1.0

[...]

     number of scf cycles    =  19
     number of bfgs steps    =  18

     energy   old            =   -1568.2427759088 Ry
     energy   new            =   -1568.2428796469 Ry

     CASE: energy  _new < energy  _old

     new trust radius        =       0.0049430267 bohr
     new conv_thr            =       0.0000000104 Ry

ATOMIC_POSITIONS (crystal)
O0       0.000000000   0.000000000   0.379730000    0   0   0
O0       0.000000000   0.500000000   0.400120000    0   0   0
Ti1      0.250000000   0.500000000   0.450660000    0   0   0
Ti1      0.000000000   0.000000000   0.452570000    0   0   0
O0       0.250000000   0.810000000   0.451000000    0   0   0
O0       0.250000000   0.190000000   0.452090000    0   0   0
O0       0.000000000   0.500000000   0.499020000    0   0   0
O0       0.000000000   0.000000000   0.526580000    0   0   0
Ti1      0.250000000   0.000000000   0.581030000    0   0   0
Ti1      0.000000000   0.500000000   0.569590000    0   0   0
O0       0.250000000   0.690000000   0.580340000    0   0   0
O0       0.250000000   0.310000000   0.580350000    0   0   0
O0       0.000000000   0.000000000   0.622310000    0   0   0
O0       0.500000000   0.000000000   0.379730000    0   0   0
O0       0.500000000   0.500000000   0.400120000    0   0   0
Ti1      0.750000000   0.500000000   0.450660000    0   0   0
Ti1      0.500000000   0.000000000   0.452570000    0   0   0
O0       0.750000000   0.810000000   0.451000000    0   0   0
O0       0.750000000   0.190000000   0.452090000    0   0   0
O0       0.500000000   0.500000000   0.499020000    0   0   0
O0       0.500000000   0.000000000   0.526580000    0   0   0
Ti1      0.750000000   0.000000000   0.581030000    0   0   0
Ti1      0.500000000   0.500000000   0.569590000    0   0   0
O0       0.750000000   0.690000000   0.580340000    0   0   0
O0       0.750000000   0.310000000   0.580350000    0   0   0
O0       0.500000000   0.000000000   0.622310000    0   0   0
H2      -0.000540000   0.631560000   0.381380000    0   0   0
H2       0.499460000   0.631560000   0.381380000    0   0   0
H2       0.150180000   0.022770000   0.364800000    0   0   0
H2       0.650180000   0.022770000   0.364800000    0   0   0
O0       0.520078775   0.500146339   0.645198840
H2       0.377248399   0.499852173   0.663906012

     Check: negative starting charge=(component1):   -0.102812
     NEW-OLD atomic charge density approx. for the potential

     Check: negative/imaginary core charge=   -0.000006    0.000000
     Check: negative starting charge=(component1):   -0.102812

[...]

     Self-consistent Calculation

[...]

     Threshold (ethr) on eigenvalues was too large:
     Diagonalizing with lowered threshold

     Davidson diagonalization with overlap
     ethr =  1.66E-08,  avg # of iterations =  1.0

[...]

     total energy              =   -1568.24288386 Ry
     Harris-Foulkes estimate   =   -1568.24288386 Ry
     estimated scf accuracy    <       0.00000002 Ry

[...]

     iteration # 11     ecut=    40.00 Ry     beta=0.70
     Davidson diagonalization with overlap
     ethr =  9.51E-12,  avg # of iterations =  1.0

     negative rho (up, down):  0.513E-01 0.513E-01

     End of self-consistent calculation

 ------ SPIN UP ------------

[...]

 ------ SPIN DOWN ----------

[...]

          k = 0.2500-0.4516 0.0000 ( 29882 PWs)   bands (ev):

[...]

          k =-0.2500 0.2258 0.0000 ( 29912 PWs)   bands (ev):

   -60.7049 -60.6781 -59.9300 -59.5554 -59.2782 -59.2454 -58.6762 -58.6469
   -37.2132 -36.9602 -36.9229 -36.8861 -36.8099 -36.7868 -36.3046 -36.2564
   -36.1157 -35.8730 -35.8469 -35.8265 -35.7886 -35.6196 -35.5466 -35.5402
   -35.4000 -35.3696 -35.1335 -34.9961 -34.9722 -34.9389 -34.8615 -34.7916
   -22.2505 -22.0533 -20.8910 -20.6878 -20.3815 -20.1661 -19.8846 -19.7962
   -19.7889 -19.6928 -19.5943 -19.4734 -19.4596 -19.3438 -19.2887 -18.8706
   -18.5960 -18.1381 -18.1243  -9.9729  -9.6867  -8.2130  -8.1186  -8.0355
    -7.9512  -7.8399  -7.6074  -7.5293  -7.4960  -7.3549  -7.2451  -7.0752
    -7.0381  -6.9543  -6.8046  -6.6734  -6.6022  -6.5568  -6.4399  -6.3652
    -6.3022  -6.1893  -6.0017  -5.8471  -5.7877  -5.6959  -5.6427  -5.4790
    -5.4360  -5.3177  -5.1814  -5.0678  -5.0527  -5.0095  -4.9616  -4.8472
    -4.7969  -4.7427  -4.6745  -4.6259  -4.5141  -4.4314  -3.9788  -3.9586
    -3.7552  -3.6601  -3.6296  -3.5824  -3.4739  -3.4178  -3.2786  -3.1676
    -3.1169  -3.0455  -2.9611  -2.7943  -1.4391  -1.1147  -1.0942  -1.0131
    -0.7016  -0.6615  -0.5279  -0.2377  -0.1176   0.1423   0.1760   0.3464
     0.4608   0.5103   0.5636   0.6569   0.7701   0.9001   0.9335   1.1435
     1.2448   1.4469   1.4640   1.6140   1.6897   1.7313   1.7908   1.9593
     2.0664   2.5262   2.9687   3.0834   3.2180   3.3032   3.5138   3.5423
     3.6336   3.9372   3.9752   4.1321   4.1714   4.4372   4.5407   4.7139
     4.8755   4.9786   5.2356   5.7391   5.9294   6.0557   6.0724   6.2037
     6.3665   6.5031   6.5593   6.8565   6.9942   7.2609   7.3181   7.4583
     7.6685   7.7975   7.8471   7.9455   7.9943   8.0175   8.1130   8.3131
     8.5112   8.5697   8.7071   8.9132   8.9972   9.0267   9.2507   9.3662
     9.3964   9.4596   9.5235   9.6085   9.6887   9.9350  10.0144  10.0815
    10.2142  10.2401  10.3457  10.4249  10.5423  10.6528  10.8149  10.8678
    10.9749  11.0332  11.1158  11.2020  11.2492  11.3035  11.4356  11.4885
    11.5256  11.6047  11.7112  11.8278  11.8913  11.9427  11.9882  12.0749
    12.1232  12.1877  12.2469  12.3758  12.4145  12.5090  12.5891  12.6659
    12.7305  12.8309  12.9046  12.9588  12.9705  13.0770  13.1679  13.2434
    13.4150  13.4718  13.5223  13.5835  13.6857  13.7702  13.8519  13.9026
    14.0018  14.0868  14.1316  14.1759  14.2383  14.3200  14.4179  14.5282
    14.5830  14.6231  14.6891  14.7792  14.8318  14.9086  14.9922  15.0446
    15.1224  15.1762  15.2485  15.3476  15.4502  15.4840  15.5362  15.5872
    15.7275  15.7709  15.8328  15.8853  15.9090  16.0454  16.0684  16.1097
    16.2131  16.2691  16.3218  16.4085  16.4901  16.5309  16.6108  16.7474
    16.8394  16.8721  16.8952  16.9492  17.0313  17.0697  17.1467  17.1780
    17.2751  17.3147  17.3873  17.4642  17.5355  17.5755  17.6156  17.6743
    17.8494  17.9112  17.9400  18.0019  18.1137  18.2319  18.2910  18.3407
    18.4015  18.4762  18.5054  18.6224  18.6407  18.6969

     the Fermi energy is    -2.8200 ev

!    total energy              =   -1568.24288385 Ry
     Harris-Foulkes estimate   =   -1568.24288386 Ry
     estimated scf accuracy    <          6.8E-09 Ry

     The total energy is the sum of the following terms:

     one-electron contribution =  -19109.32449357 Ry
     hartree contribution      =    9572.43415501 Ry
     xc contribution           =    -277.72206758 Ry
     ewald contribution        =    8246.36968898 Ry
     smearing contrib. (-TS)   =      -0.00016669 Ry

     total magnetization       =    -0.00 Bohr mag/cell
     absolute magnetization    =     0.00 Bohr mag/cell

     convergence has been achieved in  11 iterations

     Forces acting on atoms (Ry/au):

     negative rho (up, down):  0.513E-01 0.513E-01
     atom    1 type  1   force =     0.00027711   -0.01515662   -0.00200292
     atom    2 type  1   force =    -0.00007327    0.02560895   -0.00407914
     atom    3 type  2   force =     0.01142782   -0.01554900    0.01526065
     atom    4 type  2   force =    -0.00598838    0.00766565   -0.00162591
     atom    5 type  1   force =     0.00300601   -0.10100360   -0.00055308
     atom    6 type  1   force =    -0.00201171    0.10048661   -0.00114328
     atom    7 type  1   force =     0.00066902    0.00074012   -0.01677661
     atom    8 type  1   force =     0.00246942   -0.00137643   -0.01093142
     atom    9 type  2   force =    -0.00063552    0.00007809    0.02181958
     atom   10 type  2   force =    -0.00491204   -0.00006600    0.01692160
     atom   11 type  1   force =    -0.02820297   -0.01783529   -0.02104107
     atom   12 type  1   force =    -0.02832929    0.01809070   -0.02099532
     atom   13 type  1   force =     0.00171303   -0.00002271   -0.00382821
     atom   14 type  1   force =    -0.00037589   -0.01455216   -0.00324983
     atom   15 type  1   force =     0.00012933    0.02599156   -0.00527405
     atom   16 type  2   force =    -0.01128957   -0.01581188    0.01580775
     atom   17 type  2   force =    -0.00562776    0.00781271    0.00767859
     atom   18 type  1   force =     0.00431988   -0.10081780   -0.00087117
     atom   19 type  1   force =    -0.00057060    0.10052582   -0.00125318
     atom   20 type  1   force =    -0.00100824    0.00068387   -0.07237855
     atom   21 type  1   force =     0.00312594   -0.00137403   -0.00891371
     atom   22 type  2   force =    -0.00057473    0.00015879    0.02401305
     atom   23 type  2   force =     0.00210720   -0.00018697    0.14135067
     atom   24 type  1   force =     0.03027958   -0.01398019   -0.02862723
     atom   25 type  1   force =     0.03016597    0.01434594   -0.02891072
     atom   26 type  1   force =    -0.00075543   -0.00011795   -0.00772787
     atom   27 type  3   force =     0.00003733   -0.00206283   -0.00074139
     atom   28 type  3   force =     0.00000605   -0.00327487   -0.00064843
     atom   29 type  3   force =    -0.00060384    0.00052883   -0.00074982
     atom   30 type  3   force =     0.00128710    0.00051145   -0.00088022
     atom   31 type  1   force =    -0.00052367   -0.00003065    0.00057926
     atom   32 type  3   force =     0.00046212   -0.00001011   -0.00022802

     Total force =     0.000936     Total SCF correction =     0.000033

     bfgs converged in  20 scf cycles and  19 bfgs steps
     (criteria: energy < 0.10E-03, force < 0.10E-02)

     End of BFGS Geometry Optimization

     Final energy   =   -1568.2428838529 Ry
Begin final coordinates

ATOMIC_POSITIONS (crystal)
O0       0.000000000   0.000000000   0.379730000    0   0   0
O0       0.000000000   0.500000000   0.400120000    0   0   0
Ti1      0.250000000   0.500000000   0.450660000    0   0   0
Ti1      0.000000000   0.000000000   0.452570000    0   0   0
O0       0.250000000   0.810000000   0.451000000    0   0   0
O0       0.250000000   0.190000000   0.452090000    0   0   0
O0       0.000000000   0.500000000   0.499020000    0   0   0
O0       0.000000000   0.000000000   0.526580000    0   0   0
Ti1      0.250000000   0.000000000   0.581030000    0   0   0
Ti1      0.000000000   0.500000000   0.569590000    0   0   0
O0       0.250000000   0.690000000   0.580340000    0   0   0
O0       0.250000000   0.310000000   0.580350000    0   0   0
O0       0.000000000   0.000000000   0.622310000    0   0   0
O0       0.500000000   0.000000000   0.379730000    0   0   0
O0       0.500000000   0.500000000   0.400120000    0   0   0
Ti1      0.750000000   0.500000000   0.450660000    0   0   0
Ti1      0.500000000   0.000000000   0.452570000    0   0   0
O0       0.750000000   0.810000000   0.451000000    0   0   0
O0       0.750000000   0.190000000   0.452090000    0   0   0
O0       0.500000000   0.500000000   0.499020000    0   0   0
O0       0.500000000   0.000000000   0.526580000    0   0   0
Ti1      0.750000000   0.000000000   0.581030000    0   0   0
Ti1      0.500000000   0.500000000   0.569590000    0   0   0
O0       0.750000000   0.690000000   0.580340000    0   0   0
O0       0.750000000   0.310000000   0.580350000    0   0   0
O0       0.500000000   0.000000000   0.622310000    0   0   0
H2      -0.000540000   0.631560000   0.381380000    0   0   0
H2       0.499460000   0.631560000   0.381380000    0   0   0
H2       0.150180000   0.022770000   0.364800000    0   0   0
H2       0.650180000   0.022770000   0.364800000    0   0   0
O0       0.520078775   0.500146339   0.645198840
H2       0.377248399   0.499852173   0.663906012
End final coordinates

     General routines

     Parallel routines

   This run was terminated on:  19:16: 0  20Mar2014

   JOB DONE.
Running PBS batch system epilogue script
Job id: 306633.audhumbla.fysik.dtu.dk
Username: zhonxu
Groupname: campgst
Jobname: TiO2/Eads-2-layers/OH
Sessionid: 30636
Queuename: verylong
Accounting:
This job has allocated the following 16 nodes:
b081 b081 b081 b081 b081 b081 b081 b081 b079 b079 b079 b079 b079 b079 b079 b079
Finished epilogue job 306633.audhumbla.fysik.dtu.dk for zhonxu