     Program PWSCF v.5.0.2 (svn rev. 9656) starts on  5Jun2014 at 21:42: 7

     Current dimensions of program PWSCF are:
     Max number of different atomic species (ntypx) = 10
     Max number of k-points (npk) =  40000
     Max angular momentum in pseudopotentials (lmaxx) =  3
     Reading input from pwscf.in
Warning: card &CELL ignored
Warning: card / ignored

     Subspace diagonalization in iterative solution of the eigenvalue problem:
     a serial algorithm will be used

     bravais-lattice index     =            0
     lattice parameter (alat)  =      11.7541  a.u.
     unit-cell volume          =    7139.8207 (a.u.)^3
     number of atoms/cell      =           33
     number of atomic types    =            3
     number of electrons       =       245.00
     number of Kohn-Sham states=          367
     kinetic-energy cutoff     =      40.0000  Ry
     charge density cutoff     =     500.0000  Ry
     convergence threshold     =      1.0E-06
     mixing beta               =       0.3000
     number of iterations used =            8  plain     mixing
     Exchange-correlation      = SLA  PW   PBE  PBE ( 1 4 3 4 0)
     EXX-fraction              =        0.00
     nstep                     =           50

     celldm(1)=  11.754097  celldm(2)=   0.000000  celldm(3)=   0.000000
     celldm(4)=   0.000000  celldm(5)=   0.000000  celldm(6)=   0.000000

     crystal axes: (cart. coord. in units of alat)
               a(1) = (   1.000000   0.000000   0.000000 )
               a(2) = (   0.000000   1.034513   0.000000 )
               a(3) = (   0.000000   0.000000   4.249947 )

     reciprocal axes: (cart. coord. in units 2 pi/alat)
               b(1) = (  1.000000  0.000000  0.000000 )
               b(2) = (  0.000000  0.966638  0.000000 )
               b(3) = (  0.000000  0.000000  0.235297 )

     PseudoPot. # 1 for O  read from file:
     /home/camp/zhonxu/pseudo/o_pbe_v1.01.uspp.F.UPF
     MD5 check sum: 2bcb18d16ea4b960afae9ec6d52f22d2
     Pseudo is Ultrasoft + core correction, Zval =  6.0
     Generated by new atomic code, or converted to UPF format
     Using radial grid of  737 points,  5 beta functions with:
                l(1) =   0
                l(2) =   0
                l(3) =   1
                l(4) =   1
                l(5) =   2
     Q(r) pseudized with  8 coefficients,  rinner =    0.900   0.900   0.900
                                                       0.900   0.900

     PseudoPot. # 2 for Rh read from file:
     /home/camp/zhonxu/pseudo/rh_pbe_v1.uspp.F.UPF
     MD5 check sum: 37b626987ad0dd8ec6bf4cc9ef289918
     Pseudo is Ultrasoft + core correction, Zval = 15.0
     Generated by new atomic code, or converted to UPF format
     Using radial grid of  969 points,  7 beta functions with:
                l(1) =   0
                l(2) =   0
                l(3) =   1
                l(4) =   1
                l(5) =   2
                l(6) =   2
                l(7) =   2
     Q(r) pseudized with  6 coefficients,  rinner =    1.050   1.050   1.050
                                                       1.050   1.050

     PseudoPot. # 3 for H  read from file:
     /home/camp/zhonxu/pseudo/h_pbe_v1.uspp.F.UPF
     MD5 check sum: 3408e3ff4ec8b0a4e358431e7e038a48
     Pseudo is Ultrasoft, Zval =  1.0
     Generated by new atomic code, or converted to UPF format
     Using radial grid of  615 points,  2 beta functions with:
                l(1) =   0
                l(2) =   0
     Q(r) pseudized with  8 coefficients,  rinner =    0.700

     atomic species   valence    mass     pseudopotential
        O0             6.00    15.99940     O ( 1.00)
        Rh1           15.00   102.90550     Rh( 1.00)
        H2             1.00     1.00794     H ( 1.00)

     Simplified LDA+U calculation (l_max = 2) with parameters (eV):
     atomic species    L          U    alpha       J0     beta
        Rh1            2     8.0000   0.0000   0.0000   0.0000

     No symmetry found

   Cartesian axes

     site n.     atom                  positions (alat units)
         1           O0  tau(   1) = (   0.0000000   0.0000000   1.6055876  )
         2           O0  tau(   2) = (   0.0000000   0.5172566   1.7058013  )
         3           Rh1 tau(   3) = (   0.2500000   0.5172566   1.9245886  )
         4           Rh1 tau(   4) = (   0.0000000   0.0000000   1.9225486  )
         5           O0  tau(   5) = (   0.2500000   0.8379556   1.9216561  )
         6           O0  tau(   6) = (   0.2500000   0.1965575   1.9210611  )
         7           O0  tau(   7) = (   0.0000000   0.5172566   2.1183012  )
         8           O0  tau(   8) = (   0.0000000   0.0000000   2.2433346  )
         9           Rh1 tau(   9) = (   0.2500000   0.0000000   2.4442296  )
        10           Rh1 tau(  10) = (   0.0000000   0.5172566   2.4248924  )
        11           O0  tau(  11) = (   0.2500000   0.7138141   2.4423597  )
        12           O0  tau(  12) = (   0.2500000   0.3206991   2.4526445  )
        13           O0  tau(  13) = (   0.0000000   0.0000000   2.6373472  )
        14           O0  tau(  14) = (   0.5000000   0.0000000   1.6058426  )
        15           O0  tau(  15) = (   0.5000000   0.5172566   1.7065663  )
        16           Rh1 tau(  16) = (   0.7500000   0.5172566   1.9245461  )
        17           Rh1 tau(  17) = (   0.5000000   0.0000000   1.9225486  )
        18           O0  tau(  18) = (   0.7500000   0.8379556   1.9215286  )
        19           O0  tau(  19) = (   0.7500000   0.1965575   1.9212311  )
        20           O0  tau(  20) = (   0.5000000   0.5172566   2.1254411  )
        21           O0  tau(  21) = (   0.5000000   0.0000000   2.2428246  )
        22           Rh1 tau(  22) = (   0.7500000   0.0000000   2.4442296  )
        23           Rh1 tau(  23) = (   0.5000000   0.5172566   2.4566820  )
        24           O0  tau(  24) = (   0.7500000   0.7138141   2.4423172  )
        25           O0  tau(  25) = (   0.7500000   0.3206991   2.4526445  )
        26           O0  tau(  26) = (   0.5000000   0.0000000   2.6350523  )
        27           H2  tau(  27) = (   0.0000500   0.6607849   1.6355072  )
        28           H2  tau(  28) = (   0.4999200   0.6608884   1.6361872  )
        29           H2  tau(  29) = (   0.1477700   0.0372011   1.5603681  )
        30           H2  tau(  30) = (   0.6484400   0.0346148   1.5604531  )
        31           O0  tau(  31) = (   0.4997300   0.5556577   2.7651007  )
        32           O0  tau(  32) = (   0.5003300   0.3573415   2.8834192  )
        33           H2  tau(  33) = (   0.4999300   0.4160398   3.0312324  )

     number of k points=    10  Methfessel-Paxton smearing, width (Ry)=  0.0100
                       cart. coord. in units 2pi/alat
        k(    1) = (   0.0000000   0.0000000   0.0000000), wk =   0.1250000
        k(    2) = (   0.0000000   0.2416596   0.0000000), wk =   0.2500000
        k(    3) = (   0.0000000  -0.4833191   0.0000000), wk =   0.1250000
        k(    4) = (   0.2500000   0.0000000   0.0000000), wk =   0.2500000
        k(    5) = (   0.2500000   0.2416596   0.0000000), wk =   0.2500000
        k(    6) = (   0.2500000  -0.4833191   0.0000000), wk =   0.2500000
        k(    7) = (  -0.5000000   0.0000000   0.0000000), wk =   0.1250000
        k(    8) = (  -0.5000000   0.2416596   0.0000000), wk =   0.2500000
        k(    9) = (  -0.5000000  -0.4833191   0.0000000), wk =   0.1250000
        k(   10) = (  -0.2500000   0.2416596   0.0000000), wk =   0.2500000

     Largest allocated arrays     est. size (Mb)     dimensions
     Largest temporary arrays     est. size (Mb)     dimensions

     Check: negative/imaginary core charge=   -0.000003    0.000000

     Initial potential from superposition of free atoms
     Check: negative starting charge=   -0.646062

     starting charge  240.99914, renormalised to  245.00000

     negative rho (up, down):  0.657E+00 0.000E+00
     Number of +U iterations with fixed ns =  0
     Starting occupations:
 --- enter write_ns ---
 LDA+U parameters:
U( 2)     =  8.00000000
alpha( 2) =  0.00000000
atom    3   Tr[ns(na)] =   7.00000
    eigenvalues:
  0.700  0.700  0.700  0.700  0.700
    eigenvectors:
  1.000  0.000  0.000  0.000  0.000
  0.000  1.000  0.000  0.000  0.000
  0.000  0.000  1.000  0.000  0.000
  0.000  0.000  0.000  1.000  0.000
  0.000  0.000  0.000  0.000  1.000
    occupations:
  0.700  0.000  0.000  0.000  0.000
  0.000  0.700  0.000  0.000  0.000
  0.000  0.000  0.700  0.000  0.000
  0.000  0.000  0.000  0.700  0.000
  0.000  0.000  0.000  0.000  0.700
atom    4   Tr[ns(na)] =   7.00000
    eigenvalues:
  0.700  0.700  0.700  0.700  0.700
    eigenvectors:
  1.000  0.000  0.000  0.000  0.000
  0.000  1.000  0.000  0.000  0.000
  0.000  0.000  1.000  0.000  0.000
  0.000  0.000  0.000  1.000  0.000
  0.000  0.000  0.000  0.000  1.000
    occupations:
  0.700  0.000  0.000  0.000  0.000
  0.000  0.700  0.000  0.000  0.000
  0.000  0.000  0.700  0.000  0.000
  0.000  0.000  0.000  0.700  0.000
  0.000  0.000  0.000  0.000  0.700
atom    9   Tr[ns(na)] =   7.00000
    eigenvalues:
  0.700  0.700  0.700  0.700  0.700
    eigenvectors:
  1.000  0.000  0.000  0.000  0.000
  0.000  1.000  0.000  0.000  0.000
  0.000  0.000  1.000  0.000  0.000
  0.000  0.000  0.000  1.000  0.000
  0.000  0.000  0.000  0.000  1.000
    occupations:
  0.700  0.000  0.000  0.000  0.000
  0.000  0.700  0.000  0.000  0.000
  0.000  0.000  0.700  0.000  0.000
  0.000  0.000  0.000  0.700  0.000
  0.000  0.000  0.000  0.000  0.700
atom   10   Tr[ns(na)] =   7.00000
    eigenvalues:
  0.700  0.700  0.700  0.700  0.700
    eigenvectors:
  1.000  0.000  0.000  0.000  0.000
  0.000  1.000  0.000  0.000  0.000
  0.000  0.000  1.000  0.000  0.000
  0.000  0.000  0.000  1.000  0.000
  0.000  0.000  0.000  0.000  1.000
    occupations:
  0.700  0.000  0.000  0.000  0.000
  0.000  0.700  0.000  0.000  0.000
  0.000  0.000  0.700  0.000  0.000
  0.000  0.000  0.000  0.700  0.000
  0.000  0.000  0.000  0.000  0.700
atom   16   Tr[ns(na)] =   7.00000
    eigenvalues:
  0.700  0.700  0.700  0.700  0.700
    eigenvectors:
  1.000  0.000  0.000  0.000  0.000
  0.000  1.000  0.000  0.000  0.000
  0.000  0.000  1.000  0.000  0.000
  0.000  0.000  0.000  1.000  0.000
  0.000  0.000  0.000  0.000  1.000
    occupations:
  0.700  0.000  0.000  0.000  0.000
  0.000  0.700  0.000  0.000  0.000
  0.000  0.000  0.700  0.000  0.000
  0.000  0.000  0.000  0.700  0.000
  0.000  0.000  0.000  0.000  0.700
atom   17   Tr[ns(na)] =   7.00000
    eigenvalues:
  0.700  0.700  0.700  0.700  0.700
    eigenvectors:
  1.000  0.000  0.000  0.000  0.000
  0.000  1.000  0.000  0.000  0.000
  0.000  0.000  1.000  0.000  0.000
  0.000  0.000  0.000  1.000  0.000
  0.000  0.000  0.000  0.000  1.000
    occupations:
  0.700  0.000  0.000  0.000  0.000
  0.000  0.700  0.000  0.000  0.000
  0.000  0.000  0.700  0.000  0.000
  0.000  0.000  0.000  0.700  0.000
  0.000  0.000  0.000  0.000  0.700
atom   22   Tr[ns(na)] =   7.00000
    eigenvalues:
  0.700  0.700  0.700  0.700  0.700
    eigenvectors:
  1.000  0.000  0.000  0.000  0.000
  0.000  1.000  0.000  0.000  0.000
[...]
 -0.001 -0.000 -0.004  0.001  0.922
atom   10   Tr[ns(na)] =   8.10753
    eigenvalues:
  0.582  0.593  0.947  0.949  0.982
    eigenvectors:
  0.991  0.000  0.000  0.000  0.009
  0.000  0.001  0.002  0.997  0.000
  0.000  0.000  0.997  0.002  0.000
  0.009  0.000  0.000  0.000  0.991
  0.000  0.999  0.000  0.001  0.000
    occupations:
  0.585  0.000  0.007  0.037 -0.000
  0.000  0.949 -0.000  0.000 -0.010
  0.007 -0.000  0.947 -0.000 -0.000
  0.037  0.000 -0.000  0.979  0.000
 -0.000 -0.010 -0.000  0.000  0.594
atom   16   Tr[ns(na)] =   8.11572
    eigenvalues:
  0.577  0.599  0.930  0.970  0.982
    eigenvectors:
  0.018  0.184  0.003  0.000  0.795
  0.917  0.083  0.000  0.000  0.000
  0.000  0.000  0.985  0.012  0.002
  0.065  0.733  0.000  0.000  0.202
  0.000  0.000  0.012  0.988  0.000
    occupations:
  0.904  0.005  0.000 -0.154  0.000
  0.005  0.579 -0.000  0.004 -0.005
  0.000 -0.000  0.931 -0.005 -0.004
 -0.154  0.004 -0.005  0.675 -0.000
  0.000 -0.005 -0.004 -0.000  0.969
atom   17   Tr[ns(na)] =   8.13941
    eigenvalues:
  0.595  0.649  0.902  0.942  0.983
    eigenvectors:
  0.001  0.991  0.000  0.000  0.008
  0.000  0.000  0.066  0.934  0.000
  0.000  0.000  0.934  0.066  0.000
  0.000  0.008  0.000  0.000  0.992
  0.999  0.001  0.000  0.000  0.000
    occupations:
  0.652 -0.004 -0.001  0.030  0.002
 -0.004  0.939  0.010  0.001 -0.001
 -0.001  0.010  0.904 -0.000  0.001
  0.030  0.001 -0.000  0.980 -0.000
  0.002 -0.001  0.001 -0.000  0.595
atom   22   Tr[ns(na)] =   8.14573
    eigenvalues:
  0.634  0.641  0.892  0.923  0.984
    eigenvectors:
  0.000  0.153  0.000  0.000  0.847
  0.998  0.002  0.000  0.000  0.000
  0.000  0.000  0.983  0.017  0.000
  0.002  0.845  0.000  0.000  0.153
  0.000  0.000  0.017  0.983  0.000
    occupations:
  0.931  0.001 -0.001 -0.123  0.000
  0.001  0.634  0.001 -0.001 -0.000
 -0.001  0.001  0.892 -0.005  0.004
 -0.123 -0.001 -0.005  0.693  0.001
  0.000 -0.000  0.004  0.001  0.922
atom   23   Tr[ns(na)] =   8.14214
    eigenvalues:
  0.596  0.631  0.899  0.964  0.981
    eigenvectors:
  0.000  0.993  0.000  0.003  0.004
  0.001  0.000  0.999  0.000  0.000
  0.000  0.003  0.000  0.996  0.001
  0.000  0.004  0.000  0.001  0.995
  0.999  0.000  0.001  0.000  0.000
    occupations:
  0.633 -0.000  0.018  0.022 -0.000
 -0.000  0.899 -0.001 -0.000 -0.010
  0.018 -0.001  0.963 -0.002  0.000
  0.022 -0.000 -0.002  0.980  0.000
 -0.000 -0.010  0.000  0.000  0.596
N of occupied +U levels =  65.0519077
 --- exit write_ns ---

     Threshold (ethr) on eigenvalues was too large:
     Diagonalizing with lowered threshold

     Davidson diagonalization with overlap
     ethr =  8.70E-08,  avg # of iterations =  1.3

[...]

     total energy              =   -2010.54750123 Ry
     Harris-Foulkes estimate   =   -2010.54750123 Ry
     estimated scf accuracy    <       0.00000001 Ry

     iteration # 17     ecut=    40.00 Ry     beta=0.30
     Davidson diagonalization with overlap
     ethr =  4.37E-12,  avg # of iterations =  1.0

     negative rho (up, down):  0.687E+00 0.000E+00

     End of self-consistent calculation
 --- enter write_ns ---
 LDA+U parameters:
U( 2)     =  8.00000000
alpha( 2) =  0.00000000
atom    3   Tr[ns(na)] =   8.11528
    eigenvalues:
  0.577  0.599  0.930  0.970  0.982
    eigenvectors:
  0.019  0.183  0.002  0.000  0.796
  0.913  0.086  0.000  0.000  0.000
  0.000  0.000  0.978  0.019  0.002
  0.067  0.731  0.000  0.000  0.202
  0.000  0.000  0.019  0.981  0.000
    occupations:
  0.904 -0.005  0.000 -0.154 -0.001
 -0.005  0.579 -0.001 -0.004 -0.005
  0.000 -0.001  0.931 -0.005  0.005
 -0.154 -0.004 -0.005  0.675 -0.000
 -0.001 -0.005  0.005 -0.000  0.969
atom    4   Tr[ns(na)] =   8.13920
    eigenvalues:
  0.594  0.649  0.904  0.941  0.982
    eigenvectors:
  0.001  0.991  0.000  0.000  0.008
  0.000  0.000  0.101  0.899  0.000
  0.000  0.000  0.899  0.101  0.000
  0.000  0.008  0.000  0.000  0.992
  0.999  0.001  0.000  0.000  0.000
    occupations:
  0.651 -0.004 -0.001  0.029  0.002
 -0.004  0.937  0.011  0.001 -0.001
 -0.001  0.011  0.907 -0.000  0.001
  0.029  0.001 -0.000  0.980  0.000
  0.002 -0.001  0.001  0.000  0.594
atom    9   Tr[ns(na)] =   8.14568
    eigenvalues:
  0.634  0.641  0.892  0.923  0.983
    eigenvectors:
  0.004  0.149  0.000  0.000  0.846
  0.969  0.031  0.000  0.000  0.000
  0.000  0.000  0.981  0.018  0.000
  0.026  0.820  0.000  0.000  0.153
  0.000  0.000  0.018  0.981  0.000
    occupations:
  0.931 -0.000 -0.001 -0.123 -0.001
 -0.000  0.634  0.000  0.002 -0.000
 -0.001  0.000  0.892 -0.005 -0.004
 -0.123  0.002 -0.005  0.694  0.001
 -0.001 -0.000 -0.004  0.001  0.922
atom   10   Tr[ns(na)] =   8.10798
    eigenvalues:
  0.582  0.593  0.947  0.949  0.982
    eigenvectors:
  0.991  0.000  0.000  0.000  0.009
  0.000  0.001  0.003  0.997  0.000
  0.000  0.000  0.997  0.003  0.000
  0.009  0.000  0.000  0.000  0.991
  0.000  0.999  0.000  0.001  0.000
    occupations:
  0.585  0.000  0.007  0.037 -0.000
  0.000  0.949 -0.000  0.000 -0.010
  0.007 -0.000  0.947 -0.000 -0.000
  0.037  0.000 -0.000  0.979  0.000
 -0.000 -0.010 -0.000  0.000  0.594
atom   16   Tr[ns(na)] =   8.11525
    eigenvalues:
  0.577  0.599  0.930  0.969  0.982
    eigenvectors:
  0.018  0.183  0.003  0.000  0.795
  0.917  0.083  0.000  0.000  0.000
  0.000  0.000  0.985  0.012  0.002
  0.065  0.733  0.000  0.000  0.202
  0.000  0.000  0.012  0.987  0.000
    occupations:
  0.904  0.005  0.000 -0.154  0.000
  0.005  0.579 -0.000  0.004 -0.005
  0.000 -0.000  0.931 -0.005 -0.004
 -0.154  0.004 -0.005  0.675 -0.000
  0.000 -0.005 -0.004 -0.000  0.969
atom   17   Tr[ns(na)] =   8.13869
    eigenvalues:
  0.595  0.649  0.901  0.942  0.983
    eigenvectors:
  0.001  0.991  0.000  0.000  0.008
  0.000  0.000  0.066  0.934  0.000
  0.000  0.000  0.934  0.066  0.000
  0.000  0.008  0.000  0.000  0.992
  0.999  0.001  0.000  0.000  0.000
    occupations:
  0.652 -0.004 -0.001  0.030  0.002
 -0.004  0.939  0.010  0.001 -0.001
 -0.001  0.010  0.904 -0.000  0.001
  0.030  0.001 -0.000  0.980 -0.000
  0.002 -0.001  0.001 -0.000  0.595
atom   22   Tr[ns(na)] =   8.14571
    eigenvalues:
  0.634  0.641  0.892  0.923  0.984
    eigenvectors:
  0.000  0.153  0.000  0.000  0.847
  0.998  0.002  0.000  0.000  0.000
  0.000  0.000  0.983  0.017  0.000
  0.002  0.845  0.000  0.000  0.153
  0.000  0.000  0.017  0.983  0.000
    occupations:
  0.931  0.001 -0.001 -0.123  0.000
  0.001  0.634  0.001 -0.001 -0.000
 -0.001  0.001  0.892 -0.005  0.004
 -0.123 -0.001 -0.005  0.693  0.001
  0.000 -0.000  0.004  0.001  0.922
atom   23   Tr[ns(na)] =   8.14285
    eigenvalues:
  0.596  0.631  0.899  0.964  0.981
    eigenvectors:
  0.000  0.993  0.000  0.003  0.004
  0.001  0.000  0.999  0.000  0.000
  0.000  0.003  0.000  0.996  0.001
  0.000  0.004  0.000  0.001  0.995
  0.999  0.000  0.001  0.000  0.000
    occupations:
  0.633 -0.000  0.018  0.022 -0.000
 -0.000  0.899 -0.001 -0.000 -0.010
  0.018 -0.001  0.963 -0.002  0.000
  0.022 -0.000 -0.002  0.980  0.000
 -0.000 -0.010  0.000  0.000  0.596
N of occupied +U levels =  65.0506559
 --- exit write_ns ---

[...]

          k = 0.2500-0.4833 0.0000 ( 30510 PWs)   bands (ev):

[...]

          k =-0.2500 0.2417 0.0000 ( 30481 PWs)   bands (ev):

   -47.8242 -47.7287 -47.6984 -47.6831 -47.6526 -47.6020 -47.6011 -47.5949
   -47.5728 -47.5510 -47.5380 -47.4750 -47.4549 -47.4472 -47.4001 -47.3633
   -47.3463 -47.3318 -47.3271 -47.2685 -47.2264 -47.2225 -47.2129 -47.2090
   -24.6571 -20.6152 -20.3314 -20.2987 -20.2497 -19.8968 -19.8476 -19.8142
   -19.7691 -19.6841 -19.5458 -19.4662 -19.4431 -19.2849 -19.2538 -19.2035
   -19.0961 -18.5544 -18.3872 -17.7100 -10.0693  -9.9616  -9.8258  -9.6577
    -9.6081  -9.5019  -9.2910  -9.2618  -9.2106  -8.9119  -8.3602  -8.2652
    -8.2323  -8.1382  -8.0816  -7.9895  -7.9481  -7.7464  -7.6966  -7.5790
    -7.4467  -7.2960  -7.1724  -7.0792  -6.9983  -6.8436  -6.7361  -6.6664
    -6.6095  -6.5359  -6.4564  -6.3748  -6.3338  -6.2799  -6.2242  -6.1241
    -6.0927  -6.0256  -5.9516  -5.8412  -5.7144  -5.6425  -5.5344  -5.3414
    -5.0088  -4.9132  -4.7233  -4.5544  -4.4809  -4.3645  -4.2744  -4.2082
    -4.1289  -4.0010  -3.9857  -3.9248  -3.8448  -3.6039  -3.5495  -3.4534
    -3.3147  -3.1527  -3.1280  -3.0536  -3.0083  -2.9703  -2.9165  -2.8272
    -2.7845  -2.6564  -2.5458  -2.4953  -2.2406  -2.0412  -1.9135  -1.8345
    -1.7546  -1.7268  -1.5799  -1.4657  -1.3184  -1.2469  -1.1795  -0.0787
     0.4976   0.5735   0.7465   1.0882   1.3689   1.6638   1.8557   2.0710
     2.1876   2.3545   2.4157   2.5390   2.5663   2.6816   2.9661   3.2463
     3.8692   4.1898   4.4127   4.9567   5.1865   5.4959   5.8200   5.9779
     6.0315   6.1901   6.2860   6.4605   6.6237   6.8615   6.9070   7.2252
     7.3924   7.4806   7.6644   7.8193   7.8620   8.1336   8.1992   8.3003
     8.4070   8.5142   8.6981   8.8319   8.8686   9.0403   9.1557   9.1904
     9.3403   9.4141   9.4924   9.6285   9.7858   9.8258   9.9487   9.9872
    10.0859  10.1740  10.2995  10.3793  10.4789  10.5325  10.6312  10.7092
    10.7823  10.9108  10.9949  11.1343  11.1803  11.3097  11.3363  11.4349
    11.5171  11.6187  11.6697  11.7013  11.7921  11.8472  11.9380  11.9749
    12.0368  12.1374  12.2657  12.3496  12.4495  12.5095  12.5391  12.5931
    12.6450  12.7584  12.8475  12.9704  13.0497  13.0953  13.1085  13.1863
    13.3106  13.4311  13.4675  13.6122  13.6562  13.7462  13.8022  13.8883
    14.0045  14.0723  14.1494  14.1858  14.2837  14.3734  14.4474  14.4779
    14.5525  14.5724  14.7103  14.7383  14.8226  14.8911  15.0203  15.0404
    15.1115  15.2159  15.2756  15.3531  15.4697  15.5064  15.5927  15.6276
    15.6770  15.7765  15.8185  15.8613  15.9479  15.9753  16.0229  16.1016
    16.1366  16.1954  16.3204  16.3806  16.4533  16.5061  16.5349  16.6298
    16.6464  16.7394  16.7958  16.8955  16.9876  17.0645  17.1177  17.1670
    17.2367  17.2741  17.3163  17.4426  17.4796  17.5340  17.5716  17.6030
    17.7263  17.7410  17.7858  17.8571  17.9601  18.0106  18.0782  18.1284
    18.1945  18.2656  18.3629  18.4134  18.5348  18.6194  18.6490  18.6931
    18.8498  18.9250  18.9791  19.0091  19.0600  19.1814  19.2379  19.3379
    19.4065  19.4747  19.5034  19.5897  19.6464  19.7021  19.7872  19.9142
    19.9605  20.0726  20.1422  20.2297  20.3220  20.3394  20.3648  20.5012
    20.6104  20.6930  20.7257  20.7616  20.8012  20.8790  20.9719  20.9901
    21.0826  21.1241  21.1603  21.2039  21.2940  21.3722  21.4323  21.4540
    21.5183  21.5970  21.6865  21.7070  21.7708  21.8227  21.8541  21.9503
    22.0712  22.0902  22.1383  22.2253  22.2789  22.3533  22.4277  22.4636
    22.5577  22.6224  22.6670  22.7251  22.8091  22.8945  22.9314

     the Fermi energy is    -1.6315 ev

!    total energy              =   -2010.54750123 Ry
     Harris-Foulkes estimate   =   -2010.54750123 Ry
     estimated scf accuracy    <          4.0E-09 Ry

     The total energy is the sum of the following terms:

     one-electron contribution =  -23748.91433978 Ry
     hartree contribution      =   11933.65152031 Ry
     xc contribution           =    -380.18584315 Ry
     ewald contribution        =   10181.98451630 Ry
     Hubbard energy            =       2.91752773 Ry
     smearing contrib. (-TS)   =      -0.00088264 Ry

     convergence has been achieved in  17 iterations

     Forces acting on atoms (Ry/au):

     negative rho (up, down):  0.687E+00 0.000E+00
     atom    1 type  1   force =    -0.00698330   -0.01148254    0.00015951
     atom    2 type  1   force =     0.00013695    0.00289318   -0.00034636
     atom    3 type  2   force =     0.02989324    0.00586523   -0.00015348
     atom    4 type  2   force =     0.00773079    0.00769593    0.00013472
     atom    5 type  1   force =    -0.00428734   -0.02829851    0.00011172
     atom    6 type  1   force =     0.00323360    0.02667918    0.00027920
     atom    7 type  1   force =    -0.00027261   -0.00518924   -0.00037984
     atom    8 type  1   force =    -0.00274308    0.00112633   -0.00053117
     atom    9 type  2   force =     0.00374784    0.00025142   -0.00010026
     atom   10 type  2   force =    -0.00019441    0.00145744   -0.00027076
     atom   11 type  1   force =    -0.00964164    0.02413446    0.00023450
     atom   12 type  1   force =    -0.00297436   -0.01852493    0.00034987
     atom   13 type  1   force =    -0.00059936   -0.00245003   -0.00010271
     atom   14 type  1   force =    -0.00571714   -0.01115557    0.00043136
     atom   15 type  1   force =     0.00007474    0.00262419   -0.00016765
     atom   16 type  2   force =    -0.02985547    0.00595980   -0.00014740
     atom   17 type  2   force =     0.00739356    0.00835972    0.00003287
     atom   18 type  1   force =    -0.00188826   -0.02906856    0.00010873
     atom   19 type  1   force =     0.00554826    0.02605754    0.00028439
     atom   20 type  1   force =    -0.00011426   -0.00688164    0.00083158
     atom   21 type  1   force =    -0.00290159    0.00138535   -0.00072111
     atom   22 type  2   force =    -0.00131352    0.00013879   -0.00010477
     atom   23 type  2   force =    -0.00055812    0.00321012   -0.00075726
     atom   24 type  1   force =     0.00905268    0.02387906    0.00023130
     atom   25 type  1   force =     0.00420873   -0.01867767    0.00041963
     atom   26 type  1   force =    -0.00084775   -0.01027467    0.00038675
     atom   27 type  3   force =    -0.00000240    0.00027444    0.00025828
     atom   28 type  3   force =    -0.00000011    0.00022800    0.00040279
     atom   29 type  3   force =    -0.00002224    0.00010599    0.00020427
     atom   30 type  3   force =    -0.00023160    0.00008143    0.00006962
     atom   31 type  1   force =    -0.00025551   -0.00004378    0.00040564
     atom   32 type  1   force =     0.00041310   -0.00038207   -0.00066056
     atom   33 type  3   force =    -0.00002941    0.00002162   -0.00089342

     Total force =     0.002396     Total SCF correction =     0.000093

     entering subroutine stress ...

     negative rho (up, down):  0.687E+00 0.000E+00
          total   stress  (Ry/bohr**3)                   (kbar)     P=  -17.52
  -0.00012465   0.00000646   0.00000404        -18.34      0.95      0.59
   0.00000646  -0.00014073   0.00000403          0.95    -20.70      0.59
   0.00000404   0.00000403  -0.00009185          0.59      0.59    -13.51

     bfgs converged in   9 scf cycles and   8 bfgs steps
     (criteria: energy < 0.10E-03, force < 0.10E-02)

     End of BFGS Geometry Optimization

     Final energy   =   -2010.5475012294 Ry
Begin final coordinates

ATOMIC_POSITIONS (crystal)
O0       0.000000000   0.000000000   0.378058513    0   0   1
O0       0.000000000   0.500000000   0.401974448    0   0   1
Rh1      0.250000000   0.500000000   0.452975634    0   0   1
Rh1      0.000000000   0.000000000   0.452416286    0   0   1
O0       0.250000000   0.810000000   0.452415460    0   0   1
O0       0.250000000   0.190000000   0.452053367    0   0   1
O0       0.000000000   0.500000000   0.499469655    0   0   1
O0       0.000000000   0.000000000   0.527722342    0   0   1
Rh1      0.250000000   0.000000000   0.574748533    0   0   1
Rh1      0.000000000   0.500000000   0.570922707    0   0   1
O0       0.250000000   0.690000000   0.574105796    0   0   1
O0       0.250000000   0.310000000   0.576431474    0   0   1
O0       0.000000000   0.000000000   0.620435801    0   0   1
O0       0.500000000   0.000000000   0.377948803    0   0   1
O0       0.500000000   0.500000000   0.402030760    0   0   1
Rh1      0.750000000   0.500000000   0.452966029    0   0   1
Rh1      0.500000000   0.000000000   0.452208819    0   0   1
O0       0.750000000   0.810000000   0.452381152    0   0   1
O0       0.750000000   0.190000000   0.452089015    0   0   1
O0       0.500000000   0.500000000   0.500544437    0   0   1
O0       0.500000000   0.000000000   0.527590341    0   0   1
Rh1      0.750000000   0.000000000   0.574746487    0   0   1
Rh1      0.500000000   0.500000000   0.577410244    0   0   1
O0       0.750000000   0.690000000   0.574110209    0   0   1
O0       0.750000000   0.310000000   0.576422468    0   0   1
O0       0.500000000   0.000000000   0.620044537    0   0   1
H2      -0.000177425   0.637273663   0.384995047
H2       0.499714384   0.637729157   0.385232540
H2       0.147806442   0.036256013   0.367440961
H2       0.648633814   0.033852889   0.367418812
O0       0.499279001   0.535753784   0.650666900
O0       0.500829634   0.347085654   0.677938219
H2       0.499934864   0.401353218   0.713014205
End final coordinates

     General routines

     Parallel routines
     Hubbard U routines

   This run was terminated on:  12:20:34   6Jun2014

   JOB DONE.