     Program PWSCF v.5.0.2 (svn rev. 9656) starts on  4May2014 at 19: 2:30

     Current dimensions of program PWSCF are:
     Max number of different atomic species (ntypx) = 10
     Max number of k-points (npk) =  40000
     Max angular momentum in pseudopotentials (lmaxx) =  3
     Reading input from pwscf.in
Warning: card &CELL ignored
Warning: card / ignored

     Subspace diagonalization in iterative solution of the eigenvalue problem:
     a serial algorithm will be used

     bravais-lattice index     =            0
     lattice parameter (alat)  =      10.7336  a.u.
     unit-cell volume          =    6184.1966 (a.u.)^3
     number of atoms/cell      =           32
     number of atomic types    =            3
     number of electrons       =       239.00 (up: 131.00, down: 108.00)
     number of Kohn-Sham states=          346
     kinetic-energy cutoff     =      40.0000  Ry
     charge density cutoff     =     500.0000  Ry
     convergence threshold     =      1.0E-06
     mixing beta               =       0.7000
     number of iterations used =            8  plain     mixing
     Exchange-correlation      = SLA  PW   PBE  PBE ( 1 4 3 4 0)
     EXX-fraction              =        0.00
     nstep                     =           50

     celldm(1)=  10.733644  celldm(2)=   0.000000  celldm(3)=   0.000000
     celldm(4)=   0.000000  celldm(5)=   0.000000  celldm(6)=   0.000000

     crystal axes: (cart. coord. in units of alat)
               a(1) = (   1.000000   0.000000   0.000000 )
               a(2) = (   0.000000   1.085558   0.000000 )
               a(3) = (   0.000000   0.000000   4.606685 )

     reciprocal axes: (cart. coord. in units 2 pi/alat)
               b(1) = (  1.000000  0.000000  0.000000 )
               b(2) = (  0.000000  0.921185  0.000000 )
               b(3) = (  0.000000  0.000000  0.217076 )

     PseudoPot. # 1 for O  read from file:
     /home/camp/zhonxu/pseudo/o_pbe_v1.01.uspp.F.UPF
     MD5 check sum: 2bcb18d16ea4b960afae9ec6d52f22d2
     Pseudo is Ultrasoft + core correction, Zval =  6.0
     Generated by new atomic code, or converted to UPF format
     Using radial grid of  737 points,  5 beta functions with:
                l(1) =   0
                l(2) =   0
                l(3) =   1
                l(4) =   1
                l(5) =   2
     Q(r) pseudized with  8 coefficients,  rinner =    0.900   0.900   0.900
                                                       0.900   0.900

     PseudoPot. # 2 for Mn read from file:
     /home/camp/zhonxu/pseudo/mn_pbe_v1.uspp.F.UPF
     MD5 check sum: 5fd7c7b5c956fd19902447332617373a
     Pseudo is Ultrasoft + core correction, Zval = 15.0
     Generated by new atomic code, or converted to UPF format
     Using radial grid of  859 points,  6 beta functions with:
                l(1) =   0
                l(2) =   0
                l(3) =   1
                l(4) =   1
                l(5) =   2
                l(6) =   2
     Q(r) pseudized with  6 coefficients,  rinner =    1.150   1.150   1.150
                                                       1.150   1.150

     PseudoPot. # 3 for H  read from file:
     /home/camp/zhonxu/pseudo/h_pbe_v1.uspp.F.UPF
     MD5 check sum: 3408e3ff4ec8b0a4e358431e7e038a48
     Pseudo is Ultrasoft, Zval =  1.0
     Generated by new atomic code, or converted to UPF format
     Using radial grid of  615 points,  2 beta functions with:
                l(1) =   0
                l(2) =   0
     Q(r) pseudized with  8 coefficients,  rinner =    0.700

     atomic species   valence    mass     pseudopotential
        O0             6.00    15.99940     O ( 1.00)
        Mn1           15.00    54.93800     Mn( 1.00)
        H2             1.00     1.00794     H ( 1.00)

     Starting magnetic structure
     atomic species   magnetization
        O0           0.000
        Mn1          0.600
        H2           0.000

     Simplified LDA+U calculation (l_max = 2) with parameters (eV):
     atomic species    L          U    alpha       J0     beta
        Mn1            2     3.0000   0.0000   0.0000   0.0000

     No symmetry found

   Cartesian axes

     site n.     atom                  positions (alat units)
         1           O0  tau(   1) = (   0.0000000   0.0000000   1.7414191  )
         2           O0  tau(   2) = (   0.0000000   0.5427791   1.8381134  )
         3           Mn1 tau(   3) = (   0.2500000   0.5427791   2.0740217  )
         4           Mn1 tau(   4) = (   0.0000000   0.0000000   2.0686319  )
         5           O0  tau(   5) = (   0.2500000   0.8684466   2.0678488  )
         6           O0  tau(   6) = (   0.2500000   0.2171117   2.0737453  )
         7           O0  tau(   7) = (   0.0000000   0.5427791   2.2873573  )
         8           O0  tau(   8) = (   0.0000000   0.0000000   2.4132120  )
         9           Mn1 tau(   9) = (   0.2500000   0.0000000   2.6399991  )
        10           Mn1 tau(  10) = (   0.0000000   0.5427791   2.6085815  )
        11           O0  tau(  11) = (   0.2500000   0.7598908   2.6551551  )
        12           O0  tau(  12) = (   0.2500000   0.3256675   2.6556157  )
        13           O0  tau(  13) = (   0.0000000   0.0000000   2.8417258  )
        14           O0  tau(  14) = (   0.5000000   0.0000000   1.7428932  )
        15           O0  tau(  15) = (   0.5000000   0.5427791   1.8386662  )
        16           Mn1 tau(  16) = (   0.7500000   0.5427791   2.0740678  )
        17           Mn1 tau(  17) = (   0.5000000   0.0000000   2.0707510  )
        18           O0  tau(  18) = (   0.7500000   0.8684466   2.0677106  )
        19           O0  tau(  19) = (   0.7500000   0.2171117   2.0738835  )
        20           O0  tau(  20) = (   0.5000000   0.5427791   2.2871270  )
        21           O0  tau(  21) = (   0.5000000   0.0000000   2.4132120  )
        22           Mn1 tau(  22) = (   0.7500000   0.0000000   2.6413811  )
        23           Mn1 tau(  23) = (   0.5000000   0.5427791   2.6662572  )
        24           O0  tau(  24) = (   0.7500000   0.7598908   2.6473698  )
        25           O0  tau(  25) = (   0.7500000   0.3256675   2.6477844  )
        26           O0  tau(  26) = (   0.5000000   0.0000000   2.8412191  )
        27           H2  tau(  27) = (   0.0000400   0.7014118   1.7620570  )
        28           H2  tau(  28) = (   0.5000900   0.7016832   1.7629323  )
        29           H2  tau(  29) = (   0.1613600   0.0398291   1.6869220  )
        30           H2  tau(  30) = (   0.6610200   0.0399703   1.6876591  )
        31           O0  tau(  31) = (   0.5153900   0.5432351   2.9826904  )
        32           H2  tau(  32) = (   0.3575300   0.5430397   3.0540479  )

     number of k points=    20  Methfessel-Paxton smearing, width (Ry)=  0.0100
                       cart. coord. in units 2pi/alat
        k(    1) = (   0.0000000   0.0000000   0.0000000), wk =   0.0625000
        k(    2) = (   0.0000000   0.2302962   0.0000000), wk =   0.1250000
        k(    3) = (   0.0000000  -0.4605925   0.0000000), wk =   0.0625000
        k(    4) = (   0.2500000   0.0000000   0.0000000), wk =   0.1250000
        k(    5) = (   0.2500000   0.2302962   0.0000000), wk =   0.1250000
        k(    6) = (   0.2500000  -0.4605925   0.0000000), wk =   0.1250000
        k(    7) = (  -0.5000000   0.0000000   0.0000000), wk =   0.0625000
        k(    8) = (  -0.5000000   0.2302962   0.0000000), wk =   0.1250000
        k(    9) = (  -0.5000000  -0.4605925   0.0000000), wk =   0.0625000
        k(   10) = (  -0.2500000   0.2302962   0.0000000), wk =   0.1250000
        k(   11) = (   0.0000000   0.0000000   0.0000000), wk =   0.0625000
        k(   12) = (   0.0000000   0.2302962   0.0000000), wk =   0.1250000
        k(   13) = (   0.0000000  -0.4605925   0.0000000), wk =   0.0625000
        k(   14) = (   0.2500000   0.0000000   0.0000000), wk =   0.1250000
        k(   15) = (   0.2500000   0.2302962   0.0000000), wk =   0.1250000
        k(   16) = (   0.2500000  -0.4605925   0.0000000), wk =   0.1250000
        k(   17) = (  -0.5000000   0.0000000   0.0000000), wk =   0.0625000
        k(   18) = (  -0.5000000   0.2302962   0.0000000), wk =   0.1250000
        k(   19) = (  -0.5000000  -0.4605925   0.0000000), wk =   0.0625000
        k(   20) = (  -0.2500000   0.2302962   0.0000000), wk =   0.1250000

     Largest allocated arrays     est. size (Mb)     dimensions
     Largest temporary arrays     est. size (Mb)     dimensions

     Check: negative/imaginary core charge=   -0.000022    0.000000

     Initial potential from superposition of free atoms
     Check: negative starting charge=(component1):   -0.000716
     Check: negative starting charge=(component2):   -0.000389

     starting charge  230.99986, renormalised to  239.00000

     negative rho (up, down):  0.741E-03 0.403E-03
     Number of +U iterations with fixed ns =  0
     Starting occupations:
 --- enter write_ns ---
 LDA+U parameters:
U( 2)     =  3.00000000
alpha( 2) =  0.00000000
atom    3   Tr[ns(na)] (up, down, total) =   5.00000  0.00000  5.00000
   spin  1
    eigenvalues:
  1.000  1.000  1.000  1.000  1.000
    eigenvectors:
  1.000  0.000  0.000  0.000  0.000
  0.000  1.000  0.000  0.000  0.000
  0.000  0.000  1.000  0.000  0.000
  0.000  0.000  0.000  1.000  0.000
  0.000  0.000  0.000  0.000  1.000
    occupations:
  1.000  0.000  0.000  0.000  0.000
  0.000  1.000  0.000  0.000  0.000
  0.000  0.000  1.000  0.000  0.000
  0.000  0.000  0.000  1.000  0.000
  0.000  0.000  0.000  0.000  1.000
   spin  2
    eigenvalues:
  0.000  0.000  0.000  0.000  0.000
    eigenvectors:
  1.000  0.000  0.000  0.000  0.000
  0.000  1.000  0.000  0.000  0.000
  0.000  0.000  1.000  0.000  0.000
  0.000  0.000  0.000  1.000  0.000
  0.000  0.000  0.000  0.000  1.000
    occupations:
  0.000  0.000  0.000  0.000  0.000
  0.000  0.000  0.000  0.000  0.000
  0.000  0.000  0.000  0.000  0.000
  0.000  0.000  0.000  0.000  0.000
  0.000  0.000  0.000  0.000  0.000
atomic mag. moment =     5.000000
atom    4   Tr[ns(na)] (up, down, total) =   5.00000  0.00000  5.00000
   spin  1
    eigenvalues:
  1.000  1.000  1.000  1.000  1.000
    eigenvectors:
  1.000  0.000  0.000  0.000  0.000
  0.000  1.000  0.000  0.000  0.000
  0.000  0.000  1.000  0.000  0.000
  0.000  0.000  0.000  1.000  0.000
  0.000  0.000  0.000  0.000  1.000
    occupations:
  1.000  0.000  0.000  0.000  0.000
  0.000  1.000  0.000  0.000  0.000
  0.000  0.000  1.000  0.000  0.000
  0.000  0.000  0.000  1.000  0.000
  0.000  0.000  0.000  0.000  1.000
   spin  2
    eigenvalues:
  0.000  0.000  0.000  0.000  0.000
    eigenvectors:
  1.000  0.000  0.000  0.000  0.000
  0.000  1.000  0.000  0.000  0.000
  0.000  0.000  1.000  0.000  0.000
  0.000  0.000  0.000  1.000  0.000
  0.000  0.000  0.000  0.000  1.000
    occupations:
  0.000  0.000  0.000  0.000  0.000
  0.000  0.000  0.000  0.000  0.000
  0.000  0.000  0.000  0.000  0.000
  0.000  0.000  0.000  0.000  0.000
  0.000  0.000  0.000  0.000  0.000
atomic mag. moment =     5.000000
atom    9   Tr[ns(na)] (up, down, total) =   5.00000  0.00000  5.00000
   spin  1
    eigenvalues:
  1.000  1.000  1.000  1.000  1.000
[...]
  0.002  0.018  0.979  0.000  0.000
  0.217  0.000  0.000  0.297  0.486
  0.000  0.979  0.018  0.001  0.001
    occupations:
  0.171 -0.002 -0.002  0.114  0.000
 -0.002  0.385  0.000 -0.004  0.011
 -0.002  0.000  0.173  0.004 -0.004
  0.114 -0.004  0.004  0.327 -0.000
  0.000  0.011 -0.004 -0.000  0.148
atomic mag. moment =     3.046081
atom    4   Tr[ns(na)] (up, down, total) =   4.24256  1.20446  5.44702
   spin  1
    eigenvalues:
  0.593  0.649  0.994  1.003  1.004
    eigenvectors:
  0.000  0.998  0.000  0.000  0.001
  0.000  0.001  0.000  0.021  0.978
  0.000  0.000  0.000  0.978  0.021
  0.000  0.000  1.000  0.000  0.000
  1.000  0.000  0.000  0.000  0.000
    occupations:
  0.650 -0.011 -0.005  0.006 -0.001
 -0.011  1.003 -0.000  0.000 -0.000
 -0.005 -0.000  1.003  0.000  0.000
  0.006  0.000  0.000  0.994  0.000
 -0.001 -0.000  0.000  0.000  0.593
   spin  2
    eigenvalues:
  0.106  0.145  0.172  0.388  0.393
    eigenvectors:
  0.002  0.004  0.000  0.992  0.001
  0.001  0.905  0.090  0.004  0.000
  0.000  0.089  0.910  0.001  0.000
  0.996  0.002  0.000  0.002  0.000
  0.000  0.000  0.000  0.001  0.998
    occupations:
  0.386  0.015  0.006 -0.013  0.000
  0.015  0.149 -0.007  0.000 -0.003
  0.006 -0.007  0.170  0.001 -0.000
 -0.013  0.000  0.001  0.107 -0.000
  0.000 -0.003 -0.000 -0.000  0.393
atomic mag. moment =     3.038107
atom    9   Tr[ns(na)] (up, down, total) =   4.21468  1.27711  5.49180
   spin  1
    eigenvalues:
  0.637  0.651  0.951  0.980  0.996
    eigenvectors:
  0.215  0.000  0.000  0.000  0.785
  0.000  1.000  0.000  0.000  0.000
  0.000  0.000  0.037  0.963  0.000
  0.785  0.000  0.000  0.000  0.215
  0.000  0.000  0.963  0.037  0.000
    occupations:
  0.919  0.001 -0.000 -0.148  0.000
  0.001  0.651  0.000 -0.001 -0.000
 -0.000  0.000  0.979 -0.000  0.005
 -0.148 -0.001 -0.000  0.714  0.000
  0.000 -0.000  0.005  0.000  0.952
   spin  2
    eigenvalues:
  0.138  0.161  0.163  0.394  0.421
    eigenvectors:
  0.819  0.000  0.000  0.181  0.000
  0.000  0.000  0.000  0.002  0.998
  0.000  0.230  0.770  0.000  0.000
  0.181  0.000  0.000  0.817  0.002
  0.000  0.770  0.230  0.000  0.000
    occupations:
  0.184 -0.001  0.000  0.098 -0.000
 -0.001  0.421 -0.000  0.002 -0.000
  0.000 -0.000  0.162  0.000  0.001
  0.098  0.002  0.000  0.347 -0.000
 -0.000 -0.000  0.001 -0.000  0.161
atomic mag. moment =     2.937570
atom   10   Tr[ns(na)] (up, down, total) =   4.45397  0.92592  5.37989
   spin  1
    eigenvalues:
  0.610  0.849  0.996  0.997  1.003
    eigenvectors:
  0.000  0.988  0.012  0.000  0.000
  0.000  0.001  0.030  0.968  0.000
  0.000  0.000  0.000  0.000  1.000
  0.000  0.011  0.958  0.031  0.000
  1.000  0.000  0.000  0.000  0.000
    occupations:
  0.850 -0.005  0.001  0.015 -0.000
 -0.005  0.997  0.000  0.001 -0.001
  0.001  0.000  1.003 -0.000  0.005
  0.015  0.001 -0.000  0.994 -0.000
 -0.000 -0.001  0.005 -0.000  0.610
   spin  2
    eigenvalues:
  0.094  0.126  0.129  0.217  0.361
    eigenvectors:
  0.016  0.000  0.000  0.984  0.000
  0.000  0.000  1.000  0.000  0.000
  0.000  1.000  0.000  0.000  0.000
  0.984  0.000  0.000  0.016  0.000
  0.000  0.000  0.000  0.000  1.000
    occupations:
  0.215  0.001 -0.000 -0.015  0.000
  0.001  0.129 -0.000 -0.000  0.000
 -0.000 -0.000  0.126 -0.000 -0.004
 -0.015 -0.000 -0.000  0.096 -0.000
  0.000  0.000 -0.004 -0.000  0.361
atomic mag. moment =     3.528055
atom   16   Tr[ns(na)] (up, down, total) =   4.25019  1.20314  5.45333
   spin  1
    eigenvalues:
  0.623  0.630  0.996  0.997  1.004
    eigenvectors:
  0.203  0.042  0.738  0.003  0.014
  0.185  0.814  0.000  0.001  0.000
  0.000  0.000  0.015  0.001  0.983
  0.612  0.143  0.242  0.001  0.002
  0.000  0.001  0.005  0.993  0.001
    occupations:
  0.905 -0.004 -0.004 -0.160  0.000
 -0.004  0.629  0.000 -0.001 -0.010
 -0.004  0.000  1.004 -0.005 -0.000
 -0.160 -0.001 -0.005  0.716  0.000
  0.000 -0.010 -0.000  0.000  0.996
   spin  2
    eigenvalues:
  0.111  0.147  0.174  0.382  0.390
    eigenvectors:
  0.780  0.000  0.002  0.071  0.146
  0.000  0.002  0.000  0.673  0.324
  0.002  0.017  0.981  0.000  0.000
  0.217  0.000  0.000  0.254  0.528
  0.000  0.981  0.017  0.002  0.001
    occupations:
  0.171  0.002 -0.002  0.114 -0.000
  0.002  0.384 -0.000  0.003  0.011
 -0.002 -0.000  0.173  0.004  0.003
  0.114  0.003  0.004  0.327 -0.000
 -0.000  0.011  0.003 -0.000  0.148
atomic mag. moment =     3.047045
atom   17   Tr[ns(na)] (up, down, total) =   4.24122  1.20431  5.44553
   spin  1
    eigenvalues:
  0.594  0.648  0.994  1.002  1.003
    eigenvectors:
  0.000  0.998  0.000  0.000  0.001
  0.000  0.001  0.000  0.030  0.968
  0.000  0.000  0.000  0.969  0.030
  0.000  0.000  0.999  0.000  0.000
  1.000  0.000  0.000  0.000  0.000
    occupations:
  0.649 -0.011 -0.005  0.006 -0.001
 -0.011  1.003  0.000  0.000 -0.000
 -0.005  0.000  1.002  0.000  0.000
  0.006  0.000  0.000  0.994  0.000
 -0.001 -0.000  0.000  0.000  0.594
   spin  2
    eigenvalues:
  0.106  0.146  0.172  0.389  0.392
    eigenvectors:
  0.002  0.004  0.000  0.991  0.003
  0.001  0.906  0.089  0.004  0.000
  0.000  0.088  0.911  0.001  0.000
  0.996  0.002  0.000  0.002  0.000
  0.000  0.000  0.000  0.003  0.997
    occupations:
  0.387  0.015  0.006 -0.013  0.000
  0.015  0.149 -0.007  0.000 -0.003
  0.006 -0.007  0.169  0.001  0.000
 -0.013  0.000  0.001  0.107 -0.000
  0.000 -0.003  0.000 -0.000  0.392
atomic mag. moment =     3.036919
atom   22   Tr[ns(na)] (up, down, total) =   4.20808  1.28617  5.49425
   spin  1
    eigenvalues:
  0.636  0.650  0.947  0.979  0.996
    eigenvectors:
  0.216  0.001  0.000  0.000  0.783
  0.005  0.995  0.000  0.000  0.000
  0.000  0.000  0.075  0.925  0.000
  0.780  0.003  0.000  0.000  0.217
  0.000  0.000  0.925  0.075  0.000
    occupations:
  0.918 -0.001 -0.000 -0.149 -0.000
 -0.001  0.649  0.000  0.001 -0.000
 -0.000  0.000  0.977 -0.000 -0.008
 -0.149  0.001 -0.000  0.714  0.000
 -0.000 -0.000 -0.008  0.000  0.949
   spin  2
    eigenvalues:
  0.139  0.162  0.166  0.398  0.421
    eigenvectors:
  0.817  0.000  0.000  0.183  0.000
  0.000  0.000  0.000  0.002  0.998
  0.000  0.063  0.937  0.000  0.000
  0.183  0.000  0.000  0.816  0.002
  0.000  0.937  0.063  0.000  0.000
    occupations:
  0.186  0.001  0.000  0.100 -0.000
  0.001  0.421 -0.000 -0.002 -0.000
  0.000 -0.000  0.166  0.000 -0.001
  0.100 -0.002  0.000  0.350  0.000
 -0.000 -0.000 -0.001  0.000  0.163
atomic mag. moment =     2.921910
atom   23   Tr[ns(na)] (up, down, total) =   4.25664  1.17901  5.43565
   spin  1
    eigenvalues:
  0.608  0.663  0.993  0.995  0.998
    eigenvectors:
  0.000  1.000  0.000  0.000  0.000
  0.000  0.000  0.926  0.074  0.000
  0.000  0.000  0.000  0.000  1.000
  0.000  0.000  0.074  0.926  0.000
  1.000  0.000  0.000  0.000  0.000
    occupations:
  0.663  0.003  0.001  0.003 -0.000
  0.003  0.993  0.000 -0.001 -0.001
  0.001  0.000  0.998 -0.000 -0.004
  0.003 -0.001 -0.000  0.995 -0.000
 -0.000 -0.001 -0.004 -0.000  0.608
   spin  2
    eigenvalues:
  0.107  0.137  0.166  0.372  0.397
    eigenvectors:
  0.002  0.000  0.000  0.997  0.000
  0.001  0.999  0.000  0.000  0.000
  0.000  0.000  1.000  0.000  0.000
  0.997  0.001  0.000  0.002  0.000
  0.000  0.000  0.000  0.000  1.000
    occupations:
  0.371  0.004 -0.001 -0.013  0.000
  0.004  0.137 -0.000 -0.001  0.001
 -0.001 -0.000  0.167  0.000  0.004
 -0.013 -0.001  0.000  0.108  0.000
  0.000  0.001  0.004  0.000  0.396
atomic mag. moment =     3.077629
N of occupied +U levels =  43.6016497
 --- exit write_ns ---

 ------ SPIN UP ------------

[...]

 ------ SPIN DOWN ----------

[...]

          k = 0.2500-0.4606 0.0000 ( 26462 PWs)   bands (ev):

[...]

          k =-0.2500 0.2303 0.0000 ( 26396 PWs)   bands (ev):

   -80.6409 -80.6323 -80.4778 -80.4745 -80.4676 -80.4386 -80.4112 -79.8212
   -49.5411 -49.4441 -49.4333 -49.4250 -49.3965 -49.3868 -49.3756 -49.3596
   -49.3469 -49.3433 -49.3347 -49.2936 -49.2743 -49.2597 -49.2589 -49.2292
   -49.1268 -49.1016 -49.0824 -49.0457 -49.0154 -48.8881 -48.7273 -48.2888
   -21.7537 -21.3217 -21.0991 -20.8179 -20.4703 -20.4244 -20.2573 -20.2203
   -20.1110 -20.0125 -19.9364 -19.8873 -19.8157 -19.7188 -19.6408 -19.5531
   -19.4775 -19.4221 -19.2712  -9.2023  -8.9625  -8.4814  -8.4100  -8.3571
    -8.0619  -7.9611  -7.8558  -7.6348  -7.5906  -7.5008  -7.3739  -7.2676
    -7.1787  -7.1328  -7.0539  -6.9367  -6.8745  -6.7963  -6.6729  -6.5375
    -6.4466  -6.4153  -6.2816  -6.1781  -6.1084  -5.8352  -5.7675  -5.6944
    -5.6128  -5.5045  -5.4471  -5.4027  -5.2855  -5.2167  -5.1427  -4.9667
    -4.8850  -4.7228  -4.6472  -4.5692  -4.5037  -4.4087  -4.3209  -4.2442
    -4.0958  -4.0548  -3.9474  -3.8503  -3.6960  -3.5823  -3.5251  -3.4217
    -3.1523  -3.1085  -3.0150  -2.6922  -0.1969  -0.1394  -0.1015  -0.0765
     0.0007   0.0576   0.0704   0.1295   0.2008   0.2411   0.3239   0.3854
     0.4490   0.5014   0.5549   0.5808   0.6700   0.7439   0.7698   0.8633
     1.0099   1.0845   1.1013   1.1564   1.2127   1.2653   1.3846   1.4618
     1.5297   1.6453   1.8390   1.9277   2.0865   2.2064   2.2462   2.4030
     2.4362   2.6790   2.7982   2.9020   3.7669   4.0522   4.3626   4.8339
     5.3512   5.6786   5.8181   6.0257   6.2783   6.4540   6.5586   6.6944
     6.8038   6.9600   7.0720   7.3848   7.5026   7.7681   7.9194   7.9886
     8.2804   8.3919   8.4837   8.6435   8.7427   8.9216   9.0400   9.1623
     9.2470   9.3339   9.4618   9.5629   9.7183   9.8421   9.9512  10.0847
    10.1649  10.2180  10.3616  10.4528  10.5974  10.7128  10.7928  10.9915
    11.0427  11.1311  11.1909  11.2890  11.4073  11.4777  11.5430  11.6931
    11.7387  11.8222  11.8871  12.0161  12.0356  12.1566  12.2113  12.3578
    12.4274  12.4858  12.6389  12.7211  12.8551  12.9060  12.9423  13.0043
    13.0729  13.1232  13.1735  13.2636  13.3713  13.4084  13.4908  13.5846
    13.6602  13.7400  13.7975  13.8410  13.9048  13.9837  14.0604  14.0925
    14.1904  14.3183  14.3260  14.4410  14.4927  14.5621  14.5850  14.7291
    14.7802  14.8411  14.8630  14.9563  15.0765  15.1168  15.2013  15.2734
    15.3768  15.4238  15.5492  15.6650  15.7160  15.8337  15.8535  16.0483
    16.0924  16.1920  16.2637  16.3166  16.4013  16.4889  16.5008  16.5507
    16.6423  16.7248  16.8572  16.9055  16.9697  17.0599  17.1376  17.1940
    17.2752  17.3355  17.3860  17.4655  17.5352  17.6282  17.6892  17.7644
    17.8536  17.9045  17.9890  18.0617  18.0916  18.2152  18.2966  18.3158
    18.3930  18.4755  18.5481  18.5885  18.6490  18.7787  18.8425  18.9361
    19.0402  19.0807  19.1459  19.2029  19.2365  19.3358  19.4092  19.4851
    19.5260  19.6469  19.7800  19.8451  19.8939  19.9736  20.0581  20.0820
    20.1230  20.2537  20.3066  20.3458  20.3705  20.4706  20.5982  20.6426
    20.7350  20.8744  20.9799  21.0205  21.0603  21.1185  21.1929  21.2358
    21.3808  21.4156  21.4926  21.5870  21.6566  21.7244  21.7566  21.8256
    21.8684  21.9903  22.0696  22.1376  22.2177  22.3433  22.4223  22.4766
    22.5538  22.6392

     the spin up/dw Fermi energies are    -2.1908   -2.4621 ev

!    total energy              =   -2321.03398712 Ry
     Harris-Foulkes estimate   =   -2321.03398712 Ry
     estimated scf accuracy    <          4.9E-09 Ry

     The total energy is the sum of the following terms:

     one-electron contribution =  -26553.47888326 Ry
     hartree contribution      =   13295.09574077 Ry
     xc contribution           =    -349.23222574 Ry
     ewald contribution        =   11285.43131864 Ry
     Hubbard energy            =       1.14993664 Ry
     smearing contrib. (-TS)   =       0.00012585 Ry

     total magnetization       =    23.00 Bohr mag/cell
     absolute magnetization    =    28.64 Bohr mag/cell

     convergence has been achieved in  16 iterations

     Forces acting on atoms (Ry/au):

     negative rho (up, down):  0.209E-02 0.138E-02
     atom    1 type  1   force =    -0.00553109   -0.01547076    0.00013875
     atom    2 type  1   force =     0.00024963    0.01034579    0.00048203
     atom    3 type  2   force =     0.02666347   -0.00140461   -0.00025260
     atom    4 type  2   force =     0.00658916    0.01236430   -0.00007685
     atom    5 type  1   force =     0.00168158    0.01314904    0.00000718
     atom    6 type  1   force =    -0.00319139   -0.01762031   -0.00009065
     atom    7 type  1   force =     0.00295514    0.00133789   -0.00031865
     atom    8 type  1   force =     0.00109721   -0.00204844   -0.00033290
     atom    9 type  2   force =     0.00460310    0.00018747   -0.00023954
     atom   10 type  2   force =    -0.00266662   -0.00107897    0.00008171
     atom   11 type  1   force =    -0.01640895   -0.04325498    0.00009532
     atom   12 type  1   force =    -0.01665748    0.04353085    0.00015616
     atom   13 type  1   force =    -0.00179171   -0.00035058    0.00019519
     atom   14 type  1   force =    -0.00563797   -0.01530244    0.00000122
     atom   15 type  1   force =     0.00053893    0.01042167    0.00021880
     atom   16 type  2   force =    -0.02812596   -0.00138845   -0.00023802
     atom   17 type  2   force =     0.00685889    0.01231817   -0.00008855
     atom   18 type  1   force =     0.00316315    0.01295947    0.00001302
     atom   19 type  1   force =    -0.00157369   -0.01754815   -0.00005836
     atom   20 type  1   force =    -0.00267331    0.00111400   -0.00079752
     atom   21 type  1   force =    -0.00358764   -0.00202273   -0.00035834
     atom   22 type  2   force =    -0.00260721    0.00039202   -0.00012380
     atom   23 type  2   force =     0.00492652   -0.00042249   -0.00062222
     atom   24 type  1   force =     0.01462228   -0.03839752    0.00030120
     atom   25 type  1   force =     0.01511758    0.03858314    0.00034881
     atom   26 type  1   force =     0.00151849   -0.00035571   -0.00018490
     atom   27 type  3   force =     0.00000834   -0.00022705    0.00032038
     atom   28 type  3   force =    -0.00000590   -0.00006121    0.00033807
     atom   29 type  3   force =    -0.00013246    0.00008749    0.00001214
     atom   30 type  3   force =    -0.00004609    0.00010869    0.00008174
     atom   31 type  1   force =    -0.00006983    0.00005557    0.00016671
     atom   32 type  3   force =     0.00011381   -0.00000116    0.00082447

     Total force =     0.001804     Total SCF correction =     0.000257
     SCF correction compared to forces is large: reduce conv_thr to get better values

     bfgs converged in  17 scf cycles and  16 bfgs steps
     (criteria: energy < 0.10E-03, force < 0.10E-02)

     End of BFGS Geometry Optimization

     Final energy   =   -2321.0339871156 Ry
Begin final coordinates

ATOMIC_POSITIONS (crystal)
O0       0.000000000   0.000000000   0.376265605    0   0   1
O0       0.000000000   0.500000000   0.397305407    0   0   1
Mn1      0.250000000   0.500000000   0.449228452    0   0   1
Mn1      0.000000000   0.000000000   0.447895300    0   0   1
O0       0.250000000   0.800000000   0.447762082    0   0   1
O0       0.250000000   0.200000000   0.449883292    0   0   1
O0       0.000000000   0.500000000   0.495286919    0   0   1
O0       0.000000000   0.000000000   0.524578124    0   0   1
Mn1      0.250000000   0.000000000   0.573251060    0   0   1
Mn1      0.000000000   0.500000000   0.568032994    0   0   1
O0       0.250000000   0.700000000   0.579079285    0   0   1
O0       0.250000000   0.300000000   0.579314126    0   0   1
O0       0.000000000   0.000000000   0.619346506    0   0   1
O0       0.500000000   0.000000000   0.376568738    0   0   1
O0       0.500000000   0.500000000   0.397499361    0   0   1
Mn1      0.750000000   0.500000000   0.449264231    0   0   1
Mn1      0.500000000   0.000000000   0.448241373    0   0   1
O0       0.750000000   0.800000000   0.447706768    0   0   1
O0       0.750000000   0.200000000   0.449835622    0   0   1
O0       0.500000000   0.500000000   0.497041342    0   0   1
O0       0.500000000   0.000000000   0.524648136    0   0   1
Mn1      0.750000000   0.000000000   0.573428771    0   0   1
Mn1      0.500000000   0.500000000   0.578483746    0   0   1
O0       0.750000000   0.700000000   0.576427983    0   0   1
O0       0.750000000   0.300000000   0.576721744    0   0   1
O0       0.500000000   0.000000000   0.619721245    0   0   1
H2       0.000233370   0.646969265   0.381182565
H2       0.500313288   0.646900362   0.381333630
H2       0.161762550   0.038759943   0.365101803
H2       0.661739859   0.038559956   0.365332514
O0       0.518482295   0.500701885   0.648923638
H2       0.358109318   0.500243150   0.663187638
End final coordinates

     General routines

     Parallel routines
     Hubbard U routines

   This run was terminated on:  18:41:19   5May2014

   JOB DONE.