     Program PWSCF v.5.0.2 (svn rev. 9656) starts on 28Apr2014 at  4:11:37

     Current dimensions of program PWSCF are:
     Max number of different atomic species (ntypx) = 10
     Max number of k-points (npk) =  40000
     Max angular momentum in pseudopotentials (lmaxx) =  3
     Reading input from pwscf.in
Warning: card &CELL ignored
Warning: card / ignored

     Subspace diagonalization in iterative solution of the eigenvalue problem:
     a serial algorithm will be used

     bravais-lattice index     =            0
     lattice parameter (alat)  =      12.2076  a.u.
     unit-cell volume          =    7496.5096 (a.u.)^3
     number of atoms/cell      =           32
     number of atomic types    =            3
     number of electrons       =       247.00
     number of Kohn-Sham states=          370
     kinetic-energy cutoff     =      40.0000  Ry
     charge density cutoff     =     500.0000  Ry
     convergence threshold     =      1.0E-06
     mixing beta               =       0.7000
     number of iterations used =            8  plain     mixing
     Exchange-correlation      = SLA  PW   PBE  PBE ( 1 4 3 4 0)
     EXX-fraction              =        0.00
     nstep                     =           50

     celldm(1)=  12.207631  celldm(2)=   0.000000  celldm(3)=   0.000000
     celldm(4)=   0.000000  celldm(5)=   0.000000  celldm(6)=   0.000000

     crystal axes: (cart. coord. in units of alat)
               a(1) = (   1.000000   0.000000   0.000000 )
               a(2) = (   0.000000   1.004836   0.000000 )
               a(3) = (   0.000000   0.000000   4.100811 )

     reciprocal axes: (cart. coord. in units 2 pi/alat)
               b(1) = (  1.000000  0.000000  0.000000 )
               b(2) = (  0.000000  0.995187  0.000000 )
               b(3) = (  0.000000  0.000000  0.243854 )

     PseudoPot. # 1 for O  read from file:
     /home/camp/zhonxu/pseudo/o_pbe_v1.01.uspp.F.UPF
     MD5 check sum: 2bcb18d16ea4b960afae9ec6d52f22d2
     Pseudo is Ultrasoft + core correction, Zval =  6.0
     Generated by new atomic code, or converted to UPF format
     Using radial grid of  737 points,  5 beta functions with:
                l(1) =   0
                l(2) =   0
                l(3) =   1
                l(4) =   1
                l(5) =   2
     Q(r) pseudized with  8 coefficients,  rinner =    0.900   0.900   0.900
                                                       0.900   0.900

     PseudoPot. # 2 for Pt read from file:
     /home/camp/zhonxu/pseudo/pt_pbe_v1.uspp.F.UPF
     MD5 check sum: 4c71d6ad5ef119f1eb26a4d0b7884226
     Pseudo is Ultrasoft + core correction, Zval = 16.0
     Generated by new atomic code, or converted to UPF format
     Using radial grid of  985 points,  6 beta functions with:
                l(1) =   0
                l(2) =   0
                l(3) =   1
                l(4) =   1
                l(5) =   2
                l(6) =   2
     Q(r) pseudized with  8 coefficients,  rinner =    1.300   1.300   1.300
                                                       1.300   1.300

     PseudoPot. # 3 for H  read from file:
     /home/camp/zhonxu/pseudo/h_pbe_v1.uspp.F.UPF
     MD5 check sum: 3408e3ff4ec8b0a4e358431e7e038a48
     Pseudo is Ultrasoft, Zval =  1.0
     Generated by new atomic code, or converted to UPF format
     Using radial grid of  615 points,  2 beta functions with:
                l(1) =   0
                l(2) =   0
     Q(r) pseudized with  8 coefficients,  rinner =    0.700

     atomic species   valence    mass     pseudopotential
        O0             6.00    15.99940     O ( 1.00)
        Pt1           16.00   195.08000     Pt( 1.00)
        H2             1.00     1.00794     H ( 1.00)

     Simplified LDA+U calculation (l_max = 2) with parameters (eV):
     atomic species    L          U    alpha       J0     beta
        Pt1            2     2.5000   0.0000   0.0000   0.0000

     No symmetry found

   Cartesian axes

     site n.     atom                  positions (alat units)
         1           O0  tau(   1) = (   0.0000000   0.0000000   1.5486303  )
         2           O0  tau(   2) = (   0.0000000   0.5024180   1.6456145  )
         3           Pt1 tau(   3) = (   0.2500000   0.5024180   1.8492198  )
         4           Pt1 tau(   4) = (   0.0000000   0.0000000   1.8561502  )
         5           O0  tau(   5) = (   0.2500000   0.8139171   1.8185047  )
         6           O0  tau(   6) = (   0.2500000   0.1909188   1.8850199  )
         7           O0  tau(   7) = (   0.0000000   0.5024180   2.0364218  )
         8           O0  tau(   8) = (   0.0000000   0.0000000   2.1712565  )
         9           Pt1 tau(   9) = (   0.2500000   0.0000000   2.3611651  )
        10           Pt1 tau(  10) = (   0.0000000   0.5024180   2.3568182  )
        11           O0  tau(  11) = (   0.2500000   0.6933368   2.3352889  )
        12           O0  tau(  12) = (   0.2500000   0.3114991   2.3978263  )
        13           O0  tau(  13) = (   0.0000000   0.0000000   2.5469728  )
        14           O0  tau(  14) = (   0.5000000   0.0000000   1.5487944  )
        15           O0  tau(  15) = (   0.5000000   0.5024180   1.6432360  )
        16           Pt1 tau(  16) = (   0.7500000   0.5024180   1.8492608  )
        17           Pt1 tau(  17) = (   0.5000000   0.0000000   1.8561092  )
        18           O0  tau(  18) = (   0.7500000   0.8139171   1.8183407  )
        19           O0  tau(  19) = (   0.7500000   0.1909188   1.8850199  )
        20           O0  tau(  20) = (   0.5000000   0.5024180   2.0398255  )
        21           O0  tau(  21) = (   0.5000000   0.0000000   2.1711335  )
        22           Pt1 tau(  22) = (   0.7500000   0.0000000   2.3611651  )
        23           Pt1 tau(  23) = (   0.5000000   0.5024180   2.3633795  )
        24           O0  tau(  24) = (   0.7500000   0.6933368   2.3343868  )
        25           O0  tau(  25) = (   0.7500000   0.3114991   2.3965141  )
        26           O0  tau(  26) = (   0.5000000   0.0000000   2.5473419  )
        27           H2  tau(  27) = (   0.0000800   0.6431151   1.5815188  )
        28           H2  tau(  28) = (   0.4999900   0.6432457   1.5795915  )
        29           H2  tau(  29) = (   0.1433600   0.0342348   1.5075812  )
        30           H2  tau(  30) = (   0.6432100   0.0348377   1.5077042  )
        31           O0  tau(  31) = (   0.5002800   0.5276996   2.6647891  )
        32           H2  tau(  32) = (   0.4897800   0.3840985   2.7162543  )

     number of k points=    10  Methfessel-Paxton smearing, width (Ry)=  0.0100
                       cart. coord. in units 2pi/alat
        k(    1) = (   0.0000000   0.0000000   0.0000000), wk =   0.1250000
        k(    2) = (   0.0000000   0.2487968   0.0000000), wk =   0.2500000
        k(    3) = (   0.0000000  -0.4975937   0.0000000), wk =   0.1250000
        k(    4) = (   0.2500000   0.0000000   0.0000000), wk =   0.2500000
        k(    5) = (   0.2500000   0.2487968   0.0000000), wk =   0.2500000
        k(    6) = (   0.2500000  -0.4975937   0.0000000), wk =   0.2500000
        k(    7) = (  -0.5000000   0.0000000   0.0000000), wk =   0.1250000
        k(    8) = (  -0.5000000   0.2487968   0.0000000), wk =   0.2500000
        k(    9) = (  -0.5000000  -0.4975937   0.0000000), wk =   0.1250000
        k(   10) = (  -0.2500000   0.2487968   0.0000000), wk =   0.2500000

     Largest allocated arrays     est. size (Mb)     dimensions
     Largest temporary arrays     est. size (Mb)     dimensions

     Check: negative/imaginary core charge=   -0.000003    0.000000

     Initial potential from superposition of free atoms
     Check: negative starting charge=   -1.535574

     starting charge  242.99984, renormalised to  247.00000

     negative rho (up, down):  0.156E+01 0.000E+00
     Number of +U iterations with fixed ns =  0
     Starting occupations:
 --- enter write_ns ---
 LDA+U parameters:
U( 2)     =  2.50000000
alpha( 2) =  0.00000000
atom    3   Tr[ns(na)] =   8.00000
    eigenvalues:
  0.800  0.800  0.800  0.800  0.800
    eigenvectors:
  1.000  0.000  0.000  0.000  0.000
  0.000  1.000  0.000  0.000  0.000
  0.000  0.000  1.000  0.000  0.000
  0.000  0.000  0.000  1.000  0.000
  0.000  0.000  0.000  0.000  1.000
    occupations:
  0.800  0.000  0.000  0.000  0.000
  0.000  0.800  0.000  0.000  0.000
  0.000  0.000  0.800  0.000  0.000
  0.000  0.000  0.000  0.800  0.000
  0.000  0.000  0.000  0.000  0.800
atom    4   Tr[ns(na)] =   8.00000
    eigenvalues:
  0.800  0.800  0.800  0.800  0.800
    eigenvectors:
  1.000  0.000  0.000  0.000  0.000
  0.000  1.000  0.000  0.000  0.000
  0.000  0.000  1.000  0.000  0.000
  0.000  0.000  0.000  1.000  0.000
  0.000  0.000  0.000  0.000  1.000
    occupations:
  0.800  0.000  0.000  0.000  0.000
  0.000  0.800  0.000  0.000  0.000
  0.000  0.000  0.800  0.000  0.000
  0.000  0.000  0.000  0.800  0.000
  0.000  0.000  0.000  0.000  0.800
atom    9   Tr[ns(na)] =   8.00000
    eigenvalues:
  0.800  0.800  0.800  0.800  0.800
    eigenvectors:
  1.000  0.000  0.000  0.000  0.000
  0.000  1.000  0.000  0.000  0.000
  0.000  0.000  1.000  0.000  0.000
  0.000  0.000  0.000  1.000  0.000
  0.000  0.000  0.000  0.000  1.000
    occupations:
  0.800  0.000  0.000  0.000  0.000
  0.000  0.800  0.000  0.000  0.000
  0.000  0.000  0.800  0.000  0.000
  0.000  0.000  0.000  0.800  0.000
  0.000  0.000  0.000  0.000  0.800
atom   10   Tr[ns(na)] =   8.00000
    eigenvalues:
  0.800  0.800  0.800  0.800  0.800
    eigenvectors:
  1.000  0.000  0.000  0.000  0.000
  0.000  1.000  0.000  0.000  0.000
  0.000  0.000  1.000  0.000  0.000
  0.000  0.000  0.000  1.000  0.000
  0.000  0.000  0.000  0.000  1.000
    occupations:
  0.800  0.000  0.000  0.000  0.000
  0.000  0.800  0.000  0.000  0.000
  0.000  0.000  0.800  0.000  0.000
  0.000  0.000  0.000  0.800  0.000
  0.000  0.000  0.000  0.000  0.800
atom   16   Tr[ns(na)] =   8.00000
    eigenvalues:
  0.800  0.800  0.800  0.800  0.800
    eigenvectors:
  1.000  0.000  0.000  0.000  0.000
  0.000  1.000  0.000  0.000  0.000
  0.000  0.000  1.000  0.000  0.000
  0.000  0.000  0.000  1.000  0.000
  0.000  0.000  0.000  0.000  1.000
    occupations:
  0.800  0.000  0.000  0.000  0.000
  0.000  0.800  0.000  0.000  0.000
  0.000  0.000  0.800  0.000  0.000
  0.000  0.000  0.000  0.800  0.000
  0.000  0.000  0.000  0.000  0.800
atom   17   Tr[ns(na)] =   8.00000
    eigenvalues:
  0.800  0.800  0.800  0.800  0.800
    eigenvectors:
  1.000  0.000  0.000  0.000  0.000
  0.000  1.000  0.000  0.000  0.000
  0.000  0.000  1.000  0.000  0.000
  0.000  0.000  0.000  1.000  0.000
  0.000  0.000  0.000  0.000  1.000
    occupations:
  0.800  0.000  0.000  0.000  0.000
  0.000  0.800  0.000  0.000  0.000
  0.000  0.000  0.800  0.000  0.000
  0.000  0.000  0.000  0.800  0.000
  0.000  0.000  0.000  0.000  0.800
atom   22   Tr[ns(na)] =   8.00000
    eigenvalues:
  0.800  0.800  0.800  0.800  0.800
    eigenvectors:
  1.000  0.000  0.000  0.000  0.000
  0.000  1.000  0.000  0.000  0.000
  0.000  0.000  1.000  0.000  0.000
  0.000  0.000  0.000  1.000  0.000
  0.000  0.000  0.000  0.000  1.000
[...]
 -0.091  0.000 -0.021  0.759  0.001
  0.000 -0.003  0.001  0.001  0.955
atom   10   Tr[ns(na)] =   8.72214
    eigenvalues:
  0.666  0.746  0.981  0.983  0.986
    eigenvectors:
  0.000  0.984  0.000  0.006  0.010
  0.008  0.000  0.990  0.001  0.000
  0.000  0.000  0.001  0.467  0.532
  0.000  0.016  0.001  0.525  0.458
  0.992  0.000  0.008  0.000  0.000
    occupations:
  0.750 -0.001 -0.005  0.030 -0.000
 -0.001  0.978 -0.000  0.000 -0.028
 -0.005 -0.000  0.984 -0.001 -0.000
  0.030  0.000 -0.001  0.980  0.000
 -0.000 -0.028 -0.000  0.000  0.668
atom   16   Tr[ns(na)] =   8.69293
    eigenvalues:
  0.686  0.701  0.984  0.986  0.989
    eigenvectors:
  0.011  0.162  0.811  0.000  0.015
  0.935  0.065  0.000  0.000  0.000
  0.000  0.004  0.027  0.000  0.968
  0.054  0.769  0.161  0.000  0.016
  0.000  0.000  0.000  1.000  0.000
    occupations:
  0.935 -0.001  0.007 -0.107 -0.000
 -0.001  0.687 -0.001 -0.004 -0.002
  0.007 -0.001  0.988  0.017 -0.000
 -0.107 -0.004  0.017  0.750 -0.000
 -0.000 -0.002 -0.000 -0.000  0.986
atom   17   Tr[ns(na)] =   8.68433
    eigenvalues:
  0.687  0.708  0.979  0.984  0.985
    eigenvectors:
  0.000  0.986  0.006  0.002  0.005
  0.009  0.000  0.049  0.929  0.013
  0.000  0.005  0.906  0.036  0.053
  0.000  0.009  0.038  0.024  0.929
  0.991  0.000  0.000  0.009  0.000
    occupations:
  0.712 -0.005 -0.018  0.026 -0.001
 -0.005  0.980  0.001  0.000  0.028
 -0.018  0.001  0.978  0.003  0.000
  0.026  0.000  0.003  0.982  0.000
 -0.001  0.028  0.000  0.000  0.689
atom   22   Tr[ns(na)] =   8.66215
    eigenvalues:
  0.710  0.721  0.955  0.960  0.985
    eigenvectors:
  0.001  0.137  0.000  0.011  0.851
  0.996  0.004  0.000  0.000  0.000
  0.000  0.008  0.023  0.963  0.006
  0.003  0.851  0.000  0.003  0.143
  0.000  0.000  0.977  0.023  0.000
    occupations:
  0.949  0.001 -0.006 -0.091 -0.000
  0.001  0.710  0.000  0.000 -0.003
 -0.006  0.000  0.958 -0.020 -0.001
 -0.091  0.000 -0.020  0.759 -0.001
 -0.000 -0.003 -0.001 -0.001  0.955
atom   23   Tr[ns(na)] =   8.67098
    eigenvalues:
  0.686  0.712  0.968  0.984  0.986
    eigenvectors:
  0.000  0.976  0.000  0.001  0.023
  0.013  0.000  0.986  0.001  0.000
  0.000  0.016  0.001  0.534  0.449
  0.000  0.008  0.000  0.464  0.528
  0.987  0.000  0.013  0.000  0.000
    occupations:
  0.718 -0.001  0.034  0.024  0.000
 -0.001  0.964  0.001 -0.000 -0.032
  0.034  0.001  0.980 -0.002  0.000
  0.024 -0.000 -0.002  0.983 -0.000
  0.000 -0.032  0.000 -0.000  0.690
N of occupied +U levels =  69.4745105
 --- exit write_ns ---

     Threshold (ethr) on eigenvalues was too large:
     Diagonalizing with lowered threshold

     Davidson diagonalization with overlap
     ethr =  1.90E-08,  avg # of iterations =  2.0

[...]

     total energy              =   -2281.47946370 Ry
     Harris-Foulkes estimate   =   -2281.47946371 Ry
     estimated scf accuracy    <       0.00000008 Ry

     iteration # 12     ecut=    40.00 Ry     beta=0.70
     Davidson diagonalization with overlap
     ethr =  3.28E-11,  avg # of iterations =  1.0

     negative rho (up, down):  0.158E+01 0.000E+00

     End of self-consistent calculation
 --- enter write_ns ---
 LDA+U parameters:
U( 2)     =  2.50000000
alpha( 2) =  0.00000000
atom    3   Tr[ns(na)] =   8.69294
    eigenvalues:
  0.686  0.701  0.984  0.986  0.989
    eigenvectors:
  0.011  0.162  0.807  0.003  0.018
  0.935  0.065  0.000  0.000  0.000
  0.000  0.004  0.030  0.000  0.965
  0.054  0.769  0.160  0.000  0.017
  0.000  0.000  0.003  0.997  0.000
    occupations:
  0.935  0.001  0.007 -0.107  0.000
  0.001  0.687  0.001  0.004 -0.002
  0.007  0.001  0.988  0.017 -0.000
 -0.107  0.004  0.017  0.751  0.001
  0.000 -0.002 -0.000  0.001  0.986
atom    4   Tr[ns(na)] =   8.68692
    eigenvalues:
  0.687  0.708  0.980  0.984  0.985
    eigenvectors:
  0.000  0.986  0.007  0.002  0.005
  0.009  0.000  0.051  0.924  0.016
  0.000  0.005  0.898  0.036  0.062
  0.000  0.009  0.044  0.030  0.917
  0.991  0.000  0.000  0.009  0.000
    occupations:
  0.712 -0.005 -0.019  0.026 -0.001
 -0.005  0.981  0.001  0.000  0.028
 -0.019  0.001  0.979  0.003  0.000
  0.026  0.000  0.003  0.982  0.000
 -0.001  0.028  0.000  0.000  0.690
atom    9   Tr[ns(na)] =   8.66213
    eigenvalues:
  0.710  0.721  0.955  0.961  0.985
    eigenvectors:
  0.000  0.138  0.000  0.012  0.851
  1.000  0.000  0.000  0.000  0.000
  0.000  0.008  0.012  0.974  0.006
  0.000  0.854  0.000  0.003  0.143
  0.000  0.000  0.988  0.012  0.000
    occupations:
  0.949  0.000 -0.006 -0.091  0.000
  0.000  0.710 -0.000  0.000 -0.003
 -0.006 -0.000  0.959 -0.021  0.001
 -0.091  0.000 -0.021  0.759  0.001
  0.000 -0.003  0.001  0.001  0.955
atom   10   Tr[ns(na)] =   8.72121
    eigenvalues:
  0.666  0.745  0.981  0.983  0.986
    eigenvectors:
  0.000  0.984  0.000  0.006  0.010
  0.008  0.000  0.990  0.001  0.000
  0.000  0.000  0.001  0.467  0.532
  0.000  0.016  0.001  0.526  0.458
  0.992  0.000  0.008  0.000  0.000
    occupations:
  0.749 -0.001 -0.005  0.030 -0.000
 -0.001  0.978 -0.000  0.000 -0.028
 -0.005 -0.000  0.984 -0.001 -0.000
  0.030  0.000 -0.001  0.980  0.000
 -0.000 -0.028 -0.000  0.000  0.668
atom   16   Tr[ns(na)] =   8.69314
    eigenvalues:
  0.686  0.701  0.984  0.986  0.989
    eigenvectors:
  0.011  0.162  0.811  0.000  0.016
  0.936  0.064  0.000  0.000  0.000
  0.000  0.004  0.028  0.000  0.968
  0.053  0.770  0.161  0.000  0.016
  0.000  0.000  0.000  1.000  0.000
    occupations:
  0.935 -0.001  0.007 -0.107 -0.000
 -0.001  0.687 -0.001 -0.004 -0.002
  0.007 -0.001  0.988  0.017 -0.000
 -0.107 -0.004  0.017  0.750 -0.000
 -0.000 -0.002 -0.000 -0.000  0.986
atom   17   Tr[ns(na)] =   8.68466
    eigenvalues:
  0.687  0.708  0.979  0.984  0.985
    eigenvectors:
  0.000  0.986  0.006  0.002  0.005
  0.009  0.000  0.048  0.930  0.013
  0.000  0.005  0.907  0.036  0.052
  0.000  0.009  0.038  0.024  0.930
  0.991  0.000  0.000  0.009  0.000
    occupations:
  0.712 -0.005 -0.018  0.026 -0.001
 -0.005  0.980  0.001  0.000  0.028
 -0.018  0.001  0.978  0.003  0.000
  0.026  0.000  0.003  0.982  0.000
 -0.001  0.028  0.000  0.000  0.690
atom   22   Tr[ns(na)] =   8.66184
    eigenvalues:
  0.710  0.721  0.955  0.960  0.985
    eigenvectors:
  0.001  0.137  0.000  0.011  0.851
  0.996  0.004  0.000  0.000  0.000
  0.000  0.008  0.022  0.963  0.006
  0.003  0.851  0.000  0.003  0.143
  0.000  0.000  0.977  0.023  0.000
    occupations:
  0.949  0.001 -0.006 -0.091 -0.000
  0.001  0.710  0.000  0.000 -0.003
 -0.006  0.000  0.958 -0.021 -0.001
 -0.091  0.000 -0.021  0.759 -0.001
 -0.000 -0.003 -0.001 -0.001  0.955
atom   23   Tr[ns(na)] =   8.67024
    eigenvalues:
  0.686  0.712  0.968  0.984  0.986
    eigenvectors:
  0.000  0.976  0.000  0.001  0.023
  0.013  0.000  0.986  0.001  0.000
  0.000  0.016  0.001  0.533  0.450
  0.000  0.008  0.000  0.465  0.527
  0.987  0.000  0.013  0.000  0.000
    occupations:
  0.718 -0.001  0.034  0.024  0.000
 -0.001  0.965  0.001 -0.000 -0.032
  0.034  0.001  0.980 -0.002  0.000
  0.024 -0.000 -0.002  0.983 -0.000
  0.000 -0.032  0.000 -0.000  0.690
N of occupied +U levels =  69.4730687
 --- exit write_ns ---

[...]

          k = 0.2500-0.4976 0.0000 ( 32026 PWs)   bands (ev):

[...]

          k =-0.2500 0.2488 0.0000 ( 32025 PWs)   bands (ev):

   -55.5327 -55.5306 -55.4926 -55.4921 -55.4067 -55.3910 -55.3850 -55.3678
   -55.3348 -55.3310 -55.3089 -55.1928 -55.1847 -55.1754 -55.1708 -55.1129
   -55.1053 -55.0959 -55.0918 -55.0859 -54.9854 -54.8362 -54.6038 -54.3426
   -21.9867 -21.7524 -21.0912 -20.9028 -20.6223 -20.5294 -20.4515 -20.4031
   -20.3092 -20.1846 -20.1495 -20.0790 -20.0072 -19.9149 -19.8585 -19.8329
   -19.6855 -19.0841 -18.9111 -10.3942 -10.1514  -9.9920  -9.9672  -9.5565
    -9.4546  -9.3120  -9.1873  -9.1498  -9.1205  -9.0170  -8.8893  -8.8492
    -8.7231  -8.6804  -8.5997  -8.5382  -8.4513  -8.1296  -7.9677  -7.7994
    -7.7366  -7.6875  -7.5344  -7.4161  -7.2026  -7.1256  -7.1112  -6.9188
    -6.8626  -6.8123  -6.7234  -6.6317  -6.5238  -6.5098  -6.4437  -6.3482
    -6.2510  -6.2023  -6.0927  -6.0367  -5.8122  -5.6680  -5.5248  -5.4658
    -5.3047  -5.1751  -5.0914  -5.0167  -4.9802  -4.8907  -4.7613  -4.5833
    -4.5118  -4.3534  -4.2732  -4.1997  -4.1657  -4.0241  -3.8118  -3.7527
    -3.7024  -3.6250  -3.5915  -3.4795  -3.4354  -3.3471  -3.2893  -3.0312
    -2.9747  -2.7011  -2.5524  -2.4506  -2.3093  -2.2768  -2.2216  -2.1584
    -2.0875  -1.8962  -1.7078  -1.6421  -1.5182  -0.9802  -0.7379  -0.5413
    -0.1881  -0.0348   0.3459   0.5774   0.8146   0.9124   1.0579   1.1184
     1.3613   1.4986   1.5438   1.9096   3.2531   3.9398   4.6434   5.0607
     5.1221   5.2186   5.2942   5.5543   6.0356   6.2007   6.2811   6.3424
     6.4886   6.6020   6.6814   6.7788   6.8836   6.9613   7.1457   7.2297
     7.3969   7.5050   7.5460   7.6808   7.7440   7.8531   7.9613   8.0579
     8.2250   8.3237   8.3641   8.4457   8.5123   8.6076   8.6923   8.7820
     8.9103   8.9803   9.0536   9.1957   9.3457   9.4385   9.5879   9.6443
     9.7522   9.8142   9.9358  10.0817  10.1412  10.1978  10.2562  10.3735
    10.5201  10.5615  10.6171  10.7065  10.7564  10.9566  10.9956  11.0965
    11.1875  11.2080  11.3684  11.4307  11.5025  11.6459  11.7350  11.8026
    11.8821  11.9154  12.0144  12.0346  12.0947  12.2360  12.2945  12.3489
    12.3964  12.4513  12.5252  12.5686  12.6482  12.7238  12.7937  12.9187
    12.9700  13.0258  13.1087  13.2079  13.2375  13.4586  13.5270  13.5737
    13.6110  13.6772  13.7366  13.8226  13.9376  13.9799  14.0632  14.0821
    14.1677  14.2843  14.3701  14.4825  14.5523  14.6347  14.7185  14.8393
    14.8997  14.9950  15.0766  15.1734  15.2301  15.2989  15.3281  15.4028
    15.4598  15.5118  15.5707  15.6299  15.6988  15.7318  15.7718  15.8438
    15.8957  15.9866  16.0136  16.0592  16.1292  16.2298  16.3143  16.3817
    16.4658  16.5276  16.6250  16.7158  16.7449  16.7617  16.7973  16.8271
    16.8521  16.8646  16.9199  16.9247  16.9672  16.9934  17.0094  17.0660
    17.1088  17.1487  17.2109  17.2352  17.3121  17.3314  17.3870  17.4818
    17.5247  17.5511  17.6199  17.6348  17.6957  17.7655  17.9073  17.9462
    18.0100  18.0554  18.1380  18.1783  18.2415  18.3402  18.4693  18.4945
    18.5840  18.6072  18.6393  18.7198  18.7952  18.8543  18.8887  18.9711
    19.0182  19.1238  19.1801  19.2293  19.2872  19.3537  19.4459  19.5347
    19.6583  19.6876  19.8213  19.8713  19.9395  19.9965  20.0429  20.0709
    20.1180  20.1573  20.2686  20.3411  20.3578  20.4074  20.5037  20.5601
    20.6532  20.6801  20.7316  20.8119  20.8996  20.9668  20.9946  21.0340
    21.0868  21.2055  21.2662  21.3079  21.3417  21.3691  21.4669  21.5085
    21.5774  21.6339  21.7009  21.7595  21.7959  21.9033  22.0014  22.0760
    22.1364  22.1849

     the Fermi energy is    -1.6261 ev

!    total energy              =   -2281.47946370 Ry
     Harris-Foulkes estimate   =   -2281.47946371 Ry
     estimated scf accuracy    <          6.2E-09 Ry

     The total energy is the sum of the following terms:

     one-electron contribution =  -23721.54917600 Ry
     hartree contribution      =   11904.21794702 Ry
     xc contribution           =    -573.01468777 Ry
     ewald contribution        =   10108.16346089 Ry
     Hubbard energy            =       0.70291861 Ry
     smearing contrib. (-TS)   =       0.00007354 Ry

     convergence has been achieved in  12 iterations

     Forces acting on atoms (Ry/au):

     negative rho (up, down):  0.158E+01 0.000E+00
     atom    1 type  1   force =    -0.00853433   -0.00422389   -0.00001492
     atom    2 type  1   force =     0.00038722    0.00317318   -0.00059026
     atom    3 type  2   force =     0.01288213    0.00806146   -0.00029981
     atom    4 type  2   force =     0.01092154    0.00407913   -0.00036372
     atom    5 type  1   force =     0.00124894   -0.00391445   -0.00040001
     atom    6 type  1   force =    -0.00003748   -0.00277264    0.00005390
     atom    7 type  1   force =     0.00020634   -0.00119878   -0.00058927
     atom    8 type  1   force =    -0.00427615   -0.00086096   -0.00004870
     atom    9 type  2   force =     0.00320422    0.00314581   -0.00041395
     atom   10 type  2   force =    -0.00038449   -0.02261943    0.00090418
     atom   11 type  1   force =     0.00289062    0.00196248    0.00047635
     atom   12 type  1   force =    -0.01251611    0.00691776    0.00003035
     atom   13 type  1   force =    -0.00107083   -0.00638859   -0.00007952
     atom   14 type  1   force =    -0.00828954   -0.00395919    0.00005189
     atom   15 type  1   force =     0.00012149    0.00237996    0.00069270
     atom   16 type  2   force =    -0.01407359    0.00807722   -0.00034818
     atom   17 type  2   force =     0.01062123    0.00534223   -0.00018337
     atom   18 type  1   force =     0.00103073   -0.00400265   -0.00018439
     atom   19 type  1   force =    -0.00001106   -0.00269435   -0.00003989
     atom   20 type  1   force =     0.00038079   -0.00183135    0.00027523
     atom   21 type  1   force =    -0.00395406    0.00148620    0.00021626
     atom   22 type  2   force =     0.00075538    0.00342157   -0.00050605
     atom   23 type  2   force =    -0.00063618   -0.00002036   -0.00000412
     atom   24 type  1   force =    -0.00278286    0.00247738    0.00029194
     atom   25 type  1   force =     0.01262559    0.00715180    0.00005041
     atom   26 type  1   force =    -0.00123168   -0.00428695    0.00023302
     atom   27 type  3   force =    -0.00003017    0.00022338   -0.00016213
     atom   28 type  3   force =     0.00004253   -0.00031449   -0.00009771
     atom   29 type  3   force =     0.00010151    0.00001037    0.00053347
     atom   30 type  3   force =     0.00005412   -0.00004817    0.00041226
     atom   31 type  1   force =     0.00011154    0.00075956    0.00017608
     atom   32 type  3   force =     0.00024258    0.00046675   -0.00007201

     Total force =     0.002249     Total SCF correction =     0.000266
     SCF correction compared to forces is large: reduce conv_thr to get better values

     bfgs converged in  16 scf cycles and  15 bfgs steps
     (criteria: energy < 0.10E-03, force < 0.10E-02)

     End of BFGS Geometry Optimization

     Final energy   =   -2281.4794637008 Ry
Begin final coordinates

ATOMIC_POSITIONS (crystal)
O0       0.000000000   0.000000000   0.377537062    0   0   1
O0       0.000000000   0.500000000   0.401619000    0   0   1
Pt1      0.250000000   0.500000000   0.451137312    0   0   1
Pt1      0.000000000   0.000000000   0.452576287    0   0   1
O0       0.250000000   0.810000000   0.443021048    0   0   1
O0       0.250000000   0.190000000   0.460334320    0   0   1
O0       0.000000000   0.500000000   0.496805028    0   0   1
O0       0.000000000   0.000000000   0.529532307    0   0   1
Pt1      0.250000000   0.000000000   0.575723370    0   0   1
Pt1      0.000000000   0.500000000   0.574385550    0   0   1
O0       0.250000000   0.690000000   0.567463811    0   0   1
O0       0.250000000   0.310000000   0.585435229    0   0   1
O0       0.000000000   0.000000000   0.621092236    0   0   1
O0       0.500000000   0.000000000   0.377582155    0   0   1
O0       0.500000000   0.500000000   0.401030499    0   0   1
Pt1      0.750000000   0.500000000   0.451137473    0   0   1
Pt1      0.500000000   0.000000000   0.452596460    0   0   1
O0       0.750000000   0.810000000   0.442993811    0   0   1
O0       0.750000000   0.190000000   0.460338833    0   0   1
O0       0.500000000   0.500000000   0.497385532    0   0   1
O0       0.500000000   0.000000000   0.529497163    0   0   1
Pt1      0.750000000   0.000000000   0.575731803    0   0   1
Pt1      0.500000000   0.500000000   0.576148014    0   0   1
O0       0.750000000   0.690000000   0.567605161    0   0   1
O0       0.750000000   0.310000000   0.585345420    0   0   1
O0       0.500000000   0.000000000   0.621103542    0   0   1
H2       0.000085115   0.640349872   0.386165424
H2       0.499984643   0.640991682   0.385897236
H2       0.143328813   0.033936062   0.367475310
H2       0.643327106   0.034111233   0.367537377
O0       0.499266792   0.530101005   0.649638876
H2       0.492979253   0.387786356   0.662747350
End final coordinates

     General routines

     Parallel routines
     Hubbard U routines

   This run was terminated on:  18:18:57  28Apr2014

   JOB DONE.
Running PBS batch system epilogue script
Job id: 340489.audhumbla.fysik.dtu.dk
Username: zhonxu
Groupname: campgst
Jobname: PtO2/Eads-2-layers/OH-U-2.5
Sessionid: 17952
Queuename: verylong
Accounting:
This job has allocated the following 16 nodes:
b071 b071 b071 b071 b071 b071 b071 b071 b067 b067 b067 b067 b067 b067 b067 b067
Finished epilogue job 340489.audhumbla.fysik.dtu.dk for zhonxu