     Program PWSCF v.5.0.2 (svn rev. 9656) starts on 29Apr2014 at  4:57:25

     Current dimensions of program PWSCF are:
     Max number of different atomic species (ntypx) = 10
     Max number of k-points (npk) =  40000
     Max angular momentum in pseudopotentials (lmaxx) =  3
     Reading input from pwscf.in
Warning: card &CELL ignored
Warning: card / ignored

     Subspace diagonalization in iterative solution of the eigenvalue problem:
     a serial algorithm will be used

     bravais-lattice index     =            0
     lattice parameter (alat)  =      12.0187  a.u.
     unit-cell volume          =    7280.5819 (a.u.)^3
     number of atoms/cell      =           31
     number of atomic types    =            3
     number of electrons       =       238.00
     number of Kohn-Sham states=          357
     kinetic-energy cutoff     =      40.0000  Ry
     charge density cutoff     =     500.0000  Ry
     convergence threshold     =      1.0E-06
     mixing beta               =       0.7000
     number of iterations used =            8  plain     mixing
     Exchange-correlation      = SLA  PW   PBE  PBE ( 1 4 3 4 0)
     EXX-fraction              =        0.00
     nstep                     =           50

     celldm(1)=  12.018658  celldm(2)=   0.000000  celldm(3)=   0.000000
     celldm(4)=   0.000000  celldm(5)=   0.000000  celldm(6)=   0.000000

     crystal axes: (cart. coord. in units of alat)
               a(1) = (   1.000000   0.000000   0.000000 )
               a(2) = (   0.000000   1.009517   0.000000 )
               a(3) = (   0.000000   0.000000   4.154171 )

     reciprocal axes: (cart. coord. in units 2 pi/alat)
               b(1) = (  1.000000  0.000000  0.000000 )
               b(2) = (  0.000000  0.990572  0.000000 )
               b(3) = (  0.000000  0.000000  0.240722 )

     PseudoPot. # 1 for O  read from file:
     /home/camp/zhonxu/pseudo/o_pbe_v1.01.uspp.F.UPF
     MD5 check sum: 2bcb18d16ea4b960afae9ec6d52f22d2
     Pseudo is Ultrasoft + core correction, Zval =  6.0
     Generated by new atomic code, or converted to UPF format
     Using radial grid of  737 points,  5 beta functions with:
                l(1) =   0
                l(2) =   0
                l(3) =   1
                l(4) =   1
                l(5) =   2
     Q(r) pseudized with  8 coefficients,  rinner =    0.900   0.900   0.900
                                                       0.900   0.900

     PseudoPot. # 2 for Ir read from file:
     /home/camp/zhonxu/pseudo/ir_pbe_v1.uspp.F.UPF
     MD5 check sum: abf987a9674477536ede83817f8f8b70
     Pseudo is Ultrasoft + core correction, Zval = 15.0
     Generated by new atomic code, or converted to UPF format
     Using radial grid of  983 points,  7 beta functions with:
                l(1) =   0
                l(2) =   0
                l(3) =   1
                l(4) =   1
                l(5) =   1
                l(6) =   2
                l(7) =   2
     Q(r) pseudized with  8 coefficients,  rinner =    1.350   1.350   1.350
                                                       1.350   1.350

     PseudoPot. # 3 for H  read from file:
     /home/camp/zhonxu/pseudo/h_pbe_v1.uspp.F.UPF
     MD5 check sum: 3408e3ff4ec8b0a4e358431e7e038a48
     Pseudo is Ultrasoft, Zval =  1.0
     Generated by new atomic code, or converted to UPF format
     Using radial grid of  615 points,  2 beta functions with:
                l(1) =   0
                l(2) =   0
     Q(r) pseudized with  8 coefficients,  rinner =    0.700

     atomic species   valence    mass     pseudopotential
        O0             6.00    15.99940     O ( 1.00)
        Ir1           15.00   192.22000     Ir( 1.00)
        H2             1.00     1.00794     H ( 1.00)

     Simplified LDA+U calculation (l_max = 2) with parameters (eV):
     atomic species    L          U    alpha       J0     beta
        Ir1            2     8.0000   0.0000   0.0000   0.0000

     No symmetry found

   Cartesian axes

     site n.     atom                  positions (alat units)
         1           O0  tau(   1) = (   0.0000000   0.0000000   1.5706091  )
         2           O0  tau(   2) = (   0.0000000   0.5047586   1.6747957  )
         3           Ir1 tau(   3) = (   0.2500000   0.5047586   1.8830443  )
         4           Ir1 tau(   4) = (   0.0000000   0.0000000   1.8812580  )
         5           O0  tau(   5) = (   0.2500000   0.8177090   1.8812996  )
         6           O0  tau(   6) = (   0.2500000   0.1918083   1.8799287  )
         7           O0  tau(   7) = (   0.0000000   0.5047586   2.0722253  )
         8           O0  tau(   8) = (   0.0000000   0.0000000   2.1948149  )
         9           Ir1 tau(   9) = (   0.2500000   0.0000000   2.3898532  )
        10           Ir1 tau(  10) = (   0.0000000   0.5047586   2.3761029  )
        11           O0  tau(  11) = (   0.2500000   0.6965669   2.3876930  )
        12           O0  tau(  12) = (   0.2500000   0.3129503   2.3878177  )
        13           O0  tau(  13) = (   0.0000000   0.0000000   2.5742569  )
        14           O0  tau(  14) = (   0.5000000   0.0000000   1.5702768  )
        15           O0  tau(  15) = (   0.5000000   0.5047586   1.6724694  )
        16           Ir1 tau(  16) = (   0.7500000   0.5047586   1.8830859  )
        17           Ir1 tau(  17) = (   0.5000000   0.0000000   1.8811334  )
        18           O0  tau(  18) = (   0.7500000   0.8177090   1.8813411  )
        19           O0  tau(  19) = (   0.7500000   0.1918083   1.8799702  )
        20           O0  tau(  20) = (   0.5000000   0.5047586   2.0802013  )
        21           O0  tau(  21) = (   0.5000000   0.0000000   2.1944825  )
        22           Ir1 tau(  22) = (   0.7500000   0.0000000   2.3898532  )
        23           Ir1 tau(  23) = (   0.5000000   0.5047586   2.4038943  )
        24           O0  tau(  24) = (   0.7500000   0.6965669   2.3876515  )
        25           O0  tau(  25) = (   0.7500000   0.3129503   2.3878177  )
        26           O0  tau(  26) = (   0.5000000   0.0000000   2.5734260  )
        27           H2  tau(  27) = (  -0.0000700   0.6394282   1.5957418  )
        28           H2  tau(  28) = (   0.4999700   0.6419823   1.5977358  )
        29           H2  tau(  29) = (   0.1436200   0.0342933   1.5227115  )
        30           H2  tau(  30) = (   0.6432900   0.0353230   1.5222545  )
        31           O0  tau(  31) = (   0.5000100   0.5042640   2.6822238  )

     number of k points=    10  Methfessel-Paxton smearing, width (Ry)=  0.0100
                       cart. coord. in units 2pi/alat
        k(    1) = (   0.0000000   0.0000000   0.0000000), wk =   0.1250000
        k(    2) = (   0.0000000   0.2476431   0.0000000), wk =   0.2500000
        k(    3) = (   0.0000000  -0.4952862   0.0000000), wk =   0.1250000
        k(    4) = (   0.2500000   0.0000000   0.0000000), wk =   0.2500000
        k(    5) = (   0.2500000   0.2476431   0.0000000), wk =   0.2500000
        k(    6) = (   0.2500000  -0.4952862   0.0000000), wk =   0.2500000
        k(    7) = (  -0.5000000   0.0000000   0.0000000), wk =   0.1250000
        k(    8) = (  -0.5000000   0.2476431   0.0000000), wk =   0.2500000
        k(    9) = (  -0.5000000  -0.4952862   0.0000000), wk =   0.1250000
        k(   10) = (  -0.2500000   0.2476431   0.0000000), wk =   0.2500000

     Largest allocated arrays     est. size (Mb)     dimensions
     Largest temporary arrays     est. size (Mb)     dimensions

     Check: negative/imaginary core charge=   -0.000003    0.000000

     Initial potential from superposition of free atoms
     Check: negative starting charge=   -3.336659

     starting charge  233.99968, renormalised to  238.00000

     negative rho (up, down):  0.339E+01 0.000E+00
     Number of +U iterations with fixed ns =  0
     Starting occupations:
 --- enter write_ns ---
 LDA+U parameters:
U( 2)     =  8.00000000
alpha( 2) =  0.00000000
atom    3   Tr[ns(na)] =   7.00000
    eigenvalues:
  0.700  0.700  0.700  0.700  0.700
    eigenvectors:
  1.000  0.000  0.000  0.000  0.000
  0.000  1.000  0.000  0.000  0.000
  0.000  0.000  1.000  0.000  0.000
  0.000  0.000  0.000  1.000  0.000
  0.000  0.000  0.000  0.000  1.000
    occupations:
  0.700  0.000  0.000  0.000  0.000
  0.000  0.700  0.000  0.000  0.000
  0.000  0.000  0.700  0.000  0.000
  0.000  0.000  0.000  0.700  0.000
  0.000  0.000  0.000  0.000  0.700
atom    4   Tr[ns(na)] =   7.00000
    eigenvalues:
  0.700  0.700  0.700  0.700  0.700
    eigenvectors:
  1.000  0.000  0.000  0.000  0.000
  0.000  1.000  0.000  0.000  0.000
  0.000  0.000  1.000  0.000  0.000
  0.000  0.000  0.000  1.000  0.000
  0.000  0.000  0.000  0.000  1.000
    occupations:
  0.700  0.000  0.000  0.000  0.000
  0.000  0.700  0.000  0.000  0.000
  0.000  0.000  0.700  0.000  0.000
  0.000  0.000  0.000  0.700  0.000
  0.000  0.000  0.000  0.000  0.700
atom    9   Tr[ns(na)] =   7.00000
    eigenvalues:
  0.700  0.700  0.700  0.700  0.700
    eigenvectors:
  1.000  0.000  0.000  0.000  0.000
  0.000  1.000  0.000  0.000  0.000
  0.000  0.000  1.000  0.000  0.000
  0.000  0.000  0.000  1.000  0.000
  0.000  0.000  0.000  0.000  1.000
    occupations:
  0.700  0.000  0.000  0.000  0.000
  0.000  0.700  0.000  0.000  0.000
  0.000  0.000  0.700  0.000  0.000
  0.000  0.000  0.000  0.700  0.000
  0.000  0.000  0.000  0.000  0.700
atom   10   Tr[ns(na)] =   7.00000
    eigenvalues:
  0.700  0.700  0.700  0.700  0.700
    eigenvectors:
  1.000  0.000  0.000  0.000  0.000
  0.000  1.000  0.000  0.000  0.000
  0.000  0.000  1.000  0.000  0.000
  0.000  0.000  0.000  1.000  0.000
  0.000  0.000  0.000  0.000  1.000
    occupations:
  0.700  0.000  0.000  0.000  0.000
  0.000  0.700  0.000  0.000  0.000
  0.000  0.000  0.700  0.000  0.000
  0.000  0.000  0.000  0.700  0.000
  0.000  0.000  0.000  0.000  0.700
atom   16   Tr[ns(na)] =   7.00000
    eigenvalues:
  0.700  0.700  0.700  0.700  0.700
    eigenvectors:
  1.000  0.000  0.000  0.000  0.000
  0.000  1.000  0.000  0.000  0.000
  0.000  0.000  1.000  0.000  0.000
  0.000  0.000  0.000  1.000  0.000
  0.000  0.000  0.000  0.000  1.000
    occupations:
  0.700  0.000  0.000  0.000  0.000
  0.000  0.700  0.000  0.000  0.000
  0.000  0.000  0.700  0.000  0.000
  0.000  0.000  0.000  0.700  0.000
  0.000  0.000  0.000  0.000  0.700
atom   17   Tr[ns(na)] =   7.00000
    eigenvalues:
  0.700  0.700  0.700  0.700  0.700
    eigenvectors:
  1.000  0.000  0.000  0.000  0.000
  0.000  1.000  0.000  0.000  0.000
  0.000  0.000  1.000  0.000  0.000
  0.000  0.000  0.000  1.000  0.000
  0.000  0.000  0.000  0.000  1.000
    occupations:
  0.700  0.000  0.000  0.000  0.000
  0.000  0.700  0.000  0.000  0.000
  0.000  0.000  0.700  0.000  0.000
  0.000  0.000  0.000  0.700  0.000
  0.000  0.000  0.000  0.000  0.700
atom   22   Tr[ns(na)] =   7.00000
    eigenvalues:
  0.700  0.700  0.700  0.700  0.700
    eigenvectors:
  1.000  0.000  0.000  0.000  0.000
  0.000  1.000  0.000  0.000  0.000
  0.000  0.000  1.000  0.000  0.000
  0.000  0.000  0.000  1.000  0.000
  0.000  0.000  0.000  0.000  1.000
    occupations:
  0.700  0.000  0.000  0.000  0.000
[...]
    eigenvectors:
  0.000  0.139  0.000  0.000  0.861
  0.999  0.001  0.000  0.000  0.000
  0.000  0.000  0.955  0.045  0.000
  0.001  0.860  0.000  0.000  0.139
  0.000  0.000  0.045  0.954  0.000
    occupations:
  0.943  0.001 -0.000 -0.110 -0.000
  0.001  0.655  0.001 -0.000 -0.000
 -0.000  0.001  0.896 -0.000 -0.006
 -0.110 -0.000 -0.000  0.713  0.001
 -0.000 -0.000 -0.006  0.001  0.923
atom   10   Tr[ns(na)] =   8.18998
    eigenvalues:
  0.569  0.612  0.960  0.967  0.987
    eigenvectors:
  0.990  0.000  0.000  0.000  0.010
  0.000  0.000  1.000  0.000  0.000
  0.000  0.000  0.000  1.000  0.000
  0.010  0.000  0.000  0.000  0.990
  0.000  1.000  0.000  0.000  0.000
    occupations:
  0.573  0.000  0.001  0.041 -0.000
  0.000  0.960 -0.000  0.000 -0.000
  0.001 -0.000  0.967  0.000  0.000
  0.041  0.000  0.000  0.983 -0.000
 -0.000 -0.000  0.000 -0.000  0.612
atom   16   Tr[ns(na)] =   8.25347
    eigenvalues:
  0.604  0.633  0.927  0.976  0.987
    eigenvectors:
  0.000  0.184  0.003  0.001  0.812
  1.000  0.000  0.000  0.000  0.000
  0.000  0.000  0.992  0.004  0.003
  0.000  0.816  0.000  0.000  0.184
  0.000  0.000  0.004  0.995  0.001
    occupations:
  0.922  0.002  0.002 -0.137  0.001
  0.002  0.604 -0.000 -0.001 -0.005
  0.002 -0.000  0.927 -0.004 -0.003
 -0.137 -0.001 -0.004  0.698 -0.000
  0.001 -0.005 -0.003 -0.000  0.976
atom   17   Tr[ns(na)] =   8.25887
    eigenvalues:
  0.621  0.675  0.903  0.942  0.988
    eigenvectors:
  0.001  0.989  0.000  0.000  0.011
  0.000  0.000  0.112  0.888  0.000
  0.000  0.000  0.888  0.112  0.000
  0.000  0.011  0.000  0.000  0.989
  0.999  0.001  0.000  0.000  0.000
    occupations:
  0.678 -0.003 -0.001  0.032  0.001
 -0.003  0.938  0.012  0.000 -0.002
 -0.001  0.012  0.907 -0.000  0.001
  0.032  0.000 -0.000  0.984  0.000
  0.001 -0.002  0.001  0.000  0.621
atom   22   Tr[ns(na)] =   8.25945
    eigenvalues:
  0.656  0.669  0.895  0.924  0.987
    eigenvectors:
  0.000  0.139  0.000  0.000  0.861
  1.000  0.000  0.000  0.000  0.000
  0.000  0.000  0.958  0.042  0.000
  0.000  0.861  0.000  0.000  0.139
  0.000  0.000  0.042  0.957  0.000
    occupations:
  0.943 -0.000 -0.000 -0.110 -0.000
 -0.000  0.656  0.001  0.000 -0.000
 -0.000  0.001  0.896 -0.000  0.006
 -0.110  0.000 -0.000  0.713  0.001
 -0.000 -0.000  0.006  0.001  0.923
atom   23   Tr[ns(na)] =   8.23536
    eigenvalues:
  0.663  0.729  0.845  0.892  0.989
    eigenvectors:
  0.000  0.990  0.000  0.000  0.010
  0.000  0.000  0.000  1.000  0.000
  0.000  0.000  1.000  0.000  0.000
  0.000  0.010  0.000  0.000  0.990
  1.000  0.000  0.000  0.000  0.000
    occupations:
  0.731  0.000 -0.000  0.026 -0.000
  0.000  0.892  0.000  0.000 -0.000
 -0.000  0.000  0.845  0.000  0.000
  0.026  0.000  0.000  0.987  0.000
 -0.000 -0.000  0.000  0.000  0.663
N of occupied +U levels =  65.9692237
 --- exit write_ns ---

     Threshold (ethr) on eigenvalues was too large:
     Diagonalizing with lowered threshold

     Davidson diagonalization with overlap
     ethr =  2.03E-08,  avg # of iterations =  2.0

[...]

     total energy              =   -2103.11289135 Ry
     Harris-Foulkes estimate   =   -2103.11289135 Ry
     estimated scf accuracy    <       0.00000001 Ry

     iteration # 15     ecut=    40.00 Ry     beta=0.70
     Davidson diagonalization with overlap
     ethr =  5.81E-12,  avg # of iterations =  1.0

     negative rho (up, down):  0.314E+01 0.000E+00

     End of self-consistent calculation
 --- enter write_ns ---
 LDA+U parameters:
U( 2)     =  8.00000000
alpha( 2) =  0.00000000
atom    3   Tr[ns(na)] =   8.25306
    eigenvalues:
  0.604  0.633  0.927  0.976  0.987
    eigenvectors:
  0.000  0.184  0.003  0.000  0.813
  1.000  0.000  0.000  0.000  0.000
  0.000  0.000  0.990  0.007  0.003
  0.000  0.816  0.000  0.000  0.184
  0.000  0.000  0.007  0.992  0.001
    occupations:
  0.922 -0.002  0.002 -0.137 -0.001
 -0.002  0.604 -0.001  0.001 -0.005
  0.002 -0.001  0.927 -0.004  0.004
 -0.137  0.001 -0.004  0.698 -0.000
 -0.001 -0.005  0.004 -0.000  0.976
atom    4   Tr[ns(na)] =   8.25855
    eigenvalues:
  0.622  0.675  0.898  0.946  0.988
    eigenvectors:
  0.000  0.988  0.000  0.000  0.011
  0.000  0.000  0.058  0.942  0.000
  0.000  0.000  0.942  0.058  0.000
  0.000  0.011  0.000  0.000  0.989
  0.999  0.000  0.000  0.000  0.000
    occupations:
  0.679 -0.003 -0.000  0.033  0.001
 -0.003  0.944  0.011  0.000 -0.002
 -0.000  0.011  0.901 -0.000  0.001
  0.033  0.000 -0.000  0.984  0.000
  0.001 -0.002  0.001  0.000  0.622
atom    9   Tr[ns(na)] =   8.25997
    eigenvalues:
  0.655  0.669  0.895  0.924  0.987
    eigenvectors:
  0.000  0.139  0.000  0.000  0.861
  0.999  0.001  0.000  0.000  0.000
  0.000  0.000  0.954  0.046  0.000
  0.001  0.860  0.000  0.000  0.139
  0.000  0.000  0.046  0.954  0.000
    occupations:
  0.943  0.001 -0.000 -0.110 -0.000
  0.001  0.656  0.001 -0.000 -0.000
 -0.000  0.001  0.896 -0.000 -0.006
 -0.110 -0.000 -0.000  0.713  0.001
 -0.000 -0.000 -0.006  0.001  0.923
atom   10   Tr[ns(na)] =   8.19056
    eigenvalues:
  0.569  0.612  0.960  0.967  0.987
    eigenvectors:
  0.990  0.000  0.000  0.000  0.010
  0.000  0.000  1.000  0.000  0.000
  0.000  0.000  0.000  1.000  0.000
  0.010  0.000  0.000  0.000  0.990
  0.000  1.000  0.000  0.000  0.000
    occupations:
  0.574  0.000  0.001  0.041 -0.000
  0.000  0.960 -0.000  0.000 -0.000
  0.001 -0.000  0.967  0.000  0.000
  0.041  0.000  0.000  0.983 -0.000
 -0.000 -0.000  0.000 -0.000  0.612
atom   16   Tr[ns(na)] =   8.25306
    eigenvalues:
  0.604  0.633  0.927  0.976  0.987
    eigenvectors:
  0.000  0.184  0.003  0.001  0.812
  1.000  0.000  0.000  0.000  0.000
  0.000  0.000  0.992  0.004  0.003
  0.000  0.816  0.000  0.000  0.183
  0.000  0.000  0.004  0.995  0.001
    occupations:
  0.922  0.002  0.002 -0.137  0.001
  0.002  0.604 -0.000 -0.001 -0.005
  0.002 -0.000  0.927 -0.004 -0.003
 -0.137 -0.001 -0.004  0.698 -0.000
  0.001 -0.005 -0.003 -0.000  0.976
atom   17   Tr[ns(na)] =   8.25834
    eigenvalues:
  0.621  0.675  0.903  0.942  0.988
    eigenvectors:
  0.001  0.989  0.000  0.000  0.011
  0.000  0.000  0.111  0.889  0.000
  0.000  0.000  0.889  0.111  0.000
  0.000  0.011  0.000  0.000  0.989
  0.999  0.001  0.000  0.000  0.000
    occupations:
  0.678 -0.003 -0.001  0.032  0.001
 -0.003  0.938  0.012  0.000 -0.002
 -0.001  0.012  0.907 -0.000  0.001
  0.032  0.000 -0.000  0.984  0.000
  0.001 -0.002  0.001  0.000  0.621
atom   22   Tr[ns(na)] =   8.25992
    eigenvalues:
  0.656  0.669  0.895  0.924  0.987
    eigenvectors:
  0.000  0.139  0.000  0.000  0.861
  1.000  0.000  0.000  0.000  0.000
  0.000  0.000  0.957  0.043  0.000
  0.000  0.861  0.000  0.000  0.139
  0.000  0.000  0.043  0.957  0.000
    occupations:
  0.943 -0.000 -0.000 -0.110 -0.000
 -0.000  0.656  0.001  0.000 -0.000
 -0.000  0.001  0.896 -0.000  0.006
 -0.110  0.000 -0.000  0.713  0.001
 -0.000 -0.000  0.006  0.001  0.923
atom   23   Tr[ns(na)] =   8.23544
    eigenvalues:
  0.662  0.729  0.845  0.892  0.989
    eigenvectors:
  0.000  0.990  0.000  0.000  0.010
  0.000  0.000  0.000  1.000  0.000
  0.000  0.000  1.000  0.000  0.000
  0.000  0.010  0.000  0.000  0.990
  1.000  0.000  0.000  0.000  0.000
    occupations:
  0.731  0.000 -0.000  0.026 -0.000
  0.000  0.892  0.000  0.000 -0.000
 -0.000  0.000  0.845  0.000  0.000
  0.026  0.000  0.000  0.987  0.000
 -0.000 -0.000  0.000  0.000  0.662
N of occupied +U levels =  65.9688912
 --- exit write_ns ---

[...]

          k = 0.2500-0.4953 0.0000 ( 31088 PWs)   bands (ev):

[...]

          k =-0.2500 0.2476 0.0000 ( 31099 PWs)   bands (ev):

   -51.6087 -51.3185 -51.1860 -50.3439 -50.3313 -50.3119 -50.3046 -50.2962
   -50.2688 -50.2599 -50.2371 -50.2254 -50.1801 -50.1051 -50.0748 -50.0030
   -49.9705 -49.9658 -49.9326 -49.9314 -49.8569 -49.8468 -49.8456 -49.8359
   -21.6571 -21.5787 -21.4124 -21.2640 -21.1325 -21.0448 -20.9756 -20.8100
   -20.7570 -20.6426 -20.5280 -20.4258 -20.3104 -20.2133 -20.1591 -19.9781
   -19.4765 -19.2783 -19.1196 -11.5105 -11.2814 -10.9889 -10.8980 -10.7785
   -10.6570 -10.5287 -10.3526 -10.1729  -9.5501  -9.4523  -9.3529  -9.2211
    -9.0733  -9.0046  -8.7719  -8.7422  -8.6762  -8.5575  -8.3293  -8.1528
    -7.9494  -7.9010  -7.7911  -7.7423  -7.6015  -7.5449  -7.4651  -7.3691
    -7.2714  -7.0628  -6.9529  -6.9066  -6.7875  -6.7188  -6.6396  -6.5929
    -6.4829  -6.4019  -6.3348  -6.0350  -5.9844  -5.6933  -5.4977  -5.3950
    -5.2937  -5.1171  -5.0181  -4.8719  -4.8303  -4.6537  -4.5348  -4.4640
    -4.2651  -4.1797  -4.1342  -4.0233  -3.8483  -3.7768  -3.7488  -3.6357
    -3.5507  -3.5003  -3.4372  -3.3783  -3.2812  -3.1563  -3.0739  -3.0105
    -2.8394  -2.4265  -2.3079  -2.1410  -2.0342  -1.8127  -1.6183  -1.4733
    -1.4333  -1.2444  -1.1533  -0.9100  -0.0848   0.4875   0.8684   1.2211
     1.4561   1.6623   1.9658   2.2260   2.4519   2.6301   2.6745   2.8579
     2.9823   3.1802   3.2287   3.6218   3.7724   4.5907   4.8065   5.2878
     5.4349   5.5221   5.5720   6.1858   6.4345   6.5223   6.6421   6.7470
     6.8124   6.9232   7.1260   7.2744   7.3722   7.4303   7.5832   7.8180
     7.9143   8.0237   8.0928   8.1511   8.3261   8.4439   8.4936   8.5501
     8.5988   8.8133   8.8570   8.9323   9.0299   9.1432   9.2338   9.3545
     9.4708   9.5629   9.6350   9.6430   9.6825   9.6910   9.7277   9.7660
     9.7694   9.8003   9.9046   9.9093   9.9530  10.0208  10.0481  10.1718
    10.2558  10.3653  10.4065  10.4659  10.5109  10.5327  10.6933  10.8300
    10.8959  11.0352  11.1037  11.1401  11.1738  11.3301  11.4435  11.5490
    11.6134  11.6742  11.7879  11.8010  11.8494  12.0323  12.1584  12.2023
    12.2668  12.3548  12.4077  12.4869  12.6184  12.6509  12.7124  12.7295
    12.8260  12.8783  12.9588  13.0085  13.1124  13.1636  13.2075  13.2682
    13.3641  13.4278  13.5196  13.6439  13.7228  13.8800  13.9163  13.9482
    14.0467  14.1082  14.1999  14.2946  14.3304  14.4343  14.4608  14.5969
    14.7199  14.8082  14.8674  14.9483  15.1005  15.1871  15.2397  15.3826
    15.4089  15.5237  15.5691  15.6195  15.6788  15.7801  15.7901  15.8906
    15.9446  15.9957  16.0572  16.1193  16.1984  16.2272  16.3408  16.3811
    16.4165  16.4392  16.4933  16.5635  16.6468  16.7211  16.7462  16.7875
    16.8250  16.9660  17.1539  17.1788  17.2270  17.3331  17.3487  17.4551
    17.5037  17.5441  17.5704  17.6696  17.7411  17.7784  17.8533  17.9273
    17.9575  18.0063  18.0211  18.1750  18.2247  18.2703  18.3463  18.4944
    18.5692  18.6161  18.6625  18.7161  18.8128  18.8884  18.9747  19.0093
    19.0650  19.1394  19.1828  19.2784  19.2993  19.3512  19.4086  19.5951
    19.6310  19.6735  19.7037  19.8003  19.8927  19.9819  20.0459  20.0793
    20.2171  20.2758  20.3756  20.4240  20.4982  20.5796  20.6356  20.6974
    20.7474  20.7971  20.8864  20.9047  20.9446  20.9928  21.0822  21.1900
    21.2932  21.3262  21.3738  21.4211  21.4769  21.5162  21.5803  21.6837
    21.7725  21.8355  21.8584  21.8951  21.9211

     the Fermi energy is    -1.6291 ev

!    total energy              =   -2103.11289135 Ry
     Harris-Foulkes estimate   =   -2103.11289135 Ry
     estimated scf accuracy    <          3.7E-09 Ry

     The total energy is the sum of the following terms:

     one-electron contribution =  -22770.44836791 Ry
     hartree contribution      =   11429.34677609 Ry
     xc contribution           =    -576.43893078 Ry
     ewald contribution        =    9811.57960418 Ry
     Hubbard energy            =       2.84823299 Ry
     smearing contrib. (-TS)   =      -0.00020592 Ry

     convergence has been achieved in  15 iterations

     Forces acting on atoms (Ry/au):

     negative rho (up, down):  0.314E+01 0.000E+00
     atom    1 type  1   force =    -0.00699548   -0.01192087    0.00002640
     atom    2 type  1   force =    -0.00006621    0.00123453   -0.00000394
     atom    3 type  2   force =     0.03043770    0.00879299    0.00038499
     atom    4 type  2   force =     0.00889632    0.00781921   -0.00009271
     atom    5 type  1   force =    -0.00494555   -0.01253176   -0.00025816
     atom    6 type  1   force =     0.00868993    0.01023470   -0.00005390
     atom    7 type  1   force =    -0.00041510   -0.00259273   -0.00095647
     atom    8 type  1   force =    -0.00344057   -0.00071781   -0.00003916
     atom    9 type  2   force =     0.00614366    0.00058406    0.00015463
     atom   10 type  2   force =    -0.00000661   -0.00086715   -0.00096296
     atom   11 type  1   force =     0.01521061    0.00905146   -0.00000485
     atom   12 type  1   force =     0.01447488   -0.00970928   -0.00005705
     atom   13 type  1   force =    -0.00082867   -0.00005226    0.00007613
     atom   14 type  1   force =    -0.00784592   -0.01272544   -0.00027186
     atom   15 type  1   force =     0.00005769    0.00152062   -0.00056439
     atom   16 type  2   force =    -0.03038617    0.00715151    0.00038906
     atom   17 type  2   force =     0.00892092    0.00804688   -0.00014321
     atom   18 type  1   force =    -0.00656532   -0.01161650   -0.00023495
     atom   19 type  1   force =     0.00615739    0.01122651   -0.00008334
     atom   20 type  1   force =    -0.00021849   -0.00546474    0.00082501
     atom   21 type  1   force =    -0.00321095   -0.00048180   -0.00024819
     atom   22 type  2   force =    -0.00380684    0.00053586    0.00015477
     atom   23 type  2   force =    -0.00006901    0.00062400    0.00056413
     atom   24 type  1   force =    -0.01512572    0.00913604   -0.00001174
     atom   25 type  1   force =    -0.01433580   -0.00963828   -0.00005841
     atom   26 type  1   force =    -0.00070855   -0.00012072   -0.00003677
     atom   27 type  3   force =     0.00000452    0.00054344    0.00064579
     atom   28 type  3   force =     0.00002465    0.00098093    0.00055485
     atom   29 type  3   force =    -0.00003241    0.00024116    0.00015705
     atom   30 type  3   force =    -0.00000859    0.00078276    0.00019953
     atom   31 type  1   force =    -0.00000630   -0.00006733   -0.00005027

     Total force =     0.002559     Total SCF correction =     0.000110

     bfgs converged in   9 scf cycles and   8 bfgs steps
     (criteria: energy < 0.10E-03, force < 0.10E-02)

     End of BFGS Geometry Optimization

     Final energy   =   -2103.1128913468 Ry
Begin final coordinates

ATOMIC_POSITIONS (crystal)
O0       0.000000000   0.000000000   0.378527217    0   0   1
O0       0.000000000   0.500000000   0.403901376    0   0   1
Ir1      0.250000000   0.500000000   0.453575194    0   0   1
Ir1      0.000000000   0.000000000   0.452885526    0   0   1
O0       0.250000000   0.810000000   0.453232554    0   0   1
O0       0.250000000   0.190000000   0.452703117    0   0   1
O0       0.000000000   0.500000000   0.499631145    0   0   1
O0       0.000000000   0.000000000   0.527960640    0   0   1
Ir1      0.250000000   0.000000000   0.574527472    0   0   1
Ir1      0.000000000   0.500000000   0.572197282    0   0   1
O0       0.250000000   0.690000000   0.574149772    0   0   1
O0       0.250000000   0.310000000   0.574164311    0   0   1
O0       0.000000000   0.000000000   0.618957898    0   0   1
O0       0.500000000   0.000000000   0.378467092    0   0   1
O0       0.500000000   0.500000000   0.403394758    0   0   1
Ir1      0.750000000   0.500000000   0.453581369    0   0   1
Ir1      0.500000000   0.000000000   0.452910863    0   0   1
O0       0.750000000   0.810000000   0.453253109    0   0   1
O0       0.750000000   0.190000000   0.452705864    0   0   1
O0       0.500000000   0.500000000   0.501879531    0   0   1
O0       0.500000000   0.000000000   0.528041169    0   0   1
Ir1      0.750000000   0.000000000   0.574533614    0   0   1
Ir1      0.500000000   0.500000000   0.577419462    0   0   1
O0       0.750000000   0.690000000   0.574148009    0   0   1
O0       0.750000000   0.310000000   0.574170958    0   0   1
O0       0.500000000   0.000000000   0.619035189    0   0   1
H2      -0.000238913   0.632579398   0.384771490
H2       0.499810322   0.635145518   0.385377139
H2       0.143364650   0.034594233   0.366877128
H2       0.642659051   0.036610382   0.366752279
O0       0.500005254   0.499262713   0.644327477
End final coordinates

     General routines

     Parallel routines
     Hubbard U routines

   This run was terminated on:  16:51:53  29Apr2014

   JOB DONE.
Running PBS batch system epilogue script
Job id: 340415.audhumbla.fysik.dtu.dk
Username: zhonxu
Groupname: campgst
Jobname: IrO2/Eads-2-layers/O-U-8.0
Sessionid: 28907
Queuename: verylong
Accounting:
This job has allocated the following 16 nodes:
a117 a117 a117 a117 a117 a117 a117 a117 a111 a111 a111 a111 a111 a111 a111 a111
Finished epilogue job 340415.audhumbla.fysik.dtu.dk for zhonxu