     Program PWSCF v.5.0.2 (svn rev. 9656) starts on 23Jan2014 at 18:19: 8

     Current dimensions of program PWSCF are:
     Max number of different atomic species (ntypx) = 10
     Max number of k-points (npk) =  40000
     Max angular momentum in pseudopotentials (lmaxx) =  3
     Reading input from TiO2-v-1.2.in

     Subspace diagonalization in iterative solution of the eigenvalue problem:
     a serial algorithm will be used

     bravais-lattice index     =            0
     lattice parameter (alat)  =       9.2016  a.u.
     unit-cell volume          =     502.0761 (a.u.)^3
     number of atoms/cell      =            6
     number of atomic types    =            2
     number of electrons       =        48.00
     number of Kohn-Sham states=           69
     kinetic-energy cutoff     =      40.0000  Ry
     charge density cutoff     =     500.0000  Ry
     convergence threshold     =      1.0E-06
     mixing beta               =       0.7000
     number of iterations used =            8  plain     mixing
     Exchange-correlation      = SLA  PW   PBE  PBE ( 1 4 3 4 0)
     EXX-fraction              =        0.00
     nstep                     =           50

     celldm(1)=   9.201558  celldm(2)=   0.000000  celldm(3)=   0.000000
     celldm(4)=   0.000000  celldm(5)=   0.000000  celldm(6)=   0.000000

     crystal axes: (cart. coord. in units of alat)
               a(1) = (   1.000000   0.000000   0.000000 )
               a(2) = (   0.000000   1.000000   0.000000 )
               a(3) = (   0.000000   0.000000   0.644444 )

     reciprocal axes: (cart. coord. in units 2 pi/alat)
               b(1) = (  1.000000  0.000000  0.000000 )
               b(2) = (  0.000000  1.000000  0.000000 )
               b(3) = (  0.000000  0.000000  1.551724 )

     PseudoPot. # 1 for Ti read from file:
     /home/camp/zhonxu/pseudo/ti_pbe_v1.uspp.F.UPF
     MD5 check sum: bcc8f6961b3b91f0cac3ca967d22d0fb
     Pseudo is Ultrasoft + core correction, Zval = 12.0
     Generated by new atomic code, or converted to UPF format
     Using radial grid of  851 points,  6 beta functions with:
                l(1) =   0
                l(2) =   0
                l(3) =   1
                l(4) =   1
                l(5) =   2
                l(6) =   2
     Q(r) pseudized with  6 coefficients,  rinner =    1.000   1.000   1.000
                                                       1.000   1.000

     PseudoPot. # 2 for O  read from file:
     /home/camp/zhonxu/pseudo/o_pbe_v1.01.uspp.F.UPF
     MD5 check sum: 2bcb18d16ea4b960afae9ec6d52f22d2
     Pseudo is Ultrasoft + core correction, Zval =  6.0
     Generated by new atomic code, or converted to UPF format
     Using radial grid of  737 points,  5 beta functions with:
                l(1) =   0
                l(2) =   0
                l(3) =   1
                l(4) =   1
                l(5) =   2
     Q(r) pseudized with  8 coefficients,  rinner =    0.900   0.900   0.900
                                                       0.900   0.900

     atomic species   valence    mass     pseudopotential
        Ti0           12.00    47.88000     Ti( 1.00)
        O1             6.00    15.99940     O ( 1.00)

     Starting magnetic structure
     atomic species   magnetization
        Ti0          0.600
        O1           0.000

      8 Sym. Ops., with inversion, found
          (note:  8 additional sym.ops. were found but ignored
           their fractional translations are incommensurate with FFT grid)

   Cartesian axes

     site n.     atom                  positions (alat units)
         1           Ti0 tau(   1) = (   0.0000000   0.0000000   0.0000000  )
         2           Ti0 tau(   2) = (   0.5000000   0.5000000   0.3222222  )
         3           O1  tau(   3) = (   0.3050000   0.3050000   0.0000000  )
         4           O1  tau(   4) = (  -0.3050000  -0.3050000   0.0000000  )
         5           O1  tau(   5) = (   0.8050000   0.1950000   0.3222222  )
         6           O1  tau(   6) = (   0.1950000   0.8050000   0.3222222  )

     number of k points=    54  Methfessel-Paxton smearing, width (Ry)=  0.0100
                       cart. coord. in units 2pi/alat
        k(    1) = (   0.0000000   0.0000000   0.0000000), wk =   0.0080000
        k(    2) = (   0.0000000   0.0000000   0.3103448), wk =   0.0160000
        k(    3) = (   0.0000000   0.0000000   0.6206897), wk =   0.0160000
        k(    4) = (   0.0000000   0.2000000   0.0000000), wk =   0.0320000
        k(    5) = (   0.0000000   0.2000000   0.3103448), wk =   0.0640000
        k(    6) = (   0.0000000   0.2000000   0.6206897), wk =   0.0640000
        k(    7) = (   0.0000000   0.4000000   0.0000000), wk =   0.0320000
        k(    8) = (   0.0000000   0.4000000   0.3103448), wk =   0.0640000
        k(    9) = (   0.0000000   0.4000000   0.6206897), wk =   0.0640000
        k(   10) = (   0.2000000   0.2000000   0.0000000), wk =   0.0160000
        k(   11) = (   0.2000000   0.2000000   0.3103448), wk =   0.0320000
        k(   12) = (   0.2000000   0.2000000   0.6206897), wk =   0.0320000
        k(   13) = (   0.2000000   0.4000000   0.0000000), wk =   0.0320000
        k(   14) = (   0.2000000   0.4000000   0.3103448), wk =   0.0640000
        k(   15) = (   0.2000000   0.4000000   0.6206897), wk =   0.0640000
        k(   16) = (   0.4000000   0.4000000   0.0000000), wk =   0.0160000
        k(   17) = (   0.4000000   0.4000000   0.3103448), wk =   0.0320000
        k(   18) = (   0.4000000   0.4000000   0.6206897), wk =   0.0320000
        k(   19) = (  -0.2000000   0.2000000   0.0000000), wk =   0.0160000
        k(   20) = (  -0.2000000   0.2000000  -0.3103448), wk =   0.0320000
        k(   21) = (  -0.2000000   0.2000000  -0.6206897), wk =   0.0320000
        k(   22) = (  -0.2000000   0.4000000   0.0000000), wk =   0.0320000
        k(   23) = (  -0.2000000   0.4000000  -0.3103448), wk =   0.0640000
        k(   24) = (  -0.2000000   0.4000000  -0.6206897), wk =   0.0640000
        k(   25) = (  -0.4000000   0.4000000   0.0000000), wk =   0.0160000
        k(   26) = (  -0.4000000   0.4000000  -0.3103448), wk =   0.0320000
        k(   27) = (  -0.4000000   0.4000000  -0.6206897), wk =   0.0320000
        k(   28) = (   0.0000000   0.0000000   0.0000000), wk =   0.0080000
        k(   29) = (   0.0000000   0.0000000   0.3103448), wk =   0.0160000
        k(   30) = (   0.0000000   0.0000000   0.6206897), wk =   0.0160000
        k(   31) = (   0.0000000   0.2000000   0.0000000), wk =   0.0320000
        k(   32) = (   0.0000000   0.2000000   0.3103448), wk =   0.0640000
        k(   33) = (   0.0000000   0.2000000   0.6206897), wk =   0.0640000
        k(   34) = (   0.0000000   0.4000000   0.0000000), wk =   0.0320000
        k(   35) = (   0.0000000   0.4000000   0.3103448), wk =   0.0640000
        k(   36) = (   0.0000000   0.4000000   0.6206897), wk =   0.0640000
        k(   37) = (   0.2000000   0.2000000   0.0000000), wk =   0.0160000
        k(   38) = (   0.2000000   0.2000000   0.3103448), wk =   0.0320000
        k(   39) = (   0.2000000   0.2000000   0.6206897), wk =   0.0320000
        k(   40) = (   0.2000000   0.4000000   0.0000000), wk =   0.0320000
        k(   41) = (   0.2000000   0.4000000   0.3103448), wk =   0.0640000
        k(   42) = (   0.2000000   0.4000000   0.6206897), wk =   0.0640000
        k(   43) = (   0.4000000   0.4000000   0.0000000), wk =   0.0160000
        k(   44) = (   0.4000000   0.4000000   0.3103448), wk =   0.0320000
        k(   45) = (   0.4000000   0.4000000   0.6206897), wk =   0.0320000
        k(   46) = (  -0.2000000   0.2000000   0.0000000), wk =   0.0160000
        k(   47) = (  -0.2000000   0.2000000  -0.3103448), wk =   0.0320000
        k(   48) = (  -0.2000000   0.2000000  -0.6206897), wk =   0.0320000
        k(   49) = (  -0.2000000   0.4000000   0.0000000), wk =   0.0320000
        k(   50) = (  -0.2000000   0.4000000  -0.3103448), wk =   0.0640000
        k(   51) = (  -0.2000000   0.4000000  -0.6206897), wk =   0.0640000
        k(   52) = (  -0.4000000   0.4000000   0.0000000), wk =   0.0160000
        k(   53) = (  -0.4000000   0.4000000  -0.3103448), wk =   0.0320000
        k(   54) = (  -0.4000000   0.4000000  -0.6206897), wk =   0.0320000

     Largest allocated arrays     est. size (Mb)     dimensions
     Largest temporary arrays     est. size (Mb)     dimensions

     Check: negative/imaginary core charge=   -0.000013    0.000000

     Initial potential from superposition of free atoms
     Check: negative starting charge=(component1):   -0.020257
     Check: negative starting charge=(component2):   -0.005007

     starting charge   45.99991, renormalised to   48.00000

     negative rho (up, down):  0.211E-01 0.522E-02
     Starting wfc are   36 randomized atomic wfcs

     Self-consistent Calculation

     iteration #  1     ecut=    40.00 Ry     beta=0.70
     Davidson diagonalization with overlap
     ethr =  1.00E-02,  avg # of iterations =  5.2

     negative rho (up, down):  0.161E-01 0.124E-01

     total energy              =    -365.51258236 Ry
     Harris-Foulkes estimate   =    -365.18662863 Ry
     estimated scf accuracy    <       2.67278590 Ry

     total magnetization       =     0.00 Bohr mag/cell
     absolute magnetization    =     1.89 Bohr mag/cell

[...]

     End of self-consistent calculation

 ------ SPIN UP ------------

          k = 0.0000 0.0000 0.0000 (  2127 PWs)   bands (ev):

   -50.7110 -50.7047 -26.8950 -26.8950 -26.8125 -26.8125 -26.7979 -26.7820
   -10.6624  -9.7411  -9.3435  -9.3435   1.7311   2.2646   2.8863   3.5229
     3.5229   4.5267   4.5267   4.9482   6.0521   6.3571   6.3571   6.7720
     8.2407   8.4537   8.6448   8.7044   8.7044   9.9592  10.2948  11.9684
    11.9684  12.7078  13.3507  17.3076  17.3076  20.0295  20.9004  21.6420
    22.2875  23.8714  23.8714  25.2163  25.6077  27.4553  28.9852  28.9852
    29.6183  30.3346  30.3346  30.5497  30.5497  30.8387  30.9539  32.6727
    34.4847  34.4897  35.4897  36.0945  36.0945  37.1551  37.1551  37.7271
    39.2729  39.2729  39.5724  40.7814  42.4271

[...]

          k =-0.2000 0.2000 0.0000 (  2131 PWs)   bands (ev):

[...]

 ------ SPIN DOWN ----------

[...]

     the Fermi energy is     7.5683 ev

!    total energy              =    -366.43291929 Ry
     Harris-Foulkes estimate   =    -366.43291929 Ry
     estimated scf accuracy    <          9.0E-09 Ry

     The total energy is the sum of the following terms:

     one-electron contribution =    -147.12425462 Ry
     hartree contribution      =      92.63524555 Ry
     xc contribution           =     -62.64880983 Ry
     ewald contribution        =    -249.29510039 Ry
     smearing contrib. (-TS)   =       0.00000000 Ry

[...]

     convergence has been achieved in  12 iterations

     Forces acting on atoms (Ry/au):

     negative rho (up, down):  0.122E-01 0.122E-01
     atom    1 type  1   force =     0.00000000    0.00000000    0.00000000
     atom    2 type  1   force =     0.00000000    0.00000000    0.00000000
     atom    3 type  2   force =     0.01613515    0.01613515   -0.00000000
[...]
        k(    3) = (   0.0000000   0.0000000   0.6486756), wk =   0.0160000
        k(    4) = (  -0.0000010   0.1956381   0.0000000), wk =   0.0320000
        k(    5) = (  -0.0000010   0.1956381   0.3243378), wk =   0.0640000
        k(    6) = (  -0.0000010   0.1956381   0.6486756), wk =   0.0640000
        k(    7) = (  -0.0000020   0.3912762   0.0000000), wk =   0.0320000
        k(    8) = (  -0.0000020   0.3912762   0.3243378), wk =   0.0640000
        k(    9) = (  -0.0000020   0.3912762   0.6486756), wk =   0.0640000
        k(   10) = (   0.1956371   0.1956371   0.0000000), wk =   0.0160000
        k(   11) = (   0.1956371   0.1956371   0.3243378), wk =   0.0320000
        k(   12) = (   0.1956371   0.1956371   0.6486756), wk =   0.0320000
        k(   13) = (   0.1956361   0.3912752   0.0000000), wk =   0.0320000
        k(   14) = (   0.1956361   0.3912752   0.3243378), wk =   0.0640000
        k(   15) = (   0.1956361   0.3912752   0.6486756), wk =   0.0640000
        k(   16) = (   0.3912743   0.3912743   0.0000000), wk =   0.0160000
        k(   17) = (   0.3912743   0.3912743   0.3243378), wk =   0.0320000
        k(   18) = (   0.3912743   0.3912743   0.6486756), wk =   0.0320000
        k(   19) = (  -0.1956391   0.1956391   0.0000000), wk =   0.0160000
        k(   20) = (  -0.1956391   0.1956391  -0.3243378), wk =   0.0320000
        k(   21) = (  -0.1956391   0.1956391  -0.6486756), wk =   0.0320000
        k(   22) = (  -0.1956401   0.3912772   0.0000000), wk =   0.0320000
        k(   23) = (  -0.1956401   0.3912772  -0.3243378), wk =   0.0640000
        k(   24) = (  -0.1956401   0.3912772  -0.6486756), wk =   0.0640000
        k(   25) = (  -0.3912782   0.3912782   0.0000000), wk =   0.0160000
        k(   26) = (  -0.3912782   0.3912782  -0.3243378), wk =   0.0320000
        k(   27) = (  -0.3912782   0.3912782  -0.6486756), wk =   0.0320000
        k(   28) = (   0.0000000   0.0000000   0.0000000), wk =   0.0080000
        k(   29) = (   0.0000000   0.0000000   0.3243378), wk =   0.0160000
        k(   30) = (   0.0000000   0.0000000   0.6486756), wk =   0.0160000
        k(   31) = (  -0.0000010   0.1956381   0.0000000), wk =   0.0320000
        k(   32) = (  -0.0000010   0.1956381   0.3243378), wk =   0.0640000
        k(   33) = (  -0.0000010   0.1956381   0.6486756), wk =   0.0640000
        k(   34) = (  -0.0000020   0.3912762   0.0000000), wk =   0.0320000
        k(   35) = (  -0.0000020   0.3912762   0.3243378), wk =   0.0640000
        k(   36) = (  -0.0000020   0.3912762   0.6486756), wk =   0.0640000
        k(   37) = (   0.1956371   0.1956371   0.0000000), wk =   0.0160000
        k(   38) = (   0.1956371   0.1956371   0.3243378), wk =   0.0320000
        k(   39) = (   0.1956371   0.1956371   0.6486756), wk =   0.0320000
        k(   40) = (   0.1956361   0.3912752   0.0000000), wk =   0.0320000
        k(   41) = (   0.1956361   0.3912752   0.3243378), wk =   0.0640000
        k(   42) = (   0.1956361   0.3912752   0.6486756), wk =   0.0640000
        k(   43) = (   0.3912743   0.3912743   0.0000000), wk =   0.0160000
        k(   44) = (   0.3912743   0.3912743   0.3243378), wk =   0.0320000
        k(   45) = (   0.3912743   0.3912743   0.6486756), wk =   0.0320000
        k(   46) = (  -0.1956391   0.1956391   0.0000000), wk =   0.0160000
        k(   47) = (  -0.1956391   0.1956391  -0.3243378), wk =   0.0320000
        k(   48) = (  -0.1956391   0.1956391  -0.6486756), wk =   0.0320000
        k(   49) = (  -0.1956401   0.3912772   0.0000000), wk =   0.0320000
        k(   50) = (  -0.1956401   0.3912772  -0.3243378), wk =   0.0640000
        k(   51) = (  -0.1956401   0.3912772  -0.6486756), wk =   0.0640000
        k(   52) = (  -0.3912782   0.3912782   0.0000000), wk =   0.0160000
        k(   53) = (  -0.3912782   0.3912782  -0.3243378), wk =   0.0320000
        k(   54) = (  -0.3912782   0.3912782  -0.6486756), wk =   0.0320000

     Check: negative/imaginary core charge=   -0.000013    0.000000
     Check: negative starting charge=(component1):   -0.025271

[...]

     Volume is kept fixed: isostatic pressure set to zero

     bfgs converged in   8 scf cycles and   7 bfgs steps
     (criteria: energy < 0.10E-03, force < 0.10E-02, cell < 0.50E+00)

     End of BFGS Geometry Optimization

     Final enthalpy =    -366.4475521661 Ry
Begin final coordinates
     new unit-cell volume =    502.07609 a.u.^3 (    74.40000 Ang^3 )

CELL_PARAMETERS (alat=  9.20155768)
   1.022295681   0.000005149   0.000000000
   0.000005149   1.022295681   0.000000000
   0.000000000   0.000000000   0.616641050

ATOMIC_POSITIONS (crystal)
Ti0      0.000000000   0.000000000   0.000000000    0   0   0
Ti0      0.500000000   0.500000000   0.500000000    0   0   0
O1       0.315699572   0.315699572   0.000000000    1   1   0
O1      -0.315699572  -0.315699572   0.000000000    1   1   0
O1       0.815700548   0.184299452   0.500000000    1   1   0
O1       0.184299452   0.815700548   0.500000000    1   1   0
End final coordinates

     A final scf calculation at the relaxed structure.
     The G-vectors are recalculated for the final unit cell
     Results may differ from those at the preceding step.

     bravais-lattice index     =            0
     lattice parameter (alat)  =       9.2016  a.u.
     unit-cell volume          =     502.0761 (a.u.)^3
     number of atoms/cell      =            6
     number of atomic types    =            2
     number of electrons       =        48.00
     number of Kohn-Sham states=           69
     kinetic-energy cutoff     =      40.0000  Ry
     charge density cutoff     =     500.0000  Ry
     convergence threshold     =      1.0E-08
     mixing beta               =       0.7000
     number of iterations used =            8  plain     mixing
     Exchange-correlation      = SLA  PW   PBE  PBE ( 1 4 3 4 0)
     EXX-fraction              =        0.00

     celldm(1)=   9.201558  celldm(2)=   0.000000  celldm(3)=   0.000000
     celldm(4)=   0.000000  celldm(5)=   0.000000  celldm(6)=   0.000000

     crystal axes: (cart. coord. in units of alat)
               a(1) = (   1.022296   0.000005   0.000000 )
               a(2) = (   0.000005   1.022296   0.000000 )
               a(3) = (   0.000000   0.000000   0.616641 )

     reciprocal axes: (cart. coord. in units 2 pi/alat)
               b(1) = (  0.978191 -0.000005  0.000000 )
               b(2) = ( -0.000005  0.978191  0.000000 )
               b(3) = (  0.000000  0.000000  1.621689 )

     PseudoPot. # 1 for Ti read from file:
     /home/camp/zhonxu/pseudo/ti_pbe_v1.uspp.F.UPF
     MD5 check sum: bcc8f6961b3b91f0cac3ca967d22d0fb
     Pseudo is Ultrasoft + core correction, Zval = 12.0
     Generated by new atomic code, or converted to UPF format
     Using radial grid of  851 points,  6 beta functions with:
                l(1) =   0
                l(2) =   0
                l(3) =   1
                l(4) =   1
                l(5) =   2
                l(6) =   2
     Q(r) pseudized with  6 coefficients,  rinner =    1.000   1.000   1.000
                                                       1.000   1.000

     PseudoPot. # 2 for O  read from file:
     /home/camp/zhonxu/pseudo/o_pbe_v1.01.uspp.F.UPF
     MD5 check sum: 2bcb18d16ea4b960afae9ec6d52f22d2
     Pseudo is Ultrasoft + core correction, Zval =  6.0
     Generated by new atomic code, or converted to UPF format
     Using radial grid of  737 points,  5 beta functions with:
                l(1) =   0
                l(2) =   0
                l(3) =   1
                l(4) =   1
                l(5) =   2
     Q(r) pseudized with  8 coefficients,  rinner =    0.900   0.900   0.900
                                                       0.900   0.900

     atomic species   valence    mass     pseudopotential
        Ti0           12.00    47.88000     Ti( 1.00)
        O1             6.00    15.99940     O ( 1.00)

     Starting magnetic structure
     atomic species   magnetization
        Ti0          0.600
        O1           0.000

      8 Sym. Ops., with inversion, found
          (note:  8 additional sym.ops. were found but ignored
           their fractional translations are incommensurate with FFT grid)

   Cartesian axes

     site n.     atom                  positions (alat units)
         1           Ti0 tau(   1) = (   0.0000000   0.0000000   0.0000000  )
         2           Ti0 tau(   2) = (   0.5111504   0.5111504   0.3083205  )
         3           O1  tau(   3) = (   0.3227399   0.3227399   0.0000000  )
         4           O1  tau(   4) = (  -0.3227399  -0.3227399   0.0000000  )
         5           O1  tau(   5) = (   0.8338881   0.1884127   0.3083205  )
         6           O1  tau(   6) = (   0.1884127   0.8338881   0.3083205  )

     number of k points=    54  Methfessel-Paxton smearing, width (Ry)=  0.0100
                       cart. coord. in units 2pi/alat
        k(    1) = (   0.0000000   0.0000000   0.0000000), wk =   0.0080000
        k(    2) = (   0.0000000   0.0000000   0.3243378), wk =   0.0160000
        k(    3) = (   0.0000000   0.0000000   0.6486756), wk =   0.0160000
        k(    4) = (  -0.0000010   0.1956381   0.0000000), wk =   0.0320000
        k(    5) = (  -0.0000010   0.1956381   0.3243378), wk =   0.0640000
        k(    6) = (  -0.0000010   0.1956381   0.6486756), wk =   0.0640000
        k(    7) = (  -0.0000020   0.3912762   0.0000000), wk =   0.0320000
        k(    8) = (  -0.0000020   0.3912762   0.3243378), wk =   0.0640000
        k(    9) = (  -0.0000020   0.3912762   0.6486756), wk =   0.0640000
        k(   10) = (   0.1956371   0.1956371   0.0000000), wk =   0.0160000
        k(   11) = (   0.1956371   0.1956371   0.3243378), wk =   0.0320000
        k(   12) = (   0.1956371   0.1956371   0.6486756), wk =   0.0320000
        k(   13) = (   0.1956361   0.3912752   0.0000000), wk =   0.0320000
        k(   14) = (   0.1956361   0.3912752   0.3243378), wk =   0.0640000
        k(   15) = (   0.1956361   0.3912752   0.6486756), wk =   0.0640000
        k(   16) = (   0.3912743   0.3912743   0.0000000), wk =   0.0160000
        k(   17) = (   0.3912743   0.3912743   0.3243378), wk =   0.0320000
        k(   18) = (   0.3912743   0.3912743   0.6486756), wk =   0.0320000
        k(   19) = (  -0.1956391   0.1956391   0.0000000), wk =   0.0160000
        k(   20) = (  -0.1956391   0.1956391  -0.3243378), wk =   0.0320000
        k(   21) = (  -0.1956391   0.1956391  -0.6486756), wk =   0.0320000
        k(   22) = (  -0.1956401   0.3912772   0.0000000), wk =   0.0320000
        k(   23) = (  -0.1956401   0.3912772  -0.3243378), wk =   0.0640000
        k(   24) = (  -0.1956401   0.3912772  -0.6486756), wk =   0.0640000
        k(   25) = (  -0.3912782   0.3912782   0.0000000), wk =   0.0160000
        k(   26) = (  -0.3912782   0.3912782  -0.3243378), wk =   0.0320000
        k(   27) = (  -0.3912782   0.3912782  -0.6486756), wk =   0.0320000
        k(   28) = (   0.0000000   0.0000000   0.0000000), wk =   0.0080000
        k(   29) = (   0.0000000   0.0000000   0.3243378), wk =   0.0160000
        k(   30) = (   0.0000000   0.0000000   0.6486756), wk =   0.0160000
        k(   31) = (  -0.0000010   0.1956381   0.0000000), wk =   0.0320000
        k(   32) = (  -0.0000010   0.1956381   0.3243378), wk =   0.0640000
        k(   33) = (  -0.0000010   0.1956381   0.6486756), wk =   0.0640000
        k(   34) = (  -0.0000020   0.3912762   0.0000000), wk =   0.0320000
        k(   35) = (  -0.0000020   0.3912762   0.3243378), wk =   0.0640000
        k(   36) = (  -0.0000020   0.3912762   0.6486756), wk =   0.0640000
        k(   37) = (   0.1956371   0.1956371   0.0000000), wk =   0.0160000
        k(   38) = (   0.1956371   0.1956371   0.3243378), wk =   0.0320000
        k(   39) = (   0.1956371   0.1956371   0.6486756), wk =   0.0320000
        k(   40) = (   0.1956361   0.3912752   0.0000000), wk =   0.0320000
        k(   41) = (   0.1956361   0.3912752   0.3243378), wk =   0.0640000
        k(   42) = (   0.1956361   0.3912752   0.6486756), wk =   0.0640000
        k(   43) = (   0.3912743   0.3912743   0.0000000), wk =   0.0160000
        k(   44) = (   0.3912743   0.3912743   0.3243378), wk =   0.0320000
        k(   45) = (   0.3912743   0.3912743   0.6486756), wk =   0.0320000
        k(   46) = (  -0.1956391   0.1956391   0.0000000), wk =   0.0160000
        k(   47) = (  -0.1956391   0.1956391  -0.3243378), wk =   0.0320000
        k(   48) = (  -0.1956391   0.1956391  -0.6486756), wk =   0.0320000
        k(   49) = (  -0.1956401   0.3912772   0.0000000), wk =   0.0320000
        k(   50) = (  -0.1956401   0.3912772  -0.3243378), wk =   0.0640000
        k(   51) = (  -0.1956401   0.3912772  -0.6486756), wk =   0.0640000
        k(   52) = (  -0.3912782   0.3912782   0.0000000), wk =   0.0160000
        k(   53) = (  -0.3912782   0.3912782  -0.3243378), wk =   0.0320000
        k(   54) = (  -0.3912782   0.3912782  -0.6486756), wk =   0.0320000

     Largest allocated arrays     est. size (Mb)     dimensions
     Largest temporary arrays     est. size (Mb)     dimensions

     Check: negative/imaginary core charge=   -0.000013    0.000000

     Initial potential from superposition of free atoms
     Check: negative starting charge=(component1):   -0.020279
     Check: negative starting charge=(component2):   -0.004992

     starting charge   45.99991, renormalised to   48.00000

     negative rho (up, down):  0.212E-01 0.521E-02
     Starting wfc are   36 randomized atomic wfcs

     Self-consistent Calculation

[...]

     total energy              =    -366.44753153 Ry
     Harris-Foulkes estimate   =    -366.44753175 Ry
     estimated scf accuracy    <       0.00000078 Ry

[...]

     iteration # 13     ecut=    40.00 Ry     beta=0.70
     Davidson diagonalization with overlap
     ethr =  1.62E-09,  avg # of iterations =  1.0

     negative rho (up, down):  0.122E-01 0.122E-01

     End of self-consistent calculation

 ------ SPIN UP ------------

[...]

 ------ SPIN DOWN ----------

[...]

          k = 0.3913 0.3913 0.6487 (  2134 PWs)   bands (ev):

[...]

          k =-0.3913 0.3913-0.6487 (  2134 PWs)   bands (ev):

   -50.5086 -50.5084 -26.9132 -26.9124 -26.6896 -26.6878 -26.6537 -26.6528
    -9.8749  -9.8390  -9.6447  -9.6023   2.6030   2.8067   2.8302   2.9936
     3.5553   3.6842   4.3330   4.3478   5.4261   5.5358   5.5378   5.8338
     8.7113   8.9107   9.4646   9.5212   9.5381   9.6817  10.8752  11.0887
    12.1061  12.3154  17.5217  17.8950  19.0496  19.6271  20.3673  20.6973
    21.9342  22.0566  23.2581  23.4683  24.5537  25.1233  27.0749  28.1651
    28.7862  29.1657  29.7662  30.6464  32.1217  32.3124  34.1744  34.8105
    36.1968  36.5942  36.8727  37.3808  37.8917  38.3112  38.6280  39.1205
    39.8810  40.1032  40.3662  40.8809  41.0218

     the Fermi energy is     8.3403 ev

!    total energy              =    -366.44753167 Ry
     Harris-Foulkes estimate   =    -366.44753167 Ry
     estimated scf accuracy    <          7.4E-09 Ry

     The total energy is the sum of the following terms:

     one-electron contribution =    -155.23021030 Ry
     hartree contribution      =      96.73073852 Ry
     xc contribution           =     -62.79121749 Ry
     ewald contribution        =    -245.15716953 Ry
     smearing contrib. (-TS)   =       0.00032713 Ry

     total magnetization       =     0.00 Bohr mag/cell
     absolute magnetization    =     0.00 Bohr mag/cell

     convergence has been achieved in  13 iterations

     Forces acting on atoms (Ry/au):

     negative rho (up, down):  0.122E-01 0.122E-01
     atom    1 type  1   force =     0.00000000    0.00000000    0.00000000
     atom    2 type  1   force =     0.00000000    0.00000000    0.00000000
     atom    3 type  2   force =    -0.00006215   -0.00006215    0.00000000
     atom    4 type  2   force =     0.00006215    0.00006215    0.00000000
     atom    5 type  2   force =    -0.00007312    0.00007312    0.00000000
     atom    6 type  2   force =     0.00007312   -0.00007312    0.00000000

     Total force =     0.000192     Total SCF correction =     0.000054
     SCF correction compared to forces is large: reduce conv_thr to get better values

     entering subroutine stress ...

     negative rho (up, down):  0.122E-01 0.122E-01
          total   stress  (Ry/bohr**3)                   (kbar)     P= -193.03
  -0.00131093  -0.00000006   0.00000000       -192.84     -0.01      0.00
  -0.00000006  -0.00131093   0.00000000         -0.01   -192.84      0.00
   0.00000000   0.00000000  -0.00131463          0.00      0.00   -193.39

     General routines

     Parallel routines

   This run was terminated on:  19:21: 1  23Jan2014

   JOB DONE.