     Program PWSCF v.5.0.2 (svn rev. 9656) starts on  1Jun2014 at  0: 0:40

     Current dimensions of program PWSCF are:
     Max number of different atomic species (ntypx) = 10
     Max number of k-points (npk) =  40000
     Max angular momentum in pseudopotentials (lmaxx) =  3
     Reading input from pwscf.in
Warning: card &CELL ignored
Warning: card / ignored

     Subspace diagonalization in iterative solution of the eigenvalue problem:
     a serial algorithm will be used

     bravais-lattice index     =            0
     lattice parameter (alat)  =      11.7541  a.u.
     unit-cell volume          =    7139.8207 (a.u.)^3
     number of atoms/cell      =           33
     number of atomic types    =            3
     number of electrons       =       245.00
     number of Kohn-Sham states=          367
     kinetic-energy cutoff     =      40.0000  Ry
     charge density cutoff     =     500.0000  Ry
     convergence threshold     =      1.0E-06
     mixing beta               =       0.7000
     number of iterations used =            8  plain     mixing
     Exchange-correlation      = SLA  PW   PBE  PBE ( 1 4 3 4 0)
     EXX-fraction              =        0.00
     nstep                     =           50

     celldm(1)=  11.754097  celldm(2)=   0.000000  celldm(3)=   0.000000
     celldm(4)=   0.000000  celldm(5)=   0.000000  celldm(6)=   0.000000

     crystal axes: (cart. coord. in units of alat)
               a(1) = (   1.000000   0.000000   0.000000 )
               a(2) = (   0.000000   1.034513   0.000000 )
               a(3) = (   0.000000   0.000000   4.249947 )

     reciprocal axes: (cart. coord. in units 2 pi/alat)
               b(1) = (  1.000000  0.000000  0.000000 )
               b(2) = (  0.000000  0.966638  0.000000 )
               b(3) = (  0.000000  0.000000  0.235297 )

     PseudoPot. # 1 for O  read from file:
     /home/camp/zhonxu/pseudo/o_pbe_v1.01.uspp.F.UPF
     MD5 check sum: 2bcb18d16ea4b960afae9ec6d52f22d2
     Pseudo is Ultrasoft + core correction, Zval =  6.0
     Generated by new atomic code, or converted to UPF format
     Using radial grid of  737 points,  5 beta functions with:
                l(1) =   0
                l(2) =   0
                l(3) =   1
                l(4) =   1
                l(5) =   2
     Q(r) pseudized with  8 coefficients,  rinner =    0.900   0.900   0.900
                                                       0.900   0.900

     PseudoPot. # 2 for Rh read from file:
     /home/camp/zhonxu/pseudo/rh_pbe_v1.uspp.F.UPF
     MD5 check sum: 37b626987ad0dd8ec6bf4cc9ef289918
     Pseudo is Ultrasoft + core correction, Zval = 15.0
     Generated by new atomic code, or converted to UPF format
     Using radial grid of  969 points,  7 beta functions with:
                l(1) =   0
                l(2) =   0
                l(3) =   1
                l(4) =   1
                l(5) =   2
                l(6) =   2
                l(7) =   2
     Q(r) pseudized with  6 coefficients,  rinner =    1.050   1.050   1.050
                                                       1.050   1.050

     PseudoPot. # 3 for H  read from file:
     /home/camp/zhonxu/pseudo/h_pbe_v1.uspp.F.UPF
     MD5 check sum: 3408e3ff4ec8b0a4e358431e7e038a48
     Pseudo is Ultrasoft, Zval =  1.0
     Generated by new atomic code, or converted to UPF format
     Using radial grid of  615 points,  2 beta functions with:
                l(1) =   0
                l(2) =   0
     Q(r) pseudized with  8 coefficients,  rinner =    0.700

     atomic species   valence    mass     pseudopotential
        O0             6.00    15.99940     O ( 1.00)
        Rh1           15.00   102.90550     Rh( 1.00)
        H2             1.00     1.00794     H ( 1.00)

     Simplified LDA+U calculation (l_max = 2) with parameters (eV):
     atomic species    L          U    alpha       J0     beta
        Rh1            2     0.5000   0.0000   0.0000   0.0000

     No symmetry found

   Cartesian axes

     site n.     atom                  positions (alat units)
         1           O0  tau(   1) = (   0.0000000   0.0000000   1.6055876  )
         2           O0  tau(   2) = (   0.0000000   0.5172566   1.7058013  )
         3           Rh1 tau(   3) = (   0.2500000   0.5172566   1.9245886  )
         4           Rh1 tau(   4) = (   0.0000000   0.0000000   1.9225486  )
         5           O0  tau(   5) = (   0.2500000   0.8379556   1.9216561  )
         6           O0  tau(   6) = (   0.2500000   0.1965575   1.9210611  )
         7           O0  tau(   7) = (   0.0000000   0.5172566   2.1183012  )
         8           O0  tau(   8) = (   0.0000000   0.0000000   2.2433346  )
         9           Rh1 tau(   9) = (   0.2500000   0.0000000   2.4442296  )
        10           Rh1 tau(  10) = (   0.0000000   0.5172566   2.4248924  )
        11           O0  tau(  11) = (   0.2500000   0.7138141   2.4423597  )
        12           O0  tau(  12) = (   0.2500000   0.3206991   2.4526445  )
        13           O0  tau(  13) = (   0.0000000   0.0000000   2.6373472  )
        14           O0  tau(  14) = (   0.5000000   0.0000000   1.6058426  )
        15           O0  tau(  15) = (   0.5000000   0.5172566   1.7065663  )
        16           Rh1 tau(  16) = (   0.7500000   0.5172566   1.9245461  )
        17           Rh1 tau(  17) = (   0.5000000   0.0000000   1.9225486  )
        18           O0  tau(  18) = (   0.7500000   0.8379556   1.9215286  )
        19           O0  tau(  19) = (   0.7500000   0.1965575   1.9212311  )
        20           O0  tau(  20) = (   0.5000000   0.5172566   2.1254411  )
        21           O0  tau(  21) = (   0.5000000   0.0000000   2.2428246  )
        22           Rh1 tau(  22) = (   0.7500000   0.0000000   2.4442296  )
        23           Rh1 tau(  23) = (   0.5000000   0.5172566   2.4566820  )
        24           O0  tau(  24) = (   0.7500000   0.7138141   2.4423172  )
        25           O0  tau(  25) = (   0.7500000   0.3206991   2.4526445  )
        26           O0  tau(  26) = (   0.5000000   0.0000000   2.6350523  )
        27           H2  tau(  27) = (   0.0000500   0.6607849   1.6355072  )
        28           H2  tau(  28) = (   0.4999200   0.6608884   1.6361872  )
        29           H2  tau(  29) = (   0.1477700   0.0372011   1.5603681  )
        30           H2  tau(  30) = (   0.6484400   0.0346148   1.5604531  )
        31           O0  tau(  31) = (   0.4997300   0.5556577   2.7651007  )
        32           O0  tau(  32) = (   0.5003300   0.3573415   2.8834192  )
        33           H2  tau(  33) = (   0.4999300   0.4160398   3.0312324  )

     number of k points=    10  Methfessel-Paxton smearing, width (Ry)=  0.0100
                       cart. coord. in units 2pi/alat
        k(    1) = (   0.0000000   0.0000000   0.0000000), wk =   0.1250000
        k(    2) = (   0.0000000   0.2416596   0.0000000), wk =   0.2500000
        k(    3) = (   0.0000000  -0.4833191   0.0000000), wk =   0.1250000
        k(    4) = (   0.2500000   0.0000000   0.0000000), wk =   0.2500000
        k(    5) = (   0.2500000   0.2416596   0.0000000), wk =   0.2500000
        k(    6) = (   0.2500000  -0.4833191   0.0000000), wk =   0.2500000
        k(    7) = (  -0.5000000   0.0000000   0.0000000), wk =   0.1250000
        k(    8) = (  -0.5000000   0.2416596   0.0000000), wk =   0.2500000
        k(    9) = (  -0.5000000  -0.4833191   0.0000000), wk =   0.1250000
        k(   10) = (  -0.2500000   0.2416596   0.0000000), wk =   0.2500000

     Largest allocated arrays     est. size (Mb)     dimensions
     Largest temporary arrays     est. size (Mb)     dimensions

     Check: negative/imaginary core charge=   -0.000003    0.000000

     Initial potential from superposition of free atoms
     Check: negative starting charge=   -0.646062

     starting charge  240.99914, renormalised to  245.00000

     negative rho (up, down):  0.657E+00 0.000E+00
     Number of +U iterations with fixed ns =  0
     Starting occupations:
 --- enter write_ns ---
 LDA+U parameters:
U( 2)     =  0.50000000
alpha( 2) =  0.00000000
atom    3   Tr[ns(na)] =   7.00000
    eigenvalues:
  0.700  0.700  0.700  0.700  0.700
    eigenvectors:
  1.000  0.000  0.000  0.000  0.000
  0.000  1.000  0.000  0.000  0.000
  0.000  0.000  1.000  0.000  0.000
  0.000  0.000  0.000  1.000  0.000
  0.000  0.000  0.000  0.000  1.000
    occupations:
  0.700  0.000  0.000  0.000  0.000
  0.000  0.700  0.000  0.000  0.000
  0.000  0.000  0.700  0.000  0.000
  0.000  0.000  0.000  0.700  0.000
  0.000  0.000  0.000  0.000  0.700
atom    4   Tr[ns(na)] =   7.00000
    eigenvalues:
  0.700  0.700  0.700  0.700  0.700
    eigenvectors:
  1.000  0.000  0.000  0.000  0.000
  0.000  1.000  0.000  0.000  0.000
  0.000  0.000  1.000  0.000  0.000
  0.000  0.000  0.000  1.000  0.000
  0.000  0.000  0.000  0.000  1.000
    occupations:
  0.700  0.000  0.000  0.000  0.000
  0.000  0.700  0.000  0.000  0.000
  0.000  0.000  0.700  0.000  0.000
  0.000  0.000  0.000  0.700  0.000
  0.000  0.000  0.000  0.000  0.700
atom    9   Tr[ns(na)] =   7.00000
    eigenvalues:
  0.700  0.700  0.700  0.700  0.700
    eigenvectors:
  1.000  0.000  0.000  0.000  0.000
  0.000  1.000  0.000  0.000  0.000
  0.000  0.000  1.000  0.000  0.000
  0.000  0.000  0.000  1.000  0.000
  0.000  0.000  0.000  0.000  1.000
    occupations:
  0.700  0.000  0.000  0.000  0.000
  0.000  0.700  0.000  0.000  0.000
  0.000  0.000  0.700  0.000  0.000
  0.000  0.000  0.000  0.700  0.000
  0.000  0.000  0.000  0.000  0.700
atom   10   Tr[ns(na)] =   7.00000
    eigenvalues:
  0.700  0.700  0.700  0.700  0.700
    eigenvectors:
  1.000  0.000  0.000  0.000  0.000
  0.000  1.000  0.000  0.000  0.000
  0.000  0.000  1.000  0.000  0.000
  0.000  0.000  0.000  1.000  0.000
  0.000  0.000  0.000  0.000  1.000
    occupations:
  0.700  0.000  0.000  0.000  0.000
  0.000  0.700  0.000  0.000  0.000
  0.000  0.000  0.700  0.000  0.000
  0.000  0.000  0.000  0.700  0.000
  0.000  0.000  0.000  0.000  0.700
atom   16   Tr[ns(na)] =   7.00000
    eigenvalues:
  0.700  0.700  0.700  0.700  0.700
    eigenvectors:
  1.000  0.000  0.000  0.000  0.000
  0.000  1.000  0.000  0.000  0.000
  0.000  0.000  1.000  0.000  0.000
  0.000  0.000  0.000  1.000  0.000
  0.000  0.000  0.000  0.000  1.000
    occupations:
  0.700  0.000  0.000  0.000  0.000
  0.000  0.700  0.000  0.000  0.000
  0.000  0.000  0.700  0.000  0.000
  0.000  0.000  0.000  0.700  0.000
  0.000  0.000  0.000  0.000  0.700
atom   17   Tr[ns(na)] =   7.00000
    eigenvalues:
  0.700  0.700  0.700  0.700  0.700
    eigenvectors:
  1.000  0.000  0.000  0.000  0.000
  0.000  1.000  0.000  0.000  0.000
  0.000  0.000  1.000  0.000  0.000
  0.000  0.000  0.000  1.000  0.000
  0.000  0.000  0.000  0.000  1.000
    occupations:
  0.700  0.000  0.000  0.000  0.000
  0.000  0.700  0.000  0.000  0.000
  0.000  0.000  0.700  0.000  0.000
  0.000  0.000  0.000  0.700  0.000
  0.000  0.000  0.000  0.000  0.700
atom   22   Tr[ns(na)] =   7.00000
    eigenvalues:
  0.700  0.700  0.700  0.700  0.700
    eigenvectors:
  1.000  0.000  0.000  0.000  0.000
  0.000  1.000  0.000  0.000  0.000
[...]
 -0.001  0.640 -0.000  0.001 -0.000
  0.001 -0.000  0.838 -0.004 -0.005
 -0.115  0.001 -0.004  0.700  0.001
 -0.002 -0.000 -0.005  0.001  0.874
atom   10   Tr[ns(na)] =   7.96110
    eigenvalues:
  0.598  0.615  0.890  0.907  0.971
    eigenvectors:
  0.000  0.991  0.001  0.000  0.009
  0.001  0.000  0.000  0.999  0.000
  0.000  0.001  0.999  0.000  0.000
  0.000  0.009  0.000  0.000  0.991
  0.999  0.000  0.000  0.001  0.000
    occupations:
  0.618  0.000  0.007  0.033 -0.000
  0.000  0.907 -0.000  0.000 -0.009
  0.007 -0.000  0.890  0.000  0.000
  0.033  0.000  0.000  0.968  0.000
 -0.000 -0.009  0.000  0.000  0.598
atom   16   Tr[ns(na)] =   7.97458
    eigenvalues:
  0.592  0.613  0.875  0.944  0.964
    eigenvectors:
  0.011  0.193  0.003  0.001  0.792
  0.953  0.047  0.000  0.000  0.000
  0.000  0.000  0.994  0.003  0.003
  0.036  0.760  0.000  0.000  0.204
  0.000  0.000  0.003  0.995  0.001
    occupations:
  0.892  0.005  0.003 -0.142  0.001
  0.005  0.593 -0.000  0.002 -0.006
  0.003 -0.000  0.875 -0.005 -0.004
 -0.142  0.002 -0.005  0.684 -0.000
  0.001 -0.006 -0.004 -0.000  0.943
atom   17   Tr[ns(na)] =   7.95956
    eigenvalues:
  0.604  0.651  0.852  0.901  0.971
    eigenvectors:
  0.000  0.992  0.000  0.000  0.007
  0.000  0.000  0.040  0.960  0.000
  0.000  0.000  0.960  0.040  0.000
  0.000  0.007  0.000  0.000  0.993
  1.000  0.000  0.000  0.000  0.000
    occupations:
  0.653 -0.004 -0.001  0.027  0.001
 -0.004  0.899  0.009  0.001 -0.000
 -0.001  0.009  0.854 -0.001  0.001
  0.027  0.001 -0.001  0.969  0.000
  0.001 -0.000  0.001  0.000  0.605
atom   22   Tr[ns(na)] =   7.95109
    eigenvalues:
  0.640  0.652  0.837  0.874  0.973
    eigenvectors:
  0.000  0.152  0.001  0.000  0.848
  1.000  0.000  0.000  0.000  0.000
  0.000  0.000  0.986  0.014  0.000
  0.000  0.848  0.000  0.000  0.152
  0.000  0.000  0.014  0.986  0.000
    occupations:
  0.924  0.002  0.001 -0.115 -0.000
  0.002  0.640  0.001 -0.001 -0.000
  0.001  0.001  0.838 -0.005  0.004
 -0.115 -0.001 -0.005  0.700  0.000
 -0.000 -0.000  0.004  0.000  0.874
atom   23   Tr[ns(na)] =   7.97112
    eigenvalues:
  0.604  0.637  0.844  0.934  0.967
    eigenvectors:
  0.000  0.994  0.000  0.003  0.002
  0.001  0.000  0.999  0.000  0.000
  0.000  0.003  0.000  0.996  0.000
  0.000  0.002  0.000  0.000  0.997
  0.999  0.000  0.001  0.000  0.000
    occupations:
  0.639 -0.000  0.017  0.016 -0.000
 -0.000  0.844 -0.001 -0.000 -0.009
  0.017 -0.001  0.933 -0.002  0.000
  0.016 -0.000 -0.002  0.966  0.000
 -0.000 -0.009  0.000  0.000  0.604
N of occupied +U levels =  63.7049225
 --- exit write_ns ---

[...]

     total energy              =   -2013.45297445 Ry
     Harris-Foulkes estimate   =   -2013.45297486 Ry
     estimated scf accuracy    <       0.00000277 Ry

     iteration # 10     ecut=    40.00 Ry     beta=0.70
     Davidson diagonalization with overlap
     ethr =  1.13E-09,  avg # of iterations =  1.0

     negative rho (up, down):  0.694E+00 0.000E+00

     End of self-consistent calculation
 --- enter write_ns ---
 LDA+U parameters:
U( 2)     =  0.50000000
alpha( 2) =  0.00000000
atom    3   Tr[ns(na)] =   7.97154
    eigenvalues:
  0.592  0.613  0.874  0.943  0.964
    eigenvectors:
  0.012  0.192  0.003  0.001  0.792
  0.949  0.050  0.000  0.000  0.000
  0.000  0.000  0.991  0.007  0.003
  0.039  0.757  0.000  0.000  0.204
  0.000  0.000  0.006  0.992  0.001
    occupations:
  0.892 -0.005  0.003 -0.142 -0.001
 -0.005  0.593 -0.001 -0.003 -0.006
  0.003 -0.001  0.874 -0.005  0.005
 -0.142 -0.003 -0.005  0.684 -0.000
 -0.001 -0.006  0.005 -0.000  0.943
atom    4   Tr[ns(na)] =   7.95975
    eigenvalues:
  0.604  0.650  0.856  0.899  0.971
    eigenvectors:
  0.000  0.993  0.000  0.000  0.007
  0.000  0.000  0.066  0.934  0.000
  0.000  0.000  0.934  0.066  0.000
  0.000  0.007  0.000  0.000  0.993
  1.000  0.000  0.000  0.000  0.000
    occupations:
  0.652 -0.004 -0.002  0.026  0.001
 -0.004  0.897  0.011  0.001 -0.000
 -0.002  0.011  0.859 -0.001  0.001
  0.026  0.001 -0.001  0.968  0.000
  0.001 -0.000  0.001  0.000  0.604
atom    9   Tr[ns(na)] =   7.94923
    eigenvalues:
  0.640  0.652  0.837  0.874  0.972
    eigenvectors:
  0.001  0.151  0.001  0.001  0.847
  0.993  0.007  0.000  0.000  0.000
  0.000  0.000  0.983  0.016  0.000
  0.006  0.842  0.000  0.000  0.152
  0.000  0.000  0.016  0.984  0.000
    occupations:
  0.924 -0.001  0.001 -0.115 -0.002
 -0.001  0.640 -0.000  0.001 -0.000
  0.001 -0.000  0.838 -0.004 -0.005
 -0.115  0.001 -0.004  0.700  0.001
 -0.002 -0.000 -0.005  0.001  0.874
atom   10   Tr[ns(na)] =   7.96389
    eigenvalues:
  0.598  0.616  0.890  0.907  0.971
    eigenvectors:
  0.000  0.990  0.001  0.000  0.009
  0.001  0.000  0.000  0.999  0.000
  0.000  0.001  0.999  0.000  0.000
  0.000  0.009  0.000  0.000  0.991
  0.999  0.000  0.000  0.001  0.000
    occupations:
  0.619  0.000  0.007  0.033 -0.000
  0.000  0.907 -0.000  0.000 -0.009
  0.007 -0.000  0.890  0.000  0.000
  0.033  0.000  0.000  0.968  0.000
 -0.000 -0.009  0.000  0.000  0.598
atom   16   Tr[ns(na)] =   7.97163
    eigenvalues:
  0.592  0.613  0.874  0.943  0.964
    eigenvectors:
  0.011  0.193  0.003  0.001  0.792
  0.952  0.047  0.000  0.000  0.000
  0.000  0.000  0.994  0.003  0.003
  0.036  0.760  0.000  0.000  0.204
  0.000  0.000  0.003  0.995  0.001
    occupations:
  0.892  0.005  0.003 -0.142  0.001
  0.005  0.593 -0.000  0.003 -0.006
  0.003 -0.000  0.874 -0.005 -0.004
 -0.142  0.003 -0.005  0.684 -0.000
  0.001 -0.006 -0.004 -0.000  0.943
atom   17   Tr[ns(na)] =   7.95907
    eigenvalues:
  0.604  0.651  0.852  0.900  0.971
    eigenvectors:
  0.000  0.992  0.000  0.000  0.007
  0.000  0.000  0.040  0.960  0.000
  0.000  0.000  0.960  0.040  0.000
  0.000  0.007  0.000  0.000  0.993
  1.000  0.000  0.000  0.000  0.000
    occupations:
  0.653 -0.004 -0.001  0.027  0.001
 -0.004  0.898  0.009  0.001 -0.000
 -0.001  0.009  0.854 -0.001  0.001
  0.027  0.001 -0.001  0.969  0.000
  0.001 -0.000  0.001  0.000  0.605
atom   22   Tr[ns(na)] =   7.94959
    eigenvalues:
  0.640  0.651  0.837  0.874  0.973
    eigenvectors:
  0.000  0.152  0.001  0.000  0.848
  1.000  0.000  0.000  0.000  0.000
  0.000  0.000  0.985  0.014  0.000
  0.000  0.848  0.000  0.000  0.152
  0.000  0.000  0.014  0.986  0.000
    occupations:
  0.924  0.002  0.001 -0.115 -0.000
  0.002  0.640  0.001 -0.001 -0.000
  0.001  0.001  0.837 -0.005  0.004
 -0.115 -0.001 -0.005  0.700  0.000
 -0.000 -0.000  0.004  0.000  0.874
atom   23   Tr[ns(na)] =   7.97464
    eigenvalues:
  0.604  0.637  0.845  0.934  0.967
    eigenvectors:
  0.000  0.994  0.000  0.003  0.002
  0.001  0.000  0.999  0.000  0.000
  0.000  0.003  0.000  0.996  0.000
  0.000  0.002  0.000  0.000  0.997
  0.999  0.000  0.001  0.000  0.000
    occupations:
  0.639 -0.000  0.017  0.016 -0.000
 -0.000  0.845 -0.001 -0.000 -0.009
  0.017 -0.001  0.933 -0.002  0.000
  0.016 -0.000 -0.002  0.966  0.000
 -0.000 -0.009  0.000  0.000  0.604
N of occupied +U levels =  63.6993438
 --- exit write_ns ---

[...]

          k = 0.2500-0.4833 0.0000 ( 30510 PWs)   bands (ev):

[...]

          k =-0.2500 0.2417 0.0000 ( 30481 PWs)   bands (ev):

   -48.9060 -48.8509 -48.8445 -48.8083 -48.7875 -48.7835 -48.7572 -48.7246
   -48.7063 -48.7017 -48.6603 -48.6402 -48.6216 -48.6126 -48.5231 -48.5188
   -48.4736 -48.4513 -48.4254 -48.4210 -48.4113 -48.4090 -48.3986 -48.3813
   -23.9807 -20.8738 -20.5714 -20.3721 -20.2625 -20.1113 -19.8553 -19.7924
   -19.6607 -19.6168 -19.5149 -19.4428 -19.4097 -19.3478 -19.2413 -19.1773
   -19.1161 -18.4142 -18.2675 -17.4439  -9.0713  -8.9636  -8.8035  -8.7466
    -8.5514  -8.1627  -8.1028  -8.0823  -8.0480  -7.9952  -7.9137  -7.8700
    -7.8275  -7.7279  -7.6576  -7.4767  -7.2912  -7.2629  -7.2032  -7.0162
    -6.8645  -6.7039  -6.6193  -6.5632  -6.4815  -6.3334  -6.0308  -5.9217
    -5.8040  -5.7688  -5.6608  -5.5898  -5.5482  -5.4723  -5.4076  -5.3731
    -5.3418  -5.1849  -5.1039  -5.0309  -4.9537  -4.8463  -4.7028  -4.6276
    -4.3858  -4.3517  -4.2488  -4.1634  -4.0665  -4.0098  -3.8995  -3.7755
    -3.6890  -3.6011  -3.4564  -3.2176  -3.0898  -3.0059  -2.9410  -2.8679
    -2.7385  -2.6600  -2.6249  -2.5611  -2.5308  -2.4279  -2.3764  -2.3084
    -2.2477  -2.2120  -2.1614  -2.0502  -1.8581  -1.6659  -1.4588  -1.3787
    -1.3207  -1.2830  -1.1363  -1.0235  -0.9158  -0.8196  -0.7459  -0.3702
     0.1426   0.2320   0.4386   0.8749   1.0193   1.3525   1.4429   1.7224
     1.8376   2.0056   2.0570   2.2132   2.3267   2.3926   2.6819   3.3628
     3.9348   4.1362   4.5406   5.0576   5.2810   5.5801   5.9429   5.9622
     6.0191   6.2711   6.4091   6.5607   6.6010   6.9231   6.9778   7.2283
     7.4246   7.5542   7.7407   7.8465   7.8930   8.2250   8.2566   8.2908
     8.3758   8.4469   8.6795   8.7653   8.8960   9.0075   9.1046   9.1832
     9.2595   9.3939   9.5071   9.6217   9.7787   9.8437   9.9310   9.9690
    10.0644  10.1870  10.2640  10.3552  10.4494  10.5510  10.5992  10.6782
    10.7612  10.9039  10.9928  11.1149  11.1634  11.2079  11.2851  11.3441
    11.4788  11.5128  11.6579  11.6988  11.7445  11.7886  11.8512  11.9531
    11.9968  12.1439  12.2013  12.3122  12.3562  12.4582  12.5309  12.5631
    12.6104  12.6977  12.7688  12.8268  12.9151  12.9652  13.0604  13.1632
    13.2564  13.3465  13.4226  13.5233  13.5981  13.6637  13.7726  13.8177
    13.8343  13.9543  13.9959  14.1120  14.1918  14.2916  14.3331  14.3845
    14.4731  14.5057  14.5409  14.6825  14.7359  14.7935  14.9226  14.9977
    15.0497  15.1332  15.2495  15.3358  15.4466  15.5127  15.5354  15.6077
    15.7034  15.7314  15.7813  15.8376  15.9338  15.9823  16.0319  16.0681
    16.1439  16.1777  16.3349  16.3689  16.4151  16.4688  16.5340  16.5873
    16.6136  16.6910  16.7509  16.8155  16.8808  16.9986  17.0604  17.1503
    17.2203  17.2382  17.3017  17.3757  17.4512  17.4790  17.5529  17.6152
    17.7072  17.7327  17.7794  17.9006  17.9349  17.9940  18.0867  18.1103
    18.2092  18.2320  18.3381  18.4159  18.4996  18.6271  18.6615  18.7075
    18.8700  18.9225  18.9819  19.0207  19.0552  19.1654  19.2340  19.2654
    19.3278  19.3897  19.4738  19.5513  19.6023  19.6836  19.7366  19.8746
    19.9255  19.9692  20.0843  20.1275  20.1885  20.3181  20.3881  20.4664
    20.5503  20.6237  20.7040  20.7462  20.7847  20.8458  20.9047  20.9900
    21.0736  21.1248  21.1797  21.2221  21.2514  21.3541  21.3909  21.4656
    21.5156  21.5734  21.6531  21.6867  21.7440  21.8045  21.8327  21.9465
    22.0258  22.0590  22.1002  22.1774  22.2958  22.3369  22.4178  22.4367
    22.5010  22.5699  22.6680  22.6994  22.7803  22.8537  22.9124

     the Fermi energy is    -1.1887 ev

!    total energy              =   -2013.45297398 Ry
     Harris-Foulkes estimate   =   -2013.45297473 Ry
     estimated scf accuracy    <       0.00000080 Ry

     The total energy is the sum of the following terms:

     one-electron contribution =  -23695.89057083 Ry
     hartree contribution      =   11902.35479556 Ry
     xc contribution           =    -379.82456839 Ry
     ewald contribution        =   10159.70140642 Ry
     Hubbard energy            =       0.20641701 Ry
     smearing contrib. (-TS)   =      -0.00045375 Ry

     convergence has been achieved in  10 iterations

     Forces acting on atoms (Ry/au):

     negative rho (up, down):  0.694E+00 0.000E+00
     atom    1 type  1   force =    -0.00695965   -0.01337280    0.00023865
     atom    2 type  1   force =     0.00024333    0.00632938    0.00012571
     atom    3 type  2   force =     0.03004945    0.00328301    0.00020415
     atom    4 type  2   force =     0.00811450    0.00854571    0.00016187
     atom    5 type  1   force =    -0.00202632   -0.03274142   -0.00000773
     atom    6 type  1   force =     0.00073563    0.03048081    0.00003878
     atom    7 type  1   force =    -0.00016988   -0.00331502    0.00089157
     atom    8 type  1   force =    -0.00266332    0.00082310    0.00011573
     atom    9 type  2   force =     0.00544067    0.00149170    0.00004177
     atom   10 type  2   force =    -0.00012688   -0.00080994    0.00014502
     atom   11 type  1   force =    -0.01207835    0.01446401   -0.00055083
     atom   12 type  1   force =    -0.00634448   -0.00852548   -0.00037572
     atom   13 type  1   force =    -0.00074272   -0.00295092    0.00000386
     atom   14 type  1   force =    -0.00642119   -0.01342903   -0.00020562
     atom   15 type  1   force =     0.00011439    0.00655613    0.00015267
     atom   16 type  2   force =    -0.03040091    0.00344117    0.00026206
     atom   17 type  2   force =     0.00808220    0.00939036   -0.00016840
     atom   18 type  1   force =     0.00046039   -0.03326802   -0.00001441
     atom   19 type  1   force =     0.00297362    0.03006435    0.00001975
     atom   20 type  1   force =    -0.00017542   -0.00495920    0.00007142
     atom   21 type  1   force =    -0.00299717    0.00115884    0.00010266
     atom   22 type  2   force =    -0.00273080    0.00149714   -0.00006570
     atom   23 type  2   force =    -0.00025379    0.00116353   -0.00030489
     atom   24 type  1   force =     0.01192166    0.01439787   -0.00053015
     atom   25 type  1   force =     0.00710545   -0.00860721   -0.00039407
     atom   26 type  1   force =    -0.00101388   -0.01090389    0.00054252
     atom   27 type  3   force =    -0.00001380   -0.00016403   -0.00001248
     atom   28 type  3   force =    -0.00001345   -0.00023159    0.00008464
     atom   29 type  3   force =    -0.00008920   -0.00009712    0.00005850
     atom   30 type  3   force =    -0.00004598   -0.00000333    0.00016740
     atom   31 type  1   force =    -0.00014162   -0.00018004   -0.00003187
     atom   32 type  1   force =     0.00016926    0.00052269    0.00004160
     atom   33 type  3   force =    -0.00000173   -0.00005075   -0.00080845

     Total force =     0.001891     Total SCF correction =     0.001675
     SCF correction compared to forces is large: reduce conv_thr to get better values

     entering subroutine stress ...

     negative rho (up, down):  0.694E+00 0.000E+00
          total   stress  (Ry/bohr**3)                   (kbar)     P=  -15.78
  -0.00010640   0.00000318   0.00000425        -15.65      0.47      0.63
   0.00000318  -0.00013285   0.00000461          0.47    -19.54      0.68
   0.00000425   0.00000461  -0.00008261          0.63      0.68    -12.15

     bfgs converged in   2 scf cycles and   1 bfgs steps
     (criteria: energy < 0.10E-03, force < 0.10E-02)

     End of BFGS Geometry Optimization

     Final energy   =   -2013.4529739758 Ry
Begin final coordinates

ATOMIC_POSITIONS (crystal)
O0       0.000000000   0.000000000   0.377800947    0   0   1
O0       0.000000000   0.500000000   0.401375531    0   0   1
Rh1      0.250000000   0.500000000   0.452828852    0   0   1
Rh1      0.000000000   0.000000000   0.452363306    0   0   1
O0       0.250000000   0.810000000   0.452161561    0   0   1
O0       0.250000000   0.190000000   0.452022816    0   0   1
O0       0.000000000   0.500000000   0.498490588    0   0   1
O0       0.000000000   0.000000000   0.527866557    0   0   1
Rh1      0.250000000   0.000000000   0.575105997    0   0   1
Rh1      0.000000000   0.500000000   0.570554101    0   0   1
O0       0.250000000   0.690000000   0.574666760    0   0   1
O0       0.250000000   0.310000000   0.577091484    0   0   1
O0       0.000000000   0.000000000   0.620564637    0   0   1
O0       0.500000000   0.000000000   0.377857269    0   0   1
O0       0.500000000   0.500000000   0.401560866    0   0   1
Rh1      0.750000000   0.500000000   0.452820975    0   0   1
Rh1      0.500000000   0.000000000   0.452352429    0   0   1
O0       0.750000000   0.810000000   0.452131640    0   0   1
O0       0.750000000   0.190000000   0.452062327    0   0   1
O0       0.500000000   0.500000000   0.500120606    0   0   1
O0       0.500000000   0.000000000   0.527739070    0   0   1
Rh1      0.750000000   0.000000000   0.575102732    0   0   1
Rh1      0.500000000   0.500000000   0.578039097    0   0   1
O0       0.750000000   0.690000000   0.574657213    0   0   1
O0       0.750000000   0.310000000   0.577090982    0   0   1
O0       0.500000000   0.000000000   0.620042075    0   0   1
H2       0.000048857   0.638709230   0.384832452
H2       0.499918637   0.638807131   0.384994113
H2       0.147783742   0.035956860   0.367149427
H2       0.648442743   0.033461091   0.367173283
O0       0.499718654   0.537015622   0.650642628
O0       0.500344180   0.345520087   0.678433130
H2       0.499929779   0.402184858   0.713234550
End final coordinates

     General routines

     Parallel routines
     Hubbard U routines

   This run was terminated on:   3:18:37   1Jun2014

   JOB DONE.