     Program PWSCF v.5.0.2 (svn rev. 9656) starts on 20Mar2014 at 17:54:17

     Current dimensions of program PWSCF are:
     Max number of different atomic species (ntypx) = 10
     Max number of k-points (npk) =  40000
     Max angular momentum in pseudopotentials (lmaxx) =  3
     Reading input from pwscf.in
Warning: card &CELL ignored
Warning: card / ignored

     Subspace diagonalization in iterative solution of the eigenvalue problem:
     a serial algorithm will be used

     bravais-lattice index     =            0
     lattice parameter (alat)  =      10.7336  a.u.
     unit-cell volume          =    6184.1966 (a.u.)^3
     number of atoms/cell      =           32
     number of atomic types    =            3
     number of electrons       =       239.00
     number of Kohn-Sham states=          346
     kinetic-energy cutoff     =      40.0000  Ry
     charge density cutoff     =     500.0000  Ry
     convergence threshold     =      1.0E-06
     mixing beta               =       0.7000
     number of iterations used =            8  plain     mixing
     Exchange-correlation      = SLA  PW   PBE  PBE ( 1 4 3 4 0)
     EXX-fraction              =        0.00
     nstep                     =           50

     celldm(1)=  10.733644  celldm(2)=   0.000000  celldm(3)=   0.000000
     celldm(4)=   0.000000  celldm(5)=   0.000000  celldm(6)=   0.000000

     crystal axes: (cart. coord. in units of alat)
               a(1) = (   1.000000   0.000000   0.000000 )
               a(2) = (   0.000000   1.085558   0.000000 )
               a(3) = (   0.000000   0.000000   4.606685 )

     reciprocal axes: (cart. coord. in units 2 pi/alat)
               b(1) = (  1.000000  0.000000  0.000000 )
               b(2) = (  0.000000  0.921185  0.000000 )
               b(3) = (  0.000000  0.000000  0.217076 )

     PseudoPot. # 1 for O  read from file:
     /home/camp/zhonxu/pseudo/o_pbe_v1.01.uspp.F.UPF
     MD5 check sum: 2bcb18d16ea4b960afae9ec6d52f22d2
     Pseudo is Ultrasoft + core correction, Zval =  6.0
     Generated by new atomic code, or converted to UPF format
     Using radial grid of  737 points,  5 beta functions with:
                l(1) =   0
                l(2) =   0
                l(3) =   1
                l(4) =   1
                l(5) =   2
     Q(r) pseudized with  8 coefficients,  rinner =    0.900   0.900   0.900
                                                       0.900   0.900

     PseudoPot. # 2 for Mn read from file:
     /home/camp/zhonxu/pseudo/mn_pbe_v1.uspp.F.UPF
     MD5 check sum: 5fd7c7b5c956fd19902447332617373a
     Pseudo is Ultrasoft + core correction, Zval = 15.0
     Generated by new atomic code, or converted to UPF format
     Using radial grid of  859 points,  6 beta functions with:
                l(1) =   0
                l(2) =   0
                l(3) =   1
                l(4) =   1
                l(5) =   2
                l(6) =   2
     Q(r) pseudized with  6 coefficients,  rinner =    1.150   1.150   1.150
                                                       1.150   1.150

     PseudoPot. # 3 for H  read from file:
     /home/camp/zhonxu/pseudo/h_pbe_v1.uspp.F.UPF
     MD5 check sum: 3408e3ff4ec8b0a4e358431e7e038a48
     Pseudo is Ultrasoft, Zval =  1.0
     Generated by new atomic code, or converted to UPF format
     Using radial grid of  615 points,  2 beta functions with:
                l(1) =   0
                l(2) =   0
     Q(r) pseudized with  8 coefficients,  rinner =    0.700

     atomic species   valence    mass     pseudopotential
        O0             6.00    15.99940     O ( 1.00)
        Mn1           15.00    54.93800     Mn( 1.00)
        H2             1.00     1.00794     H ( 1.00)

     Starting magnetic structure
     atomic species   magnetization
        O0           0.000
        Mn1          0.600
        H2           0.000

     No symmetry found

   Cartesian axes

     site n.     atom                  positions (alat units)
         1           O0  tau(   1) = (   0.0000000   0.0000000   1.7440910  )
         2           O0  tau(   2) = (   0.0000000   0.5427791   1.8348887  )
         3           Mn1 tau(   3) = (   0.2500000   0.5427791   2.0695072  )
         4           Mn1 tau(   4) = (   0.0000000   0.0000000   2.0719487  )
         5           O0  tau(   5) = (   0.2500000   0.8684466   2.0695533  )
         6           O0  tau(   6) = (   0.2500000   0.2171117   2.0770161  )
         7           O0  tau(   7) = (   0.0000000   0.5427791   2.2881405  )
         8           O0  tau(   8) = (   0.0000000   0.0000000   2.4167130  )
         9           Mn1 tau(   9) = (   0.2500000   0.0000000   2.6452046  )
        10           Mn1 tau(  10) = (   0.0000000   0.5427791   2.6189465  )
        11           O0  tau(  11) = (   0.2500000   0.7598908   2.6694358  )
        12           O0  tau(  12) = (   0.2500000   0.3256675   2.6696661  )
        13           O0  tau(  13) = (   0.0000000   0.0000000   2.8462864  )
        14           O0  tau(  14) = (   0.5000000   0.0000000   1.7440910  )
        15           O0  tau(  15) = (   0.5000000   0.5427791   1.8348887  )
        16           Mn1 tau(  16) = (   0.7500000   0.5427791   2.0695072  )
        17           Mn1 tau(  17) = (   0.5000000   0.0000000   2.0719487  )
        18           O0  tau(  18) = (   0.7500000   0.8684466   2.0695533  )
        19           O0  tau(  19) = (   0.7500000   0.2171117   2.0770161  )
        20           O0  tau(  20) = (   0.5000000   0.5427791   2.2881405  )
        21           O0  tau(  21) = (   0.5000000   0.0000000   2.4167130  )
        22           Mn1 tau(  22) = (   0.7500000   0.0000000   2.6452046  )
        23           Mn1 tau(  23) = (   0.5000000   0.5427791   2.6189465  )
        24           O0  tau(  24) = (   0.7500000   0.7598908   2.6694358  )
        25           O0  tau(  25) = (   0.7500000   0.3256675   2.6696661  )
        26           O0  tau(  26) = (   0.5000000   0.0000000   2.8462864  )
        27           H2  tau(  27) = (  -0.0000900   0.7018026   1.7591088  )
        28           H2  tau(  28) = (   0.4999100   0.7018026   1.7591088  )
        29           H2  tau(  29) = (   0.1616900   0.0388738   1.6898703  )
        30           H2  tau(  30) = (   0.6616900   0.0388738   1.6898703  )
        31           O0  tau(  31) = (   0.5000000   0.5427791   2.8533347  )
        32           H2  tau(  32) = (   0.3503500   0.5427791   2.9149260  )

     number of k points=    20  Methfessel-Paxton smearing, width (Ry)=  0.0100
                       cart. coord. in units 2pi/alat
        k(    1) = (   0.0000000   0.0000000   0.0000000), wk =   0.0625000
        k(    2) = (   0.0000000   0.2302962   0.0000000), wk =   0.1250000
        k(    3) = (   0.0000000  -0.4605925   0.0000000), wk =   0.0625000
        k(    4) = (   0.2500000   0.0000000   0.0000000), wk =   0.1250000
        k(    5) = (   0.2500000   0.2302962   0.0000000), wk =   0.1250000
        k(    6) = (   0.2500000  -0.4605925   0.0000000), wk =   0.1250000
        k(    7) = (  -0.5000000   0.0000000   0.0000000), wk =   0.0625000
        k(    8) = (  -0.5000000   0.2302962   0.0000000), wk =   0.1250000
        k(    9) = (  -0.5000000  -0.4605925   0.0000000), wk =   0.0625000
        k(   10) = (  -0.2500000   0.2302962   0.0000000), wk =   0.1250000
        k(   11) = (   0.0000000   0.0000000   0.0000000), wk =   0.0625000
        k(   12) = (   0.0000000   0.2302962   0.0000000), wk =   0.1250000
        k(   13) = (   0.0000000  -0.4605925   0.0000000), wk =   0.0625000
        k(   14) = (   0.2500000   0.0000000   0.0000000), wk =   0.1250000
        k(   15) = (   0.2500000   0.2302962   0.0000000), wk =   0.1250000
        k(   16) = (   0.2500000  -0.4605925   0.0000000), wk =   0.1250000
        k(   17) = (  -0.5000000   0.0000000   0.0000000), wk =   0.0625000
        k(   18) = (  -0.5000000   0.2302962   0.0000000), wk =   0.1250000
        k(   19) = (  -0.5000000  -0.4605925   0.0000000), wk =   0.0625000
        k(   20) = (  -0.2500000   0.2302962   0.0000000), wk =   0.1250000

     Largest allocated arrays     est. size (Mb)     dimensions
     Largest temporary arrays     est. size (Mb)     dimensions

     Check: negative/imaginary core charge=   -0.000022    0.000000

     Initial potential from superposition of free atoms
     Check: negative starting charge=(component1):   -0.000766
     Check: negative starting charge=(component2):   -0.000411

     starting charge  230.99986, renormalised to  239.00000

     negative rho (up, down):  0.793E-03 0.425E-03
     Starting wfc are  185 randomized atomic wfcs

     Self-consistent Calculation

     iteration #  1     ecut=    40.00 Ry     beta=0.70
     Davidson diagonalization with overlap
     ethr =  1.00E-02,  avg # of iterations =  5.4

     negative rho (up, down):  0.148E-02 0.105E-02

     total energy              =   -2303.62946722 Ry
     Harris-Foulkes estimate   =   -2319.30609238 Ry
     estimated scf accuracy    <      28.14041264 Ry

     total magnetization       =    26.88 Bohr mag/cell
     absolute magnetization    =    32.35 Bohr mag/cell

[...]

     End of self-consistent calculation

 ------ SPIN UP ------------

          k = 0.0000 0.0000 0.0000 ( 26393 PWs)   bands (ev):

   -83.9111 -83.9007 -83.6023 -83.4949 -83.4763 -83.3317 -83.1311 -83.1201
   -53.7686 -52.7607 -52.6464 -52.5356 -52.5174 -52.5162 -52.5056 -52.3684
   -52.2478 -52.1932 -52.1696 -52.1004 -52.0148 -51.9916 -51.9698 -51.9631
   -51.8888 -51.8553 -51.8389 -51.8191 -51.7783 -51.7640 -51.7259 -51.7063
   -24.2195 -21.8534 -21.1979 -20.9328 -20.6585 -20.2633 -20.0822 -20.0529
   -19.9002 -19.8779 -19.7912 -19.6719 -19.5813 -19.5328 -19.4288 -19.3862
   -18.9346 -18.6971 -18.5371 -12.6319  -9.9546  -9.9336  -9.5821  -9.4419
    -9.1768  -9.0807  -8.8407  -8.2542  -8.2004  -8.1502  -8.0480  -7.8188
    -7.7073  -7.6069  -7.5838  -7.4653  -7.3979  -7.3021  -7.1648  -7.0970
    -7.0869  -6.8455  -6.7862  -6.7509  -6.6358  -6.4894  -6.4276  -6.3765
    -6.2352  -5.8277  -5.7642  -5.6690  -5.4828  -5.3632  -5.2838  -5.1882
    -5.1210  -4.9765  -4.9002  -4.8756  -4.7893  -4.6718  -4.5588  -4.4602
    -4.4278  -4.3597  -4.3292  -4.3248  -4.2070  -4.1705  -3.9828  -3.9337
    -3.8234  -3.7994  -3.7681  -3.5740  -3.5395  -3.5140  -3.4797  -3.2709
    -3.0690  -3.0630  -2.9761  -2.9004  -2.8159  -2.6736  -2.6648  -2.5487
    -2.4952  -2.4350  -2.3036  -2.2875  -2.1931  -2.1469  -1.9785  -1.8294
    -1.6617  -1.5972  -1.3899  -1.2438  -1.0614  -0.7095  -0.2290  -0.0441
    -0.0091   0.2215   0.2369   0.4341   0.5158   0.8954   1.0504   1.0730
     1.2267   1.4835   1.8285   3.0312   3.1919   3.5577   3.7400   4.2163
     4.7088   5.4574   6.0463   6.4045   6.7639   6.9053   7.1642   7.2962
     7.3178   7.3982   7.5561   7.5593   7.6728   7.8386   8.0628   8.1492
     8.2292   8.3025   8.3427   8.4680   8.4941   8.6721   8.7849   8.8891
     8.9605   9.2394   9.2836   9.4192   9.4740   9.5096   9.6527   9.7336
     9.7709   9.8402  10.0552  10.0998  10.3722  10.3977  10.5452  10.5746
[...]
     atom   21 type  1   force =    -0.00089036   -0.00194819   -0.00155533
     atom   22 type  2   force =     0.00824310    0.00044014   -0.00699511
     atom   23 type  2   force =     0.05127923    0.00065132   -1.13065487
     atom   24 type  1   force =     0.06421550   -0.01725791   -0.05321579
     atom   25 type  1   force =     0.06451687    0.01717811   -0.05313718
     atom   26 type  1   force =    -0.00187233   -0.00020460    0.01148508
     atom   27 type  3   force =     0.00016933    0.00049497    0.00083822
     atom   28 type  3   force =     0.00007649    0.00012040    0.00040553
     atom   29 type  3   force =    -0.00067135    0.00002981   -0.00022082
     atom   30 type  3   force =    -0.00035346    0.00003245   -0.00014632
     atom   31 type  1   force =     0.15199162   -0.00022004    1.23993475
     atom   32 type  3   force =    -0.18109538   -0.00004467    0.11607087

     Total force =     1.267599     Total SCF correction =     0.001292

     BFGS Geometry Optimization

     number of scf cycles    =   1
     number of bfgs steps    =   0

     energy   new            =   -2321.7760775004 Ry

     new trust radius        =       0.5000000000 bohr
     new conv_thr            =       0.0000010000 Ry

ATOMIC_POSITIONS (crystal)
O0       0.000000000   0.000000000   0.378600000    0   0   0
O0       0.000000000   0.500000000   0.398310000    0   0   0
Mn1      0.250000000   0.500000000   0.449240000    0   0   0
Mn1      0.000000000   0.000000000   0.449770000    0   0   0
O0       0.250000000   0.800000000   0.449250000    0   0   0
O0       0.250000000   0.200000000   0.450870000    0   0   0
O0       0.000000000   0.500000000   0.496700000    0   0   0
O0       0.000000000   0.000000000   0.524610000    0   0   0
Mn1      0.250000000   0.000000000   0.574210000    0   0   0
Mn1      0.000000000   0.500000000   0.568510000    0   0   0
O0       0.250000000   0.700000000   0.579470000    0   0   0
O0       0.250000000   0.300000000   0.579520000    0   0   0
O0       0.000000000   0.000000000   0.617860000    0   0   0
O0       0.500000000   0.000000000   0.378600000    0   0   0
O0       0.500000000   0.500000000   0.398310000    0   0   0
Mn1      0.750000000   0.500000000   0.449240000    0   0   0
Mn1      0.500000000   0.000000000   0.449770000    0   0   0
O0       0.750000000   0.800000000   0.449250000    0   0   0
O0       0.750000000   0.200000000   0.450870000    0   0   0
O0       0.500000000   0.500000000   0.496700000    0   0   0
O0       0.500000000   0.000000000   0.524610000    0   0   0
Mn1      0.750000000   0.000000000   0.574210000    0   0   0
Mn1      0.500000000   0.500000000   0.568510000    0   0   0
O0       0.750000000   0.700000000   0.579470000    0   0   0
O0       0.750000000   0.300000000   0.579520000    0   0   0
O0       0.500000000   0.000000000   0.617860000    0   0   0
H2      -0.000090000   0.646490000   0.381860000    0   0   0
H2       0.499910000   0.646490000   0.381860000    0   0   0
H2       0.161690000   0.035810000   0.366830000    0   0   0
H2       0.661690000   0.035810000   0.366830000    0   0   0
O0       0.505667676   0.499992441   0.629426810
H2       0.343597062   0.499998466   0.633699550

     Check: negative starting charge=(component1):   -0.001118
     NEW-OLD atomic charge density approx. for the potential

     Check: negative/imaginary core charge=   -0.000022    0.000000
     Check: negative starting charge=(component1):   -0.001113

[...]

     iteration #  1     ecut=    40.00 Ry     beta=0.70
     Davidson diagonalization with overlap
     c_bands:  1 eigenvalues not converged
     ethr =  1.00E-06,  avg # of iterations =  8.1

[...]

     energy   old            =   -2321.7760775004 Ry
     energy   new            =   -2322.1463363294 Ry

     CASE: energy  _new < energy  _old

[...]

     Threshold (ethr) on eigenvalues was too large:
     Diagonalizing with lowered threshold

     Davidson diagonalization with overlap
     ethr =  9.09E-08,  avg # of iterations =  1.0

[...]

     number of scf cycles    =  16
     number of bfgs steps    =  15

     energy   old            =   -2322.2484154523 Ry
     energy   new            =   -2322.2487133579 Ry

     CASE: energy  _new < energy  _old

     new trust radius        =       0.0332393860 bohr
     new conv_thr            =       0.0000000298 Ry

ATOMIC_POSITIONS (crystal)
O0       0.000000000   0.000000000   0.378600000    0   0   0
O0       0.000000000   0.500000000   0.398310000    0   0   0
Mn1      0.250000000   0.500000000   0.449240000    0   0   0
Mn1      0.000000000   0.000000000   0.449770000    0   0   0
O0       0.250000000   0.800000000   0.449250000    0   0   0
O0       0.250000000   0.200000000   0.450870000    0   0   0
O0       0.000000000   0.500000000   0.496700000    0   0   0
O0       0.000000000   0.000000000   0.524610000    0   0   0
Mn1      0.250000000   0.000000000   0.574210000    0   0   0
Mn1      0.000000000   0.500000000   0.568510000    0   0   0
O0       0.250000000   0.700000000   0.579470000    0   0   0
O0       0.250000000   0.300000000   0.579520000    0   0   0
O0       0.000000000   0.000000000   0.617860000    0   0   0
O0       0.500000000   0.000000000   0.378600000    0   0   0
O0       0.500000000   0.500000000   0.398310000    0   0   0
Mn1      0.750000000   0.500000000   0.449240000    0   0   0
Mn1      0.500000000   0.000000000   0.449770000    0   0   0
O0       0.750000000   0.800000000   0.449250000    0   0   0
O0       0.750000000   0.200000000   0.450870000    0   0   0
O0       0.500000000   0.500000000   0.496700000    0   0   0
O0       0.500000000   0.000000000   0.524610000    0   0   0
Mn1      0.750000000   0.000000000   0.574210000    0   0   0
Mn1      0.500000000   0.500000000   0.568510000    0   0   0
O0       0.750000000   0.700000000   0.579470000    0   0   0
O0       0.750000000   0.300000000   0.579520000    0   0   0
O0       0.500000000   0.000000000   0.617860000    0   0   0
H2      -0.000090000   0.646490000   0.381860000    0   0   0
H2       0.499910000   0.646490000   0.381860000    0   0   0
H2       0.161690000   0.035810000   0.366830000    0   0   0
H2       0.661690000   0.035810000   0.366830000    0   0   0
O0       0.514589144   0.500316163   0.641255540
H2       0.354147938   0.500129347   0.655410758

     Check: negative starting charge=(component1):   -0.001068
     NEW-OLD atomic charge density approx. for the potential

     Check: negative/imaginary core charge=   -0.000022    0.000000
     Check: negative starting charge=(component1):   -0.001069

[...]

     Self-consistent Calculation

[...]

     Threshold (ethr) on eigenvalues was too large:
     Diagonalizing with lowered threshold

     Davidson diagonalization with overlap
     ethr =  3.93E-08,  avg # of iterations =  1.0

[...]

     total energy              =   -2322.24876413 Ry
     Harris-Foulkes estimate   =   -2322.24876413 Ry
     estimated scf accuracy    <       0.00000004 Ry

[...]

     iteration # 21     ecut=    40.00 Ry     beta=0.70
     Davidson diagonalization with overlap
     ethr =  1.28E-11,  avg # of iterations =  1.0

     negative rho (up, down):  0.231E-02 0.128E-02

     End of self-consistent calculation

 ------ SPIN UP ------------

[...]

 ------ SPIN DOWN ----------

[...]

          k = 0.2500-0.4606 0.0000 ( 26462 PWs)   bands (ev):

[...]

          k =-0.2500 0.2303 0.0000 ( 26396 PWs)   bands (ev):

   -80.8591 -80.8482 -80.7239 -80.7048 -80.5520 -80.5297 -80.4610 -80.1289
   -49.7709 -49.6741 -49.6342 -49.6204 -49.6132 -49.6060 -49.5956 -49.5794
   -49.5641 -49.5056 -49.5036 -49.4007 -49.3866 -49.3734 -49.3466 -49.2955
   -49.2658 -49.1762 -49.1647 -49.1633 -49.1393 -49.0548 -48.9700 -48.7572
   -21.9915 -21.5929 -21.0916 -20.8717 -20.5269 -20.4424 -20.2446 -20.1612
   -20.1387 -20.0332 -19.9980 -19.8514 -19.8283 -19.7994 -19.6705 -19.4860
   -19.3073 -19.1318 -18.8644  -9.5732  -9.2953  -8.7474  -8.5903  -8.4694
    -8.1843  -8.1066  -7.9509  -7.8735  -7.7943  -7.7631  -7.5837  -7.4472
    -7.4032  -7.2185  -7.1619  -7.1104  -7.0244  -6.9962  -6.8627  -6.7522
    -6.6022  -6.5433  -6.4768  -6.4292  -6.1380  -5.9509  -5.9120  -5.8504
    -5.6871  -5.6133  -5.5893  -5.5374  -5.4165  -5.3708  -5.2220  -5.1212
    -5.0141  -4.8762  -4.7689  -4.6670  -4.5299  -4.3722  -4.2541  -4.2250
    -4.1501  -4.0167  -3.8921  -3.7951  -3.6489  -3.5448  -3.3906  -3.2721
    -3.1805  -2.9922  -2.8830  -2.4892  -1.4156  -1.2187  -1.1798  -1.1369
    -1.1003  -1.0132  -0.9742  -0.9323  -0.8292  -0.8006  -0.6122  -0.5842
    -0.5647  -0.4426  -0.3679  -0.2663  -0.2411  -0.1439  -0.0412   0.0227
     0.0911   0.1451   0.2473   0.3788   0.5014   0.7812   0.8937   1.1339
     1.1895   1.2473   1.3345   1.6971   1.7809   1.8911   2.0989   2.2081
     2.2514   2.4534   2.5878   2.7126   3.5574   4.2448   4.3524   4.8343
     5.2978   5.5547   5.5731   6.0511   6.2785   6.5126   6.5323   6.7351
     6.8101   6.9513   7.0298   7.3320   7.4810   7.7282   7.8485   7.9655
     8.2736   8.3972   8.5364   8.6190   8.7387   8.8970   8.9752   9.0779
     9.1583   9.2139   9.4244   9.5461   9.6949   9.8578  10.0134  10.0649
    10.1150  10.2107  10.3170  10.4523  10.6042  10.7222  10.7839  10.8792
    11.0525  11.1255  11.1758  11.2813  11.3957  11.4380  11.5705  11.7000
    11.7231  11.8249  11.8843  12.0537  12.0942  12.1646  12.1945  12.3973
    12.4239  12.4678  12.6305  12.7163  12.8724  12.9211  12.9562  13.0059
    13.0923  13.1393  13.2535  13.2705  13.3961  13.4319  13.4907  13.6219
    13.6921  13.7737  13.8151  13.8630  14.0152  14.0334  14.1014  14.2258
    14.2685  14.3299  14.3750  14.4411  14.5269  14.5880  14.6416  14.7777
    14.8239  14.9056  14.9614  15.0727  15.1324  15.1748  15.2446  15.4039
    15.4992  15.5460  15.5950  15.7147  15.8055  15.8688  15.9578  16.0469
    16.0986  16.2356  16.2963  16.3470  16.4599  16.5146  16.5838  16.6284
    16.6852  16.8171  16.8467  16.9378  17.0647  17.1134  17.1833  17.2148
    17.2648  17.3464  17.4444  17.4844  17.5152  17.6384  17.7234  17.7936
    17.8677  17.9096  17.9652  18.1015  18.1572  18.2320  18.3168  18.3549
    18.3962  18.4923  18.5803  18.6364  18.6949  18.7684  18.8445  18.9375
    19.0264  19.0719  19.1819  19.2325  19.2767  19.3491  19.4444  19.4884
    19.5518  19.6379  19.7643  19.8527  19.8744  19.9751  20.0594  20.1310
    20.1714  20.2920  20.3277  20.3576  20.3738  20.5464  20.6261  20.6815
    20.7606  20.8641  20.9908  21.0051  21.0810  21.1160  21.2011  21.2713
    21.4066  21.4601  21.4983  21.5598  21.6537  21.7293  21.7871  21.8229
    21.8827  21.9979  22.0664  22.1405  22.2565  22.3405  22.4260  22.5207
    22.5915  22.6230

     the Fermi energy is    -1.8389 ev

!    total energy              =   -2322.24876411 Ry
     Harris-Foulkes estimate   =   -2322.24876413 Ry
     estimated scf accuracy    <       0.00000003 Ry

     The total energy is the sum of the following terms:

     one-electron contribution =  -26848.92083369 Ry
     hartree contribution      =   13442.43900312 Ry
     xc contribution           =    -348.84240358 Ry
     ewald contribution        =   11433.07537807 Ry
     smearing contrib. (-TS)   =       0.00009197 Ry

     total magnetization       =    23.00 Bohr mag/cell
     absolute magnetization    =    24.49 Bohr mag/cell

     convergence has been achieved in  21 iterations

     Forces acting on atoms (Ry/au):

     negative rho (up, down):  0.231E-02 0.128E-02
     atom    1 type  1   force =    -0.00421049   -0.01601057   -0.00005575
     atom    2 type  1   force =     0.00049651    0.01312619    0.00228785
     atom    3 type  2   force =     0.00632341   -0.00429466    0.00737435
     atom    4 type  2   force =     0.00402286    0.01056189    0.00072675
     atom    5 type  1   force =     0.00348912    0.00498717   -0.00029025
     atom    6 type  1   force =    -0.00279893   -0.00746922   -0.00093961
     atom    7 type  1   force =     0.00075031    0.00112148   -0.00030933
     atom    8 type  1   force =     0.00001566   -0.00196031   -0.00030646
     atom    9 type  2   force =     0.00262372    0.00009282    0.00589762
     atom   10 type  2   force =    -0.00949451   -0.00078021   -0.00429724
     atom   11 type  1   force =    -0.02476455   -0.05164872   -0.02750194
     atom   12 type  1   force =    -0.02474162    0.05183799   -0.02734915
     atom   13 type  1   force =     0.00091755   -0.00012424   -0.00134999
     atom   14 type  1   force =    -0.00433460   -0.01588134    0.00048279
     atom   15 type  1   force =     0.00014763    0.01340825   -0.00017760
     atom   16 type  2   force =    -0.00764657   -0.00431373    0.00747088
     atom   17 type  2   force =     0.00433049    0.01059654    0.00076004
     atom   18 type  1   force =     0.00360072    0.00503455   -0.00028025
     atom   19 type  1   force =    -0.00276002   -0.00759103   -0.00092446
     atom   20 type  1   force =    -0.00018525    0.00075526   -0.02393543
     atom   21 type  1   force =    -0.00044369   -0.00192172   -0.00074976
     atom   22 type  2   force =    -0.00313088    0.00025759    0.00842220
     atom   23 type  2   force =     0.00346879   -0.00069001    0.12718896
     atom   24 type  1   force =     0.02811419   -0.04690399   -0.03620777
     atom   25 type  1   force =     0.02810172    0.04706818   -0.03606372
     atom   26 type  1   force =    -0.00066949   -0.00012035   -0.00134102
     atom   27 type  3   force =     0.00010958    0.00037874    0.00064543
     atom   28 type  3   force =     0.00006490    0.00028617    0.00028379
     atom   29 type  3   force =    -0.00054829    0.00009117   -0.00049021
     atom   30 type  3   force =    -0.00027640    0.00009335   -0.00048734
     atom   31 type  1   force =    -0.00033909   -0.00000793    0.00099274
     atom   32 type  3   force =    -0.00023279    0.00002069    0.00052387

     Total force =     0.001196     Total SCF correction =     0.000049

     bfgs converged in  17 scf cycles and  16 bfgs steps
     (criteria: energy < 0.10E-03, force < 0.10E-02)

     End of BFGS Geometry Optimization

     Final energy   =   -2322.2487641116 Ry
Begin final coordinates

ATOMIC_POSITIONS (crystal)
O0       0.000000000   0.000000000   0.378600000    0   0   0
O0       0.000000000   0.500000000   0.398310000    0   0   0
Mn1      0.250000000   0.500000000   0.449240000    0   0   0
Mn1      0.000000000   0.000000000   0.449770000    0   0   0
O0       0.250000000   0.800000000   0.449250000    0   0   0
O0       0.250000000   0.200000000   0.450870000    0   0   0
O0       0.000000000   0.500000000   0.496700000    0   0   0
O0       0.000000000   0.000000000   0.524610000    0   0   0
Mn1      0.250000000   0.000000000   0.574210000    0   0   0
Mn1      0.000000000   0.500000000   0.568510000    0   0   0
O0       0.250000000   0.700000000   0.579470000    0   0   0
O0       0.250000000   0.300000000   0.579520000    0   0   0
O0       0.000000000   0.000000000   0.617860000    0   0   0
O0       0.500000000   0.000000000   0.378600000    0   0   0
O0       0.500000000   0.500000000   0.398310000    0   0   0
Mn1      0.750000000   0.500000000   0.449240000    0   0   0
Mn1      0.500000000   0.000000000   0.449770000    0   0   0
O0       0.750000000   0.800000000   0.449250000    0   0   0
O0       0.750000000   0.200000000   0.450870000    0   0   0
O0       0.500000000   0.500000000   0.496700000    0   0   0
O0       0.500000000   0.000000000   0.524610000    0   0   0
Mn1      0.750000000   0.000000000   0.574210000    0   0   0
Mn1      0.500000000   0.500000000   0.568510000    0   0   0
O0       0.750000000   0.700000000   0.579470000    0   0   0
O0       0.750000000   0.300000000   0.579520000    0   0   0
O0       0.500000000   0.000000000   0.617860000    0   0   0
H2      -0.000090000   0.646490000   0.381860000    0   0   0
H2       0.499910000   0.646490000   0.381860000    0   0   0
H2       0.161690000   0.035810000   0.366830000    0   0   0
H2       0.661690000   0.035810000   0.366830000    0   0   0
O0       0.514589144   0.500316163   0.641255540
H2       0.354147938   0.500129347   0.655410758
End final coordinates

     General routines

     Parallel routines

   This run was terminated on:  11:44:41  22Mar2014

   JOB DONE.
Running PBS batch system epilogue script
Job id: 306648.audhumbla.fysik.dtu.dk
Username: zhonxu
Groupname: campgst
Jobname: MnO2/Eads-2-layers/OH
Sessionid: 27679
Queuename: verylong
Accounting:
This job has allocated the following 16 nodes:
a080 a080 a080 a080 a080 a080 a080 a080 a010 a010 a010 a010 a010 a010 a010 a010
Finished epilogue job 306648.audhumbla.fysik.dtu.dk for zhonxu