     Program PWSCF v.5.0.2 (svn rev. 9656) starts on  1May2014 at  5:46:14

     Current dimensions of program PWSCF are:
     Max number of different atomic species (ntypx) = 10
     Max number of k-points (npk) =  40000
     Max angular momentum in pseudopotentials (lmaxx) =  3
     Reading input from pwscf.in
Warning: card &CELL ignored
Warning: card / ignored

     Subspace diagonalization in iterative solution of the eigenvalue problem:
     a serial algorithm will be used

     bravais-lattice index     =            0
     lattice parameter (alat)  =      11.1872  a.u.
     unit-cell volume          =    7531.8600 (a.u.)^3
     number of atoms/cell      =           32
     number of atomic types    =            3
     number of electrons       =       223.00
     number of Kohn-Sham states=          334
     kinetic-energy cutoff     =      40.0000  Ry
     charge density cutoff     =     500.0000  Ry
     convergence threshold     =      1.0E-06
     mixing beta               =       0.7000
     number of iterations used =            8  plain     mixing
     Exchange-correlation      = SLA  PW   PBE  PBE ( 1 4 3 4 0)
     EXX-fraction              =        0.00
     nstep                     =           50

     celldm(1)=  11.187179  celldm(2)=   0.000000  celldm(3)=   0.000000
     celldm(4)=   0.000000  celldm(5)=   0.000000  celldm(6)=   0.000000

     crystal axes: (cart. coord. in units of alat)
               a(1) = (   1.000000   0.000000   0.000000 )
               a(2) = (   0.000000   1.180104   0.000000 )
               a(3) = (   0.000000   0.000000   4.558482 )

     reciprocal axes: (cart. coord. in units 2 pi/alat)
               b(1) = (  1.000000  0.000000  0.000000 )
               b(2) = (  0.000000  0.847383  0.000000 )
               b(3) = (  0.000000  0.000000  0.219371 )

     PseudoPot. # 1 for O  read from file:
     /home/camp/zhonxu/pseudo/o_pbe_v1.01.uspp.F.UPF
     MD5 check sum: 2bcb18d16ea4b960afae9ec6d52f22d2
     Pseudo is Ultrasoft + core correction, Zval =  6.0
     Generated by new atomic code, or converted to UPF format
     Using radial grid of  737 points,  5 beta functions with:
                l(1) =   0
                l(2) =   0
                l(3) =   1
                l(4) =   1
                l(5) =   2
     Q(r) pseudized with  8 coefficients,  rinner =    0.900   0.900   0.900
                                                       0.900   0.900

     PseudoPot. # 2 for Nb read from file:
     /home/camp/zhonxu/pseudo/nb_pbe_v1.uspp.F.UPF
     MD5 check sum: 573aab8a2fa660278ed4a62cd769473f
     Pseudo is Ultrasoft + core correction, Zval = 13.0
     Generated by new atomic code, or converted to UPF format
     Using radial grid of  887 points,  6 beta functions with:
                l(1) =   0
                l(2) =   0
                l(3) =   1
                l(4) =   1
                l(5) =   2
                l(6) =   2
     Q(r) pseudized with  6 coefficients,  rinner =    1.000   1.000   1.000
                                                       1.000   1.000

     PseudoPot. # 3 for H  read from file:
     /home/camp/zhonxu/pseudo/h_pbe_v1.uspp.F.UPF
     MD5 check sum: 3408e3ff4ec8b0a4e358431e7e038a48
     Pseudo is Ultrasoft, Zval =  1.0
     Generated by new atomic code, or converted to UPF format
     Using radial grid of  615 points,  2 beta functions with:
                l(1) =   0
                l(2) =   0
     Q(r) pseudized with  8 coefficients,  rinner =    0.700

     atomic species   valence    mass     pseudopotential
        O0             6.00    15.99940     O ( 1.00)
        Nb1           13.00    92.90640     Nb( 1.00)
        H2             1.00     1.00794     H ( 1.00)

     Simplified LDA+U calculation (l_max = 2) with parameters (eV):
     atomic species    L          U    alpha       J0     beta
        Nb1            2     5.5000   0.0000   0.0000   0.0000

     No symmetry found

   Cartesian axes

     site n.     atom                  positions (alat units)
         1           O0  tau(   1) = (   0.0000000   0.0000000   1.6962568  )
         2           O0  tau(   2) = (   0.0000000   0.5900519   1.7738878  )
         3           Nb1 tau(   3) = (   0.2500000   0.5900519   2.0270203  )
         4           Nb1 tau(   4) = (   0.0000000   0.0000000   2.0275217  )
         5           O0  tau(   5) = (   0.2500000   0.9322821   2.0383253  )
         6           O0  tau(   6) = (   0.2500000   0.2478218   2.0383253  )
         7           O0  tau(   7) = (   0.0000000   0.5900519   2.2801984  )
         8           O0  tau(   8) = (   0.0000000   0.0000000   2.3861375  )
         9           Nb1 tau(   9) = (   0.2500000   0.0000000   2.6321588  )
        10           Nb1 tau(  10) = (   0.0000000   0.5900519   2.5957821  )
        11           O0  tau(  11) = (   0.2500000   0.8378738   2.6252299  )
        12           O0  tau(  12) = (   0.2500000   0.3422301   2.6252299  )
        13           O0  tau(  13) = (   0.0000000   0.0000000   2.8359230  )
        14           O0  tau(  14) = (   0.5000000   0.0000000   1.6977155  )
        15           O0  tau(  15) = (   0.5000000   0.5900519   1.7812725  )
        16           Nb1 tau(  16) = (   0.7500000   0.5900519   2.0271571  )
        17           Nb1 tau(  17) = (   0.5000000   0.0000000   2.0300745  )
        18           O0  tau(  18) = (   0.7500000   0.9322821   2.0383253  )
        19           O0  tau(  19) = (   0.7500000   0.2478218   2.0383709  )
        20           O0  tau(  20) = (   0.5000000   0.5900519   2.2745003  )
        21           O0  tau(  21) = (   0.5000000   0.0000000   2.3862287  )
        22           Nb1 tau(  22) = (   0.7500000   0.0000000   2.6327514  )
        23           Nb1 tau(  23) = (   0.5000000   0.5900519   2.6327970  )
        24           O0  tau(  24) = (   0.7500000   0.8378738   2.6254579  )
        25           O0  tau(  25) = (   0.7500000   0.3422301   2.6255034  )
        26           O0  tau(  26) = (   0.5000000   0.0000000   2.8354216  )
        27           H2  tau(  27) = (  -0.0004800   0.5922115   1.6084605  )
        28           H2  tau(  28) = (   0.4995300   0.5922233   1.6161643  )
        29           H2  tau(  29) = (   0.1505800   0.0006019   1.6239593  )
        30           H2  tau(  30) = (   0.6505400   0.0006019   1.6254180  )
        31           O0  tau(  31) = (   0.5024200   0.5900519   2.9584550  )
        32           H2  tau(  32) = (   0.3976800   0.5901109   3.0854543  )

     number of k points=    10  Methfessel-Paxton smearing, width (Ry)=  0.0100
                       cart. coord. in units 2pi/alat
        k(    1) = (   0.0000000   0.0000000   0.0000000), wk =   0.1250000
        k(    2) = (   0.0000000   0.2118458   0.0000000), wk =   0.2500000
        k(    3) = (   0.0000000  -0.4236915   0.0000000), wk =   0.1250000
        k(    4) = (   0.2500000   0.0000000   0.0000000), wk =   0.2500000
        k(    5) = (   0.2500000   0.2118458   0.0000000), wk =   0.2500000
        k(    6) = (   0.2500000  -0.4236915   0.0000000), wk =   0.2500000
        k(    7) = (  -0.5000000   0.0000000   0.0000000), wk =   0.1250000
        k(    8) = (  -0.5000000   0.2118458   0.0000000), wk =   0.2500000
        k(    9) = (  -0.5000000  -0.4236915   0.0000000), wk =   0.1250000
        k(   10) = (  -0.2500000   0.2118458   0.0000000), wk =   0.2500000

     Largest allocated arrays     est. size (Mb)     dimensions
     Largest temporary arrays     est. size (Mb)     dimensions

     Check: negative/imaginary core charge=   -0.000003    0.000000

     Initial potential from superposition of free atoms
     Check: negative starting charge=   -0.003641

     starting charge  222.97806, renormalised to  223.00000

     negative rho (up, down):  0.364E-02 0.000E+00
     Number of +U iterations with fixed ns =  0
     Starting occupations:
 --- enter write_ns ---
 LDA+U parameters:
U( 2)     =  5.50000000
alpha( 2) =  0.00000000
atom    3   Tr[ns(na)] =   3.00000
    eigenvalues:
  0.300  0.300  0.300  0.300  0.300
    eigenvectors:
  1.000  0.000  0.000  0.000  0.000
  0.000  1.000  0.000  0.000  0.000
  0.000  0.000  1.000  0.000  0.000
  0.000  0.000  0.000  1.000  0.000
  0.000  0.000  0.000  0.000  1.000
    occupations:
  0.300  0.000  0.000  0.000  0.000
  0.000  0.300  0.000  0.000  0.000
  0.000  0.000  0.300  0.000  0.000
  0.000  0.000  0.000  0.300  0.000
  0.000  0.000  0.000  0.000  0.300
atom    4   Tr[ns(na)] =   3.00000
    eigenvalues:
  0.300  0.300  0.300  0.300  0.300
    eigenvectors:
  1.000  0.000  0.000  0.000  0.000
  0.000  1.000  0.000  0.000  0.000
  0.000  0.000  1.000  0.000  0.000
  0.000  0.000  0.000  1.000  0.000
  0.000  0.000  0.000  0.000  1.000
    occupations:
  0.300  0.000  0.000  0.000  0.000
  0.000  0.300  0.000  0.000  0.000
  0.000  0.000  0.300  0.000  0.000
  0.000  0.000  0.000  0.300  0.000
  0.000  0.000  0.000  0.000  0.300
atom    9   Tr[ns(na)] =   3.00000
    eigenvalues:
  0.300  0.300  0.300  0.300  0.300
    eigenvectors:
  1.000  0.000  0.000  0.000  0.000
  0.000  1.000  0.000  0.000  0.000
  0.000  0.000  1.000  0.000  0.000
  0.000  0.000  0.000  1.000  0.000
  0.000  0.000  0.000  0.000  1.000
    occupations:
  0.300  0.000  0.000  0.000  0.000
  0.000  0.300  0.000  0.000  0.000
  0.000  0.000  0.300  0.000  0.000
  0.000  0.000  0.000  0.300  0.000
  0.000  0.000  0.000  0.000  0.300
atom   10   Tr[ns(na)] =   3.00000
    eigenvalues:
  0.300  0.300  0.300  0.300  0.300
    eigenvectors:
  1.000  0.000  0.000  0.000  0.000
  0.000  1.000  0.000  0.000  0.000
  0.000  0.000  1.000  0.000  0.000
  0.000  0.000  0.000  1.000  0.000
  0.000  0.000  0.000  0.000  1.000
    occupations:
  0.300  0.000  0.000  0.000  0.000
  0.000  0.300  0.000  0.000  0.000
  0.000  0.000  0.300  0.000  0.000
  0.000  0.000  0.000  0.300  0.000
  0.000  0.000  0.000  0.000  0.300
atom   16   Tr[ns(na)] =   3.00000
    eigenvalues:
  0.300  0.300  0.300  0.300  0.300
    eigenvectors:
  1.000  0.000  0.000  0.000  0.000
  0.000  1.000  0.000  0.000  0.000
  0.000  0.000  1.000  0.000  0.000
  0.000  0.000  0.000  1.000  0.000
  0.000  0.000  0.000  0.000  1.000
    occupations:
  0.300  0.000  0.000  0.000  0.000
  0.000  0.300  0.000  0.000  0.000
  0.000  0.000  0.300  0.000  0.000
  0.000  0.000  0.000  0.300  0.000
  0.000  0.000  0.000  0.000  0.300
atom   17   Tr[ns(na)] =   3.00000
    eigenvalues:
  0.300  0.300  0.300  0.300  0.300
    eigenvectors:
  1.000  0.000  0.000  0.000  0.000
  0.000  1.000  0.000  0.000  0.000
  0.000  0.000  1.000  0.000  0.000
  0.000  0.000  0.000  1.000  0.000
  0.000  0.000  0.000  0.000  1.000
    occupations:
  0.300  0.000  0.000  0.000  0.000
  0.000  0.300  0.000  0.000  0.000
  0.000  0.000  0.300  0.000  0.000
  0.000  0.000  0.000  0.300  0.000
  0.000  0.000  0.000  0.000  0.300
atom   22   Tr[ns(na)] =   3.00000
    eigenvalues:
  0.300  0.300  0.300  0.300  0.300
    eigenvectors:
  1.000  0.000  0.000  0.000  0.000
  0.000  1.000  0.000  0.000  0.000
  0.000  0.000  1.000  0.000  0.000
  0.000  0.000  0.000  1.000  0.000
  0.000  0.000  0.000  0.000  1.000
[...]
atom    9   Tr[ns(na)] =   5.25720
    eigenvalues:
  0.451  0.453  0.470  0.627  0.628
    eigenvectors:
  0.872  0.000  0.000  0.112  0.016
  0.000  0.000  0.000  0.125  0.875
  0.000  0.883  0.117  0.000  0.000
  0.128  0.000  0.000  0.763  0.109
  0.000  0.117  0.883  0.000  0.000
    occupations:
  0.473 -0.000  0.000  0.059 -0.000
 -0.000  0.628 -0.000 -0.000  0.000
  0.000 -0.000  0.455 -0.000  0.005
  0.059 -0.000 -0.000  0.604  0.000
 -0.000  0.000  0.005  0.000  0.468
atom   10   Tr[ns(na)] =   5.08188
    eigenvalues:
  0.327  0.380  0.507  0.536  0.790
    eigenvectors:
  0.000  0.000  1.000  0.000  0.000
  0.000  1.000  0.000  0.000  0.000
  1.000  0.000  0.000  0.000  0.000
  0.000  0.000  0.000  0.000  1.000
  0.000  0.000  0.000  1.000  0.000
    occupations:
  0.507 -0.001 -0.000  0.004  0.000
 -0.001  0.380  0.000 -0.000  0.000
 -0.000  0.000  0.327 -0.000 -0.001
  0.004 -0.000 -0.000  0.790  0.000
  0.000  0.000 -0.001  0.000  0.536
atom   16   Tr[ns(na)] =   5.11657
    eigenvalues:
  0.335  0.342  0.516  0.595  0.772
    eigenvectors:
  0.000  0.000  0.000  0.343  0.657
  0.000  0.000  0.999  0.000  0.000
  0.762  0.238  0.000  0.000  0.000
  0.000  0.000  0.000  0.657  0.343
  0.238  0.762  0.000  0.000  0.000
    occupations:
  0.711  0.004  0.001 -0.084 -0.000
  0.004  0.516 -0.000 -0.001  0.000
  0.001 -0.000  0.336 -0.000  0.003
 -0.084 -0.001 -0.000  0.655  0.000
 -0.000  0.000  0.003  0.000  0.340
atom   17   Tr[ns(na)] =   5.16515
    eigenvalues:
  0.340  0.366  0.553  0.587  0.736
    eigenvectors:
  0.003  0.000  0.000  0.997  0.000
  0.996  0.000  0.000  0.003  0.001
  0.000  1.000  0.000  0.000  0.000
  0.001  0.000  0.000  0.000  0.999
  0.000  0.000  1.000  0.000  0.000
    occupations:
  0.586  0.014  0.000 -0.002 -0.000
  0.014  0.341 -0.000 -0.010  0.000
  0.000 -0.000  0.366 -0.000  0.001
 -0.002 -0.010 -0.000  0.736  0.000
 -0.000  0.000  0.001  0.000  0.553
atom   22   Tr[ns(na)] =   5.25641
    eigenvalues:
  0.451  0.452  0.472  0.627  0.627
    eigenvectors:
  0.000  0.874  0.000  0.112  0.014
  0.000  0.000  0.000  0.108  0.892
  0.901  0.000  0.099  0.000  0.000
  0.000  0.126  0.000  0.779  0.095
  0.099  0.000  0.901  0.000  0.000
    occupations:
  0.474  0.000  0.000  0.058 -0.000
  0.000  0.627 -0.000  0.000  0.000
  0.000 -0.000  0.453  0.000 -0.006
  0.058  0.000  0.000  0.605  0.000
 -0.000  0.000 -0.006  0.000  0.470
atom   23   Tr[ns(na)] =   5.25914
    eigenvalues:
  0.406  0.449  0.560  0.599  0.615
    eigenvectors:
  0.000  0.010  0.000  0.587  0.403
  0.000  0.987  0.000  0.013  0.000
  1.000  0.000  0.000  0.000  0.000
  0.000  0.003  0.000  0.400  0.597
  0.000  0.000  1.000  0.000  0.000
    occupations:
  0.604  0.015 -0.000  0.009  0.000
  0.015  0.451  0.000 -0.008  0.000
 -0.000  0.000  0.406  0.000  0.001
  0.009 -0.008  0.000  0.608 -0.000
  0.000  0.000  0.001 -0.000  0.560
N of occupied +U levels =  41.4233838
 --- exit write_ns ---

     Threshold (ethr) on eigenvalues was too large:
     Diagonalizing with lowered threshold

     Davidson diagonalization with overlap
     ethr =  7.18E-09,  avg # of iterations =  3.0

[...]

     total energy              =   -1559.83992865 Ry
     Harris-Foulkes estimate   =   -1559.83992865 Ry
     estimated scf accuracy    <       0.00000001 Ry

     iteration # 12     ecut=    40.00 Ry     beta=0.70
     Davidson diagonalization with overlap
     ethr =  6.71E-12,  avg # of iterations =  1.3

     negative rho (up, down):  0.350E-02 0.000E+00

     End of self-consistent calculation
 --- enter write_ns ---
 LDA+U parameters:
U( 2)     =  5.50000000
alpha( 2) =  0.00000000
atom    3   Tr[ns(na)] =   5.11692
    eigenvalues:
  0.334  0.341  0.516  0.595  0.772
    eigenvectors:
  0.000  0.000  0.001  0.341  0.658
  0.000  0.000  0.999  0.000  0.000
  0.811  0.189  0.000  0.000  0.000
  0.000  0.000  0.000  0.658  0.341
  0.189  0.811  0.000  0.000  0.000
    occupations:
  0.711 -0.004  0.001 -0.084  0.000
 -0.004  0.516  0.000  0.001  0.000
  0.001  0.000  0.336 -0.000 -0.003
 -0.084  0.001 -0.000  0.655 -0.000
  0.000  0.000 -0.003 -0.000  0.340
atom    4   Tr[ns(na)] =   5.17017
    eigenvalues:
  0.338  0.367  0.553  0.586  0.740
    eigenvectors:
  0.003  0.000  0.000  0.997  0.000
  0.996  0.000  0.000  0.003  0.001
  0.000  1.000  0.000  0.000  0.000
  0.001  0.000  0.000  0.000  0.999
  0.000  0.000  1.000  0.000  0.000
    occupations:
  0.586  0.014  0.000 -0.002 -0.000
  0.014  0.340 -0.000 -0.012  0.000
  0.000 -0.000  0.367 -0.000  0.001
 -0.002 -0.012 -0.000  0.740  0.000
 -0.000  0.000  0.001  0.000  0.553
atom    9   Tr[ns(na)] =   5.25826
    eigenvalues:
  0.451  0.454  0.470  0.627  0.628
    eigenvectors:
  0.872  0.000  0.000  0.112  0.017
  0.000  0.000  0.000  0.129  0.871
  0.000  0.878  0.122  0.000  0.000
  0.128  0.000  0.000  0.759  0.113
  0.000  0.122  0.878  0.000  0.000
    occupations:
  0.473 -0.000  0.000  0.059 -0.000
 -0.000  0.628 -0.000 -0.000  0.000
  0.000 -0.000  0.456 -0.000  0.005
  0.059 -0.000 -0.000  0.604  0.000
 -0.000  0.000  0.005  0.000  0.468
atom   10   Tr[ns(na)] =   5.08231
    eigenvalues:
  0.327  0.380  0.507  0.536  0.790
    eigenvectors:
  0.000  0.000  1.000  0.000  0.000
  0.000  1.000  0.000  0.000  0.000
  1.000  0.000  0.000  0.000  0.000
  0.000  0.000  0.000  0.000  1.000
  0.000  0.000  0.000  1.000  0.000
    occupations:
  0.507 -0.001 -0.000  0.004  0.000
 -0.001  0.380  0.000 -0.000  0.000
 -0.000  0.000  0.327 -0.000 -0.001
  0.004 -0.000 -0.000  0.790  0.000
  0.000  0.000 -0.001  0.000  0.536
atom   16   Tr[ns(na)] =   5.11695
    eigenvalues:
  0.335  0.342  0.516  0.595  0.772
    eigenvectors:
  0.000  0.000  0.000  0.343  0.657
  0.000  0.000  1.000  0.000  0.000
  0.761  0.239  0.000  0.000  0.000
  0.000  0.000  0.000  0.657  0.343
  0.239  0.761  0.000  0.000  0.000
    occupations:
  0.711  0.003  0.001 -0.084 -0.000
  0.003  0.516 -0.000 -0.001  0.000
  0.001 -0.000  0.336 -0.000  0.003
 -0.084 -0.001 -0.000  0.656  0.000
 -0.000  0.000  0.003  0.000  0.340
atom   17   Tr[ns(na)] =   5.16469
    eigenvalues:
  0.340  0.367  0.553  0.587  0.736
    eigenvectors:
  0.003  0.000  0.000  0.997  0.000
  0.996  0.000  0.000  0.003  0.001
  0.000  1.000  0.000  0.000  0.000
  0.001  0.000  0.000  0.000  0.999
  0.000  0.000  1.000  0.000  0.000
    occupations:
  0.586  0.014  0.000 -0.002 -0.000
  0.014  0.341 -0.000 -0.010  0.000
  0.000 -0.000  0.367 -0.000  0.001
 -0.002 -0.010 -0.000  0.736  0.000
 -0.000  0.000  0.001  0.000  0.553
atom   22   Tr[ns(na)] =   5.25732
    eigenvalues:
  0.451  0.452  0.472  0.627  0.627
    eigenvectors:
  0.000  0.874  0.000  0.111  0.014
  0.000  0.000  0.000  0.114  0.886
  0.898  0.000  0.102  0.000  0.000
  0.000  0.126  0.000  0.774  0.100
  0.102  0.000  0.898  0.000  0.000
    occupations:
  0.474  0.000  0.000  0.058 -0.000
  0.000  0.627 -0.000  0.000  0.000
  0.000 -0.000  0.453  0.000 -0.006
  0.058  0.000  0.000  0.605  0.000
 -0.000  0.000 -0.006  0.000  0.470
atom   23   Tr[ns(na)] =   5.25811
    eigenvalues:
  0.406  0.449  0.560  0.599  0.615
    eigenvectors:
  0.000  0.010  0.000  0.564  0.426
  0.000  0.987  0.000  0.013  0.000
  1.000  0.000  0.000  0.000  0.000
  0.000  0.003  0.000  0.423  0.573
  0.000  0.000  1.000  0.000  0.000
    occupations:
  0.604  0.015 -0.000  0.009  0.000
  0.015  0.451  0.000 -0.008  0.000
 -0.000  0.000  0.406  0.000  0.001
  0.009 -0.008  0.000  0.607 -0.000
  0.000  0.000  0.001 -0.000  0.560
N of occupied +U levels =  41.4247169
 --- exit write_ns ---

[...]

          k = 0.2500-0.4237 0.0000 ( 32188 PWs)   bands (ev):

[...]

          k =-0.2500 0.2118 0.0000 ( 32165 PWs)   bands (ev):

   -56.3719 -56.3024 -55.8703 -55.8119 -55.7949 -55.7159 -55.6505 -55.5206
   -33.1252 -32.5904 -32.4525 -32.3956 -32.3950 -32.3763 -32.3593 -32.3405
   -32.2935 -32.1759 -32.1471 -32.1242 -32.0894 -32.0645 -32.0541 -31.7569
   -31.7499 -31.6478 -31.6035 -31.5518 -31.4713 -31.4537 -31.3563 -31.3261
   -20.2474 -20.0879 -19.3510 -19.1964 -19.0157 -18.8962 -18.8676 -18.8628
   -18.8041 -18.7566 -18.7362 -18.7242 -17.9839 -17.9530 -17.9333 -17.8818
   -17.8769 -17.7673 -17.7478  -8.8915  -8.4363  -7.4477  -7.4023  -7.1440
    -7.0543  -6.8645  -6.5896  -6.4258  -6.3566  -6.2184  -6.1896  -6.1747
    -5.9330  -5.9185  -5.8198  -5.5316  -5.5234  -5.4618  -5.4041  -5.2294
    -4.9973  -4.8902  -4.7799  -4.6339  -4.4694  -4.3936  -4.3097  -4.2328
    -4.1604  -4.0931  -4.0710  -3.9661  -3.8870  -3.8415  -3.7918  -3.7715
    -3.7542  -3.5587  -3.5126  -3.4313  -3.3915  -3.3399  -3.1810  -3.1369
    -3.0711  -3.0181  -2.9495  -2.9041  -2.7191  -2.6626  -2.6090  -2.4860
    -2.4418  -2.3477  -2.2021  -1.9384  -0.9744  -0.0085   0.0912   1.2203
     1.5195   1.7562   1.7855   1.8411   1.8874   2.0189   2.2836   2.3395
     2.3801   2.4543   2.5522   2.6620   2.6906   2.7500   2.8788   2.9237
     2.9690   3.1139   3.1766   3.2499   3.4302   3.8835   4.2038   4.3040
     4.5768   4.6755   4.8340   5.0098   5.0256   5.1009   5.2160   5.3289
     5.3523   5.5117   5.6901   5.7634   5.8178   5.9062   5.9786   6.0727
     6.3154   6.4284   6.4667   6.5719   6.6319   6.7138   6.8054   6.9130
     7.0515   7.1821   7.2461   7.3327   7.4144   7.6755   7.8625   7.9629
     8.0081   8.0735   8.1990   8.2757   8.4303   8.4914   8.6547   8.7313
     8.8286   8.9145   9.0023   9.1587   9.1955   9.3257   9.3671   9.5152
     9.5931   9.6827   9.8037   9.8300  10.0092  10.0666  10.0934  10.2620
    10.3530  10.4079  10.5407  10.7298  10.8178  10.9095  10.9710  11.0483
    11.0986  11.1412  11.2386  11.2878  11.3649  11.5111  11.5356  11.5784
    11.6172  11.7372  11.8710  11.8965  12.0165  12.0844  12.1856  12.2897
    12.4046  12.4751  12.5088  12.5642  12.6425  12.7053  12.7846  12.8246
    12.8939  12.9336  13.0010  13.0299  13.1175  13.1926  13.2654  13.3993
    13.4818  13.5199  13.6027  13.6103  13.7032  13.7884  13.8548  13.9093
    13.9801  14.0288  14.0670  14.1346  14.2513  14.3065  14.3629  14.4592
    14.5708  14.7110  14.7372  14.7800  14.8696  14.9261  15.0191  15.0992
    15.2150  15.2469  15.3095  15.3773  15.4045  15.4415  15.5248  15.6169
    15.6622  15.7740  15.8278  15.8914  15.9103  15.9550  16.0441  16.1311
    16.2026  16.2556  16.2963  16.3875  16.4617  16.5977  16.6329  16.6942
    16.7530  16.7995  16.8703  16.9688  17.0330  17.0699  17.1428  17.1910
    17.2771  17.3067  17.3405  17.4402  17.4825  17.5450  17.6351  17.7192
    17.7914  17.8618  17.9544  18.0152  18.0613  18.1278  18.1568  18.2331
    18.3444  18.4333  18.5192  18.5454  18.6172  18.6705  18.7698  18.8242
    18.8786  18.9830  19.0098  19.1055  19.1390  19.1997  19.2473  19.3104
    19.3471  19.4077  19.4725  19.5446  19.5897  19.6655  19.6978  19.7631
    19.7990  19.8688  19.9096  19.9824  20.0123  20.0679

     the Fermi energy is     1.0382 ev

!    total energy              =   -1559.83992865 Ry
     Harris-Foulkes estimate   =   -1559.83992866 Ry
     estimated scf accuracy    <          5.2E-09 Ry

     The total energy is the sum of the following terms:

     one-electron contribution =  -18989.28042515 Ry
     hartree contribution      =    9524.62637062 Ry
     xc contribution           =    -287.73292621 Ry
     ewald contribution        =    8188.80238430 Ry
     Hubbard energy            =       3.74506970 Ry
     smearing contrib. (-TS)   =      -0.00040191 Ry

     convergence has been achieved in  12 iterations

     Forces acting on atoms (Ry/au):

     negative rho (up, down):  0.350E-02 0.000E+00
     atom    1 type  1   force =     0.00119672   -0.00006493    0.00037496
     atom    2 type  1   force =    -0.00055307    0.00020400    0.00048239
     atom    3 type  2   force =     0.03547246   -0.00014036   -0.00036726
     atom    4 type  2   force =    -0.00312559    0.00000885    0.00022685
     atom    5 type  1   force =    -0.00158807   -0.02453513   -0.00002749
     atom    6 type  1   force =    -0.00164300    0.02454762   -0.00002485
     atom    7 type  1   force =    -0.00042387    0.00001789    0.00014097
     atom    8 type  1   force =     0.00138038    0.00001339   -0.00058743
     atom    9 type  2   force =     0.00202088    0.00000490    0.00009715
     atom   10 type  2   force =     0.00161277   -0.00000870   -0.00024750
     atom   11 type  1   force =    -0.00334080    0.00379537   -0.00008463
     atom   12 type  1   force =    -0.00334114   -0.00379901   -0.00008798
     atom   13 type  1   force =     0.00147362    0.00000035    0.00047185
     atom   14 type  1   force =     0.00120256   -0.00007041    0.00039369
     atom   15 type  1   force =    -0.00009276    0.00021243   -0.00011741
     atom   16 type  2   force =    -0.03290670   -0.00013979   -0.00055612
     atom   17 type  2   force =    -0.00270111    0.00001150    0.00019287
     atom   18 type  1   force =     0.00227147   -0.02478993    0.00004099
     atom   19 type  1   force =     0.00223254    0.02480172    0.00004662
     atom   20 type  1   force =    -0.00572032    0.00003323    0.00014865
     atom   21 type  1   force =     0.00072748    0.00001161   -0.00068757
     atom   22 type  2   force =    -0.00244094   -0.00000373    0.00011122
     atom   23 type  2   force =     0.00399412   -0.00001207   -0.00095569
     atom   24 type  1   force =     0.00222897    0.00186418   -0.00028299
     atom   25 type  1   force =     0.00222562   -0.00185408   -0.00028208
     atom   26 type  1   force =    -0.00096917   -0.00000050    0.00065544
     atom   27 type  3   force =     0.00000220   -0.00006036    0.00063230
     atom   28 type  3   force =     0.00000011   -0.00005108   -0.00041957
     atom   29 type  3   force =    -0.00023296   -0.00000162    0.00041898
     atom   30 type  3   force =    -0.00021706    0.00000007    0.00044055
     atom   31 type  1   force =     0.00038585   -0.00000104   -0.00012133
     atom   32 type  3   force =     0.00086885    0.00000563   -0.00002557

     Total force =     0.002395     Total SCF correction =     0.000144

     bfgs converged in  14 scf cycles and  13 bfgs steps
     (criteria: energy < 0.10E-03, force < 0.10E-02)

     End of BFGS Geometry Optimization

     Final energy   =   -1559.8399286526 Ry
Begin final coordinates

ATOMIC_POSITIONS (crystal)
O0       0.000000000   0.000000000   0.371593174    0   0   1
O0       0.000000000   0.500000000   0.387839341    0   0   1
Nb1      0.250000000   0.500000000   0.443547487    0   0   1
Nb1      0.000000000   0.000000000   0.444402704    0   0   1
O0       0.250000000   0.790000000   0.447579680    0   0   1
O0       0.250000000   0.210000000   0.447571870    0   0   1
O0       0.000000000   0.500000000   0.499323753    0   0   1
O0       0.000000000   0.000000000   0.524386254    0   0   1
Nb1      0.250000000   0.000000000   0.577609555    0   0   1
Nb1      0.000000000   0.500000000   0.568419021    0   0   1
O0       0.250000000   0.710000000   0.577843612    0   0   1
O0       0.250000000   0.290000000   0.577842261    0   0   1
O0       0.000000000   0.000000000   0.622342705    0   0   1
O0       0.500000000   0.000000000   0.371821523    0   0   1
O0       0.500000000   0.500000000   0.388240129    0   0   1
Nb1      0.750000000   0.500000000   0.443519644    0   0   1
Nb1      0.500000000   0.000000000   0.444663509    0   0   1
O0       0.750000000   0.790000000   0.447630898    0   0   1
O0       0.750000000   0.210000000   0.447622460    0   0   1
O0       0.500000000   0.500000000   0.501288596    0   0   1
O0       0.500000000   0.000000000   0.524522115    0   0   1
Nb1      0.750000000   0.000000000   0.577908690    0   0   1
Nb1      0.500000000   0.500000000   0.576941935    0   0   1
O0       0.750000000   0.710000000   0.577623428    0   0   1
O0       0.750000000   0.290000000   0.577624206    0   0   1
O0       0.500000000   0.000000000   0.622185932    0   0   1
H2      -0.000536206   0.501665211   0.351646721
H2       0.499634662   0.501726088   0.352053189
H2       0.151373737   0.000547164   0.356267479
H2       0.651222648   0.000545360   0.356425755
O0       0.501044297   0.499994876   0.648667695
H2       0.402612694   0.500066850   0.677554678
End final coordinates

     General routines

     Parallel routines
     Hubbard U routines

   This run was terminated on:  18: 8:12   1May2014

   JOB DONE.
Running PBS batch system epilogue script
Job id: 340597.audhumbla.fysik.dtu.dk
Username: zhonxu
Groupname: campgst
Jobname: NbO2/Eads-2-layers/OH-U-5.5
Sessionid: 31873
Queuename: verylong
Accounting:
This job has allocated the following 16 nodes:
a031 a031 a031 a031 a031 a031 a031 a031 a008 a008 a008 a008 a008 a008 a008 a008
Finished epilogue job 340597.audhumbla.fysik.dtu.dk for zhonxu