     Program PWSCF v.5.0.2 (svn rev. 9656) starts on 24Jan2014 at 14:41:32

     Current dimensions of program PWSCF are:
     Max number of different atomic species (ntypx) = 10
     Max number of k-points (npk) =  40000
     Max angular momentum in pseudopotentials (lmaxx) =  3
     Reading input from MnO2-v-0.90.in

     Subspace diagonalization in iterative solution of the eigenvalue problem:
     a serial algorithm will be used

     bravais-lattice index     =            0
     lattice parameter (alat)  =       8.1289  a.u.
     unit-cell volume          =     346.1653 (a.u.)^3
     number of atoms/cell      =            6
     number of atomic types    =            2
     number of electrons       =        54.00
     number of Kohn-Sham states=           78
     kinetic-energy cutoff     =      40.0000  Ry
     charge density cutoff     =     500.0000  Ry
     convergence threshold     =      1.0E-06
     mixing beta               =       0.3000
     number of iterations used =            8  plain     mixing
     Exchange-correlation      = SLA  PW   PBE  PBE ( 1 4 3 4 0)
     EXX-fraction              =        0.00
     nstep                     =           50

     celldm(1)=   8.128917  celldm(2)=   0.000000  celldm(3)=   0.000000
     celldm(4)=   0.000000  celldm(5)=   0.000000  celldm(6)=   0.000000

     crystal axes: (cart. coord. in units of alat)
               a(1) = (   1.000000   0.000000   0.000000 )
               a(2) = (   0.000000   1.000000   0.000000 )
               a(3) = (   0.000000   0.000000   0.644444 )

     reciprocal axes: (cart. coord. in units 2 pi/alat)
               b(1) = (  1.000000  0.000000  0.000000 )
               b(2) = (  0.000000  1.000000  0.000000 )
               b(3) = (  0.000000  0.000000  1.551724 )

     PseudoPot. # 1 for Mn read from file:
     /home/camp/zhonxu/pseudo/mn_pbe_v1.uspp.F.UPF
     MD5 check sum: 5fd7c7b5c956fd19902447332617373a
     Pseudo is Ultrasoft + core correction, Zval = 15.0
     Generated by new atomic code, or converted to UPF format
     Using radial grid of  859 points,  6 beta functions with:
                l(1) =   0
                l(2) =   0
                l(3) =   1
                l(4) =   1
                l(5) =   2
                l(6) =   2
     Q(r) pseudized with  6 coefficients,  rinner =    1.150   1.150   1.150
                                                       1.150   1.150

     PseudoPot. # 2 for O  read from file:
     /home/camp/zhonxu/pseudo/o_pbe_v1.01.uspp.F.UPF
     MD5 check sum: 2bcb18d16ea4b960afae9ec6d52f22d2
     Pseudo is Ultrasoft + core correction, Zval =  6.0
     Generated by new atomic code, or converted to UPF format
     Using radial grid of  737 points,  5 beta functions with:
                l(1) =   0
                l(2) =   0
                l(3) =   1
                l(4) =   1
                l(5) =   2
     Q(r) pseudized with  8 coefficients,  rinner =    0.900   0.900   0.900
                                                       0.900   0.900

     atomic species   valence    mass     pseudopotential
        Mn0           15.00    54.93800     Mn( 1.00)
        O1             6.00    15.99940     O ( 1.00)

     Starting magnetic structure
     atomic species   magnetization
        Mn0          0.000
        O1           0.000

     16 Sym. Ops., with inversion, found ( 8 have fractional translation)

   Cartesian axes

     site n.     atom                  positions (alat units)
         1           Mn0 tau(   1) = (   0.0000000   0.0000000   0.0000000  )
         2           Mn0 tau(   2) = (   0.5000000   0.5000000   0.3222222  )
         3           O1  tau(   3) = (   0.3050000   0.3050000   0.0000000  )
         4           O1  tau(   4) = (  -0.3050000  -0.3050000   0.0000000  )
         5           O1  tau(   5) = (   0.8050000   0.1950000   0.3222222  )
         6           O1  tau(   6) = (   0.1950000   0.8050000   0.3222222  )

     number of k points=    36  Methfessel-Paxton smearing, width (Ry)=  0.0100
                       cart. coord. in units 2pi/alat
        k(    1) = (   0.0000000   0.0000000   0.0000000), wk =   0.0080000
        k(    2) = (   0.0000000   0.0000000   0.3103448), wk =   0.0160000
        k(    3) = (   0.0000000   0.0000000   0.6206897), wk =   0.0160000
        k(    4) = (   0.0000000   0.2000000   0.0000000), wk =   0.0320000
        k(    5) = (   0.0000000   0.2000000   0.3103448), wk =   0.0640000
        k(    6) = (   0.0000000   0.2000000   0.6206897), wk =   0.0640000
        k(    7) = (   0.0000000   0.4000000   0.0000000), wk =   0.0320000
        k(    8) = (   0.0000000   0.4000000   0.3103448), wk =   0.0640000
        k(    9) = (   0.0000000   0.4000000   0.6206897), wk =   0.0640000
        k(   10) = (   0.2000000   0.2000000   0.0000000), wk =   0.0320000
        k(   11) = (   0.2000000   0.2000000   0.3103448), wk =   0.0640000
        k(   12) = (   0.2000000   0.2000000   0.6206897), wk =   0.0640000
        k(   13) = (   0.2000000   0.4000000   0.0000000), wk =   0.0640000
        k(   14) = (   0.2000000   0.4000000   0.3103448), wk =   0.1280000
        k(   15) = (   0.2000000   0.4000000   0.6206897), wk =   0.1280000
        k(   16) = (   0.4000000   0.4000000   0.0000000), wk =   0.0320000
        k(   17) = (   0.4000000   0.4000000   0.3103448), wk =   0.0640000
        k(   18) = (   0.4000000   0.4000000   0.6206897), wk =   0.0640000
        k(   19) = (   0.0000000   0.0000000   0.0000000), wk =   0.0080000
        k(   20) = (   0.0000000   0.0000000   0.3103448), wk =   0.0160000
        k(   21) = (   0.0000000   0.0000000   0.6206897), wk =   0.0160000
        k(   22) = (   0.0000000   0.2000000   0.0000000), wk =   0.0320000
        k(   23) = (   0.0000000   0.2000000   0.3103448), wk =   0.0640000
        k(   24) = (   0.0000000   0.2000000   0.6206897), wk =   0.0640000
        k(   25) = (   0.0000000   0.4000000   0.0000000), wk =   0.0320000
        k(   26) = (   0.0000000   0.4000000   0.3103448), wk =   0.0640000
        k(   27) = (   0.0000000   0.4000000   0.6206897), wk =   0.0640000
        k(   28) = (   0.2000000   0.2000000   0.0000000), wk =   0.0320000
        k(   29) = (   0.2000000   0.2000000   0.3103448), wk =   0.0640000
        k(   30) = (   0.2000000   0.2000000   0.6206897), wk =   0.0640000
        k(   31) = (   0.2000000   0.4000000   0.0000000), wk =   0.0640000
        k(   32) = (   0.2000000   0.4000000   0.3103448), wk =   0.1280000
        k(   33) = (   0.2000000   0.4000000   0.6206897), wk =   0.1280000
        k(   34) = (   0.4000000   0.4000000   0.0000000), wk =   0.0320000
        k(   35) = (   0.4000000   0.4000000   0.3103448), wk =   0.0640000
        k(   36) = (   0.4000000   0.4000000   0.6206897), wk =   0.0640000

     Largest allocated arrays     est. size (Mb)     dimensions
     Largest temporary arrays     est. size (Mb)     dimensions

     Check: negative/imaginary core charge=   -0.000063    0.000000

     Initial potential from superposition of free atoms

     starting charge   51.99998, renormalised to   54.00000
     Starting wfc are   42 randomized atomic wfcs

     Self-consistent Calculation

     iteration #  1     ecut=    40.00 Ry     beta=0.30
     Davidson diagonalization with overlap
     ethr =  1.00E-02,  avg # of iterations =  5.0

     total energy              =    -554.16168523 Ry
     Harris-Foulkes estimate   =    -555.28058421 Ry
     estimated scf accuracy    <       2.38556479 Ry

     total magnetization       =     0.00 Bohr mag/cell
     absolute magnetization    =     0.00 Bohr mag/cell

[...]

     End of self-consistent calculation

 ------ SPIN UP ------------

          k = 0.0000 0.0000 0.0000 (  1471 PWs)   bands (ev):

   -67.8354 -67.8309 -36.6581 -36.6581 -36.5663 -36.5663 -36.4609 -36.4469
    -8.5460  -6.4843  -6.0000  -6.0000   3.8354   4.6945   5.0555   6.3637
     6.3637   7.6605   7.6605   8.4179  10.2939  10.6945  10.6945  10.8408
    11.1359  11.5859  11.5884  11.5884  11.8178  13.6272  13.8111  16.3546
    16.3546  17.2475  20.6860  23.9831  23.9831  26.9864  27.4640  28.3696
    31.2422  32.1577  32.1577  32.6857  32.8063  37.0062  37.7330  37.7330
    37.7480  39.0811  39.0811  39.7068  40.0336  40.0945  40.0945  41.9223
    44.0005  44.5326  47.5347  47.5347  47.6178  47.6979  47.6979  49.2950
    51.1161  52.6821  52.6821  53.0932  54.6325  54.9199  54.9199  55.9762
    57.3849  57.7324  59.2165  59.2166  60.1559  60.1578

[...]

 ------ SPIN DOWN ----------

[...]

     the Fermi energy is    12.3130 ev

!    total energy              =    -554.86131475 Ry
     Harris-Foulkes estimate   =    -554.86131204 Ry
     estimated scf accuracy    <       0.00000039 Ry

     The total energy is the sum of the following terms:

     one-electron contribution =    -257.94682961 Ry
     hartree contribution      =     159.29448898 Ry
     xc contribution           =     -80.96580616 Ry
     ewald contribution        =    -375.24264022 Ry
     smearing contrib. (-TS)   =      -0.00052775 Ry

[...]

     convergence has been achieved in  10 iterations

     Forces acting on atoms (Ry/au):

     atom    1 type  1   force =     0.00000000    0.00000000    0.00000000
     atom    2 type  1   force =     0.00000000    0.00000000    0.00000000
     atom    3 type  2   force =    -0.02612573   -0.02612573   -0.00000000
     atom    4 type  2   force =     0.02612573    0.02612573   -0.00000000
     atom    5 type  2   force =    -0.02612573    0.02612573   -0.00000000
     atom    6 type  2   force =     0.02612573   -0.02612573    0.00000000

     Total force =     0.073895     Total SCF correction =     0.000318

     entering subroutine stress ...

          total   stress  (Ry/bohr**3)                   (kbar)     P=  153.43
   0.00104543   0.00000000   0.00000000        153.79      0.00      0.00
   0.00000000   0.00104543   0.00000000          0.00    153.79      0.00
   0.00000000   0.00000000   0.00103812          0.00      0.00    152.71

     Volume is kept fixed: isostatic pressure set to zero

     BFGS Geometry Optimization

     number of scf cycles    =   1
     number of bfgs steps    =   0

     enthalpy new            =    -554.8613147495 Ry

     new trust radius        =       0.0369473578 bohr
     new conv_thr            =       0.0000010000 Ry

     new unit-cell volume =    346.16527 a.u.^3 (    51.29640 Ang^3 )

CELL_PARAMETERS (alat=  8.12891664)
   1.000060927   0.000000000   0.000000000
   0.000000000   1.000060927   0.000000000
   0.000000000   0.000000000   0.644365924

ATOMIC_POSITIONS (crystal)
Mn0      0.000000000   0.000000000   0.000000000    0   0   0
Mn0      0.500000000   0.500000000   0.500000000    0   0   0
O1       0.301786075   0.301786075   0.000000000    1   1   0
O1      -0.301786075  -0.301786075   0.000000000    1   1   0
O1       0.801786075   0.198213925   0.500000000    1   1   0
O1       0.198213925   0.801786075   0.500000000    1   1   0

     NEW-OLD atomic charge density approx. for the potential
     NEW k-points:
        k(    1) = (   0.0000000   0.0000000   0.0000000), wk =   0.0080000
[...]
        k(   23) = (   0.0000000   0.1999878   0.3103826), wk =   0.0640000
        k(   24) = (   0.0000000   0.1999878   0.6207653), wk =   0.0640000
        k(   25) = (   0.0000000   0.3999756   0.0000000), wk =   0.0320000
        k(   26) = (   0.0000000   0.3999756   0.3103826), wk =   0.0640000
        k(   27) = (   0.0000000   0.3999756   0.6207653), wk =   0.0640000
        k(   28) = (   0.1999878   0.1999878   0.0000000), wk =   0.0320000
        k(   29) = (   0.1999878   0.1999878   0.3103826), wk =   0.0640000
        k(   30) = (   0.1999878   0.1999878   0.6207653), wk =   0.0640000
        k(   31) = (   0.1999878   0.3999756   0.0000000), wk =   0.0640000
        k(   32) = (   0.1999878   0.3999756   0.3103826), wk =   0.1280000
        k(   33) = (   0.1999878   0.3999756   0.6207653), wk =   0.1280000
        k(   34) = (   0.3999756   0.3999756   0.0000000), wk =   0.0320000
        k(   35) = (   0.3999756   0.3999756   0.3103826), wk =   0.0640000
        k(   36) = (   0.3999756   0.3999756   0.6207653), wk =   0.0640000

[...]

     enthalpy old            =    -554.8613147495 Ry
     enthalpy new            =    -554.8656132648 Ry

     CASE: enthalpy_new < enthalpy_old

[...]

     Threshold (ethr) on eigenvalues was too large:
     Diagonalizing with lowered threshold

     Davidson diagonalization with overlap
     ethr =  7.87E-08,  avg # of iterations =  1.0

[...]

     Total force =     0.001881     Total SCF correction =     0.000127

[...]

     number of scf cycles    =   6
     number of bfgs steps    =   5

     enthalpy old            =    -554.8699202599 Ry
     enthalpy new            =    -554.8699776701 Ry

     CASE: enthalpy_new < enthalpy_old

     new trust radius        =       0.0017328293 bohr
     new conv_thr            =       0.0000000100 Ry

     new unit-cell volume =    346.16527 a.u.^3 (    51.29640 Ang^3 )

[...]

ATOMIC_POSITIONS (crystal)
Mn0      0.000000000   0.000000000   0.000000000    0   0   0
Mn0      0.500000000   0.500000000   0.500000000    0   0   0
O1       0.294659913   0.294659913   0.000000000    1   1   0
O1      -0.294659913  -0.294659913   0.000000000    1   1   0
O1       0.794659913   0.205340087   0.500000000    1   1   0
O1       0.205340087   0.794659913   0.500000000    1   1   0

     NEW-OLD atomic charge density approx. for the potential
     NEW k-points:
        k(    1) = (   0.0000000   0.0000000   0.0000000), wk =   0.0080000
        k(    2) = (   0.0000000   0.0000000   0.3189765), wk =   0.0160000
        k(    3) = (   0.0000000   0.0000000   0.6379530), wk =   0.0160000
        k(    4) = (   0.0000000   0.1972754   0.0000000), wk =   0.0320000
        k(    5) = (   0.0000000   0.1972754   0.3189765), wk =   0.0640000
        k(    6) = (   0.0000000   0.1972754   0.6379530), wk =   0.0640000
        k(    7) = (   0.0000000   0.3945508   0.0000000), wk =   0.0320000
        k(    8) = (   0.0000000   0.3945508   0.3189765), wk =   0.0640000
        k(    9) = (   0.0000000   0.3945508   0.6379530), wk =   0.0640000
        k(   10) = (   0.1972754   0.1972754   0.0000000), wk =   0.0320000
        k(   11) = (   0.1972754   0.1972754   0.3189765), wk =   0.0640000
        k(   12) = (   0.1972754   0.1972754   0.6379530), wk =   0.0640000
        k(   13) = (   0.1972754   0.3945508   0.0000000), wk =   0.0640000
        k(   14) = (   0.1972754   0.3945508   0.3189765), wk =   0.1280000
        k(   15) = (   0.1972754   0.3945508   0.6379530), wk =   0.1280000
        k(   16) = (   0.3945508   0.3945508   0.0000000), wk =   0.0320000
        k(   17) = (   0.3945508   0.3945508   0.3189765), wk =   0.0640000
        k(   18) = (   0.3945508   0.3945508   0.6379530), wk =   0.0640000
        k(   19) = (   0.0000000   0.0000000   0.0000000), wk =   0.0080000
        k(   20) = (   0.0000000   0.0000000   0.3189765), wk =   0.0160000
        k(   21) = (   0.0000000   0.0000000   0.6379530), wk =   0.0160000
        k(   22) = (   0.0000000   0.1972754   0.0000000), wk =   0.0320000
        k(   23) = (   0.0000000   0.1972754   0.3189765), wk =   0.0640000
        k(   24) = (   0.0000000   0.1972754   0.6379530), wk =   0.0640000
        k(   25) = (   0.0000000   0.3945508   0.0000000), wk =   0.0320000
        k(   26) = (   0.0000000   0.3945508   0.3189765), wk =   0.0640000
        k(   27) = (   0.0000000   0.3945508   0.6379530), wk =   0.0640000
        k(   28) = (   0.1972754   0.1972754   0.0000000), wk =   0.0320000
        k(   29) = (   0.1972754   0.1972754   0.3189765), wk =   0.0640000
        k(   30) = (   0.1972754   0.1972754   0.6379530), wk =   0.0640000
        k(   31) = (   0.1972754   0.3945508   0.0000000), wk =   0.0640000
        k(   32) = (   0.1972754   0.3945508   0.3189765), wk =   0.1280000
        k(   33) = (   0.1972754   0.3945508   0.6379530), wk =   0.1280000
        k(   34) = (   0.3945508   0.3945508   0.0000000), wk =   0.0320000
        k(   35) = (   0.3945508   0.3945508   0.3189765), wk =   0.0640000
        k(   36) = (   0.3945508   0.3945508   0.6379530), wk =   0.0640000

[...]

     Threshold (ethr) on eigenvalues was too large:
     Diagonalizing with lowered threshold

     Davidson diagonalization with overlap
     ethr =  4.06E-09,  avg # of iterations =  1.3

[...]

     Total force =     0.000245     Total SCF correction =     0.000038
     SCF correction compared to forces is large: reduce conv_thr to get better values

[...]

     Volume is kept fixed: isostatic pressure set to zero

     bfgs converged in   7 scf cycles and   6 bfgs steps
     (criteria: energy < 0.10E-03, force < 0.10E-02, cell < 0.50E+00)

     End of BFGS Geometry Optimization

     Final enthalpy =    -554.8699819541 Ry
Begin final coordinates
     new unit-cell volume =    346.16527 a.u.^3 (    51.29640 Ang^3 )

CELL_PARAMETERS (alat=  8.12891664)
   1.013811174   0.000000000   0.000000000
   0.000000000   1.013811174   0.000000000
   0.000000000   0.000000000   0.627005480

ATOMIC_POSITIONS (crystal)
Mn0      0.000000000   0.000000000   0.000000000    0   0   0
Mn0      0.500000000   0.500000000   0.500000000    0   0   0
O1       0.294659913   0.294659913   0.000000000    1   1   0
O1      -0.294659913  -0.294659913   0.000000000    1   1   0
O1       0.794659913   0.205340087   0.500000000    1   1   0
O1       0.205340087   0.794659913   0.500000000    1   1   0
End final coordinates

     A final scf calculation at the relaxed structure.
     The G-vectors are recalculated for the final unit cell
     Results may differ from those at the preceding step.

     bravais-lattice index     =            0
     lattice parameter (alat)  =       8.1289  a.u.
     unit-cell volume          =     346.1653 (a.u.)^3
     number of atoms/cell      =            6
     number of atomic types    =            2
     number of electrons       =        54.00
     number of Kohn-Sham states=           78
     kinetic-energy cutoff     =      40.0000  Ry
     charge density cutoff     =     500.0000  Ry
     convergence threshold     =      1.0E-08
     mixing beta               =       0.3000
     number of iterations used =            8  plain     mixing
     Exchange-correlation      = SLA  PW   PBE  PBE ( 1 4 3 4 0)
     EXX-fraction              =        0.00

     celldm(1)=   8.128917  celldm(2)=   0.000000  celldm(3)=   0.000000
     celldm(4)=   0.000000  celldm(5)=   0.000000  celldm(6)=   0.000000

     crystal axes: (cart. coord. in units of alat)
               a(1) = (   1.013811   0.000000   0.000000 )
               a(2) = (   0.000000   1.013811   0.000000 )
               a(3) = (   0.000000   0.000000   0.627005 )

     reciprocal axes: (cart. coord. in units 2 pi/alat)
               b(1) = (  0.986377  0.000000  0.000000 )
               b(2) = (  0.000000  0.986377  0.000000 )
               b(3) = (  0.000000  0.000000  1.594882 )

     PseudoPot. # 1 for Mn read from file:
     /home/camp/zhonxu/pseudo/mn_pbe_v1.uspp.F.UPF
     MD5 check sum: 5fd7c7b5c956fd19902447332617373a
     Pseudo is Ultrasoft + core correction, Zval = 15.0
     Generated by new atomic code, or converted to UPF format
     Using radial grid of  859 points,  6 beta functions with:
                l(1) =   0
                l(2) =   0
                l(3) =   1
                l(4) =   1
                l(5) =   2
                l(6) =   2
     Q(r) pseudized with  6 coefficients,  rinner =    1.150   1.150   1.150
                                                       1.150   1.150

     PseudoPot. # 2 for O  read from file:
     /home/camp/zhonxu/pseudo/o_pbe_v1.01.uspp.F.UPF
     MD5 check sum: 2bcb18d16ea4b960afae9ec6d52f22d2
     Pseudo is Ultrasoft + core correction, Zval =  6.0
     Generated by new atomic code, or converted to UPF format
     Using radial grid of  737 points,  5 beta functions with:
                l(1) =   0
                l(2) =   0
                l(3) =   1
                l(4) =   1
                l(5) =   2
     Q(r) pseudized with  8 coefficients,  rinner =    0.900   0.900   0.900
                                                       0.900   0.900

     atomic species   valence    mass     pseudopotential
        Mn0           15.00    54.93800     Mn( 1.00)
        O1             6.00    15.99940     O ( 1.00)

     Starting magnetic structure
     atomic species   magnetization
        Mn0          0.000
        O1           0.000

     16 Sym. Ops., with inversion, found ( 8 have fractional translation)

   Cartesian axes

     site n.     atom                  positions (alat units)
         1           Mn0 tau(   1) = (   0.0000000   0.0000000   0.0000000  )
         2           Mn0 tau(   2) = (   0.5069056   0.5069056   0.3135027  )
         3           O1  tau(   3) = (   0.2987295   0.2987295   0.0000000  )
         4           O1  tau(   4) = (  -0.2987295  -0.2987295   0.0000000  )
         5           O1  tau(   5) = (   0.8056351   0.2081761   0.3135027  )
         6           O1  tau(   6) = (   0.2081761   0.8056351   0.3135027  )

     number of k points=    36  Methfessel-Paxton smearing, width (Ry)=  0.0100
                       cart. coord. in units 2pi/alat
        k(    1) = (   0.0000000   0.0000000   0.0000000), wk =   0.0080000
        k(    2) = (   0.0000000   0.0000000   0.3189765), wk =   0.0160000
        k(    3) = (   0.0000000   0.0000000   0.6379530), wk =   0.0160000
        k(    4) = (   0.0000000   0.1972754   0.0000000), wk =   0.0320000
        k(    5) = (   0.0000000   0.1972754   0.3189765), wk =   0.0640000
        k(    6) = (   0.0000000   0.1972754   0.6379530), wk =   0.0640000
        k(    7) = (   0.0000000   0.3945508   0.0000000), wk =   0.0320000
        k(    8) = (   0.0000000   0.3945508   0.3189765), wk =   0.0640000
        k(    9) = (   0.0000000   0.3945508   0.6379530), wk =   0.0640000
        k(   10) = (   0.1972754   0.1972754   0.0000000), wk =   0.0320000
        k(   11) = (   0.1972754   0.1972754   0.3189765), wk =   0.0640000
        k(   12) = (   0.1972754   0.1972754   0.6379530), wk =   0.0640000
        k(   13) = (   0.1972754   0.3945508   0.0000000), wk =   0.0640000
        k(   14) = (   0.1972754   0.3945508   0.3189765), wk =   0.1280000
        k(   15) = (   0.1972754   0.3945508   0.6379530), wk =   0.1280000
        k(   16) = (   0.3945508   0.3945508   0.0000000), wk =   0.0320000
        k(   17) = (   0.3945508   0.3945508   0.3189765), wk =   0.0640000
        k(   18) = (   0.3945508   0.3945508   0.6379530), wk =   0.0640000
        k(   19) = (   0.0000000   0.0000000   0.0000000), wk =   0.0080000
        k(   20) = (   0.0000000   0.0000000   0.3189765), wk =   0.0160000
        k(   21) = (   0.0000000   0.0000000   0.6379530), wk =   0.0160000
        k(   22) = (   0.0000000   0.1972754   0.0000000), wk =   0.0320000
        k(   23) = (   0.0000000   0.1972754   0.3189765), wk =   0.0640000
        k(   24) = (   0.0000000   0.1972754   0.6379530), wk =   0.0640000
        k(   25) = (   0.0000000   0.3945508   0.0000000), wk =   0.0320000
        k(   26) = (   0.0000000   0.3945508   0.3189765), wk =   0.0640000
        k(   27) = (   0.0000000   0.3945508   0.6379530), wk =   0.0640000
        k(   28) = (   0.1972754   0.1972754   0.0000000), wk =   0.0320000
        k(   29) = (   0.1972754   0.1972754   0.3189765), wk =   0.0640000
        k(   30) = (   0.1972754   0.1972754   0.6379530), wk =   0.0640000
        k(   31) = (   0.1972754   0.3945508   0.0000000), wk =   0.0640000
        k(   32) = (   0.1972754   0.3945508   0.3189765), wk =   0.1280000
        k(   33) = (   0.1972754   0.3945508   0.6379530), wk =   0.1280000
        k(   34) = (   0.3945508   0.3945508   0.0000000), wk =   0.0320000
        k(   35) = (   0.3945508   0.3945508   0.3189765), wk =   0.0640000
        k(   36) = (   0.3945508   0.3945508   0.6379530), wk =   0.0640000

     Largest allocated arrays     est. size (Mb)     dimensions
     Largest temporary arrays     est. size (Mb)     dimensions

     Check: negative/imaginary core charge=   -0.000064    0.000000

     Initial potential from superposition of free atoms

     starting charge   51.99998, renormalised to   54.00000
     Starting wfc are   42 randomized atomic wfcs

     Self-consistent Calculation

[...]

     total energy              =    -554.87009926 Ry
     Harris-Foulkes estimate   =    -554.87009869 Ry
     estimated scf accuracy    <       0.00000020 Ry

[...]

     iteration # 12     ecut=    40.00 Ry     beta=0.30
     Davidson diagonalization with overlap
     ethr =  1.46E-10,  avg # of iterations =  1.0

     End of self-consistent calculation

 ------ SPIN UP ------------

[...]

 ------ SPIN DOWN ----------

[...]

          k = 0.3946 0.3946 0.6380 (  1486 PWs)   bands (ev):

   -67.9451 -67.9450 -36.7647 -36.7637 -36.7286 -36.7263 -36.6945 -36.6941
    -6.5939  -6.4482  -6.3831  -6.2738   4.9307   5.1049   5.1585   5.2769
     6.4403   6.7952   7.3616   7.5036   8.7888   8.9735   9.9269  10.1821
    11.6978  12.2771  12.3482  12.3772  12.4907  12.8954  14.7100  15.4469
    15.5764  16.2611  24.3038  24.6459  25.8449  26.1111  28.4588  28.5663
    29.8804  30.0591  30.4113  30.5619  31.5226  31.8018  35.4273  36.9974
    37.7054  38.0696  39.0564  39.6200  43.2770  43.3363  44.4163  45.0645
    47.4037  47.9224  48.0244  49.0389  49.1727  49.4348  50.7869  50.9687
    52.3242  53.0072  53.2284  54.2810  54.3904  54.7874  55.1531  56.0146
    56.6278  57.2876  58.5793  58.6985  60.8260  61.5754

     the Fermi energy is    12.3802 ev

!    total energy              =    -554.87009986 Ry
     Harris-Foulkes estimate   =    -554.87009928 Ry
     estimated scf accuracy    <          1.3E-09 Ry

     The total energy is the sum of the following terms:

     one-electron contribution =    -257.87761853 Ry
     hartree contribution      =     159.12325613 Ry
     xc contribution           =     -80.92928981 Ry
     ewald contribution        =    -375.18604361 Ry
     smearing contrib. (-TS)   =      -0.00040404 Ry

     total magnetization       =     0.00 Bohr mag/cell
     absolute magnetization    =     0.00 Bohr mag/cell

     convergence has been achieved in  12 iterations

     Forces acting on atoms (Ry/au):

     atom    1 type  1   force =     0.00000000    0.00000000    0.00000000
     atom    2 type  1   force =     0.00000000    0.00000000   -0.00000000
     atom    3 type  2   force =    -0.00001376   -0.00001376   -0.00000000
     atom    4 type  2   force =     0.00001376    0.00001376   -0.00000000
     atom    5 type  2   force =    -0.00001376    0.00001376    0.00000000
     atom    6 type  2   force =     0.00001376   -0.00001376    0.00000000

     Total force =     0.000039     Total SCF correction =     0.000021
     SCF correction compared to forces is large: reduce conv_thr to get better values

     entering subroutine stress ...

          total   stress  (Ry/bohr**3)                   (kbar)     P=  118.31
   0.00081584   0.00000000   0.00000000        120.01      0.00      0.00
   0.00000000   0.00081584   0.00000000          0.00    120.01      0.00
   0.00000000   0.00000000   0.00078101          0.00      0.00    114.89

     General routines

     Parallel routines

   This run was terminated on:  15: 4:23  24Jan2014

   JOB DONE.
Running PBS batch system epilogue script
Job id: 251999.audhumbla.fysik.dtu.dk
Username: zhonxu
Groupname: campgst
Jobname: MnO2/fine-EOS/non-mag/MnO2-v-0.90
Sessionid: 15017
Queuename: verylong
Accounting:
This job has allocated the following 4 nodes:
q017 q017 q017 q017
Finished epilogue job 251999.audhumbla.fysik.dtu.dk for zhonxu