     Program PWSCF v.5.0.2 (svn rev. 9656) starts on 25May2014 at  3:28:41

     Current dimensions of program PWSCF are:
     Max number of different atomic species (ntypx) = 10
     Max number of k-points (npk) =  40000
     Max angular momentum in pseudopotentials (lmaxx) =  3
     Reading input from pwscf.in
Warning: card &CELL ignored
Warning: card / ignored

     Subspace diagonalization in iterative solution of the eigenvalue problem:
     a serial algorithm will be used

     bravais-lattice index     =            0
     lattice parameter (alat)  =      10.7336  a.u.
     unit-cell volume          =    6184.1966 (a.u.)^3
     number of atoms/cell      =           31
     number of atomic types    =            3
     number of electrons       =       238.00 (up: 130.00, down: 108.00)
     number of Kohn-Sham states=          345
     kinetic-energy cutoff     =      40.0000  Ry
     charge density cutoff     =     500.0000  Ry
     convergence threshold     =      1.0E-06
     mixing beta               =       0.7000
     number of iterations used =            8  plain     mixing
     Exchange-correlation      = SLA  PW   PBE  PBE ( 1 4 3 4 0)
     EXX-fraction              =        0.00
     nstep                     =           50

     celldm(1)=  10.733644  celldm(2)=   0.000000  celldm(3)=   0.000000
     celldm(4)=   0.000000  celldm(5)=   0.000000  celldm(6)=   0.000000

     crystal axes: (cart. coord. in units of alat)
               a(1) = (   1.000000   0.000000   0.000000 )
               a(2) = (   0.000000   1.085558   0.000000 )
               a(3) = (   0.000000   0.000000   4.606685 )

     reciprocal axes: (cart. coord. in units 2 pi/alat)
               b(1) = (  1.000000  0.000000  0.000000 )
               b(2) = (  0.000000  0.921185  0.000000 )
               b(3) = (  0.000000  0.000000  0.217076 )

     PseudoPot. # 1 for O  read from file:
     /home/camp/zhonxu/pseudo/o_pbe_v1.01.uspp.F.UPF
     MD5 check sum: 2bcb18d16ea4b960afae9ec6d52f22d2
     Pseudo is Ultrasoft + core correction, Zval =  6.0
     Generated by new atomic code, or converted to UPF format
     Using radial grid of  737 points,  5 beta functions with:
                l(1) =   0
                l(2) =   0
                l(3) =   1
                l(4) =   1
                l(5) =   2
     Q(r) pseudized with  8 coefficients,  rinner =    0.900   0.900   0.900
                                                       0.900   0.900

     PseudoPot. # 2 for Mn read from file:
     /home/camp/zhonxu/pseudo/mn_pbe_v1.uspp.F.UPF
     MD5 check sum: 5fd7c7b5c956fd19902447332617373a
     Pseudo is Ultrasoft + core correction, Zval = 15.0
     Generated by new atomic code, or converted to UPF format
     Using radial grid of  859 points,  6 beta functions with:
                l(1) =   0
                l(2) =   0
                l(3) =   1
                l(4) =   1
                l(5) =   2
                l(6) =   2
     Q(r) pseudized with  6 coefficients,  rinner =    1.150   1.150   1.150
                                                       1.150   1.150

     PseudoPot. # 3 for H  read from file:
     /home/camp/zhonxu/pseudo/h_pbe_v1.uspp.F.UPF
     MD5 check sum: 3408e3ff4ec8b0a4e358431e7e038a48
     Pseudo is Ultrasoft, Zval =  1.0
     Generated by new atomic code, or converted to UPF format
     Using radial grid of  615 points,  2 beta functions with:
                l(1) =   0
                l(2) =   0
     Q(r) pseudized with  8 coefficients,  rinner =    0.700

     atomic species   valence    mass     pseudopotential
        O0             6.00    15.99940     O ( 1.00)
        Mn1           15.00    54.93800     Mn( 1.00)
        H2             1.00     1.00794     H ( 1.00)

     Starting magnetic structure
     atomic species   magnetization
        O0           0.000
        Mn1          0.600
        H2           0.000

     Simplified LDA+U calculation (l_max = 2) with parameters (eV):
     atomic species    L          U    alpha       J0     beta
        Mn1            2     8.0000   0.0000   0.0000   0.0000

     No symmetry found

   Cartesian axes

     site n.     atom                  positions (alat units)
         1           O0  tau(   1) = (   0.0000000   0.0000000   1.7039667  )
         2           O0  tau(   2) = (   0.0000000   0.5427791   1.7990026  )
         3           Mn1 tau(   3) = (   0.2500000   0.5427791   2.0508041  )
         4           Mn1 tau(   4) = (   0.0000000   0.0000000   2.0550422  )
         5           O0  tau(   5) = (   0.2500000   0.8684466   2.0455985  )
         6           O0  tau(   6) = (   0.2500000   0.2171117   2.0655915  )
         7           O0  tau(   7) = (   0.0000000   0.5427791   2.2789271  )
         8           O0  tau(   8) = (   0.0000000   0.0000000   2.4285983  )
         9           Mn1 tau(   9) = (   0.2500000   0.0000000   2.6602224  )
        10           Mn1 tau(  10) = (   0.0000000   0.5427791   2.6379721  )
        11           O0  tau(  11) = (   0.2500000   0.7598908   2.7074409  )
        12           O0  tau(  12) = (   0.2500000   0.3256675   2.7093297  )
        13           O0  tau(  13) = (   0.0000000   0.0000000   2.8947948  )
        14           O0  tau(  14) = (   0.5000000   0.0000000   1.7028151  )
        15           O0  tau(  15) = (   0.5000000   0.5427791   1.8006611  )
        16           Mn1 tau(  16) = (   0.7500000   0.5427791   2.0506659  )
        17           Mn1 tau(  17) = (   0.5000000   0.0000000   2.0532917  )
        18           O0  tau(  18) = (   0.7500000   0.8684466   2.0455524  )
        19           O0  tau(  19) = (   0.7500000   0.2171117   2.0664207  )
        20           O0  tau(  20) = (   0.5000000   0.5427791   2.2897528  )
        21           O0  tau(  21) = (   0.5000000   0.0000000   2.4286444  )
        22           Mn1 tau(  22) = (   0.7500000   0.0000000   2.6602224  )
        23           Mn1 tau(  23) = (   0.5000000   0.5427791   2.6460799  )
        24           O0  tau(  24) = (   0.7500000   0.7598908   2.7074409  )
        25           O0  tau(  25) = (   0.7500000   0.3256675   2.7094218  )
        26           O0  tau(  26) = (   0.5000000   0.0000000   2.8987105  )
        27           H2  tau(  27) = (   0.0006800   0.7050701   1.7308237  )
        28           H2  tau(  28) = (   0.5008000   0.7034526   1.7300866  )
        29           H2  tau(  29) = (   0.1608600   0.0506739   1.6570707  )
        30           H2  tau(  30) = (   0.6604400   0.0516509   1.6558269  )
        31           O0  tau(  31) = (   0.4997800   0.5431048   2.9994126  )

     number of k points=    20  Methfessel-Paxton smearing, width (Ry)=  0.0100
                       cart. coord. in units 2pi/alat
        k(    1) = (   0.0000000   0.0000000   0.0000000), wk =   0.0625000
        k(    2) = (   0.0000000   0.2302962   0.0000000), wk =   0.1250000
        k(    3) = (   0.0000000  -0.4605925   0.0000000), wk =   0.0625000
        k(    4) = (   0.2500000   0.0000000   0.0000000), wk =   0.1250000
        k(    5) = (   0.2500000   0.2302962   0.0000000), wk =   0.1250000
        k(    6) = (   0.2500000  -0.4605925   0.0000000), wk =   0.1250000
        k(    7) = (  -0.5000000   0.0000000   0.0000000), wk =   0.0625000
        k(    8) = (  -0.5000000   0.2302962   0.0000000), wk =   0.1250000
        k(    9) = (  -0.5000000  -0.4605925   0.0000000), wk =   0.0625000
        k(   10) = (  -0.2500000   0.2302962   0.0000000), wk =   0.1250000
        k(   11) = (   0.0000000   0.0000000   0.0000000), wk =   0.0625000
        k(   12) = (   0.0000000   0.2302962   0.0000000), wk =   0.1250000
        k(   13) = (   0.0000000  -0.4605925   0.0000000), wk =   0.0625000
        k(   14) = (   0.2500000   0.0000000   0.0000000), wk =   0.1250000
        k(   15) = (   0.2500000   0.2302962   0.0000000), wk =   0.1250000
        k(   16) = (   0.2500000  -0.4605925   0.0000000), wk =   0.1250000
        k(   17) = (  -0.5000000   0.0000000   0.0000000), wk =   0.0625000
        k(   18) = (  -0.5000000   0.2302962   0.0000000), wk =   0.1250000
        k(   19) = (  -0.5000000  -0.4605925   0.0000000), wk =   0.0625000
        k(   20) = (  -0.2500000   0.2302962   0.0000000), wk =   0.1250000

     Largest allocated arrays     est. size (Mb)     dimensions
     Largest temporary arrays     est. size (Mb)     dimensions

     Check: negative/imaginary core charge=   -0.000023    0.000000

     Initial potential from superposition of free atoms
     Check: negative starting charge=(component1):   -0.000719
     Check: negative starting charge=(component2):   -0.000353

     starting charge  229.99987, renormalised to  238.00000

     negative rho (up, down):  0.744E-03 0.365E-03
     Number of +U iterations with fixed ns =  0
     Starting occupations:
 --- enter write_ns ---
 LDA+U parameters:
U( 2)     =  8.00000000
alpha( 2) =  0.00000000
atom    3   Tr[ns(na)] (up, down, total) =   5.00000  0.00000  5.00000
   spin  1
    eigenvalues:
  1.000  1.000  1.000  1.000  1.000
    eigenvectors:
  1.000  0.000  0.000  0.000  0.000
  0.000  1.000  0.000  0.000  0.000
  0.000  0.000  1.000  0.000  0.000
  0.000  0.000  0.000  1.000  0.000
  0.000  0.000  0.000  0.000  1.000
    occupations:
  1.000  0.000  0.000  0.000  0.000
  0.000  1.000  0.000  0.000  0.000
  0.000  0.000  1.000  0.000  0.000
  0.000  0.000  0.000  1.000  0.000
  0.000  0.000  0.000  0.000  1.000
   spin  2
    eigenvalues:
  0.000  0.000  0.000  0.000  0.000
    eigenvectors:
  1.000  0.000  0.000  0.000  0.000
  0.000  1.000  0.000  0.000  0.000
  0.000  0.000  1.000  0.000  0.000
  0.000  0.000  0.000  1.000  0.000
  0.000  0.000  0.000  0.000  1.000
    occupations:
  0.000  0.000  0.000  0.000  0.000
  0.000  0.000  0.000  0.000  0.000
  0.000  0.000  0.000  0.000  0.000
  0.000  0.000  0.000  0.000  0.000
  0.000  0.000  0.000  0.000  0.000
atomic mag. moment =     5.000000
atom    4   Tr[ns(na)] (up, down, total) =   5.00000  0.00000  5.00000
   spin  1
    eigenvalues:
  1.000  1.000  1.000  1.000  1.000
    eigenvectors:
  1.000  0.000  0.000  0.000  0.000
  0.000  1.000  0.000  0.000  0.000
  0.000  0.000  1.000  0.000  0.000
  0.000  0.000  0.000  1.000  0.000
  0.000  0.000  0.000  0.000  1.000
    occupations:
  1.000  0.000  0.000  0.000  0.000
  0.000  1.000  0.000  0.000  0.000
  0.000  0.000  1.000  0.000  0.000
  0.000  0.000  0.000  1.000  0.000
  0.000  0.000  0.000  0.000  1.000
   spin  2
    eigenvalues:
  0.000  0.000  0.000  0.000  0.000
    eigenvectors:
  1.000  0.000  0.000  0.000  0.000
  0.000  1.000  0.000  0.000  0.000
  0.000  0.000  1.000  0.000  0.000
  0.000  0.000  0.000  1.000  0.000
  0.000  0.000  0.000  0.000  1.000
    occupations:
  0.000  0.000  0.000  0.000  0.000
  0.000  0.000  0.000  0.000  0.000
  0.000  0.000  0.000  0.000  0.000
  0.000  0.000  0.000  0.000  0.000
  0.000  0.000  0.000  0.000  0.000
atomic mag. moment =     5.000000
atom    9   Tr[ns(na)] (up, down, total) =   5.00000  0.00000  5.00000
   spin  1
    eigenvalues:
  1.000  1.000  1.000  1.000  1.000
    eigenvectors:
  1.000  0.000  0.000  0.000  0.000
[...]
 -0.000  0.006  0.001  0.000  0.065
atomic mag. moment =     3.868965
atom    4   Tr[ns(na)] (up, down, total) =   4.59894  0.69481  5.29376
   spin  1
    eigenvalues:
  0.762  0.832  0.997  1.003  1.004
    eigenvectors:
  0.000  0.997  0.001  0.002  0.000
  0.001  0.001  0.000  0.784  0.214
  0.000  0.001  0.000  0.213  0.785
  0.000  0.001  0.998  0.000  0.000
  0.999  0.000  0.000  0.001  0.000
    occupations:
  0.833 -0.005 -0.006  0.006 -0.000
 -0.005  1.003 -0.000  0.000  0.007
 -0.006 -0.000  1.004  0.000 -0.000
  0.006  0.000  0.000  0.997 -0.000
 -0.000  0.007 -0.000 -0.000  0.762
   spin  2
    eigenvalues:
  0.059  0.062  0.067  0.215  0.292
    eigenvectors:
  0.009  0.001  0.000  0.989  0.000
  0.051  0.047  0.899  0.001  0.003
  0.449  0.451  0.099  0.001  0.000
  0.491  0.500  0.000  0.009  0.000
  0.000  0.000  0.003  0.000  0.997
    occupations:
  0.213  0.004  0.006 -0.014  0.000
  0.004  0.067 -0.002  0.000 -0.012
  0.006 -0.002  0.062  0.001  0.000
 -0.014  0.000  0.001  0.062 -0.000
  0.000 -0.012  0.000 -0.000  0.292
atomic mag. moment =     3.904129
atom    9   Tr[ns(na)] (up, down, total) =   4.56520  0.75807  5.32327
   spin  1
    eigenvalues:
  0.777  0.799  0.993  0.995  1.001
    eigenvectors:
  0.238  0.000  0.000  0.000  0.762
  0.000  1.000  0.000  0.000  0.000
  0.000  0.000  0.049  0.951  0.000
  0.761  0.000  0.000  0.000  0.238
  0.000  0.000  0.951  0.049  0.000
    occupations:
  0.948  0.001 -0.000 -0.096  0.000
  0.001  0.799 -0.000 -0.000  0.001
 -0.000 -0.000  0.995 -0.000 -0.001
 -0.096 -0.000 -0.000  0.830  0.000
  0.000  0.001 -0.001  0.000  0.993
   spin  2
    eigenvalues:
  0.060  0.071  0.074  0.268  0.285
    eigenvectors:
  0.796  0.000  0.000  0.009  0.196
  0.000  0.000  0.000  0.961  0.039
  0.000  0.000  1.000  0.000  0.000
  0.204  0.000  0.000  0.030  0.766
  0.000  1.000  0.000  0.000  0.000
    occupations:
  0.106  0.000  0.000  0.090  0.000
  0.000  0.269  0.000  0.003 -0.000
  0.000  0.000  0.074  0.001 -0.000
  0.090  0.003  0.001  0.238 -0.000
  0.000 -0.000 -0.000 -0.000  0.071
atomic mag. moment =     3.807133
atom   10   Tr[ns(na)] (up, down, total) =   4.76317  0.49171  5.25487
   spin  1
    eigenvalues:
  0.798  0.974  0.997  0.998  0.998
    eigenvectors:
  0.000  0.968  0.000  0.031  0.001
  0.000  0.000  1.000  0.000  0.000
  0.000  0.000  0.000  0.046  0.954
  0.000  0.032  0.000  0.923  0.045
  1.000  0.000  0.000  0.000  0.000
    occupations:
  0.974  0.000 -0.000  0.004 -0.000
  0.000  0.997 -0.000  0.000 -0.001
 -0.000 -0.000  0.998  0.000 -0.000
  0.004  0.000  0.000  0.997 -0.000
 -0.000 -0.001 -0.000 -0.000  0.798
   spin  2
    eigenvalues:
  0.048  0.052  0.059  0.103  0.230
    eigenvectors:
  0.041  0.000  0.000  0.959  0.000
  0.000  0.000  1.000  0.000  0.000
  0.000  1.000  0.000  0.000  0.000
  0.959  0.000  0.000  0.041  0.000
  0.000  0.000  0.000  0.000  1.000
    occupations:
  0.101  0.000 -0.000 -0.011  0.000
  0.000  0.059  0.000  0.000  0.001
 -0.000  0.000  0.052 -0.000  0.000
 -0.011  0.000 -0.000  0.050 -0.000
  0.000  0.001  0.000 -0.000  0.230
atomic mag. moment =     4.271460
atom   16   Tr[ns(na)] (up, down, total) =   4.58360  0.71469  5.29829
   spin  1
    eigenvalues:
  0.778  0.799  1.000  1.002  1.004
    eigenvectors:
  0.260  0.000  0.000  0.580  0.161
  0.002  0.996  0.001  0.001  0.000
  0.000  0.000  0.001  0.218  0.781
  0.739  0.003  0.000  0.201  0.058
  0.000  0.001  0.998  0.000  0.000
    occupations:
  0.944 -0.007 -0.000 -0.098 -0.000
 -0.007  0.800 -0.001  0.003 -0.007
 -0.000 -0.001  1.004  0.001  0.000
 -0.098  0.003  0.001  0.836  0.000
 -0.000 -0.007  0.000  0.000  1.000
   spin  2
    eigenvalues:
  0.052  0.065  0.074  0.237  0.288
    eigenvectors:
  0.769  0.000  0.000  0.005  0.226
  0.000  0.001  0.000  0.985  0.014
  0.001  0.021  0.978  0.000  0.001
  0.230  0.000  0.002  0.009  0.759
  0.000  0.978  0.020  0.001  0.000
    occupations:
  0.106 -0.000 -0.004  0.099  0.000
 -0.000  0.237  0.000 -0.007  0.006
 -0.004  0.000  0.073 -0.005 -0.001
  0.099 -0.007 -0.005  0.233 -0.000
  0.000  0.006 -0.001 -0.000  0.065
atomic mag. moment =     3.868914
atom   17   Tr[ns(na)] (up, down, total) =   4.60058  0.69262  5.29320
   spin  1
    eigenvalues:
  0.762  0.833  0.997  1.004  1.004
    eigenvectors:
  0.000  0.996  0.002  0.002  0.000
  0.001  0.001  0.000  0.688  0.310
  0.000  0.001  0.000  0.309  0.690
  0.000  0.001  0.998  0.000  0.000
  0.999  0.000  0.000  0.001  0.000
    occupations:
  0.834 -0.005 -0.006  0.006 -0.000
 -0.005  1.004 -0.000  0.000  0.007
 -0.006 -0.000  1.004  0.000 -0.000
  0.006  0.000  0.000  0.997 -0.000
 -0.000  0.007 -0.000 -0.000  0.762
   spin  2
    eigenvalues:
  0.059  0.062  0.067  0.213  0.292
    eigenvectors:
  0.010  0.002  0.000  0.989  0.000
  0.062  0.055  0.880  0.001  0.003
  0.473  0.408  0.118  0.001  0.000
  0.455  0.536  0.000  0.009  0.000
  0.000  0.000  0.002  0.000  0.997
    occupations:
  0.211  0.004  0.006 -0.014  0.000
  0.004  0.067 -0.002  0.000 -0.012
  0.006 -0.002  0.061  0.001 -0.000
 -0.014  0.000  0.001  0.062 -0.000
  0.000 -0.012 -0.000 -0.000  0.291
atomic mag. moment =     3.907962
atom   22   Tr[ns(na)] (up, down, total) =   4.56532  0.75786  5.32318
   spin  1
    eigenvalues:
  0.777  0.799  0.993  0.995  1.001
    eigenvectors:
  0.238  0.000  0.000  0.000  0.762
  0.000  1.000  0.000  0.000  0.000
  0.000  0.000  0.051  0.949  0.000
  0.762  0.000  0.000  0.000  0.238
  0.000  0.000  0.949  0.051  0.000
    occupations:
  0.948 -0.001 -0.000 -0.096  0.000
 -0.001  0.799  0.000  0.001  0.000
 -0.000  0.000  0.995 -0.000  0.001
 -0.096  0.001 -0.000  0.830 -0.000
  0.000  0.000  0.001 -0.000  0.993
   spin  2
    eigenvalues:
  0.060  0.070  0.074  0.268  0.285
    eigenvectors:
  0.796  0.000  0.000  0.009  0.196
  0.000  0.000  0.000  0.962  0.038
  0.000  0.000  1.000  0.000  0.000
  0.204  0.000  0.000  0.029  0.766
  0.000  1.000  0.000  0.000  0.000
    occupations:
  0.106 -0.000  0.000  0.090 -0.000
 -0.000  0.269 -0.000 -0.003 -0.000
  0.000 -0.000  0.074  0.001  0.000
  0.090 -0.003  0.001  0.238  0.000
 -0.000 -0.000  0.000  0.000  0.070
atomic mag. moment =     3.807460
atom   23   Tr[ns(na)] (up, down, total) =   4.65517  0.62636  5.28153
   spin  1
    eigenvalues:
  0.806  0.847  1.000  1.001  1.001
    eigenvectors:
  0.000  0.999  0.000  0.001  0.000
  0.000  0.000  1.000  0.000  0.000
  0.000  0.000  0.000  0.002  0.998
  0.000  0.001  0.000  0.997  0.002
  1.000  0.000  0.000  0.000  0.000
    occupations:
  0.847 -0.000  0.001  0.006  0.000
 -0.000  1.000 -0.000  0.000 -0.001
  0.001 -0.000  1.001 -0.000  0.000
  0.006  0.000 -0.000  1.000  0.000
  0.000 -0.001  0.000  0.000  0.806
   spin  2
    eigenvalues:
  0.053  0.061  0.066  0.197  0.250
    eigenvectors:
  0.010  0.000  0.000  0.990  0.000
  0.000  0.000  1.000  0.000  0.000
  0.000  1.000  0.000  0.000  0.000
  0.990  0.000  0.000  0.010  0.000
  0.000  0.000  0.000  0.000  1.000
    occupations:
  0.196  0.000 -0.000 -0.014 -0.000
  0.000  0.066 -0.000 -0.000  0.001
 -0.000 -0.000  0.061 -0.000 -0.000
 -0.014 -0.000 -0.000  0.054  0.000
 -0.000  0.001 -0.000  0.000  0.250
atomic mag. moment =     4.028817
N of occupied +U levels =  42.3665020
 --- exit write_ns ---

 ------ SPIN UP ------------

[...]

 ------ SPIN DOWN ----------

[...]

          k = 0.2500-0.4606 0.0000 ( 26462 PWs)   bands (ev):

[...]

          k =-0.2500 0.2303 0.0000 ( 26396 PWs)   bands (ev):

   -79.8115 -79.8038 -79.7417 -79.7337 -79.5836 -79.5666 -79.5506 -78.8539
   -48.7121 -48.6809 -48.6730 -48.6335 -48.6240 -48.6189 -48.6159 -48.5923
   -48.5526 -48.5369 -48.5360 -48.4888 -48.4826 -48.4725 -48.4552 -48.4511
   -48.4281 -48.3806 -48.2904 -48.2311 -48.2120 -47.8974 -47.8037 -47.4383
   -21.6988 -21.5115 -21.1974 -20.9997 -20.8518 -20.7010 -20.4791 -20.4507
   -20.3742 -20.2756 -20.1960 -20.1186 -20.0532 -20.0034 -19.9285 -19.8000
   -19.7126 -19.6464 -19.5029  -8.9136  -8.6467  -8.3422  -8.2384  -8.2134
    -7.9829  -7.8785  -7.7219  -7.4302  -7.2142  -7.1970  -7.0298  -7.0179
    -6.9297  -6.8205  -6.7372  -6.6967  -6.6189  -6.4146  -6.3270  -6.2806
    -6.2383  -6.1616  -6.1062  -5.9781  -5.9282  -5.8486  -5.7629  -5.7086
    -5.6988  -5.6018  -5.4875  -5.4572  -5.3249  -5.2283  -5.1927  -5.0934
    -5.0438  -5.0001  -4.8918  -4.7843  -4.7385  -4.6337  -4.5644  -4.4795
    -4.4314  -4.3860  -4.3413  -4.2280  -4.0822  -4.0296  -3.8255  -3.7072
    -3.6727  -3.4475  -3.3388  -3.1227   2.2276   2.3404   2.3786   2.4050
     2.5134   2.5381   2.5604   2.5749   2.6022   2.6962   2.7171   2.7610
     2.7932   2.8032   2.8445   2.9392   2.9545   3.0614   3.1342   3.1589
     3.1954   3.2781   3.3056   3.3275   3.3466   3.4191   3.5123   3.5456
     3.5880   3.6087   3.6687   3.6976   3.7577   3.8293   3.8466   3.8902
     3.9526   3.9640   4.0526   4.0851   4.1779   4.4051   4.6536   5.1149
     5.5373   5.6849   5.8291   6.2985   6.3627   6.4498   6.6133   6.6689
     6.8650   7.0350   7.1319   7.4077   7.5658   7.6956   7.8991   8.0259
     8.1224   8.2330   8.4512   8.5235   8.6581   8.7011   8.9392   9.0921
     9.1964   9.2821   9.3520   9.4316   9.5596   9.8816   9.9574  10.0140
    10.1759  10.2450  10.2989  10.4146  10.4648  10.5420  10.7141  10.7928
    10.9345  10.9782  11.0365  11.2550  11.2952  11.3230  11.4827  11.5565
    11.6391  11.7012  11.7806  11.8556  11.9496  12.0255  12.1447  12.2698
    12.3670  12.4480  12.5458  12.5702  12.6154  12.7121  12.8612  12.9440
    12.9849  13.0334  13.0669  13.1526  13.2088  13.2493  13.3256  13.3646
    13.4431  13.5321  13.5612  13.6316  13.7461  13.7733  13.8336  13.8824
    14.0483  14.1107  14.1738  14.2344  14.2667  14.4078  14.4508  14.5135
    14.6454  14.6776  14.8111  14.9273  15.0688  15.0826  15.1503  15.2137
    15.2692  15.3819  15.5129  15.5836  15.7094  15.8015  15.9027  15.9877
    16.1263  16.1641  16.2664  16.2947  16.3631  16.4671  16.5472  16.5995
    16.6656  16.7241  16.8157  16.8269  16.9696  17.0848  17.1467  17.1874
    17.2981  17.4018  17.4563  17.5555  17.5837  17.6193  17.7199  17.8084
    17.8460  17.9315  17.9924  18.1347  18.1908  18.2592  18.3675  18.4136
    18.4896  18.5673  18.6279  18.7213  18.7938  18.8511  18.8781  18.9947
    19.0664  19.1513  19.1803  19.2655  19.3088  19.3677  19.4272  19.5082
    19.6544  19.7081  19.7949  19.9312  19.9539  20.0198  20.0951  20.1400
    20.2328  20.2616  20.3124  20.3670  20.4340  20.5110  20.6065  20.6724
    20.7947  20.8650  20.9561  21.0200  21.0703  21.1648  21.2146  21.2651
    21.3257  21.4118  21.4842  21.5715  21.6019  21.6988  21.7426  21.8191
    21.8635  21.9497  22.0492  22.1129  22.2175  22.3196  22.4340  22.4760
    22.5334

     the spin up/dw Fermi energies are    -2.4832   -0.4589 ev

!    total energy              =   -2318.09829169 Ry
     Harris-Foulkes estimate   =   -2318.09829169 Ry
     estimated scf accuracy    <          1.7E-09 Ry

     The total energy is the sum of the following terms:

     one-electron contribution =  -25499.56961826 Ry
     hartree contribution      =   12769.27479095 Ry
     xc contribution           =    -349.20518349 Ry
     ewald contribution        =   10759.40205995 Ry
     Hubbard energy            =       1.99850465 Ry
     smearing contrib. (-TS)   =       0.00115451 Ry

     total magnetization       =    22.00 Bohr mag/cell
     absolute magnetization    =    41.62 Bohr mag/cell

     convergence has been achieved in  15 iterations

     Forces acting on atoms (Ry/au):

     negative rho (up, down):  0.137E-02 0.146E-02
     atom    1 type  1   force =    -0.00318155   -0.01042400   -0.00031242
     atom    2 type  1   force =     0.00038481    0.00626715    0.00008022
     atom    3 type  2   force =     0.00227342    0.00213298   -0.00018978
     atom    4 type  2   force =     0.00515020    0.00790746    0.00018255
     atom    5 type  1   force =     0.00092047    0.00642589   -0.00011053
     atom    6 type  1   force =    -0.00079767   -0.01152976    0.00005550
     atom    7 type  1   force =     0.00009859    0.00382728   -0.00047647
     atom    8 type  1   force =    -0.00112962   -0.00336929    0.00033601
     atom    9 type  2   force =     0.00775966    0.00030237   -0.00020411
     atom   10 type  2   force =    -0.00019116   -0.00186905   -0.00013876
     atom   11 type  1   force =    -0.00640244   -0.01381314    0.00008930
     atom   12 type  1   force =    -0.00643379    0.01509015    0.00017450
     atom   13 type  1   force =    -0.00036638   -0.00038535   -0.00010312
     atom   14 type  1   force =    -0.00391206   -0.01047211   -0.00022335
     atom   15 type  1   force =     0.00062389    0.00503454    0.00018705
     atom   16 type  2   force =    -0.00381284    0.00201310   -0.00017340
     atom   17 type  2   force =     0.00529589    0.00809824    0.00029639
     atom   18 type  1   force =     0.00094979    0.00634143   -0.00001749
     atom   19 type  1   force =    -0.00250954   -0.01140796   -0.00006366
     atom   20 type  1   force =     0.00002644    0.00462865   -0.00028242
     atom   21 type  1   force =    -0.00130570   -0.00330899    0.00040634
     atom   22 type  2   force =    -0.00646714    0.00021183   -0.00022468
     atom   23 type  2   force =     0.00006940   -0.00209311    0.00020031
     atom   24 type  1   force =     0.00641657   -0.01381742    0.00008888
     atom   25 type  1   force =     0.00659984    0.01512574    0.00017374
     atom   26 type  1   force =    -0.00036208   -0.00061274   -0.00030236
     atom   27 type  3   force =    -0.00002417   -0.00005737    0.00001159
     atom   28 type  3   force =    -0.00003593   -0.00008039    0.00004644
     atom   29 type  3   force =     0.00020531   -0.00006403    0.00014728
     atom   30 type  3   force =     0.00016663   -0.00001132    0.00017502
     atom   31 type  1   force =    -0.00000885   -0.00009077    0.00017142

     Total force =     0.001220     Total SCF correction =     0.000194
     SCF correction compared to forces is large: reduce conv_thr to get better values

     entering subroutine stress ...

     negative rho (up, down):  0.137E-02 0.146E-02
          total   stress  (Ry/bohr**3)                   (kbar)     P=   48.15
   0.00053013  -0.00000136   0.00000236         77.99     -0.20      0.35
  -0.00000136   0.00049053   0.00000358         -0.20     72.16      0.53
   0.00000236   0.00000358  -0.00003870          0.35      0.53     -5.69

     bfgs converged in  13 scf cycles and  12 bfgs steps
     (criteria: energy < 0.10E-03, force < 0.10E-02)

     End of BFGS Geometry Optimization

     Final energy   =   -2318.0982916914 Ry
Begin final coordinates

ATOMIC_POSITIONS (crystal)
O0       0.000000000   0.000000000   0.370472929    0   0   1
O0       0.000000000   0.500000000   0.390053920    0   0   1
Mn1      0.250000000   0.500000000   0.444559669    0   0   1
Mn1      0.000000000   0.000000000   0.446705624    0   0   1
O0       0.250000000   0.800000000   0.443980545    0   0   1
O0       0.250000000   0.200000000   0.449834028    0   0   1
O0       0.000000000   0.500000000   0.494117831    0   0   1
O0       0.000000000   0.000000000   0.527706865    0   0   1
Mn1      0.250000000   0.000000000   0.578050011    0   0   1
Mn1      0.000000000   0.500000000   0.572564632    0   0   1
O0       0.250000000   0.700000000   0.587112034    0   0   1
O0       0.250000000   0.300000000   0.587565277    0   0   1
O0       0.000000000   0.000000000   0.628803311    0   0   1
O0       0.500000000   0.000000000   0.370154072    0   0   1
O0       0.500000000   0.500000000   0.390155627    0   0   1
Mn1      0.750000000   0.500000000   0.444539103    0   0   1
Mn1      0.500000000   0.000000000   0.446304615    0   0   1
O0       0.750000000   0.800000000   0.444099972    0   0   1
O0       0.750000000   0.200000000   0.449921167    0   0   1
O0       0.500000000   0.500000000   0.496327646    0   0   1
O0       0.500000000   0.000000000   0.527721235    0   0   1
Mn1      0.750000000   0.000000000   0.578046833    0   0   1
Mn1      0.500000000   0.500000000   0.573410634    0   0   1
O0       0.750000000   0.700000000   0.587114498    0   0   1
O0       0.750000000   0.300000000   0.587593401    0   0   1
O0       0.500000000   0.000000000   0.629621591    0   0   1
H2       0.000717950   0.649458536   0.375248560
H2       0.500893697   0.648358821   0.374958496
H2       0.161242927   0.045671670   0.360288479
H2       0.660361521   0.047738879   0.359941397
O0       0.499689403   0.500154539   0.650155995
End final coordinates

     General routines

     Parallel routines
     Hubbard U routines

   This run was terminated on:   3:20:50  26May2014

   JOB DONE.