     Program PWSCF v.5.0.2 (svn rev. 9656) starts on 23Jan2014 at 18:25:57

     Current dimensions of program PWSCF are:
     Max number of different atomic species (ntypx) = 10
     Max number of k-points (npk) =  40000
     Max angular momentum in pseudopotentials (lmaxx) =  3
     Reading input from SnO2-v-1.0.in

     Subspace diagonalization in iterative solution of the eigenvalue problem:
     a serial algorithm will be used

     bravais-lattice index     =            0
     lattice parameter (alat)  =       8.6590  a.u.
     unit-cell volume          =     418.3967 (a.u.)^3
     number of atoms/cell      =            6
     number of atomic types    =            2
     number of electrons       =        52.00
     number of Kohn-Sham states=           75
     kinetic-energy cutoff     =      40.0000  Ry
     charge density cutoff     =     500.0000  Ry
     convergence threshold     =      1.0E-06
     mixing beta               =       0.7000
     number of iterations used =            8  plain     mixing
     Exchange-correlation      = SLA  PW   PBE  PBE ( 1 4 3 4 0)
     EXX-fraction              =        0.00
     nstep                     =           50

     celldm(1)=   8.658997  celldm(2)=   0.000000  celldm(3)=   0.000000
     celldm(4)=   0.000000  celldm(5)=   0.000000  celldm(6)=   0.000000

     crystal axes: (cart. coord. in units of alat)
               a(1) = (   1.000000   0.000000   0.000000 )
               a(2) = (   0.000000   1.000000   0.000000 )
               a(3) = (   0.000000   0.000000   0.644444 )

     reciprocal axes: (cart. coord. in units 2 pi/alat)
               b(1) = (  1.000000  0.000000  0.000000 )
               b(2) = (  0.000000  1.000000  0.000000 )
               b(3) = (  0.000000  0.000000  1.551724 )

     PseudoPot. # 1 for Sn read from file:
     /home/camp/zhonxu/pseudo/sn_pbe_v1.uspp.F.UPF
     MD5 check sum: 4cf58ce39ec5d5d420df3dd08604eb00
     Pseudo is Ultrasoft + core correction, Zval = 14.0
     Generated by new atomic code, or converted to UPF format
     Using radial grid of  891 points,  6 beta functions with:
                l(1) =   0
                l(2) =   0
                l(3) =   1
                l(4) =   1
                l(5) =   2
                l(6) =   2
     Q(r) pseudized with  6 coefficients,  rinner =    1.200   1.200   1.200
                                                       1.200   1.200

     PseudoPot. # 2 for O  read from file:
     /home/camp/zhonxu/pseudo/o_pbe_v1.01.uspp.F.UPF
     MD5 check sum: 2bcb18d16ea4b960afae9ec6d52f22d2
     Pseudo is Ultrasoft + core correction, Zval =  6.0
     Generated by new atomic code, or converted to UPF format
     Using radial grid of  737 points,  5 beta functions with:
                l(1) =   0
                l(2) =   0
                l(3) =   1
                l(4) =   1
                l(5) =   2
     Q(r) pseudized with  8 coefficients,  rinner =    0.900   0.900   0.900
                                                       0.900   0.900

     atomic species   valence    mass     pseudopotential
        Sn0           14.00   118.71000     Sn( 1.00)
        O1             6.00    15.99940     O ( 1.00)

     Starting magnetic structure
     atomic species   magnetization
        Sn0          0.600
        O1           0.000

     16 Sym. Ops., with inversion, found ( 8 have fractional translation)

   Cartesian axes

     site n.     atom                  positions (alat units)
         1           Sn0 tau(   1) = (   0.0000000   0.0000000   0.0000000  )
         2           Sn0 tau(   2) = (   0.5000000   0.5000000   0.3222222  )
         3           O1  tau(   3) = (   0.3050000   0.3050000   0.0000000  )
         4           O1  tau(   4) = (  -0.3050000  -0.3050000   0.0000000  )
         5           O1  tau(   5) = (   0.8050000   0.1950000   0.3222222  )
         6           O1  tau(   6) = (   0.1950000   0.8050000   0.3222222  )

     number of k points=    36  Methfessel-Paxton smearing, width (Ry)=  0.0100
                       cart. coord. in units 2pi/alat
        k(    1) = (   0.0000000   0.0000000   0.0000000), wk =   0.0080000
        k(    2) = (   0.0000000   0.0000000   0.3103448), wk =   0.0160000
        k(    3) = (   0.0000000   0.0000000   0.6206897), wk =   0.0160000
        k(    4) = (   0.0000000   0.2000000   0.0000000), wk =   0.0320000
        k(    5) = (   0.0000000   0.2000000   0.3103448), wk =   0.0640000
        k(    6) = (   0.0000000   0.2000000   0.6206897), wk =   0.0640000
        k(    7) = (   0.0000000   0.4000000   0.0000000), wk =   0.0320000
        k(    8) = (   0.0000000   0.4000000   0.3103448), wk =   0.0640000
        k(    9) = (   0.0000000   0.4000000   0.6206897), wk =   0.0640000
        k(   10) = (   0.2000000   0.2000000   0.0000000), wk =   0.0320000
        k(   11) = (   0.2000000   0.2000000   0.3103448), wk =   0.0640000
        k(   12) = (   0.2000000   0.2000000   0.6206897), wk =   0.0640000
        k(   13) = (   0.2000000   0.4000000   0.0000000), wk =   0.0640000
        k(   14) = (   0.2000000   0.4000000   0.3103448), wk =   0.1280000
        k(   15) = (   0.2000000   0.4000000   0.6206897), wk =   0.1280000
        k(   16) = (   0.4000000   0.4000000   0.0000000), wk =   0.0320000
        k(   17) = (   0.4000000   0.4000000   0.3103448), wk =   0.0640000
        k(   18) = (   0.4000000   0.4000000   0.6206897), wk =   0.0640000
        k(   19) = (   0.0000000   0.0000000   0.0000000), wk =   0.0080000
        k(   20) = (   0.0000000   0.0000000   0.3103448), wk =   0.0160000
        k(   21) = (   0.0000000   0.0000000   0.6206897), wk =   0.0160000
        k(   22) = (   0.0000000   0.2000000   0.0000000), wk =   0.0320000
        k(   23) = (   0.0000000   0.2000000   0.3103448), wk =   0.0640000
        k(   24) = (   0.0000000   0.2000000   0.6206897), wk =   0.0640000
        k(   25) = (   0.0000000   0.4000000   0.0000000), wk =   0.0320000
        k(   26) = (   0.0000000   0.4000000   0.3103448), wk =   0.0640000
        k(   27) = (   0.0000000   0.4000000   0.6206897), wk =   0.0640000
        k(   28) = (   0.2000000   0.2000000   0.0000000), wk =   0.0320000
        k(   29) = (   0.2000000   0.2000000   0.3103448), wk =   0.0640000
        k(   30) = (   0.2000000   0.2000000   0.6206897), wk =   0.0640000
        k(   31) = (   0.2000000   0.4000000   0.0000000), wk =   0.0640000
        k(   32) = (   0.2000000   0.4000000   0.3103448), wk =   0.1280000
        k(   33) = (   0.2000000   0.4000000   0.6206897), wk =   0.1280000
        k(   34) = (   0.4000000   0.4000000   0.0000000), wk =   0.0320000
        k(   35) = (   0.4000000   0.4000000   0.3103448), wk =   0.0640000
        k(   36) = (   0.4000000   0.4000000   0.6206897), wk =   0.0640000

     Largest allocated arrays     est. size (Mb)     dimensions
     Largest temporary arrays     est. size (Mb)     dimensions

     Check: negative/imaginary core charge=   -0.000004    0.000000

     Initial potential from superposition of free atoms

     starting charge   49.99990, renormalised to   52.00000
     Starting wfc are   34 randomized atomic wfcs

     Self-consistent Calculation

     iteration #  1     ecut=    40.00 Ry     beta=0.70
     Davidson diagonalization with overlap
     ethr =  1.00E-02,  avg # of iterations =  5.1

     total energy              =    -454.45769504 Ry
     Harris-Foulkes estimate   =    -454.68483884 Ry
     estimated scf accuracy    <       3.54821034 Ry

     total magnetization       =    -0.00 Bohr mag/cell
     absolute magnetization    =     0.79 Bohr mag/cell

[...]

     End of self-consistent calculation

 ------ SPIN UP ------------

          k = 0.0000 0.0000 0.0000 (  1819 PWs)   bands (ev):

    -9.6928  -8.9196  -7.9460  -7.8996  -7.8996  -7.8695  -7.6800  -7.5110
    -7.4936  -7.4936  -7.4931  -5.8482  -5.8482  -3.0210   3.2367   7.0580
     7.0580   7.7665   8.1339   9.8088  10.1445  10.9085  10.9085  10.9283
    10.9283  11.8747  15.0500  19.4308  19.4308  19.9942  22.8732  24.5198
    25.5349  25.6223  25.6223  25.6442  30.0121  30.1558  32.4502  33.0499
    33.0499  33.1263  33.3635  33.3800  33.8267  33.8267  34.2331  34.2331
    35.9042  36.0101  36.4479  36.6939  40.0264  40.0264  42.3262  42.3757
    42.4049  42.4049  44.9941  44.9941  45.0798  46.0869  48.0149  48.3401
    48.6355  48.6355  48.8250  50.1914  50.1914  50.5424  51.2543  51.8415
    52.0590  52.0590  52.8343

[...]

 ------ SPIN DOWN ----------

[...]

     the Fermi energy is    14.9355 ev

!    total energy              =    -455.33950890 Ry
     Harris-Foulkes estimate   =    -455.33950879 Ry
     estimated scf accuracy    <       0.00000008 Ry

     The total energy is the sum of the following terms:

     one-electron contribution =    -109.59380785 Ry
     hartree contribution      =     101.05438849 Ry
     xc contribution           =    -125.56455151 Ry
     ewald contribution        =    -321.23554268 Ry
     smearing contrib. (-TS)   =       0.00000464 Ry

[...]

     convergence has been achieved in   7 iterations

     Forces acting on atoms (Ry/au):

     atom    1 type  1   force =     0.00000000    0.00000000    0.00000000
     atom    2 type  1   force =     0.00000000    0.00000000   -0.00000000
     atom    3 type  2   force =    -0.03146033   -0.03146033    0.00000000
     atom    4 type  2   force =     0.03146033    0.03146033    0.00000000
     atom    5 type  2   force =    -0.03146033    0.03146033   -0.00000000
     atom    6 type  2   force =     0.03146033   -0.03146033    0.00000000

     Total force =     0.088983     Total SCF correction =     0.000174

     entering subroutine stress ...

          total   stress  (Ry/bohr**3)                   (kbar)     P=  604.00
   0.00341867   0.00000000   0.00000000        502.90      0.00      0.00
   0.00000000   0.00341867   0.00000000          0.00    502.90      0.00
   0.00000000   0.00000000   0.00548036          0.00      0.00    806.19

     Volume is kept fixed: isostatic pressure set to zero

     BFGS Geometry Optimization

     number of scf cycles    =   1
     number of bfgs steps    =   0

     enthalpy new            =    -455.3395089020 Ry

     new trust radius        =       0.1405711617 bohr
     new conv_thr            =       0.0000010000 Ry

     new unit-cell volume =    418.39674 a.u.^3 (    62.00000 Ang^3 )

CELL_PARAMETERS (alat=  8.65899730)
   0.983106202   0.000000000   0.000000000
   0.000000000   0.983106202   0.000000000
   0.000000000   0.000000000   0.666783144

ATOMIC_POSITIONS (crystal)
Sn0      0.000000000   0.000000000   0.000000000    0   0   0
Sn0      0.500000000   0.500000000   0.500000000    0   0   0
O1       0.301366747   0.301366747   0.000000000    1   1   0
O1      -0.301366747  -0.301366747   0.000000000    1   1   0
O1       0.801366747   0.198633253   0.500000000    1   1   0
O1       0.198633253   0.801366747   0.500000000    1   1   0

     NEW-OLD atomic charge density approx. for the potential
     NEW k-points:
        k(    1) = (   0.0000000   0.0000000   0.0000000), wk =   0.0080000
[...]
        k(   20) = (   0.0000000   0.0000000   0.2930310), wk =   0.0160000
        k(   21) = (   0.0000000   0.0000000   0.5860620), wk =   0.0160000
        k(   22) = (   0.0000000   0.2058237   0.0000000), wk =   0.0320000
        k(   23) = (   0.0000000   0.2058237   0.2930310), wk =   0.0640000
        k(   24) = (   0.0000000   0.2058237   0.5860620), wk =   0.0640000
        k(   25) = (   0.0000000   0.4116475   0.0000000), wk =   0.0320000
        k(   26) = (   0.0000000   0.4116475   0.2930310), wk =   0.0640000
        k(   27) = (   0.0000000   0.4116475   0.5860620), wk =   0.0640000
        k(   28) = (   0.2058237   0.2058237   0.0000000), wk =   0.0320000
        k(   29) = (   0.2058237   0.2058237   0.2930310), wk =   0.0640000
        k(   30) = (   0.2058237   0.2058237   0.5860620), wk =   0.0640000
        k(   31) = (   0.2058237   0.4116475   0.0000000), wk =   0.0640000
        k(   32) = (   0.2058237   0.4116475   0.2930310), wk =   0.1280000
        k(   33) = (   0.2058237   0.4116475   0.5860620), wk =   0.1280000
        k(   34) = (   0.4116475   0.4116475   0.0000000), wk =   0.0320000
        k(   35) = (   0.4116475   0.4116475   0.2930310), wk =   0.0640000
        k(   36) = (   0.4116475   0.4116475   0.5860620), wk =   0.0640000

[...]

     Threshold (ethr) on eigenvalues was too large:
     Diagonalizing with lowered threshold

     Davidson diagonalization with overlap
     ethr =  7.56E-12,  avg # of iterations =  2.7

[...]

     Total force =     0.000003     Total SCF correction =     0.000128
     SCF correction compared to forces is large: reduce conv_thr to get better values

[...]

     Volume is kept fixed: isostatic pressure set to zero
Begin final coordinates
     new unit-cell volume =    418.39674 a.u.^3 (    62.00000 Ang^3 )

[...]

ATOMIC_POSITIONS (crystal)
Sn0      0.000000000   0.000000000   0.000000000    0   0   0
Sn0      0.500000000   0.500000000   0.500000000    0   0   0
O1       0.305693602   0.305693602   0.000000000    1   1   0
O1      -0.305693602  -0.305693602   0.000000000    1   1   0
O1       0.805693602   0.194306398   0.500000000    1   1   0
O1       0.194306398   0.805693602   0.500000000    1   1   0
End final coordinates

     lsda relaxation :  a final configuration with zero
                        absolute magnetization has been found

     the program is checking if it is really the minimum energy structure
     by performing a new scf iteration without any "electronic" history

[...]

     starting charge   49.99990, renormalised to   52.00000
     Starting wfc are   34 randomized atomic wfcs
     NEW-OLD atomic charge density approx. for the potential
     NEW k-points:
        k(    1) = (   0.0000000   0.0000000   0.0000000), wk =   0.0080000
        k(    2) = (   0.0000000   0.0000000   0.2930310), wk =   0.0160000
        k(    3) = (   0.0000000   0.0000000   0.5860620), wk =   0.0160000
        k(    4) = (   0.0000000   0.2058237   0.0000000), wk =   0.0320000
        k(    5) = (   0.0000000   0.2058237   0.2930310), wk =   0.0640000
        k(    6) = (   0.0000000   0.2058237   0.5860620), wk =   0.0640000
        k(    7) = (   0.0000000   0.4116475   0.0000000), wk =   0.0320000
        k(    8) = (   0.0000000   0.4116475   0.2930310), wk =   0.0640000
        k(    9) = (   0.0000000   0.4116475   0.5860620), wk =   0.0640000
        k(   10) = (   0.2058237   0.2058237   0.0000000), wk =   0.0320000
        k(   11) = (   0.2058237   0.2058237   0.2930310), wk =   0.0640000
        k(   12) = (   0.2058237   0.2058237   0.5860620), wk =   0.0640000
        k(   13) = (   0.2058237   0.4116475   0.0000000), wk =   0.0640000
        k(   14) = (   0.2058237   0.4116475   0.2930310), wk =   0.1280000
        k(   15) = (   0.2058237   0.4116475   0.5860620), wk =   0.1280000
        k(   16) = (   0.4116475   0.4116475   0.0000000), wk =   0.0320000
        k(   17) = (   0.4116475   0.4116475   0.2930310), wk =   0.0640000
        k(   18) = (   0.4116475   0.4116475   0.5860620), wk =   0.0640000
        k(   19) = (   0.0000000   0.0000000   0.0000000), wk =   0.0080000
        k(   20) = (   0.0000000   0.0000000   0.2930310), wk =   0.0160000
        k(   21) = (   0.0000000   0.0000000   0.5860620), wk =   0.0160000
        k(   22) = (   0.0000000   0.2058237   0.0000000), wk =   0.0320000
        k(   23) = (   0.0000000   0.2058237   0.2930310), wk =   0.0640000
        k(   24) = (   0.0000000   0.2058237   0.5860620), wk =   0.0640000
        k(   25) = (   0.0000000   0.4116475   0.0000000), wk =   0.0320000
        k(   26) = (   0.0000000   0.4116475   0.2930310), wk =   0.0640000
        k(   27) = (   0.0000000   0.4116475   0.5860620), wk =   0.0640000
        k(   28) = (   0.2058237   0.2058237   0.0000000), wk =   0.0320000
        k(   29) = (   0.2058237   0.2058237   0.2930310), wk =   0.0640000
        k(   30) = (   0.2058237   0.2058237   0.5860620), wk =   0.0640000
        k(   31) = (   0.2058237   0.4116475   0.0000000), wk =   0.0640000
        k(   32) = (   0.2058237   0.4116475   0.2930310), wk =   0.1280000
        k(   33) = (   0.2058237   0.4116475   0.5860620), wk =   0.1280000
        k(   34) = (   0.4116475   0.4116475   0.0000000), wk =   0.0320000
        k(   35) = (   0.4116475   0.4116475   0.2930310), wk =   0.0640000
        k(   36) = (   0.4116475   0.4116475   0.5860620), wk =   0.0640000

[...]

     Total force =     0.000028     Total SCF correction =     0.000006
     SCF correction compared to forces is large: reduce conv_thr to get better values

[...]

     Volume is kept fixed: isostatic pressure set to zero

     bfgs converged in   6 scf cycles and   5 bfgs steps
     (criteria: energy < 0.10E-03, force < 0.10E-02, cell < 0.50E+00)

     End of BFGS Geometry Optimization

     Final enthalpy =    -455.3630092091 Ry
Begin final coordinates
     new unit-cell volume =    418.39674 a.u.^3 (    62.00000 Ang^3 )

CELL_PARAMETERS (alat=  8.65899730)
   0.971705223   0.000000000   0.000000000
   0.000000000   0.971705223   0.000000000
   0.000000000   0.000000000   0.682521616

ATOMIC_POSITIONS (crystal)
Sn0      0.000000000   0.000000000   0.000000000    0   0   0
Sn0      0.500000000   0.500000000   0.500000000    0   0   0
O1       0.305693602   0.305693602   0.000000000    1   1   0
O1      -0.305693602  -0.305693602   0.000000000    1   1   0
O1       0.805693602   0.194306398   0.500000000    1   1   0
O1       0.194306398   0.805693602   0.500000000    1   1   0
End final coordinates

     A final scf calculation at the relaxed structure.
     The G-vectors are recalculated for the final unit cell
     Results may differ from those at the preceding step.

     bravais-lattice index     =            0
     lattice parameter (alat)  =       8.6590  a.u.
     unit-cell volume          =     418.3967 (a.u.)^3
     number of atoms/cell      =            6
     number of atomic types    =            2
     number of electrons       =        52.00
     number of Kohn-Sham states=           75
     kinetic-energy cutoff     =      40.0000  Ry
     charge density cutoff     =     500.0000  Ry
     convergence threshold     =      1.0E-08
     mixing beta               =       0.7000
     number of iterations used =            8  plain     mixing
     Exchange-correlation      = SLA  PW   PBE  PBE ( 1 4 3 4 0)
     EXX-fraction              =        0.00

     celldm(1)=   8.658997  celldm(2)=   0.000000  celldm(3)=   0.000000
     celldm(4)=   0.000000  celldm(5)=   0.000000  celldm(6)=   0.000000

     crystal axes: (cart. coord. in units of alat)
               a(1) = (   0.971705   0.000000   0.000000 )
               a(2) = (   0.000000   0.971705   0.000000 )
               a(3) = (   0.000000   0.000000   0.682522 )

     reciprocal axes: (cart. coord. in units 2 pi/alat)
               b(1) = (  1.029119  0.000000  0.000000 )
               b(2) = (  0.000000  1.029119  0.000000 )
               b(3) = (  0.000000  0.000000  1.465155 )

     PseudoPot. # 1 for Sn read from file:
     /home/camp/zhonxu/pseudo/sn_pbe_v1.uspp.F.UPF
     MD5 check sum: 4cf58ce39ec5d5d420df3dd08604eb00
     Pseudo is Ultrasoft + core correction, Zval = 14.0
     Generated by new atomic code, or converted to UPF format
     Using radial grid of  891 points,  6 beta functions with:
                l(1) =   0
                l(2) =   0
                l(3) =   1
                l(4) =   1
                l(5) =   2
                l(6) =   2
     Q(r) pseudized with  6 coefficients,  rinner =    1.200   1.200   1.200
                                                       1.200   1.200

     PseudoPot. # 2 for O  read from file:
     /home/camp/zhonxu/pseudo/o_pbe_v1.01.uspp.F.UPF
     MD5 check sum: 2bcb18d16ea4b960afae9ec6d52f22d2
     Pseudo is Ultrasoft + core correction, Zval =  6.0
     Generated by new atomic code, or converted to UPF format
     Using radial grid of  737 points,  5 beta functions with:
                l(1) =   0
                l(2) =   0
                l(3) =   1
                l(4) =   1
                l(5) =   2
     Q(r) pseudized with  8 coefficients,  rinner =    0.900   0.900   0.900
                                                       0.900   0.900

     atomic species   valence    mass     pseudopotential
        Sn0           14.00   118.71000     Sn( 1.00)
        O1             6.00    15.99940     O ( 1.00)

     Starting magnetic structure
     atomic species   magnetization
        Sn0          0.600
        O1           0.000

     16 Sym. Ops., with inversion, found ( 8 have fractional translation)

   Cartesian axes

     site n.     atom                  positions (alat units)
         1           Sn0 tau(   1) = (   0.0000000   0.0000000   0.0000000  )
         2           Sn0 tau(   2) = (   0.4858526   0.4858526   0.3412608  )
         3           O1  tau(   3) = (   0.2970441   0.2970441   0.0000000  )
         4           O1  tau(   4) = (  -0.2970441  -0.2970441   0.0000000  )
         5           O1  tau(   5) = (   0.7828967   0.1888085   0.3412608  )
         6           O1  tau(   6) = (   0.1888085   0.7828967   0.3412608  )

     number of k points=    36  Methfessel-Paxton smearing, width (Ry)=  0.0100
                       cart. coord. in units 2pi/alat
        k(    1) = (   0.0000000   0.0000000   0.0000000), wk =   0.0080000
        k(    2) = (   0.0000000   0.0000000   0.2930310), wk =   0.0160000
        k(    3) = (   0.0000000   0.0000000   0.5860620), wk =   0.0160000
        k(    4) = (   0.0000000   0.2058237   0.0000000), wk =   0.0320000
        k(    5) = (   0.0000000   0.2058237   0.2930310), wk =   0.0640000
        k(    6) = (   0.0000000   0.2058237   0.5860620), wk =   0.0640000
        k(    7) = (   0.0000000   0.4116475   0.0000000), wk =   0.0320000
        k(    8) = (   0.0000000   0.4116475   0.2930310), wk =   0.0640000
        k(    9) = (   0.0000000   0.4116475   0.5860620), wk =   0.0640000
        k(   10) = (   0.2058237   0.2058237   0.0000000), wk =   0.0320000
        k(   11) = (   0.2058237   0.2058237   0.2930310), wk =   0.0640000
        k(   12) = (   0.2058237   0.2058237   0.5860620), wk =   0.0640000
        k(   13) = (   0.2058237   0.4116475   0.0000000), wk =   0.0640000
        k(   14) = (   0.2058237   0.4116475   0.2930310), wk =   0.1280000
        k(   15) = (   0.2058237   0.4116475   0.5860620), wk =   0.1280000
        k(   16) = (   0.4116475   0.4116475   0.0000000), wk =   0.0320000
        k(   17) = (   0.4116475   0.4116475   0.2930310), wk =   0.0640000
        k(   18) = (   0.4116475   0.4116475   0.5860620), wk =   0.0640000
        k(   19) = (   0.0000000   0.0000000   0.0000000), wk =   0.0080000
        k(   20) = (   0.0000000   0.0000000   0.2930310), wk =   0.0160000
        k(   21) = (   0.0000000   0.0000000   0.5860620), wk =   0.0160000
        k(   22) = (   0.0000000   0.2058237   0.0000000), wk =   0.0320000
        k(   23) = (   0.0000000   0.2058237   0.2930310), wk =   0.0640000
        k(   24) = (   0.0000000   0.2058237   0.5860620), wk =   0.0640000
        k(   25) = (   0.0000000   0.4116475   0.0000000), wk =   0.0320000
        k(   26) = (   0.0000000   0.4116475   0.2930310), wk =   0.0640000
        k(   27) = (   0.0000000   0.4116475   0.5860620), wk =   0.0640000
        k(   28) = (   0.2058237   0.2058237   0.0000000), wk =   0.0320000
        k(   29) = (   0.2058237   0.2058237   0.2930310), wk =   0.0640000
        k(   30) = (   0.2058237   0.2058237   0.5860620), wk =   0.0640000
        k(   31) = (   0.2058237   0.4116475   0.0000000), wk =   0.0640000
        k(   32) = (   0.2058237   0.4116475   0.2930310), wk =   0.1280000
        k(   33) = (   0.2058237   0.4116475   0.5860620), wk =   0.1280000
        k(   34) = (   0.4116475   0.4116475   0.0000000), wk =   0.0320000
        k(   35) = (   0.4116475   0.4116475   0.2930310), wk =   0.0640000
        k(   36) = (   0.4116475   0.4116475   0.5860620), wk =   0.0640000

     Largest allocated arrays     est. size (Mb)     dimensions
     Largest temporary arrays     est. size (Mb)     dimensions

     Check: negative/imaginary core charge=   -0.000004    0.000000

     Initial potential from superposition of free atoms

     starting charge   49.99990, renormalised to   52.00000
     Starting wfc are   34 randomized atomic wfcs

     Self-consistent Calculation

[...]

     total energy              =    -455.36293470 Ry
     Harris-Foulkes estimate   =    -455.36293462 Ry
     estimated scf accuracy    <       0.00000009 Ry

[...]

     iteration #  8     ecut=    40.00 Ry     beta=0.70
     Davidson diagonalization with overlap
     ethr =  1.66E-10,  avg # of iterations =  2.0

     End of self-consistent calculation

 ------ SPIN UP ------------

[...]

 ------ SPIN DOWN ----------

[...]

          k = 0.4116 0.4116 0.5861 (  1788 PWs)   bands (ev):

    -9.1789  -8.9696  -8.7249  -8.4104  -7.6167  -7.6084  -7.5326  -7.5296
    -7.5257  -7.5194  -5.5645  -5.1701  -3.8268  -3.5483   3.4855   3.6441
     6.5380   6.5658   8.0102   9.1267   9.6623  10.6029  10.7300  10.8695
    10.9407  11.0084  18.6762  18.8186  21.6609  21.9530  23.4994  23.8260
    24.6134  24.8414  25.9827  26.2427  27.9356  28.0699  28.8848  30.8875
    31.9494  32.2145  32.5545  33.3406  33.3421  33.6279  35.5817  36.2584
    38.8141  38.9178  39.2333  39.6557  40.6966  40.7783  42.6818  43.1124
    43.2342  45.0220  45.3739  45.6995  47.5672  47.6085  48.2530  48.4859
    48.5943  49.5555  50.2048  50.2765  51.0840  51.2482  51.5665  52.0760
    53.0137  53.5773  53.8418

     the Fermi energy is    14.7318 ev

!    total energy              =    -455.36293475 Ry
     Harris-Foulkes estimate   =    -455.36293475 Ry
     estimated scf accuracy    <          9.0E-10 Ry

     The total energy is the sum of the following terms:

     one-electron contribution =    -104.57517014 Ry
     hartree contribution      =      98.65190521 Ry
     xc contribution           =    -125.48385902 Ry
     ewald contribution        =    -323.95581545 Ry
     smearing contrib. (-TS)   =       0.00000464 Ry

     total magnetization       =    -0.00 Bohr mag/cell
     absolute magnetization    =     0.00 Bohr mag/cell

     convergence has been achieved in   8 iterations

     Forces acting on atoms (Ry/au):

     atom    1 type  1   force =     0.00000000    0.00000000    0.00000000
     atom    2 type  1   force =     0.00000000    0.00000000   -0.00000000
     atom    3 type  2   force =    -0.00006073   -0.00006073   -0.00000000
     atom    4 type  2   force =     0.00006073    0.00006073    0.00000000
     atom    5 type  2   force =    -0.00006073    0.00006073   -0.00000000
     atom    6 type  2   force =     0.00006073   -0.00006073   -0.00000000

     Total force =     0.000172     Total SCF correction =     0.000007

     entering subroutine stress ...

          total   stress  (Ry/bohr**3)                   (kbar)     P=  551.68
   0.00374970   0.00000000   0.00000000        551.60      0.00      0.00
   0.00000000   0.00374970   0.00000000          0.00    551.60      0.00
   0.00000000   0.00000000   0.00375133          0.00      0.00    551.84

     General routines

     Parallel routines

   This run was terminated on:  18:46:52  23Jan2014

   JOB DONE.
Running PBS batch system epilogue script
Job id: 251203.audhumbla.fysik.dtu.dk
Username: zhonxu
Groupname: campgst
Jobname: SnO2/coarse-EOS/SnO2-v-1.0
Sessionid: 23913
Queuename: verylong
Accounting:
This job has allocated the following 4 nodes:
q095 q095 q095 q095
Finished epilogue job 251203.audhumbla.fysik.dtu.dk for zhonxu