     Program PWSCF v.5.0.2 (svn rev. 9656) starts on 27Feb2014 at 18:21:37

     Current dimensions of program PWSCF are:
     Max number of different atomic species (ntypx) = 10
     Max number of k-points (npk) =  40000
     Max angular momentum in pseudopotentials (lmaxx) =  3
     Reading input from bare.in
Warning: card &CELL ignored
Warning: card / ignored

     Subspace diagonalization in iterative solution of the eigenvalue problem:
     a serial algorithm will be used

     Found symmetry operation: I + ( -0.5000  0.0000  0.0000)
     This is a supercell, fractional translations are disabled

     bravais-lattice index     =            0
     lattice parameter (alat)  =      11.2250  a.u.
     unit-cell volume          =    7005.5484 (a.u.)^3
     number of atoms/cell      =           30
     number of atomic types    =            3
     number of electrons       =       208.00
     number of Kohn-Sham states=          300
     kinetic-energy cutoff     =      40.0000  Ry
     charge density cutoff     =     500.0000  Ry
     convergence threshold     =      1.0E-06
     mixing beta               =       0.3000
     number of iterations used =            8  plain     mixing
     Exchange-correlation      = SLA  PW   PBE  PBE ( 1 4 3 4 0)
     EXX-fraction              =        0.00
     nstep                     =           50

     celldm(1)=  11.224973  celldm(2)=   0.000000  celldm(3)=   0.000000
     celldm(4)=   0.000000  celldm(5)=   0.000000  celldm(6)=   0.000000

     crystal axes: (cart. coord. in units of alat)
               a(1) = (   1.000000   0.000000   0.000000 )
               a(2) = (   0.000000   1.107086   0.000000 )
               a(3) = (   0.000000   0.000000   4.474090 )

     reciprocal axes: (cart. coord. in units 2 pi/alat)
               b(1) = (  1.000000  0.000000  0.000000 )
               b(2) = (  0.000000  0.903272  0.000000 )
               b(3) = (  0.000000  0.000000  0.223509 )

     PseudoPot. # 1 for O  read from file:
     /home/camp/zhonxu/pseudo/o_pbe_v1.01.uspp.F.UPF
     MD5 check sum: 2bcb18d16ea4b960afae9ec6d52f22d2
     Pseudo is Ultrasoft + core correction, Zval =  6.0
     Generated by new atomic code, or converted to UPF format
     Using radial grid of  737 points,  5 beta functions with:
                l(1) =   0
                l(2) =   0
                l(3) =   1
                l(4) =   1
                l(5) =   2
     Q(r) pseudized with  8 coefficients,  rinner =    0.900   0.900   0.900
                                                       0.900   0.900

     PseudoPot. # 2 for Ti read from file:
     /home/camp/zhonxu/pseudo/ti_pbe_v1.uspp.F.UPF
     MD5 check sum: bcc8f6961b3b91f0cac3ca967d22d0fb
     Pseudo is Ultrasoft + core correction, Zval = 12.0
     Generated by new atomic code, or converted to UPF format
     Using radial grid of  851 points,  6 beta functions with:
                l(1) =   0
                l(2) =   0
                l(3) =   1
                l(4) =   1
                l(5) =   2
                l(6) =   2
     Q(r) pseudized with  6 coefficients,  rinner =    1.000   1.000   1.000
                                                       1.000   1.000

     PseudoPot. # 3 for H  read from file:
     /home/camp/zhonxu/pseudo/h_pbe_v1.uspp.F.UPF
     MD5 check sum: 3408e3ff4ec8b0a4e358431e7e038a48
     Pseudo is Ultrasoft, Zval =  1.0
     Generated by new atomic code, or converted to UPF format
     Using radial grid of  615 points,  2 beta functions with:
                l(1) =   0
                l(2) =   0
     Q(r) pseudized with  8 coefficients,  rinner =    0.700

     atomic species   valence    mass     pseudopotential
        O0             6.00    15.99940     O ( 1.00)
        Ti1           12.00    47.88000     Ti( 1.00)
        H2             1.00     1.00794     H ( 1.00)

     No symmetry found

   Cartesian axes

     site n.     atom                  positions (alat units)
         1           O0  tau(   1) = (   0.0000000   0.0000000   1.6989461  )
         2           O0  tau(   2) = (   0.0000000   0.5535432   1.7901728  )
         3           Ti1 tau(   3) = (   0.2500000   0.5535432   2.0162933  )
         4           Ti1 tau(   4) = (   0.0000000   0.0000000   2.0248388  )
         5           O0  tau(   5) = (   0.2500000   0.8967400   2.0178145  )
         6           O0  tau(   6) = (   0.2500000   0.2103464   2.0226912  )
         7           O0  tau(   7) = (   0.0000000   0.5535432   2.2326603  )
         8           O0  tau(   8) = (   0.0000000   0.0000000   2.3559662  )
         9           Ti1 tau(   9) = (   0.2500000   0.0000000   2.5995804  )
        10           Ti1 tau(  10) = (   0.0000000   0.5535432   2.5483968  )
        11           O0  tau(  11) = (   0.2500000   0.7638896   2.5964932  )
        12           O0  tau(  12) = (   0.2500000   0.3431968   2.5965380  )
        13           O0  tau(  13) = (   0.0000000   0.0000000   2.7842708  )
        14           O0  tau(  14) = (   0.5000000   0.0000000   1.6989461  )
        15           O0  tau(  15) = (   0.5000000   0.5535432   1.7901728  )
        16           Ti1 tau(  16) = (   0.7500000   0.5535432   2.0162933  )
        17           Ti1 tau(  17) = (   0.5000000   0.0000000   2.0248388  )
        18           O0  tau(  18) = (   0.7500000   0.8967400   2.0178145  )
        19           O0  tau(  19) = (   0.7500000   0.2103464   2.0226912  )
        20           O0  tau(  20) = (   0.5000000   0.5535432   2.2326603  )
        21           O0  tau(  21) = (   0.5000000   0.0000000   2.3559662  )
        22           Ti1 tau(  22) = (   0.7500000   0.0000000   2.5995804  )
        23           Ti1 tau(  23) = (   0.5000000   0.5535432   2.5483968  )
        24           O0  tau(  24) = (   0.7500000   0.7638896   2.5964932  )
        25           O0  tau(  25) = (   0.7500000   0.3431968   2.5965380  )
        26           O0  tau(  26) = (   0.5000000   0.0000000   2.7842708  )
        27           H2  tau(  27) = (  -0.0005400   0.6991915   1.7063283  )
        28           H2  tau(  28) = (   0.4994600   0.6991915   1.7063283  )
        29           H2  tau(  29) = (   0.1501800   0.0252084   1.6321479  )
        30           H2  tau(  30) = (   0.6501800   0.0252084   1.6321479  )

     number of k points=    10  Methfessel-Paxton smearing, width (Ry)=  0.0100
                       cart. coord. in units 2pi/alat
        k(    1) = (   0.0000000   0.0000000   0.0000000), wk =   0.1250000
        k(    2) = (   0.0000000   0.2258180   0.0000000), wk =   0.2500000
        k(    3) = (   0.0000000  -0.4516359   0.0000000), wk =   0.1250000
        k(    4) = (   0.2500000   0.0000000   0.0000000), wk =   0.2500000
        k(    5) = (   0.2500000   0.2258180   0.0000000), wk =   0.2500000
        k(    6) = (   0.2500000  -0.4516359   0.0000000), wk =   0.2500000
        k(    7) = (  -0.5000000   0.0000000   0.0000000), wk =   0.1250000
        k(    8) = (  -0.5000000   0.2258180   0.0000000), wk =   0.2500000
        k(    9) = (  -0.5000000  -0.4516359   0.0000000), wk =   0.1250000
        k(   10) = (  -0.2500000   0.2258180   0.0000000), wk =   0.2500000

     Largest allocated arrays     est. size (Mb)     dimensions
     Largest temporary arrays     est. size (Mb)     dimensions

     Check: negative/imaginary core charge=   -0.000005    0.000000

     Initial potential from superposition of free atoms
     Check: negative starting charge=   -0.102816

     starting charge  199.99958, renormalised to  208.00000

     negative rho (up, down):  0.107E+00 0.000E+00
     Starting wfc are  156 randomized atomic wfcs

     Self-consistent Calculation

     iteration #  1     ecut=    40.00 Ry     beta=0.30
     Davidson diagonalization with overlap
     ethr =  1.00E-02,  avg # of iterations =  6.0

     negative rho (up, down):  0.104E+00 0.000E+00

     total energy              =   -1515.81830461 Ry
     Harris-Foulkes estimate   =   -1536.80516567 Ry
     estimated scf accuracy    <      42.40071833 Ry

[...]

     total energy              =   -1534.98271498 Ry
     Harris-Foulkes estimate   =   -1534.98271469 Ry
     estimated scf accuracy    <       0.00000198 Ry

     iteration # 16     ecut=    40.00 Ry     beta=0.30
     Davidson diagonalization with overlap
     ethr =  9.51E-10,  avg # of iterations =  1.0

     negative rho (up, down):  0.102E+00 0.000E+00

     End of self-consistent calculation

          k = 0.0000 0.0000 0.0000 ( 29975 PWs)   bands (ev):

   -60.6735 -60.6356 -60.2389 -60.2006 -59.1155 -59.0744 -58.7500 -58.7090
   -37.2598 -36.9498 -36.8460 -36.8423 -36.7510 -36.7156 -36.6984 -36.5914
   -36.5626 -36.4469 -36.3476 -36.2747 -35.7778 -35.4691 -35.3612 -35.3151
   -35.2613 -35.2273 -35.1855 -35.0933 -35.0631 -35.0008 -34.9020 -34.7805
   -22.2770 -21.9904 -20.9825 -20.7472 -20.5022 -20.3898 -19.7974 -19.6733
   -19.6607 -19.6303 -19.4257 -19.3583 -19.3091 -19.1413 -18.9559 -18.4679
   -18.0497 -18.0481 -10.0239  -9.5678  -8.3725  -8.3223  -8.3035  -8.1273
    -8.0542  -7.6957  -7.5120  -7.2995  -7.2859  -7.1126  -7.0785  -6.8926
    -6.7978  -6.7849  -6.7708  -6.7461  -6.6617  -6.6333  -6.2566  -6.0944
    -5.9861  -5.7163  -5.6933  -5.5553  -5.5296  -5.5045  -5.4944  -5.4571
    -5.3509  -5.2085  -5.1531  -4.9088  -4.8809  -4.7819  -4.7354  -4.7231
    -4.6003  -4.3723  -4.1803  -4.0878  -3.8815  -3.7864  -3.7446  -3.4807
    -3.4480  -3.3490  -3.3284  -3.0707  -3.0494  -3.0143  -2.8382  -2.7373
    -1.7042  -1.1384  -1.0830  -1.0563  -0.9029  -0.6544  -0.6149  -0.5610
    -0.5013  -0.1620  -0.1445  -0.0329   0.2355   0.4166   0.4997   0.5060
     0.6449   0.7464   0.7508   0.8980   1.0242   1.2172   1.3317   1.3464
     1.7926   1.7990   1.8738   1.9354   2.0085   2.1782   2.5892   2.6351
     3.0854   3.1702   3.2155   3.3124   3.4674   3.5693   3.6312   3.9047
     4.1323   4.2800   4.5312   4.5562   4.8656   5.2499   5.5901   5.6867
     5.7748   6.4188   6.5765   6.5862   6.7915   6.9200   7.0874   7.1169
     7.1293   7.3195   7.4514   7.5692   7.6755   7.7101   7.7268   7.8855
     7.9290   8.0456   8.1389   8.2386   8.3140   8.4757   8.5138   8.5924
     8.6119   8.7761   8.8620   8.8840   9.1085   9.1312   9.2099   9.3272
     9.3498   9.6124   9.7279   9.8333   9.8957   9.9014  10.1318  10.5531
    10.6239  10.6643  10.6773  10.7125  10.7614  10.8194  10.8761  10.9397
    11.0365  11.0984  11.1542  11.2698  11.3189  11.3352  11.3743  11.3836
    11.4072  11.4973  11.5884  11.6346  11.7681  11.7919  11.8294  11.9383
    12.0355  12.1506  12.1997  12.2334  12.2522  12.3013  12.3165  12.3917
    12.5578  12.7129  12.7621  12.9111  12.9262  12.9820  13.0433  13.1601
    13.3688  13.4588  13.4760  13.4944  13.5982  13.7236  13.7740  13.9650
    13.9974  14.0540  14.0879  14.2227  14.3055  14.3856  14.4536  14.5136
    14.6632  14.7775  14.7932  14.9094  15.0330  15.0696  15.1467  15.1791
    15.2148  15.4040  15.4349  15.4790  15.4907  15.7333  15.7589  16.1290
    16.1310  16.2840  16.3435  16.3856  16.5019  16.5162  16.5703  16.6087
    16.6110  16.8683  16.9061  16.9433  17.0784  17.3127  17.3473  17.3748
    17.4434  17.5646  17.5683  17.5875  17.6422  17.7246  17.7721  17.9898
    18.0209  18.0287  18.0596  18.1153  18.1815  18.1925  18.3006  18.3420
    18.5070  18.5077  18.5633  18.6316

[...]

          k = 0.2500-0.4516 0.0000 ( 29882 PWs)   bands (ev):

[...]

          k =-0.5000 0.0000 0.0000 ( 29982 PWs)   bands (ev):

[...]

          k =-0.2500 0.2258 0.0000 ( 29912 PWs)   bands (ev):

   -60.6680 -60.6411 -60.2333 -60.2062 -59.1095 -59.0804 -58.7441 -58.7150
   -37.2013 -36.9354 -36.9079 -36.8579 -36.7445 -36.7216 -36.6406 -36.5868
   -36.5651 -36.4313 -36.3623 -36.3387 -35.7108 -35.4558 -35.3843 -35.3773
   -35.2225 -35.2103 -35.1766 -35.0905 -35.0668 -34.9909 -34.9146 -34.8483
   -22.2037 -22.0015 -20.9500 -20.8069 -20.3116 -20.2208 -19.8904 -19.7318
   -19.6443 -19.5710 -19.5518 -19.5035 -19.3028 -19.2860 -18.8013 -18.4124
   -18.1786 -18.1062  -9.9308  -9.6266  -8.2028  -8.0592  -7.9044  -7.8968
    -7.8493  -7.7970  -7.4644  -7.4358  -7.2101  -7.2020  -7.0107  -6.9472
    -6.9191  -6.8511  -6.8018  -6.5500  -6.5428  -6.3391  -6.2318  -6.1836
    -6.1067  -5.8171  -5.8150  -5.6696  -5.6366  -5.4662  -5.4361  -5.3805
    -5.2854  -5.1855  -5.1453  -5.0830  -4.9634  -4.9056  -4.8391  -4.7856
    -4.6836  -4.5847  -4.5132  -4.4851  -3.9826  -3.8617  -3.7873  -3.5385
    -3.4896  -3.4345  -3.3432  -3.3020  -3.2147  -2.9821  -2.8819  -2.7370
    -1.5071  -1.1827  -1.0383  -0.9849  -0.9139  -0.7449  -0.6563  -0.5507
    -0.2282  -0.1183   0.0087   0.0181   0.1394   0.3826   0.6113   0.6146
     0.7236   0.7644   1.0080   1.0137   1.1082   1.2328   1.4263   1.4573
     1.6072   1.7070   1.7980   1.9300   1.9302   2.1236   2.2283   2.7894
     3.0850   3.3406   3.4444   3.6572   3.7521   3.7863   3.8267   4.0404
     4.1062   4.4680   4.5094   4.6799   4.9408   4.9818   5.2168   5.6556
     5.8379   5.8589   5.9862   6.0939   6.1170   6.4045   6.4292   6.7887
     6.7988   7.1411   7.2139   7.3769   7.4975   7.7309   7.8177   7.8658
     7.8964   7.9678   8.0253   8.1967   8.4404   8.5239   8.5979   8.8253
     8.8370   8.9664   9.2143   9.2972   9.3670   9.3685   9.3983   9.5318
     9.6264   9.6338   9.9317   9.9401  10.0510  10.1775  10.2583  10.3568
    10.4662  10.6342  10.6367  10.6944  10.8674  10.8690  11.0036  11.0590
    11.1455  11.2712  11.3195  11.3945  11.4148  11.4469  11.5956  11.6530
    11.8251  11.8542  11.9120  11.9643  11.9706  12.0910  12.1096  12.2862
    12.3529  12.3743  12.4923  12.6089  12.6824  12.7202  12.7906  12.8730
    12.9070  13.0092  13.1460  13.2084  13.3277  13.3939  13.4720  13.5624
    13.6237  13.7040  13.7901  13.7956  13.8899  13.9412  14.0255  14.1216
    14.1633  14.2668  14.3245  14.3500  14.5115  14.5846  14.6321  14.6356
    14.7910  14.8094  14.9128  14.9520  15.0671  15.1198  15.1857  15.2481
    15.3671  15.4005  15.4693  15.5554  15.6279  15.7559  15.7641  15.8398
    15.8408  15.9334  15.9417  16.1148  16.1726  16.2390  16.2542  16.3729
    16.4046  16.5174  16.6839  16.7218  16.7716  16.8331  16.8426  16.8814
    17.0026  17.0186  17.0485  17.1063  17.2540  17.2625  17.3092  17.3873
    17.4466  17.4742  17.5454  17.5982  17.7683  17.8391  17.9219  18.0088
    18.0636  18.1765  18.2327  18.3167

     the Fermi energy is    -2.6400 ev

!    total energy              =   -1534.98271528 Ry
     Harris-Foulkes estimate   =   -1534.98271514 Ry
     estimated scf accuracy    <       0.00000056 Ry

     The total energy is the sum of the following terms:

     one-electron contribution =  -18418.67891779 Ry
     hartree contribution      =    9224.33956622 Ry
     xc contribution           =    -269.92308549 Ry
     ewald contribution        =    7929.27853540 Ry
     smearing contrib. (-TS)   =       0.00118638 Ry

     convergence has been achieved in  16 iterations

     Forces acting on atoms (Ry/au):

     negative rho (up, down):  0.102E+00 0.000E+00
     atom    1 type  1   force =     0.00046090   -0.01557726   -0.00074293
     atom    2 type  1   force =     0.00002220    0.02402855    0.00010165
     atom    3 type  2   force =     0.00019006   -0.01620285   -0.00018746
     atom    4 type  2   force =    -0.00646634    0.00821371   -0.00014163
     atom    5 type  1   force =     0.00400167   -0.10941456    0.00012240
     atom    6 type  1   force =    -0.00143179    0.10934101   -0.00000558
     atom    7 type  1   force =    -0.00006238    0.00110136   -0.00055555
     atom    8 type  1   force =     0.00337239   -0.00154369    0.00062611
     atom    9 type  2   force =    -0.00088158    0.00009820    0.00089131
     atom   10 type  2   force =    -0.00005668   -0.00025278   -0.00027548
     atom   11 type  1   force =     0.00008044   -0.04288134    0.00032413
     atom   12 type  1   force =    -0.00000642    0.04293141    0.00033705
     atom   13 type  1   force =     0.00063258   -0.00005155    0.00049164
     atom   14 type  1   force =     0.00046096   -0.01557735   -0.00074329
     atom   15 type  1   force =     0.00002229    0.02402851    0.00010166
     atom   16 type  2   force =     0.00018999   -0.01620284   -0.00018742
     atom   17 type  2   force =    -0.00646630    0.00821363   -0.00014167
     atom   18 type  1   force =     0.00400161   -0.10941451    0.00012245
     atom   19 type  1   force =    -0.00143193    0.10934087   -0.00000545
     atom   20 type  1   force =    -0.00006238    0.00110113   -0.00055565
     atom   21 type  1   force =     0.00337244   -0.00154363    0.00062616
     atom   22 type  2   force =    -0.00088162    0.00009817    0.00089126
     atom   23 type  2   force =    -0.00005675   -0.00025274   -0.00027554
     atom   24 type  1   force =     0.00008036   -0.04288143    0.00032414
     atom   25 type  1   force =    -0.00000655    0.04293153    0.00033709
     atom   26 type  1   force =     0.00063265   -0.00005154    0.00049185
     atom   27 type  3   force =     0.00004333   -0.00007947   -0.00048277
     atom   28 type  3   force =     0.00004335   -0.00007947   -0.00048278
     atom   29 type  3   force =     0.00010177    0.00028945   -0.00050286
     atom   30 type  3   force =     0.00010174    0.00028946   -0.00050285

     Total force =     0.002551     Total SCF correction =     0.001873
     SCF correction compared to forces is large: reduce conv_thr to get better values

     BFGS Geometry Optimization

     bfgs converged in   1 scf cycles and   0 bfgs steps
     (criteria: energy < 0.10E-03, force < 0.10E-02)

     End of BFGS Geometry Optimization

     Final energy   =   -1534.9827152834 Ry
Begin final coordinates

ATOMIC_POSITIONS (crystal)
O0       0.000000000   0.000000000   0.379730000    0   0   1
O0       0.000000000   0.500000000   0.400120000    0   0   1
Ti1      0.250000000   0.500000000   0.450660000    0   0   1
Ti1      0.000000000   0.000000000   0.452570000    0   0   1
O0       0.250000000   0.810000000   0.451000000    0   0   1
O0       0.250000000   0.190000000   0.452090000    0   0   1
O0       0.000000000   0.500000000   0.499020000    0   0   1
O0       0.000000000   0.000000000   0.526580000    0   0   1
Ti1      0.250000000   0.000000000   0.581030000    0   0   1
Ti1      0.000000000   0.500000000   0.569590000    0   0   1
O0       0.250000000   0.690000000   0.580340000    0   0   1
O0       0.250000000   0.310000000   0.580350000    0   0   1
O0       0.000000000   0.000000000   0.622310000    0   0   1
O0       0.500000000   0.000000000   0.379730000    0   0   1
O0       0.500000000   0.500000000   0.400120000    0   0   1
Ti1      0.750000000   0.500000000   0.450660000    0   0   1
Ti1      0.500000000   0.000000000   0.452570000    0   0   1
O0       0.750000000   0.810000000   0.451000000    0   0   1
O0       0.750000000   0.190000000   0.452090000    0   0   1
O0       0.500000000   0.500000000   0.499020000    0   0   1
O0       0.500000000   0.000000000   0.526580000    0   0   1
Ti1      0.750000000   0.000000000   0.581030000    0   0   1
Ti1      0.500000000   0.500000000   0.569590000    0   0   1
O0       0.750000000   0.690000000   0.580340000    0   0   1
O0       0.750000000   0.310000000   0.580350000    0   0   1
O0       0.500000000   0.000000000   0.622310000    0   0   1
H2      -0.000540000   0.631560000   0.381380000
H2       0.499460000   0.631560000   0.381380000
H2       0.150180000   0.022770000   0.364800000
H2       0.650180000   0.022770000   0.364800000
End final coordinates

     General routines

     Parallel routines

   This run was terminated on:  19:18:11  27Feb2014

   JOB DONE.
Running PBS batch system epilogue script
Job id: 278709.audhumbla.fysik.dtu.dk
Username: zhonxu
Groupname: campgst
Jobname: TiO2/bare
Sessionid: 16878
Queuename: verylong
Accounting:
This job has allocated the following 16 nodes:
a131 a131 a131 a131 a131 a131 a131 a131 a111 a111 a111 a111 a111 a111 a111 a111
Finished epilogue job 278709.audhumbla.fysik.dtu.dk for zhonxu