     Program PWSCF v.5.0.2 (svn rev. 9656) starts on 28Apr2014 at  1:42:37

     Current dimensions of program PWSCF are:
     Max number of different atomic species (ntypx) = 10
     Max number of k-points (npk) =  40000
     Max angular momentum in pseudopotentials (lmaxx) =  3
     Reading input from pwscf.in
Warning: card &CELL ignored
Warning: card / ignored

     Subspace diagonalization in iterative solution of the eigenvalue problem:
     a serial algorithm will be used

     bravais-lattice index     =            0
     lattice parameter (alat)  =      11.7919  a.u.
     unit-cell volume          =    7123.6633 (a.u.)^3
     number of atoms/cell      =           32
     number of atomic types    =            3
     number of electrons       =       247.00
     number of Kohn-Sham states=          358
     kinetic-energy cutoff     =      40.0000  Ry
     charge density cutoff     =     500.0000  Ry
     convergence threshold     =      1.0E-06
     mixing beta               =       0.7000
     number of iterations used =            8  plain     mixing
     Exchange-correlation      = SLA  PW   PBE  PBE ( 1 4 3 4 0)
     EXX-fraction              =        0.00
     nstep                     =           50

     celldm(1)=  11.791891  celldm(2)=   0.000000  celldm(3)=   0.000000
     celldm(4)=   0.000000  celldm(5)=   0.000000  celldm(6)=   0.000000

     crystal axes: (cart. coord. in units of alat)
               a(1) = (   1.000000   0.000000   0.000000 )
               a(2) = (   0.000000   1.026665   0.000000 )
               a(3) = (   0.000000   0.000000   4.231793 )

     reciprocal axes: (cart. coord. in units 2 pi/alat)
               b(1) = (  1.000000  0.000000  0.000000 )
               b(2) = (  0.000000  0.974028  0.000000 )
               b(3) = (  0.000000  0.000000  0.236306 )

     PseudoPot. # 1 for O  read from file:
     /home/camp/zhonxu/pseudo/o_pbe_v1.01.uspp.F.UPF
     MD5 check sum: 2bcb18d16ea4b960afae9ec6d52f22d2
     Pseudo is Ultrasoft + core correction, Zval =  6.0
     Generated by new atomic code, or converted to UPF format
     Using radial grid of  737 points,  5 beta functions with:
                l(1) =   0
                l(2) =   0
                l(3) =   1
                l(4) =   1
                l(5) =   2
     Q(r) pseudized with  8 coefficients,  rinner =    0.900   0.900   0.900
                                                       0.900   0.900

     PseudoPot. # 2 for Ru read from file:
     /home/camp/zhonxu/pseudo/ru_pbe_v1.uspp.F.UPF
     MD5 check sum: df00be1c11b23341d9806d8f1dfa10cf
     Pseudo is Ultrasoft + core correction, Zval = 16.0
     Generated by new atomic code, or converted to UPF format
     Using radial grid of  967 points,  6 beta functions with:
                l(1) =   0
                l(2) =   0
                l(3) =   1
                l(4) =   1
                l(5) =   2
                l(6) =   2
     Q(r) pseudized with  8 coefficients,  rinner =    1.300   1.300   1.300
                                                       1.300   1.300

     PseudoPot. # 3 for H  read from file:
     /home/camp/zhonxu/pseudo/h_pbe_v1.uspp.F.UPF
     MD5 check sum: 3408e3ff4ec8b0a4e358431e7e038a48
     Pseudo is Ultrasoft, Zval =  1.0
     Generated by new atomic code, or converted to UPF format
     Using radial grid of  615 points,  2 beta functions with:
                l(1) =   0
                l(2) =   0
     Q(r) pseudized with  8 coefficients,  rinner =    0.700

     atomic species   valence    mass     pseudopotential
        O0             6.00    15.99940     O ( 1.00)
        Ru1           16.00   101.07000     Ru( 1.00)
        H2             1.00     1.00794     H ( 1.00)

     Simplified LDA+U calculation (l_max = 2) with parameters (eV):
     atomic species    L          U    alpha       J0     beta
        Ru1            2     6.5000   0.0000   0.0000   0.0000

     No symmetry found

   Cartesian axes

     site n.     atom                  positions (alat units)
         1           O0  tau(   1) = (   0.0000000   0.0000000   1.6035109  )
         2           O0  tau(   2) = (   0.0000000   0.5133323   1.7058780  )
         3           Ru1 tau(   3) = (   0.2500000   0.5133323   1.9200491  )
         4           Ru1 tau(   4) = (   0.0000000   0.0000000   1.9171714  )
         5           O0  tau(   5) = (   0.2500000   0.8315984   1.9169175  )
         6           O0  tau(   6) = (   0.2500000   0.1950663   1.9164520  )
         7           O0  tau(   7) = (   0.0000000   0.5133323   2.1053593  )
         8           O0  tau(   8) = (   0.0000000   0.0000000   2.2310435  )
         9           Ru1 tau(   9) = (   0.2500000   0.0000000   2.4441566  )
        10           Ru1 tau(  10) = (   0.0000000   0.5133323   2.4052664  )
        11           O0  tau(  11) = (   0.2500000   0.7083986   2.4364547  )
        12           O0  tau(  12) = (   0.2500000   0.3182660   2.4361585  )
        13           O0  tau(  13) = (   0.0000000   0.0000000   2.6233307  )
        14           O0  tau(  14) = (   0.5000000   0.0000000   1.6045689  )
        15           O0  tau(  15) = (   0.5000000   0.5133323   1.7057934  )
        16           Ru1 tau(  16) = (   0.7500000   0.5133323   1.9200914  )
        17           Ru1 tau(  17) = (   0.5000000   0.0000000   1.9176369  )
        18           O0  tau(  18) = (   0.7500000   0.8315984   1.9167059  )
        19           O0  tau(  19) = (   0.7500000   0.1950663   1.9164520  )
        20           O0  tau(  20) = (   0.5000000   0.5133323   2.1229635  )
        21           O0  tau(  21) = (   0.5000000   0.0000000   2.2303664  )
        22           Ru1 tau(  22) = (   0.7500000   0.0000000   2.4441143  )
        23           Ru1 tau(  23) = (   0.5000000   0.5133323   2.4370472  )
        24           O0  tau(  24) = (   0.7500000   0.7083986   2.4343812  )
        25           O0  tau(  25) = (   0.7500000   0.3182660   2.4338310  )
        26           O0  tau(  26) = (   0.5000000   0.0000000   2.6134283  )
        27           H2  tau(  27) = (  -0.0002400   0.6455975   1.6183222  )
        28           H2  tau(  28) = (   0.4995500   0.6408954   1.6119322  )
        29           H2  tau(  29) = (   0.1457200   0.0328533   1.5514599  )
        30           H2  tau(  30) = (   0.6465200   0.0301223   1.5527294  )
        31           O0  tau(  31) = (   0.5138700   0.5107965   2.7447408  )
        32           H2  tau(  32) = (   0.3716000   0.5093694   2.8125765  )

     number of k points=    10  Methfessel-Paxton smearing, width (Ry)=  0.0100
                       cart. coord. in units 2pi/alat
        k(    1) = (   0.0000000   0.0000000   0.0000000), wk =   0.1250000
        k(    2) = (   0.0000000   0.2435070   0.0000000), wk =   0.2500000
        k(    3) = (   0.0000000  -0.4870139   0.0000000), wk =   0.1250000
        k(    4) = (   0.2500000   0.0000000   0.0000000), wk =   0.2500000
        k(    5) = (   0.2500000   0.2435070   0.0000000), wk =   0.2500000
        k(    6) = (   0.2500000  -0.4870139   0.0000000), wk =   0.2500000
        k(    7) = (  -0.5000000   0.0000000   0.0000000), wk =   0.1250000
        k(    8) = (  -0.5000000   0.2435070   0.0000000), wk =   0.2500000
        k(    9) = (  -0.5000000  -0.4870139   0.0000000), wk =   0.1250000
        k(   10) = (  -0.2500000   0.2435070   0.0000000), wk =   0.2500000

     Largest allocated arrays     est. size (Mb)     dimensions
     Largest temporary arrays     est. size (Mb)     dimensions

     Check: negative/imaginary core charge=   -0.000003    0.000000

     Initial potential from superposition of free atoms
     Check: negative starting charge=   -0.522051

     starting charge  238.99980, renormalised to  247.00000

     negative rho (up, down):  0.540E+00 0.000E+00
     Number of +U iterations with fixed ns =  0
     Starting occupations:
 --- enter write_ns ---
 LDA+U parameters:
U( 2)     =  6.50000000
alpha( 2) =  0.00000000
atom    3   Tr[ns(na)] =   6.00000
    eigenvalues:
  0.600  0.600  0.600  0.600  0.600
    eigenvectors:
  1.000  0.000  0.000  0.000  0.000
  0.000  1.000  0.000  0.000  0.000
  0.000  0.000  1.000  0.000  0.000
  0.000  0.000  0.000  1.000  0.000
  0.000  0.000  0.000  0.000  1.000
    occupations:
  0.600  0.000  0.000  0.000  0.000
  0.000  0.600  0.000  0.000  0.000
  0.000  0.000  0.600  0.000  0.000
  0.000  0.000  0.000  0.600  0.000
  0.000  0.000  0.000  0.000  0.600
atom    4   Tr[ns(na)] =   6.00000
    eigenvalues:
  0.600  0.600  0.600  0.600  0.600
    eigenvectors:
  1.000  0.000  0.000  0.000  0.000
  0.000  1.000  0.000  0.000  0.000
  0.000  0.000  1.000  0.000  0.000
  0.000  0.000  0.000  1.000  0.000
  0.000  0.000  0.000  0.000  1.000
    occupations:
  0.600  0.000  0.000  0.000  0.000
  0.000  0.600  0.000  0.000  0.000
  0.000  0.000  0.600  0.000  0.000
  0.000  0.000  0.000  0.600  0.000
  0.000  0.000  0.000  0.000  0.600
atom    9   Tr[ns(na)] =   6.00000
    eigenvalues:
  0.600  0.600  0.600  0.600  0.600
    eigenvectors:
  1.000  0.000  0.000  0.000  0.000
  0.000  1.000  0.000  0.000  0.000
  0.000  0.000  1.000  0.000  0.000
  0.000  0.000  0.000  1.000  0.000
  0.000  0.000  0.000  0.000  1.000
    occupations:
  0.600  0.000  0.000  0.000  0.000
  0.000  0.600  0.000  0.000  0.000
  0.000  0.000  0.600  0.000  0.000
  0.000  0.000  0.000  0.600  0.000
  0.000  0.000  0.000  0.000  0.600
atom   10   Tr[ns(na)] =   6.00000
    eigenvalues:
  0.600  0.600  0.600  0.600  0.600
    eigenvectors:
  1.000  0.000  0.000  0.000  0.000
  0.000  1.000  0.000  0.000  0.000
  0.000  0.000  1.000  0.000  0.000
  0.000  0.000  0.000  1.000  0.000
  0.000  0.000  0.000  0.000  1.000
    occupations:
  0.600  0.000  0.000  0.000  0.000
  0.000  0.600  0.000  0.000  0.000
  0.000  0.000  0.600  0.000  0.000
  0.000  0.000  0.000  0.600  0.000
  0.000  0.000  0.000  0.000  0.600
atom   16   Tr[ns(na)] =   6.00000
    eigenvalues:
  0.600  0.600  0.600  0.600  0.600
    eigenvectors:
  1.000  0.000  0.000  0.000  0.000
  0.000  1.000  0.000  0.000  0.000
  0.000  0.000  1.000  0.000  0.000
  0.000  0.000  0.000  1.000  0.000
  0.000  0.000  0.000  0.000  1.000
    occupations:
  0.600  0.000  0.000  0.000  0.000
  0.000  0.600  0.000  0.000  0.000
  0.000  0.000  0.600  0.000  0.000
  0.000  0.000  0.000  0.600  0.000
  0.000  0.000  0.000  0.000  0.600
atom   17   Tr[ns(na)] =   6.00000
    eigenvalues:
  0.600  0.600  0.600  0.600  0.600
    eigenvectors:
  1.000  0.000  0.000  0.000  0.000
  0.000  1.000  0.000  0.000  0.000
  0.000  0.000  1.000  0.000  0.000
  0.000  0.000  0.000  1.000  0.000
  0.000  0.000  0.000  0.000  1.000
    occupations:
  0.600  0.000  0.000  0.000  0.000
  0.000  0.600  0.000  0.000  0.000
  0.000  0.000  0.600  0.000  0.000
  0.000  0.000  0.000  0.600  0.000
  0.000  0.000  0.000  0.000  0.600
atom   22   Tr[ns(na)] =   6.00000
    eigenvalues:
  0.600  0.600  0.600  0.600  0.600
    eigenvectors:
  1.000  0.000  0.000  0.000  0.000
  0.000  1.000  0.000  0.000  0.000
  0.000  0.000  1.000  0.000  0.000
  0.000  0.000  0.000  1.000  0.000
  0.000  0.000  0.000  0.000  1.000
[...]
  0.697 -0.000 -0.006 -0.052  0.014
 -0.000  0.583  0.003  0.002  0.001
 -0.006  0.003  0.859  0.001 -0.006
 -0.052  0.002  0.001  0.620 -0.005
  0.014  0.001 -0.006 -0.005  0.875
atom   10   Tr[ns(na)] =   7.29696
    eigenvalues:
  0.504  0.523  0.778  0.860  0.983
    eigenvectors:
  0.986  0.000  0.000  0.001  0.012
  0.001  0.000  0.000  0.995  0.004
  0.000  0.000  1.000  0.000  0.000
  0.013  0.000  0.000  0.003  0.984
  0.000  1.000  0.000  0.000  0.000
    occupations:
  0.511 -0.009  0.002  0.054 -0.000
 -0.009  0.861  0.000  0.009 -0.000
  0.002  0.000  0.778 -0.001  0.005
  0.054  0.009 -0.001  0.976 -0.000
 -0.000 -0.000  0.005 -0.000  0.523
atom   16   Tr[ns(na)] =   7.24195
    eigenvalues:
  0.500  0.549  0.648  0.939  0.985
    eigenvectors:
  0.001  0.174  0.007  0.000  0.818
  0.998  0.000  0.000  0.000  0.001
  0.000  0.007  0.954  0.023  0.017
  0.000  0.818  0.016  0.000  0.165
  0.000  0.000  0.023  0.977  0.000
    occupations:
  0.906 -0.010  0.042 -0.161 -0.006
 -0.010  0.501 -0.005  0.003 -0.009
  0.042 -0.005  0.659 -0.010  0.043
 -0.161  0.003 -0.010  0.622  0.001
 -0.006 -0.009  0.043  0.001  0.932
atom   17   Tr[ns(na)] =   7.25543
    eigenvalues:
  0.550  0.604  0.608  0.879  0.986
    eigenvectors:
  0.002  0.033  0.948  0.000  0.017
  0.000  0.011  0.000  0.989  0.000
  0.000  0.955  0.034  0.011  0.000
  0.000  0.000  0.017  0.000  0.983
  0.998  0.000  0.001  0.000  0.000
    occupations:
  0.615 -0.003  0.000  0.049  0.002
 -0.003  0.876  0.029  0.001 -0.002
  0.000  0.029  0.608  0.001 -0.000
  0.049  0.001  0.001  0.980  0.000
  0.002 -0.002 -0.000  0.000  0.550
atom   22   Tr[ns(na)] =   7.30015
    eigenvalues:
  0.540  0.570  0.695  0.880  0.966
    eigenvectors:
  0.000  0.156  0.000  0.000  0.843
  0.998  0.001  0.000  0.000  0.000
  0.000  0.000  0.997  0.003  0.000
  0.001  0.843  0.000  0.000  0.156
  0.000  0.000  0.003  0.997  0.000
    occupations:
  0.904  0.003 -0.001 -0.144  0.001
  0.003  0.540  0.001  0.000 -0.000
 -0.001  0.001  0.695  0.000 -0.009
 -0.144  0.000  0.000  0.631 -0.002
  0.001 -0.000 -0.009 -0.002  0.880
atom   23   Tr[ns(na)] =   7.24748
    eigenvalues:
  0.551  0.584  0.615  0.894  0.980
    eigenvectors:
  0.000  0.001  0.978  0.003  0.017
  0.000  0.001  0.002  0.992  0.005
  0.000  0.998  0.001  0.001  0.000
  0.000  0.000  0.018  0.004  0.979
  1.000  0.000  0.000  0.000  0.000
    occupations:
  0.622  0.013 -0.001  0.048  0.001
  0.013  0.894  0.009 -0.008  0.000
 -0.001  0.009  0.584  0.001 -0.000
  0.048 -0.008  0.001  0.974 -0.000
  0.001  0.000 -0.000 -0.000  0.551
N of occupied +U levels =  58.0999382
 --- exit write_ns ---

     Threshold (ethr) on eigenvalues was too large:
     Diagonalizing with lowered threshold

     Davidson diagonalization with overlap
     ethr =  1.78E-08,  avg # of iterations =  2.1

[...]

     total energy              =   -2161.33952239 Ry
     Harris-Foulkes estimate   =   -2161.33952239 Ry
     estimated scf accuracy    <       0.00000001 Ry

     iteration # 23     ecut=    40.00 Ry     beta=0.70
     Davidson diagonalization with overlap
     ethr =  4.06E-12,  avg # of iterations =  1.0

     negative rho (up, down):  0.573E+00 0.000E+00

     End of self-consistent calculation
 --- enter write_ns ---
 LDA+U parameters:
U( 2)     =  6.50000000
alpha( 2) =  0.00000000
atom    3   Tr[ns(na)] =   7.23837
    eigenvalues:
  0.503  0.550  0.641  0.939  0.986
    eigenvectors:
  0.001  0.174  0.007  0.000  0.818
  0.998  0.000  0.000  0.001  0.001
  0.001  0.009  0.954  0.019  0.018
  0.000  0.817  0.020  0.000  0.164
  0.000  0.000  0.019  0.980  0.000
    occupations:
  0.907  0.010  0.044 -0.160  0.006
  0.010  0.504  0.006 -0.004 -0.009
  0.044  0.006  0.652 -0.011 -0.041
 -0.160 -0.004 -0.011  0.623 -0.001
  0.006 -0.009 -0.041 -0.001  0.933
atom    4   Tr[ns(na)] =   7.25375
    eigenvalues:
  0.550  0.599  0.607  0.884  0.986
    eigenvectors:
  0.004  0.010  0.968  0.000  0.018
  0.000  0.027  0.001  0.973  0.000
  0.000  0.963  0.010  0.027  0.000
  0.000  0.000  0.017  0.000  0.982
  0.996  0.000  0.004  0.000  0.000
    occupations:
  0.613 -0.002 -0.001  0.050  0.004
 -0.002  0.877  0.046 -0.001 -0.001
 -0.001  0.046  0.607  0.002  0.000
  0.050 -0.001  0.002  0.979  0.000
  0.004 -0.001  0.000  0.000  0.551
atom    9   Tr[ns(na)] =   7.26484
    eigenvalues:
  0.582  0.594  0.723  0.856  0.878
    eigenvectors:
  0.004  0.198  0.790  0.000  0.009
  0.979  0.021  0.000  0.000  0.000
  0.000  0.000  0.002  0.902  0.096
  0.018  0.781  0.200  0.000  0.001
  0.000  0.000  0.008  0.098  0.894
    occupations:
  0.698 -0.000 -0.006 -0.052  0.014
 -0.000  0.583  0.003  0.002  0.001
 -0.006  0.003  0.858  0.001 -0.006
 -0.052  0.002  0.001  0.620 -0.005
  0.014  0.001 -0.006 -0.005  0.874
atom   10   Tr[ns(na)] =   7.29688
    eigenvalues:
  0.504  0.523  0.778  0.860  0.983
    eigenvectors:
  0.986  0.000  0.000  0.001  0.012
  0.001  0.000  0.000  0.995  0.004
  0.000  0.000  1.000  0.000  0.000
  0.013  0.000  0.000  0.003  0.984
  0.000  1.000  0.000  0.000  0.000
    occupations:
  0.511 -0.009  0.002  0.054 -0.000
 -0.009  0.860  0.000  0.009 -0.000
  0.002  0.000  0.778 -0.001  0.005
  0.054  0.009 -0.001  0.976 -0.000
 -0.000 -0.000  0.005 -0.000  0.523
atom   16   Tr[ns(na)] =   7.24207
    eigenvalues:
  0.500  0.549  0.648  0.939  0.985
    eigenvectors:
  0.001  0.174  0.007  0.000  0.818
  0.998  0.000  0.000  0.000  0.001
  0.000  0.007  0.953  0.023  0.017
  0.000  0.818  0.016  0.000  0.165
  0.000  0.000  0.023  0.976  0.000
    occupations:
  0.906 -0.010  0.042 -0.161 -0.007
 -0.010  0.501 -0.005  0.003 -0.009
  0.042 -0.005  0.660 -0.010  0.043
 -0.161  0.003 -0.010  0.622  0.001
 -0.007 -0.009  0.043  0.001  0.932
atom   17   Tr[ns(na)] =   7.25613
    eigenvalues:
  0.550  0.605  0.608  0.879  0.986
    eigenvectors:
  0.001  0.040  0.941  0.000  0.017
  0.000  0.011  0.000  0.989  0.000
  0.000  0.948  0.041  0.011  0.000
  0.000  0.001  0.016  0.000  0.983
  0.998  0.000  0.001  0.000  0.000
    occupations:
  0.615 -0.003  0.000  0.049  0.002
 -0.003  0.876  0.029  0.001 -0.002
  0.000  0.029  0.608  0.001 -0.000
  0.049  0.001  0.001  0.980  0.000
  0.002 -0.002 -0.000  0.000  0.550
atom   22   Tr[ns(na)] =   7.30026
    eigenvalues:
  0.540  0.570  0.695  0.880  0.965
    eigenvectors:
  0.000  0.156  0.000  0.000  0.844
  0.999  0.001  0.000  0.000  0.000
  0.000  0.000  0.997  0.003  0.000
  0.001  0.843  0.000  0.000  0.156
  0.000  0.000  0.003  0.997  0.000
    occupations:
  0.904  0.003 -0.001 -0.144  0.001
  0.003  0.540  0.001  0.000 -0.000
 -0.001  0.001  0.695  0.000 -0.009
 -0.144  0.000  0.000  0.631 -0.002
  0.001 -0.000 -0.009 -0.002  0.880
atom   23   Tr[ns(na)] =   7.24742
    eigenvalues:
  0.551  0.584  0.615  0.894  0.980
    eigenvectors:
  0.000  0.001  0.978  0.003  0.017
  0.000  0.001  0.002  0.992  0.004
  0.000  0.998  0.001  0.001  0.000
  0.000  0.000  0.018  0.004  0.979
  1.000  0.000  0.000  0.000  0.000
    occupations:
  0.622  0.013 -0.001  0.048  0.001
  0.013  0.894  0.009 -0.008  0.000
 -0.001  0.009  0.584  0.001 -0.000
  0.048 -0.008  0.001  0.974 -0.000
  0.001  0.000 -0.000 -0.000  0.551
N of occupied +U levels =  58.0997199
 --- exit write_ns ---

[...]

          k = 0.2500-0.4870 0.0000 ( 30468 PWs)   bands (ev):

[...]

          k =-0.2500 0.2435 0.0000 ( 30434 PWs)   bands (ev):

   -73.9732 -73.7169 -73.6224 -73.6155 -73.3597 -73.2736 -73.2479 -73.2137
   -44.2242 -44.0326 -44.0283 -43.9516 -43.9430 -43.7668 -43.7070 -43.6963
   -43.6414 -43.6163 -43.5905 -43.4960 -43.4572 -43.4271 -43.3952 -43.3455
   -43.3055 -43.3024 -43.2758 -43.2542 -43.2243 -43.0466 -42.9794 -42.8681
   -20.7012 -20.3347 -20.2150 -20.1407 -20.0536 -19.9251 -19.8485 -19.8150
   -19.7183 -19.6175 -19.5758 -19.3308 -19.2674 -19.2364 -19.2116 -19.1720
   -19.0582 -19.0121 -18.9385  -9.4976  -9.1606  -9.0982  -8.9232  -8.8857
    -8.7322  -8.6100  -8.5919  -8.0057  -7.9150  -7.7903  -7.7408  -7.6127
    -7.5926  -7.5031  -7.4688  -7.4063  -7.2713  -7.1473  -6.8996  -6.7478
    -6.5516  -6.4351  -6.2667  -6.2037  -6.0989  -6.0198  -5.8873  -5.8045
    -5.7709  -5.6874  -5.5725  -5.5438  -5.4007  -5.2464  -5.1391  -5.0897
    -5.0292  -4.9695  -4.9330  -4.8174  -4.6539  -4.5305  -4.3892  -4.2663
    -4.1803  -4.1655  -4.0625  -3.9234  -3.8612  -3.7229  -3.6254  -3.5256
    -3.2864  -3.1887  -3.1178  -3.0122  -2.8972  -2.8050  -2.7600  -2.6474
    -2.6053  -2.4573  -2.4211  -2.3204  -2.2628  -2.1598  -2.1087  -2.0715
    -1.8574  -1.7186  -1.4421  -1.1686  -0.9655  -0.7132  -0.6656  -0.5162
    -0.3674  -0.2629  -0.1596   0.1993   1.1896   1.7670   1.9467   2.0184
     2.1712   2.6271   2.9200   3.0424   3.3640   3.4757   3.5555   3.6426
     3.7100   3.7744   3.9748   4.0006   4.1266   4.5280   4.6725   5.1124
     5.5629   5.6794   5.7816   6.0737   6.3537   6.4689   6.5709   6.6320
     6.8732   6.9543   6.9937   7.2385   7.5078   7.6901   7.8895   7.9466
     8.0618   8.2775   8.3412   8.4784   8.5846   8.6259   8.7487   8.8483
     8.9594   9.1220   9.2161   9.3759   9.4527   9.5961   9.6518   9.8629
     9.9646  10.0486  10.0926  10.1555  10.2195  10.3095  10.3650  10.4863
    10.5399  10.6573  10.7418  10.9015  10.9378  10.9776  11.1353  11.3155
    11.3823  11.4423  11.5761  11.5867  11.6452  11.8315  11.8673  11.9032
    12.0020  12.0543  12.0980  12.1936  12.2664  12.3928  12.4188  12.5224
    12.5983  12.6587  12.7378  12.7891  12.8088  12.9273  12.9725  13.0358
    13.1383  13.1711  13.2150  13.3328  13.4094  13.5033  13.6332  13.6977
    13.7569  13.8580  13.9628  14.0747  14.1161  14.2174  14.2938  14.3576
    14.4313  14.5705  14.6017  14.6490  14.7310  14.8438  14.9469  14.9842
    15.0440  15.1646  15.2210  15.2702  15.3662  15.4470  15.5356  15.5639
    15.6349  15.7494  15.7800  15.8463  15.8648  15.9068  15.9577  16.0271
    16.1044  16.1556  16.2117  16.2570  16.3000  16.3745  16.5065  16.5637
    16.6260  16.6962  16.7394  16.8386  16.8939  16.9155  16.9616  17.0966
    17.1774  17.2267  17.3268  17.4041  17.4480  17.4780  17.5115  17.5700
    17.6363  17.6770  17.7580  17.8143  17.8722  17.9444  17.9865  18.0581
    18.1439  18.1611  18.2373  18.2972  18.3321  18.4546  18.5580  18.6217
    18.7066  18.7807  18.8328  18.8887  18.9465  19.0198  19.1021  19.1795
    19.2301  19.2911  19.4185  19.4630  19.5157  19.7078  19.7268  19.7650
    19.7923  19.8797  19.9648  20.0551  20.1492  20.2431  20.3123  20.3988
    20.4556  20.5787  20.6371  20.7313  20.7804  20.8596  20.9109  20.9604
    21.0091  21.0478  21.1365  21.2308  21.2748  21.3110  21.3329  21.3882
    21.4390  21.5051  21.5708  21.6082  21.6908  21.7764  21.8646  21.9240
    21.9535  21.9864  22.0086  22.0812  22.1487  22.2368

     the Fermi energy is    -1.1924 ev

!    total energy              =   -2161.33952238 Ry
     Harris-Foulkes estimate   =   -2161.33952239 Ry
     estimated scf accuracy    <          9.1E-09 Ry

     The total energy is the sum of the following terms:

     one-electron contribution =  -25249.32026695 Ry
     hartree contribution      =   12651.24050577 Ry
     xc contribution           =    -338.74956636 Ry
     ewald contribution        =   10772.29345593 Ry
     Hubbard energy            =       3.19768650 Ry
     smearing contrib. (-TS)   =      -0.00133727 Ry

     convergence has been achieved in  23 iterations

     Forces acting on atoms (Ry/au):

     negative rho (up, down):  0.573E+00 0.000E+00
     atom    1 type  1   force =    -0.00596932   -0.00782987    0.00038702
     atom    2 type  1   force =     0.00079068    0.00206876    0.00037345
     atom    3 type  2   force =     0.01044319    0.00244194   -0.00002580
     atom    4 type  2   force =     0.00469797    0.00501800    0.00010854
     atom    5 type  1   force =    -0.00219139   -0.05096275   -0.00037229
     atom    6 type  1   force =     0.00485846    0.05310995   -0.00032461
     atom    7 type  1   force =     0.00546638   -0.00222960    0.00065950
     atom    8 type  1   force =     0.02664461   -0.00035923    0.00014694
     atom    9 type  2   force =    -0.00650396    0.00034217   -0.00039762
     atom   10 type  2   force =    -0.00495995   -0.00120463    0.00049106
     atom   11 type  1   force =    -0.01467958    0.01460833   -0.00027451
     atom   12 type  1   force =    -0.01489255   -0.01505663   -0.00031591
     atom   13 type  1   force =     0.03192441   -0.00192982   -0.00016079
     atom   14 type  1   force =    -0.00508198   -0.00622968    0.00025560
     atom   15 type  1   force =    -0.00045476    0.00136309    0.00036255
     atom   16 type  2   force =    -0.01167897    0.00856986    0.00002090
     atom   17 type  2   force =     0.00539138    0.00447519    0.00008566
     atom   18 type  1   force =    -0.00339434   -0.05490917   -0.00041860
     atom   19 type  1   force =     0.00615360    0.05054836   -0.00038049
     atom   20 type  1   force =    -0.00670757   -0.00349500   -0.00099426
     atom   21 type  1   force =    -0.03161297   -0.00061462    0.00032224
     atom   22 type  2   force =    -0.00652010   -0.00013660    0.00014612
     atom   23 type  2   force =     0.00430633    0.00060316   -0.00012581
     atom   24 type  1   force =     0.01836507    0.03465334   -0.00055607
     atom   25 type  1   force =     0.01794542   -0.03418449   -0.00055750
     atom   26 type  1   force =    -0.02184204    0.00232779   -0.00020476
     atom   27 type  3   force =    -0.00004430   -0.00002122    0.00035639
     atom   28 type  3   force =    -0.00001866   -0.00043480   -0.00001822
     atom   29 type  3   force =    -0.00014084   -0.00010870    0.00004816
     atom   30 type  3   force =    -0.00003635   -0.00001607    0.00025904
     atom   31 type  1   force =    -0.00009962   -0.00012191    0.00044489
     atom   32 type  3   force =    -0.00015825   -0.00028515    0.00065915

     Total force =     0.002259     Total SCF correction =     0.000324
     SCF correction compared to forces is large: reduce conv_thr to get better values

     bfgs converged in  25 scf cycles and  24 bfgs steps
     (criteria: energy < 0.10E-03, force < 0.10E-02)

     End of BFGS Geometry Optimization

     Final energy   =   -2161.3395223842 Ry
Begin final coordinates

ATOMIC_POSITIONS (crystal)
O0       0.000000000   0.000000000   0.380781321    0   0   1
O0       0.000000000   0.500000000   0.401260603    0   0   1
Ru1      0.250000000   0.500000000   0.452745763    0   0   1
Ru1      0.000000000   0.000000000   0.454023382    0   0   1
O0       0.250000000   0.810000000   0.453772765    0   0   1
O0       0.250000000   0.190000000   0.453467475    0   0   1
O0       0.000000000   0.500000000   0.498561786    0   0   1
O0       0.000000000   0.000000000   0.526794575    0   0   1
Ru1      0.250000000   0.000000000   0.581110681    0   0   1
Ru1      0.000000000   0.500000000   0.568483910    0   0   1
O0       0.250000000   0.690000000   0.576576398    0   0   1
O0       0.250000000   0.310000000   0.576763746    0   0   1
O0       0.000000000   0.000000000   0.619357259    0   0   1
O0       0.500000000   0.000000000   0.380955193    0   0   1
O0       0.500000000   0.500000000   0.403648224    0   0   1
Ru1      0.750000000   0.500000000   0.452714907    0   0   1
Ru1      0.500000000   0.000000000   0.454250018    0   0   1
O0       0.750000000   0.810000000   0.453674515    0   0   1
O0       0.750000000   0.190000000   0.453507934    0   0   1
O0       0.500000000   0.500000000   0.502354457    0   0   1
O0       0.500000000   0.000000000   0.526648691    0   0   1
Ru1      0.750000000   0.000000000   0.574654446    0   0   1
Ru1      0.500000000   0.500000000   0.575118255    0   0   1
O0       0.750000000   0.690000000   0.573158103    0   0   1
O0       0.750000000   0.310000000   0.572964531    0   0   1
O0       0.500000000   0.000000000   0.618710784    0   0   1
H2      -0.000553030   0.628710533   0.380817559
H2       0.499211813   0.608653513   0.377322467
H2       0.146437998   0.029222644   0.368364528
H2       0.647572910   0.022794780   0.368469901
O0       0.521389382   0.498065724   0.646928713
H2       0.381053444   0.492656327   0.663857109
End final coordinates

     General routines

     Parallel routines
     Hubbard U routines

   This run was terminated on:  16:49: 2  29Apr2014

   JOB DONE.
Running PBS batch system epilogue script
Job id: 340463.audhumbla.fysik.dtu.dk
Username: zhonxu
Groupname: campgst
Jobname: RuO2/Eads-2-layers/OH-U-6.5
Sessionid: 25170
Queuename: verylong
Accounting:
This job has allocated the following 16 nodes:
a084 a084 a084 a084 a084 a084 a084 a084 a082 a082 a082 a082 a082 a082 a082 a082
Finished epilogue job 340463.audhumbla.fysik.dtu.dk for zhonxu