     Program PWSCF v.5.0.2 (svn rev. 9656) starts on 24Jan2014 at 15:45:29

     Current dimensions of program PWSCF are:
     Max number of different atomic species (ntypx) = 10
     Max number of k-points (npk) =  40000
     Max angular momentum in pseudopotentials (lmaxx) =  3
     Reading input from MoO2-v-0.95.in

     Subspace diagonalization in iterative solution of the eigenvalue problem:
     a serial algorithm will be used

     bravais-lattice index     =            0
     lattice parameter (alat)  =       8.6936  a.u.
     unit-cell volume          =     423.4283 (a.u.)^3
     number of atoms/cell      =            6
     number of atomic types    =            2
     number of electrons       =        52.00
     number of Kohn-Sham states=           78
     kinetic-energy cutoff     =      40.0000  Ry
     charge density cutoff     =     500.0000  Ry
     convergence threshold     =      1.0E-06
     mixing beta               =       0.3000
     number of iterations used =            8  plain     mixing
     Exchange-correlation      = SLA  PW   PBE  PBE ( 1 4 3 4 0)
     EXX-fraction              =        0.00
     nstep                     =           50

     celldm(1)=   8.693570  celldm(2)=   0.000000  celldm(3)=   0.000000
     celldm(4)=   0.000000  celldm(5)=   0.000000  celldm(6)=   0.000000

     crystal axes: (cart. coord. in units of alat)
               a(1) = (   1.000000   0.000000   0.000000 )
               a(2) = (   0.000000   1.000000   0.000000 )
               a(3) = (   0.000000   0.000000   0.644444 )

     reciprocal axes: (cart. coord. in units 2 pi/alat)
               b(1) = (  1.000000  0.000000  0.000000 )
               b(2) = (  0.000000  1.000000  0.000000 )
               b(3) = (  0.000000  0.000000  1.551724 )

     PseudoPot. # 1 for Mo read from file:
     /home/camp/zhonxu/pseudo/mo_pbe_v1.uspp.F.UPF
     MD5 check sum: 30c4dcd161f5d35cd49bb5239c51a633
     Pseudo is Ultrasoft + core correction, Zval = 14.0
     Generated by new atomic code, or converted to UPF format
     Using radial grid of  889 points,  6 beta functions with:
                l(1) =   0
                l(2) =   0
                l(3) =   1
                l(4) =   1
                l(5) =   2
                l(6) =   2
     Q(r) pseudized with  6 coefficients,  rinner =    1.000   1.000   1.000
                                                       1.000   1.000

     PseudoPot. # 2 for O  read from file:
     /home/camp/zhonxu/pseudo/o_pbe_v1.01.uspp.F.UPF
     MD5 check sum: 2bcb18d16ea4b960afae9ec6d52f22d2
     Pseudo is Ultrasoft + core correction, Zval =  6.0
     Generated by new atomic code, or converted to UPF format
     Using radial grid of  737 points,  5 beta functions with:
                l(1) =   0
                l(2) =   0
                l(3) =   1
                l(4) =   1
                l(5) =   2
     Q(r) pseudized with  8 coefficients,  rinner =    0.900   0.900   0.900
                                                       0.900   0.900

     atomic species   valence    mass     pseudopotential
        Mo0           14.00    95.94000     Mo( 1.00)
        O1             6.00    15.99940     O ( 1.00)

     Starting magnetic structure
     atomic species   magnetization
        Mo0          0.000
        O1           0.000

     16 Sym. Ops., with inversion, found ( 8 have fractional translation)

   Cartesian axes

     site n.     atom                  positions (alat units)
         1           Mo0 tau(   1) = (   0.0000000   0.0000000   0.0000000  )
         2           Mo0 tau(   2) = (   0.5000000   0.5000000   0.3222222  )
         3           O1  tau(   3) = (   0.3050000   0.3050000   0.0000000  )
         4           O1  tau(   4) = (  -0.3050000  -0.3050000   0.0000000  )
         5           O1  tau(   5) = (   0.8050000   0.1950000   0.3222222  )
         6           O1  tau(   6) = (   0.1950000   0.8050000   0.3222222  )

     number of k points=    36  Methfessel-Paxton smearing, width (Ry)=  0.0100
                       cart. coord. in units 2pi/alat
        k(    1) = (   0.0000000   0.0000000   0.0000000), wk =   0.0080000
        k(    2) = (   0.0000000   0.0000000   0.3103448), wk =   0.0160000
        k(    3) = (   0.0000000   0.0000000   0.6206897), wk =   0.0160000
        k(    4) = (   0.0000000   0.2000000   0.0000000), wk =   0.0320000
        k(    5) = (   0.0000000   0.2000000   0.3103448), wk =   0.0640000
        k(    6) = (   0.0000000   0.2000000   0.6206897), wk =   0.0640000
        k(    7) = (   0.0000000   0.4000000   0.0000000), wk =   0.0320000
        k(    8) = (   0.0000000   0.4000000   0.3103448), wk =   0.0640000
        k(    9) = (   0.0000000   0.4000000   0.6206897), wk =   0.0640000
        k(   10) = (   0.2000000   0.2000000   0.0000000), wk =   0.0320000
        k(   11) = (   0.2000000   0.2000000   0.3103448), wk =   0.0640000
        k(   12) = (   0.2000000   0.2000000   0.6206897), wk =   0.0640000
        k(   13) = (   0.2000000   0.4000000   0.0000000), wk =   0.0640000
        k(   14) = (   0.2000000   0.4000000   0.3103448), wk =   0.1280000
        k(   15) = (   0.2000000   0.4000000   0.6206897), wk =   0.1280000
        k(   16) = (   0.4000000   0.4000000   0.0000000), wk =   0.0320000
        k(   17) = (   0.4000000   0.4000000   0.3103448), wk =   0.0640000
        k(   18) = (   0.4000000   0.4000000   0.6206897), wk =   0.0640000
        k(   19) = (   0.0000000   0.0000000   0.0000000), wk =   0.0080000
        k(   20) = (   0.0000000   0.0000000   0.3103448), wk =   0.0160000
        k(   21) = (   0.0000000   0.0000000   0.6206897), wk =   0.0160000
        k(   22) = (   0.0000000   0.2000000   0.0000000), wk =   0.0320000
        k(   23) = (   0.0000000   0.2000000   0.3103448), wk =   0.0640000
        k(   24) = (   0.0000000   0.2000000   0.6206897), wk =   0.0640000
        k(   25) = (   0.0000000   0.4000000   0.0000000), wk =   0.0320000
        k(   26) = (   0.0000000   0.4000000   0.3103448), wk =   0.0640000
        k(   27) = (   0.0000000   0.4000000   0.6206897), wk =   0.0640000
        k(   28) = (   0.2000000   0.2000000   0.0000000), wk =   0.0320000
        k(   29) = (   0.2000000   0.2000000   0.3103448), wk =   0.0640000
        k(   30) = (   0.2000000   0.2000000   0.6206897), wk =   0.0640000
        k(   31) = (   0.2000000   0.4000000   0.0000000), wk =   0.0640000
        k(   32) = (   0.2000000   0.4000000   0.3103448), wk =   0.1280000
        k(   33) = (   0.2000000   0.4000000   0.6206897), wk =   0.1280000
        k(   34) = (   0.4000000   0.4000000   0.0000000), wk =   0.0320000
        k(   35) = (   0.4000000   0.4000000   0.3103448), wk =   0.0640000
        k(   36) = (   0.4000000   0.4000000   0.6206897), wk =   0.0640000

     Largest allocated arrays     est. size (Mb)     dimensions
     Largest temporary arrays     est. size (Mb)     dimensions

     Check: negative/imaginary core charge=   -0.000008    0.000000

     Initial potential from superposition of free atoms

     starting charge   51.99787, renormalised to   52.00000
     Starting wfc are   42 randomized atomic wfcs

     Self-consistent Calculation

     iteration #  1     ecut=    40.00 Ry     beta=0.30
     Davidson diagonalization with overlap
     ethr =  1.00E-02,  avg # of iterations =  5.3

     total energy              =    -407.42098690 Ry
     Harris-Foulkes estimate   =    -408.10927540 Ry
     estimated scf accuracy    <       1.59514011 Ry

     total magnetization       =     0.00 Bohr mag/cell
     absolute magnetization    =     0.00 Bohr mag/cell

[...]

     End of self-consistent calculation

 ------ SPIN UP ------------

          k = 0.0000 0.0000 0.0000 (  1843 PWs)   bands (ev):

   -47.5906 -47.5694 -21.8581 -21.8581 -21.7053 -21.6488 -21.6160 -21.6160
    -6.5071  -5.7223  -4.3445  -4.3445   5.2686   5.4640   6.3495   7.1037
     7.1037   9.3777   9.3777   9.9276  10.8932  11.0285  11.0285  11.6489
    13.6981  14.0633  14.5261  14.6256  14.6256  17.8143  17.8595  19.5757
    20.8404  20.8404  22.2970  23.4338  23.4338  26.8756  28.9759  29.6911
    30.1194  30.3150  31.4954  31.4954  34.1442  34.1764  34.9684  34.9684
    35.8357  35.8357  37.0752  40.7578  40.7578  41.0214  41.6924  41.8533
    43.6671  44.5689  44.5689  45.2125  45.2369  45.2369  45.2933  45.3275
    46.6620  47.3020  47.3020  47.8776  49.5111  51.6476  51.8611  51.8611
    52.4922  53.0505  53.0505  53.1069  53.9465  54.2929

[...]

 ------ SPIN DOWN ----------

[...]

     the Fermi energy is    14.9209 ev

!    total energy              =    -407.72875382 Ry
     Harris-Foulkes estimate   =    -407.72874852 Ry
     estimated scf accuracy    <       0.00000060 Ry

     The total energy is the sum of the following terms:

     one-electron contribution =    -102.63187385 Ry
     hartree contribution      =      82.68000809 Ry
     xc contribution           =     -67.81827125 Ry
     ewald contribution        =    -319.95806539 Ry
     smearing contrib. (-TS)   =      -0.00055143 Ry

[...]

     convergence has been achieved in   8 iterations

     Forces acting on atoms (Ry/au):

     atom    1 type  1   force =     0.00000000    0.00000000    0.00000000
     atom    2 type  1   force =     0.00000000    0.00000000   -0.00000000
     atom    3 type  2   force =    -0.05686357   -0.05686357    0.00000000
     atom    4 type  2   force =     0.05686357    0.05686357   -0.00000000
     atom    5 type  2   force =    -0.05686357    0.05686357    0.00000000
     atom    6 type  2   force =     0.05686357   -0.05686357    0.00000000

     Total force =     0.160834     Total SCF correction =     0.000306

     entering subroutine stress ...

          total   stress  (Ry/bohr**3)                   (kbar)     P=  259.12
   0.00186356   0.00000000   0.00000000        274.14      0.00      0.00
   0.00000000   0.00186356   0.00000000          0.00    274.14      0.00
   0.00000000   0.00000000   0.00155723          0.00      0.00    229.08

     Volume is kept fixed: isostatic pressure set to zero

     BFGS Geometry Optimization

     number of scf cycles    =   1
     number of bfgs steps    =   0

     enthalpy new            =    -407.7287538215 Ry

     new trust radius        =       0.0804172266 bohr
     new conv_thr            =       0.0000010000 Ry

     new unit-cell volume =    423.42830 a.u.^3 (    62.74560 Ang^3 )

CELL_PARAMETERS (alat=  8.69356955)
   1.002559301   0.000000000   0.000000000
   0.000000000   1.002559301   0.000000000
   0.000000000   0.000000000   0.641158411

ATOMIC_POSITIONS (crystal)
Mo0      0.000000000   0.000000000   0.000000000    0   0   0
Mo0      0.500000000   0.500000000   0.500000000    0   0   0
O1       0.298459123   0.298459123   0.000000000    1   1   0
O1      -0.298459123  -0.298459123   0.000000000    1   1   0
O1       0.798459123   0.201540877   0.500000000    1   1   0
O1       0.201540877   0.798459123   0.500000000    1   1   0

     NEW-OLD atomic charge density approx. for the potential
     NEW k-points:
        k(    1) = (   0.0000000   0.0000000   0.0000000), wk =   0.0080000
[...]
        k(   17) = (   0.3787245   0.3787245   0.3461926), wk =   0.0640000
        k(   18) = (   0.3787245   0.3787245   0.6923852), wk =   0.0640000
        k(   19) = (   0.0000000   0.0000000   0.0000000), wk =   0.0080000
        k(   20) = (   0.0000000   0.0000000   0.3461926), wk =   0.0160000
        k(   21) = (   0.0000000   0.0000000   0.6923852), wk =   0.0160000
        k(   22) = (   0.0000000   0.1893622   0.0000000), wk =   0.0320000
        k(   23) = (   0.0000000   0.1893622   0.3461926), wk =   0.0640000
        k(   24) = (   0.0000000   0.1893622   0.6923852), wk =   0.0640000
        k(   25) = (   0.0000000   0.3787245   0.0000000), wk =   0.0320000
        k(   26) = (   0.0000000   0.3787245   0.3461926), wk =   0.0640000
        k(   27) = (   0.0000000   0.3787245   0.6923852), wk =   0.0640000
        k(   28) = (   0.1893622   0.1893622   0.0000000), wk =   0.0320000
        k(   29) = (   0.1893622   0.1893622   0.3461926), wk =   0.0640000
        k(   30) = (   0.1893622   0.1893622   0.6923852), wk =   0.0640000
        k(   31) = (   0.1893622   0.3787245   0.0000000), wk =   0.0640000
        k(   32) = (   0.1893622   0.3787245   0.3461926), wk =   0.1280000
        k(   33) = (   0.1893622   0.3787245   0.6923852), wk =   0.1280000
        k(   34) = (   0.3787245   0.3787245   0.0000000), wk =   0.0320000
        k(   35) = (   0.3787245   0.3787245   0.3461926), wk =   0.0640000
        k(   36) = (   0.3787245   0.3787245   0.6923852), wk =   0.0640000

[...]

     Threshold (ethr) on eigenvalues was too large:
     Diagonalizing with lowered threshold

     Davidson diagonalization with overlap
     ethr =  4.68E-08,  avg # of iterations =  1.1

[...]

     Total force =     0.000054     Total SCF correction =     0.000068
     SCF correction compared to forces is large: reduce conv_thr to get better values

[...]

     Volume is kept fixed: isostatic pressure set to zero
Begin final coordinates
     new unit-cell volume =    423.42830 a.u.^3 (    62.74560 Ang^3 )

[...]

ATOMIC_POSITIONS (crystal)
Mo0      0.000000000   0.000000000   0.000000000    0   0   0
Mo0      0.500000000   0.500000000   0.500000000    0   0   0
O1       0.280153644   0.280153644   0.000000000    1   1   0
O1      -0.280153644  -0.280153644   0.000000000    1   1   0
O1       0.780153644   0.219846356   0.500000000    1   1   0
O1       0.219846356   0.780153644   0.500000000    1   1   0
End final coordinates

     lsda relaxation :  a final configuration with zero
                        absolute magnetization has been found

     the program is checking if it is really the minimum energy structure
     by performing a new scf iteration without any "electronic" history

[...]

     starting charge   51.99787, renormalised to   52.00000
     Starting wfc are   42 randomized atomic wfcs
     NEW-OLD atomic charge density approx. for the potential
     NEW k-points:
        k(    1) = (   0.0000000   0.0000000   0.0000000), wk =   0.0080000
        k(    2) = (   0.0000000   0.0000000   0.3461926), wk =   0.0160000
        k(    3) = (   0.0000000   0.0000000   0.6923852), wk =   0.0160000
        k(    4) = (   0.0000000   0.1893622   0.0000000), wk =   0.0320000
        k(    5) = (   0.0000000   0.1893622   0.3461926), wk =   0.0640000
        k(    6) = (   0.0000000   0.1893622   0.6923852), wk =   0.0640000
        k(    7) = (   0.0000000   0.3787245   0.0000000), wk =   0.0320000
        k(    8) = (   0.0000000   0.3787245   0.3461926), wk =   0.0640000
        k(    9) = (   0.0000000   0.3787245   0.6923852), wk =   0.0640000
        k(   10) = (   0.1893622   0.1893622   0.0000000), wk =   0.0320000
        k(   11) = (   0.1893622   0.1893622   0.3461926), wk =   0.0640000
        k(   12) = (   0.1893622   0.1893622   0.6923852), wk =   0.0640000
        k(   13) = (   0.1893622   0.3787245   0.0000000), wk =   0.0640000
        k(   14) = (   0.1893622   0.3787245   0.3461926), wk =   0.1280000
        k(   15) = (   0.1893622   0.3787245   0.6923852), wk =   0.1280000
        k(   16) = (   0.3787245   0.3787245   0.0000000), wk =   0.0320000
        k(   17) = (   0.3787245   0.3787245   0.3461926), wk =   0.0640000
        k(   18) = (   0.3787245   0.3787245   0.6923852), wk =   0.0640000
        k(   19) = (   0.0000000   0.0000000   0.0000000), wk =   0.0080000
        k(   20) = (   0.0000000   0.0000000   0.3461926), wk =   0.0160000
        k(   21) = (   0.0000000   0.0000000   0.6923852), wk =   0.0160000
        k(   22) = (   0.0000000   0.1893622   0.0000000), wk =   0.0320000
        k(   23) = (   0.0000000   0.1893622   0.3461926), wk =   0.0640000
        k(   24) = (   0.0000000   0.1893622   0.6923852), wk =   0.0640000
        k(   25) = (   0.0000000   0.3787245   0.0000000), wk =   0.0320000
        k(   26) = (   0.0000000   0.3787245   0.3461926), wk =   0.0640000
        k(   27) = (   0.0000000   0.3787245   0.6923852), wk =   0.0640000
        k(   28) = (   0.1893622   0.1893622   0.0000000), wk =   0.0320000
        k(   29) = (   0.1893622   0.1893622   0.3461926), wk =   0.0640000
        k(   30) = (   0.1893622   0.1893622   0.6923852), wk =   0.0640000
        k(   31) = (   0.1893622   0.3787245   0.0000000), wk =   0.0640000
        k(   32) = (   0.1893622   0.3787245   0.3461926), wk =   0.1280000
        k(   33) = (   0.1893622   0.3787245   0.6923852), wk =   0.1280000
        k(   34) = (   0.3787245   0.3787245   0.0000000), wk =   0.0320000
        k(   35) = (   0.3787245   0.3787245   0.3461926), wk =   0.0640000
        k(   36) = (   0.3787245   0.3787245   0.6923852), wk =   0.0640000

[...]

     Volume is kept fixed: isostatic pressure set to zero

     bfgs converged in   8 scf cycles and   7 bfgs steps
     (criteria: energy < 0.10E-03, force < 0.10E-02, cell < 0.50E+00)

     End of BFGS Geometry Optimization

     Final enthalpy =    -407.8159465772 Ry
Begin final coordinates
     new unit-cell volume =    423.42830 a.u.^3 (    62.74560 Ang^3 )

CELL_PARAMETERS (alat=  8.69356955)
   1.056176795   0.000000000   0.000000000
   0.000000000   1.056176795   0.000000000
   0.000000000   0.000000000   0.577713134

ATOMIC_POSITIONS (crystal)
Mo0      0.000000000   0.000000000   0.000000000    0   0   0
Mo0      0.500000000   0.500000000   0.500000000    0   0   0
O1       0.280153644   0.280153644   0.000000000    1   1   0
O1      -0.280153644  -0.280153644   0.000000000    1   1   0
O1       0.780153644   0.219846356   0.500000000    1   1   0
O1       0.219846356   0.780153644   0.500000000    1   1   0
End final coordinates

     A final scf calculation at the relaxed structure.
     The G-vectors are recalculated for the final unit cell
     Results may differ from those at the preceding step.

     bravais-lattice index     =            0
     lattice parameter (alat)  =       8.6936  a.u.
     unit-cell volume          =     423.4283 (a.u.)^3
     number of atoms/cell      =            6
     number of atomic types    =            2
     number of electrons       =        52.00
     number of Kohn-Sham states=           78
     kinetic-energy cutoff     =      40.0000  Ry
     charge density cutoff     =     500.0000  Ry
     convergence threshold     =      1.5E-08
     mixing beta               =       0.3000
     number of iterations used =            8  plain     mixing
     Exchange-correlation      = SLA  PW   PBE  PBE ( 1 4 3 4 0)
     EXX-fraction              =        0.00

     celldm(1)=   8.693570  celldm(2)=   0.000000  celldm(3)=   0.000000
     celldm(4)=   0.000000  celldm(5)=   0.000000  celldm(6)=   0.000000

     crystal axes: (cart. coord. in units of alat)
               a(1) = (   1.056177   0.000000   0.000000 )
               a(2) = (   0.000000   1.056177   0.000000 )
               a(3) = (   0.000000   0.000000   0.577713 )

     reciprocal axes: (cart. coord. in units 2 pi/alat)
               b(1) = (  0.946811  0.000000  0.000000 )
               b(2) = (  0.000000  0.946811  0.000000 )
               b(3) = (  0.000000  0.000000  1.730963 )

     PseudoPot. # 1 for Mo read from file:
     /home/camp/zhonxu/pseudo/mo_pbe_v1.uspp.F.UPF
     MD5 check sum: 30c4dcd161f5d35cd49bb5239c51a633
     Pseudo is Ultrasoft + core correction, Zval = 14.0
     Generated by new atomic code, or converted to UPF format
     Using radial grid of  889 points,  6 beta functions with:
                l(1) =   0
                l(2) =   0
                l(3) =   1
                l(4) =   1
                l(5) =   2
                l(6) =   2
     Q(r) pseudized with  6 coefficients,  rinner =    1.000   1.000   1.000
                                                       1.000   1.000

     PseudoPot. # 2 for O  read from file:
     /home/camp/zhonxu/pseudo/o_pbe_v1.01.uspp.F.UPF
     MD5 check sum: 2bcb18d16ea4b960afae9ec6d52f22d2
     Pseudo is Ultrasoft + core correction, Zval =  6.0
     Generated by new atomic code, or converted to UPF format
     Using radial grid of  737 points,  5 beta functions with:
                l(1) =   0
                l(2) =   0
                l(3) =   1
                l(4) =   1
                l(5) =   2
     Q(r) pseudized with  8 coefficients,  rinner =    0.900   0.900   0.900
                                                       0.900   0.900

     atomic species   valence    mass     pseudopotential
        Mo0           14.00    95.94000     Mo( 1.00)
        O1             6.00    15.99940     O ( 1.00)

     Starting magnetic structure
     atomic species   magnetization
        Mo0          0.000
        O1           0.000

     16 Sym. Ops., with inversion, found ( 8 have fractional translation)

   Cartesian axes

     site n.     atom                  positions (alat units)
         1           Mo0 tau(   1) = (   0.0000000   0.0000000   0.0000000  )
         2           Mo0 tau(   2) = (   0.5280884   0.5280884   0.2888566  )
         3           O1  tau(   3) = (   0.2958918   0.2958918   0.0000000  )
         4           O1  tau(   4) = (  -0.2958918  -0.2958918   0.0000000  )
         5           O1  tau(   5) = (   0.8239802   0.2321966   0.2888566  )
         6           O1  tau(   6) = (   0.2321966   0.8239802   0.2888566  )

     number of k points=    36  Methfessel-Paxton smearing, width (Ry)=  0.0100
                       cart. coord. in units 2pi/alat
        k(    1) = (   0.0000000   0.0000000   0.0000000), wk =   0.0080000
        k(    2) = (   0.0000000   0.0000000   0.3461926), wk =   0.0160000
        k(    3) = (   0.0000000   0.0000000   0.6923852), wk =   0.0160000
        k(    4) = (   0.0000000   0.1893622   0.0000000), wk =   0.0320000
        k(    5) = (   0.0000000   0.1893622   0.3461926), wk =   0.0640000
        k(    6) = (   0.0000000   0.1893622   0.6923852), wk =   0.0640000
        k(    7) = (   0.0000000   0.3787245   0.0000000), wk =   0.0320000
        k(    8) = (   0.0000000   0.3787245   0.3461926), wk =   0.0640000
        k(    9) = (   0.0000000   0.3787245   0.6923852), wk =   0.0640000
        k(   10) = (   0.1893622   0.1893622   0.0000000), wk =   0.0320000
        k(   11) = (   0.1893622   0.1893622   0.3461926), wk =   0.0640000
        k(   12) = (   0.1893622   0.1893622   0.6923852), wk =   0.0640000
        k(   13) = (   0.1893622   0.3787245   0.0000000), wk =   0.0640000
        k(   14) = (   0.1893622   0.3787245   0.3461926), wk =   0.1280000
        k(   15) = (   0.1893622   0.3787245   0.6923852), wk =   0.1280000
        k(   16) = (   0.3787245   0.3787245   0.0000000), wk =   0.0320000
        k(   17) = (   0.3787245   0.3787245   0.3461926), wk =   0.0640000
        k(   18) = (   0.3787245   0.3787245   0.6923852), wk =   0.0640000
        k(   19) = (   0.0000000   0.0000000   0.0000000), wk =   0.0080000
        k(   20) = (   0.0000000   0.0000000   0.3461926), wk =   0.0160000
        k(   21) = (   0.0000000   0.0000000   0.6923852), wk =   0.0160000
        k(   22) = (   0.0000000   0.1893622   0.0000000), wk =   0.0320000
        k(   23) = (   0.0000000   0.1893622   0.3461926), wk =   0.0640000
        k(   24) = (   0.0000000   0.1893622   0.6923852), wk =   0.0640000
        k(   25) = (   0.0000000   0.3787245   0.0000000), wk =   0.0320000
        k(   26) = (   0.0000000   0.3787245   0.3461926), wk =   0.0640000
        k(   27) = (   0.0000000   0.3787245   0.6923852), wk =   0.0640000
        k(   28) = (   0.1893622   0.1893622   0.0000000), wk =   0.0320000
        k(   29) = (   0.1893622   0.1893622   0.3461926), wk =   0.0640000
        k(   30) = (   0.1893622   0.1893622   0.6923852), wk =   0.0640000
        k(   31) = (   0.1893622   0.3787245   0.0000000), wk =   0.0640000
        k(   32) = (   0.1893622   0.3787245   0.3461926), wk =   0.1280000
        k(   33) = (   0.1893622   0.3787245   0.6923852), wk =   0.1280000
        k(   34) = (   0.3787245   0.3787245   0.0000000), wk =   0.0320000
        k(   35) = (   0.3787245   0.3787245   0.3461926), wk =   0.0640000
        k(   36) = (   0.3787245   0.3787245   0.6923852), wk =   0.0640000

     Largest allocated arrays     est. size (Mb)     dimensions
     Largest temporary arrays     est. size (Mb)     dimensions

     Check: negative/imaginary core charge=   -0.000008    0.000000

     Initial potential from superposition of free atoms

     starting charge   51.99787, renormalised to   52.00000
     Starting wfc are   42 randomized atomic wfcs

     Self-consistent Calculation

[...]

     total energy              =    -407.81621712 Ry
     Harris-Foulkes estimate   =    -407.81621564 Ry
     estimated scf accuracy    <       0.00000003 Ry

[...]

     iteration # 10     ecut=    40.00 Ry     beta=0.30
     Davidson diagonalization with overlap
     ethr =  4.89E-11,  avg # of iterations =  2.0

     negative rho (up, down):  0.371E-05 0.371E-05

     End of self-consistent calculation

 ------ SPIN UP ------------

[...]

 ------ SPIN DOWN ----------

[...]

          k = 0.3787 0.3787 0.6924 (  1823 PWs)   bands (ev):

   -47.9102 -47.9098 -22.6813 -22.6782 -22.3157 -22.3110 -21.9294 -21.9285
    -5.3618  -5.0980  -4.9055  -4.6083   6.2931   6.6582   6.8490   7.1782
     7.4491   7.8635   8.0672   8.9064   9.6810   9.8939  10.8485  10.9848
    13.9127  14.1474  15.0268  15.4144  16.8588  16.9600  18.7254  19.6808
    20.0667  20.8168  23.8244  24.0803  25.1395  25.2011  28.2021  28.2725
    30.6237  30.8854  30.9710  31.0596  32.5632  32.9516  33.9180  34.4321
    37.5341  37.8110  38.1572  38.6168  40.2667  40.9266  41.9669  42.3559
    43.5078  43.8287  44.3621  45.0504  45.3707  45.8871  46.2213  46.8312
    47.3100  47.4389  47.6877  48.4555  48.9315  49.1056  49.6819  49.7093
    51.2358  52.3485  54.9913  55.2210  55.6308  55.9194

     the Fermi energy is    14.1751 ev

!    total energy              =    -407.81621854 Ry
     Harris-Foulkes estimate   =    -407.81621712 Ry
     estimated scf accuracy    <       0.00000001 Ry

     The total energy is the sum of the following terms:

     one-electron contribution =    -105.90053970 Ry
     hartree contribution      =      83.92446526 Ry
     xc contribution           =     -67.73454179 Ry
     ewald contribution        =    -318.10550220 Ry
     smearing contrib. (-TS)   =      -0.00010011 Ry

     total magnetization       =     0.00 Bohr mag/cell
     absolute magnetization    =     0.00 Bohr mag/cell

     convergence has been achieved in  10 iterations

     Forces acting on atoms (Ry/au):

     negative rho (up, down):  0.371E-05 0.371E-05
     atom    1 type  1   force =     0.00000000    0.00000000   -0.00000000
     atom    2 type  1   force =     0.00000000    0.00000000   -0.00000000
     atom    3 type  2   force =     0.00000082    0.00000082    0.00000000
     atom    4 type  2   force =    -0.00000082   -0.00000082    0.00000000
     atom    5 type  2   force =     0.00000082   -0.00000082    0.00000000
     atom    6 type  2   force =    -0.00000082    0.00000082    0.00000000

     Total force =     0.000002     Total SCF correction =     0.000008
     SCF correction compared to forces is large: reduce conv_thr to get better values

     entering subroutine stress ...

     negative rho (up, down):  0.371E-05 0.371E-05
          total   stress  (Ry/bohr**3)                   (kbar)     P=  172.52
   0.00117793   0.00000000   0.00000000        173.28      0.00      0.00
   0.00000000   0.00117793   0.00000000          0.00    173.28      0.00
   0.00000000   0.00000000   0.00116245          0.00      0.00    171.00

     General routines

     Parallel routines

   This run was terminated on:  16:16:42  24Jan2014

   JOB DONE.