     Program PWSCF v.5.0.2 (svn rev. 9656) starts on  6May2014 at 12:43: 7

     Current dimensions of program PWSCF are:
     Max number of different atomic species (ntypx) = 10
     Max number of k-points (npk) =  40000
     Max angular momentum in pseudopotentials (lmaxx) =  3
     Reading input from pwscf.in
Warning: card &CELL ignored
Warning: card / ignored

     Subspace diagonalization in iterative solution of the eigenvalue problem:
     a serial algorithm will be used

     Found symmetry operation: I + ( -0.5000  0.0000  0.0000)
     This is a supercell, fractional translations are disabled

     bravais-lattice index     =            0
     lattice parameter (alat)  =      11.2250  a.u.
     unit-cell volume          =    7005.5484 (a.u.)^3
     number of atoms/cell      =           30
     number of atomic types    =            3
     number of electrons       =       208.00
     number of Kohn-Sham states=          300
     kinetic-energy cutoff     =      40.0000  Ry
     charge density cutoff     =     500.0000  Ry
     convergence threshold     =      1.0E-06
     mixing beta               =       0.7000
     number of iterations used =            8  plain     mixing
     Exchange-correlation      = SLA  PW   PBE  PBE ( 1 4 3 4 0)
     EXX-fraction              =        0.00
     nstep                     =           50

     celldm(1)=  11.224973  celldm(2)=   0.000000  celldm(3)=   0.000000
     celldm(4)=   0.000000  celldm(5)=   0.000000  celldm(6)=   0.000000

     crystal axes: (cart. coord. in units of alat)
               a(1) = (   1.000000   0.000000   0.000000 )
               a(2) = (   0.000000   1.107086   0.000000 )
               a(3) = (   0.000000   0.000000   4.474090 )

     reciprocal axes: (cart. coord. in units 2 pi/alat)
               b(1) = (  1.000000  0.000000  0.000000 )
               b(2) = (  0.000000  0.903272  0.000000 )
               b(3) = (  0.000000  0.000000  0.223509 )

     PseudoPot. # 1 for O  read from file:
     /home/camp/zhonxu/pseudo/o_pbe_v1.01.uspp.F.UPF
     MD5 check sum: 2bcb18d16ea4b960afae9ec6d52f22d2
     Pseudo is Ultrasoft + core correction, Zval =  6.0
     Generated by new atomic code, or converted to UPF format
     Using radial grid of  737 points,  5 beta functions with:
                l(1) =   0
                l(2) =   0
                l(3) =   1
                l(4) =   1
                l(5) =   2
     Q(r) pseudized with  8 coefficients,  rinner =    0.900   0.900   0.900
                                                       0.900   0.900

     PseudoPot. # 2 for Ti read from file:
     /home/camp/zhonxu/pseudo/ti_pbe_v1.uspp.F.UPF
     MD5 check sum: bcc8f6961b3b91f0cac3ca967d22d0fb
     Pseudo is Ultrasoft + core correction, Zval = 12.0
     Generated by new atomic code, or converted to UPF format
     Using radial grid of  851 points,  6 beta functions with:
                l(1) =   0
                l(2) =   0
                l(3) =   1
                l(4) =   1
                l(5) =   2
                l(6) =   2
     Q(r) pseudized with  6 coefficients,  rinner =    1.000   1.000   1.000
                                                       1.000   1.000

     PseudoPot. # 3 for H  read from file:
     /home/camp/zhonxu/pseudo/h_pbe_v1.uspp.F.UPF
     MD5 check sum: 3408e3ff4ec8b0a4e358431e7e038a48
     Pseudo is Ultrasoft, Zval =  1.0
     Generated by new atomic code, or converted to UPF format
     Using radial grid of  615 points,  2 beta functions with:
                l(1) =   0
                l(2) =   0
     Q(r) pseudized with  8 coefficients,  rinner =    0.700

     atomic species   valence    mass     pseudopotential
        O0             6.00    15.99940     O ( 1.00)
        Ti1           12.00    47.88000     Ti( 1.00)
        H2             1.00     1.00794     H ( 1.00)

     Simplified LDA+U calculation (l_max = 2) with parameters (eV):
     atomic species    L          U    alpha       J0     beta
        Ti1            2     2.5000   0.0000   0.0000   0.0000

     No symmetry found

   Cartesian axes

     site n.     atom                  positions (alat units)
         1           O0  tau(   1) = (   0.0000000   0.0000000   1.6989461  )
         2           O0  tau(   2) = (   0.0000000   0.5535432   1.7901728  )
         3           Ti1 tau(   3) = (   0.2500000   0.5535432   2.0162933  )
         4           Ti1 tau(   4) = (   0.0000000   0.0000000   2.0248388  )
         5           O0  tau(   5) = (   0.2500000   0.8967400   2.0178145  )
         6           O0  tau(   6) = (   0.2500000   0.2103464   2.0226912  )
         7           O0  tau(   7) = (   0.0000000   0.5535432   2.2326603  )
         8           O0  tau(   8) = (   0.0000000   0.0000000   2.3559662  )
         9           Ti1 tau(   9) = (   0.2500000   0.0000000   2.5995804  )
        10           Ti1 tau(  10) = (   0.0000000   0.5535432   2.5483968  )
        11           O0  tau(  11) = (   0.2500000   0.7638896   2.5964932  )
        12           O0  tau(  12) = (   0.2500000   0.3431968   2.5965380  )
        13           O0  tau(  13) = (   0.0000000   0.0000000   2.7842708  )
        14           O0  tau(  14) = (   0.5000000   0.0000000   1.6989461  )
        15           O0  tau(  15) = (   0.5000000   0.5535432   1.7901728  )
        16           Ti1 tau(  16) = (   0.7500000   0.5535432   2.0162933  )
        17           Ti1 tau(  17) = (   0.5000000   0.0000000   2.0248388  )
        18           O0  tau(  18) = (   0.7500000   0.8967400   2.0178145  )
        19           O0  tau(  19) = (   0.7500000   0.2103464   2.0226912  )
        20           O0  tau(  20) = (   0.5000000   0.5535432   2.2326603  )
        21           O0  tau(  21) = (   0.5000000   0.0000000   2.3559662  )
        22           Ti1 tau(  22) = (   0.7500000   0.0000000   2.5995804  )
        23           Ti1 tau(  23) = (   0.5000000   0.5535432   2.5483968  )
        24           O0  tau(  24) = (   0.7500000   0.7638896   2.5964932  )
        25           O0  tau(  25) = (   0.7500000   0.3431968   2.5965380  )
        26           O0  tau(  26) = (   0.5000000   0.0000000   2.7842708  )
        27           H2  tau(  27) = (  -0.0005400   0.6991915   1.7063283  )
        28           H2  tau(  28) = (   0.4994600   0.6991915   1.7063283  )
        29           H2  tau(  29) = (   0.1501800   0.0252084   1.6321479  )
        30           H2  tau(  30) = (   0.6501800   0.0252084   1.6321479  )

     number of k points=    10  Methfessel-Paxton smearing, width (Ry)=  0.0100
                       cart. coord. in units 2pi/alat
        k(    1) = (   0.0000000   0.0000000   0.0000000), wk =   0.1250000
        k(    2) = (   0.0000000   0.2258180   0.0000000), wk =   0.2500000
        k(    3) = (   0.0000000  -0.4516359   0.0000000), wk =   0.1250000
        k(    4) = (   0.2500000   0.0000000   0.0000000), wk =   0.2500000
        k(    5) = (   0.2500000   0.2258180   0.0000000), wk =   0.2500000
        k(    6) = (   0.2500000  -0.4516359   0.0000000), wk =   0.2500000
        k(    7) = (  -0.5000000   0.0000000   0.0000000), wk =   0.1250000
        k(    8) = (  -0.5000000   0.2258180   0.0000000), wk =   0.2500000
        k(    9) = (  -0.5000000  -0.4516359   0.0000000), wk =   0.1250000
        k(   10) = (  -0.2500000   0.2258180   0.0000000), wk =   0.2500000

     Largest allocated arrays     est. size (Mb)     dimensions
     Largest temporary arrays     est. size (Mb)     dimensions

     Check: negative/imaginary core charge=   -0.000005    0.000000

     Initial potential from superposition of free atoms
     Check: negative starting charge=   -0.102816

     starting charge  199.99958, renormalised to  208.00000

     negative rho (up, down):  0.107E+00 0.000E+00
     Number of +U iterations with fixed ns =  0
     Starting occupations:
 --- enter write_ns ---
 LDA+U parameters:
U( 2)     =  2.50000000
alpha( 2) =  0.00000000
atom    3   Tr[ns(na)] =   2.00000
    eigenvalues:
  0.200  0.200  0.200  0.200  0.200
    eigenvectors:
  1.000  0.000  0.000  0.000  0.000
  0.000  1.000  0.000  0.000  0.000
  0.000  0.000  1.000  0.000  0.000
  0.000  0.000  0.000  1.000  0.000
  0.000  0.000  0.000  0.000  1.000
    occupations:
  0.200  0.000  0.000  0.000  0.000
  0.000  0.200  0.000  0.000  0.000
  0.000  0.000  0.200  0.000  0.000
  0.000  0.000  0.000  0.200  0.000
  0.000  0.000  0.000  0.000  0.200
atom    4   Tr[ns(na)] =   2.00000
    eigenvalues:
  0.200  0.200  0.200  0.200  0.200
    eigenvectors:
  1.000  0.000  0.000  0.000  0.000
  0.000  1.000  0.000  0.000  0.000
  0.000  0.000  1.000  0.000  0.000
  0.000  0.000  0.000  1.000  0.000
  0.000  0.000  0.000  0.000  1.000
    occupations:
  0.200  0.000  0.000  0.000  0.000
  0.000  0.200  0.000  0.000  0.000
  0.000  0.000  0.200  0.000  0.000
  0.000  0.000  0.000  0.200  0.000
  0.000  0.000  0.000  0.000  0.200
atom    9   Tr[ns(na)] =   2.00000
    eigenvalues:
  0.200  0.200  0.200  0.200  0.200
    eigenvectors:
  1.000  0.000  0.000  0.000  0.000
  0.000  1.000  0.000  0.000  0.000
  0.000  0.000  1.000  0.000  0.000
  0.000  0.000  0.000  1.000  0.000
  0.000  0.000  0.000  0.000  1.000
    occupations:
  0.200  0.000  0.000  0.000  0.000
  0.000  0.200  0.000  0.000  0.000
  0.000  0.000  0.200  0.000  0.000
  0.000  0.000  0.000  0.200  0.000
  0.000  0.000  0.000  0.000  0.200
atom   10   Tr[ns(na)] =   2.00000
    eigenvalues:
  0.200  0.200  0.200  0.200  0.200
    eigenvectors:
  1.000  0.000  0.000  0.000  0.000
  0.000  1.000  0.000  0.000  0.000
  0.000  0.000  1.000  0.000  0.000
  0.000  0.000  0.000  1.000  0.000
  0.000  0.000  0.000  0.000  1.000
    occupations:
  0.200  0.000  0.000  0.000  0.000
  0.000  0.200  0.000  0.000  0.000
  0.000  0.000  0.200  0.000  0.000
  0.000  0.000  0.000  0.200  0.000
  0.000  0.000  0.000  0.000  0.200
atom   16   Tr[ns(na)] =   2.00000
    eigenvalues:
  0.200  0.200  0.200  0.200  0.200
    eigenvectors:
  1.000  0.000  0.000  0.000  0.000
  0.000  1.000  0.000  0.000  0.000
  0.000  0.000  1.000  0.000  0.000
  0.000  0.000  0.000  1.000  0.000
  0.000  0.000  0.000  0.000  1.000
    occupations:
  0.200  0.000  0.000  0.000  0.000
  0.000  0.200  0.000  0.000  0.000
  0.000  0.000  0.200  0.000  0.000
  0.000  0.000  0.000  0.200  0.000
  0.000  0.000  0.000  0.000  0.200
atom   17   Tr[ns(na)] =   2.00000
    eigenvalues:
  0.200  0.200  0.200  0.200  0.200
    eigenvectors:
  1.000  0.000  0.000  0.000  0.000
  0.000  1.000  0.000  0.000  0.000
  0.000  0.000  1.000  0.000  0.000
  0.000  0.000  0.000  1.000  0.000
  0.000  0.000  0.000  0.000  1.000
    occupations:
  0.200  0.000  0.000  0.000  0.000
  0.000  0.200  0.000  0.000  0.000
  0.000  0.000  0.200  0.000  0.000
  0.000  0.000  0.000  0.200  0.000
  0.000  0.000  0.000  0.000  0.200
atom   22   Tr[ns(na)] =   2.00000
    eigenvalues:
  0.200  0.200  0.200  0.200  0.200
    eigenvectors:
  1.000  0.000  0.000  0.000  0.000
  0.000  1.000  0.000  0.000  0.000
  0.000  0.000  1.000  0.000  0.000
  0.000  0.000  0.000  1.000  0.000
  0.000  0.000  0.000  0.000  1.000
    occupations:
[...]
  0.098  0.000  0.007  0.357 -0.000
 -0.000  0.011 -0.000 -0.000  0.185
atom    4   Tr[ns(na)] =   2.87405
    eigenvalues:
  0.163  0.198  0.226  0.413  0.436
    eigenvectors:
  0.006  0.004  0.000  0.000  0.990
  0.002  0.952  0.043  0.000  0.004
  0.001  0.042  0.957  0.000  0.000
  0.992  0.002  0.000  0.000  0.006
  0.000  0.000  0.000  1.000  0.000
    occupations:
  0.434  0.015  0.003 -0.021 -0.000
  0.015  0.200 -0.006  0.000 -0.002
  0.003 -0.006  0.225  0.001 -0.000
 -0.021  0.000  0.001  0.164 -0.000
 -0.000 -0.002 -0.000 -0.000  0.413
atom    9   Tr[ns(na)] =   2.86585
    eigenvalues:
  0.173  0.215  0.232  0.373  0.440
    eigenvectors:
  0.000  0.000  0.919  0.081  0.000
  0.000  0.000  0.000  0.000  1.000
  1.000  0.000  0.000  0.000  0.000
  0.000  0.000  0.081  0.919  0.000
  0.000  1.000  0.000  0.000  0.000
    occupations:
  0.243 -0.000 -0.000  0.038  0.000
 -0.000  0.440  0.000 -0.000 -0.000
 -0.000  0.000  0.173  0.000  0.000
  0.038 -0.000  0.000  0.361 -0.000
  0.000 -0.000  0.000 -0.000  0.215
atom   10   Tr[ns(na)] =   2.78521
    eigenvalues:
  0.174  0.221  0.228  0.330  0.440
    eigenvectors:
  0.025  0.000  0.000  0.975  0.000
  0.000  0.000  1.000  0.000  0.000
  0.000  1.000  0.000  0.000  0.000
  0.975  0.000  0.000  0.025  0.000
  0.000  0.000  0.000  0.000  1.000
    occupations:
  0.326 -0.000 -0.000 -0.025 -0.000
 -0.000  0.228 -0.000 -0.000  0.000
 -0.000 -0.000  0.221 -0.000  0.000
 -0.025 -0.000 -0.000  0.178 -0.000
 -0.000  0.000  0.000 -0.000  0.440
atom   16   Tr[ns(na)] =   2.74583
    eigenvalues:
  0.160  0.184  0.216  0.406  0.407
    eigenvectors:
  0.788  0.000  0.014  0.198  0.000
  0.000  0.003  0.000  0.000  0.997
  0.015  0.000  0.985  0.000  0.000
  0.197  0.000  0.001  0.802  0.000
  0.000  0.997  0.000  0.000  0.003
    occupations:
  0.209 -0.000 -0.004  0.098 -0.000
 -0.000  0.406  0.000  0.000  0.011
 -0.004  0.000  0.216  0.007 -0.000
  0.098  0.000  0.007  0.357 -0.000
 -0.000  0.011 -0.000 -0.000  0.185
atom   17   Tr[ns(na)] =   2.87405
    eigenvalues:
  0.163  0.198  0.226  0.413  0.436
    eigenvectors:
  0.006  0.004  0.000  0.000  0.990
  0.002  0.952  0.043  0.000  0.004
  0.001  0.042  0.957  0.000  0.000
  0.992  0.002  0.000  0.000  0.006
  0.000  0.000  0.000  1.000  0.000
    occupations:
  0.434  0.015  0.003 -0.021 -0.000
  0.015  0.200 -0.006  0.000 -0.002
  0.003 -0.006  0.225  0.001 -0.000
 -0.021  0.000  0.001  0.164 -0.000
 -0.000 -0.002 -0.000 -0.000  0.413
atom   22   Tr[ns(na)] =   2.86585
    eigenvalues:
  0.173  0.215  0.232  0.373  0.440
    eigenvectors:
  0.000  0.000  0.919  0.081  0.000
  0.000  0.000  0.000  0.000  1.000
  1.000  0.000  0.000  0.000  0.000
  0.000  0.000  0.081  0.919  0.000
  0.000  1.000  0.000  0.000  0.000
    occupations:
  0.243 -0.000 -0.000  0.038  0.000
 -0.000  0.440  0.000 -0.000 -0.000
 -0.000  0.000  0.173  0.000  0.000
  0.038 -0.000  0.000  0.361 -0.000
  0.000 -0.000  0.000 -0.000  0.215
atom   23   Tr[ns(na)] =   2.78521
    eigenvalues:
  0.174  0.221  0.228  0.330  0.440
    eigenvectors:
  0.025  0.000  0.000  0.975  0.000
  0.000  0.000  1.000  0.000  0.000
  0.000  1.000  0.000  0.000  0.000
  0.975  0.000  0.000  0.025  0.000
  0.000  0.000  0.000  0.000  1.000
    occupations:
  0.326 -0.000 -0.000 -0.025 -0.000
 -0.000  0.228 -0.000 -0.000  0.000
 -0.000 -0.000  0.221 -0.000  0.000
 -0.025 -0.000 -0.000  0.178 -0.000
 -0.000  0.000  0.000 -0.000  0.440
N of occupied +U levels =  22.5418818
 --- exit write_ns ---

     Threshold (ethr) on eigenvalues was too large:
     Diagonalizing with lowered threshold

     Davidson diagonalization with overlap
     ethr =  2.78E-09,  avg # of iterations =  2.0

[...]

     total energy              =   -1533.54943024 Ry
     Harris-Foulkes estimate   =   -1533.54943026 Ry
     estimated scf accuracy    <       0.00000003 Ry

     iteration #  7     ecut=    40.00 Ry     beta=0.70
     Davidson diagonalization with overlap
     ethr =  1.57E-11,  avg # of iterations =  1.1

     negative rho (up, down):  0.104E+00 0.000E+00

     End of self-consistent calculation
 --- enter write_ns ---
 LDA+U parameters:
U( 2)     =  2.50000000
alpha( 2) =  0.00000000
atom    3   Tr[ns(na)] =   2.74559
    eigenvalues:
  0.160  0.184  0.216  0.406  0.407
    eigenvectors:
  0.788  0.000  0.014  0.198  0.000
  0.000  0.003  0.000  0.000  0.997
  0.015  0.000  0.985  0.000  0.000
  0.197  0.000  0.001  0.802  0.000
  0.000  0.997  0.000  0.000  0.003
    occupations:
  0.209 -0.000 -0.004  0.098 -0.000
 -0.000  0.406  0.000  0.000  0.011
 -0.004  0.000  0.215  0.007 -0.000
  0.098  0.000  0.007  0.357 -0.000
 -0.000  0.011 -0.000 -0.000  0.185
atom    4   Tr[ns(na)] =   2.87419
    eigenvalues:
  0.163  0.198  0.226  0.413  0.436
    eigenvectors:
  0.006  0.004  0.000  0.000  0.990
  0.002  0.952  0.043  0.000  0.004
  0.001  0.042  0.957  0.000  0.000
  0.992  0.002  0.000  0.000  0.006
  0.000  0.000  0.000  1.000  0.000
    occupations:
  0.434  0.015  0.003 -0.021 -0.000
  0.015  0.200 -0.006  0.000 -0.002
  0.003 -0.006  0.225  0.001 -0.000
 -0.021  0.000  0.001  0.164 -0.000
 -0.000 -0.002 -0.000 -0.000  0.413
atom    9   Tr[ns(na)] =   2.86567
    eigenvalues:
  0.173  0.215  0.232  0.373  0.440
    eigenvectors:
  0.000  0.000  0.920  0.080  0.000
  0.000  0.000  0.000  0.000  1.000
  1.000  0.000  0.000  0.000  0.000
  0.000  0.000  0.080  0.920  0.000
  0.000  1.000  0.000  0.000  0.000
    occupations:
  0.243 -0.000 -0.000  0.038  0.000
 -0.000  0.440  0.000 -0.000 -0.000
 -0.000  0.000  0.173  0.000  0.000
  0.038 -0.000  0.000  0.361 -0.000
  0.000 -0.000  0.000 -0.000  0.215
atom   10   Tr[ns(na)] =   2.78584
    eigenvalues:
  0.174  0.221  0.228  0.330  0.440
    eigenvectors:
  0.025  0.000  0.000  0.975  0.000
  0.000  0.000  1.000  0.000  0.000
  0.000  1.000  0.000  0.000  0.000
  0.975  0.000  0.000  0.025  0.000
  0.000  0.000  0.000  0.000  1.000
    occupations:
  0.326 -0.000 -0.000 -0.025 -0.000
 -0.000  0.228 -0.000 -0.000  0.000
 -0.000 -0.000  0.221 -0.000  0.000
 -0.025 -0.000 -0.000  0.178 -0.000
 -0.000  0.000  0.000 -0.000  0.440
atom   16   Tr[ns(na)] =   2.74559
    eigenvalues:
  0.160  0.184  0.216  0.406  0.407
    eigenvectors:
  0.788  0.000  0.014  0.198  0.000
  0.000  0.003  0.000  0.000  0.997
  0.015  0.000  0.985  0.000  0.000
  0.197  0.000  0.001  0.802  0.000
  0.000  0.997  0.000  0.000  0.003
    occupations:
  0.209 -0.000 -0.004  0.098 -0.000
 -0.000  0.406  0.000  0.000  0.011
 -0.004  0.000  0.215  0.007 -0.000
  0.098  0.000  0.007  0.357 -0.000
 -0.000  0.011 -0.000 -0.000  0.185
atom   17   Tr[ns(na)] =   2.87419
    eigenvalues:
  0.163  0.198  0.226  0.413  0.436
    eigenvectors:
  0.006  0.004  0.000  0.000  0.990
  0.002  0.952  0.043  0.000  0.004
  0.001  0.042  0.957  0.000  0.000
  0.992  0.002  0.000  0.000  0.006
  0.000  0.000  0.000  1.000  0.000
    occupations:
  0.434  0.015  0.003 -0.021 -0.000
  0.015  0.200 -0.006  0.000 -0.002
  0.003 -0.006  0.225  0.001 -0.000
 -0.021  0.000  0.001  0.164 -0.000
 -0.000 -0.002 -0.000 -0.000  0.413
atom   22   Tr[ns(na)] =   2.86567
    eigenvalues:
  0.173  0.215  0.232  0.373  0.440
    eigenvectors:
  0.000  0.000  0.920  0.080  0.000
  0.000  0.000  0.000  0.000  1.000
  1.000  0.000  0.000  0.000  0.000
  0.000  0.000  0.080  0.920  0.000
  0.000  1.000  0.000  0.000  0.000
    occupations:
  0.243 -0.000 -0.000  0.038  0.000
 -0.000  0.440  0.000 -0.000 -0.000
 -0.000  0.000  0.173  0.000  0.000
  0.038 -0.000  0.000  0.361 -0.000
  0.000 -0.000  0.000 -0.000  0.215
atom   23   Tr[ns(na)] =   2.78584
    eigenvalues:
  0.174  0.221  0.228  0.330  0.440
    eigenvectors:
  0.025  0.000  0.000  0.975  0.000
  0.000  0.000  1.000  0.000  0.000
  0.000  1.000  0.000  0.000  0.000
  0.975  0.000  0.000  0.025  0.000
  0.000  0.000  0.000  0.000  1.000
    occupations:
  0.326 -0.000 -0.000 -0.025 -0.000
 -0.000  0.228 -0.000 -0.000  0.000
 -0.000 -0.000  0.221 -0.000  0.000
 -0.025 -0.000 -0.000  0.178 -0.000
 -0.000  0.000  0.000 -0.000  0.440
N of occupied +U levels =  22.5425922
 --- exit write_ns ---

[...]

          k = 0.2500-0.4516 0.0000 ( 29882 PWs)   bands (ev):

[...]

          k =-0.2500 0.2258 0.0000 ( 29912 PWs)   bands (ev):

   -61.2760 -61.2502 -60.8494 -60.8230 -59.6589 -59.6306 -59.2279 -59.2000
   -37.7628 -37.5105 -37.4836 -37.4395 -37.3279 -37.3059 -37.2054 -37.1765
   -37.1546 -37.0187 -36.9536 -36.9137 -36.2213 -35.9843 -35.9099 -35.9057
   -35.7264 -35.7040 -35.6009 -35.5693 -35.5466 -35.4433 -35.3728 -35.2807
   -22.2264 -22.0148 -20.9631 -20.7946 -20.3424 -20.2458 -19.9240 -19.7438
   -19.7041 -19.6066 -19.5229 -19.5154 -19.3434 -19.2624 -18.7119 -18.3405
   -18.0955 -18.0302  -9.9020  -9.6225  -8.1610  -7.9842  -7.8640  -7.8354
    -7.8158  -7.7944  -7.4110  -7.4008  -7.1796  -7.1334  -7.0288  -7.0004
    -6.9830  -6.8058  -6.7950  -6.6084  -6.5224  -6.3817  -6.1641  -6.1250
    -6.0500  -5.8053  -5.7713  -5.6593  -5.6290  -5.4480  -5.4001  -5.3738
    -5.2595  -5.1577  -5.1504  -5.0859  -4.9892  -4.9557  -4.8577  -4.7644
    -4.6687  -4.5522  -4.4625  -4.4601  -3.9497  -3.7866  -3.6382  -3.4865
    -3.4126  -3.3561  -3.2300  -3.1939  -3.1725  -2.9162  -2.8423  -2.6961
    -1.2876  -1.0049  -0.8852  -0.8024  -0.7583  -0.5666  -0.5354  -0.4215
    -0.1331  -0.0616   0.0966   0.1364   0.1951   0.3859   0.7048   0.7491
     0.8481   0.8810   0.9941   1.1752   1.2568   1.3326   1.5335   1.5514
     1.5919   1.6077   1.6412   1.7236   1.7762   1.9800   2.0017   2.5324
     3.0527   3.0597   3.2369   3.3811   3.5257   3.5835   3.7141   3.8792
     4.1266   4.2261   4.3388   4.5830   4.9563   4.9635   5.2363   5.6856
     5.8228   5.8726   5.9910   6.0934   6.1411   6.4500   6.4713   6.8115
     6.8306   7.1397   7.2426   7.3829   7.5140   7.6939   7.7627   7.8517
     7.8595   8.0002   8.0302   8.2122   8.4607   8.5083   8.6044   8.7436
     8.8212   8.9608   9.2526   9.3180   9.3202   9.3653   9.4335   9.5081
     9.5538   9.6459   9.8780   9.9735  10.0249  10.1804  10.1997  10.3947
    10.4261  10.6123  10.6157  10.7031  10.8435  10.9000  10.9754  10.9859
    11.1327  11.2645  11.2847  11.3700  11.4062  11.4566  11.5514  11.6427
    11.7366  11.7764  11.8677  11.9541  11.9650  12.0316  12.1064  12.2900
    12.2934  12.3548  12.5168  12.6100  12.6677  12.6780  12.7510  12.8657
    12.9003  12.9814  13.0718  13.2203  13.2723  13.3750  13.4196  13.4953
    13.5839  13.6667  13.7359  13.7496  13.8138  13.8755  13.9682  14.0639
    14.0988  14.2032  14.2485  14.3063  14.4866  14.5224  14.5664  14.5993
    14.7116  14.7225  14.8325  14.9441  15.0250  15.0329  15.1323  15.2611
    15.3440  15.3576  15.4750  15.5274  15.6397  15.7339  15.7653  15.7881
    15.8013  15.8998  15.9279  16.0768  16.1383  16.1798  16.2436  16.3366
    16.3914  16.5604  16.6602  16.6962  16.8003  16.8124  16.8286  16.8703
    16.9475  16.9752  17.0627  17.0808  17.2369  17.2720  17.2867  17.3948
    17.4654  17.4723  17.5180  17.5760  17.7260  17.8004  17.8535  18.0000
    18.0324  18.1933  18.2022  18.2826

     the Fermi energy is    -2.5967 ev

!    total energy              =   -1533.54943025 Ry
     Harris-Foulkes estimate   =   -1533.54943025 Ry
     estimated scf accuracy    <          4.4E-09 Ry

     The total energy is the sum of the following terms:

     one-electron contribution =  -18329.79909860 Ry
     hartree contribution      =    9178.26985364 Ry
     xc contribution           =    -269.78345171 Ry
     ewald contribution        =    7886.35649047 Ry
     Hubbard energy            =       1.40558108 Ry
     smearing contrib. (-TS)   =       0.00119488 Ry

     convergence has been achieved in   7 iterations

     Forces acting on atoms (Ry/au):

     negative rho (up, down):  0.104E+00 0.000E+00
     atom    1 type  1   force =    -0.00104216   -0.01633803    0.00025467
     atom    2 type  1   force =     0.00003811    0.02360367   -0.00031279
     atom    3 type  2   force =     0.00017869   -0.01446578    0.00019669
     atom    4 type  2   force =    -0.00330950    0.00893895    0.00010764
     atom    5 type  1   force =     0.00349337   -0.10918234    0.00009162
     atom    6 type  1   force =    -0.00128135    0.10828501    0.00013793
     atom    7 type  1   force =    -0.00004501    0.00094095    0.00029851
     atom    8 type  1   force =     0.00228213   -0.00157102    0.00034541
     atom    9 type  2   force =    -0.00057870    0.00012042   -0.00001862
     atom   10 type  2   force =    -0.00004091   -0.00031090    0.00043189
     atom   11 type  1   force =     0.00007169   -0.04388112   -0.00026023
     atom   12 type  1   force =    -0.00000865    0.04394323   -0.00026443
     atom   13 type  1   force =     0.00041076   -0.00004946   -0.00024080
     atom   14 type  1   force =    -0.00104216   -0.01633803    0.00025466
     atom   15 type  1   force =     0.00003811    0.02360367   -0.00031278
     atom   16 type  2   force =     0.00017869   -0.01446579    0.00019669
     atom   17 type  2   force =    -0.00330950    0.00893895    0.00010764
     atom   18 type  1   force =     0.00349337   -0.10918234    0.00009162
     atom   19 type  1   force =    -0.00128135    0.10828501    0.00013793
     atom   20 type  1   force =    -0.00004500    0.00094095    0.00029852
     atom   21 type  1   force =     0.00228213   -0.00157103    0.00034542
     atom   22 type  2   force =    -0.00057869    0.00012042   -0.00001862
     atom   23 type  2   force =    -0.00004091   -0.00031090    0.00043189
     atom   24 type  1   force =     0.00007169   -0.04388112   -0.00026023
     atom   25 type  1   force =    -0.00000865    0.04394324   -0.00026444
     atom   26 type  1   force =     0.00041076   -0.00004946   -0.00024080
     atom   27 type  3   force =     0.00001598   -0.00015610   -0.00069391
     atom   28 type  3   force =     0.00001598   -0.00015610   -0.00069391
     atom   29 type  3   force =    -0.00018445    0.00012253   -0.00007357
     atom   30 type  3   force =    -0.00018445    0.00012253   -0.00007357

     Total force =     0.001668     Total SCF correction =     0.000158

     bfgs converged in  10 scf cycles and   9 bfgs steps
     (criteria: energy < 0.10E-03, force < 0.10E-02)

     End of BFGS Geometry Optimization

     Final energy   =   -1533.5494302470 Ry
Begin final coordinates

ATOMIC_POSITIONS (crystal)
O0       0.000000000   0.000000000   0.378978025    0   0   1
O0       0.000000000   0.500000000   0.399308694    0   0   1
Ti1      0.250000000   0.500000000   0.450252291    0   0   1
Ti1      0.000000000   0.000000000   0.452267922    0   0   1
O0       0.250000000   0.810000000   0.450744482    0   0   1
O0       0.250000000   0.190000000   0.451780781    0   0   1
O0       0.000000000   0.500000000   0.498814917    0   0   1
O0       0.000000000   0.000000000   0.527085032    0   0   1
Ti1      0.250000000   0.000000000   0.581538501    0   0   1
Ti1      0.000000000   0.500000000   0.570199611    0   0   1
O0       0.250000000   0.690000000   0.580946836    0   0   1
O0       0.250000000   0.310000000   0.580965647    0   0   1
O0       0.000000000   0.000000000   0.623422249    0   0   1
O0       0.500000000   0.000000000   0.378978025    0   0   1
O0       0.500000000   0.500000000   0.399308694    0   0   1
Ti1      0.750000000   0.500000000   0.450252291    0   0   1
Ti1      0.500000000   0.000000000   0.452267922    0   0   1
O0       0.750000000   0.810000000   0.450744482    0   0   1
O0       0.750000000   0.190000000   0.451780781    0   0   1
O0       0.500000000   0.500000000   0.498814917    0   0   1
O0       0.500000000   0.000000000   0.527085031    0   0   1
Ti1      0.750000000   0.000000000   0.581538501    0   0   1
Ti1      0.500000000   0.500000000   0.570199611    0   0   1
O0       0.750000000   0.690000000   0.580946835    0   0   1
O0       0.750000000   0.310000000   0.580965649    0   0   1
O0       0.500000000   0.000000000   0.623422248    0   0   1
H2      -0.000399143   0.631921233   0.380721260
H2       0.499600857   0.631921235   0.380721260
H2       0.151057010   0.023435445   0.364543752
H2       0.651057010   0.023435443   0.364543752
End final coordinates

     General routines

     Parallel routines
     Hubbard U routines

   This run was terminated on:  18: 1:56   6May2014

   JOB DONE.
Running PBS batch system epilogue script
Job id: 340813.audhumbla.fysik.dtu.dk
Username: zhonxu
Groupname: campgst
Jobname: TiO2/Eads-2-layers/bare-U-2.5
Sessionid: 7782
Queuename: verylong
Accounting:
This job has allocated the following 16 nodes:
c011 c011 c011 c011 c011 c011 c011 c011 c010 c010 c010 c010 c010 c010 c010 c010
Finished epilogue job 340813.audhumbla.fysik.dtu.dk for zhonxu