     Program PWSCF v.5.0.2 (svn rev. 9656) starts on 23Jan2014 at 20:52: 0

     Current dimensions of program PWSCF are:
     Max number of different atomic species (ntypx) = 10
     Max number of k-points (npk) =  40000
     Max angular momentum in pseudopotentials (lmaxx) =  3
     Reading input from MoO2-v-1.0.in

     Subspace diagonalization in iterative solution of the eigenvalue problem:
     a serial algorithm will be used

     bravais-lattice index     =            0
     lattice parameter (alat)  =       8.6590  a.u.
     unit-cell volume          =     418.3967 (a.u.)^3
     number of atoms/cell      =            6
     number of atomic types    =            2
     number of electrons       =        52.00
     number of Kohn-Sham states=           78
     kinetic-energy cutoff     =      40.0000  Ry
     charge density cutoff     =     500.0000  Ry
     convergence threshold     =      1.0E-06
     mixing beta               =       0.7000
     number of iterations used =            8  plain     mixing
     Exchange-correlation      = SLA  PW   PBE  PBE ( 1 4 3 4 0)
     EXX-fraction              =        0.00
     nstep                     =           50

     celldm(1)=   8.658997  celldm(2)=   0.000000  celldm(3)=   0.000000
     celldm(4)=   0.000000  celldm(5)=   0.000000  celldm(6)=   0.000000

     crystal axes: (cart. coord. in units of alat)
               a(1) = (   1.000000   0.000000   0.000000 )
               a(2) = (   0.000000   1.000000   0.000000 )
               a(3) = (   0.000000   0.000000   0.644444 )

     reciprocal axes: (cart. coord. in units 2 pi/alat)
               b(1) = (  1.000000  0.000000  0.000000 )
               b(2) = (  0.000000  1.000000  0.000000 )
               b(3) = (  0.000000  0.000000  1.551724 )

     PseudoPot. # 1 for Mo read from file:
     /home/camp/zhonxu/pseudo/mo_pbe_v1.uspp.F.UPF
     MD5 check sum: 30c4dcd161f5d35cd49bb5239c51a633
     Pseudo is Ultrasoft + core correction, Zval = 14.0
     Generated by new atomic code, or converted to UPF format
     Using radial grid of  889 points,  6 beta functions with:
                l(1) =   0
                l(2) =   0
                l(3) =   1
                l(4) =   1
                l(5) =   2
                l(6) =   2
     Q(r) pseudized with  6 coefficients,  rinner =    1.000   1.000   1.000
                                                       1.000   1.000

     PseudoPot. # 2 for O  read from file:
     /home/camp/zhonxu/pseudo/o_pbe_v1.01.uspp.F.UPF
     MD5 check sum: 2bcb18d16ea4b960afae9ec6d52f22d2
     Pseudo is Ultrasoft + core correction, Zval =  6.0
     Generated by new atomic code, or converted to UPF format
     Using radial grid of  737 points,  5 beta functions with:
                l(1) =   0
                l(2) =   0
                l(3) =   1
                l(4) =   1
                l(5) =   2
     Q(r) pseudized with  8 coefficients,  rinner =    0.900   0.900   0.900
                                                       0.900   0.900

     atomic species   valence    mass     pseudopotential
        Mo0           14.00    95.94000     Mo( 1.00)
        O1             6.00    15.99940     O ( 1.00)

     Starting magnetic structure
     atomic species   magnetization
        Mo0          0.600
        O1           0.000

     16 Sym. Ops., with inversion, found ( 8 have fractional translation)

   Cartesian axes

     site n.     atom                  positions (alat units)
         1           Mo0 tau(   1) = (   0.0000000   0.0000000   0.0000000  )
         2           Mo0 tau(   2) = (   0.5000000   0.5000000   0.3222222  )
         3           O1  tau(   3) = (   0.3050000   0.3050000   0.0000000  )
         4           O1  tau(   4) = (  -0.3050000  -0.3050000   0.0000000  )
         5           O1  tau(   5) = (   0.8050000   0.1950000   0.3222222  )
         6           O1  tau(   6) = (   0.1950000   0.8050000   0.3222222  )

     number of k points=    36  Methfessel-Paxton smearing, width (Ry)=  0.0100
                       cart. coord. in units 2pi/alat
        k(    1) = (   0.0000000   0.0000000   0.0000000), wk =   0.0080000
        k(    2) = (   0.0000000   0.0000000   0.3103448), wk =   0.0160000
        k(    3) = (   0.0000000   0.0000000   0.6206897), wk =   0.0160000
        k(    4) = (   0.0000000   0.2000000   0.0000000), wk =   0.0320000
        k(    5) = (   0.0000000   0.2000000   0.3103448), wk =   0.0640000
        k(    6) = (   0.0000000   0.2000000   0.6206897), wk =   0.0640000
        k(    7) = (   0.0000000   0.4000000   0.0000000), wk =   0.0320000
        k(    8) = (   0.0000000   0.4000000   0.3103448), wk =   0.0640000
        k(    9) = (   0.0000000   0.4000000   0.6206897), wk =   0.0640000
        k(   10) = (   0.2000000   0.2000000   0.0000000), wk =   0.0320000
        k(   11) = (   0.2000000   0.2000000   0.3103448), wk =   0.0640000
        k(   12) = (   0.2000000   0.2000000   0.6206897), wk =   0.0640000
        k(   13) = (   0.2000000   0.4000000   0.0000000), wk =   0.0640000
        k(   14) = (   0.2000000   0.4000000   0.3103448), wk =   0.1280000
        k(   15) = (   0.2000000   0.4000000   0.6206897), wk =   0.1280000
        k(   16) = (   0.4000000   0.4000000   0.0000000), wk =   0.0320000
        k(   17) = (   0.4000000   0.4000000   0.3103448), wk =   0.0640000
        k(   18) = (   0.4000000   0.4000000   0.6206897), wk =   0.0640000
        k(   19) = (   0.0000000   0.0000000   0.0000000), wk =   0.0080000
        k(   20) = (   0.0000000   0.0000000   0.3103448), wk =   0.0160000
        k(   21) = (   0.0000000   0.0000000   0.6206897), wk =   0.0160000
        k(   22) = (   0.0000000   0.2000000   0.0000000), wk =   0.0320000
        k(   23) = (   0.0000000   0.2000000   0.3103448), wk =   0.0640000
        k(   24) = (   0.0000000   0.2000000   0.6206897), wk =   0.0640000
        k(   25) = (   0.0000000   0.4000000   0.0000000), wk =   0.0320000
        k(   26) = (   0.0000000   0.4000000   0.3103448), wk =   0.0640000
        k(   27) = (   0.0000000   0.4000000   0.6206897), wk =   0.0640000
        k(   28) = (   0.2000000   0.2000000   0.0000000), wk =   0.0320000
        k(   29) = (   0.2000000   0.2000000   0.3103448), wk =   0.0640000
        k(   30) = (   0.2000000   0.2000000   0.6206897), wk =   0.0640000
        k(   31) = (   0.2000000   0.4000000   0.0000000), wk =   0.0640000
        k(   32) = (   0.2000000   0.4000000   0.3103448), wk =   0.1280000
        k(   33) = (   0.2000000   0.4000000   0.6206897), wk =   0.1280000
        k(   34) = (   0.4000000   0.4000000   0.0000000), wk =   0.0320000
        k(   35) = (   0.4000000   0.4000000   0.3103448), wk =   0.0640000
        k(   36) = (   0.4000000   0.4000000   0.6206897), wk =   0.0640000

     Largest allocated arrays     est. size (Mb)     dimensions
     Largest temporary arrays     est. size (Mb)     dimensions

     Check: negative/imaginary core charge=   -0.000008    0.000000

     Initial potential from superposition of free atoms

     starting charge   51.99787, renormalised to   52.00000
     Starting wfc are   42 randomized atomic wfcs

     Self-consistent Calculation

     iteration #  1     ecut=    40.00 Ry     beta=0.70
     Davidson diagonalization with overlap
     ethr =  1.00E-02,  avg # of iterations =  5.3

     negative rho (up, down):  0.000E+00 0.148E-02

     total energy              =    -406.71406840 Ry
     Harris-Foulkes estimate   =    -407.05582756 Ry
     estimated scf accuracy    <       2.45487040 Ry

     total magnetization       =     4.00 Bohr mag/cell
     absolute magnetization    =     4.90 Bohr mag/cell

[...]

     End of self-consistent calculation

 ------ SPIN UP ------------

          k = 0.0000 0.0000 0.0000 (  1819 PWs)   bands (ev):

   -47.5354 -47.5129 -21.8170 -21.8170 -21.7113 -21.6525 -21.5663 -21.5663
    -6.3688  -5.5786  -4.1449  -4.1449   5.3338   5.5283   6.4299   7.1938
     7.1938   9.5523   9.5523  10.1137  11.0868  11.2199  11.2199  11.8475
    13.6806  14.1207  14.5267  14.5267  14.6049  18.0044  18.0362  19.8163
    21.0676  21.0676  22.5813  23.6317  23.6317  27.1601  29.2282  29.9495
    30.4080  30.5281  31.7879  31.7879  34.3579  34.4405  35.1502  35.1502
    36.0640  36.0640  37.3774  41.0905  41.0905  41.3869  41.8784  42.2270
    44.0666  44.9486  44.9486  45.4247  45.6245  45.6245  45.7136  45.7441
    47.0981  47.7128  47.7128  48.2703  49.8405  51.9433  52.2918  52.2918
    52.8494  53.4152  53.4760  53.4760  54.4402  54.7161

[...]

 ------ SPIN DOWN ----------

[...]

     the Fermi energy is    15.1777 ev

!    total energy              =    -407.71931438 Ry
     Harris-Foulkes estimate   =    -407.71931387 Ry
     estimated scf accuracy    <       0.00000022 Ry

     The total energy is the sum of the following terms:

     one-electron contribution =    -100.77286854 Ry
     hartree contribution      =      82.19011483 Ry
     xc contribution           =     -67.90106526 Ry
     ewald contribution        =    -321.23554268 Ry
     smearing contrib. (-TS)   =       0.00004728 Ry

[...]

     convergence has been achieved in  16 iterations

     Forces acting on atoms (Ry/au):

     negative rho (up, down):  0.000E+00 0.927E-04
     atom    1 type  1   force =     0.00000000    0.00000000   -0.00000000
     atom    2 type  1   force =     0.00000000    0.00000000    0.00000000
     atom    3 type  2   force =    -0.05797959   -0.05797959    0.00000000
     atom    4 type  2   force =     0.05797959    0.05797959    0.00000000
     atom    5 type  2   force =    -0.05797959    0.05797959    0.00000000
     atom    6 type  2   force =     0.05797959   -0.05797959    0.00000000

     Total force =     0.163991     Total SCF correction =     0.000136

     entering subroutine stress ...

     negative rho (up, down):  0.000E+00 0.927E-04
          total   stress  (Ry/bohr**3)                   (kbar)     P=  310.12
   0.00222280   0.00000000   0.00000000        326.98      0.00      0.00
   0.00000000   0.00222280   0.00000000          0.00    326.98      0.00
   0.00000000   0.00000000   0.00187877          0.00      0.00    276.38

     Volume is kept fixed: isostatic pressure set to zero

     BFGS Geometry Optimization

     number of scf cycles    =   1
     number of bfgs steps    =   0

     enthalpy new            =    -407.7193143809 Ry

     new trust radius        =       0.0819955184 bohr
     new conv_thr            =       0.0000010000 Ry

     new unit-cell volume =    418.39674 a.u.^3 (    62.00000 Ang^3 )

CELL_PARAMETERS (alat=  8.65899730)
   1.002875154   0.000000000   0.000000000
   0.000000000   1.002875154   0.000000000
   0.000000000   0.000000000   0.640754611

ATOMIC_POSITIONS (crystal)
Mo0      0.000000000   0.000000000   0.000000000    0   0   0
Mo0      0.500000000   0.500000000   0.500000000    0   0   0
O1       0.298304122   0.298304122   0.000000000    1   1   0
O1      -0.298304122  -0.298304122   0.000000000    1   1   0
O1       0.798304122   0.201695878   0.500000000    1   1   0
O1       0.201695878   0.798304122   0.500000000    1   1   0

[...]
        k(   21) = (   0.0000000   0.0000000   0.6242639), wk =   0.0160000
        k(   22) = (   0.0000000   0.1994266   0.0000000), wk =   0.0320000
        k(   23) = (   0.0000000   0.1994266   0.3121320), wk =   0.0640000
        k(   24) = (   0.0000000   0.1994266   0.6242639), wk =   0.0640000
        k(   25) = (   0.0000000   0.3988532   0.0000000), wk =   0.0320000
        k(   26) = (   0.0000000   0.3988532   0.3121320), wk =   0.0640000
        k(   27) = (   0.0000000   0.3988532   0.6242639), wk =   0.0640000
        k(   28) = (   0.1994266   0.1994266   0.0000000), wk =   0.0320000
        k(   29) = (   0.1994266   0.1994266   0.3121320), wk =   0.0640000
        k(   30) = (   0.1994266   0.1994266   0.6242639), wk =   0.0640000
        k(   31) = (   0.1994266   0.3988532   0.0000000), wk =   0.0640000
        k(   32) = (   0.1994266   0.3988532   0.3121320), wk =   0.1280000
        k(   33) = (   0.1994266   0.3988532   0.6242639), wk =   0.1280000
        k(   34) = (   0.3988532   0.3988532   0.0000000), wk =   0.0320000
        k(   35) = (   0.3988532   0.3988532   0.3121320), wk =   0.0640000
        k(   36) = (   0.3988532   0.3988532   0.6242639), wk =   0.0640000

[...]

     enthalpy old            =    -407.7193143809 Ry
     enthalpy new            =    -407.7417089630 Ry

     CASE: enthalpy_new < enthalpy_old

[...]

     Total force =     0.007842     Total SCF correction =     0.000020

[...]

     Threshold (ethr) on eigenvalues was too large:
     Diagonalizing with lowered threshold

     Davidson diagonalization with overlap
     ethr =  8.85E-08,  avg # of iterations =  1.0

[...]

     Total force =     0.000111     Total SCF correction =     0.000031
     SCF correction compared to forces is large: reduce conv_thr to get better values

[...]

     number of scf cycles    =   8
     number of bfgs steps    =   7

     enthalpy old            =    -407.8085956020 Ry
     enthalpy new            =    -407.8087706163 Ry

     CASE: enthalpy_new < enthalpy_old

     small trust_radius: resetting bfgs history

     new trust radius        =       0.0000556943 bohr
     new conv_thr            =       0.0000000100 Ry

     new unit-cell volume =    418.39674 a.u.^3 (    62.00000 Ang^3 )

[...]

ATOMIC_POSITIONS (crystal)
Mo0      0.000000000   0.000000000   0.000000000    0   0   0
Mo0      0.500000000   0.500000000   0.500000000    0   0   0
O1       0.279972153   0.279972153   0.000000000    1   1   0
O1      -0.279972153  -0.279972153   0.000000000    1   1   0
O1       0.779972153   0.220027847   0.500000000    1   1   0
O1       0.220027847   0.779972153   0.500000000    1   1   0

     NEW-OLD atomic charge density approx. for the potential
     NEW k-points:
        k(    1) = (   0.0000000   0.0000000   0.0000000), wk =   0.0080000
        k(    2) = (   0.0000000   0.0000000   0.3465011), wk =   0.0160000
        k(    3) = (   0.0000000   0.0000000   0.6930021), wk =   0.0160000
        k(    4) = (   0.0000000   0.1892779   0.0000000), wk =   0.0320000
        k(    5) = (   0.0000000   0.1892779   0.3465011), wk =   0.0640000
        k(    6) = (   0.0000000   0.1892779   0.6930021), wk =   0.0640000
        k(    7) = (   0.0000000   0.3785558   0.0000000), wk =   0.0320000
        k(    8) = (   0.0000000   0.3785558   0.3465011), wk =   0.0640000
        k(    9) = (   0.0000000   0.3785558   0.6930021), wk =   0.0640000
        k(   10) = (   0.1892779   0.1892779   0.0000000), wk =   0.0320000
        k(   11) = (   0.1892779   0.1892779   0.3465011), wk =   0.0640000
        k(   12) = (   0.1892779   0.1892779   0.6930021), wk =   0.0640000
        k(   13) = (   0.1892779   0.3785558   0.0000000), wk =   0.0640000
        k(   14) = (   0.1892779   0.3785558   0.3465011), wk =   0.1280000
        k(   15) = (   0.1892779   0.3785558   0.6930021), wk =   0.1280000
        k(   16) = (   0.3785558   0.3785558   0.0000000), wk =   0.0320000
        k(   17) = (   0.3785558   0.3785558   0.3465011), wk =   0.0640000
        k(   18) = (   0.3785558   0.3785558   0.6930021), wk =   0.0640000
        k(   19) = (   0.0000000   0.0000000   0.0000000), wk =   0.0080000
        k(   20) = (   0.0000000   0.0000000   0.3465011), wk =   0.0160000
        k(   21) = (   0.0000000   0.0000000   0.6930021), wk =   0.0160000
        k(   22) = (   0.0000000   0.1892779   0.0000000), wk =   0.0320000
        k(   23) = (   0.0000000   0.1892779   0.3465011), wk =   0.0640000
        k(   24) = (   0.0000000   0.1892779   0.6930021), wk =   0.0640000
        k(   25) = (   0.0000000   0.3785558   0.0000000), wk =   0.0320000
        k(   26) = (   0.0000000   0.3785558   0.3465011), wk =   0.0640000
        k(   27) = (   0.0000000   0.3785558   0.6930021), wk =   0.0640000
        k(   28) = (   0.1892779   0.1892779   0.0000000), wk =   0.0320000
        k(   29) = (   0.1892779   0.1892779   0.3465011), wk =   0.0640000
        k(   30) = (   0.1892779   0.1892779   0.6930021), wk =   0.0640000
        k(   31) = (   0.1892779   0.3785558   0.0000000), wk =   0.0640000
        k(   32) = (   0.1892779   0.3785558   0.3465011), wk =   0.1280000
        k(   33) = (   0.1892779   0.3785558   0.6930021), wk =   0.1280000
        k(   34) = (   0.3785558   0.3785558   0.0000000), wk =   0.0320000
        k(   35) = (   0.3785558   0.3785558   0.3465011), wk =   0.0640000
        k(   36) = (   0.3785558   0.3785558   0.6930021), wk =   0.0640000

[...]

     Threshold (ethr) on eigenvalues was too large:
     Diagonalizing with lowered threshold

     Davidson diagonalization with overlap
     ethr =  4.80E-12,  avg # of iterations =  2.3

[...]

     Volume is kept fixed: isostatic pressure set to zero

     bfgs converged in   9 scf cycles and   8 bfgs steps
     (criteria: energy < 0.10E-03, force < 0.10E-02, cell < 0.50E+00)

     End of BFGS Geometry Optimization

     Final enthalpy =    -407.8087706239 Ry
Begin final coordinates
     new unit-cell volume =    418.39674 a.u.^3 (    62.00000 Ang^3 )

CELL_PARAMETERS (alat=  8.65899730)
   1.056647265   0.000000000   0.000000000
   0.000000000   1.056647265   0.000000000
   0.000000000   0.000000000   0.577198797

ATOMIC_POSITIONS (crystal)
Mo0      0.000000000   0.000000000   0.000000000    0   0   0
Mo0      0.500000000   0.500000000   0.500000000    0   0   0
O1       0.279972153   0.279972153   0.000000000    1   1   0
O1      -0.279972153  -0.279972153   0.000000000    1   1   0
O1       0.779972153   0.220027847   0.500000000    1   1   0
O1       0.220027847   0.779972153   0.500000000    1   1   0
End final coordinates

     A final scf calculation at the relaxed structure.
     The G-vectors are recalculated for the final unit cell
     Results may differ from those at the preceding step.

     bravais-lattice index     =            0
     lattice parameter (alat)  =       8.6590  a.u.
     unit-cell volume          =     418.3967 (a.u.)^3
     number of atoms/cell      =            6
     number of atomic types    =            2
     number of electrons       =        52.00
     number of Kohn-Sham states=           78
     kinetic-energy cutoff     =      40.0000  Ry
     charge density cutoff     =     500.0000  Ry
     convergence threshold     =      1.0E-08
     mixing beta               =       0.7000
     number of iterations used =            8  plain     mixing
     Exchange-correlation      = SLA  PW   PBE  PBE ( 1 4 3 4 0)
     EXX-fraction              =        0.00

     celldm(1)=   8.658997  celldm(2)=   0.000000  celldm(3)=   0.000000
     celldm(4)=   0.000000  celldm(5)=   0.000000  celldm(6)=   0.000000

     crystal axes: (cart. coord. in units of alat)
               a(1) = (   1.056647   0.000000   0.000000 )
               a(2) = (   0.000000   1.056647   0.000000 )
               a(3) = (   0.000000   0.000000   0.577199 )

     reciprocal axes: (cart. coord. in units 2 pi/alat)
               b(1) = (  0.946390  0.000000  0.000000 )
               b(2) = (  0.000000  0.946390  0.000000 )
               b(3) = (  0.000000  0.000000  1.732505 )

     PseudoPot. # 1 for Mo read from file:
     /home/camp/zhonxu/pseudo/mo_pbe_v1.uspp.F.UPF
     MD5 check sum: 30c4dcd161f5d35cd49bb5239c51a633
     Pseudo is Ultrasoft + core correction, Zval = 14.0
     Generated by new atomic code, or converted to UPF format
     Using radial grid of  889 points,  6 beta functions with:
                l(1) =   0
                l(2) =   0
                l(3) =   1
                l(4) =   1
                l(5) =   2
                l(6) =   2
     Q(r) pseudized with  6 coefficients,  rinner =    1.000   1.000   1.000
                                                       1.000   1.000

     PseudoPot. # 2 for O  read from file:
     /home/camp/zhonxu/pseudo/o_pbe_v1.01.uspp.F.UPF
     MD5 check sum: 2bcb18d16ea4b960afae9ec6d52f22d2
     Pseudo is Ultrasoft + core correction, Zval =  6.0
     Generated by new atomic code, or converted to UPF format
     Using radial grid of  737 points,  5 beta functions with:
                l(1) =   0
                l(2) =   0
                l(3) =   1
                l(4) =   1
                l(5) =   2
     Q(r) pseudized with  8 coefficients,  rinner =    0.900   0.900   0.900
                                                       0.900   0.900

     atomic species   valence    mass     pseudopotential
        Mo0           14.00    95.94000     Mo( 1.00)
        O1             6.00    15.99940     O ( 1.00)

     Starting magnetic structure
     atomic species   magnetization
        Mo0          0.600
        O1           0.000

     16 Sym. Ops., with inversion, found ( 8 have fractional translation)

   Cartesian axes

     site n.     atom                  positions (alat units)
         1           Mo0 tau(   1) = (   0.0000000   0.0000000   0.0000000  )
         2           Mo0 tau(   2) = (   0.5283236   0.5283236   0.2885994  )
         3           O1  tau(   3) = (   0.2958318   0.2958318   0.0000000  )
         4           O1  tau(   4) = (  -0.2958318  -0.2958318   0.0000000  )
         5           O1  tau(   5) = (   0.8241554   0.2324918   0.2885994  )
         6           O1  tau(   6) = (   0.2324918   0.8241554   0.2885994  )

     number of k points=    36  Methfessel-Paxton smearing, width (Ry)=  0.0100
                       cart. coord. in units 2pi/alat
        k(    1) = (   0.0000000   0.0000000   0.0000000), wk =   0.0080000
        k(    2) = (   0.0000000   0.0000000   0.3465011), wk =   0.0160000
        k(    3) = (   0.0000000   0.0000000   0.6930021), wk =   0.0160000
        k(    4) = (   0.0000000   0.1892779   0.0000000), wk =   0.0320000
        k(    5) = (   0.0000000   0.1892779   0.3465011), wk =   0.0640000
        k(    6) = (   0.0000000   0.1892779   0.6930021), wk =   0.0640000
        k(    7) = (   0.0000000   0.3785558   0.0000000), wk =   0.0320000
        k(    8) = (   0.0000000   0.3785558   0.3465011), wk =   0.0640000
        k(    9) = (   0.0000000   0.3785558   0.6930021), wk =   0.0640000
        k(   10) = (   0.1892779   0.1892779   0.0000000), wk =   0.0320000
        k(   11) = (   0.1892779   0.1892779   0.3465011), wk =   0.0640000
        k(   12) = (   0.1892779   0.1892779   0.6930021), wk =   0.0640000
        k(   13) = (   0.1892779   0.3785558   0.0000000), wk =   0.0640000
        k(   14) = (   0.1892779   0.3785558   0.3465011), wk =   0.1280000
        k(   15) = (   0.1892779   0.3785558   0.6930021), wk =   0.1280000
        k(   16) = (   0.3785558   0.3785558   0.0000000), wk =   0.0320000
        k(   17) = (   0.3785558   0.3785558   0.3465011), wk =   0.0640000
        k(   18) = (   0.3785558   0.3785558   0.6930021), wk =   0.0640000
        k(   19) = (   0.0000000   0.0000000   0.0000000), wk =   0.0080000
        k(   20) = (   0.0000000   0.0000000   0.3465011), wk =   0.0160000
        k(   21) = (   0.0000000   0.0000000   0.6930021), wk =   0.0160000
        k(   22) = (   0.0000000   0.1892779   0.0000000), wk =   0.0320000
        k(   23) = (   0.0000000   0.1892779   0.3465011), wk =   0.0640000
        k(   24) = (   0.0000000   0.1892779   0.6930021), wk =   0.0640000
        k(   25) = (   0.0000000   0.3785558   0.0000000), wk =   0.0320000
        k(   26) = (   0.0000000   0.3785558   0.3465011), wk =   0.0640000
        k(   27) = (   0.0000000   0.3785558   0.6930021), wk =   0.0640000
        k(   28) = (   0.1892779   0.1892779   0.0000000), wk =   0.0320000
        k(   29) = (   0.1892779   0.1892779   0.3465011), wk =   0.0640000
        k(   30) = (   0.1892779   0.1892779   0.6930021), wk =   0.0640000
        k(   31) = (   0.1892779   0.3785558   0.0000000), wk =   0.0640000
        k(   32) = (   0.1892779   0.3785558   0.3465011), wk =   0.1280000
        k(   33) = (   0.1892779   0.3785558   0.6930021), wk =   0.1280000
        k(   34) = (   0.3785558   0.3785558   0.0000000), wk =   0.0320000
        k(   35) = (   0.3785558   0.3785558   0.3465011), wk =   0.0640000
        k(   36) = (   0.3785558   0.3785558   0.6930021), wk =   0.0640000

     Largest allocated arrays     est. size (Mb)     dimensions
     Largest temporary arrays     est. size (Mb)     dimensions

     Check: negative/imaginary core charge=   -0.000008    0.000000

     Initial potential from superposition of free atoms

     starting charge   51.99787, renormalised to   52.00000
     Starting wfc are   42 randomized atomic wfcs

     Self-consistent Calculation

[...]

     total energy              =    -407.80895297 Ry
     Harris-Foulkes estimate   =    -407.80895293 Ry
     estimated scf accuracy    <       0.00000002 Ry

[...]

     iteration # 12     ecut=    40.00 Ry     beta=0.70
     Davidson diagonalization with overlap
     ethr =  4.30E-11,  avg # of iterations =  2.0

     negative rho (up, down):  0.472E-05 0.476E-05

     End of self-consistent calculation

 ------ SPIN UP ------------

[...]

 ------ SPIN DOWN ----------

[...]

          k = 0.3786 0.3786 0.6930 (  1808 PWs)   bands (ev):

   -47.6546 -47.6542 -22.4677 -22.4645 -22.0790 -22.0741 -21.6850 -21.6841
    -5.1886  -4.9162  -4.7157  -4.4076   6.4378   6.8038   7.0099   7.3420
     7.6344   8.0328   8.2504   9.1133   9.8561  10.0740  11.0494  11.1848
    14.1507  14.3834  15.2850  15.6774  17.1659  17.2697  19.0607  20.0266
    20.4224  21.1749  24.0869  24.3304  25.4896  25.5463  28.5202  28.5948
    30.9120  31.1801  31.3927  31.4870  32.9535  33.3312  34.2975  34.8077
    37.9564  38.2224  38.5493  39.0277  40.6690  41.3509  42.3491  42.7501
    43.9411  44.2626  44.7707  45.4409  45.8009  46.3151  46.6846  47.2447
    47.7302  47.9032  48.1660  48.9243  49.4220  49.5884  50.1558  50.2021
    51.7226  52.8347  55.4687  55.7332  56.1280  56.4335

     the Fermi energy is    14.4105 ev

!    total energy              =    -407.80895303 Ry
     Harris-Foulkes estimate   =    -407.80895302 Ry
     estimated scf accuracy    <          3.0E-09 Ry

     The total energy is the sum of the following terms:

     one-electron contribution =    -104.11748203 Ry
     hartree contribution      =      83.46455394 Ry
     xc contribution           =     -67.79986749 Ry
     ewald contribution        =    -319.35605716 Ry
     smearing contrib. (-TS)   =      -0.00010029 Ry

     total magnetization       =     0.00 Bohr mag/cell
     absolute magnetization    =     0.00 Bohr mag/cell

     convergence has been achieved in  12 iterations

     Forces acting on atoms (Ry/au):

     negative rho (up, down):  0.472E-05 0.476E-05
     atom    1 type  1   force =     0.00000000    0.00000000    0.00000000
     atom    2 type  1   force =     0.00000000    0.00000000    0.00000000
     atom    3 type  2   force =    -0.00002681   -0.00002681    0.00000000
     atom    4 type  2   force =     0.00002681    0.00002681    0.00000000
     atom    5 type  2   force =    -0.00002681    0.00002681    0.00000000
     atom    6 type  2   force =     0.00002681   -0.00002681   -0.00000000

     Total force =     0.000076     Total SCF correction =     0.000013
     SCF correction compared to forces is large: reduce conv_thr to get better values

     entering subroutine stress ...

     negative rho (up, down):  0.472E-05 0.476E-05
          total   stress  (Ry/bohr**3)                   (kbar)     P=  214.87
   0.00146646   0.00000000   0.00000000        215.72      0.00      0.00
   0.00000000   0.00146646   0.00000000          0.00    215.72      0.00
   0.00000000   0.00000000   0.00144895          0.00      0.00    213.15

     General routines

     Parallel routines

   This run was terminated on:  21:24:12  23Jan2014

   JOB DONE.