     Program PWSCF v.5.0.2 (svn rev. 9656) starts on 22Jun2014 at 16:24:42

     Current dimensions of program PWSCF are:
     Max number of different atomic species (ntypx) = 10
     Max number of k-points (npk) =  40000
     Max angular momentum in pseudopotentials (lmaxx) =  3
     Reading input from pwscf.in
Warning: card &CELL ignored
Warning: card / ignored

     Subspace diagonalization in iterative solution of the eigenvalue problem:
     a serial algorithm will be used

     bravais-lattice index     =            0
     lattice parameter (alat)  =      10.1289  a.u.
     unit-cell volume          =    9515.8234 (a.u.)^3
     number of atoms/cell      =           51
     number of atomic types    =            3
     number of electrons       =       445.00
     number of Kohn-Sham states=          667
     kinetic-energy cutoff     =      40.0000  Ry
     charge density cutoff     =     500.0000  Ry
     convergence threshold     =      1.0E-06
     mixing beta               =       0.3000
     number of iterations used =            8  plain     mixing
     Exchange-correlation      = SLA  PW   PBE  PBE ( 1 4 3 4 0)
     EXX-fraction              =        0.00
     nstep                     =           50

     celldm(1)=  10.128932  celldm(2)=   0.000000  celldm(3)=   0.000000
     celldm(4)=   0.000000  celldm(5)=   0.000000  celldm(6)=   0.000000

     crystal axes: (cart. coord. in units of alat)
               a(1) = (   1.000000   0.000000   0.000000 )
               a(2) = (   0.000000   1.306037   0.000000 )
               a(3) = (   0.000000   0.000000   7.011323 )

     reciprocal axes: (cart. coord. in units 2 pi/alat)
               b(1) = (  1.000000  0.000000  0.000000 )
               b(2) = (  0.000000  0.765675  0.000000 )
               b(3) = (  0.000000  0.000000  0.142626 )

     PseudoPot. # 1 for O  read from file:
     /home/camp/zhonxu/pseudo/o_pbe_v1.01.uspp.F.UPF
     MD5 check sum: 2bcb18d16ea4b960afae9ec6d52f22d2
     Pseudo is Ultrasoft + core correction, Zval =  6.0
     Generated by new atomic code, or converted to UPF format
     Using radial grid of  737 points,  5 beta functions with:
                l(1) =   0
                l(2) =   0
                l(3) =   1
                l(4) =   1
                l(5) =   2
     Q(r) pseudized with  8 coefficients,  rinner =    0.900   0.900   0.900
                                                       0.900   0.900

     PseudoPot. # 2 for Re read from file:
     /home/camp/zhonxu/pseudo/re_pbe_v1.uspp.F.UPF
     MD5 check sum: 6f5a5dcaf9c96c20d0ffdde0de57afc6
     Pseudo is Ultrasoft + core correction, Zval = 15.0
     Generated by new atomic code, or converted to UPF format
     Using radial grid of  981 points,  8 beta functions with:
                l(1) =   0
                l(2) =   0
                l(3) =   1
                l(4) =   1
                l(5) =   2
                l(6) =   2
                l(7) =   3
                l(8) =   3
     Q(r) pseudized with  8 coefficients,  rinner =    1.000   1.000   1.000
                                                       1.000   1.000   1.000
                                                       1.000

     PseudoPot. # 3 for H  read from file:
     /home/camp/zhonxu/pseudo/h_pbe_v1.uspp.F.UPF
     MD5 check sum: 3408e3ff4ec8b0a4e358431e7e038a48
     Pseudo is Ultrasoft, Zval =  1.0
     Generated by new atomic code, or converted to UPF format
     Using radial grid of  615 points,  2 beta functions with:
                l(1) =   0
                l(2) =   0
     Q(r) pseudized with  8 coefficients,  rinner =    0.700

     atomic species   valence    mass     pseudopotential
        O0             6.00    15.99940     O ( 1.00)
        Re1           15.00   186.20700     Re( 1.00)
        H2             1.00     1.00794     H ( 1.00)

      2 Sym. Ops. (no inversion) found

   Cartesian axes

     site n.     atom                  positions (alat units)
         1           O0  tau(   1) = (   0.0000000   0.6530184   2.2387856  )
         2           Re1 tau(   2) = (   0.2500000   0.6530184   2.5261097  )
         3           Re1 tau(   3) = (   0.0000000   0.0000000   2.5261097  )
         4           O0  tau(   4) = (   0.2500000   1.0187087   2.5261097  )
         5           O0  tau(   5) = (   0.2500000   0.2873281   2.5261097  )
         6           O0  tau(   6) = (   0.0000000   0.6530184   2.8134337  )
         7           O0  tau(   7) = (   0.0000000   0.0000000   2.8918203  )
         8           Re1 tau(   8) = (   0.2500000   0.0000000   3.1791443  )
         9           Re1 tau(   9) = (   0.0000000   0.6530184   3.1791443  )
        10           O0  tau(  10) = (   0.2500000   0.9403465   3.1791443  )
        11           O0  tau(  11) = (   0.2500000   0.3656903   3.1791443  )
        12           O0  tau(  12) = (   0.0000000   0.0000000   3.4664683  )
        13           O0  tau(  13) = (   0.0000000   0.6540502   3.5386149  )
        14           Re1 tau(  14) = (   0.2308700   0.6529792   3.8314077  )
        15           Re1 tau(  15) = (   0.0000000   0.0004049   3.8388397  )
        16           O0  tau(  16) = (   0.2455800   1.0208767   3.8357547  )
        17           O0  tau(  17) = (   0.2460300   0.2857217   3.8303560  )
        18           O0  tau(  18) = (   0.0000000   0.6413816   4.1234293  )
        19           O0  tau(  19) = (   0.0000000   0.0041140   4.2158386  )
        20           Re1 tau(  20) = (   0.2742800  -0.0018676   4.4929261  )
        21           Re1 tau(  21) = (   0.0000000   0.6515034   4.4716818  )
        22           O0  tau(  22) = (   0.2468700   0.9361149   4.4732944  )
        23           O0  tau(  23) = (   0.2505400   0.3687725   4.4974834  )
        24           O0  tau(  24) = (   0.0000000  -0.0086982   4.7277353  )
        25           O0  tau(  25) = (   0.5000000   0.6530184   2.2387856  )
        26           Re1 tau(  26) = (   0.7500000   0.6530184   2.5261097  )
        27           Re1 tau(  27) = (   0.5000000   0.0000000   2.5261097  )
        28           O0  tau(  28) = (   0.7500000   1.0187087   2.5261097  )
        29           O0  tau(  29) = (   0.7500000   0.2873281   2.5261097  )
        30           O0  tau(  30) = (   0.5000000   0.6530184   2.8134337  )
        31           O0  tau(  31) = (   0.5000000   0.0000000   2.8918203  )
        32           Re1 tau(  32) = (   0.7500000   0.0000000   3.1791443  )
        33           Re1 tau(  33) = (   0.5000000   0.6530184   3.1791443  )
        34           O0  tau(  34) = (   0.7500000   0.9403465   3.1791443  )
        35           O0  tau(  35) = (   0.7500000   0.3656903   3.1791443  )
        36           O0  tau(  36) = (   0.5000000   0.0000000   3.4664683  )
        37           O0  tau(  37) = (   0.5000000   0.6546640   3.5663096  )
        38           Re1 tau(  38) = (   0.7691300   0.6529792   3.8314077  )
        39           Re1 tau(  39) = (   0.5000000   0.0011101   3.8316181  )
        40           O0  tau(  40) = (   0.7544200   1.0208767   3.8357547  )
        41           O0  tau(  41) = (   0.7539700   0.2857217   3.8303560  )
        42           O0  tau(  42) = (   0.5000000   0.6504847   4.0924393  )
        43           O0  tau(  43) = (   0.5000000   0.0065694   4.1919300  )
        44           Re1 tau(  44) = (   0.7257200  -0.0018676   4.4929261  )
        45           Re1 tau(  45) = (   0.5000000   0.6532535   4.4944686  )
        46           O0  tau(  46) = (   0.7531300   0.9361149   4.4732944  )
        47           O0  tau(  47) = (   0.7494600   0.3687725   4.4974834  )
        48           O0  tau(  48) = (   0.5000000  -0.0226859   4.7749916  )
        49           O0  tau(  49) = (   0.5000000   0.6869231   4.8277168  )
        50           O0  tau(  50) = (   0.5000000   0.4226204   4.9953575  )
        51           H2  tau(  51) = (   0.5000000   0.5089103   5.1574593  )

     number of k points=     9  Methfessel-Paxton smearing, width (Ry)=  0.0100
                       cart. coord. in units 2pi/alat
        k(    1) = (   0.0000000   0.0000000   0.0000000), wk =   0.1250000
        k(    2) = (   0.0000000   0.1914188   0.0000000), wk =   0.2500000
        k(    3) = (   0.0000000  -0.3828376   0.0000000), wk =   0.1250000
        k(    4) = (   0.2500000   0.0000000   0.0000000), wk =   0.2500000
        k(    5) = (   0.2500000   0.1914188   0.0000000), wk =   0.5000000
        k(    6) = (   0.2500000  -0.3828376   0.0000000), wk =   0.2500000
        k(    7) = (  -0.5000000   0.0000000   0.0000000), wk =   0.1250000
        k(    8) = (  -0.5000000   0.1914188   0.0000000), wk =   0.2500000
        k(    9) = (  -0.5000000  -0.3828376   0.0000000), wk =   0.1250000

     Largest allocated arrays     est. size (Mb)     dimensions
     Largest temporary arrays     est. size (Mb)     dimensions

     Check: negative/imaginary core charge=   -0.000003    0.000000

     Initial potential from superposition of free atoms
     Check: negative starting charge=   -0.473107

     starting charge  436.99922, renormalised to  445.00000

     negative rho (up, down):  0.482E+00 0.000E+00
     Starting wfc are  345 randomized atomic wfcs

     Self-consistent Calculation

     iteration #  1     ecut=    40.00 Ry     beta=0.30
     Davidson diagonalization with overlap
     ethr =  1.00E-02,  avg # of iterations =  5.7

     negative rho (up, down):  0.516E+00 0.000E+00

     total energy              =   -4143.39700505 Ry
     Harris-Foulkes estimate   =   -4217.53815857 Ry
     estimated scf accuracy    <     147.39311468 Ry

[...]

     End of self-consistent calculation

          k = 0.0000 0.0000 0.0000 ( 40685 PWs)   bands (ev):

   -79.9507 -79.8664 -79.8076 -79.7459 -79.7441 -79.7332 -79.7045 -79.6904
   -79.6862 -79.6596 -79.6315 -79.6287 -79.6273 -79.5465 -79.3348 -79.2786
   -42.3984 -42.2767 -41.9930 -41.9762 -41.9413 -41.9412 -41.9024 -41.8592
   -41.8189 -41.7734 -41.7259 -41.7128 -41.7127 -41.6900 -41.6815 -41.6719
   -41.6688 -41.6641 -41.6350 -41.6243 -41.6221 -41.6210 -41.6176 -41.5912
   -41.5774 -41.5436 -41.5348 -41.5336 -41.5054 -41.4987 -41.4881 -41.4704
   -41.4353 -41.4213 -41.3008 -41.2935 -41.2479 -41.2430 -41.2384 -41.1521
   -41.1066 -41.1021 -41.0649 -41.0642 -41.0530 -41.0327 -40.9981 -40.7404
   -19.4580 -19.1722 -18.9325 -18.9233 -18.8536 -18.7371 -18.6040 -18.4585
   -18.3523 -18.1894 -18.1560 -18.0070 -17.9299 -17.8871 -17.8831 -17.8714
   -17.8480 -17.7277 -17.6937 -17.6913 -17.6709 -17.6433 -17.6259 -17.6113
   -17.5405 -17.5301 -17.5086 -17.4235 -17.3844 -16.5361 -16.2690 -15.7878
   -15.4747 -15.3770  -7.9658  -7.8658  -7.8037  -7.7525  -7.6133  -7.3919
    -7.0616  -6.9210  -6.7355  -6.7098  -6.4047  -6.3728  -6.3368  -6.2953
    -6.2372  -6.2291  -6.1355  -6.0714  -6.0614  -6.0109  -5.8840  -5.8600
    -5.7141  -5.6932  -5.6453  -5.6317  -5.5063  -5.5045  -5.4519  -5.4187
    -5.4069  -5.3726  -5.3485  -5.2831  -5.2648  -5.0044  -4.8963  -4.8546
    -4.7666  -4.5789  -4.4150  -4.3574  -4.2495  -4.2211  -4.0864  -4.0535
    -4.0361  -3.9882  -3.9615  -3.9502  -3.9371  -3.9061  -3.8156  -3.7514
[...]
Re1      0.250000000   0.000000000   0.453430000    0   0   0
Re1      0.000000000   0.500000000   0.453430000    0   0   0
O0       0.250000000   0.720000000   0.453430000    0   0   0
O0       0.250000000   0.280000000   0.453430000    0   0   0
O0       0.000000000   0.000000000   0.494410000    0   0   0
O0       0.000000000   0.501647701   0.504687318
Re1      0.231394941   0.500342837   0.546434717
Re1      0.000000000   0.000718655   0.547428090
O0       0.246243134   0.782066978   0.547178439
O0       0.246657744   0.219194147   0.546110938
O0       0.000000000   0.490337957   0.588086191
O0       0.000000000   0.005642087   0.601173799
Re1      0.274451902  -0.000523051   0.640635480
Re1      0.000000000   0.501393216   0.637727171
O0       0.248106727   0.717760410   0.637201892
O0       0.251395811   0.283764962   0.641637074
O0       0.000000000  -0.007317972   0.673933851
O0       0.500000000   0.500000000   0.319310000    0   0   0
Re1      0.750000000   0.500000000   0.360290000    0   0   0
Re1      0.500000000   0.000000000   0.360290000    0   0   0
O0       0.750000000   0.780000000   0.360290000    0   0   0
O0       0.750000000   0.220000000   0.360290000    0   0   0
O0       0.500000000   0.500000000   0.401270000    0   0   0
O0       0.500000000   0.000000000   0.412450000    0   0   0
Re1      0.750000000   0.000000000   0.453430000    0   0   0
Re1      0.500000000   0.500000000   0.453430000    0   0   0
O0       0.750000000   0.720000000   0.453430000    0   0   0
O0       0.750000000   0.280000000   0.453430000    0   0   0
O0       0.500000000   0.000000000   0.494410000    0   0   0
O0       0.500000000   0.502090102   0.508283778
Re1      0.768605059   0.500342837   0.546434717
Re1      0.500000000   0.001442959   0.546476454
O0       0.753756866   0.782066978   0.547178439
O0       0.753342256   0.219194147   0.546110938
O0       0.500000000   0.498205969   0.583551031
O0       0.500000000   0.007730991   0.597827578
Re1      0.725548098  -0.000523051   0.640635480
Re1      0.500000000   0.500155659   0.641904721
O0       0.751893273   0.717760410   0.637201892
O0       0.748604189   0.283764962   0.641637074
O0       0.500000000  -0.019991146   0.680756062
O0       0.500000000   0.529055624   0.688540473
O0       0.500000000   0.317118833   0.715691680
H2       0.500000000   0.387209710   0.738462269

     Check: negative starting charge=   -0.473240
     NEW-OLD atomic charge density approx. for the potential

     Check: negative/imaginary core charge=   -0.000003    0.000000
     Check: negative starting charge=   -0.473173

[...]

     Self-consistent Calculation

[...]

     Threshold (ethr) on eigenvalues was too large:
     Diagonalizing with lowered threshold

     Davidson diagonalization with overlap
     ethr =  5.22E-08,  avg # of iterations =  1.3

[...]

     total energy              =   -4213.28921048 Ry
     Harris-Foulkes estimate   =   -4213.28921049 Ry
     estimated scf accuracy    <       0.00000002 Ry

     iteration # 20     ecut=    40.00 Ry     beta=0.30
     Davidson diagonalization with overlap
     ethr =  3.68E-12,  avg # of iterations =  1.0

     negative rho (up, down):  0.491E+00 0.000E+00

     End of self-consistent calculation

[...]

          k = 0.2500-0.3828 0.0000 ( 40642 PWs)   bands (ev):

[...]

          k =-0.5000-0.3828 0.0000 ( 40640 PWs)   bands (ev):

   -80.0747 -80.0147 -79.9356 -79.8787 -79.8678 -79.8554 -79.8554 -79.8534
   -79.8490 -79.8021 -79.7969 -79.7969 -79.7874 -79.6810 -79.4486 -79.4399
   -42.2958 -42.2287 -41.9915 -41.9252 -41.9092 -41.8927 -41.8903 -41.8654
   -41.8524 -41.8067 -41.8047 -41.8046 -41.8025 -41.7890 -41.7872 -41.7868
   -41.7783 -41.7435 -41.7296 -41.7291 -41.7230 -41.7174 -41.6899 -41.6882
   -41.6863 -41.6845 -41.6832 -41.6786 -41.6587 -41.6527 -41.6509 -41.6295
   -41.6247 -41.6151 -41.5921 -41.5790 -41.5781 -41.5172 -41.5080 -41.5064
   -41.4739 -41.3856 -41.3373 -41.3309 -41.3287 -41.3278 -41.3238 -41.3101
   -19.1073 -18.7959 -18.7013 -18.5550 -18.5498 -18.4989 -18.4203 -18.3830
   -18.3397 -18.3182 -18.2669 -18.2465 -18.2237 -18.2106 -18.1859 -18.1352
   -18.0139 -18.0062 -17.9409 -17.9340 -17.9076 -17.8997 -17.8764 -17.8695
   -17.8628 -17.8621 -17.7586 -17.6088 -17.4733 -16.7064 -16.6853 -15.8128
   -15.7657 -15.4457  -7.4182  -7.2342  -7.1464  -6.9471  -6.9021  -6.8963
    -6.8955  -6.8812  -6.8021  -6.7780  -6.6701  -6.5915  -6.5114  -6.3900
    -6.3322  -6.1008  -5.8788  -5.8722  -5.8100  -5.7508  -5.7241  -5.5117
    -5.4954  -5.4666  -5.4234  -5.3831  -5.3517  -5.2896  -5.2832  -5.2463
    -5.2109  -5.1709  -5.1454  -5.1215  -5.1048  -5.0539  -4.9958  -4.9787
    -4.9542  -4.9434  -4.9199  -4.8325  -4.8306  -4.7710  -4.6081  -4.5168
    -4.4537  -4.3460  -4.3212  -4.2859  -4.2293  -4.2223  -4.0855  -3.9291
    -3.8873  -3.8135  -3.7582  -3.7518  -3.7235  -3.6353  -3.5766  -3.5752
    -3.5385  -3.5199  -3.4731  -3.4493  -3.3939  -3.3919  -3.3737  -3.3316
    -3.2524  -3.2381  -3.2059  -3.0060  -2.8765  -2.8080  -2.7918  -2.7601
    -2.6531  -2.5356  -2.4134  -2.2709  -2.2216  -2.1831  -2.1693  -2.1122
    -1.9879  -1.9697  -1.8745  -1.8677  -1.7835  -1.7058  -1.6241  -1.4080
    -1.2882  -1.0846  -1.0734  -1.0453  -1.0037  -0.9811  -0.6350   0.0674
     0.2148   0.3397   0.5118   0.6010   0.6435   0.6524   0.6532   0.6602
     0.6718   0.7158   0.7409   0.9446   0.9453   1.1500   1.2227   1.3801
     1.4005   1.4153   1.5334   1.6556   1.7085   1.7765   1.7826   1.8220
     1.9135   2.0176   2.0333   2.0429   2.1914   2.2098   2.2662   2.4111
     2.5476   2.5530   2.5598   2.6699   2.7229   2.8247   2.8417   2.9067
     2.9447   2.9659   2.9790   3.0494   3.2348   3.2692   3.2981   3.3601
     3.5719   3.7667   3.8994   4.0305   4.1632   4.3335   4.3701   4.5569
     4.5621   4.6508   4.8100   5.0376   5.3196   5.3952   5.4217   5.9365
     6.2175   6.3220   6.4579   6.6019   6.7160   6.8940   7.0155   7.0920
     7.3272   7.3921   7.4787   7.6512   7.6609   7.7108   7.7543   7.7555
     7.7739   7.9484   8.0728   8.1549   9.0050   9.1398   9.1480   9.1606
     9.1694   9.2113   9.2280   9.2531   9.3843   9.4258   9.4443   9.4707
     9.5007   9.5043   9.5536   9.5986   9.8125   9.8725   9.8842   9.9622
    10.0622  10.0975  10.1220  10.1667  10.4919  10.5252  10.5316  10.6809
    10.7436  10.7918  10.8874  10.9548  11.2909  11.2949  11.3857  11.4667
    11.4939  11.5276  11.6343  11.7203  12.1312  12.1488  12.1660  12.2918
    12.3066  12.4188  12.4433  12.4469  12.5193  12.5545  12.5601  12.5651
    12.7104  12.7906  12.9098  12.9777  13.0286  13.0493  13.2027  13.3263
    13.6022  13.6696  13.7213  13.8653  14.1148  14.1878  14.2399  14.2436
    14.3896  14.4286  14.5492  14.5876  14.6906  14.8495  14.8619  14.8974
    14.9511  14.9892  15.0749  15.0947  15.1342  15.1779  15.2531  15.2914
    15.2960  15.3405  15.3632  15.3990  15.4277  15.4384  15.4634  15.5448
    15.6531  15.6669  15.6997  15.7246  15.7739  15.8420  15.8502  15.8824
    15.9069  15.9100  15.9185  15.9556  16.0050  16.0372  16.0484  16.0531
    16.0890  16.1243  16.1335  16.1779  16.1891  16.2542  16.3329  16.4386
    16.4446  16.4634  16.5400  16.5716  16.6504  16.7144  16.7510  16.7568
    16.8089  16.8137  16.9238  16.9433  17.0158  17.0342  17.0400  17.2415
    17.3508  17.4036  17.4085  17.4365  17.4714  17.5018  17.5580  17.6138
    17.6427  17.7267  17.7524  17.7936  17.8376  17.9476  18.0271  18.0929
    18.1202  18.2736  18.2768  18.3329  18.3950  18.4723  18.5086  18.5624
    18.6058  18.6071  18.6951  18.7049  18.9622  19.0750  19.0894  19.1275
    19.2091  19.2864  19.3380  19.3446  19.3625  19.3788  19.4569  19.4810
    19.5374  19.6104  19.6181  19.6517  19.6854  19.6948  19.7201  19.7681
    19.7910  19.8069  19.8375  19.9090  19.9159  19.9185  19.9388  19.9714
    20.0128  20.0752  20.0817  20.1248  20.1331  20.1649  20.2892  20.2939
[...]
    24.1965  24.2091  24.2180  24.2377  24.3117  24.3427  24.4240  24.4732
    24.4953  24.5242  24.6047  24.6718  24.7193  24.8508  24.8690  24.9159
    25.0343  25.0658  25.0687  25.0953  25.1925  25.2768  25.3193  25.3535
    25.3673  25.4273  25.4577  25.5122  25.5665  25.6013  25.6279  25.6305
    25.6836  25.6892  25.7687  25.7923  25.8249  25.8498  25.8628  25.8831
    25.9299  25.9604  25.9740  26.0008  26.0214  26.0673  26.0857  26.2050
    26.2055  26.2338  26.3284  26.3549  26.3631  26.4448  26.4536  26.5066
    26.5371  26.5473  26.5767  26.5972  26.6131  26.6632  26.6951  26.6959
    26.7421  26.8426  26.8462  26.8805  26.9001  26.9004  26.9052  27.0442
    27.0572  27.0903  27.1001  27.1904  27.2349  27.2715  27.3168  27.3732
    27.3852  27.3920  27.4058  27.4478  27.4955  27.6090  27.6186  27.6347
    27.6473  27.6534  27.6721  27.7154  27.7248  27.7440  27.7782  27.8479
    27.8991  27.9018  27.9354  27.9627  28.0046  28.0113  28.0305  28.0936
    28.1338  28.1856  28.2072  28.2094  28.2347  28.3079  28.3327  28.3806
    28.3887  28.4189  28.4435

     the Fermi energy is     1.9845 ev

!    total energy              =   -4213.28921048 Ry
     Harris-Foulkes estimate   =   -4213.28921049 Ry
     estimated scf accuracy    <          7.4E-09 Ry

     The total energy is the sum of the following terms:

     one-electron contribution =  -85105.64916259 Ry
     hartree contribution      =   42599.04641408 Ry
     xc contribution           =   -1154.57114036 Ry
     ewald contribution        =   39447.88477970 Ry
     smearing contrib. (-TS)   =      -0.00010130 Ry

     convergence has been achieved in  20 iterations

     Forces acting on atoms (Ry/au):

     negative rho (up, down):  0.491E+00 0.000E+00
     atom    1 type  1   force =     0.00000000    0.00029448    0.10809224
     atom    2 type  2   force =     0.01344188   -0.00037902   -0.14581779
     atom    3 type  2   force =     0.00000000    0.00018557    0.06016881
     atom    4 type  1   force =    -0.00008624    0.00463341   -0.01420143
     atom    5 type  1   force =    -0.00022228   -0.00441678   -0.01408571
     atom    6 type  1   force =     0.00000000   -0.00006205    0.04276769
     atom    7 type  1   force =     0.00000000    0.00019058   -0.01210326
     atom    8 type  2   force =    -0.00152355   -0.00078822    0.00257841
     atom    9 type  2   force =     0.00000000    0.00045840   -0.04605072
     atom   10 type  1   force =     0.00222780   -0.00655244    0.00386275
     atom   11 type  1   force =     0.00204137    0.00745049    0.00496718
     atom   12 type  1   force =     0.00000000   -0.00175476   -0.00075259
     atom   13 type  1   force =     0.00000000    0.00035078    0.00026774
     atom   14 type  2   force =     0.00014786    0.00010229    0.00013820
     atom   15 type  2   force =     0.00000000    0.00009355    0.00036086
     atom   16 type  1   force =    -0.00016299    0.00003328    0.00038485
     atom   17 type  1   force =    -0.00004279    0.00015262    0.00026735
     atom   18 type  1   force =     0.00000000    0.00018772   -0.00041084
     atom   19 type  1   force =     0.00000000   -0.00020540    0.00032600
     atom   20 type  2   force =    -0.00030998    0.00020540    0.00027195
     atom   21 type  2   force =     0.00000000   -0.00050760   -0.00064796
     atom   22 type  1   force =    -0.00071475   -0.00019953    0.00044156
     atom   23 type  1   force =    -0.00064517    0.00015856    0.00028934
     atom   24 type  1   force =     0.00000000   -0.00004745    0.00060068
     atom   25 type  1   force =     0.00000000    0.00002475    0.10153954
     atom   26 type  2   force =    -0.01344188   -0.00037902   -0.14581779
     atom   27 type  2   force =     0.00000000   -0.00051867    0.06069928
     atom   28 type  1   force =     0.00008624    0.00463341   -0.01420143
     atom   29 type  1   force =     0.00022228   -0.00441678   -0.01408571
     atom   30 type  1   force =     0.00000000   -0.00013672    0.05161919
     atom   31 type  1   force =     0.00000000    0.00019566   -0.01095930
     atom   32 type  2   force =     0.00152355   -0.00078822    0.00257841
     atom   33 type  2   force =     0.00000000    0.00120572   -0.01857390
     atom   34 type  1   force =    -0.00222780   -0.00655244    0.00386275
     atom   35 type  1   force =    -0.00204137    0.00745049    0.00496718
     atom   36 type  1   force =     0.00000000   -0.00182571   -0.01798505
     atom   37 type  1   force =     0.00000000    0.00018423    0.00049957
     atom   38 type  2   force =    -0.00014786    0.00010229    0.00013820
     atom   39 type  2   force =     0.00000000    0.00002404    0.00012502
     atom   40 type  1   force =     0.00016299    0.00003328    0.00038485
     atom   41 type  1   force =     0.00004279    0.00015262    0.00026735
     atom   42 type  1   force =     0.00000000    0.00015481    0.00095921
     atom   43 type  1   force =     0.00000000    0.00007585    0.00002775
     atom   44 type  2   force =     0.00030998    0.00020540    0.00027195
     atom   45 type  2   force =     0.00000000    0.00049844    0.00034577
     atom   46 type  1   force =     0.00071475   -0.00019953    0.00044156
     atom   47 type  1   force =     0.00064517    0.00015856    0.00028934
     atom   48 type  1   force =     0.00000000    0.00010568   -0.00018307
     atom   49 type  1   force =     0.00000000   -0.00029164    0.00057541
     atom   50 type  1   force =     0.00000000    0.00043171    0.00011389
     atom   51 type  3   force =     0.00000000   -0.00011208    0.00038471

     Total force =     0.002789     Total SCF correction =     0.000253

     bfgs converged in  15 scf cycles and  14 bfgs steps
     (criteria: energy < 0.10E-03, force < 0.10E-02)

     End of BFGS Geometry Optimization

     Final energy   =   -4213.2892104787 Ry
Begin final coordinates

ATOMIC_POSITIONS (crystal)
O0       0.000000000   0.500000000   0.319310000    0   0   0
Re1      0.250000000   0.500000000   0.360290000    0   0   0
Re1      0.000000000   0.000000000   0.360290000    0   0   0
O0       0.250000000   0.780000000   0.360290000    0   0   0
O0       0.250000000   0.220000000   0.360290000    0   0   0
O0       0.000000000   0.500000000   0.401270000    0   0   0
O0       0.000000000   0.000000000   0.412450000    0   0   0
Re1      0.250000000   0.000000000   0.453430000    0   0   0
Re1      0.000000000   0.500000000   0.453430000    0   0   0
O0       0.250000000   0.720000000   0.453430000    0   0   0
O0       0.250000000   0.280000000   0.453430000    0   0   0
O0       0.000000000   0.000000000   0.494410000    0   0   0
O0       0.000000000   0.501647701   0.504687318
Re1      0.231394941   0.500342837   0.546434717
Re1      0.000000000   0.000718655   0.547428090
O0       0.246243134   0.782066978   0.547178439
O0       0.246657744   0.219194147   0.546110938
O0       0.000000000   0.490337957   0.588086191
O0       0.000000000   0.005642087   0.601173799
Re1      0.274451902  -0.000523051   0.640635480
Re1      0.000000000   0.501393216   0.637727171
O0       0.248106727   0.717760410   0.637201892
O0       0.251395811   0.283764962   0.641637074
O0       0.000000000  -0.007317972   0.673933851
O0       0.500000000   0.500000000   0.319310000    0   0   0
Re1      0.750000000   0.500000000   0.360290000    0   0   0
Re1      0.500000000   0.000000000   0.360290000    0   0   0
O0       0.750000000   0.780000000   0.360290000    0   0   0
O0       0.750000000   0.220000000   0.360290000    0   0   0
O0       0.500000000   0.500000000   0.401270000    0   0   0
O0       0.500000000   0.000000000   0.412450000    0   0   0
Re1      0.750000000   0.000000000   0.453430000    0   0   0
Re1      0.500000000   0.500000000   0.453430000    0   0   0
O0       0.750000000   0.720000000   0.453430000    0   0   0
O0       0.750000000   0.280000000   0.453430000    0   0   0
O0       0.500000000   0.000000000   0.494410000    0   0   0
O0       0.500000000   0.502090102   0.508283778
Re1      0.768605059   0.500342837   0.546434717
Re1      0.500000000   0.001442959   0.546476454
O0       0.753756866   0.782066978   0.547178439
O0       0.753342256   0.219194147   0.546110938
O0       0.500000000   0.498205969   0.583551031
O0       0.500000000   0.007730991   0.597827578
Re1      0.725548098  -0.000523051   0.640635480
Re1      0.500000000   0.500155659   0.641904721
O0       0.751893273   0.717760410   0.637201892
O0       0.748604189   0.283764962   0.641637074
O0       0.500000000  -0.019991146   0.680756062
O0       0.500000000   0.529055624   0.688540473
O0       0.500000000   0.317118833   0.715691680
H2       0.500000000   0.387209710   0.738462269
End final coordinates

     General routines

     Parallel routines

   This run was terminated on:   8:47:21  24Jun2014

   JOB DONE.