     Program PWSCF v.5.0.2 (svn rev. 9656) starts on  4May2014 at 23:13:58

     Current dimensions of program PWSCF are:
     Max number of different atomic species (ntypx) = 10
     Max number of k-points (npk) =  40000
     Max angular momentum in pseudopotentials (lmaxx) =  3
     Reading input from pwscf.in
Warning: card &CELL ignored
Warning: card / ignored

     Subspace diagonalization in iterative solution of the eigenvalue problem:
     a serial algorithm will be used

     bravais-lattice index     =            0
     lattice parameter (alat)  =      10.9604  a.u.
     unit-cell volume          =    6350.6732 (a.u.)^3
     number of atoms/cell      =           31
     number of atomic types    =            3
     number of electrons       =       230.00 (up: 122.00, down: 108.00)
     number of Kohn-Sham states=          333
     kinetic-energy cutoff     =      40.0000  Ry
     charge density cutoff     =     500.0000  Ry
     convergence threshold     =      1.0E-06
     mixing beta               =       0.7000
     number of iterations used =            8  plain     mixing
     Exchange-correlation      = SLA  PW   PBE  PBE ( 1 4 3 4 0)
     EXX-fraction              =        0.00
     nstep                     =           50

     celldm(1)=  10.960412  celldm(2)=   0.000000  celldm(3)=   0.000000
     celldm(4)=   0.000000  celldm(5)=   0.000000  celldm(6)=   0.000000

     crystal axes: (cart. coord. in units of alat)
               a(1) = (   1.000000   0.000000   0.000000 )
               a(2) = (   0.000000   1.067975   0.000000 )
               a(3) = (   0.000000   0.000000   4.516251 )

     reciprocal axes: (cart. coord. in units 2 pi/alat)
               b(1) = (  1.000000  0.000000  0.000000 )
               b(2) = (  0.000000  0.936351  0.000000 )
               b(3) = (  0.000000  0.000000  0.221423 )

     PseudoPot. # 1 for O  read from file:
     /home/camp/zhonxu/pseudo/o_pbe_v1.01.uspp.F.UPF
     MD5 check sum: 2bcb18d16ea4b960afae9ec6d52f22d2
     Pseudo is Ultrasoft + core correction, Zval =  6.0
     Generated by new atomic code, or converted to UPF format
     Using radial grid of  737 points,  5 beta functions with:
                l(1) =   0
                l(2) =   0
                l(3) =   1
                l(4) =   1
                l(5) =   2
     Q(r) pseudized with  8 coefficients,  rinner =    0.900   0.900   0.900
                                                       0.900   0.900

     PseudoPot. # 2 for Cr read from file:
     /home/camp/zhonxu/pseudo/cr_pbe_v1.uspp.F.UPF
     MD5 check sum: 68b6f918d1762dccfb11451fe85b0e0e
     Pseudo is Ultrasoft + core correction, Zval = 14.0
     Generated by new atomic code, or converted to UPF format
     Using radial grid of  857 points,  6 beta functions with:
                l(1) =   0
                l(2) =   0
                l(3) =   1
                l(4) =   1
                l(5) =   2
                l(6) =   2
     Q(r) pseudized with  6 coefficients,  rinner =    1.000   1.000   1.000
                                                       1.000   1.000

     PseudoPot. # 3 for H  read from file:
     /home/camp/zhonxu/pseudo/h_pbe_v1.uspp.F.UPF
     MD5 check sum: 3408e3ff4ec8b0a4e358431e7e038a48
     Pseudo is Ultrasoft, Zval =  1.0
     Generated by new atomic code, or converted to UPF format
     Using radial grid of  615 points,  2 beta functions with:
                l(1) =   0
                l(2) =   0
     Q(r) pseudized with  8 coefficients,  rinner =    0.700

     atomic species   valence    mass     pseudopotential
        O0             6.00    15.99940     O ( 1.00)
        Cr1           14.00    51.99600     Cr( 1.00)
        H2             1.00     1.00794     H ( 1.00)

     Starting magnetic structure
     atomic species   magnetization
        O0           0.000
        Cr1          0.600
        H2           0.000

     Simplified LDA+U calculation (l_max = 2) with parameters (eV):
     atomic species    L          U    alpha       J0     beta
        Cr1            2     4.5000   0.0000   0.0000   0.0000

     No symmetry found

   Cartesian axes

     site n.     atom                  positions (alat units)
         1           O0  tau(   1) = (   0.0000000   0.0000000   1.7030331  )
         2           O0  tau(   2) = (   0.0000000   0.5339875   1.8028422  )
         3           Cr1 tau(   3) = (   0.2500000   0.5339875   2.0350227  )
         4           Cr1 tau(   4) = (   0.0000000   0.0000000   2.0223320  )
         5           O0  tau(   5) = (   0.2500000   0.8543801   2.0287902  )
         6           O0  tau(   6) = (   0.2500000   0.2135950   2.0292419  )
         7           O0  tau(   7) = (   0.0000000   0.5339875   2.2445767  )
         8           O0  tau(   8) = (   0.0000000   0.0000000   2.3628573  )
         9           Cr1 tau(   9) = (   0.2500000   0.0000000   2.5580045  )
        10           Cr1 tau(  10) = (   0.0000000   0.5339875   2.5485656  )
        11           O0  tau(  11) = (   0.2500000   0.7475825   2.5953991  )
        12           O0  tau(  12) = (   0.2500000   0.3203925   2.5951281  )
        13           O0  tau(  13) = (   0.0000000   0.0000000   2.7889204  )
        14           O0  tau(  14) = (   0.5000000   0.0000000   1.7055170  )
        15           O0  tau(  15) = (   0.5000000   0.5339875   1.8012615  )
        16           Cr1 tau(  16) = (   0.7500000   0.5339875   2.0359259  )
        17           Cr1 tau(  17) = (   0.5000000   0.0000000   2.0265773  )
        18           O0  tau(  18) = (   0.7500000   0.8543801   2.0288354  )
        19           O0  tau(  19) = (   0.7500000   0.2135950   2.0296032  )
        20           O0  tau(  20) = (   0.5000000   0.5339875   2.2364023  )
        21           O0  tau(  21) = (   0.5000000   0.0000000   2.3615024  )
        22           Cr1 tau(  22) = (   0.7500000   0.0000000   2.6337872  )
        23           Cr1 tau(  23) = (   0.5000000   0.5339875   2.6580395  )
        24           O0  tau(  24) = (   0.7500000   0.7475825   2.5992379  )
        25           O0  tau(  25) = (   0.7500000   0.3203925   2.5991024  )
        26           O0  tau(  26) = (   0.5000000   0.0000000   2.7868881  )
        27           H2  tau(  27) = (  -0.0008000   0.6785059   1.7121107  )
        28           H2  tau(  28) = (   0.4997900   0.6815710   1.7150915  )
        29           H2  tau(  29) = (   0.1566700   0.0342393   1.6437347  )
        30           H2  tau(  30) = (   0.6553000   0.0356063   1.6443670  )
        31           O0  tau(  31) = (   0.4989300   0.5335603   2.9283823  )

     number of k points=    20  Methfessel-Paxton smearing, width (Ry)=  0.0100
                       cart. coord. in units 2pi/alat
        k(    1) = (   0.0000000   0.0000000   0.0000000), wk =   0.0625000
        k(    2) = (   0.0000000   0.2340879   0.0000000), wk =   0.1250000
        k(    3) = (   0.0000000  -0.4681757   0.0000000), wk =   0.0625000
        k(    4) = (   0.2500000   0.0000000   0.0000000), wk =   0.1250000
        k(    5) = (   0.2500000   0.2340879   0.0000000), wk =   0.1250000
        k(    6) = (   0.2500000  -0.4681757   0.0000000), wk =   0.1250000
        k(    7) = (  -0.5000000   0.0000000   0.0000000), wk =   0.0625000
        k(    8) = (  -0.5000000   0.2340879   0.0000000), wk =   0.1250000
        k(    9) = (  -0.5000000  -0.4681757   0.0000000), wk =   0.0625000
        k(   10) = (  -0.2500000   0.2340879   0.0000000), wk =   0.1250000
        k(   11) = (   0.0000000   0.0000000   0.0000000), wk =   0.0625000
        k(   12) = (   0.0000000   0.2340879   0.0000000), wk =   0.1250000
        k(   13) = (   0.0000000  -0.4681757   0.0000000), wk =   0.0625000
        k(   14) = (   0.2500000   0.0000000   0.0000000), wk =   0.1250000
        k(   15) = (   0.2500000   0.2340879   0.0000000), wk =   0.1250000
        k(   16) = (   0.2500000  -0.4681757   0.0000000), wk =   0.1250000
        k(   17) = (  -0.5000000   0.0000000   0.0000000), wk =   0.0625000
        k(   18) = (  -0.5000000   0.2340879   0.0000000), wk =   0.1250000
        k(   19) = (  -0.5000000  -0.4681757   0.0000000), wk =   0.0625000
        k(   20) = (  -0.2500000   0.2340879   0.0000000), wk =   0.1250000

     Largest allocated arrays     est. size (Mb)     dimensions
     Largest temporary arrays     est. size (Mb)     dimensions

     Check: negative/imaginary core charge=   -0.000012    0.000000

     Initial potential from superposition of free atoms
     Check: negative starting charge=(component1):   -0.001547
     Check: negative starting charge=(component2):   -0.000494

     starting charge  221.99984, renormalised to  230.00000

     negative rho (up, down):  0.160E-02 0.512E-03
     Number of +U iterations with fixed ns =  0
     Starting occupations:
 --- enter write_ns ---
 LDA+U parameters:
U( 2)     =  4.50000000
alpha( 2) =  0.00000000
atom    3   Tr[ns(na)] (up, down, total) =   5.00000  0.00000  5.00000
   spin  1
    eigenvalues:
  1.000  1.000  1.000  1.000  1.000
    eigenvectors:
  1.000  0.000  0.000  0.000  0.000
  0.000  1.000  0.000  0.000  0.000
  0.000  0.000  1.000  0.000  0.000
  0.000  0.000  0.000  1.000  0.000
  0.000  0.000  0.000  0.000  1.000
    occupations:
  1.000  0.000  0.000  0.000  0.000
  0.000  1.000  0.000  0.000  0.000
  0.000  0.000  1.000  0.000  0.000
  0.000  0.000  0.000  1.000  0.000
  0.000  0.000  0.000  0.000  1.000
   spin  2
    eigenvalues:
  0.000  0.000  0.000  0.000  0.000
    eigenvectors:
  1.000  0.000  0.000  0.000  0.000
  0.000  1.000  0.000  0.000  0.000
  0.000  0.000  1.000  0.000  0.000
  0.000  0.000  0.000  1.000  0.000
  0.000  0.000  0.000  0.000  1.000
    occupations:
  0.000  0.000  0.000  0.000  0.000
  0.000  0.000  0.000  0.000  0.000
  0.000  0.000  0.000  0.000  0.000
  0.000  0.000  0.000  0.000  0.000
  0.000  0.000  0.000  0.000  0.000
atomic mag. moment =     5.000000
atom    4   Tr[ns(na)] (up, down, total) =   5.00000  0.00000  5.00000
   spin  1
    eigenvalues:
  1.000  1.000  1.000  1.000  1.000
    eigenvectors:
  1.000  0.000  0.000  0.000  0.000
  0.000  1.000  0.000  0.000  0.000
  0.000  0.000  1.000  0.000  0.000
  0.000  0.000  0.000  1.000  0.000
  0.000  0.000  0.000  0.000  1.000
    occupations:
  1.000  0.000  0.000  0.000  0.000
  0.000  1.000  0.000  0.000  0.000
  0.000  0.000  1.000  0.000  0.000
  0.000  0.000  0.000  1.000  0.000
  0.000  0.000  0.000  0.000  1.000
   spin  2
    eigenvalues:
  0.000  0.000  0.000  0.000  0.000
    eigenvectors:
  1.000  0.000  0.000  0.000  0.000
  0.000  1.000  0.000  0.000  0.000
  0.000  0.000  1.000  0.000  0.000
  0.000  0.000  0.000  1.000  0.000
  0.000  0.000  0.000  0.000  1.000
    occupations:
  0.000  0.000  0.000  0.000  0.000
  0.000  0.000  0.000  0.000  0.000
  0.000  0.000  0.000  0.000  0.000
  0.000  0.000  0.000  0.000  0.000
  0.000  0.000  0.000  0.000  0.000
atomic mag. moment =     5.000000
atom    9   Tr[ns(na)] (up, down, total) =   5.00000  0.00000  5.00000
   spin  1
    eigenvalues:
  1.000  1.000  1.000  1.000  1.000
    eigenvectors:
  1.000  0.000  0.000  0.000  0.000
[...]
    occupations:
  0.882 -0.015  0.012 -0.198 -0.001
 -0.015  0.475 -0.000 -0.005 -0.008
  0.012 -0.000  0.728 -0.005  0.011
 -0.198 -0.005 -0.005  0.618 -0.001
 -0.001 -0.008  0.011 -0.001  0.935
   spin  2
    eigenvalues:
  0.083  0.099  0.112  0.325  0.356
    eigenvectors:
  0.751  0.000  0.030  0.009  0.210
  0.000  0.002  0.000  0.964  0.034
  0.035  0.013  0.952  0.000  0.000
  0.215  0.000  0.005  0.025  0.756
  0.000  0.985  0.013  0.002  0.000
    occupations:
  0.143 -0.000 -0.002  0.112  0.000
 -0.000  0.325  0.000 -0.006  0.010
 -0.002  0.000  0.111  0.007 -0.001
  0.112 -0.006  0.007  0.295 -0.000
  0.000  0.010 -0.001 -0.000  0.099
atomic mag. moment =     2.664463
atom    4   Tr[ns(na)] (up, down, total) =   3.61674  0.99524  4.61197
   spin  1
    eigenvalues:
  0.485  0.531  0.697  0.914  0.989
    eigenvectors:
  0.003  0.992  0.000  0.001  0.004
  0.000  0.001  0.019  0.979  0.000
  0.000  0.000  0.980  0.019  0.000
  0.000  0.004  0.000  0.000  0.996
  0.997  0.003  0.000  0.000  0.000
    occupations:
  0.533 -0.012 -0.001  0.029  0.002
 -0.012  0.909  0.030  0.002 -0.000
 -0.001  0.030  0.702  0.001 -0.001
  0.029  0.002  0.001  0.987 -0.000
  0.002 -0.000 -0.001 -0.000  0.485
   spin  2
    eigenvalues:
  0.086  0.100  0.115  0.344  0.350
    eigenvectors:
  0.004  0.002  0.000  0.026  0.968
  0.005  0.897  0.097  0.000  0.002
  0.001  0.096  0.903  0.000  0.000
  0.990  0.006  0.000  0.000  0.004
  0.000  0.000  0.000  0.973  0.027
    occupations:
  0.348  0.011  0.002 -0.017  0.001
  0.011  0.102 -0.004  0.000 -0.000
  0.002 -0.004  0.114  0.000  0.000
 -0.017  0.000  0.000  0.087  0.000
  0.001 -0.000  0.000  0.000  0.344
atomic mag. moment =     2.621497
atom    9   Tr[ns(na)] (up, down, total) =   3.61788  1.03850  4.65638
   spin  1
    eigenvalues:
  0.505  0.511  0.720  0.894  0.987
    eigenvectors:
  0.075  0.121  0.000  0.000  0.805
  0.629  0.371  0.000  0.000  0.000
  0.000  0.000  0.974  0.026  0.000
  0.296  0.508  0.000  0.000  0.195
  0.000  0.000  0.026  0.974  0.000
    occupations:
  0.894  0.004 -0.000 -0.190 -0.000
  0.004  0.507  0.002  0.001 -0.001
 -0.000  0.002  0.725 -0.000 -0.028
 -0.190  0.001 -0.000  0.602  0.001
 -0.000 -0.001 -0.028  0.001  0.890
   spin  2
    eigenvalues:
  0.094  0.113  0.124  0.346  0.361
    eigenvectors:
  0.809  0.000  0.000  0.000  0.191
  0.000  0.000  0.000  0.999  0.001
  0.000  0.097  0.903  0.000  0.000
  0.191  0.000  0.000  0.001  0.808
  0.000  0.903  0.097  0.000  0.000
    occupations:
  0.145 -0.000  0.000  0.105 -0.000
 -0.000  0.347 -0.000  0.000  0.000
  0.000 -0.000  0.123  0.000  0.003
  0.105  0.000  0.000  0.310 -0.000
 -0.000  0.000  0.003 -0.000  0.114
atomic mag. moment =     2.579383
atom   10   Tr[ns(na)] (up, down, total) =   3.68649  0.89136  4.57785
   spin  1
    eigenvalues:
  0.470  0.483  0.815  0.933  0.986
    eigenvectors:
  0.000  0.993  0.000  0.000  0.007
  0.000  0.001  0.000  0.979  0.020
  0.000  0.000  0.999  0.000  0.000
  0.000  0.006  0.000  0.020  0.973
  1.000  0.000  0.000  0.000  0.000
    occupations:
  0.486 -0.013 -0.002  0.040  0.000
 -0.013  0.934 -0.002 -0.006  0.000
 -0.002 -0.002  0.815  0.000  0.006
  0.040 -0.006  0.000  0.981  0.000
  0.000  0.000  0.006  0.000  0.470
   spin  2
    eigenvalues:
  0.076  0.115  0.117  0.259  0.325
    eigenvectors:
  0.009  0.000  0.000  0.991  0.000
  0.001  0.999  0.000  0.000  0.000
  0.000  0.000  1.000  0.000  0.000
  0.990  0.001  0.000  0.009  0.000
  0.000  0.000  0.000  0.000  1.000
    occupations:
  0.257  0.000 -0.000 -0.018 -0.000
  0.000  0.115 -0.000  0.001  0.000
 -0.000 -0.000  0.117 -0.000  0.003
 -0.018  0.001 -0.000  0.078 -0.000
 -0.000  0.000  0.003 -0.000  0.325
atomic mag. moment =     2.795135
atom   16   Tr[ns(na)] (up, down, total) =   3.63635  0.97555  4.61190
   spin  1
    eigenvalues:
  0.470  0.516  0.725  0.936  0.989
    eigenvectors:
  0.023  0.201  0.001  0.000  0.775
  0.921  0.079  0.000  0.000  0.000
  0.000  0.000  0.992  0.006  0.002
  0.056  0.721  0.001  0.000  0.222
  0.000  0.000  0.006  0.994  0.000
    occupations:
  0.882  0.016  0.011 -0.198  0.002
  0.016  0.474  0.001  0.006 -0.007
  0.011  0.001  0.727 -0.005 -0.016
 -0.198  0.006 -0.005  0.619  0.000
  0.002 -0.007 -0.016  0.000  0.935
   spin  2
    eigenvalues:
  0.083  0.099  0.112  0.325  0.356
    eigenvectors:
  0.752  0.001  0.028  0.010  0.209
  0.000  0.002  0.000  0.962  0.036
  0.033  0.018  0.948  0.000  0.000
  0.215  0.000  0.005  0.026  0.754
  0.000  0.980  0.019  0.002  0.000
    occupations:
  0.144  0.000 -0.002  0.112 -0.000
  0.000  0.326 -0.000  0.006  0.010
 -0.002 -0.000  0.111  0.006  0.002
  0.112  0.006  0.006  0.296  0.000
 -0.000  0.010  0.002  0.000  0.099
atomic mag. moment =     2.660796
atom   17   Tr[ns(na)] (up, down, total) =   3.62511  0.98626  4.61137
   spin  1
    eigenvalues:
  0.481  0.530  0.714  0.910  0.989
    eigenvectors:
  0.002  0.993  0.000  0.001  0.004
  0.000  0.001  0.019  0.980  0.000
  0.000  0.000  0.981  0.019  0.000
  0.000  0.004  0.000  0.000  0.996
  0.998  0.002  0.000  0.000  0.000
    occupations:
  0.533 -0.014 -0.003  0.029  0.002
 -0.014  0.906  0.026  0.001 -0.000
 -0.003  0.026  0.718 -0.000  0.002
  0.029  0.001 -0.000  0.987 -0.000
  0.002 -0.000  0.002 -0.000  0.481
   spin  2
    eigenvalues:
  0.085  0.099  0.113  0.341  0.348
    eigenvectors:
  0.005  0.002  0.000  0.013  0.980
  0.006  0.885  0.107  0.000  0.002
  0.001  0.106  0.893  0.000  0.000
  0.988  0.008  0.000  0.000  0.004
  0.000  0.000  0.000  0.986  0.014
    occupations:
  0.346  0.012  0.002 -0.017  0.001
  0.012  0.101 -0.004  0.000 -0.000
  0.002 -0.004  0.112  0.000  0.000
 -0.017  0.000  0.000  0.087  0.000
  0.001 -0.000  0.000  0.000  0.341
atomic mag. moment =     2.638849
atom   22   Tr[ns(na)] (up, down, total) =   3.39936  1.32974  4.72910
   spin  1
    eigenvalues:
  0.536  0.570  0.604  0.780  0.909
    eigenvectors:
  0.663  0.000  0.337  0.000  0.000
  0.006  0.989  0.005  0.000  0.000
  0.000  0.000  0.000  0.144  0.856
  0.332  0.011  0.658  0.000  0.000
  0.000  0.000  0.000  0.856  0.144
    occupations:
  0.559 -0.004  0.002 -0.032  0.002
 -0.004  0.570  0.001  0.001 -0.000
  0.002  0.001  0.890 -0.000  0.045
 -0.032  0.001 -0.000  0.581 -0.001
  0.002 -0.000  0.045 -0.001  0.799
   spin  2
    eigenvalues:
  0.142  0.171  0.196  0.410  0.411
    eigenvectors:
  0.000  0.000  0.930  0.010  0.060
  0.000  0.000  0.000  0.841  0.159
  0.979  0.021  0.000  0.000  0.000
  0.000  0.000  0.070  0.148  0.782
  0.021  0.979  0.000  0.000  0.000
    occupations:
  0.211 -0.001 -0.000  0.055 -0.000
 -0.001  0.410  0.000 -0.000 -0.000
 -0.000  0.000  0.142  0.000 -0.004
  0.055 -0.000  0.000  0.396  0.000
 -0.000 -0.000 -0.004  0.000  0.171
atomic mag. moment =     2.069622
atom   23   Tr[ns(na)] (up, down, total) =   3.35454  1.39791  4.75245
   spin  1
    eigenvalues:
  0.506  0.607  0.620  0.632  0.990
    eigenvectors:
  0.000  0.992  0.006  0.000  0.001
  0.000  0.006  0.994  0.000  0.000
  0.000  0.000  0.000  0.999  0.000
  0.000  0.001  0.000  0.000  0.998
  0.999  0.000  0.000  0.000  0.000
    occupations:
  0.608 -0.001 -0.000  0.015 -0.000
 -0.001  0.620 -0.000 -0.002 -0.000
 -0.000 -0.000  0.632  0.000  0.003
  0.015 -0.002  0.000  0.989 -0.000
 -0.000 -0.000  0.003 -0.000  0.506
   spin  2
    eigenvalues:
  0.084  0.245  0.256  0.361  0.452
    eigenvectors:
  0.003  0.000  0.001  0.000  0.997
  0.000  0.000  0.999  0.000  0.001
  0.000  1.000  0.000  0.000  0.000
  0.997  0.000  0.000  0.000  0.003
  0.000  0.000  0.000  1.000  0.000
    occupations:
  0.451  0.005  0.000 -0.019 -0.000
  0.005  0.256  0.000  0.001  0.000
  0.000  0.000  0.245 -0.000 -0.001
 -0.019  0.001 -0.000  0.085  0.000
 -0.000  0.000 -0.001  0.000  0.361
atomic mag. moment =     1.956629
N of occupied +U levels =  37.1623091
 --- exit write_ns ---

 ------ SPIN UP ------------

[...]

 ------ SPIN DOWN ----------

[...]

          k = 0.2500-0.4682 0.0000 ( 27150 PWs)   bands (ev):

[...]

          k =-0.2500 0.2341 0.0000 ( 27132 PWs)   bands (ev):

   -73.9156 -73.6139 -72.5218 -72.5169 -72.5036 -72.4561 -72.4158 -72.4009
   -45.8987 -45.3074 -45.0323 -44.9623 -44.9070 -44.6462 -44.1780 -44.0988
   -44.0374 -44.0219 -44.0061 -43.9586 -43.9398 -43.8639 -43.8299 -43.8274
   -43.8085 -43.8006 -43.7529 -43.7198 -43.6652 -43.5809 -43.5766 -43.4446
   -21.3156 -20.9407 -20.7126 -20.6845 -20.5014 -20.3779 -20.2714 -20.2205
   -20.1454 -20.0678 -20.0212 -19.9051 -19.8771 -19.8586 -19.7922 -19.7138
   -19.6047 -19.5566 -19.4908  -8.6670  -8.4811  -8.1969  -8.0483  -7.9508
    -7.6857  -7.5746  -7.4916  -7.3991  -7.3008  -7.1767  -7.1006  -7.0631
    -6.9686  -6.9019  -6.8474  -6.7326  -6.6606  -6.5121  -6.4459  -6.3946
    -6.3443  -6.1989  -6.0210  -5.9743  -5.9323  -5.7856  -5.7097  -5.6769
    -5.5997  -5.5006  -5.4691  -5.3647  -5.3604  -5.2617  -5.1798  -5.1187
    -4.9839  -4.8858  -4.7823  -4.6601  -4.6204  -4.4724  -4.4267  -4.3536
    -4.2270  -4.1775  -4.1034  -4.0990  -4.0446  -3.9644  -3.8338  -3.7834
    -3.7000  -3.5274  -3.4619  -3.2952   0.5161   0.6023   0.7220   0.8536
     0.9764   1.1028   1.2595   1.3110   1.4114   1.4752   1.5017   1.5918
     1.6428   1.7309   1.7516   1.8159   1.8908   1.9689   2.0212   2.0630
     2.1231   2.1912   2.2346   2.2848   2.3268   2.4338   2.4909   2.5660
     2.6492   2.6717   2.8450   2.9903   3.0187   3.0595   3.2415   3.3463
     3.4400   3.5717   3.8070   3.8171   3.9286   4.2816   4.4751   4.9648
     5.4486   5.6853   5.7647   6.0956   6.2987   6.4624   6.5317   6.6885
     6.8021   6.9561   7.0502   7.3539   7.4978   7.7963   7.8716   7.9974
     8.3024   8.3535   8.4357   8.5864   8.7193   8.8412   8.9478   9.0745
     9.2143   9.2704   9.4100   9.5500   9.6900   9.7921   9.9266  10.1152
    10.1593  10.2111  10.3001  10.4230  10.4864  10.6526  10.7383  10.8336
    10.8838  11.0076  11.1675  11.1992  11.2948  11.3799  11.5275  11.6017
    11.6584  11.7460  11.8209  11.8936  12.0081  12.0498  12.1864  12.2558
    12.3417  12.4237  12.5149  12.6226  12.7133  12.7734  12.8106  12.9171
    12.9296  12.9941  13.0656  13.1151  13.2136  13.2963  13.3156  13.3995
    13.4672  13.5417  13.6567  13.7155  13.8022  13.8951  13.9559  14.0580
    14.1221  14.2105  14.2769  14.3561  14.4264  14.4888  14.5988  14.6421
    14.7246  14.7895  14.8994  14.9430  15.0126  15.1180  15.1753  15.2918
    15.3429  15.4419  15.4954  15.6192  15.7427  15.8069  15.9507  16.0273
    16.0587  16.1450  16.2015  16.2469  16.3524  16.4138  16.4683  16.4996
    16.6072  16.7186  16.7924  16.8337  16.9083  17.0167  17.0563  17.0973
    17.1764  17.2243  17.3380  17.4256  17.4763  17.5107  17.6100  17.6831
    17.6969  17.7582  17.8049  17.9017  17.9519  18.0183  18.1275  18.2387
    18.2721  18.3064  18.4032  18.4289  18.5750  18.6893  18.7507  18.8060
    18.8716  18.9380  18.9776  19.0333  19.0676  19.2318  19.3381  19.3768
    19.4319  19.5059  19.5994  19.6566  19.7030  19.7779  19.8290  19.8935
    19.9690  20.0332  20.0951  20.1749  20.2972  20.3840  20.4501  20.5284
    20.6243  20.6696  20.7511  20.8398  20.9266  21.0149  21.0882  21.1399
    21.2244  21.2440  21.3347  21.3875  21.4829

     the spin up/dw Fermi energies are    -2.1859   -2.4080 ev

!    total energy              =   -2023.52353630 Ry
     Harris-Foulkes estimate   =   -2023.52353630 Ry
     estimated scf accuracy    <          5.4E-09 Ry

     The total energy is the sum of the following terms:

     one-electron contribution =  -23661.01752974 Ry
     hartree contribution      =   11848.40549023 Ry
     xc contribution           =    -322.08946363 Ry
     ewald contribution        =   10109.06805577 Ry
     Hubbard energy            =       2.11070632 Ry
     smearing contrib. (-TS)   =      -0.00079525 Ry

     total magnetization       =    14.00 Bohr mag/cell
     absolute magnetization    =    25.93 Bohr mag/cell

     convergence has been achieved in  20 iterations

     Forces acting on atoms (Ry/au):

     negative rho (up, down):  0.516E-02 0.184E-02
     atom    1 type  1   force =    -0.00361359   -0.01080026   -0.00021855
     atom    2 type  1   force =    -0.00077790    0.00489842   -0.00004340
     atom    3 type  2   force =     0.04290829    0.00083208   -0.00069130
     atom    4 type  2   force =     0.00124040    0.00664133    0.00046433
     atom    5 type  1   force =    -0.00237036    0.00746195   -0.00017819
     atom    6 type  1   force =    -0.00048931   -0.00561579   -0.00022688
     atom    7 type  1   force =     0.00215234   -0.00225275   -0.00033347
     atom    8 type  1   force =    -0.01864642   -0.00072836    0.00035773
     atom    9 type  2   force =     0.01906968    0.00082617   -0.00007200
     atom   10 type  2   force =     0.00172382    0.00008708    0.00016981
     atom   11 type  1   force =    -0.00124598   -0.05815611    0.00049904
     atom   12 type  1   force =    -0.00044371    0.05755948    0.00047210
     atom   13 type  1   force =    -0.03033998    0.00021651   -0.00094923
     atom   14 type  1   force =    -0.00763065   -0.01163214   -0.00017332
     atom   15 type  1   force =     0.00024038    0.00587909    0.00057680
     atom   16 type  2   force =    -0.04599858    0.00135155   -0.00073497
     atom   17 type  2   force =     0.00866730    0.00590227    0.00040409
     atom   18 type  1   force =     0.00220334    0.00755721   -0.00016301
     atom   19 type  1   force =     0.00458667   -0.00632826   -0.00021730
     atom   20 type  1   force =     0.00020425   -0.00296231   -0.00050256
     atom   21 type  1   force =     0.01516449    0.00025397    0.00019532
     atom   22 type  2   force =     0.01531736   -0.00008900   -0.00095667
     atom   23 type  2   force =    -0.00308515    0.00029445    0.00045151
     atom   24 type  1   force =    -0.00823976   -0.05650945    0.00058877
     atom   25 type  1   force =    -0.00727053    0.05670948    0.00060070
     atom   26 type  1   force =     0.01579478   -0.00028945   -0.00075248
     atom   27 type  3   force =    -0.00005493   -0.00027034   -0.00024562
     atom   28 type  3   force =    -0.00000646   -0.00054616    0.00007180
     atom   29 type  3   force =     0.00029060   -0.00016937    0.00047465
     atom   30 type  3   force =     0.00031876   -0.00013761    0.00054696
     atom   31 type  1   force =     0.00033082    0.00001631    0.00058532

     Total force =     0.002819     Total SCF correction =     0.000075

     bfgs converged in  15 scf cycles and  14 bfgs steps
     (criteria: energy < 0.10E-03, force < 0.10E-02)

     End of BFGS Geometry Optimization

     Final energy   =   -2023.5235362971 Ry
Begin final coordinates

ATOMIC_POSITIONS (crystal)
O0       0.000000000   0.000000000   0.375445919    0   0   1
O0       0.000000000   0.500000000   0.397004872    0   0   1
Cr1      0.250000000   0.500000000   0.449136255    0   0   1
Cr1      0.000000000   0.000000000   0.448132525    0   0   1
O0       0.250000000   0.800000000   0.448594542    0   0   1
O0       0.250000000   0.200000000   0.448644045    0   0   1
O0       0.000000000   0.500000000   0.496797641    0   0   1
O0       0.000000000   0.000000000   0.523725859    0   0   1
Cr1      0.250000000   0.000000000   0.570420772    0   0   1
Cr1      0.000000000   0.500000000   0.565328223    0   0   1
O0       0.250000000   0.700000000   0.575226283    0   0   1
O0       0.250000000   0.300000000   0.575229598    0   0   1
O0       0.000000000   0.000000000   0.619775917    0   0   1
O0       0.500000000   0.000000000   0.375622242    0   0   1
O0       0.500000000   0.500000000   0.397010401    0   0   1
Cr1      0.750000000   0.500000000   0.449244116    0   0   1
Cr1      0.500000000   0.000000000   0.448680349    0   0   1
O0       0.750000000   0.800000000   0.448571491    0   0   1
O0       0.750000000   0.200000000   0.448620472    0   0   1
O0       0.500000000   0.500000000   0.497737535    0   0   1
O0       0.500000000   0.000000000   0.523902751    0   0   1
Cr1      0.750000000   0.000000000   0.582433185    0   0   1
Cr1      0.500000000   0.500000000   0.589164646    0   0   1
O0       0.750000000   0.700000000   0.576755183    0   0   1
O0       0.750000000   0.300000000   0.576767637    0   0   1
O0       0.500000000   0.000000000   0.619701141    0   0   1
H2      -0.000793830   0.636315312   0.377373955
H2       0.499573134   0.638497831   0.378145250
H2       0.158281991   0.029259256   0.362798999
H2       0.657145938   0.030932104   0.362714564
O0       0.495479039   0.499773269   0.650123631
End final coordinates

     General routines

     Parallel routines
     Hubbard U routines

   This run was terminated on:   6: 0:47   6May2014

   JOB DONE.