     Program PWSCF v.5.0.2 (svn rev. 9656) starts on  9May2014 at  5:49:59

     Current dimensions of program PWSCF are:
     Max number of different atomic species (ntypx) = 10
     Max number of k-points (npk) =  40000
     Max angular momentum in pseudopotentials (lmaxx) =  3
     Reading input from pwscf.in
Warning: card &CELL ignored
Warning: card / ignored

     Subspace diagonalization in iterative solution of the eigenvalue problem:
     a serial algorithm will be used

     bravais-lattice index     =            0
     lattice parameter (alat)  =      11.1872  a.u.
     unit-cell volume          =    7531.8600 (a.u.)^3
     number of atoms/cell      =           30
     number of atomic types    =            3
     number of electrons       =       216.00
     number of Kohn-Sham states=          324
     kinetic-energy cutoff     =      40.0000  Ry
     charge density cutoff     =     500.0000  Ry
     convergence threshold     =      1.0E-06
     mixing beta               =       0.7000
     number of iterations used =            8  plain     mixing
     Exchange-correlation      = SLA  PW   PBE  PBE ( 1 4 3 4 0)
     EXX-fraction              =        0.00
     nstep                     =           50

     celldm(1)=  11.187179  celldm(2)=   0.000000  celldm(3)=   0.000000
     celldm(4)=   0.000000  celldm(5)=   0.000000  celldm(6)=   0.000000

     crystal axes: (cart. coord. in units of alat)
               a(1) = (   1.000000   0.000000   0.000000 )
               a(2) = (   0.000000   1.180104   0.000000 )
               a(3) = (   0.000000   0.000000   4.558482 )

     reciprocal axes: (cart. coord. in units 2 pi/alat)
               b(1) = (  1.000000  0.000000  0.000000 )
               b(2) = (  0.000000  0.847383  0.000000 )
               b(3) = (  0.000000  0.000000  0.219371 )

     PseudoPot. # 1 for O  read from file:
     /home/camp/zhonxu/pseudo/o_pbe_v1.01.uspp.F.UPF
     MD5 check sum: 2bcb18d16ea4b960afae9ec6d52f22d2
     Pseudo is Ultrasoft + core correction, Zval =  6.0
     Generated by new atomic code, or converted to UPF format
     Using radial grid of  737 points,  5 beta functions with:
                l(1) =   0
                l(2) =   0
                l(3) =   1
                l(4) =   1
                l(5) =   2
     Q(r) pseudized with  8 coefficients,  rinner =    0.900   0.900   0.900
                                                       0.900   0.900

     PseudoPot. # 2 for Nb read from file:
     /home/camp/zhonxu/pseudo/nb_pbe_v1.uspp.F.UPF
     MD5 check sum: 573aab8a2fa660278ed4a62cd769473f
     Pseudo is Ultrasoft + core correction, Zval = 13.0
     Generated by new atomic code, or converted to UPF format
     Using radial grid of  887 points,  6 beta functions with:
                l(1) =   0
                l(2) =   0
                l(3) =   1
                l(4) =   1
                l(5) =   2
                l(6) =   2
     Q(r) pseudized with  6 coefficients,  rinner =    1.000   1.000   1.000
                                                       1.000   1.000

     PseudoPot. # 3 for H  read from file:
     /home/camp/zhonxu/pseudo/h_pbe_v1.uspp.F.UPF
     MD5 check sum: 3408e3ff4ec8b0a4e358431e7e038a48
     Pseudo is Ultrasoft, Zval =  1.0
     Generated by new atomic code, or converted to UPF format
     Using radial grid of  615 points,  2 beta functions with:
                l(1) =   0
                l(2) =   0
     Q(r) pseudized with  8 coefficients,  rinner =    0.700

     atomic species   valence    mass     pseudopotential
        O0             6.00    15.99940     O ( 1.00)
        Nb1           13.00    92.90640     Nb( 1.00)
        H2             1.00     1.00794     H ( 1.00)

     Simplified LDA+U calculation (l_max = 2) with parameters (eV):
     atomic species    L          U    alpha       J0     beta
        Nb1            2     6.0000   0.0000   0.0000   0.0000

     No symmetry found

   Cartesian axes

     site n.     atom                  positions (alat units)
         1           O0  tau(   1) = (   0.0000000   0.0000000   1.7080633  )
         2           O0  tau(   2) = (   0.0000000   0.5900519   1.7583889  )
         3           Nb1 tau(   3) = (   0.2500000   0.5900519   2.0066439  )
         4           Nb1 tau(   4) = (   0.0000000   0.0000000   2.0401487  )
         5           O0  tau(   5) = (   0.2500000   0.9322821   2.0429294  )
         6           O0  tau(   6) = (   0.2500000   0.2478218   2.0431118  )
         7           O0  tau(   7) = (   0.0000000   0.5900519   2.2709903  )
         8           O0  tau(   8) = (   0.0000000   0.0000000   2.3999042  )
         9           Nb1 tau(   9) = (   0.2500000   0.0000000   2.6489340  )
        10           Nb1 tau(  10) = (   0.0000000   0.5900519   2.5868019  )
        11           O0  tau(  11) = (   0.2500000   0.8378738   2.6444667  )
        12           O0  tau(  12) = (   0.2500000   0.3422301   2.6445123  )
        13           O0  tau(  13) = (   0.0000000   0.0000000   2.8518777  )
        14           O0  tau(  14) = (   0.5000000   0.0000000   1.7080633  )
        15           O0  tau(  15) = (   0.5000000   0.5900519   1.7583889  )
        16           Nb1 tau(  16) = (   0.7500000   0.5900519   2.0066439  )
        17           Nb1 tau(  17) = (   0.5000000   0.0000000   2.0401487  )
        18           O0  tau(  18) = (   0.7500000   0.9322821   2.0429294  )
        19           O0  tau(  19) = (   0.7500000   0.2478218   2.0431118  )
        20           O0  tau(  20) = (   0.5000000   0.5900519   2.2709903  )
        21           O0  tau(  21) = (   0.5000000   0.0000000   2.3999497  )
        22           Nb1 tau(  22) = (   0.7500000   0.0000000   2.6489340  )
        23           Nb1 tau(  23) = (   0.5000000   0.5900519   2.5867563  )
        24           O0  tau(  24) = (   0.7500000   0.8378738   2.6444667  )
        25           O0  tau(  25) = (   0.7500000   0.3422301   2.6445123  )
        26           O0  tau(  26) = (   0.5000000   0.0000000   2.8518777  )
        27           H2  tau(  27) = (  -0.0004200   0.5934860   1.5928705  )
        28           H2  tau(  28) = (   0.4995800   0.5932146   1.5928249  )
        29           H2  tau(  29) = (   0.1513000  -0.0014397   1.6372701  )
        30           H2  tau(  30) = (   0.6512900  -0.0014397   1.6372701  )

     number of k points=    10  Methfessel-Paxton smearing, width (Ry)=  0.0100
                       cart. coord. in units 2pi/alat
        k(    1) = (   0.0000000   0.0000000   0.0000000), wk =   0.1250000
        k(    2) = (   0.0000000   0.2118458   0.0000000), wk =   0.2500000
        k(    3) = (   0.0000000  -0.4236915   0.0000000), wk =   0.1250000
        k(    4) = (   0.2500000   0.0000000   0.0000000), wk =   0.2500000
        k(    5) = (   0.2500000   0.2118458   0.0000000), wk =   0.2500000
        k(    6) = (   0.2500000  -0.4236915   0.0000000), wk =   0.2500000
        k(    7) = (  -0.5000000   0.0000000   0.0000000), wk =   0.1250000
        k(    8) = (  -0.5000000   0.2118458   0.0000000), wk =   0.2500000
        k(    9) = (  -0.5000000  -0.4236915   0.0000000), wk =   0.1250000
        k(   10) = (  -0.2500000   0.2118458   0.0000000), wk =   0.2500000

     Largest allocated arrays     est. size (Mb)     dimensions
     Largest temporary arrays     est. size (Mb)     dimensions

     Check: negative/imaginary core charge=   -0.000003    0.000000

     Initial potential from superposition of free atoms
     Check: negative starting charge=   -0.003843

     starting charge  215.97807, renormalised to  216.00000

     negative rho (up, down):  0.384E-02 0.000E+00
     Number of +U iterations with fixed ns =  0
     Starting occupations:
 --- enter write_ns ---
 LDA+U parameters:
U( 2)     =  6.00000000
alpha( 2) =  0.00000000
atom    3   Tr[ns(na)] =   3.00000
    eigenvalues:
  0.300  0.300  0.300  0.300  0.300
    eigenvectors:
  1.000  0.000  0.000  0.000  0.000
  0.000  1.000  0.000  0.000  0.000
  0.000  0.000  1.000  0.000  0.000
  0.000  0.000  0.000  1.000  0.000
  0.000  0.000  0.000  0.000  1.000
    occupations:
  0.300  0.000  0.000  0.000  0.000
  0.000  0.300  0.000  0.000  0.000
  0.000  0.000  0.300  0.000  0.000
  0.000  0.000  0.000  0.300  0.000
  0.000  0.000  0.000  0.000  0.300
atom    4   Tr[ns(na)] =   3.00000
    eigenvalues:
  0.300  0.300  0.300  0.300  0.300
    eigenvectors:
  1.000  0.000  0.000  0.000  0.000
  0.000  1.000  0.000  0.000  0.000
  0.000  0.000  1.000  0.000  0.000
  0.000  0.000  0.000  1.000  0.000
  0.000  0.000  0.000  0.000  1.000
    occupations:
  0.300  0.000  0.000  0.000  0.000
  0.000  0.300  0.000  0.000  0.000
  0.000  0.000  0.300  0.000  0.000
  0.000  0.000  0.000  0.300  0.000
  0.000  0.000  0.000  0.000  0.300
atom    9   Tr[ns(na)] =   3.00000
    eigenvalues:
  0.300  0.300  0.300  0.300  0.300
    eigenvectors:
  1.000  0.000  0.000  0.000  0.000
  0.000  1.000  0.000  0.000  0.000
  0.000  0.000  1.000  0.000  0.000
  0.000  0.000  0.000  1.000  0.000
  0.000  0.000  0.000  0.000  1.000
    occupations:
  0.300  0.000  0.000  0.000  0.000
  0.000  0.300  0.000  0.000  0.000
  0.000  0.000  0.300  0.000  0.000
  0.000  0.000  0.000  0.300  0.000
  0.000  0.000  0.000  0.000  0.300
atom   10   Tr[ns(na)] =   3.00000
    eigenvalues:
  0.300  0.300  0.300  0.300  0.300
    eigenvectors:
  1.000  0.000  0.000  0.000  0.000
  0.000  1.000  0.000  0.000  0.000
  0.000  0.000  1.000  0.000  0.000
  0.000  0.000  0.000  1.000  0.000
  0.000  0.000  0.000  0.000  1.000
    occupations:
  0.300  0.000  0.000  0.000  0.000
  0.000  0.300  0.000  0.000  0.000
  0.000  0.000  0.300  0.000  0.000
  0.000  0.000  0.000  0.300  0.000
  0.000  0.000  0.000  0.000  0.300
atom   16   Tr[ns(na)] =   3.00000
    eigenvalues:
  0.300  0.300  0.300  0.300  0.300
    eigenvectors:
  1.000  0.000  0.000  0.000  0.000
  0.000  1.000  0.000  0.000  0.000
  0.000  0.000  1.000  0.000  0.000
  0.000  0.000  0.000  1.000  0.000
  0.000  0.000  0.000  0.000  1.000
    occupations:
  0.300  0.000  0.000  0.000  0.000
  0.000  0.300  0.000  0.000  0.000
  0.000  0.000  0.300  0.000  0.000
  0.000  0.000  0.000  0.300  0.000
  0.000  0.000  0.000  0.000  0.300
atom   17   Tr[ns(na)] =   3.00000
    eigenvalues:
  0.300  0.300  0.300  0.300  0.300
    eigenvectors:
  1.000  0.000  0.000  0.000  0.000
  0.000  1.000  0.000  0.000  0.000
  0.000  0.000  1.000  0.000  0.000
  0.000  0.000  0.000  1.000  0.000
  0.000  0.000  0.000  0.000  1.000
    occupations:
  0.300  0.000  0.000  0.000  0.000
  0.000  0.300  0.000  0.000  0.000
  0.000  0.000  0.300  0.000  0.000
  0.000  0.000  0.000  0.300  0.000
  0.000  0.000  0.000  0.000  0.300
atom   22   Tr[ns(na)] =   3.00000
    eigenvalues:
  0.300  0.300  0.300  0.300  0.300
    eigenvectors:
  1.000  0.000  0.000  0.000  0.000
  0.000  1.000  0.000  0.000  0.000
  0.000  0.000  1.000  0.000  0.000
  0.000  0.000  0.000  1.000  0.000
  0.000  0.000  0.000  0.000  1.000
    occupations:
  0.300  0.000  0.000  0.000  0.000
  0.000  0.300  0.000  0.000  0.000
  0.000  0.000  0.300  0.000  0.000
  0.000  0.000  0.000  0.300  0.000
[...]
  0.001  0.000  0.000  0.000  0.999
  0.000  0.000  1.000  0.000  0.000
    occupations:
  0.581  0.014 -0.000 -0.002  0.000
  0.014  0.323  0.000 -0.014 -0.000
 -0.000  0.000  0.351  0.000  0.001
 -0.002 -0.014  0.000  0.768  0.000
  0.000 -0.000  0.001  0.000  0.551
atom    9   Tr[ns(na)] =   5.26562
    eigenvalues:
  0.446  0.462  0.473  0.624  0.628
    eigenvectors:
  0.881  0.000  0.000  0.119  0.000
  0.000  0.000  0.000  0.000  1.000
  0.000  0.000  1.000  0.000  0.000
  0.119  0.000  0.000  0.881  0.000
  0.000  1.000  0.000  0.000  0.000
    occupations:
  0.468  0.000  0.000  0.057  0.000
  0.000  0.628  0.000  0.000 -0.000
  0.000  0.000  0.473 -0.000  0.000
  0.057  0.000 -0.000  0.603 -0.000
  0.000 -0.000  0.000 -0.000  0.462
atom   10   Tr[ns(na)] =   5.07615
    eigenvalues:
  0.332  0.442  0.486  0.512  0.766
    eigenvectors:
  0.000  0.000  0.997  0.000  0.003
  0.000  1.000  0.000  0.000  0.000
  1.000  0.000  0.000  0.000  0.000
  0.000  0.000  0.003  0.000  0.997
  0.000  0.000  0.000  1.000  0.000
    occupations:
  0.487  0.000 -0.000 -0.015  0.000
  0.000  0.442 -0.000  0.000  0.000
 -0.000 -0.000  0.332 -0.000  0.000
 -0.015  0.000 -0.000  0.765 -0.000
  0.000  0.000  0.000 -0.000  0.512
atom   16   Tr[ns(na)] =   5.09611
    eigenvalues:
  0.332  0.343  0.508  0.592  0.774
    eigenvectors:
  0.000  0.000  0.000  0.346  0.654
  0.000  0.000  1.000  0.000  0.000
  0.002  0.998  0.000  0.000  0.000
  0.000  0.000  0.000  0.654  0.346
  0.998  0.002  0.000  0.000  0.000
    occupations:
  0.711  0.000  0.001 -0.087  0.000
  0.000  0.508  0.000 -0.000  0.000
  0.001  0.000  0.343 -0.000 -0.001
 -0.087 -0.000 -0.000  0.655 -0.000
  0.000  0.000 -0.001 -0.000  0.332
atom   17   Tr[ns(na)] =   5.14674
    eigenvalues:
  0.322  0.351  0.551  0.581  0.769
    eigenvectors:
  0.003  0.000  0.000  0.997  0.000
  0.996  0.000  0.000  0.003  0.001
  0.000  1.000  0.000  0.000  0.000
  0.001  0.000  0.000  0.000  0.999
  0.000  0.000  1.000  0.000  0.000
    occupations:
  0.581  0.014 -0.000 -0.002  0.000
  0.014  0.323  0.000 -0.014 -0.000
 -0.000  0.000  0.351 -0.000  0.001
 -0.002 -0.014 -0.000  0.768  0.000
  0.000 -0.000  0.001  0.000  0.551
atom   22   Tr[ns(na)] =   5.26562
    eigenvalues:
  0.446  0.462  0.473  0.624  0.628
    eigenvectors:
  0.881  0.000  0.000  0.119  0.000
  0.000  0.000  0.000  0.000  1.000
  0.000  0.000  1.000  0.000  0.000
  0.119  0.000  0.000  0.881  0.000
  0.000  1.000  0.000  0.000  0.000
    occupations:
  0.468  0.000  0.000  0.057  0.000
  0.000  0.628  0.000 -0.000 -0.000
  0.000  0.000  0.473 -0.000  0.000
  0.057 -0.000 -0.000  0.603 -0.000
  0.000 -0.000  0.000 -0.000  0.462
atom   23   Tr[ns(na)] =   5.07630
    eigenvalues:
  0.332  0.442  0.486  0.512  0.766
    eigenvectors:
  0.000  0.000  0.997  0.000  0.003
  0.000  1.000  0.000  0.000  0.000
  1.000  0.000  0.000  0.000  0.000
  0.000  0.000  0.003  0.000  0.997
  0.000  0.000  0.000  1.000  0.000
    occupations:
  0.487  0.000 -0.000 -0.015  0.000
  0.000  0.442 -0.000  0.000  0.000
 -0.000 -0.000  0.332 -0.000  0.000
 -0.015  0.000 -0.000  0.765 -0.000
  0.000  0.000  0.000 -0.000  0.512
N of occupied +U levels =  41.1692916
 --- exit write_ns ---

     Threshold (ethr) on eigenvalues was too large:
     Diagonalizing with lowered threshold

     Davidson diagonalization with overlap
     ethr =  2.40E-09,  avg # of iterations =  2.5

[...]

     total energy              =   -1526.01273738 Ry
     Harris-Foulkes estimate   =   -1526.01273738 Ry
     estimated scf accuracy    <       0.00000001 Ry

     iteration #  9     ecut=    40.00 Ry     beta=0.70
     Davidson diagonalization with overlap
     ethr =  5.37E-12,  avg # of iterations =  1.0

     negative rho (up, down):  0.363E-02 0.000E+00

     End of self-consistent calculation
 --- enter write_ns ---
 LDA+U parameters:
U( 2)     =  6.00000000
alpha( 2) =  0.00000000
atom    3   Tr[ns(na)] =   5.09617
    eigenvalues:
  0.332  0.343  0.508  0.592  0.774
    eigenvectors:
  0.000  0.000  0.000  0.346  0.654
  0.000  0.000  1.000  0.000  0.000
  0.002  0.998  0.000  0.000  0.000
  0.000  0.000  0.000  0.654  0.346
  0.998  0.002  0.000  0.000  0.000
    occupations:
  0.711  0.000  0.001 -0.087 -0.000
  0.000  0.508 -0.000 -0.000  0.000
  0.001 -0.000  0.343 -0.000 -0.001
 -0.087 -0.000 -0.000  0.655  0.000
 -0.000  0.000 -0.001  0.000  0.332
atom    4   Tr[ns(na)] =   5.14710
    eigenvalues:
  0.322  0.350  0.551  0.581  0.769
    eigenvectors:
  0.003  0.000  0.000  0.997  0.000
  0.996  0.000  0.000  0.003  0.001
  0.000  1.000  0.000  0.000  0.000
  0.001  0.000  0.000  0.000  0.999
  0.000  0.000  1.000  0.000  0.000
    occupations:
  0.581  0.014 -0.000 -0.002  0.000
  0.014  0.323  0.000 -0.014 -0.000
 -0.000  0.000  0.350  0.000  0.001
 -0.002 -0.014  0.000  0.768  0.000
  0.000 -0.000  0.001  0.000  0.551
atom    9   Tr[ns(na)] =   5.26503
    eigenvalues:
  0.446  0.462  0.472  0.624  0.628
    eigenvectors:
  0.881  0.000  0.000  0.119  0.000
  0.000  0.000  0.000  0.000  1.000
  0.000  0.000  1.000  0.000  0.000
  0.119  0.000  0.000  0.881  0.000
  0.000  1.000  0.000  0.000  0.000
    occupations:
  0.468  0.000  0.000  0.057  0.000
  0.000  0.628  0.000  0.000 -0.000
  0.000  0.000  0.472 -0.000  0.000
  0.057  0.000 -0.000  0.602 -0.000
  0.000 -0.000  0.000 -0.000  0.462
atom   10   Tr[ns(na)] =   5.07586
    eigenvalues:
  0.332  0.442  0.486  0.512  0.766
    eigenvectors:
  0.000  0.000  0.997  0.000  0.003
  0.000  1.000  0.000  0.000  0.000
  1.000  0.000  0.000  0.000  0.000
  0.000  0.000  0.003  0.000  0.997
  0.000  0.000  0.000  1.000  0.000
    occupations:
  0.487  0.000 -0.000 -0.015  0.000
  0.000  0.442 -0.000  0.000  0.000
 -0.000 -0.000  0.332 -0.000  0.000
 -0.015  0.000 -0.000  0.765 -0.000
  0.000  0.000  0.000 -0.000  0.512
atom   16   Tr[ns(na)] =   5.09617
    eigenvalues:
  0.332  0.343  0.508  0.592  0.774
    eigenvectors:
  0.000  0.000  0.000  0.346  0.654
  0.000  0.000  1.000  0.000  0.000
  0.002  0.998  0.000  0.000  0.000
  0.000  0.000  0.000  0.654  0.346
  0.998  0.002  0.000  0.000  0.000
    occupations:
  0.711  0.000  0.001 -0.087  0.000
  0.000  0.508  0.000 -0.000  0.000
  0.001  0.000  0.343 -0.000 -0.001
 -0.087 -0.000 -0.000  0.655 -0.000
  0.000  0.000 -0.001 -0.000  0.332
atom   17   Tr[ns(na)] =   5.14709
    eigenvalues:
  0.322  0.350  0.551  0.581  0.769
    eigenvectors:
  0.003  0.000  0.000  0.997  0.000
  0.996  0.000  0.000  0.003  0.001
  0.000  1.000  0.000  0.000  0.000
  0.001  0.000  0.000  0.000  0.999
  0.000  0.000  1.000  0.000  0.000
    occupations:
  0.581  0.014 -0.000 -0.002  0.000
  0.014  0.323  0.000 -0.014 -0.000
 -0.000  0.000  0.350 -0.000  0.001
 -0.002 -0.014 -0.000  0.768  0.000
  0.000 -0.000  0.001  0.000  0.551
atom   22   Tr[ns(na)] =   5.26503
    eigenvalues:
  0.446  0.462  0.472  0.624  0.628
    eigenvectors:
  0.881  0.000  0.000  0.119  0.000
  0.000  0.000  0.000  0.000  1.000
  0.000  0.000  1.000  0.000  0.000
  0.119  0.000  0.000  0.881  0.000
  0.000  1.000  0.000  0.000  0.000
    occupations:
  0.468  0.000  0.000  0.057  0.000
  0.000  0.628  0.000 -0.000 -0.000
  0.000  0.000  0.472 -0.000  0.000
  0.057 -0.000 -0.000  0.602 -0.000
  0.000 -0.000  0.000 -0.000  0.462
atom   23   Tr[ns(na)] =   5.07585
    eigenvalues:
  0.332  0.442  0.486  0.512  0.766
    eigenvectors:
  0.000  0.000  0.997  0.000  0.003
  0.000  1.000  0.000  0.000  0.000
  1.000  0.000  0.000  0.000  0.000
  0.000  0.000  0.003  0.000  0.997
  0.000  0.000  0.000  1.000  0.000
    occupations:
  0.487  0.000 -0.000 -0.015  0.000
  0.000  0.442 -0.000  0.000  0.000
 -0.000 -0.000  0.332 -0.000  0.000
 -0.015  0.000 -0.000  0.765 -0.000
  0.000  0.000  0.000 -0.000  0.512
N of occupied +U levels =  41.1682954
 --- exit write_ns ---

[...]

          k = 0.2500-0.4237 0.0000 ( 32188 PWs)   bands (ev):

[...]

          k =-0.2500 0.2118 0.0000 ( 32165 PWs)   bands (ev):

   -56.3524 -56.2837 -56.0615 -56.0029 -55.6096 -55.5982 -55.5472 -55.5419
   -33.1201 -32.5606 -32.4768 -32.4372 -32.4243 -32.3806 -32.3743 -32.3737
   -32.3600 -32.3159 -32.2229 -32.0970 -32.0480 -31.9561 -31.9399 -31.8342
   -31.7848 -31.7465 -31.5273 -31.4809 -31.3996 -31.3464 -31.3298 -31.1807
   -20.4995 -20.3521 -19.2771 -19.1736 -18.8925 -18.8777 -18.8267 -18.7756
   -18.7379 -18.6673 -18.6399 -18.5960 -17.9967 -17.9534 -17.9355 -17.9114
   -17.8686 -17.7511  -9.1717  -8.6891  -7.3462  -7.1689  -7.0619  -6.8047
    -6.5398  -6.4837  -6.3579  -6.3329  -6.2833  -6.1891  -6.1321  -5.9158
    -5.8599  -5.7854  -5.5408  -5.4279  -5.4008  -5.2530  -5.0197  -4.9537
    -4.9079  -4.8477  -4.7586  -4.4570  -4.3950  -4.2803  -4.2545  -4.2147
    -4.1130  -4.0873  -3.8915  -3.8878  -3.8697  -3.7979  -3.7041  -3.6998
    -3.4921  -3.4537  -3.4173  -3.3173  -3.2569  -3.2422  -3.1297  -3.1000
    -2.9795  -2.9776  -2.7900  -2.6645  -2.6000  -2.5136  -2.3996  -2.1352
    -1.4210  -0.3721  -0.1170   1.0973   1.4547   1.5636   1.7472   1.7657
     1.8305   1.8462   2.1505   2.1665   2.4027   2.4043   2.4964   2.6122
     2.6340   2.6965   2.8921   2.9089   3.0298   3.0540   3.1714   3.1862
     3.2642   3.4515   3.7867   4.2339   4.4052   4.5413   4.6495   4.7241
     4.8605   4.9182   4.9651   5.1402   5.2306   5.2749   5.3404   5.5989
     5.7486   5.8365   5.9005   5.9639   6.1901   6.2687   6.3919   6.4765
     6.4928   6.4970   6.6139   6.7564   6.9065   6.9318   7.1699   7.2335
     7.2768   7.5444   7.7079   7.8019   7.9047   7.9639   8.1332   8.1544
     8.2455   8.3357   8.4528   8.6439   8.7240   8.8661   9.0033   9.0879
     9.1031   9.2330   9.3345   9.4151   9.5722   9.5923   9.6875   9.7629
     9.8781   9.9867   9.9932  10.1920  10.2302  10.3857  10.4494  10.6272
    10.7086  10.7712  10.9571  10.9726  11.0183  11.0864  11.1675  11.2005
    11.2742  11.4193  11.4587  11.4683  11.5541  11.5787  11.7507  11.8940
    11.9220  12.0468  12.1096  12.1745  12.2438  12.2862  12.4352  12.4928
    12.6436  12.6806  12.7434  12.7692  12.8598  12.8908  12.9446  12.9838
    13.0362  13.1111  13.1778  13.2733  13.3210  13.4352  13.4897  13.5112
    13.5901  13.7076  13.7734  13.8875  13.9415  13.9604  13.9852  14.0860
    14.1203  14.2970  14.3447  14.4145  14.4706  14.5968  14.6195  14.8596
    14.9022  14.9232  15.0484  15.1471  15.1938  15.2589  15.2859  15.3809
    15.3990  15.4025  15.5157  15.5317  15.6048  15.7278  15.8084  15.8197
    15.8498  15.9046  16.0347  16.0401  16.0785  16.2709  16.2745  16.4018
    16.4741  16.5832  16.6197  16.6502  16.7375  16.7681  16.7914  16.8955
    16.9724  17.0076  17.0585  17.2602  17.2886  17.2960  17.3993  17.4349
    17.5066  17.5638  17.6332  17.7129  17.7402  17.8559  17.8733  17.9961
    18.0425  18.0522  18.1107  18.2597  18.3478  18.4423  18.5009  18.6109
    18.6538  18.7405  18.7424  18.8025  18.8830  18.9296  18.9393  19.0499
    19.1498  19.2013  19.2948  19.3084  19.3613  19.3944  19.4143  19.5152
    19.5434  19.6027  19.6591  19.7168

     the Fermi energy is     1.0232 ev

!    total energy              =   -1526.01273737 Ry
     Harris-Foulkes estimate   =   -1526.01273738 Ry
     estimated scf accuracy    <          4.5E-09 Ry

     The total energy is the sum of the following terms:

     one-electron contribution =  -18219.68803789 Ry
     hartree contribution      =    9136.71922112 Ry
     xc contribution           =    -279.77029185 Ry
     ewald contribution        =    7832.67969808 Ry
     Hubbard energy            =       4.04703205 Ry
     smearing contrib. (-TS)   =      -0.00035888 Ry

     convergence has been achieved in   9 iterations

     Forces acting on atoms (Ry/au):

     negative rho (up, down):  0.363E-02 0.000E+00
     atom    1 type  1   force =     0.00076097   -0.00036405   -0.00002725
     atom    2 type  1   force =    -0.00007434    0.00041515    0.00003512
     atom    3 type  2   force =     0.00023008   -0.00020786   -0.00023496
     atom    4 type  2   force =    -0.00199547    0.00013056    0.00042581
     atom    5 type  1   force =     0.00039130   -0.04971151   -0.00032809
     atom    6 type  1   force =     0.00043137    0.04967240   -0.00031548
     atom    7 type  1   force =    -0.00015292    0.00002208   -0.00023904
     atom    8 type  1   force =     0.00071976    0.00000250   -0.00013844
     atom    9 type  2   force =     0.00002488   -0.00000312    0.00012889
     atom   10 type  2   force =     0.00002272   -0.00000924   -0.00038222
     atom   11 type  1   force =    -0.00000648   -0.02861789    0.00031136
     atom   12 type  1   force =    -0.00000633    0.02862065    0.00031329
     atom   13 type  1   force =     0.00013143    0.00000141    0.00046126
     atom   14 type  1   force =     0.00075926   -0.00034987   -0.00002341
     atom   15 type  1   force =    -0.00007350    0.00038311    0.00060658
     atom   16 type  2   force =     0.00018677   -0.00020963   -0.00023494
     atom   17 type  2   force =    -0.00200093    0.00012743    0.00042340
     atom   18 type  1   force =     0.00039766   -0.04970970   -0.00032859
     atom   19 type  1   force =     0.00042233    0.04967121   -0.00031524
     atom   20 type  1   force =    -0.00015225    0.00001016   -0.00023212
     atom   21 type  1   force =     0.00072016    0.00000222   -0.00014530
     atom   22 type  2   force =     0.00001933   -0.00000304    0.00012889
     atom   23 type  2   force =     0.00002263   -0.00001072   -0.00039028
     atom   24 type  1   force =    -0.00000755   -0.02861785    0.00031134
     atom   25 type  1   force =    -0.00000813    0.02862063    0.00031333
     atom   26 type  1   force =     0.00013149    0.00000131    0.00045641
     atom   27 type  3   force =     0.00000800   -0.00016652    0.00060780
     atom   28 type  3   force =     0.00000671   -0.00016433    0.00008717
     atom   29 type  3   force =    -0.00045427    0.00023360   -0.00063797
     atom   30 type  3   force =    -0.00045466    0.00023089   -0.00063732

     Total force =     0.002078     Total SCF correction =     0.000252
     SCF correction compared to forces is large: reduce conv_thr to get better values

     bfgs converged in  12 scf cycles and  11 bfgs steps
     (criteria: energy < 0.10E-03, force < 0.10E-02)

     End of BFGS Geometry Optimization

     Final energy   =   -1526.0127373738 Ry
Begin final coordinates

ATOMIC_POSITIONS (crystal)
O0       0.000000000   0.000000000   0.373402949    0   0   1
O0       0.000000000   0.500000000   0.384589067    0   0   1
Nb1      0.250000000   0.500000000   0.439892527    0   0   1
Nb1      0.000000000   0.000000000   0.446511198    0   0   1
O0       0.250000000   0.790000000   0.448382111    0   0   1
O0       0.250000000   0.210000000   0.448371180    0   0   1
O0       0.000000000   0.500000000   0.497399884    0   0   1
O0       0.000000000   0.000000000   0.527643310    0   0   1
Nb1      0.250000000   0.000000000   0.581231999    0   0   1
Nb1      0.000000000   0.500000000   0.567210488    0   0   1
O0       0.250000000   0.710000000   0.582208189    0   0   1
O0       0.250000000   0.290000000   0.582208288    0   0   1
O0       0.000000000   0.000000000   0.625788326    0   0   1
O0       0.500000000   0.000000000   0.373402681    0   0   1
O0       0.500000000   0.500000000   0.384584546    0   0   1
Nb1      0.750000000   0.500000000   0.439892527    0   0   1
Nb1      0.500000000   0.000000000   0.446510995    0   0   1
O0       0.750000000   0.790000000   0.448381422    0   0   1
O0       0.750000000   0.210000000   0.448370813    0   0   1
O0       0.500000000   0.500000000   0.497399991    0   0   1
O0       0.500000000   0.000000000   0.527643775    0   0   1
Nb1      0.750000000   0.000000000   0.581232003    0   0   1
Nb1      0.500000000   0.500000000   0.567210693    0   0   1
O0       0.750000000   0.710000000   0.582208181    0   0   1
O0       0.750000000   0.290000000   0.582208286    0   0   1
O0       0.500000000   0.000000000   0.625788576    0   0   1
H2      -0.000400758   0.502554246   0.348397919
H2       0.499599417   0.502303324   0.348402040
H2       0.153303710  -0.000545472   0.359008245
H2       0.653303235  -0.000553670   0.359007792
End final coordinates

     General routines

     Parallel routines
     Hubbard U routines

   This run was terminated on:  13:44:10   9May2014

   JOB DONE.
Running PBS batch system epilogue script
Job id: 340854.audhumbla.fysik.dtu.dk
Username: zhonxu
Groupname: campgst
Jobname: NbO2/Eads-2-layers/bare-U-6.0
Sessionid: 13290
Queuename: verylong
Accounting:
This job has allocated the following 16 nodes:
b019 b019 b019 b019 b019 b019 b019 b019 b004 b004 b004 b004 b004 b004 b004 b004
Finished epilogue job 340854.audhumbla.fysik.dtu.dk for zhonxu