     Program PWSCF v.5.0.2 (svn rev. 9656) starts on 17Apr2014 at 20:46: 0

     Current dimensions of program PWSCF are:
     Max number of different atomic species (ntypx) = 10
     Max number of k-points (npk) =  40000
     Max angular momentum in pseudopotentials (lmaxx) =  3
     Reading input from pwscf.in
Warning: card &CELL ignored
Warning: card / ignored

     Subspace diagonalization in iterative solution of the eigenvalue problem:
     a serial algorithm will be used

     bravais-lattice index     =            0
     lattice parameter (alat)  =      11.2250  a.u.
     unit-cell volume          =    9585.4248 (a.u.)^3
     number of atoms/cell      =           49
     number of atomic types    =            2
     number of electrons       =       390.00
     number of Kohn-Sham states=          561
     kinetic-energy cutoff     =      40.0000  Ry
     charge density cutoff     =     500.0000  Ry
     convergence threshold     =      1.0E-06
     mixing beta               =       0.3000
     number of iterations used =            8  plain     mixing
     Exchange-correlation      = SLA  PW   PBE  PBE ( 1 4 3 4 0)
     EXX-fraction              =        0.00
     nstep                     =           50

     celldm(1)=  11.224973  celldm(2)=   0.000000  celldm(3)=   0.000000
     celldm(4)=   0.000000  celldm(5)=   0.000000  celldm(6)=   0.000000

     crystal axes: (cart. coord. in units of alat)
               a(1) = (   1.000000   0.000000   0.000000 )
               a(2) = (   0.000000   1.107086   0.000000 )
               a(3) = (   0.000000   0.000000   6.121726 )

     reciprocal axes: (cart. coord. in units 2 pi/alat)
               b(1) = (  1.000000  0.000000  0.000000 )
               b(2) = (  0.000000  0.903272  0.000000 )
               b(3) = (  0.000000  0.000000  0.163353 )

     PseudoPot. # 1 for O  read from file:
     /home/camp/zhonxu/pseudo/o_pbe_v1.01.uspp.F.UPF
     MD5 check sum: 2bcb18d16ea4b960afae9ec6d52f22d2
     Pseudo is Ultrasoft + core correction, Zval =  6.0
     Generated by new atomic code, or converted to UPF format
     Using radial grid of  737 points,  5 beta functions with:
                l(1) =   0
                l(2) =   0
                l(3) =   1
                l(4) =   1
                l(5) =   2
     Q(r) pseudized with  8 coefficients,  rinner =    0.900   0.900   0.900
                                                       0.900   0.900

     PseudoPot. # 2 for Ti read from file:
     /home/camp/zhonxu/pseudo/ti_pbe_v1.uspp.F.UPF
     MD5 check sum: bcc8f6961b3b91f0cac3ca967d22d0fb
     Pseudo is Ultrasoft + core correction, Zval = 12.0
     Generated by new atomic code, or converted to UPF format
     Using radial grid of  851 points,  6 beta functions with:
                l(1) =   0
                l(2) =   0
                l(3) =   1
                l(4) =   1
                l(5) =   2
                l(6) =   2
     Q(r) pseudized with  6 coefficients,  rinner =    1.000   1.000   1.000
                                                       1.000   1.000

     atomic species   valence    mass     pseudopotential
        O0             6.00    15.99940     O ( 1.00)
        Ti1           12.00    47.88000     Ti( 1.00)

      4 Sym. Ops. (no inversion) found

   Cartesian axes

     site n.     atom                  positions (alat units)
         1           O0  tau(   1) = (   0.0000000   0.5535432   2.0202309  )
         2           Ti1 tau(   2) = (   0.2500000   0.5535432   2.2305735  )
         3           Ti1 tau(   3) = (   0.0000000   0.0000000   2.2305735  )
         4           O0  tau(   4) = (   0.2500000   0.8967400   2.2305735  )
         5           O0  tau(   5) = (   0.2500000   0.2103464   2.2305735  )
         6           O0  tau(   6) = (   0.0000000   0.5535432   2.4409160  )
         7           O0  tau(   7) = (   0.0000000   0.0000000   2.5737574  )
         8           Ti1 tau(   8) = (   0.2500000   0.0000000   2.7841000  )
         9           Ti1 tau(   9) = (   0.0000000   0.5535432   2.7841000  )
        10           O0  tau(  10) = (   0.2500000   0.7638896   2.7841000  )
        11           O0  tau(  11) = (   0.2500000   0.3431968   2.7841000  )
        12           O0  tau(  12) = (   0.0000000   0.0000000   2.9944425  )
        13           O0  tau(  13) = (   0.0000000   0.5535432   3.1319977  )
        14           Ti1 tau(  14) = (   0.2500000   0.5535432   3.3288112  )
        15           Ti1 tau(  15) = (   0.0000000   0.0000000   3.3672556  )
        16           O0  tau(  16) = (   0.2500000   0.8873962   3.3437482  )
        17           O0  tau(  17) = (   0.2500000   0.2196902   3.3437482  )
        18           O0  tau(  18) = (   0.0000000   0.5535432   3.5641916  )
        19           O0  tau(  19) = (   0.0000000   0.0000000   3.6800146  )
        20           Ti1 tau(  20) = (   0.2500000   0.0000000   3.9334541  )
        21           Ti1 tau(  21) = (   0.0000000   0.5535432   3.8694821  )
        22           O0  tau(  22) = (   0.2500000   0.7608340   3.9259244  )
        23           O0  tau(  23) = (   0.2500000   0.3462523   3.9259244  )
        24           O0  tau(  24) = (   0.0000000   0.0000000   4.1134329  )
        25           O0  tau(  25) = (   0.5000000   0.5535432   2.0202309  )
        26           Ti1 tau(  26) = (   0.7500000   0.5535432   2.2305735  )
        27           Ti1 tau(  27) = (   0.5000000   0.0000000   2.2305735  )
        28           O0  tau(  28) = (   0.7500000   0.8967400   2.2305735  )
        29           O0  tau(  29) = (   0.7500000   0.2103464   2.2305735  )
        30           O0  tau(  30) = (   0.5000000   0.5535432   2.4409160  )
        31           O0  tau(  31) = (   0.5000000   0.0000000   2.5737574  )
        32           Ti1 tau(  32) = (   0.7500000   0.0000000   2.7841000  )
        33           Ti1 tau(  33) = (   0.5000000   0.5535432   2.7841000  )
        34           O0  tau(  34) = (   0.7500000   0.7638896   2.7841000  )
        35           O0  tau(  35) = (   0.7500000   0.3431968   2.7841000  )
        36           O0  tau(  36) = (   0.5000000   0.0000000   2.9944425  )
        37           O0  tau(  37) = (   0.5000000   0.5535432   3.1319977  )
        38           Ti1 tau(  38) = (   0.7500000   0.5535432   3.3288112  )
        39           Ti1 tau(  39) = (   0.5000000   0.0000000   3.3672556  )
        40           O0  tau(  40) = (   0.7500000   0.8873962   3.3437482  )
        41           O0  tau(  41) = (   0.7500000   0.2196902   3.3437482  )
        42           O0  tau(  42) = (   0.5000000   0.5535432   3.5641916  )
        43           O0  tau(  43) = (   0.5000000   0.0000000   3.6800146  )
        44           Ti1 tau(  44) = (   0.7500000   0.0000000   3.9334541  )
        45           Ti1 tau(  45) = (   0.5000000   0.5535432   3.8694821  )
        46           O0  tau(  46) = (   0.7500000   0.7608340   3.9259244  )
        47           O0  tau(  47) = (   0.7500000   0.3462523   3.9259244  )
        48           O0  tau(  48) = (   0.5000000   0.0000000   4.1134329  )
        49           O0  tau(  49) = (   0.5000000   0.5535432   4.1943621  )

     number of k points=     9  Methfessel-Paxton smearing, width (Ry)=  0.0100
                       cart. coord. in units 2pi/alat
        k(    1) = (   0.0000000   0.0000000   0.0000000), wk =   0.1250000
        k(    2) = (   0.0000000   0.2258180   0.0000000), wk =   0.2500000
        k(    3) = (   0.0000000  -0.4516359   0.0000000), wk =   0.1250000
        k(    4) = (   0.2500000   0.0000000   0.0000000), wk =   0.2500000
        k(    5) = (   0.2500000   0.2258180   0.0000000), wk =   0.5000000
        k(    6) = (   0.2500000  -0.4516359   0.0000000), wk =   0.2500000
        k(    7) = (  -0.5000000   0.0000000   0.0000000), wk =   0.1250000
        k(    8) = (  -0.5000000   0.2258180   0.0000000), wk =   0.2500000
        k(    9) = (  -0.5000000  -0.4516359   0.0000000), wk =   0.1250000

     Largest allocated arrays     est. size (Mb)     dimensions
     Largest temporary arrays     est. size (Mb)     dimensions

     Check: negative/imaginary core charge=   -0.000007    0.000000

     Initial potential from superposition of free atoms
     Check: negative starting charge=   -0.203928

     starting charge  373.99924, renormalised to  390.00000

     negative rho (up, down):  0.213E+00 0.000E+00
     Starting wfc are  292 randomized atomic wfcs

     Self-consistent Calculation

     iteration #  1     ecut=    40.00 Ry     beta=0.30
     Davidson diagonalization with overlap
     ethr =  1.00E-02,  avg # of iterations =  6.4

     negative rho (up, down):  0.217E+00 0.000E+00

     total energy              =   -2947.22871296 Ry
     Harris-Foulkes estimate   =   -2966.16166856 Ry
     estimated scf accuracy    <      38.80669331 Ry

[...]

     End of self-consistent calculation

          k = 0.0000 0.0000 0.0000 ( 40985 PWs)   bands (ev):

   -59.2236 -59.1839 -58.8894 -58.8496 -58.5933 -58.5531 -58.5303 -58.5209
   -58.5184 -58.4897 -58.4810 -57.9743 -57.9504 -57.9090 -57.7355 -57.6955
   -35.7164 -35.4978 -35.4660 -35.4660 -35.4511 -35.3430 -35.2687 -35.1908
   -35.1427 -35.0837 -35.0800 -35.0679 -35.0532 -35.0328 -35.0161 -34.9123
   -34.9006 -34.8883 -34.8019 -34.7827 -34.7754 -34.7659 -34.7532 -34.7423
   -34.7261 -34.6967 -34.6938 -34.6918 -34.6907 -34.6905 -34.6905 -34.6457
   -34.6167 -34.4971 -34.2913 -34.2863 -34.2808 -34.2371 -34.2167 -34.1889
   -34.1857 -34.1386 -34.0736 -34.0446 -34.0134 -33.9825 -33.8777 -33.7627
   -19.8300 -19.7163 -19.3893 -19.2262 -19.1100 -19.0736 -18.9179 -18.8699
   -18.7059 -18.6962 -18.6625 -18.5254 -18.4997 -18.4631 -18.3770 -18.3756
   -18.3733 -18.3712 -18.2995 -18.2755 -18.2653 -18.0974 -18.0896 -18.0017
   -17.9839 -17.9512 -17.8761 -17.8594 -17.4820 -17.3553 -17.1197 -16.6631
   -16.6072  -7.4436  -7.3224  -7.1264  -7.0825  -6.9032  -6.7942  -6.7614
    -6.4075  -6.3235  -6.2985  -6.2827  -6.2486  -6.1713  -6.0068  -5.9863
    -5.9508  -5.9273  -5.9091  -5.8897  -5.8476  -5.7865  -5.7405  -5.7099
    -5.7091  -5.6229  -5.6032  -5.5833  -5.5761  -5.5001  -5.4916  -5.4267
    -5.2957  -5.2843  -5.2442  -5.2218  -5.1721  -5.0210  -4.8886  -4.8638
    -4.8218  -4.7805  -4.6790  -4.6660  -4.5508  -4.5178  -4.3880  -4.3478
    -4.2819  -4.2489  -4.2163  -4.1373  -4.1247  -4.1102  -4.0517  -4.0453
    -4.0388  -4.0125  -3.9660  -3.9246  -3.8721  -3.8570  -3.6390  -3.6376
    -3.6199  -3.5554  -3.4946  -3.4762  -3.3545  -3.3247  -3.3183  -3.2108
    -3.2058  -3.1336  -3.0976  -3.0078  -3.0069  -2.9637  -2.9391  -2.7706
    -2.7526  -2.7273  -2.6758  -2.6560  -2.6021  -2.5608  -2.5005  -2.4545
    -2.3914  -2.3217  -2.2688  -2.2451  -2.0082  -1.9570  -1.9402  -1.8332
    -1.7786  -1.7249  -1.5793  -1.5691  -0.1112  -0.0659   0.1000   0.2583
     0.3172   0.4333   0.5368   0.5475   0.5930   0.6325   0.7561   0.8007
     0.8197   0.8628   0.8872   0.9615   1.0259   1.0331   1.0617   1.0914
     1.3633   1.3778   1.3919   1.4178   1.4465   1.4777   1.4856   1.4916
     1.5100   1.5531   1.5578   1.5800   1.6058   1.6421   1.6782   1.7544
[...]

     CASE: energy  _new < energy  _old

[...]

     number of scf cycles    =  27
     number of bfgs steps    =  26

     energy   old            =   -2963.5893315598 Ry
     energy   new            =   -2963.5893519733 Ry

     CASE: energy  _new < energy  _old

     new trust radius        =       0.0052235515 bohr
     new conv_thr            =       0.0000000100 Ry

ATOMIC_POSITIONS (crystal)
O0       0.000000000   0.500000000   0.330010000    0   0   0
Ti1      0.250000000   0.500000000   0.364370000    0   0   0
Ti1      0.000000000   0.000000000   0.364370000    0   0   0
O0       0.250000000   0.810000000   0.364370000    0   0   0
O0       0.250000000   0.190000000   0.364370000    0   0   0
O0       0.000000000   0.500000000   0.398730000    0   0   0
O0       0.000000000   0.000000000   0.420430000    0   0   0
Ti1      0.250000000   0.000000000   0.454790000    0   0   0
Ti1      0.000000000   0.500000000   0.454790000    0   0   0
O0       0.250000000   0.690000000   0.454790000    0   0   0
O0       0.250000000   0.310000000   0.454790000    0   0   0
O0       0.000000000   0.000000000   0.489150000    0   0   0
O0       0.000000000   0.500000000   0.509471234
Ti1      0.258874758   0.500000000   0.544848642
Ti1      0.000000000   0.000000000   0.549787035
O0       0.249532500   0.803864271   0.545615686
O0       0.249532500   0.196135729   0.545615686
O0       0.000000000   0.500000000   0.580547562
O0       0.000000000   0.000000000   0.600624669
Ti1      0.250388691   0.000000000   0.642666024
Ti1      0.000000000   0.500000000   0.630714929
O0       0.240348336   0.692829921   0.640888811
O0       0.240348336   0.307170079   0.640888811
O0       0.000000000   0.000000000   0.672292165
O0       0.500000000   0.500000000   0.330010000    0   0   0
Ti1      0.750000000   0.500000000   0.364370000    0   0   0
Ti1      0.500000000   0.000000000   0.364370000    0   0   0
O0       0.750000000   0.810000000   0.364370000    0   0   0
O0       0.750000000   0.190000000   0.364370000    0   0   0
O0       0.500000000   0.500000000   0.398730000    0   0   0
O0       0.500000000   0.000000000   0.420430000    0   0   0
Ti1      0.750000000   0.000000000   0.454790000    0   0   0
Ti1      0.500000000   0.500000000   0.454790000    0   0   0
O0       0.750000000   0.690000000   0.454790000    0   0   0
O0       0.750000000   0.310000000   0.454790000    0   0   0
O0       0.500000000   0.000000000   0.489150000    0   0   0
O0       0.500000000   0.500000000   0.509108035
Ti1      0.741125242   0.500000000   0.544848642
Ti1      0.500000000   0.000000000   0.550220172
O0       0.750467500   0.803864271   0.545615686
O0       0.750467500   0.196135729   0.545615686
O0       0.500000000   0.500000000   0.578315566
O0       0.500000000   0.000000000   0.600803357
Ti1      0.749611309  -0.000000000   0.642666024
Ti1      0.500000000   0.500000000   0.651091224
O0       0.759651664   0.692829921   0.640888811
O0       0.759651664   0.307170079   0.640888811
O0       0.500000000   0.000000000   0.671765076
O0       0.500000000   0.500000000   0.697145414

     Check: negative starting charge=   -0.202141
     NEW-OLD atomic charge density approx. for the potential

     Check: negative/imaginary core charge=   -0.000007    0.000000
     Check: negative starting charge=   -0.202011

[...]

     Self-consistent Calculation

[...]

     total energy              =   -2963.58936612 Ry
     Harris-Foulkes estimate   =   -2963.58936612 Ry
     estimated scf accuracy    <       0.00000014 Ry

     iteration # 14     ecut=    40.00 Ry     beta=0.30
     Davidson diagonalization with overlap
     ethr =  3.71E-11,  avg # of iterations =  1.0

     negative rho (up, down):  0.200E+00 0.000E+00

     End of self-consistent calculation

[...]

          k = 0.2500-0.4516 0.0000 ( 40874 PWs)   bands (ev):

[...]

          k =-0.5000-0.4516 0.0000 ( 40844 PWs)   bands (ev):

   -59.3950 -59.3938 -58.5429 -58.5429 -58.4860 -58.4712 -58.4679 -58.4107
   -58.3377 -58.3049 -58.2326 -58.0005 -58.0005 -57.8756 -57.8744 -57.2221
   -35.6938 -35.6928 -35.6664 -35.6650 -35.5894 -35.5883 -34.9162 -34.8972
   -34.8970 -34.8432 -34.8037 -34.7909 -34.7903 -34.7903 -34.7469 -34.7264
   -34.7247 -34.7242 -34.7211 -34.7141 -34.6909 -34.6744 -34.6699 -34.6448
   -34.6339 -34.6014 -34.5896 -34.5768 -34.5649 -34.5467 -34.5420 -34.5294
   -34.4484 -34.3377 -34.3377 -34.2825 -34.2821 -34.2546 -34.2335 -34.2148
   -34.2144 -34.1389 -34.1335 -34.1230 -34.1191 -33.6168 -33.5706 -33.5334
   -19.2431 -19.2429 -19.1145 -19.1108 -18.9925 -18.9255 -18.8843 -18.8828
   -18.6644 -18.5651 -18.5545 -18.5326 -18.3984 -18.3964 -18.3890 -18.3832
   -18.2539 -18.2510 -18.2472 -18.2217 -18.2132 -18.1827 -18.0611 -18.0568
   -18.0524 -17.9827 -17.9386 -17.9046 -17.6223 -17.5929 -17.0921 -17.0918
   -16.5225  -6.3980  -6.3966  -6.3921  -6.3773  -6.2856  -6.2854  -6.2594
    -6.2372  -6.0416  -6.0373  -6.0310  -5.9594  -5.9289  -5.8602  -5.8439
    -5.8003  -5.7715  -5.7518  -5.7289  -5.7240  -5.6851  -5.6659  -5.6487
    -5.6411  -5.6302  -5.6059  -5.5493  -5.4051  -5.3543  -5.3259  -5.2433
    -5.2284  -5.2189  -5.1887  -5.1310  -5.0124  -4.9850  -4.9279  -4.8476
    -4.8022  -4.7194  -4.6821  -4.6793  -4.6741  -4.5442  -4.4770  -4.4353
    -4.3723  -4.3677  -4.3643  -4.3621  -4.3030  -4.2795  -4.2372  -4.1836
    -4.1359  -4.0910  -4.0496  -3.9467  -3.8968  -3.8963  -3.8899  -3.8016
    -3.7932  -3.7581  -3.7194  -3.6931  -3.5900  -3.5491  -3.4563  -3.4095
    -3.3745  -3.3352  -3.2977  -3.2878  -3.2164  -2.9808  -2.9661  -2.9623
    -2.9575  -2.8577  -2.7846  -2.6802  -2.6784  -2.6330  -2.6108  -2.6075
    -2.5779  -2.4157  -2.3424  -2.3146  -2.3089  -2.2855  -2.2386  -2.2354
    -2.0205  -2.0177  -1.9717  -1.8909   0.2963   0.3010   0.3292   0.3329
     0.6737   0.6745   0.7807   0.8382   0.8386   0.9065   0.9170   0.9474
     1.0293   1.0655   1.1832   1.2825   1.2944   1.3087   1.3900   1.4441
     1.4713   1.5232   1.6303   1.6431   1.6688   1.6740   1.7385   1.7844
     1.7861   1.8068   1.8654   1.9170   1.9272   1.9476   1.9605   1.9998
     2.0757   2.1065   2.1311   2.1322   2.1596   2.1679   2.2134   2.3318
     2.4236   2.4773   2.5165   2.5243   3.0100   3.0117   3.0509   3.2304
     3.3346   3.3867   3.4035   3.4563   3.5897   3.6534   3.8173   3.8457
     3.8855   3.8902   3.9469   4.3729   4.4586   4.4630   4.5445   4.7430
     4.7546   4.8049   4.8097   4.8134   4.8669   4.8988   5.0111   5.1109
     5.1322   5.2657   5.3130   5.3139   5.3756   5.4616   6.6689   6.6698
     6.9980   6.9992   7.1846   7.2712   7.2770   7.5041   7.5130   7.6787
     7.6858   7.7295   7.7902   7.9183   8.0489   8.1123   8.1539   8.2732
     8.5785   8.6084   8.6300   8.6833   8.7780   8.7873   8.8066   8.8577
     9.2548   9.2715   9.3007   9.3192   9.3464   9.3714   9.3748   9.5355
    10.0565  10.0575  10.1223  10.1789  10.2107  10.2282  10.2372  10.3586
    10.8811  10.9026  10.9227  11.1534  11.4378  11.4849  11.5184  11.5718
    11.8468  11.8645  12.1621  12.2524  12.3091  12.3603  12.4394  12.4748
    12.4994  12.5544  12.6311  12.6526  12.9479  12.9574  13.0888  13.1203
    13.1678  13.2545  13.2934  13.3005  13.3281  13.3624  13.3634  13.3892
    13.4207  13.4479  13.4840  13.5050  13.5266  13.5384  13.6020  13.6646
    13.7232  13.7620  13.7866  13.8040  13.8075  13.8505  13.8707  13.9056
    13.9318  13.9907  14.0018  14.0187  14.0563  14.1353  14.3968  14.4070
    14.4232  14.4708  14.4875  14.5246  14.5360  14.5590  14.7579  14.7762
    14.7999  14.8268  14.8408  14.9285  14.9289  14.9472  14.9554  14.9938
    14.9995  15.0579  15.2844  15.2961  15.3237  15.3374  15.3540  15.3897
    15.4186  15.4284  15.5044  15.5253  15.5474  15.5497  15.5648  15.5828
    15.6056  15.6493  15.7393  15.7593  15.7905  15.8798  15.9338  15.9383
    15.9670  15.9722  16.0369  16.0536  16.1936  16.2342  16.2424  16.2769
    16.3689  16.4127  16.4225  16.4527  16.4682  16.4690  16.5407  16.5440
    16.5660  16.5738  16.6036  16.6426  16.7102  16.7180  16.7978  16.8591
    16.9309  16.9736  16.9942  17.1205  17.1236  17.1287  17.2292  17.2600
    17.2926  17.3263  17.3805  17.4492  17.4706  17.5127  17.5195  17.5246
    17.5589  17.5797  17.6126  17.7111  17.7399  17.7504  17.9768  17.9829
    18.0653  18.0664  18.1483  18.1534  18.2197  18.2361  18.2914  18.3209
    18.4271  18.4322  18.4663  18.5602  18.7130  18.7333  18.7372  18.8097
    18.8730  18.8915  18.9231  18.9587  18.9751  19.0019  19.0188  19.0659
    19.2108  19.2994  19.3486  19.4327  19.5381  19.5568  19.6028  19.6636
    19.6714  19.8027  19.8140  19.8300  19.8843  19.9178  20.0249  20.0351
    20.1368  20.1449  20.5208  20.7000  20.7066  20.7447  20.7523  20.8672
    20.9220  20.9359  20.9875  21.0040  21.0548  21.0614  21.2035  21.2612
    21.4038  21.4454  21.5117  21.6295  21.7047  21.7297  21.8084  21.9004
    21.9107  21.9118  22.0735  22.0864  22.1357  22.1409  22.1615  22.2749
    22.2750  22.4029  22.4142  22.4413  22.4973  22.5586  22.5702  22.5745
    22.6125  22.6315  22.8067  22.8187  22.8525  22.8837  22.9109  23.0080
    23.0141  23.0165  23.1340  23.1476  23.1538  23.1632  23.1862  23.1886
    23.2100

     the Fermi energy is    -1.9267 ev

!    total energy              =   -2963.58936612 Ry
     Harris-Foulkes estimate   =   -2963.58936612 Ry
     estimated scf accuracy    <          7.4E-10 Ry

     The total energy is the sum of the following terms:

     one-electron contribution =  -63522.99979710 Ry
     hartree contribution      =   31802.08840477 Ry
     xc contribution           =    -512.26715724 Ry
     ewald contribution        =   29269.58929623 Ry
     smearing contrib. (-TS)   =      -0.00011279 Ry

     convergence has been achieved in  14 iterations

     Forces acting on atoms (Ry/au):

     negative rho (up, down):  0.200E+00 0.000E+00
     atom    1 type  1   force =     0.00000000    0.00000000    0.04872220
     atom    2 type  2   force =    -0.00029639    0.00000000   -0.10574245
     atom    3 type  2   force =     0.00000000    0.00000000    0.12696478
     atom    4 type  1   force =     0.00002518    0.02907805   -0.03443309
     atom    5 type  1   force =     0.00002518   -0.02907805   -0.03443309
     atom    6 type  1   force =     0.00000000    0.00000000    0.05694343
     atom    7 type  1   force =     0.00000000    0.00000000   -0.09945545
     atom    8 type  2   force =     0.00019114    0.00000000    0.06845031
     atom    9 type  2   force =     0.00000000    0.00000000    0.00912746
     atom   10 type  1   force =     0.00248945    0.03299359   -0.00699208
     atom   11 type  1   force =     0.00248945   -0.03299359   -0.00699208
     atom   12 type  1   force =     0.00000000    0.00000000   -0.00833099
     atom   13 type  1   force =     0.00000000    0.00000000   -0.00008852
     atom   14 type  2   force =    -0.00039395    0.00000000   -0.00040985
     atom   15 type  2   force =     0.00000000    0.00000000    0.00059861
     atom   16 type  1   force =    -0.00022803    0.00014274   -0.00073340
     atom   17 type  1   force =    -0.00022803   -0.00014274   -0.00073340
     atom   18 type  1   force =     0.00000000    0.00000000   -0.00019376
     atom   19 type  1   force =     0.00000000    0.00000000    0.00083932
     atom   20 type  2   force =    -0.00027939    0.00000000    0.00012030
     atom   21 type  2   force =     0.00000000    0.00000000    0.00025268
     atom   22 type  1   force =    -0.00040143   -0.00014878    0.00011225
     atom   23 type  1   force =    -0.00040143    0.00014878    0.00011225
     atom   24 type  1   force =     0.00000000    0.00000000    0.00069654
     atom   25 type  1   force =     0.00000000    0.00000000    0.04838267
     atom   26 type  2   force =     0.00029639    0.00000000   -0.10574245
     atom   27 type  2   force =     0.00000000    0.00000000    0.12707791
     atom   28 type  1   force =    -0.00002518    0.02907805   -0.03443309
     atom   29 type  1   force =    -0.00002518   -0.02907805   -0.03443309
     atom   30 type  1   force =     0.00000000    0.00000000    0.05982114
     atom   31 type  1   force =     0.00000000    0.00000000   -0.09965519
     atom   32 type  2   force =    -0.00019114    0.00000000    0.06845031
     atom   33 type  2   force =     0.00000000    0.00000000   -0.02207614
     atom   34 type  1   force =    -0.00248945    0.03299359   -0.00699208
     atom   35 type  1   force =    -0.00248945   -0.03299359   -0.00699208
     atom   36 type  1   force =     0.00000000    0.00000000   -0.00729171
     atom   37 type  1   force =     0.00000000    0.00000000   -0.00003552
     atom   38 type  2   force =     0.00039395    0.00000000   -0.00040985
     atom   39 type  2   force =     0.00000000    0.00000000    0.00079951
     atom   40 type  1   force =     0.00022803    0.00014274   -0.00073340
     atom   41 type  1   force =     0.00022803   -0.00014274   -0.00073340
     atom   42 type  1   force =     0.00000000    0.00000000    0.00000464
     atom   43 type  1   force =     0.00000000    0.00000000    0.00050167
     atom   44 type  2   force =     0.00027939    0.00000000    0.00012030
     atom   45 type  2   force =     0.00000000    0.00000000   -0.00008779
     atom   46 type  1   force =     0.00040143   -0.00014878    0.00011225
     atom   47 type  1   force =     0.00040143    0.00014878    0.00011225
     atom   48 type  1   force =     0.00000000    0.00000000   -0.00036279
     atom   49 type  1   force =     0.00000000    0.00000000    0.00019399

     Total force =     0.002604     Total SCF correction =     0.000117

     bfgs converged in  28 scf cycles and  27 bfgs steps
     (criteria: energy < 0.10E-03, force < 0.10E-02)

     End of BFGS Geometry Optimization

     Final energy   =   -2963.5893661196 Ry
Begin final coordinates

ATOMIC_POSITIONS (crystal)
O0       0.000000000   0.500000000   0.330010000    0   0   0
Ti1      0.250000000   0.500000000   0.364370000    0   0   0
Ti1      0.000000000   0.000000000   0.364370000    0   0   0
O0       0.250000000   0.810000000   0.364370000    0   0   0
O0       0.250000000   0.190000000   0.364370000    0   0   0
O0       0.000000000   0.500000000   0.398730000    0   0   0
O0       0.000000000   0.000000000   0.420430000    0   0   0
Ti1      0.250000000   0.000000000   0.454790000    0   0   0
Ti1      0.000000000   0.500000000   0.454790000    0   0   0
O0       0.250000000   0.690000000   0.454790000    0   0   0
O0       0.250000000   0.310000000   0.454790000    0   0   0
O0       0.000000000   0.000000000   0.489150000    0   0   0
O0       0.000000000   0.500000000   0.509471234
Ti1      0.258874758   0.500000000   0.544848642
Ti1      0.000000000   0.000000000   0.549787035
O0       0.249532500   0.803864271   0.545615686
O0       0.249532500   0.196135729   0.545615686
O0       0.000000000   0.500000000   0.580547562
O0       0.000000000   0.000000000   0.600624669
Ti1      0.250388691   0.000000000   0.642666024
Ti1      0.000000000   0.500000000   0.630714929
O0       0.240348336   0.692829921   0.640888811
O0       0.240348336   0.307170079   0.640888811
O0       0.000000000   0.000000000   0.672292165
O0       0.500000000   0.500000000   0.330010000    0   0   0
Ti1      0.750000000   0.500000000   0.364370000    0   0   0
Ti1      0.500000000   0.000000000   0.364370000    0   0   0
O0       0.750000000   0.810000000   0.364370000    0   0   0
O0       0.750000000   0.190000000   0.364370000    0   0   0
O0       0.500000000   0.500000000   0.398730000    0   0   0
O0       0.500000000   0.000000000   0.420430000    0   0   0
Ti1      0.750000000   0.000000000   0.454790000    0   0   0
Ti1      0.500000000   0.500000000   0.454790000    0   0   0
O0       0.750000000   0.690000000   0.454790000    0   0   0
O0       0.750000000   0.310000000   0.454790000    0   0   0
O0       0.500000000   0.000000000   0.489150000    0   0   0
O0       0.500000000   0.500000000   0.509108035
Ti1      0.741125242   0.500000000   0.544848642
Ti1      0.500000000   0.000000000   0.550220172
O0       0.750467500   0.803864271   0.545615686
O0       0.750467500   0.196135729   0.545615686
O0       0.500000000   0.500000000   0.578315566
O0       0.500000000   0.000000000   0.600803357
Ti1      0.749611309  -0.000000000   0.642666024
Ti1      0.500000000   0.500000000   0.651091224
O0       0.759651664   0.692829921   0.640888811
O0       0.759651664   0.307170079   0.640888811
O0       0.500000000   0.000000000   0.671765076
O0       0.500000000   0.500000000   0.697145414
End final coordinates

     General routines

     Parallel routines

   This run was terminated on:   6:15: 5  19Apr2014

   JOB DONE.