     Program PWSCF v.5.0.2 (svn rev. 9656) starts on  2May2014 at  0:58:55

     Current dimensions of program PWSCF are:
     Max number of different atomic species (ntypx) = 10
     Max number of k-points (npk) =  40000
     Max angular momentum in pseudopotentials (lmaxx) =  3
     Reading input from pwscf.in
Warning: card &CELL ignored
Warning: card / ignored

     Subspace diagonalization in iterative solution of the eigenvalue problem:
     a serial algorithm will be used

     bravais-lattice index     =            0
     lattice parameter (alat)  =      10.1289  a.u.
     unit-cell volume          =    6836.7721 (a.u.)^3
     number of atoms/cell      =           32
     number of atomic types    =            3
     number of electrons       =       239.00
     number of Kohn-Sham states=          358
     kinetic-energy cutoff     =      40.0000  Ry
     charge density cutoff     =     500.0000  Ry
     convergence threshold     =      1.0E-06
     mixing beta               =       0.7000
     number of iterations used =            8  plain     mixing
     Exchange-correlation      = SLA  PW   PBE  PBE ( 1 4 3 4 0)
     EXX-fraction              =        0.00
     nstep                     =           50

     celldm(1)=  10.128932  celldm(2)=   0.000000  celldm(3)=   0.000000
     celldm(4)=   0.000000  celldm(5)=   0.000000  celldm(6)=   0.000000

     crystal axes: (cart. coord. in units of alat)
               a(1) = (   1.000000   0.000000   0.000000 )
               a(2) = (   0.000000   1.306037   0.000000 )
               a(3) = (   0.000000   0.000000   5.037380 )

     reciprocal axes: (cart. coord. in units 2 pi/alat)
               b(1) = (  1.000000  0.000000  0.000000 )
               b(2) = (  0.000000  0.765675  0.000000 )
               b(3) = (  0.000000  0.000000  0.198516 )

     PseudoPot. # 1 for O  read from file:
     /home/camp/zhonxu/pseudo/o_pbe_v1.01.uspp.F.UPF
     MD5 check sum: 2bcb18d16ea4b960afae9ec6d52f22d2
     Pseudo is Ultrasoft + core correction, Zval =  6.0
     Generated by new atomic code, or converted to UPF format
     Using radial grid of  737 points,  5 beta functions with:
                l(1) =   0
                l(2) =   0
                l(3) =   1
                l(4) =   1
                l(5) =   2
     Q(r) pseudized with  8 coefficients,  rinner =    0.900   0.900   0.900
                                                       0.900   0.900

     PseudoPot. # 2 for Re read from file:
     /home/camp/zhonxu/pseudo/re_pbe_v1.uspp.F.UPF
     MD5 check sum: 6f5a5dcaf9c96c20d0ffdde0de57afc6
     Pseudo is Ultrasoft + core correction, Zval = 15.0
     Generated by new atomic code, or converted to UPF format
     Using radial grid of  981 points,  8 beta functions with:
                l(1) =   0
                l(2) =   0
                l(3) =   1
                l(4) =   1
                l(5) =   2
                l(6) =   2
                l(7) =   3
                l(8) =   3
     Q(r) pseudized with  8 coefficients,  rinner =    1.000   1.000   1.000
                                                       1.000   1.000   1.000
                                                       1.000

     PseudoPot. # 3 for H  read from file:
     /home/camp/zhonxu/pseudo/h_pbe_v1.uspp.F.UPF
     MD5 check sum: 3408e3ff4ec8b0a4e358431e7e038a48
     Pseudo is Ultrasoft, Zval =  1.0
     Generated by new atomic code, or converted to UPF format
     Using radial grid of  615 points,  2 beta functions with:
                l(1) =   0
                l(2) =   0
     Q(r) pseudized with  8 coefficients,  rinner =    0.700

     atomic species   valence    mass     pseudopotential
        O0             6.00    15.99940     O ( 1.00)
        Re1           15.00   186.20700     Re( 1.00)
        H2             1.00     1.00794     H ( 1.00)

     Simplified LDA+U calculation (l_max = 2) with parameters (eV):
     atomic species    L          U    alpha       J0     beta
        Re1            2     7.0000   0.0000   0.0000   0.0000

     No symmetry found

   Cartesian axes

     site n.     atom                  positions (alat units)
         1           O0  tau(   1) = (   0.0000000   0.0000000   1.8669538  )
         2           O0  tau(   2) = (   0.0000000   0.6530184   1.9246318  )
         3           Re1 tau(   3) = (   0.2500000   0.6530184   2.2252626  )
         4           Re1 tau(   4) = (   0.0000000   0.0000000   2.2335239  )
         5           O0  tau(   5) = (   0.2500000   1.0187087   2.2252626  )
         6           O0  tau(   6) = (   0.2500000   0.2873281   2.2245574  )
         7           O0  tau(   7) = (   0.0000000   0.6530184   2.5039809  )
         8           O0  tau(   8) = (   0.0000000   0.0000000   2.5944019  )
         9           Re1 tau(   9) = (   0.2500000   0.0000000   2.8956372  )
        10           Re1 tau(  10) = (   0.0000000   0.6530184   2.8532728  )
        11           O0  tau(  11) = (   0.2500000   0.9403465   2.8863684  )
        12           O0  tau(  12) = (   0.2500000   0.3656903   2.8866706  )
        13           O0  tau(  13) = (   0.0000000   0.0000000   3.1589410  )
        14           O0  tau(  14) = (   0.5000000   0.0000000   1.8671553  )
        15           O0  tau(  15) = (   0.5000000   0.6530184   1.9260926  )
        16           Re1 tau(  16) = (   0.7500000   0.6530184   2.2254138  )
        17           Re1 tau(  17) = (   0.5000000   0.0000000   2.2327683  )
        18           O0  tau(  18) = (   0.7500000   1.0187087   2.2250108  )
        19           O0  tau(  19) = (   0.7500000   0.2873281   2.2249100  )
        20           O0  tau(  20) = (   0.5000000   0.6530184   2.5136527  )
        21           O0  tau(  21) = (   0.5000000   0.0000000   2.5937470  )
        22           Re1 tau(  22) = (   0.7500000   0.0000000   2.8949319  )
        23           Re1 tau(  23) = (   0.5000000   0.6530184   2.8846557  )
        24           O0  tau(  24) = (   0.7500000   0.9403465   2.8822881  )
        25           O0  tau(  25) = (   0.7500000   0.3656903   2.8822881  )
        26           O0  tau(  26) = (   0.5000000   0.0000000   3.1556667  )
        27           H2  tau(  27) = (  -0.0003600   0.8163644   1.8395505  )
        28           H2  tau(  28) = (   0.4996200   0.8138568   1.8363769  )
        29           H2  tau(  29) = (   0.1695000   0.0302217   1.7958260  )
        30           H2  tau(  30) = (   0.6704500   0.0285761   1.7967327  )
        31           O0  tau(  31) = (   0.5277600   0.6525874   3.2436194  )
        32           H2  tau(  32) = (   0.3788200   0.6519344   3.3501096  )

     number of k points=    10  Methfessel-Paxton smearing, width (Ry)=  0.0100
                       cart. coord. in units 2pi/alat
        k(    1) = (   0.0000000   0.0000000   0.0000000), wk =   0.1250000
        k(    2) = (   0.0000000   0.1914188   0.0000000), wk =   0.2500000
        k(    3) = (   0.0000000  -0.3828376   0.0000000), wk =   0.1250000
        k(    4) = (   0.2500000   0.0000000   0.0000000), wk =   0.2500000
        k(    5) = (   0.2500000   0.1914188   0.0000000), wk =   0.2500000
        k(    6) = (   0.2500000  -0.3828376   0.0000000), wk =   0.2500000
        k(    7) = (  -0.5000000   0.0000000   0.0000000), wk =   0.1250000
        k(    8) = (  -0.5000000   0.1914188   0.0000000), wk =   0.2500000
        k(    9) = (  -0.5000000  -0.3828376   0.0000000), wk =   0.1250000
        k(   10) = (  -0.2500000   0.1914188   0.0000000), wk =   0.2500000

     Largest allocated arrays     est. size (Mb)     dimensions
     Largest temporary arrays     est. size (Mb)     dimensions

     Check: negative/imaginary core charge=   -0.000003    0.000000

     Initial potential from superposition of free atoms
     Check: negative starting charge=   -0.237247

     starting charge  234.99957, renormalised to  239.00000

     negative rho (up, down):  0.241E+00 0.000E+00
     Number of +U iterations with fixed ns =  0
     Starting occupations:
 --- enter write_ns ---
 LDA+U parameters:
U( 2)     =  7.00000000
alpha( 2) =  0.00000000
atom    3   Tr[ns(na)] =   5.00000
    eigenvalues:
  0.500  0.500  0.500  0.500  0.500
    eigenvectors:
  1.000  0.000  0.000  0.000  0.000
  0.000  1.000  0.000  0.000  0.000
  0.000  0.000  1.000  0.000  0.000
  0.000  0.000  0.000  1.000  0.000
  0.000  0.000  0.000  0.000  1.000
    occupations:
  0.500  0.000  0.000  0.000  0.000
  0.000  0.500  0.000  0.000  0.000
  0.000  0.000  0.500  0.000  0.000
  0.000  0.000  0.000  0.500  0.000
  0.000  0.000  0.000  0.000  0.500
atom    4   Tr[ns(na)] =   5.00000
    eigenvalues:
  0.500  0.500  0.500  0.500  0.500
    eigenvectors:
  1.000  0.000  0.000  0.000  0.000
  0.000  1.000  0.000  0.000  0.000
  0.000  0.000  1.000  0.000  0.000
  0.000  0.000  0.000  1.000  0.000
  0.000  0.000  0.000  0.000  1.000
    occupations:
  0.500  0.000  0.000  0.000  0.000
  0.000  0.500  0.000  0.000  0.000
  0.000  0.000  0.500  0.000  0.000
  0.000  0.000  0.000  0.500  0.000
  0.000  0.000  0.000  0.000  0.500
atom    9   Tr[ns(na)] =   5.00000
    eigenvalues:
  0.500  0.500  0.500  0.500  0.500
    eigenvectors:
  1.000  0.000  0.000  0.000  0.000
  0.000  1.000  0.000  0.000  0.000
  0.000  0.000  1.000  0.000  0.000
  0.000  0.000  0.000  1.000  0.000
  0.000  0.000  0.000  0.000  1.000
    occupations:
  0.500  0.000  0.000  0.000  0.000
  0.000  0.500  0.000  0.000  0.000
  0.000  0.000  0.500  0.000  0.000
  0.000  0.000  0.000  0.500  0.000
  0.000  0.000  0.000  0.000  0.500
atom   10   Tr[ns(na)] =   5.00000
    eigenvalues:
  0.500  0.500  0.500  0.500  0.500
    eigenvectors:
  1.000  0.000  0.000  0.000  0.000
  0.000  1.000  0.000  0.000  0.000
  0.000  0.000  1.000  0.000  0.000
  0.000  0.000  0.000  1.000  0.000
  0.000  0.000  0.000  0.000  1.000
    occupations:
  0.500  0.000  0.000  0.000  0.000
  0.000  0.500  0.000  0.000  0.000
  0.000  0.000  0.500  0.000  0.000
  0.000  0.000  0.000  0.500  0.000
  0.000  0.000  0.000  0.000  0.500
atom   16   Tr[ns(na)] =   5.00000
    eigenvalues:
  0.500  0.500  0.500  0.500  0.500
    eigenvectors:
  1.000  0.000  0.000  0.000  0.000
  0.000  1.000  0.000  0.000  0.000
  0.000  0.000  1.000  0.000  0.000
  0.000  0.000  0.000  1.000  0.000
  0.000  0.000  0.000  0.000  1.000
    occupations:
  0.500  0.000  0.000  0.000  0.000
  0.000  0.500  0.000  0.000  0.000
  0.000  0.000  0.500  0.000  0.000
  0.000  0.000  0.000  0.500  0.000
  0.000  0.000  0.000  0.000  0.500
atom   17   Tr[ns(na)] =   5.00000
    eigenvalues:
  0.500  0.500  0.500  0.500  0.500
    eigenvectors:
  1.000  0.000  0.000  0.000  0.000
  0.000  1.000  0.000  0.000  0.000
  0.000  0.000  1.000  0.000  0.000
  0.000  0.000  0.000  1.000  0.000
  0.000  0.000  0.000  0.000  1.000
    occupations:
  0.500  0.000  0.000  0.000  0.000
  0.000  0.500  0.000  0.000  0.000
  0.000  0.000  0.500  0.000  0.000
  0.000  0.000  0.000  0.500  0.000
  0.000  0.000  0.000  0.000  0.500
atom   22   Tr[ns(na)] =   5.00000
    eigenvalues:
  0.500  0.500  0.500  0.500  0.500
    eigenvectors:
  1.000  0.000  0.000  0.000  0.000
[...]
 -0.010 -0.002  0.001  0.802 -0.000
  0.001 -0.001  0.000 -0.000  0.581
atom    9   Tr[ns(na)] =   6.59762
    eigenvalues:
  0.539  0.594  0.624  0.697  0.844
    eigenvectors:
  0.000  0.115  0.000  0.884  0.001
  0.000  0.000  1.000  0.000  0.000
  0.999  0.000  0.000  0.000  0.001
  0.000  0.885  0.000  0.114  0.000
  0.001  0.000  0.000  0.001  0.998
    occupations:
  0.686 -0.000  0.001 -0.033  0.004
 -0.000  0.624  0.000  0.000 -0.000
  0.001  0.000  0.540 -0.000 -0.010
 -0.033  0.000 -0.000  0.606 -0.004
  0.004 -0.000 -0.010 -0.004  0.844
atom   10   Tr[ns(na)] =   6.42961
    eigenvalues:
  0.403  0.478  0.558  0.808  0.968
    eigenvectors:
  0.004  0.991  0.000  0.004  0.000
  0.000  0.000  0.000  0.000  1.000
  0.994  0.004  0.002  0.000  0.000
  0.000  0.004  0.000  0.996  0.000
  0.002  0.000  0.998  0.000  0.000
    occupations:
  0.479 -0.008 -0.005  0.022 -0.000
 -0.008  0.968 -0.001 -0.001  0.001
 -0.005 -0.001  0.403  0.001 -0.007
  0.022 -0.001  0.001  0.807 -0.000
 -0.000  0.001 -0.007 -0.000  0.558
atom   16   Tr[ns(na)] =   6.54485
    eigenvalues:
  0.411  0.549  0.579  0.792  0.942
    eigenvectors:
  0.006  0.021  0.238  0.734  0.000
  0.000  0.946  0.053  0.001  0.001
  0.975  0.000  0.000  0.006  0.018
  0.001  0.033  0.709  0.258  0.000
  0.018  0.001  0.000  0.000  0.981
    occupations:
  0.734  0.010  0.028 -0.093  0.004
  0.010  0.551  0.003  0.002 -0.009
  0.028  0.003  0.423 -0.012 -0.070
 -0.093  0.002 -0.012  0.633 -0.001
  0.004 -0.009 -0.070 -0.001  0.932
atom   17   Tr[ns(na)] =   6.59719
    eigenvalues:
  0.528  0.580  0.621  0.766  0.803
    eigenvectors:
  0.000  0.000  0.995  0.001  0.004
  0.002  0.000  0.001  0.997  0.001
  0.998  0.000  0.000  0.002  0.000
  0.000  0.000  0.004  0.001  0.996
  0.000  1.000  0.000  0.000  0.000
    occupations:
  0.622  0.004  0.001 -0.011  0.001
  0.004  0.766  0.010 -0.001 -0.001
  0.001  0.010  0.528  0.001  0.000
 -0.011 -0.001  0.001  0.803 -0.000
  0.001 -0.001  0.000 -0.000  0.580
atom   22   Tr[ns(na)] =   6.62149
    eigenvalues:
  0.477  0.581  0.588  0.819  0.846
    eigenvectors:
  0.000  0.001  0.235  0.757  0.007
  0.000  0.998  0.002  0.000  0.000
  0.998  0.000  0.000  0.000  0.002
  0.000  0.001  0.763  0.233  0.002
  0.002  0.000  0.000  0.010  0.989
    occupations:
  0.765  0.001 -0.001 -0.098  0.002
  0.001  0.581  0.000 -0.000  0.000
 -0.001  0.000  0.478  0.000  0.016
 -0.098 -0.000  0.000  0.642 -0.002
  0.002  0.000  0.016 -0.002  0.845
atom   23   Tr[ns(na)] =   6.52783
    eigenvalues:
  0.395  0.552  0.580  0.782  0.955
    eigenvectors:
  0.000  0.000  0.997  0.001  0.002
  0.000  0.000  0.002  0.000  0.998
  1.000  0.000  0.000  0.000  0.000
  0.000  0.000  0.001  0.999  0.000
  0.000  1.000  0.000  0.000  0.000
    occupations:
  0.581  0.015 -0.001  0.007  0.000
  0.015  0.955  0.001  0.002  0.001
 -0.001  0.001  0.395  0.000  0.002
  0.007  0.002  0.000  0.782  0.000
  0.000  0.001  0.002  0.000  0.552
N of occupied +U levels =  52.4492616
 --- exit write_ns ---

     Threshold (ethr) on eigenvalues was too large:
     Diagonalizing with lowered threshold

     Davidson diagonalization with overlap
     ethr =  9.19E-09,  avg # of iterations =  2.0

[...]

     total energy              =   -2172.15670525 Ry
     Harris-Foulkes estimate   =   -2172.15670527 Ry
     estimated scf accuracy    <       0.00000017 Ry

     iteration # 14     ecut=    40.00 Ry     beta=0.70
     Davidson diagonalization with overlap
     ethr =  7.93E-12,  avg # of iterations =  1.0

     negative rho (up, down):  0.237E+00 0.000E+00

     End of self-consistent calculation
 --- enter write_ns ---
 LDA+U parameters:
U( 2)     =  7.00000000
alpha( 2) =  0.00000000
atom    3   Tr[ns(na)] =   6.53691
    eigenvalues:
  0.400  0.550  0.580  0.795  0.943
    eigenvectors:
  0.007  0.023  0.235  0.736  0.000
  0.000  0.940  0.059  0.001  0.001
  0.973  0.000  0.000  0.007  0.020
  0.001  0.037  0.706  0.256  0.000
  0.020  0.001  0.000  0.000  0.979
    occupations:
  0.736 -0.010  0.030 -0.094 -0.004
 -0.010  0.553 -0.003 -0.002 -0.009
  0.030 -0.003  0.414 -0.014  0.075
 -0.094 -0.002 -0.014  0.634  0.002
 -0.004 -0.009  0.075  0.002  0.932
atom    4   Tr[ns(na)] =   6.59502
    eigenvalues:
  0.510  0.581  0.622  0.782  0.803
    eigenvectors:
  0.000  0.000  0.997  0.000  0.003
  0.001  0.000  0.000  0.990  0.009
  0.999  0.000  0.000  0.001  0.000
  0.000  0.000  0.003  0.009  0.988
  0.000  1.000  0.000  0.000  0.000
    occupations:
  0.622  0.002  0.001 -0.010  0.001
  0.002  0.782  0.008 -0.002 -0.001
  0.001  0.008  0.510  0.001  0.000
 -0.010 -0.002  0.001  0.802 -0.000
  0.001 -0.001  0.000 -0.000  0.581
atom    9   Tr[ns(na)] =   6.59573
    eigenvalues:
  0.539  0.594  0.624  0.697  0.844
    eigenvectors:
  0.000  0.115  0.000  0.885  0.001
  0.000  0.000  1.000  0.000  0.000
  0.999  0.000  0.000  0.000  0.001
  0.000  0.885  0.000  0.114  0.000
  0.001  0.000  0.000  0.001  0.998
    occupations:
  0.685 -0.000  0.001 -0.033  0.004
 -0.000  0.624  0.000  0.000 -0.000
  0.001  0.000  0.539 -0.000 -0.010
 -0.033  0.000 -0.000  0.606 -0.004
  0.004 -0.000 -0.010 -0.004  0.843
atom   10   Tr[ns(na)] =   6.42982
    eigenvalues:
  0.403  0.478  0.558  0.808  0.968
    eigenvectors:
  0.004  0.991  0.000  0.004  0.000
  0.000  0.000  0.000  0.000  1.000
  0.994  0.004  0.002  0.000  0.000
  0.000  0.004  0.000  0.996  0.000
  0.002  0.000  0.998  0.000  0.000
    occupations:
  0.480 -0.008 -0.005  0.022 -0.000
 -0.008  0.968 -0.001 -0.001  0.001
 -0.005 -0.001  0.404  0.001 -0.007
  0.022 -0.001  0.001  0.807 -0.000
 -0.000  0.001 -0.007 -0.000  0.558
atom   16   Tr[ns(na)] =   6.54540
    eigenvalues:
  0.411  0.549  0.579  0.792  0.942
    eigenvectors:
  0.006  0.021  0.238  0.734  0.000
  0.000  0.945  0.053  0.001  0.001
  0.975  0.000  0.000  0.006  0.018
  0.001  0.033  0.709  0.258  0.000
  0.018  0.001  0.000  0.000  0.981
    occupations:
  0.734  0.010  0.028 -0.093  0.004
  0.010  0.551  0.003  0.002 -0.009
  0.028  0.003  0.423 -0.012 -0.071
 -0.093  0.002 -0.012  0.633 -0.001
  0.004 -0.009 -0.071 -0.001  0.932
atom   17   Tr[ns(na)] =   6.59826
    eigenvalues:
  0.528  0.580  0.621  0.766  0.803
    eigenvectors:
  0.000  0.000  0.995  0.001  0.004
  0.002  0.000  0.001  0.997  0.001
  0.998  0.000  0.000  0.002  0.000
  0.000  0.000  0.004  0.001  0.996
  0.000  1.000  0.000  0.000  0.000
    occupations:
  0.622  0.004  0.001 -0.011  0.001
  0.004  0.766  0.010 -0.001 -0.001
  0.001  0.010  0.528  0.001  0.000
 -0.011 -0.001  0.001  0.803 -0.000
  0.001 -0.001  0.000 -0.000  0.580
atom   22   Tr[ns(na)] =   6.62102
    eigenvalues:
  0.477  0.581  0.588  0.819  0.846
    eigenvectors:
  0.000  0.001  0.235  0.757  0.007
  0.000  0.998  0.002  0.000  0.000
  0.998  0.000  0.000  0.000  0.002
  0.000  0.001  0.763  0.233  0.002
  0.002  0.000  0.000  0.010  0.988
    occupations:
  0.764  0.001 -0.001 -0.098  0.002
  0.001  0.581  0.000 -0.000  0.000
 -0.001  0.000  0.478  0.000  0.016
 -0.098 -0.000  0.000  0.642 -0.002
  0.002  0.000  0.016 -0.002  0.845
atom   23   Tr[ns(na)] =   6.52736
    eigenvalues:
  0.395  0.552  0.580  0.782  0.955
    eigenvectors:
  0.000  0.000  0.997  0.001  0.002
  0.000  0.000  0.002  0.000  0.998
  1.000  0.000  0.000  0.000  0.000
  0.000  0.000  0.001  0.999  0.000
  0.000  1.000  0.000  0.000  0.000
    occupations:
  0.581  0.015 -0.001  0.007  0.000
  0.015  0.955  0.001  0.002  0.001
 -0.001  0.001  0.395  0.000  0.002
  0.007  0.002  0.000  0.782  0.000
  0.000  0.001  0.002  0.000  0.552
N of occupied +U levels =  52.4495182
 --- exit write_ns ---

[...]

          k = 0.2500-0.3828 0.0000 ( 29202 PWs)   bands (ev):

[...]

          k =-0.2500 0.1914 0.0000 ( 29229 PWs)   bands (ev):

   -80.8625 -80.8238 -80.5996 -80.5031 -80.3301 -80.2842 -80.1950 -80.0960
   -42.9004 -42.8913 -42.8376 -42.8276 -42.7792 -42.7358 -42.6958 -42.6743
   -42.6400 -42.5711 -42.5408 -42.4850 -42.4360 -42.3062 -42.2698 -42.2593
   -42.2347 -42.2000 -42.0996 -42.0922 -41.9671 -41.6917 -41.4786 -41.4099
   -20.7703 -20.4182 -20.3152 -20.0797 -20.0006 -19.8703 -19.8112 -19.7387
   -19.6231 -19.5112 -19.3222 -19.2208 -19.1358 -19.1112 -18.9465 -18.8843
   -18.8682 -18.4073 -18.2256  -9.4723  -9.1420  -9.1276  -9.0368  -8.9189
    -8.8401  -8.5704  -8.3506  -8.2168  -8.0741  -7.9601  -7.8719  -7.7032
    -7.4064  -7.2210  -7.1106  -6.9806  -6.8430  -6.7995  -6.6583  -6.5334
    -6.5195  -6.1399  -6.0256  -5.8376  -5.8041  -5.6568  -5.5362  -5.4366
    -5.3636  -5.2005  -5.0418  -4.9864  -4.9146  -4.8419  -4.7687  -4.7177
    -4.6312  -4.5955  -4.4906  -4.3774  -4.1733  -4.0022  -3.9387  -3.8800
    -3.7981  -3.7594  -3.5973  -3.4233  -3.3494  -3.2741  -3.1848  -3.0841
    -2.8539  -2.8482  -2.7420  -2.4899  -2.2935  -2.2602  -2.1678  -1.6521
    -1.3846  -1.2937  -1.0341  -0.5111  -0.3871  -0.3388   0.0147   0.3726
     0.8125   1.0247   1.1053   1.2255   1.4222   1.5939   1.6532   1.6798
     1.8117   1.9849   2.0715   2.2508   2.8452   3.6659   3.7858   3.9584
     4.0058   4.2042   4.3202   4.4896   4.6591   4.6678   4.9063   4.9757
     5.0407   5.2614   5.3408   5.6567   5.8667   6.0184   6.1075   6.3739
     6.4597   6.6284   6.7528   6.8332   7.0123   7.1604   7.3189   7.5049
     7.6489   7.7376   7.9596   8.0445   8.2858   8.4133   8.4503   8.5833
     8.7206   8.7875   8.9680   9.0549   9.1417   9.3678   9.4480   9.5911
     9.6563   9.7046   9.8254   9.9139   9.9636  10.0035  10.0700  10.2353
    10.2755  10.3952  10.4895  10.5881  10.6534  10.7678  10.8032  10.8566
    11.0326  11.1296  11.2352  11.3343  11.4525  11.6226  11.6826  11.7412
    11.8161  12.0170  12.0781  12.2044  12.3404  12.4845  12.5632  12.6287
    12.6987  12.7881  12.8579  12.9064  12.9895  13.0337  13.1174  13.2618
    13.3415  13.4332  13.5448  13.6590  13.7004  13.7672  13.8134  13.9184
    13.9503  13.9984  14.0557  14.1426  14.1803  14.2603  14.3474  14.4045
    14.5015  14.5580  14.5917  14.6922  14.7206  14.8522  14.8829  14.9377
    14.9815  15.0246  15.0566  15.1303  15.1974  15.2317  15.3635  15.4225
    15.5534  15.6274  15.6473  15.7546  15.8853  15.9936  16.0658  16.1673
    16.1906  16.2547  16.3498  16.4710  16.5591  16.5856  16.6239  16.7361
    16.7747  16.8671  16.9429  17.0544  17.1374  17.2097  17.2724  17.2915
    17.4084  17.5152  17.5948  17.6762  17.7261  17.8090  17.8304  17.9651
    18.0104  18.0483  18.1440  18.2523  18.2878  18.3752  18.4226  18.5009
    18.5798  18.6186  18.6637  18.7200  18.8052  18.8918  18.9330  19.0544
    19.1516  19.2268  19.3231  19.4196  19.4591  19.5825  19.6304  19.6790
    19.7942  19.8464  19.9821  20.0487  20.1574  20.2510  20.3108  20.4141
    20.4722  20.5399  20.5553  20.6676  20.7102  20.7951  20.8453  20.8809
    20.9327  20.9879  21.0031  21.0817  21.1537  21.1989  21.2690  21.3510
    21.3937  21.4988  21.5461  21.6096  21.6897  21.7562  21.7909  21.8613
    21.9359  21.9761  22.0923  22.1475  22.2347  22.2880  22.3205  22.3612
    22.4185  22.4389  22.5326  22.5522  22.6210  22.6382  22.7104  22.7869
    22.8306  22.8613  22.8884  22.9757  23.0142  23.0790

     the Fermi energy is     0.2708 ev

!    total energy              =   -2172.15670526 Ry
     Harris-Foulkes estimate   =   -2172.15670527 Ry
     estimated scf accuracy    <          7.3E-09 Ry

     The total energy is the sum of the following terms:

     one-electron contribution =  -24306.94124451 Ry
     hartree contribution      =   12174.06792152 Ry
     xc contribution           =    -595.36065581 Ry
     ewald contribution        =   10551.97573435 Ry
     Hubbard energy            =       4.10083124 Ry
     smearing contrib. (-TS)   =       0.00070796 Ry

     convergence has been achieved in  14 iterations

     Forces acting on atoms (Ry/au):

     negative rho (up, down):  0.237E+00 0.000E+00
     atom    1 type  1   force =    -0.00333749   -0.00418327   -0.00002094
     atom    2 type  1   force =    -0.00025342    0.00338214    0.00029075
     atom    3 type  2   force =     0.03941242   -0.00020070   -0.00029382
     atom    4 type  2   force =    -0.00537550    0.00482580    0.00016829
     atom    5 type  1   force =     0.00239973    0.01696996    0.00015151
     atom    6 type  1   force =     0.00202610   -0.01854368    0.00021212
     atom    7 type  1   force =     0.00360328   -0.00279723   -0.00033057
     atom    8 type  1   force =     0.01961655   -0.00043765    0.00041323
     atom    9 type  2   force =    -0.00682726    0.00106062    0.00004706
     atom   10 type  2   force =    -0.01306246   -0.00181010   -0.00043719
     atom   11 type  1   force =    -0.00831048   -0.00349788   -0.00059953
     atom   12 type  1   force =    -0.00825868    0.00440400   -0.00059220
     atom   13 type  1   force =     0.00888846   -0.00104500    0.00002399
     atom   14 type  1   force =    -0.00460773   -0.00510716   -0.00010698
     atom   15 type  1   force =     0.00036818    0.00440034    0.00035729
     atom   16 type  2   force =    -0.03890260   -0.00022199   -0.00032084
     atom   17 type  2   force =     0.00991801    0.00641719    0.00007985
     atom   18 type  1   force =    -0.00007441    0.01718695    0.00005672
     atom   19 type  1   force =    -0.00075643   -0.01815201    0.00009116
     atom   20 type  1   force =    -0.00569082   -0.00192491   -0.00079418
     atom   21 type  1   force =    -0.01345559   -0.00113269    0.00030931
     atom   22 type  2   force =     0.00053424    0.00031610    0.00011114
     atom   23 type  2   force =     0.01280212   -0.00042299   -0.00029635
     atom   24 type  1   force =     0.00850399   -0.00502026    0.00061608
     atom   25 type  1   force =     0.00948284    0.00640910    0.00060000
     atom   26 type  1   force =    -0.00925070    0.00018561   -0.00000383
     atom   27 type  3   force =    -0.00003147   -0.00050877   -0.00025034
     atom   28 type  3   force =     0.00001631   -0.00029843    0.00008342
     atom   29 type  3   force =    -0.00001768   -0.00017102   -0.00006261
     atom   30 type  3   force =     0.00003590   -0.00006368   -0.00003504
     atom   31 type  1   force =     0.00010172    0.00001142    0.00001108
     atom   32 type  3   force =     0.00050285   -0.00002982    0.00052145

     Total force =     0.002067     Total SCF correction =     0.000319
     SCF correction compared to forces is large: reduce conv_thr to get better values

     bfgs converged in  17 scf cycles and  16 bfgs steps
     (criteria: energy < 0.10E-03, force < 0.10E-02)

     End of BFGS Geometry Optimization

     Final energy   =   -2172.1567052629 Ry
Begin final coordinates

ATOMIC_POSITIONS (crystal)
O0       0.000000000   0.000000000   0.372415553    0   0   1
O0       0.000000000   0.500000000   0.382866169    0   0   1
Re1      0.250000000   0.500000000   0.441677349    0   0   1
Re1      0.000000000   0.000000000   0.444173948    0   0   1
O0       0.250000000   0.780000000   0.441686606    0   0   1
O0       0.250000000   0.220000000   0.441728240    0   0   1
O0       0.000000000   0.500000000   0.497143294    0   0   1
O0       0.000000000   0.000000000   0.514508447    0   0   1
Re1      0.250000000   0.000000000   0.577416032    0   0   1
Re1      0.000000000   0.500000000   0.566143062    0   0   1
O0       0.250000000   0.720000000   0.572472220    0   0   1
O0       0.250000000   0.280000000   0.572453797    0   0   1
O0       0.000000000   0.000000000   0.626934412    0   0   1
O0       0.500000000   0.000000000   0.372126136    0   0   1
O0       0.500000000   0.500000000   0.382235213    0   0   1
Re1      0.750000000   0.500000000   0.441673685    0   0   1
Re1      0.500000000   0.000000000   0.443847835    0   0   1
O0       0.750000000   0.780000000   0.441828525    0   0   1
O0       0.750000000   0.220000000   0.441892308    0   0   1
O0       0.500000000   0.500000000   0.497070263    0   0   1
O0       0.500000000   0.000000000   0.514247033    0   0   1
Re1      0.750000000   0.000000000   0.572711147    0   0   1
Re1      0.500000000   0.500000000   0.573554987    0   0   1
O0       0.750000000   0.720000000   0.570121356    0   0   1
O0       0.750000000   0.280000000   0.570140501    0   0   1
O0       0.500000000   0.000000000   0.626705383    0   0   1
H2      -0.000213607   0.619378290   0.363586769
H2       0.499559079   0.624678054   0.365270015
H2       0.169696211   0.019678488   0.357769132
H2       0.669943007   0.020458580   0.357654652
O0       0.533550967   0.499554585   0.644439508
H2       0.380694371   0.499123810   0.664536424
End final coordinates

     General routines

     Parallel routines
     Hubbard U routines

   This run was terminated on:  23:15: 8   2May2014

   JOB DONE.