     Program PWSCF v.5.0.2 (svn rev. 9656) starts on  9May2014 at  5:37:35

     Current dimensions of program PWSCF are:
     Max number of different atomic species (ntypx) = 10
     Max number of k-points (npk) =  40000
     Max angular momentum in pseudopotentials (lmaxx) =  3
     Reading input from pwscf.in
Warning: card &CELL ignored
Warning: card / ignored

     Subspace diagonalization in iterative solution of the eigenvalue problem:
     a serial algorithm will be used

     bravais-lattice index     =            0
     lattice parameter (alat)  =      11.1872  a.u.
     unit-cell volume          =    7531.8600 (a.u.)^3
     number of atoms/cell      =           30
     number of atomic types    =            3
     number of electrons       =       216.00
     number of Kohn-Sham states=          324
     kinetic-energy cutoff     =      40.0000  Ry
     charge density cutoff     =     500.0000  Ry
     convergence threshold     =      1.0E-06
     mixing beta               =       0.7000
     number of iterations used =            8  plain     mixing
     Exchange-correlation      = SLA  PW   PBE  PBE ( 1 4 3 4 0)
     EXX-fraction              =        0.00
     nstep                     =           50

     celldm(1)=  11.187179  celldm(2)=   0.000000  celldm(3)=   0.000000
     celldm(4)=   0.000000  celldm(5)=   0.000000  celldm(6)=   0.000000

     crystal axes: (cart. coord. in units of alat)
               a(1) = (   1.000000   0.000000   0.000000 )
               a(2) = (   0.000000   1.180104   0.000000 )
               a(3) = (   0.000000   0.000000   4.558482 )

     reciprocal axes: (cart. coord. in units 2 pi/alat)
               b(1) = (  1.000000  0.000000  0.000000 )
               b(2) = (  0.000000  0.847383  0.000000 )
               b(3) = (  0.000000  0.000000  0.219371 )

     PseudoPot. # 1 for O  read from file:
     /home/camp/zhonxu/pseudo/o_pbe_v1.01.uspp.F.UPF
     MD5 check sum: 2bcb18d16ea4b960afae9ec6d52f22d2
     Pseudo is Ultrasoft + core correction, Zval =  6.0
     Generated by new atomic code, or converted to UPF format
     Using radial grid of  737 points,  5 beta functions with:
                l(1) =   0
                l(2) =   0
                l(3) =   1
                l(4) =   1
                l(5) =   2
     Q(r) pseudized with  8 coefficients,  rinner =    0.900   0.900   0.900
                                                       0.900   0.900

     PseudoPot. # 2 for Nb read from file:
     /home/camp/zhonxu/pseudo/nb_pbe_v1.uspp.F.UPF
     MD5 check sum: 573aab8a2fa660278ed4a62cd769473f
     Pseudo is Ultrasoft + core correction, Zval = 13.0
     Generated by new atomic code, or converted to UPF format
     Using radial grid of  887 points,  6 beta functions with:
                l(1) =   0
                l(2) =   0
                l(3) =   1
                l(4) =   1
                l(5) =   2
                l(6) =   2
     Q(r) pseudized with  6 coefficients,  rinner =    1.000   1.000   1.000
                                                       1.000   1.000

     PseudoPot. # 3 for H  read from file:
     /home/camp/zhonxu/pseudo/h_pbe_v1.uspp.F.UPF
     MD5 check sum: 3408e3ff4ec8b0a4e358431e7e038a48
     Pseudo is Ultrasoft, Zval =  1.0
     Generated by new atomic code, or converted to UPF format
     Using radial grid of  615 points,  2 beta functions with:
                l(1) =   0
                l(2) =   0
     Q(r) pseudized with  8 coefficients,  rinner =    0.700

     atomic species   valence    mass     pseudopotential
        O0             6.00    15.99940     O ( 1.00)
        Nb1           13.00    92.90640     Nb( 1.00)
        H2             1.00     1.00794     H ( 1.00)

     Simplified LDA+U calculation (l_max = 2) with parameters (eV):
     atomic species    L          U    alpha       J0     beta
        Nb1            2     5.0000   0.0000   0.0000   0.0000

     No symmetry found

   Cartesian axes

     site n.     atom                  positions (alat units)
         1           O0  tau(   1) = (   0.0000000   0.0000000   1.7080633  )
         2           O0  tau(   2) = (   0.0000000   0.5900519   1.7583889  )
         3           Nb1 tau(   3) = (   0.2500000   0.5900519   2.0066439  )
         4           Nb1 tau(   4) = (   0.0000000   0.0000000   2.0401487  )
         5           O0  tau(   5) = (   0.2500000   0.9322821   2.0429294  )
         6           O0  tau(   6) = (   0.2500000   0.2478218   2.0431118  )
         7           O0  tau(   7) = (   0.0000000   0.5900519   2.2709903  )
         8           O0  tau(   8) = (   0.0000000   0.0000000   2.3999042  )
         9           Nb1 tau(   9) = (   0.2500000   0.0000000   2.6489340  )
        10           Nb1 tau(  10) = (   0.0000000   0.5900519   2.5868019  )
        11           O0  tau(  11) = (   0.2500000   0.8378738   2.6444667  )
        12           O0  tau(  12) = (   0.2500000   0.3422301   2.6445123  )
        13           O0  tau(  13) = (   0.0000000   0.0000000   2.8518777  )
        14           O0  tau(  14) = (   0.5000000   0.0000000   1.7080633  )
        15           O0  tau(  15) = (   0.5000000   0.5900519   1.7583889  )
        16           Nb1 tau(  16) = (   0.7500000   0.5900519   2.0066439  )
        17           Nb1 tau(  17) = (   0.5000000   0.0000000   2.0401487  )
        18           O0  tau(  18) = (   0.7500000   0.9322821   2.0429294  )
        19           O0  tau(  19) = (   0.7500000   0.2478218   2.0431118  )
        20           O0  tau(  20) = (   0.5000000   0.5900519   2.2709903  )
        21           O0  tau(  21) = (   0.5000000   0.0000000   2.3999497  )
        22           Nb1 tau(  22) = (   0.7500000   0.0000000   2.6489340  )
        23           Nb1 tau(  23) = (   0.5000000   0.5900519   2.5867563  )
        24           O0  tau(  24) = (   0.7500000   0.8378738   2.6444667  )
        25           O0  tau(  25) = (   0.7500000   0.3422301   2.6445123  )
        26           O0  tau(  26) = (   0.5000000   0.0000000   2.8518777  )
        27           H2  tau(  27) = (  -0.0004200   0.5934860   1.5928705  )
        28           H2  tau(  28) = (   0.4995800   0.5932146   1.5928249  )
        29           H2  tau(  29) = (   0.1513000  -0.0014397   1.6372701  )
        30           H2  tau(  30) = (   0.6512900  -0.0014397   1.6372701  )

     number of k points=    10  Methfessel-Paxton smearing, width (Ry)=  0.0100
                       cart. coord. in units 2pi/alat
        k(    1) = (   0.0000000   0.0000000   0.0000000), wk =   0.1250000
        k(    2) = (   0.0000000   0.2118458   0.0000000), wk =   0.2500000
        k(    3) = (   0.0000000  -0.4236915   0.0000000), wk =   0.1250000
        k(    4) = (   0.2500000   0.0000000   0.0000000), wk =   0.2500000
        k(    5) = (   0.2500000   0.2118458   0.0000000), wk =   0.2500000
        k(    6) = (   0.2500000  -0.4236915   0.0000000), wk =   0.2500000
        k(    7) = (  -0.5000000   0.0000000   0.0000000), wk =   0.1250000
        k(    8) = (  -0.5000000   0.2118458   0.0000000), wk =   0.2500000
        k(    9) = (  -0.5000000  -0.4236915   0.0000000), wk =   0.1250000
        k(   10) = (  -0.2500000   0.2118458   0.0000000), wk =   0.2500000

     Largest allocated arrays     est. size (Mb)     dimensions
     Largest temporary arrays     est. size (Mb)     dimensions

     Check: negative/imaginary core charge=   -0.000003    0.000000

     Initial potential from superposition of free atoms
     Check: negative starting charge=   -0.003843

     starting charge  215.97807, renormalised to  216.00000

     negative rho (up, down):  0.384E-02 0.000E+00
     Number of +U iterations with fixed ns =  0
     Starting occupations:
 --- enter write_ns ---
 LDA+U parameters:
U( 2)     =  5.00000000
alpha( 2) =  0.00000000
atom    3   Tr[ns(na)] =   3.00000
    eigenvalues:
  0.300  0.300  0.300  0.300  0.300
    eigenvectors:
  1.000  0.000  0.000  0.000  0.000
  0.000  1.000  0.000  0.000  0.000
  0.000  0.000  1.000  0.000  0.000
  0.000  0.000  0.000  1.000  0.000
  0.000  0.000  0.000  0.000  1.000
    occupations:
  0.300  0.000  0.000  0.000  0.000
  0.000  0.300  0.000  0.000  0.000
  0.000  0.000  0.300  0.000  0.000
  0.000  0.000  0.000  0.300  0.000
  0.000  0.000  0.000  0.000  0.300
atom    4   Tr[ns(na)] =   3.00000
    eigenvalues:
  0.300  0.300  0.300  0.300  0.300
    eigenvectors:
  1.000  0.000  0.000  0.000  0.000
  0.000  1.000  0.000  0.000  0.000
  0.000  0.000  1.000  0.000  0.000
  0.000  0.000  0.000  1.000  0.000
  0.000  0.000  0.000  0.000  1.000
    occupations:
  0.300  0.000  0.000  0.000  0.000
  0.000  0.300  0.000  0.000  0.000
  0.000  0.000  0.300  0.000  0.000
  0.000  0.000  0.000  0.300  0.000
  0.000  0.000  0.000  0.000  0.300
atom    9   Tr[ns(na)] =   3.00000
    eigenvalues:
  0.300  0.300  0.300  0.300  0.300
    eigenvectors:
  1.000  0.000  0.000  0.000  0.000
  0.000  1.000  0.000  0.000  0.000
  0.000  0.000  1.000  0.000  0.000
  0.000  0.000  0.000  1.000  0.000
  0.000  0.000  0.000  0.000  1.000
    occupations:
  0.300  0.000  0.000  0.000  0.000
  0.000  0.300  0.000  0.000  0.000
  0.000  0.000  0.300  0.000  0.000
  0.000  0.000  0.000  0.300  0.000
  0.000  0.000  0.000  0.000  0.300
atom   10   Tr[ns(na)] =   3.00000
    eigenvalues:
  0.300  0.300  0.300  0.300  0.300
    eigenvectors:
  1.000  0.000  0.000  0.000  0.000
  0.000  1.000  0.000  0.000  0.000
  0.000  0.000  1.000  0.000  0.000
  0.000  0.000  0.000  1.000  0.000
  0.000  0.000  0.000  0.000  1.000
    occupations:
  0.300  0.000  0.000  0.000  0.000
  0.000  0.300  0.000  0.000  0.000
  0.000  0.000  0.300  0.000  0.000
  0.000  0.000  0.000  0.300  0.000
  0.000  0.000  0.000  0.000  0.300
atom   16   Tr[ns(na)] =   3.00000
    eigenvalues:
  0.300  0.300  0.300  0.300  0.300
    eigenvectors:
  1.000  0.000  0.000  0.000  0.000
  0.000  1.000  0.000  0.000  0.000
  0.000  0.000  1.000  0.000  0.000
  0.000  0.000  0.000  1.000  0.000
  0.000  0.000  0.000  0.000  1.000
    occupations:
  0.300  0.000  0.000  0.000  0.000
  0.000  0.300  0.000  0.000  0.000
  0.000  0.000  0.300  0.000  0.000
  0.000  0.000  0.000  0.300  0.000
  0.000  0.000  0.000  0.000  0.300
atom   17   Tr[ns(na)] =   3.00000
    eigenvalues:
  0.300  0.300  0.300  0.300  0.300
    eigenvectors:
  1.000  0.000  0.000  0.000  0.000
  0.000  1.000  0.000  0.000  0.000
  0.000  0.000  1.000  0.000  0.000
  0.000  0.000  0.000  1.000  0.000
  0.000  0.000  0.000  0.000  1.000
    occupations:
  0.300  0.000  0.000  0.000  0.000
  0.000  0.300  0.000  0.000  0.000
  0.000  0.000  0.300  0.000  0.000
  0.000  0.000  0.000  0.300  0.000
  0.000  0.000  0.000  0.000  0.300
atom   22   Tr[ns(na)] =   3.00000
    eigenvalues:
  0.300  0.300  0.300  0.300  0.300
    eigenvectors:
  1.000  0.000  0.000  0.000  0.000
  0.000  1.000  0.000  0.000  0.000
  0.000  0.000  1.000  0.000  0.000
  0.000  0.000  0.000  1.000  0.000
  0.000  0.000  0.000  0.000  1.000
    occupations:
  0.300  0.000  0.000  0.000  0.000
  0.000  0.300  0.000  0.000  0.000
  0.000  0.000  0.300  0.000  0.000
  0.000  0.000  0.000  0.300  0.000
[...]
  0.001  0.000  0.000  0.000  0.999
  0.000  0.000  1.000  0.000  0.000
    occupations:
  0.583  0.013 -0.000 -0.002  0.000
  0.013  0.349  0.000 -0.012  0.000
 -0.000  0.000  0.372 -0.000  0.001
 -0.002 -0.012 -0.000  0.737  0.000
  0.000  0.000  0.001  0.000  0.550
atom    9   Tr[ns(na)] =   5.27406
    eigenvalues:
  0.446  0.461  0.491  0.618  0.620
    eigenvectors:
  0.883  0.000  0.000  0.117  0.000
  0.000  0.000  0.000  0.000  1.000
  0.000  0.000  1.000  0.000  0.000
  0.117  0.000  0.000  0.883  0.000
  0.000  1.000  0.000  0.000  0.000
    occupations:
  0.466 -0.000 -0.000  0.055  0.000
 -0.000  0.620  0.000 -0.000 -0.000
 -0.000  0.000  0.491  0.000  0.000
  0.055 -0.000  0.000  0.598 -0.000
  0.000 -0.000  0.000 -0.000  0.461
atom   10   Tr[ns(na)] =   5.09699
    eigenvalues:
  0.339  0.467  0.484  0.511  0.748
    eigenvectors:
  0.000  0.000  0.996  0.000  0.004
  0.000  1.000  0.000  0.000  0.000
  1.000  0.000  0.000  0.000  0.000
  0.000  0.000  0.004  0.000  0.996
  0.000  0.000  0.000  1.000  0.000
    occupations:
  0.484  0.000  0.000 -0.016 -0.000
  0.000  0.467 -0.000  0.000  0.000
  0.000 -0.000  0.339 -0.000  0.000
 -0.016  0.000 -0.000  0.747 -0.000
 -0.000  0.000  0.000 -0.000  0.511
atom   16   Tr[ns(na)] =   5.12122
    eigenvalues:
  0.343  0.356  0.510  0.586  0.766
    eigenvectors:
  0.000  0.000  0.000  0.354  0.646
  0.000  0.000  1.000  0.000  0.000
  0.017  0.983  0.000  0.000  0.000
  0.000  0.000  0.000  0.646  0.354
  0.983  0.017  0.000  0.000  0.000
    occupations:
  0.702  0.000  0.001 -0.086  0.000
  0.000  0.510  0.000 -0.000  0.000
  0.001  0.000  0.356 -0.000 -0.002
 -0.086 -0.000 -0.000  0.650 -0.000
  0.000  0.000 -0.002 -0.000  0.343
atom   17   Tr[ns(na)] =   5.18467
    eigenvalues:
  0.348  0.372  0.550  0.584  0.738
    eigenvectors:
  0.003  0.000  0.000  0.997  0.000
  0.996  0.000  0.000  0.003  0.001
  0.000  1.000  0.000  0.000  0.000
  0.001  0.000  0.000  0.000  0.999
  0.000  0.000  1.000  0.000  0.000
    occupations:
  0.583  0.013 -0.000 -0.002  0.000
  0.013  0.349  0.000 -0.012 -0.000
 -0.000  0.000  0.372 -0.000  0.001
 -0.002 -0.012 -0.000  0.737  0.000
  0.000 -0.000  0.001  0.000  0.550
atom   22   Tr[ns(na)] =   5.27406
    eigenvalues:
  0.446  0.461  0.491  0.618  0.620
    eigenvectors:
  0.883  0.000  0.000  0.117  0.000
  0.000  0.000  0.000  0.000  1.000
  0.000  0.000  1.000  0.000  0.000
  0.117  0.000  0.000  0.883  0.000
  0.000  1.000  0.000  0.000  0.000
    occupations:
  0.466 -0.000 -0.000  0.055  0.000
 -0.000  0.620  0.000 -0.000 -0.000
 -0.000  0.000  0.491  0.000  0.000
  0.055 -0.000  0.000  0.598 -0.000
  0.000 -0.000  0.000 -0.000  0.461
atom   23   Tr[ns(na)] =   5.09707
    eigenvalues:
  0.339  0.467  0.484  0.511  0.748
    eigenvectors:
  0.000  0.000  0.996  0.000  0.004
  0.000  1.000  0.000  0.000  0.000
  1.000  0.000  0.000  0.000  0.000
  0.000  0.000  0.004  0.000  0.996
  0.000  0.000  0.000  1.000  0.000
    occupations:
  0.484  0.000 -0.000 -0.016 -0.000
  0.000  0.467 -0.000  0.000  0.000
 -0.000 -0.000  0.339 -0.000  0.000
 -0.016  0.000 -0.000  0.747 -0.000
 -0.000  0.000  0.000 -0.000  0.511
N of occupied +U levels =  41.3540339
 --- exit write_ns ---

     Threshold (ethr) on eigenvalues was too large:
     Diagonalizing with lowered threshold

     Davidson diagonalization with overlap
     ethr =  3.52E-09,  avg # of iterations =  2.4

[...]

     total energy              =   -1526.69141375 Ry
     Harris-Foulkes estimate   =   -1526.69141375 Ry
     estimated scf accuracy    <       0.00000001 Ry

     iteration # 10     ecut=    40.00 Ry     beta=0.70
     Davidson diagonalization with overlap
     ethr =  5.46E-12,  avg # of iterations =  1.0

     negative rho (up, down):  0.363E-02 0.000E+00

     End of self-consistent calculation
 --- enter write_ns ---
 LDA+U parameters:
U( 2)     =  5.00000000
alpha( 2) =  0.00000000
atom    3   Tr[ns(na)] =   5.12154
    eigenvalues:
  0.343  0.356  0.510  0.586  0.766
    eigenvectors:
  0.000  0.000  0.000  0.354  0.645
  0.000  0.000  1.000  0.000  0.000
  0.019  0.981  0.000  0.000  0.000
  0.000  0.000  0.000  0.646  0.354
  0.981  0.019  0.000  0.000  0.000
    occupations:
  0.702  0.000  0.001 -0.086 -0.000
  0.000  0.510 -0.000 -0.000  0.000
  0.001 -0.000  0.356 -0.000 -0.002
 -0.086 -0.000 -0.000  0.650  0.000
 -0.000  0.000 -0.002  0.000  0.343
atom    4   Tr[ns(na)] =   5.18540
    eigenvalues:
  0.348  0.372  0.550  0.584  0.738
    eigenvectors:
  0.003  0.000  0.000  0.997  0.000
  0.996  0.000  0.000  0.003  0.001
  0.000  1.000  0.000  0.000  0.000
  0.001  0.000  0.000  0.000  0.999
  0.000  0.000  1.000  0.000  0.000
    occupations:
  0.583  0.013 -0.000 -0.002  0.000
  0.013  0.349  0.000 -0.012  0.000
 -0.000  0.000  0.372 -0.000  0.001
 -0.002 -0.012 -0.000  0.738  0.000
  0.000  0.000  0.001  0.000  0.550
atom    9   Tr[ns(na)] =   5.27337
    eigenvalues:
  0.446  0.461  0.491  0.618  0.620
    eigenvectors:
  0.883  0.000  0.000  0.117  0.000
  0.000  0.000  0.000  0.000  1.000
  0.000  0.000  1.000  0.000  0.000
  0.117  0.000  0.000  0.883  0.000
  0.000  1.000  0.000  0.000  0.000
    occupations:
  0.466 -0.000 -0.000  0.055  0.000
 -0.000  0.620  0.000 -0.000 -0.000
 -0.000  0.000  0.491  0.000  0.000
  0.055 -0.000  0.000  0.598 -0.000
  0.000 -0.000  0.000 -0.000  0.461
atom   10   Tr[ns(na)] =   5.09662
    eigenvalues:
  0.339  0.467  0.484  0.511  0.748
    eigenvectors:
  0.000  0.000  0.996  0.000  0.004
  0.000  1.000  0.000  0.000  0.000
  1.000  0.000  0.000  0.000  0.000
  0.000  0.000  0.004  0.000  0.996
  0.000  0.000  0.000  1.000  0.000
    occupations:
  0.484  0.000  0.000 -0.016 -0.000
  0.000  0.467 -0.000  0.000  0.000
  0.000 -0.000  0.339 -0.000  0.000
 -0.016  0.000 -0.000  0.747 -0.000
 -0.000  0.000  0.000 -0.000  0.511
atom   16   Tr[ns(na)] =   5.12154
    eigenvalues:
  0.343  0.356  0.510  0.586  0.766
    eigenvectors:
  0.000  0.000  0.000  0.354  0.645
  0.000  0.000  1.000  0.000  0.000
  0.018  0.982  0.000  0.000  0.000
  0.000  0.000  0.000  0.646  0.354
  0.982  0.018  0.000  0.000  0.000
    occupations:
  0.702  0.000  0.001 -0.086  0.000
  0.000  0.510  0.000 -0.000  0.000
  0.001  0.000  0.356 -0.000 -0.002
 -0.086 -0.000 -0.000  0.650 -0.000
  0.000  0.000 -0.002 -0.000  0.343
atom   17   Tr[ns(na)] =   5.18534
    eigenvalues:
  0.348  0.372  0.550  0.584  0.738
    eigenvectors:
  0.003  0.000  0.000  0.997  0.000
  0.996  0.000  0.000  0.003  0.001
  0.000  1.000  0.000  0.000  0.000
  0.001  0.000  0.000  0.000  0.999
  0.000  0.000  1.000  0.000  0.000
    occupations:
  0.583  0.013 -0.000 -0.002  0.000
  0.013  0.349  0.000 -0.012 -0.000
 -0.000  0.000  0.372 -0.000  0.001
 -0.002 -0.012 -0.000  0.738  0.000
  0.000 -0.000  0.001  0.000  0.550
atom   22   Tr[ns(na)] =   5.27337
    eigenvalues:
  0.446  0.461  0.491  0.618  0.620
    eigenvectors:
  0.883  0.000  0.000  0.117  0.000
  0.000  0.000  0.000  0.000  1.000
  0.000  0.000  1.000  0.000  0.000
  0.117  0.000  0.000  0.883  0.000
  0.000  1.000  0.000  0.000  0.000
    occupations:
  0.466 -0.000 -0.000  0.055  0.000
 -0.000  0.620  0.000 -0.000 -0.000
 -0.000  0.000  0.491  0.000  0.000
  0.055 -0.000  0.000  0.598 -0.000
  0.000 -0.000  0.000 -0.000  0.461
atom   23   Tr[ns(na)] =   5.09660
    eigenvalues:
  0.339  0.467  0.484  0.511  0.748
    eigenvectors:
  0.000  0.000  0.996  0.000  0.004
  0.000  1.000  0.000  0.000  0.000
  1.000  0.000  0.000  0.000  0.000
  0.000  0.000  0.004  0.000  0.996
  0.000  0.000  0.000  1.000  0.000
    occupations:
  0.484  0.000 -0.000 -0.016 -0.000
  0.000  0.467 -0.000  0.000  0.000
 -0.000 -0.000  0.339 -0.000  0.000
 -0.016  0.000 -0.000  0.747 -0.000
 -0.000  0.000  0.000 -0.000  0.511
N of occupied +U levels =  41.3537799
 --- exit write_ns ---

[...]

          k = 0.2500-0.4237 0.0000 ( 32188 PWs)   bands (ev):

[...]

          k =-0.2500 0.2118 0.0000 ( 32165 PWs)   bands (ev):

   -56.2647 -56.1971 -56.0049 -55.9477 -55.6957 -55.6367 -55.4869 -55.4298
   -33.0608 -32.4718 -32.4351 -32.3847 -32.3422 -32.3244 -32.3127 -32.2809
   -32.2668 -32.1790 -32.1456 -32.0985 -32.0864 -32.0528 -31.9075 -31.7886
   -31.7343 -31.6350 -31.6048 -31.4625 -31.4574 -31.4564 -31.3301 -31.0658
   -20.5040 -20.3673 -19.3178 -19.1201 -18.8958 -18.8348 -18.8123 -18.7834
   -18.7670 -18.6033 -18.5956 -18.5579 -18.0444 -17.9510 -17.9450 -17.9179
   -17.8630 -17.7467  -9.1098  -8.6920  -7.4372  -7.1111  -6.9491  -6.7234
    -6.4924  -6.4155  -6.3632  -6.2730  -6.2241  -6.1593  -6.1263  -5.8764
    -5.8737  -5.7939  -5.6269  -5.4540  -5.4413  -5.2645  -5.0203  -4.9696
    -4.9332  -4.8924  -4.7891  -4.5021  -4.3855  -4.3181  -4.2767  -4.2247
    -4.1734  -4.1079  -3.9096  -3.9013  -3.8707  -3.8136  -3.7683  -3.7480
    -3.5139  -3.4744  -3.4430  -3.3603  -3.3159  -3.2580  -3.1415  -3.1042
    -2.9746  -2.9539  -2.8054  -2.6836  -2.6181  -2.5278  -2.4628  -2.1614
    -1.1765  -0.1093   0.0108   1.0931   1.3466   1.5749   1.6936   1.7502
     1.8402   1.9187   2.0650   2.1757   2.3045   2.4882   2.5003   2.5295
     2.6068   2.6744   2.8096   2.9149   2.9581   2.9624   3.1147   3.1846
     3.2843   3.3971   3.7429   4.2183   4.4149   4.5476   4.6693   4.7477
     4.9027   4.9774   5.0188   5.1534   5.2592   5.3604   5.3986   5.6217
     5.7477   5.8543   5.8784   5.9720   6.2078   6.2856   6.3978   6.4975
     6.5226   6.5350   6.6081   6.7817   6.9168   6.9535   7.1645   7.2423
     7.3099   7.5101   7.7245   7.8014   7.9169   7.9495   8.1376   8.1647
     8.2497   8.3180   8.4493   8.6366   8.7173   8.8524   8.9998   9.0879
     9.1061   9.2420   9.3317   9.4069   9.5538   9.5911   9.6679   9.7781
     9.8667   9.9874   9.9906  10.1784  10.2191  10.4141  10.4449  10.6255
    10.7073  10.7749  10.9532  10.9581  11.0207  11.0864  11.1645  11.1989
    11.2819  11.4124  11.4624  11.4717  11.5481  11.5780  11.7589  11.8897
    11.9186  12.0497  12.0884  12.1756  12.2391  12.2973  12.4330  12.4921
    12.6466  12.6847  12.7362  12.7790  12.8564  12.8940  12.9506  12.9734
    13.0414  13.1075  13.1601  13.2843  13.3169  13.4300  13.4842  13.5132
    13.6021  13.7060  13.7753  13.8964  13.9450  13.9620  13.9844  14.0821
    14.1187  14.2880  14.3418  14.4132  14.4867  14.6159  14.6164  14.8577
    14.8990  14.9194  15.0508  15.1391  15.2064  15.2685  15.2823  15.3811
    15.4011  15.4069  15.5261  15.5276  15.5936  15.7292  15.8001  15.8211
    15.8350  15.9060  16.0389  16.0409  16.0798  16.2720  16.2725  16.4034
    16.4680  16.5835  16.6207  16.6528  16.7400  16.7547  16.7899  16.8879
    16.9568  17.0120  17.0518  17.2487  17.2880  17.2919  17.4050  17.4370
    17.4996  17.5678  17.6348  17.7048  17.7456  17.8562  17.8732  17.9937
    18.0464  18.0577  18.1159  18.2643  18.3398  18.4451  18.4999  18.6096
    18.6451  18.7293  18.7354  18.8000  18.8877  18.9290  18.9401  19.0496
    19.1642  19.2056  19.2883  19.3008  19.3669  19.3891  19.4193  19.5215
    19.5491  19.6054  19.6602  19.7237

     the Fermi energy is     1.0435 ev

!    total energy              =   -1526.69141375 Ry
     Harris-Foulkes estimate   =   -1526.69141375 Ry
     estimated scf accuracy    <          4.9E-09 Ry

     The total energy is the sum of the following terms:

     one-electron contribution =  -18252.11156089 Ry
     hartree contribution      =    9152.92333627 Ry
     xc contribution           =    -279.74773088 Ry
     ewald contribution        =    7848.82826312 Ry
     Hubbard energy            =       3.41723379 Ry
     smearing contrib. (-TS)   =      -0.00095515 Ry

     convergence has been achieved in  10 iterations

     Forces acting on atoms (Ry/au):

     negative rho (up, down):  0.363E-02 0.000E+00
     atom    1 type  1   force =     0.00112810   -0.00036830    0.00046388
     atom    2 type  1   force =    -0.00017706    0.00050521   -0.00088837
     atom    3 type  2   force =     0.00050286   -0.00027157   -0.00015605
     atom    4 type  2   force =    -0.00343439    0.00014496   -0.00006645
     atom    5 type  1   force =     0.00049600   -0.04204548   -0.00030819
     atom    6 type  1   force =     0.00056277    0.04199328   -0.00028284
     atom    7 type  1   force =    -0.00015394    0.00004383   -0.00030401
     atom    8 type  1   force =     0.00118459    0.00000338    0.00081829
     atom    9 type  2   force =    -0.00003598   -0.00000197    0.00042016
     atom   10 type  2   force =     0.00005051   -0.00000738   -0.00033697
     atom   11 type  1   force =    -0.00001188   -0.03230230   -0.00016845
     atom   12 type  1   force =    -0.00001134    0.03230099   -0.00016558
     atom   13 type  1   force =     0.00022239    0.00000157    0.00017577
     atom   14 type  1   force =     0.00113123   -0.00035518    0.00047483
     atom   15 type  1   force =    -0.00017282    0.00044745    0.00090421
     atom   16 type  2   force =     0.00035873   -0.00027352   -0.00015631
     atom   17 type  2   force =    -0.00343909    0.00014229   -0.00007269
     atom   18 type  1   force =     0.00049204   -0.04204357   -0.00030846
     atom   19 type  1   force =     0.00054201    0.04199258   -0.00028233
     atom   20 type  1   force =    -0.00015357    0.00003275   -0.00028220
     atom   21 type  1   force =     0.00118466    0.00000286    0.00079987
     atom   22 type  2   force =    -0.00003608   -0.00000190    0.00042010
     atom   23 type  2   force =     0.00005026   -0.00000906   -0.00036095
     atom   24 type  1   force =    -0.00001429   -0.03230228   -0.00016841
     atom   25 type  1   force =    -0.00001509    0.03230107   -0.00016556
     atom   26 type  1   force =     0.00022245    0.00000146    0.00018097
     atom   27 type  3   force =     0.00000501   -0.00021614    0.00094066
     atom   28 type  3   force =     0.00000080   -0.00019107   -0.00067983
     atom   29 type  3   force =    -0.00023731    0.00023938   -0.00022340
     atom   30 type  3   force =    -0.00024157    0.00023666   -0.00022170

     Total force =     0.002543     Total SCF correction =     0.000276
     SCF correction compared to forces is large: reduce conv_thr to get better values

     bfgs converged in  11 scf cycles and  10 bfgs steps
     (criteria: energy < 0.10E-03, force < 0.10E-02)

     End of BFGS Geometry Optimization

     Final energy   =   -1526.6914137474 Ry
Begin final coordinates

ATOMIC_POSITIONS (crystal)
O0       0.000000000   0.000000000   0.374161813    0   0   1
O0       0.000000000   0.500000000   0.384726789    0   0   1
Nb1      0.250000000   0.500000000   0.439931442    0   0   1
Nb1      0.000000000   0.000000000   0.447179953    0   0   1
O0       0.250000000   0.790000000   0.448247838    0   0   1
O0       0.250000000   0.210000000   0.448234162    0   0   1
O0       0.000000000   0.500000000   0.497139359    0   0   1
O0       0.000000000   0.000000000   0.526940532    0   0   1
Nb1      0.250000000   0.000000000   0.581169764    0   0   1
Nb1      0.000000000   0.500000000   0.567094143    0   0   1
O0       0.250000000   0.710000000   0.582026481    0   0   1
O0       0.250000000   0.290000000   0.582026404    0   0   1
O0       0.000000000   0.000000000   0.625579823    0   0   1
O0       0.500000000   0.000000000   0.374161397    0   0   1
O0       0.500000000   0.500000000   0.384711382    0   0   1
Nb1      0.750000000   0.500000000   0.439931467    0   0   1
Nb1      0.500000000   0.000000000   0.447179604    0   0   1
O0       0.750000000   0.790000000   0.448247334    0   0   1
O0       0.750000000   0.210000000   0.448233962    0   0   1
O0       0.500000000   0.500000000   0.497140185    0   0   1
O0       0.500000000   0.000000000   0.526941689    0   0   1
Nb1      0.750000000   0.000000000   0.581169763    0   0   1
Nb1      0.500000000   0.500000000   0.567095050    0   0   1
O0       0.750000000   0.710000000   0.582026470    0   0   1
O0       0.750000000   0.290000000   0.582026409    0   0   1
O0       0.500000000   0.000000000   0.625579583    0   0   1
H2      -0.000419731   0.502490495   0.348495028
H2       0.499580601   0.502248682   0.348509410
H2       0.152365634  -0.000578976   0.359291561
H2       0.652366018  -0.000586592   0.359291202
End final coordinates

     General routines

     Parallel routines
     Hubbard U routines

   This run was terminated on:  13:42:14   9May2014

   JOB DONE.
Running PBS batch system epilogue script
Job id: 340852.audhumbla.fysik.dtu.dk
Username: zhonxu
Groupname: campgst
Jobname: NbO2/Eads-2-layers/bare-U-5.0
Sessionid: 7110
Queuename: verylong
Accounting:
This job has allocated the following 16 nodes:
a118 a118 a118 a118 a118 a118 a118 a118 a107 a107 a107 a107 a107 a107 a107 a107
Finished epilogue job 340852.audhumbla.fysik.dtu.dk for zhonxu