     Program PWSCF v.5.0.2 (svn rev. 9656) starts on 24Jan2014 at 14:51:51

     Current dimensions of program PWSCF are:
     Max number of different atomic species (ntypx) = 10
     Max number of k-points (npk) =  40000
     Max angular momentum in pseudopotentials (lmaxx) =  3
     Reading input from ReO2-v-1.10.in

     Subspace diagonalization in iterative solution of the eigenvalue problem:
     a serial algorithm will be used

     bravais-lattice index     =            0
     lattice parameter (alat)  =       9.0625  a.u.
     unit-cell volume          =     479.6628 (a.u.)^3
     number of atoms/cell      =            6
     number of atomic types    =            2
     number of electrons       =        54.00
     number of Kohn-Sham states=           81
     kinetic-energy cutoff     =      40.0000  Ry
     charge density cutoff     =     500.0000  Ry
     convergence threshold     =      1.0E-06
     mixing beta               =       0.3000
     number of iterations used =            8  plain     mixing
     Exchange-correlation      = SLA  PW   PBE  PBE ( 1 4 3 4 0)
     EXX-fraction              =        0.00
     nstep                     =           50

     celldm(1)=   9.062545  celldm(2)=   0.000000  celldm(3)=   0.000000
     celldm(4)=   0.000000  celldm(5)=   0.000000  celldm(6)=   0.000000

     crystal axes: (cart. coord. in units of alat)
               a(1) = (   1.000000   0.000000   0.000000 )
               a(2) = (   0.000000   1.000000   0.000000 )
               a(3) = (   0.000000   0.000000   0.644444 )

     reciprocal axes: (cart. coord. in units 2 pi/alat)
               b(1) = (  1.000000  0.000000  0.000000 )
               b(2) = (  0.000000  1.000000  0.000000 )
               b(3) = (  0.000000  0.000000  1.551724 )

     PseudoPot. # 1 for Re read from file:
     /home/camp/zhonxu/pseudo/re_pbe_v1.uspp.F.UPF
     MD5 check sum: 6f5a5dcaf9c96c20d0ffdde0de57afc6
     Pseudo is Ultrasoft + core correction, Zval = 15.0
     Generated by new atomic code, or converted to UPF format
     Using radial grid of  981 points,  8 beta functions with:
                l(1) =   0
                l(2) =   0
                l(3) =   1
                l(4) =   1
                l(5) =   2
                l(6) =   2
                l(7) =   3
                l(8) =   3
     Q(r) pseudized with  8 coefficients,  rinner =    1.000   1.000   1.000
                                                       1.000   1.000   1.000
                                                       1.000

     PseudoPot. # 2 for O  read from file:
     /home/camp/zhonxu/pseudo/o_pbe_v1.01.uspp.F.UPF
     MD5 check sum: 2bcb18d16ea4b960afae9ec6d52f22d2
     Pseudo is Ultrasoft + core correction, Zval =  6.0
     Generated by new atomic code, or converted to UPF format
     Using radial grid of  737 points,  5 beta functions with:
                l(1) =   0
                l(2) =   0
                l(3) =   1
                l(4) =   1
                l(5) =   2
     Q(r) pseudized with  8 coefficients,  rinner =    0.900   0.900   0.900
                                                       0.900   0.900

     atomic species   valence    mass     pseudopotential
        Re0           15.00   186.20700     Re( 1.00)
        O1             6.00    15.99940     O ( 1.00)

     Starting magnetic structure
     atomic species   magnetization
        Re0          0.000
        O1           0.000

      8 Sym. Ops., with inversion, found
          (note:  8 additional sym.ops. were found but ignored
           their fractional translations are incommensurate with FFT grid)

   Cartesian axes

     site n.     atom                  positions (alat units)
         1           Re0 tau(   1) = (   0.0000000   0.0000000   0.0000000  )
         2           Re0 tau(   2) = (   0.5000000   0.5000000   0.3222222  )
         3           O1  tau(   3) = (   0.3050000   0.3050000   0.0000000  )
         4           O1  tau(   4) = (  -0.3050000  -0.3050000   0.0000000  )
         5           O1  tau(   5) = (   0.8050000   0.1950000   0.3222222  )
         6           O1  tau(   6) = (   0.1950000   0.8050000   0.3222222  )

     number of k points=    54  Methfessel-Paxton smearing, width (Ry)=  0.0100
                       cart. coord. in units 2pi/alat
        k(    1) = (   0.0000000   0.0000000   0.0000000), wk =   0.0080000
        k(    2) = (   0.0000000   0.0000000   0.3103448), wk =   0.0160000
        k(    3) = (   0.0000000   0.0000000   0.6206897), wk =   0.0160000
        k(    4) = (   0.0000000   0.2000000   0.0000000), wk =   0.0320000
        k(    5) = (   0.0000000   0.2000000   0.3103448), wk =   0.0640000
        k(    6) = (   0.0000000   0.2000000   0.6206897), wk =   0.0640000
        k(    7) = (   0.0000000   0.4000000   0.0000000), wk =   0.0320000
        k(    8) = (   0.0000000   0.4000000   0.3103448), wk =   0.0640000
        k(    9) = (   0.0000000   0.4000000   0.6206897), wk =   0.0640000
        k(   10) = (   0.2000000   0.2000000   0.0000000), wk =   0.0160000
        k(   11) = (   0.2000000   0.2000000   0.3103448), wk =   0.0320000
        k(   12) = (   0.2000000   0.2000000   0.6206897), wk =   0.0320000
        k(   13) = (   0.2000000   0.4000000   0.0000000), wk =   0.0320000
        k(   14) = (   0.2000000   0.4000000   0.3103448), wk =   0.0640000
        k(   15) = (   0.2000000   0.4000000   0.6206897), wk =   0.0640000
        k(   16) = (   0.4000000   0.4000000   0.0000000), wk =   0.0160000
        k(   17) = (   0.4000000   0.4000000   0.3103448), wk =   0.0320000
        k(   18) = (   0.4000000   0.4000000   0.6206897), wk =   0.0320000
        k(   19) = (  -0.2000000   0.2000000   0.0000000), wk =   0.0160000
        k(   20) = (  -0.2000000   0.2000000  -0.3103448), wk =   0.0320000
        k(   21) = (  -0.2000000   0.2000000  -0.6206897), wk =   0.0320000
        k(   22) = (  -0.2000000   0.4000000   0.0000000), wk =   0.0320000
        k(   23) = (  -0.2000000   0.4000000  -0.3103448), wk =   0.0640000
        k(   24) = (  -0.2000000   0.4000000  -0.6206897), wk =   0.0640000
        k(   25) = (  -0.4000000   0.4000000   0.0000000), wk =   0.0160000
        k(   26) = (  -0.4000000   0.4000000  -0.3103448), wk =   0.0320000
        k(   27) = (  -0.4000000   0.4000000  -0.6206897), wk =   0.0320000
        k(   28) = (   0.0000000   0.0000000   0.0000000), wk =   0.0080000
        k(   29) = (   0.0000000   0.0000000   0.3103448), wk =   0.0160000
        k(   30) = (   0.0000000   0.0000000   0.6206897), wk =   0.0160000
        k(   31) = (   0.0000000   0.2000000   0.0000000), wk =   0.0320000
        k(   32) = (   0.0000000   0.2000000   0.3103448), wk =   0.0640000
        k(   33) = (   0.0000000   0.2000000   0.6206897), wk =   0.0640000
        k(   34) = (   0.0000000   0.4000000   0.0000000), wk =   0.0320000
        k(   35) = (   0.0000000   0.4000000   0.3103448), wk =   0.0640000
        k(   36) = (   0.0000000   0.4000000   0.6206897), wk =   0.0640000
        k(   37) = (   0.2000000   0.2000000   0.0000000), wk =   0.0160000
        k(   38) = (   0.2000000   0.2000000   0.3103448), wk =   0.0320000
        k(   39) = (   0.2000000   0.2000000   0.6206897), wk =   0.0320000
        k(   40) = (   0.2000000   0.4000000   0.0000000), wk =   0.0320000
        k(   41) = (   0.2000000   0.4000000   0.3103448), wk =   0.0640000
        k(   42) = (   0.2000000   0.4000000   0.6206897), wk =   0.0640000
        k(   43) = (   0.4000000   0.4000000   0.0000000), wk =   0.0160000
        k(   44) = (   0.4000000   0.4000000   0.3103448), wk =   0.0320000
        k(   45) = (   0.4000000   0.4000000   0.6206897), wk =   0.0320000
        k(   46) = (  -0.2000000   0.2000000   0.0000000), wk =   0.0160000
        k(   47) = (  -0.2000000   0.2000000  -0.3103448), wk =   0.0320000
        k(   48) = (  -0.2000000   0.2000000  -0.6206897), wk =   0.0320000
        k(   49) = (  -0.2000000   0.4000000   0.0000000), wk =   0.0320000
        k(   50) = (  -0.2000000   0.4000000  -0.3103448), wk =   0.0640000
        k(   51) = (  -0.2000000   0.4000000  -0.6206897), wk =   0.0640000
        k(   52) = (  -0.4000000   0.4000000   0.0000000), wk =   0.0160000
        k(   53) = (  -0.4000000   0.4000000  -0.3103448), wk =   0.0320000
        k(   54) = (  -0.4000000   0.4000000  -0.6206897), wk =   0.0320000

     Largest allocated arrays     est. size (Mb)     dimensions
     Largest temporary arrays     est. size (Mb)     dimensions

     Check: negative/imaginary core charge=   -0.000004    0.000000

     Initial potential from superposition of free atoms
     Check: negative starting charge=(component1):   -0.029899
     Check: negative starting charge=(component2):   -0.029899

     starting charge   52.99990, renormalised to   54.00000

     negative rho (up, down):  0.305E-01 0.305E-01
     Starting wfc are   42 randomized atomic wfcs

     Self-consistent Calculation

     iteration #  1     ecut=    40.00 Ry     beta=0.30
     Davidson diagonalization with overlap
     ethr =  1.00E-02,  avg # of iterations =  5.3

     negative rho (up, down):  0.322E-01 0.322E-01

     total energy              =    -518.19456493 Ry
     Harris-Foulkes estimate   =    -518.75574775 Ry
     estimated scf accuracy    <       1.24989804 Ry

     total magnetization       =     0.00 Bohr mag/cell
     absolute magnetization    =     0.00 Bohr mag/cell

[...]

     End of self-consistent calculation

 ------ SPIN UP ------------

          k = 0.0000 0.0000 0.0000 (  2023 PWs)   bands (ev):

   -68.1578 -68.1558 -29.9798 -29.9798 -29.9784 -29.9605 -29.9106 -29.9106
    -7.8491  -6.8864  -6.0120  -6.0119   3.7768   4.2618   5.6155   5.9313
     5.9314   7.8647   7.8647   8.3259   9.3641   9.6462   9.6463  10.1992
    11.7269  11.7423  12.4922  12.6050  12.6050  15.1671  15.4725  16.2702
    18.2554  18.2554  19.5362  21.0071  21.0071  24.2618  24.7447  25.1253
    27.7448  28.0411  28.0411  28.5647  30.1416  31.3624  32.3086  32.3086
    33.3273  33.3274  34.5855  37.4787  37.9883  37.9883  38.2378  39.5335
    40.1628  40.4534  40.8153  41.2140  41.2141  41.8638  41.8638  42.0663
    42.9725  42.9725  43.0670  44.4573  46.0786  47.8405  47.8405  48.9473
    49.0735  49.2515  49.2515  49.6354  50.5523  50.5524  50.6381  50.9546
    51.2374

[...]

          k =-0.2000 0.2000 0.0000 (  2047 PWs)   bands (ev):

[...]

 ------ SPIN DOWN ----------

[...]

     the Fermi energy is    13.2375 ev

!    total energy              =    -518.45932320 Ry
     Harris-Foulkes estimate   =    -518.45932097 Ry
     estimated scf accuracy    <       0.00000001 Ry

     The total energy is the sum of the following terms:

     one-electron contribution =    -134.70933714 Ry
     hartree contribution      =      95.06544333 Ry
     xc contribution           =    -142.23013733 Ry
     ewald contribution        =    -336.58491921 Ry
     smearing contrib. (-TS)   =      -0.00037285 Ry

[...]

     convergence has been achieved in  10 iterations

     Forces acting on atoms (Ry/au):

     negative rho (up, down):  0.298E-01 0.298E-01
[...]
        k(   14) = (   0.1894782   0.3789724   0.3457300), wk =   0.0640000
        k(   15) = (   0.1894782   0.3789724   0.6914601), wk =   0.0640000
        k(   16) = (   0.3789671   0.3789671   0.0000000), wk =   0.0160000
        k(   17) = (   0.3789671   0.3789671   0.3457300), wk =   0.0320000
        k(   18) = (   0.3789671   0.3789671   0.6914601), wk =   0.0320000
        k(   19) = (  -0.1894942   0.1894942   0.0000000), wk =   0.0160000
        k(   20) = (  -0.1894942   0.1894942  -0.3457300), wk =   0.0320000
        k(   21) = (  -0.1894942   0.1894942  -0.6914601), wk =   0.0320000
        k(   22) = (  -0.1894995   0.3789830   0.0000000), wk =   0.0320000
        k(   23) = (  -0.1894995   0.3789830  -0.3457300), wk =   0.0640000
        k(   24) = (  -0.1894995   0.3789830  -0.6914601), wk =   0.0640000
        k(   25) = (  -0.3789884   0.3789884   0.0000000), wk =   0.0160000
        k(   26) = (  -0.3789884   0.3789884  -0.3457300), wk =   0.0320000
        k(   27) = (  -0.3789884   0.3789884  -0.6914601), wk =   0.0320000
        k(   28) = (   0.0000000   0.0000000   0.0000000), wk =   0.0080000
        k(   29) = (   0.0000000   0.0000000   0.3457300), wk =   0.0160000
        k(   30) = (   0.0000000   0.0000000   0.6914601), wk =   0.0160000
        k(   31) = (  -0.0000053   0.1894889   0.0000000), wk =   0.0320000
        k(   32) = (  -0.0000053   0.1894889   0.3457300), wk =   0.0640000
        k(   33) = (  -0.0000053   0.1894889   0.6914601), wk =   0.0640000
        k(   34) = (  -0.0000106   0.3789777   0.0000000), wk =   0.0320000
        k(   35) = (  -0.0000106   0.3789777   0.3457300), wk =   0.0640000
        k(   36) = (  -0.0000106   0.3789777   0.6914601), wk =   0.0640000
        k(   37) = (   0.1894836   0.1894836   0.0000000), wk =   0.0160000
        k(   38) = (   0.1894836   0.1894836   0.3457300), wk =   0.0320000
        k(   39) = (   0.1894836   0.1894836   0.6914601), wk =   0.0320000
        k(   40) = (   0.1894782   0.3789724   0.0000000), wk =   0.0320000
        k(   41) = (   0.1894782   0.3789724   0.3457300), wk =   0.0640000
        k(   42) = (   0.1894782   0.3789724   0.6914601), wk =   0.0640000
        k(   43) = (   0.3789671   0.3789671   0.0000000), wk =   0.0160000
        k(   44) = (   0.3789671   0.3789671   0.3457300), wk =   0.0320000
        k(   45) = (   0.3789671   0.3789671   0.6914601), wk =   0.0320000
        k(   46) = (  -0.1894942   0.1894942   0.0000000), wk =   0.0160000
        k(   47) = (  -0.1894942   0.1894942  -0.3457300), wk =   0.0320000
        k(   48) = (  -0.1894942   0.1894942  -0.6914601), wk =   0.0320000
        k(   49) = (  -0.1894995   0.3789830   0.0000000), wk =   0.0320000
        k(   50) = (  -0.1894995   0.3789830  -0.3457300), wk =   0.0640000
        k(   51) = (  -0.1894995   0.3789830  -0.6914601), wk =   0.0640000
        k(   52) = (  -0.3789884   0.3789884   0.0000000), wk =   0.0160000
        k(   53) = (  -0.3789884   0.3789884  -0.3457300), wk =   0.0320000
        k(   54) = (  -0.3789884   0.3789884  -0.6914601), wk =   0.0320000

     Check: negative/imaginary core charge=   -0.000004    0.000000
     Check: negative starting charge=(component1):   -0.059472

[...]

     Threshold (ethr) on eigenvalues was too large:
     Diagonalizing with lowered threshold

     Davidson diagonalization with overlap
     ethr =  2.37E-08,  avg # of iterations =  1.3

[...]

     Total force =     0.000427     Total SCF correction =     0.000128
     SCF correction compared to forces is large: reduce conv_thr to get better values

[...]

     Volume is kept fixed: isostatic pressure set to zero

     bfgs converged in  11 scf cycles and  10 bfgs steps
     (criteria: energy < 0.10E-03, force < 0.10E-02, cell < 0.50E+00)

     End of BFGS Geometry Optimization

     Final enthalpy =    -518.5239785254 Ry
Begin final coordinates
     new unit-cell volume =    479.66285 a.u.^3 (    71.07870 Ang^3 )

CELL_PARAMETERS (alat=  9.06254549)
   1.055470983   0.000029604   0.000000000
   0.000029604   1.055470983   0.000000000
   0.000000000   0.000000000   0.578486047

ATOMIC_POSITIONS (crystal)
Re0      0.000000000   0.000000000   0.000000000    0   0   0
Re0      0.500000000   0.500000000   0.500000000    0   0   0
O1       0.282953088   0.282953088   0.000000000    1   1   0
O1      -0.282953088  -0.282953088   0.000000000    1   1   0
O1       0.782889048   0.217110952   0.500000000    1   1   0
O1       0.217110952   0.782889048   0.500000000    1   1   0
End final coordinates

     A final scf calculation at the relaxed structure.
     The G-vectors are recalculated for the final unit cell
     Results may differ from those at the preceding step.

     bravais-lattice index     =            0
     lattice parameter (alat)  =       9.0625  a.u.
     unit-cell volume          =     479.6628 (a.u.)^3
     number of atoms/cell      =            6
     number of atomic types    =            2
     number of electrons       =        54.00
     number of Kohn-Sham states=           81
     kinetic-energy cutoff     =      40.0000  Ry
     charge density cutoff     =     500.0000  Ry
     convergence threshold     =      1.7E-08
     mixing beta               =       0.3000
     number of iterations used =            8  plain     mixing
     Exchange-correlation      = SLA  PW   PBE  PBE ( 1 4 3 4 0)
     EXX-fraction              =        0.00

     celldm(1)=   9.062545  celldm(2)=   0.000000  celldm(3)=   0.000000
     celldm(4)=   0.000000  celldm(5)=   0.000000  celldm(6)=   0.000000

     crystal axes: (cart. coord. in units of alat)
               a(1) = (   1.055471   0.000030   0.000000 )
               a(2) = (   0.000030   1.055471   0.000000 )
               a(3) = (   0.000000   0.000000   0.578486 )

     reciprocal axes: (cart. coord. in units 2 pi/alat)
               b(1) = (  0.947444 -0.000027  0.000000 )
               b(2) = ( -0.000027  0.947444  0.000000 )
               b(3) = (  0.000000  0.000000  1.728650 )

     PseudoPot. # 1 for Re read from file:
     /home/camp/zhonxu/pseudo/re_pbe_v1.uspp.F.UPF
     MD5 check sum: 6f5a5dcaf9c96c20d0ffdde0de57afc6
     Pseudo is Ultrasoft + core correction, Zval = 15.0
     Generated by new atomic code, or converted to UPF format
     Using radial grid of  981 points,  8 beta functions with:
                l(1) =   0
                l(2) =   0
                l(3) =   1
                l(4) =   1
                l(5) =   2
                l(6) =   2
                l(7) =   3
                l(8) =   3
     Q(r) pseudized with  8 coefficients,  rinner =    1.000   1.000   1.000
                                                       1.000   1.000   1.000
                                                       1.000

     PseudoPot. # 2 for O  read from file:
     /home/camp/zhonxu/pseudo/o_pbe_v1.01.uspp.F.UPF
     MD5 check sum: 2bcb18d16ea4b960afae9ec6d52f22d2
     Pseudo is Ultrasoft + core correction, Zval =  6.0
     Generated by new atomic code, or converted to UPF format
     Using radial grid of  737 points,  5 beta functions with:
                l(1) =   0
                l(2) =   0
                l(3) =   1
                l(4) =   1
                l(5) =   2
     Q(r) pseudized with  8 coefficients,  rinner =    0.900   0.900   0.900
                                                       0.900   0.900

     atomic species   valence    mass     pseudopotential
        Re0           15.00   186.20700     Re( 1.00)
        O1             6.00    15.99940     O ( 1.00)

     Starting magnetic structure
     atomic species   magnetization
        Re0          0.000
        O1           0.000

      8 Sym. Ops., with inversion, found
          (note:  8 additional sym.ops. were found but ignored
           their fractional translations are incommensurate with FFT grid)

   Cartesian axes

     site n.     atom                  positions (alat units)
         1           Re0 tau(   1) = (   0.0000000   0.0000000   0.0000000  )
         2           Re0 tau(   2) = (   0.5277503   0.5277503   0.2892430  )
         3           O1  tau(   3) = (   0.2986572   0.2986572   0.0000000  )
         4           O1  tau(   4) = (  -0.2986572  -0.2986572   0.0000000  )
         5           O1  tau(   5) = (   0.8263231   0.2291775   0.2892430  )
         6           O1  tau(   6) = (   0.2291775   0.8263231   0.2892430  )

     number of k points=    54  Methfessel-Paxton smearing, width (Ry)=  0.0100
                       cart. coord. in units 2pi/alat
        k(    1) = (   0.0000000   0.0000000   0.0000000), wk =   0.0080000
        k(    2) = (   0.0000000   0.0000000   0.3457300), wk =   0.0160000
        k(    3) = (   0.0000000   0.0000000   0.6914601), wk =   0.0160000
        k(    4) = (  -0.0000053   0.1894889   0.0000000), wk =   0.0320000
        k(    5) = (  -0.0000053   0.1894889   0.3457300), wk =   0.0640000
        k(    6) = (  -0.0000053   0.1894889   0.6914601), wk =   0.0640000
        k(    7) = (  -0.0000106   0.3789777   0.0000000), wk =   0.0320000
        k(    8) = (  -0.0000106   0.3789777   0.3457300), wk =   0.0640000
        k(    9) = (  -0.0000106   0.3789777   0.6914601), wk =   0.0640000
        k(   10) = (   0.1894836   0.1894836   0.0000000), wk =   0.0160000
        k(   11) = (   0.1894836   0.1894836   0.3457300), wk =   0.0320000
        k(   12) = (   0.1894836   0.1894836   0.6914601), wk =   0.0320000
        k(   13) = (   0.1894782   0.3789724   0.0000000), wk =   0.0320000
        k(   14) = (   0.1894782   0.3789724   0.3457300), wk =   0.0640000
        k(   15) = (   0.1894782   0.3789724   0.6914601), wk =   0.0640000
        k(   16) = (   0.3789671   0.3789671   0.0000000), wk =   0.0160000
        k(   17) = (   0.3789671   0.3789671   0.3457300), wk =   0.0320000
        k(   18) = (   0.3789671   0.3789671   0.6914601), wk =   0.0320000
        k(   19) = (  -0.1894942   0.1894942   0.0000000), wk =   0.0160000
        k(   20) = (  -0.1894942   0.1894942  -0.3457300), wk =   0.0320000
        k(   21) = (  -0.1894942   0.1894942  -0.6914601), wk =   0.0320000
        k(   22) = (  -0.1894995   0.3789830   0.0000000), wk =   0.0320000
        k(   23) = (  -0.1894995   0.3789830  -0.3457300), wk =   0.0640000
        k(   24) = (  -0.1894995   0.3789830  -0.6914601), wk =   0.0640000
        k(   25) = (  -0.3789884   0.3789884   0.0000000), wk =   0.0160000
        k(   26) = (  -0.3789884   0.3789884  -0.3457300), wk =   0.0320000
        k(   27) = (  -0.3789884   0.3789884  -0.6914601), wk =   0.0320000
        k(   28) = (   0.0000000   0.0000000   0.0000000), wk =   0.0080000
        k(   29) = (   0.0000000   0.0000000   0.3457300), wk =   0.0160000
        k(   30) = (   0.0000000   0.0000000   0.6914601), wk =   0.0160000
        k(   31) = (  -0.0000053   0.1894889   0.0000000), wk =   0.0320000
        k(   32) = (  -0.0000053   0.1894889   0.3457300), wk =   0.0640000
        k(   33) = (  -0.0000053   0.1894889   0.6914601), wk =   0.0640000
        k(   34) = (  -0.0000106   0.3789777   0.0000000), wk =   0.0320000
        k(   35) = (  -0.0000106   0.3789777   0.3457300), wk =   0.0640000
        k(   36) = (  -0.0000106   0.3789777   0.6914601), wk =   0.0640000
        k(   37) = (   0.1894836   0.1894836   0.0000000), wk =   0.0160000
        k(   38) = (   0.1894836   0.1894836   0.3457300), wk =   0.0320000
        k(   39) = (   0.1894836   0.1894836   0.6914601), wk =   0.0320000
        k(   40) = (   0.1894782   0.3789724   0.0000000), wk =   0.0320000
        k(   41) = (   0.1894782   0.3789724   0.3457300), wk =   0.0640000
        k(   42) = (   0.1894782   0.3789724   0.6914601), wk =   0.0640000
        k(   43) = (   0.3789671   0.3789671   0.0000000), wk =   0.0160000
        k(   44) = (   0.3789671   0.3789671   0.3457300), wk =   0.0320000
        k(   45) = (   0.3789671   0.3789671   0.6914601), wk =   0.0320000
        k(   46) = (  -0.1894942   0.1894942   0.0000000), wk =   0.0160000
        k(   47) = (  -0.1894942   0.1894942  -0.3457300), wk =   0.0320000
        k(   48) = (  -0.1894942   0.1894942  -0.6914601), wk =   0.0320000
        k(   49) = (  -0.1894995   0.3789830   0.0000000), wk =   0.0320000
        k(   50) = (  -0.1894995   0.3789830  -0.3457300), wk =   0.0640000
        k(   51) = (  -0.1894995   0.3789830  -0.6914601), wk =   0.0640000
        k(   52) = (  -0.3789884   0.3789884   0.0000000), wk =   0.0160000
        k(   53) = (  -0.3789884   0.3789884  -0.3457300), wk =   0.0320000
        k(   54) = (  -0.3789884   0.3789884  -0.6914601), wk =   0.0320000

     Largest allocated arrays     est. size (Mb)     dimensions
     Largest temporary arrays     est. size (Mb)     dimensions

     Check: negative/imaginary core charge=   -0.000004    0.000000

     Initial potential from superposition of free atoms
     Check: negative starting charge=(component1):   -0.029988
     Check: negative starting charge=(component2):   -0.029988

     starting charge   52.99990, renormalised to   54.00000

     negative rho (up, down):  0.306E-01 0.306E-01
     Starting wfc are   42 randomized atomic wfcs

     Self-consistent Calculation

[...]

     total energy              =    -518.52519162 Ry
     Harris-Foulkes estimate   =    -518.52519051 Ry
     estimated scf accuracy    <       0.00000004 Ry

[...]

     iteration # 11     ecut=    40.00 Ry     beta=0.30
     Davidson diagonalization with overlap
     ethr =  7.71E-11,  avg # of iterations =  1.0

     negative rho (up, down):  0.310E-01 0.310E-01

     End of self-consistent calculation

 ------ SPIN UP ------------

[...]

 ------ SPIN DOWN ----------

[...]

          k = 0.3790 0.3790 0.6915 (  2036 PWs)   bands (ev):

[...]

          k =-0.3790 0.3790-0.6915 (  2036 PWs)   bands (ev):

   -68.6315 -68.6303 -30.6365 -30.6353 -30.4625 -30.4608 -30.4200 -30.4181
    -6.6114  -6.4423  -6.3218  -6.1370   4.9945   5.2985   5.5713   5.7843
     5.8333   6.5306   6.6055   7.2107   8.5217   8.6742   9.3678   9.5860
    11.9584  12.2694  12.9274  13.3111  14.3957  14.4759  16.1043  17.0418
    17.2398  18.0449  20.9701  21.3141  22.3223  22.3601  25.5189  25.7284
    25.7921  26.0745  28.6307  28.8784  29.4911  30.1699  30.7474  31.4176
    33.4812  33.7555  34.8461  34.8718  37.3065  37.5900  38.7074  39.1705
    39.5620  39.7477  41.1981  42.1952  42.2428  42.5838  42.8422  43.5396
    43.8855  44.1074  44.2138  44.8743  45.4337  45.4476  46.1772  46.4521
    47.6352  48.6491  51.2138  51.5679  52.1177  52.4530  53.0682  53.3004
    54.2687

     the Fermi energy is    13.0824 ev

!    total energy              =    -518.52519270 Ry
     Harris-Foulkes estimate   =    -518.52519163 Ry
     estimated scf accuracy    <          7.4E-10 Ry

     The total energy is the sum of the following terms:

     one-electron contribution =    -139.05699091 Ry
     hartree contribution      =      96.78551270 Ry
     xc contribution           =    -142.13778561 Ry
     ewald contribution        =    -334.11570639 Ry
     smearing contrib. (-TS)   =      -0.00022249 Ry

     total magnetization       =    -0.00 Bohr mag/cell
     absolute magnetization    =     0.00 Bohr mag/cell

     convergence has been achieved in  11 iterations

     Forces acting on atoms (Ry/au):

     negative rho (up, down):  0.310E-01 0.310E-01
     atom    1 type  1   force =     0.00000000    0.00000000    0.00000000
     atom    2 type  1   force =     0.00000000    0.00000000    0.00000000
     atom    3 type  2   force =    -0.00022001   -0.00022001   -0.00000000
     atom    4 type  2   force =     0.00022001    0.00022001   -0.00000000
     atom    5 type  2   force =     0.00001232   -0.00001232    0.00000000
     atom    6 type  2   force =    -0.00001232    0.00001232    0.00000000

     Total force =     0.000441     Total SCF correction =     0.000017

     entering subroutine stress ...

     negative rho (up, down):  0.310E-01 0.310E-01
          total   stress  (Ry/bohr**3)                   (kbar)     P= -213.87
  -0.00143811  -0.00000058   0.00000000       -211.55     -0.08      0.00
  -0.00000058  -0.00143811   0.00000000         -0.08   -211.55      0.00
   0.00000000   0.00000000  -0.00148529          0.00      0.00   -218.49

     General routines

     Parallel routines

   This run was terminated on:  16:14: 2  24Jan2014

   JOB DONE.
Running PBS batch system epilogue script
Job id: 251993.audhumbla.fysik.dtu.dk
Username: zhonxu
Groupname: campgst
Jobname: ReO2/fine-EOS/non-mag/ReO2-v-1.10
Sessionid: 984
Queuename: verylong
Accounting:
This job has allocated the following 4 nodes:
q078 q078 q078 q078
Finished epilogue job 251993.audhumbla.fysik.dtu.dk for zhonxu