     Program PWSCF v.5.0.2 (svn rev. 9656) starts on 29Apr2014 at  6:25: 1

     Current dimensions of program PWSCF are:
     Max number of different atomic species (ntypx) = 10
     Max number of k-points (npk) =  40000
     Max angular momentum in pseudopotentials (lmaxx) =  3
     Reading input from pwscf.in
Warning: card &CELL ignored
Warning: card / ignored

     Subspace diagonalization in iterative solution of the eigenvalue problem:
     a serial algorithm will be used

     bravais-lattice index     =            0
     lattice parameter (alat)  =      12.0187  a.u.
     unit-cell volume          =    7280.5819 (a.u.)^3
     number of atoms/cell      =           32
     number of atomic types    =            3
     number of electrons       =       239.00
     number of Kohn-Sham states=          358
     kinetic-energy cutoff     =      40.0000  Ry
     charge density cutoff     =     500.0000  Ry
     convergence threshold     =      1.0E-06
     mixing beta               =       0.7000
     number of iterations used =            8  plain     mixing
     Exchange-correlation      = SLA  PW   PBE  PBE ( 1 4 3 4 0)
     EXX-fraction              =        0.00
     nstep                     =           50

     celldm(1)=  12.018658  celldm(2)=   0.000000  celldm(3)=   0.000000
     celldm(4)=   0.000000  celldm(5)=   0.000000  celldm(6)=   0.000000

     crystal axes: (cart. coord. in units of alat)
               a(1) = (   1.000000   0.000000   0.000000 )
               a(2) = (   0.000000   1.009517   0.000000 )
               a(3) = (   0.000000   0.000000   4.154171 )

     reciprocal axes: (cart. coord. in units 2 pi/alat)
               b(1) = (  1.000000  0.000000  0.000000 )
               b(2) = (  0.000000  0.990572  0.000000 )
               b(3) = (  0.000000  0.000000  0.240722 )

     PseudoPot. # 1 for O  read from file:
     /home/camp/zhonxu/pseudo/o_pbe_v1.01.uspp.F.UPF
     MD5 check sum: 2bcb18d16ea4b960afae9ec6d52f22d2
     Pseudo is Ultrasoft + core correction, Zval =  6.0
     Generated by new atomic code, or converted to UPF format
     Using radial grid of  737 points,  5 beta functions with:
                l(1) =   0
                l(2) =   0
                l(3) =   1
                l(4) =   1
                l(5) =   2
     Q(r) pseudized with  8 coefficients,  rinner =    0.900   0.900   0.900
                                                       0.900   0.900

     PseudoPot. # 2 for Ir read from file:
     /home/camp/zhonxu/pseudo/ir_pbe_v1.uspp.F.UPF
     MD5 check sum: abf987a9674477536ede83817f8f8b70
     Pseudo is Ultrasoft + core correction, Zval = 15.0
     Generated by new atomic code, or converted to UPF format
     Using radial grid of  983 points,  7 beta functions with:
                l(1) =   0
                l(2) =   0
                l(3) =   1
                l(4) =   1
                l(5) =   1
                l(6) =   2
                l(7) =   2
     Q(r) pseudized with  8 coefficients,  rinner =    1.350   1.350   1.350
                                                       1.350   1.350

     PseudoPot. # 3 for H  read from file:
     /home/camp/zhonxu/pseudo/h_pbe_v1.uspp.F.UPF
     MD5 check sum: 3408e3ff4ec8b0a4e358431e7e038a48
     Pseudo is Ultrasoft, Zval =  1.0
     Generated by new atomic code, or converted to UPF format
     Using radial grid of  615 points,  2 beta functions with:
                l(1) =   0
                l(2) =   0
     Q(r) pseudized with  8 coefficients,  rinner =    0.700

     atomic species   valence    mass     pseudopotential
        O0             6.00    15.99940     O ( 1.00)
        Ir1           15.00   192.22000     Ir( 1.00)
        H2             1.00     1.00794     H ( 1.00)

     Simplified LDA+U calculation (l_max = 2) with parameters (eV):
     atomic species    L          U    alpha       J0     beta
        Ir1            2     5.5000   0.0000   0.0000   0.0000

     No symmetry found

   Cartesian axes

     site n.     atom                  positions (alat units)
         1           O0  tau(   1) = (   0.0000000   0.0000000   1.5715230  )
         2           O0  tau(   2) = (   0.0000000   0.5047586   1.6723863  )
         3           Ir1 tau(   3) = (   0.2500000   0.5047586   1.8804272  )
         4           Ir1 tau(   4) = (   0.0000000   0.0000000   1.8823796  )
         5           O0  tau(   5) = (   0.2500000   0.8177090   1.8809672  )
         6           O0  tau(   6) = (   0.2500000   0.1918083   1.8797625  )
         7           O0  tau(   7) = (   0.0000000   0.5047586   2.0697743  )
         8           O0  tau(   8) = (   0.0000000   0.0000000   2.1967673  )
         9           Ir1 tau(   9) = (   0.2500000   0.0000000   2.3926365  )
        10           Ir1 tau(  10) = (   0.0000000   0.5047586   2.3747736  )
        11           O0  tau(  11) = (   0.2500000   0.6965669   2.3923873  )
        12           O0  tau(  12) = (   0.2500000   0.3129503   2.3927196  )
        13           O0  tau(  13) = (   0.0000000   0.0000000   2.5779541  )
        14           O0  tau(  14) = (   0.5000000   0.0000000   1.5704845  )
        15           O0  tau(  15) = (   0.5000000   0.5047586   1.6698107  )
        16           Ir1 tau(  16) = (   0.7500000   0.5047586   1.8805103  )
        17           Ir1 tau(  17) = (   0.5000000   0.0000000   1.8817565  )
        18           O0  tau(  18) = (   0.7500000   0.8177090   1.8810503  )
        19           O0  tau(  19) = (   0.7500000   0.1918083   1.8797625  )
        20           O0  tau(  20) = (   0.5000000   0.5047586   2.0748424  )
        21           O0  tau(  21) = (   0.5000000   0.0000000   2.1964350  )
        22           Ir1 tau(  22) = (   0.7500000   0.0000000   2.3925119  )
        23           Ir1 tau(  23) = (   0.5000000   0.5047586   2.3910995  )
        24           O0  tau(  24) = (   0.7500000   0.6965669   2.3896040  )
        25           O0  tau(  25) = (   0.7500000   0.3129503   2.3900194  )
        26           O0  tau(  26) = (   0.5000000   0.0000000   2.5760847  )
        27           H2  tau(  27) = (  -0.0000400   0.6399431   1.5942048  )
        28           H2  tau(  28) = (   0.5000100   0.6429817   1.5968219  )
        29           H2  tau(  29) = (   0.1437000   0.0339904   1.5235839  )
        30           H2  tau(  30) = (   0.6431700   0.0357369   1.5224622  )
        31           O0  tau(  31) = (   0.5156900   0.5047586   2.6944786  )
        32           H2  tau(  32) = (   0.3744100   0.5050918   2.7575805  )

     number of k points=    10  Methfessel-Paxton smearing, width (Ry)=  0.0100
                       cart. coord. in units 2pi/alat
        k(    1) = (   0.0000000   0.0000000   0.0000000), wk =   0.1250000
        k(    2) = (   0.0000000   0.2476431   0.0000000), wk =   0.2500000
        k(    3) = (   0.0000000  -0.4952862   0.0000000), wk =   0.1250000
        k(    4) = (   0.2500000   0.0000000   0.0000000), wk =   0.2500000
        k(    5) = (   0.2500000   0.2476431   0.0000000), wk =   0.2500000
        k(    6) = (   0.2500000  -0.4952862   0.0000000), wk =   0.2500000
        k(    7) = (  -0.5000000   0.0000000   0.0000000), wk =   0.1250000
        k(    8) = (  -0.5000000   0.2476431   0.0000000), wk =   0.2500000
        k(    9) = (  -0.5000000  -0.4952862   0.0000000), wk =   0.1250000
        k(   10) = (  -0.2500000   0.2476431   0.0000000), wk =   0.2500000

     Largest allocated arrays     est. size (Mb)     dimensions
     Largest temporary arrays     est. size (Mb)     dimensions

     Check: negative/imaginary core charge=   -0.000003    0.000000

     Initial potential from superposition of free atoms
     Check: negative starting charge=   -3.334647

     starting charge  234.99967, renormalised to  239.00000

     negative rho (up, down):  0.339E+01 0.000E+00
     Number of +U iterations with fixed ns =  0
     Starting occupations:
 --- enter write_ns ---
 LDA+U parameters:
U( 2)     =  5.50000000
alpha( 2) =  0.00000000
atom    3   Tr[ns(na)] =   7.00000
    eigenvalues:
  0.700  0.700  0.700  0.700  0.700
    eigenvectors:
  1.000  0.000  0.000  0.000  0.000
  0.000  1.000  0.000  0.000  0.000
  0.000  0.000  1.000  0.000  0.000
  0.000  0.000  0.000  1.000  0.000
  0.000  0.000  0.000  0.000  1.000
    occupations:
  0.700  0.000  0.000  0.000  0.000
  0.000  0.700  0.000  0.000  0.000
  0.000  0.000  0.700  0.000  0.000
  0.000  0.000  0.000  0.700  0.000
  0.000  0.000  0.000  0.000  0.700
atom    4   Tr[ns(na)] =   7.00000
    eigenvalues:
  0.700  0.700  0.700  0.700  0.700
    eigenvectors:
  1.000  0.000  0.000  0.000  0.000
  0.000  1.000  0.000  0.000  0.000
  0.000  0.000  1.000  0.000  0.000
  0.000  0.000  0.000  1.000  0.000
  0.000  0.000  0.000  0.000  1.000
    occupations:
  0.700  0.000  0.000  0.000  0.000
  0.000  0.700  0.000  0.000  0.000
  0.000  0.000  0.700  0.000  0.000
  0.000  0.000  0.000  0.700  0.000
  0.000  0.000  0.000  0.000  0.700
atom    9   Tr[ns(na)] =   7.00000
    eigenvalues:
  0.700  0.700  0.700  0.700  0.700
    eigenvectors:
  1.000  0.000  0.000  0.000  0.000
  0.000  1.000  0.000  0.000  0.000
  0.000  0.000  1.000  0.000  0.000
  0.000  0.000  0.000  1.000  0.000
  0.000  0.000  0.000  0.000  1.000
    occupations:
  0.700  0.000  0.000  0.000  0.000
  0.000  0.700  0.000  0.000  0.000
  0.000  0.000  0.700  0.000  0.000
  0.000  0.000  0.000  0.700  0.000
  0.000  0.000  0.000  0.000  0.700
atom   10   Tr[ns(na)] =   7.00000
    eigenvalues:
  0.700  0.700  0.700  0.700  0.700
    eigenvectors:
  1.000  0.000  0.000  0.000  0.000
  0.000  1.000  0.000  0.000  0.000
  0.000  0.000  1.000  0.000  0.000
  0.000  0.000  0.000  1.000  0.000
  0.000  0.000  0.000  0.000  1.000
    occupations:
  0.700  0.000  0.000  0.000  0.000
  0.000  0.700  0.000  0.000  0.000
  0.000  0.000  0.700  0.000  0.000
  0.000  0.000  0.000  0.700  0.000
  0.000  0.000  0.000  0.000  0.700
atom   16   Tr[ns(na)] =   7.00000
    eigenvalues:
  0.700  0.700  0.700  0.700  0.700
    eigenvectors:
  1.000  0.000  0.000  0.000  0.000
  0.000  1.000  0.000  0.000  0.000
  0.000  0.000  1.000  0.000  0.000
  0.000  0.000  0.000  1.000  0.000
  0.000  0.000  0.000  0.000  1.000
    occupations:
  0.700  0.000  0.000  0.000  0.000
  0.000  0.700  0.000  0.000  0.000
  0.000  0.000  0.700  0.000  0.000
  0.000  0.000  0.000  0.700  0.000
  0.000  0.000  0.000  0.000  0.700
atom   17   Tr[ns(na)] =   7.00000
    eigenvalues:
  0.700  0.700  0.700  0.700  0.700
    eigenvectors:
  1.000  0.000  0.000  0.000  0.000
  0.000  1.000  0.000  0.000  0.000
  0.000  0.000  1.000  0.000  0.000
  0.000  0.000  0.000  1.000  0.000
  0.000  0.000  0.000  0.000  1.000
    occupations:
  0.700  0.000  0.000  0.000  0.000
  0.000  0.700  0.000  0.000  0.000
  0.000  0.000  0.700  0.000  0.000
  0.000  0.000  0.000  0.700  0.000
  0.000  0.000  0.000  0.000  0.700
atom   22   Tr[ns(na)] =   7.00000
    eigenvalues:
  0.700  0.700  0.700  0.700  0.700
    eigenvectors:
  1.000  0.000  0.000  0.000  0.000
  0.000  1.000  0.000  0.000  0.000
  0.000  0.000  1.000  0.000  0.000
  0.000  0.000  0.000  1.000  0.000
[...]
  0.001  0.859  0.000  0.000  0.140
  0.000  0.000  0.001  0.999  0.000
    occupations:
  0.940 -0.000  0.000 -0.110 -0.000
 -0.000  0.654  0.001  0.000 -0.000
  0.000  0.001  0.872 -0.000 -0.001
 -0.110  0.000 -0.000  0.712  0.001
 -0.000 -0.000 -0.001  0.001  0.911
atom   10   Tr[ns(na)] =   8.14799
    eigenvalues:
  0.584  0.611  0.940  0.954  0.986
    eigenvectors:
  0.991  0.000  0.000  0.000  0.009
  0.000  0.000  1.000  0.000  0.000
  0.000  0.000  0.000  1.000  0.000
  0.009  0.000  0.000  0.000  0.991
  0.000  1.000  0.000  0.000  0.000
    occupations:
  0.587 -0.004  0.001  0.037 -0.000
 -0.004  0.940 -0.000  0.000 -0.000
  0.001 -0.000  0.954 -0.000  0.002
  0.037  0.000 -0.000  0.982 -0.000
 -0.000 -0.000  0.002 -0.000  0.611
atom   16   Tr[ns(na)] =   8.19595
    eigenvalues:
  0.604  0.632  0.907  0.970  0.984
    eigenvectors:
  0.002  0.182  0.003  0.001  0.813
  0.994  0.006  0.000  0.000  0.000
  0.000  0.000  0.977  0.020  0.003
  0.004  0.813  0.000  0.000  0.183
  0.000  0.000  0.019  0.979  0.002
    occupations:
  0.919  0.006  0.003 -0.136  0.001
  0.006  0.605  0.001 -0.000 -0.004
  0.003  0.001  0.909 -0.004 -0.009
 -0.136 -0.000 -0.004  0.697  0.000
  0.001 -0.004 -0.009  0.000  0.969
atom   17   Tr[ns(na)] =   8.18934
    eigenvalues:
  0.619  0.669  0.890  0.932  0.986
    eigenvectors:
  0.000  0.989  0.000  0.000  0.010
  0.000  0.000  0.100  0.900  0.000
  0.000  0.000  0.900  0.100  0.000
  0.000  0.010  0.000  0.000  0.990
  0.999  0.000  0.000  0.000  0.000
    occupations:
  0.672 -0.003 -0.001  0.032  0.001
 -0.003  0.928  0.013  0.000 -0.002
 -0.001  0.013  0.894 -0.000  0.000
  0.032  0.000 -0.000  0.982  0.000
  0.001 -0.002  0.000  0.000  0.619
atom   22   Tr[ns(na)] =   8.17374
    eigenvalues:
  0.654  0.669  0.866  0.913  0.985
    eigenvectors:
  0.000  0.139  0.000  0.000  0.861
  1.000  0.000  0.000  0.000  0.000
  0.000  0.000  0.999  0.001  0.000
  0.000  0.861  0.000  0.000  0.139
  0.000  0.000  0.001  0.999  0.000
    occupations:
  0.941  0.001 -0.000 -0.109 -0.000
  0.001  0.654  0.001 -0.000 -0.000
 -0.000  0.001  0.866 -0.000  0.001
 -0.109 -0.000 -0.000  0.713  0.001
 -0.000 -0.000  0.001  0.001  0.913
atom   23   Tr[ns(na)] =   8.17135
    eigenvalues:
  0.625  0.676  0.860  0.939  0.986
    eigenvectors:
  0.000  0.988  0.000  0.000  0.011
  0.000  0.000  0.000  0.999  0.000
  0.000  0.000  1.000  0.000  0.000
  0.000  0.011  0.000  0.000  0.989
  1.000  0.000  0.000  0.000  0.000
    occupations:
  0.679  0.006 -0.000  0.032 -0.000
  0.006  0.939 -0.001 -0.000 -0.000
 -0.000 -0.001  0.860  0.000 -0.001
  0.032 -0.000  0.000  0.982 -0.000
 -0.000 -0.000 -0.001 -0.000  0.625
N of occupied +U levels =  65.4407483
 --- exit write_ns ---

     Threshold (ethr) on eigenvalues was too large:
     Diagonalizing with lowered threshold

     Davidson diagonalization with overlap
     ethr =  3.10E-09,  avg # of iterations =  2.0

[...]

     total energy              =   -2105.32065180 Ry
     Harris-Foulkes estimate   =   -2105.32065180 Ry
     estimated scf accuracy    <       0.00000001 Ry

     iteration # 11     ecut=    40.00 Ry     beta=0.70
     Davidson diagonalization with overlap
     ethr =  4.55E-12,  avg # of iterations =  1.0

     negative rho (up, down):  0.314E+01 0.000E+00

     End of self-consistent calculation
 --- enter write_ns ---
 LDA+U parameters:
U( 2)     =  5.50000000
alpha( 2) =  0.00000000
atom    3   Tr[ns(na)] =   8.19601
    eigenvalues:
  0.604  0.632  0.908  0.970  0.984
    eigenvectors:
  0.002  0.182  0.003  0.000  0.813
  0.995  0.005  0.000  0.000  0.000
  0.000  0.000  0.973  0.024  0.003
  0.003  0.814  0.000  0.000  0.183
  0.000  0.000  0.023  0.976  0.001
    occupations:
  0.919 -0.005  0.003 -0.136 -0.001
 -0.005  0.604 -0.001  0.000 -0.004
  0.003 -0.001  0.909 -0.004  0.009
 -0.136  0.000 -0.004  0.697 -0.001
 -0.001 -0.004  0.009 -0.001  0.969
atom    4   Tr[ns(na)] =   8.18757
    eigenvalues:
  0.620  0.670  0.882  0.936  0.986
    eigenvectors:
  0.000  0.989  0.000  0.000  0.011
  0.000  0.000  0.046  0.954  0.000
  0.000  0.000  0.954  0.046  0.000
  0.000  0.011  0.000  0.000  0.989
  1.000  0.000  0.000  0.000  0.000
    occupations:
  0.674 -0.003 -0.000  0.033  0.001
 -0.003  0.933  0.011  0.000 -0.002
 -0.000  0.011  0.884 -0.000  0.001
  0.033  0.000 -0.000  0.982  0.000
  0.001 -0.002  0.001  0.000  0.620
atom    9   Tr[ns(na)] =   8.17859
    eigenvalues:
  0.654  0.668  0.872  0.911  0.985
    eigenvectors:
  0.000  0.140  0.000  0.000  0.860
  0.999  0.001  0.000  0.000  0.000
  0.000  0.000  0.999  0.001  0.000
  0.001  0.859  0.000  0.000  0.140
  0.000  0.000  0.001  0.999  0.000
    occupations:
  0.940 -0.000  0.000 -0.110 -0.000
 -0.000  0.654  0.001  0.000 -0.000
  0.000  0.001  0.872 -0.000 -0.001
 -0.110  0.000 -0.000  0.712  0.001
 -0.000 -0.000 -0.001  0.001  0.911
atom   10   Tr[ns(na)] =   8.14823
    eigenvalues:
  0.584  0.611  0.940  0.954  0.986
    eigenvectors:
  0.991  0.000  0.000  0.000  0.009
  0.000  0.000  1.000  0.000  0.000
  0.000  0.000  0.000  1.000  0.000
  0.009  0.000  0.000  0.000  0.991
  0.000  1.000  0.000  0.000  0.000
    occupations:
  0.587 -0.004  0.001  0.037 -0.000
 -0.004  0.940 -0.000  0.000 -0.000
  0.001 -0.000  0.954 -0.000  0.002
  0.037  0.000 -0.000  0.982 -0.000
 -0.000 -0.000  0.002 -0.000  0.611
atom   16   Tr[ns(na)] =   8.19586
    eigenvalues:
  0.604  0.632  0.907  0.970  0.984
    eigenvectors:
  0.002  0.182  0.003  0.001  0.813
  0.994  0.006  0.000  0.000  0.000
  0.000  0.000  0.977  0.020  0.003
  0.004  0.813  0.000  0.000  0.183
  0.000  0.000  0.019  0.979  0.002
    occupations:
  0.919  0.005  0.003 -0.136  0.001
  0.005  0.605  0.001 -0.000 -0.004
  0.003  0.001  0.909 -0.004 -0.009
 -0.136 -0.000 -0.004  0.697  0.000
  0.001 -0.004 -0.009  0.000  0.969
atom   17   Tr[ns(na)] =   8.18872
    eigenvalues:
  0.619  0.669  0.889  0.932  0.986
    eigenvectors:
  0.000  0.989  0.000  0.000  0.010
  0.000  0.000  0.100  0.900  0.000
  0.000  0.000  0.900  0.100  0.000
  0.000  0.010  0.000  0.000  0.990
  0.999  0.000  0.000  0.000  0.000
    occupations:
  0.672 -0.003 -0.001  0.032  0.001
 -0.003  0.927  0.013  0.000 -0.002
 -0.001  0.013  0.894 -0.000  0.000
  0.032  0.000 -0.000  0.982  0.000
  0.001 -0.002  0.000  0.000  0.619
atom   22   Tr[ns(na)] =   8.17357
    eigenvalues:
  0.654  0.669  0.866  0.913  0.985
    eigenvectors:
  0.000  0.139  0.000  0.000  0.861
  1.000  0.000  0.000  0.000  0.000
  0.000  0.000  0.999  0.001  0.000
  0.000  0.861  0.000  0.000  0.139
  0.000  0.000  0.001  0.999  0.000
    occupations:
  0.941  0.001 -0.000 -0.109 -0.000
  0.001  0.654  0.001 -0.000 -0.000
 -0.000  0.001  0.866 -0.000  0.001
 -0.109 -0.000 -0.000  0.713  0.001
 -0.000 -0.000  0.001  0.001  0.913
atom   23   Tr[ns(na)] =   8.17203
    eigenvalues:
  0.625  0.676  0.861  0.939  0.986
    eigenvectors:
  0.000  0.988  0.000  0.000  0.011
  0.000  0.000  0.000  0.999  0.000
  0.000  0.000  1.000  0.000  0.000
  0.000  0.011  0.000  0.000  0.989
  1.000  0.000  0.000  0.000  0.000
    occupations:
  0.679  0.006 -0.000  0.032 -0.000
  0.006  0.939 -0.001 -0.000 -0.000
 -0.000 -0.001  0.861  0.000 -0.001
  0.032 -0.000  0.000  0.982 -0.000
 -0.000 -0.000 -0.001 -0.000  0.625
N of occupied +U levels =  65.4405741
 --- exit write_ns ---

[...]

          k = 0.2500-0.4953 0.0000 ( 31088 PWs)   bands (ev):

[...]

          k =-0.2500 0.2476 0.0000 ( 31099 PWs)   bands (ev):

   -50.5527 -50.4979 -50.4546 -50.4332 -50.3983 -50.3863 -50.3328 -50.3213
   -50.3099 -50.3084 -50.2958 -50.2686 -50.2542 -50.1756 -50.1142 -50.0799
   -50.0669 -50.0619 -50.0102 -49.9988 -49.9661 -49.9419 -49.9281 -49.9164
   -21.4163 -21.1643 -21.0800 -21.0160 -20.6913 -20.6224 -20.5717 -20.4771
   -20.3874 -20.3009 -20.1726 -20.1196 -19.9634 -19.9487 -19.8892 -19.8293
   -19.6355 -18.9001 -18.7572 -10.5586 -10.4195 -10.2062 -10.0437  -9.7279
    -9.6402  -9.5273  -9.5094  -9.1256  -8.9564  -8.9007  -8.8172  -8.7512
    -8.6949  -8.4934  -8.3509  -8.2144  -8.1213  -7.8484  -7.6942  -7.6258
    -7.4842  -7.4211  -7.2856  -7.1995  -7.1307  -7.0243  -6.8174  -6.6721
    -6.5438  -6.4954  -6.4258  -6.3306  -6.2233  -6.1297  -6.1086  -6.0239
    -5.9367  -5.8307  -5.6940  -5.5920  -5.4482  -5.3244  -5.0889  -4.9709
    -4.8576  -4.7158  -4.6508  -4.4421  -4.3936  -4.3337  -4.0367  -3.9278
    -3.7869  -3.6668  -3.6133  -3.5540  -3.4471  -3.4027  -3.2920  -3.2312
    -3.1214  -3.0550  -2.9610  -2.9336  -2.8878  -2.8009  -2.6857  -2.5699
    -2.5076  -2.3901  -1.9958  -1.7843  -1.6250  -1.4076  -1.1875  -1.1699
    -1.1120  -0.8812  -0.7478  -0.5176   0.0387   1.0304   1.0820   1.3936
     1.6756   1.8420   2.2475   2.4297   2.7644   2.8045   2.9328   3.0267
     3.2166   3.3551   3.4296   3.7489   3.8711   4.3067   4.8149   5.2337
     5.4766   5.6403   5.7139   5.9916   6.2759   6.5327   6.6267   6.6495
     6.7214   6.9133   7.1079   7.1939   7.3803   7.4795   7.6059   7.7119
     7.9247   8.0336   8.1163   8.1683   8.2678   8.4641   8.5199   8.5905
     8.8210   8.8834   8.9200   8.9832   9.1126   9.2053   9.3235   9.4078
     9.4326   9.5825   9.5991   9.6152   9.6268   9.6391   9.6417   9.6498
     9.7576   9.7885   9.8139   9.8182   9.8466  10.0665  10.1079  10.1544
    10.2269  10.3449  10.3663  10.4594  10.5351  10.5905  10.6378  10.8087
    10.8327  10.9753  11.0016  11.1564  11.1884  11.2546  11.4085  11.5211
    11.5580  11.6622  11.7285  11.7921  11.8314  11.9603  12.1541  12.2037
    12.2532  12.3550  12.3880  12.4523  12.5552  12.6302  12.6641  12.7347
    12.7871  12.8606  12.9387  13.0115  13.0495  13.1911  13.2365  13.2803
    13.3295  13.4130  13.5498  13.6760  13.7532  13.8239  13.9213  13.9376
    14.0176  14.0802  14.1699  14.2434  14.3309  14.4076  14.4940  14.5306
    14.7093  14.7718  14.7910  14.9542  15.0791  15.1936  15.2573  15.3363
    15.4383  15.4878  15.5177  15.6044  15.6629  15.7530  15.7887  15.8697
    15.9188  15.9259  15.9978  16.0589  16.1495  16.1970  16.2451  16.3135
    16.3799  16.4030  16.4492  16.5357  16.5744  16.6774  16.7219  16.7607
    16.8124  16.8839  17.0812  17.1342  17.1650  17.2963  17.3447  17.4314
    17.4570  17.5320  17.5587  17.6081  17.6796  17.7105  17.7439  17.8384
    17.9167  17.9401  17.9832  18.1128  18.2138  18.2450  18.3062  18.3813
    18.4673  18.6099  18.6544  18.7050  18.7895  18.8595  18.8843  18.9792
    19.0322  19.0938  19.1627  19.2271  19.3021  19.3335  19.4022  19.5679
    19.6121  19.6464  19.7261  19.7787  19.8526  19.9760  20.0586  20.0969
    20.1364  20.2399  20.3951  20.4073  20.5040  20.6186  20.6580  20.7084
    20.7753  20.7941  20.9224  20.9451  20.9632  21.0284  21.0808  21.1718
    21.2048  21.3044  21.3219  21.3717  21.4343  21.4679  21.5169  21.6180
    21.7057  21.7453  21.8272  21.8552  21.8746  21.9788

     the Fermi energy is    -1.1842 ev

!    total energy              =   -2105.32065180 Ry
     Harris-Foulkes estimate   =   -2105.32065180 Ry
     estimated scf accuracy    <          5.8E-09 Ry

     The total energy is the sum of the following terms:

     one-electron contribution =  -22798.46142235 Ry
     hartree contribution      =   11445.04485488 Ry
     xc contribution           =    -577.24275973 Ry
     ewald contribution        =    9823.30855924 Ry
     Hubbard energy            =       2.03086575 Ry
     smearing contrib. (-TS)   =      -0.00074958 Ry

     convergence has been achieved in  11 iterations

     Forces acting on atoms (Ry/au):

     negative rho (up, down):  0.314E+01 0.000E+00
     atom    1 type  1   force =    -0.00671995   -0.01221447    0.00012610
     atom    2 type  1   force =     0.00026224    0.00266041   -0.00039738
     atom    3 type  2   force =     0.03081685    0.00819887    0.00011222
     atom    4 type  2   force =     0.00879012    0.00778017   -0.00002022
     atom    5 type  1   force =    -0.00478710   -0.01476384   -0.00025812
     atom    6 type  1   force =     0.00645678    0.01226288   -0.00014577
     atom    7 type  1   force =     0.00170951   -0.00229924   -0.00013054
     atom    8 type  1   force =    -0.00249739   -0.00065558   -0.00010227
     atom    9 type  2   force =     0.00715001    0.00022517    0.00011573
     atom   10 type  2   force =    -0.00784368   -0.00117950   -0.00006806
     atom   11 type  1   force =    -0.00144663    0.01591575    0.00008775
     atom   12 type  1   force =    -0.00114413   -0.01586251    0.00005861
     atom   13 type  1   force =    -0.00130071   -0.00014887   -0.00000567
     atom   14 type  1   force =    -0.00782478   -0.01344204   -0.00000319
     atom   15 type  1   force =     0.00030547    0.00362945   -0.00026833
     atom   16 type  2   force =    -0.03156688    0.00709046    0.00011883
     atom   17 type  2   force =     0.00913783    0.00819660    0.00003812
     atom   18 type  1   force =    -0.00438500   -0.01420198   -0.00024283
     atom   19 type  1   force =     0.00565340    0.01343265   -0.00015012
     atom   20 type  1   force =    -0.00157735   -0.00557675    0.00046477
     atom   21 type  1   force =    -0.00394650   -0.00060060    0.00002062
     atom   22 type  2   force =    -0.00453912    0.00058320    0.00008185
     atom   23 type  2   force =     0.00313502   -0.00008650    0.00019259
     atom   24 type  1   force =     0.00277099    0.01985228   -0.00012511
     atom   25 type  1   force =     0.00372305   -0.01998954   -0.00012954
     atom   26 type  1   force =    -0.00073887   -0.00023194    0.00020891
     atom   27 type  3   force =    -0.00000342    0.00039254    0.00018310
     atom   28 type  3   force =     0.00002533    0.00049857    0.00051567
     atom   29 type  3   force =    -0.00004828    0.00004051    0.00019076
     atom   30 type  3   force =    -0.00017058    0.00052168    0.00008892
     atom   31 type  1   force =     0.00055656   -0.00006818   -0.00031863
     atom   32 type  3   force =     0.00004720    0.00004035   -0.00023878

     Total force =     0.001538     Total SCF correction =     0.000118

     bfgs converged in  10 scf cycles and   9 bfgs steps
     (criteria: energy < 0.10E-03, force < 0.10E-02)

     End of BFGS Geometry Optimization

     Final energy   =   -2105.3206517959 Ry
Begin final coordinates

ATOMIC_POSITIONS (crystal)
O0       0.000000000   0.000000000   0.378744228    0   0   1
O0       0.000000000   0.500000000   0.403375288    0   0   1
Ir1      0.250000000   0.500000000   0.452998350    0   0   1
Ir1      0.000000000   0.000000000   0.453221715    0   0   1
O0       0.250000000   0.810000000   0.453110856    0   0   1
O0       0.250000000   0.190000000   0.452680931    0   0   1
O0       0.000000000   0.500000000   0.499152436    0   0   1
O0       0.000000000   0.000000000   0.528551259    0   0   1
Ir1      0.250000000   0.000000000   0.575364867    0   0   1
Ir1      0.000000000   0.500000000   0.571876075    0   0   1
O0       0.250000000   0.690000000   0.575289235    0   0   1
O0       0.250000000   0.310000000   0.575344613    0   0   1
O0       0.000000000   0.000000000   0.619980885    0   0   1
O0       0.500000000   0.000000000   0.378385940    0   0   1
O0       0.500000000   0.500000000   0.402566611    0   0   1
Ir1      0.750000000   0.500000000   0.453002625    0   0   1
Ir1      0.500000000   0.000000000   0.452975703    0   0   1
O0       0.750000000   0.810000000   0.453130135    0   0   1
O0       0.750000000   0.190000000   0.452660032    0   0   1
O0       0.500000000   0.500000000   0.499919910    0   0   1
O0       0.500000000   0.000000000   0.528540288    0   0   1
Ir1      0.750000000   0.000000000   0.575309970    0   0   1
Ir1      0.500000000   0.500000000   0.574904557    0   0   1
O0       0.750000000   0.690000000   0.574594202    0   0   1
O0       0.750000000   0.310000000   0.574686424    0   0   1
O0       0.500000000   0.000000000   0.619663798    0   0   1
H2      -0.000207560   0.632460206   0.384143766
H2       0.499893557   0.636269117   0.384930546
H2       0.143644618   0.033936328   0.367164248
H2       0.642799579   0.036757121   0.366810989
O0       0.516379233   0.499763786   0.647780691
H2       0.375918573   0.500398688   0.663418827
End final coordinates

     General routines

     Parallel routines
     Hubbard U routines

   This run was terminated on:  17:40:37  29Apr2014

   JOB DONE.
Running PBS batch system epilogue script
Job id: 340427.audhumbla.fysik.dtu.dk
Username: zhonxu
Groupname: campgst
Jobname: IrO2/Eads-2-layers/OH-U-5.5
Sessionid: 16718
Queuename: verylong
Accounting:
This job has allocated the following 16 nodes:
c122 c122 c122 c122 c122 c122 c122 c122 c005 c005 c005 c005 c005 c005 c005 c005
Finished epilogue job 340427.audhumbla.fysik.dtu.dk for zhonxu