     Program PWSCF v.5.0.2 (svn rev. 9656) starts on  5Jun2014 at 19:31:40

     Current dimensions of program PWSCF are:
     Max number of different atomic species (ntypx) = 10
     Max number of k-points (npk) =  40000
     Max angular momentum in pseudopotentials (lmaxx) =  3
     Reading input from pwscf.in
Warning: card &CELL ignored
Warning: card / ignored

     Subspace diagonalization in iterative solution of the eigenvalue problem:
     a serial algorithm will be used

     bravais-lattice index     =            0
     lattice parameter (alat)  =      11.7919  a.u.
     unit-cell volume          =    7123.6633 (a.u.)^3
     number of atoms/cell      =           33
     number of atomic types    =            3
     number of electrons       =       253.00
     number of Kohn-Sham states=          367
     kinetic-energy cutoff     =      40.0000  Ry
     charge density cutoff     =     500.0000  Ry
     convergence threshold     =      1.0E-06
     mixing beta               =       0.3000
     number of iterations used =            8  plain     mixing
     Exchange-correlation      = SLA  PW   PBE  PBE ( 1 4 3 4 0)
     EXX-fraction              =        0.00
     nstep                     =           50

     celldm(1)=  11.791891  celldm(2)=   0.000000  celldm(3)=   0.000000
     celldm(4)=   0.000000  celldm(5)=   0.000000  celldm(6)=   0.000000

     crystal axes: (cart. coord. in units of alat)
               a(1) = (   1.000000   0.000000   0.000000 )
               a(2) = (   0.000000   1.026665   0.000000 )
               a(3) = (   0.000000   0.000000   4.231793 )

     reciprocal axes: (cart. coord. in units 2 pi/alat)
               b(1) = (  1.000000  0.000000  0.000000 )
               b(2) = (  0.000000  0.974028  0.000000 )
               b(3) = (  0.000000  0.000000  0.236306 )

     PseudoPot. # 1 for O  read from file:
     /home/camp/zhonxu/pseudo/o_pbe_v1.01.uspp.F.UPF
     MD5 check sum: 2bcb18d16ea4b960afae9ec6d52f22d2
     Pseudo is Ultrasoft + core correction, Zval =  6.0
     Generated by new atomic code, or converted to UPF format
     Using radial grid of  737 points,  5 beta functions with:
                l(1) =   0
                l(2) =   0
                l(3) =   1
                l(4) =   1
                l(5) =   2
     Q(r) pseudized with  8 coefficients,  rinner =    0.900   0.900   0.900
                                                       0.900   0.900

     PseudoPot. # 2 for Ru read from file:
     /home/camp/zhonxu/pseudo/ru_pbe_v1.uspp.F.UPF
     MD5 check sum: df00be1c11b23341d9806d8f1dfa10cf
     Pseudo is Ultrasoft + core correction, Zval = 16.0
     Generated by new atomic code, or converted to UPF format
     Using radial grid of  967 points,  6 beta functions with:
                l(1) =   0
                l(2) =   0
                l(3) =   1
                l(4) =   1
                l(5) =   2
                l(6) =   2
     Q(r) pseudized with  8 coefficients,  rinner =    1.300   1.300   1.300
                                                       1.300   1.300

     PseudoPot. # 3 for H  read from file:
     /home/camp/zhonxu/pseudo/h_pbe_v1.uspp.F.UPF
     MD5 check sum: 3408e3ff4ec8b0a4e358431e7e038a48
     Pseudo is Ultrasoft, Zval =  1.0
     Generated by new atomic code, or converted to UPF format
     Using radial grid of  615 points,  2 beta functions with:
                l(1) =   0
                l(2) =   0
     Q(r) pseudized with  8 coefficients,  rinner =    0.700

     atomic species   valence    mass     pseudopotential
        O0             6.00    15.99940     O ( 1.00)
        Ru1           16.00   101.07000     Ru( 1.00)
        H2             1.00     1.00794     H ( 1.00)

     Simplified LDA+U calculation (l_max = 2) with parameters (eV):
     atomic species    L          U    alpha       J0     beta
        Ru1            2     0.5000   0.0000   0.0000   0.0000

     No symmetry found

   Cartesian axes

     site n.     atom                  positions (alat units)
         1           O0  tau(   1) = (   0.0000000   0.0000000   1.5976288  )
         2           O0  tau(   2) = (   0.0000000   0.5133323   1.7135376  )
         3           Ru1 tau(   3) = (   0.2500000   0.5133323   1.9265237  )
         4           Ru1 tau(   4) = (   0.0000000   0.0000000   1.9104429  )
         5           O0  tau(   5) = (   0.2500000   0.8315984   1.9133628  )
         6           O0  tau(   6) = (   0.2500000   0.1950663   1.9137014  )
         7           O0  tau(   7) = (   0.0000000   0.5133323   2.1143307  )
         8           O0  tau(   8) = (   0.0000000   0.0000000   2.2232570  )
         9           Ru1 tau(   9) = (   0.2500000   0.0000000   2.4362008  )
        10           Ru1 tau(  10) = (   0.0000000   0.5133323   2.4139839  )
        11           O0  tau(  11) = (   0.2500000   0.7083986   2.4352275  )
        12           O0  tau(  12) = (   0.2500000   0.3182660   2.4428024  )
        13           O0  tau(  13) = (   0.0000000   0.0000000   2.6141054  )
        14           O0  tau(  14) = (   0.5000000   0.0000000   1.5980943  )
        15           O0  tau(  15) = (   0.5000000   0.5133323   1.7110408  )
        16           Ru1 tau(  16) = (   0.7500000   0.5133323   1.9265660  )
        17           Ru1 tau(  17) = (   0.5000000   0.0000000   1.9113316  )
        18           O0  tau(  18) = (   0.7500000   0.8315984   1.9134475  )
        19           O0  tau(  19) = (   0.7500000   0.1950663   1.9137014  )
        20           O0  tau(  20) = (   0.5000000   0.5133323   2.1248255  )
        21           O0  tau(  21) = (   0.5000000   0.0000000   2.2236379  )
        22           Ru1 tau(  22) = (   0.7500000   0.0000000   2.4362855  )
        23           Ru1 tau(  23) = (   0.5000000   0.5133323   2.4472458  )
        24           O0  tau(  24) = (   0.7500000   0.7083986   2.4352698  )
        25           O0  tau(  25) = (   0.7500000   0.3182660   2.4426755  )
        26           O0  tau(  26) = (   0.5000000   0.0000000   2.6042453  )
        27           H2  tau(  27) = (  -0.0003700   0.6408749   1.6195494  )
        28           H2  tau(  28) = (   0.4997300   0.6446633   1.6222578  )
        29           H2  tau(  29) = (   0.1462300   0.0299786   1.5449853  )
        30           H2  tau(  30) = (   0.6457400   0.0313441   1.5450699  )
        31           O0  tau(  31) = (   0.5000700   0.5415759   2.7547279  )
        32           O0  tau(  32) = (   0.4999900   0.3417972   2.8749108  )
        33           H2  tau(  33) = (   0.4999600   0.4009947   3.0215847  )

     number of k points=    10  Methfessel-Paxton smearing, width (Ry)=  0.0100
                       cart. coord. in units 2pi/alat
        k(    1) = (   0.0000000   0.0000000   0.0000000), wk =   0.1250000
        k(    2) = (   0.0000000   0.2435070   0.0000000), wk =   0.2500000
        k(    3) = (   0.0000000  -0.4870139   0.0000000), wk =   0.1250000
        k(    4) = (   0.2500000   0.0000000   0.0000000), wk =   0.2500000
        k(    5) = (   0.2500000   0.2435070   0.0000000), wk =   0.2500000
        k(    6) = (   0.2500000  -0.4870139   0.0000000), wk =   0.2500000
        k(    7) = (  -0.5000000   0.0000000   0.0000000), wk =   0.1250000
        k(    8) = (  -0.5000000   0.2435070   0.0000000), wk =   0.2500000
        k(    9) = (  -0.5000000  -0.4870139   0.0000000), wk =   0.1250000
        k(   10) = (  -0.2500000   0.2435070   0.0000000), wk =   0.2500000

     Largest allocated arrays     est. size (Mb)     dimensions
     Largest temporary arrays     est. size (Mb)     dimensions

     Check: negative/imaginary core charge=   -0.000003    0.000000

     Initial potential from superposition of free atoms
     Check: negative starting charge=   -0.523679

     starting charge  244.99980, renormalised to  253.00000

     negative rho (up, down):  0.541E+00 0.000E+00
     Number of +U iterations with fixed ns =  0
     Starting occupations:
 --- enter write_ns ---
 LDA+U parameters:
U( 2)     =  0.50000000
alpha( 2) =  0.00000000
atom    3   Tr[ns(na)] =   6.00000
    eigenvalues:
  0.600  0.600  0.600  0.600  0.600
    eigenvectors:
  1.000  0.000  0.000  0.000  0.000
  0.000  1.000  0.000  0.000  0.000
  0.000  0.000  1.000  0.000  0.000
  0.000  0.000  0.000  1.000  0.000
  0.000  0.000  0.000  0.000  1.000
    occupations:
  0.600  0.000  0.000  0.000  0.000
  0.000  0.600  0.000  0.000  0.000
  0.000  0.000  0.600  0.000  0.000
  0.000  0.000  0.000  0.600  0.000
  0.000  0.000  0.000  0.000  0.600
atom    4   Tr[ns(na)] =   6.00000
    eigenvalues:
  0.600  0.600  0.600  0.600  0.600
    eigenvectors:
  1.000  0.000  0.000  0.000  0.000
  0.000  1.000  0.000  0.000  0.000
  0.000  0.000  1.000  0.000  0.000
  0.000  0.000  0.000  1.000  0.000
  0.000  0.000  0.000  0.000  1.000
    occupations:
  0.600  0.000  0.000  0.000  0.000
  0.000  0.600  0.000  0.000  0.000
  0.000  0.000  0.600  0.000  0.000
  0.000  0.000  0.000  0.600  0.000
  0.000  0.000  0.000  0.000  0.600
atom    9   Tr[ns(na)] =   6.00000
    eigenvalues:
  0.600  0.600  0.600  0.600  0.600
    eigenvectors:
  1.000  0.000  0.000  0.000  0.000
  0.000  1.000  0.000  0.000  0.000
  0.000  0.000  1.000  0.000  0.000
  0.000  0.000  0.000  1.000  0.000
  0.000  0.000  0.000  0.000  1.000
    occupations:
  0.600  0.000  0.000  0.000  0.000
  0.000  0.600  0.000  0.000  0.000
  0.000  0.000  0.600  0.000  0.000
  0.000  0.000  0.000  0.600  0.000
  0.000  0.000  0.000  0.000  0.600
atom   10   Tr[ns(na)] =   6.00000
    eigenvalues:
  0.600  0.600  0.600  0.600  0.600
    eigenvectors:
  1.000  0.000  0.000  0.000  0.000
  0.000  1.000  0.000  0.000  0.000
  0.000  0.000  1.000  0.000  0.000
  0.000  0.000  0.000  1.000  0.000
  0.000  0.000  0.000  0.000  1.000
    occupations:
  0.600  0.000  0.000  0.000  0.000
  0.000  0.600  0.000  0.000  0.000
  0.000  0.000  0.600  0.000  0.000
  0.000  0.000  0.000  0.600  0.000
  0.000  0.000  0.000  0.000  0.600
atom   16   Tr[ns(na)] =   6.00000
    eigenvalues:
  0.600  0.600  0.600  0.600  0.600
    eigenvectors:
  1.000  0.000  0.000  0.000  0.000
  0.000  1.000  0.000  0.000  0.000
  0.000  0.000  1.000  0.000  0.000
  0.000  0.000  0.000  1.000  0.000
  0.000  0.000  0.000  0.000  1.000
    occupations:
  0.600  0.000  0.000  0.000  0.000
  0.000  0.600  0.000  0.000  0.000
  0.000  0.000  0.600  0.000  0.000
  0.000  0.000  0.000  0.600  0.000
  0.000  0.000  0.000  0.000  0.600
atom   17   Tr[ns(na)] =   6.00000
    eigenvalues:
  0.600  0.600  0.600  0.600  0.600
    eigenvectors:
  1.000  0.000  0.000  0.000  0.000
  0.000  1.000  0.000  0.000  0.000
  0.000  0.000  1.000  0.000  0.000
  0.000  0.000  0.000  1.000  0.000
  0.000  0.000  0.000  0.000  1.000
    occupations:
  0.600  0.000  0.000  0.000  0.000
  0.000  0.600  0.000  0.000  0.000
  0.000  0.000  0.600  0.000  0.000
  0.000  0.000  0.000  0.600  0.000
  0.000  0.000  0.000  0.000  0.600
atom   22   Tr[ns(na)] =   6.00000
    eigenvalues:
  0.600  0.600  0.600  0.600  0.600
    eigenvectors:
  1.000  0.000  0.000  0.000  0.000
  0.000  1.000  0.000  0.000  0.000
  0.000  0.000  1.000  0.000  0.000
[...]
  0.002  0.000 -0.001 -0.001  0.805
atom   10   Tr[ns(na)] =   7.17257
    eigenvalues:
  0.544  0.557  0.731  0.816  0.938
    eigenvectors:
  0.000  0.990  0.000  0.000  0.009
  0.000  0.000  0.000  1.000  0.000
  0.000  0.000  1.000  0.000  0.000
  0.000  0.009  0.000  0.000  0.991
  1.000  0.000  0.000  0.000  0.000
    occupations:
  0.561  0.000  0.002  0.037  0.000
  0.000  0.816  0.000  0.000 -0.006
  0.002  0.000  0.731 -0.001  0.000
  0.037  0.000 -0.001  0.934 -0.000
  0.000 -0.006  0.000 -0.000  0.544
atom   16   Tr[ns(na)] =   7.15885
    eigenvalues:
  0.529  0.573  0.720  0.807  0.949
    eigenvectors:
  0.001  0.190  0.004  0.000  0.804
  0.997  0.003  0.000  0.000  0.000
  0.000  0.000  0.975  0.018  0.007
  0.002  0.807  0.003  0.000  0.188
  0.000  0.000  0.018  0.982  0.000
    occupations:
  0.876  0.005  0.018 -0.147  0.000
  0.005  0.530  0.000  0.000 -0.001
  0.018  0.000  0.724 -0.006 -0.012
 -0.147  0.000 -0.006  0.644  0.000
  0.000 -0.001 -0.012  0.000  0.806
atom   17   Tr[ns(na)] =   7.14934
    eigenvalues:
  0.558  0.603  0.691  0.773  0.950
    eigenvectors:
  0.000  0.991  0.000  0.000  0.009
  0.000  0.000  0.023  0.977  0.000
  0.000  0.000  0.977  0.023  0.000
  0.000  0.009  0.000  0.000  0.991
  1.000  0.000  0.000  0.000  0.000
    occupations:
  0.606 -0.001  0.000  0.033  0.001
 -0.001  0.771  0.012 -0.001 -0.001
  0.000  0.012  0.693  0.001  0.000
  0.033 -0.001  0.001  0.947 -0.000
  0.001 -0.001  0.000 -0.000  0.558
atom   22   Tr[ns(na)] =   7.12433
    eigenvalues:
  0.585  0.604  0.768  0.799  0.805
    eigenvectors:
  0.000  0.160  0.002  0.825  0.013
  0.999  0.001  0.000  0.000  0.000
  0.000  0.000  0.994  0.004  0.002
  0.001  0.839  0.002  0.156  0.002
  0.000  0.000  0.002  0.015  0.983
    occupations:
  0.768  0.003 -0.003 -0.071  0.001
  0.003  0.586  0.001 -0.002  0.000
 -0.003  0.001  0.768 -0.002  0.002
 -0.071 -0.002 -0.002  0.635 -0.000
  0.001  0.000  0.002 -0.000  0.805
atom   23   Tr[ns(na)] =   7.16792
    eigenvalues:
  0.555  0.593  0.719  0.790  0.927
    eigenvectors:
  0.000  0.997  0.000  0.000  0.003
  0.001  0.000  0.999  0.000  0.000
  0.000  0.000  0.000  1.000  0.000
  0.000  0.003  0.000  0.000  0.997
  0.999  0.000  0.001  0.000  0.000
    occupations:
  0.594  0.000  0.003  0.019 -0.000
  0.000  0.719  0.001  0.000 -0.005
  0.003  0.001  0.790 -0.001 -0.000
  0.019  0.000 -0.001  0.926 -0.000
 -0.000 -0.005 -0.000 -0.000  0.555
N of occupied +U levels =  57.2093448
 --- exit write_ns ---

     Threshold (ethr) on eigenvalues was too large:
     Diagonalizing with lowered threshold

     Davidson diagonalization with overlap
     ethr =  2.49E-08,  avg # of iterations =  2.1

[...]

     total energy              =   -2196.47209668 Ry
     Harris-Foulkes estimate   =   -2196.47209668 Ry
     estimated scf accuracy    <       0.00000002 Ry

     iteration # 17     ecut=    40.00 Ry     beta=0.30
     Davidson diagonalization with overlap
     ethr =  7.41E-12,  avg # of iterations =  1.0

     negative rho (up, down):  0.580E+00 0.000E+00

     End of self-consistent calculation
 --- enter write_ns ---
 LDA+U parameters:
U( 2)     =  0.50000000
alpha( 2) =  0.00000000
atom    3   Tr[ns(na)] =   7.15817
    eigenvalues:
  0.529  0.572  0.721  0.807  0.949
    eigenvectors:
  0.001  0.190  0.004  0.000  0.804
  0.997  0.003  0.000  0.000  0.000
  0.000  0.000  0.972  0.021  0.007
  0.002  0.806  0.003  0.000  0.189
  0.000  0.000  0.021  0.979  0.000
    occupations:
  0.876 -0.005  0.018 -0.147 -0.000
 -0.005  0.530 -0.000 -0.000 -0.001
  0.018 -0.000  0.724 -0.005  0.012
 -0.147 -0.000 -0.005  0.644 -0.000
 -0.000 -0.001  0.012 -0.000  0.805
atom    4   Tr[ns(na)] =   7.15151
    eigenvalues:
  0.558  0.601  0.687  0.779  0.951
    eigenvectors:
  0.000  0.990  0.000  0.000  0.009
  0.000  0.000  0.018  0.982  0.000
  0.000  0.000  0.982  0.018  0.000
  0.000  0.009  0.000  0.000  0.991
  1.000  0.000  0.000  0.000  0.000
    occupations:
  0.605 -0.001  0.000  0.033  0.001
 -0.001  0.777  0.012 -0.001 -0.000
  0.000  0.012  0.688  0.002  0.000
  0.033 -0.001  0.002  0.948 -0.000
  0.001 -0.000  0.000 -0.000  0.558
atom    9   Tr[ns(na)] =   7.12522
    eigenvalues:
  0.585  0.604  0.767  0.799  0.806
    eigenvectors:
  0.000  0.159  0.004  0.718  0.119
  0.996  0.004  0.000  0.000  0.000
  0.000  0.000  0.993  0.004  0.003
  0.004  0.836  0.002  0.134  0.023
  0.000  0.000  0.001  0.144  0.856
    occupations:
  0.769 -0.003 -0.004 -0.072  0.002
 -0.003  0.585  0.001  0.002  0.000
 -0.004  0.001  0.767 -0.002 -0.001
 -0.072  0.002 -0.002  0.635 -0.001
  0.002  0.000 -0.001 -0.001  0.805
atom   10   Tr[ns(na)] =   7.17097
    eigenvalues:
  0.544  0.557  0.731  0.816  0.937
    eigenvectors:
  0.000  0.990  0.000  0.000  0.009
  0.000  0.000  0.000  1.000  0.000
  0.000  0.000  1.000  0.000  0.000
  0.000  0.009  0.000  0.000  0.991
  1.000  0.000  0.000  0.000  0.000
    occupations:
  0.561  0.000  0.002  0.037  0.000
  0.000  0.816  0.000  0.000 -0.006
  0.002  0.000  0.731 -0.001  0.000
  0.037  0.000 -0.001  0.934 -0.000
  0.000 -0.006  0.000 -0.000  0.544
atom   16   Tr[ns(na)] =   7.15806
    eigenvalues:
  0.530  0.573  0.720  0.807  0.949
    eigenvectors:
  0.001  0.190  0.004  0.000  0.804
  0.997  0.003  0.000  0.000  0.000
  0.000  0.000  0.974  0.018  0.007
  0.002  0.807  0.003  0.000  0.188
  0.000  0.000  0.018  0.982  0.000
    occupations:
  0.876  0.005  0.018 -0.147 -0.000
  0.005  0.530  0.000  0.000 -0.001
  0.018  0.000  0.723 -0.006 -0.012
 -0.147  0.000 -0.006  0.644  0.000
 -0.000 -0.001 -0.012  0.000  0.806
atom   17   Tr[ns(na)] =   7.14791
    eigenvalues:
  0.558  0.603  0.691  0.773  0.950
    eigenvectors:
  0.000  0.991  0.000  0.000  0.009
  0.000  0.000  0.023  0.977  0.000
  0.000  0.000  0.977  0.023  0.000
  0.000  0.009  0.000  0.000  0.991
  1.000  0.000  0.000  0.000  0.000
    occupations:
  0.606 -0.001  0.000  0.033  0.001
 -0.001  0.771  0.012 -0.001 -0.001
  0.000  0.012  0.693  0.001  0.000
  0.033 -0.001  0.001  0.947 -0.000
  0.001 -0.001  0.000 -0.000  0.558
atom   22   Tr[ns(na)] =   7.12497
    eigenvalues:
  0.585  0.604  0.768  0.800  0.806
    eigenvectors:
  0.000  0.160  0.002  0.825  0.014
  0.999  0.001  0.000  0.000  0.000
  0.000  0.000  0.995  0.004  0.001
  0.001  0.839  0.002  0.156  0.002
  0.000  0.000  0.002  0.015  0.983
    occupations:
  0.768  0.003 -0.003 -0.071  0.001
  0.003  0.586  0.001 -0.002  0.000
 -0.003  0.001  0.768 -0.002  0.002
 -0.071 -0.002 -0.002  0.635 -0.000
  0.001  0.000  0.002 -0.000  0.805
atom   23   Tr[ns(na)] =   7.16908
    eigenvalues:
  0.555  0.593  0.720  0.790  0.927
    eigenvectors:
  0.000  0.997  0.000  0.000  0.003
  0.001  0.000  0.999  0.000  0.000
  0.000  0.000  0.000  1.000  0.000
  0.000  0.003  0.000  0.000  0.997
  0.999  0.000  0.001  0.000  0.000
    occupations:
  0.594  0.000  0.003  0.019 -0.000
  0.000  0.720  0.001  0.000 -0.005
  0.003  0.001  0.790 -0.001 -0.000
  0.019  0.000 -0.001  0.926 -0.000
 -0.000 -0.005 -0.000 -0.000  0.555
N of occupied +U levels =  57.2058925
 --- exit write_ns ---

[...]

          k = 0.2500-0.4870 0.0000 ( 30468 PWs)   bands (ev):

[...]

          k =-0.2500 0.2435 0.0000 ( 30434 PWs)   bands (ev):

   -74.3031 -74.2952 -74.0132 -73.9998 -73.9608 -73.7397 -73.7308 -73.7236
   -44.4543 -44.3211 -44.2512 -44.2454 -44.2371 -44.2362 -44.1930 -44.1746
   -44.1607 -44.0467 -44.0300 -43.9756 -43.9303 -43.9111 -43.8565 -43.7954
   -43.7943 -43.6993 -43.6650 -43.6490 -43.5944 -43.5796 -43.5711 -43.5594
   -23.1428 -20.5508 -20.1200 -20.0190 -19.9592 -19.7586 -19.4959 -19.4206
   -19.3300 -19.2487 -19.2010 -19.1710 -19.0201 -18.9966 -18.8832 -18.8355
   -18.7982 -18.7816 -18.4532 -16.9423  -8.7105  -8.4332  -8.1623  -8.1430
    -8.1106  -7.8474  -7.7903  -7.5804  -7.5095  -7.4074  -7.3461  -7.2659
    -7.2194  -7.1433  -7.1217  -7.0451  -6.9555  -6.8597  -6.7912  -6.5455
    -6.3735  -6.3429  -6.1734  -6.0681  -6.0153  -5.7429  -5.5638  -5.4666
    -5.3618  -5.2273  -5.1232  -5.0622  -5.0057  -4.9170  -4.8677  -4.7948
    -4.7236  -4.6229  -4.5856  -4.4731  -4.4374  -4.3881  -4.2845  -4.1051
    -4.0155  -3.8212  -3.7242  -3.7064  -3.5836  -3.5264  -3.4489  -3.3692
    -3.1694  -3.1072  -2.9818  -2.7520  -2.6996  -2.4017  -2.0268  -1.7953
    -1.5434  -1.4464  -1.3545  -1.2908  -1.2067  -1.1041  -1.0592  -1.0332
    -1.0038  -0.9938  -0.8706  -0.8438  -0.7518  -0.6241  -0.5186  -0.2810
    -0.1797  -0.0995   0.0685   0.2201   0.2879   0.3864   0.5585   1.1845
     1.8388   1.9346   2.0600   2.1101   2.6056   2.9314   3.0140   3.2370
     3.4297   3.5417   3.6226   3.6677   3.7690   3.8819   4.0408   4.1188
     4.3433   4.5021   4.7493   5.2682   5.6527   5.8211   6.1050   6.1358
     6.2224   6.5369   6.6011   6.7496   6.9051   7.1305   7.1623   7.4630
     7.6331   7.7721   7.9555   8.0757   8.1521   8.4322   8.4781   8.5807
     8.6536   8.7375   8.9247   9.0123   9.1144   9.2601   9.3640   9.4323
     9.6009   9.6889   9.7179   9.8661  10.0341  10.1124  10.1678  10.2558
    10.2943  10.4382  10.5173  10.6210  10.6451  10.7816  10.8328  10.9476
    11.0099  11.1514  11.2672  11.3603  11.3992  11.5447  11.5980  11.7031
    11.7754  11.8745  11.9792  12.0191  12.0463  12.1049  12.1820  12.2515
    12.3752  12.3950  12.5095  12.6122  12.6721  12.7534  12.8058  12.8610
    12.9248  12.9815  13.0553  13.1653  13.1852  13.3109  13.3753  13.4519
    13.5425  13.6545  13.7490  13.8187  13.9190  13.9665  14.0143  14.1413
    14.2007  14.2874  14.4120  14.4648  14.5728  14.6586  14.7191  14.7566
    14.8280  14.8848  14.9785  15.0592  15.1690  15.2004  15.2990  15.3118
    15.4214  15.4790  15.5416  15.6196  15.7120  15.7865  15.8315  15.8868
    15.9508  15.9929  16.0655  16.1296  16.1712  16.2130  16.2891  16.3113
    16.3983  16.4267  16.5613  16.6307  16.7050  16.7462  16.7985  16.8901
    16.9372  16.9708  17.0386  17.1220  17.2546  17.3238  17.3466  17.4742
    17.4977  17.5451  17.5749  17.6667  17.7500  17.7850  17.8208  17.9175
    18.0012  18.0151  18.0757  18.1052  18.1944  18.2449  18.3257  18.3879
    18.4568  18.4967  18.6296  18.6842  18.7754  18.8701  18.8827  18.9554
    19.0498  19.1367  19.2186  19.2682  19.3065  19.4253  19.4946  19.5909
    19.6262  19.7088  19.7839  19.8268  19.8872  19.9639  20.0106  20.1216
    20.2059  20.2252  20.3146  20.4923  20.5317  20.5803  20.6497  20.7230
    20.8668  20.9097  20.9453  20.9727  21.0427  21.0720  21.1378  21.2413
    21.3095  21.3508  21.4262  21.4540  21.5133  21.5649  21.6175  21.6612
    21.7329  21.8050  21.8533  21.9259  21.9617  22.0369  22.0658  22.1314
    22.2086  22.2902  22.3281  22.4174  22.4697  22.5149  22.6193

     the Fermi energy is    -0.4683 ev

!    total energy              =   -2196.47209667 Ry
     Harris-Foulkes estimate   =   -2196.47209668 Ry
     estimated scf accuracy    <          6.4E-09 Ry

     The total energy is the sum of the following terms:

     one-electron contribution =  -25591.87821121 Ry
     hartree contribution      =   12824.00334366 Ry
     xc contribution           =    -345.48091775 Ry
     ewald contribution        =   10916.61115183 Ry
     Hubbard energy            =       0.27267694 Ry
     smearing contrib. (-TS)   =      -0.00014013 Ry

     convergence has been achieved in  17 iterations

     Forces acting on atoms (Ry/au):

     negative rho (up, down):  0.580E+00 0.000E+00
     atom    1 type  1   force =    -0.00459018   -0.01019443   -0.00025908
     atom    2 type  1   force =    -0.00011160    0.00717045   -0.00034057
     atom    3 type  2   force =     0.03566494   -0.00054175    0.00000718
     atom    4 type  2   force =     0.00394548    0.00595407   -0.00001949
     atom    5 type  1   force =     0.00173694   -0.02939467    0.00002605
     atom    6 type  1   force =     0.00163803    0.03124375    0.00008160
     atom    7 type  1   force =     0.00026926   -0.00516924    0.00017095
     atom    8 type  1   force =    -0.00021019    0.00016404    0.00076520
     atom    9 type  2   force =    -0.01307013    0.00006562    0.00012763
     atom   10 type  2   force =     0.00006887    0.00150244    0.00050777
     atom   11 type  1   force =    -0.01154204    0.00944463   -0.00043763
     atom   12 type  1   force =    -0.00535005   -0.00590515   -0.00040763
     atom   13 type  1   force =    -0.00164877   -0.00189984    0.00014031
     atom   14 type  1   force =    -0.00528952   -0.01088488   -0.00020272
     atom   15 type  1   force =    -0.00008376    0.00615233   -0.00041384
     atom   16 type  2   force =    -0.03611368   -0.00064648    0.00009894
     atom   17 type  2   force =     0.00363878    0.00613969   -0.00009264
     atom   18 type  1   force =     0.00020005   -0.02970500    0.00003548
     atom   19 type  1   force =     0.00009016    0.03138026    0.00008380
     atom   20 type  1   force =     0.00010981   -0.00444659    0.00080967
     atom   21 type  1   force =    -0.00002484    0.00054326    0.00079817
     atom   22 type  2   force =     0.01498120   -0.00043867    0.00003986
     atom   23 type  2   force =     0.00012939    0.00126127   -0.00040730
     atom   24 type  1   force =     0.01130679    0.00947050   -0.00043812
     atom   25 type  1   force =     0.00540585   -0.00595710   -0.00042451
     atom   26 type  1   force =    -0.00169243   -0.00717761    0.00013089
     atom   27 type  3   force =    -0.00000916    0.00012181   -0.00033212
     atom   28 type  3   force =    -0.00001097    0.00022743   -0.00032631
     atom   29 type  3   force =     0.00029144   -0.00002618    0.00027450
     atom   30 type  3   force =     0.00026392   -0.00002943    0.00028788
     atom   31 type  1   force =     0.00011113    0.00038933   -0.00005751
     atom   32 type  1   force =    -0.00010279    0.00065328   -0.00000698
     atom   33 type  3   force =    -0.00000192    0.00053288   -0.00021942

     Total force =     0.002254     Total SCF correction =     0.000180

     entering subroutine stress ...

     negative rho (up, down):  0.580E+00 0.000E+00
          total   stress  (Ry/bohr**3)                   (kbar)     P=   -6.67
  -0.00005196   0.00000146   0.00000256         -7.64      0.21      0.38
   0.00000146  -0.00004428   0.00000340          0.21     -6.51      0.50
   0.00000256   0.00000340  -0.00003984          0.38      0.50     -5.86

     bfgs converged in   6 scf cycles and   5 bfgs steps
     (criteria: energy < 0.10E-03, force < 0.10E-02)

     End of BFGS Geometry Optimization

     Final energy   =   -2196.4720966734 Ry
Begin final coordinates

ATOMIC_POSITIONS (crystal)
O0       0.000000000   0.000000000   0.377690914    0   0   1
O0       0.000000000   0.500000000   0.404983518    0   0   1
Ru1      0.250000000   0.500000000   0.455188402    0   0   1
Ru1      0.000000000   0.000000000   0.451540310    0   0   1
O0       0.250000000   0.810000000   0.452222567    0   0   1
O0       0.250000000   0.190000000   0.452271835    0   0   1
O0       0.000000000   0.500000000   0.499661677    0   0   1
O0       0.000000000   0.000000000   0.525291559    0   0   1
Ru1      0.250000000   0.000000000   0.575662743    0   0   1
Ru1      0.000000000   0.500000000   0.570237403    0   0   1
O0       0.250000000   0.690000000   0.575365406    0   0   1
O0       0.250000000   0.310000000   0.577315590    0   0   1
O0       0.000000000   0.000000000   0.617612701    0   0   1
O0       0.500000000   0.000000000   0.377785260    0   0   1
O0       0.500000000   0.500000000   0.404424217    0   0   1
Ru1      0.750000000   0.500000000   0.455185587    0   0   1
Ru1      0.500000000   0.000000000   0.451744298    0   0   1
O0       0.750000000   0.810000000   0.452234254    0   0   1
O0       0.750000000   0.190000000   0.452263745    0   0   1
O0       0.500000000   0.500000000   0.501975910    0   0   1
O0       0.500000000   0.000000000   0.525377910    0   0   1
Ru1      0.750000000   0.000000000   0.575696397    0   0   1
Ru1      0.500000000   0.500000000   0.578246399    0   0   1
O0       0.750000000   0.690000000   0.575382936    0   0   1
O0       0.750000000   0.310000000   0.577274642    0   0   1
O0       0.500000000   0.000000000   0.615363852    0   0   1
H2      -0.000388731   0.623921798   0.382707528
H2       0.499710993   0.627574458   0.383364585
H2       0.146247436   0.029082581   0.365242094
H2       0.645790606   0.030434631   0.365278110
O0       0.500204395   0.527590116   0.650806204
O0       0.499908448   0.333429773   0.679309877
H2       0.499950299   0.391760184   0.713911571
End final coordinates

     General routines

     Parallel routines
     Hubbard U routines

   This run was terminated on:   2:23:49   6Jun2014

   JOB DONE.