     Program PWSCF v.5.0.2 (svn rev. 9656) starts on  5May2014 at 19:27:21

     Current dimensions of program PWSCF are:
     Max number of different atomic species (ntypx) = 10
     Max number of k-points (npk) =  40000
     Max angular momentum in pseudopotentials (lmaxx) =  3
     Reading input from pwscf.in
Warning: card &CELL ignored
Warning: card / ignored

     Subspace diagonalization in iterative solution of the eigenvalue problem:
     a serial algorithm will be used

     bravais-lattice index     =            0
     lattice parameter (alat)  =      12.0187  a.u.
     unit-cell volume          =    7280.5819 (a.u.)^3
     number of atoms/cell      =           30
     number of atomic types    =            3
     number of electrons       =       232.00
     number of Kohn-Sham states=          348
     kinetic-energy cutoff     =      40.0000  Ry
     charge density cutoff     =     500.0000  Ry
     convergence threshold     =      1.0E-06
     mixing beta               =       0.7000
     number of iterations used =            8  plain     mixing
     Exchange-correlation      = SLA  PW   PBE  PBE ( 1 4 3 4 0)
     EXX-fraction              =        0.00
     nstep                     =           50

     celldm(1)=  12.018658  celldm(2)=   0.000000  celldm(3)=   0.000000
     celldm(4)=   0.000000  celldm(5)=   0.000000  celldm(6)=   0.000000

     crystal axes: (cart. coord. in units of alat)
               a(1) = (   1.000000   0.000000   0.000000 )
               a(2) = (   0.000000   1.009517   0.000000 )
               a(3) = (   0.000000   0.000000   4.154171 )

     reciprocal axes: (cart. coord. in units 2 pi/alat)
               b(1) = (  1.000000  0.000000  0.000000 )
               b(2) = (  0.000000  0.990572  0.000000 )
               b(3) = (  0.000000  0.000000  0.240722 )

     PseudoPot. # 1 for O  read from file:
     /home/camp/zhonxu/pseudo/o_pbe_v1.01.uspp.F.UPF
     MD5 check sum: 2bcb18d16ea4b960afae9ec6d52f22d2
     Pseudo is Ultrasoft + core correction, Zval =  6.0
     Generated by new atomic code, or converted to UPF format
     Using radial grid of  737 points,  5 beta functions with:
                l(1) =   0
                l(2) =   0
                l(3) =   1
                l(4) =   1
                l(5) =   2
     Q(r) pseudized with  8 coefficients,  rinner =    0.900   0.900   0.900
                                                       0.900   0.900

     PseudoPot. # 2 for Ir read from file:
     /home/camp/zhonxu/pseudo/ir_pbe_v1.uspp.F.UPF
     MD5 check sum: abf987a9674477536ede83817f8f8b70
     Pseudo is Ultrasoft + core correction, Zval = 15.0
     Generated by new atomic code, or converted to UPF format
     Using radial grid of  983 points,  7 beta functions with:
                l(1) =   0
                l(2) =   0
                l(3) =   1
                l(4) =   1
                l(5) =   1
                l(6) =   2
                l(7) =   2
     Q(r) pseudized with  8 coefficients,  rinner =    1.350   1.350   1.350
                                                       1.350   1.350

     PseudoPot. # 3 for H  read from file:
     /home/camp/zhonxu/pseudo/h_pbe_v1.uspp.F.UPF
     MD5 check sum: 3408e3ff4ec8b0a4e358431e7e038a48
     Pseudo is Ultrasoft, Zval =  1.0
     Generated by new atomic code, or converted to UPF format
     Using radial grid of  615 points,  2 beta functions with:
                l(1) =   0
                l(2) =   0
     Q(r) pseudized with  8 coefficients,  rinner =    0.700

     atomic species   valence    mass     pseudopotential
        O0             6.00    15.99940     O ( 1.00)
        Ir1           15.00   192.22000     Ir( 1.00)
        H2             1.00     1.00794     H ( 1.00)

     Simplified LDA+U calculation (l_max = 2) with parameters (eV):
     atomic species    L          U    alpha       J0     beta
        Ir1            2     0.5000   0.0000   0.0000   0.0000

     No symmetry found

   Cartesian axes

     site n.     atom                  positions (alat units)
         1           O0  tau(   1) = (   0.0000000   0.0000000   1.5730185  )
         2           O0  tau(   2) = (   0.0000000   0.5047586   1.6673182  )
         3           Ir1 tau(   3) = (   0.2500000   0.5047586   1.8780178  )
         4           Ir1 tau(   4) = (   0.0000000   0.0000000   1.8842906  )
         5           O0  tau(   5) = (   0.2500000   0.8177090   1.8825458  )
         6           O0  tau(   6) = (   0.2500000   0.1918083   1.8810503  )
         7           O0  tau(   7) = (   0.0000000   0.5047586   2.0695666  )
         8           O0  tau(   8) = (   0.0000000   0.0000000   2.1991352  )
         9           Ir1 tau(   9) = (   0.2500000   0.0000000   2.3955860  )
        10           Ir1 tau(  10) = (   0.0000000   0.5047586   2.3764768  )
        11           O0  tau(  11) = (   0.2500000   0.6965669   2.3975800  )
        12           O0  tau(  12) = (   0.2500000   0.3129503   2.3977461  )
        13           O0  tau(  13) = (   0.0000000   0.0000000   2.5806958  )
        14           O0  tau(  14) = (   0.5000000   0.0000000   1.5730185  )
        15           O0  tau(  15) = (   0.5000000   0.5047586   1.6673182  )
        16           Ir1 tau(  16) = (   0.7500000   0.5047586   1.8780178  )
        17           Ir1 tau(  17) = (   0.5000000   0.0000000   1.8842906  )
        18           O0  tau(  18) = (   0.7500000   0.8177090   1.8825458  )
        19           O0  tau(  19) = (   0.7500000   0.1918083   1.8810503  )
        20           O0  tau(  20) = (   0.5000000   0.5047586   2.0695666  )
        21           O0  tau(  21) = (   0.5000000   0.0000000   2.1991352  )
        22           Ir1 tau(  22) = (   0.7500000   0.0000000   2.3955860  )
        23           Ir1 tau(  23) = (   0.5000000   0.5047586   2.3764768  )
        24           O0  tau(  24) = (   0.7500000   0.6965669   2.3975800  )
        25           O0  tau(  25) = (   0.7500000   0.3129503   2.3977461  )
        26           O0  tau(  26) = (   0.5000000   0.0000000   2.5807374  )
        27           H2  tau(  27) = (  -0.0000500   0.6423962   1.5933324  )
        28           H2  tau(  28) = (   0.4999500   0.6423962   1.5933324  )
        29           H2  tau(  29) = (   0.1436500   0.0338188   1.5249132  )
        30           H2  tau(  30) = (   0.6436500   0.0338188   1.5249132  )

     number of k points=    10  Methfessel-Paxton smearing, width (Ry)=  0.0100
                       cart. coord. in units 2pi/alat
        k(    1) = (   0.0000000   0.0000000   0.0000000), wk =   0.1250000
        k(    2) = (   0.0000000   0.2476431   0.0000000), wk =   0.2500000
        k(    3) = (   0.0000000  -0.4952862   0.0000000), wk =   0.1250000
        k(    4) = (   0.2500000   0.0000000   0.0000000), wk =   0.2500000
        k(    5) = (   0.2500000   0.2476431   0.0000000), wk =   0.2500000
        k(    6) = (   0.2500000  -0.4952862   0.0000000), wk =   0.2500000
        k(    7) = (  -0.5000000   0.0000000   0.0000000), wk =   0.1250000
        k(    8) = (  -0.5000000   0.2476431   0.0000000), wk =   0.2500000
        k(    9) = (  -0.5000000  -0.4952862   0.0000000), wk =   0.1250000
        k(   10) = (  -0.2500000   0.2476431   0.0000000), wk =   0.2500000

     Largest allocated arrays     est. size (Mb)     dimensions
     Largest temporary arrays     est. size (Mb)     dimensions

     Check: negative/imaginary core charge=   -0.000003    0.000000

     Initial potential from superposition of free atoms
     Check: negative starting charge=   -3.334716

     starting charge  227.99968, renormalised to  232.00000

     negative rho (up, down):  0.339E+01 0.000E+00
     Number of +U iterations with fixed ns =  0
     Starting occupations:
 --- enter write_ns ---
 LDA+U parameters:
U( 2)     =  0.50000000
alpha( 2) =  0.00000000
atom    3   Tr[ns(na)] =   7.00000
    eigenvalues:
  0.700  0.700  0.700  0.700  0.700
    eigenvectors:
  1.000  0.000  0.000  0.000  0.000
  0.000  1.000  0.000  0.000  0.000
  0.000  0.000  1.000  0.000  0.000
  0.000  0.000  0.000  1.000  0.000
  0.000  0.000  0.000  0.000  1.000
    occupations:
  0.700  0.000  0.000  0.000  0.000
  0.000  0.700  0.000  0.000  0.000
  0.000  0.000  0.700  0.000  0.000
  0.000  0.000  0.000  0.700  0.000
  0.000  0.000  0.000  0.000  0.700
atom    4   Tr[ns(na)] =   7.00000
    eigenvalues:
  0.700  0.700  0.700  0.700  0.700
    eigenvectors:
  1.000  0.000  0.000  0.000  0.000
  0.000  1.000  0.000  0.000  0.000
  0.000  0.000  1.000  0.000  0.000
  0.000  0.000  0.000  1.000  0.000
  0.000  0.000  0.000  0.000  1.000
    occupations:
  0.700  0.000  0.000  0.000  0.000
  0.000  0.700  0.000  0.000  0.000
  0.000  0.000  0.700  0.000  0.000
  0.000  0.000  0.000  0.700  0.000
  0.000  0.000  0.000  0.000  0.700
atom    9   Tr[ns(na)] =   7.00000
    eigenvalues:
  0.700  0.700  0.700  0.700  0.700
    eigenvectors:
  1.000  0.000  0.000  0.000  0.000
  0.000  1.000  0.000  0.000  0.000
  0.000  0.000  1.000  0.000  0.000
  0.000  0.000  0.000  1.000  0.000
  0.000  0.000  0.000  0.000  1.000
    occupations:
  0.700  0.000  0.000  0.000  0.000
  0.000  0.700  0.000  0.000  0.000
  0.000  0.000  0.700  0.000  0.000
  0.000  0.000  0.000  0.700  0.000
  0.000  0.000  0.000  0.000  0.700
atom   10   Tr[ns(na)] =   7.00000
    eigenvalues:
  0.700  0.700  0.700  0.700  0.700
    eigenvectors:
  1.000  0.000  0.000  0.000  0.000
  0.000  1.000  0.000  0.000  0.000
  0.000  0.000  1.000  0.000  0.000
  0.000  0.000  0.000  1.000  0.000
  0.000  0.000  0.000  0.000  1.000
    occupations:
  0.700  0.000  0.000  0.000  0.000
  0.000  0.700  0.000  0.000  0.000
  0.000  0.000  0.700  0.000  0.000
  0.000  0.000  0.000  0.700  0.000
  0.000  0.000  0.000  0.000  0.700
atom   16   Tr[ns(na)] =   7.00000
    eigenvalues:
  0.700  0.700  0.700  0.700  0.700
    eigenvectors:
  1.000  0.000  0.000  0.000  0.000
  0.000  1.000  0.000  0.000  0.000
  0.000  0.000  1.000  0.000  0.000
  0.000  0.000  0.000  1.000  0.000
  0.000  0.000  0.000  0.000  1.000
    occupations:
  0.700  0.000  0.000  0.000  0.000
  0.000  0.700  0.000  0.000  0.000
  0.000  0.000  0.700  0.000  0.000
  0.000  0.000  0.000  0.700  0.000
  0.000  0.000  0.000  0.000  0.700
atom   17   Tr[ns(na)] =   7.00000
    eigenvalues:
  0.700  0.700  0.700  0.700  0.700
    eigenvectors:
  1.000  0.000  0.000  0.000  0.000
  0.000  1.000  0.000  0.000  0.000
  0.000  0.000  1.000  0.000  0.000
  0.000  0.000  0.000  1.000  0.000
  0.000  0.000  0.000  0.000  1.000
    occupations:
  0.700  0.000  0.000  0.000  0.000
  0.000  0.700  0.000  0.000  0.000
  0.000  0.000  0.700  0.000  0.000
  0.000  0.000  0.000  0.700  0.000
  0.000  0.000  0.000  0.000  0.700
atom   22   Tr[ns(na)] =   7.00000
    eigenvalues:
  0.700  0.700  0.700  0.700  0.700
    eigenvectors:
  1.000  0.000  0.000  0.000  0.000
  0.000  1.000  0.000  0.000  0.000
  0.000  0.000  1.000  0.000  0.000
  0.000  0.000  0.000  1.000  0.000
  0.000  0.000  0.000  0.000  1.000
    occupations:
  0.700  0.000  0.000  0.000  0.000
  0.000  0.700  0.000  0.000  0.000
  0.000  0.000  0.700  0.000  0.000
[...]
  0.618  0.663  0.853  0.904  0.978
    eigenvectors:
  0.000  0.990  0.000  0.000  0.010
  0.000  0.000  0.041  0.959  0.000
  0.000  0.000  0.959  0.041  0.000
  0.000  0.010  0.000  0.000  0.990
  1.000  0.000  0.000  0.000  0.000
    occupations:
  0.667 -0.003 -0.001  0.031  0.001
 -0.003  0.902  0.010  0.000 -0.001
 -0.001  0.010  0.855 -0.000  0.000
  0.031  0.000 -0.000  0.975  0.000
  0.001 -0.001  0.000  0.000  0.618
atom    9   Tr[ns(na)] =   8.01075
    eigenvalues:
  0.648  0.664  0.841  0.877  0.976
    eigenvectors:
  0.000  0.146  0.000  0.000  0.854
  1.000  0.000  0.000  0.000  0.000
  0.000  0.000  1.000  0.000  0.000
  0.000  0.854  0.000  0.000  0.146
  0.000  0.000  0.000  1.000  0.000
    occupations:
  0.930  0.000 -0.000 -0.110 -0.001
  0.000  0.648  0.000  0.000 -0.000
 -0.000  0.000  0.841 -0.000 -0.000
 -0.110  0.000 -0.000  0.710  0.001
 -0.001 -0.000 -0.000  0.001  0.877
atom   10   Tr[ns(na)] =   8.01822
    eigenvalues:
  0.604  0.608  0.910  0.912  0.975
    eigenvectors:
  0.995  0.000  0.000  0.000  0.005
  0.000  0.000  0.994  0.006  0.000
  0.000  0.000  0.006  0.994  0.000
  0.005  0.000  0.000  0.000  0.995
  0.000  1.000  0.000  0.000  0.000
    occupations:
  0.606  0.000  0.002  0.025 -0.000
  0.000  0.910 -0.000  0.000 -0.000
  0.002 -0.000  0.912  0.000  0.000
  0.025  0.000  0.000  0.973  0.000
 -0.000 -0.000  0.000  0.000  0.608
atom   16   Tr[ns(na)] =   8.06434
    eigenvalues:
  0.605  0.628  0.879  0.958  0.962
    eigenvectors:
  0.000  0.196  0.003  0.001  0.800
  1.000  0.000  0.000  0.000  0.000
  0.000  0.000  0.996  0.000  0.003
  0.000  0.804  0.000  0.000  0.195
  0.000  0.000  0.000  0.998  0.001
    occupations:
  0.896 -0.000  0.003 -0.133  0.000
 -0.000  0.605 -0.000 -0.000 -0.006
  0.003 -0.000  0.879 -0.004  0.001
 -0.133 -0.000 -0.004  0.693 -0.000
  0.000 -0.006  0.001 -0.000  0.958
atom   17   Tr[ns(na)] =   8.03169
    eigenvalues:
  0.618  0.663  0.853  0.904  0.978
    eigenvectors:
  0.000  0.990  0.000  0.000  0.010
  0.000  0.000  0.041  0.959  0.000
  0.000  0.000  0.959  0.041  0.000
  0.000  0.010  0.000  0.000  0.990
  1.000  0.000  0.000  0.000  0.000
    occupations:
  0.667 -0.003 -0.001  0.031  0.001
 -0.003  0.902  0.010  0.000 -0.001
 -0.001  0.010  0.855 -0.000  0.000
  0.031  0.000 -0.000  0.975  0.000
  0.001 -0.001  0.000  0.000  0.618
atom   22   Tr[ns(na)] =   8.01070
    eigenvalues:
  0.648  0.664  0.841  0.877  0.976
    eigenvectors:
  0.000  0.146  0.000  0.000  0.854
  1.000  0.000  0.000  0.000  0.000
  0.000  0.000  1.000  0.000  0.000
  0.000  0.854  0.000  0.000  0.146
  0.000  0.000  0.000  1.000  0.000
    occupations:
  0.930  0.000 -0.000 -0.110 -0.001
  0.000  0.648  0.000  0.000 -0.000
 -0.000  0.000  0.841 -0.000 -0.000
 -0.110  0.000 -0.000  0.710  0.001
 -0.001 -0.000 -0.000  0.001  0.877
atom   23   Tr[ns(na)] =   8.01858
    eigenvalues:
  0.604  0.608  0.910  0.912  0.975
    eigenvectors:
  0.995  0.000  0.000  0.000  0.005
  0.000  0.000  0.994  0.006  0.000
  0.000  0.000  0.006  0.994  0.000
  0.005  0.000  0.000  0.000  0.995
  0.000  1.000  0.000  0.000  0.000
    occupations:
  0.606  0.000  0.002  0.025 -0.000
  0.000  0.910 -0.000  0.000 -0.000
  0.002 -0.000  0.912  0.000  0.000
  0.025  0.000  0.000  0.973  0.000
 -0.000 -0.000  0.000  0.000  0.608
N of occupied +U levels =  64.2504559
 --- exit write_ns ---

     Threshold (ethr) on eigenvalues was too large:
     Diagonalizing with lowered threshold

     Davidson diagonalization with overlap
     ethr =  3.17E-09,  avg # of iterations =  2.6

[...]

     total energy              =   -2073.80408369 Ry
     Harris-Foulkes estimate   =   -2073.80408369 Ry
     estimated scf accuracy    <       0.00000002 Ry

     iteration # 14     ecut=    40.00 Ry     beta=0.70
     Davidson diagonalization with overlap
     ethr =  8.61E-12,  avg # of iterations =  1.0

     negative rho (up, down):  0.313E+01 0.000E+00

     End of self-consistent calculation
 --- enter write_ns ---
 LDA+U parameters:
U( 2)     =  0.50000000
alpha( 2) =  0.00000000
atom    3   Tr[ns(na)] =   8.06475
    eigenvalues:
  0.605  0.628  0.879  0.958  0.962
    eigenvectors:
  0.000  0.196  0.003  0.001  0.800
  1.000  0.000  0.000  0.000  0.000
  0.000  0.000  0.996  0.000  0.003
  0.000  0.804  0.000  0.000  0.195
  0.000  0.000  0.000  0.998  0.001
    occupations:
  0.896 -0.000  0.003 -0.133  0.000
 -0.000  0.606 -0.000 -0.000 -0.006
  0.003 -0.000  0.879 -0.004  0.001
 -0.133 -0.000 -0.004  0.693 -0.000
  0.000 -0.006  0.001 -0.000  0.958
atom    4   Tr[ns(na)] =   8.03162
    eigenvalues:
  0.618  0.663  0.853  0.904  0.978
    eigenvectors:
  0.000  0.990  0.000  0.000  0.010
  0.000  0.000  0.041  0.959  0.000
  0.000  0.000  0.959  0.041  0.000
  0.000  0.010  0.000  0.000  0.990
  1.000  0.000  0.000  0.000  0.000
    occupations:
  0.667 -0.003 -0.001  0.031  0.001
 -0.003  0.902  0.010  0.000 -0.001
 -0.001  0.010  0.855 -0.000  0.000
  0.031  0.000 -0.000  0.975  0.000
  0.001 -0.001  0.000  0.000  0.618
atom    9   Tr[ns(na)] =   8.01084
    eigenvalues:
  0.648  0.664  0.841  0.877  0.976
    eigenvectors:
  0.000  0.146  0.000  0.000  0.854
  1.000  0.000  0.000  0.000  0.000
  0.000  0.000  1.000  0.000  0.000
  0.000  0.854  0.000  0.000  0.146
  0.000  0.000  0.000  1.000  0.000
    occupations:
  0.930  0.000 -0.000 -0.110 -0.001
  0.000  0.648  0.000  0.000 -0.000
 -0.000  0.000  0.841 -0.000 -0.000
 -0.110  0.000 -0.000  0.710  0.001
 -0.001 -0.000 -0.000  0.001  0.877
atom   10   Tr[ns(na)] =   8.01842
    eigenvalues:
  0.604  0.608  0.910  0.912  0.975
    eigenvectors:
  0.995  0.000  0.000  0.000  0.005
  0.000  0.000  0.994  0.006  0.000
  0.000  0.000  0.006  0.994  0.000
  0.005  0.000  0.000  0.000  0.995
  0.000  1.000  0.000  0.000  0.000
    occupations:
  0.606  0.000  0.002  0.025 -0.000
  0.000  0.910 -0.000  0.000 -0.000
  0.002 -0.000  0.912  0.000  0.000
  0.025  0.000  0.000  0.973  0.000
 -0.000 -0.000  0.000  0.000  0.608
atom   16   Tr[ns(na)] =   8.06474
    eigenvalues:
  0.605  0.628  0.879  0.958  0.962
    eigenvectors:
  0.000  0.196  0.003  0.001  0.800
  1.000  0.000  0.000  0.000  0.000
  0.000  0.000  0.996  0.000  0.003
  0.000  0.804  0.000  0.000  0.195
  0.000  0.000  0.000  0.998  0.001
    occupations:
  0.896 -0.000  0.003 -0.133  0.000
 -0.000  0.606 -0.000 -0.000 -0.006
  0.003 -0.000  0.879 -0.004  0.001
 -0.133 -0.000 -0.004  0.693 -0.000
  0.000 -0.006  0.001 -0.000  0.958
atom   17   Tr[ns(na)] =   8.03161
    eigenvalues:
  0.618  0.663  0.853  0.904  0.978
    eigenvectors:
  0.000  0.990  0.000  0.000  0.010
  0.000  0.000  0.041  0.959  0.000
  0.000  0.000  0.959  0.041  0.000
  0.000  0.010  0.000  0.000  0.990
  1.000  0.000  0.000  0.000  0.000
    occupations:
  0.667 -0.003 -0.001  0.031  0.001
 -0.003  0.902  0.010  0.000 -0.001
 -0.001  0.010  0.855 -0.000  0.000
  0.031  0.000 -0.000  0.975  0.000
  0.001 -0.001  0.000  0.000  0.618
atom   22   Tr[ns(na)] =   8.01085
    eigenvalues:
  0.648  0.664  0.841  0.877  0.976
    eigenvectors:
  0.000  0.146  0.000  0.000  0.854
  1.000  0.000  0.000  0.000  0.000
  0.000  0.000  1.000  0.000  0.000
  0.000  0.854  0.000  0.000  0.146
  0.000  0.000  0.000  1.000  0.000
    occupations:
  0.930  0.000 -0.000 -0.110 -0.001
  0.000  0.648  0.000  0.000 -0.000
 -0.000  0.000  0.841 -0.000 -0.000
 -0.110  0.000 -0.000  0.710  0.001
 -0.001 -0.000 -0.000  0.001  0.877
atom   23   Tr[ns(na)] =   8.01844
    eigenvalues:
  0.604  0.608  0.910  0.912  0.975
    eigenvectors:
  0.995  0.000  0.000  0.000  0.005
  0.000  0.000  0.994  0.006  0.000
  0.000  0.000  0.006  0.994  0.000
  0.005  0.000  0.000  0.000  0.995
  0.000  1.000  0.000  0.000  0.000
    occupations:
  0.606  0.000  0.002  0.025 -0.000
  0.000  0.910 -0.000  0.000 -0.000
  0.002 -0.000  0.912  0.000  0.000
  0.025  0.000  0.000  0.973  0.000
 -0.000 -0.000  0.000  0.000  0.608
N of occupied +U levels =  64.2512713
 --- exit write_ns ---

[...]

          k = 0.2500-0.4953 0.0000 ( 31088 PWs)   bands (ev):

[...]

          k =-0.2500 0.2476 0.0000 ( 31099 PWs)   bands (ev):

   -51.0724 -51.0680 -51.0664 -51.0237 -51.0167 -50.9927 -50.9228 -50.8530
   -50.8510 -50.8424 -50.7875 -50.7670 -50.7656 -50.7614 -50.7579 -50.7476
   -50.7145 -50.6958 -50.6913 -50.6858 -50.5748 -50.5644 -50.4587 -50.4479
   -21.5041 -21.1164 -21.0309 -20.9418 -20.6277 -20.4561 -20.4446 -20.4105
   -20.2190 -20.1766 -20.0739 -19.9265 -19.9015 -19.8391 -19.6979 -19.5260
   -18.6254 -18.5422  -9.7677  -9.5852  -9.5624  -9.2260  -8.8199  -8.7552
    -8.7030  -8.6020  -8.5801  -8.4498  -8.4243  -8.3408  -8.3372  -8.2835
    -7.9929  -7.9192  -7.8545  -7.6317  -7.4422  -7.2993  -7.2991  -7.0593
    -7.0372  -6.6827  -6.5192  -6.4043  -6.2891  -6.2017  -6.1265  -6.1013
    -6.0007  -5.9496  -5.8771  -5.7883  -5.7600  -5.6299  -5.4367  -5.4286
    -5.1782  -5.0713  -4.9444  -4.7883  -4.7213  -4.6158  -4.5154  -4.4473
    -4.2355  -4.1218  -4.0570  -3.6547  -3.6212  -3.3614  -3.2881  -3.0829
    -2.9236  -2.8555  -2.5792  -2.5057  -2.4949  -2.4298  -2.3211  -2.2981
    -2.2089  -2.1971  -2.1686  -2.0434  -1.8881  -1.7559  -1.6598  -1.4890
    -1.1184  -1.0255  -1.0230  -0.8428  -0.8134  -0.5891  -0.4050  -0.2995
    -0.1171   0.0678   0.9182   1.1038   1.4924   1.6441   1.7455   2.0939
     2.3308   2.6071   2.7952   2.8321   3.1370   3.1729   3.2966   3.3923
     3.7426   4.3164   4.7779   5.1904   5.4016   5.5607   5.6795   5.8859
     6.1437   6.2940   6.5585   6.5892   6.6507   6.8383   7.0713   7.1034
     7.2716   7.3487   7.4281   7.6094   7.6709   7.8680   7.9724   8.0528
     8.1523   8.3650   8.4253   8.4409   8.5532   8.7110   8.7985   8.8257
     8.8859   8.8865   8.9138   9.0101   9.0107   9.0710   9.0788   9.1032
     9.1121   9.1411   9.1415   9.2266   9.3184   9.5028   9.6110   9.6805
     9.7178   9.8467   9.9827  10.0858  10.1772  10.3065  10.3175  10.3872
    10.4242  10.4504  10.5662  10.7584  10.8065  10.8133  10.9159  11.0062
    11.0261  11.2170  11.3269  11.4029  11.5415  11.5635  11.6878  11.7353
    11.7918  11.9280  12.0314  12.1478  12.1745  12.2233  12.2906  12.3815
    12.5303  12.5980  12.6100  12.6414  12.7145  12.7958  12.8225  12.8998
    13.0364  13.0529  13.1205  13.1868  13.2599  13.3317  13.4213  13.5351
    13.5524  13.7242  13.8483  13.8648  13.9626  13.9666  14.0294  14.1263
    14.2450  14.3312  14.4019  14.4750  14.5447  14.7331  14.7361  14.8493
    14.8495  15.1651  15.1737  15.3465  15.3501  15.4466  15.5381  15.5725
    15.6117  15.7550  15.7642  15.8241  15.8705  15.9213  15.9729  16.0549
    16.0579  16.1013  16.1407  16.2433  16.3398  16.3445  16.4262  16.4320
    16.5549  16.6447  16.6993  16.7403  16.7885  16.8212  17.0807  17.1562
    17.1767  17.3424  17.3667  17.4426  17.4501  17.4861  17.5661  17.5861
    17.6636  17.7260  17.7265  17.8497  17.9067  17.9347  17.9707  17.9744
    18.1899  18.2221  18.3141  18.3645  18.4379  18.4982  18.5667  18.6137
    18.7599  18.8425  18.9250  18.9349  19.0507  19.0951  19.1328  19.1807
    19.2622  19.2781  19.3506  19.4212  19.5421  19.6114  19.7015  19.7230
    19.8332  19.9099  19.9391  20.0417  20.1035  20.2653  20.3407  20.3408
    20.4272  20.5004  20.5636  20.6168  20.6277  20.7595  20.7844  20.8332
    20.8657  20.9385  20.9876  21.1080  21.1095  21.2748  21.3339  21.3367
    21.3647  21.4048  21.4866  21.5417

     the Fermi energy is    -0.8267 ev

!    total energy              =   -2073.80408368 Ry
     Harris-Foulkes estimate   =   -2073.80408369 Ry
     estimated scf accuracy    <          9.9E-09 Ry

     The total energy is the sum of the following terms:

     one-electron contribution =  -21992.47463495 Ry
     hartree contribution      =   11037.13648213 Ry
     xc contribution           =    -569.26375828 Ry
     ewald contribution        =    9450.59820700 Ry
     Hubbard energy            =       0.20063884 Ry
     smearing contrib. (-TS)   =      -0.00101843 Ry

     convergence has been achieved in  14 iterations

     Forces acting on atoms (Ry/au):

     negative rho (up, down):  0.313E+01 0.000E+00
     atom    1 type  1   force =    -0.00764478   -0.01429709   -0.00021652
     atom    2 type  1   force =     0.00012284    0.00664911    0.00050644
     atom    3 type  2   force =    -0.00003978    0.00429687   -0.00026949
     atom    4 type  2   force =     0.00946327    0.00796784   -0.00017539
     atom    5 type  1   force =    -0.00219491   -0.01675167    0.00014141
     atom    6 type  1   force =     0.00336625    0.01480200    0.00016158
     atom    7 type  1   force =    -0.00031743   -0.00128117   -0.00042299
     atom    8 type  1   force =    -0.00324516   -0.00048985   -0.00014548
     atom    9 type  2   force =     0.00121013    0.00008901   -0.00022360
     atom   10 type  2   force =     0.00001607   -0.00160343   -0.00056126
     atom   11 type  1   force =    -0.00010770    0.00516984    0.00036740
     atom   12 type  1   force =     0.00020798   -0.00459334    0.00039245
     atom   13 type  1   force =    -0.00092018   -0.00013904   -0.00028247
     atom   14 type  1   force =    -0.00765384   -0.01429880   -0.00020024
     atom   15 type  1   force =     0.00012553    0.00665134    0.00050883
     atom   16 type  2   force =    -0.00004175    0.00429615   -0.00026766
     atom   17 type  2   force =     0.00946431    0.00796741   -0.00018033
     atom   18 type  1   force =    -0.00219625   -0.01675322    0.00014377
     atom   19 type  1   force =     0.00336482    0.01480351    0.00016221
     atom   20 type  1   force =    -0.00031360   -0.00128115   -0.00043948
     atom   21 type  1   force =    -0.00324592   -0.00048965   -0.00013534
     atom   22 type  2   force =     0.00122795    0.00008882   -0.00022569
     atom   23 type  2   force =     0.00001456   -0.00160348   -0.00055484
     atom   24 type  1   force =    -0.00010031    0.00516991    0.00036842
     atom   25 type  1   force =     0.00021536   -0.00459353    0.00039376
     atom   26 type  1   force =    -0.00092172   -0.00013902   -0.00021566
     atom   27 type  3   force =     0.00000063   -0.00007495    0.00065167
     atom   28 type  3   force =     0.00000013   -0.00007734    0.00065275
     atom   29 type  3   force =     0.00006616    0.00025634    0.00003566
     atom   30 type  3   force =     0.00007731    0.00025858    0.00003008

     Total force =     0.001937     Total SCF correction =     0.000563
     SCF correction compared to forces is large: reduce conv_thr to get better values

     bfgs converged in   6 scf cycles and   5 bfgs steps
     (criteria: energy < 0.10E-03, force < 0.10E-02)

     End of BFGS Geometry Optimization

     Final energy   =   -2073.8040836827 Ry
Begin final coordinates

ATOMIC_POSITIONS (crystal)
O0       0.000000000   0.000000000   0.378722545    0   0   1
O0       0.000000000   0.500000000   0.401467844    0   0   1
Ir1      0.250000000   0.500000000   0.452212597    0   0   1
Ir1      0.000000000   0.000000000   0.453589017    0   0   1
O0       0.250000000   0.810000000   0.453204454    0   0   1
O0       0.250000000   0.190000000   0.452851104    0   0   1
O0       0.000000000   0.500000000   0.498412554    0   0   1
O0       0.000000000   0.000000000   0.529305214    0   0   1
Ir1      0.250000000   0.000000000   0.576502830    0   0   1
Ir1      0.000000000   0.500000000   0.572098206    0   0   1
O0       0.250000000   0.690000000   0.576902739    0   0   1
O0       0.250000000   0.310000000   0.576953634    0   0   1
O0       0.000000000   0.000000000   0.621092175    0   0   1
O0       0.500000000   0.000000000   0.378721205    0   0   1
O0       0.500000000   0.500000000   0.401467586    0   0   1
Ir1      0.750000000   0.500000000   0.452212493    0   0   1
Ir1      0.500000000   0.000000000   0.453588207    0   0   1
O0       0.750000000   0.810000000   0.453204025    0   0   1
O0       0.750000000   0.190000000   0.452850915    0   0   1
O0       0.500000000   0.500000000   0.498412891    0   0   1
O0       0.500000000   0.000000000   0.529303674    0   0   1
Ir1      0.750000000   0.000000000   0.576502855    0   0   1
Ir1      0.500000000   0.500000000   0.572098135    0   0   1
O0       0.750000000   0.690000000   0.576902447    0   0   1
O0       0.750000000   0.310000000   0.576953320    0   0   1
O0       0.500000000   0.000000000   0.621087844    0   0   1
H2      -0.000086802   0.636537188   0.383743056
H2       0.499913702   0.636537710   0.383742910
H2       0.143542845   0.033839304   0.367132067
H2       0.643542600   0.033839811   0.367131457
End final coordinates

     General routines

     Parallel routines
     Hubbard U routines

   This run was terminated on:   2:18:35   6May2014

   JOB DONE.