     Program PWSCF v.5.0.2 (svn rev. 9656) starts on  6May2014 at 15: 9:57

     Current dimensions of program PWSCF are:
     Max number of different atomic species (ntypx) = 10
     Max number of k-points (npk) =  40000
     Max angular momentum in pseudopotentials (lmaxx) =  3
     Reading input from pwscf.in
Warning: card &CELL ignored
Warning: card / ignored

     Subspace diagonalization in iterative solution of the eigenvalue problem:
     a serial algorithm will be used

     Found symmetry operation: I + ( -0.5000  0.0000  0.0000)
     This is a supercell, fractional translations are disabled

     bravais-lattice index     =            0
     lattice parameter (alat)  =      11.2250  a.u.
     unit-cell volume          =    7005.5484 (a.u.)^3
     number of atoms/cell      =           30
     number of atomic types    =            3
     number of electrons       =       208.00
     number of Kohn-Sham states=          300
     kinetic-energy cutoff     =      40.0000  Ry
     charge density cutoff     =     500.0000  Ry
     convergence threshold     =      1.0E-06
     mixing beta               =       0.7000
     number of iterations used =            8  plain     mixing
     Exchange-correlation      = SLA  PW   PBE  PBE ( 1 4 3 4 0)
     EXX-fraction              =        0.00
     nstep                     =           50

     celldm(1)=  11.224973  celldm(2)=   0.000000  celldm(3)=   0.000000
     celldm(4)=   0.000000  celldm(5)=   0.000000  celldm(6)=   0.000000

     crystal axes: (cart. coord. in units of alat)
               a(1) = (   1.000000   0.000000   0.000000 )
               a(2) = (   0.000000   1.107086   0.000000 )
               a(3) = (   0.000000   0.000000   4.474090 )

     reciprocal axes: (cart. coord. in units 2 pi/alat)
               b(1) = (  1.000000  0.000000  0.000000 )
               b(2) = (  0.000000  0.903272  0.000000 )
               b(3) = (  0.000000  0.000000  0.223509 )

     PseudoPot. # 1 for O  read from file:
     /home/camp/zhonxu/pseudo/o_pbe_v1.01.uspp.F.UPF
     MD5 check sum: 2bcb18d16ea4b960afae9ec6d52f22d2
     Pseudo is Ultrasoft + core correction, Zval =  6.0
     Generated by new atomic code, or converted to UPF format
     Using radial grid of  737 points,  5 beta functions with:
                l(1) =   0
                l(2) =   0
                l(3) =   1
                l(4) =   1
                l(5) =   2
     Q(r) pseudized with  8 coefficients,  rinner =    0.900   0.900   0.900
                                                       0.900   0.900

     PseudoPot. # 2 for Ti read from file:
     /home/camp/zhonxu/pseudo/ti_pbe_v1.uspp.F.UPF
     MD5 check sum: bcc8f6961b3b91f0cac3ca967d22d0fb
     Pseudo is Ultrasoft + core correction, Zval = 12.0
     Generated by new atomic code, or converted to UPF format
     Using radial grid of  851 points,  6 beta functions with:
                l(1) =   0
                l(2) =   0
                l(3) =   1
                l(4) =   1
                l(5) =   2
                l(6) =   2
     Q(r) pseudized with  6 coefficients,  rinner =    1.000   1.000   1.000
                                                       1.000   1.000

     PseudoPot. # 3 for H  read from file:
     /home/camp/zhonxu/pseudo/h_pbe_v1.uspp.F.UPF
     MD5 check sum: 3408e3ff4ec8b0a4e358431e7e038a48
     Pseudo is Ultrasoft, Zval =  1.0
     Generated by new atomic code, or converted to UPF format
     Using radial grid of  615 points,  2 beta functions with:
                l(1) =   0
                l(2) =   0
     Q(r) pseudized with  8 coefficients,  rinner =    0.700

     atomic species   valence    mass     pseudopotential
        O0             6.00    15.99940     O ( 1.00)
        Ti1           12.00    47.88000     Ti( 1.00)
        H2             1.00     1.00794     H ( 1.00)

     Simplified LDA+U calculation (l_max = 2) with parameters (eV):
     atomic species    L          U    alpha       J0     beta
        Ti1            2     5.5000   0.0000   0.0000   0.0000

     No symmetry found

   Cartesian axes

     site n.     atom                  positions (alat units)
         1           O0  tau(   1) = (   0.0000000   0.0000000   1.6989461  )
         2           O0  tau(   2) = (   0.0000000   0.5535432   1.7901728  )
         3           Ti1 tau(   3) = (   0.2500000   0.5535432   2.0162933  )
         4           Ti1 tau(   4) = (   0.0000000   0.0000000   2.0248388  )
         5           O0  tau(   5) = (   0.2500000   0.8967400   2.0178145  )
         6           O0  tau(   6) = (   0.2500000   0.2103464   2.0226912  )
         7           O0  tau(   7) = (   0.0000000   0.5535432   2.2326603  )
         8           O0  tau(   8) = (   0.0000000   0.0000000   2.3559662  )
         9           Ti1 tau(   9) = (   0.2500000   0.0000000   2.5995804  )
        10           Ti1 tau(  10) = (   0.0000000   0.5535432   2.5483968  )
        11           O0  tau(  11) = (   0.2500000   0.7638896   2.5964932  )
        12           O0  tau(  12) = (   0.2500000   0.3431968   2.5965380  )
        13           O0  tau(  13) = (   0.0000000   0.0000000   2.7842708  )
        14           O0  tau(  14) = (   0.5000000   0.0000000   1.6989461  )
        15           O0  tau(  15) = (   0.5000000   0.5535432   1.7901728  )
        16           Ti1 tau(  16) = (   0.7500000   0.5535432   2.0162933  )
        17           Ti1 tau(  17) = (   0.5000000   0.0000000   2.0248388  )
        18           O0  tau(  18) = (   0.7500000   0.8967400   2.0178145  )
        19           O0  tau(  19) = (   0.7500000   0.2103464   2.0226912  )
        20           O0  tau(  20) = (   0.5000000   0.5535432   2.2326603  )
        21           O0  tau(  21) = (   0.5000000   0.0000000   2.3559662  )
        22           Ti1 tau(  22) = (   0.7500000   0.0000000   2.5995804  )
        23           Ti1 tau(  23) = (   0.5000000   0.5535432   2.5483968  )
        24           O0  tau(  24) = (   0.7500000   0.7638896   2.5964932  )
        25           O0  tau(  25) = (   0.7500000   0.3431968   2.5965380  )
        26           O0  tau(  26) = (   0.5000000   0.0000000   2.7842708  )
        27           H2  tau(  27) = (  -0.0005400   0.6991915   1.7063283  )
        28           H2  tau(  28) = (   0.4994600   0.6991915   1.7063283  )
        29           H2  tau(  29) = (   0.1501800   0.0252084   1.6321479  )
        30           H2  tau(  30) = (   0.6501800   0.0252084   1.6321479  )

     number of k points=    10  Methfessel-Paxton smearing, width (Ry)=  0.0100
                       cart. coord. in units 2pi/alat
        k(    1) = (   0.0000000   0.0000000   0.0000000), wk =   0.1250000
        k(    2) = (   0.0000000   0.2258180   0.0000000), wk =   0.2500000
        k(    3) = (   0.0000000  -0.4516359   0.0000000), wk =   0.1250000
        k(    4) = (   0.2500000   0.0000000   0.0000000), wk =   0.2500000
        k(    5) = (   0.2500000   0.2258180   0.0000000), wk =   0.2500000
        k(    6) = (   0.2500000  -0.4516359   0.0000000), wk =   0.2500000
        k(    7) = (  -0.5000000   0.0000000   0.0000000), wk =   0.1250000
        k(    8) = (  -0.5000000   0.2258180   0.0000000), wk =   0.2500000
        k(    9) = (  -0.5000000  -0.4516359   0.0000000), wk =   0.1250000
        k(   10) = (  -0.2500000   0.2258180   0.0000000), wk =   0.2500000

     Largest allocated arrays     est. size (Mb)     dimensions
     Largest temporary arrays     est. size (Mb)     dimensions

     Check: negative/imaginary core charge=   -0.000005    0.000000

     Initial potential from superposition of free atoms
     Check: negative starting charge=   -0.102816

     starting charge  199.99958, renormalised to  208.00000

     negative rho (up, down):  0.107E+00 0.000E+00
     Number of +U iterations with fixed ns =  0
     Starting occupations:
 --- enter write_ns ---
 LDA+U parameters:
U( 2)     =  5.50000000
alpha( 2) =  0.00000000
atom    3   Tr[ns(na)] =   2.00000
    eigenvalues:
  0.200  0.200  0.200  0.200  0.200
    eigenvectors:
  1.000  0.000  0.000  0.000  0.000
  0.000  1.000  0.000  0.000  0.000
  0.000  0.000  1.000  0.000  0.000
  0.000  0.000  0.000  1.000  0.000
  0.000  0.000  0.000  0.000  1.000
    occupations:
  0.200  0.000  0.000  0.000  0.000
  0.000  0.200  0.000  0.000  0.000
  0.000  0.000  0.200  0.000  0.000
  0.000  0.000  0.000  0.200  0.000
  0.000  0.000  0.000  0.000  0.200
atom    4   Tr[ns(na)] =   2.00000
    eigenvalues:
  0.200  0.200  0.200  0.200  0.200
    eigenvectors:
  1.000  0.000  0.000  0.000  0.000
  0.000  1.000  0.000  0.000  0.000
  0.000  0.000  1.000  0.000  0.000
  0.000  0.000  0.000  1.000  0.000
  0.000  0.000  0.000  0.000  1.000
    occupations:
  0.200  0.000  0.000  0.000  0.000
  0.000  0.200  0.000  0.000  0.000
  0.000  0.000  0.200  0.000  0.000
  0.000  0.000  0.000  0.200  0.000
  0.000  0.000  0.000  0.000  0.200
atom    9   Tr[ns(na)] =   2.00000
    eigenvalues:
  0.200  0.200  0.200  0.200  0.200
    eigenvectors:
  1.000  0.000  0.000  0.000  0.000
  0.000  1.000  0.000  0.000  0.000
  0.000  0.000  1.000  0.000  0.000
  0.000  0.000  0.000  1.000  0.000
  0.000  0.000  0.000  0.000  1.000
    occupations:
  0.200  0.000  0.000  0.000  0.000
  0.000  0.200  0.000  0.000  0.000
  0.000  0.000  0.200  0.000  0.000
  0.000  0.000  0.000  0.200  0.000
  0.000  0.000  0.000  0.000  0.200
atom   10   Tr[ns(na)] =   2.00000
    eigenvalues:
  0.200  0.200  0.200  0.200  0.200
    eigenvectors:
  1.000  0.000  0.000  0.000  0.000
  0.000  1.000  0.000  0.000  0.000
  0.000  0.000  1.000  0.000  0.000
  0.000  0.000  0.000  1.000  0.000
  0.000  0.000  0.000  0.000  1.000
    occupations:
  0.200  0.000  0.000  0.000  0.000
  0.000  0.200  0.000  0.000  0.000
  0.000  0.000  0.200  0.000  0.000
  0.000  0.000  0.000  0.200  0.000
  0.000  0.000  0.000  0.000  0.200
atom   16   Tr[ns(na)] =   2.00000
    eigenvalues:
  0.200  0.200  0.200  0.200  0.200
    eigenvectors:
  1.000  0.000  0.000  0.000  0.000
  0.000  1.000  0.000  0.000  0.000
  0.000  0.000  1.000  0.000  0.000
  0.000  0.000  0.000  1.000  0.000
  0.000  0.000  0.000  0.000  1.000
    occupations:
  0.200  0.000  0.000  0.000  0.000
  0.000  0.200  0.000  0.000  0.000
  0.000  0.000  0.200  0.000  0.000
  0.000  0.000  0.000  0.200  0.000
  0.000  0.000  0.000  0.000  0.200
atom   17   Tr[ns(na)] =   2.00000
    eigenvalues:
  0.200  0.200  0.200  0.200  0.200
    eigenvectors:
  1.000  0.000  0.000  0.000  0.000
  0.000  1.000  0.000  0.000  0.000
  0.000  0.000  1.000  0.000  0.000
  0.000  0.000  0.000  1.000  0.000
  0.000  0.000  0.000  0.000  1.000
    occupations:
  0.200  0.000  0.000  0.000  0.000
  0.000  0.200  0.000  0.000  0.000
  0.000  0.000  0.200  0.000  0.000
  0.000  0.000  0.000  0.200  0.000
  0.000  0.000  0.000  0.000  0.200
atom   22   Tr[ns(na)] =   2.00000
    eigenvalues:
  0.200  0.200  0.200  0.200  0.200
    eigenvectors:
  1.000  0.000  0.000  0.000  0.000
  0.000  1.000  0.000  0.000  0.000
  0.000  0.000  1.000  0.000  0.000
  0.000  0.000  0.000  1.000  0.000
  0.000  0.000  0.000  0.000  1.000
    occupations:
[...]
atom    4   Tr[ns(na)] =   2.73184
    eigenvalues:
  0.135  0.165  0.190  0.425  0.451
    eigenvectors:
  0.007  0.003  0.000  0.000  0.990
  0.002  0.937  0.058  0.000  0.004
  0.001  0.057  0.942  0.000  0.000
  0.990  0.003  0.000  0.000  0.006
  0.000  0.000  0.000  1.000  0.000
    occupations:
  0.448  0.017  0.004 -0.025 -0.000
  0.017  0.168 -0.005  0.000 -0.003
  0.004 -0.005  0.188  0.001 -0.000
 -0.025  0.000  0.001  0.137 -0.000
 -0.000 -0.003 -0.000 -0.000  0.425
atom    9   Tr[ns(na)] =   2.73296
    eigenvalues:
  0.144  0.187  0.199  0.376  0.461
    eigenvectors:
  0.000  0.000  0.910  0.090  0.000
  0.000  0.000  0.000  0.000  1.000
  1.000  0.000  0.000  0.000  0.000
  0.000  0.000  0.090  0.910  0.000
  0.000  1.000  0.000  0.000  0.000
    occupations:
  0.215 -0.000  0.000  0.051 -0.000
 -0.000  0.461 -0.000 -0.000 -0.000
  0.000 -0.000  0.144  0.000 -0.000
  0.051 -0.000  0.000  0.360 -0.000
 -0.000 -0.000 -0.000 -0.000  0.187
atom   10   Tr[ns(na)] =   2.63777
    eigenvalues:
  0.145  0.185  0.199  0.322  0.467
    eigenvectors:
  0.027  0.000  0.000  0.973  0.000
  0.000  0.000  1.000  0.000  0.000
  0.000  1.000  0.000  0.000  0.000
  0.973  0.000  0.000  0.027  0.000
  0.000  0.000  0.000  0.000  1.000
    occupations:
  0.318 -0.000 -0.000 -0.029 -0.000
 -0.000  0.199 -0.000 -0.000  0.000
 -0.000 -0.000  0.185 -0.000  0.000
 -0.029 -0.000 -0.000  0.150 -0.000
 -0.000  0.000  0.000 -0.000  0.467
atom   16   Tr[ns(na)] =   2.60330
    eigenvalues:
  0.130  0.150  0.177  0.420  0.424
    eigenvectors:
  0.775  0.000  0.024  0.000  0.201
  0.000  0.002  0.000  0.998  0.000
  0.027  0.000  0.973  0.000  0.000
  0.198  0.000  0.003  0.000  0.798
  0.000  0.998  0.000  0.002  0.000
    occupations:
  0.190 -0.000 -0.005  0.118 -0.000
 -0.000  0.420  0.000 -0.000  0.013
 -0.005  0.000  0.176  0.008 -0.000
  0.118 -0.000  0.008  0.365 -0.000
 -0.000  0.013 -0.000 -0.000  0.151
atom   17   Tr[ns(na)] =   2.73184
    eigenvalues:
  0.135  0.165  0.190  0.425  0.451
    eigenvectors:
  0.007  0.003  0.000  0.000  0.990
  0.002  0.937  0.058  0.000  0.004
  0.001  0.057  0.942  0.000  0.000
  0.990  0.003  0.000  0.000  0.006
  0.000  0.000  0.000  1.000  0.000
    occupations:
  0.448  0.017  0.004 -0.025 -0.000
  0.017  0.168 -0.005  0.000 -0.003
  0.004 -0.005  0.188  0.001 -0.000
 -0.025  0.000  0.001  0.137 -0.000
 -0.000 -0.003 -0.000 -0.000  0.425
atom   22   Tr[ns(na)] =   2.73296
    eigenvalues:
  0.144  0.187  0.199  0.376  0.461
    eigenvectors:
  0.000  0.000  0.910  0.090  0.000
  0.000  0.000  0.000  0.000  1.000
  1.000  0.000  0.000  0.000  0.000
  0.000  0.000  0.090  0.910  0.000
  0.000  1.000  0.000  0.000  0.000
    occupations:
  0.215 -0.000  0.000  0.051 -0.000
 -0.000  0.461 -0.000 -0.000 -0.000
  0.000 -0.000  0.144  0.000 -0.000
  0.051 -0.000  0.000  0.360 -0.000
 -0.000 -0.000 -0.000 -0.000  0.187
atom   23   Tr[ns(na)] =   2.63777
    eigenvalues:
  0.145  0.185  0.199  0.322  0.467
    eigenvectors:
  0.027  0.000  0.000  0.973  0.000
  0.000  0.000  1.000  0.000  0.000
  0.000  1.000  0.000  0.000  0.000
  0.973  0.000  0.000  0.027  0.000
  0.000  0.000  0.000  0.000  1.000
    occupations:
  0.318 -0.000 -0.000 -0.029 -0.000
 -0.000  0.199 -0.000 -0.000  0.000
 -0.000 -0.000  0.185 -0.000  0.000
 -0.029 -0.000 -0.000  0.150 -0.000
 -0.000  0.000  0.000 -0.000  0.467
N of occupied +U levels =  21.4117396
 --- exit write_ns ---

     Threshold (ethr) on eigenvalues was too large:
     Diagonalizing with lowered threshold

     Davidson diagonalization with overlap
     ethr =  3.29E-09,  avg # of iterations =  3.0

[...]

     total energy              =   -1531.91133641 Ry
     Harris-Foulkes estimate   =   -1531.91133643 Ry
     estimated scf accuracy    <       0.00000005 Ry

     iteration #  7     ecut=    40.00 Ry     beta=0.70
     Davidson diagonalization with overlap
     ethr =  2.44E-11,  avg # of iterations =  1.0

     negative rho (up, down):  0.106E+00 0.000E+00

     End of self-consistent calculation
 --- enter write_ns ---
 LDA+U parameters:
U( 2)     =  5.50000000
alpha( 2) =  0.00000000
atom    3   Tr[ns(na)] =   2.60370
    eigenvalues:
  0.130  0.150  0.177  0.420  0.425
    eigenvectors:
  0.775  0.000  0.024  0.000  0.201
  0.000  0.002  0.000  0.998  0.000
  0.027  0.000  0.973  0.000  0.000
  0.198  0.000  0.003  0.000  0.798
  0.000  0.998  0.000  0.002  0.000
    occupations:
  0.190 -0.000 -0.005  0.118 -0.000
 -0.000  0.420  0.000 -0.000  0.013
 -0.005  0.000  0.176  0.008 -0.000
  0.118 -0.000  0.008  0.365 -0.000
 -0.000  0.013 -0.000 -0.000  0.151
atom    4   Tr[ns(na)] =   2.73188
    eigenvalues:
  0.135  0.165  0.190  0.425  0.451
    eigenvectors:
  0.007  0.003  0.000  0.000  0.990
  0.002  0.937  0.058  0.000  0.004
  0.001  0.057  0.942  0.000  0.000
  0.990  0.003  0.000  0.000  0.006
  0.000  0.000  0.000  1.000  0.000
    occupations:
  0.448  0.017  0.004 -0.025 -0.000
  0.017  0.168 -0.005  0.000 -0.003
  0.004 -0.005  0.188  0.001 -0.000
 -0.025  0.000  0.001  0.137 -0.000
 -0.000 -0.003 -0.000 -0.000  0.425
atom    9   Tr[ns(na)] =   2.73266
    eigenvalues:
  0.144  0.187  0.199  0.376  0.461
    eigenvectors:
  0.000  0.000  0.910  0.090  0.000
  0.000  0.000  0.000  0.000  1.000
  1.000  0.000  0.000  0.000  0.000
  0.000  0.000  0.090  0.910  0.000
  0.000  1.000  0.000  0.000  0.000
    occupations:
  0.215 -0.000  0.000  0.051 -0.000
 -0.000  0.461 -0.000 -0.000 -0.000
  0.000 -0.000  0.144  0.000 -0.000
  0.051 -0.000  0.000  0.360 -0.000
 -0.000 -0.000 -0.000 -0.000  0.187
atom   10   Tr[ns(na)] =   2.63787
    eigenvalues:
  0.145  0.185  0.199  0.322  0.467
    eigenvectors:
  0.027  0.000  0.000  0.973  0.000
  0.000  0.000  1.000  0.000  0.000
  0.000  1.000  0.000  0.000  0.000
  0.973  0.000  0.000  0.027  0.000
  0.000  0.000  0.000  0.000  1.000
    occupations:
  0.318 -0.000 -0.000 -0.029 -0.000
 -0.000  0.199 -0.000 -0.000  0.000
 -0.000 -0.000  0.185 -0.000  0.000
 -0.029 -0.000 -0.000  0.150 -0.000
 -0.000  0.000  0.000 -0.000  0.467
atom   16   Tr[ns(na)] =   2.60370
    eigenvalues:
  0.130  0.150  0.177  0.420  0.425
    eigenvectors:
  0.775  0.000  0.024  0.000  0.201
  0.000  0.002  0.000  0.998  0.000
  0.027  0.000  0.973  0.000  0.000
  0.198  0.000  0.003  0.000  0.798
  0.000  0.998  0.000  0.002  0.000
    occupations:
  0.190 -0.000 -0.005  0.118 -0.000
 -0.000  0.420  0.000 -0.000  0.013
 -0.005  0.000  0.176  0.008 -0.000
  0.118 -0.000  0.008  0.365 -0.000
 -0.000  0.013 -0.000 -0.000  0.151
atom   17   Tr[ns(na)] =   2.73188
    eigenvalues:
  0.135  0.165  0.190  0.425  0.451
    eigenvectors:
  0.007  0.003  0.000  0.000  0.990
  0.002  0.937  0.058  0.000  0.004
  0.001  0.057  0.942  0.000  0.000
  0.990  0.003  0.000  0.000  0.006
  0.000  0.000  0.000  1.000  0.000
    occupations:
  0.448  0.017  0.004 -0.025 -0.000
  0.017  0.168 -0.005  0.000 -0.003
  0.004 -0.005  0.188  0.001 -0.000
 -0.025  0.000  0.001  0.137 -0.000
 -0.000 -0.003 -0.000 -0.000  0.425
atom   22   Tr[ns(na)] =   2.73266
    eigenvalues:
  0.144  0.187  0.199  0.376  0.461
    eigenvectors:
  0.000  0.000  0.910  0.090  0.000
  0.000  0.000  0.000  0.000  1.000
  1.000  0.000  0.000  0.000  0.000
  0.000  0.000  0.090  0.910  0.000
  0.000  1.000  0.000  0.000  0.000
    occupations:
  0.215 -0.000  0.000  0.051 -0.000
 -0.000  0.461 -0.000 -0.000 -0.000
  0.000 -0.000  0.144  0.000 -0.000
  0.051 -0.000  0.000  0.360 -0.000
 -0.000 -0.000 -0.000 -0.000  0.187
atom   23   Tr[ns(na)] =   2.63787
    eigenvalues:
  0.145  0.185  0.199  0.322  0.467
    eigenvectors:
  0.027  0.000  0.000  0.973  0.000
  0.000  0.000  1.000  0.000  0.000
  0.000  1.000  0.000  0.000  0.000
  0.973  0.000  0.000  0.027  0.000
  0.000  0.000  0.000  0.000  1.000
    occupations:
  0.318 -0.000 -0.000 -0.029 -0.000
 -0.000  0.199 -0.000 -0.000  0.000
 -0.000 -0.000  0.185 -0.000  0.000
 -0.029 -0.000 -0.000  0.150 -0.000
 -0.000  0.000  0.000 -0.000  0.467
N of occupied +U levels =  21.4122202
 --- exit write_ns ---

[...]

          k = 0.2500-0.4516 0.0000 ( 29882 PWs)   bands (ev):

[...]

          k =-0.2500 0.2258 0.0000 ( 29912 PWs)   bands (ev):

   -62.0139 -61.9894 -61.6477 -61.6222 -60.3353 -60.3079 -59.8238 -59.7973
   -38.4415 -38.2120 -38.1786 -38.1473 -38.0427 -38.0218 -37.9612 -37.9458
   -37.9268 -37.7751 -37.7142 -37.6517 -36.8467 -36.6388 -36.5690 -36.5437
   -36.3576 -36.3356 -36.1640 -36.1427 -36.1127 -36.0001 -35.9357 -35.8139
   -22.2622 -22.0438 -20.9753 -20.7693 -20.4048 -20.2907 -20.0178 -19.8188
   -19.7749 -19.7036 -19.5621 -19.4841 -19.4004 -19.2240 -18.6280 -18.3062
   -17.9648 -17.9203  -9.8697  -9.6241  -8.1210  -7.9265  -7.8655  -7.8298
    -7.8024  -7.7165  -7.4121  -7.3768  -7.2568  -7.2266  -7.0708  -7.0639
    -6.9899  -6.8165  -6.7367  -6.7174  -6.4683  -6.4653  -6.1116  -6.0418
    -5.9874  -5.8054  -5.7608  -5.6541  -5.6290  -5.4952  -5.3607  -5.3456
    -5.2978  -5.1764  -5.1380  -5.0795  -5.0226  -4.9994  -4.8514  -4.7335
    -4.6594  -4.5229  -4.4189  -4.3776  -3.9300  -3.6851  -3.4748  -3.4011
    -3.3314  -3.2652  -3.1220  -3.0219  -3.0051  -2.8282  -2.7853  -2.6389
    -0.9171  -0.6555  -0.5265  -0.5122  -0.4212  -0.3797  -0.2353  -0.2206
     0.0692   0.0957   0.1418   0.1468   0.3450   0.5123   0.7329   0.7955
     1.0923   1.1247   1.1786   1.2206   1.2601   1.3218   1.5375   1.5748
     1.5953   1.6385   1.7156   1.8193   1.8772   2.1076   2.1801   2.3515
     2.7146   2.8413   2.9998   3.0078   3.2928   3.3306   3.4512   3.7287
     3.8270   4.0486   4.1873   4.5981   4.9656   4.9873   5.2678   5.7153
     5.7435   5.8739   5.9961   6.1180   6.2045   6.5105   6.5262   6.8263
     6.8859   7.1175   7.2679   7.3890   7.4841   7.6335   7.6425   7.8331
     7.8982   8.0340   8.0429   8.2305   8.4700   8.4772   8.6090   8.6189
     8.8017   8.9752   9.2333   9.2875   9.3190   9.4049   9.4362   9.4839
     9.4840   9.6381   9.8057   9.9929  10.0192  10.0678  10.2324  10.3611
    10.4428  10.5804  10.5836  10.7132  10.7719  10.9114  10.9197  10.9707
    11.0482  11.2149  11.2882  11.3235  11.3388  11.4677  11.5001  11.5798
    11.6260  11.7276  11.8746  11.9359  11.9542  11.9634  12.1064  12.2170
    12.2984  12.3569  12.5085  12.5869  12.6133  12.6312  12.7298  12.8465
    12.8753  12.9715  12.9981  13.2059  13.2161  13.3112  13.3209  13.4251
    13.5214  13.5612  13.6638  13.6660  13.7290  13.7411  13.8503  13.9870
    14.0253  14.1664  14.1939  14.2873  14.3109  14.4571  14.5570  14.5900
    14.6173  14.6319  14.7239  14.9202  14.9364  14.9983  15.0816  15.2181
    15.3224  15.3362  15.4793  15.4931  15.6355  15.6739  15.6970  15.7272
    15.8304  15.8779  15.9490  16.0004  16.0537  16.1272  16.2355  16.3094
    16.4016  16.5468  16.6085  16.6455  16.7216  16.8313  16.8480  16.8606
    16.8907  17.0044  17.0761  17.0948  17.1984  17.2346  17.3014  17.3749
    17.4062  17.4928  17.5032  17.6175  17.6954  17.7774  17.7955  17.9427
    18.0381  18.1413  18.2012  18.2250

     the Fermi energy is    -1.1477 ev

!    total energy              =   -1531.91133642 Ry
     Harris-Foulkes estimate   =   -1531.91133642 Ry
     estimated scf accuracy    <          4.5E-09 Ry

     The total energy is the sum of the following terms:

     one-electron contribution =  -18223.19632160 Ry
     hartree contribution      =    9123.00645292 Ry
     xc contribution           =    -269.64581732 Ry
     ewald contribution        =    7835.01841126 Ry
     Hubbard energy            =       2.90554950 Ry
     smearing contrib. (-TS)   =       0.00038882 Ry

     convergence has been achieved in   7 iterations

     Forces acting on atoms (Ry/au):

     negative rho (up, down):  0.106E+00 0.000E+00
     atom    1 type  1   force =    -0.00327933   -0.01724393   -0.00006922
     atom    2 type  1   force =     0.00003525    0.02277798   -0.00012783
     atom    3 type  2   force =     0.00013130   -0.01134476    0.00034576
     atom    4 type  2   force =     0.00065565    0.00972017    0.00019848
     atom    5 type  1   force =     0.00271161   -0.10845068    0.00034127
     atom    6 type  1   force =    -0.00113844    0.10585750    0.00035814
     atom    7 type  1   force =    -0.00004101    0.00062743    0.00078949
     atom    8 type  1   force =     0.00086885   -0.00155885   -0.00049288
     atom    9 type  2   force =    -0.00011245    0.00014044    0.00040882
     atom   10 type  2   force =    -0.00002385   -0.00049121   -0.00037693
     atom   11 type  1   force =     0.00001871   -0.04338445   -0.00006183
     atom   12 type  1   force =     0.00001352    0.04356034   -0.00007261
     atom   13 type  1   force =     0.00009841   -0.00007805   -0.00011874
     atom   14 type  1   force =    -0.00327933   -0.01724392   -0.00006922
     atom   15 type  1   force =     0.00003525    0.02277799   -0.00012783
     atom   16 type  2   force =     0.00013130   -0.01134476    0.00034576
     atom   17 type  2   force =     0.00065565    0.00972017    0.00019848
     atom   18 type  1   force =     0.00271161   -0.10845068    0.00034127
     atom   19 type  1   force =    -0.00113844    0.10585750    0.00035814
     atom   20 type  1   force =    -0.00004101    0.00062743    0.00078949
     atom   21 type  1   force =     0.00086885   -0.00155885   -0.00049288
     atom   22 type  2   force =    -0.00011245    0.00014044    0.00040882
     atom   23 type  2   force =    -0.00002385   -0.00049121   -0.00037693
     atom   24 type  1   force =     0.00001871   -0.04338445   -0.00006183
     atom   25 type  1   force =     0.00001352    0.04356034   -0.00007261
     atom   26 type  1   force =     0.00009841   -0.00007805   -0.00011874
     atom   27 type  3   force =     0.00000667   -0.00023108   -0.00093026
     atom   28 type  3   force =     0.00000667   -0.00023108   -0.00093026
     atom   29 type  3   force =     0.00005511    0.00009913   -0.00019166
     atom   30 type  3   force =     0.00005511    0.00009913   -0.00019166

     Total force =     0.002277     Total SCF correction =     0.000237
     SCF correction compared to forces is large: reduce conv_thr to get better values

     bfgs converged in  12 scf cycles and  11 bfgs steps
     (criteria: energy < 0.10E-03, force < 0.10E-02)

     End of BFGS Geometry Optimization

     Final energy   =   -1531.9113364201 Ry
Begin final coordinates

ATOMIC_POSITIONS (crystal)
O0       0.000000000   0.000000000   0.377992086    0   0   1
O0       0.000000000   0.500000000   0.398303217    0   0   1
Ti1      0.250000000   0.500000000   0.449859259    0   0   1
Ti1      0.000000000   0.000000000   0.451742113    0   0   1
O0       0.250000000   0.810000000   0.450392192    0   0   1
O0       0.250000000   0.190000000   0.451428842    0   0   1
O0       0.000000000   0.500000000   0.498720662    0   0   1
O0       0.000000000   0.000000000   0.527707461    0   0   1
Ti1      0.250000000   0.000000000   0.581780032    0   0   1
Ti1      0.000000000   0.500000000   0.571285387    0   0   1
O0       0.250000000   0.690000000   0.581681642    0   0   1
O0       0.250000000   0.310000000   0.581724236    0   0   1
O0       0.000000000   0.000000000   0.624630534    0   0   1
O0       0.500000000   0.000000000   0.377992087    0   0   1
O0       0.500000000   0.500000000   0.398303217    0   0   1
Ti1      0.750000000   0.500000000   0.449859259    0   0   1
Ti1      0.500000000   0.000000000   0.451742113    0   0   1
O0       0.750000000   0.810000000   0.450392193    0   0   1
O0       0.750000000   0.190000000   0.451428842    0   0   1
O0       0.500000000   0.500000000   0.498720662    0   0   1
O0       0.500000000   0.000000000   0.527707461    0   0   1
Ti1      0.750000000   0.000000000   0.581780032    0   0   1
Ti1      0.500000000   0.500000000   0.571285387    0   0   1
O0       0.750000000   0.690000000   0.581681643    0   0   1
O0       0.750000000   0.310000000   0.581724236    0   0   1
O0       0.500000000   0.000000000   0.624630534    0   0   1
H2      -0.000266017   0.632783439   0.380076815
H2       0.499733983   0.632783439   0.380076816
H2       0.152303514   0.023444233   0.364245519
H2       0.652303515   0.023444233   0.364245520
End final coordinates

     General routines

     Parallel routines
     Hubbard U routines

   This run was terminated on:  21: 6: 9   6May2014

   JOB DONE.
Running PBS batch system epilogue script
Job id: 340819.audhumbla.fysik.dtu.dk
Username: zhonxu
Groupname: campgst
Jobname: TiO2/Eads-2-layers/bare-U-5.5
Sessionid: 21098
Queuename: verylong
Accounting:
This job has allocated the following 16 nodes:
b062 b062 b062 b062 b062 b062 b062 b062 b061 b061 b061 b061 b061 b061 b061 b061
Finished epilogue job 340819.audhumbla.fysik.dtu.dk for zhonxu