     Program PWSCF v.5.0.2 (svn rev. 9656) starts on  6May2014 at 15:52:21

     Current dimensions of program PWSCF are:
     Max number of different atomic species (ntypx) = 10
     Max number of k-points (npk) =  40000
     Max angular momentum in pseudopotentials (lmaxx) =  3
     Reading input from pwscf.in
Warning: card &CELL ignored
Warning: card / ignored

     Subspace diagonalization in iterative solution of the eigenvalue problem:
     a serial algorithm will be used

     Found symmetry operation: I + ( -0.5000  0.0000  0.0000)
     This is a supercell, fractional translations are disabled

     bravais-lattice index     =            0
     lattice parameter (alat)  =      11.2250  a.u.
     unit-cell volume          =    7005.5484 (a.u.)^3
     number of atoms/cell      =           30
     number of atomic types    =            3
     number of electrons       =       208.00
     number of Kohn-Sham states=          300
     kinetic-energy cutoff     =      40.0000  Ry
     charge density cutoff     =     500.0000  Ry
     convergence threshold     =      1.0E-06
     mixing beta               =       0.7000
     number of iterations used =            8  plain     mixing
     Exchange-correlation      = SLA  PW   PBE  PBE ( 1 4 3 4 0)
     EXX-fraction              =        0.00
     nstep                     =           50

     celldm(1)=  11.224973  celldm(2)=   0.000000  celldm(3)=   0.000000
     celldm(4)=   0.000000  celldm(5)=   0.000000  celldm(6)=   0.000000

     crystal axes: (cart. coord. in units of alat)
               a(1) = (   1.000000   0.000000   0.000000 )
               a(2) = (   0.000000   1.107086   0.000000 )
               a(3) = (   0.000000   0.000000   4.474090 )

     reciprocal axes: (cart. coord. in units 2 pi/alat)
               b(1) = (  1.000000  0.000000  0.000000 )
               b(2) = (  0.000000  0.903272  0.000000 )
               b(3) = (  0.000000  0.000000  0.223509 )

     PseudoPot. # 1 for O  read from file:
     /home/camp/zhonxu/pseudo/o_pbe_v1.01.uspp.F.UPF
     MD5 check sum: 2bcb18d16ea4b960afae9ec6d52f22d2
     Pseudo is Ultrasoft + core correction, Zval =  6.0
     Generated by new atomic code, or converted to UPF format
     Using radial grid of  737 points,  5 beta functions with:
                l(1) =   0
                l(2) =   0
                l(3) =   1
                l(4) =   1
                l(5) =   2
     Q(r) pseudized with  8 coefficients,  rinner =    0.900   0.900   0.900
                                                       0.900   0.900

     PseudoPot. # 2 for Ti read from file:
     /home/camp/zhonxu/pseudo/ti_pbe_v1.uspp.F.UPF
     MD5 check sum: bcc8f6961b3b91f0cac3ca967d22d0fb
     Pseudo is Ultrasoft + core correction, Zval = 12.0
     Generated by new atomic code, or converted to UPF format
     Using radial grid of  851 points,  6 beta functions with:
                l(1) =   0
                l(2) =   0
                l(3) =   1
                l(4) =   1
                l(5) =   2
                l(6) =   2
     Q(r) pseudized with  6 coefficients,  rinner =    1.000   1.000   1.000
                                                       1.000   1.000

     PseudoPot. # 3 for H  read from file:
     /home/camp/zhonxu/pseudo/h_pbe_v1.uspp.F.UPF
     MD5 check sum: 3408e3ff4ec8b0a4e358431e7e038a48
     Pseudo is Ultrasoft, Zval =  1.0
     Generated by new atomic code, or converted to UPF format
     Using radial grid of  615 points,  2 beta functions with:
                l(1) =   0
                l(2) =   0
     Q(r) pseudized with  8 coefficients,  rinner =    0.700

     atomic species   valence    mass     pseudopotential
        O0             6.00    15.99940     O ( 1.00)
        Ti1           12.00    47.88000     Ti( 1.00)
        H2             1.00     1.00794     H ( 1.00)

     Simplified LDA+U calculation (l_max = 2) with parameters (eV):
     atomic species    L          U    alpha       J0     beta
        Ti1            2     7.0000   0.0000   0.0000   0.0000

     No symmetry found

   Cartesian axes

     site n.     atom                  positions (alat units)
         1           O0  tau(   1) = (   0.0000000   0.0000000   1.6989461  )
         2           O0  tau(   2) = (   0.0000000   0.5535432   1.7901728  )
         3           Ti1 tau(   3) = (   0.2500000   0.5535432   2.0162933  )
         4           Ti1 tau(   4) = (   0.0000000   0.0000000   2.0248388  )
         5           O0  tau(   5) = (   0.2500000   0.8967400   2.0178145  )
         6           O0  tau(   6) = (   0.2500000   0.2103464   2.0226912  )
         7           O0  tau(   7) = (   0.0000000   0.5535432   2.2326603  )
         8           O0  tau(   8) = (   0.0000000   0.0000000   2.3559662  )
         9           Ti1 tau(   9) = (   0.2500000   0.0000000   2.5995804  )
        10           Ti1 tau(  10) = (   0.0000000   0.5535432   2.5483968  )
        11           O0  tau(  11) = (   0.2500000   0.7638896   2.5964932  )
        12           O0  tau(  12) = (   0.2500000   0.3431968   2.5965380  )
        13           O0  tau(  13) = (   0.0000000   0.0000000   2.7842708  )
        14           O0  tau(  14) = (   0.5000000   0.0000000   1.6989461  )
        15           O0  tau(  15) = (   0.5000000   0.5535432   1.7901728  )
        16           Ti1 tau(  16) = (   0.7500000   0.5535432   2.0162933  )
        17           Ti1 tau(  17) = (   0.5000000   0.0000000   2.0248388  )
        18           O0  tau(  18) = (   0.7500000   0.8967400   2.0178145  )
        19           O0  tau(  19) = (   0.7500000   0.2103464   2.0226912  )
        20           O0  tau(  20) = (   0.5000000   0.5535432   2.2326603  )
        21           O0  tau(  21) = (   0.5000000   0.0000000   2.3559662  )
        22           Ti1 tau(  22) = (   0.7500000   0.0000000   2.5995804  )
        23           Ti1 tau(  23) = (   0.5000000   0.5535432   2.5483968  )
        24           O0  tau(  24) = (   0.7500000   0.7638896   2.5964932  )
        25           O0  tau(  25) = (   0.7500000   0.3431968   2.5965380  )
        26           O0  tau(  26) = (   0.5000000   0.0000000   2.7842708  )
        27           H2  tau(  27) = (  -0.0005400   0.6991915   1.7063283  )
        28           H2  tau(  28) = (   0.4994600   0.6991915   1.7063283  )
        29           H2  tau(  29) = (   0.1501800   0.0252084   1.6321479  )
        30           H2  tau(  30) = (   0.6501800   0.0252084   1.6321479  )

     number of k points=    10  Methfessel-Paxton smearing, width (Ry)=  0.0100
                       cart. coord. in units 2pi/alat
        k(    1) = (   0.0000000   0.0000000   0.0000000), wk =   0.1250000
        k(    2) = (   0.0000000   0.2258180   0.0000000), wk =   0.2500000
        k(    3) = (   0.0000000  -0.4516359   0.0000000), wk =   0.1250000
        k(    4) = (   0.2500000   0.0000000   0.0000000), wk =   0.2500000
        k(    5) = (   0.2500000   0.2258180   0.0000000), wk =   0.2500000
        k(    6) = (   0.2500000  -0.4516359   0.0000000), wk =   0.2500000
        k(    7) = (  -0.5000000   0.0000000   0.0000000), wk =   0.1250000
        k(    8) = (  -0.5000000   0.2258180   0.0000000), wk =   0.2500000
        k(    9) = (  -0.5000000  -0.4516359   0.0000000), wk =   0.1250000
        k(   10) = (  -0.2500000   0.2258180   0.0000000), wk =   0.2500000

     Largest allocated arrays     est. size (Mb)     dimensions
     Largest temporary arrays     est. size (Mb)     dimensions

     Check: negative/imaginary core charge=   -0.000005    0.000000

     Initial potential from superposition of free atoms
     Check: negative starting charge=   -0.102816

     starting charge  199.99958, renormalised to  208.00000

     negative rho (up, down):  0.107E+00 0.000E+00
     Number of +U iterations with fixed ns =  0
     Starting occupations:
 --- enter write_ns ---
 LDA+U parameters:
U( 2)     =  7.00000000
alpha( 2) =  0.00000000
atom    3   Tr[ns(na)] =   2.00000
    eigenvalues:
  0.200  0.200  0.200  0.200  0.200
    eigenvectors:
  1.000  0.000  0.000  0.000  0.000
  0.000  1.000  0.000  0.000  0.000
  0.000  0.000  1.000  0.000  0.000
  0.000  0.000  0.000  1.000  0.000
  0.000  0.000  0.000  0.000  1.000
    occupations:
  0.200  0.000  0.000  0.000  0.000
  0.000  0.200  0.000  0.000  0.000
  0.000  0.000  0.200  0.000  0.000
  0.000  0.000  0.000  0.200  0.000
  0.000  0.000  0.000  0.000  0.200
atom    4   Tr[ns(na)] =   2.00000
    eigenvalues:
  0.200  0.200  0.200  0.200  0.200
    eigenvectors:
  1.000  0.000  0.000  0.000  0.000
  0.000  1.000  0.000  0.000  0.000
  0.000  0.000  1.000  0.000  0.000
  0.000  0.000  0.000  1.000  0.000
  0.000  0.000  0.000  0.000  1.000
    occupations:
  0.200  0.000  0.000  0.000  0.000
  0.000  0.200  0.000  0.000  0.000
  0.000  0.000  0.200  0.000  0.000
  0.000  0.000  0.000  0.200  0.000
  0.000  0.000  0.000  0.000  0.200
atom    9   Tr[ns(na)] =   2.00000
    eigenvalues:
  0.200  0.200  0.200  0.200  0.200
    eigenvectors:
  1.000  0.000  0.000  0.000  0.000
  0.000  1.000  0.000  0.000  0.000
  0.000  0.000  1.000  0.000  0.000
  0.000  0.000  0.000  1.000  0.000
  0.000  0.000  0.000  0.000  1.000
    occupations:
  0.200  0.000  0.000  0.000  0.000
  0.000  0.200  0.000  0.000  0.000
  0.000  0.000  0.200  0.000  0.000
  0.000  0.000  0.000  0.200  0.000
  0.000  0.000  0.000  0.000  0.200
atom   10   Tr[ns(na)] =   2.00000
    eigenvalues:
  0.200  0.200  0.200  0.200  0.200
    eigenvectors:
  1.000  0.000  0.000  0.000  0.000
  0.000  1.000  0.000  0.000  0.000
  0.000  0.000  1.000  0.000  0.000
  0.000  0.000  0.000  1.000  0.000
  0.000  0.000  0.000  0.000  1.000
    occupations:
  0.200  0.000  0.000  0.000  0.000
  0.000  0.200  0.000  0.000  0.000
  0.000  0.000  0.200  0.000  0.000
  0.000  0.000  0.000  0.200  0.000
  0.000  0.000  0.000  0.000  0.200
atom   16   Tr[ns(na)] =   2.00000
    eigenvalues:
  0.200  0.200  0.200  0.200  0.200
    eigenvectors:
  1.000  0.000  0.000  0.000  0.000
  0.000  1.000  0.000  0.000  0.000
  0.000  0.000  1.000  0.000  0.000
  0.000  0.000  0.000  1.000  0.000
  0.000  0.000  0.000  0.000  1.000
    occupations:
  0.200  0.000  0.000  0.000  0.000
  0.000  0.200  0.000  0.000  0.000
  0.000  0.000  0.200  0.000  0.000
  0.000  0.000  0.000  0.200  0.000
  0.000  0.000  0.000  0.000  0.200
atom   17   Tr[ns(na)] =   2.00000
    eigenvalues:
  0.200  0.200  0.200  0.200  0.200
    eigenvectors:
  1.000  0.000  0.000  0.000  0.000
  0.000  1.000  0.000  0.000  0.000
  0.000  0.000  1.000  0.000  0.000
  0.000  0.000  0.000  1.000  0.000
  0.000  0.000  0.000  0.000  1.000
    occupations:
  0.200  0.000  0.000  0.000  0.000
  0.000  0.200  0.000  0.000  0.000
  0.000  0.000  0.200  0.000  0.000
  0.000  0.000  0.000  0.200  0.000
  0.000  0.000  0.000  0.000  0.200
atom   22   Tr[ns(na)] =   2.00000
    eigenvalues:
  0.200  0.200  0.200  0.200  0.200
    eigenvectors:
  1.000  0.000  0.000  0.000  0.000
  0.000  1.000  0.000  0.000  0.000
  0.000  0.000  1.000  0.000  0.000
  0.000  0.000  0.000  1.000  0.000
  0.000  0.000  0.000  0.000  1.000
    occupations:
[...]
atom    4   Tr[ns(na)] =   2.65607
    eigenvalues:
  0.121  0.147  0.167  0.432  0.461
    eigenvectors:
  0.007  0.003  0.000  0.000  0.990
  0.003  0.917  0.077  0.000  0.003
  0.001  0.077  0.922  0.000  0.000
  0.989  0.004  0.000  0.000  0.006
  0.000  0.000  0.000  1.000  0.000
    occupations:
  0.458  0.018  0.004 -0.027 -0.000
  0.018  0.150 -0.005 -0.000 -0.003
  0.004 -0.005  0.165  0.001 -0.000
 -0.027 -0.000  0.001  0.123 -0.000
 -0.000 -0.003 -0.000 -0.000  0.432
atom    9   Tr[ns(na)] =   2.65876
    eigenvalues:
  0.128  0.169  0.179  0.378  0.476
    eigenvectors:
  0.000  0.000  0.905  0.095  0.000
  0.000  0.000  0.000  0.000  1.000
  1.000  0.000  0.000  0.000  0.000
  0.000  0.000  0.095  0.905  0.000
  0.000  1.000  0.000  0.000  0.000
    occupations:
  0.198  0.000  0.000  0.059 -0.000
  0.000  0.476 -0.000  0.000 -0.000
  0.000 -0.000  0.128  0.000 -0.000
  0.059  0.000  0.000  0.359 -0.000
 -0.000 -0.000 -0.000 -0.000  0.169
atom   10   Tr[ns(na)] =   2.55665
    eigenvalues:
  0.130  0.164  0.180  0.318  0.486
    eigenvectors:
  0.029  0.000  0.000  0.971  0.000
  0.000  0.000  1.000  0.000  0.000
  0.000  1.000  0.000  0.000  0.000
  0.971  0.000  0.000  0.029  0.000
  0.000  0.000  0.000  0.000  1.000
    occupations:
  0.312 -0.000 -0.001 -0.031 -0.000
 -0.000  0.180 -0.000 -0.000  0.000
 -0.001 -0.000  0.164 -0.000  0.000
 -0.031 -0.000 -0.000  0.136 -0.000
 -0.000  0.000  0.000 -0.000  0.486
atom   16   Tr[ns(na)] =   2.52819
    eigenvalues:
  0.117  0.131  0.152  0.427  0.437
    eigenvectors:
  0.757  0.000  0.036  0.000  0.207
  0.000  0.002  0.000  0.998  0.000
  0.041  0.000  0.958  0.000  0.000
  0.202  0.000  0.006  0.000  0.792
  0.000  0.998  0.000  0.002  0.000
    occupations:
  0.185 -0.000 -0.004  0.129 -0.000
 -0.000  0.426  0.000 -0.000  0.014
 -0.004  0.000  0.151  0.008  0.000
  0.129 -0.000  0.008  0.370 -0.000
 -0.000  0.014  0.000 -0.000  0.132
atom   17   Tr[ns(na)] =   2.65607
    eigenvalues:
  0.121  0.147  0.167  0.432  0.461
    eigenvectors:
  0.007  0.003  0.000  0.000  0.990
  0.003  0.917  0.077  0.000  0.003
  0.001  0.077  0.922  0.000  0.000
  0.989  0.004  0.000  0.000  0.006
  0.000  0.000  0.000  1.000  0.000
    occupations:
  0.458  0.018  0.004 -0.027 -0.000
  0.018  0.150 -0.005 -0.000 -0.003
  0.004 -0.005  0.165  0.001 -0.000
 -0.027 -0.000  0.001  0.123 -0.000
 -0.000 -0.003 -0.000 -0.000  0.432
atom   22   Tr[ns(na)] =   2.65876
    eigenvalues:
  0.128  0.169  0.179  0.378  0.476
    eigenvectors:
  0.000  0.000  0.905  0.095  0.000
  0.000  0.000  0.000  0.000  1.000
  1.000  0.000  0.000  0.000  0.000
  0.000  0.000  0.095  0.905  0.000
  0.000  1.000  0.000  0.000  0.000
    occupations:
  0.198  0.000  0.000  0.059 -0.000
  0.000  0.476 -0.000  0.000 -0.000
  0.000 -0.000  0.128  0.000 -0.000
  0.059  0.000  0.000  0.359 -0.000
 -0.000 -0.000 -0.000 -0.000  0.169
atom   23   Tr[ns(na)] =   2.55665
    eigenvalues:
  0.130  0.164  0.180  0.318  0.486
    eigenvectors:
  0.029  0.000  0.000  0.971  0.000
  0.000  0.000  1.000  0.000  0.000
  0.000  1.000  0.000  0.000  0.000
  0.971  0.000  0.000  0.029  0.000
  0.000  0.000  0.000  0.000  1.000
    occupations:
  0.312 -0.000 -0.001 -0.031 -0.000
 -0.000  0.180 -0.000 -0.000  0.000
 -0.001 -0.000  0.164 -0.000  0.000
 -0.031 -0.000 -0.000  0.136 -0.000
 -0.000  0.000  0.000 -0.000  0.486
N of occupied +U levels =  20.7993500
 --- exit write_ns ---

     Threshold (ethr) on eigenvalues was too large:
     Diagonalizing with lowered threshold

     Davidson diagonalization with overlap
     ethr =  5.50E-09,  avg # of iterations =  2.5

[...]

     total energy              =   -1531.13442279 Ry
     Harris-Foulkes estimate   =   -1531.13442280 Ry
     estimated scf accuracy    <       0.00000003 Ry

     iteration #  7     ecut=    40.00 Ry     beta=0.70
     Davidson diagonalization with overlap
     ethr =  1.54E-11,  avg # of iterations =  1.9

     negative rho (up, down):  0.108E+00 0.000E+00

     End of self-consistent calculation
 --- enter write_ns ---
 LDA+U parameters:
U( 2)     =  7.00000000
alpha( 2) =  0.00000000
atom    3   Tr[ns(na)] =   2.52885
    eigenvalues:
  0.117  0.131  0.152  0.427  0.437
    eigenvectors:
  0.758  0.000  0.035  0.000  0.207
  0.000  0.002  0.000  0.998  0.000
  0.040  0.000  0.959  0.000  0.000
  0.202  0.000  0.006  0.000  0.792
  0.000  0.998  0.000  0.002  0.000
    occupations:
  0.185 -0.000 -0.004  0.129 -0.000
 -0.000  0.427  0.000 -0.000  0.014
 -0.004  0.000  0.151  0.008  0.000
  0.129 -0.000  0.008  0.371 -0.000
 -0.000  0.014  0.000 -0.000  0.132
atom    4   Tr[ns(na)] =   2.65596
    eigenvalues:
  0.121  0.148  0.167  0.432  0.461
    eigenvectors:
  0.007  0.003  0.000  0.000  0.990
  0.003  0.917  0.078  0.000  0.003
  0.001  0.077  0.922  0.000  0.000
  0.989  0.004  0.000  0.000  0.006
  0.000  0.000  0.000  1.000  0.000
    occupations:
  0.458  0.018  0.004 -0.027 -0.000
  0.018  0.150 -0.005 -0.000 -0.003
  0.004 -0.005  0.165  0.001 -0.000
 -0.027 -0.000  0.001  0.123 -0.000
 -0.000 -0.003 -0.000 -0.000  0.432
atom    9   Tr[ns(na)] =   2.65887
    eigenvalues:
  0.128  0.169  0.179  0.378  0.476
    eigenvectors:
  0.000  0.000  0.905  0.095  0.000
  0.000  0.000  0.000  0.000  1.000
  1.000  0.000  0.000  0.000  0.000
  0.000  0.000  0.095  0.905  0.000
  0.000  1.000  0.000  0.000  0.000
    occupations:
  0.198  0.000  0.000  0.059 -0.000
  0.000  0.476 -0.000  0.000 -0.000
  0.000 -0.000  0.128  0.000 -0.000
  0.059  0.000  0.000  0.359 -0.000
 -0.000 -0.000 -0.000 -0.000  0.169
atom   10   Tr[ns(na)] =   2.55649
    eigenvalues:
  0.130  0.164  0.180  0.317  0.486
    eigenvectors:
  0.029  0.000  0.000  0.971  0.000
  0.000  0.000  1.000  0.000  0.000
  0.000  1.000  0.000  0.000  0.000
  0.971  0.000  0.000  0.029  0.000
  0.000  0.000  0.000  0.000  1.000
    occupations:
  0.312 -0.000 -0.001 -0.031 -0.000
 -0.000  0.180 -0.000 -0.000  0.000
 -0.001 -0.000  0.164 -0.000  0.000
 -0.031 -0.000 -0.000  0.136 -0.000
 -0.000  0.000  0.000 -0.000  0.486
atom   16   Tr[ns(na)] =   2.52885
    eigenvalues:
  0.117  0.131  0.152  0.427  0.437
    eigenvectors:
  0.758  0.000  0.035  0.000  0.207
  0.000  0.002  0.000  0.998  0.000
  0.040  0.000  0.959  0.000  0.000
  0.202  0.000  0.006  0.000  0.792
  0.000  0.998  0.000  0.002  0.000
    occupations:
  0.185 -0.000 -0.004  0.129 -0.000
 -0.000  0.427  0.000 -0.000  0.014
 -0.004  0.000  0.151  0.008  0.000
  0.129 -0.000  0.008  0.371 -0.000
 -0.000  0.014  0.000 -0.000  0.132
atom   17   Tr[ns(na)] =   2.65596
    eigenvalues:
  0.121  0.148  0.167  0.432  0.461
    eigenvectors:
  0.007  0.003  0.000  0.000  0.990
  0.003  0.917  0.078  0.000  0.003
  0.001  0.077  0.922  0.000  0.000
  0.989  0.004  0.000  0.000  0.006
  0.000  0.000  0.000  1.000  0.000
    occupations:
  0.458  0.018  0.004 -0.027 -0.000
  0.018  0.150 -0.005 -0.000 -0.003
  0.004 -0.005  0.165  0.001 -0.000
 -0.027 -0.000  0.001  0.123 -0.000
 -0.000 -0.003 -0.000 -0.000  0.432
atom   22   Tr[ns(na)] =   2.65887
    eigenvalues:
  0.128  0.169  0.179  0.378  0.476
    eigenvectors:
  0.000  0.000  0.905  0.095  0.000
  0.000  0.000  0.000  0.000  1.000
  1.000  0.000  0.000  0.000  0.000
  0.000  0.000  0.095  0.905  0.000
  0.000  1.000  0.000  0.000  0.000
    occupations:
  0.198  0.000  0.000  0.059 -0.000
  0.000  0.476 -0.000  0.000 -0.000
  0.000 -0.000  0.128  0.000 -0.000
  0.059  0.000  0.000  0.359 -0.000
 -0.000 -0.000 -0.000 -0.000  0.169
atom   23   Tr[ns(na)] =   2.55649
    eigenvalues:
  0.130  0.164  0.180  0.317  0.486
    eigenvectors:
  0.029  0.000  0.000  0.971  0.000
  0.000  0.000  1.000  0.000  0.000
  0.000  1.000  0.000  0.000  0.000
  0.971  0.000  0.000  0.029  0.000
  0.000  0.000  0.000  0.000  1.000
    occupations:
  0.312 -0.000 -0.001 -0.031 -0.000
 -0.000  0.180 -0.000 -0.000  0.000
 -0.001 -0.000  0.164 -0.000  0.000
 -0.031 -0.000 -0.000  0.136 -0.000
 -0.000  0.000  0.000 -0.000  0.486
N of occupied +U levels =  20.8003221
 --- exit write_ns ---

[...]

          k = 0.2500-0.4516 0.0000 ( 29882 PWs)   bands (ev):

[...]

          k =-0.2500 0.2258 0.0000 ( 29912 PWs)   bands (ev):

   -62.3475 -62.3236 -62.0679 -62.0428 -60.6594 -60.6323 -60.1203 -60.0945
   -38.7486 -38.5292 -38.4933 -38.4653 -38.3850 -38.3699 -38.3698 -38.3496
   -38.3094 -38.1681 -38.1090 -38.0369 -37.1450 -36.9557 -36.8880 -36.8475
   -36.6617 -36.6403 -36.4648 -36.4440 -36.3678 -36.2745 -36.2129 -36.0796
   -22.2726 -22.0523 -20.9768 -20.7450 -20.4493 -20.3198 -20.1011 -19.8948
   -19.8079 -19.7749 -19.5943 -19.4784 -19.4233 -19.2016 -18.5985 -18.3110
   -17.8939 -17.8596  -9.8474  -9.6189  -8.0990  -7.9229  -7.8866  -7.8149
    -7.8021  -7.6791  -7.4176  -7.4044  -7.4015  -7.3388  -7.0835  -7.0542
    -7.0073  -6.8462  -6.7567  -6.7089  -6.5135  -6.4174  -6.0933  -6.0029
    -5.9615  -5.8049  -5.7853  -5.6535  -5.6291  -5.5224  -5.3786  -5.3368
    -5.3252  -5.1873  -5.1826  -5.1194  -5.0267  -4.9527  -4.8431  -4.7222
    -4.6550  -4.5070  -4.3890  -4.3305  -3.9287  -3.6346  -3.4571  -3.3031
    -3.2952  -3.2184  -3.0781  -2.9099  -2.8937  -2.7760  -2.7491  -2.6049
    -0.7070  -0.4308  -0.3866  -0.3431  -0.2125  -0.1424  -0.1075   0.0122
     0.0735   0.2271   0.2365   0.3026   0.4954   0.5763   0.7541   0.7627
     1.0194   1.0541   1.0562   1.1646   1.4022   1.4663   1.6155   1.6859
     1.8057   1.8506   1.9986   2.0222   2.0393   2.2292   2.2971   2.5407
     2.6030   2.6781   2.8007   2.8743   3.2135   3.2160   3.3478   3.5983
     3.6100   3.9182   4.2204   4.6196   4.9742   5.0035   5.2832   5.6884
     5.7209   5.8563   6.0172   6.1388   6.2382   6.5425   6.5543   6.8341
     6.9137   7.0916   7.2593   7.3931   7.4329   7.6129   7.6173   7.8182
     7.9109   8.0305   8.0626   8.2408   8.4546   8.4701   8.5456   8.6254
     8.7934   8.9858   9.1933   9.2508   9.3434   9.3686   9.4287   9.4723
     9.5076   9.6116   9.7864   9.9745   9.9998  10.0480  10.2517  10.3161
    10.4553  10.5598  10.5769  10.7087  10.7164  10.8933  10.8959  10.9789
    10.9871  11.1888  11.2691  11.2825  11.3219  11.4634  11.4777  11.5019
    11.6130  11.7307  11.8774  11.8886  11.9575  11.9603  12.0957  12.1979
    12.2853  12.3557  12.4780  12.5529  12.5706  12.6298  12.7290  12.8068
    12.8800  12.9558  12.9772  13.1705  13.1736  13.2564  13.2724  13.4053
    13.4646  13.4758  13.6029  13.6030  13.6761  13.7176  13.8028  13.9551
    13.9941  14.1489  14.1650  14.2316  14.2736  14.4423  14.5004  14.5289
    14.6048  14.6229  14.6824  14.8841  14.9011  14.9941  15.0654  15.1639
    15.3136  15.3304  15.4488  15.5039  15.6080  15.6363  15.6949  15.6983
    15.8445  15.8546  15.9484  15.9719  15.9965  16.1238  16.2443  16.2918
    16.4109  16.4927  16.5685  16.6661  16.6700  16.8195  16.8479  16.8648
    16.8842  17.0278  17.0821  17.1141  17.1577  17.2319  17.2980  17.3316
    17.4133  17.4956  17.5208  17.6392  17.6853  17.7730  17.7747  17.9134
    18.0385  18.0987  18.1932  18.1973

     the Fermi energy is    -0.8769 ev

!    total energy              =   -1531.13442280 Ry
     Harris-Foulkes estimate   =   -1531.13442280 Ry
     estimated scf accuracy    <          7.9E-09 Ry

     The total energy is the sum of the following terms:

     one-electron contribution =  -18159.80400044 Ry
     hartree contribution      =    9090.37612010 Ry
     xc contribution           =    -269.58798517 Ry
     ewald contribution        =    7804.33088267 Ry
     Hubbard energy            =       3.54988330 Ry
     smearing contrib. (-TS)   =       0.00067674 Ry

     convergence has been achieved in   7 iterations

     Forces acting on atoms (Ry/au):

     negative rho (up, down):  0.108E+00 0.000E+00
     atom    1 type  1   force =    -0.00445520   -0.01785043   -0.00037583
     atom    2 type  1   force =     0.00003715    0.02232897    0.00024343
     atom    3 type  2   force =     0.00009260   -0.00962878    0.00024097
     atom    4 type  2   force =     0.00263075    0.01034149    0.00010911
     atom    5 type  1   force =     0.00228908   -0.10738785    0.00052856
     atom    6 type  1   force =    -0.00104361    0.10399748    0.00049796
     atom    7 type  1   force =    -0.00003399    0.00048852    0.00047036
     atom    8 type  1   force =     0.00026603   -0.00166412   -0.00065014
     atom    9 type  2   force =     0.00002872    0.00014700    0.00024106
     atom   10 type  2   force =    -0.00001740   -0.00060934   -0.00076297
     atom   11 type  1   force =     0.00001048   -0.04214853    0.00013041
     atom   12 type  1   force =     0.00001041    0.04237108    0.00012141
     atom   13 type  1   force =     0.00000245   -0.00008674    0.00009570
     atom   14 type  1   force =    -0.00445517   -0.01785042   -0.00037583
     atom   15 type  1   force =     0.00003715    0.02232898    0.00024344
     atom   16 type  2   force =     0.00009260   -0.00962878    0.00024097
     atom   17 type  2   force =     0.00263076    0.01034149    0.00010912
     atom   18 type  1   force =     0.00228906   -0.10738785    0.00052856
     atom   19 type  1   force =    -0.00104363    0.10399748    0.00049796
     atom   20 type  1   force =    -0.00003399    0.00048852    0.00047037
     atom   21 type  1   force =     0.00026603   -0.00166412   -0.00065020
     atom   22 type  2   force =     0.00002862    0.00014700    0.00024106
     atom   23 type  2   force =    -0.00001740   -0.00060934   -0.00076297
     atom   24 type  1   force =     0.00001048   -0.04214853    0.00013041
     atom   25 type  1   force =     0.00001041    0.04237108    0.00012141
     atom   26 type  1   force =     0.00000245   -0.00008674    0.00009559
     atom   27 type  3   force =    -0.00000142   -0.00046359   -0.00075305
     atom   28 type  3   force =    -0.00000142   -0.00046360   -0.00075304
     atom   29 type  3   force =     0.00018403    0.00016485   -0.00013695
     atom   30 type  3   force =     0.00018399    0.00016484   -0.00013692

     Total force =     0.002443     Total SCF correction =     0.000279
     SCF correction compared to forces is large: reduce conv_thr to get better values

     bfgs converged in  13 scf cycles and  12 bfgs steps
     (criteria: energy < 0.10E-03, force < 0.10E-02)

     End of BFGS Geometry Optimization

     Final energy   =   -1531.1344227950 Ry
Begin final coordinates

ATOMIC_POSITIONS (crystal)
O0       0.000000000   0.000000000   0.377401240    0   0   1
O0       0.000000000   0.500000000   0.397697825    0   0   1
Ti1      0.250000000   0.500000000   0.449640715    0   0   1
Ti1      0.000000000   0.000000000   0.451461625    0   0   1
O0       0.250000000   0.810000000   0.450145480    0   0   1
O0       0.250000000   0.190000000   0.451230651    0   0   1
O0       0.000000000   0.500000000   0.498739150    0   0   1
O0       0.000000000   0.000000000   0.528032967    0   0   1
Ti1      0.250000000   0.000000000   0.581914449    0   0   1
Ti1      0.000000000   0.500000000   0.571942631    0   0   1
O0       0.250000000   0.690000000   0.582139820    0   0   1
O0       0.250000000   0.310000000   0.582197146    0   0   1
O0       0.000000000   0.000000000   0.625360117    0   0   1
O0       0.500000000   0.000000000   0.377401239    0   0   1
O0       0.500000000   0.500000000   0.397697824    0   0   1
Ti1      0.750000000   0.500000000   0.449640716    0   0   1
Ti1      0.500000000   0.000000000   0.451461625    0   0   1
O0       0.750000000   0.810000000   0.450145480    0   0   1
O0       0.750000000   0.190000000   0.451230652    0   0   1
O0       0.500000000   0.500000000   0.498739149    0   0   1
O0       0.500000000   0.000000000   0.528032971    0   0   1
Ti1      0.750000000   0.000000000   0.581914449    0   0   1
Ti1      0.500000000   0.500000000   0.571942630    0   0   1
O0       0.750000000   0.690000000   0.582139821    0   0   1
O0       0.750000000   0.310000000   0.582197145    0   0   1
O0       0.500000000   0.000000000   0.625360124    0   0   1
H2      -0.000193059   0.633250215   0.379657917
H2       0.499806941   0.633250221   0.379657918
H2       0.152860023   0.023755597   0.364008264
H2       0.652860017   0.023755617   0.364008259
End final coordinates

     General routines

     Parallel routines
     Hubbard U routines

   This run was terminated on:  22: 8: 1   6May2014

   JOB DONE.
Running PBS batch system epilogue script
Job id: 340822.audhumbla.fysik.dtu.dk
Username: zhonxu
Groupname: campgst
Jobname: TiO2/Eads-2-layers/bare-U-7.0
Sessionid: 361
Queuename: verylong
Accounting:
This job has allocated the following 16 nodes:
c094 c094 c094 c094 c094 c094 c094 c094 c071 c071 c071 c071 c071 c071 c071 c071
Finished epilogue job 340822.audhumbla.fysik.dtu.dk for zhonxu