     Program PWSCF v.5.0.2 (svn rev. 9656) starts on  5May2014 at 19:11: 5

     Current dimensions of program PWSCF are:
     Max number of different atomic species (ntypx) = 10
     Max number of k-points (npk) =  40000
     Max angular momentum in pseudopotentials (lmaxx) =  3
     Reading input from pwscf.in
Warning: card &CELL ignored
Warning: card / ignored

     Subspace diagonalization in iterative solution of the eigenvalue problem:
     a serial algorithm will be used

     Found symmetry operation: I + ( -0.5000  0.0000  0.0000)
     This is a supercell, fractional translations are disabled

     bravais-lattice index     =            0
     lattice parameter (alat)  =      10.3179  a.u.
     unit-cell volume          =    6964.3238 (a.u.)^3
     number of atoms/cell      =           30
     number of atomic types    =            3
     number of electrons       =       224.00
     number of Kohn-Sham states=          336
     kinetic-energy cutoff     =      40.0000  Ry
     charge density cutoff     =     500.0000  Ry
     convergence threshold     =      1.0E-06
     mixing beta               =       0.7000
     number of iterations used =            8  plain     mixing
     Exchange-correlation      = SLA  PW   PBE  PBE ( 1 4 3 4 0)
     EXX-fraction              =        0.00
     nstep                     =           50

     celldm(1)=  10.317905  celldm(2)=   0.000000  celldm(3)=   0.000000
     celldm(4)=   0.000000  celldm(5)=   0.000000  celldm(6)=   0.000000

     crystal axes: (cart. coord. in units of alat)
               a(1) = (   1.000000   0.000000   0.000000 )
               a(2) = (   0.000000   1.282117   0.000000 )
               a(3) = (   0.000000   0.000000   4.945120 )

     reciprocal axes: (cart. coord. in units 2 pi/alat)
               b(1) = (  1.000000  0.000000  0.000000 )
               b(2) = (  0.000000  0.779960  0.000000 )
               b(3) = (  0.000000  0.000000  0.202220 )

     PseudoPot. # 1 for O  read from file:
     /home/camp/zhonxu/pseudo/o_pbe_v1.01.uspp.F.UPF
     MD5 check sum: 2bcb18d16ea4b960afae9ec6d52f22d2
     Pseudo is Ultrasoft + core correction, Zval =  6.0
     Generated by new atomic code, or converted to UPF format
     Using radial grid of  737 points,  5 beta functions with:
                l(1) =   0
                l(2) =   0
                l(3) =   1
                l(4) =   1
                l(5) =   2
     Q(r) pseudized with  8 coefficients,  rinner =    0.900   0.900   0.900
                                                       0.900   0.900

     PseudoPot. # 2 for Mo read from file:
     /home/camp/zhonxu/pseudo/mo_pbe_v1.uspp.F.UPF
     MD5 check sum: 30c4dcd161f5d35cd49bb5239c51a633
     Pseudo is Ultrasoft + core correction, Zval = 14.0
     Generated by new atomic code, or converted to UPF format
     Using radial grid of  889 points,  6 beta functions with:
                l(1) =   0
                l(2) =   0
                l(3) =   1
                l(4) =   1
                l(5) =   2
                l(6) =   2
     Q(r) pseudized with  6 coefficients,  rinner =    1.000   1.000   1.000
                                                       1.000   1.000

     PseudoPot. # 3 for H  read from file:
     /home/camp/zhonxu/pseudo/h_pbe_v1.uspp.F.UPF
     MD5 check sum: 3408e3ff4ec8b0a4e358431e7e038a48
     Pseudo is Ultrasoft, Zval =  1.0
     Generated by new atomic code, or converted to UPF format
     Using radial grid of  615 points,  2 beta functions with:
                l(1) =   0
                l(2) =   0
     Q(r) pseudized with  8 coefficients,  rinner =    0.700

     atomic species   valence    mass     pseudopotential
        O0             6.00    15.99940     O ( 1.00)
        Mo1           14.00    95.94000     Mo( 1.00)
        H2             1.00     1.00794     H ( 1.00)

     Simplified LDA+U calculation (l_max = 2) with parameters (eV):
     atomic species    L          U    alpha       J0     beta
        Mo1            2     6.5000   0.0000   0.0000   0.0000

     No symmetry found

   Cartesian axes

     site n.     atom                  positions (alat units)
         1           O0  tau(   1) = (   0.0000000   0.0000000   1.8465574  )
         2           O0  tau(   2) = (   0.0000000   0.6410583   1.8808271  )
         3           Mo1 tau(   3) = (   0.2500000   0.6410583   2.1650231  )
         4           Mo1 tau(   4) = (   0.0000000   0.0000000   2.2064633  )
         5           O0  tau(   5) = (   0.2500000   1.0000510   2.1927158  )
         6           O0  tau(   6) = (   0.2500000   0.2820657   2.1921224  )
         7           O0  tau(   7) = (   0.0000000   0.6410583   2.4520379  )
         8           O0  tau(   8) = (   0.0000000   0.0000000   2.5658746  )
         9           Mo1 tau(   9) = (   0.2500000   0.0000000   2.8596642  )
        10           Mo1 tau(  10) = (   0.0000000   0.6410583   2.7884050  )
        11           O0  tau(  11) = (   0.2500000   0.9231240   2.8369661  )
        12           O0  tau(  12) = (   0.2500000   0.3589927   2.8372628  )
        13           O0  tau(  13) = (   0.0000000   0.0000000   3.1104807  )
        14           O0  tau(  14) = (   0.5000000   0.0000000   1.8465574  )
        15           O0  tau(  15) = (   0.5000000   0.6410583   1.8808271  )
        16           Mo1 tau(  16) = (   0.7500000   0.6410583   2.1650231  )
        17           Mo1 tau(  17) = (   0.5000000   0.0000000   2.2064633  )
        18           O0  tau(  18) = (   0.7500000   1.0000510   2.1927158  )
        19           O0  tau(  19) = (   0.7500000   0.2820657   2.1921224  )
        20           O0  tau(  20) = (   0.5000000   0.6410583   2.4520379  )
        21           O0  tau(  21) = (   0.5000000   0.0000000   2.5658746  )
        22           Mo1 tau(  22) = (   0.7500000   0.0000000   2.8596642  )
        23           Mo1 tau(  23) = (   0.5000000   0.6410583   2.7884050  )
        24           O0  tau(  24) = (   0.7500000   0.9231240   2.8369661  )
        25           O0  tau(  25) = (   0.7500000   0.3589927   2.8372628  )
        26           O0  tau(  26) = (   0.5000000   0.0000000   3.1104807  )
        27           H2  tau(  27) = (  -0.0004900   0.7868222   1.7746059  )
        28           H2  tau(  28) = (   0.4995100   0.7868222   1.7746059  )
        29           H2  tau(  29) = (   0.1657500   0.0265270   1.7749026  )
        30           H2  tau(  30) = (   0.6657500   0.0265270   1.7749026  )

     number of k points=    10  Methfessel-Paxton smearing, width (Ry)=  0.0100
                       cart. coord. in units 2pi/alat
        k(    1) = (   0.0000000   0.0000000   0.0000000), wk =   0.1250000
        k(    2) = (   0.0000000   0.1949901   0.0000000), wk =   0.2500000
        k(    3) = (   0.0000000  -0.3899801   0.0000000), wk =   0.1250000
        k(    4) = (   0.2500000   0.0000000   0.0000000), wk =   0.2500000
        k(    5) = (   0.2500000   0.1949901   0.0000000), wk =   0.2500000
        k(    6) = (   0.2500000  -0.3899801   0.0000000), wk =   0.2500000
        k(    7) = (  -0.5000000   0.0000000   0.0000000), wk =   0.1250000
        k(    8) = (  -0.5000000   0.1949901   0.0000000), wk =   0.2500000
        k(    9) = (  -0.5000000  -0.3899801   0.0000000), wk =   0.1250000
        k(   10) = (  -0.2500000   0.1949901   0.0000000), wk =   0.2500000

     Largest allocated arrays     est. size (Mb)     dimensions
     Largest temporary arrays     est. size (Mb)     dimensions

     Check: negative/imaginary core charge=   -0.000003    0.000000

     Initial potential from superposition of free atoms
     Check: negative starting charge=   -0.002478

     starting charge  223.99143, renormalised to  224.00000

     negative rho (up, down):  0.248E-02 0.000E+00
     Number of +U iterations with fixed ns =  0
     Starting occupations:
 --- enter write_ns ---
 LDA+U parameters:
U( 2)     =  6.50000000
alpha( 2) =  0.00000000
atom    3   Tr[ns(na)] =   5.00000
    eigenvalues:
  0.500  0.500  0.500  0.500  0.500
    eigenvectors:
  1.000  0.000  0.000  0.000  0.000
  0.000  1.000  0.000  0.000  0.000
  0.000  0.000  1.000  0.000  0.000
  0.000  0.000  0.000  1.000  0.000
  0.000  0.000  0.000  0.000  1.000
    occupations:
  0.500  0.000  0.000  0.000  0.000
  0.000  0.500  0.000  0.000  0.000
  0.000  0.000  0.500  0.000  0.000
  0.000  0.000  0.000  0.500  0.000
  0.000  0.000  0.000  0.000  0.500
atom    4   Tr[ns(na)] =   5.00000
    eigenvalues:
  0.500  0.500  0.500  0.500  0.500
    eigenvectors:
  1.000  0.000  0.000  0.000  0.000
  0.000  1.000  0.000  0.000  0.000
  0.000  0.000  1.000  0.000  0.000
  0.000  0.000  0.000  1.000  0.000
  0.000  0.000  0.000  0.000  1.000
    occupations:
  0.500  0.000  0.000  0.000  0.000
  0.000  0.500  0.000  0.000  0.000
  0.000  0.000  0.500  0.000  0.000
  0.000  0.000  0.000  0.500  0.000
  0.000  0.000  0.000  0.000  0.500
atom    9   Tr[ns(na)] =   5.00000
    eigenvalues:
  0.500  0.500  0.500  0.500  0.500
    eigenvectors:
  1.000  0.000  0.000  0.000  0.000
  0.000  1.000  0.000  0.000  0.000
  0.000  0.000  1.000  0.000  0.000
  0.000  0.000  0.000  1.000  0.000
  0.000  0.000  0.000  0.000  1.000
    occupations:
  0.500  0.000  0.000  0.000  0.000
  0.000  0.500  0.000  0.000  0.000
  0.000  0.000  0.500  0.000  0.000
  0.000  0.000  0.000  0.500  0.000
  0.000  0.000  0.000  0.000  0.500
atom   10   Tr[ns(na)] =   5.00000
    eigenvalues:
  0.500  0.500  0.500  0.500  0.500
    eigenvectors:
  1.000  0.000  0.000  0.000  0.000
  0.000  1.000  0.000  0.000  0.000
  0.000  0.000  1.000  0.000  0.000
  0.000  0.000  0.000  1.000  0.000
  0.000  0.000  0.000  0.000  1.000
    occupations:
  0.500  0.000  0.000  0.000  0.000
  0.000  0.500  0.000  0.000  0.000
  0.000  0.000  0.500  0.000  0.000
  0.000  0.000  0.000  0.500  0.000
  0.000  0.000  0.000  0.000  0.500
atom   16   Tr[ns(na)] =   5.00000
    eigenvalues:
  0.500  0.500  0.500  0.500  0.500
    eigenvectors:
  1.000  0.000  0.000  0.000  0.000
  0.000  1.000  0.000  0.000  0.000
  0.000  0.000  1.000  0.000  0.000
  0.000  0.000  0.000  1.000  0.000
  0.000  0.000  0.000  0.000  1.000
    occupations:
  0.500  0.000  0.000  0.000  0.000
  0.000  0.500  0.000  0.000  0.000
  0.000  0.000  0.500  0.000  0.000
  0.000  0.000  0.000  0.500  0.000
  0.000  0.000  0.000  0.000  0.500
atom   17   Tr[ns(na)] =   5.00000
    eigenvalues:
  0.500  0.500  0.500  0.500  0.500
    eigenvectors:
  1.000  0.000  0.000  0.000  0.000
  0.000  1.000  0.000  0.000  0.000
  0.000  0.000  1.000  0.000  0.000
  0.000  0.000  0.000  1.000  0.000
  0.000  0.000  0.000  0.000  1.000
    occupations:
  0.500  0.000  0.000  0.000  0.000
  0.000  0.500  0.000  0.000  0.000
  0.000  0.000  0.500  0.000  0.000
  0.000  0.000  0.000  0.500  0.000
  0.000  0.000  0.000  0.000  0.500
atom   22   Tr[ns(na)] =   5.00000
    eigenvalues:
  0.500  0.500  0.500  0.500  0.500
    eigenvectors:
  1.000  0.000  0.000  0.000  0.000
  0.000  1.000  0.000  0.000  0.000
  0.000  0.000  1.000  0.000  0.000
  0.000  0.000  0.000  1.000  0.000
  0.000  0.000  0.000  0.000  1.000
    occupations:
[...]
 -0.014  0.496 -0.005 -0.004 -0.007
  0.033 -0.005  0.429 -0.015  0.089
 -0.100 -0.004 -0.015  0.641 -0.000
 -0.003 -0.007  0.089 -0.000  0.628
atom    4   Tr[ns(na)] =   5.79821
    eigenvalues:
  0.331  0.518  0.567  0.715  0.769
    eigenvectors:
  0.000  0.000  0.978  0.022  0.000
  0.000  0.000  0.007  0.290  0.703
  0.999  0.001  0.000  0.000  0.000
  0.000  0.000  0.015  0.687  0.297
  0.001  0.999  0.000  0.000  0.000
    occupations:
  0.570  0.012  0.002  0.018  0.001
  0.012  0.751  0.009 -0.026 -0.001
  0.002  0.009  0.332 -0.003  0.004
  0.018 -0.026 -0.003  0.728 -0.000
  0.001 -0.001  0.004 -0.000  0.518
atom    9   Tr[ns(na)] =   5.87165
    eigenvalues:
  0.491  0.530  0.606  0.625  0.683
    eigenvectors:
  0.000  0.000  0.156  0.000  0.844
  0.000  0.000  0.011  0.985  0.004
  0.287  0.713  0.000  0.000  0.000
  0.000  0.000  0.833  0.015  0.152
  0.713  0.287  0.000  0.000  0.000
    occupations:
  0.671 -0.004  0.002 -0.028 -0.000
 -0.004  0.626 -0.000 -0.000 -0.000
  0.002 -0.000  0.519 -0.001  0.017
 -0.028 -0.000 -0.001  0.618 -0.000
 -0.000 -0.000  0.017 -0.000  0.503
atom   10   Tr[ns(na)] =   5.78748
    eigenvalues:
  0.427  0.500  0.505  0.653  0.808
    eigenvectors:
  0.003  0.002  0.993  0.000  0.002
  0.000  0.000  0.000  0.999  0.001
  0.992  0.004  0.003  0.000  0.000
  0.000  0.000  0.002  0.001  0.997
  0.005  0.993  0.002  0.000  0.000
    occupations:
  0.506 -0.000 -0.004 -0.015 -0.000
 -0.000  0.653 -0.002  0.005  0.000
 -0.004 -0.002  0.428 -0.001 -0.005
 -0.015  0.005 -0.001  0.807 -0.000
 -0.000  0.000 -0.005 -0.000  0.499
atom   16   Tr[ns(na)] =   5.82091
    eigenvalues:
  0.358  0.490  0.569  0.719  0.775
    eigenvectors:
  0.009  0.010  0.283  0.021  0.678
  0.000  0.980  0.017  0.002  0.002
  0.936  0.000  0.001  0.046  0.017
  0.001  0.009  0.699  0.008  0.284
  0.054  0.002  0.000  0.924  0.020
    occupations:
  0.709  0.013  0.036 -0.092  0.002
  0.013  0.492  0.004  0.003 -0.010
  0.036  0.004  0.381 -0.017 -0.082
 -0.092  0.003 -0.017  0.628  0.002
  0.002 -0.010 -0.082  0.002  0.700
atom   17   Tr[ns(na)] =   5.81344
    eigenvalues:
  0.382  0.525  0.589  0.601  0.809
    eigenvectors:
  0.000  0.000  0.111  0.889  0.000
  0.000  0.000  0.884  0.109  0.007
  1.000  0.000  0.000  0.000  0.000
  0.000  0.000  0.005  0.002  0.993
  0.000  1.000  0.000  0.000  0.000
    occupations:
  0.600  0.004  0.002 -0.004  0.000
  0.004  0.592 -0.003 -0.018 -0.001
  0.002 -0.003  0.382 -0.005  0.000
 -0.004 -0.018 -0.005  0.808 -0.000
  0.000 -0.001  0.000 -0.000  0.525
atom   22   Tr[ns(na)] =   5.81463
    eigenvalues:
  0.427  0.458  0.586  0.602  0.833
    eigenvectors:
  0.000  0.000  0.025  0.233  0.742
  0.000  0.000  0.908  0.092  0.000
  0.124  0.876  0.000  0.000  0.000
  0.000  0.000  0.067  0.675  0.258
  0.876  0.124  0.000  0.000  0.000
    occupations:
  0.773  0.004  0.003 -0.102 -0.002
  0.004  0.588 -0.000  0.003 -0.001
  0.003 -0.000  0.454 -0.002 -0.010
 -0.102  0.003 -0.002  0.661  0.001
 -0.002 -0.001 -0.010  0.001  0.431
atom   23   Tr[ns(na)] =   5.72454
    eigenvalues:
  0.310  0.457  0.495  0.755  0.847
    eigenvectors:
  0.000  0.996  0.000  0.004  0.000
  0.000  0.000  0.000  0.000  1.000
  0.999  0.000  0.001  0.000  0.000
  0.000  0.004  0.000  0.996  0.000
  0.001  0.000  0.999  0.000  0.000
    occupations:
  0.458 -0.002 -0.002  0.018 -0.000
 -0.002  0.847 -0.001  0.000 -0.000
 -0.002 -0.001  0.310 -0.000  0.004
  0.018  0.000 -0.000  0.753  0.000
 -0.000 -0.000  0.004  0.000  0.495
N of occupied +U levels =  46.4459867
 --- exit write_ns ---

     Threshold (ethr) on eigenvalues was too large:
     Diagonalizing with lowered threshold

     Davidson diagonalization with overlap
     ethr =  9.09E-09,  avg # of iterations =  2.6

[...]

     total energy              =   -1695.78469080 Ry
     Harris-Foulkes estimate   =   -1695.78469081 Ry
     estimated scf accuracy    <       0.00000001 Ry

     iteration # 21     ecut=    40.00 Ry     beta=0.70
     Davidson diagonalization with overlap
     ethr =  5.68E-12,  avg # of iterations =  1.1

     negative rho (up, down):  0.364E-02 0.000E+00

     End of self-consistent calculation
 --- enter write_ns ---
 LDA+U parameters:
U( 2)     =  6.50000000
alpha( 2) =  0.00000000
atom    3   Tr[ns(na)] =   5.81556
    eigenvalues:
  0.392  0.493  0.573  0.662  0.788
    eigenvectors:
  0.008  0.010  0.309  0.004  0.668
  0.000  0.978  0.019  0.002  0.001
  0.870  0.000  0.001  0.117  0.012
  0.000  0.009  0.671  0.003  0.316
  0.121  0.002  0.001  0.874  0.002
    occupations:
  0.715 -0.013  0.033 -0.100 -0.003
 -0.013  0.495 -0.005 -0.004 -0.007
  0.033 -0.005  0.428 -0.015  0.088
 -0.100 -0.004 -0.015  0.641 -0.000
 -0.003 -0.007  0.088 -0.000  0.629
atom    4   Tr[ns(na)] =   5.79705
    eigenvalues:
  0.331  0.518  0.566  0.714  0.770
    eigenvectors:
  0.000  0.000  0.977  0.023  0.000
  0.000  0.000  0.006  0.259  0.734
  0.999  0.001  0.000  0.000  0.000
  0.000  0.000  0.016  0.718  0.265
  0.001  0.999  0.000  0.000  0.000
    occupations:
  0.570  0.012  0.002  0.019  0.001
  0.012  0.754  0.009 -0.026 -0.001
  0.002  0.009  0.331 -0.003  0.004
  0.019 -0.026 -0.003  0.727 -0.000
  0.001 -0.001  0.004 -0.000  0.518
atom    9   Tr[ns(na)] =   5.87277
    eigenvalues:
  0.492  0.530  0.606  0.626  0.683
    eigenvectors:
  0.000  0.000  0.155  0.000  0.844
  0.000  0.000  0.011  0.984  0.005
  0.288  0.712  0.000  0.000  0.000
  0.000  0.000  0.833  0.015  0.151
  0.712  0.288  0.000  0.000  0.000
    occupations:
  0.671 -0.004  0.002 -0.028 -0.000
 -0.004  0.626 -0.000 -0.000 -0.000
  0.002 -0.000  0.519 -0.001  0.017
 -0.028 -0.000 -0.001  0.618 -0.000
 -0.000 -0.000  0.017 -0.000  0.503
atom   10   Tr[ns(na)] =   5.78797
    eigenvalues:
  0.427  0.500  0.505  0.653  0.808
    eigenvectors:
  0.003  0.002  0.992  0.000  0.002
  0.000  0.000  0.000  0.999  0.001
  0.992  0.004  0.003  0.000  0.000
  0.000  0.000  0.002  0.001  0.997
  0.005  0.993  0.002  0.000  0.000
    occupations:
  0.506 -0.000 -0.004 -0.015 -0.000
 -0.000  0.653 -0.002  0.005  0.000
 -0.004 -0.002  0.428 -0.001 -0.005
 -0.015  0.005 -0.001  0.807 -0.000
 -0.000  0.000 -0.005 -0.000  0.500
atom   16   Tr[ns(na)] =   5.82052
    eigenvalues:
  0.358  0.490  0.569  0.719  0.775
    eigenvectors:
  0.009  0.009  0.283  0.020  0.679
  0.000  0.980  0.017  0.002  0.002
  0.937  0.000  0.001  0.046  0.016
  0.001  0.008  0.699  0.007  0.284
  0.054  0.002  0.000  0.925  0.019
    occupations:
  0.709  0.013  0.036 -0.092  0.002
  0.013  0.492  0.004  0.003 -0.010
  0.036  0.004  0.381 -0.017 -0.082
 -0.092  0.003 -0.017  0.628  0.002
  0.002 -0.010 -0.082  0.002  0.700
atom   17   Tr[ns(na)] =   5.81329
    eigenvalues:
  0.382  0.525  0.588  0.601  0.810
    eigenvectors:
  0.000  0.000  0.082  0.917  0.001
  0.000  0.000  0.912  0.081  0.007
  1.000  0.000  0.000  0.000  0.000
  0.000  0.000  0.005  0.002  0.993
  0.000  1.000  0.000  0.000  0.000
    occupations:
  0.600  0.004  0.002 -0.004  0.000
  0.004  0.590 -0.003 -0.018 -0.001
  0.002 -0.003  0.383 -0.005  0.000
 -0.004 -0.018 -0.005  0.809 -0.000
  0.000 -0.001  0.000 -0.000  0.525
atom   22   Tr[ns(na)] =   5.81386
    eigenvalues:
  0.427  0.458  0.586  0.602  0.833
    eigenvectors:
  0.000  0.000  0.026  0.233  0.742
  0.000  0.000  0.907  0.093  0.000
  0.118  0.882  0.000  0.000  0.000
  0.000  0.000  0.068  0.674  0.258
  0.882  0.118  0.000  0.000  0.000
    occupations:
  0.773  0.004  0.003 -0.102 -0.002
  0.004  0.587 -0.000  0.003 -0.001
  0.003 -0.000  0.454 -0.002 -0.010
 -0.102  0.003 -0.002  0.661  0.001
 -0.002 -0.001 -0.010  0.001  0.431
atom   23   Tr[ns(na)] =   5.72491
    eigenvalues:
  0.310  0.457  0.495  0.754  0.846
    eigenvectors:
  0.000  0.996  0.000  0.003  0.000
  0.000  0.000  0.000  0.000  1.000
  0.999  0.000  0.001  0.000  0.000
  0.000  0.003  0.000  0.997  0.000
  0.001  0.000  0.999  0.000  0.000
    occupations:
  0.458 -0.002 -0.002  0.017 -0.000
 -0.002  0.846 -0.001  0.000 -0.000
 -0.002 -0.001  0.310 -0.000  0.004
  0.017  0.000 -0.000  0.753  0.000
 -0.000 -0.000  0.004  0.000  0.495
N of occupied +U levels =  46.4459290
 --- exit write_ns ---

[...]

          k = 0.2500-0.3900 0.0000 ( 29726 PWs)   bands (ev):

[...]

          k =-0.2500 0.1950 0.0000 ( 29746 PWs)   bands (ev):

   -62.5568 -62.2540 -62.2386 -61.9972 -61.9293 -61.8310 -61.7895 -61.6685
   -37.0642 -36.9170 -36.8922 -36.8381 -36.4528 -36.4113 -36.3451 -36.3093
   -36.2604 -36.2393 -36.1920 -36.1757 -36.1610 -36.1591 -36.1154 -36.0779
   -36.0088 -36.0073 -35.9910 -35.9395 -35.8585 -35.3676 -35.3594 -35.3272
   -20.5602 -20.2625 -19.8217 -19.6582 -19.6357 -19.4975 -19.3924 -19.2169
   -19.1661 -19.1065 -19.0248 -18.9816 -18.8337 -18.7913 -18.6436 -18.4235
   -18.3606 -18.1076  -8.7085  -8.4722  -8.2127  -8.0555  -7.9231  -7.7679
    -7.7288  -7.6295  -7.5612  -7.4251  -7.2284  -7.0891  -6.9195  -6.7883
    -6.5563  -6.5052  -6.3805  -6.2625  -6.1378  -6.0690  -5.9308  -5.8724
    -5.7384  -5.5773  -5.3814  -5.3094  -5.1746  -5.0588  -4.9291  -4.7947
    -4.6828  -4.6255  -4.5393  -4.4845  -4.4124  -4.3230  -4.2900  -4.2770
    -4.1437  -4.0194  -3.9139  -3.8209  -3.7425  -3.6815  -3.5771  -3.4975
    -3.4210  -3.3101  -3.1661  -3.0368  -2.9921  -2.7898  -2.6263  -2.4827
    -2.3469  -2.1688  -1.9005  -1.1291  -0.9685  -0.8095  -0.4863   0.0031
     0.2447   0.4682   0.7466   0.8670   0.9069   1.1007   1.2371   1.3174
     1.4257   1.5228   1.5654   1.7073   1.8128   1.9713   2.1464   2.3314
     2.3433   2.7635   3.4178   3.4953   3.8070   3.8369   3.9851   4.2217
     4.3642   4.4107   4.5345   4.5670   4.6467   4.7337   4.9367   5.1281
     5.5009   5.7015   5.7663   5.8511   5.9630   6.1702   6.3347   6.3817
     6.5037   6.6190   6.9322   6.9789   7.0755   7.3134   7.5046   7.5983
     7.9021   7.9509   8.1728   8.2803   8.3068   8.4928   8.6378   8.7059
     8.8839   8.9897   9.0681   9.3183   9.3285   9.4208   9.4949   9.5517
     9.5739   9.6655   9.8131   9.9877  10.0321  10.1912  10.2768  10.3071
    10.4750  10.5335  10.6556  10.7487  10.7763  11.0145  11.0803  11.1027
    11.1354  11.2732  11.5954  11.6220  11.6405  11.7430  11.8384  11.8940
    11.9800  12.0916  12.2806  12.3020  12.3420  12.3563  12.4671  12.6201
    12.6573  12.7875  12.8660  12.9066  12.9682  13.0780  13.1068  13.2118
    13.3313  13.4000  13.4683  13.4980  13.5314  13.6672  13.6931  13.7553
    13.8557  13.8915  13.9941  14.0173  14.1332  14.1679  14.2301  14.3238
    14.4151  14.4423  14.4852  14.5445  14.5933  14.7385  14.8466  14.8674
    14.9658  15.0467  15.0739  15.2404  15.3017  15.3789  15.4698  15.5801
    15.6293  15.6718  15.7685  15.8065  15.9263  15.9711  16.0814  16.1039
    16.1749  16.2772  16.3287  16.3832  16.4040  16.4493  16.5973  16.6786
    16.7271  16.7694  16.8147  16.8980  17.0037  17.1007  17.1445  17.2085
    17.2374  17.3202  17.3467  17.4013  17.4860  17.6707  17.6837  17.8211
    17.8855  17.9209  18.0687  18.0946  18.1597  18.2712  18.3718  18.3872
    18.4375  18.4593  18.5282  18.6026  18.6382  18.8637  18.8973  19.0082
    19.0685  19.1105  19.1811  19.3027  19.3267  19.4892  19.5751  19.6279
    19.7273  19.7898  19.8428  19.9132  19.9677  20.0785  20.1476  20.1891
    20.2134  20.2472  20.3138  20.3736  20.4178  20.4262  20.5001  20.5342
    20.6565  20.7067  20.7547  20.8727  20.9146  20.9654  21.0442  21.0898
    21.1593  21.2153  21.2733  21.3253  21.4228  21.4941  21.5449  21.6119

     the Fermi energy is    -0.0286 ev

!    total energy              =   -1695.78469081 Ry
     Harris-Foulkes estimate   =   -1695.78469081 Ry
     estimated scf accuracy    <          6.9E-09 Ry

     The total energy is the sum of the following terms:

     one-electron contribution =  -21344.86686735 Ry
     hartree contribution      =   10695.18265040 Ry
     xc contribution           =    -286.72365344 Ry
     ewald contribution        =    9236.37034521 Ry
     Hubbard energy            =       4.25240629 Ry
     smearing contrib. (-TS)   =       0.00042808 Ry

     convergence has been achieved in  21 iterations

     Forces acting on atoms (Ry/au):

     negative rho (up, down):  0.364E-02 0.000E+00
     atom    1 type  1   force =    -0.00807283   -0.00524615    0.00009724
     atom    2 type  1   force =     0.00060136    0.00718153    0.00017600
     atom    3 type  2   force =    -0.00170622   -0.00977075   -0.00001615
     atom    4 type  2   force =     0.01743752    0.00342109   -0.00075016
     atom    5 type  1   force =    -0.00219513   -0.02796052    0.00003699
     atom    6 type  1   force =    -0.00434648    0.02891874    0.00001112
     atom    7 type  1   force =     0.00088023    0.00188334    0.00004864
     atom    8 type  1   force =     0.01377246   -0.00004837   -0.00047089
     atom    9 type  2   force =    -0.02310736   -0.00006450    0.00012080
     atom   10 type  2   force =    -0.00115580   -0.00066233   -0.00069401
     atom   11 type  1   force =    -0.00570918   -0.01863689    0.00060506
     atom   12 type  1   force =    -0.00575364    0.01765116    0.00063154
     atom   13 type  1   force =     0.01077762   -0.00009097   -0.00024992
     atom   14 type  1   force =     0.00761600   -0.00542930    0.00070341
     atom   15 type  1   force =    -0.00035964    0.01354892    0.00042614
     atom   16 type  2   force =     0.00206407   -0.00510803    0.00016325
     atom   17 type  2   force =    -0.02348485    0.00264418   -0.00006327
     atom   18 type  1   force =     0.00470627   -0.01170707   -0.00013746
     atom   19 type  1   force =     0.00323821    0.00710958    0.00005102
     atom   20 type  1   force =     0.00010828    0.00206927   -0.00059437
     atom   21 type  1   force =     0.00524201    0.00098992   -0.00025890
     atom   22 type  2   force =     0.01501220    0.00070853   -0.00033868
     atom   23 type  2   force =     0.00059554    0.00129856   -0.00010902
     atom   24 type  1   force =     0.00418745   -0.01175147    0.00007308
     atom   25 type  1   force =     0.00457043    0.01047140    0.00009011
     atom   26 type  1   force =    -0.01436394   -0.00000924    0.00019245
     atom   27 type  3   force =     0.00006041   -0.00026435    0.00066533
     atom   28 type  3   force =    -0.00001318   -0.00073503   -0.00072869
     atom   29 type  3   force =    -0.00006914    0.00019106    0.00053649
     atom   30 type  3   force =    -0.00053266   -0.00060230   -0.00021715

     Total force =     0.002468     Total SCF correction =     0.000178

     bfgs converged in  39 scf cycles and  38 bfgs steps
     (criteria: energy < 0.10E-03, force < 0.10E-02)

     End of BFGS Geometry Optimization

     Final energy   =   -1695.7846908058 Ry
Begin final coordinates

ATOMIC_POSITIONS (crystal)
O0       0.000000000   0.000000000   0.370771855    0   0   1
O0       0.000000000   0.500000000   0.380979266    0   0   1
Mo1      0.250000000   0.500000000   0.438669372    0   0   1
Mo1      0.000000000   0.000000000   0.443045478    0   0   1
O0       0.250000000   0.780000000   0.442759090    0   0   1
O0       0.250000000   0.220000000   0.442731777    0   0   1
O0       0.000000000   0.500000000   0.498430907    0   0   1
O0       0.000000000   0.000000000   0.519493113    0   0   1
Mo1      0.250000000   0.000000000   0.581335637    0   0   1
Mo1      0.000000000   0.500000000   0.564965391    0   0   1
O0       0.250000000   0.720000000   0.575868814    0   0   1
O0       0.250000000   0.280000000   0.575966984    0   0   1
O0       0.000000000   0.000000000   0.628123405    0   0   1
O0       0.500000000   0.000000000   0.373068074    0   0   1
O0       0.500000000   0.500000000   0.380341656    0   0   1
Mo1      0.750000000   0.500000000   0.438555749    0   0   1
Mo1      0.500000000   0.000000000   0.444999563    0   0   1
O0       0.750000000   0.780000000   0.443306204    0   0   1
O0       0.750000000   0.220000000   0.443205033    0   0   1
O0       0.500000000   0.500000000   0.496105065    0   0   1
O0       0.500000000   0.000000000   0.517590584    0   0   1
Mo1      0.750000000   0.000000000   0.573442283    0   0   1
Mo1      0.500000000   0.500000000   0.566395692    0   0   1
O0       0.750000000   0.720000000   0.574542739    0   0   1
O0       0.750000000   0.280000000   0.574644124    0   0   1
O0       0.500000000   0.000000000   0.627900253    0   0   1
H2       0.000395887   0.607073098   0.357429170
H2       0.498977745   0.621339452   0.361798039
H2       0.167215558   0.019471433   0.356729942
H2       0.664562063   0.022158454   0.357884740
End final coordinates

     General routines

     Parallel routines
     Hubbard U routines

   This run was terminated on:  18:53:19   7May2014

   JOB DONE.