     Program PWSCF v.5.0.2 (svn rev. 9656) starts on 12Feb2014 at  0:11:54

     Current dimensions of program PWSCF are:
     Max number of different atomic species (ntypx) = 10
     Max number of k-points (npk) =  40000
     Max angular momentum in pseudopotentials (lmaxx) =  3
     Reading input from alpha_0.15/alpha_0.15.in
Warning: card &IONS ignored
Warning: card / ignored
Warning: card &CELL ignored
Warning: card / ignored

     Subspace diagonalization in iterative solution of the eigenvalue problem:
     a serial algorithm will be used

     bravais-lattice index     =            0
     lattice parameter (alat)  =      17.1209  a.u.
     unit-cell volume          =    3456.5082 (a.u.)^3
     number of atoms/cell      =           48
     number of atomic types    =            3
     number of electrons       =       448.00
     number of Kohn-Sham states=          648
     kinetic-energy cutoff     =      40.0000  Ry
     charge density cutoff     =     500.0000  Ry
     convergence threshold     =      1.0E-06
     mixing beta               =       0.7000
     number of iterations used =            8  plain     mixing
     Exchange-correlation      = SLA  PW   PBE  PBE ( 1 4 3 4 0)
     EXX-fraction              =        0.00

     celldm(1)=  17.120919  celldm(2)=   0.000000  celldm(3)=   0.000000
     celldm(4)=   0.000000  celldm(5)=   0.000000  celldm(6)=   0.000000

     crystal axes: (cart. coord. in units of alat)
               a(1) = (   1.000000   0.000000   0.000000 )
               a(2) = (   0.000000   1.000000   0.000000 )
               a(3) = (   0.000000   0.000000   0.688742 )

     reciprocal axes: (cart. coord. in units 2 pi/alat)
               b(1) = (  1.000000  0.000000  0.000000 )
               b(2) = (  0.000000  1.000000  0.000000 )
               b(3) = (  0.000000  0.000000  1.451923 )

     PseudoPot. # 1 for Ru read from file:
     /home/camp/zhonxu/pseudo/ru_pbe_v1.uspp.F.UPF
     MD5 check sum: df00be1c11b23341d9806d8f1dfa10cf
     Pseudo is Ultrasoft + core correction, Zval = 16.0
     Generated by new atomic code, or converted to UPF format
     Using radial grid of  967 points,  6 beta functions with:
                l(1) =   0
                l(2) =   0
                l(3) =   1
                l(4) =   1
                l(5) =   2
                l(6) =   2
     Q(r) pseudized with  8 coefficients,  rinner =    1.300   1.300   1.300
                                                       1.300   1.300

     PseudoPot. # 2 for Ru read from file:
     /home/camp/zhonxu/pseudo/ru_pbe_v1.uspp.F.UPF
     MD5 check sum: df00be1c11b23341d9806d8f1dfa10cf
     Pseudo is Ultrasoft + core correction, Zval = 16.0
     Generated by new atomic code, or converted to UPF format
     Using radial grid of  967 points,  6 beta functions with:
                l(1) =   0
                l(2) =   0
                l(3) =   1
                l(4) =   1
                l(5) =   2
                l(6) =   2
     Q(r) pseudized with  8 coefficients,  rinner =    1.300   1.300   1.300
                                                       1.300   1.300

     PseudoPot. # 3 for O  read from file:
     /home/camp/zhonxu/pseudo/o_pbe_v1.01.uspp.F.UPF
     MD5 check sum: 2bcb18d16ea4b960afae9ec6d52f22d2
     Pseudo is Ultrasoft + core correction, Zval =  6.0
     Generated by new atomic code, or converted to UPF format
     Using radial grid of  737 points,  5 beta functions with:
                l(1) =   0
                l(2) =   0
                l(3) =   1
                l(4) =   1
                l(5) =   2
     Q(r) pseudized with  8 coefficients,  rinner =    0.900   0.900   0.900
                                                       0.900   0.900

     atomic species   valence    mass     pseudopotential
        Ru0           16.00   101.07000     Ru( 1.00)
        Ru1           16.00   101.07000     Ru( 1.00)
        O2             6.00    15.99940     O ( 1.00)

     Starting magnetic structure
     atomic species   magnetization
        Ru0          0.000
        Ru1          0.000
        O2           0.000

     Simplified LDA+U calculation (l_max = 2) with parameters (eV):
     atomic species    L          U    alpha       J0     beta
        Ru0            2     0.0000   0.1500   0.0000   0.0000
        Ru1            2     0.0000   0.0000   0.0000   0.0000
        O2             1     0.0000   0.0000   0.0000   0.0000

      8 Sym. Ops., with inversion, found

   Cartesian axes

     site n.     atom                  positions (alat units)
         1           Ru0 tau(   1) = (   0.0000000   0.0000000   0.0000000  )
         2           Ru1 tau(   2) = (   0.2500000   0.2500000   0.1721854  )
         3           Ru1 tau(   3) = (   0.0000000   0.0000000   0.3443709  )
         4           Ru1 tau(   4) = (   0.2500000   0.2500000   0.5165563  )
         5           Ru1 tau(   5) = (   0.0000000   0.5000000   0.0000000  )
         6           Ru1 tau(   6) = (   0.2500000   0.7500000   0.1721854  )
         7           Ru1 tau(   7) = (   0.0000000   0.5000000   0.3443709  )
         8           Ru1 tau(   8) = (   0.2500000   0.7500000   0.5165563  )
         9           Ru1 tau(   9) = (   0.5000000   0.0000000   0.0000000  )
        10           Ru1 tau(  10) = (   0.7500000   0.2500000   0.1721854  )
        11           Ru1 tau(  11) = (   0.5000000   0.0000000   0.3443709  )
        12           Ru1 tau(  12) = (   0.7500000   0.2500000   0.5165563  )
        13           Ru1 tau(  13) = (   0.5000000   0.5000000   0.0000000  )
        14           Ru1 tau(  14) = (   0.7500000   0.7500000   0.1721854  )
        15           Ru1 tau(  15) = (   0.5000000   0.5000000   0.3443709  )
        16           Ru1 tau(  16) = (   0.7500000   0.7500000   0.5165563  )
        17           O2  tau(  17) = (   0.1550000   0.1550000   0.0000000  )
        18           O2  tau(  18) = (  -0.1550000  -0.1550000   0.0000000  )
        19           O2  tau(  19) = (   0.4050000   0.0950000   0.1721854  )
        20           O2  tau(  20) = (   0.0950000   0.4050000   0.1721854  )
        21           O2  tau(  21) = (   0.1550000   0.1550000   0.3443709  )
        22           O2  tau(  22) = (  -0.1550000  -0.1550000   0.3443709  )
        23           O2  tau(  23) = (   0.4050000   0.0950000   0.5165563  )
        24           O2  tau(  24) = (   0.0950000   0.4050000   0.5165563  )
        25           O2  tau(  25) = (   0.1550000   0.6550000   0.0000000  )
        26           O2  tau(  26) = (  -0.1550000   0.3450000   0.0000000  )
        27           O2  tau(  27) = (   0.4050000   0.5950000   0.1721854  )
        28           O2  tau(  28) = (   0.0950000   0.9050000   0.1721854  )
        29           O2  tau(  29) = (   0.1550000   0.6550000   0.3443709  )
        30           O2  tau(  30) = (  -0.1550000   0.3450000   0.3443709  )
        31           O2  tau(  31) = (   0.4050000   0.5950000   0.5165563  )
        32           O2  tau(  32) = (   0.0950000   0.9050000   0.5165563  )
        33           O2  tau(  33) = (   0.6550000   0.1550000   0.0000000  )
        34           O2  tau(  34) = (   0.3450000  -0.1550000   0.0000000  )
        35           O2  tau(  35) = (   0.9050000   0.0950000   0.1721854  )
        36           O2  tau(  36) = (   0.5950000   0.4050000   0.1721854  )
        37           O2  tau(  37) = (   0.6550000   0.1550000   0.3443709  )
        38           O2  tau(  38) = (   0.3450000  -0.1550000   0.3443709  )
        39           O2  tau(  39) = (   0.9050000   0.0950000   0.5165563  )
        40           O2  tau(  40) = (   0.5950000   0.4050000   0.5165563  )
        41           O2  tau(  41) = (   0.6550000   0.6550000   0.0000000  )
        42           O2  tau(  42) = (   0.3450000   0.3450000   0.0000000  )
        43           O2  tau(  43) = (   0.9050000   0.5950000   0.1721854  )
        44           O2  tau(  44) = (   0.5950000   0.9050000   0.1721854  )
        45           O2  tau(  45) = (   0.6550000   0.6550000   0.3443709  )
        46           O2  tau(  46) = (   0.3450000   0.3450000   0.3443709  )
        47           O2  tau(  47) = (   0.9050000   0.5950000   0.5165563  )
        48           O2  tau(  48) = (   0.5950000   0.9050000   0.5165563  )

     number of k points=    42  Methfessel-Paxton smearing, width (Ry)=  0.0100
                       cart. coord. in units 2pi/alat
        k(    1) = (   0.0000000   0.0000000   0.0000000), wk =   0.0156250
        k(    2) = (   0.0000000   0.0000000   0.3629808), wk =   0.0312500
        k(    3) = (   0.0000000   0.0000000  -0.7259615), wk =   0.0156250
        k(    4) = (   0.0000000   0.2500000   0.0000000), wk =   0.0625000
        k(    5) = (   0.0000000   0.2500000   0.3629808), wk =   0.1250000
        k(    6) = (   0.0000000   0.2500000  -0.7259615), wk =   0.0625000
        k(    7) = (   0.0000000  -0.5000000   0.0000000), wk =   0.0312500
        k(    8) = (   0.0000000  -0.5000000   0.3629808), wk =   0.0625000
        k(    9) = (   0.0000000  -0.5000000  -0.7259615), wk =   0.0312500
        k(   10) = (   0.2500000   0.2500000   0.0000000), wk =   0.0312500
        k(   11) = (   0.2500000   0.2500000   0.3629808), wk =   0.0625000
        k(   12) = (   0.2500000   0.2500000  -0.7259615), wk =   0.0312500
        k(   13) = (   0.2500000  -0.5000000   0.0000000), wk =   0.0625000
        k(   14) = (   0.2500000  -0.5000000   0.3629808), wk =   0.1250000
        k(   15) = (   0.2500000  -0.5000000  -0.7259615), wk =   0.0625000
        k(   16) = (  -0.5000000  -0.5000000   0.0000000), wk =   0.0156250
        k(   17) = (  -0.5000000  -0.5000000   0.3629808), wk =   0.0312500
        k(   18) = (  -0.5000000  -0.5000000  -0.7259615), wk =   0.0156250
        k(   19) = (  -0.2500000   0.2500000   0.0000000), wk =   0.0312500
        k(   20) = (  -0.2500000   0.2500000  -0.3629808), wk =   0.0625000
        k(   21) = (  -0.2500000   0.2500000   0.7259615), wk =   0.0312500
        k(   22) = (   0.0000000   0.0000000   0.0000000), wk =   0.0156250
        k(   23) = (   0.0000000   0.0000000   0.3629808), wk =   0.0312500
        k(   24) = (   0.0000000   0.0000000  -0.7259615), wk =   0.0156250
        k(   25) = (   0.0000000   0.2500000   0.0000000), wk =   0.0625000
        k(   26) = (   0.0000000   0.2500000   0.3629808), wk =   0.1250000
        k(   27) = (   0.0000000   0.2500000  -0.7259615), wk =   0.0625000
        k(   28) = (   0.0000000  -0.5000000   0.0000000), wk =   0.0312500
        k(   29) = (   0.0000000  -0.5000000   0.3629808), wk =   0.0625000
        k(   30) = (   0.0000000  -0.5000000  -0.7259615), wk =   0.0312500
        k(   31) = (   0.2500000   0.2500000   0.0000000), wk =   0.0312500
        k(   32) = (   0.2500000   0.2500000   0.3629808), wk =   0.0625000
        k(   33) = (   0.2500000   0.2500000  -0.7259615), wk =   0.0312500
        k(   34) = (   0.2500000  -0.5000000   0.0000000), wk =   0.0625000
        k(   35) = (   0.2500000  -0.5000000   0.3629808), wk =   0.1250000
        k(   36) = (   0.2500000  -0.5000000  -0.7259615), wk =   0.0625000
[...]
    eigenvectors:
  0.000  0.000  1.000
  0.500  0.500  0.000
  0.500  0.500  0.000
    occupations:
  0.894 -0.000 -0.000
 -0.000  0.882  0.004
 -0.000  0.004  0.882
   spin  2
    eigenvalues:
  0.878  0.886  0.894
    eigenvectors:
  0.000  0.000  1.000
  0.500  0.500  0.000
  0.500  0.500  0.000
    occupations:
  0.894 -0.000 -0.000
 -0.000  0.882  0.004
 -0.000  0.004  0.882
atomic mag. moment =     0.000000
atom   42   Tr[ns(na)] (up, down, total) =   2.65811  2.65811  5.31623
   spin  1
    eigenvalues:
  0.878  0.886  0.894
    eigenvectors:
  0.000  0.000  1.000
  0.500  0.500  0.000
  0.500  0.500  0.000
    occupations:
  0.894 -0.000 -0.000
 -0.000  0.882  0.004
 -0.000  0.004  0.882
   spin  2
    eigenvalues:
  0.878  0.886  0.894
    eigenvectors:
  0.000  0.000  1.000
  0.500  0.500  0.000
  0.500  0.500  0.000
    occupations:
  0.894 -0.000 -0.000
 -0.000  0.882  0.004
 -0.000  0.004  0.882
atomic mag. moment =     0.000000
atom   43   Tr[ns(na)] (up, down, total) =   2.65810  2.65810  5.31620
   spin  1
    eigenvalues:
  0.878  0.886  0.894
    eigenvectors:
  0.000  0.000  1.000
  0.500  0.500  0.000
  0.500  0.500  0.000
    occupations:
  0.894  0.000 -0.000
  0.000  0.882 -0.004
 -0.000 -0.004  0.882
   spin  2
    eigenvalues:
  0.878  0.886  0.894
    eigenvectors:
  0.000  0.000  1.000
  0.500  0.500  0.000
  0.500  0.500  0.000
    occupations:
  0.894  0.000 -0.000
  0.000  0.882 -0.004
 -0.000 -0.004  0.882
atomic mag. moment =     0.000000
atom   44   Tr[ns(na)] (up, down, total) =   2.65810  2.65810  5.31620
   spin  1
    eigenvalues:
  0.878  0.886  0.894
    eigenvectors:
  0.000  0.000  1.000
  0.500  0.500  0.000
  0.500  0.500  0.000
    occupations:
  0.894 -0.000  0.000
 -0.000  0.882 -0.004
  0.000 -0.004  0.882
   spin  2
    eigenvalues:
  0.878  0.886  0.894
    eigenvectors:
  0.000  0.000  1.000
  0.500  0.500  0.000
  0.500  0.500  0.000
    occupations:
  0.894 -0.000  0.000
 -0.000  0.882 -0.004
  0.000 -0.004  0.882
atomic mag. moment =     0.000000
atom   45   Tr[ns(na)] (up, down, total) =   2.65799  2.65799  5.31598
   spin  1
    eigenvalues:
  0.878  0.886  0.894
    eigenvectors:
  0.000  0.000  1.000
  0.500  0.500  0.000
  0.500  0.500  0.000
    occupations:
  0.894 -0.000 -0.000
 -0.000  0.882  0.004
 -0.000  0.004  0.882
   spin  2
    eigenvalues:
  0.878  0.886  0.894
    eigenvectors:
  0.000  0.000  1.000
  0.500  0.500  0.000
  0.500  0.500  0.000
    occupations:
  0.894 -0.000 -0.000
 -0.000  0.882  0.004
 -0.000  0.004  0.882
atomic mag. moment =     0.000000
atom   46   Tr[ns(na)] (up, down, total) =   2.65799  2.65799  5.31598
   spin  1
    eigenvalues:
  0.878  0.886  0.894
    eigenvectors:
  0.000  0.000  1.000
  0.500  0.500  0.000
  0.500  0.500  0.000
    occupations:
  0.894 -0.000 -0.000
 -0.000  0.882  0.004
 -0.000  0.004  0.882
   spin  2
    eigenvalues:
  0.878  0.886  0.894
    eigenvectors:
  0.000  0.000  1.000
  0.500  0.500  0.000
  0.500  0.500  0.000
    occupations:
  0.894 -0.000 -0.000
 -0.000  0.882  0.004
 -0.000  0.004  0.882
atomic mag. moment =     0.000000
atom   47   Tr[ns(na)] (up, down, total) =   2.65810  2.65810  5.31620
   spin  1
    eigenvalues:
  0.878  0.886  0.894
    eigenvectors:
  0.000  0.000  1.000
  0.500  0.500  0.000
  0.500  0.500  0.000
    occupations:
  0.894 -0.000  0.000
 -0.000  0.882 -0.004
  0.000 -0.004  0.882
   spin  2
    eigenvalues:
  0.878  0.886  0.894
    eigenvectors:
  0.000  0.000  1.000
  0.500  0.500  0.000
  0.500  0.500  0.000
    occupations:
  0.894 -0.000  0.000
 -0.000  0.882 -0.004
  0.000 -0.004  0.882
atomic mag. moment =     0.000000
atom   48   Tr[ns(na)] (up, down, total) =   2.65810  2.65810  5.31620
   spin  1
    eigenvalues:
  0.878  0.886  0.894
    eigenvectors:
  0.000  0.000  1.000
  0.500  0.500  0.000
  0.500  0.500  0.000
    occupations:
  0.894  0.000 -0.000
  0.000  0.882 -0.004
 -0.000 -0.004  0.882
   spin  2
    eigenvalues:
  0.878  0.886  0.894
    eigenvectors:
  0.000  0.000  1.000
  0.500  0.500  0.000
  0.500  0.500  0.000
    occupations:
  0.894  0.000 -0.000
  0.000  0.882 -0.004
 -0.000 -0.004  0.882
atomic mag. moment =     0.000000
N of occupied +U levels = 284.5754183
 --- exit write_ns ---

 ------ SPIN UP ------------

          k = 0.0000 0.0000 0.0000 ( 14779 PWs)   bands (ev):

   -60.9332 -60.7959 -60.7939 -60.7932 -60.7929 -60.7928 -60.7928 -60.7907
   -60.7857 -60.7838 -60.7828 -60.7828 -60.7825 -60.7825 -60.7825 -60.7824
   -31.1269 -30.9970 -30.9964 -30.9950 -30.9948 -30.9926 -30.9925 -30.9923
   -30.9875 -30.9873 -30.9852 -30.9850 -30.9833 -30.9811 -30.9808 -30.9803
   -30.9069 -30.8208 -30.8207 -30.8203 -30.8199 -30.8171 -30.8171 -30.8171
   -30.7308 -30.6852 -30.6498 -30.6407 -30.6401 -30.6399 -30.6397 -30.6396
   -30.6298 -30.6078 -30.6076 -30.6075 -30.6073 -30.6043 -30.6042 -30.6039
   -30.5875 -30.5772 -30.5765 -30.5763 -30.5758 -30.5757 -30.5756 -30.5754
    -7.4013  -6.8063  -6.8029  -6.6912  -6.6900  -6.6896  -6.6889  -6.3956
    -6.3158  -6.3155  -6.3138  -6.3101  -6.1265  -6.1239  -6.0668  -6.0630
    -6.0064  -6.0035  -5.9671  -5.9634  -5.7601  -5.7572  -5.7562  -5.7559
    -5.7447  -5.7418  -5.7416  -5.7378  -5.5578  -5.5569  -5.4231  -5.4222
     4.4184   4.4774   4.4804   4.5053   5.3601   5.3606   5.3607   5.3663
     5.4694   5.4717   5.4724   5.4780   5.6435   5.6478   5.7382   5.8258
     5.8286   5.8620   5.8680   5.9047   5.9075   5.9890   5.9902   5.9990
     5.9994   5.9996   6.0070   6.2349   6.2355   6.2362   6.2369   6.5268
     6.5286   6.7399   6.7459   6.9334   6.9346   7.2380   7.2399   7.2422
     7.2424   7.4287   7.4291   7.4301   7.4343   7.5651   7.5671   7.5673
     7.5692   7.9794   7.9818   8.0038   8.0058   8.1048   8.1090   8.1504
     8.1510   8.2997   8.3029   8.3118   8.3138   8.3145   8.3172   8.4599
     8.4619   8.4628   8.4632   8.5491   8.5507   8.5514   8.5998   8.6037
     8.6039   8.6071   9.2440   9.2468   9.2886   9.2907   9.4449   9.4465
     9.9137   9.9142   9.9151   9.9153   9.9235   9.9236   9.9433  10.1176
    10.1186  10.1191  10.1191  10.1435  10.1449  10.4325  10.4326  10.8487
    11.0257  11.0261  11.0285  11.0318  11.2517  11.3911  11.3936  11.4002
    11.4031  11.4209  11.4240  11.4472  11.9895  12.0247  12.0267  12.1008
    12.1009  12.1009  12.1014  12.1030  12.1088  12.1155  12.1174  12.2697
    12.2712  12.2715  12.2738  12.3112  12.3120  12.3120  12.3142  12.5844
    12.5854  13.0060  13.0063  13.1078  13.1078  13.1080  13.1082  13.5099
    13.5103  13.6101  13.6102  13.8195  13.8203  13.8204  13.8207  14.0520
    14.3869  14.6370  14.6373  14.6381  14.6383  15.7777  15.7781  15.7794
    15.7798  15.8109  15.8127  16.0268  16.0276  16.1850  16.1869  16.5790
    16.5833  16.5838  16.5839  16.9020  16.9073  16.9080  16.9080  17.3456
    17.3486  17.3603  17.3622  17.5305  17.5326  17.5346  17.5347  18.2639
    18.7601  20.9943  20.9952  20.9977  20.9984  22.1989  22.1999  22.3818
    22.3834  22.7194  22.7211  23.0035  23.0038  23.0047  23.0064  23.2959
    23.2974  23.6916  23.6948  24.2376  24.2403  24.2408  24.2435  25.0636
    25.0681  25.0684  25.0689  25.1946  25.1964  25.4075  25.4079  25.7207
    25.7216  25.9895  25.9905  26.0459  26.6851  26.7056  26.7081  26.8181
    26.8213  26.8214  26.8223  27.0687  27.0714  27.0760  27.0766  27.0778
    27.0782  27.8598  27.8637  27.9496  28.1204  28.1249  28.1624  28.1648
    28.1672  28.1682  29.0196  29.0454  29.0455  29.0487  29.0502  29.0585
    29.0839  29.0844  29.2679  29.2690  29.2727  29.2737  29.9714  29.9738
    29.9796  29.9799  30.2392  30.2410  30.4167  30.4190  30.7450  30.7465
    30.8705  31.0552  31.0575  31.0576  31.0588  31.2123  31.2138  31.2143
    31.2149  32.1320  32.1344  32.3099  32.4247  32.4298  32.6829  32.6843
    32.9224  32.9239  33.0450  33.0539  33.0541  33.0541  33.9235  33.9259
    33.9279  33.9302  34.3552  34.3587  34.3665  34.3683  34.4724  34.4768
    34.9088  34.9142  34.9549  34.9552  35.7005  35.7053  35.7758  35.7784
    35.7798  35.7817  35.9176  35.9176  36.1798  36.1807  36.3351  36.3460
    36.3512  36.3521  36.3535  37.3140  37.3181  37.7433  37.7485  37.7505
    37.7509  37.9281  37.9314  37.9319  37.9324  37.9347  37.9349  38.1543
    38.1573  38.1579  38.1602  38.4184  38.4226  38.6534  38.6544  38.6573
    38.6577  38.9058  38.9065  39.2997  39.3021  39.5248  39.8367  39.8382
    39.8396  39.8403  39.8452  39.8470  39.9206  39.9235  40.0112  40.0128
    40.0140  40.0164  40.0167  40.0184  40.1005  40.1027  40.3007  40.3010
    40.3025  40.3035  40.6305  40.8735  40.8775  40.9683  41.1000  41.4201
    41.5264  42.0278  42.0297  42.0308  42.0317  42.1312  42.1361  42.6997
    42.7037  42.7047  42.7049  42.7092  42.7108  42.8898  42.8902  42.8914
    42.8920  43.1637  43.1663  43.3271  43.6559  43.6570  43.6597  43.6609
[...]
    47.5774  47.5869  47.5873  47.5882  47.5978  47.5983  47.5994  47.5999
    47.6652  47.6713  48.0358  48.0374  48.1040  48.1073  48.1240  48.3462
    48.3566  48.3573  48.3577  48.4541  48.4573  48.5005  48.5071  48.5102
    48.5123  48.6558  48.6640  48.6650  48.6654  49.1325  49.1915  49.1960
    49.2217  49.2238  49.2241  49.2242  49.3185  49.3206  49.3704  49.3710
    49.5305  49.5311  49.7638  49.7664  49.8100  49.8104  49.8152  49.8152
    50.4660  50.4690  50.6242  50.6359  50.6369  50.6373  50.8819  50.8820
    51.0557  51.0987  51.1377  51.1409  51.2318  51.2333  51.3295  51.3302
    51.3318  51.3323  51.5338  51.5416  51.9434  51.9441  52.0068  52.0114
    52.0122  52.0132  52.3614  52.3627  52.3649  52.3654  52.5291  52.5319
    52.5587  52.5603  52.7639  52.7660  52.7734  52.7741  52.7750  52.7755
    53.0751  53.0771  53.0794  53.5127  53.7539  53.7555  53.7555  53.7560
    53.8352  53.8388  54.0065  54.0069  54.0531  54.0559  54.0584  54.0586
    54.3557  54.4581  54.4592  54.9204  54.9210  54.9229  55.1713  55.1715
    55.1719  55.1730  55.2475  55.2483  55.5637  55.5659  55.5668  55.5695

[...]

          k =-0.5000-0.5000 0.0000 ( 14712 PWs)   bands (ev):

[...]

 ------ SPIN DOWN ----------

[...]

          k = 0.2500-0.5000-0.7260 ( 14756 PWs)   bands (ev):

[...]

          k =-0.2500 0.2500 0.7260 ( 14788 PWs)   bands (ev):

   -60.9330 -60.7904 -60.7896 -60.7888 -60.7887 -60.7885 -60.7884 -60.7879
   -60.7877 -60.7875 -60.7875 -60.7871 -60.7870 -60.7867 -60.7863 -60.7855
   -31.1265 -30.9895 -30.9891 -30.9891 -30.9888 -30.9884 -30.9884 -30.9883
   -30.9883 -30.9881 -30.9880 -30.9880 -30.9879 -30.9877 -30.9877 -30.9868
   -30.8656 -30.7385 -30.7373 -30.7351 -30.7334 -30.7331 -30.7330 -30.7327
   -30.7307 -30.7299 -30.7291 -30.7288 -30.7276 -30.7272 -30.7250 -30.7248
   -30.7218 -30.5933 -30.5915 -30.5913 -30.5912 -30.5912 -30.5912 -30.5911
   -30.5910 -30.5907 -30.5907 -30.5905 -30.5902 -30.5900 -30.5900 -30.5890
    -6.8212  -6.8196  -6.5499  -6.5483  -6.5471  -6.5463  -6.4713  -6.4713
    -6.3240  -6.3224  -6.1546  -6.1543  -6.1527  -6.1525  -6.1162  -6.1129
    -5.9894  -5.9887  -5.9885  -5.9838  -5.8889  -5.8856  -5.8320  -5.8306
    -5.8303  -5.8269  -5.8157  -5.8107  -5.8027  -5.8005  -5.7209  -5.7188
     5.0823   5.0854   5.1325   5.1337   5.4379   5.4397   5.4397   5.4418
     5.4541   5.4549   5.4671   5.4680   5.7782   5.7825   5.9102   5.9112
     5.9147   5.9148   5.9151   5.9192   6.0064   6.0066   6.0076   6.0091
     6.0124   6.0147   6.2428   6.2458   6.2466   6.2508   6.3237   6.3256
     6.6101   6.6118   6.6123   6.6177   6.7370   6.7406   6.9870   6.9879
     7.1359   7.1378   7.1380   7.1386   7.2106   7.2109   7.6386   7.6393
     7.6394   7.6437   7.6865   7.6879   7.8132   7.8141   8.0038   8.0047
     8.1091   8.1095   8.1097   8.1104   8.5646   8.5673   8.5685   8.5701
     8.6426   8.6439   8.6768   8.6803   8.7064   8.7072   8.7273   8.7301
     8.8539   8.8556   8.8560   8.8564   9.0271   9.0304   9.1454   9.1477
     9.2376   9.2378   9.2504   9.2535   9.5200   9.5205   9.5211   9.5218
     9.6932   9.6946  10.0615  10.0625  10.0629  10.0631  10.3377  10.3377
    11.2900  11.2912  11.5813  11.5817  11.5823  11.5855  11.9850  11.9850
    12.0036  12.0052  12.0430  12.0432  12.2019  12.2020  12.2025  12.2040
    12.4016  12.4036  12.4642  12.4642  12.4721  12.4733  12.4787  12.4796
    12.4796  12.4865  12.6533  12.6540  12.7571  12.7581  12.7582  12.7584
    12.8879  12.8887  12.9264  12.9269  13.1261  13.1264  13.1267  13.1267
    13.1451  13.1454  13.3992  13.4002  13.4003  13.4004  13.7295  13.7304
    15.2273  15.2282  15.2992  15.3009  15.3016  15.3018  15.6663  15.6695
    15.6709  15.6709  15.6931  15.6945  15.9442  15.9452  16.2021  16.2055
    16.3766  16.3774  16.3824  16.3830  16.6081  16.6082  16.6115  16.6117
    16.8543  16.8545  17.3315  17.3366  17.3376  17.3377  17.4023  17.4035
    20.5950  20.5983  21.5468  21.5502  21.5511  21.5522  22.2037  22.2057
    22.9109  22.9149  22.9152  22.9164  22.9799  22.9835  24.0200  24.0216
    24.1308  24.1370  24.3312  24.3369  24.8380  24.8411  24.8425  24.8426
    25.0745  25.0769  25.7713  25.7810  25.7810  25.7815  25.8084  25.8112
    25.8621  25.8655  26.1014  26.1030  26.2891  26.2920  26.2947  26.2953
    26.4426  26.4464  26.6729  26.6733  26.6762  26.6769  27.5253  27.5265
    27.8035  27.8078  27.8093  27.8093  27.9328  27.9329  28.1296  28.1297
    28.2983  28.3020  28.4699  28.4724  28.4762  28.4774  28.4806  28.4815
    28.8651  28.8676  28.9428  28.9468  28.9484  28.9487  29.2683  29.2711
    29.3068  29.3078  29.7749  29.7814  29.9809  29.9828  29.9846  29.9850
    30.2106  30.2142  31.0718  31.0787  31.0790  31.0803  31.7135  31.7145
    32.1608  32.1681  32.1681  32.1685  32.8493  32.8563  33.0327  33.0340
    33.1943  33.1943  33.1944  33.1974  33.6884  33.6895  33.7552  33.7605
    34.3859  34.3861  34.5934  34.5938  34.5944  34.5979  35.1750  35.1766
    35.5010  35.5019  35.7149  35.7178  35.7186  35.7201  35.7204  35.7206
    35.7403  35.7438  35.8876  35.8899  35.9844  35.9893  35.9905  35.9917
    36.6731  36.6732  36.9279  36.9293  36.9309  36.9317  37.1041  37.1045
    37.1709  37.1726  37.1727  37.1733  37.9296  37.9310  38.4118  38.4119
    38.4135  38.4149  38.4456  38.4470  38.4628  38.4666  38.8535  38.8578
    38.8580  38.8594  38.8762  38.8769  39.0383  39.0402  39.0820  39.0832
    39.2436  39.2455  39.3235  39.3241  39.5928  39.5936  39.5974  39.5981
    39.6662  39.6704  39.7141  39.7146  39.8408  39.8409  39.8413  39.8423
    40.1496  40.1514  40.6725  40.6728  40.6766  40.6772  41.1749  41.1766
    41.6267  41.6279  41.9742  41.9747  42.0422  42.0498  42.2673  42.2683
    42.2707  42.2714  42.4262  42.4295  42.8023  42.8049  43.2766  43.2788
    43.2810  43.2815  43.8619  43.8682  43.8691  43.8693  43.9052  43.9060
[...]
    47.0764  47.0796  47.3211  47.3225  47.8512  47.8532  47.8541  47.8547
    48.0088  48.0113  48.2382  48.2390  48.2462  48.2492  48.2503  48.2516
    48.3594  48.3650  48.5182  48.5210  48.7641  48.7685  48.7710  48.7712
    49.1359  49.1504  49.1523  49.1534  49.1540  49.1552  49.4397  49.4415
    49.4931  49.4931  49.4934  49.4962  49.4970  49.4971  49.5248  49.5248
    49.7161  49.7164  49.8929  49.8971  49.9993  50.0012  50.0054  50.0061
    50.4625  50.4626  50.8168  50.8182  50.8188  50.8194  50.8595  50.8638
    50.9171  50.9180  50.9194  50.9212  51.0547  51.0554  51.1202  51.1209
    51.3415  51.3458  51.5493  51.5522  51.5550  51.5553  51.9623  51.9641
    52.0299  52.0325  52.0331  52.0336  52.2292  52.2337  52.2964  52.3019
    52.5853  52.5865  52.5865  52.5870  52.6055  52.6070  52.8625  52.8644
    53.0577  53.0594  53.3086  53.3135  53.3141  53.3141  53.3804  53.3820
    54.1062  54.1064  54.1934  54.1961  54.2778  54.2797  54.3851  54.3889
    54.4814  54.4870  54.4885  54.4895  55.1654  55.1662  55.1667  55.1690
    55.2758  55.2765  55.3915  55.3916  55.3939  55.3948  55.5282  55.5286

     the Fermi energy is    12.7175 ev

!    total energy              =   -4124.65147080 Ry
     Harris-Foulkes estimate   =   -4124.65147155 Ry
     estimated scf accuracy    <       0.00000080 Ry

     The total energy is the sum of the following terms:

     one-electron contribution =   -1365.36836779 Ry
     hartree contribution      =     933.99703923 Ry
     xc contribution           =    -627.48339127 Ry
     ewald contribution        =   -3065.87288853 Ry
     Hubbard energy            =       0.07861243 Ry
     smearing contrib. (-TS)   =      -0.00247487 Ry

     total magnetization       =     0.00 Bohr mag/cell
     absolute magnetization    =     0.00 Bohr mag/cell

     convergence has been achieved in  18 iterations

     Writing output data file pwscf.save

     General routines

     Parallel routines
     Hubbard U routines

   This run was terminated on:   9:26:18  12Feb2014

   JOB DONE.