     Program PWSCF v.5.0.2 (svn rev. 9656) starts on 11Feb2014 at 17:14:12

     Current dimensions of program PWSCF are:
     Max number of different atomic species (ntypx) = 10
     Max number of k-points (npk) =  40000
     Max angular momentum in pseudopotentials (lmaxx) =  3
     Reading input from alpha_0.07/alpha_0.07.in
Warning: card &IONS ignored
Warning: card / ignored
Warning: card &CELL ignored
Warning: card / ignored

     Subspace diagonalization in iterative solution of the eigenvalue problem:
     a serial algorithm will be used

     bravais-lattice index     =            0
     lattice parameter (alat)  =      17.1209  a.u.
     unit-cell volume          =    3456.5082 (a.u.)^3
     number of atoms/cell      =           48
     number of atomic types    =            3
     number of electrons       =       448.00
     number of Kohn-Sham states=          648
     kinetic-energy cutoff     =      40.0000  Ry
     charge density cutoff     =     500.0000  Ry
     convergence threshold     =      1.0E-06
     mixing beta               =       0.7000
     number of iterations used =            8  plain     mixing
     Exchange-correlation      = SLA  PW   PBE  PBE ( 1 4 3 4 0)
     EXX-fraction              =        0.00

     celldm(1)=  17.120919  celldm(2)=   0.000000  celldm(3)=   0.000000
     celldm(4)=   0.000000  celldm(5)=   0.000000  celldm(6)=   0.000000

     crystal axes: (cart. coord. in units of alat)
               a(1) = (   1.000000   0.000000   0.000000 )
               a(2) = (   0.000000   1.000000   0.000000 )
               a(3) = (   0.000000   0.000000   0.688742 )

     reciprocal axes: (cart. coord. in units 2 pi/alat)
               b(1) = (  1.000000  0.000000  0.000000 )
               b(2) = (  0.000000  1.000000  0.000000 )
               b(3) = (  0.000000  0.000000  1.451923 )

     PseudoPot. # 1 for Ru read from file:
     /home/camp/zhonxu/pseudo/ru_pbe_v1.uspp.F.UPF
     MD5 check sum: df00be1c11b23341d9806d8f1dfa10cf
     Pseudo is Ultrasoft + core correction, Zval = 16.0
     Generated by new atomic code, or converted to UPF format
     Using radial grid of  967 points,  6 beta functions with:
                l(1) =   0
                l(2) =   0
                l(3) =   1
                l(4) =   1
                l(5) =   2
                l(6) =   2
     Q(r) pseudized with  8 coefficients,  rinner =    1.300   1.300   1.300
                                                       1.300   1.300

     PseudoPot. # 2 for Ru read from file:
     /home/camp/zhonxu/pseudo/ru_pbe_v1.uspp.F.UPF
     MD5 check sum: df00be1c11b23341d9806d8f1dfa10cf
     Pseudo is Ultrasoft + core correction, Zval = 16.0
     Generated by new atomic code, or converted to UPF format
     Using radial grid of  967 points,  6 beta functions with:
                l(1) =   0
                l(2) =   0
                l(3) =   1
                l(4) =   1
                l(5) =   2
                l(6) =   2
     Q(r) pseudized with  8 coefficients,  rinner =    1.300   1.300   1.300
                                                       1.300   1.300

     PseudoPot. # 3 for O  read from file:
     /home/camp/zhonxu/pseudo/o_pbe_v1.01.uspp.F.UPF
     MD5 check sum: 2bcb18d16ea4b960afae9ec6d52f22d2
     Pseudo is Ultrasoft + core correction, Zval =  6.0
     Generated by new atomic code, or converted to UPF format
     Using radial grid of  737 points,  5 beta functions with:
                l(1) =   0
                l(2) =   0
                l(3) =   1
                l(4) =   1
                l(5) =   2
     Q(r) pseudized with  8 coefficients,  rinner =    0.900   0.900   0.900
                                                       0.900   0.900

     atomic species   valence    mass     pseudopotential
        Ru0           16.00   101.07000     Ru( 1.00)
        Ru1           16.00   101.07000     Ru( 1.00)
        O2             6.00    15.99940     O ( 1.00)

     Starting magnetic structure
     atomic species   magnetization
        Ru0          0.000
        Ru1          0.000
        O2           0.000

     Simplified LDA+U calculation (l_max = 2) with parameters (eV):
     atomic species    L          U    alpha       J0     beta
        Ru0            2     0.0000   0.0700   0.0000   0.0000
        Ru1            2     0.0000   0.0000   0.0000   0.0000
        O2             1     0.0000   0.0000   0.0000   0.0000

      8 Sym. Ops., with inversion, found

   Cartesian axes

     site n.     atom                  positions (alat units)
         1           Ru0 tau(   1) = (   0.0000000   0.0000000   0.0000000  )
         2           Ru1 tau(   2) = (   0.2500000   0.2500000   0.1721854  )
         3           Ru1 tau(   3) = (   0.0000000   0.0000000   0.3443709  )
         4           Ru1 tau(   4) = (   0.2500000   0.2500000   0.5165563  )
         5           Ru1 tau(   5) = (   0.0000000   0.5000000   0.0000000  )
         6           Ru1 tau(   6) = (   0.2500000   0.7500000   0.1721854  )
         7           Ru1 tau(   7) = (   0.0000000   0.5000000   0.3443709  )
         8           Ru1 tau(   8) = (   0.2500000   0.7500000   0.5165563  )
         9           Ru1 tau(   9) = (   0.5000000   0.0000000   0.0000000  )
        10           Ru1 tau(  10) = (   0.7500000   0.2500000   0.1721854  )
        11           Ru1 tau(  11) = (   0.5000000   0.0000000   0.3443709  )
        12           Ru1 tau(  12) = (   0.7500000   0.2500000   0.5165563  )
        13           Ru1 tau(  13) = (   0.5000000   0.5000000   0.0000000  )
        14           Ru1 tau(  14) = (   0.7500000   0.7500000   0.1721854  )
        15           Ru1 tau(  15) = (   0.5000000   0.5000000   0.3443709  )
        16           Ru1 tau(  16) = (   0.7500000   0.7500000   0.5165563  )
        17           O2  tau(  17) = (   0.1550000   0.1550000   0.0000000  )
        18           O2  tau(  18) = (  -0.1550000  -0.1550000   0.0000000  )
        19           O2  tau(  19) = (   0.4050000   0.0950000   0.1721854  )
        20           O2  tau(  20) = (   0.0950000   0.4050000   0.1721854  )
        21           O2  tau(  21) = (   0.1550000   0.1550000   0.3443709  )
        22           O2  tau(  22) = (  -0.1550000  -0.1550000   0.3443709  )
        23           O2  tau(  23) = (   0.4050000   0.0950000   0.5165563  )
        24           O2  tau(  24) = (   0.0950000   0.4050000   0.5165563  )
        25           O2  tau(  25) = (   0.1550000   0.6550000   0.0000000  )
        26           O2  tau(  26) = (  -0.1550000   0.3450000   0.0000000  )
        27           O2  tau(  27) = (   0.4050000   0.5950000   0.1721854  )
        28           O2  tau(  28) = (   0.0950000   0.9050000   0.1721854  )
        29           O2  tau(  29) = (   0.1550000   0.6550000   0.3443709  )
        30           O2  tau(  30) = (  -0.1550000   0.3450000   0.3443709  )
        31           O2  tau(  31) = (   0.4050000   0.5950000   0.5165563  )
        32           O2  tau(  32) = (   0.0950000   0.9050000   0.5165563  )
        33           O2  tau(  33) = (   0.6550000   0.1550000   0.0000000  )
        34           O2  tau(  34) = (   0.3450000  -0.1550000   0.0000000  )
        35           O2  tau(  35) = (   0.9050000   0.0950000   0.1721854  )
        36           O2  tau(  36) = (   0.5950000   0.4050000   0.1721854  )
        37           O2  tau(  37) = (   0.6550000   0.1550000   0.3443709  )
        38           O2  tau(  38) = (   0.3450000  -0.1550000   0.3443709  )
        39           O2  tau(  39) = (   0.9050000   0.0950000   0.5165563  )
        40           O2  tau(  40) = (   0.5950000   0.4050000   0.5165563  )
        41           O2  tau(  41) = (   0.6550000   0.6550000   0.0000000  )
        42           O2  tau(  42) = (   0.3450000   0.3450000   0.0000000  )
        43           O2  tau(  43) = (   0.9050000   0.5950000   0.1721854  )
        44           O2  tau(  44) = (   0.5950000   0.9050000   0.1721854  )
        45           O2  tau(  45) = (   0.6550000   0.6550000   0.3443709  )
        46           O2  tau(  46) = (   0.3450000   0.3450000   0.3443709  )
        47           O2  tau(  47) = (   0.9050000   0.5950000   0.5165563  )
        48           O2  tau(  48) = (   0.5950000   0.9050000   0.5165563  )

     number of k points=    42  Methfessel-Paxton smearing, width (Ry)=  0.0100
                       cart. coord. in units 2pi/alat
        k(    1) = (   0.0000000   0.0000000   0.0000000), wk =   0.0156250
        k(    2) = (   0.0000000   0.0000000   0.3629808), wk =   0.0312500
        k(    3) = (   0.0000000   0.0000000  -0.7259615), wk =   0.0156250
        k(    4) = (   0.0000000   0.2500000   0.0000000), wk =   0.0625000
        k(    5) = (   0.0000000   0.2500000   0.3629808), wk =   0.1250000
        k(    6) = (   0.0000000   0.2500000  -0.7259615), wk =   0.0625000
        k(    7) = (   0.0000000  -0.5000000   0.0000000), wk =   0.0312500
        k(    8) = (   0.0000000  -0.5000000   0.3629808), wk =   0.0625000
        k(    9) = (   0.0000000  -0.5000000  -0.7259615), wk =   0.0312500
        k(   10) = (   0.2500000   0.2500000   0.0000000), wk =   0.0312500
        k(   11) = (   0.2500000   0.2500000   0.3629808), wk =   0.0625000
        k(   12) = (   0.2500000   0.2500000  -0.7259615), wk =   0.0312500
        k(   13) = (   0.2500000  -0.5000000   0.0000000), wk =   0.0625000
        k(   14) = (   0.2500000  -0.5000000   0.3629808), wk =   0.1250000
        k(   15) = (   0.2500000  -0.5000000  -0.7259615), wk =   0.0625000
        k(   16) = (  -0.5000000  -0.5000000   0.0000000), wk =   0.0156250
        k(   17) = (  -0.5000000  -0.5000000   0.3629808), wk =   0.0312500
        k(   18) = (  -0.5000000  -0.5000000  -0.7259615), wk =   0.0156250
        k(   19) = (  -0.2500000   0.2500000   0.0000000), wk =   0.0312500
        k(   20) = (  -0.2500000   0.2500000  -0.3629808), wk =   0.0625000
        k(   21) = (  -0.2500000   0.2500000   0.7259615), wk =   0.0312500
        k(   22) = (   0.0000000   0.0000000   0.0000000), wk =   0.0156250
        k(   23) = (   0.0000000   0.0000000   0.3629808), wk =   0.0312500
        k(   24) = (   0.0000000   0.0000000  -0.7259615), wk =   0.0156250
        k(   25) = (   0.0000000   0.2500000   0.0000000), wk =   0.0625000
        k(   26) = (   0.0000000   0.2500000   0.3629808), wk =   0.1250000
        k(   27) = (   0.0000000   0.2500000  -0.7259615), wk =   0.0625000
        k(   28) = (   0.0000000  -0.5000000   0.0000000), wk =   0.0312500
        k(   29) = (   0.0000000  -0.5000000   0.3629808), wk =   0.0625000
        k(   30) = (   0.0000000  -0.5000000  -0.7259615), wk =   0.0312500
        k(   31) = (   0.2500000   0.2500000   0.0000000), wk =   0.0312500
        k(   32) = (   0.2500000   0.2500000   0.3629808), wk =   0.0625000
        k(   33) = (   0.2500000   0.2500000  -0.7259615), wk =   0.0312500
        k(   34) = (   0.2500000  -0.5000000   0.0000000), wk =   0.0625000
        k(   35) = (   0.2500000  -0.5000000   0.3629808), wk =   0.1250000
        k(   36) = (   0.2500000  -0.5000000  -0.7259615), wk =   0.0625000
[...]
    eigenvectors:
  0.000  0.000  1.000
  0.500  0.500  0.000
  0.500  0.500  0.000
    occupations:
  0.894 -0.000 -0.000
 -0.000  0.882  0.004
 -0.000  0.004  0.882
   spin  2
    eigenvalues:
  0.878  0.886  0.894
    eigenvectors:
  0.000  0.000  1.000
  0.500  0.500  0.000
  0.500  0.500  0.000
    occupations:
  0.894 -0.000 -0.000
 -0.000  0.882  0.004
 -0.000  0.004  0.882
atomic mag. moment =     0.000000
atom   42   Tr[ns(na)] (up, down, total) =   2.65806  2.65806  5.31612
   spin  1
    eigenvalues:
  0.878  0.886  0.894
    eigenvectors:
  0.000  0.000  1.000
  0.500  0.500  0.000
  0.500  0.500  0.000
    occupations:
  0.894 -0.000 -0.000
 -0.000  0.882  0.004
 -0.000  0.004  0.882
   spin  2
    eigenvalues:
  0.878  0.886  0.894
    eigenvectors:
  0.000  0.000  1.000
  0.500  0.500  0.000
  0.500  0.500  0.000
    occupations:
  0.894 -0.000 -0.000
 -0.000  0.882  0.004
 -0.000  0.004  0.882
atomic mag. moment =     0.000000
atom   43   Tr[ns(na)] (up, down, total) =   2.65810  2.65810  5.31621
   spin  1
    eigenvalues:
  0.878  0.886  0.894
    eigenvectors:
  0.000  0.000  1.000
  0.500  0.500  0.000
  0.500  0.500  0.000
    occupations:
  0.894 -0.000 -0.000
 -0.000  0.882 -0.004
 -0.000 -0.004  0.882
   spin  2
    eigenvalues:
  0.878  0.886  0.894
    eigenvectors:
  0.000  0.000  1.000
  0.500  0.500  0.000
  0.500  0.500  0.000
    occupations:
  0.894 -0.000 -0.000
 -0.000  0.882 -0.004
 -0.000 -0.004  0.882
atomic mag. moment =     0.000000
atom   44   Tr[ns(na)] (up, down, total) =   2.65810  2.65810  5.31621
   spin  1
    eigenvalues:
  0.878  0.886  0.894
    eigenvectors:
  0.000  0.000  1.000
  0.500  0.500  0.000
  0.500  0.500  0.000
    occupations:
  0.894 -0.000 -0.000
 -0.000  0.882 -0.004
 -0.000 -0.004  0.882
   spin  2
    eigenvalues:
  0.878  0.886  0.894
    eigenvectors:
  0.000  0.000  1.000
  0.500  0.500  0.000
  0.500  0.500  0.000
    occupations:
  0.894 -0.000 -0.000
 -0.000  0.882 -0.004
 -0.000 -0.004  0.882
atomic mag. moment =     0.000000
atom   45   Tr[ns(na)] (up, down, total) =   2.65807  2.65807  5.31615
   spin  1
    eigenvalues:
  0.878  0.886  0.894
    eigenvectors:
  0.000  0.000  1.000
  0.500  0.500  0.000
  0.500  0.500  0.000
    occupations:
  0.894 -0.000 -0.000
 -0.000  0.882  0.004
 -0.000  0.004  0.882
   spin  2
    eigenvalues:
  0.878  0.886  0.894
    eigenvectors:
  0.000  0.000  1.000
  0.500  0.500  0.000
  0.500  0.500  0.000
    occupations:
  0.894 -0.000 -0.000
 -0.000  0.882  0.004
 -0.000  0.004  0.882
atomic mag. moment =     0.000000
atom   46   Tr[ns(na)] (up, down, total) =   2.65807  2.65807  5.31615
   spin  1
    eigenvalues:
  0.878  0.886  0.894
    eigenvectors:
  0.000  0.000  1.000
  0.500  0.500  0.000
  0.500  0.500  0.000
    occupations:
  0.894 -0.000 -0.000
 -0.000  0.882  0.004
 -0.000  0.004  0.882
   spin  2
    eigenvalues:
  0.878  0.886  0.894
    eigenvectors:
  0.000  0.000  1.000
  0.500  0.500  0.000
  0.500  0.500  0.000
    occupations:
  0.894 -0.000 -0.000
 -0.000  0.882  0.004
 -0.000  0.004  0.882
atomic mag. moment =     0.000000
atom   47   Tr[ns(na)] (up, down, total) =   2.65810  2.65810  5.31621
   spin  1
    eigenvalues:
  0.878  0.886  0.894
    eigenvectors:
  0.000  0.000  1.000
  0.500  0.500  0.000
  0.500  0.500  0.000
    occupations:
  0.894  0.000  0.000
  0.000  0.882 -0.004
  0.000 -0.004  0.882
   spin  2
    eigenvalues:
  0.878  0.886  0.894
    eigenvectors:
  0.000  0.000  1.000
  0.500  0.500  0.000
  0.500  0.500  0.000
    occupations:
  0.894  0.000  0.000
  0.000  0.882 -0.004
  0.000 -0.004  0.882
atomic mag. moment =     0.000000
atom   48   Tr[ns(na)] (up, down, total) =   2.65810  2.65810  5.31621
   spin  1
    eigenvalues:
  0.878  0.886  0.894
    eigenvectors:
  0.000  0.000  1.000
  0.500  0.500  0.000
  0.500  0.500  0.000
    occupations:
  0.894  0.000  0.000
  0.000  0.882 -0.004
  0.000 -0.004  0.882
   spin  2
    eigenvalues:
  0.878  0.886  0.894
    eigenvectors:
  0.000  0.000  1.000
  0.500  0.500  0.000
  0.500  0.500  0.000
    occupations:
  0.894  0.000  0.000
  0.000  0.882 -0.004
  0.000 -0.004  0.882
atomic mag. moment =     0.000000
N of occupied +U levels = 284.5787471
 --- exit write_ns ---

 ------ SPIN UP ------------

          k = 0.0000 0.0000 0.0000 ( 14779 PWs)   bands (ev):

   -60.8580 -60.7977 -60.7954 -60.7953 -60.7948 -60.7948 -60.7948 -60.7927
   -60.7887 -60.7851 -60.7849 -60.7849 -60.7845 -60.7845 -60.7844 -60.7844
   -31.0554 -30.9987 -30.9983 -30.9968 -30.9962 -30.9947 -30.9943 -30.9942
   -30.9900 -30.9876 -30.9873 -30.9869 -30.9847 -30.9830 -30.9829 -30.9822
   -30.8572 -30.8229 -30.8226 -30.8223 -30.8211 -30.8191 -30.8189 -30.8188
   -30.6696 -30.6608 -30.6512 -30.6422 -30.6422 -30.6417 -30.6416 -30.6416
   -30.6315 -30.6099 -30.6095 -30.6095 -30.6084 -30.6063 -30.6060 -30.6058
   -30.5890 -30.5787 -30.5784 -30.5782 -30.5778 -30.5777 -30.5774 -30.5774
    -7.4023  -6.8073  -6.8057  -6.6918  -6.6912  -6.6910  -6.6908  -6.3983
    -6.3174  -6.3173  -6.3165  -6.3147  -6.1272  -6.1260  -6.0682  -6.0664
    -6.0071  -6.0058  -5.9684  -5.9667  -5.7596  -5.7583  -5.7578  -5.7577
    -5.7448  -5.7434  -5.7434  -5.7416  -5.5586  -5.5582  -5.4240  -5.4235
     4.4154   4.4757   4.4771   4.5030   5.3584   5.3586   5.3587   5.3613
     5.4690   5.4701   5.4703   5.4730   5.6425   5.6444   5.7349   5.8239
     5.8252   5.8611   5.8639   5.9027   5.9040   5.9884   5.9889   5.9975
     5.9976   5.9977   6.0011   6.2331   6.2334   6.2338   6.2341   6.5254
     6.5261   6.7388   6.7416   6.9330   6.9335   7.2374   7.2383   7.2393
     7.2394   7.4276   7.4278   7.4282   7.4302   7.5655   7.5665   7.5666
     7.5674   7.9785   7.9795   8.0028   8.0037   8.1036   8.1055   8.1496
     8.1499   8.2982   8.2998   8.3111   8.3120   8.3124   8.3134   8.4602
     8.4611   8.4615   8.4617   8.5484   8.5499   8.5503   8.6002   8.6020
     8.6021   8.6036   9.2426   9.2439   9.2882   9.2892   9.4442   9.4450
     9.9130   9.9132   9.9136   9.9137   9.9225   9.9225   9.9423  10.1168
    10.1173  10.1175  10.1175  10.1427  10.1433  10.4314  10.4314  10.8471
    11.0240  11.0243  11.0255  11.0270  11.2490  11.3893  11.3904  11.3984
    11.3996  11.4190  11.4203  11.4446  11.9875  12.0229  12.0237  12.0988
    12.0991  12.0991  12.0997  12.1011  12.1031  12.1140  12.1148  12.2687
    12.2692  12.2695  12.2705  12.3098  12.3100  12.3102  12.3111  12.5829
    12.5832  13.0045  13.0045  13.1062  13.1063  13.1063  13.1064  13.5083
    13.5086  13.6084  13.6086  13.8184  13.8187  13.8188  13.8189  14.0503
    14.3856  14.6359  14.6360  14.6363  14.6365  15.7771  15.7772  15.7780
    15.7781  15.8100  15.8110  16.0260  16.0264  16.1844  16.1854  16.5798
    16.5819  16.5820  16.5821  16.9033  16.9059  16.9060  16.9062  17.3457
    17.3471  17.3595  17.3606  17.5310  17.5319  17.5329  17.5329  18.2632
    18.7597  20.9949  20.9954  20.9965  20.9968  22.1986  22.1991  22.3822
    22.3830  22.7195  22.7203  23.0037  23.0038  23.0042  23.0050  23.2958
    23.2965  23.6923  23.6938  24.2393  24.2405  24.2408  24.2420  25.0652
    25.0672  25.0674  25.0677  25.1946  25.1954  25.4078  25.4081  25.7209
    25.7213  25.9897  25.9903  26.0453  26.6859  26.7057  26.7070  26.8193
    26.8208  26.8208  26.8213  27.0694  27.0705  27.0763  27.0765  27.0771
    27.0771  27.8612  27.8630  27.9496  28.1216  28.1238  28.1641  28.1653
    28.1664  28.1669  29.0194  29.0469  29.0470  29.0484  29.0490  29.0579
    29.0840  29.0843  29.2696  29.2701  29.2717  29.2722  29.9744  29.9754
    29.9781  29.9783  30.2395  30.2404  30.4172  30.4183  30.7456  30.7464
    30.8711  31.0563  31.0574  31.0574  31.0580  31.2129  31.2136  31.2138
    31.2141  32.1328  32.1339  32.3096  32.4263  32.4287  32.6830  32.6837
    32.9233  32.9240  33.0489  33.0531  33.0531  33.0532  33.9257  33.9268
    33.9277  33.9288  34.3562  34.3578  34.3671  34.3679  34.4736  34.4757
    34.9105  34.9131  34.9552  34.9553  35.7019  35.7042  35.7775  35.7787
    35.7793  35.7802  35.9173  35.9174  36.1802  36.1806  36.3349  36.3488
    36.3512  36.3517  36.3523  37.3154  37.3173  37.7462  37.7486  37.7496
    37.7497  37.9294  37.9314  37.9326  37.9328  37.9341  37.9342  38.1561
    38.1576  38.1578  38.1589  38.4197  38.4217  38.6548  38.6553  38.6566
    38.6568  38.9061  38.9065  39.3006  39.3017  39.5250  39.8375  39.8383
    39.8389  39.8392  39.8457  39.8465  39.9214  39.9227  40.0130  40.0136
    40.0142  40.0155  40.0161  40.0169  40.1015  40.1026  40.3014  40.3015
    40.3022  40.3027  40.6308  40.8749  40.8768  40.9688  41.1000  41.4205
    41.5269  42.0294  42.0305  42.0307  42.0313  42.1327  42.1350  42.7015
    42.7034  42.7039  42.7040  42.7094  42.7101  42.8904  42.8906  42.8911
    42.8914  43.1645  43.1658  43.3271  43.6573  43.6578  43.6590  43.6596
[...]
    47.5817  47.5861  47.5864  47.5868  47.5983  47.5985  47.5990  47.5992
    47.6674  47.6703  48.0361  48.0368  48.1056  48.1072  48.1237  48.3513
    48.3561  48.3564  48.3565  48.4557  48.4572  48.5027  48.5058  48.5108
    48.5118  48.6595  48.6634  48.6638  48.6641  49.1334  49.1930  49.1951
    49.2225  49.2235  49.2237  49.2237  49.3186  49.3197  49.3706  49.3709
    49.5306  49.5309  49.7647  49.7660  49.8118  49.8120  49.8142  49.8142
    50.4674  50.4688  50.6296  50.6350  50.6356  50.6358  50.8820  50.8820
    51.0564  51.0992  51.1392  51.1407  51.2320  51.2327  51.3301  51.3305
    51.3312  51.3314  51.5363  51.5401  51.9434  51.9437  52.0094  52.0115
    52.0119  52.0123  52.3632  52.3637  52.3648  52.3650  52.5301  52.5315
    52.5592  52.5600  52.7648  52.7656  52.7738  52.7739  52.7745  52.7748
    53.0760  53.0770  53.0780  53.5130  53.7545  53.7552  53.7552  53.7555
    53.8362  53.8379  54.0065  54.0067  54.0551  54.0565  54.0576  54.0577
    54.3553  54.4589  54.4594  54.9212  54.9213  54.9223  55.1718  55.1718
    55.1720  55.1726  55.2475  55.2478  55.5654  55.5664  55.5669  55.5681

[...]

          k =-0.5000-0.5000 0.0000 ( 14712 PWs)   bands (ev):

[...]

 ------ SPIN DOWN ----------

[...]

          k = 0.2500-0.5000-0.7260 ( 14756 PWs)   bands (ev):

[...]

          k =-0.2500 0.2500 0.7260 ( 14788 PWs)   bands (ev):

   -60.8576 -60.7916 -60.7916 -60.7907 -60.7906 -60.7906 -60.7905 -60.7900
   -60.7896 -60.7894 -60.7894 -60.7891 -60.7891 -60.7889 -60.7883 -60.7879
   -31.0546 -30.9910 -30.9908 -30.9905 -30.9905 -30.9903 -30.9902 -30.9902
   -30.9901 -30.9901 -30.9900 -30.9899 -30.9899 -30.9896 -30.9895 -30.9895
   -30.7959 -30.7395 -30.7389 -30.7352 -30.7352 -30.7350 -30.7345 -30.7340
   -30.7326 -30.7314 -30.7304 -30.7295 -30.7294 -30.7294 -30.7268 -30.7260
   -30.6573 -30.5937 -30.5933 -30.5932 -30.5932 -30.5932 -30.5931 -30.5931
   -30.5931 -30.5930 -30.5929 -30.5922 -30.5922 -30.5922 -30.5920 -30.5919
    -6.8217  -6.8212  -6.5497  -6.5492  -6.5485  -6.5483  -6.4735  -6.4730
    -6.3250  -6.3243  -6.1552  -6.1550  -6.1547  -6.1546  -6.1177  -6.1159
    -5.9906  -5.9906  -5.9905  -5.9880  -5.8901  -5.8885  -5.8328  -5.8322
    -5.8322  -5.8303  -5.8168  -5.8148  -5.8032  -5.8026  -5.7215  -5.7210
     5.0803   5.0821   5.1304   5.1313   5.4372   5.4378   5.4378   5.4390
     5.4520   5.4524   5.4652   5.4657   5.7767   5.7789   5.9087   5.9093
     5.9128   5.9129   5.9131   5.9150   6.0044   6.0047   6.0052   6.0058
     6.0104   6.0116   6.2431   6.2444   6.2447   6.2466   6.3217   6.3226
     6.6094   6.6102   6.6104   6.6130   6.7352   6.7370   6.9861   6.9866
     7.1349   7.1357   7.1359   7.1361   7.2090   7.2091   7.6375   7.6378
     7.6379   7.6400   7.6855   7.6859   7.8120   7.8122   8.0018   8.0024
     8.1076   8.1078   8.1079   8.1082   8.5651   8.5662   8.5667   8.5676
     8.6420   8.6426   8.6748   8.6765   8.7052   8.7056   8.7254   8.7268
     8.8530   8.8538   8.8541   8.8542   9.0265   9.0278   9.1448   9.1456
     9.2361   9.2363   9.2502   9.2514   9.5189   9.5191   9.5193   9.5197
     9.6924   9.6930  10.0606  10.0611  10.0611  10.0611  10.3361  10.3363
    11.2877  11.2882  11.5797  11.5799  11.5801  11.5817  11.9831  11.9832
    12.0018  12.0025  12.0413  12.0414  12.2001  12.2002  12.2005  12.2012
    12.3998  12.4009  12.4625  12.4626  12.4705  12.4716  12.4772  12.4776
    12.4777  12.4805  12.6519  12.6521  12.7559  12.7564  12.7564  12.7565
    12.8861  12.8865  12.9245  12.9248  13.1247  13.1248  13.1248  13.1249
    13.1436  13.1437  13.3982  13.3985  13.3985  13.3986  13.7283  13.7286
    15.2263  15.2266  15.2987  15.2995  15.2998  15.2999  15.6670  15.6684
    15.6690  15.6690  15.6924  15.6930  15.9437  15.9442  16.2023  16.2037
    16.3754  16.3756  16.3810  16.3813  16.6082  16.6082  16.6097  16.6097
    16.8533  16.8534  17.3331  17.3353  17.3358  17.3358  17.4018  17.4023
    20.5955  20.5970  21.5481  21.5496  21.5500  21.5505  22.2038  22.2046
    22.9123  22.9141  22.9143  22.9148  22.9803  22.9819  24.0199  24.0206
    24.1328  24.1356  24.3331  24.3357  24.8393  24.8407  24.8413  24.8414
    25.0745  25.0756  25.7758  25.7800  25.7801  25.7802  25.8086  25.8101
    25.8626  25.8643  26.1016  26.1024  26.2912  26.2925  26.2938  26.2940
    26.4435  26.4451  26.6737  26.6739  26.6752  26.6755  27.5248  27.5253
    27.8055  27.8075  27.8081  27.8081  27.9326  27.9326  28.1296  28.1297
    28.2995  28.3012  28.4734  28.4741  28.4760  28.4764  28.4797  28.4804
    28.8665  28.8676  28.9447  28.9466  28.9473  28.9474  29.2687  29.2699
    29.3073  29.3077  29.7772  29.7801  29.9822  29.9831  29.9839  29.9841
    30.2113  30.2130  31.0755  31.0787  31.0788  31.0794  31.7135  31.7140
    32.1638  32.1671  32.1672  32.1673  32.8519  32.8550  33.0332  33.0338
    33.1947  33.1948  33.1948  33.1962  33.6888  33.6893  33.7571  33.7595
    34.3864  34.3865  34.5943  34.5945  34.5948  34.5964  35.1765  35.1772
    35.5008  35.5010  35.7163  35.7181  35.7192  35.7192  35.7201  35.7201
    35.7410  35.7425  35.8881  35.8891  35.9871  35.9894  35.9899  35.9905
    36.6735  36.6736  36.9290  36.9296  36.9304  36.9307  37.1045  37.1046
    37.1717  37.1724  37.1725  37.1728  37.9298  37.9304  38.4125  38.4125
    38.4132  38.4138  38.4466  38.4472  38.4638  38.4655  38.8556  38.8576
    38.8576  38.8583  38.8761  38.8764  39.0388  39.0397  39.0829  39.0834
    39.2446  39.2455  39.3237  39.3240  39.5949  39.5953  39.5970  39.5973
    39.6673  39.6693  39.7144  39.7146  39.8408  39.8408  39.8410  39.8414
    40.1498  40.1506  40.6743  40.6745  40.6762  40.6765  41.1754  41.1761
    41.6269  41.6274  41.9743  41.9745  42.0450  42.0484  42.2685  42.2690
    42.2701  42.2704  42.4271  42.4286  42.8034  42.8045  43.2780  43.2790
    43.2800  43.2802  43.8653  43.8681  43.8685  43.8687  43.9050  43.9053
[...]
    47.0774  47.0789  47.3222  47.3228  47.8520  47.8529  47.8533  47.8536
    48.0095  48.0106  48.2384  48.2390  48.2477  48.2493  48.2498  48.2504
    48.3611  48.3637  48.5195  48.5207  48.7669  48.7689  48.7701  48.7702
    49.1438  49.1503  49.1520  49.1527  49.1533  49.1538  49.4403  49.4411
    49.4939  49.4940  49.4950  49.4963  49.4966  49.4967  49.5237  49.5238
    49.7167  49.7169  49.8946  49.8965  50.0018  50.0027  50.0046  50.0049
    50.4621  50.4622  50.8174  50.8180  50.8183  50.8185  50.8613  50.8633
    50.9184  50.9188  50.9194  50.9202  51.0547  51.0549  51.1207  51.1211
    51.3429  51.3449  51.5516  51.5530  51.5543  51.5544  51.9627  51.9635
    52.0319  52.0331  52.0334  52.0336  52.2310  52.2330  52.2983  52.3008
    52.5862  52.5867  52.5867  52.5870  52.6053  52.6060  52.8632  52.8640
    53.0585  53.0593  53.3109  53.3132  53.3134  53.3134  53.3810  53.3816
    54.1069  54.1070  54.1944  54.1956  54.2782  54.2790  54.3867  54.3885
    54.4847  54.4873  54.4880  54.4884  55.1667  55.1670  55.1672  55.1683
    55.2768  55.2771  55.3924  55.3924  55.3935  55.3939  55.5284  55.5285

     the Fermi energy is    12.7156 ev

!    total energy              =   -4124.69343528 Ry
     Harris-Foulkes estimate   =   -4124.69343589 Ry
     estimated scf accuracy    <       0.00000064 Ry

     The total energy is the sum of the following terms:

     one-electron contribution =   -1365.38857409 Ry
     hartree contribution      =     934.01800391 Ry
     xc contribution           =    -627.48424938 Ry
     ewald contribution        =   -3065.87288853 Ry
     Hubbard energy            =       0.03675068 Ry
     smearing contrib. (-TS)   =      -0.00247787 Ry

     total magnetization       =     0.00 Bohr mag/cell
     absolute magnetization    =     0.00 Bohr mag/cell

     convergence has been achieved in  12 iterations

     Writing output data file pwscf.save

     General routines

     Parallel routines
     Hubbard U routines

   This run was terminated on:   0: 7:43  12Feb2014

   JOB DONE.