     Program PWSCF v.5.0.2 (svn rev. 9656) starts on  4May2014 at 21: 3:37

     Current dimensions of program PWSCF are:
     Max number of different atomic species (ntypx) = 10
     Max number of k-points (npk) =  40000
     Max angular momentum in pseudopotentials (lmaxx) =  3
     Reading input from pwscf.in
Warning: card &CELL ignored
Warning: card / ignored

     Subspace diagonalization in iterative solution of the eigenvalue problem:
     a serial algorithm will be used

     bravais-lattice index     =            0
     lattice parameter (alat)  =      10.9604  a.u.
     unit-cell volume          =    6350.6732 (a.u.)^3
     number of atoms/cell      =           31
     number of atomic types    =            3
     number of electrons       =       230.00 (up: 122.00, down: 108.00)
     number of Kohn-Sham states=          333
     kinetic-energy cutoff     =      40.0000  Ry
     charge density cutoff     =     500.0000  Ry
     convergence threshold     =      1.0E-06
     mixing beta               =       0.7000
     number of iterations used =            8  plain     mixing
     Exchange-correlation      = SLA  PW   PBE  PBE ( 1 4 3 4 0)
     EXX-fraction              =        0.00
     nstep                     =           50

     celldm(1)=  10.960412  celldm(2)=   0.000000  celldm(3)=   0.000000
     celldm(4)=   0.000000  celldm(5)=   0.000000  celldm(6)=   0.000000

     crystal axes: (cart. coord. in units of alat)
               a(1) = (   1.000000   0.000000   0.000000 )
               a(2) = (   0.000000   1.067975   0.000000 )
               a(3) = (   0.000000   0.000000   4.516251 )

     reciprocal axes: (cart. coord. in units 2 pi/alat)
               b(1) = (  1.000000  0.000000  0.000000 )
               b(2) = (  0.000000  0.936351  0.000000 )
               b(3) = (  0.000000  0.000000  0.221423 )

     PseudoPot. # 1 for O  read from file:
     /home/camp/zhonxu/pseudo/o_pbe_v1.01.uspp.F.UPF
     MD5 check sum: 2bcb18d16ea4b960afae9ec6d52f22d2
     Pseudo is Ultrasoft + core correction, Zval =  6.0
     Generated by new atomic code, or converted to UPF format
     Using radial grid of  737 points,  5 beta functions with:
                l(1) =   0
                l(2) =   0
                l(3) =   1
                l(4) =   1
                l(5) =   2
     Q(r) pseudized with  8 coefficients,  rinner =    0.900   0.900   0.900
                                                       0.900   0.900

     PseudoPot. # 2 for Cr read from file:
     /home/camp/zhonxu/pseudo/cr_pbe_v1.uspp.F.UPF
     MD5 check sum: 68b6f918d1762dccfb11451fe85b0e0e
     Pseudo is Ultrasoft + core correction, Zval = 14.0
     Generated by new atomic code, or converted to UPF format
     Using radial grid of  857 points,  6 beta functions with:
                l(1) =   0
                l(2) =   0
                l(3) =   1
                l(4) =   1
                l(5) =   2
                l(6) =   2
     Q(r) pseudized with  6 coefficients,  rinner =    1.000   1.000   1.000
                                                       1.000   1.000

     PseudoPot. # 3 for H  read from file:
     /home/camp/zhonxu/pseudo/h_pbe_v1.uspp.F.UPF
     MD5 check sum: 3408e3ff4ec8b0a4e358431e7e038a48
     Pseudo is Ultrasoft, Zval =  1.0
     Generated by new atomic code, or converted to UPF format
     Using radial grid of  615 points,  2 beta functions with:
                l(1) =   0
                l(2) =   0
     Q(r) pseudized with  8 coefficients,  rinner =    0.700

     atomic species   valence    mass     pseudopotential
        O0             6.00    15.99940     O ( 1.00)
        Cr1           14.00    51.99600     Cr( 1.00)
        H2             1.00     1.00794     H ( 1.00)

     Starting magnetic structure
     atomic species   magnetization
        O0           0.000
        Cr1          0.600
        H2           0.000

     Simplified LDA+U calculation (l_max = 2) with parameters (eV):
     atomic species    L          U    alpha       J0     beta
        Cr1            2     1.5000   0.0000   0.0000   0.0000

     No symmetry found

   Cartesian axes

     site n.     atom                  positions (alat units)
         1           O0  tau(   1) = (   0.0000000   0.0000000   1.7030331  )
         2           O0  tau(   2) = (   0.0000000   0.5339875   1.8028422  )
         3           Cr1 tau(   3) = (   0.2500000   0.5339875   2.0350227  )
         4           Cr1 tau(   4) = (   0.0000000   0.0000000   2.0223320  )
         5           O0  tau(   5) = (   0.2500000   0.8543801   2.0287902  )
         6           O0  tau(   6) = (   0.2500000   0.2135950   2.0292419  )
         7           O0  tau(   7) = (   0.0000000   0.5339875   2.2445767  )
         8           O0  tau(   8) = (   0.0000000   0.0000000   2.3628573  )
         9           Cr1 tau(   9) = (   0.2500000   0.0000000   2.5580045  )
        10           Cr1 tau(  10) = (   0.0000000   0.5339875   2.5485656  )
        11           O0  tau(  11) = (   0.2500000   0.7475825   2.5953991  )
        12           O0  tau(  12) = (   0.2500000   0.3203925   2.5951281  )
        13           O0  tau(  13) = (   0.0000000   0.0000000   2.7889204  )
        14           O0  tau(  14) = (   0.5000000   0.0000000   1.7055170  )
        15           O0  tau(  15) = (   0.5000000   0.5339875   1.8012615  )
        16           Cr1 tau(  16) = (   0.7500000   0.5339875   2.0359259  )
        17           Cr1 tau(  17) = (   0.5000000   0.0000000   2.0265773  )
        18           O0  tau(  18) = (   0.7500000   0.8543801   2.0288354  )
        19           O0  tau(  19) = (   0.7500000   0.2135950   2.0296032  )
        20           O0  tau(  20) = (   0.5000000   0.5339875   2.2364023  )
        21           O0  tau(  21) = (   0.5000000   0.0000000   2.3615024  )
        22           Cr1 tau(  22) = (   0.7500000   0.0000000   2.6337872  )
        23           Cr1 tau(  23) = (   0.5000000   0.5339875   2.6580395  )
        24           O0  tau(  24) = (   0.7500000   0.7475825   2.5992379  )
        25           O0  tau(  25) = (   0.7500000   0.3203925   2.5991024  )
        26           O0  tau(  26) = (   0.5000000   0.0000000   2.7868881  )
        27           H2  tau(  27) = (  -0.0008000   0.6785059   1.7121107  )
        28           H2  tau(  28) = (   0.4997900   0.6815710   1.7150915  )
        29           H2  tau(  29) = (   0.1566700   0.0342393   1.6437347  )
        30           H2  tau(  30) = (   0.6553000   0.0356063   1.6443670  )
        31           O0  tau(  31) = (   0.4989300   0.5335603   2.9283823  )

     number of k points=    20  Methfessel-Paxton smearing, width (Ry)=  0.0100
                       cart. coord. in units 2pi/alat
        k(    1) = (   0.0000000   0.0000000   0.0000000), wk =   0.0625000
        k(    2) = (   0.0000000   0.2340879   0.0000000), wk =   0.1250000
        k(    3) = (   0.0000000  -0.4681757   0.0000000), wk =   0.0625000
        k(    4) = (   0.2500000   0.0000000   0.0000000), wk =   0.1250000
        k(    5) = (   0.2500000   0.2340879   0.0000000), wk =   0.1250000
        k(    6) = (   0.2500000  -0.4681757   0.0000000), wk =   0.1250000
        k(    7) = (  -0.5000000   0.0000000   0.0000000), wk =   0.0625000
        k(    8) = (  -0.5000000   0.2340879   0.0000000), wk =   0.1250000
        k(    9) = (  -0.5000000  -0.4681757   0.0000000), wk =   0.0625000
        k(   10) = (  -0.2500000   0.2340879   0.0000000), wk =   0.1250000
        k(   11) = (   0.0000000   0.0000000   0.0000000), wk =   0.0625000
        k(   12) = (   0.0000000   0.2340879   0.0000000), wk =   0.1250000
        k(   13) = (   0.0000000  -0.4681757   0.0000000), wk =   0.0625000
        k(   14) = (   0.2500000   0.0000000   0.0000000), wk =   0.1250000
        k(   15) = (   0.2500000   0.2340879   0.0000000), wk =   0.1250000
        k(   16) = (   0.2500000  -0.4681757   0.0000000), wk =   0.1250000
        k(   17) = (  -0.5000000   0.0000000   0.0000000), wk =   0.0625000
        k(   18) = (  -0.5000000   0.2340879   0.0000000), wk =   0.1250000
        k(   19) = (  -0.5000000  -0.4681757   0.0000000), wk =   0.0625000
        k(   20) = (  -0.2500000   0.2340879   0.0000000), wk =   0.1250000

     Largest allocated arrays     est. size (Mb)     dimensions
     Largest temporary arrays     est. size (Mb)     dimensions

     Check: negative/imaginary core charge=   -0.000012    0.000000

     Initial potential from superposition of free atoms
     Check: negative starting charge=(component1):   -0.001547
     Check: negative starting charge=(component2):   -0.000494

     starting charge  221.99984, renormalised to  230.00000

     negative rho (up, down):  0.160E-02 0.512E-03
     Number of +U iterations with fixed ns =  0
     Starting occupations:
 --- enter write_ns ---
 LDA+U parameters:
U( 2)     =  1.50000000
alpha( 2) =  0.00000000
atom    3   Tr[ns(na)] (up, down, total) =   5.00000  0.00000  5.00000
   spin  1
    eigenvalues:
  1.000  1.000  1.000  1.000  1.000
    eigenvectors:
  1.000  0.000  0.000  0.000  0.000
  0.000  1.000  0.000  0.000  0.000
  0.000  0.000  1.000  0.000  0.000
  0.000  0.000  0.000  1.000  0.000
  0.000  0.000  0.000  0.000  1.000
    occupations:
  1.000  0.000  0.000  0.000  0.000
  0.000  1.000  0.000  0.000  0.000
  0.000  0.000  1.000  0.000  0.000
  0.000  0.000  0.000  1.000  0.000
  0.000  0.000  0.000  0.000  1.000
   spin  2
    eigenvalues:
  0.000  0.000  0.000  0.000  0.000
    eigenvectors:
  1.000  0.000  0.000  0.000  0.000
  0.000  1.000  0.000  0.000  0.000
  0.000  0.000  1.000  0.000  0.000
  0.000  0.000  0.000  1.000  0.000
  0.000  0.000  0.000  0.000  1.000
    occupations:
  0.000  0.000  0.000  0.000  0.000
  0.000  0.000  0.000  0.000  0.000
  0.000  0.000  0.000  0.000  0.000
  0.000  0.000  0.000  0.000  0.000
  0.000  0.000  0.000  0.000  0.000
atomic mag. moment =     5.000000
atom    4   Tr[ns(na)] (up, down, total) =   5.00000  0.00000  5.00000
   spin  1
    eigenvalues:
  1.000  1.000  1.000  1.000  1.000
    eigenvectors:
  1.000  0.000  0.000  0.000  0.000
  0.000  1.000  0.000  0.000  0.000
  0.000  0.000  1.000  0.000  0.000
  0.000  0.000  0.000  1.000  0.000
  0.000  0.000  0.000  0.000  1.000
    occupations:
  1.000  0.000  0.000  0.000  0.000
  0.000  1.000  0.000  0.000  0.000
  0.000  0.000  1.000  0.000  0.000
  0.000  0.000  0.000  1.000  0.000
  0.000  0.000  0.000  0.000  1.000
   spin  2
    eigenvalues:
  0.000  0.000  0.000  0.000  0.000
    eigenvectors:
  1.000  0.000  0.000  0.000  0.000
  0.000  1.000  0.000  0.000  0.000
  0.000  0.000  1.000  0.000  0.000
  0.000  0.000  0.000  1.000  0.000
  0.000  0.000  0.000  0.000  1.000
    occupations:
  0.000  0.000  0.000  0.000  0.000
  0.000  0.000  0.000  0.000  0.000
  0.000  0.000  0.000  0.000  0.000
  0.000  0.000  0.000  0.000  0.000
  0.000  0.000  0.000  0.000  0.000
atomic mag. moment =     5.000000
atom    9   Tr[ns(na)] (up, down, total) =   5.00000  0.00000  5.00000
   spin  1
    eigenvalues:
  1.000  1.000  1.000  1.000  1.000
    eigenvectors:
  1.000  0.000  0.000  0.000  0.000
[...]
    occupations:
  0.875 -0.025  0.017 -0.190 -0.003
 -0.025  0.475 -0.002 -0.001 -0.006
  0.017 -0.002  0.654 -0.006  0.031
 -0.190 -0.001 -0.006  0.611 -0.001
 -0.003 -0.006  0.031 -0.001  0.867
   spin  2
    eigenvalues:
  0.123  0.144  0.177  0.365  0.393
    eigenvectors:
  0.766  0.002  0.016  0.063  0.153
  0.002  0.002  0.000  0.770  0.226
  0.020  0.082  0.898  0.000  0.000
  0.213  0.000  0.002  0.165  0.620
  0.000  0.913  0.084  0.002  0.001
    occupations:
  0.180  0.003 -0.004  0.108  0.001
  0.003  0.371  0.001 -0.015  0.011
 -0.004  0.001  0.173  0.008 -0.009
  0.108 -0.015  0.008  0.330 -0.001
  0.001  0.011 -0.009 -0.001  0.147
atomic mag. moment =     2.280116
atom    4   Tr[ns(na)] (up, down, total) =   3.43158  1.24566  4.67724
   spin  1
    eigenvalues:
  0.483  0.525  0.585  0.856  0.982
    eigenvectors:
  0.003  0.992  0.000  0.001  0.004
  0.000  0.001  0.023  0.975  0.000
  0.000  0.000  0.977  0.023  0.000
  0.000  0.004  0.000  0.000  0.996
  0.997  0.003  0.000  0.000  0.000
    occupations:
  0.527 -0.011 -0.001  0.030  0.002
 -0.011  0.850  0.041  0.002 -0.000
 -0.001  0.041  0.592  0.002 -0.000
  0.030  0.002  0.002  0.980 -0.000
  0.002 -0.000 -0.000 -0.000  0.483
   spin  2
    eigenvalues:
  0.117  0.151  0.197  0.380  0.401
    eigenvectors:
  0.002  0.003  0.000  0.003  0.991
  0.002  0.945  0.049  0.000  0.003
  0.000  0.049  0.951  0.000  0.000
  0.995  0.002  0.000  0.000  0.002
  0.000  0.000  0.000  0.997  0.003
    occupations:
  0.399  0.015  0.003 -0.013  0.001
  0.015  0.154 -0.010  0.001 -0.000
  0.003 -0.010  0.195  0.000 -0.000
 -0.013  0.001  0.000  0.118  0.000
  0.001 -0.000 -0.000  0.000  0.380
atomic mag. moment =     2.185914
atom    9   Tr[ns(na)] (up, down, total) =   3.43934  1.27895  4.71829
   spin  1
    eigenvalues:
  0.498  0.503  0.629  0.831  0.979
    eigenvectors:
  0.028  0.144  0.000  0.000  0.828
  0.843  0.157  0.000  0.000  0.000
  0.000  0.000  0.993  0.007  0.000
  0.129  0.699  0.000  0.000  0.172
  0.000  0.000  0.007  0.993  0.000
    occupations:
  0.897  0.002 -0.001 -0.180 -0.001
  0.002  0.499  0.001  0.001 -0.001
 -0.001  0.001  0.630 -0.001 -0.017
 -0.180  0.001 -0.001  0.585  0.002
 -0.001 -0.001 -0.017  0.002  0.829
   spin  2
    eigenvalues:
  0.136  0.168  0.193  0.389  0.392
    eigenvectors:
  0.817  0.000  0.000  0.181  0.002
  0.000  0.000  0.000  0.014  0.986
  0.000  0.046  0.954  0.000  0.000
  0.183  0.000  0.000  0.806  0.011
  0.000  0.954  0.046  0.000  0.000
    occupations:
  0.183  0.000 -0.000  0.098 -0.000
  0.000  0.392 -0.000 -0.001  0.000
 -0.000 -0.000  0.192  0.000  0.005
  0.098 -0.001  0.000  0.343 -0.000
 -0.000  0.000  0.005 -0.000  0.169
atomic mag. moment =     2.160392
atom   10   Tr[ns(na)] (up, down, total) =   3.54831  1.10605  4.65436
   spin  1
    eigenvalues:
  0.464  0.494  0.727  0.886  0.977
    eigenvectors:
  0.000  0.994  0.000  0.000  0.006
  0.000  0.000  0.000  0.971  0.028
  0.000  0.000  0.999  0.000  0.000
  0.000  0.006  0.000  0.028  0.966
  1.000  0.000  0.000  0.000  0.000
    occupations:
  0.497 -0.007  0.000  0.038 -0.000
 -0.007  0.888 -0.003 -0.014  0.001
  0.000 -0.003  0.727  0.000  0.004
  0.038 -0.014  0.000  0.971  0.000
 -0.000  0.001  0.004  0.000  0.464
   spin  2
    eigenvalues:
  0.102  0.163  0.177  0.306  0.358
    eigenvectors:
  0.007  0.000  0.000  0.993  0.000
  0.001  0.999  0.000  0.000  0.000
  0.000  0.000  1.000  0.000  0.000
  0.992  0.001  0.000  0.007  0.000
  0.000  0.000  0.000  0.000  1.000
    occupations:
  0.304  0.000 -0.000 -0.017  0.000
  0.000  0.163  0.000  0.002 -0.000
 -0.000  0.000  0.177 -0.000  0.003
 -0.017  0.002 -0.000  0.104  0.000
  0.000 -0.000  0.003  0.000  0.358
atomic mag. moment =     2.442263
atom   16   Tr[ns(na)] (up, down, total) =   3.47925  1.20452  4.68377
   spin  1
    eigenvalues:
  0.469  0.516  0.647  0.872  0.976
    eigenvectors:
  0.032  0.186  0.001  0.000  0.781
  0.907  0.091  0.000  0.000  0.002
  0.000  0.000  0.958  0.039  0.003
  0.062  0.722  0.002  0.000  0.214
  0.000  0.000  0.039  0.961  0.000
    occupations:
  0.874  0.026  0.016 -0.190  0.004
  0.026  0.474  0.003  0.002 -0.005
  0.016  0.003  0.656 -0.006 -0.043
 -0.190  0.002 -0.006  0.612 -0.001
  0.004 -0.005 -0.043 -0.001  0.863
   spin  2
    eigenvalues:
  0.123  0.144  0.178  0.365  0.394
    eigenvectors:
  0.767  0.003  0.015  0.066  0.150
  0.002  0.002  0.000  0.761  0.234
  0.018  0.102  0.879  0.000  0.000
  0.212  0.000  0.002  0.171  0.615
  0.000  0.893  0.104  0.002  0.001
    occupations:
  0.180 -0.003 -0.004  0.108 -0.001
 -0.003  0.371 -0.001  0.016  0.011
 -0.004 -0.001  0.174  0.007  0.010
  0.108  0.016  0.007  0.331  0.001
 -0.001  0.011  0.010  0.001  0.148
atomic mag. moment =     2.274725
atom   17   Tr[ns(na)] (up, down, total) =   3.43448  1.24237  4.67685
   spin  1
    eigenvalues:
  0.481  0.528  0.602  0.842  0.982
    eigenvectors:
  0.002  0.993  0.000  0.001  0.004
  0.000  0.001  0.024  0.975  0.000
  0.000  0.001  0.975  0.024  0.000
  0.000  0.004  0.000  0.000  0.996
  0.998  0.002  0.000  0.000  0.000
    occupations:
  0.530 -0.011 -0.003  0.028  0.002
 -0.011  0.836  0.036  0.001 -0.000
 -0.003  0.036  0.607  0.001  0.002
  0.028  0.001  0.001  0.980 -0.000
  0.002 -0.000  0.002 -0.000  0.482
   spin  2
    eigenvalues:
  0.116  0.151  0.197  0.376  0.402
    eigenvectors:
  0.003  0.004  0.000  0.002  0.991
  0.002  0.941  0.052  0.000  0.004
  0.000  0.052  0.948  0.000  0.000
  0.995  0.002  0.000  0.000  0.002
  0.000  0.000  0.000  0.998  0.002
    occupations:
  0.400  0.017  0.004 -0.014  0.001
  0.017  0.154 -0.010  0.001 -0.000
  0.004 -0.010  0.195  0.000 -0.000
 -0.014  0.001  0.000  0.117  0.000
  0.001 -0.000 -0.000  0.000  0.376
atomic mag. moment =     2.192116
atom   22   Tr[ns(na)] (up, down, total) =   3.03832  1.79367  4.83199
   spin  1
    eigenvalues:
  0.499  0.539  0.551  0.626  0.824
    eigenvectors:
  0.993  0.003  0.004  0.000  0.000
  0.002  0.988  0.010  0.000  0.000
  0.000  0.000  0.000  0.110  0.890
  0.005  0.009  0.986  0.000  0.000
  0.000  0.000  0.000  0.890  0.110
    occupations:
  0.499 -0.002  0.000 -0.004  0.002
 -0.002  0.539  0.000 -0.001 -0.000
  0.000  0.000  0.802 -0.000  0.062
 -0.004 -0.001 -0.000  0.551 -0.001
  0.002 -0.000  0.062 -0.001  0.648
   spin  2
    eigenvalues:
  0.236  0.304  0.327  0.461  0.466
    eigenvectors:
  0.000  0.000  0.991  0.007  0.001
  0.000  0.000  0.000  0.052  0.948
  0.978  0.022  0.000  0.000  0.000
  0.000  0.000  0.008  0.941  0.051
  0.022  0.977  0.000  0.000  0.000
    occupations:
  0.328 -0.002  0.000  0.012 -0.000
 -0.002  0.466 -0.000 -0.001  0.000
  0.000 -0.000  0.237  0.000 -0.010
  0.012 -0.001  0.000  0.460  0.000
 -0.000  0.000 -0.010  0.000  0.302
atomic mag. moment =     1.244655
atom   23   Tr[ns(na)] (up, down, total) =   3.10192  1.72272  4.82464
   spin  1
    eigenvalues:
  0.484  0.530  0.531  0.576  0.981
    eigenvectors:
  0.000  0.002  0.000  0.997  0.001
  0.000  0.998  0.000  0.002  0.000
  0.000  0.000  1.000  0.000  0.000
  0.000  0.000  0.000  0.001  0.999
  1.000  0.000  0.000  0.000  0.000
    occupations:
  0.577  0.002 -0.000  0.014 -0.000
  0.002  0.530 -0.000 -0.000 -0.000
 -0.000 -0.000  0.531  0.000 -0.000
  0.014 -0.000  0.000  0.980 -0.000
 -0.000 -0.000 -0.000 -0.000  0.484
   spin  2
    eigenvalues:
  0.117  0.356  0.359  0.399  0.491
    eigenvectors:
  0.002  0.000  0.000  0.000  0.998
  0.000  0.001  0.999  0.000  0.000
  0.000  0.998  0.001  0.001  0.000
  0.998  0.000  0.000  0.000  0.002
  0.000  0.001  0.000  0.999  0.000
    occupations:
  0.490  0.001  0.000 -0.015 -0.000
  0.001  0.359  0.000 -0.000  0.000
  0.000  0.000  0.356 -0.000 -0.002
 -0.015 -0.000 -0.000  0.118  0.000
 -0.000  0.000 -0.002  0.000  0.399
atomic mag. moment =     1.379201
N of occupied +U levels =  37.7501725
 --- exit write_ns ---

 ------ SPIN UP ------------

[...]

 ------ SPIN DOWN ----------

[...]

          k = 0.2500-0.4682 0.0000 ( 27150 PWs)   bands (ev):

[...]

          k =-0.2500 0.2341 0.0000 ( 27132 PWs)   bands (ev):

   -74.2876 -74.2641 -72.8200 -72.8080 -72.7819 -72.7305 -72.6742 -72.6603
   -46.3728 -46.0379 -45.5361 -45.3349 -45.3047 -45.1959 -44.5275 -44.4106
   -44.3865 -44.3780 -44.3212 -44.3077 -44.2085 -44.1577 -44.0785 -44.0404
   -44.0394 -44.0127 -43.9544 -43.9286 -43.9145 -43.8258 -43.7967 -43.6914
   -21.3072 -20.8855 -20.7279 -20.6765 -20.5519 -20.2725 -20.1795 -20.1216
   -20.0356 -19.9185 -19.8940 -19.8280 -19.7185 -19.7029 -19.6859 -19.6312
   -19.4418 -19.3649 -19.2661  -8.8264  -8.5766  -8.2843  -8.2306  -8.0740
    -7.8462  -7.7295  -7.6575  -7.5610  -7.4942  -7.4102  -7.2999  -7.2382
    -7.1024  -7.0510  -6.9851  -6.8423  -6.7884  -6.6125  -6.5810  -6.5108
    -6.4483  -6.3573  -6.1662  -6.0719  -6.0195  -5.8522  -5.7737  -5.6964
    -5.6283  -5.5498  -5.4938  -5.4153  -5.4008  -5.2478  -5.1681  -5.1070
    -5.0615  -4.8711  -4.7875  -4.6450  -4.5575  -4.4393  -4.3954  -4.2905
    -4.2046  -4.1040  -4.0540  -3.9906  -3.9364  -3.8230  -3.6712  -3.6374
    -3.5091  -3.4016  -3.2526  -3.0400  -0.6370  -0.4716  -0.4232  -0.2481
    -0.1525  -0.1057  -0.0142   0.1171   0.2553   0.3082   0.3814   0.4779
     0.4929   0.6075   0.6535   0.6748   0.7716   0.8203   0.9083   1.0048
     1.0410   1.1696   1.1951   1.2598   1.3114   1.3765   1.4745   1.7955
     2.0184   2.1683   2.2994   2.5130   2.6153   2.6641   2.7557   2.8890
     2.9684   3.1490   3.4517   3.5515   3.7968   4.2496   4.4474   4.9374
     5.4256   5.6684   5.7556   6.0682   6.2738   6.4364   6.5090   6.6711
     6.7963   6.9538   7.0422   7.3366   7.4836   7.7840   7.8887   8.0169
     8.3092   8.3442   8.4265   8.5632   8.7250   8.8429   9.0309   9.0805
     9.2620   9.2857   9.4443   9.5844   9.7355   9.8110   9.9238  10.1262
    10.1689  10.2488  10.3384  10.4399  10.5118  10.6482  10.7381  10.8481
    10.9258  11.0218  11.2052  11.2425  11.3047  11.3601  11.5372  11.6237
    11.6678  11.7729  11.8417  11.9186  12.0357  12.1008  12.1791  12.2741
    12.3698  12.4327  12.5330  12.6572  12.7319  12.8026  12.8669  12.9098
    12.9838  13.0000  13.0945  13.1400  13.2116  13.2874  13.3353  13.4256
    13.4935  13.5760  13.6928  13.7911  13.8629  13.9302  13.9882  14.0563
    14.1245  14.2588  14.3686  14.4505  14.4656  14.5155  14.6188  14.7179
    14.7711  14.8439  14.9447  14.9968  15.0458  15.1720  15.2553  15.3739
    15.4177  15.4908  15.5840  15.6615  15.7607  15.8533  15.9481  16.0159
    16.0862  16.1446  16.2089  16.2696  16.3738  16.4457  16.5024  16.5391
    16.6170  16.7661  16.8081  16.8445  16.9234  17.0508  17.0732  17.1102
    17.1959  17.2271  17.3824  17.4540  17.4813  17.5306  17.5978  17.6793
    17.7117  17.7567  17.7931  17.8996  17.9716  18.0416  18.1270  18.2369
    18.2672  18.3303  18.3882  18.4055  18.5836  18.6823  18.7647  18.8136
    18.8621  18.9289  18.9866  19.0272  19.0680  19.2376  19.3272  19.3815
    19.4261  19.4930  19.5826  19.6550  19.6784  19.7586  19.8010  19.8753
    19.9610  20.0426  20.1195  20.1903  20.3105  20.3630  20.4575  20.5255
    20.6307  20.7133  20.7730  20.8354  20.9165  21.0209  21.0831  21.1505
    21.2208  21.2519  21.3359  21.4209  21.5011

     the spin up/dw Fermi energies are    -1.7963   -2.8493 ev

!    total energy              =   -2025.03934829 Ry
     Harris-Foulkes estimate   =   -2025.03934829 Ry
     estimated scf accuracy    <          8.9E-09 Ry

     The total energy is the sum of the following terms:

     one-electron contribution =  -23865.66722519 Ry
     hartree contribution      =   11950.17233177 Ry
     xc contribution           =    -321.72316256 Ry
     ewald contribution        =   10211.37152739 Ry
     Hubbard energy            =       0.80703956 Ry
     smearing contrib. (-TS)   =       0.00014074 Ry

     total magnetization       =    14.00 Bohr mag/cell
     absolute magnetization    =    19.03 Bohr mag/cell

     convergence has been achieved in  17 iterations

     Forces acting on atoms (Ry/au):

     negative rho (up, down):  0.483E-02 0.177E-02
     atom    1 type  1   force =    -0.00296631   -0.01113429   -0.00010744
     atom    2 type  1   force =    -0.00075306    0.00709209    0.00025784
     atom    3 type  2   force =     0.05964533   -0.00217929   -0.00092399
     atom    4 type  2   force =    -0.00208225    0.00754399    0.00032050
     atom    5 type  1   force =    -0.00325623    0.00990821   -0.00008480
     atom    6 type  1   force =    -0.00324980   -0.00751103   -0.00006902
     atom    7 type  1   force =     0.00252871   -0.00169342    0.00025062
     atom    8 type  1   force =    -0.01103011   -0.00103596    0.00015728
     atom    9 type  2   force =     0.01835888    0.00104000   -0.00025271
     atom   10 type  2   force =     0.00453566   -0.00012083    0.00026304
     atom   11 type  1   force =    -0.00546147   -0.05478764    0.00013084
     atom   12 type  1   force =    -0.00471708    0.05393098    0.00017282
     atom   13 type  1   force =    -0.04814461    0.00022009   -0.00002819
     atom   14 type  1   force =    -0.00680944   -0.01208697   -0.00042687
     atom   15 type  1   force =     0.00020776    0.00681875    0.00037989
     atom   16 type  2   force =    -0.06356666   -0.00142452   -0.00093180
     atom   17 type  2   force =     0.00784256    0.00714140   -0.00003294
     atom   18 type  1   force =     0.00581529    0.01025564   -0.00008510
     atom   19 type  1   force =     0.00607025   -0.00862126   -0.00014506
     atom   20 type  1   force =     0.00140023   -0.00208525   -0.00054051
     atom   21 type  1   force =     0.00785944    0.00010511   -0.00015460
     atom   22 type  2   force =     0.02135938   -0.00008623    0.00019128
     atom   23 type  2   force =    -0.00401916    0.00014555    0.00097660
     atom   24 type  1   force =    -0.00489947   -0.05167315    0.00039267
     atom   25 type  1   force =    -0.00381848    0.05178852    0.00040917
     atom   26 type  1   force =     0.02952356   -0.00016352   -0.00019625
     atom   27 type  3   force =    -0.00000942   -0.00039028   -0.00016432
     atom   28 type  3   force =    -0.00003134   -0.00035197    0.00018881
     atom   29 type  3   force =     0.00017929   -0.00038231    0.00017396
     atom   30 type  3   force =     0.00015223   -0.00029843   -0.00009779
     atom   31 type  1   force =    -0.00066367    0.00003603   -0.00002392

     Total force =     0.002306     Total SCF correction =     0.000141

     bfgs converged in   7 scf cycles and   6 bfgs steps
     (criteria: energy < 0.10E-03, force < 0.10E-02)

     End of BFGS Geometry Optimization

     Final energy   =   -2025.0393482888 Ry
Begin final coordinates

ATOMIC_POSITIONS (crystal)
O0       0.000000000   0.000000000   0.376940122    0   0   1
O0       0.000000000   0.500000000   0.398778142    0   0   1
Cr1      0.250000000   0.500000000   0.450344129    0   0   1
Cr1      0.000000000   0.000000000   0.448013345    0   0   1
O0       0.250000000   0.800000000   0.449018835    0   0   1
O0       0.250000000   0.200000000   0.449125263    0   0   1
O0       0.000000000   0.500000000   0.497195353    0   0   1
O0       0.000000000   0.000000000   0.522998131    0   0   1
Cr1      0.250000000   0.000000000   0.567367144    0   0   1
Cr1      0.000000000   0.500000000   0.564583377    0   0   1
O0       0.250000000   0.700000000   0.574648173    0   0   1
O0       0.250000000   0.300000000   0.574599213    0   0   1
O0       0.000000000   0.000000000   0.617434029    0   0   1
O0       0.500000000   0.000000000   0.377242429    0   0   1
O0       0.500000000   0.500000000   0.398543852    0   0   1
Cr1      0.750000000   0.500000000   0.450525266    0   0   1
Cr1      0.500000000   0.000000000   0.448610406    0   0   1
O0       0.750000000   0.800000000   0.449037903    0   0   1
O0       0.750000000   0.200000000   0.449172585    0   0   1
O0       0.500000000   0.500000000   0.496098059    0   0   1
O0       0.500000000   0.000000000   0.522904782    0   0   1
Cr1      0.750000000   0.000000000   0.582744836    0   0   1
Cr1      0.500000000   0.500000000   0.588634569    0   0   1
O0       0.750000000   0.700000000   0.575859351    0   0   1
O0       0.750000000   0.300000000   0.575851241    0   0   1
O0       0.500000000   0.000000000   0.617234610    0   0   1
H2      -0.000820797   0.635763714   0.378878071
H2       0.499746759   0.638700548   0.379691891
H2       0.157289406   0.031586460   0.364053292
H2       0.656208138   0.033112397   0.364140711
O0       0.498486502   0.499636456   0.648560890
End final coordinates

     General routines

     Parallel routines
     Hubbard U routines

   This run was terminated on:  10:48:18   5May2014

   JOB DONE.