     Program PWSCF v.5.0.2 (svn rev. 9656) starts on 24Jan2014 at 13:30:54

     Current dimensions of program PWSCF are:
     Max number of different atomic species (ntypx) = 10
     Max number of k-points (npk) =  40000
     Max angular momentum in pseudopotentials (lmaxx) =  3
     Reading input from RuO2-v-0.95.in

     Subspace diagonalization in iterative solution of the eigenvalue problem:
     a serial algorithm will be used

     bravais-lattice index     =            0
     lattice parameter (alat)  =       8.6082  a.u.
     unit-cell volume          =     411.0809 (a.u.)^3
     number of atoms/cell      =            6
     number of atomic types    =            2
     number of electrons       =        56.00
     number of Kohn-Sham states=           81
     kinetic-energy cutoff     =      40.0000  Ry
     charge density cutoff     =     500.0000  Ry
     convergence threshold     =      1.0E-06
     mixing beta               =       0.3000
     number of iterations used =            8  plain     mixing
     Exchange-correlation      = SLA  PW   PBE  PBE ( 1 4 3 4 0)
     EXX-fraction              =        0.00
     nstep                     =           50

     celldm(1)=   8.608231  celldm(2)=   0.000000  celldm(3)=   0.000000
     celldm(4)=   0.000000  celldm(5)=   0.000000  celldm(6)=   0.000000

     crystal axes: (cart. coord. in units of alat)
               a(1) = (   1.000000   0.000000   0.000000 )
               a(2) = (   0.000000   1.000000   0.000000 )
               a(3) = (   0.000000   0.000000   0.644444 )

     reciprocal axes: (cart. coord. in units 2 pi/alat)
               b(1) = (  1.000000  0.000000  0.000000 )
               b(2) = (  0.000000  1.000000  0.000000 )
               b(3) = (  0.000000  0.000000  1.551724 )

     PseudoPot. # 1 for Ru read from file:
     /home/camp/zhonxu/pseudo/ru_pbe_v1.uspp.F.UPF
     MD5 check sum: df00be1c11b23341d9806d8f1dfa10cf
     Pseudo is Ultrasoft + core correction, Zval = 16.0
     Generated by new atomic code, or converted to UPF format
     Using radial grid of  967 points,  6 beta functions with:
                l(1) =   0
                l(2) =   0
                l(3) =   1
                l(4) =   1
                l(5) =   2
                l(6) =   2
     Q(r) pseudized with  8 coefficients,  rinner =    1.300   1.300   1.300
                                                       1.300   1.300

     PseudoPot. # 2 for O  read from file:
     /home/camp/zhonxu/pseudo/o_pbe_v1.01.uspp.F.UPF
     MD5 check sum: 2bcb18d16ea4b960afae9ec6d52f22d2
     Pseudo is Ultrasoft + core correction, Zval =  6.0
     Generated by new atomic code, or converted to UPF format
     Using radial grid of  737 points,  5 beta functions with:
                l(1) =   0
                l(2) =   0
                l(3) =   1
                l(4) =   1
                l(5) =   2
     Q(r) pseudized with  8 coefficients,  rinner =    0.900   0.900   0.900
                                                       0.900   0.900

     atomic species   valence    mass     pseudopotential
        Ru0           16.00   101.07000     Ru( 1.00)
        O1             6.00    15.99940     O ( 1.00)

     Starting magnetic structure
     atomic species   magnetization
        Ru0          0.600
        O1           0.000

     16 Sym. Ops., with inversion, found ( 8 have fractional translation)

   Cartesian axes

     site n.     atom                  positions (alat units)
         1           Ru0 tau(   1) = (   0.0000000   0.0000000   0.0000000  )
         2           Ru0 tau(   2) = (   0.5000000   0.5000000   0.3222222  )
         3           O1  tau(   3) = (   0.3050000   0.3050000   0.0000000  )
         4           O1  tau(   4) = (  -0.3050000  -0.3050000   0.0000000  )
         5           O1  tau(   5) = (   0.8050000   0.1950000   0.3222222  )
         6           O1  tau(   6) = (   0.1950000   0.8050000   0.3222222  )

     number of k points=    36  Methfessel-Paxton smearing, width (Ry)=  0.0100
                       cart. coord. in units 2pi/alat
        k(    1) = (   0.0000000   0.0000000   0.0000000), wk =   0.0080000
        k(    2) = (   0.0000000   0.0000000   0.3103448), wk =   0.0160000
        k(    3) = (   0.0000000   0.0000000   0.6206897), wk =   0.0160000
        k(    4) = (   0.0000000   0.2000000   0.0000000), wk =   0.0320000
        k(    5) = (   0.0000000   0.2000000   0.3103448), wk =   0.0640000
        k(    6) = (   0.0000000   0.2000000   0.6206897), wk =   0.0640000
        k(    7) = (   0.0000000   0.4000000   0.0000000), wk =   0.0320000
        k(    8) = (   0.0000000   0.4000000   0.3103448), wk =   0.0640000
        k(    9) = (   0.0000000   0.4000000   0.6206897), wk =   0.0640000
        k(   10) = (   0.2000000   0.2000000   0.0000000), wk =   0.0320000
        k(   11) = (   0.2000000   0.2000000   0.3103448), wk =   0.0640000
        k(   12) = (   0.2000000   0.2000000   0.6206897), wk =   0.0640000
        k(   13) = (   0.2000000   0.4000000   0.0000000), wk =   0.0640000
        k(   14) = (   0.2000000   0.4000000   0.3103448), wk =   0.1280000
        k(   15) = (   0.2000000   0.4000000   0.6206897), wk =   0.1280000
        k(   16) = (   0.4000000   0.4000000   0.0000000), wk =   0.0320000
        k(   17) = (   0.4000000   0.4000000   0.3103448), wk =   0.0640000
        k(   18) = (   0.4000000   0.4000000   0.6206897), wk =   0.0640000
        k(   19) = (   0.0000000   0.0000000   0.0000000), wk =   0.0080000
        k(   20) = (   0.0000000   0.0000000   0.3103448), wk =   0.0160000
        k(   21) = (   0.0000000   0.0000000   0.6206897), wk =   0.0160000
        k(   22) = (   0.0000000   0.2000000   0.0000000), wk =   0.0320000
        k(   23) = (   0.0000000   0.2000000   0.3103448), wk =   0.0640000
        k(   24) = (   0.0000000   0.2000000   0.6206897), wk =   0.0640000
        k(   25) = (   0.0000000   0.4000000   0.0000000), wk =   0.0320000
        k(   26) = (   0.0000000   0.4000000   0.3103448), wk =   0.0640000
        k(   27) = (   0.0000000   0.4000000   0.6206897), wk =   0.0640000
        k(   28) = (   0.2000000   0.2000000   0.0000000), wk =   0.0320000
        k(   29) = (   0.2000000   0.2000000   0.3103448), wk =   0.0640000
        k(   30) = (   0.2000000   0.2000000   0.6206897), wk =   0.0640000
        k(   31) = (   0.2000000   0.4000000   0.0000000), wk =   0.0640000
        k(   32) = (   0.2000000   0.4000000   0.3103448), wk =   0.1280000
        k(   33) = (   0.2000000   0.4000000   0.6206897), wk =   0.1280000
        k(   34) = (   0.4000000   0.4000000   0.0000000), wk =   0.0320000
        k(   35) = (   0.4000000   0.4000000   0.3103448), wk =   0.0640000
        k(   36) = (   0.4000000   0.4000000   0.6206897), wk =   0.0640000

     Largest allocated arrays     est. size (Mb)     dimensions
     Largest temporary arrays     est. size (Mb)     dimensions

     Check: negative/imaginary core charge=   -0.000008    0.000000

     Initial potential from superposition of free atoms
     Check: negative starting charge=(component1):   -0.102777
     Check: negative starting charge=(component2):   -0.025324

     starting charge   53.99996, renormalised to   56.00000

     negative rho (up, down):  0.107E+00 0.263E-01
     Starting wfc are   42 randomized atomic wfcs

     Self-consistent Calculation

     iteration #  1     ecut=    40.00 Ry     beta=0.30
     Davidson diagonalization with overlap
     ethr =  1.00E-02,  avg # of iterations =  5.3

     negative rho (up, down):  0.902E-01 0.520E-01

     total energy              =    -513.98413303 Ry
     Harris-Foulkes estimate   =    -515.03106748 Ry
     estimated scf accuracy    <       4.52932904 Ry

     total magnetization       =     7.43 Bohr mag/cell
     absolute magnetization    =     7.55 Bohr mag/cell

[...]

     End of self-consistent calculation

 ------ SPIN UP ------------

          k = 0.0000 0.0000 0.0000 (  1787 PWs)   bands (ev):

   -59.9196 -59.9129 -30.0551 -30.0551 -29.8884 -29.8884 -29.7513 -29.7273
    -6.7795  -5.7225  -4.7333  -4.7333   4.8913   5.0201   6.1332   6.6507
     6.6507   9.0979   9.0979   9.6667  10.8990  11.1518  11.1518  11.4482
    11.7420  12.3978  12.4394  12.4394  12.5866  15.1958  15.5759  18.5923
    18.5923  19.6887  20.0088  23.6844  23.6844  27.0713  28.5676  28.6584
    29.9984  31.2069  31.4772  31.4772  33.3870  34.8975  35.5780  35.5780
    36.7662  36.7662  38.0603  40.1621  40.4454  40.4454  41.5399  42.9549
    43.6058  44.1583  44.7346  45.3231  45.3451  45.3451  46.1504  46.1504
    46.6319  47.1605  47.1605  49.0632  50.6399  52.5136  52.5494  52.5494
    52.7350  53.5259  53.5259  54.1589  54.5395  54.5395  54.5714  54.6484
    55.9609

[...]

 ------ SPIN DOWN ----------

[...]

     the Fermi energy is    13.8870 ev

!    total energy              =    -515.56365570 Ry
     Harris-Foulkes estimate   =    -515.56365539 Ry
     estimated scf accuracy    <       0.00000005 Ry

     The total energy is the sum of the following terms:

     one-electron contribution =    -165.21574769 Ry
     hartree contribution      =     115.88882654 Ry
     xc contribution           =     -78.74064627 Ry
     ewald contribution        =    -387.49602269 Ry
     smearing contrib. (-TS)   =      -0.00006559 Ry

[...]

     convergence has been achieved in  13 iterations

     Forces acting on atoms (Ry/au):

     negative rho (up, down):  0.699E-01 0.747E-01
     atom    1 type  1   force =     0.00000000    0.00000000    0.00000000
     atom    2 type  1   force =     0.00000000    0.00000000    0.00000000
     atom    3 type  2   force =    -0.02733366   -0.02733366    0.00000000
     atom    4 type  2   force =     0.02733366    0.02733366    0.00000000
     atom    5 type  2   force =    -0.02733366    0.02733366    0.00000000
     atom    6 type  2   force =     0.02733366   -0.02733366    0.00000000

     Total force =     0.077311     Total SCF correction =     0.000181

     entering subroutine stress ...

     negative rho (up, down):  0.699E-01 0.747E-01
          total   stress  (Ry/bohr**3)                   (kbar)     P=  171.18
   0.00063802   0.00000000   0.00000000         93.86      0.00      0.00
   0.00000000   0.00063802   0.00000000          0.00     93.86      0.00
   0.00000000   0.00000000   0.00221486          0.00      0.00    325.82

     Volume is kept fixed: isostatic pressure set to zero

     BFGS Geometry Optimization

     number of scf cycles    =   1
     number of bfgs steps    =   0

     enthalpy new            =    -515.5636557035 Ry

     new trust radius        =       0.1065692648 bohr
     new conv_thr            =       0.0000010000 Ry

     new unit-cell volume =    411.08087 a.u.^3 (    60.91590 Ang^3 )

CELL_PARAMETERS (alat=  8.60823133)
   0.987028573   0.000000000   0.000000000
   0.000000000   0.987028573   0.000000000
   0.000000000   0.000000000   0.661494190

ATOMIC_POSITIONS (crystal)
Ru0      0.000000000   0.000000000   0.000000000    0   0   0
Ru0      0.500000000   0.500000000   0.500000000    0   0   0
O1       0.301824706   0.301824706   0.000000000    1   1   0
[...]
        k(   32) = (   0.2026284   0.4052568   0.3023458), wk =   0.1280000
        k(   33) = (   0.2026284   0.4052568   0.6046916), wk =   0.1280000
        k(   34) = (   0.4052568   0.4052568   0.0000000), wk =   0.0320000
        k(   35) = (   0.4052568   0.4052568   0.3023458), wk =   0.0640000
        k(   36) = (   0.4052568   0.4052568   0.6046916), wk =   0.0640000

     Check: negative/imaginary core charge=   -0.000008    0.000000
     Check: negative starting charge=(component1):   -0.128738

[...]

     enthalpy old            =    -515.5636557035 Ry
     enthalpy new            =    -515.5782590642 Ry

     CASE: enthalpy_new < enthalpy_old

[...]

     Total force =     0.005094     Total SCF correction =     0.000587
     SCF correction compared to forces is large: reduce conv_thr to get better values

[...]

     Threshold (ethr) on eigenvalues was too large:
     Diagonalizing with lowered threshold

     Davidson diagonalization with overlap
     ethr =  1.87E-08,  avg # of iterations =  1.0

[...]

     number of scf cycles    =   6
     number of bfgs steps    =   5

     enthalpy old            =    -515.5826014360 Ry
     enthalpy new            =    -515.5826242009 Ry

     CASE: enthalpy_new < enthalpy_old

     new trust radius        =       0.0007380693 bohr
     new conv_thr            =       0.0000000100 Ry

     new unit-cell volume =    411.08087 a.u.^3 (    60.91590 Ang^3 )

[...]

ATOMIC_POSITIONS (crystal)
Ru0      0.000000000   0.000000000   0.000000000    0   0   0
Ru0      0.500000000   0.500000000   0.500000000    0   0   0
O1       0.306079982   0.306079982   0.000000000    1   1   0
O1      -0.306079982  -0.306079982   0.000000000    1   1   0
O1       0.806079982   0.193920018   0.500000000    1   1   0
O1       0.193920018   0.806079982   0.500000000    1   1   0

     Check: negative starting charge=(component1):   -0.129080
     NEW-OLD atomic charge density approx. for the potential
     NEW k-points:
        k(    1) = (   0.0000000   0.0000000   0.0000000), wk =   0.0080000
        k(    2) = (   0.0000000   0.0000000   0.2947212), wk =   0.0160000
        k(    3) = (   0.0000000   0.0000000   0.5894424), wk =   0.0160000
        k(    4) = (   0.0000000   0.2052327   0.0000000), wk =   0.0320000
        k(    5) = (   0.0000000   0.2052327   0.2947212), wk =   0.0640000
        k(    6) = (   0.0000000   0.2052327   0.5894424), wk =   0.0640000
        k(    7) = (   0.0000000   0.4104654   0.0000000), wk =   0.0320000
        k(    8) = (   0.0000000   0.4104654   0.2947212), wk =   0.0640000
        k(    9) = (   0.0000000   0.4104654   0.5894424), wk =   0.0640000
        k(   10) = (   0.2052327   0.2052327   0.0000000), wk =   0.0320000
        k(   11) = (   0.2052327   0.2052327   0.2947212), wk =   0.0640000
        k(   12) = (   0.2052327   0.2052327   0.5894424), wk =   0.0640000
        k(   13) = (   0.2052327   0.4104654   0.0000000), wk =   0.0640000
        k(   14) = (   0.2052327   0.4104654   0.2947212), wk =   0.1280000
        k(   15) = (   0.2052327   0.4104654   0.5894424), wk =   0.1280000
        k(   16) = (   0.4104654   0.4104654   0.0000000), wk =   0.0320000
        k(   17) = (   0.4104654   0.4104654   0.2947212), wk =   0.0640000
        k(   18) = (   0.4104654   0.4104654   0.5894424), wk =   0.0640000
        k(   19) = (   0.0000000   0.0000000   0.0000000), wk =   0.0080000
        k(   20) = (   0.0000000   0.0000000   0.2947212), wk =   0.0160000
        k(   21) = (   0.0000000   0.0000000   0.5894424), wk =   0.0160000
        k(   22) = (   0.0000000   0.2052327   0.0000000), wk =   0.0320000
        k(   23) = (   0.0000000   0.2052327   0.2947212), wk =   0.0640000
        k(   24) = (   0.0000000   0.2052327   0.5894424), wk =   0.0640000
        k(   25) = (   0.0000000   0.4104654   0.0000000), wk =   0.0320000
        k(   26) = (   0.0000000   0.4104654   0.2947212), wk =   0.0640000
        k(   27) = (   0.0000000   0.4104654   0.5894424), wk =   0.0640000
        k(   28) = (   0.2052327   0.2052327   0.0000000), wk =   0.0320000
        k(   29) = (   0.2052327   0.2052327   0.2947212), wk =   0.0640000
        k(   30) = (   0.2052327   0.2052327   0.5894424), wk =   0.0640000
        k(   31) = (   0.2052327   0.4104654   0.0000000), wk =   0.0640000
        k(   32) = (   0.2052327   0.4104654   0.2947212), wk =   0.1280000
        k(   33) = (   0.2052327   0.4104654   0.5894424), wk =   0.1280000
        k(   34) = (   0.4104654   0.4104654   0.0000000), wk =   0.0320000
        k(   35) = (   0.4104654   0.4104654   0.2947212), wk =   0.0640000
        k(   36) = (   0.4104654   0.4104654   0.5894424), wk =   0.0640000

     Check: negative/imaginary core charge=   -0.000008    0.000000
     Check: negative starting charge=(component1):   -0.129079

[...]

     Threshold (ethr) on eigenvalues was too large:
     Diagonalizing with lowered threshold

     Davidson diagonalization with overlap
     ethr =  7.55E-11,  avg # of iterations =  3.0

[...]

     Total force =     0.000037     Total SCF correction =     0.000034
     SCF correction compared to forces is large: reduce conv_thr to get better values

[...]

     Volume is kept fixed: isostatic pressure set to zero

     bfgs converged in   7 scf cycles and   6 bfgs steps
     (criteria: energy < 0.10E-03, force < 0.10E-02, cell < 0.50E+00)

     End of BFGS Geometry Optimization

     Final enthalpy =    -515.5826244917 Ry
Begin final coordinates
     new unit-cell volume =    411.08087 a.u.^3 (    60.91590 Ang^3 )

CELL_PARAMETERS (alat=  8.60823133)
   0.974503526   0.000000000   0.000000000
   0.000000000   0.974503526   0.000000000
   0.000000000   0.000000000   0.678607499

ATOMIC_POSITIONS (crystal)
Ru0      0.000000000   0.000000000   0.000000000    0   0   0
Ru0      0.500000000   0.500000000   0.500000000    0   0   0
O1       0.306079982   0.306079982   0.000000000    1   1   0
O1      -0.306079982  -0.306079982   0.000000000    1   1   0
O1       0.806079982   0.193920018   0.500000000    1   1   0
O1       0.193920018   0.806079982   0.500000000    1   1   0
End final coordinates

     A final scf calculation at the relaxed structure.
     The G-vectors are recalculated for the final unit cell
     Results may differ from those at the preceding step.

     bravais-lattice index     =            0
     lattice parameter (alat)  =       8.6082  a.u.
     unit-cell volume          =     411.0809 (a.u.)^3
     number of atoms/cell      =            6
     number of atomic types    =            2
     number of electrons       =        56.00
     number of Kohn-Sham states=           81
     kinetic-energy cutoff     =      40.0000  Ry
     charge density cutoff     =     500.0000  Ry
     convergence threshold     =      1.0E-08
     mixing beta               =       0.3000
     number of iterations used =            8  plain     mixing
     Exchange-correlation      = SLA  PW   PBE  PBE ( 1 4 3 4 0)
     EXX-fraction              =        0.00

     celldm(1)=   8.608231  celldm(2)=   0.000000  celldm(3)=   0.000000
     celldm(4)=   0.000000  celldm(5)=   0.000000  celldm(6)=   0.000000

     crystal axes: (cart. coord. in units of alat)
               a(1) = (   0.974504   0.000000   0.000000 )
               a(2) = (   0.000000   0.974504   0.000000 )
               a(3) = (   0.000000   0.000000   0.678607 )

     reciprocal axes: (cart. coord. in units 2 pi/alat)
               b(1) = (  1.026164  0.000000  0.000000 )
               b(2) = (  0.000000  1.026164  0.000000 )
               b(3) = (  0.000000  0.000000  1.473606 )

     PseudoPot. # 1 for Ru read from file:
     /home/camp/zhonxu/pseudo/ru_pbe_v1.uspp.F.UPF
     MD5 check sum: df00be1c11b23341d9806d8f1dfa10cf
     Pseudo is Ultrasoft + core correction, Zval = 16.0
     Generated by new atomic code, or converted to UPF format
     Using radial grid of  967 points,  6 beta functions with:
                l(1) =   0
                l(2) =   0
                l(3) =   1
                l(4) =   1
                l(5) =   2
                l(6) =   2
     Q(r) pseudized with  8 coefficients,  rinner =    1.300   1.300   1.300
                                                       1.300   1.300

     PseudoPot. # 2 for O  read from file:
     /home/camp/zhonxu/pseudo/o_pbe_v1.01.uspp.F.UPF
     MD5 check sum: 2bcb18d16ea4b960afae9ec6d52f22d2
     Pseudo is Ultrasoft + core correction, Zval =  6.0
     Generated by new atomic code, or converted to UPF format
     Using radial grid of  737 points,  5 beta functions with:
                l(1) =   0
                l(2) =   0
                l(3) =   1
                l(4) =   1
                l(5) =   2
     Q(r) pseudized with  8 coefficients,  rinner =    0.900   0.900   0.900
                                                       0.900   0.900

     atomic species   valence    mass     pseudopotential
        Ru0           16.00   101.07000     Ru( 1.00)
        O1             6.00    15.99940     O ( 1.00)

     Starting magnetic structure
     atomic species   magnetization
        Ru0          0.600
        O1           0.000

     16 Sym. Ops., with inversion, found ( 8 have fractional translation)

   Cartesian axes

     site n.     atom                  positions (alat units)
         1           Ru0 tau(   1) = (   0.0000000   0.0000000   0.0000000  )
         2           Ru0 tau(   2) = (   0.4872518   0.4872518   0.3393037  )
         3           O1  tau(   3) = (   0.2982760   0.2982760   0.0000000  )
         4           O1  tau(   4) = (  -0.2982760  -0.2982760   0.0000000  )
         5           O1  tau(   5) = (   0.7855278   0.1889757   0.3393037  )
         6           O1  tau(   6) = (   0.1889757   0.7855278   0.3393037  )

     number of k points=    36  Methfessel-Paxton smearing, width (Ry)=  0.0100
                       cart. coord. in units 2pi/alat
        k(    1) = (   0.0000000   0.0000000   0.0000000), wk =   0.0080000
        k(    2) = (   0.0000000   0.0000000   0.2947212), wk =   0.0160000
        k(    3) = (   0.0000000   0.0000000   0.5894424), wk =   0.0160000
        k(    4) = (   0.0000000   0.2052327   0.0000000), wk =   0.0320000
        k(    5) = (   0.0000000   0.2052327   0.2947212), wk =   0.0640000
        k(    6) = (   0.0000000   0.2052327   0.5894424), wk =   0.0640000
        k(    7) = (   0.0000000   0.4104654   0.0000000), wk =   0.0320000
        k(    8) = (   0.0000000   0.4104654   0.2947212), wk =   0.0640000
        k(    9) = (   0.0000000   0.4104654   0.5894424), wk =   0.0640000
        k(   10) = (   0.2052327   0.2052327   0.0000000), wk =   0.0320000
        k(   11) = (   0.2052327   0.2052327   0.2947212), wk =   0.0640000
        k(   12) = (   0.2052327   0.2052327   0.5894424), wk =   0.0640000
        k(   13) = (   0.2052327   0.4104654   0.0000000), wk =   0.0640000
        k(   14) = (   0.2052327   0.4104654   0.2947212), wk =   0.1280000
        k(   15) = (   0.2052327   0.4104654   0.5894424), wk =   0.1280000
        k(   16) = (   0.4104654   0.4104654   0.0000000), wk =   0.0320000
        k(   17) = (   0.4104654   0.4104654   0.2947212), wk =   0.0640000
        k(   18) = (   0.4104654   0.4104654   0.5894424), wk =   0.0640000
        k(   19) = (   0.0000000   0.0000000   0.0000000), wk =   0.0080000
        k(   20) = (   0.0000000   0.0000000   0.2947212), wk =   0.0160000
        k(   21) = (   0.0000000   0.0000000   0.5894424), wk =   0.0160000
        k(   22) = (   0.0000000   0.2052327   0.0000000), wk =   0.0320000
        k(   23) = (   0.0000000   0.2052327   0.2947212), wk =   0.0640000
        k(   24) = (   0.0000000   0.2052327   0.5894424), wk =   0.0640000
        k(   25) = (   0.0000000   0.4104654   0.0000000), wk =   0.0320000
        k(   26) = (   0.0000000   0.4104654   0.2947212), wk =   0.0640000
        k(   27) = (   0.0000000   0.4104654   0.5894424), wk =   0.0640000
        k(   28) = (   0.2052327   0.2052327   0.0000000), wk =   0.0320000
        k(   29) = (   0.2052327   0.2052327   0.2947212), wk =   0.0640000
        k(   30) = (   0.2052327   0.2052327   0.5894424), wk =   0.0640000
        k(   31) = (   0.2052327   0.4104654   0.0000000), wk =   0.0640000
        k(   32) = (   0.2052327   0.4104654   0.2947212), wk =   0.1280000
        k(   33) = (   0.2052327   0.4104654   0.5894424), wk =   0.1280000
        k(   34) = (   0.4104654   0.4104654   0.0000000), wk =   0.0320000
        k(   35) = (   0.4104654   0.4104654   0.2947212), wk =   0.0640000
        k(   36) = (   0.4104654   0.4104654   0.5894424), wk =   0.0640000

     Largest allocated arrays     est. size (Mb)     dimensions
     Largest temporary arrays     est. size (Mb)     dimensions

     Check: negative/imaginary core charge=   -0.000008    0.000000

     Initial potential from superposition of free atoms
     Check: negative starting charge=(component1):   -0.103298
     Check: negative starting charge=(component2):   -0.025512

     starting charge   53.99996, renormalised to   56.00000

     negative rho (up, down):  0.107E+00 0.265E-01
     Starting wfc are   42 randomized atomic wfcs

     Self-consistent Calculation

[...]

     total energy              =    -515.58297725 Ry
     Harris-Foulkes estimate   =    -515.58297723 Ry
     estimated scf accuracy    <       0.00000003 Ry

[...]

     iteration # 17     ecut=    40.00 Ry     beta=0.30
     Davidson diagonalization with overlap
     ethr =  4.72E-11,  avg # of iterations =  2.0

     negative rho (up, down):  0.718E-01 0.718E-01

     End of self-consistent calculation

 ------ SPIN UP ------------

[...]

 ------ SPIN DOWN ----------

[...]

          k = 0.4105 0.4105 0.5894 (  1749 PWs)   bands (ev):

   -59.8112 -59.8110 -30.0823 -30.0810 -29.8316 -29.8293 -29.6314 -29.6311
    -5.4766  -5.3590  -5.2232  -5.1087   6.2213   6.4197   6.4555   6.6392
     7.4335   7.7674   8.9198   8.9847   9.6407   9.8860  10.7989  11.0206
    12.8066  13.1199  13.1941  13.4384  13.8298  14.3832  16.4802  17.0127
    17.7593  18.2578  23.8310  24.1491  25.7444  26.7088  26.8375  27.6383
    28.4304  28.8506  31.3042  31.4772  33.0819  33.5656  35.4771  36.0311
    37.2049  37.6153  37.8633  38.9590  41.4463  41.5731  42.1459  42.6014
    43.5499  43.9048  45.2930  46.0845  46.3667  46.8741  47.1937  48.0200
    48.0825  48.1226  49.1576  49.4541  49.9795  50.9574  51.2427  51.9648
    52.2918  52.6473  52.7964  53.9325  54.1359  55.1936  55.3929  55.7239
    57.7468

     the Fermi energy is    13.7691 ev

!    total energy              =    -515.58297734 Ry
     Harris-Foulkes estimate   =    -515.58297732 Ry
     estimated scf accuracy    <          7.7E-09 Ry

     The total energy is the sum of the following terms:

     one-electron contribution =    -159.43071674 Ry
     hartree contribution      =     113.02550936 Ry
     xc contribution           =     -78.66217483 Ry
     ewald contribution        =    -390.51477576 Ry
     smearing contrib. (-TS)   =      -0.00081937 Ry

     total magnetization       =     0.00 Bohr mag/cell
     absolute magnetization    =     0.00 Bohr mag/cell

     convergence has been achieved in  17 iterations

     Forces acting on atoms (Ry/au):

     negative rho (up, down):  0.718E-01 0.718E-01
     atom    1 type  1   force =     0.00000000    0.00000000    0.00000000
     atom    2 type  1   force =     0.00000000    0.00000000   -0.00000000
     atom    3 type  2   force =     0.00016161    0.00016161    0.00000000
     atom    4 type  2   force =    -0.00016161   -0.00016161    0.00000000
     atom    5 type  2   force =     0.00016161   -0.00016161    0.00000000
     atom    6 type  2   force =    -0.00016161    0.00016161   -0.00000000

     Total force =     0.000457     Total SCF correction =     0.000001

     entering subroutine stress ...

     negative rho (up, down):  0.718E-01 0.718E-01
          total   stress  (Ry/bohr**3)                   (kbar)     P=  121.56
   0.00081960   0.00000000   0.00000000        120.57      0.00      0.00
   0.00000000   0.00081960   0.00000000          0.00    120.57      0.00
   0.00000000   0.00000000   0.00083980          0.00      0.00    123.54

     General routines

     Parallel routines

   This run was terminated on:  13:57:52  24Jan2014

   JOB DONE.
Running PBS batch system epilogue script
Job id: 251899.audhumbla.fysik.dtu.dk
Username: zhonxu
Groupname: campgst
Jobname: RuO2/fine-EOS/ferro/RuO2-v-0.95
Sessionid: 688
Queuename: verylong
Accounting:
This job has allocated the following 4 nodes:
q007 q007 q007 q007
Finished epilogue job 251899.audhumbla.fysik.dtu.dk for zhonxu