     Program PWSCF v.5.0.2 (svn rev. 9656) starts on 16Apr2014 at 15:15:13

     Current dimensions of program PWSCF are:
     Max number of different atomic species (ntypx) = 10
     Max number of k-points (npk) =  40000
     Max angular momentum in pseudopotentials (lmaxx) =  3
     Reading input from pwscf.in
Warning: card &CELL ignored
Warning: card / ignored

     Subspace diagonalization in iterative solution of the eigenvalue problem:
     a serial algorithm will be used

     bravais-lattice index     =            0
     lattice parameter (alat)  =      12.2076  a.u.
     unit-cell volume          =    7496.5096 (a.u.)^3
     number of atoms/cell      =           32
     number of atomic types    =            3
     number of electrons       =       247.00
     number of Kohn-Sham states=          370
     kinetic-energy cutoff     =      40.0000  Ry
     charge density cutoff     =     500.0000  Ry
     convergence threshold     =      1.0E-06
     mixing beta               =       0.3000
     number of iterations used =            8  plain     mixing
     Exchange-correlation      = SLA  PW   PBE  PBE ( 1 4 3 4 0)
     EXX-fraction              =        0.00
     nstep                     =           50

     celldm(1)=  12.207631  celldm(2)=   0.000000  celldm(3)=   0.000000
     celldm(4)=   0.000000  celldm(5)=   0.000000  celldm(6)=   0.000000

     crystal axes: (cart. coord. in units of alat)
               a(1) = (   1.000000   0.000000   0.000000 )
               a(2) = (   0.000000   1.004836   0.000000 )
               a(3) = (   0.000000   0.000000   4.100811 )

     reciprocal axes: (cart. coord. in units 2 pi/alat)
               b(1) = (  1.000000  0.000000  0.000000 )
               b(2) = (  0.000000  0.995187  0.000000 )
               b(3) = (  0.000000  0.000000  0.243854 )

     PseudoPot. # 1 for O  read from file:
     /home/camp/zhonxu/pseudo/o_pbe_v1.01.uspp.F.UPF
     MD5 check sum: 2bcb18d16ea4b960afae9ec6d52f22d2
     Pseudo is Ultrasoft + core correction, Zval =  6.0
     Generated by new atomic code, or converted to UPF format
     Using radial grid of  737 points,  5 beta functions with:
                l(1) =   0
                l(2) =   0
                l(3) =   1
                l(4) =   1
                l(5) =   2
     Q(r) pseudized with  8 coefficients,  rinner =    0.900   0.900   0.900
                                                       0.900   0.900

     PseudoPot. # 2 for Pt read from file:
     /home/camp/zhonxu/pseudo/pt_pbe_v1.uspp.F.UPF
     MD5 check sum: 4c71d6ad5ef119f1eb26a4d0b7884226
     Pseudo is Ultrasoft + core correction, Zval = 16.0
     Generated by new atomic code, or converted to UPF format
     Using radial grid of  985 points,  6 beta functions with:
                l(1) =   0
                l(2) =   0
                l(3) =   1
                l(4) =   1
                l(5) =   2
                l(6) =   2
     Q(r) pseudized with  8 coefficients,  rinner =    1.300   1.300   1.300
                                                       1.300   1.300

     PseudoPot. # 3 for H  read from file:
     /home/camp/zhonxu/pseudo/h_pbe_v1.uspp.F.UPF
     MD5 check sum: 3408e3ff4ec8b0a4e358431e7e038a48
     Pseudo is Ultrasoft, Zval =  1.0
     Generated by new atomic code, or converted to UPF format
     Using radial grid of  615 points,  2 beta functions with:
                l(1) =   0
                l(2) =   0
     Q(r) pseudized with  8 coefficients,  rinner =    0.700

     atomic species   valence    mass     pseudopotential
        O0             6.00    15.99940     O ( 1.00)
        Pt1           16.00   195.08000     Pt( 1.00)
        H2             1.00     1.00794     H ( 1.00)

     No symmetry found

   Cartesian axes

     site n.     atom                  positions (alat units)
         1           O0  tau(   1) = (   0.0000000   0.0000000   1.5461288  )
         2           O0  tau(   2) = (   0.0000000   0.5024180   1.6450404  )
         3           Pt1 tau(   3) = (   0.2500000   0.5024180   1.8487277  )
         4           Pt1 tau(   4) = (   0.0000000   0.0000000   1.8538947  )
         5           O0  tau(   5) = (   0.2500000   0.8139171   1.8175205  )
         6           O0  tau(   6) = (   0.2500000   0.1909188   1.8824774  )
         7           O0  tau(   7) = (   0.0000000   0.5024180   2.0365859  )
         8           O0  tau(   8) = (   0.0000000   0.0000000   2.1696162  )
         9           Pt1 tau(   9) = (   0.2500000   0.0000000   2.3604679  )
        10           Pt1 tau(  10) = (   0.0000000   0.5024180   2.3552599  )
        11           O0  tau(  11) = (   0.2500000   0.6933368   2.3616982  )
        12           O0  tau(  12) = (   0.2500000   0.3114991   2.3973342  )
        13           O0  tau(  13) = (   0.0000000   0.0000000   2.5469728  )
        14           O0  tau(  14) = (   0.5000000   0.0000000   1.5461288  )
        15           O0  tau(  15) = (   0.5000000   0.5024180   1.6429490  )
        16           Pt1 tau(  16) = (   0.7500000   0.5024180   1.8486047  )
        17           Pt1 tau(  17) = (   0.5000000   0.0000000   1.8536897  )
        18           O0  tau(  18) = (   0.7500000   0.8139171   1.8173975  )
        19           O0  tau(  19) = (   0.7500000   0.1909188   1.8823543  )
        20           O0  tau(  20) = (   0.5000000   0.5024180   2.0397435  )
        21           O0  tau(  21) = (   0.5000000   0.0000000   2.1687960  )
        22           Pt1 tau(  22) = (   0.7500000   0.0000000   2.3594837  )
        23           Pt1 tau(  23) = (   0.5000000   0.5024180   2.3635025  )
        24           O0  tau(  24) = (   0.7500000   0.6933368   2.3473863  )
        25           O0  tau(  25) = (   0.7500000   0.3114991   2.3874923  )
        26           O0  tau(  26) = (   0.5000000   0.0000000   2.5450864  )
        27           H2  tau(  27) = (   0.0001000   0.6436778   1.5816419  )
        28           H2  tau(  28) = (   0.5002500   0.6433563   1.5793864  )
        29           H2  tau(  29) = (   0.1428700   0.0357018   1.5045876  )
        30           H2  tau(  30) = (   0.6423500   0.0373698   1.5043416  )
        31           O0  tau(  31) = (   0.5157100   0.5233789   2.6645431  )
        32           H2  tau(  32) = (   0.3794900   0.4830648   2.7219954  )

     number of k points=    10  Methfessel-Paxton smearing, width (Ry)=  0.0100
                       cart. coord. in units 2pi/alat
        k(    1) = (   0.0000000   0.0000000   0.0000000), wk =   0.1250000
        k(    2) = (   0.0000000   0.2487968   0.0000000), wk =   0.2500000
        k(    3) = (   0.0000000  -0.4975937   0.0000000), wk =   0.1250000
        k(    4) = (   0.2500000   0.0000000   0.0000000), wk =   0.2500000
        k(    5) = (   0.2500000   0.2487968   0.0000000), wk =   0.2500000
        k(    6) = (   0.2500000  -0.4975937   0.0000000), wk =   0.2500000
        k(    7) = (  -0.5000000   0.0000000   0.0000000), wk =   0.1250000
        k(    8) = (  -0.5000000   0.2487968   0.0000000), wk =   0.2500000
        k(    9) = (  -0.5000000  -0.4975937   0.0000000), wk =   0.1250000
        k(   10) = (  -0.2500000   0.2487968   0.0000000), wk =   0.2500000

     Largest allocated arrays     est. size (Mb)     dimensions
     Largest temporary arrays     est. size (Mb)     dimensions

     Check: negative/imaginary core charge=   -0.000003    0.000000

     Initial potential from superposition of free atoms
     Check: negative starting charge=   -1.537258

     starting charge  242.99984, renormalised to  247.00000

     negative rho (up, down):  0.156E+01 0.000E+00
     Starting wfc are  177 randomized atomic wfcs

     Self-consistent Calculation

     iteration #  1     ecut=    40.00 Ry     beta=0.30
     Davidson diagonalization with overlap
     ethr =  1.00E-02,  avg # of iterations =  5.2

     negative rho (up, down):  0.154E+01 0.000E+00

     total energy              =   -2275.66838281 Ry
     Harris-Foulkes estimate   =   -2288.23345922 Ry
     estimated scf accuracy    <      26.90633196 Ry

[...]

     End of self-consistent calculation

          k = 0.0000 0.0000 0.0000 ( 32157 PWs)   bands (ev):

   -55.8508 -55.7958 -55.7477 -55.7383 -55.7374 -55.6956 -55.6823 -55.6780
   -55.6239 -55.5403 -55.5274 -55.4662 -55.4622 -55.4537 -55.4503 -55.4432
   -55.3996 -55.3912 -55.3782 -55.3714 -55.3688 -55.0765 -54.8251 -54.5621
   -21.9913 -21.6068 -21.2190 -21.0426 -20.3924 -20.3778 -20.2928 -20.2457
   -20.1518 -20.1098 -20.0444 -20.0288 -19.9391 -19.7648 -19.7140 -19.6727
   -19.6000 -18.8643 -18.7183 -10.3981 -10.3305 -10.0323  -9.3715  -9.1435
    -9.0581  -8.9740  -8.9450  -8.8802  -8.8408  -8.7854  -8.7601  -8.7019
    -8.6591  -8.5098  -8.3549  -8.2160  -8.1651  -8.0896  -7.6871  -7.5955
    -7.5464  -7.3759  -7.3686  -6.9316  -6.7986  -6.7154  -6.6267  -6.2919
    -6.0616  -5.9255  -5.8669  -5.7584  -5.7325  -5.7053  -5.6644  -5.4831
    -5.4392  -5.3915  -5.1792  -5.1497  -5.0583  -5.0016  -4.9602  -4.8605
    -4.7767  -4.7074  -4.6886  -4.6453  -4.6340  -4.6152  -4.5651  -4.5160
    -4.4021  -4.3894  -4.2592  -4.2244  -4.2111  -4.0966  -3.9787  -3.9068
    -3.8911  -3.7813  -3.5269  -3.5049  -3.3314  -3.1522  -2.8567  -2.7584
    -2.7261  -2.6473  -2.5739  -2.3713  -2.1679  -2.0823  -1.9405  -1.8224
    -1.7521  -1.5741  -1.4914  -1.2085  -1.1572  -0.8454  -0.3747  -0.3684
    -0.3393  -0.1556   0.0377   0.2769   0.6382   0.9744   1.0868   1.4608
     1.4824   1.6885   1.9978   2.1083   2.4867   3.3958   4.1978   4.6313
     4.7179   5.5510   5.6143   5.8652   5.8961   6.5127   6.5940   6.6183
     6.7644   6.9429   7.0096   7.0156   7.1927   7.3646   7.4620   7.5445
     7.6767   7.7614   7.7737   7.7954   7.8753   7.8912   7.9681   8.0426
     8.0979   8.1792   8.2480   8.3663   8.4073   8.4772   8.5654   8.6963
     8.8162   8.9120   9.0081   9.1103   9.1586   9.2198   9.4678   9.5102
     9.6349   9.6734   9.8436   9.9249   9.9887  10.0211  10.2055  10.3071
    10.4187  10.5101  10.6467  10.7035  10.7702  10.8431  10.8706  10.9350
    10.9633  11.0228  11.1986  11.2772  11.3905  11.4294  11.4964  11.5190
    11.6124  11.6443  11.7572  11.7757  11.8612  11.9600  11.9967  12.0544
    12.1463  12.1849  12.2023  12.2391  12.3262  12.4198  12.5193  12.5517
    12.5944  12.7128  12.7789  12.9557  13.0028  13.1172  13.2631  13.3360
    13.3862  13.4827  13.5712  13.6666  13.7278  13.7617  13.7896  14.0199
    14.0467  14.1969  14.2365  14.2773  14.5038  14.5111  14.6005  14.6360
    14.6840  14.7711  14.8575  14.9222  15.1138  15.1837  15.3216  15.4113
    15.4510  15.5354  15.5632  15.6447  15.6598  15.8217  15.8791  15.8964
    15.9852  16.1132  16.1912  16.3343  16.3514  16.4023  16.4576  16.5240
    16.5731  16.5796  16.6190  16.6346  16.6569  16.6894  16.7446  16.8312
    16.8918  16.9216  16.9996  17.1472  17.2571  17.2787  17.3443  17.4214
    17.4855  17.5557  17.6430  17.7254  17.8530  17.9377  17.9874  18.0065
    18.0788  18.1617  18.2358  18.3023  18.3626  18.4707  18.5248  18.6093
    18.6251  18.6715  18.6866  18.7289  18.7506  18.8527  18.8856  18.9608
[...]
     atom   19 type  1   force =    -0.00017377   -0.00230176    0.00052191
     atom   20 type  1   force =    -0.00215729    0.00214956   -0.00114541
     atom   21 type  1   force =    -0.00535671   -0.00187683    0.00125708
     atom   22 type  2   force =    -0.00170421    0.00493049    0.00141120
     atom   23 type  2   force =     0.00114214   -0.00324255    0.00295734
     atom   24 type  1   force =     0.00301526    0.00669502   -0.00401250
     atom   25 type  1   force =     0.00994750    0.00195785    0.00099719
     atom   26 type  1   force =     0.00034007   -0.00301776    0.00085156
     atom   27 type  3   force =     0.00004020   -0.00161392   -0.00010724
     atom   28 type  3   force =    -0.00002217   -0.00047764   -0.00045212
     atom   29 type  3   force =     0.00004423   -0.00032647    0.00040022
     atom   30 type  3   force =     0.00004877   -0.00038260    0.00043283
     atom   31 type  1   force =    -0.00620257    0.00215868    0.00852450
     atom   32 type  3   force =     0.00803865   -0.00219953   -0.00690411

     Total force =     0.017808     Total SCF correction =     0.001066

     BFGS Geometry Optimization

     number of scf cycles    =   1
     number of bfgs steps    =   0

     energy   new            =   -2282.1886551171 Ry

     new trust radius        =       0.0108224075 bohr
     new conv_thr            =       0.0000010000 Ry

ATOMIC_POSITIONS (crystal)
O0       0.000000000   0.000000000   0.377050264    0   0   1
O0       0.000000000   0.500000000   0.401173510    0   0   1
Pt1      0.250000000   0.500000000   0.450786012    0   0   1
Pt1      0.000000000   0.000000000   0.452096328    0   0   1
O0       0.250000000   0.810000000   0.443210607    0   0   1
O0       0.250000000   0.190000000   0.459057723    0   0   1
O0       0.000000000   0.500000000   0.496546629    0   0   1
O0       0.000000000   0.000000000   0.529089832    0   0   1
Pt1      0.250000000   0.000000000   0.575602101    0   0   1
Pt1      0.000000000   0.500000000   0.574397882    0   0   1
O0       0.250000000   0.690000000   0.575849514    0   0   1
O0       0.250000000   0.310000000   0.584602374    0   0   1
O0       0.000000000   0.000000000   0.621044012    0   0   1
O0       0.500000000   0.000000000   0.377036818    0   0   1
O0       0.500000000   0.500000000   0.400629808    0   0   1
Pt1      0.750000000   0.500000000   0.450773380    0   0   1
Pt1      0.500000000   0.000000000   0.452038867    0   0   1
O0       0.750000000   0.810000000   0.443179807    0   0   1
O0       0.750000000   0.190000000   0.459030425    0   0   1
O0       0.500000000   0.500000000   0.497377120    0   0   1
O0       0.500000000   0.000000000   0.528895111    0   0   1
Pt1      0.750000000   0.000000000   0.575398189    0   0   1
Pt1      0.500000000   0.500000000   0.576409075    0   0   1
O0       0.750000000   0.690000000   0.572339848    0   0   1
O0       0.750000000   0.310000000   0.582219919    0   0   1
O0       0.500000000   0.000000000   0.620647010    0   0   1
H2       0.000103293   0.640448431   0.385687858
H2       0.500248184   0.640221062   0.385130969
H2       0.142873623   0.035503386   0.366907995
H2       0.642353995   0.037158810   0.366848646
O0       0.515201910   0.521035979   0.649930282
H2       0.380148493   0.480560690   0.663632087

     Check: negative starting charge=   -1.537258
     NEW-OLD atomic charge density approx. for the potential

     Check: negative/imaginary core charge=   -0.000003    0.000000
     Check: negative starting charge=   -1.537172

[...]

     energy   old            =   -2282.1886551171 Ry
     energy   new            =   -2282.1888039542 Ry

     CASE: energy  _new < energy  _old

[...]

     Threshold (ethr) on eigenvalues was too large:
     Diagonalizing with lowered threshold

     Davidson diagonalization with overlap
     ethr =  9.84E-08,  avg # of iterations =  1.0

[...]

     Total force =     0.013463     Total SCF correction =     0.001378
     SCF correction compared to forces is large: reduce conv_thr to get better values

[...]

     Total force =     0.003243     Total SCF correction =     0.000378
     SCF correction compared to forces is large: reduce conv_thr to get better values

[...]

     number of scf cycles    =  49
     number of bfgs steps    =  48

     energy   old            =   -2282.1982741146 Ry
     energy   new            =   -2282.1982972983 Ry

     CASE: energy  _new < energy  _old

     new trust radius        =       0.0259576270 bohr
     new conv_thr            =       0.0000000100 Ry

ATOMIC_POSITIONS (crystal)
O0       0.000000000   0.000000000   0.377727575    0   0   1
O0       0.000000000   0.500000000   0.401255704    0   0   1
Pt1      0.250000000   0.500000000   0.450934459    0   0   1
Pt1      0.000000000   0.000000000   0.452642987    0   0   1
O0       0.250000000   0.810000000   0.443446344    0   0   1
O0       0.250000000   0.190000000   0.459673168    0   0   1
O0       0.000000000   0.500000000   0.496589537    0   0   1
O0       0.000000000   0.000000000   0.529416077    0   0   1
Pt1      0.250000000   0.000000000   0.575811756    0   0   1
Pt1      0.000000000   0.500000000   0.574740271    0   0   1
O0       0.250000000   0.690000000   0.569445077    0   0   1
O0       0.250000000   0.310000000   0.584639244    0   0   1
O0       0.000000000   0.000000000   0.621150552    0   0   1
O0       0.500000000   0.000000000   0.377694402    0   0   1
O0       0.500000000   0.500000000   0.400726886    0   0   1
Pt1      0.750000000   0.500000000   0.450914469    0   0   1
Pt1      0.500000000   0.000000000   0.452624767    0   0   1
O0       0.750000000   0.810000000   0.443378239    0   0   1
O0       0.750000000   0.190000000   0.459672006    0   0   1
O0       0.500000000   0.500000000   0.497373809    0   0   1
O0       0.500000000   0.000000000   0.529456346    0   0   1
Pt1      0.750000000   0.000000000   0.575788706    0   0   1
Pt1      0.500000000   0.500000000   0.576302967    0   0   1
O0       0.750000000   0.690000000   0.569205491    0   0   1
O0       0.750000000   0.310000000   0.584319084    0   0   1
O0       0.500000000   0.000000000   0.621253665    0   0   1
H2       0.000099687   0.640147360   0.385664610
H2       0.499960729   0.640122968   0.385191804
H2       0.143257639   0.034030578   0.367660501
H2       0.643229479   0.034675988   0.367699285
O0       0.500444010   0.524990780   0.649821538
H2       0.489579587   0.382019818   0.662398675

     Check: negative starting charge=   -1.535438
     NEW-OLD atomic charge density approx. for the potential

     Check: negative/imaginary core charge=   -0.000003    0.000000
     Check: negative starting charge=   -1.535487

[...]

     Self-consistent Calculation

[...]

     Threshold (ethr) on eigenvalues was too large:
     Diagonalizing with lowered threshold

     Davidson diagonalization with overlap
     ethr =  1.44E-08,  avg # of iterations =  2.0

[...]

     total energy              =   -2282.19831623 Ry
     Harris-Foulkes estimate   =   -2282.19831623 Ry
     estimated scf accuracy    <       0.00000004 Ry

     iteration # 10     ecut=    40.00 Ry     beta=0.30
     Davidson diagonalization with overlap
     ethr =  1.78E-11,  avg # of iterations =  1.2

     negative rho (up, down):  0.158E+01 0.000E+00

     End of self-consistent calculation

[...]

          k = 0.2500-0.4976 0.0000 ( 32026 PWs)   bands (ev):

[...]

          k =-0.2500 0.2488 0.0000 ( 32025 PWs)   bands (ev):

   -55.8539 -55.8149 -55.7419 -55.7399 -55.7377 -55.7023 -55.6895 -55.6514
   -55.6494 -55.5480 -55.5442 -55.4795 -55.4743 -55.4646 -55.4588 -55.4290
   -55.3983 -55.3935 -55.3921 -55.3890 -55.3204 -55.0629 -54.8237 -54.5614
   -21.9131 -21.6371 -21.0515 -20.8389 -20.5393 -20.4053 -20.3609 -20.2520
   -20.2033 -20.0951 -20.0623 -20.0093 -19.9416 -19.8490 -19.8209 -19.7849
   -19.6474 -18.9330 -18.8134  -9.9971  -9.7468  -9.6571  -9.5623  -9.1773
    -9.1497  -9.0463  -8.8938  -8.8361  -8.8193  -8.6482  -8.6031  -8.5282
    -8.4070  -8.3878  -8.3183  -8.1831  -8.0258  -7.8535  -7.6772  -7.5768
    -7.4916  -7.4206  -7.1789  -6.9641  -6.7598  -6.7233  -6.6298  -6.5429
    -6.5258  -6.4569  -6.3806  -6.2866  -6.1963  -6.1571  -6.1310  -5.9281
    -5.8612  -5.7783  -5.6425  -5.5366  -5.4188  -5.3159  -5.2744  -5.0043
    -4.9630  -4.8534  -4.7787  -4.6958  -4.5629  -4.5410  -4.3669  -4.2060
    -4.1392  -3.9907  -3.8836  -3.8006  -3.7440  -3.7307  -3.5608  -3.5091
    -3.4775  -3.4098  -3.3369  -3.2522  -3.2243  -3.1887  -3.1218  -2.9167
    -2.7966  -2.5304  -2.3745  -2.2748  -2.1503  -2.0688  -2.0089  -1.9265
    -1.8669  -1.6896  -1.5180  -1.4713  -1.3605  -0.9150  -0.6999  -0.4863
    -0.1448   0.0462   0.3936   0.6125   0.8472   0.9703   1.1033   1.1547
     1.3968   1.5177   1.5596   1.9439   3.2411   3.9393   4.6611   5.0764
     5.1402   5.2202   5.3023   5.5667   6.0471   6.2032   6.2712   6.3500
     6.5063   6.5960   6.6900   6.7788   6.9021   6.9748   7.1462   7.2313
     7.3929   7.4944   7.5491   7.6733   7.7334   7.8480   7.9622   8.0501
     8.2131   8.3188   8.3522   8.4292   8.4934   8.6004   8.6977   8.7604
     8.8851   8.9750   9.0447   9.1957   9.3426   9.4419   9.5719   9.6387
     9.7401   9.8091   9.9482  10.0743  10.1528  10.2060  10.2711  10.3626
    10.5237  10.5679  10.6230  10.7003  10.7680  10.9450  10.9914  11.0940
    11.1767  11.2228  11.3566  11.4293  11.5052  11.6374  11.7171  11.8078
    11.8843  11.9029  12.0007  12.0350  12.0854  12.2339  12.2852  12.3381
    12.3955  12.4319  12.5230  12.5484  12.6374  12.7074  12.7914  12.8812
    12.9280  13.0123  13.0846  13.1818  13.2138  13.4313  13.5034  13.5536
    13.5959  13.6840  13.7333  13.7991  13.9233  13.9588  14.0503  14.0745
    14.1397  14.2641  14.3706  14.4448  14.5272  14.6066  14.7036  14.8261
    14.8840  14.9867  15.0583  15.1317  15.1940  15.2987  15.3266  15.4016
    15.4541  15.5047  15.5570  15.6292  15.6818  15.7277  15.7687  15.8382
    15.9081  15.9771  16.0111  16.0596  16.1308  16.2043  16.2861  16.3327
    16.3645  16.3912  16.4461  16.5257  16.5839  16.5913  16.6075  16.6196
    16.6247  16.6512  16.7382  16.7986  16.8223  16.9289  16.9782  17.0343
    17.0918  17.1424  17.2074  17.2297  17.2915  17.3047  17.3752  17.4429
    17.4857  17.5369  17.5730  17.6149  17.6471  17.7459  17.8937  17.9368
    18.0132  18.0631  18.1264  18.1761  18.2430  18.3280  18.4637  18.4692
    18.5790  18.6057  18.6443  18.7077  18.7817  18.8340  18.8740  18.9635
    19.0156  19.1125  19.1729  19.2109  19.2802  19.3399  19.4419  19.5266
    19.6583  19.6849  19.8229  19.8590  19.9374  19.9886  20.0317  20.0632
    20.0998  20.1536  20.2617  20.3232  20.3458  20.3961  20.4700  20.5592
    20.6433  20.6621  20.7280  20.8119  20.8859  20.9689  21.0007  21.0441
    21.0841  21.2018  21.2718  21.3116  21.3480  21.3766  21.4682  21.5096
    21.5710  21.6376  21.6970  21.7606  21.7854  21.9019  22.0055  22.0687
    22.1195  22.1795

     the Fermi energy is    -1.4569 ev

!    total energy              =   -2282.19831623 Ry
     Harris-Foulkes estimate   =   -2282.19831623 Ry
     estimated scf accuracy    <          7.5E-09 Ry

     The total energy is the sum of the following terms:

     one-electron contribution =  -23697.54086833 Ry
     hartree contribution      =   11891.17388859 Ry
     xc contribution           =    -572.97385043 Ry
     ewald contribution        =   10097.14251378 Ry
     smearing contrib. (-TS)   =       0.00000016 Ry

     convergence has been achieved in  10 iterations

     Forces acting on atoms (Ry/au):

     negative rho (up, down):  0.158E+01 0.000E+00
     atom    1 type  1   force =    -0.00852153   -0.00462287   -0.00119540
     atom    2 type  1   force =     0.00042463    0.00406398    0.00047197
     atom    3 type  2   force =     0.00884049    0.00797726    0.00002415
     atom    4 type  2   force =     0.01066955    0.00325802   -0.00024635
     atom    5 type  1   force =     0.00109414   -0.00459991    0.00000355
     atom    6 type  1   force =     0.00006365   -0.00158798    0.00006363
     atom    7 type  1   force =     0.00031733   -0.00138639    0.00001533
     atom    8 type  1   force =    -0.00404708   -0.00162982    0.00088421
     atom    9 type  2   force =     0.00323880    0.00318464   -0.00033574
     atom   10 type  2   force =    -0.00061181   -0.01849048   -0.00025408
     atom   11 type  1   force =     0.00061282    0.00169440    0.00027549
     atom   12 type  1   force =    -0.01170911    0.00485789    0.00102383
     atom   13 type  1   force =    -0.00127357   -0.00553649   -0.00082461
     atom   14 type  1   force =    -0.00801625   -0.00421690   -0.00022890
     atom   15 type  1   force =     0.00008323    0.00237191   -0.00020578
     atom   16 type  2   force =    -0.00993171    0.00822159    0.00044891
     atom   17 type  2   force =     0.01034308    0.00444509   -0.00011153
     atom   18 type  1   force =     0.00117765   -0.00468080    0.00033502
     atom   19 type  1   force =    -0.00018926   -0.00155896   -0.00004931
     atom   20 type  1   force =     0.00002930   -0.00132039    0.00065869
     atom   21 type  1   force =    -0.00408039    0.00069101   -0.00011419
     atom   22 type  2   force =     0.00087993    0.00358203   -0.00005603
     atom   23 type  2   force =     0.00016846   -0.00123172    0.00018200
     atom   24 type  1   force =    -0.00047419    0.00269784    0.00047882
     atom   25 type  1   force =     0.01160478    0.00539642    0.00102572
     atom   26 type  1   force =    -0.00111915   -0.00261148   -0.00096250
     atom   27 type  3   force =    -0.00004972   -0.00029224   -0.00004947
     atom   28 type  3   force =     0.00009150    0.00014337   -0.00008083
     atom   29 type  3   force =     0.00038097    0.00013249   -0.00039498
     atom   30 type  3   force =    -0.00006885   -0.00002576   -0.00051593
     atom   31 type  1   force =    -0.00055303   -0.00027637    0.00028251
     atom   32 type  3   force =     0.00062532    0.00135065   -0.00054822

     Total force =     0.003360     Total SCF correction =     0.000182

     The maximum number of steps has been reached.

     End of BFGS Geometry Optimization
Begin final coordinates

ATOMIC_POSITIONS (crystal)
O0       0.000000000   0.000000000   0.377727575    0   0   1
O0       0.000000000   0.500000000   0.401255704    0   0   1
Pt1      0.250000000   0.500000000   0.450934459    0   0   1
Pt1      0.000000000   0.000000000   0.452642987    0   0   1
O0       0.250000000   0.810000000   0.443446344    0   0   1
O0       0.250000000   0.190000000   0.459673168    0   0   1
O0       0.000000000   0.500000000   0.496589537    0   0   1
O0       0.000000000   0.000000000   0.529416077    0   0   1
Pt1      0.250000000   0.000000000   0.575811756    0   0   1
Pt1      0.000000000   0.500000000   0.574740271    0   0   1
O0       0.250000000   0.690000000   0.569445077    0   0   1
O0       0.250000000   0.310000000   0.584639244    0   0   1
O0       0.000000000   0.000000000   0.621150552    0   0   1
O0       0.500000000   0.000000000   0.377694402    0   0   1
O0       0.500000000   0.500000000   0.400726886    0   0   1
Pt1      0.750000000   0.500000000   0.450914469    0   0   1
Pt1      0.500000000   0.000000000   0.452624767    0   0   1
O0       0.750000000   0.810000000   0.443378239    0   0   1
O0       0.750000000   0.190000000   0.459672006    0   0   1
O0       0.500000000   0.500000000   0.497373809    0   0   1
O0       0.500000000   0.000000000   0.529456346    0   0   1
Pt1      0.750000000   0.000000000   0.575788706    0   0   1
Pt1      0.500000000   0.500000000   0.576302967    0   0   1
O0       0.750000000   0.690000000   0.569205491    0   0   1
O0       0.750000000   0.310000000   0.584319084    0   0   1
O0       0.500000000   0.000000000   0.621253665    0   0   1
H2       0.000099687   0.640147360   0.385664610
H2       0.499960729   0.640122968   0.385191804
H2       0.143257639   0.034030578   0.367660501
H2       0.643229479   0.034675988   0.367699285
O0       0.500444010   0.524990780   0.649821538
H2       0.489579587   0.382019818   0.662398675
End final coordinates

     General routines

     Parallel routines

   This run was terminated on:   6: 4:21  18Apr2014

   JOB DONE.
Running PBS batch system epilogue script
Job id: 335000.audhumbla.fysik.dtu.dk
Username: zhonxu
Groupname: campgst
Jobname: PtO2/Eads-2-layers/OH-relax-surf
Sessionid: 7654
Queuename: verylong
Accounting:
This job has allocated the following 16 nodes:
a092 a092 a092 a092 a092 a092 a092 a092 a087 a087 a087 a087 a087 a087 a087 a087
Finished epilogue job 335000.audhumbla.fysik.dtu.dk for zhonxu