     Program PWSCF v.5.0.2 (svn rev. 9656) starts on 21Apr2014 at 23:17:49

     Current dimensions of program PWSCF are:
     Max number of different atomic species (ntypx) = 10
     Max number of k-points (npk) =  40000
     Max angular momentum in pseudopotentials (lmaxx) =  3
     Reading input from pwscf.in
Warning: card &CELL ignored
Warning: card / ignored

     Subspace diagonalization in iterative solution of the eigenvalue problem:
     a serial algorithm will be used

     bravais-lattice index     =            0
     lattice parameter (alat)  =      12.2076  a.u.
     unit-cell volume          =    7496.5096 (a.u.)^3
     number of atoms/cell      =           32
     number of atomic types    =            3
     number of electrons       =       247.00
     number of Kohn-Sham states=          370
     kinetic-energy cutoff     =      40.0000  Ry
     charge density cutoff     =     500.0000  Ry
     convergence threshold     =      1.0E-06
     mixing beta               =       0.3000
     number of iterations used =            8  plain     mixing
     Exchange-correlation      = SLA  PW   PBE  PBE ( 1 4 3 4 0)
     EXX-fraction              =        0.00
     nstep                     =           50

     celldm(1)=  12.207631  celldm(2)=   0.000000  celldm(3)=   0.000000
     celldm(4)=   0.000000  celldm(5)=   0.000000  celldm(6)=   0.000000

     crystal axes: (cart. coord. in units of alat)
               a(1) = (   1.000000   0.000000   0.000000 )
               a(2) = (   0.000000   1.004836   0.000000 )
               a(3) = (   0.000000   0.000000   4.100811 )

     reciprocal axes: (cart. coord. in units 2 pi/alat)
               b(1) = (  1.000000  0.000000  0.000000 )
               b(2) = (  0.000000  0.995187  0.000000 )
               b(3) = (  0.000000  0.000000  0.243854 )

     PseudoPot. # 1 for O  read from file:
     /home/camp/zhonxu/pseudo/o_pbe_v1.01.uspp.F.UPF
     MD5 check sum: 2bcb18d16ea4b960afae9ec6d52f22d2
     Pseudo is Ultrasoft + core correction, Zval =  6.0
     Generated by new atomic code, or converted to UPF format
     Using radial grid of  737 points,  5 beta functions with:
                l(1) =   0
                l(2) =   0
                l(3) =   1
                l(4) =   1
                l(5) =   2
     Q(r) pseudized with  8 coefficients,  rinner =    0.900   0.900   0.900
                                                       0.900   0.900

     PseudoPot. # 2 for Pt read from file:
     /home/camp/zhonxu/pseudo/pt_pbe_v1.uspp.F.UPF
     MD5 check sum: 4c71d6ad5ef119f1eb26a4d0b7884226
     Pseudo is Ultrasoft + core correction, Zval = 16.0
     Generated by new atomic code, or converted to UPF format
     Using radial grid of  985 points,  6 beta functions with:
                l(1) =   0
                l(2) =   0
                l(3) =   1
                l(4) =   1
                l(5) =   2
                l(6) =   2
     Q(r) pseudized with  8 coefficients,  rinner =    1.300   1.300   1.300
                                                       1.300   1.300

     PseudoPot. # 3 for H  read from file:
     /home/camp/zhonxu/pseudo/h_pbe_v1.uspp.F.UPF
     MD5 check sum: 3408e3ff4ec8b0a4e358431e7e038a48
     Pseudo is Ultrasoft, Zval =  1.0
     Generated by new atomic code, or converted to UPF format
     Using radial grid of  615 points,  2 beta functions with:
                l(1) =   0
                l(2) =   0
     Q(r) pseudized with  8 coefficients,  rinner =    0.700

     atomic species   valence    mass     pseudopotential
        O0             6.00    15.99940     O ( 1.00)
        Pt1           16.00   195.08000     Pt( 1.00)
        H2             1.00     1.00794     H ( 1.00)

     No symmetry found

   Cartesian axes

     site n.     atom                  positions (alat units)
         1           O0  tau(   1) = (   0.0000000   0.0000000   1.5489994  )
         2           O0  tau(   2) = (   0.0000000   0.5024180   1.6454915  )
         3           Pt1 tau(   3) = (   0.2500000   0.5024180   1.8491788  )
         4           Pt1 tau(   4) = (   0.0000000   0.0000000   1.8561912  )
         5           O0  tau(   5) = (   0.2500000   0.8139171   1.8185047  )
         6           O0  tau(   6) = (   0.2500000   0.1909188   1.8850199  )
         7           O0  tau(   7) = (   0.0000000   0.5024180   2.0364218  )
         8           O0  tau(   8) = (   0.0000000   0.0000000   2.1710515  )
         9           Pt1 tau(   9) = (   0.2500000   0.0000000   2.3612881  )
        10           Pt1 tau(  10) = (   0.0000000   0.5024180   2.3569002  )
        11           O0  tau(  11) = (   0.2500000   0.6933368   2.3352069  )
        12           O0  tau(  12) = (   0.2500000   0.3114991   2.3974983  )
        13           O0  tau(  13) = (   0.0000000   0.0000000   2.5472189  )
        14           O0  tau(  14) = (   0.5000000   0.0000000   1.5488354  )
        15           O0  tau(  15) = (   0.5000000   0.5024180   1.6433181  )
        16           Pt1 tau(  16) = (   0.7500000   0.5024180   1.8490968  )
        17           Pt1 tau(  17) = (   0.5000000   0.0000000   1.8561092  )
        18           O0  tau(  18) = (   0.7500000   0.8139171   1.8182177  )
        19           O0  tau(  19) = (   0.7500000   0.1909188   1.8850199  )
        20           O0  tau(  20) = (   0.5000000   0.5024180   2.0396205  )
        21           O0  tau(  21) = (   0.5000000   0.0000000   2.1712155  )
        22           Pt1 tau(  22) = (   0.7500000   0.0000000   2.3612061  )
        23           Pt1 tau(  23) = (   0.5000000   0.5024180   2.3632975  )
        24           O0  tau(  24) = (   0.7500000   0.6933368   2.3342227  )
        25           O0  tau(  25) = (   0.7500000   0.3114991   2.3961860  )
        26           O0  tau(  26) = (   0.5000000   0.0000000   2.5476289  )
        27           H2  tau(  27) = (   0.0001000   0.6432457   1.5815188  )
        28           H2  tau(  28) = (   0.4999600   0.6432156   1.5795915  )
        29           H2  tau(  29) = (   0.1432600   0.0341946   1.5077042  )
        30           H2  tau(  30) = (   0.6432300   0.0348477   1.5078683  )
        31           O0  tau(  31) = (   0.5004400   0.5275288   2.6647891  )
        32           H2  tau(  32) = (   0.4895800   0.3838674   2.7163773  )

     number of k points=    10  Methfessel-Paxton smearing, width (Ry)=  0.0100
                       cart. coord. in units 2pi/alat
        k(    1) = (   0.0000000   0.0000000   0.0000000), wk =   0.1250000
        k(    2) = (   0.0000000   0.2487968   0.0000000), wk =   0.2500000
        k(    3) = (   0.0000000  -0.4975937   0.0000000), wk =   0.1250000
        k(    4) = (   0.2500000   0.0000000   0.0000000), wk =   0.2500000
        k(    5) = (   0.2500000   0.2487968   0.0000000), wk =   0.2500000
        k(    6) = (   0.2500000  -0.4975937   0.0000000), wk =   0.2500000
        k(    7) = (  -0.5000000   0.0000000   0.0000000), wk =   0.1250000
        k(    8) = (  -0.5000000   0.2487968   0.0000000), wk =   0.2500000
        k(    9) = (  -0.5000000  -0.4975937   0.0000000), wk =   0.1250000
        k(   10) = (  -0.2500000   0.2487968   0.0000000), wk =   0.2500000

     Largest allocated arrays     est. size (Mb)     dimensions
     Largest temporary arrays     est. size (Mb)     dimensions

     Check: negative/imaginary core charge=   -0.000003    0.000000

     Initial potential from superposition of free atoms
     Check: negative starting charge=   -1.535463

     starting charge  242.99984, renormalised to  247.00000

     negative rho (up, down):  0.156E+01 0.000E+00
     Starting wfc are  177 randomized atomic wfcs

     Self-consistent Calculation

     iteration #  1     ecut=    40.00 Ry     beta=0.30
     Davidson diagonalization with overlap
     ethr =  1.00E-02,  avg # of iterations =  5.1

     negative rho (up, down):  0.154E+01 0.000E+00

     total energy              =   -2275.57307900 Ry
     Harris-Foulkes estimate   =   -2288.24988161 Ry
     estimated scf accuracy    <      27.13728008 Ry

[...]

     End of self-consistent calculation

          k = 0.0000 0.0000 0.0000 ( 32157 PWs)   bands (ev):

   -55.8617 -55.8066 -55.7471 -55.7420 -55.7368 -55.6963 -55.6940 -55.6493
   -55.6425 -55.5486 -55.5430 -55.4793 -55.4728 -55.4651 -55.4577 -55.4282
   -55.3997 -55.3916 -55.3908 -55.3879 -55.3195 -55.0622 -54.8236 -54.5612
   -21.9935 -21.6156 -21.2208 -21.0273 -20.4090 -20.4027 -20.2513 -20.2458
   -20.1657 -20.1536 -20.0565 -20.0102 -19.9484 -19.8029 -19.7255 -19.7226
   -19.5580 -18.9068 -18.7592 -10.4055 -10.2572 -10.0303  -9.3791  -9.1887
    -9.0753  -9.0015  -8.9559  -8.8717  -8.8411  -8.7785  -8.7262  -8.6559
    -8.6070  -8.5167  -8.3555  -8.2677  -8.1895  -8.0264  -7.7089  -7.5978
    -7.5548  -7.3997  -7.2569  -6.9352  -6.8617  -6.7230  -6.6437  -6.3124
    -6.1042  -5.9629  -5.8682  -5.7594  -5.7408  -5.6912  -5.6212  -5.5318
    -5.4019  -5.3004  -5.2322  -5.1855  -5.0512  -5.0190  -4.9578  -4.8373
    -4.8069  -4.7140  -4.6905  -4.6769  -4.6499  -4.5847  -4.5549  -4.4434
    -4.4005  -4.2940  -4.2726  -4.2425  -4.2326  -4.0749  -3.9963  -3.9703
    -3.9522  -3.7849  -3.6291  -3.5630  -3.3182  -3.1184  -2.9218  -2.7688
    -2.7638  -2.6467  -2.4500  -2.2909  -2.2706  -2.0750  -2.0182  -1.8890
    -1.8296  -1.6279  -1.5301  -1.2548  -1.2241  -0.8197  -0.3948  -0.3627
    -0.3466  -0.1599   0.0573   0.2797   0.6311   0.9891   1.0813   1.4350
     1.4651   1.6693   1.9839   2.1215   2.4856   3.4128   4.2155   4.6782
     4.7313   5.5318   5.6249   5.8504   5.8837   6.2279   6.6022   6.6990
     6.9081   6.9881   7.0175   7.0367   7.1776   7.3340   7.5096   7.6025
     7.6584   7.6930   7.7721   7.7844   7.8492   7.9147   7.9442   8.0437
     8.1214   8.1841   8.2383   8.3711   8.4785   8.5151   8.5310   8.7298
     8.7552   8.9553   9.0127   9.1275   9.1638   9.2132   9.4324   9.5385
     9.5740   9.6600   9.8361   9.9013   9.9811  10.0228  10.2033  10.3035
    10.3134  10.5530  10.5697  10.7467  10.8135  10.8228  10.9152  10.9512
    10.9793  10.9951  11.2518  11.2761  11.3345  11.4303  11.4737  11.5252
    11.5921  11.6476  11.7568  11.8418  11.8864  11.9171  12.0235  12.0626
    12.1380  12.1997  12.2241  12.2437  12.3369  12.4531  12.5205  12.5978
    12.6659  12.7311  12.7550  12.8717  13.0463  13.2318  13.2459  13.3245
    13.3903  13.5611  13.6099  13.6825  13.7172  13.7272  13.9186  14.0267
    14.0767  14.1341  14.2723  14.3075  14.4007  14.5592  14.6083  14.6241
    14.6843  14.7996  14.9165  14.9727  15.0265  15.2352  15.3497  15.3600
    15.4214  15.5164  15.6163  15.6796  15.7047  15.7934  15.8709  15.9357
    15.9837  16.0478  16.1420  16.3071  16.3497  16.4423  16.4686  16.4996
    16.5701  16.5818  16.6117  16.6246  16.6501  16.6916  16.7837  16.8030
    16.8805  16.8931  17.0660  17.1682  17.1860  17.2828  17.3340  17.3473
    17.4207  17.6024  17.6503  17.7720  17.8610  17.8870  17.9466  18.0325
    18.1567  18.1991  18.2104  18.2291  18.3622  18.4504  18.4516  18.5445
    18.6337  18.6724  18.7178  18.7466  18.7978  18.8348  18.8989  18.9600
[...]
     atom   12 type  1   force =    -0.01167435    0.00482634    0.00097158
     atom   13 type  1   force =    -0.00123731   -0.00553926   -0.00093975
     atom   14 type  1   force =    -0.00807784   -0.00423596   -0.00022690
     atom   15 type  1   force =     0.00008315    0.00245144   -0.00034703
     atom   16 type  2   force =    -0.00992723    0.00820594    0.00061871
     atom   17 type  2   force =     0.01033283    0.00445827    0.00010851
     atom   18 type  1   force =     0.00116564   -0.00465543    0.00035751
     atom   19 type  1   force =    -0.00020506   -0.00157639   -0.00006148
     atom   20 type  1   force =     0.00002315   -0.00131302    0.00066876
     atom   21 type  1   force =    -0.00409152    0.00069402   -0.00031547
     atom   22 type  2   force =     0.00095602    0.00357554   -0.00006443
     atom   23 type  2   force =     0.00014240   -0.00120502    0.00021931
     atom   24 type  1   force =    -0.00050820    0.00272884    0.00047199
     atom   25 type  1   force =     0.01157353    0.00538322    0.00098509
     atom   26 type  1   force =    -0.00114669   -0.00261350   -0.00085930
     atom   27 type  3   force =    -0.00004776   -0.00046209    0.00004052
     atom   28 type  3   force =     0.00009553    0.00008767   -0.00005559
     atom   29 type  3   force =     0.00031397    0.00012138   -0.00037371
     atom   30 type  3   force =    -0.00003583   -0.00001494   -0.00054830
     atom   31 type  1   force =    -0.00054783   -0.00036738    0.00027719
     atom   32 type  3   force =     0.00063408    0.00137915   -0.00057391

     Total force =     0.003422     Total SCF correction =     0.001217
     SCF correction compared to forces is large: reduce conv_thr to get better values

     BFGS Geometry Optimization

     number of scf cycles    =   1
     number of bfgs steps    =   0

     energy   new            =   -2282.1983162501 Ry

     new trust radius        =       0.0016228014 bohr
     new conv_thr            =       0.0000010000 Ry

ATOMIC_POSITIONS (crystal)
O0       0.000000000   0.000000000   0.377703365    0   0   1
O0       0.000000000   0.500000000   0.401265173    0   0   1
Pt1      0.250000000   0.500000000   0.450934134    0   0   1
Pt1      0.000000000   0.000000000   0.452639325    0   0   1
O0       0.250000000   0.810000000   0.443450507    0   0   1
O0       0.250000000   0.190000000   0.459671187    0   0   1
O0       0.000000000   0.500000000   0.496588687    0   0   1
O0       0.000000000   0.000000000   0.529435519    0   0   1
Pt1      0.250000000   0.000000000   0.575804769    0   0   1
Pt1      0.000000000   0.500000000   0.574734745    0   0   1
O0       0.250000000   0.690000000   0.569455532    0   0   1
O0       0.250000000   0.310000000   0.584659408    0   0   1
O0       0.000000000   0.000000000   0.621131228    0   0   1
O0       0.500000000   0.000000000   0.377685468    0   0   1
O0       0.500000000   0.500000000   0.400723068    0   0   1
Pt1      0.750000000   0.500000000   0.450922359    0   0   1
Pt1      0.500000000   0.000000000   0.452622168    0   0   1
O0       0.750000000   0.810000000   0.443387142    0   0   1
O0       0.750000000   0.190000000   0.459668772    0   0   1
O0       0.500000000   0.500000000   0.497383359    0   0   1
O0       0.500000000   0.000000000   0.529453698    0   0   1
Pt1      0.750000000   0.000000000   0.575788713    0   0   1
Pt1      0.500000000   0.500000000   0.576304381    0   0   1
O0       0.750000000   0.690000000   0.569219428    0   0   1
O0       0.750000000   0.310000000   0.584339678    0   0   1
O0       0.500000000   0.000000000   0.621232835    0   0   1
H2       0.000096088   0.640112330   0.385660809
H2       0.499967825   0.640127147   0.385188889
H2       0.143285719   0.034039895   0.367652535
H2       0.643227065   0.034678782   0.367689047
O0       0.500395124   0.524960050   0.649825537
H2       0.489631942   0.382132431   0.662388536

     Check: negative starting charge=   -1.535463
     NEW-OLD atomic charge density approx. for the potential

     Check: negative/imaginary core charge=   -0.000003    0.000000
     Check: negative starting charge=   -1.535502

[...]

     Threshold (ethr) on eigenvalues was too large:
     Diagonalizing with lowered threshold

     Davidson diagonalization with overlap
     ethr =  2.25E-08,  avg # of iterations =  1.0

[...]

     Total force =     0.002907     Total SCF correction =     0.001761
     SCF correction compared to forces is large: reduce conv_thr to get better values

     number of scf cycles    =   2
     number of bfgs steps    =   1

     energy   old            =   -2282.1983162501 Ry
     energy   new            =   -2282.1983246866 Ry

     CASE: energy  _new < energy  _old

     new trust radius        =       0.0031231769 bohr
     new conv_thr            =       0.0000000100 Ry

ATOMIC_POSITIONS (crystal)
O0       0.000000000   0.000000000   0.377640978    0   0   1
O0       0.000000000   0.500000000   0.401288010    0   0   1
Pt1      0.250000000   0.500000000   0.450943974    0   0   1
Pt1      0.000000000   0.000000000   0.452627432    0   0   1
O0       0.250000000   0.810000000   0.443450035    0   0   1
O0       0.250000000   0.190000000   0.459674537    0   0   1
O0       0.000000000   0.500000000   0.496590641    0   0   1
O0       0.000000000   0.000000000   0.529467664    0   0   1
Pt1      0.250000000   0.000000000   0.575784731    0   0   1
Pt1      0.000000000   0.500000000   0.574720160    0   0   1
O0       0.250000000   0.690000000   0.569469447    0   0   1
O0       0.250000000   0.310000000   0.584718459    0   0   1
O0       0.000000000   0.000000000   0.621085687    0   0   1
O0       0.500000000   0.000000000   0.377676276    0   0   1
O0       0.500000000   0.500000000   0.400710315    0   0   1
Pt1      0.750000000   0.500000000   0.450954168    0   0   1
Pt1      0.500000000   0.000000000   0.452619011    0   0   1
O0       0.750000000   0.810000000   0.443408266    0   0   1
O0       0.750000000   0.190000000   0.459665784    0   0   1
O0       0.500000000   0.500000000   0.497417373    0   0   1
O0       0.500000000   0.000000000   0.529438689    0   0   1
Pt1      0.750000000   0.000000000   0.575778733    0   0   1
Pt1      0.500000000   0.500000000   0.576321852    0   0   1
O0       0.750000000   0.690000000   0.569246675    0   0   1
O0       0.750000000   0.310000000   0.584399957    0   0   1
O0       0.500000000   0.000000000   0.621184326    0   0   1
H2       0.000082622   0.640024955   0.385660247
H2       0.499991849   0.640153467   0.385185478
H2       0.143361543   0.034067433   0.367628444
H2       0.643212209   0.034672020   0.367655664
O0       0.500278859   0.525159943   0.649822387
H2       0.489779453   0.382247163   0.662374599

     Check: negative starting charge=   -1.535502
     NEW-OLD atomic charge density approx. for the potential

     Check: negative/imaginary core charge=   -0.000003    0.000000
     Check: negative starting charge=   -1.535575

[...]

     Self-consistent Calculation

[...]

     Threshold (ethr) on eigenvalues was too large:
     Diagonalizing with lowered threshold

     Davidson diagonalization with overlap
     ethr =  1.79E-08,  avg # of iterations =  1.9

[...]

     total energy              =   -2282.19833971 Ry
     Harris-Foulkes estimate   =   -2282.19833972 Ry
     estimated scf accuracy    <       0.00000003 Ry

     iteration # 10     ecut=    40.00 Ry     beta=0.30
     Davidson diagonalization with overlap
     ethr =  1.17E-11,  avg # of iterations =  1.0

     negative rho (up, down):  0.158E+01 0.000E+00

     End of self-consistent calculation

[...]

          k = 0.2500-0.4976 0.0000 ( 32026 PWs)   bands (ev):

[...]

          k =-0.2500 0.2488 0.0000 ( 32025 PWs)   bands (ev):

   -55.8578 -55.8187 -55.7441 -55.7410 -55.7397 -55.7034 -55.6894 -55.6512
   -55.6500 -55.5492 -55.5455 -55.4801 -55.4724 -55.4661 -55.4604 -55.4298
   -55.3989 -55.3942 -55.3916 -55.3898 -55.3208 -55.0645 -54.8250 -54.5638
   -21.9146 -21.6355 -21.0524 -20.8396 -20.5402 -20.4091 -20.3617 -20.2550
   -20.2049 -20.0957 -20.0622 -20.0088 -19.9416 -19.8506 -19.8190 -19.7864
   -19.6506 -18.9382 -18.8167  -9.9987  -9.7484  -9.6572  -9.5618  -9.1784
    -9.1498  -9.0468  -8.8946  -8.8369  -8.8175  -8.6486  -8.6044  -8.5299
    -8.4092  -8.3929  -8.3201  -8.1857  -8.0270  -7.8546  -7.6785  -7.5771
    -7.4916  -7.4209  -7.1798  -6.9653  -6.7614  -6.7236  -6.6299  -6.5449
    -6.5267  -6.4593  -6.3820  -6.2885  -6.1970  -6.1588  -6.1316  -5.9291
    -5.8623  -5.7789  -5.6423  -5.5374  -5.4194  -5.3171  -5.2752  -5.0053
    -4.9656  -4.8545  -4.7812  -4.6971  -4.5641  -4.5421  -4.3678  -4.2070
    -4.1393  -3.9910  -3.8857  -3.8018  -3.7447  -3.7314  -3.5620  -3.5102
    -3.4776  -3.4113  -3.3385  -3.2531  -3.2250  -3.1900  -3.1229  -2.9178
    -2.7975  -2.5309  -2.3742  -2.2756  -2.1515  -2.0699  -2.0096  -1.9271
    -1.8673  -1.6912  -1.5185  -1.4718  -1.3607  -0.9156  -0.7004  -0.4876
    -0.1453   0.0440   0.3932   0.6103   0.8463   0.9685   1.1028   1.1537
     1.3957   1.5203   1.5586   1.9438   3.2405   3.9408   4.6613   5.0765
     5.1401   5.2207   5.3027   5.5683   6.0475   6.2024   6.2705   6.3500
     6.5066   6.5955   6.6898   6.7782   6.9018   6.9747   7.1467   7.2311
     7.3929   7.4936   7.5488   7.6726   7.7331   7.8481   7.9616   8.0495
     8.2133   8.3191   8.3518   8.4289   8.4935   8.5991   8.6980   8.7603
     8.8844   8.9752   9.0445   9.1956   9.3427   9.4423   9.5715   9.6383
     9.7407   9.8101   9.9487  10.0743  10.1532  10.2061  10.2714  10.3625
    10.5237  10.5678  10.6228  10.7003  10.7679  10.9445  10.9913  11.0939
    11.1760  11.2227  11.3563  11.4293  11.5053  11.6372  11.7165  11.8079
    11.8838  11.9028  12.0004  12.0348  12.0847  12.2334  12.2851  12.3379
    12.3957  12.4321  12.5228  12.5489  12.6373  12.7081  12.7922  12.8799
    12.9280  13.0119  13.0851  13.1821  13.2138  13.4313  13.5029  13.5535
    13.5957  13.6838  13.7333  13.7990  13.9230  13.9581  14.0503  14.0744
    14.1388  14.2639  14.3711  14.4445  14.5270  14.6067  14.7035  14.8258
    14.8845  14.9866  15.0594  15.1331  15.1949  15.2985  15.3265  15.4016
    15.4543  15.5046  15.5572  15.6290  15.6814  15.7281  15.7687  15.8388
    15.9082  15.9772  16.0112  16.0597  16.1310  16.2049  16.2862  16.3317
    16.3630  16.3914  16.4463  16.5267  16.5833  16.5905  16.6066  16.6195
    16.6246  16.6511  16.7383  16.7989  16.8229  16.9289  16.9785  17.0343
    17.0924  17.1428  17.2078  17.2302  17.2916  17.3045  17.3751  17.4421
    17.4859  17.5365  17.5732  17.6146  17.6472  17.7461  17.8939  17.9370
    18.0131  18.0634  18.1270  18.1765  18.2428  18.3287  18.4634  18.4688
    18.5791  18.6058  18.6449  18.7081  18.7814  18.8344  18.8749  18.9643
    19.0158  19.1120  19.1730  19.2110  19.2798  19.3398  19.4417  19.5257
    19.6582  19.6852  19.8226  19.8592  19.9374  19.9884  20.0311  20.0634
    20.0995  20.1535  20.2629  20.3232  20.3462  20.3958  20.4697  20.5586
    20.6435  20.6608  20.7277  20.8126  20.8853  20.9689  21.0008  21.0441
    21.0838  21.2010  21.2718  21.3119  21.3483  21.3765  21.4681  21.5099
    21.5716  21.6373  21.6968  21.7606  21.7857  21.9021  22.0052  22.0687
    22.1190  22.1794

     the Fermi energy is    -1.4572 ev

!    total energy              =   -2282.19833972 Ry
     Harris-Foulkes estimate   =   -2282.19833972 Ry
     estimated scf accuracy    <          5.1E-09 Ry

     The total energy is the sum of the following terms:

     one-electron contribution =  -23697.55112799 Ry
     hartree contribution      =   11891.16976953 Ry
     xc contribution           =    -572.97528546 Ry
     ewald contribution        =   10097.15830241 Ry
     smearing contrib. (-TS)   =       0.00000180 Ry

     convergence has been achieved in  10 iterations

     Forces acting on atoms (Ry/au):

     negative rho (up, down):  0.158E+01 0.000E+00
     atom    1 type  1   force =    -0.00796626   -0.00455748    0.00006085
     atom    2 type  1   force =     0.00033868    0.00349924    0.00053686
     atom    3 type  2   force =     0.00920651    0.00798923   -0.00006078
     atom    4 type  2   force =     0.01059898    0.00334870   -0.00060833
     atom    5 type  1   force =     0.00107868   -0.00459076   -0.00005563
     atom    6 type  1   force =     0.00001965   -0.00161981    0.00003483
     atom    7 type  1   force =     0.00041173   -0.00139651    0.00046173
     atom    8 type  1   force =    -0.00407231   -0.00157230   -0.00086009
     atom    9 type  2   force =     0.00342040    0.00332214   -0.00017037
     atom   10 type  2   force =    -0.00055280   -0.01862490    0.00028537
     atom   11 type  1   force =     0.00063314    0.00161700    0.00006873
     atom   12 type  1   force =    -0.01179966    0.00488823    0.00057784
     atom   13 type  1   force =    -0.00122284   -0.00556070    0.00023020
     atom   14 type  1   force =    -0.00794851   -0.00424412   -0.00007902
     atom   15 type  1   force =     0.00019461    0.00244448    0.00034162
     atom   16 type  2   force =    -0.01032168    0.00825321   -0.00041179
     atom   17 type  2   force =     0.01039889    0.00454614   -0.00036446
     atom   18 type  1   force =     0.00117813   -0.00471190    0.00021886
     atom   19 type  1   force =    -0.00015237   -0.00161121    0.00001402
     atom   20 type  1   force =    -0.00002801   -0.00135596    0.00012043
     atom   21 type  1   force =    -0.00403902    0.00071341   -0.00009644
     atom   22 type  2   force =     0.00067282    0.00368749   -0.00035530
     atom   23 type  2   force =     0.00004525   -0.00109183    0.00012452
     atom   24 type  1   force =    -0.00050343    0.00263800    0.00029061
     atom   25 type  1   force =     0.01167702    0.00545730    0.00068909
     atom   26 type  1   force =    -0.00115518   -0.00265059   -0.00023338
     atom   27 type  3   force =    -0.00004525    0.00022019   -0.00020876
     atom   28 type  3   force =     0.00007696    0.00006254   -0.00000824
     atom   29 type  3   force =    -0.00011994   -0.00000464   -0.00034461
     atom   30 type  3   force =    -0.00017556   -0.00003580   -0.00037479
     atom   31 type  1   force =    -0.00035929    0.00081355    0.00005387
     atom   32 type  3   force =     0.00051066    0.00012769    0.00012256

     Total force =     0.002208     Total SCF correction =     0.000159

     bfgs converged in   3 scf cycles and   2 bfgs steps
     (criteria: energy < 0.10E-03, force < 0.10E-02)

     End of BFGS Geometry Optimization

     Final energy   =   -2282.1983397164 Ry
Begin final coordinates

ATOMIC_POSITIONS (crystal)
O0       0.000000000   0.000000000   0.377640978    0   0   1
O0       0.000000000   0.500000000   0.401288010    0   0   1
Pt1      0.250000000   0.500000000   0.450943974    0   0   1
Pt1      0.000000000   0.000000000   0.452627432    0   0   1
O0       0.250000000   0.810000000   0.443450035    0   0   1
O0       0.250000000   0.190000000   0.459674537    0   0   1
O0       0.000000000   0.500000000   0.496590641    0   0   1
O0       0.000000000   0.000000000   0.529467664    0   0   1
Pt1      0.250000000   0.000000000   0.575784731    0   0   1
Pt1      0.000000000   0.500000000   0.574720160    0   0   1
O0       0.250000000   0.690000000   0.569469447    0   0   1
O0       0.250000000   0.310000000   0.584718459    0   0   1
O0       0.000000000   0.000000000   0.621085687    0   0   1
O0       0.500000000   0.000000000   0.377676276    0   0   1
O0       0.500000000   0.500000000   0.400710315    0   0   1
Pt1      0.750000000   0.500000000   0.450954168    0   0   1
Pt1      0.500000000   0.000000000   0.452619011    0   0   1
O0       0.750000000   0.810000000   0.443408266    0   0   1
O0       0.750000000   0.190000000   0.459665784    0   0   1
O0       0.500000000   0.500000000   0.497417373    0   0   1
O0       0.500000000   0.000000000   0.529438689    0   0   1
Pt1      0.750000000   0.000000000   0.575778733    0   0   1
Pt1      0.500000000   0.500000000   0.576321852    0   0   1
O0       0.750000000   0.690000000   0.569246675    0   0   1
O0       0.750000000   0.310000000   0.584399957    0   0   1
O0       0.500000000   0.000000000   0.621184326    0   0   1
H2       0.000082622   0.640024955   0.385660247
H2       0.499991849   0.640153467   0.385185478
H2       0.143361543   0.034067433   0.367628444
H2       0.643212209   0.034672020   0.367655664
O0       0.500278859   0.525159943   0.649822387
H2       0.489779453   0.382247163   0.662374599
End final coordinates

     General routines

     Parallel routines

   This run was terminated on:   1:22: 8  22Apr2014

   JOB DONE.