     Program PWSCF v.5.0.2 (svn rev. 9656) starts on 11May2014 at 14:28:19

     Current dimensions of program PWSCF are:
     Max number of different atomic species (ntypx) = 10
     Max number of k-points (npk) =  40000
     Max angular momentum in pseudopotentials (lmaxx) =  3
     Reading input from pwscf.in
Warning: card &CELL ignored
Warning: card / ignored

     Subspace diagonalization in iterative solution of the eigenvalue problem:
     a serial algorithm will be used

     bravais-lattice index     =            0
     lattice parameter (alat)  =      12.2076  a.u.
     unit-cell volume          =   10244.9005 (a.u.)^3
     number of atoms/cell      =           51
     number of atomic types    =            3
     number of electrons       =       461.00
     number of Kohn-Sham states=          691
     kinetic-energy cutoff     =      40.0000  Ry
     charge density cutoff     =     500.0000  Ry
     convergence threshold     =      1.0E-06
     mixing beta               =       0.3000
     number of iterations used =            8  plain     mixing
     Exchange-correlation      = SLA  PW   PBE  PBE ( 1 4 3 4 0)
     EXX-fraction              =        0.00
     nstep                     =           50

     celldm(1)=  12.207631  celldm(2)=   0.000000  celldm(3)=   0.000000
     celldm(4)=   0.000000  celldm(5)=   0.000000  celldm(6)=   0.000000

     crystal axes: (cart. coord. in units of alat)
               a(1) = (   1.000000   0.000000   0.000000 )
               a(2) = (   0.000000   1.004836   0.000000 )
               a(3) = (   0.000000   0.000000   5.604262 )

     reciprocal axes: (cart. coord. in units 2 pi/alat)
               b(1) = (  1.000000  0.000000  0.000000 )
               b(2) = (  0.000000  0.995187  0.000000 )
               b(3) = (  0.000000  0.000000  0.178436 )

     PseudoPot. # 1 for O  read from file:
     /home/camp/zhonxu/pseudo/o_pbe_v1.01.uspp.F.UPF
     MD5 check sum: 2bcb18d16ea4b960afae9ec6d52f22d2
     Pseudo is Ultrasoft + core correction, Zval =  6.0
     Generated by new atomic code, or converted to UPF format
     Using radial grid of  737 points,  5 beta functions with:
                l(1) =   0
                l(2) =   0
                l(3) =   1
                l(4) =   1
                l(5) =   2
     Q(r) pseudized with  8 coefficients,  rinner =    0.900   0.900   0.900
                                                       0.900   0.900

     PseudoPot. # 2 for Pt read from file:
     /home/camp/zhonxu/pseudo/pt_pbe_v1.uspp.F.UPF
     MD5 check sum: 4c71d6ad5ef119f1eb26a4d0b7884226
     Pseudo is Ultrasoft + core correction, Zval = 16.0
     Generated by new atomic code, or converted to UPF format
     Using radial grid of  985 points,  6 beta functions with:
                l(1) =   0
                l(2) =   0
                l(3) =   1
                l(4) =   1
                l(5) =   2
                l(6) =   2
     Q(r) pseudized with  8 coefficients,  rinner =    1.300   1.300   1.300
                                                       1.300   1.300

     PseudoPot. # 3 for H  read from file:
     /home/camp/zhonxu/pseudo/h_pbe_v1.uspp.F.UPF
     MD5 check sum: 3408e3ff4ec8b0a4e358431e7e038a48
     Pseudo is Ultrasoft, Zval =  1.0
     Generated by new atomic code, or converted to UPF format
     Using radial grid of  615 points,  2 beta functions with:
                l(1) =   0
                l(2) =   0
     Q(r) pseudized with  8 coefficients,  rinner =    0.700

     atomic species   valence    mass     pseudopotential
        O0             6.00    15.99940     O ( 1.00)
        Pt1           16.00   195.08000     Pt( 1.00)
        H2             1.00     1.00794     H ( 1.00)

      2 Sym. Ops. (no inversion) found

   Cartesian axes

     site n.     atom                  positions (alat units)
         1           O0  tau(   1) = (   0.0000000   0.5024180   1.8575886  )
         2           Pt1 tau(   2) = (   0.2500000   0.5024180   2.0485258  )
         3           Pt1 tau(   3) = (   0.0000000   0.0000000   2.0485258  )
         4           O0  tau(   4) = (   0.2500000   0.8139171   2.0485258  )
         5           O0  tau(   5) = (   0.2500000   0.1909188   2.0485258  )
         6           O0  tau(   6) = (   0.0000000   0.5024180   2.2394070  )
         7           O0  tau(   7) = (   0.0000000   0.0000000   2.3600107  )
         8           Pt1 tau(   8) = (   0.2500000   0.0000000   2.5509479  )
         9           Pt1 tau(   9) = (   0.0000000   0.5024180   2.5509479  )
        10           O0  tau(  10) = (   0.2500000   0.6933368   2.5509479  )
        11           O0  tau(  11) = (   0.2500000   0.3114991   2.5509479  )
        12           O0  tau(  12) = (   0.0000000   0.0000000   2.7418291  )
        13           O0  tau(  13) = (   0.0000000   0.5024180   2.8577252  )
        14           Pt1 tau(  14) = (   0.2500000   0.5024180   3.0464207  )
        15           Pt1 tau(  15) = (   0.0000000   0.0000000   3.0519689  )
        16           O0  tau(  16) = (   0.2500000   0.8129525   3.0573490  )
        17           O0  tau(  17) = (   0.2500000   0.1918835   3.0573490  )
        18           O0  tau(  18) = (   0.0000000   0.5024180   3.2388711  )
        19           O0  tau(  19) = (   0.0000000   0.0000000   3.3644626  )
        20           Pt1 tau(  20) = (   0.2500000   0.0000000   3.5576415  )
        21           Pt1 tau(  21) = (   0.0000000   0.5024180   3.5547273  )
        22           O0  tau(  22) = (   0.2500000   0.6920004   3.5920516  )
        23           O0  tau(  23) = (   0.2500000   0.3128356   3.5920516  )
        24           O0  tau(  24) = (   0.0000000   0.0000000   3.7444315  )
        25           O0  tau(  25) = (   0.5000000   0.5024180   1.8575886  )
        26           Pt1 tau(  26) = (   0.7500000   0.5024180   2.0485258  )
        27           Pt1 tau(  27) = (   0.5000000   0.0000000   2.0485258  )
        28           O0  tau(  28) = (   0.7500000   0.8139171   2.0485258  )
        29           O0  tau(  29) = (   0.7500000   0.1909188   2.0485258  )
        30           O0  tau(  30) = (   0.5000000   0.5024180   2.2394070  )
        31           O0  tau(  31) = (   0.5000000   0.0000000   2.3600107  )
        32           Pt1 tau(  32) = (   0.7500000   0.0000000   2.5509479  )
        33           Pt1 tau(  33) = (   0.5000000   0.5024180   2.5509479  )
        34           O0  tau(  34) = (   0.7500000   0.6933368   2.5509479  )
        35           O0  tau(  35) = (   0.7500000   0.3114991   2.5509479  )
        36           O0  tau(  36) = (   0.5000000   0.0000000   2.7418291  )
        37           O0  tau(  37) = (   0.5000000   0.5024180   2.8577252  )
        38           Pt1 tau(  38) = (   0.7500000   0.5024180   3.0464207  )
        39           Pt1 tau(  39) = (   0.5000000   0.0000000   3.0519689  )
        40           O0  tau(  40) = (   0.7500000   0.8129525   3.0573490  )
        41           O0  tau(  41) = (   0.7500000   0.1918835   3.0573490  )
        42           O0  tau(  42) = (   0.5000000   0.5024180   3.2388711  )
        43           O0  tau(  43) = (   0.5000000   0.0000000   3.3644626  )
        44           Pt1 tau(  44) = (   0.7500000   0.0000000   3.5576415  )
        45           Pt1 tau(  45) = (   0.5000000   0.5024180   3.5547273  )
        46           O0  tau(  46) = (   0.7500000   0.6920004   3.5920516  )
        47           O0  tau(  47) = (   0.7500000   0.3128356   3.5920516  )
        48           O0  tau(  48) = (   0.5000000   0.0000000   3.7444315  )
        49           O0  tau(  49) = (   0.5000000   0.5024180   3.8643067  )
        50           O0  tau(  50) = (   0.5000000   0.3220801   3.9705074  )
        51           H2  tau(  51) = (   0.5000000   0.3679106   4.1171149  )

     number of k points=     9  Methfessel-Paxton smearing, width (Ry)=  0.0100
                       cart. coord. in units 2pi/alat
        k(    1) = (   0.0000000   0.0000000   0.0000000), wk =   0.1250000
        k(    2) = (   0.0000000   0.2487968   0.0000000), wk =   0.2500000
        k(    3) = (   0.0000000  -0.4975937   0.0000000), wk =   0.1250000
        k(    4) = (   0.2500000   0.0000000   0.0000000), wk =   0.2500000
        k(    5) = (   0.2500000   0.2487968   0.0000000), wk =   0.5000000
        k(    6) = (   0.2500000  -0.4975937   0.0000000), wk =   0.2500000
        k(    7) = (  -0.5000000   0.0000000   0.0000000), wk =   0.1250000
        k(    8) = (  -0.5000000   0.2487968   0.0000000), wk =   0.2500000
        k(    9) = (  -0.5000000  -0.4975937   0.0000000), wk =   0.1250000

     Largest allocated arrays     est. size (Mb)     dimensions
     Largest temporary arrays     est. size (Mb)     dimensions

     Check: negative/imaginary core charge=   -0.000003    0.000000

     Initial potential from superposition of free atoms
     Check: negative starting charge=   -3.073568

     starting charge  452.99976, renormalised to  461.00000

     negative rho (up, down):  0.313E+01 0.000E+00
     Starting wfc are  329 randomized atomic wfcs

     Self-consistent Calculation

     iteration #  1     ecut=    40.00 Ry     beta=0.30
     Davidson diagonalization with overlap
     ethr =  1.00E-02,  avg # of iterations =  6.1

     negative rho (up, down):  0.308E+01 0.000E+00

     total energy              =   -4342.08332771 Ry
     Harris-Foulkes estimate   =   -4437.06617731 Ry
     estimated scf accuracy    <     191.05321928 Ry

[...]

     End of self-consistent calculation

          k = 0.0000 0.0000 0.0000 ( 43825 PWs)   bands (ev):

   -53.7386 -53.7232 -53.6907 -53.6680 -53.6415 -53.6357 -53.6075 -53.6063
   -53.5875 -53.5841 -53.5534 -53.5528 -53.5506 -53.5500 -53.5454 -53.5310
   -53.5206 -53.5098 -53.4638 -53.4327 -53.4282 -53.4235 -53.4169 -53.4086
   -53.4083 -53.4068 -53.4062 -53.3974 -53.3806 -53.3002 -53.3002 -53.2978
   -53.2931 -53.2719 -53.2642 -53.2605 -53.2041 -53.1961 -53.1888 -53.1513
   -53.1437 -52.9983 -52.9087 -52.9011 -52.7267 -52.7057 -52.7019 -52.5483
   -23.2836 -19.4723 -19.2164 -19.0196 -18.9158 -18.8148 -18.5157 -18.3446
   -18.3047 -18.2622 -18.2615 -18.2180 -18.2091 -18.2050 -18.1546 -18.1410
   -18.0529 -18.0407 -18.0133 -17.9727 -17.9067 -17.8806 -17.8331 -17.7285
   -17.6690 -17.6314 -17.5883 -17.5304 -17.4863 -16.7132 -16.6079 -16.5935
   -16.5255 -15.4327  -8.3907  -8.3799  -8.3441  -8.1190  -8.0489  -7.9306
    -7.7673  -7.1271  -7.0864  -7.0015  -7.0007  -6.9500  -6.9236  -6.9190
    -6.8533  -6.8483  -6.8478  -6.8226  -6.8170  -6.7833  -6.7753  -6.7447
    -6.6677  -6.6147  -6.4914  -6.4870  -6.4728  -6.3842  -6.3653  -6.2628
    -6.2570  -6.1806  -6.1771  -6.1691  -6.1545  -5.8921  -5.7804  -5.7501
    -5.6083  -5.4953  -5.4091  -5.2762  -4.9426  -4.8407  -4.7824  -4.7339
    -4.7318  -4.6614  -4.6613  -4.6025  -4.5585  -4.4919  -4.4407  -4.3764
    -4.1067  -4.0935  -4.0624  -4.0576  -3.9556  -3.9495  -3.9174  -3.8300
    -3.6635  -3.5488  -3.5118  -3.4908  -3.4420  -3.3728  -3.3415  -3.3240
    -3.2100  -3.1570  -3.1441  -3.1234  -3.1049  -3.0900  -3.0670  -3.0318
    -2.9978  -2.9078  -2.8718  -2.7316  -2.6992  -2.6412  -2.6116  -2.5827
[...]
Pt1      0.250000000   0.000000000   0.634810000    0   0   0
Pt1      0.000000000   0.500000000   0.634290000    0   0   0
O0       0.250000000   0.688670000   0.640950000    0   0   0
O0       0.250000000   0.311330000   0.640950000    0   0   0
O0       0.000000000   0.000000000   0.668140000    0   0   0
O0       0.500000000   0.500000000   0.331460000    0   0   0
Pt1      0.750000000   0.500000000   0.365530000    0   0   0
Pt1      0.500000000   0.000000000   0.365530000    0   0   0
O0       0.750000000   0.810000000   0.365530000    0   0   0
O0       0.750000000   0.190000000   0.365530000    0   0   0
O0       0.500000000   0.500000000   0.399590000    0   0   0
O0       0.500000000   0.000000000   0.421110000    0   0   0
Pt1      0.750000000   0.000000000   0.455180000    0   0   0
Pt1      0.500000000   0.500000000   0.455180000    0   0   0
O0       0.750000000   0.690000000   0.455180000    0   0   0
O0       0.750000000   0.310000000   0.455180000    0   0   0
O0       0.500000000   0.000000000   0.489240000    0   0   0
O0       0.500000000   0.500000000   0.509920000    0   0   0
Pt1      0.750000000   0.500000000   0.543590000    0   0   0
Pt1      0.500000000   0.000000000   0.544580000    0   0   0
O0       0.750000000   0.809040000   0.545540000    0   0   0
O0       0.750000000   0.190960000   0.545540000    0   0   0
O0       0.500000000   0.500000000   0.577930000    0   0   0
O0       0.500000000   0.000000000   0.600340000    0   0   0
Pt1      0.750000000   0.000000000   0.634810000    0   0   0
Pt1      0.500000000   0.500000000   0.634290000    0   0   0
O0       0.750000000   0.688670000   0.640950000    0   0   0
O0       0.750000000   0.311330000   0.640950000    0   0   0
O0       0.500000000   0.000000000   0.668140000    0   0   0
O0       0.500000000   0.500000000   0.689853322    1   0   1
O0       0.500000000   0.320530000   0.709578925    1   0   1
H2       0.500000000   0.366140000   0.735567188    1   0   1

     Check: negative starting charge=   -3.073571
     NEW-OLD atomic charge density approx. for the potential

     Check: negative/imaginary core charge=   -0.000003    0.000000
     Check: negative starting charge=   -3.073572

[...]

     Self-consistent Calculation

[...]

     Threshold (ethr) on eigenvalues was too large:
     Diagonalizing with lowered threshold

     Davidson diagonalization with overlap
     ethr =  1.18E-08,  avg # of iterations =  1.0

[...]

     total energy              =   -4424.53558381 Ry
     Harris-Foulkes estimate   =   -4424.53558381 Ry
     estimated scf accuracy    <       0.00000007 Ry

     iteration # 15     ecut=    40.00 Ry     beta=0.30
     Davidson diagonalization with overlap
     ethr =  3.83E-12,  avg # of iterations =  1.0

     negative rho (up, down):  0.316E+01 0.000E+00

     End of self-consistent calculation

[...]

          k = 0.2500-0.4976 0.0000 ( 43762 PWs)   bands (ev):

[...]

          k =-0.5000-0.4976 0.0000 ( 43684 PWs)   bands (ev):

   -53.7396 -53.7158 -53.7103 -53.6839 -53.6763 -53.6312 -53.6312 -53.5967
   -53.5967 -53.5967 -53.5965 -53.5783 -53.5684 -53.5684 -53.5618 -53.5486
   -53.5367 -53.5267 -53.4533 -53.4533 -53.4473 -53.4472 -53.4325 -53.4291
   -53.4290 -53.4254 -53.4254 -53.4192 -53.3847 -53.3161 -53.3161 -53.3133
   -53.3133 -53.2864 -53.2863 -53.2497 -53.2491 -53.2090 -53.2090 -53.1643
   -53.1643 -53.0196 -52.9224 -52.9217 -52.7463 -52.7218 -52.7202 -52.5698
   -22.9927 -18.7887 -18.7386 -18.7196 -18.7156 -18.4987 -18.4945 -18.4655
   -18.4460 -18.3286 -18.3263 -18.2985 -18.2921 -18.2510 -18.2495 -18.1660
   -18.1566 -18.0774 -18.0603 -18.0204 -18.0199 -17.9775 -17.9563 -17.9448
   -17.9381 -17.9106 -17.8535 -17.8395 -17.8240 -16.7453 -16.7283 -16.6431
   -16.6424 -15.4503  -7.8615  -7.5217  -7.4338  -7.4266  -7.4188  -6.8990
    -6.8951  -6.8803  -6.8792  -6.8243  -6.8233  -6.8203  -6.7218  -6.7108
    -6.7101  -6.6237  -6.5163  -6.4523  -6.4459  -6.4194  -6.4144  -6.3884
    -6.3869  -6.3710  -6.3640  -6.3183  -6.2943  -6.2942  -6.1827  -6.1490
    -6.1363  -6.1308  -6.1273  -6.0582  -6.0204  -6.0088  -6.0035  -5.9340
    -5.8227  -5.8142  -5.7674  -5.7666  -5.4167  -5.3737  -5.3162  -5.3118
    -5.0063  -5.0058  -4.9872  -4.8529  -4.7883  -4.7527  -4.7238  -4.7231
    -4.7100  -4.6832  -4.6721  -4.6342  -4.6135  -4.5810  -4.5638  -4.4905
    -4.4845  -4.4218  -4.4141  -4.2474  -4.2179  -4.0991  -4.0943  -4.0795
    -4.0429  -3.9950  -3.9898  -3.9856  -3.7857  -3.6059  -3.5814  -3.5032
    -3.3752  -3.1102  -3.1029  -3.0256  -3.0032  -2.8620  -2.8440  -2.8409
    -2.7805  -2.7033  -2.7009  -2.6545  -2.6236  -2.5805  -2.5787  -2.5673
    -2.5360  -2.2724  -2.2668  -2.2456  -2.2324  -1.7601  -1.5506  -1.5053
    -1.4954  -1.3611  -1.3569  -1.3489  -1.3468  -1.2767  -1.2488  -1.2401
    -1.2198  -1.2089  -1.0922  -1.0875  -1.0821  -1.0723  -0.9786  -0.9639
    -0.8857  -0.8602  -0.8466  -0.8410  -0.7503  -0.6518  -0.4662  -0.4092
    -0.4054  -0.4034  -0.3825  -0.2037  -0.1633  -0.1067  -0.1066  -0.0932
    -0.0920   0.0414   0.0580   0.0624   0.0661   0.1128   0.1242   0.1702
     0.1704   0.2449   0.2543   0.2630   0.2681   0.3086   0.6281   1.0326
     1.0338   1.1889   1.5202   1.5261   1.5513   1.5516   1.6897   1.6926
     1.6959   1.9006   1.9432   2.0413   2.0454   2.0499   2.3274   2.7831
     2.8432   2.8444   2.8851   3.1523   3.1711   3.2058   3.3053   3.6491
     3.6781   3.7179   3.7419   3.9053   3.9221   3.9575   3.9682   5.8334
     6.4234   6.4235   6.6262   6.7556   7.4503   7.5563   7.5609   7.6931
     7.8217   7.8272   7.8564   7.8927   8.0021   8.0214   8.0390   8.0582
     8.1597   8.2477   8.2525   8.3340   8.5402   8.5584   8.5880   8.6081
     8.6652   8.6730   8.7489   8.8630   9.2252   9.2352   9.2440   9.2974
     9.3787   9.4448   9.5208   9.6239   9.8889   9.9015  10.0359  10.0604
    10.1751  10.4122  10.4811  10.5369  10.7794  10.8049  10.8057  10.8972
    11.0938  11.1086  11.1404  11.1918  11.2224  11.2674  11.2751  11.2830
    11.2937  11.3020  11.3535  11.3603  11.4832  11.7238  11.7827  11.8252
    12.0725  12.2718  12.2815  12.3809  12.4412  12.5215  12.5572  12.5688
    13.0320  13.0939  13.1135  13.1876  13.2814  13.5130  13.5254  13.5289
    13.7059  13.7429  13.7582  13.7790  13.8273  13.8792  13.9634  14.0095
    14.0763  14.1148  14.1927  14.2133  14.2135  14.2960  14.3446  14.4213
    14.4425  14.4649  14.4777  14.5735  14.6199  14.6868  14.7067  14.7273
    14.7512  14.7765  14.8077  14.8085  14.8240  14.8588  14.9275  14.9378
    14.9758  14.9904  15.0004  15.0600  15.0858  15.1437  15.1530  15.2305
    15.3133  15.3138  15.3306  15.3479  15.3706  15.3895  15.4122  15.4225
    15.4494  15.4784  15.4787  15.5199  15.5471  15.5718  15.6191  15.6356
    15.6406  15.6562  15.6879  15.7663  15.8633  15.8761  15.9341  15.9405
    15.9809  15.9820  16.0342  16.0507  16.1196  16.1524  16.1995  16.2531
    16.2706  16.2963  16.4073  16.4363  16.5168  16.5437  16.5590  16.5933
    16.7593  16.7653  16.8173  16.8293  16.8922  16.9006  16.9328  16.9475
    17.0109  17.0299  17.1344  17.1583  17.2288  17.2962  17.3003  17.3375
    17.3407  17.3531  17.3753  17.3825  17.4368  17.4671  17.5002  17.5191
    17.6136  17.6449  17.6781  17.7335  17.8802  17.8982  17.9231  18.0317
    18.1228  18.1434  18.2075  18.2356  18.3005  18.3093  18.3466  18.4318
    18.5154  18.5164  18.5334  18.5492  18.5617  18.5643  18.5811  18.5890
    18.5957  18.6183  18.6335  18.6470  18.6520  18.7493  18.7598  18.7879
[...]
    23.4102  23.5245  23.5760  23.5805  23.6112  23.6156  23.6580  23.7104
    23.7177  23.7242  23.7503  23.8128  23.8155  23.8291  23.8813  23.9073
    23.9490  23.9522  23.9766  24.0399  24.0418  24.0575  24.1247  24.1612
    24.1814  24.2309  24.2780  24.3078  24.3978  24.4462  24.4732  24.5041
    24.6597  24.7460  24.8182  24.8412  24.8539  24.8712  24.9279  24.9473
    25.0491  25.0677  25.1371  25.2195  25.2355  25.2873  25.2939  25.3515
    25.3533  25.4119  25.4521  25.4929  25.5962  25.6358  25.6412  25.6696
    25.7171  25.7218  25.8049  25.8327  25.8752  25.9466  25.9868  26.0150
    26.0380  26.0633  26.1128  26.1729  26.1854  26.2022  26.2497  26.2691
    26.3766  26.3815  26.4257  26.4643  26.5876  26.5928  26.6605  26.6847
    26.6923  26.8523  26.8837  26.9233  26.9967  27.0162  27.0891  27.0979
    27.1560  27.1659  27.2045  27.2109  27.2639  27.2739  27.3370  27.3714
    27.4806  27.6169  27.6484  27.7626  27.8745  27.8786  27.9060  27.9473
    28.0075  28.0218  28.1015  28.1276  28.1575  28.2534  28.2762  28.3681
    28.4056  28.4647  28.4775

     the Fermi energy is     0.7243 ev

!    total energy              =   -4424.53558381 Ry
     Harris-Foulkes estimate   =   -4424.53558381 Ry
     estimated scf accuracy    <          4.0E-09 Ry

     The total energy is the sum of the following terms:

     one-electron contribution =  -82405.06626433 Ry
     hartree contribution      =   41311.68360401 Ry
     xc contribution           =   -1111.20156586 Ry
     ewald contribution        =   37780.04940615 Ry
     smearing contrib. (-TS)   =      -0.00076378 Ry

     convergence has been achieved in  15 iterations

     Forces acting on atoms (Ry/au):

     negative rho (up, down):  0.316E+01 0.000E+00
     atom    1 type  1   force =     0.00000000    0.00000371    0.01388121
     atom    2 type  2   force =     0.00116215    0.00004959   -0.00439322
     atom    3 type  2   force =     0.00000000   -0.00006299    0.00472572
     atom    4 type  1   force =    -0.00003337   -0.00072222   -0.02913395
     atom    5 type  1   force =    -0.00004213    0.00068480   -0.02903468
     atom    6 type  1   force =     0.00000000   -0.00000003    0.00894342
     atom    7 type  1   force =     0.00000000    0.00014066    0.02381101
     atom    8 type  2   force =     0.00021864    0.00005559    0.01458896
     atom    9 type  2   force =     0.00000000   -0.00036963   -0.02481720
     atom   10 type  1   force =     0.00032080    0.00570660    0.00067689
     atom   11 type  1   force =     0.00022389   -0.00572578    0.00058540
     atom   12 type  1   force =     0.00000000    0.00006686    0.01481433
     atom   13 type  1   force =     0.00000000   -0.00014792    0.00976657
     atom   14 type  2   force =    -0.00688428    0.00236095    0.00703426
     atom   15 type  2   force =     0.00000000   -0.00017419    0.00138929
     atom   16 type  1   force =     0.00006931   -0.00004184    0.00008263
     atom   17 type  1   force =     0.00030975   -0.00022911    0.00046848
     atom   18 type  1   force =     0.00000000    0.00040174    0.00236860
     atom   19 type  1   force =     0.00000000    0.00040914    0.00179874
     atom   20 type  2   force =     0.00137312   -0.00230607   -0.00496220
     atom   21 type  2   force =     0.00000000    0.00030819   -0.00049952
     atom   22 type  1   force =    -0.01183806    0.00985116   -0.01322390
     atom   23 type  1   force =    -0.01179252   -0.00799896   -0.01788440
     atom   24 type  1   force =     0.00000000    0.00048411    0.00125244
     atom   25 type  1   force =     0.00000000    0.00001097    0.01330268
     atom   26 type  2   force =    -0.00116215    0.00004959   -0.00439322
     atom   27 type  2   force =     0.00000000    0.00001701    0.00489287
     atom   28 type  1   force =     0.00003337   -0.00072222   -0.02913395
     atom   29 type  1   force =     0.00004213    0.00068480   -0.02903468
     atom   30 type  1   force =     0.00000000   -0.00007670    0.00474167
     atom   31 type  1   force =     0.00000000   -0.00009791    0.02390264
     atom   32 type  2   force =    -0.00021864    0.00005559    0.01458896
     atom   33 type  2   force =     0.00000000    0.00013949   -0.01663582
     atom   34 type  1   force =    -0.00032080    0.00570660    0.00067689
     atom   35 type  1   force =    -0.00022389   -0.00572578    0.00058540
     atom   36 type  1   force =     0.00000000   -0.00012754    0.01430974
     atom   37 type  1   force =     0.00000000   -0.00011180   -0.00930861
     atom   38 type  2   force =     0.00688428    0.00236095    0.00703426
     atom   39 type  2   force =     0.00000000   -0.00002379    0.00142195
     atom   40 type  1   force =    -0.00006931   -0.00004184    0.00008263
     atom   41 type  1   force =    -0.00030975   -0.00022911    0.00046848
     atom   42 type  1   force =     0.00000000    0.00201865    0.02177344
     atom   43 type  1   force =     0.00000000    0.00042249    0.00052975
     atom   44 type  2   force =    -0.00137312   -0.00230607   -0.00496220
     atom   45 type  2   force =     0.00000000   -0.04210703    0.04528074
     atom   46 type  1   force =     0.01183806    0.00985116   -0.01322390
     atom   47 type  1   force =     0.01179252   -0.00799896   -0.01788440
     atom   48 type  1   force =     0.00000000   -0.01217170   -0.01117891
     atom   49 type  1   force =     0.00000000    0.10436409    0.00013131
     atom   50 type  1   force =     0.00000000   -0.07555909   -0.00000330
     atom   51 type  3   force =     0.00000000    0.01887377   -0.00020336

     Total force =     0.000242     Total SCF correction =     0.000008

     bfgs converged in   9 scf cycles and   8 bfgs steps
     (criteria: energy < 0.10E-03, force < 0.10E-02)

     End of BFGS Geometry Optimization

     Final energy   =   -4424.5355838094 Ry
Begin final coordinates

ATOMIC_POSITIONS (crystal)
O0       0.000000000   0.500000000   0.331460000    0   0   0
Pt1      0.250000000   0.500000000   0.365530000    0   0   0
Pt1      0.000000000   0.000000000   0.365530000    0   0   0
O0       0.250000000   0.810000000   0.365530000    0   0   0
O0       0.250000000   0.190000000   0.365530000    0   0   0
O0       0.000000000   0.500000000   0.399590000    0   0   0
O0       0.000000000   0.000000000   0.421110000    0   0   0
Pt1      0.250000000   0.000000000   0.455180000    0   0   0
Pt1      0.000000000   0.500000000   0.455180000    0   0   0
O0       0.250000000   0.690000000   0.455180000    0   0   0
O0       0.250000000   0.310000000   0.455180000    0   0   0
O0       0.000000000   0.000000000   0.489240000    0   0   0
O0       0.000000000   0.500000000   0.509920000    0   0   0
Pt1      0.250000000   0.500000000   0.543590000    0   0   0
Pt1      0.000000000   0.000000000   0.544580000    0   0   0
O0       0.250000000   0.809040000   0.545540000    0   0   0
O0       0.250000000   0.190960000   0.545540000    0   0   0
O0       0.000000000   0.500000000   0.577930000    0   0   0
O0       0.000000000   0.000000000   0.600340000    0   0   0
Pt1      0.250000000   0.000000000   0.634810000    0   0   0
Pt1      0.000000000   0.500000000   0.634290000    0   0   0
O0       0.250000000   0.688670000   0.640950000    0   0   0
O0       0.250000000   0.311330000   0.640950000    0   0   0
O0       0.000000000   0.000000000   0.668140000    0   0   0
O0       0.500000000   0.500000000   0.331460000    0   0   0
Pt1      0.750000000   0.500000000   0.365530000    0   0   0
Pt1      0.500000000   0.000000000   0.365530000    0   0   0
O0       0.750000000   0.810000000   0.365530000    0   0   0
O0       0.750000000   0.190000000   0.365530000    0   0   0
O0       0.500000000   0.500000000   0.399590000    0   0   0
O0       0.500000000   0.000000000   0.421110000    0   0   0
Pt1      0.750000000   0.000000000   0.455180000    0   0   0
Pt1      0.500000000   0.500000000   0.455180000    0   0   0
O0       0.750000000   0.690000000   0.455180000    0   0   0
O0       0.750000000   0.310000000   0.455180000    0   0   0
O0       0.500000000   0.000000000   0.489240000    0   0   0
O0       0.500000000   0.500000000   0.509920000    0   0   0
Pt1      0.750000000   0.500000000   0.543590000    0   0   0
Pt1      0.500000000   0.000000000   0.544580000    0   0   0
O0       0.750000000   0.809040000   0.545540000    0   0   0
O0       0.750000000   0.190960000   0.545540000    0   0   0
O0       0.500000000   0.500000000   0.577930000    0   0   0
O0       0.500000000   0.000000000   0.600340000    0   0   0
Pt1      0.750000000   0.000000000   0.634810000    0   0   0
Pt1      0.500000000   0.500000000   0.634290000    0   0   0
O0       0.750000000   0.688670000   0.640950000    0   0   0
O0       0.750000000   0.311330000   0.640950000    0   0   0
O0       0.500000000   0.000000000   0.668140000    0   0   0
O0       0.500000000   0.500000000   0.689853322    1   0   1
O0       0.500000000   0.320530000   0.709578925    1   0   1
H2       0.500000000   0.366140000   0.735567188    1   0   1
End final coordinates

     General routines

     Parallel routines

   This run was terminated on:   8:21: 7  12May2014

   JOB DONE.