     Program PWSCF v.5.0.2 (svn rev. 9656) starts on  6May2014 at 10: 6:50

     Current dimensions of program PWSCF are:
     Max number of different atomic species (ntypx) = 10
     Max number of k-points (npk) =  40000
     Max angular momentum in pseudopotentials (lmaxx) =  3
     Reading input from pwscf.in
Warning: card &CELL ignored
Warning: card / ignored

     Subspace diagonalization in iterative solution of the eigenvalue problem:
     a serial algorithm will be used

     Found symmetry operation: I + ( -0.5000  0.0000  0.0000)
     This is a supercell, fractional translations are disabled

     bravais-lattice index     =            0
     lattice parameter (alat)  =      12.2076  a.u.
     unit-cell volume          =    7496.5096 (a.u.)^3
     number of atoms/cell      =           30
     number of atomic types    =            3
     number of electrons       =       240.00
     number of Kohn-Sham states=          360
     kinetic-energy cutoff     =      40.0000  Ry
     charge density cutoff     =     500.0000  Ry
     convergence threshold     =      1.0E-06
     mixing beta               =       0.7000
     number of iterations used =            8  plain     mixing
     Exchange-correlation      = SLA  PW   PBE  PBE ( 1 4 3 4 0)
     EXX-fraction              =        0.00
     nstep                     =           50

     celldm(1)=  12.207631  celldm(2)=   0.000000  celldm(3)=   0.000000
     celldm(4)=   0.000000  celldm(5)=   0.000000  celldm(6)=   0.000000

     crystal axes: (cart. coord. in units of alat)
               a(1) = (   1.000000   0.000000   0.000000 )
               a(2) = (   0.000000   1.004836   0.000000 )
               a(3) = (   0.000000   0.000000   4.100811 )

     reciprocal axes: (cart. coord. in units 2 pi/alat)
               b(1) = (  1.000000  0.000000  0.000000 )
               b(2) = (  0.000000  0.995187  0.000000 )
               b(3) = (  0.000000  0.000000  0.243854 )

     PseudoPot. # 1 for O  read from file:
     /home/camp/zhonxu/pseudo/o_pbe_v1.01.uspp.F.UPF
     MD5 check sum: 2bcb18d16ea4b960afae9ec6d52f22d2
     Pseudo is Ultrasoft + core correction, Zval =  6.0
     Generated by new atomic code, or converted to UPF format
     Using radial grid of  737 points,  5 beta functions with:
                l(1) =   0
                l(2) =   0
                l(3) =   1
                l(4) =   1
                l(5) =   2
     Q(r) pseudized with  8 coefficients,  rinner =    0.900   0.900   0.900
                                                       0.900   0.900

     PseudoPot. # 2 for Pt read from file:
     /home/camp/zhonxu/pseudo/pt_pbe_v1.uspp.F.UPF
     MD5 check sum: 4c71d6ad5ef119f1eb26a4d0b7884226
     Pseudo is Ultrasoft + core correction, Zval = 16.0
     Generated by new atomic code, or converted to UPF format
     Using radial grid of  985 points,  6 beta functions with:
                l(1) =   0
                l(2) =   0
                l(3) =   1
                l(4) =   1
                l(5) =   2
                l(6) =   2
     Q(r) pseudized with  8 coefficients,  rinner =    1.300   1.300   1.300
                                                       1.300   1.300

     PseudoPot. # 3 for H  read from file:
     /home/camp/zhonxu/pseudo/h_pbe_v1.uspp.F.UPF
     MD5 check sum: 3408e3ff4ec8b0a4e358431e7e038a48
     Pseudo is Ultrasoft, Zval =  1.0
     Generated by new atomic code, or converted to UPF format
     Using radial grid of  615 points,  2 beta functions with:
                l(1) =   0
                l(2) =   0
     Q(r) pseudized with  8 coefficients,  rinner =    0.700

     atomic species   valence    mass     pseudopotential
        O0             6.00    15.99940     O ( 1.00)
        Pt1           16.00   195.08000     Pt( 1.00)
        H2             1.00     1.00794     H ( 1.00)

     Simplified LDA+U calculation (l_max = 2) with parameters (eV):
     atomic species    L          U    alpha       J0     beta
        Pt1            2     4.5000   0.0000   0.0000   0.0000

     No symmetry found

   Cartesian axes

     site n.     atom                  positions (alat units)
         1           O0  tau(   1) = (   0.0000000   0.0000000   1.5457188  )
         2           O0  tau(   2) = (   0.0000000   0.5024180   1.6369208  )
         3           Pt1 tau(   3) = (   0.2500000   0.5024180   1.8413872  )
         4           Pt1 tau(   4) = (   0.0000000   0.0000000   1.8534436  )
         5           O0  tau(   5) = (   0.2500000   0.8139171   1.8157162  )
         6           O0  tau(   6) = (   0.2500000   0.1909188   1.8824364  )
         7           O0  tau(   7) = (   0.0000000   0.5024180   2.0315829  )
         8           O0  tau(   8) = (   0.0000000   0.0000000   2.1708464  )
         9           Pt1 tau(   9) = (   0.2500000   0.0000000   2.3625593  )
        10           Pt1 tau(  10) = (   0.0000000   0.5024180   2.3549318  )
        11           O0  tau(  11) = (   0.2500000   0.6933368   2.3911010  )
        12           O0  tau(  12) = (   0.2500000   0.3114991   2.3934384  )
        13           O0  tau(  13) = (   0.0000000   0.0000000   2.5491052  )
        14           O0  tau(  14) = (   0.5000000   0.0000000   1.5457188  )
        15           O0  tau(  15) = (   0.5000000   0.5024180   1.6369208  )
        16           Pt1 tau(  16) = (   0.7500000   0.5024180   1.8413872  )
        17           Pt1 tau(  17) = (   0.5000000   0.0000000   1.8534436  )
        18           O0  tau(  18) = (   0.7500000   0.8139171   1.8157162  )
        19           O0  tau(  19) = (   0.7500000   0.1909188   1.8824364  )
        20           O0  tau(  20) = (   0.5000000   0.5024180   2.0315829  )
        21           O0  tau(  21) = (   0.5000000   0.0000000   2.1708464  )
        22           Pt1 tau(  22) = (   0.7500000   0.0000000   2.3625593  )
        23           Pt1 tau(  23) = (   0.5000000   0.5024180   2.3549318  )
        24           O0  tau(  24) = (   0.7500000   0.6933368   2.3911010  )
        25           O0  tau(  25) = (   0.7500000   0.3114991   2.3934384  )
        26           O0  tau(  26) = (   0.5000000   0.0000000   2.5491052  )
        27           H2  tau(  27) = (  -0.0000500   0.6431553   1.5728661  )
        28           H2  tau(  28) = (   0.4999500   0.6431553   1.5728661  )
        29           H2  tau(  29) = (   0.1440700   0.0315318   1.5048747  )
        30           H2  tau(  30) = (   0.6440700   0.0315318   1.5048747  )

     number of k points=    10  Methfessel-Paxton smearing, width (Ry)=  0.0100
                       cart. coord. in units 2pi/alat
        k(    1) = (   0.0000000   0.0000000   0.0000000), wk =   0.1250000
        k(    2) = (   0.0000000   0.2487968   0.0000000), wk =   0.2500000
        k(    3) = (   0.0000000  -0.4975937   0.0000000), wk =   0.1250000
        k(    4) = (   0.2500000   0.0000000   0.0000000), wk =   0.2500000
        k(    5) = (   0.2500000   0.2487968   0.0000000), wk =   0.2500000
        k(    6) = (   0.2500000  -0.4975937   0.0000000), wk =   0.2500000
        k(    7) = (  -0.5000000   0.0000000   0.0000000), wk =   0.1250000
        k(    8) = (  -0.5000000   0.2487968   0.0000000), wk =   0.2500000
        k(    9) = (  -0.5000000  -0.4975937   0.0000000), wk =   0.1250000
        k(   10) = (  -0.2500000   0.2487968   0.0000000), wk =   0.2500000

     Largest allocated arrays     est. size (Mb)     dimensions
     Largest temporary arrays     est. size (Mb)     dimensions

     Check: negative/imaginary core charge=   -0.000003    0.000000

     Initial potential from superposition of free atoms
     Check: negative starting charge=   -1.537272

     starting charge  235.99985, renormalised to  240.00000

     negative rho (up, down):  0.156E+01 0.000E+00
     Number of +U iterations with fixed ns =  0
     Starting occupations:
 --- enter write_ns ---
 LDA+U parameters:
U( 2)     =  4.50000000
alpha( 2) =  0.00000000
atom    3   Tr[ns(na)] =   8.00000
    eigenvalues:
  0.800  0.800  0.800  0.800  0.800
    eigenvectors:
  1.000  0.000  0.000  0.000  0.000
  0.000  1.000  0.000  0.000  0.000
  0.000  0.000  1.000  0.000  0.000
  0.000  0.000  0.000  1.000  0.000
  0.000  0.000  0.000  0.000  1.000
    occupations:
  0.800  0.000  0.000  0.000  0.000
  0.000  0.800  0.000  0.000  0.000
  0.000  0.000  0.800  0.000  0.000
  0.000  0.000  0.000  0.800  0.000
  0.000  0.000  0.000  0.000  0.800
atom    4   Tr[ns(na)] =   8.00000
    eigenvalues:
  0.800  0.800  0.800  0.800  0.800
    eigenvectors:
  1.000  0.000  0.000  0.000  0.000
  0.000  1.000  0.000  0.000  0.000
  0.000  0.000  1.000  0.000  0.000
  0.000  0.000  0.000  1.000  0.000
  0.000  0.000  0.000  0.000  1.000
    occupations:
  0.800  0.000  0.000  0.000  0.000
  0.000  0.800  0.000  0.000  0.000
  0.000  0.000  0.800  0.000  0.000
  0.000  0.000  0.000  0.800  0.000
  0.000  0.000  0.000  0.000  0.800
atom    9   Tr[ns(na)] =   8.00000
    eigenvalues:
  0.800  0.800  0.800  0.800  0.800
    eigenvectors:
  1.000  0.000  0.000  0.000  0.000
  0.000  1.000  0.000  0.000  0.000
  0.000  0.000  1.000  0.000  0.000
  0.000  0.000  0.000  1.000  0.000
  0.000  0.000  0.000  0.000  1.000
    occupations:
  0.800  0.000  0.000  0.000  0.000
  0.000  0.800  0.000  0.000  0.000
  0.000  0.000  0.800  0.000  0.000
  0.000  0.000  0.000  0.800  0.000
  0.000  0.000  0.000  0.000  0.800
atom   10   Tr[ns(na)] =   8.00000
    eigenvalues:
  0.800  0.800  0.800  0.800  0.800
    eigenvectors:
  1.000  0.000  0.000  0.000  0.000
  0.000  1.000  0.000  0.000  0.000
  0.000  0.000  1.000  0.000  0.000
  0.000  0.000  0.000  1.000  0.000
  0.000  0.000  0.000  0.000  1.000
    occupations:
  0.800  0.000  0.000  0.000  0.000
  0.000  0.800  0.000  0.000  0.000
  0.000  0.000  0.800  0.000  0.000
  0.000  0.000  0.000  0.800  0.000
  0.000  0.000  0.000  0.000  0.800
atom   16   Tr[ns(na)] =   8.00000
    eigenvalues:
  0.800  0.800  0.800  0.800  0.800
    eigenvectors:
  1.000  0.000  0.000  0.000  0.000
  0.000  1.000  0.000  0.000  0.000
  0.000  0.000  1.000  0.000  0.000
  0.000  0.000  0.000  1.000  0.000
  0.000  0.000  0.000  0.000  1.000
    occupations:
  0.800  0.000  0.000  0.000  0.000
  0.000  0.800  0.000  0.000  0.000
  0.000  0.000  0.800  0.000  0.000
  0.000  0.000  0.000  0.800  0.000
  0.000  0.000  0.000  0.000  0.800
atom   17   Tr[ns(na)] =   8.00000
    eigenvalues:
  0.800  0.800  0.800  0.800  0.800
    eigenvectors:
  1.000  0.000  0.000  0.000  0.000
  0.000  1.000  0.000  0.000  0.000
  0.000  0.000  1.000  0.000  0.000
  0.000  0.000  0.000  1.000  0.000
  0.000  0.000  0.000  0.000  1.000
    occupations:
  0.800  0.000  0.000  0.000  0.000
  0.000  0.800  0.000  0.000  0.000
  0.000  0.000  0.800  0.000  0.000
  0.000  0.000  0.000  0.800  0.000
  0.000  0.000  0.000  0.000  0.800
atom   22   Tr[ns(na)] =   8.00000
    eigenvalues:
  0.800  0.800  0.800  0.800  0.800
    eigenvectors:
  1.000  0.000  0.000  0.000  0.000
  0.000  1.000  0.000  0.000  0.000
  0.000  0.000  1.000  0.000  0.000
  0.000  0.000  0.000  1.000  0.000
  0.000  0.000  0.000  0.000  1.000
    occupations:
[...]
  0.000  0.005  0.739  0.003  0.253
  0.000  0.009  0.223  0.052  0.716
  0.989  0.000  0.000  0.010  0.000
    occupations:
  0.720 -0.005 -0.018  0.026 -0.001
 -0.005  0.983  0.000  0.000  0.030
 -0.018  0.000  0.983  0.004  0.000
  0.026  0.000  0.004  0.984  0.000
 -0.001  0.030  0.000  0.000  0.696
atom    9   Tr[ns(na)] =   8.71588
    eigenvalues:
  0.718  0.725  0.961  0.966  0.987
    eigenvectors:
  0.001  0.142  0.000  0.000  0.858
  0.996  0.004  0.000  0.000  0.000
  0.000  0.000  0.000  1.000  0.000
  0.003  0.854  0.000  0.000  0.142
  0.000  0.000  1.000  0.000  0.000
    occupations:
  0.950  0.000 -0.000 -0.092  0.000
  0.000  0.718  0.000  0.000 -0.000
 -0.000  0.000  0.966 -0.001 -0.000
 -0.092  0.000 -0.001  0.762  0.000
  0.000 -0.000 -0.000  0.000  0.961
atom   10   Tr[ns(na)] =   8.78967
    eigenvalues:
  0.663  0.786  0.972  0.987  0.987
    eigenvectors:
  0.000  0.979  0.000  0.020  0.001
  0.000  0.000  1.000  0.000  0.000
  0.000  0.000  0.000  0.021  0.979
  0.000  0.021  0.000  0.959  0.020
  1.000  0.000  0.000  0.000  0.000
    occupations:
  0.790  0.000  0.001  0.029  0.000
  0.000  0.972 -0.000  0.000 -0.001
  0.001 -0.000  0.987 -0.000 -0.000
  0.029  0.000 -0.000  0.983 -0.000
  0.000 -0.001 -0.000 -0.000  0.663
atom   16   Tr[ns(na)] =   8.75645
    eigenvalues:
  0.702  0.713  0.985  0.988  0.991
    eigenvectors:
  0.176  0.000  0.786  0.000  0.038
  0.000  1.000  0.000  0.000  0.000
  0.004  0.000  0.058  0.000  0.938
  0.820  0.000  0.156  0.000  0.024
  0.000  0.000  0.000  1.000  0.000
    occupations:
  0.935 -0.000  0.006 -0.107  0.000
 -0.000  0.713  0.000  0.000 -0.001
  0.006  0.000  0.989  0.017 -0.000
 -0.107  0.000  0.017  0.753  0.000
  0.000 -0.001 -0.000  0.000  0.988
atom   17   Tr[ns(na)] =   8.73344
    eigenvalues:
  0.693  0.716  0.983  0.986  0.988
    eigenvectors:
  0.000  0.986  0.010  0.002  0.002
  0.011  0.000  0.028  0.932  0.029
  0.000  0.005  0.740  0.003  0.252
  0.000  0.009  0.222  0.052  0.716
  0.989  0.000  0.000  0.010  0.000
    occupations:
  0.720 -0.005 -0.018  0.026 -0.001
 -0.005  0.983  0.000  0.000  0.030
 -0.018  0.000  0.983  0.004  0.000
  0.026  0.000  0.004  0.984  0.000
 -0.001  0.030  0.000  0.000  0.696
atom   22   Tr[ns(na)] =   8.71588
    eigenvalues:
  0.718  0.725  0.961  0.966  0.987
    eigenvectors:
  0.001  0.142  0.000  0.000  0.858
  0.996  0.004  0.000  0.000  0.000
  0.000  0.000  0.000  1.000  0.000
  0.003  0.854  0.000  0.000  0.142
  0.000  0.000  1.000  0.000  0.000
    occupations:
  0.950  0.000 -0.000 -0.092  0.000
  0.000  0.718  0.000  0.000 -0.000
 -0.000  0.000  0.966 -0.001 -0.000
 -0.092  0.000 -0.001  0.762  0.000
  0.000 -0.000 -0.000  0.000  0.961
atom   23   Tr[ns(na)] =   8.78935
    eigenvalues:
  0.663  0.786  0.972  0.987  0.987
    eigenvectors:
  0.000  0.979  0.000  0.020  0.001
  0.000  0.000  1.000  0.000  0.000
  0.000  0.000  0.000  0.021  0.979
  0.000  0.021  0.000  0.959  0.021
  1.000  0.000  0.000  0.000  0.000
    occupations:
  0.790  0.000  0.001  0.029  0.000
  0.000  0.972 -0.000  0.000 -0.001
  0.001 -0.000  0.987 -0.000 -0.000
  0.029  0.000 -0.000  0.983 -0.000
  0.000 -0.001 -0.000 -0.000  0.663
N of occupied +U levels =  69.9906004
 --- exit write_ns ---

     Threshold (ethr) on eigenvalues was too large:
     Diagonalizing with lowered threshold

     Davidson diagonalization with overlap
     ethr =  6.58E-09,  avg # of iterations =  2.0

[...]

     total energy              =   -2247.54892734 Ry
     Harris-Foulkes estimate   =   -2247.54892735 Ry
     estimated scf accuracy    <       0.00000003 Ry

     iteration # 12     ecut=    40.00 Ry     beta=0.70
     Davidson diagonalization with overlap
     ethr =  1.30E-11,  avg # of iterations =  1.0

     negative rho (up, down):  0.158E+01 0.000E+00

     End of self-consistent calculation
 --- enter write_ns ---
 LDA+U parameters:
U( 2)     =  4.50000000
alpha( 2) =  0.00000000
atom    3   Tr[ns(na)] =   8.75592
    eigenvalues:
  0.702  0.713  0.985  0.988  0.991
    eigenvectors:
  0.176  0.000  0.787  0.000  0.037
  0.000  1.000  0.000  0.000  0.000
  0.004  0.000  0.057  0.000  0.939
  0.820  0.000  0.156  0.000  0.024
  0.000  0.000  0.000  1.000  0.000
    occupations:
  0.935 -0.000  0.006 -0.108  0.000
 -0.000  0.713  0.000  0.000 -0.001
  0.006  0.000  0.989  0.017 -0.000
 -0.108  0.000  0.017  0.753  0.000
  0.000 -0.001 -0.000  0.000  0.988
atom    4   Tr[ns(na)] =   8.73305
    eigenvalues:
  0.693  0.716  0.983  0.987  0.988
    eigenvectors:
  0.000  0.986  0.010  0.002  0.002
  0.011  0.000  0.028  0.932  0.029
  0.000  0.005  0.738  0.003  0.254
  0.000  0.009  0.224  0.053  0.714
  0.989  0.000  0.000  0.010  0.000
    occupations:
  0.720 -0.005 -0.018  0.026 -0.001
 -0.005  0.983  0.000  0.000  0.030
 -0.018  0.000  0.983  0.004  0.000
  0.026  0.000  0.004  0.984  0.000
 -0.001  0.030  0.000  0.000  0.696
atom    9   Tr[ns(na)] =   8.71623
    eigenvalues:
  0.718  0.725  0.961  0.966  0.987
    eigenvectors:
  0.001  0.142  0.000  0.000  0.858
  0.996  0.004  0.000  0.000  0.000
  0.000  0.000  0.000  1.000  0.000
  0.003  0.854  0.000  0.000  0.142
  0.000  0.000  1.000  0.000  0.000
    occupations:
  0.950  0.000 -0.000 -0.092  0.000
  0.000  0.718  0.000  0.000 -0.000
 -0.000  0.000  0.966 -0.001 -0.000
 -0.092  0.000 -0.001  0.762  0.000
  0.000 -0.000 -0.000  0.000  0.961
atom   10   Tr[ns(na)] =   8.78962
    eigenvalues:
  0.663  0.786  0.972  0.987  0.987
    eigenvectors:
  0.000  0.979  0.000  0.020  0.001
  0.000  0.000  1.000  0.000  0.000
  0.000  0.000  0.000  0.022  0.978
  0.000  0.021  0.000  0.958  0.021
  1.000  0.000  0.000  0.000  0.000
    occupations:
  0.790  0.000  0.001  0.029  0.000
  0.000  0.972 -0.000  0.000 -0.001
  0.001 -0.000  0.987 -0.000 -0.000
  0.029  0.000 -0.000  0.983 -0.000
  0.000 -0.001 -0.000 -0.000  0.663
atom   16   Tr[ns(na)] =   8.75592
    eigenvalues:
  0.702  0.713  0.985  0.988  0.991
    eigenvectors:
  0.176  0.000  0.787  0.000  0.037
  0.000  1.000  0.000  0.000  0.000
  0.004  0.000  0.057  0.000  0.939
  0.820  0.000  0.156  0.000  0.024
  0.000  0.000  0.000  1.000  0.000
    occupations:
  0.935 -0.000  0.006 -0.108  0.000
 -0.000  0.713  0.000  0.000 -0.001
  0.006  0.000  0.989  0.017 -0.000
 -0.108  0.000  0.017  0.753  0.000
  0.000 -0.001 -0.000  0.000  0.988
atom   17   Tr[ns(na)] =   8.73304
    eigenvalues:
  0.693  0.716  0.983  0.987  0.988
    eigenvectors:
  0.000  0.986  0.010  0.002  0.002
  0.011  0.000  0.028  0.932  0.029
  0.000  0.005  0.738  0.003  0.254
  0.000  0.009  0.224  0.053  0.714
  0.989  0.000  0.000  0.010  0.000
    occupations:
  0.720 -0.005 -0.018  0.026 -0.001
 -0.005  0.983  0.000  0.000  0.030
 -0.018  0.000  0.983  0.004  0.000
  0.026  0.000  0.004  0.984  0.000
 -0.001  0.030  0.000  0.000  0.696
atom   22   Tr[ns(na)] =   8.71623
    eigenvalues:
  0.718  0.725  0.961  0.966  0.987
    eigenvectors:
  0.001  0.142  0.000  0.000  0.858
  0.996  0.004  0.000  0.000  0.000
  0.000  0.000  0.000  1.000  0.000
  0.003  0.854  0.000  0.000  0.142
  0.000  0.000  1.000  0.000  0.000
    occupations:
  0.950  0.000 -0.000 -0.092  0.000
  0.000  0.718  0.000  0.000 -0.000
 -0.000  0.000  0.966 -0.001 -0.000
 -0.092  0.000 -0.001  0.762  0.000
  0.000 -0.000 -0.000  0.000  0.961
atom   23   Tr[ns(na)] =   8.78955
    eigenvalues:
  0.663  0.786  0.972  0.987  0.987
    eigenvectors:
  0.000  0.979  0.000  0.020  0.001
  0.000  0.000  1.000  0.000  0.000
  0.000  0.000  0.000  0.022  0.978
  0.000  0.021  0.000  0.958  0.021
  1.000  0.000  0.000  0.000  0.000
    occupations:
  0.790  0.000  0.001  0.029  0.000
  0.000  0.972 -0.000  0.000 -0.001
  0.001 -0.000  0.987 -0.000 -0.000
  0.029  0.000 -0.000  0.983 -0.000
  0.000 -0.001 -0.000 -0.000  0.663
N of occupied +U levels =  69.9895501
 --- exit write_ns ---

[...]

          k = 0.2500-0.4976 0.0000 ( 32026 PWs)   bands (ev):

[...]

          k =-0.2500 0.2488 0.0000 ( 32025 PWs)   bands (ev):

   -55.3367 -55.3060 -55.2964 -55.2743 -55.2667 -55.2351 -55.2019 -55.1993
   -55.1599 -55.1564 -55.0519 -55.0479 -54.9802 -54.9753 -54.9466 -54.9425
   -54.9373 -54.9331 -54.7153 -54.6753 -54.3700 -54.3649 -54.1203 -54.1176
   -22.1302 -21.9433 -21.2370 -21.1249 -20.8175 -20.6735 -20.6631 -20.5328
   -20.5325 -20.4685 -20.3334 -20.2718 -20.2485 -20.0810 -20.0261 -19.9808
   -19.2064 -19.0019 -10.8391 -10.6571 -10.5024 -10.4555  -9.9623  -9.9565
    -9.8214  -9.5533  -9.4944  -9.4759  -9.4346  -9.1995  -9.1643  -9.0652
    -9.0579  -8.9061  -8.8184  -8.6367  -8.4391  -8.3203  -8.1579  -8.1398
    -7.8916  -7.8247  -7.7227  -7.6349  -7.6236  -7.3954  -7.3672  -7.2886
    -7.2362  -7.1815  -6.9237  -6.8723  -6.8569  -6.7925  -6.6959  -6.6339
    -6.4860  -6.3343  -6.2500  -6.1007  -5.9551  -5.8714  -5.6608  -5.4971
    -5.4412  -5.4030  -5.2959  -5.0714  -5.0293  -4.9520  -4.7922  -4.6262
    -4.4611  -4.4508  -4.3278  -4.2891  -4.0558  -4.0084  -3.9173  -3.7694
    -3.6556  -3.6188  -3.5875  -3.4676  -3.2254  -3.1873  -2.8821  -2.7401
    -2.7320  -2.6571  -2.5149  -2.4712  -2.4371  -2.3401  -1.9601  -1.8660
    -1.8141  -1.4483  -1.1223  -0.7001  -0.3905  -0.3241  -0.1550   0.2677
     0.5061   0.6835   0.8300   0.9505   1.2067   1.2295   1.3690   1.5877
     3.0701   3.6836   4.5496   4.9713   5.0515   5.0865   5.1865   5.4899
     5.7015   5.9404   6.0533   6.2212   6.3973   6.4867   6.5811   6.6372
     6.7600   6.8161   7.0194   7.0785   7.2597   7.3982   7.4294   7.5095
     7.6070   7.7358   7.8112   7.9794   8.1047   8.1671   8.2600   8.3154
     8.3639   8.4825   8.5366   8.6434   8.7682   8.8714   9.0284   9.1197
     9.3065   9.3387   9.4451   9.5639   9.6426   9.7677   9.8945   9.9495
    10.0910  10.1386  10.2066  10.2168  10.4212  10.5135  10.5281  10.6354
    10.6590  10.8262  10.8391  10.9783  11.1456  11.2471  11.3464  11.3922
    11.4197  11.5503  11.6570  11.7289  11.7995  11.8084  11.8918  11.9346
    11.9933  12.1597  12.2125  12.2154  12.3221  12.3564  12.4367  12.5194
    12.5810  12.6187  12.7268  12.7992  12.8911  12.9085  13.0412  13.0978
    13.1606  13.2496  13.4115  13.5087  13.6179  13.6368  13.7072  13.8168
    13.8259  13.8932  14.0286  14.0329  14.1231  14.2901  14.3629  14.4195
    14.4691  14.6165  14.6806  14.7340  14.8356  14.9209  15.0527  15.1561
    15.2207  15.2248  15.3495  15.3528  15.4432  15.5139  15.5628  15.6276
    15.6282  15.6732  15.7590  15.8182  15.8644  15.9408  16.0219  16.0382
    16.1725  16.1771  16.2313  16.3251  16.3955  16.4951  16.6096  16.7211
    16.7808  16.8721  16.8831  16.9973  17.0065  17.0159  17.0532  17.0894
    17.1042  17.1292  17.1465  17.1551  17.1712  17.2005  17.2580  17.2857
    17.3482  17.4048  17.4505  17.4581  17.4987  17.6181  17.6889  17.7671
    17.7691  17.8913  17.9216  17.9294  18.0487  18.0990  18.1253  18.1921
    18.2086  18.3602  18.3933  18.4008  18.5319  18.5947  18.6993  18.7090
    18.7350  18.8956  18.9348  19.0104  19.0269  19.1057  19.1521  19.2832
    19.3323  19.3929  19.4069  19.5643  19.6151  19.7752  19.8224  19.8384
    19.9026  19.9464  19.9822  20.0491  20.0752  20.0929  20.2498  20.2740
    20.3189  20.3372  20.5118  20.5159  20.6528  20.6944  20.7676  20.8013
    20.8108  20.9321  20.9400  21.0023  21.0408  21.2129  21.2470  21.2616
    21.3564  21.4385  21.4406  21.5298  21.5819  21.6249  21.6565  21.7779

     the Fermi energy is    -1.7974 ev

!    total energy              =   -2247.54892734 Ry
     Harris-Foulkes estimate   =   -2247.54892734 Ry
     estimated scf accuracy    <          7.3E-09 Ry

     The total energy is the sum of the following terms:

     one-electron contribution =  -22796.69900715 Ry
     hartree contribution      =   11439.46576333 Ry
     xc contribution           =    -565.16357172 Ry
     ewald contribution        =    9673.63389534 Ry
     Hubbard energy            =       1.21495105 Ry
     smearing contrib. (-TS)   =      -0.00095820 Ry

     convergence has been achieved in  12 iterations

     Forces acting on atoms (Ry/au):

     negative rho (up, down):  0.158E+01 0.000E+00
     atom    1 type  1   force =    -0.00755468   -0.00424808   -0.00023617
     atom    2 type  1   force =     0.00009759    0.00428129   -0.00006772
     atom    3 type  2   force =    -0.00046584    0.00218897   -0.00014629
     atom    4 type  2   force =     0.01000421    0.00208140    0.00004852
     atom    5 type  1   force =     0.00114020   -0.00197279    0.00013141
     atom    6 type  1   force =     0.00011363    0.00059647   -0.00009643
     atom    7 type  1   force =     0.00002955    0.00468342    0.00085577
     atom    8 type  1   force =    -0.00394461   -0.00788045    0.00067034
     atom    9 type  2   force =     0.00178469    0.00095897   -0.00037319
     atom   10 type  2   force =    -0.00002970   -0.00174548   -0.00008697
     atom   11 type  1   force =     0.00000541   -0.00647827   -0.00016491
     atom   12 type  1   force =     0.00008766    0.00741200   -0.00007801
     atom   13 type  1   force =    -0.00107239   -0.00025965    0.00000370
     atom   14 type  1   force =    -0.00755448   -0.00424784   -0.00023308
     atom   15 type  1   force =     0.00009758    0.00428063   -0.00006362
     atom   16 type  2   force =    -0.00047667    0.00218903   -0.00014633
     atom   17 type  2   force =     0.01000454    0.00208136    0.00006794
     atom   18 type  1   force =     0.00113377   -0.00197276    0.00013154
     atom   19 type  1   force =     0.00010246    0.00059643   -0.00009632
     atom   20 type  1   force =     0.00002955    0.00468350    0.00085386
     atom   21 type  1   force =    -0.00394453   -0.00788068    0.00068284
     atom   22 type  2   force =     0.00174612    0.00095913   -0.00037325
     atom   23 type  2   force =    -0.00002962   -0.00174568   -0.00007526
     atom   24 type  1   force =    -0.00002295   -0.00647825   -0.00016495
     atom   25 type  1   force =     0.00006080    0.00741199   -0.00007804
     atom   26 type  1   force =    -0.00107238   -0.00025952   -0.00006941
     atom   27 type  3   force =     0.00001383    0.00014788    0.00009988
     atom   28 type  3   force =     0.00001379    0.00014734    0.00010064
     atom   29 type  3   force =    -0.00014958    0.00023470   -0.00054836
     atom   30 type  3   force =    -0.00014797    0.00023494   -0.00054814

     Total force =     0.001945     Total SCF correction =     0.000275
     SCF correction compared to forces is large: reduce conv_thr to get better values

     bfgs converged in   9 scf cycles and   8 bfgs steps
     (criteria: energy < 0.10E-03, force < 0.10E-02)

     End of BFGS Geometry Optimization

     Final energy   =   -2247.5489273368 Ry
Begin final coordinates

ATOMIC_POSITIONS (crystal)
O0       0.000000000   0.000000000   0.376786586    0   0   1
O0       0.000000000   0.500000000   0.399555248    0   0   1
Pt1      0.250000000   0.500000000   0.449036444    0   0   1
Pt1      0.000000000   0.000000000   0.451848962    0   0   1
O0       0.250000000   0.810000000   0.441801585    0   0   1
O0       0.250000000   0.190000000   0.459679616    0   0   1
O0       0.000000000   0.500000000   0.495438134    0   0   1
O0       0.000000000   0.000000000   0.529297328    0   0   1
Pt1      0.250000000   0.000000000   0.575807691    0   0   1
Pt1      0.000000000   0.500000000   0.573720577    0   0   1
O0       0.250000000   0.690000000   0.583329465    0   0   1
O0       0.250000000   0.310000000   0.583797008    0   0   1
O0       0.000000000   0.000000000   0.621358552    0   0   1
O0       0.500000000   0.000000000   0.376786324    0   0   1
O0       0.500000000   0.500000000   0.399555298    0   0   1
Pt1      0.750000000   0.500000000   0.449036444    0   0   1
Pt1      0.500000000   0.000000000   0.451848557    0   0   1
O0       0.750000000   0.810000000   0.441801557    0   0   1
O0       0.750000000   0.190000000   0.459679617    0   0   1
O0       0.500000000   0.500000000   0.495439148    0   0   1
O0       0.500000000   0.000000000   0.529297763    0   0   1
Pt1      0.750000000   0.000000000   0.575807694    0   0   1
Pt1      0.500000000   0.500000000   0.573719513    0   0   1
O0       0.750000000   0.690000000   0.583329470    0   0   1
O0       0.750000000   0.310000000   0.583797018    0   0   1
O0       0.500000000   0.000000000   0.621362660    0   0   1
H2      -0.000023065   0.640838939   0.384339227
H2       0.499976955   0.640838376   0.384339042
H2       0.144168839   0.032408683   0.367131900
H2       0.644168684   0.032408682   0.367131569
End final coordinates

     General routines

     Parallel routines
     Hubbard U routines

   This run was terminated on:  17:50:57   6May2014

   JOB DONE.