     Program PWSCF v.5.0.2 (svn rev. 9656) starts on 23Jan2014 at 20:34: 0

     Current dimensions of program PWSCF are:
     Max number of different atomic species (ntypx) = 10
     Max number of k-points (npk) =  40000
     Max angular momentum in pseudopotentials (lmaxx) =  3
     Reading input from SnO2-v-0.8.in

     Subspace diagonalization in iterative solution of the eigenvalue problem:
     a serial algorithm will be used

     bravais-lattice index     =            0
     lattice parameter (alat)  =       8.0383  a.u.
     unit-cell volume          =     334.7174 (a.u.)^3
     number of atoms/cell      =            6
     number of atomic types    =            2
     number of electrons       =        52.00
     number of Kohn-Sham states=           75
     kinetic-energy cutoff     =      40.0000  Ry
     charge density cutoff     =     500.0000  Ry
     convergence threshold     =      1.0E-06
     mixing beta               =       0.7000
     number of iterations used =            8  plain     mixing
     Exchange-correlation      = SLA  PW   PBE  PBE ( 1 4 3 4 0)
     EXX-fraction              =        0.00
     nstep                     =           50

     celldm(1)=   8.038301  celldm(2)=   0.000000  celldm(3)=   0.000000
     celldm(4)=   0.000000  celldm(5)=   0.000000  celldm(6)=   0.000000

     crystal axes: (cart. coord. in units of alat)
               a(1) = (   1.000000   0.000000   0.000000 )
               a(2) = (   0.000000   1.000000   0.000000 )
               a(3) = (   0.000000   0.000000   0.644444 )

     reciprocal axes: (cart. coord. in units 2 pi/alat)
               b(1) = (  1.000000  0.000000  0.000000 )
               b(2) = (  0.000000  1.000000  0.000000 )
               b(3) = (  0.000000  0.000000  1.551724 )

     PseudoPot. # 1 for Sn read from file:
     /home/camp/zhonxu/pseudo/sn_pbe_v1.uspp.F.UPF
     MD5 check sum: 4cf58ce39ec5d5d420df3dd08604eb00
     Pseudo is Ultrasoft + core correction, Zval = 14.0
     Generated by new atomic code, or converted to UPF format
     Using radial grid of  891 points,  6 beta functions with:
                l(1) =   0
                l(2) =   0
                l(3) =   1
                l(4) =   1
                l(5) =   2
                l(6) =   2
     Q(r) pseudized with  6 coefficients,  rinner =    1.200   1.200   1.200
                                                       1.200   1.200

     PseudoPot. # 2 for O  read from file:
     /home/camp/zhonxu/pseudo/o_pbe_v1.01.uspp.F.UPF
     MD5 check sum: 2bcb18d16ea4b960afae9ec6d52f22d2
     Pseudo is Ultrasoft + core correction, Zval =  6.0
     Generated by new atomic code, or converted to UPF format
     Using radial grid of  737 points,  5 beta functions with:
                l(1) =   0
                l(2) =   0
                l(3) =   1
                l(4) =   1
                l(5) =   2
     Q(r) pseudized with  8 coefficients,  rinner =    0.900   0.900   0.900
                                                       0.900   0.900

     atomic species   valence    mass     pseudopotential
        Sn0           14.00   118.71000     Sn( 1.00)
        O1             6.00    15.99940     O ( 1.00)

     Starting magnetic structure
     atomic species   magnetization
        Sn0          0.600
        O1           0.000

     16 Sym. Ops., with inversion, found ( 8 have fractional translation)

   Cartesian axes

     site n.     atom                  positions (alat units)
         1           Sn0 tau(   1) = (   0.0000000   0.0000000   0.0000000  )
         2           Sn0 tau(   2) = (   0.5000000   0.5000000   0.3222222  )
         3           O1  tau(   3) = (   0.3050000   0.3050000   0.0000000  )
         4           O1  tau(   4) = (  -0.3050000  -0.3050000   0.0000000  )
         5           O1  tau(   5) = (   0.8050000   0.1950000   0.3222222  )
         6           O1  tau(   6) = (   0.1950000   0.8050000   0.3222222  )

     number of k points=    36  Methfessel-Paxton smearing, width (Ry)=  0.0100
                       cart. coord. in units 2pi/alat
        k(    1) = (   0.0000000   0.0000000   0.0000000), wk =   0.0080000
        k(    2) = (   0.0000000   0.0000000   0.3103448), wk =   0.0160000
        k(    3) = (   0.0000000   0.0000000   0.6206897), wk =   0.0160000
        k(    4) = (   0.0000000   0.2000000   0.0000000), wk =   0.0320000
        k(    5) = (   0.0000000   0.2000000   0.3103448), wk =   0.0640000
        k(    6) = (   0.0000000   0.2000000   0.6206897), wk =   0.0640000
        k(    7) = (   0.0000000   0.4000000   0.0000000), wk =   0.0320000
        k(    8) = (   0.0000000   0.4000000   0.3103448), wk =   0.0640000
        k(    9) = (   0.0000000   0.4000000   0.6206897), wk =   0.0640000
        k(   10) = (   0.2000000   0.2000000   0.0000000), wk =   0.0320000
        k(   11) = (   0.2000000   0.2000000   0.3103448), wk =   0.0640000
        k(   12) = (   0.2000000   0.2000000   0.6206897), wk =   0.0640000
        k(   13) = (   0.2000000   0.4000000   0.0000000), wk =   0.0640000
        k(   14) = (   0.2000000   0.4000000   0.3103448), wk =   0.1280000
        k(   15) = (   0.2000000   0.4000000   0.6206897), wk =   0.1280000
        k(   16) = (   0.4000000   0.4000000   0.0000000), wk =   0.0320000
        k(   17) = (   0.4000000   0.4000000   0.3103448), wk =   0.0640000
        k(   18) = (   0.4000000   0.4000000   0.6206897), wk =   0.0640000
        k(   19) = (   0.0000000   0.0000000   0.0000000), wk =   0.0080000
        k(   20) = (   0.0000000   0.0000000   0.3103448), wk =   0.0160000
        k(   21) = (   0.0000000   0.0000000   0.6206897), wk =   0.0160000
        k(   22) = (   0.0000000   0.2000000   0.0000000), wk =   0.0320000
        k(   23) = (   0.0000000   0.2000000   0.3103448), wk =   0.0640000
        k(   24) = (   0.0000000   0.2000000   0.6206897), wk =   0.0640000
        k(   25) = (   0.0000000   0.4000000   0.0000000), wk =   0.0320000
        k(   26) = (   0.0000000   0.4000000   0.3103448), wk =   0.0640000
        k(   27) = (   0.0000000   0.4000000   0.6206897), wk =   0.0640000
        k(   28) = (   0.2000000   0.2000000   0.0000000), wk =   0.0320000
        k(   29) = (   0.2000000   0.2000000   0.3103448), wk =   0.0640000
        k(   30) = (   0.2000000   0.2000000   0.6206897), wk =   0.0640000
        k(   31) = (   0.2000000   0.4000000   0.0000000), wk =   0.0640000
        k(   32) = (   0.2000000   0.4000000   0.3103448), wk =   0.1280000
        k(   33) = (   0.2000000   0.4000000   0.6206897), wk =   0.1280000
        k(   34) = (   0.4000000   0.4000000   0.0000000), wk =   0.0320000
        k(   35) = (   0.4000000   0.4000000   0.3103448), wk =   0.0640000
        k(   36) = (   0.4000000   0.4000000   0.6206897), wk =   0.0640000

     Largest allocated arrays     est. size (Mb)     dimensions
     Largest temporary arrays     est. size (Mb)     dimensions

     Check: negative/imaginary core charge=   -0.000003    0.000000

     Initial potential from superposition of free atoms

     starting charge   49.99990, renormalised to   52.00000
     Starting wfc are   34 randomized atomic wfcs

     Self-consistent Calculation

     iteration #  1     ecut=    40.00 Ry     beta=0.70
     Davidson diagonalization with overlap
     ethr =  1.00E-02,  avg # of iterations =  5.0

     total energy              =    -453.73757647 Ry
     Harris-Foulkes estimate   =    -454.01030634 Ry
     estimated scf accuracy    <       3.63920480 Ry

     total magnetization       =    -0.00 Bohr mag/cell
     absolute magnetization    =     0.71 Bohr mag/cell

[...]

     End of self-consistent calculation

 ------ SPIN UP ------------

          k = 0.0000 0.0000 0.0000 (  1447 PWs)   bands (ev):

    -6.6131  -6.4744  -3.9507  -3.5590  -3.4428  -3.4428  -3.0386  -2.7191
    -2.5805  -2.5805  -2.5772  -2.5506  -2.5506   2.2200   7.2964  10.3416
    10.3416  11.2748  11.4423  13.8238  14.8847  14.8847  15.2322  15.7466
    15.7466  16.1025  22.5508  25.1105  25.1105  26.4415  28.5203  31.5054
    31.6300  32.8061  33.0426  33.0426  35.1452  38.9013  39.1755  39.1804
    39.2466  39.2466  39.5333  41.0079  41.0902  41.0902  41.1297  41.1297
    43.0706  43.5211  43.6336  44.0924  48.7637  48.7637  49.5969  50.8810
    50.8810  50.9724  54.0047  54.1274  54.1274  54.2162  57.6952  58.1771
    58.1771  58.5466  59.1611  60.8040  61.0607  61.0607  61.3641  61.3641
    61.8677  61.9132  62.6690

[...]

 ------ SPIN DOWN ----------

[...]

     the Fermi energy is    20.4180 ev

!    total energy              =    -454.62565198 Ry
     Harris-Foulkes estimate   =    -454.62565171 Ry
     estimated scf accuracy    <       0.00000094 Ry

     The total energy is the sum of the following terms:

     one-electron contribution =     -73.25245977 Ry
     hartree contribution      =      91.69930091 Ry
     xc contribution           =    -127.03199471 Ry
     ewald contribution        =    -346.04049841 Ry
     smearing contrib. (-TS)   =       0.00000000 Ry

[...]

     convergence has been achieved in   6 iterations

     Forces acting on atoms (Ry/au):

     atom    1 type  1   force =     0.00000000    0.00000000    0.00000000
     atom    2 type  1   force =     0.00000000    0.00000000    0.00000000
     atom    3 type  2   force =    -0.09806281   -0.09806281   -0.00000000
     atom    4 type  2   force =     0.09806281    0.09806281    0.00000000
     atom    5 type  2   force =    -0.09806281    0.09806281   -0.00000000
     atom    6 type  2   force =     0.09806281   -0.09806281    0.00000000

     Total force =     0.277364     Total SCF correction =     0.000094

     entering subroutine stress ...

          total   stress  (Ry/bohr**3)                   (kbar)     P= 2118.77
   0.01259718   0.00000000   0.00000000       1853.11      0.00      0.00
   0.00000000   0.01259718   0.00000000          0.00   1853.11      0.00
   0.00000000   0.00000000   0.01801490          0.00      0.00   2650.08

     Volume is kept fixed: isostatic pressure set to zero

     BFGS Geometry Optimization

     number of scf cycles    =   1
     number of bfgs steps    =   0

     enthalpy new            =    -454.6256519833 Ry

     new trust radius        =       0.3303959714 bohr
     new conv_thr            =       0.0000010000 Ry

     new unit-cell volume =    334.71740 a.u.^3 (    49.60000 Ang^3 )

CELL_PARAMETERS (alat=  8.03830103)
   0.956747509   0.000000000   0.000000000
   0.000000000   0.956747509   0.000000000
   0.000000000   0.000000000   0.704029413

ATOMIC_POSITIONS (crystal)
Sn0      0.000000000   0.000000000   0.000000000    0   0   0
Sn0      0.500000000   0.500000000   0.500000000    0   0   0
O1       0.292800556   0.292800556   0.000000000    1   1   0
O1      -0.292800556  -0.292800556   0.000000000    1   1   0
O1       0.792800556   0.207199444   0.500000000    1   1   0
O1       0.207199444   0.792800556   0.500000000    1   1   0

     NEW-OLD atomic charge density approx. for the potential
     NEW k-points:
        k(    1) = (   0.0000000   0.0000000   0.0000000), wk =   0.0080000
[...]
        k(   13) = (   0.2113089   0.4226179   0.0000000), wk =   0.0640000
        k(   14) = (   0.2113089   0.4226179   0.2780153), wk =   0.1280000
        k(   15) = (   0.2113089   0.4226179   0.5560307), wk =   0.1280000
        k(   16) = (   0.4226179   0.4226179   0.0000000), wk =   0.0320000
        k(   17) = (   0.4226179   0.4226179   0.2780153), wk =   0.0640000
        k(   18) = (   0.4226179   0.4226179   0.5560307), wk =   0.0640000
        k(   19) = (   0.0000000   0.0000000   0.0000000), wk =   0.0080000
        k(   20) = (   0.0000000   0.0000000   0.2780153), wk =   0.0160000
        k(   21) = (   0.0000000   0.0000000   0.5560307), wk =   0.0160000
        k(   22) = (   0.0000000   0.2113089   0.0000000), wk =   0.0320000
        k(   23) = (   0.0000000   0.2113089   0.2780153), wk =   0.0640000
        k(   24) = (   0.0000000   0.2113089   0.5560307), wk =   0.0640000
        k(   25) = (   0.0000000   0.4226179   0.0000000), wk =   0.0320000
        k(   26) = (   0.0000000   0.4226179   0.2780153), wk =   0.0640000
        k(   27) = (   0.0000000   0.4226179   0.5560307), wk =   0.0640000
        k(   28) = (   0.2113089   0.2113089   0.0000000), wk =   0.0320000
        k(   29) = (   0.2113089   0.2113089   0.2780153), wk =   0.0640000
        k(   30) = (   0.2113089   0.2113089   0.5560307), wk =   0.0640000
        k(   31) = (   0.2113089   0.4226179   0.0000000), wk =   0.0640000
        k(   32) = (   0.2113089   0.4226179   0.2780153), wk =   0.1280000
        k(   33) = (   0.2113089   0.4226179   0.5560307), wk =   0.1280000
        k(   34) = (   0.4226179   0.4226179   0.0000000), wk =   0.0320000
        k(   35) = (   0.4226179   0.4226179   0.2780153), wk =   0.0640000
        k(   36) = (   0.4226179   0.4226179   0.5560307), wk =   0.0640000

[...]

     Threshold (ethr) on eigenvalues was too large:
     Diagonalizing with lowered threshold

     Davidson diagonalization with overlap
     ethr =  2.91E-10,  avg # of iterations =  1.8

[...]

     Volume is kept fixed: isostatic pressure set to zero
Begin final coordinates
     new unit-cell volume =    334.71740 a.u.^3 (    49.60000 Ang^3 )

[...]

ATOMIC_POSITIONS (crystal)
Sn0      0.000000000   0.000000000   0.000000000    0   0   0
Sn0      0.500000000   0.500000000   0.500000000    0   0   0
O1       0.311388539   0.311388539   0.000000000    1   1   0
O1      -0.311388539  -0.311388539   0.000000000    1   1   0
O1       0.811388539   0.188611461   0.500000000    1   1   0
O1       0.188611461   0.811388539   0.500000000    1   1   0
End final coordinates

     lsda relaxation :  a final configuration with zero
                        absolute magnetization has been found

     the program is checking if it is really the minimum energy structure
     by performing a new scf iteration without any "electronic" history

[...]

     starting charge   49.99990, renormalised to   52.00000
     Starting wfc are   34 randomized atomic wfcs
     NEW-OLD atomic charge density approx. for the potential
     NEW k-points:
        k(    1) = (   0.0000000   0.0000000   0.0000000), wk =   0.0080000
        k(    2) = (   0.0000000   0.0000000   0.2780153), wk =   0.0160000
        k(    3) = (   0.0000000   0.0000000   0.5560307), wk =   0.0160000
        k(    4) = (   0.0000000   0.2113089   0.0000000), wk =   0.0320000
        k(    5) = (   0.0000000   0.2113089   0.2780153), wk =   0.0640000
        k(    6) = (   0.0000000   0.2113089   0.5560307), wk =   0.0640000
        k(    7) = (   0.0000000   0.4226179   0.0000000), wk =   0.0320000
        k(    8) = (   0.0000000   0.4226179   0.2780153), wk =   0.0640000
        k(    9) = (   0.0000000   0.4226179   0.5560307), wk =   0.0640000
        k(   10) = (   0.2113089   0.2113089   0.0000000), wk =   0.0320000
        k(   11) = (   0.2113089   0.2113089   0.2780153), wk =   0.0640000
        k(   12) = (   0.2113089   0.2113089   0.5560307), wk =   0.0640000
        k(   13) = (   0.2113089   0.4226179   0.0000000), wk =   0.0640000
        k(   14) = (   0.2113089   0.4226179   0.2780153), wk =   0.1280000
        k(   15) = (   0.2113089   0.4226179   0.5560307), wk =   0.1280000
        k(   16) = (   0.4226179   0.4226179   0.0000000), wk =   0.0320000
        k(   17) = (   0.4226179   0.4226179   0.2780153), wk =   0.0640000
        k(   18) = (   0.4226179   0.4226179   0.5560307), wk =   0.0640000
        k(   19) = (   0.0000000   0.0000000   0.0000000), wk =   0.0080000
        k(   20) = (   0.0000000   0.0000000   0.2780153), wk =   0.0160000
        k(   21) = (   0.0000000   0.0000000   0.5560307), wk =   0.0160000
        k(   22) = (   0.0000000   0.2113089   0.0000000), wk =   0.0320000
        k(   23) = (   0.0000000   0.2113089   0.2780153), wk =   0.0640000
        k(   24) = (   0.0000000   0.2113089   0.5560307), wk =   0.0640000
        k(   25) = (   0.0000000   0.4226179   0.0000000), wk =   0.0320000
        k(   26) = (   0.0000000   0.4226179   0.2780153), wk =   0.0640000
        k(   27) = (   0.0000000   0.4226179   0.5560307), wk =   0.0640000
        k(   28) = (   0.2113089   0.2113089   0.0000000), wk =   0.0320000
        k(   29) = (   0.2113089   0.2113089   0.2780153), wk =   0.0640000
        k(   30) = (   0.2113089   0.2113089   0.5560307), wk =   0.0640000
        k(   31) = (   0.2113089   0.4226179   0.0000000), wk =   0.0640000
        k(   32) = (   0.2113089   0.4226179   0.2780153), wk =   0.1280000
        k(   33) = (   0.2113089   0.4226179   0.5560307), wk =   0.1280000
        k(   34) = (   0.4226179   0.4226179   0.0000000), wk =   0.0320000
        k(   35) = (   0.4226179   0.4226179   0.2780153), wk =   0.0640000
        k(   36) = (   0.4226179   0.4226179   0.5560307), wk =   0.0640000

[...]

     Total force =     0.000040     Total SCF correction =     0.000018
     SCF correction compared to forces is large: reduce conv_thr to get better values

[...]

     Volume is kept fixed: isostatic pressure set to zero

     bfgs converged in   8 scf cycles and   6 bfgs steps
     (criteria: energy < 0.10E-03, force < 0.10E-02, cell < 0.50E+00)

     End of BFGS Geometry Optimization

     Final enthalpy =    -454.7057673472 Ry
Begin final coordinates
     new unit-cell volume =    334.71740 a.u.^3 (    49.60000 Ang^3 )

CELL_PARAMETERS (alat=  8.03830103)
   0.946481498   0.000000000   0.000000000
   0.000000000   0.946481498   0.000000000
   0.000000000   0.000000000   0.719384749

ATOMIC_POSITIONS (crystal)
Sn0      0.000000000   0.000000000   0.000000000    0   0   0
Sn0      0.500000000   0.500000000   0.500000000    0   0   0
O1       0.311388539   0.311388539   0.000000000    1   1   0
O1      -0.311388539  -0.311388539   0.000000000    1   1   0
O1       0.811388539   0.188611461   0.500000000    1   1   0
O1       0.188611461   0.811388539   0.500000000    1   1   0
End final coordinates

     A final scf calculation at the relaxed structure.
     The G-vectors are recalculated for the final unit cell
     Results may differ from those at the preceding step.

     bravais-lattice index     =            0
     lattice parameter (alat)  =       8.0383  a.u.
     unit-cell volume          =     334.7174 (a.u.)^3
     number of atoms/cell      =            6
     number of atomic types    =            2
     number of electrons       =        52.00
     number of Kohn-Sham states=           75
     kinetic-energy cutoff     =      40.0000  Ry
     charge density cutoff     =     500.0000  Ry
     convergence threshold     =      1.0E-08
     mixing beta               =       0.7000
     number of iterations used =            8  plain     mixing
     Exchange-correlation      = SLA  PW   PBE  PBE ( 1 4 3 4 0)
     EXX-fraction              =        0.00

     celldm(1)=   8.038301  celldm(2)=   0.000000  celldm(3)=   0.000000
     celldm(4)=   0.000000  celldm(5)=   0.000000  celldm(6)=   0.000000

     crystal axes: (cart. coord. in units of alat)
               a(1) = (   0.946481   0.000000   0.000000 )
               a(2) = (   0.000000   0.946481   0.000000 )
               a(3) = (   0.000000   0.000000   0.719385 )

     reciprocal axes: (cart. coord. in units 2 pi/alat)
               b(1) = (  1.056545  0.000000  0.000000 )
               b(2) = (  0.000000  1.056545  0.000000 )
               b(3) = (  0.000000  0.000000  1.390077 )

     PseudoPot. # 1 for Sn read from file:
     /home/camp/zhonxu/pseudo/sn_pbe_v1.uspp.F.UPF
     MD5 check sum: 4cf58ce39ec5d5d420df3dd08604eb00
     Pseudo is Ultrasoft + core correction, Zval = 14.0
     Generated by new atomic code, or converted to UPF format
     Using radial grid of  891 points,  6 beta functions with:
                l(1) =   0
                l(2) =   0
                l(3) =   1
                l(4) =   1
                l(5) =   2
                l(6) =   2
     Q(r) pseudized with  6 coefficients,  rinner =    1.200   1.200   1.200
                                                       1.200   1.200

     PseudoPot. # 2 for O  read from file:
     /home/camp/zhonxu/pseudo/o_pbe_v1.01.uspp.F.UPF
     MD5 check sum: 2bcb18d16ea4b960afae9ec6d52f22d2
     Pseudo is Ultrasoft + core correction, Zval =  6.0
     Generated by new atomic code, or converted to UPF format
     Using radial grid of  737 points,  5 beta functions with:
                l(1) =   0
                l(2) =   0
                l(3) =   1
                l(4) =   1
                l(5) =   2
     Q(r) pseudized with  8 coefficients,  rinner =    0.900   0.900   0.900
                                                       0.900   0.900

     atomic species   valence    mass     pseudopotential
        Sn0           14.00   118.71000     Sn( 1.00)
        O1             6.00    15.99940     O ( 1.00)

     Starting magnetic structure
     atomic species   magnetization
        Sn0          0.600
        O1           0.000

     16 Sym. Ops., with inversion, found ( 8 have fractional translation)

   Cartesian axes

     site n.     atom                  positions (alat units)
         1           Sn0 tau(   1) = (   0.0000000   0.0000000   0.0000000  )
         2           Sn0 tau(   2) = (   0.4732407   0.4732407   0.3596924  )
         3           O1  tau(   3) = (   0.2947235   0.2947235   0.0000000  )
         4           O1  tau(   4) = (  -0.2947235  -0.2947235   0.0000000  )
         5           O1  tau(   5) = (   0.7679642   0.1785173   0.3596924  )
         6           O1  tau(   6) = (   0.1785173   0.7679642   0.3596924  )

     number of k points=    36  Methfessel-Paxton smearing, width (Ry)=  0.0100
                       cart. coord. in units 2pi/alat
        k(    1) = (   0.0000000   0.0000000   0.0000000), wk =   0.0080000
        k(    2) = (   0.0000000   0.0000000   0.2780153), wk =   0.0160000
        k(    3) = (   0.0000000   0.0000000   0.5560307), wk =   0.0160000
        k(    4) = (   0.0000000   0.2113089   0.0000000), wk =   0.0320000
        k(    5) = (   0.0000000   0.2113089   0.2780153), wk =   0.0640000
        k(    6) = (   0.0000000   0.2113089   0.5560307), wk =   0.0640000
        k(    7) = (   0.0000000   0.4226179   0.0000000), wk =   0.0320000
        k(    8) = (   0.0000000   0.4226179   0.2780153), wk =   0.0640000
        k(    9) = (   0.0000000   0.4226179   0.5560307), wk =   0.0640000
        k(   10) = (   0.2113089   0.2113089   0.0000000), wk =   0.0320000
        k(   11) = (   0.2113089   0.2113089   0.2780153), wk =   0.0640000
        k(   12) = (   0.2113089   0.2113089   0.5560307), wk =   0.0640000
        k(   13) = (   0.2113089   0.4226179   0.0000000), wk =   0.0640000
        k(   14) = (   0.2113089   0.4226179   0.2780153), wk =   0.1280000
        k(   15) = (   0.2113089   0.4226179   0.5560307), wk =   0.1280000
        k(   16) = (   0.4226179   0.4226179   0.0000000), wk =   0.0320000
        k(   17) = (   0.4226179   0.4226179   0.2780153), wk =   0.0640000
        k(   18) = (   0.4226179   0.4226179   0.5560307), wk =   0.0640000
        k(   19) = (   0.0000000   0.0000000   0.0000000), wk =   0.0080000
        k(   20) = (   0.0000000   0.0000000   0.2780153), wk =   0.0160000
        k(   21) = (   0.0000000   0.0000000   0.5560307), wk =   0.0160000
        k(   22) = (   0.0000000   0.2113089   0.0000000), wk =   0.0320000
        k(   23) = (   0.0000000   0.2113089   0.2780153), wk =   0.0640000
        k(   24) = (   0.0000000   0.2113089   0.5560307), wk =   0.0640000
        k(   25) = (   0.0000000   0.4226179   0.0000000), wk =   0.0320000
        k(   26) = (   0.0000000   0.4226179   0.2780153), wk =   0.0640000
        k(   27) = (   0.0000000   0.4226179   0.5560307), wk =   0.0640000
        k(   28) = (   0.2113089   0.2113089   0.0000000), wk =   0.0320000
        k(   29) = (   0.2113089   0.2113089   0.2780153), wk =   0.0640000
        k(   30) = (   0.2113089   0.2113089   0.5560307), wk =   0.0640000
        k(   31) = (   0.2113089   0.4226179   0.0000000), wk =   0.0640000
        k(   32) = (   0.2113089   0.4226179   0.2780153), wk =   0.1280000
        k(   33) = (   0.2113089   0.4226179   0.5560307), wk =   0.1280000
        k(   34) = (   0.4226179   0.4226179   0.0000000), wk =   0.0320000
        k(   35) = (   0.4226179   0.4226179   0.2780153), wk =   0.0640000
        k(   36) = (   0.4226179   0.4226179   0.5560307), wk =   0.0640000

     Largest allocated arrays     est. size (Mb)     dimensions
     Largest temporary arrays     est. size (Mb)     dimensions

     Check: negative/imaginary core charge=   -0.000003    0.000000

     Initial potential from superposition of free atoms

     starting charge   49.99990, renormalised to   52.00000
     Starting wfc are   34 randomized atomic wfcs

     Self-consistent Calculation

[...]

     total energy              =    -454.70592677 Ry
     Harris-Foulkes estimate   =    -454.70592671 Ry
     estimated scf accuracy    <       0.00000005 Ry

[...]

     iteration #  8     ecut=    40.00 Ry     beta=0.70
     Davidson diagonalization with overlap
     ethr =  9.23E-11,  avg # of iterations =  2.0

     End of self-consistent calculation

 ------ SPIN UP ------------

[...]

 ------ SPIN DOWN ----------

[...]

          k = 0.4226 0.4226 0.5560 (  1441 PWs)   bands (ev):

    -5.6761  -5.3711  -5.1318  -4.6610  -2.8789  -2.8630  -2.7056  -2.6998
    -2.6809  -2.6594  -1.4482  -0.8292   0.8220   1.3075   6.5377   6.7247
     9.7574   9.8454  12.3909  13.7574  14.4290  14.8658  14.9361  15.1141
    15.2381  15.8826  26.2495  26.5636  27.0811  27.1763  29.0950  29.5172
    31.0412  31.2011  32.6137  32.9729  34.5352  34.8579  36.7524  38.5390
    38.9322  39.0409  39.0465  40.1019  40.4569  40.7312  42.4674  42.9758
    45.2907  45.4270  46.7476  46.9361  48.5210  49.3028  51.4766  51.8289
    52.3734  54.2611  54.8597  55.0678  55.3282  56.0331  57.6952  57.8083
    58.2596  58.9112  59.3032  60.4089  60.4251  61.1496  61.4828  62.3367
    62.5586  62.9835  63.5369

     the Fermi energy is    20.7175 ev

!    total energy              =    -454.70592680 Ry
     Harris-Foulkes estimate   =    -454.70592680 Ry
     estimated scf accuracy    <          5.0E-10 Ry

     The total energy is the sum of the following terms:

     one-electron contribution =     -64.11746592 Ry
     hartree contribution      =      87.35330442 Ry
     xc contribution           =    -126.83727152 Ry
     ewald contribution        =    -351.10449378 Ry
     smearing contrib. (-TS)   =       0.00000000 Ry

     total magnetization       =     0.00 Bohr mag/cell
     absolute magnetization    =     0.00 Bohr mag/cell

     convergence has been achieved in   8 iterations

     Forces acting on atoms (Ry/au):

     atom    1 type  1   force =     0.00000000    0.00000000    0.00000000
     atom    2 type  1   force =     0.00000000    0.00000000    0.00000000
     atom    3 type  2   force =     0.00014705    0.00014705   -0.00000000
     atom    4 type  2   force =    -0.00014705   -0.00014705    0.00000000
     atom    5 type  2   force =     0.00014705   -0.00014705   -0.00000000
     atom    6 type  2   force =    -0.00014705    0.00014705    0.00000000

     Total force =     0.000416     Total SCF correction =     0.000018

     entering subroutine stress ...

          total   stress  (Ry/bohr**3)                   (kbar)     P= 1936.49
   0.01316419   0.00000000   0.00000000       1936.52      0.00      0.00
   0.00000000   0.01316419   0.00000000          0.00   1936.52      0.00
   0.00000000   0.00000000   0.01316359          0.00      0.00   1936.43

     General routines

     Parallel routines

   This run was terminated on:  20:56:34  23Jan2014

   JOB DONE.