     Program PWSCF v.5.0.2 (svn rev. 9656) starts on 14May2014 at  8: 3:21

     Current dimensions of program PWSCF are:
     Max number of different atomic species (ntypx) = 10
     Max number of k-points (npk) =  40000
     Max angular momentum in pseudopotentials (lmaxx) =  3
     Reading input from pwscf.in
Warning: card &CELL ignored
Warning: card / ignored

     Subspace diagonalization in iterative solution of the eigenvalue problem:
     a serial algorithm will be used

     Found symmetry operation: I + ( -0.5000  0.0000  0.0000)
     This is a supercell, fractional translations are disabled

     bravais-lattice index     =            0
     lattice parameter (alat)  =      10.3179  a.u.
     unit-cell volume          =    6964.3238 (a.u.)^3
     number of atoms/cell      =           30
     number of atomic types    =            3
     number of electrons       =       224.00
     number of Kohn-Sham states=          336
     kinetic-energy cutoff     =      40.0000  Ry
     charge density cutoff     =     500.0000  Ry
     convergence threshold     =      1.0E-06
     mixing beta               =       0.7000
     number of iterations used =            8  plain     mixing
     Exchange-correlation      = SLA  PW   PBE  PBE ( 1 4 3 4 0)
     EXX-fraction              =        0.00
     nstep                     =           50

     celldm(1)=  10.317905  celldm(2)=   0.000000  celldm(3)=   0.000000
     celldm(4)=   0.000000  celldm(5)=   0.000000  celldm(6)=   0.000000

     crystal axes: (cart. coord. in units of alat)
               a(1) = (   1.000000   0.000000   0.000000 )
               a(2) = (   0.000000   1.282117   0.000000 )
               a(3) = (   0.000000   0.000000   4.945120 )

     reciprocal axes: (cart. coord. in units 2 pi/alat)
               b(1) = (  1.000000  0.000000  0.000000 )
               b(2) = (  0.000000  0.779960  0.000000 )
               b(3) = (  0.000000  0.000000  0.202220 )

     PseudoPot. # 1 for O  read from file:
     /home/camp/zhonxu/pseudo/o_pbe_v1.01.uspp.F.UPF
     MD5 check sum: 2bcb18d16ea4b960afae9ec6d52f22d2
     Pseudo is Ultrasoft + core correction, Zval =  6.0
     Generated by new atomic code, or converted to UPF format
     Using radial grid of  737 points,  5 beta functions with:
                l(1) =   0
                l(2) =   0
                l(3) =   1
                l(4) =   1
                l(5) =   2
     Q(r) pseudized with  8 coefficients,  rinner =    0.900   0.900   0.900
                                                       0.900   0.900

     PseudoPot. # 2 for Mo read from file:
     /home/camp/zhonxu/pseudo/mo_pbe_v1.uspp.F.UPF
     MD5 check sum: 30c4dcd161f5d35cd49bb5239c51a633
     Pseudo is Ultrasoft + core correction, Zval = 14.0
     Generated by new atomic code, or converted to UPF format
     Using radial grid of  889 points,  6 beta functions with:
                l(1) =   0
                l(2) =   0
                l(3) =   1
                l(4) =   1
                l(5) =   2
                l(6) =   2
     Q(r) pseudized with  6 coefficients,  rinner =    1.000   1.000   1.000
                                                       1.000   1.000

     PseudoPot. # 3 for H  read from file:
     /home/camp/zhonxu/pseudo/h_pbe_v1.uspp.F.UPF
     MD5 check sum: 3408e3ff4ec8b0a4e358431e7e038a48
     Pseudo is Ultrasoft, Zval =  1.0
     Generated by new atomic code, or converted to UPF format
     Using radial grid of  615 points,  2 beta functions with:
                l(1) =   0
                l(2) =   0
     Q(r) pseudized with  8 coefficients,  rinner =    0.700

     atomic species   valence    mass     pseudopotential
        O0             6.00    15.99940     O ( 1.00)
        Mo1           14.00    95.94000     Mo( 1.00)
        H2             1.00     1.00794     H ( 1.00)

     Simplified LDA+U calculation (l_max = 2) with parameters (eV):
     atomic species    L          U    alpha       J0     beta
        Mo1            2     0.0000   0.0000   0.0000   0.0000

     No symmetry found

   Cartesian axes

     site n.     atom                  positions (alat units)
         1           O0  tau(   1) = (   0.0000000   0.0000000   1.8465574  )
         2           O0  tau(   2) = (   0.0000000   0.6410583   1.8808271  )
         3           Mo1 tau(   3) = (   0.2500000   0.6410583   2.1650231  )
         4           Mo1 tau(   4) = (   0.0000000   0.0000000   2.2064633  )
         5           O0  tau(   5) = (   0.2500000   1.0000510   2.1927158  )
         6           O0  tau(   6) = (   0.2500000   0.2820657   2.1921224  )
         7           O0  tau(   7) = (   0.0000000   0.6410583   2.4520379  )
         8           O0  tau(   8) = (   0.0000000   0.0000000   2.5658746  )
         9           Mo1 tau(   9) = (   0.2500000   0.0000000   2.8596642  )
        10           Mo1 tau(  10) = (   0.0000000   0.6410583   2.7884050  )
        11           O0  tau(  11) = (   0.2500000   0.9231240   2.8369661  )
        12           O0  tau(  12) = (   0.2500000   0.3589927   2.8372628  )
        13           O0  tau(  13) = (   0.0000000   0.0000000   3.1104807  )
        14           O0  tau(  14) = (   0.5000000   0.0000000   1.8465574  )
        15           O0  tau(  15) = (   0.5000000   0.6410583   1.8808271  )
        16           Mo1 tau(  16) = (   0.7500000   0.6410583   2.1650231  )
        17           Mo1 tau(  17) = (   0.5000000   0.0000000   2.2064633  )
        18           O0  tau(  18) = (   0.7500000   1.0000510   2.1927158  )
        19           O0  tau(  19) = (   0.7500000   0.2820657   2.1921224  )
        20           O0  tau(  20) = (   0.5000000   0.6410583   2.4520379  )
        21           O0  tau(  21) = (   0.5000000   0.0000000   2.5658746  )
        22           Mo1 tau(  22) = (   0.7500000   0.0000000   2.8596642  )
        23           Mo1 tau(  23) = (   0.5000000   0.6410583   2.7884050  )
        24           O0  tau(  24) = (   0.7500000   0.9231240   2.8369661  )
        25           O0  tau(  25) = (   0.7500000   0.3589927   2.8372628  )
        26           O0  tau(  26) = (   0.5000000   0.0000000   3.1104807  )
        27           H2  tau(  27) = (  -0.0004900   0.7868222   1.7746059  )
        28           H2  tau(  28) = (   0.4995100   0.7868222   1.7746059  )
        29           H2  tau(  29) = (   0.1657500   0.0265270   1.7749026  )
        30           H2  tau(  30) = (   0.6657500   0.0265270   1.7749026  )

     number of k points=    10  Methfessel-Paxton smearing, width (Ry)=  0.0100
                       cart. coord. in units 2pi/alat
        k(    1) = (   0.0000000   0.0000000   0.0000000), wk =   0.1250000
        k(    2) = (   0.0000000   0.1949901   0.0000000), wk =   0.2500000
        k(    3) = (   0.0000000  -0.3899801   0.0000000), wk =   0.1250000
        k(    4) = (   0.2500000   0.0000000   0.0000000), wk =   0.2500000
        k(    5) = (   0.2500000   0.1949901   0.0000000), wk =   0.2500000
        k(    6) = (   0.2500000  -0.3899801   0.0000000), wk =   0.2500000
        k(    7) = (  -0.5000000   0.0000000   0.0000000), wk =   0.1250000
        k(    8) = (  -0.5000000   0.1949901   0.0000000), wk =   0.2500000
        k(    9) = (  -0.5000000  -0.3899801   0.0000000), wk =   0.1250000
        k(   10) = (  -0.2500000   0.1949901   0.0000000), wk =   0.2500000

     Largest allocated arrays     est. size (Mb)     dimensions
     Largest temporary arrays     est. size (Mb)     dimensions

     Check: negative/imaginary core charge=   -0.000003    0.000000

     Initial potential from superposition of free atoms
     Check: negative starting charge=   -0.002478

     starting charge  223.99143, renormalised to  224.00000

     negative rho (up, down):  0.248E-02 0.000E+00
     Number of +U iterations with fixed ns =  0
     Starting occupations:
 --- enter write_ns ---
 LDA+U parameters:
U( 2)     =  0.00000000
alpha( 2) =  0.00000000
atom    3   Tr[ns(na)] =   5.00000
    eigenvalues:
  0.500  0.500  0.500  0.500  0.500
    eigenvectors:
  1.000  0.000  0.000  0.000  0.000
  0.000  1.000  0.000  0.000  0.000
  0.000  0.000  1.000  0.000  0.000
  0.000  0.000  0.000  1.000  0.000
  0.000  0.000  0.000  0.000  1.000
    occupations:
  0.500  0.000  0.000  0.000  0.000
  0.000  0.500  0.000  0.000  0.000
  0.000  0.000  0.500  0.000  0.000
  0.000  0.000  0.000  0.500  0.000
  0.000  0.000  0.000  0.000  0.500
atom    4   Tr[ns(na)] =   5.00000
    eigenvalues:
  0.500  0.500  0.500  0.500  0.500
    eigenvectors:
  1.000  0.000  0.000  0.000  0.000
  0.000  1.000  0.000  0.000  0.000
  0.000  0.000  1.000  0.000  0.000
  0.000  0.000  0.000  1.000  0.000
  0.000  0.000  0.000  0.000  1.000
    occupations:
  0.500  0.000  0.000  0.000  0.000
  0.000  0.500  0.000  0.000  0.000
  0.000  0.000  0.500  0.000  0.000
  0.000  0.000  0.000  0.500  0.000
  0.000  0.000  0.000  0.000  0.500
atom    9   Tr[ns(na)] =   5.00000
    eigenvalues:
  0.500  0.500  0.500  0.500  0.500
    eigenvectors:
  1.000  0.000  0.000  0.000  0.000
  0.000  1.000  0.000  0.000  0.000
  0.000  0.000  1.000  0.000  0.000
  0.000  0.000  0.000  1.000  0.000
  0.000  0.000  0.000  0.000  1.000
    occupations:
  0.500  0.000  0.000  0.000  0.000
  0.000  0.500  0.000  0.000  0.000
  0.000  0.000  0.500  0.000  0.000
  0.000  0.000  0.000  0.500  0.000
  0.000  0.000  0.000  0.000  0.500
atom   10   Tr[ns(na)] =   5.00000
    eigenvalues:
  0.500  0.500  0.500  0.500  0.500
    eigenvectors:
  1.000  0.000  0.000  0.000  0.000
  0.000  1.000  0.000  0.000  0.000
  0.000  0.000  1.000  0.000  0.000
  0.000  0.000  0.000  1.000  0.000
  0.000  0.000  0.000  0.000  1.000
    occupations:
  0.500  0.000  0.000  0.000  0.000
  0.000  0.500  0.000  0.000  0.000
  0.000  0.000  0.500  0.000  0.000
  0.000  0.000  0.000  0.500  0.000
  0.000  0.000  0.000  0.000  0.500
atom   16   Tr[ns(na)] =   5.00000
    eigenvalues:
  0.500  0.500  0.500  0.500  0.500
    eigenvectors:
  1.000  0.000  0.000  0.000  0.000
  0.000  1.000  0.000  0.000  0.000
  0.000  0.000  1.000  0.000  0.000
  0.000  0.000  0.000  1.000  0.000
  0.000  0.000  0.000  0.000  1.000
    occupations:
  0.500  0.000  0.000  0.000  0.000
  0.000  0.500  0.000  0.000  0.000
  0.000  0.000  0.500  0.000  0.000
  0.000  0.000  0.000  0.500  0.000
  0.000  0.000  0.000  0.000  0.500
atom   17   Tr[ns(na)] =   5.00000
    eigenvalues:
  0.500  0.500  0.500  0.500  0.500
    eigenvectors:
  1.000  0.000  0.000  0.000  0.000
  0.000  1.000  0.000  0.000  0.000
  0.000  0.000  1.000  0.000  0.000
  0.000  0.000  0.000  1.000  0.000
  0.000  0.000  0.000  0.000  1.000
    occupations:
  0.500  0.000  0.000  0.000  0.000
  0.000  0.500  0.000  0.000  0.000
  0.000  0.000  0.500  0.000  0.000
  0.000  0.000  0.000  0.500  0.000
  0.000  0.000  0.000  0.000  0.500
atom   22   Tr[ns(na)] =   5.00000
    eigenvalues:
  0.500  0.500  0.500  0.500  0.500
    eigenvectors:
  1.000  0.000  0.000  0.000  0.000
  0.000  1.000  0.000  0.000  0.000
  0.000  0.000  1.000  0.000  0.000
  0.000  0.000  0.000  1.000  0.000
  0.000  0.000  0.000  0.000  1.000
    occupations:
[...]

     total energy              =   -1700.22910672 Ry
     Harris-Foulkes estimate   =   -1700.22910775 Ry
     estimated scf accuracy    <       0.00000460 Ry

     iteration # 22     ecut=    40.00 Ry     beta=0.70
     Davidson diagonalization with overlap
     ethr =  2.05E-09,  avg # of iterations =  1.0

     negative rho (up, down):  0.351E-02 0.000E+00

     End of self-consistent calculation
 --- enter write_ns ---
 LDA+U parameters:
U( 2)     =  0.00000000
alpha( 2) =  0.00000000
atom    3   Tr[ns(na)] =   5.82088
    eigenvalues:
  0.502  0.520  0.556  0.604  0.729
    eigenvectors:
  0.000  0.017  0.368  0.000  0.616
  1.000  0.000  0.000  0.000  0.000
  0.000  0.983  0.010  0.000  0.008
  0.000  0.001  0.623  0.000  0.377
  0.000  0.000  0.000  1.000  0.000
    occupations:
  0.662 -0.000  0.017 -0.084  0.000
 -0.000  0.502 -0.000 -0.000 -0.001
  0.017 -0.000  0.522 -0.009 -0.000
 -0.084 -0.000 -0.009  0.621 -0.000
  0.000 -0.001 -0.000 -0.000  0.604
atom    4   Tr[ns(na)] =   5.80308
    eigenvalues:
  0.492  0.524  0.577  0.600  0.708
    eigenvectors:
  0.000  0.000  0.961  0.037  0.002
  0.001  0.000  0.037  0.962  0.000
  0.999  0.000  0.000  0.001  0.000
  0.000  0.000  0.002  0.000  0.997
  0.000  1.000  0.000  0.000  0.000
    occupations:
  0.578  0.004  0.001 -0.006  0.000
  0.004  0.599  0.004 -0.001 -0.000
  0.001  0.004  0.492 -0.001  0.000
 -0.006 -0.001 -0.001  0.708  0.000
  0.000 -0.000  0.000  0.000  0.524
atom    9   Tr[ns(na)] =   5.80961
    eigenvalues:
  0.534  0.537  0.577  0.584  0.672
    eigenvectors:
  0.000  0.000  0.247  0.000  0.753
  0.000  0.000  0.000  1.000  0.000
  0.001  0.999  0.000  0.000  0.000
  0.000  0.000  0.753  0.000  0.247
  0.999  0.001  0.000  0.000  0.000
    occupations:
  0.649 -0.000  0.001 -0.041 -0.001
 -0.000  0.584 -0.000  0.000 -0.001
  0.001 -0.000  0.537 -0.001  0.000
 -0.041  0.000 -0.001  0.601  0.000
 -0.001 -0.001  0.000  0.000  0.534
atom   10   Tr[ns(na)] =   5.76722
    eigenvalues:
  0.501  0.509  0.521  0.620  0.732
    eigenvectors:
  0.982  0.000  0.009  0.000  0.009
  0.000  0.000  0.000  1.000  0.000
  0.009  0.000  0.991  0.000  0.000
  0.009  0.000  0.000  0.000  0.991
  0.000  1.000  0.000  0.000  0.000
    occupations:
  0.504  0.000 -0.002 -0.022  0.000
  0.000  0.620 -0.000  0.000 -0.000
 -0.002 -0.000  0.521 -0.000 -0.000
 -0.022  0.000 -0.000  0.730  0.000
  0.000 -0.000 -0.000  0.000  0.509
atom   16   Tr[ns(na)] =   5.82106
    eigenvalues:
  0.502  0.520  0.556  0.604  0.729
    eigenvectors:
  0.000  0.017  0.368  0.000  0.616
  1.000  0.000  0.000  0.000  0.000
  0.000  0.983  0.010  0.000  0.008
  0.000  0.001  0.623  0.000  0.377
  0.000  0.000  0.000  1.000  0.000
    occupations:
  0.662 -0.000  0.017 -0.084  0.000
 -0.000  0.502 -0.000 -0.000 -0.001
  0.017 -0.000  0.522 -0.009 -0.000
 -0.084 -0.000 -0.009  0.621 -0.000
  0.000 -0.001 -0.000 -0.000  0.604
atom   17   Tr[ns(na)] =   5.80358
    eigenvalues:
  0.492  0.524  0.577  0.600  0.708
    eigenvectors:
  0.000  0.000  0.961  0.036  0.002
  0.001  0.000  0.037  0.962  0.000
  0.999  0.000  0.000  0.001  0.000
  0.000  0.000  0.002  0.000  0.997
  0.000  1.000  0.000  0.000  0.000
    occupations:
  0.578  0.004  0.001 -0.006  0.000
  0.004  0.599  0.004 -0.001 -0.000
  0.001  0.004  0.493 -0.001  0.000
 -0.006 -0.001 -0.001  0.708  0.000
  0.000 -0.000  0.000  0.000  0.524
atom   22   Tr[ns(na)] =   5.80969
    eigenvalues:
  0.534  0.537  0.577  0.584  0.672
    eigenvectors:
  0.000  0.000  0.247  0.000  0.753
  0.000  0.000  0.000  1.000  0.000
  0.001  0.999  0.000  0.000  0.000
  0.000  0.000  0.753  0.000  0.247
  0.999  0.001  0.000  0.000  0.000
    occupations:
  0.649 -0.000  0.001 -0.041 -0.001
 -0.000  0.584 -0.000  0.000 -0.001
  0.001 -0.000  0.537 -0.001  0.000
 -0.041  0.000 -0.001  0.601  0.000
 -0.001 -0.001  0.000  0.000  0.534
atom   23   Tr[ns(na)] =   5.76695
    eigenvalues:
  0.501  0.509  0.521  0.620  0.732
    eigenvectors:
  0.982  0.000  0.009  0.000  0.009
  0.000  0.000  0.000  1.000  0.000
  0.009  0.000  0.991  0.000  0.000
  0.009  0.000  0.000  0.000  0.991
  0.000  1.000  0.000  0.000  0.000
    occupations:
  0.504  0.000 -0.002 -0.022  0.000
  0.000  0.620 -0.000  0.000 -0.000
 -0.002 -0.000  0.521 -0.000 -0.000
 -0.022  0.000 -0.000  0.730  0.000
  0.000 -0.000 -0.000  0.000  0.509
N of occupied +U levels =  46.4020697
 --- exit write_ns ---

          k = 0.0000 0.0000 0.0000 ( 29769 PWs)   bands (ev):

   -62.4162 -62.3441 -62.3021 -62.2946 -62.2289 -62.2005 -62.1857 -62.0842
   -37.1170 -36.8243 -36.8208 -36.7779 -36.7603 -36.7473 -36.6731 -36.6328
   -36.5363 -36.5317 -36.4232 -36.4173 -36.3837 -36.3795 -36.3605 -36.3547
   -36.2439 -36.2294 -36.1696 -36.1565 -36.0259 -35.7896 -35.7485 -35.6789
   -20.8616 -20.5172 -20.0751 -19.8885 -19.7569 -19.4962 -19.4746 -19.1386
   -19.0316 -19.0193 -19.0074 -18.9981 -18.8332 -18.7989 -18.6303 -18.6202
   -18.0178 -17.7850  -8.9194  -8.6430  -8.3115  -8.2925  -8.1778  -7.6950
    -7.3958  -7.3080  -7.2441  -7.0139  -7.0028  -6.9350  -6.8470  -6.8463
    -6.5765  -6.4529  -6.3061  -6.2691  -6.2249  -6.0932  -6.0834  -5.8506
    -5.8033  -5.3234  -5.2887  -5.1268  -5.1039  -4.9875  -4.9046  -4.8734
    -4.7588  -4.6590  -4.6081  -4.5464  -4.4854  -4.3780  -4.1885  -4.1139
    -3.9720  -3.9095  -3.8595  -3.6393  -3.6233  -3.4082  -3.2520  -3.2214
    -3.1904  -3.0950  -3.0472  -3.0058  -2.8130  -2.7206  -2.5405  -2.5009
    -2.3996  -2.3576  -2.1127  -0.5286  -0.3971  -0.2571   0.0758   0.1751
     0.2137   0.5895   0.6378   0.7484   0.8263   1.0350   1.0858   1.3042
     1.3749   1.5107   1.6815   1.9841   2.0485   2.6616   2.9325   3.0506
     3.0980   3.1057   3.1995   3.5304   3.9017   3.9146   4.2323   4.2693
     4.3118   4.4855   4.5433   4.5611   4.6667   4.7138   4.7244   4.9296
     5.1116   5.2113   5.2206   5.3740   5.8835   6.2208   6.2253   6.4774
     6.9480   7.1794   7.2378   7.3907   7.4885   7.5913   7.7444   7.8820
     7.9161   8.0062   8.2254   8.2983   8.4969   8.6441   8.7064   8.7773
     8.7992   9.0429   9.1044   9.2273   9.2807   9.3985   9.5122   9.6069
     9.6805   9.7430   9.7618   9.8270   9.9213   9.9340  10.0474  10.1675
    10.3185  10.4070  10.4763  10.5066  10.6941  10.7850  10.9173  10.9652
    11.1395  11.2542  11.5218  11.5274  11.5648  11.6706  11.7292  11.7938
    11.7943  11.9085  12.0110  12.2754  12.2960  12.3803  12.4726  12.4847
    12.5513  12.5799  12.6026  12.6635  12.6772  12.7641  12.8308  12.8704
    12.9643  13.0010  13.0192  13.3167  13.3232  13.3349  13.3817  13.4990
    13.5586  13.5804  13.5858  13.7693  13.8260  13.8384  13.8999  14.0030
    14.0270  14.1678  14.3137  14.3316  14.3968  14.5460  14.6217  14.8316
    14.8373  14.9060  14.9409  15.0370  15.0753  15.1839  15.3176  15.4352
    15.4520  15.5695  15.6542  15.6723  15.6882  15.8453  15.8677  15.9311
    16.0434  16.0986  16.1258  16.1915  16.1978  16.3149  16.4272  16.5711
    16.5994  16.6514  16.6942  16.7503  16.7556  16.8113  16.8183  17.0381
    17.0651  17.1449  17.1523  17.2649  17.5841  17.6237  17.7350  17.7660
    17.8750  17.9903  18.0148  18.1010  18.1484  18.2937  18.3453  18.4636
    18.4937  18.5048  18.5897  18.6527  18.7263  18.8637  18.8665  18.8997
    19.1091  19.1155  19.3239  19.3591  19.4224  19.4655  19.5681  19.6040
    19.6555  19.6694  19.7085  19.9016  19.9583  20.0904  20.1910  20.3219
    20.3478  20.3878  20.4229  20.4559  20.6728  20.6773  20.7501  20.7736
    20.8504  20.9524  21.0149  21.2242  21.2620  21.4460  21.4942  21.5547
    21.5613  21.5820  21.5915  21.6428  21.6623  21.7472  21.7496  21.7714

[...]

          k = 0.2500-0.3900 0.0000 ( 29726 PWs)   bands (ev):

[...]

          k =-0.5000 0.0000 0.0000 ( 29752 PWs)   bands (ev):

[...]

          k =-0.2500 0.1950 0.0000 ( 29746 PWs)   bands (ev):

   -62.3986 -62.3275 -62.3126 -62.2852 -62.2460 -62.2030 -62.1837 -62.1014
   -36.9672 -36.8046 -36.7334 -36.7291 -36.6841 -36.6732 -36.6108 -36.5661
   -36.5163 -36.4877 -36.4339 -36.4065 -36.3769 -36.3754 -36.3531 -36.3372
   -36.2723 -36.2559 -36.1992 -36.1904 -36.1895 -35.9489 -35.9074 -35.8396
   -20.7646 -20.5223 -19.9077 -19.6846 -19.6423 -19.6014 -19.4152 -19.3384
   -19.2632 -19.0676 -19.0416 -18.8631 -18.8231 -18.7914 -18.6342 -18.5929
   -18.0737 -17.9252  -8.7444  -8.6322  -7.9831  -7.7117  -7.6183  -7.5912
    -7.5158  -7.3208  -7.3197  -7.2290  -7.1349  -7.0348  -6.9069  -6.8411
    -6.6149  -6.2629  -6.2046  -6.0968  -6.0658  -5.9321  -5.8303  -5.8183
    -5.6638  -5.5573  -5.4051  -5.3334  -5.2496  -5.2328  -5.0183  -4.8778
    -4.7223  -4.6148  -4.5957  -4.4749  -4.3792  -4.3107  -4.3095  -4.1752
    -4.1708  -4.0982  -4.0614  -3.8639  -3.7953  -3.6829  -3.4894  -3.3512
    -3.3164  -3.2487  -3.1869  -3.0495  -2.9890  -2.7522  -2.6484  -2.4553
    -1.6087  -1.4474  -1.3173  -0.6456  -0.5261  -0.2876  -0.2739   0.1101
     0.1998   0.5692   0.7798   0.8225   1.0008   1.0387   1.1798   1.3991
     1.4412   1.4669   1.6160   1.6863   1.9477   1.9605   2.0096   2.1263
     2.3867   2.4529   3.3357   3.4713   3.6787   3.6933   3.8875   4.0210
     4.3193   4.3454   4.5671   4.6074   4.7223   4.8638   4.9594   5.1904
     5.5442   5.6697   5.7649   5.9023   5.9271   6.0829   6.2932   6.4194
     6.5673   6.6696   6.9610   6.9959   7.1157   7.2823   7.5206   7.6114
     7.9336   7.9400   8.1779   8.2786   8.2916   8.4767   8.6447   8.6461
     8.9134   8.9907   9.0667   9.2862   9.4002   9.4279   9.5094   9.5404
     9.5746   9.6077   9.8378   9.9733  10.0312  10.1791  10.2193  10.2775
    10.4784  10.4816  10.6117  10.7122  10.7324  10.9196  11.0516  11.0779
    11.0849  11.2407  11.5221  11.6015  11.6092  11.7382  11.7995  11.9210
    11.9508  12.0829  12.2642  12.3164  12.3389  12.3716  12.4540  12.5794
    12.6841  12.7337  12.8389  12.8922  12.9632  13.0498  13.1094  13.1889
    13.3197  13.4187  13.4326  13.4910  13.5139  13.6244  13.6671  13.7194
    13.8500  13.8802  13.9625  13.9959  14.1229  14.1570  14.2530  14.3453
    14.3924  14.4498  14.5082  14.5725  14.6102  14.7324  14.8381  14.8463
    14.9464  15.0349  15.0467  15.2032  15.2881  15.3843  15.4944  15.5336
    15.6365  15.6568  15.7464  15.8104  15.8828  15.9454  16.0309  16.0917
    16.1824  16.2651  16.2886  16.3318  16.3698  16.4446  16.5816  16.6846
    16.7095  16.7696  16.7747  16.8865  17.0111  17.0863  17.1729  17.1871
    17.2171  17.3090  17.3419  17.3996  17.4996  17.6812  17.6942  17.7875
    17.8966  17.9139  18.0834  18.0995  18.1807  18.2177  18.3178  18.3439
    18.4158  18.4332  18.5201  18.5466  18.6084  18.7775  18.8636  18.9894
    19.0613  19.1131  19.1392  19.2455  19.2901  19.4972  19.5533  19.5997
    19.6936  19.7647  19.7911  19.8975  19.9674  20.0442  20.1278  20.1400
    20.2052  20.2607  20.3270  20.3615  20.4097  20.4236  20.4939  20.5169
    20.6470  20.6938  20.7317  20.8127  20.9257  20.9693  21.0204  21.0565
    21.1082  21.1902  21.2044  21.2924  21.4289  21.4774  21.5564  21.6441

     the Fermi energy is     0.1214 ev

!    total energy              =   -1700.22910652 Ry
     Harris-Foulkes estimate   =   -1700.22910738 Ry
     estimated scf accuracy    <       0.00000091 Ry

     The total energy is the sum of the following terms:

     one-electron contribution =  -21422.57407312 Ry
     hartree contribution      =   10732.57772582 Ry
     xc contribution           =    -286.60249126 Ry
     ewald contribution        =    9276.37126585 Ry
     Hubbard energy            =       0.00000000 Ry
     smearing contrib. (-TS)   =      -0.00153381 Ry

     convergence has been achieved in  22 iterations

     Forces acting on atoms (Ry/au):

     negative rho (up, down):  0.351E-02 0.000E+00
     atom    1 type  1   force =    -0.00277666   -0.00551833   -0.00078903
     atom    2 type  1   force =    -0.00005052    0.01001158    0.00064149
     atom    3 type  2   force =    -0.00033463   -0.00554085    0.00042591
     atom    4 type  2   force =    -0.00065846    0.00355188   -0.00046386
     atom    5 type  1   force =     0.00167263    0.00472570    0.00007965
     atom    6 type  1   force =    -0.00009949   -0.00749012    0.00011800
     atom    7 type  1   force =     0.00025850    0.00053915   -0.00015354
     atom    8 type  1   force =     0.00307234    0.00064504    0.00021441
     atom    9 type  2   force =    -0.00198536   -0.00037921    0.00059107
     atom   10 type  2   force =     0.00001361    0.00079475   -0.00006876
     atom   11 type  1   force =    -0.00021745   -0.05209364   -0.00070953
     atom   12 type  1   force =     0.00031662    0.05133560   -0.00073748
     atom   13 type  1   force =     0.00000179    0.00017144    0.00055497
     atom   14 type  1   force =    -0.00280142   -0.00552191   -0.00084481
     atom   15 type  1   force =    -0.00007738    0.01000681    0.00062186
     atom   16 type  2   force =    -0.00031850   -0.00554136    0.00042928
     atom   17 type  2   force =    -0.00064843    0.00355150   -0.00046047
     atom   18 type  1   force =     0.00175908    0.00474555    0.00008100
     atom   19 type  1   force =    -0.00001276   -0.00750824    0.00011863
     atom   20 type  1   force =     0.00023234    0.00053821   -0.00009872
     atom   21 type  1   force =     0.00305541    0.00064708    0.00026746
     atom   22 type  2   force =    -0.00199699   -0.00038051    0.00058491
     atom   23 type  2   force =     0.00001220    0.00079541   -0.00007810
     atom   24 type  1   force =    -0.00024378   -0.05209638   -0.00070819
     atom   25 type  1   force =     0.00029020    0.05134082   -0.00073621
     atom   26 type  1   force =    -0.00001463    0.00017025    0.00055221
     atom   27 type  3   force =    -0.00000670   -0.00055130   -0.00010145
     atom   28 type  3   force =    -0.00000696   -0.00055087   -0.00010471
     atom   29 type  3   force =     0.00078365   -0.00019886    0.00038636
     atom   30 type  3   force =     0.00078175   -0.00019915    0.00038766

     Total force =     0.002959     Total SCF correction =     0.004241
     SCF correction compared to forces is large: reduce conv_thr to get better values

     BFGS Geometry Optimization

     bfgs converged in   1 scf cycles and   0 bfgs steps
     (criteria: energy < 0.10E-03, force < 0.10E-02)

     End of BFGS Geometry Optimization

     Final energy   =   -1700.2291065196 Ry
Begin final coordinates

ATOMIC_POSITIONS (crystal)
O0       0.000000000   0.000000000   0.373410000    0   0   1
O0       0.000000000   0.500000000   0.380340000    0   0   1
Mo1      0.250000000   0.500000000   0.437810000    0   0   1
Mo1      0.000000000   0.000000000   0.446190000    0   0   1
O0       0.250000000   0.780000000   0.443410000    0   0   1
O0       0.250000000   0.220000000   0.443290000    0   0   1
O0       0.000000000   0.500000000   0.495850000    0   0   1
O0       0.000000000   0.000000000   0.518870000    0   0   1
Mo1      0.250000000   0.000000000   0.578280000    0   0   1
Mo1      0.000000000   0.500000000   0.563870000    0   0   1
O0       0.250000000   0.720000000   0.573690000    0   0   1
O0       0.250000000   0.280000000   0.573750000    0   0   1
O0       0.000000000   0.000000000   0.629000000    0   0   1
O0       0.500000000   0.000000000   0.373410000    0   0   1
O0       0.500000000   0.500000000   0.380340000    0   0   1
Mo1      0.750000000   0.500000000   0.437810000    0   0   1
Mo1      0.500000000   0.000000000   0.446190000    0   0   1
O0       0.750000000   0.780000000   0.443410000    0   0   1
O0       0.750000000   0.220000000   0.443290000    0   0   1
O0       0.500000000   0.500000000   0.495850000    0   0   1
O0       0.500000000   0.000000000   0.518870000    0   0   1
Mo1      0.750000000   0.000000000   0.578280000    0   0   1
Mo1      0.500000000   0.500000000   0.563870000    0   0   1
O0       0.750000000   0.720000000   0.573690000    0   0   1
O0       0.750000000   0.280000000   0.573750000    0   0   1
O0       0.500000000   0.000000000   0.629000000    0   0   1
H2      -0.000490000   0.613690000   0.358860000
H2       0.499510000   0.613690000   0.358860000
H2       0.165750000   0.020690000   0.358920000
H2       0.665750000   0.020690000   0.358920000
End final coordinates

     General routines

     Parallel routines
     Hubbard U routines

   This run was terminated on:   9:15:27  14May2014

   JOB DONE.
Running PBS batch system epilogue script
Job id: 359645.audhumbla.fysik.dtu.dk
Username: zhonxu
Groupname: campgst
Jobname: MoO2/Eads-2-layers/bare-U-0.0
Sessionid: 14259
Queuename: verylong
Accounting:
This job has allocated the following 16 nodes:
d081 d081 d081 d081 d081 d081 d081 d081 d019 d019 d019 d019 d019 d019 d019 d019
Finished epilogue job 359645.audhumbla.fysik.dtu.dk for zhonxu