     Program PWSCF v.5.0.2 (svn rev. 9656) starts on 23Jan2014 at 21:24:14

     Current dimensions of program PWSCF are:
     Max number of different atomic species (ntypx) = 10
     Max number of k-points (npk) =  40000
     Max angular momentum in pseudopotentials (lmaxx) =  3
     Reading input from RuO2-v-1.0.in

     Subspace diagonalization in iterative solution of the eigenvalue problem:
     a serial algorithm will be used

     bravais-lattice index     =            0
     lattice parameter (alat)  =       8.6590  a.u.
     unit-cell volume          =     418.3967 (a.u.)^3
     number of atoms/cell      =            6
     number of atomic types    =            2
     number of electrons       =        56.00
     number of Kohn-Sham states=           81
     kinetic-energy cutoff     =      40.0000  Ry
     charge density cutoff     =     500.0000  Ry
     convergence threshold     =      1.0E-06
     mixing beta               =       0.7000
     number of iterations used =            8  plain     mixing
     Exchange-correlation      = SLA  PW   PBE  PBE ( 1 4 3 4 0)
     EXX-fraction              =        0.00
     nstep                     =           50

     celldm(1)=   8.658997  celldm(2)=   0.000000  celldm(3)=   0.000000
     celldm(4)=   0.000000  celldm(5)=   0.000000  celldm(6)=   0.000000

     crystal axes: (cart. coord. in units of alat)
               a(1) = (   1.000000   0.000000   0.000000 )
               a(2) = (   0.000000   1.000000   0.000000 )
               a(3) = (   0.000000   0.000000   0.644444 )

     reciprocal axes: (cart. coord. in units 2 pi/alat)
               b(1) = (  1.000000  0.000000  0.000000 )
               b(2) = (  0.000000  1.000000  0.000000 )
               b(3) = (  0.000000  0.000000  1.551724 )

     PseudoPot. # 1 for Ru read from file:
     /home/camp/zhonxu/pseudo/ru_pbe_v1.uspp.F.UPF
     MD5 check sum: df00be1c11b23341d9806d8f1dfa10cf
     Pseudo is Ultrasoft + core correction, Zval = 16.0
     Generated by new atomic code, or converted to UPF format
     Using radial grid of  967 points,  6 beta functions with:
                l(1) =   0
                l(2) =   0
                l(3) =   1
                l(4) =   1
                l(5) =   2
                l(6) =   2
     Q(r) pseudized with  8 coefficients,  rinner =    1.300   1.300   1.300
                                                       1.300   1.300

     PseudoPot. # 2 for O  read from file:
     /home/camp/zhonxu/pseudo/o_pbe_v1.01.uspp.F.UPF
     MD5 check sum: 2bcb18d16ea4b960afae9ec6d52f22d2
     Pseudo is Ultrasoft + core correction, Zval =  6.0
     Generated by new atomic code, or converted to UPF format
     Using radial grid of  737 points,  5 beta functions with:
                l(1) =   0
                l(2) =   0
                l(3) =   1
                l(4) =   1
                l(5) =   2
     Q(r) pseudized with  8 coefficients,  rinner =    0.900   0.900   0.900
                                                       0.900   0.900

     atomic species   valence    mass     pseudopotential
        Ru0           16.00   101.07000     Ru( 1.00)
        O1             6.00    15.99940     O ( 1.00)

     Starting magnetic structure
     atomic species   magnetization
        Ru0          0.600
        O1           0.000

     16 Sym. Ops., with inversion, found ( 8 have fractional translation)

   Cartesian axes

     site n.     atom                  positions (alat units)
         1           Ru0 tau(   1) = (   0.0000000   0.0000000   0.0000000  )
         2           Ru0 tau(   2) = (   0.5000000   0.5000000   0.3222222  )
         3           O1  tau(   3) = (   0.3050000   0.3050000   0.0000000  )
         4           O1  tau(   4) = (  -0.3050000  -0.3050000   0.0000000  )
         5           O1  tau(   5) = (   0.8050000   0.1950000   0.3222222  )
         6           O1  tau(   6) = (   0.1950000   0.8050000   0.3222222  )

     number of k points=    36  Methfessel-Paxton smearing, width (Ry)=  0.0100
                       cart. coord. in units 2pi/alat
        k(    1) = (   0.0000000   0.0000000   0.0000000), wk =   0.0080000
        k(    2) = (   0.0000000   0.0000000   0.3103448), wk =   0.0160000
        k(    3) = (   0.0000000   0.0000000   0.6206897), wk =   0.0160000
        k(    4) = (   0.0000000   0.2000000   0.0000000), wk =   0.0320000
        k(    5) = (   0.0000000   0.2000000   0.3103448), wk =   0.0640000
        k(    6) = (   0.0000000   0.2000000   0.6206897), wk =   0.0640000
        k(    7) = (   0.0000000   0.4000000   0.0000000), wk =   0.0320000
        k(    8) = (   0.0000000   0.4000000   0.3103448), wk =   0.0640000
        k(    9) = (   0.0000000   0.4000000   0.6206897), wk =   0.0640000
        k(   10) = (   0.2000000   0.2000000   0.0000000), wk =   0.0320000
        k(   11) = (   0.2000000   0.2000000   0.3103448), wk =   0.0640000
        k(   12) = (   0.2000000   0.2000000   0.6206897), wk =   0.0640000
        k(   13) = (   0.2000000   0.4000000   0.0000000), wk =   0.0640000
        k(   14) = (   0.2000000   0.4000000   0.3103448), wk =   0.1280000
        k(   15) = (   0.2000000   0.4000000   0.6206897), wk =   0.1280000
        k(   16) = (   0.4000000   0.4000000   0.0000000), wk =   0.0320000
        k(   17) = (   0.4000000   0.4000000   0.3103448), wk =   0.0640000
        k(   18) = (   0.4000000   0.4000000   0.6206897), wk =   0.0640000
        k(   19) = (   0.0000000   0.0000000   0.0000000), wk =   0.0080000
        k(   20) = (   0.0000000   0.0000000   0.3103448), wk =   0.0160000
        k(   21) = (   0.0000000   0.0000000   0.6206897), wk =   0.0160000
        k(   22) = (   0.0000000   0.2000000   0.0000000), wk =   0.0320000
        k(   23) = (   0.0000000   0.2000000   0.3103448), wk =   0.0640000
        k(   24) = (   0.0000000   0.2000000   0.6206897), wk =   0.0640000
        k(   25) = (   0.0000000   0.4000000   0.0000000), wk =   0.0320000
        k(   26) = (   0.0000000   0.4000000   0.3103448), wk =   0.0640000
        k(   27) = (   0.0000000   0.4000000   0.6206897), wk =   0.0640000
        k(   28) = (   0.2000000   0.2000000   0.0000000), wk =   0.0320000
        k(   29) = (   0.2000000   0.2000000   0.3103448), wk =   0.0640000
        k(   30) = (   0.2000000   0.2000000   0.6206897), wk =   0.0640000
        k(   31) = (   0.2000000   0.4000000   0.0000000), wk =   0.0640000
        k(   32) = (   0.2000000   0.4000000   0.3103448), wk =   0.1280000
        k(   33) = (   0.2000000   0.4000000   0.6206897), wk =   0.1280000
        k(   34) = (   0.4000000   0.4000000   0.0000000), wk =   0.0320000
        k(   35) = (   0.4000000   0.4000000   0.3103448), wk =   0.0640000
        k(   36) = (   0.4000000   0.4000000   0.6206897), wk =   0.0640000

     Largest allocated arrays     est. size (Mb)     dimensions
     Largest temporary arrays     est. size (Mb)     dimensions

     Check: negative/imaginary core charge=   -0.000008    0.000000

     Initial potential from superposition of free atoms
     Check: negative starting charge=(component1):   -0.102266
     Check: negative starting charge=(component2):   -0.025208

     starting charge   53.99996, renormalised to   56.00000

     negative rho (up, down):  0.106E+00 0.261E-01
     Starting wfc are   42 randomized atomic wfcs

     Self-consistent Calculation

     iteration #  1     ecut=    40.00 Ry     beta=0.70
     Davidson diagonalization with overlap
     ethr =  1.00E-02,  avg # of iterations =  5.3

     negative rho (up, down):  0.690E-01 0.872E-01

     total energy              =    -513.15547983 Ry
     Harris-Foulkes estimate   =    -515.06833503 Ry
     estimated scf accuracy    <       4.54801454 Ry

     total magnetization       =     7.62 Bohr mag/cell
     absolute magnetization    =     7.73 Bohr mag/cell

[...]

     End of self-consistent calculation

 ------ SPIN UP ------------

          k = 0.0000 0.0000 0.0000 (  1819 PWs)   bands (ev):

   -60.2752 -60.2692 -30.4018 -30.4018 -30.2328 -30.2328 -30.0995 -30.0774
    -7.0059  -5.9679  -5.0334  -5.0334   4.6954   4.8042   5.9387   6.4202
     6.4202   8.8119   8.8119   9.3657  10.5801  10.8382  10.8382  11.1260
    11.4120  12.0453  12.0845  12.0845  12.2358  14.7302  15.1414  18.0971
    18.0971  19.1770  19.5160  23.2628  23.2628  26.6146  28.0692  28.1082
    29.4431  30.8141  30.9173  30.9173  32.8173  34.3676  35.0970  35.0970
    36.2774  36.2774  37.5621  39.5557  39.8501  39.8501  40.9127  42.4319
    42.9657  43.4236  43.9550  44.6254  44.7122  44.7122  45.5043  45.5043
    46.0587  46.4361  46.4361  48.4320  49.9468  51.7887  51.7887  51.7994
    52.1122  52.7887  52.7887  53.5112  53.7981  53.7993  53.7993  53.8629
    55.2722

[...]

 ------ SPIN DOWN ----------

[...]

     the Fermi energy is    13.5020 ev

!    total energy              =    -515.57185436 Ry
     Harris-Foulkes estimate   =    -515.57185419 Ry
     estimated scf accuracy    <       0.00000050 Ry

     The total energy is the sum of the following terms:

     one-electron contribution =    -168.59499333 Ry
     hartree contribution      =     116.89730365 Ry
     xc contribution           =     -78.64988585 Ry
     ewald contribution        =    -385.22421106 Ry
     smearing contrib. (-TS)   =      -0.00006777 Ry

[...]

     convergence has been achieved in  10 iterations

     Forces acting on atoms (Ry/au):

     negative rho (up, down):  0.695E-01 0.742E-01
     atom    1 type  1   force =     0.00000000    0.00000000   -0.00000000
     atom    2 type  1   force =     0.00000000    0.00000000   -0.00000000
     atom    3 type  2   force =    -0.02358154   -0.02358154   -0.00000000
     atom    4 type  2   force =     0.02358154    0.02358154    0.00000000
     atom    5 type  2   force =    -0.02358154    0.02358154   -0.00000000
     atom    6 type  2   force =     0.02358154   -0.02358154    0.00000000

     Total force =     0.066699     Total SCF correction =     0.000175

     entering subroutine stress ...

     negative rho (up, down):  0.695E-01 0.742E-01
          total   stress  (Ry/bohr**3)                   (kbar)     P=  115.35
   0.00031108   0.00000000   0.00000000         45.76      0.00      0.00
   0.00000000   0.00031108   0.00000000          0.00     45.76      0.00
   0.00000000   0.00000000   0.00173021          0.00      0.00    254.52

     Volume is kept fixed: isostatic pressure set to zero

     BFGS Geometry Optimization

     number of scf cycles    =   1
     number of bfgs steps    =   0

     enthalpy new            =    -515.5718543623 Ry

     new trust radius        =       0.0967592307 bohr
     new conv_thr            =       0.0000010000 Ry

     new unit-cell volume =    418.39674 a.u.^3 (    62.00000 Ang^3 )

CELL_PARAMETERS (alat=  8.65899730)
   0.988311138   0.000000000   0.000000000
   0.000000000   0.988311138   0.000000000
   0.000000000   0.000000000   0.659778417

ATOMIC_POSITIONS (crystal)
Ru0      0.000000000   0.000000000   0.000000000    0   0   0
Ru0      0.500000000   0.500000000   0.500000000    0   0   0
O1       0.302276643   0.302276643   0.000000000    1   1   0
[...]
        k(   22) = (   0.0000000   0.2023654   0.0000000), wk =   0.0320000
        k(   23) = (   0.0000000   0.2023654   0.3031321), wk =   0.0640000
        k(   24) = (   0.0000000   0.2023654   0.6062641), wk =   0.0640000
        k(   25) = (   0.0000000   0.4047308   0.0000000), wk =   0.0320000
        k(   26) = (   0.0000000   0.4047308   0.3031321), wk =   0.0640000
        k(   27) = (   0.0000000   0.4047308   0.6062641), wk =   0.0640000
        k(   28) = (   0.2023654   0.2023654   0.0000000), wk =   0.0320000
        k(   29) = (   0.2023654   0.2023654   0.3031321), wk =   0.0640000
        k(   30) = (   0.2023654   0.2023654   0.6062641), wk =   0.0640000
        k(   31) = (   0.2023654   0.4047308   0.0000000), wk =   0.0640000
        k(   32) = (   0.2023654   0.4047308   0.3031321), wk =   0.1280000
        k(   33) = (   0.2023654   0.4047308   0.6062641), wk =   0.1280000
        k(   34) = (   0.4047308   0.4047308   0.0000000), wk =   0.0320000
        k(   35) = (   0.4047308   0.4047308   0.3031321), wk =   0.0640000
        k(   36) = (   0.4047308   0.4047308   0.6062641), wk =   0.0640000

     Check: negative/imaginary core charge=   -0.000008    0.000000
     Check: negative starting charge=(component1):   -0.128072

[...]

     enthalpy old            =    -515.5718543623 Ry
     enthalpy new            =    -515.5842386090 Ry

     CASE: enthalpy_new < enthalpy_old

[...]

     number of scf cycles    =   5
     number of bfgs steps    =   4

     enthalpy old            =    -515.5877960282 Ry
     enthalpy new            =    -515.5883870372 Ry

     CASE: enthalpy_new < enthalpy_old

     new trust radius        =       0.0100641675 bohr
     new conv_thr            =       0.0000000282 Ry

     new unit-cell volume =    418.39674 a.u.^3 (    62.00000 Ang^3 )

[...]

ATOMIC_POSITIONS (crystal)
Ru0      0.000000000   0.000000000   0.000000000    0   0   0
Ru0      0.500000000   0.500000000   0.500000000    0   0   0
O1       0.305981625   0.305981625   0.000000000    1   1   0
O1      -0.305981625  -0.305981625   0.000000000    1   1   0
O1       0.805981625   0.194018375   0.500000000    1   1   0
O1       0.194018375   0.805981625   0.500000000    1   1   0

     Check: negative starting charge=(component1):   -0.128437
     NEW-OLD atomic charge density approx. for the potential
     NEW k-points:
        k(    1) = (   0.0000000   0.0000000   0.0000000), wk =   0.0080000
        k(    2) = (   0.0000000   0.0000000   0.2954734), wk =   0.0160000
        k(    3) = (   0.0000000   0.0000000   0.5909469), wk =   0.0160000
        k(    4) = (   0.0000000   0.2049713   0.0000000), wk =   0.0320000
        k(    5) = (   0.0000000   0.2049713   0.2954734), wk =   0.0640000
        k(    6) = (   0.0000000   0.2049713   0.5909469), wk =   0.0640000
        k(    7) = (   0.0000000   0.4099426   0.0000000), wk =   0.0320000
        k(    8) = (   0.0000000   0.4099426   0.2954734), wk =   0.0640000
        k(    9) = (   0.0000000   0.4099426   0.5909469), wk =   0.0640000
        k(   10) = (   0.2049713   0.2049713   0.0000000), wk =   0.0320000
        k(   11) = (   0.2049713   0.2049713   0.2954734), wk =   0.0640000
        k(   12) = (   0.2049713   0.2049713   0.5909469), wk =   0.0640000
        k(   13) = (   0.2049713   0.4099426   0.0000000), wk =   0.0640000
        k(   14) = (   0.2049713   0.4099426   0.2954734), wk =   0.1280000
        k(   15) = (   0.2049713   0.4099426   0.5909469), wk =   0.1280000
        k(   16) = (   0.4099426   0.4099426   0.0000000), wk =   0.0320000
        k(   17) = (   0.4099426   0.4099426   0.2954734), wk =   0.0640000
        k(   18) = (   0.4099426   0.4099426   0.5909469), wk =   0.0640000
        k(   19) = (   0.0000000   0.0000000   0.0000000), wk =   0.0080000
        k(   20) = (   0.0000000   0.0000000   0.2954734), wk =   0.0160000
        k(   21) = (   0.0000000   0.0000000   0.5909469), wk =   0.0160000
        k(   22) = (   0.0000000   0.2049713   0.0000000), wk =   0.0320000
        k(   23) = (   0.0000000   0.2049713   0.2954734), wk =   0.0640000
        k(   24) = (   0.0000000   0.2049713   0.5909469), wk =   0.0640000
        k(   25) = (   0.0000000   0.4099426   0.0000000), wk =   0.0320000
        k(   26) = (   0.0000000   0.4099426   0.2954734), wk =   0.0640000
        k(   27) = (   0.0000000   0.4099426   0.5909469), wk =   0.0640000
        k(   28) = (   0.2049713   0.2049713   0.0000000), wk =   0.0320000
        k(   29) = (   0.2049713   0.2049713   0.2954734), wk =   0.0640000
        k(   30) = (   0.2049713   0.2049713   0.5909469), wk =   0.0640000
        k(   31) = (   0.2049713   0.4099426   0.0000000), wk =   0.0640000
        k(   32) = (   0.2049713   0.4099426   0.2954734), wk =   0.1280000
        k(   33) = (   0.2049713   0.4099426   0.5909469), wk =   0.1280000
        k(   34) = (   0.4099426   0.4099426   0.0000000), wk =   0.0320000
        k(   35) = (   0.4099426   0.4099426   0.2954734), wk =   0.0640000
        k(   36) = (   0.4099426   0.4099426   0.5909469), wk =   0.0640000

     Check: negative/imaginary core charge=   -0.000008    0.000000
     Check: negative starting charge=(component1):   -0.128449

[...]

     Threshold (ethr) on eigenvalues was too large:
     Diagonalizing with lowered threshold

     Davidson diagonalization with overlap
     ethr =  5.90E-08,  avg # of iterations =  1.0

[...]

     Total force =     0.000101     Total SCF correction =     0.000064
     SCF correction compared to forces is large: reduce conv_thr to get better values

[...]

     Volume is kept fixed: isostatic pressure set to zero

     bfgs converged in   6 scf cycles and   5 bfgs steps
     (criteria: energy < 0.10E-03, force < 0.10E-02, cell < 0.50E+00)

     End of BFGS Geometry Optimization

     Final enthalpy =    -515.5884640040 Ry
Begin final coordinates
     new unit-cell volume =    418.39674 a.u.^3 (    62.00000 Ang^3 )

CELL_PARAMETERS (alat=  8.65899730)
   0.975746439   0.000000000   0.000000000
   0.000000000   0.975746439   0.000000000
   0.000000000   0.000000000   0.676879770

ATOMIC_POSITIONS (crystal)
Ru0      0.000000000   0.000000000   0.000000000    0   0   0
Ru0      0.500000000   0.500000000   0.500000000    0   0   0
O1       0.305981625   0.305981625   0.000000000    1   1   0
O1      -0.305981625  -0.305981625   0.000000000    1   1   0
O1       0.805981625   0.194018375   0.500000000    1   1   0
O1       0.194018375   0.805981625   0.500000000    1   1   0
End final coordinates

     A final scf calculation at the relaxed structure.
     The G-vectors are recalculated for the final unit cell
     Results may differ from those at the preceding step.

     bravais-lattice index     =            0
     lattice parameter (alat)  =       8.6590  a.u.
     unit-cell volume          =     418.3967 (a.u.)^3
     number of atoms/cell      =            6
     number of atomic types    =            2
     number of electrons       =        56.00
     number of Kohn-Sham states=           81
     kinetic-energy cutoff     =      40.0000  Ry
     charge density cutoff     =     500.0000  Ry
     convergence threshold     =      2.8E-08
     mixing beta               =       0.7000
     number of iterations used =            8  plain     mixing
     Exchange-correlation      = SLA  PW   PBE  PBE ( 1 4 3 4 0)
     EXX-fraction              =        0.00

     celldm(1)=   8.658997  celldm(2)=   0.000000  celldm(3)=   0.000000
     celldm(4)=   0.000000  celldm(5)=   0.000000  celldm(6)=   0.000000

     crystal axes: (cart. coord. in units of alat)
               a(1) = (   0.975746   0.000000   0.000000 )
               a(2) = (   0.000000   0.975746   0.000000 )
               a(3) = (   0.000000   0.000000   0.676880 )

     reciprocal axes: (cart. coord. in units 2 pi/alat)
               b(1) = (  1.024856  0.000000  0.000000 )
               b(2) = (  0.000000  1.024856  0.000000 )
               b(3) = (  0.000000  0.000000  1.477367 )

     PseudoPot. # 1 for Ru read from file:
     /home/camp/zhonxu/pseudo/ru_pbe_v1.uspp.F.UPF
     MD5 check sum: df00be1c11b23341d9806d8f1dfa10cf
     Pseudo is Ultrasoft + core correction, Zval = 16.0
     Generated by new atomic code, or converted to UPF format
     Using radial grid of  967 points,  6 beta functions with:
                l(1) =   0
                l(2) =   0
                l(3) =   1
                l(4) =   1
                l(5) =   2
                l(6) =   2
     Q(r) pseudized with  8 coefficients,  rinner =    1.300   1.300   1.300
                                                       1.300   1.300

     PseudoPot. # 2 for O  read from file:
     /home/camp/zhonxu/pseudo/o_pbe_v1.01.uspp.F.UPF
     MD5 check sum: 2bcb18d16ea4b960afae9ec6d52f22d2
     Pseudo is Ultrasoft + core correction, Zval =  6.0
     Generated by new atomic code, or converted to UPF format
     Using radial grid of  737 points,  5 beta functions with:
                l(1) =   0
                l(2) =   0
                l(3) =   1
                l(4) =   1
                l(5) =   2
     Q(r) pseudized with  8 coefficients,  rinner =    0.900   0.900   0.900
                                                       0.900   0.900

     atomic species   valence    mass     pseudopotential
        Ru0           16.00   101.07000     Ru( 1.00)
        O1             6.00    15.99940     O ( 1.00)

     Starting magnetic structure
     atomic species   magnetization
        Ru0          0.600
        O1           0.000

     16 Sym. Ops., with inversion, found ( 8 have fractional translation)

   Cartesian axes

     site n.     atom                  positions (alat units)
         1           Ru0 tau(   1) = (   0.0000000   0.0000000   0.0000000  )
         2           Ru0 tau(   2) = (   0.4878732   0.4878732   0.3384399  )
         3           O1  tau(   3) = (   0.2985605   0.2985605   0.0000000  )
         4           O1  tau(   4) = (  -0.2985605  -0.2985605   0.0000000  )
         5           O1  tau(   5) = (   0.7864337   0.1893127   0.3384399  )
         6           O1  tau(   6) = (   0.1893127   0.7864337   0.3384399  )

     number of k points=    36  Methfessel-Paxton smearing, width (Ry)=  0.0100
                       cart. coord. in units 2pi/alat
        k(    1) = (   0.0000000   0.0000000   0.0000000), wk =   0.0080000
        k(    2) = (   0.0000000   0.0000000   0.2954734), wk =   0.0160000
        k(    3) = (   0.0000000   0.0000000   0.5909469), wk =   0.0160000
        k(    4) = (   0.0000000   0.2049713   0.0000000), wk =   0.0320000
        k(    5) = (   0.0000000   0.2049713   0.2954734), wk =   0.0640000
        k(    6) = (   0.0000000   0.2049713   0.5909469), wk =   0.0640000
        k(    7) = (   0.0000000   0.4099426   0.0000000), wk =   0.0320000
        k(    8) = (   0.0000000   0.4099426   0.2954734), wk =   0.0640000
        k(    9) = (   0.0000000   0.4099426   0.5909469), wk =   0.0640000
        k(   10) = (   0.2049713   0.2049713   0.0000000), wk =   0.0320000
        k(   11) = (   0.2049713   0.2049713   0.2954734), wk =   0.0640000
        k(   12) = (   0.2049713   0.2049713   0.5909469), wk =   0.0640000
        k(   13) = (   0.2049713   0.4099426   0.0000000), wk =   0.0640000
        k(   14) = (   0.2049713   0.4099426   0.2954734), wk =   0.1280000
        k(   15) = (   0.2049713   0.4099426   0.5909469), wk =   0.1280000
        k(   16) = (   0.4099426   0.4099426   0.0000000), wk =   0.0320000
        k(   17) = (   0.4099426   0.4099426   0.2954734), wk =   0.0640000
        k(   18) = (   0.4099426   0.4099426   0.5909469), wk =   0.0640000
        k(   19) = (   0.0000000   0.0000000   0.0000000), wk =   0.0080000
        k(   20) = (   0.0000000   0.0000000   0.2954734), wk =   0.0160000
        k(   21) = (   0.0000000   0.0000000   0.5909469), wk =   0.0160000
        k(   22) = (   0.0000000   0.2049713   0.0000000), wk =   0.0320000
        k(   23) = (   0.0000000   0.2049713   0.2954734), wk =   0.0640000
        k(   24) = (   0.0000000   0.2049713   0.5909469), wk =   0.0640000
        k(   25) = (   0.0000000   0.4099426   0.0000000), wk =   0.0320000
        k(   26) = (   0.0000000   0.4099426   0.2954734), wk =   0.0640000
        k(   27) = (   0.0000000   0.4099426   0.5909469), wk =   0.0640000
        k(   28) = (   0.2049713   0.2049713   0.0000000), wk =   0.0320000
        k(   29) = (   0.2049713   0.2049713   0.2954734), wk =   0.0640000
        k(   30) = (   0.2049713   0.2049713   0.5909469), wk =   0.0640000
        k(   31) = (   0.2049713   0.4099426   0.0000000), wk =   0.0640000
        k(   32) = (   0.2049713   0.4099426   0.2954734), wk =   0.1280000
        k(   33) = (   0.2049713   0.4099426   0.5909469), wk =   0.1280000
        k(   34) = (   0.4099426   0.4099426   0.0000000), wk =   0.0320000
        k(   35) = (   0.4099426   0.4099426   0.2954734), wk =   0.0640000
        k(   36) = (   0.4099426   0.4099426   0.5909469), wk =   0.0640000

     Largest allocated arrays     est. size (Mb)     dimensions
     Largest temporary arrays     est. size (Mb)     dimensions

     Check: negative/imaginary core charge=   -0.000008    0.000000

     Initial potential from superposition of free atoms
     Check: negative starting charge=(component1):   -0.105486
     Check: negative starting charge=(component2):   -0.026053

     starting charge   53.99996, renormalised to   56.00000

     negative rho (up, down):  0.109E+00 0.270E-01
     Starting wfc are   42 randomized atomic wfcs

     Self-consistent Calculation

[...]

     total energy              =    -515.58872801 Ry
     Harris-Foulkes estimate   =    -515.58872796 Ry
     estimated scf accuracy    <       0.00000007 Ry

[...]

     iteration # 13     ecut=    40.00 Ry     beta=0.70
     Davidson diagonalization with overlap
     ethr =  1.26E-10,  avg # of iterations =  2.0

     negative rho (up, down):  0.733E-01 0.733E-01

     End of self-consistent calculation

 ------ SPIN UP ------------

[...]

 ------ SPIN DOWN ----------

[...]

          k = 0.4099 0.4099 0.5909 (  1786 PWs)   bands (ev):

   -60.1660 -60.1657 -30.4213 -30.4201 -30.1671 -30.1652 -29.9820 -29.9818
    -5.7378  -5.6264  -5.4984  -5.3907   6.0025   6.1805   6.2406   6.3985
     7.1673   7.4974   8.6038   8.6746   9.3650   9.5992  10.4780  10.7025
    12.4500  12.7735  12.8448  13.0665  13.4536  13.9891  16.0254  16.5665
    17.2639  17.7710  23.4358  23.7613  25.2825  26.2690  26.2778  27.0893
    27.8989  28.3160  30.8380  30.9991  32.5598  33.0442  34.9232  35.5091
    36.6256  37.0209  37.2448  38.3207  40.8415  40.9592  41.5281  41.9817
    42.9678  43.3207  44.6177  45.4493  45.7018  46.2407  46.5292  47.3586
    47.4395  47.4515  48.4752  48.7459  49.3276  50.3165  50.4807  51.3122
    51.6589  51.9959  52.1452  53.1769  53.3878  54.5375  54.6182  55.0724
    57.0416

     the Fermi energy is    13.3897 ev

!    total energy              =    -515.58872807 Ry
     Harris-Foulkes estimate   =    -515.58872806 Ry
     estimated scf accuracy    <       0.00000001 Ry

     The total energy is the sum of the following terms:

     one-electron contribution =    -163.09189241 Ry
     hartree contribution      =     114.17206178 Ry
     xc contribution           =     -78.57616314 Ry
     ewald contribution        =    -388.09191009 Ry
     smearing contrib. (-TS)   =      -0.00082421 Ry

     total magnetization       =     0.00 Bohr mag/cell
     absolute magnetization    =     0.00 Bohr mag/cell

     convergence has been achieved in  13 iterations

     Forces acting on atoms (Ry/au):

     negative rho (up, down):  0.733E-01 0.733E-01
     atom    1 type  1   force =     0.00000000    0.00000000    0.00000000
     atom    2 type  1   force =     0.00000000    0.00000000   -0.00000000
     atom    3 type  2   force =     0.00014468    0.00014468   -0.00000000
     atom    4 type  2   force =    -0.00014468   -0.00014468   -0.00000000
     atom    5 type  2   force =     0.00014468   -0.00014468    0.00000000
     atom    6 type  2   force =    -0.00014468    0.00014468   -0.00000000

     Total force =     0.000409     Total SCF correction =     0.000014

     entering subroutine stress ...

     negative rho (up, down):  0.733E-01 0.733E-01
          total   stress  (Ry/bohr**3)                   (kbar)     P=   68.40
   0.00045918   0.00000000   0.00000000         67.55      0.00      0.00
   0.00000000   0.00045918   0.00000000          0.00     67.55      0.00
   0.00000000   0.00000000   0.00047662          0.00      0.00     70.11

     General routines

     Parallel routines

   This run was terminated on:  21:48:47  23Jan2014

   JOB DONE.