     Program PWSCF v.5.0.2 (svn rev. 9656) starts on  6May2014 at 12:42:26

     Current dimensions of program PWSCF are:
     Max number of different atomic species (ntypx) = 10
     Max number of k-points (npk) =  40000
     Max angular momentum in pseudopotentials (lmaxx) =  3
     Reading input from pwscf.in
Warning: card &CELL ignored
Warning: card / ignored

     Subspace diagonalization in iterative solution of the eigenvalue problem:
     a serial algorithm will be used

     Found symmetry operation: I + ( -0.5000  0.0000  0.0000)
     This is a supercell, fractional translations are disabled

     bravais-lattice index     =            0
     lattice parameter (alat)  =      11.2250  a.u.
     unit-cell volume          =    7005.5484 (a.u.)^3
     number of atoms/cell      =           30
     number of atomic types    =            3
     number of electrons       =       208.00
     number of Kohn-Sham states=          300
     kinetic-energy cutoff     =      40.0000  Ry
     charge density cutoff     =     500.0000  Ry
     convergence threshold     =      1.0E-06
     mixing beta               =       0.7000
     number of iterations used =            8  plain     mixing
     Exchange-correlation      = SLA  PW   PBE  PBE ( 1 4 3 4 0)
     EXX-fraction              =        0.00
     nstep                     =           50

     celldm(1)=  11.224973  celldm(2)=   0.000000  celldm(3)=   0.000000
     celldm(4)=   0.000000  celldm(5)=   0.000000  celldm(6)=   0.000000

     crystal axes: (cart. coord. in units of alat)
               a(1) = (   1.000000   0.000000   0.000000 )
               a(2) = (   0.000000   1.107086   0.000000 )
               a(3) = (   0.000000   0.000000   4.474090 )

     reciprocal axes: (cart. coord. in units 2 pi/alat)
               b(1) = (  1.000000  0.000000  0.000000 )
               b(2) = (  0.000000  0.903272  0.000000 )
               b(3) = (  0.000000  0.000000  0.223509 )

     PseudoPot. # 1 for O  read from file:
     /home/camp/zhonxu/pseudo/o_pbe_v1.01.uspp.F.UPF
     MD5 check sum: 2bcb18d16ea4b960afae9ec6d52f22d2
     Pseudo is Ultrasoft + core correction, Zval =  6.0
     Generated by new atomic code, or converted to UPF format
     Using radial grid of  737 points,  5 beta functions with:
                l(1) =   0
                l(2) =   0
                l(3) =   1
                l(4) =   1
                l(5) =   2
     Q(r) pseudized with  8 coefficients,  rinner =    0.900   0.900   0.900
                                                       0.900   0.900

     PseudoPot. # 2 for Ti read from file:
     /home/camp/zhonxu/pseudo/ti_pbe_v1.uspp.F.UPF
     MD5 check sum: bcc8f6961b3b91f0cac3ca967d22d0fb
     Pseudo is Ultrasoft + core correction, Zval = 12.0
     Generated by new atomic code, or converted to UPF format
     Using radial grid of  851 points,  6 beta functions with:
                l(1) =   0
                l(2) =   0
                l(3) =   1
                l(4) =   1
                l(5) =   2
                l(6) =   2
     Q(r) pseudized with  6 coefficients,  rinner =    1.000   1.000   1.000
                                                       1.000   1.000

     PseudoPot. # 3 for H  read from file:
     /home/camp/zhonxu/pseudo/h_pbe_v1.uspp.F.UPF
     MD5 check sum: 3408e3ff4ec8b0a4e358431e7e038a48
     Pseudo is Ultrasoft, Zval =  1.0
     Generated by new atomic code, or converted to UPF format
     Using radial grid of  615 points,  2 beta functions with:
                l(1) =   0
                l(2) =   0
     Q(r) pseudized with  8 coefficients,  rinner =    0.700

     atomic species   valence    mass     pseudopotential
        O0             6.00    15.99940     O ( 1.00)
        Ti1           12.00    47.88000     Ti( 1.00)
        H2             1.00     1.00794     H ( 1.00)

     Simplified LDA+U calculation (l_max = 2) with parameters (eV):
     atomic species    L          U    alpha       J0     beta
        Ti1            2     2.0000   0.0000   0.0000   0.0000

     No symmetry found

   Cartesian axes

     site n.     atom                  positions (alat units)
         1           O0  tau(   1) = (   0.0000000   0.0000000   1.6989461  )
         2           O0  tau(   2) = (   0.0000000   0.5535432   1.7901728  )
         3           Ti1 tau(   3) = (   0.2500000   0.5535432   2.0162933  )
         4           Ti1 tau(   4) = (   0.0000000   0.0000000   2.0248388  )
         5           O0  tau(   5) = (   0.2500000   0.8967400   2.0178145  )
         6           O0  tau(   6) = (   0.2500000   0.2103464   2.0226912  )
         7           O0  tau(   7) = (   0.0000000   0.5535432   2.2326603  )
         8           O0  tau(   8) = (   0.0000000   0.0000000   2.3559662  )
         9           Ti1 tau(   9) = (   0.2500000   0.0000000   2.5995804  )
        10           Ti1 tau(  10) = (   0.0000000   0.5535432   2.5483968  )
        11           O0  tau(  11) = (   0.2500000   0.7638896   2.5964932  )
        12           O0  tau(  12) = (   0.2500000   0.3431968   2.5965380  )
        13           O0  tau(  13) = (   0.0000000   0.0000000   2.7842708  )
        14           O0  tau(  14) = (   0.5000000   0.0000000   1.6989461  )
        15           O0  tau(  15) = (   0.5000000   0.5535432   1.7901728  )
        16           Ti1 tau(  16) = (   0.7500000   0.5535432   2.0162933  )
        17           Ti1 tau(  17) = (   0.5000000   0.0000000   2.0248388  )
        18           O0  tau(  18) = (   0.7500000   0.8967400   2.0178145  )
        19           O0  tau(  19) = (   0.7500000   0.2103464   2.0226912  )
        20           O0  tau(  20) = (   0.5000000   0.5535432   2.2326603  )
        21           O0  tau(  21) = (   0.5000000   0.0000000   2.3559662  )
        22           Ti1 tau(  22) = (   0.7500000   0.0000000   2.5995804  )
        23           Ti1 tau(  23) = (   0.5000000   0.5535432   2.5483968  )
        24           O0  tau(  24) = (   0.7500000   0.7638896   2.5964932  )
        25           O0  tau(  25) = (   0.7500000   0.3431968   2.5965380  )
        26           O0  tau(  26) = (   0.5000000   0.0000000   2.7842708  )
        27           H2  tau(  27) = (  -0.0005400   0.6991915   1.7063283  )
        28           H2  tau(  28) = (   0.4994600   0.6991915   1.7063283  )
        29           H2  tau(  29) = (   0.1501800   0.0252084   1.6321479  )
        30           H2  tau(  30) = (   0.6501800   0.0252084   1.6321479  )

     number of k points=    10  Methfessel-Paxton smearing, width (Ry)=  0.0100
                       cart. coord. in units 2pi/alat
        k(    1) = (   0.0000000   0.0000000   0.0000000), wk =   0.1250000
        k(    2) = (   0.0000000   0.2258180   0.0000000), wk =   0.2500000
        k(    3) = (   0.0000000  -0.4516359   0.0000000), wk =   0.1250000
        k(    4) = (   0.2500000   0.0000000   0.0000000), wk =   0.2500000
        k(    5) = (   0.2500000   0.2258180   0.0000000), wk =   0.2500000
        k(    6) = (   0.2500000  -0.4516359   0.0000000), wk =   0.2500000
        k(    7) = (  -0.5000000   0.0000000   0.0000000), wk =   0.1250000
        k(    8) = (  -0.5000000   0.2258180   0.0000000), wk =   0.2500000
        k(    9) = (  -0.5000000  -0.4516359   0.0000000), wk =   0.1250000
        k(   10) = (  -0.2500000   0.2258180   0.0000000), wk =   0.2500000

     Largest allocated arrays     est. size (Mb)     dimensions
     Largest temporary arrays     est. size (Mb)     dimensions

     Check: negative/imaginary core charge=   -0.000005    0.000000

     Initial potential from superposition of free atoms
     Check: negative starting charge=   -0.102816

     starting charge  199.99958, renormalised to  208.00000

     negative rho (up, down):  0.107E+00 0.000E+00
     Number of +U iterations with fixed ns =  0
     Starting occupations:
 --- enter write_ns ---
 LDA+U parameters:
U( 2)     =  2.00000000
alpha( 2) =  0.00000000
atom    3   Tr[ns(na)] =   2.00000
    eigenvalues:
  0.200  0.200  0.200  0.200  0.200
    eigenvectors:
  1.000  0.000  0.000  0.000  0.000
  0.000  1.000  0.000  0.000  0.000
  0.000  0.000  1.000  0.000  0.000
  0.000  0.000  0.000  1.000  0.000
  0.000  0.000  0.000  0.000  1.000
    occupations:
  0.200  0.000  0.000  0.000  0.000
  0.000  0.200  0.000  0.000  0.000
  0.000  0.000  0.200  0.000  0.000
  0.000  0.000  0.000  0.200  0.000
  0.000  0.000  0.000  0.000  0.200
atom    4   Tr[ns(na)] =   2.00000
    eigenvalues:
  0.200  0.200  0.200  0.200  0.200
    eigenvectors:
  1.000  0.000  0.000  0.000  0.000
  0.000  1.000  0.000  0.000  0.000
  0.000  0.000  1.000  0.000  0.000
  0.000  0.000  0.000  1.000  0.000
  0.000  0.000  0.000  0.000  1.000
    occupations:
  0.200  0.000  0.000  0.000  0.000
  0.000  0.200  0.000  0.000  0.000
  0.000  0.000  0.200  0.000  0.000
  0.000  0.000  0.000  0.200  0.000
  0.000  0.000  0.000  0.000  0.200
atom    9   Tr[ns(na)] =   2.00000
    eigenvalues:
  0.200  0.200  0.200  0.200  0.200
    eigenvectors:
  1.000  0.000  0.000  0.000  0.000
  0.000  1.000  0.000  0.000  0.000
  0.000  0.000  1.000  0.000  0.000
  0.000  0.000  0.000  1.000  0.000
  0.000  0.000  0.000  0.000  1.000
    occupations:
  0.200  0.000  0.000  0.000  0.000
  0.000  0.200  0.000  0.000  0.000
  0.000  0.000  0.200  0.000  0.000
  0.000  0.000  0.000  0.200  0.000
  0.000  0.000  0.000  0.000  0.200
atom   10   Tr[ns(na)] =   2.00000
    eigenvalues:
  0.200  0.200  0.200  0.200  0.200
    eigenvectors:
  1.000  0.000  0.000  0.000  0.000
  0.000  1.000  0.000  0.000  0.000
  0.000  0.000  1.000  0.000  0.000
  0.000  0.000  0.000  1.000  0.000
  0.000  0.000  0.000  0.000  1.000
    occupations:
  0.200  0.000  0.000  0.000  0.000
  0.000  0.200  0.000  0.000  0.000
  0.000  0.000  0.200  0.000  0.000
  0.000  0.000  0.000  0.200  0.000
  0.000  0.000  0.000  0.000  0.200
atom   16   Tr[ns(na)] =   2.00000
    eigenvalues:
  0.200  0.200  0.200  0.200  0.200
    eigenvectors:
  1.000  0.000  0.000  0.000  0.000
  0.000  1.000  0.000  0.000  0.000
  0.000  0.000  1.000  0.000  0.000
  0.000  0.000  0.000  1.000  0.000
  0.000  0.000  0.000  0.000  1.000
    occupations:
  0.200  0.000  0.000  0.000  0.000
  0.000  0.200  0.000  0.000  0.000
  0.000  0.000  0.200  0.000  0.000
  0.000  0.000  0.000  0.200  0.000
  0.000  0.000  0.000  0.000  0.200
atom   17   Tr[ns(na)] =   2.00000
    eigenvalues:
  0.200  0.200  0.200  0.200  0.200
    eigenvectors:
  1.000  0.000  0.000  0.000  0.000
  0.000  1.000  0.000  0.000  0.000
  0.000  0.000  1.000  0.000  0.000
  0.000  0.000  0.000  1.000  0.000
  0.000  0.000  0.000  0.000  1.000
    occupations:
  0.200  0.000  0.000  0.000  0.000
  0.000  0.200  0.000  0.000  0.000
  0.000  0.000  0.200  0.000  0.000
  0.000  0.000  0.000  0.200  0.000
  0.000  0.000  0.000  0.000  0.200
atom   22   Tr[ns(na)] =   2.00000
    eigenvalues:
  0.200  0.200  0.200  0.200  0.200
    eigenvectors:
  1.000  0.000  0.000  0.000  0.000
  0.000  1.000  0.000  0.000  0.000
  0.000  0.000  1.000  0.000  0.000
  0.000  0.000  0.000  1.000  0.000
  0.000  0.000  0.000  0.000  1.000
    occupations:
[...]
atom    3   Tr[ns(na)] =   2.76731
    eigenvalues:
  0.165  0.189  0.221  0.403  0.405
    eigenvectors:
  0.789  0.000  0.013  0.198  0.000
  0.000  0.003  0.000  0.000  0.997
  0.014  0.000  0.986  0.000  0.000
  0.197  0.000  0.001  0.802  0.000
  0.000  0.997  0.000  0.000  0.003
    occupations:
  0.213 -0.000 -0.004  0.095 -0.000
 -0.000  0.405  0.000  0.000  0.011
 -0.004  0.000  0.221  0.006 -0.000
  0.095  0.000  0.006  0.356 -0.000
 -0.000  0.011 -0.000 -0.000  0.190
atom    4   Tr[ns(na)] =   2.89636
    eigenvalues:
  0.167  0.203  0.232  0.412  0.434
    eigenvectors:
  0.006  0.004  0.000  0.000  0.990
  0.001  0.953  0.041  0.000  0.004
  0.000  0.041  0.959  0.000  0.000
  0.992  0.002  0.000  0.000  0.006
  0.000  0.000  0.000  1.000  0.000
    occupations:
  0.432  0.015  0.003 -0.020 -0.000
  0.015  0.205 -0.005  0.000 -0.002
  0.003 -0.005  0.230  0.001 -0.000
 -0.020  0.000  0.001  0.169 -0.000
 -0.000 -0.002 -0.000 -0.000  0.412
atom    9   Tr[ns(na)] =   2.88494
    eigenvalues:
  0.178  0.219  0.236  0.372  0.438
    eigenvectors:
  0.000  0.000  0.921  0.079  0.000
  0.000  0.000  0.000  0.000  1.000
  1.000  0.000  0.000  0.000  0.000
  0.000  0.000  0.079  0.921  0.000
  0.000  1.000  0.000  0.000  0.000
    occupations:
  0.247 -0.000 -0.000  0.037  0.000
 -0.000  0.438  0.000 -0.000 -0.000
 -0.000  0.000  0.178  0.000  0.000
  0.037 -0.000  0.000  0.361 -0.000
  0.000 -0.000  0.000 -0.000  0.219
atom   10   Tr[ns(na)] =   2.80915
    eigenvalues:
  0.179  0.226  0.232  0.332  0.437
    eigenvectors:
  0.025  0.000  0.000  0.975  0.000
  0.000  0.000  1.000  0.000  0.000
  0.000  1.000  0.000  0.000  0.000
  0.975  0.000  0.000  0.025  0.000
  0.000  0.000  0.000  0.000  1.000
    occupations:
  0.328 -0.000 -0.000 -0.024 -0.000
 -0.000  0.232 -0.000 -0.000  0.000
 -0.000 -0.000  0.226 -0.000  0.000
 -0.024 -0.000 -0.000  0.182 -0.000
 -0.000  0.000  0.000 -0.000  0.437
atom   16   Tr[ns(na)] =   2.76731
    eigenvalues:
  0.165  0.189  0.221  0.403  0.405
    eigenvectors:
  0.789  0.000  0.013  0.198  0.000
  0.000  0.003  0.000  0.000  0.997
  0.014  0.000  0.986  0.000  0.000
  0.197  0.000  0.001  0.802  0.000
  0.000  0.997  0.000  0.000  0.003
    occupations:
  0.213 -0.000 -0.004  0.095 -0.000
 -0.000  0.405  0.000  0.000  0.011
 -0.004  0.000  0.221  0.006 -0.000
  0.095  0.000  0.006  0.356 -0.000
 -0.000  0.011 -0.000 -0.000  0.190
atom   17   Tr[ns(na)] =   2.89636
    eigenvalues:
  0.167  0.203  0.232  0.412  0.434
    eigenvectors:
  0.006  0.004  0.000  0.000  0.990
  0.001  0.953  0.041  0.000  0.004
  0.000  0.041  0.959  0.000  0.000
  0.992  0.002  0.000  0.000  0.006
  0.000  0.000  0.000  1.000  0.000
    occupations:
  0.432  0.015  0.003 -0.020 -0.000
  0.015  0.205 -0.005  0.000 -0.002
  0.003 -0.005  0.230  0.001 -0.000
 -0.020  0.000  0.001  0.169 -0.000
 -0.000 -0.002 -0.000 -0.000  0.412
atom   22   Tr[ns(na)] =   2.88494
    eigenvalues:
  0.178  0.219  0.236  0.372  0.438
    eigenvectors:
  0.000  0.000  0.921  0.079  0.000
  0.000  0.000  0.000  0.000  1.000
  1.000  0.000  0.000  0.000  0.000
  0.000  0.000  0.079  0.921  0.000
  0.000  1.000  0.000  0.000  0.000
    occupations:
  0.247 -0.000 -0.000  0.037  0.000
 -0.000  0.438  0.000 -0.000 -0.000
 -0.000  0.000  0.178  0.000  0.000
  0.037 -0.000  0.000  0.361 -0.000
  0.000 -0.000  0.000 -0.000  0.219
atom   23   Tr[ns(na)] =   2.80915
    eigenvalues:
  0.179  0.226  0.232  0.332  0.437
    eigenvectors:
  0.025  0.000  0.000  0.975  0.000
  0.000  0.000  1.000  0.000  0.000
  0.000  1.000  0.000  0.000  0.000
  0.975  0.000  0.000  0.025  0.000
  0.000  0.000  0.000  0.000  1.000
    occupations:
  0.328 -0.000 -0.000 -0.024 -0.000
 -0.000  0.232 -0.000 -0.000  0.000
 -0.000 -0.000  0.226 -0.000  0.000
 -0.024 -0.000 -0.000  0.182 -0.000
 -0.000  0.000  0.000 -0.000  0.437
N of occupied +U levels =  22.7155240
 --- exit write_ns ---

     Threshold (ethr) on eigenvalues was too large:
     Diagonalizing with lowered threshold

     Davidson diagonalization with overlap
     ethr =  1.87E-08,  avg # of iterations =  2.0

[...]

     total energy              =   -1533.83170990 Ry
     Harris-Foulkes estimate   =   -1533.83170991 Ry
     estimated scf accuracy    <       0.00000002 Ry

     iteration #  8     ecut=    40.00 Ry     beta=0.70
     Davidson diagonalization with overlap
     ethr =  8.92E-12,  avg # of iterations =  1.0

     negative rho (up, down):  0.103E+00 0.000E+00

     End of self-consistent calculation
 --- enter write_ns ---
 LDA+U parameters:
U( 2)     =  2.00000000
alpha( 2) =  0.00000000
atom    3   Tr[ns(na)] =   2.76717
    eigenvalues:
  0.165  0.189  0.221  0.403  0.405
    eigenvectors:
  0.789  0.000  0.013  0.198  0.000
  0.000  0.003  0.000  0.000  0.997
  0.014  0.000  0.986  0.000  0.000
  0.197  0.000  0.001  0.802  0.000
  0.000  0.997  0.000  0.000  0.003
    occupations:
  0.213 -0.000 -0.004  0.095 -0.000
 -0.000  0.405  0.000  0.000  0.011
 -0.004  0.000  0.221  0.006 -0.000
  0.095  0.000  0.006  0.356 -0.000
 -0.000  0.011 -0.000 -0.000  0.190
atom    4   Tr[ns(na)] =   2.89630
    eigenvalues:
  0.167  0.203  0.232  0.412  0.434
    eigenvectors:
  0.006  0.004  0.000  0.000  0.990
  0.001  0.953  0.041  0.000  0.004
  0.000  0.041  0.959  0.000  0.000
  0.992  0.002  0.000  0.000  0.006
  0.000  0.000  0.000  1.000  0.000
    occupations:
  0.432  0.015  0.003 -0.020 -0.000
  0.015  0.205 -0.005  0.000 -0.002
  0.003 -0.005  0.230  0.001 -0.000
 -0.020  0.000  0.001  0.169 -0.000
 -0.000 -0.002 -0.000 -0.000  0.412
atom    9   Tr[ns(na)] =   2.88636
    eigenvalues:
  0.178  0.219  0.236  0.372  0.438
    eigenvectors:
  0.000  0.000  0.921  0.079  0.000
  0.000  0.000  0.000  0.000  1.000
  1.000  0.000  0.000  0.000  0.000
  0.000  0.000  0.079  0.921  0.000
  0.000  1.000  0.000  0.000  0.000
    occupations:
  0.247 -0.000 -0.000  0.037  0.000
 -0.000  0.438  0.000 -0.000 -0.000
 -0.000  0.000  0.178  0.000  0.000
  0.037 -0.000  0.000  0.362 -0.000
  0.000 -0.000  0.000 -0.000  0.219
atom   10   Tr[ns(na)] =   2.80967
    eigenvalues:
  0.179  0.226  0.232  0.332  0.437
    eigenvectors:
  0.025  0.000  0.000  0.975  0.000
  0.000  0.000  1.000  0.000  0.000
  0.000  1.000  0.000  0.000  0.000
  0.975  0.000  0.000  0.025  0.000
  0.000  0.000  0.000  0.000  1.000
    occupations:
  0.328 -0.000 -0.000 -0.024 -0.000
 -0.000  0.232 -0.000 -0.000  0.000
 -0.000 -0.000  0.226 -0.000  0.000
 -0.024 -0.000 -0.000  0.183 -0.000
 -0.000  0.000  0.000 -0.000  0.437
atom   16   Tr[ns(na)] =   2.76717
    eigenvalues:
  0.165  0.189  0.221  0.403  0.405
    eigenvectors:
  0.789  0.000  0.013  0.198  0.000
  0.000  0.003  0.000  0.000  0.997
  0.014  0.000  0.986  0.000  0.000
  0.197  0.000  0.001  0.802  0.000
  0.000  0.997  0.000  0.000  0.003
    occupations:
  0.213 -0.000 -0.004  0.095 -0.000
 -0.000  0.405  0.000  0.000  0.011
 -0.004  0.000  0.221  0.006 -0.000
  0.095  0.000  0.006  0.356 -0.000
 -0.000  0.011 -0.000 -0.000  0.190
atom   17   Tr[ns(na)] =   2.89630
    eigenvalues:
  0.167  0.203  0.232  0.412  0.434
    eigenvectors:
  0.006  0.004  0.000  0.000  0.990
  0.001  0.953  0.041  0.000  0.004
  0.000  0.041  0.959  0.000  0.000
  0.992  0.002  0.000  0.000  0.006
  0.000  0.000  0.000  1.000  0.000
    occupations:
  0.432  0.015  0.003 -0.020 -0.000
  0.015  0.205 -0.005  0.000 -0.002
  0.003 -0.005  0.230  0.001 -0.000
 -0.020  0.000  0.001  0.169 -0.000
 -0.000 -0.002 -0.000 -0.000  0.412
atom   22   Tr[ns(na)] =   2.88636
    eigenvalues:
  0.178  0.219  0.236  0.372  0.438
    eigenvectors:
  0.000  0.000  0.921  0.079  0.000
  0.000  0.000  0.000  0.000  1.000
  1.000  0.000  0.000  0.000  0.000
  0.000  0.000  0.079  0.921  0.000
  0.000  1.000  0.000  0.000  0.000
    occupations:
  0.247 -0.000 -0.000  0.037  0.000
 -0.000  0.438  0.000 -0.000 -0.000
 -0.000  0.000  0.178  0.000  0.000
  0.037 -0.000  0.000  0.362 -0.000
  0.000 -0.000  0.000 -0.000  0.219
atom   23   Tr[ns(na)] =   2.80967
    eigenvalues:
  0.179  0.226  0.232  0.332  0.437
    eigenvectors:
  0.025  0.000  0.000  0.975  0.000
  0.000  0.000  1.000  0.000  0.000
  0.000  1.000  0.000  0.000  0.000
  0.975  0.000  0.000  0.025  0.000
  0.000  0.000  0.000  0.000  1.000
    occupations:
  0.328 -0.000 -0.000 -0.024 -0.000
 -0.000  0.232 -0.000 -0.000  0.000
 -0.000 -0.000  0.226 -0.000  0.000
 -0.024 -0.000 -0.000  0.183 -0.000
 -0.000  0.000  0.000 -0.000  0.437
N of occupied +U levels =  22.7189833
 --- exit write_ns ---

[...]

          k = 0.2500-0.4516 0.0000 ( 29882 PWs)   bands (ev):

[...]

          k =-0.2500 0.2258 0.0000 ( 29912 PWs)   bands (ev):

   -61.1562 -61.1303 -60.7200 -60.6934 -59.5496 -59.5211 -59.1319 -59.1038
   -37.6521 -37.3966 -37.3704 -37.3244 -37.2129 -37.1907 -37.0871 -37.0528
   -37.0310 -36.8954 -36.8295 -36.7934 -36.1203 -35.8792 -35.8039 -35.8025
   -35.6249 -35.6028 -35.5192 -35.4738 -35.4510 -35.3536 -35.2819 -35.1954
   -22.2161 -22.0057 -20.9649 -20.8023 -20.3352 -20.2421 -19.9149 -19.7428
   -19.6908 -19.5944 -19.5315 -19.5122 -19.3379 -19.2683 -18.7296 -18.3510
   -18.1183 -18.0490  -9.9012  -9.6166  -8.1719  -8.0033  -7.8706  -7.8426
    -7.8232  -7.8030  -7.4148  -7.4132  -7.1790  -7.1523  -7.0259  -6.9790
    -6.9776  -6.8062  -6.8019  -6.5942  -6.5290  -6.3739  -6.1768  -6.1394
    -6.0616  -5.8071  -5.7792  -5.6609  -5.6310  -5.4439  -5.4146  -5.3788
    -5.2604  -5.1617  -5.1546  -5.0850  -4.9849  -4.9470  -4.8562  -4.7717
    -4.6757  -4.5581  -4.4744  -4.4698  -3.9563  -3.8082  -3.6729  -3.4989
    -3.4281  -3.3713  -3.2554  -3.2205  -3.1862  -2.9304  -2.8527  -2.7067
    -1.3416  -1.0498  -0.9266  -0.8477  -0.7934  -0.6080  -0.5692  -0.4474
    -0.1559  -0.0768   0.0871   0.1165   0.1789   0.3843   0.6941   0.7206
     0.8210   0.8438   0.9821   1.1334   1.2174   1.3059   1.5072   1.5397
     1.6157   1.6357   1.6892   1.7361   1.7794   1.9830   2.0366   2.5865
     3.0657   3.1132   3.2780   3.4368   3.5705   3.6241   3.7442   3.9047
     4.1204   4.2844   4.3773   4.5895   4.9530   4.9665   5.2344   5.6781
     5.8276   5.8668   5.9938   6.0948   6.1338   6.4416   6.4623   6.8093
     6.8230   7.1412   7.2381   7.3806   7.5111   7.7043   7.7939   7.8511
     7.8544   7.9944   8.0290   8.2094   8.4572   8.5113   8.6042   8.7605
     8.8248   8.9584   9.2465   9.3196   9.3258   9.3637   9.4236   9.5131
     9.5685   9.6447   9.8934   9.9671  10.0298  10.1936  10.1988  10.3894
    10.4334  10.6181  10.6192  10.6995  10.8518  10.8929  10.9894  10.9908
    11.1361  11.2772  11.2811  11.3744  11.4091  11.4555  11.5635  11.6421
    11.7627  11.7880  11.8727  11.9553  11.9648  12.0444  12.1082  12.2914
    12.3067  12.3534  12.5125  12.6103  12.6727  12.6871  12.7586  12.8643
    12.9019  12.9851  13.0858  13.2176  13.2824  13.3778  13.4306  13.5074
    13.5917  13.6737  13.7469  13.7566  13.8299  13.8929  13.9854  14.0787
    14.1131  14.2154  14.2610  14.3082  14.5086  14.5378  14.5666  14.6046
    14.7247  14.7392  14.8493  14.9439  15.0408  15.0440  15.1417  15.2610
    15.3464  15.3642  15.4736  15.5330  15.6367  15.7401  15.7703  15.7988
    15.8025  15.9057  15.9270  16.0860  16.1410  16.1979  16.2468  16.3431
    16.3923  16.5534  16.6653  16.7080  16.7941  16.8236  16.8283  16.8709
    16.9579  16.9754  17.0583  17.0851  17.2392  17.2803  17.2829  17.3931
    17.4663  17.4694  17.5332  17.5691  17.7331  17.8058  17.8661  18.0054
    18.0335  18.1903  18.2095  18.2909

     the Fermi energy is    -2.6076 ev

!    total energy              =   -1533.83170990 Ry
     Harris-Foulkes estimate   =   -1533.83170991 Ry
     estimated scf accuracy    <          4.3E-09 Ry

     The total energy is the sum of the following terms:

     one-electron contribution =  -18348.55056918 Ry
     hartree contribution      =    9187.96188477 Ry
     xc contribution           =    -269.80810735 Ry
     ewald contribution        =    7895.42998770 Ry
     Hubbard energy            =       1.13390159 Ry
     smearing contrib. (-TS)   =       0.00119257 Ry

     convergence has been achieved in   8 iterations

     Forces acting on atoms (Ry/au):

     negative rho (up, down):  0.103E+00 0.000E+00
     atom    1 type  1   force =    -0.00009164   -0.01612351    0.00075371
     atom    2 type  1   force =     0.00003090    0.02439132    0.00015210
     atom    3 type  2   force =     0.00018080   -0.01487300   -0.00041652
     atom    4 type  2   force =    -0.00396726    0.00880901    0.00032393
     atom    5 type  1   force =     0.00359614   -0.10928808   -0.00035274
     atom    6 type  1   force =    -0.00131382    0.10859918   -0.00033835
     atom    7 type  1   force =    -0.00004826    0.00097940   -0.00093976
     atom    8 type  1   force =     0.00249615   -0.00155954    0.00083725
     atom    9 type  2   force =    -0.00064139    0.00011586   -0.00090791
     atom   10 type  2   force =    -0.00004326   -0.00029682    0.00095026
     atom   11 type  1   force =     0.00007554   -0.04353102    0.00009738
     atom   12 type  1   force =    -0.00000866    0.04358929    0.00009613
     atom   13 type  1   force =     0.00045511   -0.00005001    0.00025346
     atom   14 type  1   force =    -0.00009163   -0.01612351    0.00075370
     atom   15 type  1   force =     0.00003090    0.02439132    0.00015210
     atom   16 type  2   force =     0.00018080   -0.01487300   -0.00041652
     atom   17 type  2   force =    -0.00396726    0.00880901    0.00032393
     atom   18 type  1   force =     0.00359614   -0.10928808   -0.00035274
     atom   19 type  1   force =    -0.00131382    0.10859917   -0.00033836
     atom   20 type  1   force =    -0.00004827    0.00097939   -0.00093976
     atom   21 type  1   force =     0.00249615   -0.00155954    0.00083724
     atom   22 type  2   force =    -0.00064140    0.00011586   -0.00090791
     atom   23 type  2   force =    -0.00004326   -0.00029682    0.00095026
     atom   24 type  1   force =     0.00007554   -0.04353103    0.00009738
     atom   25 type  1   force =    -0.00000866    0.04358929    0.00009613
     atom   26 type  1   force =     0.00045511   -0.00005001    0.00025346
     atom   27 type  3   force =     0.00003136   -0.00080872   -0.00040218
     atom   28 type  3   force =     0.00003136   -0.00080872   -0.00040218
     atom   29 type  3   force =    -0.00075170    0.00004664   -0.00010674
     atom   30 type  3   force =    -0.00075170    0.00004664   -0.00010673

     Total force =     0.003435     Total SCF correction =     0.000142

     bfgs converged in   8 scf cycles and   7 bfgs steps
     (criteria: energy < 0.10E-03, force < 0.10E-02)

     End of BFGS Geometry Optimization

     Final energy   =   -1533.8317099020 Ry
Begin final coordinates

ATOMIC_POSITIONS (crystal)
O0       0.000000000   0.000000000   0.379067180    0   0   1
O0       0.000000000   0.500000000   0.399460504    0   0   1
Ti1      0.250000000   0.500000000   0.450365308    0   0   1
Ti1      0.000000000   0.000000000   0.452307460    0   0   1
O0       0.250000000   0.810000000   0.450854656    0   0   1
O0       0.250000000   0.190000000   0.451896986    0   0   1
O0       0.000000000   0.500000000   0.498894091    0   0   1
O0       0.000000000   0.000000000   0.526956346    0   0   1
Ti1      0.250000000   0.000000000   0.581465389    0   0   1
Ti1      0.000000000   0.500000000   0.570046411    0   0   1
O0       0.250000000   0.690000000   0.580778574    0   0   1
O0       0.250000000   0.310000000   0.580795587    0   0   1
O0       0.000000000   0.000000000   0.623193718    0   0   1
O0       0.500000000   0.000000000   0.379067180    0   0   1
O0       0.500000000   0.500000000   0.399460504    0   0   1
Ti1      0.750000000   0.500000000   0.450365309    0   0   1
Ti1      0.500000000   0.000000000   0.452307460    0   0   1
O0       0.750000000   0.810000000   0.450854656    0   0   1
O0       0.750000000   0.190000000   0.451896988    0   0   1
O0       0.500000000   0.500000000   0.498894091    0   0   1
O0       0.500000000   0.000000000   0.526956346    0   0   1
Ti1      0.750000000   0.000000000   0.581465389    0   0   1
Ti1      0.500000000   0.500000000   0.570046411    0   0   1
O0       0.750000000   0.690000000   0.580778574    0   0   1
O0       0.750000000   0.310000000   0.580795586    0   0   1
O0       0.500000000   0.000000000   0.623193719    0   0   1
H2      -0.000433781   0.632041714   0.380889243
H2       0.499566220   0.632041714   0.380889243
H2       0.151079636   0.023317514   0.364598544
H2       0.651079635   0.023317512   0.364598544
End final coordinates

     General routines

     Parallel routines
     Hubbard U routines

   This run was terminated on:  16:43: 6   6May2014

   JOB DONE.