     Program PWSCF v.5.0.2 (svn rev. 9656) starts on 19Apr2014 at 11:51: 7

     Current dimensions of program PWSCF are:
     Max number of different atomic species (ntypx) = 10
     Max number of k-points (npk) =  40000
     Max angular momentum in pseudopotentials (lmaxx) =  3
     Reading input from pwscf.in
Warning: card &CELL ignored
Warning: card / ignored

     Subspace diagonalization in iterative solution of the eigenvalue problem:
     a serial algorithm will be used

     bravais-lattice index     =            0
     lattice parameter (alat)  =      11.2250  a.u.
     unit-cell volume          =    9585.4248 (a.u.)^3
     number of atoms/cell      =           50
     number of atomic types    =            3
     number of electrons       =       391.00
     number of Kohn-Sham states=          562
     kinetic-energy cutoff     =      40.0000  Ry
     charge density cutoff     =     500.0000  Ry
     convergence threshold     =      1.0E-06
     mixing beta               =       0.3000
     number of iterations used =            8  plain     mixing
     Exchange-correlation      = SLA  PW   PBE  PBE ( 1 4 3 4 0)
     EXX-fraction              =        0.00
     nstep                     =           50

     celldm(1)=  11.224973  celldm(2)=   0.000000  celldm(3)=   0.000000
     celldm(4)=   0.000000  celldm(5)=   0.000000  celldm(6)=   0.000000

     crystal axes: (cart. coord. in units of alat)
               a(1) = (   1.000000   0.000000   0.000000 )
               a(2) = (   0.000000   1.107086   0.000000 )
               a(3) = (   0.000000   0.000000   6.121726 )

     reciprocal axes: (cart. coord. in units 2 pi/alat)
               b(1) = (  1.000000  0.000000  0.000000 )
               b(2) = (  0.000000  0.903272  0.000000 )
               b(3) = (  0.000000  0.000000  0.163353 )

     PseudoPot. # 1 for O  read from file:
     /home/camp/zhonxu/pseudo/o_pbe_v1.01.uspp.F.UPF
     MD5 check sum: 2bcb18d16ea4b960afae9ec6d52f22d2
     Pseudo is Ultrasoft + core correction, Zval =  6.0
     Generated by new atomic code, or converted to UPF format
     Using radial grid of  737 points,  5 beta functions with:
                l(1) =   0
                l(2) =   0
                l(3) =   1
                l(4) =   1
                l(5) =   2
     Q(r) pseudized with  8 coefficients,  rinner =    0.900   0.900   0.900
                                                       0.900   0.900

     PseudoPot. # 2 for Ti read from file:
     /home/camp/zhonxu/pseudo/ti_pbe_v1.uspp.F.UPF
     MD5 check sum: bcc8f6961b3b91f0cac3ca967d22d0fb
     Pseudo is Ultrasoft + core correction, Zval = 12.0
     Generated by new atomic code, or converted to UPF format
     Using radial grid of  851 points,  6 beta functions with:
                l(1) =   0
                l(2) =   0
                l(3) =   1
                l(4) =   1
                l(5) =   2
                l(6) =   2
     Q(r) pseudized with  6 coefficients,  rinner =    1.000   1.000   1.000
                                                       1.000   1.000

     PseudoPot. # 3 for H  read from file:
     /home/camp/zhonxu/pseudo/h_pbe_v1.uspp.F.UPF
     MD5 check sum: 3408e3ff4ec8b0a4e358431e7e038a48
     Pseudo is Ultrasoft, Zval =  1.0
     Generated by new atomic code, or converted to UPF format
     Using radial grid of  615 points,  2 beta functions with:
                l(1) =   0
                l(2) =   0
     Q(r) pseudized with  8 coefficients,  rinner =    0.700

     atomic species   valence    mass     pseudopotential
        O0             6.00    15.99940     O ( 1.00)
        Ti1           12.00    47.88000     Ti( 1.00)
        H2             1.00     1.00794     H ( 1.00)

      2 Sym. Ops. (no inversion) found

   Cartesian axes

     site n.     atom                  positions (alat units)
         1           O0  tau(   1) = (   0.0000000   0.5535432   2.0202309  )
         2           Ti1 tau(   2) = (   0.2500000   0.5535432   2.2305735  )
         3           Ti1 tau(   3) = (   0.0000000   0.0000000   2.2305735  )
         4           O0  tau(   4) = (   0.2500000   0.8967400   2.2305735  )
         5           O0  tau(   5) = (   0.2500000   0.2103464   2.2305735  )
         6           O0  tau(   6) = (   0.0000000   0.5535432   2.4409160  )
         7           O0  tau(   7) = (   0.0000000   0.0000000   2.5737574  )
         8           Ti1 tau(   8) = (   0.2500000   0.0000000   2.7841000  )
         9           Ti1 tau(   9) = (   0.0000000   0.5535432   2.7841000  )
        10           O0  tau(  10) = (   0.2500000   0.7638896   2.7841000  )
        11           O0  tau(  11) = (   0.2500000   0.3431968   2.7841000  )
        12           O0  tau(  12) = (   0.0000000   0.0000000   2.9944425  )
        13           O0  tau(  13) = (   0.0000000   0.5535432   3.1319977  )
        14           Ti1 tau(  14) = (   0.2500000   0.5535432   3.3288112  )
        15           Ti1 tau(  15) = (   0.0000000   0.0000000   3.3672556  )
        16           O0  tau(  16) = (   0.2500000   0.8873962   3.3437482  )
        17           O0  tau(  17) = (   0.2500000   0.2196902   3.3437482  )
        18           O0  tau(  18) = (   0.0000000   0.5535432   3.5641916  )
        19           O0  tau(  19) = (   0.0000000   0.0000000   3.6800146  )
        20           Ti1 tau(  20) = (   0.2500000   0.0000000   3.9334541  )
        21           Ti1 tau(  21) = (   0.0000000   0.5535432   3.8694821  )
        22           O0  tau(  22) = (   0.2500000   0.7608340   3.9259244  )
        23           O0  tau(  23) = (   0.2500000   0.3462523   3.9259244  )
        24           O0  tau(  24) = (   0.0000000   0.0000000   4.1134329  )
        25           O0  tau(  25) = (   0.5000000   0.5535432   2.0202309  )
        26           Ti1 tau(  26) = (   0.7500000   0.5535432   2.2305735  )
        27           Ti1 tau(  27) = (   0.5000000   0.0000000   2.2305735  )
        28           O0  tau(  28) = (   0.7500000   0.8967400   2.2305735  )
        29           O0  tau(  29) = (   0.7500000   0.2103464   2.2305735  )
        30           O0  tau(  30) = (   0.5000000   0.5535432   2.4409160  )
        31           O0  tau(  31) = (   0.5000000   0.0000000   2.5737574  )
        32           Ti1 tau(  32) = (   0.7500000   0.0000000   2.7841000  )
        33           Ti1 tau(  33) = (   0.5000000   0.5535432   2.7841000  )
        34           O0  tau(  34) = (   0.7500000   0.7638896   2.7841000  )
        35           O0  tau(  35) = (   0.7500000   0.3431968   2.7841000  )
        36           O0  tau(  36) = (   0.5000000   0.0000000   2.9944425  )
        37           O0  tau(  37) = (   0.5000000   0.5535432   3.1319977  )
        38           Ti1 tau(  38) = (   0.7500000   0.5535432   3.3288112  )
        39           Ti1 tau(  39) = (   0.5000000   0.0000000   3.3672556  )
        40           O0  tau(  40) = (   0.7500000   0.8873962   3.3437482  )
        41           O0  tau(  41) = (   0.7500000   0.2196902   3.3437482  )
        42           O0  tau(  42) = (   0.5000000   0.5535432   3.5641916  )
        43           O0  tau(  43) = (   0.5000000   0.0000000   3.6800146  )
        44           Ti1 tau(  44) = (   0.7500000   0.0000000   3.9334541  )
        45           Ti1 tau(  45) = (   0.5000000   0.5535432   3.8694821  )
        46           O0  tau(  46) = (   0.7500000   0.7608340   3.9259244  )
        47           O0  tau(  47) = (   0.7500000   0.3462523   3.9259244  )
        48           O0  tau(  48) = (   0.5000000   0.0000000   4.1134329  )
        49           O0  tau(  49) = (   0.5230200   0.5535432   4.2199509  )
        50           H2  tau(  50) = (   0.3790100   0.5535432   4.3019208  )

     number of k points=     9  Methfessel-Paxton smearing, width (Ry)=  0.0100
                       cart. coord. in units 2pi/alat
        k(    1) = (   0.0000000   0.0000000   0.0000000), wk =   0.1250000
        k(    2) = (   0.0000000   0.2258180   0.0000000), wk =   0.2500000
        k(    3) = (   0.0000000  -0.4516359   0.0000000), wk =   0.1250000
        k(    4) = (   0.2500000   0.0000000   0.0000000), wk =   0.2500000
        k(    5) = (   0.2500000   0.2258180   0.0000000), wk =   0.5000000
        k(    6) = (   0.2500000  -0.4516359   0.0000000), wk =   0.2500000
        k(    7) = (  -0.5000000   0.0000000   0.0000000), wk =   0.1250000
        k(    8) = (  -0.5000000   0.2258180   0.0000000), wk =   0.2500000
        k(    9) = (  -0.5000000  -0.4516359   0.0000000), wk =   0.1250000

     Largest allocated arrays     est. size (Mb)     dimensions
     Largest temporary arrays     est. size (Mb)     dimensions

     Check: negative/imaginary core charge=   -0.000007    0.000000

     Initial potential from superposition of free atoms
     Check: negative starting charge=   -0.204002

     starting charge  374.99924, renormalised to  391.00000

     negative rho (up, down):  0.213E+00 0.000E+00
     Starting wfc are  293 randomized atomic wfcs

     Self-consistent Calculation

     iteration #  1     ecut=    40.00 Ry     beta=0.30
     Davidson diagonalization with overlap
     ethr =  1.00E-02,  avg # of iterations =  6.6

     negative rho (up, down):  0.218E+00 0.000E+00

     total energy              =   -2954.39833147 Ry
     Harris-Foulkes estimate   =   -2967.57193675 Ry
     estimated scf accuracy    <      27.31922378 Ry

[...]

     End of self-consistent calculation

          k = 0.0000 0.0000 0.0000 ( 40985 PWs)   bands (ev):

   -58.9855 -58.9458 -58.6401 -58.6003 -58.3516 -58.3114 -58.2759 -58.2441
   -58.2359 -58.2065 -58.1578 -57.8730 -57.6568 -57.6152 -57.4982 -57.4582
   -35.4785 -35.2596 -35.2278 -35.2202 -35.2134 -35.1052 -35.0307 -34.9406
   -34.9006 -34.8287 -34.8279 -34.8226 -34.7785 -34.7723 -34.7712 -34.6583
   -34.5907 -34.5554 -34.5432 -34.5346 -34.5240 -34.5115 -34.4929 -34.4495
   -34.4487 -34.4457 -34.4456 -34.4371 -34.4138 -34.4076 -34.3826 -34.3719
   -34.3629 -34.2075 -34.1533 -34.1279 -34.1058 -33.9791 -33.9457 -33.9023
   -33.8810 -33.8471 -33.8365 -33.8075 -33.7451 -33.7239 -33.6404 -33.5252
   -19.5780 -19.4677 -19.1334 -18.9242 -18.8423 -18.8229 -18.6820 -18.6177
   -18.4624 -18.4503 -18.4265 -18.3457 -18.2810 -18.2212 -18.1927 -18.1374
   -18.1015 -18.0596 -18.0399 -18.0226 -17.9579 -17.8592 -17.8206 -17.7981
   -17.7606 -17.7380 -17.6284 -17.5953 -17.5334 -17.2002 -17.0797 -16.4253
   -16.3696  -7.2070  -7.0801  -6.8817  -6.8215  -6.5735  -6.5363  -6.5072
    -6.2120  -6.1565  -6.0546  -6.0279  -6.0098  -5.9496  -5.8171  -5.7704
    -5.7361  -5.6979  -5.6704  -5.6413  -5.6188  -5.5899  -5.5426  -5.4521
    -5.4410  -5.3597  -5.3408  -5.3037  -5.2480  -5.2478  -5.2278  -5.1646
    -5.0598  -5.0215  -5.0137  -4.9429  -4.9179  -4.8396  -4.6966  -4.6286
    -4.5791  -4.5262  -4.4427  -4.4425  -4.4270  -4.2979  -4.2464  -4.1052
    -4.0962  -3.9989  -3.9746  -3.8857  -3.8704  -3.8546  -3.8373  -3.7872
    -3.7690  -3.7212  -3.6942  -3.6296  -3.6266  -3.6001  -3.5407  -3.3728
    -3.3553  -3.2551  -3.2402  -3.2390  -3.1002  -3.0519  -3.0206  -2.9687
    -2.9298  -2.8865  -2.8552  -2.8103  -2.7638  -2.6943  -2.6493  -2.6301
[...]

ATOMIC_POSITIONS (crystal)
O0       0.000000000   0.500000000   0.330010000    0   0   0
Ti1      0.250000000   0.500000000   0.364370000    0   0   0
Ti1      0.000000000   0.000000000   0.364370000    0   0   0
O0       0.250000000   0.810000000   0.364370000    0   0   0
O0       0.250000000   0.190000000   0.364370000    0   0   0
O0       0.000000000   0.500000000   0.398730000    0   0   0
O0       0.000000000   0.000000000   0.420430000    0   0   0
Ti1      0.250000000   0.000000000   0.454790000    0   0   0
Ti1      0.000000000   0.500000000   0.454790000    0   0   0
O0       0.250000000   0.690000000   0.454790000    0   0   0
O0       0.250000000   0.310000000   0.454790000    0   0   0
O0       0.000000000   0.000000000   0.489150000    0   0   0
O0       0.002376988   0.500000000   0.509592297
Ti1      0.249539849   0.500000000   0.543134802
Ti1     -0.000947478   0.000000000   0.550082108
O0       0.249184759   0.803601214   0.545636430
O0       0.249184759   0.196398786   0.545636430
O0       0.000166138   0.500000000   0.580429046
O0       0.000885875   0.000000000   0.600942689
Ti1      0.249635817   0.000000000   0.642599649
Ti1      0.000058208   0.500000000   0.630149704
O0       0.245674676   0.689586883   0.640629727
O0       0.245674676   0.310413117   0.640629727
O0       0.000641283   0.000000000   0.672258069
O0       0.500000000   0.500000000   0.330010000    0   0   0
Ti1      0.750000000   0.500000000   0.364370000    0   0   0
Ti1      0.500000000   0.000000000   0.364370000    0   0   0
O0       0.750000000   0.810000000   0.364370000    0   0   0
O0       0.750000000   0.190000000   0.364370000    0   0   0
O0       0.500000000   0.500000000   0.398730000    0   0   0
O0       0.500000000   0.000000000   0.420430000    0   0   0
Ti1      0.750000000   0.000000000   0.454790000    0   0   0
Ti1      0.500000000   0.500000000   0.454790000    0   0   0
O0       0.750000000   0.690000000   0.454790000    0   0   0
O0       0.750000000   0.310000000   0.454790000    0   0   0
O0       0.500000000   0.000000000   0.489150000    0   0   0
O0       0.499608526   0.500000000   0.509532492
Ti1      0.731658427   0.500000000   0.546605881
Ti1      0.499389318   0.000000000   0.550566990
O0       0.750146089   0.803779821   0.545845603
O0       0.750146089   0.196220179   0.545845603
O0       0.498874606   0.500000000   0.579442328
O0       0.499983082   0.000000000   0.601054562
Ti1      0.750819264   0.000000000   0.642796554
Ti1      0.500178706   0.500000000   0.648455983
O0       0.756084268   0.690107362   0.640179660
O0       0.756084268   0.309892638   0.640179660
O0       0.500057145   0.000000000   0.672025611
O0       0.507081286   0.500000000   0.697903270
H2       0.381298781   0.500000000   0.715249793

     Check: negative starting charge=   -0.202754
     NEW-OLD atomic charge density approx. for the potential

     Check: negative/imaginary core charge=   -0.000007    0.000000
     Check: negative starting charge=   -0.202760

[...]

     Self-consistent Calculation

[...]

     Threshold (ethr) on eigenvalues was too large:
     Diagonalizing with lowered threshold

     Davidson diagonalization with overlap
     ethr =  4.02E-08,  avg # of iterations =  1.1

[...]

     total energy              =   -2964.97399952 Ry
     Harris-Foulkes estimate   =   -2964.97399953 Ry
     estimated scf accuracy    <       0.00000004 Ry

     iteration # 10     ecut=    40.00 Ry     beta=0.30
     Davidson diagonalization with overlap
     ethr =  9.83E-12,  avg # of iterations =  1.0

     negative rho (up, down):  0.201E+00 0.000E+00

     End of self-consistent calculation

[...]

          k = 0.2500-0.4516 0.0000 ( 40874 PWs)   bands (ev):

[...]

          k =-0.5000-0.4516 0.0000 ( 40844 PWs)   bands (ev):

   -58.8174 -58.8159 -57.9751 -57.9739 -57.9678 -57.9374 -57.8756 -57.8581
   -57.8408 -57.8088 -57.7661 -57.7522 -57.4408 -57.4316 -57.4112 -57.4101
   -35.1160 -35.1149 -35.0897 -35.0880 -35.0118 -35.0104 -34.3766 -34.3279
   -34.3271 -34.3037 -34.2723 -34.2590 -34.2216 -34.2204 -34.2108 -34.1918
   -34.1864 -34.1853 -34.1630 -34.1611 -34.1546 -34.1415 -34.1342 -34.1331
   -34.1247 -34.0950 -34.0858 -34.0754 -34.0532 -34.0484 -34.0449 -34.0213
   -34.0033 -33.9960 -33.9911 -33.9766 -33.7942 -33.7905 -33.7497 -33.7488
   -33.6975 -33.6921 -33.6909 -33.6869 -33.6809 -33.6716 -33.6254 -33.6243
   -18.9043 -18.6670 -18.6664 -18.5380 -18.5341 -18.4860 -18.3823 -18.3128
   -18.3097 -18.1167 -17.9923 -17.9790 -17.9724 -17.8456 -17.8428 -17.8410
   -17.8317 -17.7869 -17.7541 -17.7531 -17.7392 -17.6498 -17.6337 -17.5426
   -17.4905 -17.4756 -17.4312 -17.3835 -17.3751 -17.1131 -17.0933 -16.4924
   -16.4903  -6.8444  -5.8452  -5.8251  -5.8222  -5.8069  -5.7584  -5.7075
    -5.7071  -5.6858  -5.4919  -5.4729  -5.4570  -5.4374  -5.3803  -5.3037
    -5.2998  -5.2414  -5.2350  -5.1983  -5.1883  -5.1595  -5.1374  -5.1254
    -5.1226  -5.0936  -5.0759  -5.0669  -4.9837  -4.9543  -4.8521  -4.8278
    -4.7670  -4.6890  -4.6745  -4.6630  -4.6116  -4.5607  -4.5334  -4.4785
    -4.3611  -4.2783  -4.2257  -4.1729  -4.1591  -4.1291  -3.9796  -3.9032
    -3.8972  -3.8780  -3.8125  -3.7958  -3.7862  -3.7829  -3.7643  -3.7023
    -3.6816  -3.6183  -3.5248  -3.5082  -3.4129  -3.3464  -3.3409  -3.3330
    -3.3219  -3.2735  -3.2583  -3.2294  -3.1866  -3.1129  -3.0631  -3.0373
    -2.9064  -2.8939  -2.8315  -2.7986  -2.7682  -2.7511  -2.6010  -2.4445
    -2.4244  -2.4146  -2.3864  -2.3460  -2.1324  -2.1289  -2.0910  -2.0843
    -2.0703  -1.9421  -1.9328  -1.9229  -1.7589  -1.7023  -1.6986  -1.6925
    -1.6845  -1.6747  -1.4320  -1.4259   0.8689   0.8744   0.9056   0.9095
     1.2455   1.2465   1.3221   1.3945   1.4132   1.4137   1.4768   1.4868
     1.5789   1.5835   1.6388   1.7641   1.8137   1.8259   1.8840   1.9160
     1.9367   1.9605   2.0775   2.1295   2.1916   2.1946   2.2346   2.2490
     2.2917   2.3322   2.3451   2.4041   2.4482   2.4581   2.4670   2.4866
     2.5462   2.5540   2.5606   2.6063   2.6853   2.7025   2.7148   2.7248
     2.7499   2.7767   2.8824   2.9207   2.9985   3.0333   3.5911   3.5916
     3.6999   3.8776   3.9399   3.9570   4.0089   4.0409   4.0540   4.1357
     4.3628   4.4276   4.4342   4.4392   4.9064   5.0018   5.0106   5.1933
     5.2796   5.3157   5.3241   5.3451   5.3635   5.3705   5.4476   5.5104
     5.6643   5.6966   5.7021   5.8105   5.8155   5.8249   5.8297   6.8287
     6.9017   6.9332   6.9502   6.9569   7.0580   7.1171   7.1224   7.1881
     7.3696   7.4331   7.4519   7.5427   7.8135   7.8807   7.9023   8.0070
     8.3735   8.4170   8.4493   8.5577   8.9137   9.0017   9.0588   9.0790
     9.3992   9.4069   9.4089   9.4837   9.5539   9.6207   9.6247   9.6539
    10.0424  10.0942  10.1620  10.2318  10.3846  10.4680  10.4808  10.5231
    10.9295  10.9668  11.0084  11.1047  11.2363  11.4887  11.5159  11.5803
    11.7465  12.1466  12.2351  12.3366  12.4119  12.5440  12.5586  12.6164
    12.6729  12.8056  12.8549  13.0212  13.0348  13.0387  13.0958  13.1869
    13.4390  13.4756  13.5367  13.5612  13.6090  13.6655  13.6852  13.7004
    13.7046  13.7234  13.8546  13.8936  13.9322  13.9413  13.9448  13.9492
    13.9678  13.9815  14.0097  14.0307  14.0456  14.0588  14.1228  14.1374
    14.1468  14.1852  14.2039  14.2164  14.2243  14.2447  14.2522  14.2712
    14.3002  14.3426  14.3726  14.4637  14.5015  14.5194  14.5869  14.6314
    14.6538  14.7135  14.7898  14.8336  14.9005  14.9713  14.9894  15.1169
    15.1774  15.2456  15.2892  15.3466  15.3522  15.3790  15.4139  15.4153
    15.4775  15.4947  15.4980  15.5066  15.5396  15.5402  15.5648  15.5910
    15.6045  15.6331  15.6720  15.6968  15.7341  15.7439  15.8089  15.8438
    15.8579  15.9481  15.9771  16.0307  16.0350  16.0450  16.0735  16.1548
    16.1659  16.2305  16.2444  16.3506  16.4534  16.4726  16.4809  16.5168
    16.5662  16.6222  16.6607  16.7134  16.7564  16.7623  16.7953  16.8040
    16.9280  16.9434  16.9885  17.0581  17.1416  17.2577  17.2715  17.2726
    17.3190  17.3334  17.4157  17.4441  17.4642  17.5132  17.5252  17.5863
    17.6103  17.6338  17.6357  17.7363  17.9290  17.9856  18.0347  18.0445
    18.0926  18.0944  18.1435  18.1631  18.1950  18.2139  18.3428  18.4286
    18.4892  18.5094  18.5180  18.6500  18.7845  18.7970  18.8086  18.8547
    18.8727  18.9786  19.0021  19.0644  19.1209  19.1623  19.1669  19.2328
    19.3478  19.3750  19.4307  19.4575  19.5139  19.5216  19.5568  19.6530
    19.7425  19.7425  19.9119  19.9401  19.9982  20.0195  20.0712  20.0936
    20.1133  20.1727  20.2902  20.4351  20.5396  20.5602  20.5610  20.6762
    20.8596  20.8991  20.9115  21.0715  21.1836  21.2586  21.2626  21.2748
    21.3341  21.4040  21.4334  21.5769  21.6254  21.6344  21.6555  21.7030
    21.9815  21.9886  21.9915  22.0686  22.1611  22.1835  22.2655  22.3112
    22.3185  22.3915  22.4215  22.4527  22.4753  22.5294  22.5817  22.6158
    22.6726  22.6995  22.7187  22.7192  22.7526  22.7547  22.7788  22.8404
    22.9104  22.9175  22.9405  22.9491  23.0975  23.1142  23.1709  23.2492
    23.2744  23.2768

     the Fermi energy is    -1.3461 ev

!    total energy              =   -2964.97399953 Ry
     Harris-Foulkes estimate   =   -2964.97399953 Ry
     estimated scf accuracy    <          7.5E-09 Ry

     The total energy is the sum of the following terms:

     one-electron contribution =  -63669.56373685 Ry
     hartree contribution      =   31882.60307784 Ry
     xc contribution           =    -513.14301642 Ry
     ewald contribution        =   29335.12929080 Ry
     smearing contrib. (-TS)   =       0.00038510 Ry

     convergence has been achieved in  10 iterations

     Forces acting on atoms (Ry/au):

     negative rho (up, down):  0.201E+00 0.000E+00
     atom    1 type  1   force =     0.00004287    0.00000000    0.04867046
     atom    2 type  2   force =    -0.00029070    0.00000000   -0.10799705
     atom    3 type  2   force =     0.00003508    0.00000000    0.12737999
     atom    4 type  1   force =    -0.00000361    0.02948497   -0.03450704
     atom    5 type  1   force =    -0.00000361   -0.02948497   -0.03450704
     atom    6 type  1   force =     0.00020213    0.00000000    0.06081199
     atom    7 type  1   force =    -0.00003775    0.00000000   -0.09910247
     atom    8 type  2   force =     0.00089022    0.00000000    0.06861613
     atom    9 type  2   force =    -0.00191678    0.00000000    0.00142634
     atom   10 type  1   force =     0.00306240    0.03202773   -0.00601038
     atom   11 type  1   force =     0.00306240   -0.03202773   -0.00601038
     atom   12 type  1   force =    -0.00006070    0.00000000   -0.00685958
     atom   13 type  1   force =     0.00035519    0.00000000   -0.00012656
     atom   14 type  2   force =    -0.00080856    0.00000000   -0.00003578
     atom   15 type  2   force =     0.00010373    0.00000000   -0.00000897
     atom   16 type  1   force =     0.00008484    0.00032030   -0.00025593
     atom   17 type  1   force =     0.00008484   -0.00032030   -0.00025593
     atom   18 type  1   force =    -0.00032482    0.00000000   -0.00005277
     atom   19 type  1   force =    -0.00004812    0.00000000    0.00032800
     atom   20 type  2   force =     0.00004283    0.00000000    0.00016257
     atom   21 type  2   force =    -0.00021963    0.00000000    0.00017077
     atom   22 type  1   force =    -0.00025528   -0.00033991   -0.00011621
     atom   23 type  1   force =    -0.00025528    0.00033991   -0.00011621
     atom   24 type  1   force =     0.00002930    0.00000000    0.00021605
     atom   25 type  1   force =    -0.00001656    0.00000000    0.04849422
     atom   26 type  2   force =     0.00025332    0.00000000   -0.10765091
     atom   27 type  2   force =    -0.00004505    0.00000000    0.12755618
     atom   28 type  1   force =     0.00000292    0.02944443   -0.03448857
     atom   29 type  1   force =     0.00000292   -0.02944443   -0.03448857
     atom   30 type  1   force =    -0.00005630    0.00000000    0.06436587
     atom   31 type  1   force =     0.00009017    0.00000000   -0.09942950
     atom   32 type  2   force =    -0.00105855    0.00000000    0.06885390
     atom   33 type  2   force =     0.00189186    0.00000000   -0.02562373
     atom   34 type  1   force =    -0.00238087    0.03098903   -0.00503174
     atom   35 type  1   force =    -0.00238087   -0.03098903   -0.00503174
     atom   36 type  1   force =     0.00004206    0.00000000   -0.00736895
     atom   37 type  1   force =    -0.00022814    0.00000000    0.00044605
     atom   38 type  2   force =    -0.00047661    0.00000000   -0.00002723
     atom   39 type  2   force =     0.00006215    0.00000000   -0.00020022
     atom   40 type  1   force =    -0.00007126    0.00030251   -0.00037845
     atom   41 type  1   force =    -0.00007126   -0.00030251   -0.00037845
     atom   42 type  1   force =    -0.00012151    0.00000000   -0.00017050
     atom   43 type  1   force =    -0.00015600    0.00000000    0.00032689
     atom   44 type  2   force =     0.00034109    0.00000000   -0.00041001
     atom   45 type  2   force =    -0.00033947    0.00000000   -0.00035389
     atom   46 type  1   force =     0.00042254   -0.00015181   -0.00034367
     atom   47 type  1   force =     0.00042254    0.00015181   -0.00034367
     atom   48 type  1   force =     0.00012495    0.00000000   -0.00043190
     atom   49 type  1   force =     0.00066729    0.00000000   -0.00008597
     atom   50 type  3   force =    -0.00069237    0.00000000    0.00037456

     Total force =     0.002353     Total SCF correction =     0.000142

     bfgs converged in  41 scf cycles and  39 bfgs steps
     (criteria: energy < 0.10E-03, force < 0.10E-02)

     End of BFGS Geometry Optimization

     Final energy   =   -2964.9739995251 Ry
Begin final coordinates

ATOMIC_POSITIONS (crystal)
O0       0.000000000   0.500000000   0.330010000    0   0   0
Ti1      0.250000000   0.500000000   0.364370000    0   0   0
Ti1      0.000000000   0.000000000   0.364370000    0   0   0
O0       0.250000000   0.810000000   0.364370000    0   0   0
O0       0.250000000   0.190000000   0.364370000    0   0   0
O0       0.000000000   0.500000000   0.398730000    0   0   0
O0       0.000000000   0.000000000   0.420430000    0   0   0
Ti1      0.250000000   0.000000000   0.454790000    0   0   0
Ti1      0.000000000   0.500000000   0.454790000    0   0   0
O0       0.250000000   0.690000000   0.454790000    0   0   0
O0       0.250000000   0.310000000   0.454790000    0   0   0
O0       0.000000000   0.000000000   0.489150000    0   0   0
O0       0.002376988   0.500000000   0.509592297
Ti1      0.249539849   0.500000000   0.543134802
Ti1     -0.000947478   0.000000000   0.550082108
O0       0.249184759   0.803601214   0.545636430
O0       0.249184759   0.196398786   0.545636430
O0       0.000166138   0.500000000   0.580429046
O0       0.000885875   0.000000000   0.600942689
Ti1      0.249635817   0.000000000   0.642599649
Ti1      0.000058208   0.500000000   0.630149704
O0       0.245674676   0.689586883   0.640629727
O0       0.245674676   0.310413117   0.640629727
O0       0.000641283   0.000000000   0.672258069
O0       0.500000000   0.500000000   0.330010000    0   0   0
Ti1      0.750000000   0.500000000   0.364370000    0   0   0
Ti1      0.500000000   0.000000000   0.364370000    0   0   0
O0       0.750000000   0.810000000   0.364370000    0   0   0
O0       0.750000000   0.190000000   0.364370000    0   0   0
O0       0.500000000   0.500000000   0.398730000    0   0   0
O0       0.500000000   0.000000000   0.420430000    0   0   0
Ti1      0.750000000   0.000000000   0.454790000    0   0   0
Ti1      0.500000000   0.500000000   0.454790000    0   0   0
O0       0.750000000   0.690000000   0.454790000    0   0   0
O0       0.750000000   0.310000000   0.454790000    0   0   0
O0       0.500000000   0.000000000   0.489150000    0   0   0
O0       0.499608526   0.500000000   0.509532492
Ti1      0.731658427   0.500000000   0.546605881
Ti1      0.499389318   0.000000000   0.550566990
O0       0.750146089   0.803779821   0.545845603
O0       0.750146089   0.196220179   0.545845603
O0       0.498874606   0.500000000   0.579442328
O0       0.499983082   0.000000000   0.601054562
Ti1      0.750819264   0.000000000   0.642796554
Ti1      0.500178706   0.500000000   0.648455983
O0       0.756084268   0.690107362   0.640179660
O0       0.756084268   0.309892638   0.640179660
O0       0.500057145   0.000000000   0.672025611
O0       0.507081286   0.500000000   0.697903270
H2       0.381298781   0.500000000   0.715249793
End final coordinates

     General routines

     Parallel routines

   This run was terminated on:   0:48:59  21Apr2014

   JOB DONE.