     Program PWSCF v.5.0.2 (svn rev. 9656) starts on 30Apr2014 at 21: 1:12

     Current dimensions of program PWSCF are:
     Max number of different atomic species (ntypx) = 10
     Max number of k-points (npk) =  40000
     Max angular momentum in pseudopotentials (lmaxx) =  3
     Reading input from pwscf.in
Warning: card &CELL ignored
Warning: card / ignored

     Subspace diagonalization in iterative solution of the eigenvalue problem:
     a serial algorithm will be used

     bravais-lattice index     =            0
     lattice parameter (alat)  =      11.7541  a.u.
     unit-cell volume          =    7139.8207 (a.u.)^3
     number of atoms/cell      =           32
     number of atomic types    =            3
     number of electrons       =       239.00
     number of Kohn-Sham states=          358
     kinetic-energy cutoff     =      40.0000  Ry
     charge density cutoff     =     500.0000  Ry
     convergence threshold     =      1.0E-06
     mixing beta               =       0.7000
     number of iterations used =            8  plain     mixing
     Exchange-correlation      = SLA  PW   PBE  PBE ( 1 4 3 4 0)
     EXX-fraction              =        0.00
     nstep                     =           50

     celldm(1)=  11.754097  celldm(2)=   0.000000  celldm(3)=   0.000000
     celldm(4)=   0.000000  celldm(5)=   0.000000  celldm(6)=   0.000000

     crystal axes: (cart. coord. in units of alat)
               a(1) = (   1.000000   0.000000   0.000000 )
               a(2) = (   0.000000   1.034513   0.000000 )
               a(3) = (   0.000000   0.000000   4.249947 )

     reciprocal axes: (cart. coord. in units 2 pi/alat)
               b(1) = (  1.000000  0.000000  0.000000 )
               b(2) = (  0.000000  0.966638  0.000000 )
               b(3) = (  0.000000  0.000000  0.235297 )

     PseudoPot. # 1 for O  read from file:
     /home/camp/zhonxu/pseudo/o_pbe_v1.01.uspp.F.UPF
     MD5 check sum: 2bcb18d16ea4b960afae9ec6d52f22d2
     Pseudo is Ultrasoft + core correction, Zval =  6.0
     Generated by new atomic code, or converted to UPF format
     Using radial grid of  737 points,  5 beta functions with:
                l(1) =   0
                l(2) =   0
                l(3) =   1
                l(4) =   1
                l(5) =   2
     Q(r) pseudized with  8 coefficients,  rinner =    0.900   0.900   0.900
                                                       0.900   0.900

     PseudoPot. # 2 for Rh read from file:
     /home/camp/zhonxu/pseudo/rh_pbe_v1.uspp.F.UPF
     MD5 check sum: 37b626987ad0dd8ec6bf4cc9ef289918
     Pseudo is Ultrasoft + core correction, Zval = 15.0
     Generated by new atomic code, or converted to UPF format
     Using radial grid of  969 points,  7 beta functions with:
                l(1) =   0
                l(2) =   0
                l(3) =   1
                l(4) =   1
                l(5) =   2
                l(6) =   2
                l(7) =   2
     Q(r) pseudized with  6 coefficients,  rinner =    1.050   1.050   1.050
                                                       1.050   1.050

     PseudoPot. # 3 for H  read from file:
     /home/camp/zhonxu/pseudo/h_pbe_v1.uspp.F.UPF
     MD5 check sum: 3408e3ff4ec8b0a4e358431e7e038a48
     Pseudo is Ultrasoft, Zval =  1.0
     Generated by new atomic code, or converted to UPF format
     Using radial grid of  615 points,  2 beta functions with:
                l(1) =   0
                l(2) =   0
     Q(r) pseudized with  8 coefficients,  rinner =    0.700

     atomic species   valence    mass     pseudopotential
        O0             6.00    15.99940     O ( 1.00)
        Rh1           15.00   102.90550     Rh( 1.00)
        H2             1.00     1.00794     H ( 1.00)

     Simplified LDA+U calculation (l_max = 2) with parameters (eV):
     atomic species    L          U    alpha       J0     beta
        Rh1            2     8.0000   0.0000   0.0000   0.0000

     No symmetry found

   Cartesian axes

     site n.     atom                  positions (alat units)
         1           O0  tau(   1) = (   0.0000000   0.0000000   1.6077125  )
         2           O0  tau(   2) = (   0.0000000   0.5172566   1.7060138  )
         3           Rh1 tau(   3) = (   0.2500000   0.5172566   1.9233561  )
         4           Rh1 tau(   4) = (   0.0000000   0.0000000   1.9242061  )
         5           O0  tau(   5) = (   0.2500000   0.8379556   1.9221236  )
         6           O0  tau(   6) = (   0.2500000   0.1965575   1.9218261  )
         7           O0  tau(   7) = (   0.0000000   0.5172566   2.1180887  )
         8           O0  tau(   8) = (   0.0000000   0.0000000   2.2452046  )
         9           Rh1 tau(   9) = (   0.2500000   0.0000000   2.4467796  )
        10           Rh1 tau(  10) = (   0.0000000   0.5172566   2.4248074  )
        11           O0  tau(  11) = (   0.2500000   0.7138141   2.4490746  )
        12           O0  tau(  12) = (   0.2500000   0.3206991   2.4494996  )
        13           O0  tau(  13) = (   0.0000000   0.0000000   2.6392597  )
        14           O0  tau(  14) = (   0.5000000   0.0000000   1.6071175  )
        15           O0  tau(  15) = (   0.5000000   0.5172566   1.7046963  )
        16           Rh1 tau(  16) = (   0.7500000   0.5172566   1.9233561  )
        17           Rh1 tau(  17) = (   0.5000000   0.0000000   1.9236961  )
        18           O0  tau(  18) = (   0.7500000   0.8379556   1.9222086  )
        19           O0  tau(  19) = (   0.7500000   0.1965575   1.9219111  )
        20           O0  tau(  20) = (   0.5000000   0.5172566   2.1234861  )
        21           O0  tau(  21) = (   0.5000000   0.0000000   2.2446521  )
        22           Rh1 tau(  22) = (   0.7500000   0.0000000   2.4466946  )
        23           Rh1 tau(  23) = (   0.5000000   0.5172566   2.4467371  )
        24           O0  tau(  24) = (   0.7500000   0.7138141   2.4449521  )
        25           O0  tau(  25) = (   0.7500000   0.3206991   2.4452921  )
        26           O0  tau(  26) = (   0.5000000   0.0000000   2.6379847  )
        27           H2  tau(  27) = (  -0.0000100   0.6596573   1.6332972  )
        28           H2  tau(  28) = (   0.4999400   0.6612505   1.6349547  )
        29           H2  tau(  29) = (   0.1484100   0.0351631   1.5627056  )
        30           H2  tau(  30) = (   0.6482100   0.0356700   1.5619406  )
        31           O0  tau(  31) = (   0.5154200   0.5168841   2.7565583  )
        32           H2  tau(  32) = (   0.3686900   0.5167083   2.8162275  )

     number of k points=    10  Methfessel-Paxton smearing, width (Ry)=  0.0100
                       cart. coord. in units 2pi/alat
        k(    1) = (   0.0000000   0.0000000   0.0000000), wk =   0.1250000
        k(    2) = (   0.0000000   0.2416596   0.0000000), wk =   0.2500000
        k(    3) = (   0.0000000  -0.4833191   0.0000000), wk =   0.1250000
        k(    4) = (   0.2500000   0.0000000   0.0000000), wk =   0.2500000
        k(    5) = (   0.2500000   0.2416596   0.0000000), wk =   0.2500000
        k(    6) = (   0.2500000  -0.4833191   0.0000000), wk =   0.2500000
        k(    7) = (  -0.5000000   0.0000000   0.0000000), wk =   0.1250000
        k(    8) = (  -0.5000000   0.2416596   0.0000000), wk =   0.2500000
        k(    9) = (  -0.5000000  -0.4833191   0.0000000), wk =   0.1250000
        k(   10) = (  -0.2500000   0.2416596   0.0000000), wk =   0.2500000

     Largest allocated arrays     est. size (Mb)     dimensions
     Largest temporary arrays     est. size (Mb)     dimensions

     Check: negative/imaginary core charge=   -0.000003    0.000000

     Initial potential from superposition of free atoms
     Check: negative starting charge=   -0.644969

     starting charge  234.99914, renormalised to  239.00000

     negative rho (up, down):  0.656E+00 0.000E+00
     Number of +U iterations with fixed ns =  0
     Starting occupations:
 --- enter write_ns ---
 LDA+U parameters:
U( 2)     =  8.00000000
alpha( 2) =  0.00000000
atom    3   Tr[ns(na)] =   7.00000
    eigenvalues:
  0.700  0.700  0.700  0.700  0.700
    eigenvectors:
  1.000  0.000  0.000  0.000  0.000
  0.000  1.000  0.000  0.000  0.000
  0.000  0.000  1.000  0.000  0.000
  0.000  0.000  0.000  1.000  0.000
  0.000  0.000  0.000  0.000  1.000
    occupations:
  0.700  0.000  0.000  0.000  0.000
  0.000  0.700  0.000  0.000  0.000
  0.000  0.000  0.700  0.000  0.000
  0.000  0.000  0.000  0.700  0.000
  0.000  0.000  0.000  0.000  0.700
atom    4   Tr[ns(na)] =   7.00000
    eigenvalues:
  0.700  0.700  0.700  0.700  0.700
    eigenvectors:
  1.000  0.000  0.000  0.000  0.000
  0.000  1.000  0.000  0.000  0.000
  0.000  0.000  1.000  0.000  0.000
  0.000  0.000  0.000  1.000  0.000
  0.000  0.000  0.000  0.000  1.000
    occupations:
  0.700  0.000  0.000  0.000  0.000
  0.000  0.700  0.000  0.000  0.000
  0.000  0.000  0.700  0.000  0.000
  0.000  0.000  0.000  0.700  0.000
  0.000  0.000  0.000  0.000  0.700
atom    9   Tr[ns(na)] =   7.00000
    eigenvalues:
  0.700  0.700  0.700  0.700  0.700
    eigenvectors:
  1.000  0.000  0.000  0.000  0.000
  0.000  1.000  0.000  0.000  0.000
  0.000  0.000  1.000  0.000  0.000
  0.000  0.000  0.000  1.000  0.000
  0.000  0.000  0.000  0.000  1.000
    occupations:
  0.700  0.000  0.000  0.000  0.000
  0.000  0.700  0.000  0.000  0.000
  0.000  0.000  0.700  0.000  0.000
  0.000  0.000  0.000  0.700  0.000
  0.000  0.000  0.000  0.000  0.700
atom   10   Tr[ns(na)] =   7.00000
    eigenvalues:
  0.700  0.700  0.700  0.700  0.700
    eigenvectors:
  1.000  0.000  0.000  0.000  0.000
  0.000  1.000  0.000  0.000  0.000
  0.000  0.000  1.000  0.000  0.000
  0.000  0.000  0.000  1.000  0.000
  0.000  0.000  0.000  0.000  1.000
    occupations:
  0.700  0.000  0.000  0.000  0.000
  0.000  0.700  0.000  0.000  0.000
  0.000  0.000  0.700  0.000  0.000
  0.000  0.000  0.000  0.700  0.000
  0.000  0.000  0.000  0.000  0.700
atom   16   Tr[ns(na)] =   7.00000
    eigenvalues:
  0.700  0.700  0.700  0.700  0.700
    eigenvectors:
  1.000  0.000  0.000  0.000  0.000
  0.000  1.000  0.000  0.000  0.000
  0.000  0.000  1.000  0.000  0.000
  0.000  0.000  0.000  1.000  0.000
  0.000  0.000  0.000  0.000  1.000
    occupations:
  0.700  0.000  0.000  0.000  0.000
  0.000  0.700  0.000  0.000  0.000
  0.000  0.000  0.700  0.000  0.000
  0.000  0.000  0.000  0.700  0.000
  0.000  0.000  0.000  0.000  0.700
atom   17   Tr[ns(na)] =   7.00000
    eigenvalues:
  0.700  0.700  0.700  0.700  0.700
    eigenvectors:
  1.000  0.000  0.000  0.000  0.000
  0.000  1.000  0.000  0.000  0.000
  0.000  0.000  1.000  0.000  0.000
  0.000  0.000  0.000  1.000  0.000
  0.000  0.000  0.000  0.000  1.000
    occupations:
  0.700  0.000  0.000  0.000  0.000
  0.000  0.700  0.000  0.000  0.000
  0.000  0.000  0.700  0.000  0.000
  0.000  0.000  0.000  0.700  0.000
  0.000  0.000  0.000  0.000  0.700
atom   22   Tr[ns(na)] =   7.00000
    eigenvalues:
  0.700  0.700  0.700  0.700  0.700
    eigenvectors:
  1.000  0.000  0.000  0.000  0.000
  0.000  1.000  0.000  0.000  0.000
  0.000  0.000  1.000  0.000  0.000
  0.000  0.000  0.000  1.000  0.000
[...]
  0.030  0.001 -0.000  0.980  0.000
  0.001 -0.001  0.001  0.000  0.595
atom    9   Tr[ns(na)] =   8.14487
    eigenvalues:
  0.633  0.639  0.895  0.923  0.983
    eigenvectors:
  0.007  0.147  0.000  0.000  0.846
  0.956  0.044  0.000  0.000  0.000
  0.000  0.000  0.992  0.008  0.000
  0.037  0.809  0.000  0.000  0.154
  0.000  0.000  0.008  0.992  0.000
    occupations:
  0.930  0.001 -0.000 -0.124 -0.000
  0.001  0.633  0.001  0.001 -0.000
 -0.000  0.001  0.895 -0.000 -0.003
 -0.124  0.001 -0.000  0.692  0.001
 -0.000 -0.000 -0.003  0.001  0.923
atom   10   Tr[ns(na)] =   8.10963
    eigenvalues:
  0.586  0.593  0.944  0.949  0.983
    eigenvectors:
  0.992  0.000  0.000  0.000  0.008
  0.000  0.000  1.000  0.000  0.000
  0.000  0.000  0.000  1.000  0.000
  0.008  0.000  0.000  0.000  0.992
  0.000  1.000  0.000  0.000  0.000
    occupations:
  0.589 -0.003  0.001  0.036 -0.000
 -0.003  0.944  0.000  0.000 -0.000
  0.001  0.000  0.949  0.000  0.003
  0.036  0.000  0.000  0.980  0.000
 -0.000 -0.000  0.003  0.000  0.593
atom   16   Tr[ns(na)] =   8.11842
    eigenvalues:
  0.576  0.599  0.930  0.971  0.983
    eigenvectors:
  0.007  0.194  0.003  0.001  0.796
  0.974  0.026  0.000  0.000  0.000
  0.000  0.000  0.971  0.027  0.002
  0.019  0.779  0.000  0.000  0.201
  0.000  0.000  0.027  0.972  0.001
    occupations:
  0.905  0.006  0.001 -0.154  0.001
  0.006  0.577  0.001  0.001 -0.005
  0.001  0.001  0.931 -0.004 -0.007
 -0.154  0.001 -0.004  0.676  0.000
  0.001 -0.005 -0.007  0.000  0.970
atom   17   Tr[ns(na)] =   8.13938
    eigenvalues:
  0.594  0.648  0.904  0.942  0.982
    eigenvectors:
  0.001  0.991  0.000  0.000  0.008
  0.000  0.000  0.098  0.902  0.000
  0.000  0.000  0.902  0.098  0.000
  0.000  0.008  0.000  0.000  0.992
  0.999  0.001  0.000  0.000  0.000
    occupations:
  0.651 -0.004 -0.001  0.030  0.002
 -0.004  0.938  0.011  0.001 -0.001
 -0.001  0.011  0.908 -0.000  0.001
  0.030  0.001 -0.000  0.980  0.000
  0.002 -0.001  0.001  0.000  0.594
atom   22   Tr[ns(na)] =   8.14214
    eigenvalues:
  0.634  0.641  0.888  0.925  0.983
    eigenvectors:
  0.000  0.152  0.000  0.000  0.848
  0.996  0.004  0.000  0.000  0.000
  0.000  0.000  0.995  0.005  0.000
  0.003  0.845  0.000  0.000  0.152
  0.000  0.000  0.005  0.995  0.000
    occupations:
  0.931  0.000 -0.000 -0.123 -0.000
  0.000  0.634  0.001 -0.001 -0.000
 -0.000  0.001  0.888 -0.000  0.003
 -0.123 -0.001 -0.000  0.693  0.001
 -0.000 -0.000  0.003  0.001  0.925
atom   23   Tr[ns(na)] =   8.13119
    eigenvalues:
  0.600  0.653  0.883  0.947  0.982
    eigenvectors:
  0.000  0.991  0.000  0.000  0.009
  0.000  0.000  0.000  0.999  0.000
  0.000  0.000  1.000  0.000  0.000
  0.000  0.009  0.000  0.000  0.991
  1.000  0.000  0.000  0.000  0.000
    occupations:
  0.656  0.006 -0.000  0.030 -0.000
  0.006  0.947 -0.000 -0.000 -0.000
 -0.000 -0.000  0.883  0.000 -0.002
  0.030 -0.000  0.000  0.979  0.000
 -0.000 -0.000 -0.002  0.000  0.600
N of occupied +U levels =  65.0429766
 --- exit write_ns ---

     Threshold (ethr) on eigenvalues was too large:
     Diagonalizing with lowered threshold

     Davidson diagonalization with overlap
     ethr =  2.66E-08,  avg # of iterations =  3.0

[...]

     total energy              =   -1978.51183093 Ry
     Harris-Foulkes estimate   =   -1978.51183094 Ry
     estimated scf accuracy    <       0.00000002 Ry

     iteration # 18     ecut=    40.00 Ry     beta=0.70
     Davidson diagonalization with overlap
     ethr =  6.33E-12,  avg # of iterations =  1.0

     negative rho (up, down):  0.688E+00 0.000E+00

     End of self-consistent calculation
 --- enter write_ns ---
 LDA+U parameters:
U( 2)     =  8.00000000
alpha( 2) =  0.00000000
atom    3   Tr[ns(na)] =   8.11767
    eigenvalues:
  0.576  0.599  0.930  0.972  0.983
    eigenvectors:
  0.006  0.195  0.003  0.000  0.796
  0.977  0.022  0.000  0.000  0.000
  0.000  0.000  0.965  0.033  0.002
  0.017  0.782  0.000  0.000  0.201
  0.000  0.000  0.033  0.966  0.001
    occupations:
  0.905 -0.005  0.001 -0.154 -0.001
 -0.005  0.576 -0.002 -0.001 -0.005
  0.001 -0.002  0.932 -0.004  0.007
 -0.154 -0.001 -0.004  0.675 -0.001
 -0.001 -0.005  0.007 -0.001  0.970
atom    4   Tr[ns(na)] =   8.13882
    eigenvalues:
  0.595  0.650  0.901  0.942  0.982
    eigenvectors:
  0.001  0.991  0.000  0.000  0.008
  0.000  0.000  0.066  0.933  0.000
  0.000  0.000  0.933  0.066  0.000
  0.000  0.008  0.000  0.000  0.992
  0.999  0.001  0.000  0.000  0.000
    occupations:
  0.652 -0.004 -0.001  0.030  0.001
 -0.004  0.939  0.010  0.001 -0.001
 -0.001  0.010  0.903 -0.000  0.001
  0.030  0.001 -0.000  0.980  0.000
  0.001 -0.001  0.001  0.000  0.595
atom    9   Tr[ns(na)] =   8.14505
    eigenvalues:
  0.633  0.639  0.895  0.923  0.983
    eigenvectors:
  0.007  0.147  0.000  0.000  0.846
  0.957  0.043  0.000  0.000  0.000
  0.000  0.000  0.992  0.008  0.000
  0.036  0.810  0.000  0.000  0.154
  0.000  0.000  0.008  0.992  0.000
    occupations:
  0.930  0.001 -0.000 -0.124 -0.000
  0.001  0.633  0.001  0.001 -0.000
 -0.000  0.001  0.895 -0.000 -0.003
 -0.124  0.001 -0.000  0.692  0.001
 -0.000 -0.000 -0.003  0.001  0.923
atom   10   Tr[ns(na)] =   8.10978
    eigenvalues:
  0.586  0.593  0.944  0.949  0.983
    eigenvectors:
  0.992  0.000  0.000  0.000  0.008
  0.000  0.000  1.000  0.000  0.000
  0.000  0.000  0.000  1.000  0.000
  0.008  0.000  0.000  0.000  0.992
  0.000  1.000  0.000  0.000  0.000
    occupations:
  0.589 -0.003  0.001  0.036 -0.000
 -0.003  0.944  0.000  0.000 -0.000
  0.001  0.000  0.949  0.000  0.003
  0.036  0.000  0.000  0.980  0.000
 -0.000 -0.000  0.003  0.000  0.593
atom   16   Tr[ns(na)] =   8.11779
    eigenvalues:
  0.576  0.599  0.930  0.971  0.983
    eigenvectors:
  0.007  0.195  0.003  0.001  0.796
  0.974  0.026  0.000  0.000  0.000
  0.000  0.000  0.971  0.027  0.002
  0.019  0.780  0.000  0.000  0.201
  0.000  0.000  0.026  0.972  0.001
    occupations:
  0.905  0.006  0.001 -0.154  0.001
  0.006  0.577  0.001  0.001 -0.005
  0.001  0.001  0.931 -0.004 -0.007
 -0.154  0.001 -0.004  0.676  0.000
  0.001 -0.005 -0.007  0.000  0.970
atom   17   Tr[ns(na)] =   8.13889
    eigenvalues:
  0.594  0.648  0.904  0.941  0.982
    eigenvectors:
  0.001  0.991  0.000  0.000  0.008
  0.000  0.000  0.098  0.902  0.000
  0.000  0.000  0.902  0.098  0.000
  0.000  0.008  0.000  0.000  0.992
  0.999  0.001  0.000  0.000  0.000
    occupations:
  0.651 -0.004 -0.001  0.030  0.002
 -0.004  0.938  0.011  0.001 -0.001
 -0.001  0.011  0.907 -0.000  0.001
  0.030  0.001 -0.000  0.980  0.000
  0.002 -0.001  0.001  0.000  0.594
atom   22   Tr[ns(na)] =   8.14228
    eigenvalues:
  0.634  0.641  0.888  0.925  0.983
    eigenvectors:
  0.000  0.152  0.000  0.000  0.848
  0.997  0.003  0.000  0.000  0.000
  0.000  0.000  0.995  0.005  0.000
  0.003  0.845  0.000  0.000  0.152
  0.000  0.000  0.005  0.995  0.000
    occupations:
  0.931  0.000 -0.000 -0.123 -0.000
  0.000  0.634  0.001 -0.000 -0.000
 -0.000  0.001  0.888 -0.000  0.003
 -0.123 -0.000 -0.000  0.693  0.001
 -0.000 -0.000  0.003  0.001  0.925
atom   23   Tr[ns(na)] =   8.13279
    eigenvalues:
  0.601  0.653  0.883  0.947  0.982
    eigenvectors:
  0.000  0.991  0.000  0.000  0.009
  0.000  0.000  0.000  0.999  0.000
  0.000  0.000  1.000  0.000  0.000
  0.000  0.009  0.000  0.000  0.991
  1.000  0.000  0.000  0.000  0.000
    occupations:
  0.656  0.006 -0.000  0.030 -0.000
  0.006  0.947 -0.000 -0.000 -0.000
 -0.000 -0.000  0.883  0.000 -0.002
  0.030 -0.000  0.000  0.979  0.000
 -0.000 -0.000 -0.002  0.000  0.601
N of occupied +U levels =  65.0430684
 --- exit write_ns ---

[...]

          k = 0.2500-0.4833 0.0000 ( 30510 PWs)   bands (ev):

[...]

          k =-0.2500 0.2417 0.0000 ( 30481 PWs)   bands (ev):

   -48.3837 -48.3575 -48.3407 -48.2951 -48.2770 -48.2611 -48.2269 -48.1993
   -48.1953 -48.1670 -48.1529 -48.1407 -48.0722 -48.0651 -48.0436 -48.0113
   -47.9824 -47.9595 -47.9547 -47.9040 -47.8621 -47.8563 -47.8486 -47.8175
   -21.2522 -20.9717 -20.9653 -20.8596 -20.5813 -20.4830 -20.4489 -20.4173
   -20.3346 -20.2690 -20.1366 -20.1081 -20.0553 -20.0421 -19.8688 -19.8614
   -19.8052 -19.1652 -19.0160 -10.7011 -10.5798 -10.3378 -10.2777 -10.1603
   -10.0146  -9.9317  -9.8452  -9.5971  -9.0113  -8.9129  -8.8372  -8.8077
    -8.6948  -8.6125  -8.4477  -8.3659  -8.3163  -8.2281  -7.9871  -7.9221
    -7.8009  -7.6927  -7.6004  -7.4491  -7.3583  -7.2961  -7.2326  -7.0775
    -7.0319  -6.9808  -6.9229  -6.8598  -6.7940  -6.7203  -6.6744  -6.6339
    -6.5400  -6.4113  -6.3312  -6.1953  -5.9438  -5.7071  -5.5303  -5.3235
    -5.1815  -5.1659  -4.9852  -4.9072  -4.8456  -4.7111  -4.6396  -4.5982
    -4.5168  -4.4578  -4.2229  -4.1606  -4.0360  -3.9640  -3.7987  -3.7749
    -3.6847  -3.6156  -3.5681  -3.5422  -3.4676  -3.4076  -3.3258  -3.2216
    -3.1762  -3.1072  -2.7894  -2.5926  -2.5263  -2.3453  -2.2227  -2.1792
    -2.1633  -1.9732  -1.8718  -1.7866  -0.7069  -0.1377  -0.0331   0.2295
     0.4759   0.7750   1.0334   1.2794   1.5197   1.5945   1.7566   1.8144
     1.9157   1.9760   2.0762   2.4202   3.6953   3.8552   4.5409   4.9321
     5.3405   5.5155   5.5506   5.8452   6.1084   6.3083   6.4312   6.4612
     6.5212   6.7501   6.8381   7.0469   7.2525   7.4287   7.5465   7.7004
     7.8614   8.0080   8.0837   8.1757   8.2997   8.3083   8.4528   8.5551
     8.7133   8.8654   8.9473   9.0315   9.1155   9.2398   9.4450   9.6013
     9.6657   9.7408   9.8356   9.9013   9.9605  10.0410  10.1846  10.2187
    10.3348  10.3662  10.4680  10.6040  10.6917  10.7335  10.8515  10.9675
    11.0745  11.1316  11.2274  11.2822  11.3868  11.4575  11.5163  11.5471
    11.6174  11.6997  11.8052  11.8636  11.9389  12.0395  12.1708  12.2091
    12.2533  12.3192  12.4278  12.4885  12.5214  12.5510  12.6557  12.7109
    12.7848  12.8446  12.9306  13.0186  13.1564  13.2117  13.2777  13.3076
    13.4373  13.5119  13.5780  13.6419  13.7717  13.8182  13.8977  13.9577
    14.0822  14.1377  14.2081  14.2951  14.3115  14.3686  14.4394  14.4930
    14.6173  14.7325  14.7487  14.8524  15.0067  15.0836  15.2292  15.3467
    15.3811  15.4226  15.5041  15.5460  15.6029  15.6238  15.7007  15.7824
    15.8199  15.8705  15.9108  16.0338  16.0917  16.1498  16.1821  16.3272
    16.3869  16.4479  16.4998  16.5248  16.5697  16.6084  16.6622  16.7421
    16.8318  16.9192  16.9657  17.0573  17.1023  17.1985  17.2331  17.2544
    17.3564  17.4025  17.4483  17.5255  17.5960  17.6612  17.7406  17.8203
    17.8888  17.9510  18.0228  18.0682  18.0945  18.2187  18.3014  18.3352
    18.4487  18.5300  18.5964  18.6571  18.7323  18.8280  18.8766  18.9296
    18.9781  19.0494  19.1516  19.1825  19.2714  19.3007  19.3875  19.4787
    19.5352  19.6487  19.6907  19.7910  19.8270  19.9397  19.9727  20.0636
    20.1907  20.2400  20.3579  20.4162  20.5007  20.5318  20.6375  20.6700
    20.7571  20.7974  20.8695  20.9280  20.9748  21.0911  21.1602  21.1924
    21.2430  21.2728  21.3536  21.4093  21.4879  21.5153  21.5769  21.6667
    21.7140  21.7735  21.8116  21.8632  21.9696  21.9978  22.0844  22.1382
    22.2457  22.2908  22.3925  22.4055  22.5140  22.5942

     the Fermi energy is    -2.2178 ev

!    total energy              =   -1978.51183093 Ry
     Harris-Foulkes estimate   =   -1978.51183094 Ry
     estimated scf accuracy    <          8.2E-09 Ry

     The total energy is the sum of the following terms:

     one-electron contribution =  -23374.92162261 Ry
     hartree contribution      =   11739.44336914 Ry
     xc contribution           =    -373.16161183 Ry
     ewald contribution        =   10027.20238908 Ry
     Hubbard energy            =       2.92755407 Ry
     smearing contrib. (-TS)   =      -0.00190877 Ry

     convergence has been achieved in  18 iterations

     Forces acting on atoms (Ry/au):

     negative rho (up, down):  0.688E+00 0.000E+00
     atom    1 type  1   force =    -0.00667527   -0.01149099    0.00018928
     atom    2 type  1   force =     0.00023726    0.00213320   -0.00049684
     atom    3 type  2   force =     0.02801041    0.00893743    0.00032867
     atom    4 type  2   force =     0.00796461    0.00840109   -0.00000434
     atom    5 type  1   force =    -0.00434373   -0.02589833   -0.00006425
     atom    6 type  1   force =     0.00338036    0.02239573    0.00006011
     atom    7 type  1   force =     0.00195074   -0.00231201   -0.00008429
     atom    8 type  1   force =    -0.00180150   -0.00092425   -0.00034476
     atom    9 type  2   force =     0.00257594   -0.00006903   -0.00007511
     atom   10 type  2   force =    -0.00607330   -0.00132577   -0.00000027
     atom   11 type  1   force =    -0.00671516    0.01720949    0.00016138
     atom   12 type  1   force =    -0.00694350   -0.01715277    0.00010053
     atom   13 type  1   force =    -0.00125539   -0.00005979   -0.00018458
     atom   14 type  1   force =    -0.00658080   -0.01172622    0.00017585
     atom   15 type  1   force =     0.00025873    0.00223482   -0.00038581
     atom   16 type  2   force =    -0.02889495    0.00724224    0.00033010
     atom   17 type  2   force =     0.00791721    0.00847906    0.00009915
     atom   18 type  1   force =    -0.00190719   -0.02563228   -0.00004085
     atom   19 type  1   force =     0.00547548    0.02332006    0.00005899
     atom   20 type  1   force =    -0.00169995   -0.00552867    0.00038895
     atom   21 type  1   force =    -0.00367116   -0.00055910   -0.00036243
     atom   22 type  2   force =     0.00029370    0.00072107   -0.00013246
     atom   23 type  2   force =     0.00239283    0.00083328    0.00034049
     atom   24 type  1   force =     0.00729633    0.02221227   -0.00011429
     atom   25 type  1   force =     0.00860385   -0.02258260   -0.00015659
     atom   26 type  1   force =    -0.00044267   -0.00017598    0.00012661
     atom   27 type  3   force =    -0.00000383    0.00053188    0.00007515
     atom   28 type  3   force =     0.00000968    0.00056902    0.00027836
     atom   29 type  3   force =    -0.00009083    0.00017480    0.00006590
     atom   30 type  3   force =    -0.00016045    0.00033790   -0.00005330
     atom   31 type  1   force =     0.00067642   -0.00018506   -0.00016131
     atom   32 type  3   force =     0.00021614   -0.00011048   -0.00011804

     Total force =     0.001685     Total SCF correction =     0.000211
     SCF correction compared to forces is large: reduce conv_thr to get better values

     bfgs converged in  10 scf cycles and   9 bfgs steps
     (criteria: energy < 0.10E-03, force < 0.10E-02)

     End of BFGS Geometry Optimization

     Final energy   =   -1978.5118309279 Ry
Begin final coordinates

ATOMIC_POSITIONS (crystal)
O0       0.000000000   0.000000000   0.378502816    0   0   1
O0       0.000000000   0.500000000   0.402206471    0   0   1
Rh1      0.250000000   0.500000000   0.452749420    0   0   1
Rh1      0.000000000   0.000000000   0.452742861    0   0   1
O0       0.250000000   0.810000000   0.452499437    0   0   1
O0       0.250000000   0.190000000   0.452233361    0   0   1
O0       0.000000000   0.500000000   0.499467090    0   0   1
O0       0.000000000   0.000000000   0.528080166    0   0   1
Rh1      0.250000000   0.000000000   0.575353396    0   0   1
Rh1      0.000000000   0.500000000   0.570958299    0   0   1
O0       0.250000000   0.690000000   0.575649489    0   0   1
O0       0.250000000   0.310000000   0.575710920    0   0   1
O0       0.000000000   0.000000000   0.620842633    0   0   1
O0       0.500000000   0.000000000   0.378215112    0   0   1
O0       0.500000000   0.500000000   0.401745950    0   0   1
Rh1      0.750000000   0.500000000   0.452743388    0   0   1
Rh1      0.500000000   0.000000000   0.452440031    0   0   1
O0       0.750000000   0.810000000   0.452498090    0   0   1
O0       0.750000000   0.190000000   0.452245535    0   0   1
O0       0.500000000   0.500000000   0.500318163    0   0   1
O0       0.500000000   0.000000000   0.527991039    0   0   1
Rh1      0.750000000   0.000000000   0.575289150    0   0   1
Rh1      0.500000000   0.500000000   0.575090405    0   0   1
O0       0.750000000   0.690000000   0.574699683    0   0   1
O0       0.750000000   0.310000000   0.574765207    0   0   1
O0       0.500000000   0.000000000   0.620733569    0   0   1
H2      -0.000248850   0.635760178   0.384524408
H2       0.499744826   0.637853296   0.385004594
H2       0.148223713   0.034572083   0.367826522
H2       0.648051956   0.035483904   0.367593377
O0       0.516558029   0.499072382   0.647981993
H2       0.370479924   0.499282054   0.662417426
End final coordinates

     General routines

     Parallel routines
     Hubbard U routines

   This run was terminated on:  11:16:52   1May2014

   JOB DONE.