     Program PWSCF v.5.0.2 (svn rev. 9656) starts on 23Jan2014 at 17:46:57

     Current dimensions of program PWSCF are:
     Max number of different atomic species (ntypx) = 10
     Max number of k-points (npk) =  40000
     Max angular momentum in pseudopotentials (lmaxx) =  3
     Reading input from PtO2-v-0.8.in

     Subspace diagonalization in iterative solution of the eigenvalue problem:
     a serial algorithm will be used

     bravais-lattice index     =            0
     lattice parameter (alat)  =       8.0383  a.u.
     unit-cell volume          =     334.7174 (a.u.)^3
     number of atoms/cell      =            6
     number of atomic types    =            2
     number of electrons       =        56.00
     number of Kohn-Sham states=           84
     kinetic-energy cutoff     =      40.0000  Ry
     charge density cutoff     =     500.0000  Ry
     convergence threshold     =      1.0E-06
     mixing beta               =       0.7000
     number of iterations used =            8  plain     mixing
     Exchange-correlation      = SLA  PW   PBE  PBE ( 1 4 3 4 0)
     EXX-fraction              =        0.00
     nstep                     =           50

     celldm(1)=   8.038301  celldm(2)=   0.000000  celldm(3)=   0.000000
     celldm(4)=   0.000000  celldm(5)=   0.000000  celldm(6)=   0.000000

     crystal axes: (cart. coord. in units of alat)
               a(1) = (   1.000000   0.000000   0.000000 )
               a(2) = (   0.000000   1.000000   0.000000 )
               a(3) = (   0.000000   0.000000   0.644444 )

     reciprocal axes: (cart. coord. in units 2 pi/alat)
               b(1) = (  1.000000  0.000000  0.000000 )
               b(2) = (  0.000000  1.000000  0.000000 )
               b(3) = (  0.000000  0.000000  1.551724 )

     PseudoPot. # 1 for Pt read from file:
     /home/camp/zhonxu/pseudo/pt_pbe_v1.uspp.F.UPF
     MD5 check sum: 4c71d6ad5ef119f1eb26a4d0b7884226
     Pseudo is Ultrasoft + core correction, Zval = 16.0
     Generated by new atomic code, or converted to UPF format
     Using radial grid of  985 points,  6 beta functions with:
                l(1) =   0
                l(2) =   0
                l(3) =   1
                l(4) =   1
                l(5) =   2
                l(6) =   2
     Q(r) pseudized with  8 coefficients,  rinner =    1.300   1.300   1.300
                                                       1.300   1.300

     PseudoPot. # 2 for O  read from file:
     /home/camp/zhonxu/pseudo/o_pbe_v1.01.uspp.F.UPF
     MD5 check sum: 2bcb18d16ea4b960afae9ec6d52f22d2
     Pseudo is Ultrasoft + core correction, Zval =  6.0
     Generated by new atomic code, or converted to UPF format
     Using radial grid of  737 points,  5 beta functions with:
                l(1) =   0
                l(2) =   0
                l(3) =   1
                l(4) =   1
                l(5) =   2
     Q(r) pseudized with  8 coefficients,  rinner =    0.900   0.900   0.900
                                                       0.900   0.900

     atomic species   valence    mass     pseudopotential
        Pt0           16.00   195.08000     Pt( 1.00)
        O1             6.00    15.99940     O ( 1.00)

     Starting magnetic structure
     atomic species   magnetization
        Pt0          0.600
        O1           0.000

     16 Sym. Ops., with inversion, found ( 8 have fractional translation)

   Cartesian axes

     site n.     atom                  positions (alat units)
         1           Pt0 tau(   1) = (   0.0000000   0.0000000   0.0000000  )
         2           Pt0 tau(   2) = (   0.5000000   0.5000000   0.3222222  )
         3           O1  tau(   3) = (   0.3050000   0.3050000   0.0000000  )
         4           O1  tau(   4) = (  -0.3050000  -0.3050000   0.0000000  )
         5           O1  tau(   5) = (   0.8050000   0.1950000   0.3222222  )
         6           O1  tau(   6) = (   0.1950000   0.8050000   0.3222222  )

     number of k points=    36  Methfessel-Paxton smearing, width (Ry)=  0.0100
                       cart. coord. in units 2pi/alat
        k(    1) = (   0.0000000   0.0000000   0.0000000), wk =   0.0080000
        k(    2) = (   0.0000000   0.0000000   0.3103448), wk =   0.0160000
        k(    3) = (   0.0000000   0.0000000   0.6206897), wk =   0.0160000
        k(    4) = (   0.0000000   0.2000000   0.0000000), wk =   0.0320000
        k(    5) = (   0.0000000   0.2000000   0.3103448), wk =   0.0640000
        k(    6) = (   0.0000000   0.2000000   0.6206897), wk =   0.0640000
        k(    7) = (   0.0000000   0.4000000   0.0000000), wk =   0.0320000
        k(    8) = (   0.0000000   0.4000000   0.3103448), wk =   0.0640000
        k(    9) = (   0.0000000   0.4000000   0.6206897), wk =   0.0640000
        k(   10) = (   0.2000000   0.2000000   0.0000000), wk =   0.0320000
        k(   11) = (   0.2000000   0.2000000   0.3103448), wk =   0.0640000
        k(   12) = (   0.2000000   0.2000000   0.6206897), wk =   0.0640000
        k(   13) = (   0.2000000   0.4000000   0.0000000), wk =   0.0640000
        k(   14) = (   0.2000000   0.4000000   0.3103448), wk =   0.1280000
        k(   15) = (   0.2000000   0.4000000   0.6206897), wk =   0.1280000
        k(   16) = (   0.4000000   0.4000000   0.0000000), wk =   0.0320000
        k(   17) = (   0.4000000   0.4000000   0.3103448), wk =   0.0640000
        k(   18) = (   0.4000000   0.4000000   0.6206897), wk =   0.0640000
        k(   19) = (   0.0000000   0.0000000   0.0000000), wk =   0.0080000
        k(   20) = (   0.0000000   0.0000000   0.3103448), wk =   0.0160000
        k(   21) = (   0.0000000   0.0000000   0.6206897), wk =   0.0160000
        k(   22) = (   0.0000000   0.2000000   0.0000000), wk =   0.0320000
        k(   23) = (   0.0000000   0.2000000   0.3103448), wk =   0.0640000
        k(   24) = (   0.0000000   0.2000000   0.6206897), wk =   0.0640000
        k(   25) = (   0.0000000   0.4000000   0.0000000), wk =   0.0320000
        k(   26) = (   0.0000000   0.4000000   0.3103448), wk =   0.0640000
        k(   27) = (   0.0000000   0.4000000   0.6206897), wk =   0.0640000
        k(   28) = (   0.2000000   0.2000000   0.0000000), wk =   0.0320000
        k(   29) = (   0.2000000   0.2000000   0.3103448), wk =   0.0640000
        k(   30) = (   0.2000000   0.2000000   0.6206897), wk =   0.0640000
        k(   31) = (   0.2000000   0.4000000   0.0000000), wk =   0.0640000
        k(   32) = (   0.2000000   0.4000000   0.3103448), wk =   0.1280000
        k(   33) = (   0.2000000   0.4000000   0.6206897), wk =   0.1280000
        k(   34) = (   0.4000000   0.4000000   0.0000000), wk =   0.0320000
        k(   35) = (   0.4000000   0.4000000   0.3103448), wk =   0.0640000
        k(   36) = (   0.4000000   0.4000000   0.6206897), wk =   0.0640000

     Largest allocated arrays     est. size (Mb)     dimensions
     Largest temporary arrays     est. size (Mb)     dimensions

     Check: negative/imaginary core charge=   -0.000005    0.000000

     Initial potential from superposition of free atoms
     Check: negative starting charge=(component1):   -0.305343
     Check: negative starting charge=(component2):   -0.075121

     starting charge   54.99997, renormalised to   56.00000

     negative rho (up, down):  0.311E+00 0.765E-01
     Starting wfc are   40 randomized atomic wfcs

     Self-consistent Calculation

     iteration #  1     ecut=    40.00 Ry     beta=0.70
     Davidson diagonalization with overlap
     ethr =  1.00E-02,  avg # of iterations =  5.5

     negative rho (up, down):  0.230E+00 0.149E+00

     total energy              =    -541.62764994 Ry
     Harris-Foulkes estimate   =    -543.91659733 Ry
     estimated scf accuracy    <       5.59537713 Ry

     total magnetization       =     3.29 Bohr mag/cell
     absolute magnetization    =     3.65 Bohr mag/cell

[...]

     End of self-consistent calculation

 ------ SPIN UP ------------

          k = 0.0000 0.0000 0.0000 (  1447 PWs)   bands (ev):

   -35.2379 -35.2064 -35.1267 -35.1267 -35.0088 -35.0088  -3.6934  -2.0922
    -0.0320  -0.0320   7.1388   7.1872   9.2534   9.4044   9.4044  13.5999
    13.5999  14.2672  15.0557  15.6008  15.8259  15.8774  16.0175  16.0175
    16.3812  16.3812  17.9132  21.0759  21.4665  25.3525  25.3525  26.2011
    27.3829  29.5564  29.5564  33.9755  34.4002  35.0090  37.0401  37.3791
    38.1182  38.2537  39.0858  39.0858  40.1963  42.2683  42.2683  42.5652
    43.9529  43.9529  45.5154  49.4954  49.6458  49.6458  49.9963  50.7510
    53.2213  53.8391  53.9032  54.6902  54.6902  55.4266  55.4779  55.4779
    55.6333  57.2775  57.2775  58.0528  61.1199  62.8489  63.4128  63.4128
    63.4620  64.9462  64.9462  65.1212  65.5801  65.5801  65.8811  66.4565
    66.9782  67.7685  69.4414  73.0642

[...]

 ------ SPIN DOWN ----------

[...]

     the Fermi energy is    21.1624 ev

!    total energy              =    -544.39106853 Ry
     Harris-Foulkes estimate   =    -544.39106823 Ry
     estimated scf accuracy    <       0.00000028 Ry

     The total energy is the sum of the following terms:

     one-electron contribution =     -81.21148449 Ry
     hartree contribution      =      91.01277972 Ry
     xc contribution           =    -139.22219529 Ry
     ewald contribution        =    -414.97020187 Ry
     smearing contrib. (-TS)   =       0.00003342 Ry

[...]

     convergence has been achieved in   7 iterations

     Forces acting on atoms (Ry/au):

     negative rho (up, down):  0.196E+00 0.196E+00
     atom    1 type  1   force =     0.00000000    0.00000000    0.00000000
     atom    2 type  1   force =     0.00000000    0.00000000   -0.00000000
     atom    3 type  2   force =    -0.09037132   -0.09037132   -0.00000000
     atom    4 type  2   force =     0.09037132    0.09037132   -0.00000000
     atom    5 type  2   force =    -0.09037132    0.09037132    0.00000000
     atom    6 type  2   force =     0.09037132   -0.09037132    0.00000000

     Total force =     0.255609     Total SCF correction =     0.000049

     entering subroutine stress ...

     negative rho (up, down):  0.196E+00 0.196E+00
          total   stress  (Ry/bohr**3)                   (kbar)     P= 1623.50
   0.00897807   0.00000000   0.00000000       1320.72      0.00      0.00
   0.00000000   0.00897807   0.00000000          0.00   1320.72      0.00
   0.00000000   0.00000000   0.01515289          0.00      0.00   2229.07

     Volume is kept fixed: isostatic pressure set to zero

     BFGS Geometry Optimization

     number of scf cycles    =   1
     number of bfgs steps    =   0

     enthalpy new            =    -544.3910685287 Ry

     new trust radius        =       0.3765672370 bohr
     new conv_thr            =       0.0000010000 Ry

     new unit-cell volume =    334.71740 a.u.^3 (    49.60000 Ang^3 )

CELL_PARAMETERS (alat=  8.03830103)
   0.950981007   0.000000000   0.000000000
   0.000000000   0.950981007   0.000000000
   0.000000000   0.000000000   0.712593403

ATOMIC_POSITIONS (crystal)
Pt0      0.000000000   0.000000000   0.000000000    0   0   0
Pt0      0.500000000   0.500000000   0.500000000    0   0   0
[...]
        k(   22) = (   0.0000000   0.2111581   0.0000000), wk =   0.0320000
        k(   23) = (   0.0000000   0.2111581   0.2784126), wk =   0.0640000
        k(   24) = (   0.0000000   0.2111581   0.5568252), wk =   0.0640000
        k(   25) = (   0.0000000   0.4223163   0.0000000), wk =   0.0320000
        k(   26) = (   0.0000000   0.4223163   0.2784126), wk =   0.0640000
        k(   27) = (   0.0000000   0.4223163   0.5568252), wk =   0.0640000
        k(   28) = (   0.2111581   0.2111581   0.0000000), wk =   0.0320000
        k(   29) = (   0.2111581   0.2111581   0.2784126), wk =   0.0640000
        k(   30) = (   0.2111581   0.2111581   0.5568252), wk =   0.0640000
        k(   31) = (   0.2111581   0.4223163   0.0000000), wk =   0.0640000
        k(   32) = (   0.2111581   0.4223163   0.2784126), wk =   0.1280000
        k(   33) = (   0.2111581   0.4223163   0.5568252), wk =   0.1280000
        k(   34) = (   0.4223163   0.4223163   0.0000000), wk =   0.0320000
        k(   35) = (   0.4223163   0.4223163   0.2784126), wk =   0.0640000
        k(   36) = (   0.4223163   0.4223163   0.5568252), wk =   0.0640000

[...]

     Threshold (ethr) on eigenvalues was too large:
     Diagonalizing with lowered threshold

     Davidson diagonalization with overlap
     ethr =  9.81E-11,  avg # of iterations =  2.0

[...]

     Total force =     0.000025     Total SCF correction =     0.000018
     SCF correction compared to forces is large: reduce conv_thr to get better values

[...]

     Volume is kept fixed: isostatic pressure set to zero
Begin final coordinates
     new unit-cell volume =    334.71740 a.u.^3 (    49.60000 Ang^3 )

[...]

ATOMIC_POSITIONS (crystal)
Pt0      0.000000000   0.000000000   0.000000000    0   0   0
Pt0      0.500000000   0.500000000   0.500000000    0   0   0
O1       0.315228591   0.315228591   0.000000000    1   1   0
O1      -0.315228591  -0.315228591   0.000000000    1   1   0
O1       0.815228591   0.184771409   0.500000000    1   1   0
O1       0.184771409   0.815228591   0.500000000    1   1   0
End final coordinates

     lsda relaxation :  a final configuration with zero
                        absolute magnetization has been found

     the program is checking if it is really the minimum energy structure
     by performing a new scf iteration without any "electronic" history

[...]

     negative rho (up, down):  0.313E+00 0.771E-01
     Starting wfc are   40 randomized atomic wfcs
     Check: negative starting charge=(component1):   -0.382966
     NEW-OLD atomic charge density approx. for the potential
     NEW k-points:
        k(    1) = (   0.0000000   0.0000000   0.0000000), wk =   0.0080000
        k(    2) = (   0.0000000   0.0000000   0.2784126), wk =   0.0160000
        k(    3) = (   0.0000000   0.0000000   0.5568252), wk =   0.0160000
        k(    4) = (   0.0000000   0.2111581   0.0000000), wk =   0.0320000
        k(    5) = (   0.0000000   0.2111581   0.2784126), wk =   0.0640000
        k(    6) = (   0.0000000   0.2111581   0.5568252), wk =   0.0640000
        k(    7) = (   0.0000000   0.4223163   0.0000000), wk =   0.0320000
        k(    8) = (   0.0000000   0.4223163   0.2784126), wk =   0.0640000
        k(    9) = (   0.0000000   0.4223163   0.5568252), wk =   0.0640000
        k(   10) = (   0.2111581   0.2111581   0.0000000), wk =   0.0320000
        k(   11) = (   0.2111581   0.2111581   0.2784126), wk =   0.0640000
        k(   12) = (   0.2111581   0.2111581   0.5568252), wk =   0.0640000
        k(   13) = (   0.2111581   0.4223163   0.0000000), wk =   0.0640000
        k(   14) = (   0.2111581   0.4223163   0.2784126), wk =   0.1280000
        k(   15) = (   0.2111581   0.4223163   0.5568252), wk =   0.1280000
        k(   16) = (   0.4223163   0.4223163   0.0000000), wk =   0.0320000
        k(   17) = (   0.4223163   0.4223163   0.2784126), wk =   0.0640000
        k(   18) = (   0.4223163   0.4223163   0.5568252), wk =   0.0640000
        k(   19) = (   0.0000000   0.0000000   0.0000000), wk =   0.0080000
        k(   20) = (   0.0000000   0.0000000   0.2784126), wk =   0.0160000
        k(   21) = (   0.0000000   0.0000000   0.5568252), wk =   0.0160000
        k(   22) = (   0.0000000   0.2111581   0.0000000), wk =   0.0320000
        k(   23) = (   0.0000000   0.2111581   0.2784126), wk =   0.0640000
        k(   24) = (   0.0000000   0.2111581   0.5568252), wk =   0.0640000
        k(   25) = (   0.0000000   0.4223163   0.0000000), wk =   0.0320000
        k(   26) = (   0.0000000   0.4223163   0.2784126), wk =   0.0640000
        k(   27) = (   0.0000000   0.4223163   0.5568252), wk =   0.0640000
        k(   28) = (   0.2111581   0.2111581   0.0000000), wk =   0.0320000
        k(   29) = (   0.2111581   0.2111581   0.2784126), wk =   0.0640000
        k(   30) = (   0.2111581   0.2111581   0.5568252), wk =   0.0640000
        k(   31) = (   0.2111581   0.4223163   0.0000000), wk =   0.0640000
        k(   32) = (   0.2111581   0.4223163   0.2784126), wk =   0.1280000
        k(   33) = (   0.2111581   0.4223163   0.5568252), wk =   0.1280000
        k(   34) = (   0.4223163   0.4223163   0.0000000), wk =   0.0320000
        k(   35) = (   0.4223163   0.4223163   0.2784126), wk =   0.0640000
        k(   36) = (   0.4223163   0.4223163   0.5568252), wk =   0.0640000

     Check: negative/imaginary core charge=   -0.000004    0.000000
     Check: negative starting charge=(component1):   -0.382966

[...]

     Volume is kept fixed: isostatic pressure set to zero

     bfgs converged in   8 scf cycles and   6 bfgs steps
     (criteria: energy < 0.10E-03, force < 0.10E-02, cell < 0.50E+00)

     End of BFGS Geometry Optimization

     Final enthalpy =    -544.4881839428 Ry
Begin final coordinates
     new unit-cell volume =    334.71740 a.u.^3 (    49.60000 Ang^3 )

CELL_PARAMETERS (alat=  8.03830103)
   0.947157478   0.000000000   0.000000000
   0.000000000   0.947157478   0.000000000
   0.000000000   0.000000000   0.718358276

ATOMIC_POSITIONS (crystal)
Pt0      0.000000000   0.000000000   0.000000000    0   0   0
Pt0      0.500000000   0.500000000   0.500000000    0   0   0
O1       0.315228591   0.315228591   0.000000000    1   1   0
O1      -0.315228591  -0.315228591   0.000000000    1   1   0
O1       0.815228591   0.184771409   0.500000000    1   1   0
O1       0.184771409   0.815228591   0.500000000    1   1   0
End final coordinates

     A final scf calculation at the relaxed structure.
     The G-vectors are recalculated for the final unit cell
     Results may differ from those at the preceding step.

     bravais-lattice index     =            0
     lattice parameter (alat)  =       8.0383  a.u.
     unit-cell volume          =     334.7174 (a.u.)^3
     number of atoms/cell      =            6
     number of atomic types    =            2
     number of electrons       =        56.00
     number of Kohn-Sham states=           84
     kinetic-energy cutoff     =      40.0000  Ry
     charge density cutoff     =     500.0000  Ry
     convergence threshold     =      1.0E-08
     mixing beta               =       0.7000
     number of iterations used =            8  plain     mixing
     Exchange-correlation      = SLA  PW   PBE  PBE ( 1 4 3 4 0)
     EXX-fraction              =        0.00

     celldm(1)=   8.038301  celldm(2)=   0.000000  celldm(3)=   0.000000
     celldm(4)=   0.000000  celldm(5)=   0.000000  celldm(6)=   0.000000

     crystal axes: (cart. coord. in units of alat)
               a(1) = (   0.947157   0.000000   0.000000 )
               a(2) = (   0.000000   0.947157   0.000000 )
               a(3) = (   0.000000   0.000000   0.718358 )

     reciprocal axes: (cart. coord. in units 2 pi/alat)
               b(1) = (  1.055791  0.000000  0.000000 )
               b(2) = (  0.000000  1.055791  0.000000 )
               b(3) = (  0.000000  0.000000  1.392063 )

     PseudoPot. # 1 for Pt read from file:
     /home/camp/zhonxu/pseudo/pt_pbe_v1.uspp.F.UPF
     MD5 check sum: 4c71d6ad5ef119f1eb26a4d0b7884226
     Pseudo is Ultrasoft + core correction, Zval = 16.0
     Generated by new atomic code, or converted to UPF format
     Using radial grid of  985 points,  6 beta functions with:
                l(1) =   0
                l(2) =   0
                l(3) =   1
                l(4) =   1
                l(5) =   2
                l(6) =   2
     Q(r) pseudized with  8 coefficients,  rinner =    1.300   1.300   1.300
                                                       1.300   1.300

     PseudoPot. # 2 for O  read from file:
     /home/camp/zhonxu/pseudo/o_pbe_v1.01.uspp.F.UPF
     MD5 check sum: 2bcb18d16ea4b960afae9ec6d52f22d2
     Pseudo is Ultrasoft + core correction, Zval =  6.0
     Generated by new atomic code, or converted to UPF format
     Using radial grid of  737 points,  5 beta functions with:
                l(1) =   0
                l(2) =   0
                l(3) =   1
                l(4) =   1
                l(5) =   2
     Q(r) pseudized with  8 coefficients,  rinner =    0.900   0.900   0.900
                                                       0.900   0.900

     atomic species   valence    mass     pseudopotential
        Pt0           16.00   195.08000     Pt( 1.00)
        O1             6.00    15.99940     O ( 1.00)

     Starting magnetic structure
     atomic species   magnetization
        Pt0          0.600
        O1           0.000

     16 Sym. Ops., with inversion, found ( 8 have fractional translation)

   Cartesian axes

     site n.     atom                  positions (alat units)
         1           Pt0 tau(   1) = (   0.0000000   0.0000000   0.0000000  )
         2           Pt0 tau(   2) = (   0.4735787   0.4735787   0.3591791  )
         3           O1  tau(   3) = (   0.2985711   0.2985711   0.0000000  )
         4           O1  tau(   4) = (  -0.2985711  -0.2985711   0.0000000  )
         5           O1  tau(   5) = (   0.7721499   0.1750076   0.3591791  )
         6           O1  tau(   6) = (   0.1750076   0.7721499   0.3591791  )

     number of k points=    36  Methfessel-Paxton smearing, width (Ry)=  0.0100
                       cart. coord. in units 2pi/alat
        k(    1) = (   0.0000000   0.0000000   0.0000000), wk =   0.0080000
        k(    2) = (   0.0000000   0.0000000   0.2784126), wk =   0.0160000
        k(    3) = (   0.0000000   0.0000000   0.5568252), wk =   0.0160000
        k(    4) = (   0.0000000   0.2111581   0.0000000), wk =   0.0320000
        k(    5) = (   0.0000000   0.2111581   0.2784126), wk =   0.0640000
        k(    6) = (   0.0000000   0.2111581   0.5568252), wk =   0.0640000
        k(    7) = (   0.0000000   0.4223163   0.0000000), wk =   0.0320000
        k(    8) = (   0.0000000   0.4223163   0.2784126), wk =   0.0640000
        k(    9) = (   0.0000000   0.4223163   0.5568252), wk =   0.0640000
        k(   10) = (   0.2111581   0.2111581   0.0000000), wk =   0.0320000
        k(   11) = (   0.2111581   0.2111581   0.2784126), wk =   0.0640000
        k(   12) = (   0.2111581   0.2111581   0.5568252), wk =   0.0640000
        k(   13) = (   0.2111581   0.4223163   0.0000000), wk =   0.0640000
        k(   14) = (   0.2111581   0.4223163   0.2784126), wk =   0.1280000
        k(   15) = (   0.2111581   0.4223163   0.5568252), wk =   0.1280000
        k(   16) = (   0.4223163   0.4223163   0.0000000), wk =   0.0320000
        k(   17) = (   0.4223163   0.4223163   0.2784126), wk =   0.0640000
        k(   18) = (   0.4223163   0.4223163   0.5568252), wk =   0.0640000
        k(   19) = (   0.0000000   0.0000000   0.0000000), wk =   0.0080000
        k(   20) = (   0.0000000   0.0000000   0.2784126), wk =   0.0160000
        k(   21) = (   0.0000000   0.0000000   0.5568252), wk =   0.0160000
        k(   22) = (   0.0000000   0.2111581   0.0000000), wk =   0.0320000
        k(   23) = (   0.0000000   0.2111581   0.2784126), wk =   0.0640000
        k(   24) = (   0.0000000   0.2111581   0.5568252), wk =   0.0640000
        k(   25) = (   0.0000000   0.4223163   0.0000000), wk =   0.0320000
        k(   26) = (   0.0000000   0.4223163   0.2784126), wk =   0.0640000
        k(   27) = (   0.0000000   0.4223163   0.5568252), wk =   0.0640000
        k(   28) = (   0.2111581   0.2111581   0.0000000), wk =   0.0320000
        k(   29) = (   0.2111581   0.2111581   0.2784126), wk =   0.0640000
        k(   30) = (   0.2111581   0.2111581   0.5568252), wk =   0.0640000
        k(   31) = (   0.2111581   0.4223163   0.0000000), wk =   0.0640000
        k(   32) = (   0.2111581   0.4223163   0.2784126), wk =   0.1280000
        k(   33) = (   0.2111581   0.4223163   0.5568252), wk =   0.1280000
        k(   34) = (   0.4223163   0.4223163   0.0000000), wk =   0.0320000
        k(   35) = (   0.4223163   0.4223163   0.2784126), wk =   0.0640000
        k(   36) = (   0.4223163   0.4223163   0.5568252), wk =   0.0640000

     Largest allocated arrays     est. size (Mb)     dimensions
     Largest temporary arrays     est. size (Mb)     dimensions

     Check: negative/imaginary core charge=   -0.000004    0.000000

     Initial potential from superposition of free atoms
     Check: negative starting charge=(component1):   -0.306627
     Check: negative starting charge=(component2):   -0.075573

     starting charge   54.99997, renormalised to   56.00000

     negative rho (up, down):  0.312E+00 0.769E-01
     Starting wfc are   40 randomized atomic wfcs

     Self-consistent Calculation

[...]

     total energy              =    -544.49005866 Ry
     Harris-Foulkes estimate   =    -544.49005853 Ry
     estimated scf accuracy    <       0.00000012 Ry

[...]

     iteration #  9     ecut=    40.00 Ry     beta=0.70
     Davidson diagonalization with overlap
     ethr =  2.06E-10,  avg # of iterations =  2.0

     negative rho (up, down):  0.197E+00 0.197E+00

     End of self-consistent calculation

 ------ SPIN UP ------------

[...]

 ------ SPIN DOWN ----------

[...]

          k = 0.4223 0.4223 0.5568 (  1439 PWs)   bands (ev):

   -35.4863 -35.4848 -35.0300 -35.0284 -34.8474 -34.8471  -1.4638  -1.4006
    -0.8040  -0.7645   9.0661   9.1584   9.5800   9.6880  10.7366  11.2198
    13.5198  13.5982  13.8755  14.2954  15.4618  16.0779  16.1918  16.4620
    17.4131  18.5455  18.6784  19.6385  21.7771  22.2732  24.1783  24.6709
    29.8820  30.2060  31.9056  32.7379  33.0088  33.1038  35.4664  36.3797
    37.8885  37.8955  38.0078  38.1232  41.6072  42.2019  43.5051  43.6272
    44.1003  44.7572  46.4032  48.0031  49.9521  50.4104  50.5679  50.6330
    51.3140  52.9392  55.0234  55.4783  55.5801  56.1440  57.4287  57.6142
    57.8559  58.5450  59.2675  59.7791  59.8571  60.5838  61.3640  61.9671
    62.4040  63.0798  63.6745  64.4360  65.0654  65.4012  65.8354  65.9515
    68.1734  68.4314  69.8468  70.0794

     the Fermi energy is    21.1082 ev

!    total energy              =    -544.49005874 Ry
     Harris-Foulkes estimate   =    -544.49005873 Ry
     estimated scf accuracy    <          5.0E-09 Ry

     The total energy is the sum of the following terms:

     one-electron contribution =     -70.10835839 Ry
     hartree contribution      =      85.53138141 Ry
     xc contribution           =    -138.97771025 Ry
     ewald contribution        =    -420.93550524 Ry
     smearing contrib. (-TS)   =       0.00013374 Ry

     total magnetization       =     0.00 Bohr mag/cell
     absolute magnetization    =     0.00 Bohr mag/cell

     convergence has been achieved in   9 iterations

     Forces acting on atoms (Ry/au):

     negative rho (up, down):  0.197E+00 0.197E+00
     atom    1 type  1   force =     0.00000000    0.00000000   -0.00000000
     atom    2 type  1   force =     0.00000000    0.00000000   -0.00000000
     atom    3 type  2   force =     0.00005367    0.00005367   -0.00000000
     atom    4 type  2   force =    -0.00005367   -0.00005367    0.00000000
     atom    5 type  2   force =     0.00005367   -0.00005367    0.00000000
     atom    6 type  2   force =    -0.00005367    0.00005367   -0.00000000

     Total force =     0.000152     Total SCF correction =     0.000045
     SCF correction compared to forces is large: reduce conv_thr to get better values

     entering subroutine stress ...

     negative rho (up, down):  0.197E+00 0.197E+00
          total   stress  (Ry/bohr**3)                   (kbar)     P= 1403.71
   0.00951621   0.00000000   0.00000000       1399.88      0.00      0.00
   0.00000000   0.00951621   0.00000000          0.00   1399.88      0.00
   0.00000000   0.00000000   0.00959425          0.00      0.00   1411.36

     General routines

     Parallel routines

   This run was terminated on:  18:14: 1  23Jan2014

   JOB DONE.