     Program PWSCF v.5.0.2 (svn rev. 9656) starts on 29Apr2014 at  8:16:33

     Current dimensions of program PWSCF are:
     Max number of different atomic species (ntypx) = 10
     Max number of k-points (npk) =  40000
     Max angular momentum in pseudopotentials (lmaxx) =  3
     Reading input from pwscf.in
Warning: card &CELL ignored
Warning: card / ignored

     Subspace diagonalization in iterative solution of the eigenvalue problem:
     a serial algorithm will be used

     bravais-lattice index     =            0
     lattice parameter (alat)  =      11.7919  a.u.
     unit-cell volume          =    7123.6633 (a.u.)^3
     number of atoms/cell      =           31
     number of atomic types    =            3
     number of electrons       =       246.00
     number of Kohn-Sham states=          357
     kinetic-energy cutoff     =      40.0000  Ry
     charge density cutoff     =     500.0000  Ry
     convergence threshold     =      1.0E-06
     mixing beta               =       0.7000
     number of iterations used =            8  plain     mixing
     Exchange-correlation      = SLA  PW   PBE  PBE ( 1 4 3 4 0)
     EXX-fraction              =        0.00
     nstep                     =           50

     celldm(1)=  11.791891  celldm(2)=   0.000000  celldm(3)=   0.000000
     celldm(4)=   0.000000  celldm(5)=   0.000000  celldm(6)=   0.000000

     crystal axes: (cart. coord. in units of alat)
               a(1) = (   1.000000   0.000000   0.000000 )
               a(2) = (   0.000000   1.026665   0.000000 )
               a(3) = (   0.000000   0.000000   4.231793 )

     reciprocal axes: (cart. coord. in units 2 pi/alat)
               b(1) = (  1.000000  0.000000  0.000000 )
               b(2) = (  0.000000  0.974028  0.000000 )
               b(3) = (  0.000000  0.000000  0.236306 )

     PseudoPot. # 1 for O  read from file:
     /home/camp/zhonxu/pseudo/o_pbe_v1.01.uspp.F.UPF
     MD5 check sum: 2bcb18d16ea4b960afae9ec6d52f22d2
     Pseudo is Ultrasoft + core correction, Zval =  6.0
     Generated by new atomic code, or converted to UPF format
     Using radial grid of  737 points,  5 beta functions with:
                l(1) =   0
                l(2) =   0
                l(3) =   1
                l(4) =   1
                l(5) =   2
     Q(r) pseudized with  8 coefficients,  rinner =    0.900   0.900   0.900
                                                       0.900   0.900

     PseudoPot. # 2 for Ru read from file:
     /home/camp/zhonxu/pseudo/ru_pbe_v1.uspp.F.UPF
     MD5 check sum: df00be1c11b23341d9806d8f1dfa10cf
     Pseudo is Ultrasoft + core correction, Zval = 16.0
     Generated by new atomic code, or converted to UPF format
     Using radial grid of  967 points,  6 beta functions with:
                l(1) =   0
                l(2) =   0
                l(3) =   1
                l(4) =   1
                l(5) =   2
                l(6) =   2
     Q(r) pseudized with  8 coefficients,  rinner =    1.300   1.300   1.300
                                                       1.300   1.300

     PseudoPot. # 3 for H  read from file:
     /home/camp/zhonxu/pseudo/h_pbe_v1.uspp.F.UPF
     MD5 check sum: 3408e3ff4ec8b0a4e358431e7e038a48
     Pseudo is Ultrasoft, Zval =  1.0
     Generated by new atomic code, or converted to UPF format
     Using radial grid of  615 points,  2 beta functions with:
                l(1) =   0
                l(2) =   0
     Q(r) pseudized with  8 coefficients,  rinner =    0.700

     atomic species   valence    mass     pseudopotential
        O0             6.00    15.99940     O ( 1.00)
        Ru1           16.00   101.07000     Ru( 1.00)
        H2             1.00     1.00794     H ( 1.00)

     Simplified LDA+U calculation (l_max = 2) with parameters (eV):
     atomic species    L          U    alpha       J0     beta
        Ru1            2     1.0000   0.0000   0.0000   0.0000

     No symmetry found

   Cartesian axes

     site n.     atom                  positions (alat units)
         1           O0  tau(   1) = (   0.0000000   0.0000000   1.6006333  )
         2           O0  tau(   2) = (   0.0000000   0.5133323   1.7090519  )
         3           Ru1 tau(   3) = (   0.2500000   0.5133323   1.9249579  )
         4           Ru1 tau(   4) = (   0.0000000   0.0000000   1.9138706  )
         5           O0  tau(   5) = (   0.2500000   0.8315984   1.9151825  )
         6           O0  tau(   6) = (   0.2500000   0.1950663   1.9148016  )
         7           O0  tau(   7) = (   0.0000000   0.5133323   2.1086177  )
         8           O0  tau(   8) = (   0.0000000   0.0000000   2.2256691  )
         9           Ru1 tau(   9) = (   0.2500000   0.0000000   2.4381898  )
        10           Ru1 tau(  10) = (   0.0000000   0.5133323   2.4080594  )
        11           O0  tau(  11) = (   0.2500000   0.7083986   2.4344235  )
        12           O0  tau(  12) = (   0.2500000   0.3182660   2.4336618  )
        13           O0  tau(  13) = (   0.0000000   0.0000000   2.6157981  )
        14           O0  tau(  14) = (   0.5000000   0.0000000   1.6005064  )
        15           O0  tau(  15) = (   0.5000000   0.5133323   1.7116333  )
        16           Ru1 tau(  16) = (   0.7500000   0.5133323   1.9249156  )
        17           Ru1 tau(  17) = (   0.5000000   0.0000000   1.9130666  )
        18           O0  tau(  18) = (   0.7500000   0.8315984   1.9150979  )
        19           O0  tau(  19) = (   0.7500000   0.1950663   1.9148440  )
        20           O0  tau(  20) = (   0.5000000   0.5133323   2.1279570  )
        21           O0  tau(  21) = (   0.5000000   0.0000000   2.2254152  )
        22           Ru1 tau(  22) = (   0.7500000   0.0000000   2.4382321  )
        23           Ru1 tau(  23) = (   0.5000000   0.5133323   2.4678123  )
        24           O0  tau(  24) = (   0.7500000   0.7083986   2.4345927  )
        25           O0  tau(  25) = (   0.7500000   0.3182660   2.4334925  )
        26           O0  tau(  26) = (   0.5000000   0.0000000   2.6078847  )
        27           H2  tau(  27) = (  -0.0002600   0.6438727   1.6192532  )
        28           H2  tau(  28) = (   0.4995800   0.6393041   1.6156985  )
        29           H2  tau(  29) = (   0.1450800   0.0331921   1.5470588  )
        30           H2  tau(  30) = (   0.6459600   0.0301326   1.5471435  )
        31           O0  tau(  31) = (   0.5000500   0.5106527   2.7413977  )

     number of k points=    10  Methfessel-Paxton smearing, width (Ry)=  0.0100
                       cart. coord. in units 2pi/alat
        k(    1) = (   0.0000000   0.0000000   0.0000000), wk =   0.1250000
        k(    2) = (   0.0000000   0.2435070   0.0000000), wk =   0.2500000
        k(    3) = (   0.0000000  -0.4870139   0.0000000), wk =   0.1250000
        k(    4) = (   0.2500000   0.0000000   0.0000000), wk =   0.2500000
        k(    5) = (   0.2500000   0.2435070   0.0000000), wk =   0.2500000
        k(    6) = (   0.2500000  -0.4870139   0.0000000), wk =   0.2500000
        k(    7) = (  -0.5000000   0.0000000   0.0000000), wk =   0.1250000
        k(    8) = (  -0.5000000   0.2435070   0.0000000), wk =   0.2500000
        k(    9) = (  -0.5000000  -0.4870139   0.0000000), wk =   0.1250000
        k(   10) = (  -0.2500000   0.2435070   0.0000000), wk =   0.2500000

     Largest allocated arrays     est. size (Mb)     dimensions
     Largest temporary arrays     est. size (Mb)     dimensions

     Check: negative/imaginary core charge=   -0.000003    0.000000

     Initial potential from superposition of free atoms
     Check: negative starting charge=   -0.520948

     starting charge  237.99981, renormalised to  246.00000

     negative rho (up, down):  0.538E+00 0.000E+00
     Number of +U iterations with fixed ns =  0
     Starting occupations:
 --- enter write_ns ---
 LDA+U parameters:
U( 2)     =  1.00000000
alpha( 2) =  0.00000000
atom    3   Tr[ns(na)] =   6.00000
    eigenvalues:
  0.600  0.600  0.600  0.600  0.600
    eigenvectors:
  1.000  0.000  0.000  0.000  0.000
  0.000  1.000  0.000  0.000  0.000
  0.000  0.000  1.000  0.000  0.000
  0.000  0.000  0.000  1.000  0.000
  0.000  0.000  0.000  0.000  1.000
    occupations:
  0.600  0.000  0.000  0.000  0.000
  0.000  0.600  0.000  0.000  0.000
  0.000  0.000  0.600  0.000  0.000
  0.000  0.000  0.000  0.600  0.000
  0.000  0.000  0.000  0.000  0.600
atom    4   Tr[ns(na)] =   6.00000
    eigenvalues:
  0.600  0.600  0.600  0.600  0.600
    eigenvectors:
  1.000  0.000  0.000  0.000  0.000
  0.000  1.000  0.000  0.000  0.000
  0.000  0.000  1.000  0.000  0.000
  0.000  0.000  0.000  1.000  0.000
  0.000  0.000  0.000  0.000  1.000
    occupations:
  0.600  0.000  0.000  0.000  0.000
  0.000  0.600  0.000  0.000  0.000
  0.000  0.000  0.600  0.000  0.000
  0.000  0.000  0.000  0.600  0.000
  0.000  0.000  0.000  0.000  0.600
atom    9   Tr[ns(na)] =   6.00000
    eigenvalues:
  0.600  0.600  0.600  0.600  0.600
    eigenvectors:
  1.000  0.000  0.000  0.000  0.000
  0.000  1.000  0.000  0.000  0.000
  0.000  0.000  1.000  0.000  0.000
  0.000  0.000  0.000  1.000  0.000
  0.000  0.000  0.000  0.000  1.000
    occupations:
  0.600  0.000  0.000  0.000  0.000
  0.000  0.600  0.000  0.000  0.000
  0.000  0.000  0.600  0.000  0.000
  0.000  0.000  0.000  0.600  0.000
  0.000  0.000  0.000  0.000  0.600
atom   10   Tr[ns(na)] =   6.00000
    eigenvalues:
  0.600  0.600  0.600  0.600  0.600
    eigenvectors:
  1.000  0.000  0.000  0.000  0.000
  0.000  1.000  0.000  0.000  0.000
  0.000  0.000  1.000  0.000  0.000
  0.000  0.000  0.000  1.000  0.000
  0.000  0.000  0.000  0.000  1.000
    occupations:
  0.600  0.000  0.000  0.000  0.000
  0.000  0.600  0.000  0.000  0.000
  0.000  0.000  0.600  0.000  0.000
  0.000  0.000  0.000  0.600  0.000
  0.000  0.000  0.000  0.000  0.600
atom   16   Tr[ns(na)] =   6.00000
    eigenvalues:
  0.600  0.600  0.600  0.600  0.600
    eigenvectors:
  1.000  0.000  0.000  0.000  0.000
  0.000  1.000  0.000  0.000  0.000
  0.000  0.000  1.000  0.000  0.000
  0.000  0.000  0.000  1.000  0.000
  0.000  0.000  0.000  0.000  1.000
    occupations:
  0.600  0.000  0.000  0.000  0.000
  0.000  0.600  0.000  0.000  0.000
  0.000  0.000  0.600  0.000  0.000
  0.000  0.000  0.000  0.600  0.000
  0.000  0.000  0.000  0.000  0.600
atom   17   Tr[ns(na)] =   6.00000
    eigenvalues:
  0.600  0.600  0.600  0.600  0.600
    eigenvectors:
  1.000  0.000  0.000  0.000  0.000
  0.000  1.000  0.000  0.000  0.000
  0.000  0.000  1.000  0.000  0.000
  0.000  0.000  0.000  1.000  0.000
  0.000  0.000  0.000  0.000  1.000
    occupations:
  0.600  0.000  0.000  0.000  0.000
  0.000  0.600  0.000  0.000  0.000
  0.000  0.000  0.600  0.000  0.000
  0.000  0.000  0.000  0.600  0.000
  0.000  0.000  0.000  0.000  0.600
atom   22   Tr[ns(na)] =   6.00000
    eigenvalues:
  0.600  0.600  0.600  0.600  0.600
    eigenvectors:
  1.000  0.000  0.000  0.000  0.000
  0.000  1.000  0.000  0.000  0.000
  0.000  0.000  1.000  0.000  0.000
  0.000  0.000  0.000  1.000  0.000
  0.000  0.000  0.000  0.000  1.000
    occupations:
  0.600  0.000  0.000  0.000  0.000
  0.000  0.600  0.000  0.000  0.000
[...]
    eigenvectors:
  0.001  0.163  0.000  0.303  0.533
  0.991  0.009  0.000  0.000  0.000
  0.000  0.000  0.974  0.016  0.010
  0.008  0.828  0.000  0.059  0.104
  0.000  0.000  0.026  0.622  0.352
    occupations:
  0.774 -0.002 -0.000 -0.076  0.001
 -0.002  0.584  0.001  0.003 -0.000
 -0.000  0.001  0.772  0.000 -0.006
 -0.076  0.003  0.000  0.635 -0.001
  0.001 -0.000 -0.006 -0.001  0.806
atom   10   Tr[ns(na)] =   7.18666
    eigenvalues:
  0.540  0.552  0.747  0.815  0.939
    eigenvectors:
  0.000  0.989  0.000  0.000  0.011
  0.000  0.000  0.000  1.000  0.000
  0.000  0.000  1.000  0.000  0.000
  0.000  0.011  0.000  0.000  0.989
  1.000  0.000  0.000  0.000  0.000
    occupations:
  0.556  0.000 -0.003  0.040  0.000
  0.000  0.815  0.000  0.000  0.001
 -0.003  0.000  0.747 -0.002  0.000
  0.040  0.000 -0.002  0.935  0.000
  0.000  0.001  0.000  0.000  0.540
atom   16   Tr[ns(na)] =   7.16064
    eigenvalues:
  0.529  0.571  0.703  0.823  0.954
    eigenvectors:
  0.001  0.186  0.006  0.001  0.806
  0.996  0.004  0.000  0.000  0.000
  0.000  0.001  0.987  0.002  0.010
  0.003  0.808  0.005  0.000  0.183
  0.000  0.000  0.002  0.997  0.001
    occupations:
  0.881  0.000  0.024 -0.148  0.002
  0.000  0.530 -0.001  0.003 -0.003
  0.024 -0.001  0.705 -0.007  0.006
 -0.148  0.003 -0.007  0.642 -0.002
  0.002 -0.003  0.006 -0.002  0.823
atom   17   Tr[ns(na)] =   7.15547
    eigenvalues:
  0.558  0.605  0.682  0.776  0.957
    eigenvectors:
  0.000  0.990  0.000  0.000  0.010
  0.000  0.000  0.017  0.983  0.000
  0.000  0.000  0.983  0.017  0.000
  0.000  0.010  0.000  0.000  0.990
  1.000  0.000  0.000  0.000  0.000
    occupations:
  0.608 -0.001 -0.000  0.034  0.001
 -0.001  0.774  0.012 -0.001 -0.001
 -0.000  0.012  0.684  0.000  0.000
  0.034 -0.001  0.000  0.954 -0.000
  0.001 -0.001  0.000 -0.000  0.558
atom   22   Tr[ns(na)] =   7.13921
    eigenvalues:
  0.583  0.601  0.770  0.807  0.809
    eigenvectors:
  0.000  0.164  0.001  0.239  0.595
  0.997  0.003  0.000  0.000  0.000
  0.000  0.000  0.972  0.014  0.014
  0.003  0.833  0.000  0.047  0.117
  0.000  0.000  0.027  0.699  0.274
    occupations:
  0.774  0.002  0.001 -0.077  0.001
  0.002  0.583  0.001 -0.002 -0.000
  0.001  0.001  0.771 -0.000  0.006
 -0.077 -0.002 -0.000  0.635 -0.000
  0.001 -0.000  0.006 -0.000  0.806
atom   23   Tr[ns(na)] =   7.15829
    eigenvalues:
  0.576  0.657  0.669  0.704  0.973
    eigenvectors:
  0.000  0.986  0.007  0.000  0.007
  0.000  0.000  0.000  1.000  0.000
  0.000  0.007  0.993  0.000  0.000
  0.000  0.007  0.000  0.000  0.993
  1.000  0.000  0.000  0.000  0.000
    occupations:
  0.659  0.000 -0.001  0.026 -0.000
  0.000  0.704  0.000  0.000  0.001
 -0.001  0.000  0.669  0.002 -0.000
  0.026  0.000  0.002  0.971 -0.000
 -0.000  0.001 -0.000 -0.000  0.576
N of occupied +U levels =  57.2612680
 --- exit write_ns ---

     Threshold (ethr) on eigenvalues was too large:
     Diagonalizing with lowered threshold

     Davidson diagonalization with overlap
     ethr =  4.76E-08,  avg # of iterations =  2.0

[...]

     total energy              =   -2162.91550375 Ry
     Harris-Foulkes estimate   =   -2162.91550376 Ry
     estimated scf accuracy    <       0.00000003 Ry

     iteration # 19     ecut=    40.00 Ry     beta=0.70
     Davidson diagonalization with overlap
     ethr =  5.03E-12,  avg # of iterations =  1.0

     negative rho (up, down):  0.579E+00 0.000E+00

     End of self-consistent calculation
 --- enter write_ns ---
 LDA+U parameters:
U( 2)     =  1.00000000
alpha( 2) =  0.00000000
atom    3   Tr[ns(na)] =   7.16240
    eigenvalues:
  0.529  0.571  0.703  0.823  0.954
    eigenvectors:
  0.001  0.186  0.006  0.001  0.807
  0.995  0.004  0.000  0.000  0.000
  0.000  0.001  0.988  0.001  0.010
  0.004  0.808  0.005  0.000  0.183
  0.000  0.000  0.001  0.998  0.000
    occupations:
  0.881 -0.000  0.024 -0.148 -0.002
 -0.000  0.530  0.001 -0.003 -0.003
  0.024  0.001  0.706 -0.007 -0.004
 -0.148 -0.003 -0.007  0.642  0.002
 -0.002 -0.003 -0.004  0.002  0.823
atom    4   Tr[ns(na)] =   7.16448
    eigenvalues:
  0.558  0.603  0.689  0.775  0.957
    eigenvectors:
  0.001  0.990  0.000  0.000  0.009
  0.000  0.000  0.029  0.971  0.000
  0.000  0.000  0.971  0.029  0.000
  0.000  0.009  0.000  0.000  0.991
  0.999  0.001  0.000  0.000  0.000
    occupations:
  0.606 -0.001 -0.000  0.034  0.001
 -0.001  0.773  0.014 -0.001 -0.001
 -0.000  0.014  0.692  0.001  0.000
  0.034 -0.001  0.001  0.954  0.000
  0.001 -0.001  0.000  0.000  0.558
atom    9   Tr[ns(na)] =   7.13767
    eigenvalues:
  0.583  0.601  0.770  0.806  0.809
    eigenvectors:
  0.001  0.163  0.000  0.304  0.532
  0.991  0.009  0.000  0.000  0.000
  0.000  0.000  0.974  0.016  0.010
  0.008  0.828  0.000  0.059  0.104
  0.000  0.000  0.026  0.621  0.354
    occupations:
  0.774 -0.002 -0.000 -0.076  0.001
 -0.002  0.583  0.001  0.003 -0.000
 -0.000  0.001  0.771  0.000 -0.006
 -0.076  0.003  0.000  0.635 -0.001
  0.001 -0.000 -0.006 -0.001  0.806
atom   10   Tr[ns(na)] =   7.18095
    eigenvalues:
  0.540  0.552  0.746  0.814  0.939
    eigenvectors:
  0.000  0.989  0.000  0.000  0.011
  0.000  0.000  0.000  1.000  0.000
  0.000  0.000  1.000  0.000  0.000
  0.000  0.011  0.000  0.000  0.989
  1.000  0.000  0.000  0.000  0.000
    occupations:
  0.556  0.000 -0.003  0.040  0.000
  0.000  0.814  0.000  0.000  0.001
 -0.003  0.000  0.746 -0.002  0.000
  0.040  0.000 -0.002  0.935  0.000
  0.000  0.001  0.000  0.000  0.540
atom   16   Tr[ns(na)] =   7.16249
    eigenvalues:
  0.529  0.571  0.703  0.824  0.954
    eigenvectors:
  0.001  0.186  0.006  0.001  0.807
  0.996  0.004  0.000  0.000  0.000
  0.000  0.001  0.987  0.002  0.010
  0.003  0.808  0.005  0.000  0.183
  0.000  0.000  0.002  0.997  0.001
    occupations:
  0.881  0.000  0.024 -0.148  0.002
  0.000  0.530 -0.001  0.003 -0.003
  0.024 -0.001  0.706 -0.007  0.006
 -0.148  0.003 -0.007  0.642 -0.002
  0.002 -0.003  0.006 -0.002  0.823
atom   17   Tr[ns(na)] =   7.15578
    eigenvalues:
  0.558  0.605  0.683  0.775  0.957
    eigenvectors:
  0.000  0.990  0.000  0.000  0.010
  0.000  0.000  0.017  0.983  0.000
  0.000  0.000  0.983  0.017  0.000
  0.000  0.010  0.000  0.000  0.990
  1.000  0.000  0.000  0.000  0.000
    occupations:
  0.608 -0.001 -0.000  0.034  0.001
 -0.001  0.774  0.012 -0.001 -0.001
 -0.000  0.012  0.684  0.000  0.000
  0.034 -0.001  0.000  0.954 -0.000
  0.001 -0.001  0.000 -0.000  0.558
atom   22   Tr[ns(na)] =   7.13771
    eigenvalues:
  0.583  0.601  0.770  0.806  0.808
    eigenvectors:
  0.000  0.164  0.001  0.242  0.593
  0.997  0.003  0.000  0.000  0.000
  0.000  0.000  0.972  0.014  0.014
  0.003  0.833  0.000  0.048  0.116
  0.000  0.000  0.027  0.696  0.277
    occupations:
  0.774  0.002  0.001 -0.077  0.001
  0.002  0.583  0.001 -0.002 -0.000
  0.001  0.001  0.771 -0.000  0.006
 -0.077 -0.002 -0.000  0.635 -0.000
  0.001 -0.000  0.006 -0.000  0.806
atom   23   Tr[ns(na)] =   7.15719
    eigenvalues:
  0.576  0.656  0.669  0.703  0.973
    eigenvectors:
  0.000  0.986  0.007  0.000  0.007
  0.000  0.000  0.000  1.000  0.000
  0.000  0.007  0.993  0.000  0.000
  0.000  0.007  0.000  0.000  0.993
  1.000  0.000  0.000  0.000  0.000
    occupations:
  0.659  0.000 -0.001  0.026 -0.000
  0.000  0.703  0.000  0.000  0.001
 -0.001  0.000  0.669  0.002 -0.000
  0.026  0.000  0.002  0.971 -0.000
 -0.000  0.001 -0.000 -0.000  0.576
N of occupied +U levels =  57.2586733
 --- exit write_ns ---

[...]

          k = 0.2500-0.4870 0.0000 ( 30468 PWs)   bands (ev):

[...]

          k =-0.2500 0.2435 0.0000 ( 30434 PWs)   bands (ev):

   -75.4230 -74.8836 -74.8758 -74.5867 -74.5452 -74.3094 -74.2295 -74.2223
   -45.9209 -45.2228 -45.0659 -45.0343 -44.9020 -44.8438 -44.8409 -44.8328
   -44.8041 -44.7634 -44.7455 -44.6169 -44.5320 -44.4478 -44.4284 -44.4131
   -44.3639 -44.3244 -44.2748 -44.1971 -44.1282 -44.1084 -44.0775 -44.0047
   -21.1858 -20.6555 -20.6276 -20.5768 -20.3863 -20.1353 -20.0634 -19.9662
   -19.8876 -19.8030 -19.6971 -19.6229 -19.5147 -19.5058 -19.4516 -19.4300
   -19.4041 -19.1356 -18.9252  -9.2761  -8.8764  -8.7816  -8.7472  -8.5147
    -8.4491  -8.2806  -8.2231  -8.0661  -7.9600  -7.9042  -7.8351  -7.7654
    -7.7089  -7.6624  -7.5393  -7.4270  -7.2645  -7.0520  -7.0138  -6.9113
    -6.8192  -6.6348  -6.3937  -6.2581  -6.2181  -6.0837  -5.8868  -5.8228
    -5.7759  -5.6988  -5.6697  -5.5139  -5.4734  -5.3899  -5.3331  -5.2390
    -5.1694  -5.0539  -4.9442  -4.9061  -4.7115  -4.6707  -4.5909  -4.4495
    -4.3252  -4.2545  -4.1986  -4.0990  -3.9896  -3.9023  -3.8120  -3.6999
    -3.4663  -3.3653  -3.2485  -2.9923  -2.4539  -2.2596  -2.1798  -2.0440
    -1.9975  -1.9154  -1.8580  -1.8165  -1.7132  -1.6811  -1.6346  -1.5600
    -1.4960  -1.2825  -1.2491  -1.0978  -0.9902  -0.7392  -0.5897  -0.5496
    -0.3974  -0.3596  -0.2367  -0.0429   0.5937   1.0295   1.3490   1.3850
     1.6786   2.0515   2.2879   2.5457   2.7504   2.8391   2.9313   3.0401
     3.1389   3.1990   3.4448   3.7625   3.8857   4.7137   4.7975   5.2916
     5.5848   5.6250   5.7777   6.3549   6.5955   6.6458   6.7134   6.7549
     6.8114   6.9847   7.1279   7.3455   7.5751   7.7890   7.8823   8.0058
     8.2176   8.3081   8.3692   8.4255   8.5383   8.5708   8.7016   8.7464
     8.9900   9.1595   9.2035   9.2919   9.4961   9.6417   9.7863   9.8373
     9.9519  10.0481  10.1276  10.1541  10.2917  10.3083  10.3685  10.5111
    10.5990  10.6488  10.6935  10.8875  10.9640  11.0979  11.1652  11.2653
    11.3816  11.4654  11.4947  11.5684  11.6873  11.7228  11.7804  11.8313
    11.9384  11.9813  12.1160  12.1438  12.2003  12.3076  12.4605  12.5083
    12.5509  12.5683  12.6385  12.7202  12.7879  12.8643  12.9241  13.0208
    13.0801  13.1432  13.2744  13.3517  13.3829  13.4938  13.5046  13.5944
    13.7499  13.8152  13.9147  13.9864  14.0728  14.1513  14.1860  14.2545
    14.4128  14.4454  14.5246  14.5568  14.5888  14.7131  14.8102  14.8643
    14.9620  15.0063  15.0619  15.1502  15.3032  15.4146  15.5588  15.5754
    15.6217  15.6927  15.7806  15.8215  15.8524  15.9167  15.9707  16.0607
    16.1092  16.1709  16.3092  16.3304  16.3753  16.4595  16.5547  16.6070
    16.6648  16.7312  16.7679  16.8005  16.8539  16.9117  16.9767  17.0250
    17.1064  17.1922  17.2470  17.3550  17.4250  17.4659  17.5009  17.5899
    17.6920  17.7636  17.7929  17.8356  17.9169  17.9624  18.0534  18.0980
    18.2332  18.2492  18.3015  18.3286  18.4360  18.4597  18.5807  18.6298
    18.7104  18.8114  18.8782  18.9562  19.0601  19.1154  19.1647  19.1811
    19.2637  19.3173  19.4416  19.4774  19.5214  19.5552  19.6598  19.7447
    19.8184  19.8681  19.9210  20.0008  20.0888  20.1819  20.2775  20.3309
    20.4493  20.5294  20.5578  20.6372  20.7629  20.8118  20.8683  20.8942
    20.9658  21.0041  21.0936  21.1336  21.2048  21.2763  21.3284  21.3868
    21.4805  21.5378  21.5678  21.5907  21.6514  21.7399  21.8456  21.9356
    21.9770  22.0455  22.0556  22.0958  22.1509

     the Fermi energy is    -1.1516 ev

!    total energy              =   -2162.91550374 Ry
     Harris-Foulkes estimate   =   -2162.91550375 Ry
     estimated scf accuracy    <          9.3E-09 Ry

     The total energy is the sum of the following terms:

     one-electron contribution =  -25080.74492011 Ry
     hartree contribution      =   12560.40944663 Ry
     xc contribution           =    -337.60166107 Ry
     ewald contribution        =   10694.47985501 Ry
     Hubbard energy            =       0.54229578 Ry
     smearing contrib. (-TS)   =      -0.00051999 Ry

     convergence has been achieved in  19 iterations

     Forces acting on atoms (Ry/au):

     negative rho (up, down):  0.579E+00 0.000E+00
     atom    1 type  1   force =    -0.00576048   -0.01016195   -0.00038977
     atom    2 type  1   force =     0.00002363    0.00708987    0.00035287
     atom    3 type  2   force =     0.04165004    0.00062455    0.00048784
     atom    4 type  2   force =     0.00349843    0.00557458   -0.00021527
     atom    5 type  1   force =     0.00355207   -0.03479995    0.00016500
     atom    6 type  1   force =     0.00223176    0.03641330    0.00016135
     atom    7 type  1   force =     0.00021477   -0.00379339   -0.00002791
     atom    8 type  1   force =     0.00004525   -0.00155665    0.00092642
     atom    9 type  2   force =    -0.00379498    0.00236808   -0.00045192
     atom   10 type  2   force =    -0.00002564   -0.00110317    0.00044588
     atom   11 type  1   force =    -0.00837694    0.00483045   -0.00030647
     atom   12 type  1   force =    -0.00982598   -0.00584121   -0.00023691
     atom   13 type  1   force =    -0.00146417   -0.00060556   -0.00077461
     atom   14 type  1   force =    -0.00441497   -0.00951129   -0.00033303
     atom   15 type  1   force =    -0.00018479    0.00538505    0.00032868
     atom   16 type  2   force =    -0.04212732    0.00153451    0.00046405
     atom   17 type  2   force =     0.00275659    0.00556933   -0.00023662
     atom   18 type  1   force =    -0.00038098   -0.03527834    0.00015141
     atom   19 type  1   force =    -0.00017948    0.03580576    0.00016362
     atom   20 type  1   force =     0.00006737   -0.00218332    0.00010412
     atom   21 type  1   force =     0.00011748   -0.00147549    0.00048357
     atom   22 type  2   force =     0.00522135    0.00229673   -0.00045700
     atom   23 type  2   force =     0.00001974    0.00151177   -0.00048162
     atom   24 type  1   force =     0.00844080    0.00489687   -0.00030663
     atom   25 type  1   force =     0.00984035   -0.00583393   -0.00025088
     atom   26 type  1   force =    -0.00168144   -0.00078056   -0.00056383
     atom   27 type  3   force =    -0.00002987   -0.00038095   -0.00016011
     atom   28 type  3   force =    -0.00002413   -0.00037539    0.00007609
     atom   29 type  3   force =     0.00033409   -0.00011463    0.00046447
     atom   30 type  3   force =     0.00025495   -0.00006323    0.00040779
     atom   31 type  1   force =     0.00000250   -0.00004184    0.00000940

     Total force =     0.002285     Total SCF correction =     0.000159

     bfgs converged in   5 scf cycles and   4 bfgs steps
     (criteria: energy < 0.10E-03, force < 0.10E-02)

     End of BFGS Geometry Optimization

     Final energy   =   -2162.9155037447 Ry
Begin final coordinates

ATOMIC_POSITIONS (crystal)
O0       0.000000000   0.000000000   0.378470261    0   0   1
O0       0.000000000   0.500000000   0.403981110    0   0   1
Ru1      0.250000000   0.500000000   0.454838481    0   0   1
Ru1      0.000000000   0.000000000   0.452329209    0   0   1
O0       0.250000000   0.810000000   0.452559550    0   0   1
O0       0.250000000   0.190000000   0.452451486    0   0   1
O0       0.000000000   0.500000000   0.498549180    0   0   1
O0       0.000000000   0.000000000   0.525652689    0   0   1
Ru1      0.250000000   0.000000000   0.576092017    0   0   1
Ru1      0.000000000   0.500000000   0.568908924    0   0   1
O0       0.250000000   0.690000000   0.575240920    0   0   1
O0       0.250000000   0.310000000   0.575086603    0   0   1
O0       0.000000000   0.000000000   0.618020844    0   0   1
O0       0.500000000   0.000000000   0.378379037    0   0   1
O0       0.500000000   0.500000000   0.404612285    0   0   1
Ru1      0.750000000   0.500000000   0.454831767    0   0   1
Ru1      0.500000000   0.000000000   0.452104898    0   0   1
O0       0.750000000   0.810000000   0.452526521    0   0   1
O0       0.750000000   0.190000000   0.452467065    0   0   1
O0       0.500000000   0.500000000   0.502942926    0   0   1
O0       0.500000000   0.000000000   0.525683360    0   0   1
Ru1      0.750000000   0.000000000   0.576099955    0   0   1
Ru1      0.500000000   0.500000000   0.583102421    0   0   1
O0       0.750000000   0.690000000   0.575280995    0   0   1
O0       0.750000000   0.310000000   0.575040118    0   0   1
O0       0.500000000   0.000000000   0.616193716    0   0   1
H2      -0.000280275   0.626648122   0.382638363
H2       0.499556773   0.622265165   0.381841824
H2       0.144934096   0.032187758   0.365675095
H2       0.645857640   0.029268180   0.365684364
O0       0.500044718   0.497346121   0.647684016
End final coordinates

     General routines

     Parallel routines
     Hubbard U routines

   This run was terminated on:  14:16:43  29Apr2014

   JOB DONE.
Running PBS batch system epilogue script
Job id: 340435.audhumbla.fysik.dtu.dk
Username: zhonxu
Groupname: campgst
Jobname: RuO2/Eads-2-layers/O-U-1.0
Sessionid: 26789
Queuename: verylong
Accounting:
This job has allocated the following 16 nodes:
a093 a093 a093 a093 a093 a093 a093 a093 a021 a021 a021 a021 a021 a021 a021 a021
Finished epilogue job 340435.audhumbla.fysik.dtu.dk for zhonxu