     Program PWSCF v.5.0.2 (svn rev. 9656) starts on  1Jun2014 at 11:50:33

     Current dimensions of program PWSCF are:
     Max number of different atomic species (ntypx) = 10
     Max number of k-points (npk) =  40000
     Max angular momentum in pseudopotentials (lmaxx) =  3
     Reading input from pwscf.in
Warning: card &CELL ignored
Warning: card / ignored

     Subspace diagonalization in iterative solution of the eigenvalue problem:
     a serial algorithm will be used

     bravais-lattice index     =            0
     lattice parameter (alat)  =      10.1289  a.u.
     unit-cell volume          =    6836.7721 (a.u.)^3
     number of atoms/cell      =           33
     number of atomic types    =            3
     number of electrons       =       245.00
     number of Kohn-Sham states=          367
     kinetic-energy cutoff     =      40.0000  Ry
     charge density cutoff     =     500.0000  Ry
     convergence threshold     =      1.0E-06
     mixing beta               =       0.7000
     number of iterations used =            8  plain     mixing
     Exchange-correlation      = SLA  PW   PBE  PBE ( 1 4 3 4 0)
     EXX-fraction              =        0.00
     nstep                     =           50

     celldm(1)=  10.128932  celldm(2)=   0.000000  celldm(3)=   0.000000
     celldm(4)=   0.000000  celldm(5)=   0.000000  celldm(6)=   0.000000

     crystal axes: (cart. coord. in units of alat)
               a(1) = (   1.000000   0.000000   0.000000 )
               a(2) = (   0.000000   1.306037   0.000000 )
               a(3) = (   0.000000   0.000000   5.037380 )

     reciprocal axes: (cart. coord. in units 2 pi/alat)
               b(1) = (  1.000000  0.000000  0.000000 )
               b(2) = (  0.000000  0.765675  0.000000 )
               b(3) = (  0.000000  0.000000  0.198516 )

     PseudoPot. # 1 for O  read from file:
     /home/camp/zhonxu/pseudo/o_pbe_v1.01.uspp.F.UPF
     MD5 check sum: 2bcb18d16ea4b960afae9ec6d52f22d2
     Pseudo is Ultrasoft + core correction, Zval =  6.0
     Generated by new atomic code, or converted to UPF format
     Using radial grid of  737 points,  5 beta functions with:
                l(1) =   0
                l(2) =   0
                l(3) =   1
                l(4) =   1
                l(5) =   2
     Q(r) pseudized with  8 coefficients,  rinner =    0.900   0.900   0.900
                                                       0.900   0.900

     PseudoPot. # 2 for Re read from file:
     /home/camp/zhonxu/pseudo/re_pbe_v1.uspp.F.UPF
     MD5 check sum: 6f5a5dcaf9c96c20d0ffdde0de57afc6
     Pseudo is Ultrasoft + core correction, Zval = 15.0
     Generated by new atomic code, or converted to UPF format
     Using radial grid of  981 points,  8 beta functions with:
                l(1) =   0
                l(2) =   0
                l(3) =   1
                l(4) =   1
                l(5) =   2
                l(6) =   2
                l(7) =   3
                l(8) =   3
     Q(r) pseudized with  8 coefficients,  rinner =    1.000   1.000   1.000
                                                       1.000   1.000   1.000
                                                       1.000

     PseudoPot. # 3 for H  read from file:
     /home/camp/zhonxu/pseudo/h_pbe_v1.uspp.F.UPF
     MD5 check sum: 3408e3ff4ec8b0a4e358431e7e038a48
     Pseudo is Ultrasoft, Zval =  1.0
     Generated by new atomic code, or converted to UPF format
     Using radial grid of  615 points,  2 beta functions with:
                l(1) =   0
                l(2) =   0
     Q(r) pseudized with  8 coefficients,  rinner =    0.700

     atomic species   valence    mass     pseudopotential
        O0             6.00    15.99940     O ( 1.00)
        Re1           15.00   186.20700     Re( 1.00)
        H2             1.00     1.00794     H ( 1.00)

     Simplified LDA+U calculation (l_max = 2) with parameters (eV):
     atomic species    L          U    alpha       J0     beta
        Re1            2     1.5000   0.0000   0.0000   0.0000

     No symmetry found

   Cartesian axes

     site n.     atom                  positions (alat units)
         1           O0  tau(   1) = (   0.0000000   0.0000000   1.8623194  )
         2           O0  tau(   2) = (   0.0000000   0.6530184   1.9253370  )
         3           Re1 tau(   3) = (   0.2500000   0.6530184   2.2271768  )
         4           Re1 tau(   4) = (   0.0000000   0.0000000   2.2287384  )
         5           O0  tau(   5) = (   0.2500000   1.0187087   2.2217869  )
         6           O0  tau(   6) = (   0.2500000   0.2873281   2.2210816  )
         7           O0  tau(   7) = (   0.0000000   0.6530184   2.5071544  )
         8           O0  tau(   8) = (   0.0000000   0.0000000   2.5894652  )
         9           Re1 tau(   9) = (   0.2500000   0.0000000   2.8894412  )
        10           Re1 tau(  10) = (   0.0000000   0.6530184   2.8583102  )
        11           O0  tau(  11) = (   0.2500000   0.9403465   2.8756892  )
        12           O0  tau(  12) = (   0.2500000   0.3656903   2.8872751  )
        13           O0  tau(  13) = (   0.0000000   0.0000000   3.1516368  )
        14           O0  tau(  14) = (   0.5000000   0.0000000   1.8624705  )
        15           O0  tau(  15) = (   0.5000000   0.6530184   1.9269994  )
        16           Re1 tau(  16) = (   0.7500000   0.6530184   2.2271768  )
        17           Re1 tau(  17) = (   0.5000000   0.0000000   2.2274287  )
        18           O0  tau(  18) = (   0.7500000   1.0187087   2.2214342  )
        19           O0  tau(  19) = (   0.7500000   0.2873281   2.2214846  )
        20           O0  tau(  20) = (   0.5000000   0.6530184   2.5086153  )
        21           O0  tau(  21) = (   0.5000000   0.0000000   2.5899690  )
        22           Re1 tau(  22) = (   0.7500000   0.0000000   2.8888367  )
        23           Re1 tau(  23) = (   0.5000000   0.6530184   2.9018835  )
        24           O0  tau(  24) = (   0.7500000   0.9403465   2.8756892  )
        25           O0  tau(  25) = (   0.7500000   0.3656903   2.8872248  )
        26           O0  tau(  26) = (   0.5000000   0.0000000   3.1466498  )
        27           H2  tau(  27) = (  -0.0002100   0.8169913   1.8417165  )
        28           H2  tau(  28) = (   0.4996400   0.8147057   1.8388956  )
        29           H2  tau(  29) = (   0.1678400   0.0328729   1.7887233  )
        30           H2  tau(  30) = (   0.6697500   0.0291246   1.7904864  )
        31           O0  tau(  31) = (   0.4996300   0.6876806   3.2307741  )
        32           O0  tau(  32) = (   0.5002900   0.4188329   3.4291461  )
        33           H2  tau(  33) = (   0.4999500   0.5176477   3.5843478  )

     number of k points=    10  Methfessel-Paxton smearing, width (Ry)=  0.0100
                       cart. coord. in units 2pi/alat
        k(    1) = (   0.0000000   0.0000000   0.0000000), wk =   0.1250000
        k(    2) = (   0.0000000   0.1914188   0.0000000), wk =   0.2500000
        k(    3) = (   0.0000000  -0.3828376   0.0000000), wk =   0.1250000
        k(    4) = (   0.2500000   0.0000000   0.0000000), wk =   0.2500000
        k(    5) = (   0.2500000   0.1914188   0.0000000), wk =   0.2500000
        k(    6) = (   0.2500000  -0.3828376   0.0000000), wk =   0.2500000
        k(    7) = (  -0.5000000   0.0000000   0.0000000), wk =   0.1250000
        k(    8) = (  -0.5000000   0.1914188   0.0000000), wk =   0.2500000
        k(    9) = (  -0.5000000  -0.3828376   0.0000000), wk =   0.1250000
        k(   10) = (  -0.2500000   0.1914188   0.0000000), wk =   0.2500000

     Largest allocated arrays     est. size (Mb)     dimensions
     Largest temporary arrays     est. size (Mb)     dimensions

     Check: negative/imaginary core charge=   -0.000003    0.000000

     Initial potential from superposition of free atoms
     Check: negative starting charge=   -0.236968

     starting charge  240.99957, renormalised to  245.00000

     negative rho (up, down):  0.241E+00 0.000E+00
     Number of +U iterations with fixed ns =  0
     Starting occupations:
 --- enter write_ns ---
 LDA+U parameters:
U( 2)     =  1.50000000
alpha( 2) =  0.00000000
atom    3   Tr[ns(na)] =   5.00000
    eigenvalues:
  0.500  0.500  0.500  0.500  0.500
    eigenvectors:
  1.000  0.000  0.000  0.000  0.000
  0.000  1.000  0.000  0.000  0.000
  0.000  0.000  1.000  0.000  0.000
  0.000  0.000  0.000  1.000  0.000
  0.000  0.000  0.000  0.000  1.000
    occupations:
  0.500  0.000  0.000  0.000  0.000
  0.000  0.500  0.000  0.000  0.000
  0.000  0.000  0.500  0.000  0.000
  0.000  0.000  0.000  0.500  0.000
  0.000  0.000  0.000  0.000  0.500
atom    4   Tr[ns(na)] =   5.00000
    eigenvalues:
  0.500  0.500  0.500  0.500  0.500
    eigenvectors:
  1.000  0.000  0.000  0.000  0.000
  0.000  1.000  0.000  0.000  0.000
  0.000  0.000  1.000  0.000  0.000
  0.000  0.000  0.000  1.000  0.000
  0.000  0.000  0.000  0.000  1.000
    occupations:
  0.500  0.000  0.000  0.000  0.000
  0.000  0.500  0.000  0.000  0.000
  0.000  0.000  0.500  0.000  0.000
  0.000  0.000  0.000  0.500  0.000
  0.000  0.000  0.000  0.000  0.500
atom    9   Tr[ns(na)] =   5.00000
    eigenvalues:
  0.500  0.500  0.500  0.500  0.500
    eigenvectors:
  1.000  0.000  0.000  0.000  0.000
  0.000  1.000  0.000  0.000  0.000
  0.000  0.000  1.000  0.000  0.000
  0.000  0.000  0.000  1.000  0.000
  0.000  0.000  0.000  0.000  1.000
    occupations:
  0.500  0.000  0.000  0.000  0.000
  0.000  0.500  0.000  0.000  0.000
  0.000  0.000  0.500  0.000  0.000
  0.000  0.000  0.000  0.500  0.000
  0.000  0.000  0.000  0.000  0.500
atom   10   Tr[ns(na)] =   5.00000
    eigenvalues:
  0.500  0.500  0.500  0.500  0.500
    eigenvectors:
  1.000  0.000  0.000  0.000  0.000
  0.000  1.000  0.000  0.000  0.000
  0.000  0.000  1.000  0.000  0.000
  0.000  0.000  0.000  1.000  0.000
  0.000  0.000  0.000  0.000  1.000
    occupations:
  0.500  0.000  0.000  0.000  0.000
  0.000  0.500  0.000  0.000  0.000
  0.000  0.000  0.500  0.000  0.000
  0.000  0.000  0.000  0.500  0.000
  0.000  0.000  0.000  0.000  0.500
atom   16   Tr[ns(na)] =   5.00000
    eigenvalues:
  0.500  0.500  0.500  0.500  0.500
    eigenvectors:
  1.000  0.000  0.000  0.000  0.000
  0.000  1.000  0.000  0.000  0.000
  0.000  0.000  1.000  0.000  0.000
  0.000  0.000  0.000  1.000  0.000
  0.000  0.000  0.000  0.000  1.000
    occupations:
  0.500  0.000  0.000  0.000  0.000
  0.000  0.500  0.000  0.000  0.000
  0.000  0.000  0.500  0.000  0.000
  0.000  0.000  0.000  0.500  0.000
  0.000  0.000  0.000  0.000  0.500
atom   17   Tr[ns(na)] =   5.00000
    eigenvalues:
  0.500  0.500  0.500  0.500  0.500
    eigenvectors:
  1.000  0.000  0.000  0.000  0.000
  0.000  1.000  0.000  0.000  0.000
  0.000  0.000  1.000  0.000  0.000
  0.000  0.000  0.000  1.000  0.000
  0.000  0.000  0.000  0.000  1.000
    occupations:
  0.500  0.000  0.000  0.000  0.000
  0.000  0.500  0.000  0.000  0.000
  0.000  0.000  0.500  0.000  0.000
  0.000  0.000  0.000  0.500  0.000
  0.000  0.000  0.000  0.000  0.500
atom   22   Tr[ns(na)] =   5.00000
    eigenvalues:
  0.500  0.500  0.500  0.500  0.500
[...]
  0.000  0.825  0.001  0.000 -0.003
 -0.002  0.001  0.653  0.006 -0.000
 -0.010  0.000  0.006  0.739 -0.000
  0.000 -0.003 -0.000 -0.000  0.543
atom   16   Tr[ns(na)] =   6.53508
    eigenvalues:
  0.547  0.573  0.622  0.761  0.764
    eigenvectors:
  0.009  0.352  0.002  0.205  0.432
  0.986  0.012  0.000  0.000  0.002
  0.000  0.001  0.983  0.002  0.015
  0.004  0.636  0.004  0.113  0.243
  0.001  0.000  0.011  0.680  0.308
    occupations:
  0.694  0.007  0.009 -0.091  0.000
  0.007  0.548 -0.000 -0.002 -0.006
  0.009 -0.000  0.624 -0.006 -0.015
 -0.091 -0.002 -0.006  0.641  0.001
  0.000 -0.006 -0.015  0.001  0.760
atom   17   Tr[ns(na)] =   6.51492
    eigenvalues:
  0.564  0.603  0.617  0.702  0.772
    eigenvectors:
  0.000  0.985  0.000  0.001  0.014
  0.000  0.001  0.005  0.995  0.000
  0.000  0.001  0.995  0.005  0.000
  0.000  0.014  0.000  0.000  0.986
  1.000  0.000  0.000  0.000  0.000
    occupations:
  0.605  0.003  0.000 -0.020  0.000
  0.003  0.701  0.006 -0.000 -0.001
  0.000  0.006  0.617  0.001 -0.000
 -0.020 -0.000  0.001  0.770 -0.000
  0.000 -0.001 -0.000 -0.000  0.564
atom   22   Tr[ns(na)] =   6.51864
    eigenvalues:
  0.596  0.608  0.615  0.703  0.737
    eigenvectors:
  0.260  0.001  0.001  0.003  0.735
  0.001  0.973  0.026  0.000  0.000
  0.004  0.024  0.913  0.059  0.000
  0.735  0.001  0.003  0.001  0.260
  0.000  0.001  0.058  0.937  0.004
    occupations:
  0.700 -0.001  0.000 -0.062  0.002
 -0.001  0.608  0.001  0.001  0.000
  0.000  0.001  0.620 -0.001  0.021
 -0.062  0.001 -0.001  0.633 -0.001
  0.002  0.000  0.021 -0.001  0.698
atom   23   Tr[ns(na)] =   6.56687
    eigenvalues:
  0.555  0.589  0.607  0.753  0.779
    eigenvectors:
  0.000  0.000  0.960  0.002  0.038
  0.017  0.983  0.000  0.000  0.000
  0.000  0.000  0.009  0.920  0.071
  0.000  0.000  0.031  0.078  0.891
  0.983  0.017  0.000  0.000  0.000
    occupations:
  0.614  0.000 -0.015 -0.030 -0.000
  0.000  0.588 -0.001 -0.000 -0.004
 -0.015 -0.001  0.753  0.004  0.000
 -0.030 -0.000  0.004  0.771  0.000
 -0.000 -0.004  0.000  0.000  0.556
N of occupied +U levels =  52.2032916
 --- exit write_ns ---

     Threshold (ethr) on eigenvalues was too large:
     Diagonalizing with lowered threshold

     Davidson diagonalization with overlap
     ethr =  8.59E-09,  avg # of iterations =  2.0

[...]

     total energy              =   -2207.61158431 Ry
     Harris-Foulkes estimate   =   -2207.61158432 Ry
     estimated scf accuracy    <       0.00000003 Ry

     iteration # 15     ecut=    40.00 Ry     beta=0.70
     Davidson diagonalization with overlap
     ethr =  9.02E-12,  avg # of iterations =  1.0

     negative rho (up, down):  0.246E+00 0.000E+00

     End of self-consistent calculation
 --- enter write_ns ---
 LDA+U parameters:
U( 2)     =  1.50000000
alpha( 2) =  0.00000000
atom    3   Tr[ns(na)] =   6.53508
    eigenvalues:
  0.547  0.573  0.621  0.761  0.764
    eigenvectors:
  0.009  0.352  0.002  0.251  0.387
  0.986  0.012  0.000  0.000  0.002
  0.000  0.000  0.982  0.001  0.016
  0.004  0.636  0.004  0.138  0.218
  0.001  0.000  0.012  0.610  0.378
    occupations:
  0.694 -0.007  0.009 -0.091 -0.000
 -0.007  0.548  0.000  0.002 -0.006
  0.009  0.000  0.624 -0.006  0.015
 -0.091  0.002 -0.006  0.641 -0.001
 -0.000 -0.006  0.015 -0.001  0.761
atom    4   Tr[ns(na)] =   6.51952
    eigenvalues:
  0.563  0.603  0.628  0.694  0.772
    eigenvectors:
  0.000  0.982  0.000  0.001  0.017
  0.000  0.001  0.012  0.987  0.000
  0.000  0.000  0.988  0.011  0.000
  0.000  0.017  0.000  0.000  0.983
  1.000  0.000  0.000  0.000  0.000
    occupations:
  0.606  0.003  0.000 -0.022  0.001
  0.003  0.693  0.007 -0.000 -0.002
  0.000  0.007  0.629  0.000 -0.000
 -0.022 -0.000  0.000  0.769 -0.000
  0.001 -0.002 -0.000 -0.000  0.564
atom    9   Tr[ns(na)] =   6.51633
    eigenvalues:
  0.597  0.610  0.615  0.703  0.734
    eigenvectors:
  0.259  0.000  0.001  0.004  0.736
  0.000  0.990  0.010  0.000  0.000
  0.003  0.009  0.929  0.059  0.000
  0.738  0.000  0.002  0.001  0.259
  0.000  0.000  0.058  0.937  0.004
    occupations:
  0.698  0.001 -0.001 -0.060  0.001
  0.001  0.610 -0.001 -0.001  0.000
 -0.001 -0.001  0.620 -0.001 -0.021
 -0.060 -0.001 -0.001  0.632 -0.002
  0.001  0.000 -0.021 -0.002  0.698
atom   10   Tr[ns(na)] =   6.49643
    eigenvalues:
  0.488  0.543  0.652  0.740  0.825
    eigenvectors:
  0.998  0.000  0.000  0.002  0.000
  0.000  0.000  0.000  0.000  1.000
  0.000  0.000  0.996  0.004  0.000
  0.001  0.000  0.004  0.994  0.000
  0.000  1.000  0.000  0.000  0.000
    occupations:
  0.488  0.000 -0.002 -0.010  0.000
  0.000  0.825  0.001  0.000 -0.003
 -0.002  0.001  0.653  0.006 -0.000
 -0.010  0.000  0.006  0.739 -0.000
  0.000 -0.003 -0.000 -0.000  0.543
atom   16   Tr[ns(na)] =   6.53498
    eigenvalues:
  0.547  0.573  0.622  0.761  0.764
    eigenvectors:
  0.009  0.352  0.002  0.202  0.435
  0.986  0.012  0.000  0.000  0.002
  0.000  0.001  0.983  0.002  0.015
  0.004  0.636  0.004  0.111  0.244
  0.001  0.000  0.011  0.685  0.304
    occupations:
  0.694  0.007  0.009 -0.091  0.000
  0.007  0.548 -0.000 -0.002 -0.006
  0.009 -0.000  0.624 -0.006 -0.014
 -0.091 -0.002 -0.006  0.641  0.001
  0.000 -0.006 -0.014  0.001  0.760
atom   17   Tr[ns(na)] =   6.51534
    eigenvalues:
  0.564  0.603  0.617  0.702  0.772
    eigenvectors:
  0.000  0.985  0.000  0.001  0.014
  0.000  0.001  0.005  0.995  0.000
  0.000  0.001  0.995  0.005  0.000
  0.000  0.014  0.000  0.000  0.986
  1.000  0.000  0.000  0.000  0.000
    occupations:
  0.605  0.003  0.000 -0.020  0.000
  0.003  0.701  0.006 -0.000 -0.001
  0.000  0.006  0.617  0.001 -0.000
 -0.020 -0.000  0.001  0.770 -0.000
  0.000 -0.001 -0.000 -0.000  0.564
atom   22   Tr[ns(na)] =   6.51820
    eigenvalues:
  0.596  0.608  0.615  0.703  0.737
    eigenvectors:
  0.260  0.001  0.001  0.003  0.735
  0.001  0.973  0.026  0.000  0.000
  0.004  0.024  0.913  0.059  0.000
  0.735  0.001  0.003  0.001  0.260
  0.000  0.001  0.058  0.937  0.004
    occupations:
  0.700 -0.001  0.000 -0.062  0.002
 -0.001  0.608  0.001  0.001  0.000
  0.000  0.001  0.620 -0.001  0.021
 -0.062  0.001 -0.001  0.633 -0.001
  0.002  0.000  0.021 -0.001  0.698
atom   23   Tr[ns(na)] =   6.56527
    eigenvalues:
  0.555  0.589  0.607  0.753  0.779
    eigenvectors:
  0.000  0.000  0.960  0.002  0.038
  0.017  0.983  0.000  0.000  0.000
  0.000  0.000  0.009  0.921  0.070
  0.000  0.000  0.031  0.077  0.892
  0.983  0.017  0.000  0.000  0.000
    occupations:
  0.614  0.000 -0.015 -0.030 -0.000
  0.000  0.588 -0.001 -0.000 -0.004
 -0.015 -0.001  0.753  0.004  0.000
 -0.030 -0.000  0.004  0.771  0.000
 -0.000 -0.004  0.000  0.000  0.556
N of occupied +U levels =  52.2011542
 --- exit write_ns ---

[...]

          k = 0.2500-0.3828 0.0000 ( 29202 PWs)   bands (ev):

[...]

          k =-0.2500 0.1914 0.0000 ( 29229 PWs)   bands (ev):

   -81.4306 -81.3714 -81.2579 -81.2143 -81.1116 -80.9821 -80.9432 -80.8027
   -43.5373 -43.4482 -43.3379 -43.3235 -43.3046 -43.2616 -43.2315 -43.2096
   -43.1656 -43.1142 -43.0744 -43.0458 -42.9801 -42.9762 -42.9224 -42.9033
   -42.8804 -42.8453 -42.8305 -42.7981 -42.7626 -42.7227 -42.4729 -42.4282
   -20.7916 -20.3759 -20.3348 -20.2158 -20.0795 -19.8951 -19.8357 -19.7530
   -19.6400 -19.6054 -19.5183 -19.4568 -19.3116 -19.2011 -19.0735 -18.9962
   -18.9758 -18.4220 -18.1684 -16.9561  -8.9639  -8.7913  -8.7051  -8.6428
    -8.5424  -8.3529  -8.3004  -8.2617  -7.9347  -7.8130  -7.7530  -7.5894
    -7.4189  -7.3156  -7.1837  -7.0868  -6.8358  -6.7651  -6.5996  -6.5712
    -6.4500  -6.2718  -6.1249  -6.0209  -5.8263  -5.7866  -5.6673  -5.5774
    -5.4788  -5.3866  -5.1997  -5.1682  -5.0295  -4.9352  -4.8651  -4.8288
    -4.7247  -4.6524  -4.5828  -4.5135  -4.4513  -4.2717  -4.2210  -4.0182
    -3.9095  -3.8067  -3.7812  -3.7013  -3.6447  -3.4539  -3.3967  -3.2847
    -3.2659  -3.0680  -2.9932  -2.8088  -2.7318  -2.6112  -2.2273  -1.9880
    -1.8699  -1.1832  -1.0260  -0.8960  -0.8539  -0.5560  -0.1766  -0.0155
     0.1709   0.4203   0.5347   0.7223   0.7797   0.8561   1.0397   1.1351
     1.3252   1.4929   1.5306   1.6680   1.8079   1.9478   2.0132   2.2804
     2.6095   3.6000   3.6726   3.7648   3.8310   4.0101   4.1305   4.3857
     4.4976   4.5760   4.7712   4.9095   5.0260   5.3774   5.4199   5.7002
     5.8566   5.9675   6.1425   6.2692   6.4211   6.5578   6.7496   6.9342
     7.0723   7.2250   7.4287   7.6215   7.7537   7.8543   8.0593   8.1774
     8.3089   8.3871   8.5678   8.6949   8.7169   8.8006   9.0271   9.0773
     9.2010   9.4633   9.5232   9.6608   9.7082   9.8600   9.8987   9.9747
    10.0090  10.0781  10.1632  10.1965  10.3205  10.4201  10.4915  10.5246
    10.5659  10.7022  10.8969  10.9969  11.1148  11.1807  11.3587  11.4669
    11.5189  11.5929  11.7290  11.8204  11.9295  12.0640  12.2298  12.3353
    12.4458  12.5577  12.6340  12.6592  12.7438  12.7969  12.8902  12.9487
    12.9691  13.1004  13.2004  13.2342  13.3846  13.4805  13.5609  13.6496
    13.7606  13.7808  13.8690  13.9093  13.9477  14.0517  14.0976  14.1581
    14.2360  14.2994  14.4017  14.4340  14.5446  14.6019  14.6321  14.6590
    14.7376  14.8127  14.8644  14.9320  14.9835  15.0491  15.1055  15.1839
    15.2329  15.3033  15.3993  15.4988  15.5717  15.6504  15.6934  15.8505
    15.9525  16.1004  16.1299  16.2128  16.2884  16.3498  16.4431  16.4879
    16.5708  16.6470  16.7507  16.7911  16.8470  16.9820  17.0195  17.1185
    17.1830  17.2819  17.3320  17.4004  17.4668  17.5328  17.5872  17.7215
    17.7914  17.8478  17.9182  17.9539  18.0430  18.1015  18.1520  18.2662
    18.3613  18.3876  18.4535  18.5038  18.5572  18.6289  18.7036  18.7774
    18.8417  18.9361  19.0227  19.0934  19.1259  19.2173  19.3216  19.4415
    19.5262  19.5583  19.6712  19.7391  19.8479  19.9164  20.0028  20.0856
    20.1596  20.2439  20.3032  20.3962  20.4607  20.5341  20.5922  20.6875
    20.7121  20.7971  20.8448  20.8952  20.9146  21.0084  21.0874  21.1643
    21.2284  21.2656  21.3207  21.4151  21.4862  21.5656  21.5870  21.6702
    21.7230  21.7961  21.8560  21.9048  21.9983  22.0371  22.1266  22.1819
    22.2579  22.2849  22.3753  22.3963  22.4436  22.5006  22.5353  22.5993
    22.6791  22.7265  22.7775  22.8063  22.8313  22.9017  22.9465  23.0156
    23.0983  23.1292  23.1576  23.1853  23.2513  23.3217  23.3705

     the Fermi energy is     0.4201 ev

!    total energy              =   -2207.61158432 Ry
     Harris-Foulkes estimate   =   -2207.61158432 Ry
     estimated scf accuracy    <          1.8E-09 Ry

     The total energy is the sum of the following terms:

     one-electron contribution =  -24634.24877891 Ry
     hartree contribution      =   12337.08497904 Ry
     xc contribution           =    -601.93414001 Ry
     ewald contribution        =   10690.51848561 Ry
     Hubbard energy            =       0.96791920 Ry
     smearing contrib. (-TS)   =      -0.00004924 Ry

     convergence has been achieved in  15 iterations

     Forces acting on atoms (Ry/au):

     negative rho (up, down):  0.246E+00 0.000E+00
     atom    1 type  1   force =    -0.00437830   -0.00663097    0.00038572
     atom    2 type  1   force =     0.00003667    0.00457254   -0.00030263
     atom    3 type  2   force =     0.01794814   -0.00236383   -0.00010436
     atom    4 type  2   force =     0.00124927    0.00744835   -0.00050447
     atom    5 type  1   force =     0.00303344    0.00765230   -0.00019351
     atom    6 type  1   force =     0.00151987   -0.00871544   -0.00009941
     atom    7 type  1   force =    -0.00024473   -0.00244238   -0.00010960
     atom    8 type  1   force =     0.00329468    0.00241306   -0.00025321
     atom    9 type  2   force =    -0.04031580   -0.00344519    0.00011820
     atom   10 type  2   force =    -0.00009074    0.00235041   -0.00003395
     atom   11 type  1   force =    -0.02091511   -0.00807494    0.00004456
     atom   12 type  1   force =    -0.01216643    0.01943230    0.00068459
     atom   13 type  1   force =    -0.00021555   -0.00456790    0.00073973
     atom   14 type  1   force =    -0.00170177   -0.00589760    0.00007473
     atom   15 type  1   force =    -0.00002341    0.00358918   -0.00015584
     atom   16 type  2   force =    -0.01791305   -0.00231505   -0.00012779
     atom   17 type  2   force =     0.00180895    0.00758123    0.00045196
     atom   18 type  1   force =     0.00026146    0.00756909   -0.00020044
     atom   19 type  1   force =    -0.00112314   -0.00857077   -0.00013765
     atom   20 type  1   force =    -0.00033606    0.00034362   -0.00021567
     atom   21 type  1   force =     0.00254371    0.00181039   -0.00034833
     atom   22 type  2   force =     0.03674371   -0.00229409    0.00018915
     atom   23 type  2   force =     0.00041865   -0.00775169   -0.00084598
     atom   24 type  1   force =     0.02084585   -0.00891721    0.00006919
     atom   25 type  1   force =     0.01195042    0.01909923    0.00072934
     atom   26 type  1   force =    -0.00070743   -0.01206784    0.00066080
     atom   27 type  3   force =     0.00000304    0.00016708    0.00006149
     atom   28 type  3   force =    -0.00000068    0.00021340   -0.00003231
     atom   29 type  3   force =    -0.00095762   -0.00020540    0.00008377
     atom   30 type  3   force =    -0.00070891   -0.00012854   -0.00004688
     atom   31 type  1   force =    -0.00003715   -0.00050696   -0.00004692
     atom   32 type  1   force =     0.00017703    0.00035684   -0.00014100
     atom   33 type  3   force =     0.00000100    0.00029679   -0.00039326

     Total force =     0.002472     Total SCF correction =     0.000141

     entering subroutine stress ...

     negative rho (up, down):  0.246E+00 0.000E+00
          total   stress  (Ry/bohr**3)                   (kbar)     P=   -7.96
  -0.00004678  -0.00000015   0.00000255         -6.88     -0.02      0.37
  -0.00000015  -0.00007089  -0.00000768         -0.02    -10.43     -1.13
   0.00000255  -0.00000768  -0.00004467          0.37     -1.13     -6.57

     bfgs converged in  10 scf cycles and   9 bfgs steps
     (criteria: energy < 0.10E-03, force < 0.10E-02)

     End of BFGS Geometry Optimization

     Final energy   =   -2207.6115843157 Ry
Begin final coordinates

ATOMIC_POSITIONS (crystal)
O0       0.000000000   0.000000000   0.370043145    0   0   1
O0       0.000000000   0.500000000   0.382416408    0   0   1
Re1      0.250000000   0.500000000   0.442196522    0   0   1
Re1      0.000000000   0.000000000   0.442654211    0   0   1
O0       0.250000000   0.780000000   0.441255874    0   0   1
O0       0.250000000   0.220000000   0.441052932    0   0   1
O0       0.000000000   0.500000000   0.497724622    0   0   1
O0       0.000000000   0.000000000   0.513951627    0   0   1
Re1      0.250000000   0.000000000   0.573590941    0   0   1
Re1      0.000000000   0.500000000   0.567405372    0   0   1
O0       0.250000000   0.720000000   0.570843480    0   0   1
O0       0.250000000   0.280000000   0.572964346    0   0   1
O0       0.000000000   0.000000000   0.625589344    0   0   1
O0       0.500000000   0.000000000   0.370020588    0   0   1
O0       0.500000000   0.500000000   0.382599080    0   0   1
Re1      0.750000000   0.500000000   0.442194247    0   0   1
Re1      0.500000000   0.000000000   0.442310506    0   0   1
O0       0.750000000   0.780000000   0.441191255    0   0   1
O0       0.750000000   0.220000000   0.441155137    0   0   1
O0       0.500000000   0.500000000   0.498072113    0   0   1
O0       0.500000000   0.000000000   0.514133207    0   0   1
Re1      0.750000000   0.000000000   0.573429796    0   0   1
Re1      0.500000000   0.500000000   0.575760213    0   0   1
O0       0.750000000   0.720000000   0.570820102    0   0   1
O0       0.750000000   0.280000000   0.572933109    0   0   1
O0       0.500000000   0.000000000   0.624608870    0   0   1
H2      -0.000240949   0.624609574   0.365376682
H2       0.499598640   0.623553478   0.365026687
H2       0.168492463   0.024950292   0.355593792
H2       0.670432383   0.021965207   0.355927344
O0       0.499497684   0.526416175   0.641200757
O0       0.500787257   0.323423591   0.679802664
H2       0.499912244   0.397493007   0.710885026
End final coordinates

     General routines

     Parallel routines
     Hubbard U routines

   This run was terminated on:   4:35:59   2Jun2014

   JOB DONE.
Running PBS batch system epilogue script
Job id: 373378.audhumbla.fysik.dtu.dk
Username: zhonxu
Groupname: campgst
Jobname: ReO2/Eads-2-layers/OOH-U-1.5
Sessionid: 26220
Queuename: verylong
Accounting:
This job has allocated the following 16 nodes:
b033 b033 b033 b033 b033 b033 b033 b033 b007 b007 b007 b007 b007 b007 b007 b007
Finished epilogue job 373378.audhumbla.fysik.dtu.dk for zhonxu