     Program PWSCF v.5.0.2 (svn rev. 9656) starts on 14Feb2014 at 13:45:53

     Current dimensions of program PWSCF are:
     Max number of different atomic species (ntypx) = 10
     Max number of k-points (npk) =  40000
     Max angular momentum in pseudopotentials (lmaxx) =  3
     Reading input from alpha_-0.07/alpha_-0.07.in
Warning: card &IONS ignored
Warning: card / ignored
Warning: card &CELL ignored
Warning: card / ignored

     Subspace diagonalization in iterative solution of the eigenvalue problem:
     a serial algorithm will be used

     bravais-lattice index     =            0
     lattice parameter (alat)  =      17.1965  a.u.
     unit-cell volume          =    3475.9200 (a.u.)^3
     number of atoms/cell      =           48
     number of atomic types    =            3
     number of electrons       =       432.00
     number of Kohn-Sham states=          648
     kinetic-energy cutoff     =      40.0000  Ry
     charge density cutoff     =     500.0000  Ry
     convergence threshold     =      1.0E-06
     mixing beta               =       0.7000
     number of iterations used =            8  plain     mixing
     Exchange-correlation      = SLA  PW   PBE  PBE ( 1 4 3 4 0)
     EXX-fraction              =        0.00

     celldm(1)=  17.196508  celldm(2)=   0.000000  celldm(3)=   0.000000
     celldm(4)=   0.000000  celldm(5)=   0.000000  celldm(6)=   0.000000

     crystal axes: (cart. coord. in units of alat)
               a(1) = (   1.000000   0.000000   0.000000 )
               a(2) = (   0.000000   1.000000   0.000000 )
               a(3) = (   0.000000   0.000000   0.683516 )

     reciprocal axes: (cart. coord. in units 2 pi/alat)
               b(1) = (  1.000000  0.000000  0.000000 )
               b(2) = (  0.000000  1.000000  0.000000 )
               b(3) = (  0.000000  0.000000  1.463023 )

     PseudoPot. # 1 for Rh read from file:
     /home/camp/zhonxu/pseudo/rh_pbe_v1.uspp.F.UPF
     MD5 check sum: 37b626987ad0dd8ec6bf4cc9ef289918
     Pseudo is Ultrasoft + core correction, Zval = 15.0
     Generated by new atomic code, or converted to UPF format
     Using radial grid of  969 points,  7 beta functions with:
                l(1) =   0
                l(2) =   0
                l(3) =   1
                l(4) =   1
                l(5) =   2
                l(6) =   2
                l(7) =   2
     Q(r) pseudized with  6 coefficients,  rinner =    1.050   1.050   1.050
                                                       1.050   1.050

     PseudoPot. # 2 for O  read from file:
     /home/camp/zhonxu/pseudo/o_pbe_v1.01.uspp.F.UPF
     MD5 check sum: 2bcb18d16ea4b960afae9ec6d52f22d2
     Pseudo is Ultrasoft + core correction, Zval =  6.0
     Generated by new atomic code, or converted to UPF format
     Using radial grid of  737 points,  5 beta functions with:
                l(1) =   0
                l(2) =   0
                l(3) =   1
                l(4) =   1
                l(5) =   2
     Q(r) pseudized with  8 coefficients,  rinner =    0.900   0.900   0.900
                                                       0.900   0.900

     PseudoPot. # 3 for O  read from file:
     /home/camp/zhonxu/pseudo/o_pbe_v1.01.uspp.F.UPF
     MD5 check sum: 2bcb18d16ea4b960afae9ec6d52f22d2
     Pseudo is Ultrasoft + core correction, Zval =  6.0
     Generated by new atomic code, or converted to UPF format
     Using radial grid of  737 points,  5 beta functions with:
                l(1) =   0
                l(2) =   0
                l(3) =   1
                l(4) =   1
                l(5) =   2
     Q(r) pseudized with  8 coefficients,  rinner =    0.900   0.900   0.900
                                                       0.900   0.900

     atomic species   valence    mass     pseudopotential
        Rh0           15.00   102.90550     Rh( 1.00)
        O1             6.00    15.99940     O ( 1.00)
        O2             6.00    15.99940     O ( 1.00)

     Starting magnetic structure
     atomic species   magnetization
        Rh0          0.000
        O1           0.000
        O2           0.000

     Simplified LDA+U calculation (l_max = 2) with parameters (eV):
     atomic species    L          U    alpha       J0     beta
        Rh0            2     0.0000   0.0000   0.0000   0.0000
        O1             1     0.0000  -0.0700   0.0000   0.0000
        O2             1     0.0000   0.0000   0.0000   0.0000

      4 Sym. Ops. (no inversion) found

   Cartesian axes

     site n.     atom                  positions (alat units)
         1           Rh0 tau(   1) = (  -0.1550000  -0.1550000   0.0000000  )
         2           Rh0 tau(   2) = (   0.0950000   0.0950000   0.1708791  )
         3           Rh0 tau(   3) = (  -0.1550000  -0.1550000   0.3417582  )
         4           Rh0 tau(   4) = (   0.0950000   0.0950000   0.5126374  )
         5           Rh0 tau(   5) = (  -0.1550000   0.3450000   0.0000000  )
         6           Rh0 tau(   6) = (   0.0950000   0.5950000   0.1708791  )
         7           Rh0 tau(   7) = (  -0.1550000   0.3450000   0.3417582  )
         8           Rh0 tau(   8) = (   0.0950000   0.5950000   0.5126374  )
         9           Rh0 tau(   9) = (   0.3450000  -0.1550000   0.0000000  )
        10           Rh0 tau(  10) = (   0.5950000   0.0950000   0.1708791  )
        11           Rh0 tau(  11) = (   0.3450000  -0.1550000   0.3417582  )
        12           Rh0 tau(  12) = (   0.5950000   0.0950000   0.5126374  )
        13           Rh0 tau(  13) = (   0.3450000   0.3450000   0.0000000  )
        14           Rh0 tau(  14) = (   0.5950000   0.5950000   0.1708791  )
        15           Rh0 tau(  15) = (   0.3450000   0.3450000   0.3417582  )
        16           Rh0 tau(  16) = (   0.5950000   0.5950000   0.5126374  )
        17           O1  tau(  17) = (   0.0000000   0.0000000   0.0000000  )
        18           O2  tau(  18) = (  -0.3100000  -0.3100000   0.0000000  )
        19           O2  tau(  19) = (   0.2500000  -0.0600000   0.1708791  )
        20           O2  tau(  20) = (  -0.0600000   0.2500000   0.1708791  )
        21           O2  tau(  21) = (   0.0000000   0.0000000   0.3417582  )
        22           O2  tau(  22) = (  -0.3100000  -0.3100000   0.3417582  )
        23           O2  tau(  23) = (   0.2500000  -0.0600000   0.5126374  )
        24           O2  tau(  24) = (  -0.0600000   0.2500000   0.5126374  )
        25           O2  tau(  25) = (   0.0000000   0.5000000   0.0000000  )
        26           O2  tau(  26) = (  -0.3100000   0.1900000   0.0000000  )
        27           O2  tau(  27) = (   0.2500000   0.4400000   0.1708791  )
        28           O2  tau(  28) = (  -0.0600000   0.7500000   0.1708791  )
        29           O2  tau(  29) = (   0.0000000   0.5000000   0.3417582  )
        30           O2  tau(  30) = (  -0.3100000   0.1900000   0.3417582  )
        31           O2  tau(  31) = (   0.2500000   0.4400000   0.5126374  )
        32           O2  tau(  32) = (  -0.0600000   0.7500000   0.5126374  )
        33           O2  tau(  33) = (   0.5000000   0.0000000   0.0000000  )
        34           O2  tau(  34) = (   0.1900000  -0.3100000   0.0000000  )
        35           O2  tau(  35) = (   0.7500000  -0.0600000   0.1708791  )
        36           O2  tau(  36) = (   0.4400000   0.2500000   0.1708791  )
        37           O2  tau(  37) = (   0.5000000   0.0000000   0.3417582  )
        38           O2  tau(  38) = (   0.1900000  -0.3100000   0.3417582  )
        39           O2  tau(  39) = (   0.7500000  -0.0600000   0.5126374  )
        40           O2  tau(  40) = (   0.4400000   0.2500000   0.5126374  )
        41           O2  tau(  41) = (   0.5000000   0.5000000   0.0000000  )
        42           O2  tau(  42) = (   0.1900000   0.1900000   0.0000000  )
        43           O2  tau(  43) = (   0.7500000   0.4400000   0.1708791  )
        44           O2  tau(  44) = (   0.4400000   0.7500000   0.1708791  )
        45           O2  tau(  45) = (   0.5000000   0.5000000   0.3417582  )
        46           O2  tau(  46) = (   0.1900000   0.1900000   0.3417582  )
        47           O2  tau(  47) = (   0.7500000   0.4400000   0.5126374  )
        48           O2  tau(  48) = (   0.4400000   0.7500000   0.5126374  )

     number of k points=    42  Methfessel-Paxton smearing, width (Ry)=  0.0100
                       cart. coord. in units 2pi/alat
        k(    1) = (   0.0000000   0.0000000   0.0000000), wk =   0.0156250
        k(    2) = (   0.0000000   0.0000000   0.3657556), wk =   0.0312500
        k(    3) = (   0.0000000   0.0000000  -0.7315113), wk =   0.0156250
        k(    4) = (   0.0000000   0.2500000   0.0000000), wk =   0.0625000
        k(    5) = (   0.0000000   0.2500000   0.3657556), wk =   0.1250000
        k(    6) = (   0.0000000   0.2500000  -0.7315113), wk =   0.0625000
        k(    7) = (   0.0000000  -0.5000000   0.0000000), wk =   0.0312500
        k(    8) = (   0.0000000  -0.5000000   0.3657556), wk =   0.0625000
        k(    9) = (   0.0000000  -0.5000000  -0.7315113), wk =   0.0312500
        k(   10) = (   0.2500000   0.2500000   0.0000000), wk =   0.0312500
        k(   11) = (   0.2500000   0.2500000   0.3657556), wk =   0.0625000
        k(   12) = (   0.2500000   0.2500000  -0.7315113), wk =   0.0312500
        k(   13) = (   0.2500000  -0.5000000   0.0000000), wk =   0.0625000
        k(   14) = (   0.2500000  -0.5000000   0.3657556), wk =   0.1250000
        k(   15) = (   0.2500000  -0.5000000  -0.7315113), wk =   0.0625000
        k(   16) = (  -0.5000000  -0.5000000   0.0000000), wk =   0.0156250
        k(   17) = (  -0.5000000  -0.5000000   0.3657556), wk =   0.0312500
        k(   18) = (  -0.5000000  -0.5000000  -0.7315113), wk =   0.0156250
        k(   19) = (   0.2500000  -0.2500000   0.0000000), wk =   0.0312500
        k(   20) = (   0.2500000  -0.2500000   0.3657556), wk =   0.0625000
        k(   21) = (   0.2500000  -0.2500000  -0.7315113), wk =   0.0312500
        k(   22) = (   0.0000000   0.0000000   0.0000000), wk =   0.0156250
        k(   23) = (   0.0000000   0.0000000   0.3657556), wk =   0.0312500
        k(   24) = (   0.0000000   0.0000000  -0.7315113), wk =   0.0156250
        k(   25) = (   0.0000000   0.2500000   0.0000000), wk =   0.0625000
        k(   26) = (   0.0000000   0.2500000   0.3657556), wk =   0.1250000
        k(   27) = (   0.0000000   0.2500000  -0.7315113), wk =   0.0625000
        k(   28) = (   0.0000000  -0.5000000   0.0000000), wk =   0.0312500
        k(   29) = (   0.0000000  -0.5000000   0.3657556), wk =   0.0625000
        k(   30) = (   0.0000000  -0.5000000  -0.7315113), wk =   0.0312500
        k(   31) = (   0.2500000   0.2500000   0.0000000), wk =   0.0312500
        k(   32) = (   0.2500000   0.2500000   0.3657556), wk =   0.0625000
        k(   33) = (   0.2500000   0.2500000  -0.7315113), wk =   0.0312500
        k(   34) = (   0.2500000  -0.5000000   0.0000000), wk =   0.0625000
        k(   35) = (   0.2500000  -0.5000000   0.3657556), wk =   0.1250000
        k(   36) = (   0.2500000  -0.5000000  -0.7315113), wk =   0.0625000
[...]
    eigenvectors:
  0.000  1.000  0.000
  0.500  0.000  0.500
  0.500  0.000  0.500
    occupations:
  0.866 -0.000 -0.000
 -0.000  0.882 -0.024
 -0.000 -0.024  0.882
   spin  2
    eigenvalues:
  0.858  0.866  0.906
    eigenvectors:
  0.000  1.000  0.000
  0.500  0.000  0.500
  0.500  0.000  0.500
    occupations:
  0.866 -0.000 -0.000
 -0.000  0.882 -0.024
 -0.000 -0.024  0.882
atomic mag. moment =     0.000000
atom   42   Tr[ns(na)] (up, down, total) =   2.63028  2.63028  5.26057
   spin  1
    eigenvalues:
  0.858  0.866  0.906
    eigenvectors:
  0.000  1.000  0.000
  0.500  0.000  0.500
  0.500  0.000  0.500
    occupations:
  0.866 -0.000 -0.000
 -0.000  0.882 -0.024
 -0.000 -0.024  0.882
   spin  2
    eigenvalues:
  0.858  0.866  0.906
    eigenvectors:
  0.000  1.000  0.000
  0.500  0.000  0.500
  0.500  0.000  0.500
    occupations:
  0.866 -0.000 -0.000
 -0.000  0.882 -0.024
 -0.000 -0.024  0.882
atomic mag. moment =     0.000000
atom   43   Tr[ns(na)] (up, down, total) =   2.63040  2.63040  5.26080
   spin  1
    eigenvalues:
  0.858  0.866  0.906
    eigenvectors:
  0.000  1.000  0.000
  0.500  0.000  0.500
  0.500  0.000  0.500
    occupations:
  0.866  0.000  0.000
  0.000  0.882  0.024
  0.000  0.024  0.882
   spin  2
    eigenvalues:
  0.858  0.866  0.906
    eigenvectors:
  0.000  1.000  0.000
  0.500  0.000  0.500
  0.500  0.000  0.500
    occupations:
  0.866  0.000  0.000
  0.000  0.882  0.024
  0.000  0.024  0.882
atomic mag. moment =     0.000000
atom   44   Tr[ns(na)] (up, down, total) =   2.63040  2.63040  5.26080
   spin  1
    eigenvalues:
  0.858  0.866  0.906
    eigenvectors:
  0.000  1.000  0.000
  0.500  0.000  0.500
  0.500  0.000  0.500
    occupations:
  0.866  0.000  0.000
  0.000  0.882  0.024
  0.000  0.024  0.882
   spin  2
    eigenvalues:
  0.858  0.866  0.906
    eigenvectors:
  0.000  1.000  0.000
  0.500  0.000  0.500
  0.500  0.000  0.500
    occupations:
  0.866  0.000  0.000
  0.000  0.882  0.024
  0.000  0.024  0.882
atomic mag. moment =     0.000000
atom   45   Tr[ns(na)] (up, down, total) =   2.63039  2.63039  5.26079
   spin  1
    eigenvalues:
  0.858  0.866  0.906
    eigenvectors:
  0.000  1.000  0.000
  0.500  0.000  0.500
  0.500  0.000  0.500
    occupations:
  0.866 -0.000 -0.000
 -0.000  0.882 -0.024
 -0.000 -0.024  0.882
   spin  2
    eigenvalues:
  0.858  0.866  0.906
    eigenvectors:
  0.000  1.000  0.000
  0.500  0.000  0.500
  0.500  0.000  0.500
    occupations:
  0.866 -0.000 -0.000
 -0.000  0.882 -0.024
 -0.000 -0.024  0.882
atomic mag. moment =     0.000000
atom   46   Tr[ns(na)] (up, down, total) =   2.63038  2.63038  5.26076
   spin  1
    eigenvalues:
  0.858  0.866  0.906
    eigenvectors:
  0.000  1.000  0.000
  0.500  0.000  0.500
  0.500  0.000  0.500
    occupations:
  0.866 -0.000 -0.000
 -0.000  0.882 -0.024
 -0.000 -0.024  0.882
   spin  2
    eigenvalues:
  0.858  0.866  0.906
    eigenvectors:
  0.000  1.000  0.000
  0.500  0.000  0.500
  0.500  0.000  0.500
    occupations:
  0.866 -0.000 -0.000
 -0.000  0.882 -0.024
 -0.000 -0.024  0.882
atomic mag. moment =    -0.000000
atom   47   Tr[ns(na)] (up, down, total) =   2.63040  2.63040  5.26080
   spin  1
    eigenvalues:
  0.858  0.866  0.906
    eigenvectors:
  0.000  1.000  0.000
  0.500  0.000  0.500
  0.500  0.000  0.500
    occupations:
  0.866 -0.000 -0.000
 -0.000  0.882  0.024
 -0.000  0.024  0.882
   spin  2
    eigenvalues:
  0.858  0.866  0.906
    eigenvectors:
  0.000  1.000  0.000
  0.500  0.000  0.500
  0.500  0.000  0.500
    occupations:
  0.866 -0.000 -0.000
 -0.000  0.882  0.024
 -0.000  0.024  0.882
atomic mag. moment =     0.000000
atom   48   Tr[ns(na)] (up, down, total) =   2.63040  2.63040  5.26080
   spin  1
    eigenvalues:
  0.858  0.866  0.906
    eigenvectors:
  0.000  1.000  0.000
  0.500  0.000  0.500
  0.500  0.000  0.500
    occupations:
  0.866 -0.000 -0.000
 -0.000  0.882  0.024
 -0.000  0.024  0.882
   spin  2
    eigenvalues:
  0.858  0.866  0.906
    eigenvectors:
  0.000  1.000  0.000
  0.500  0.000  0.500
  0.500  0.000  0.500
    occupations:
  0.866 -0.000 -0.000
 -0.000  0.882  0.024
 -0.000  0.024  0.882
atomic mag. moment =     0.000000
N of occupied +U levels = 295.7073866
 --- exit write_ns ---

 ------ SPIN UP ------------

          k = 0.0000 0.0000 0.0000 ( 14907 PWs)   bands (ev):

   -36.1838 -36.1838 -36.1837 -36.1835 -36.1776 -36.1776 -36.1774 -36.1773
   -36.1597 -36.1596 -36.1591 -36.1590 -36.1575 -36.1573 -36.1573 -36.1571
   -36.1497 -36.1496 -36.1493 -36.1492 -36.1443 -36.1443 -36.1442 -36.1439
   -36.0690 -36.0626 -36.0625 -36.0624 -36.0623 -36.0620 -36.0618 -36.0561
   -35.9691 -35.9689 -35.9689 -35.9686 -35.9669 -35.9669 -35.9664 -35.9662
   -35.9508 -35.9508 -35.9508 -35.9506 -35.9506 -35.9505 -35.9504 -35.9503
    -8.2669  -7.6443  -7.6420  -7.5767  -7.5765  -7.5763  -7.5716  -7.1895
    -7.1070  -7.1069  -7.1069  -7.1023  -7.0109  -7.0083  -6.8978  -6.8966
    -6.8941  -6.8903  -6.8019  -6.7994  -6.6916  -6.6914  -6.6914  -6.6863
    -6.5760  -6.5759  -6.5759  -6.5706  -6.4520  -6.4490  -6.3190  -6.3162
     3.3277   3.3946   3.3968   3.4354   4.3355   4.3379   4.3388   4.3389
     4.3539   4.3567   4.3572   4.3572   4.5244   4.5245   4.6242   4.6254
     4.6887   4.6899   4.7726   4.7747   4.7747   4.7748   4.8651   4.9015
     4.9015   4.9156   4.9173   5.0329   5.0349   5.0349   5.0350   5.3770
     5.3789   5.6861   5.6865   5.8991   5.8998   6.1304   6.1319   6.1324
     6.1326   6.4432   6.4454   6.4461   6.4462   6.5530   6.5547   6.5561
     6.5562   6.7230   6.7240   6.7422   6.7431   7.1494   7.1510   7.1633
     7.1644   7.1755   7.1758   7.1765   7.1768   7.3864   7.3879   7.4932
     7.4954   7.4955   7.4959   7.5310   7.5326   7.5327   7.5334   7.6143
     7.6611   7.6612   8.1067   8.1075   8.3780   8.3795   8.4622   8.4626
     9.0763   9.0869   9.0871   9.0872   9.0872   9.0876   9.0877   9.1544
     9.1689   9.1695   9.2217   9.2240   9.2242   9.2243   9.2626   9.3069
     9.3072   9.3150   9.3150   9.3363   9.3364   9.3770   9.3795   9.3796
     9.3797   9.6988   9.6991   9.8183   9.8186   9.8572   9.8574   9.8574
     9.8581   9.8733   9.8737   9.9441  10.3201  10.3334  10.3337  10.3339
    10.3342  10.3657  10.3661  10.3662  10.3666  10.5937  10.5942  10.8750
    10.8755  11.2530  11.2535  11.3443  11.3450  11.3450  11.3453  11.7472
    11.8816  11.8819  11.9157  11.9159  12.0278  12.0282  12.0283  12.0285
    12.2785  12.2786  12.2787  12.2794  12.4317  13.5853  13.5856  13.6086
    13.6088  13.6220  13.6223  13.7866  13.7873  14.0658  14.0659  14.4422
    14.4424  14.4424  14.4428  14.8090  14.8090  14.8091  14.8093  15.1760
    15.1761  15.1920  15.1921  15.4353  15.4354  15.4356  15.4356  16.0964
    17.6203  20.0468  20.0473  20.0478  20.0492  21.3949  21.3953  21.5070
    21.5072  22.0627  22.0630  22.2911  22.2912  22.2920  22.2920  22.3155
    22.3161  22.3512  22.3516  23.0783  23.0784  23.0785  23.0794  23.9360
    23.9362  23.9867  23.9871  23.9876  23.9884  24.4604  24.4604  25.0149
    25.0978  25.0983  25.1515  25.2256  25.2257  25.6030  25.6033  26.1132
    26.1135  26.1137  26.1140  26.1481  26.1486  26.1489  26.1493  26.1495
    26.1513  26.2946  26.2947  26.5885  26.7889  26.7889  26.7892  26.7893
    27.1454  27.1455  27.7763  27.8032  27.8034  27.8043  27.8046  27.8770
    27.8770  28.1146  28.1153  28.1155  28.1162  28.4549  28.4550  28.4560
    28.4562  28.8195  29.0672  29.0674  29.4885  29.4895  29.5152  29.7561
    29.7564  30.2527  30.2528  30.2536  30.2537  30.7193  30.7195  30.7208
    30.7212  31.0557  31.0558  31.2216  31.2219  31.3082  31.3083  31.7509
    31.8749  31.8755  31.8756  31.8764  31.9099  31.9099  33.0783  33.0787
    33.0919  33.0920  33.0924  33.0930  33.1350  33.1351  33.5659  33.5663
    34.1002  34.1013  34.4644  34.4645  34.9774  34.9776  34.9777  34.9786
    35.0544  35.0550  35.4635  35.4640  35.4641  35.4650  35.5196  35.8476
    35.8482  35.8556  35.8558  35.9736  35.9737  36.6536  36.6537  37.2170
    37.2174  37.2178  37.2178  37.2949  37.2953  37.2956  37.2958  37.3404
    37.3410  37.3411  37.3413  37.4725  37.4728  37.4735  37.4736  37.6645
    37.6650  38.1914  38.4766  38.4772  38.5808  38.5815  38.6876  38.6880
    38.6882  38.6885  38.8769  38.8769  39.0221  39.0784  39.0792  39.2139
    39.2140  39.2140  39.2143  39.3590  39.4212  39.4221  39.7014  39.7020
    39.7172  39.8196  39.8199  39.8212  39.8543  39.8543  39.8552  39.8553
    39.8554  39.8556  39.8567  39.8568  39.8613  39.8614  39.8615  39.8617
    39.8653  39.8656  39.8658  39.8667  39.9073  39.9083  39.9086  40.0612
    41.3662  41.3665  41.7856  41.7862  41.9470  41.9474  42.1512  42.1513
    42.1518  42.1520  42.1540  42.1691  42.1692  42.1693  42.1697  42.4756
    42.4907  42.4912  42.6311  42.6316  42.6318  42.6326  42.7150  42.7154
[...]
    47.5683  47.8036  47.8039  48.0574  48.0576  48.2306  48.2308  48.2320
    48.2323  48.3045  48.3046  48.3050  48.3052  48.3598  48.3606  48.6951
    48.6952  48.6958  48.6962  48.6993  48.7000  48.8262  48.8264  48.8270
    48.8272  48.9378  48.9379  48.9405  48.9408  49.1638  49.1641  49.2681
    49.2688  49.5533  49.5534  49.5542  49.5546  49.6109  49.6112  49.6113
    49.6121  49.8330  49.8332  50.3543  50.3547  50.5673  50.5674  50.5841
    50.5842  50.6605  50.6605  50.6606  50.6610  50.8070  50.8071  50.9889
    50.9890  51.3069  51.3073  51.3373  51.3458  51.3461  51.3463  51.3472
    51.5301  51.5302  51.5303  51.5304  51.5551  51.5557  51.8603  51.9183
    51.9184  51.9746  52.0757  52.0765  52.3312  52.3313  52.3315  52.3315
    52.4455  52.4458  52.4822  52.4824  52.7763  52.7764  52.7765  52.7768
    52.8478  53.2995  53.5377  53.5379  53.5589  53.5590  53.6854  53.8322
    53.8437  53.8445  53.9759  53.9759  53.9760  53.9763  54.4499  54.4502
    54.8803  54.8806  54.8807  54.8811  54.9246  54.9250  54.9252  54.9255
    55.1510  55.1514  55.3501  55.3501  55.4800  55.4801  55.5047  55.5754

[...]

          k =-0.5000-0.5000 0.0000 ( 14848 PWs)   bands (ev):

[...]

 ------ SPIN DOWN ----------

[...]

          k =-0.5000-0.5000-0.7315 ( 14864 PWs)   bands (ev):

[...]

          k = 0.2500-0.2500-0.7315 ( 14880 PWs)   bands (ev):

   -36.1562 -36.1561 -36.1561 -36.1560 -36.1556 -36.1556 -36.1555 -36.1555
   -36.1554 -36.1554 -36.1550 -36.1549 -36.1547 -36.1546 -36.1543 -36.1543
   -36.1230 -36.1229 -36.1208 -36.1208 -36.1199 -36.1198 -36.1198 -36.1196
   -36.1187 -36.1187 -36.1168 -36.1168 -36.1167 -36.1165 -36.1157 -36.1157
   -35.9597 -35.9597 -35.9595 -35.9594 -35.9594 -35.9593 -35.9591 -35.9591
   -35.9590 -35.9590 -35.9589 -35.9588 -35.9588 -35.9586 -35.9586 -35.9583
    -7.7076  -7.7047  -7.4351  -7.4350  -7.4349  -7.4317  -7.3451  -7.3404
    -7.1928  -7.1928  -7.0469  -7.0466  -7.0466  -7.0392  -6.9548  -6.9525
    -6.8057  -6.8055  -6.8053  -6.7982  -6.7356  -6.7353  -6.6809  -6.6808
    -6.6808  -6.6797  -6.6708  -6.6708  -6.6638  -6.6578  -6.5841  -6.5778
     3.9724   3.9752   4.0337   4.0372   4.3152   4.3153   4.3155   4.3155
     4.3343   4.3343   4.3539   4.3546   4.7002   4.7022   4.7275   4.7276
     4.7298   4.7298   4.8306   4.8316   4.9180   4.9201   4.9201   4.9201
     4.9245   4.9258   5.1558   5.1603   5.1609   5.1609   5.1760   5.1763
     5.5716   5.5747   5.5760   5.5762   5.7632   5.7646   5.9274   5.9277
     6.0406   6.0413   6.0416   6.0417   6.1030   6.1033   6.5764   6.5795
     6.6160   6.6173   6.6178   6.6180   6.7318   6.7342   6.9229   6.9238
     7.0102   7.0115   7.0131   7.0132   7.5223   7.5233   7.5236   7.5238
     7.5242   7.5243   7.5484   7.5487   7.5793   7.5794   7.5903   7.5903
     7.6739   7.6745   7.6746   7.6747   7.8779   7.8787   8.0786   8.0796
     8.1352   8.1364   8.2457   8.2465   8.4114   8.4115   8.4119   8.4120
     8.7422   8.7428   9.0059   9.0069   9.0072   9.0075   9.2346   9.2346
     9.7609   9.7617   9.9313   9.9314   9.9729   9.9730   9.9766   9.9781
     9.9782   9.9784  10.3679  10.3680  10.3962  10.3964  10.4081  10.4081
    10.4081  10.4082  10.4959  10.4961  10.5614  10.5616  10.5616  10.5619
    10.6206  10.6214  10.8401  10.8402  10.8403  10.8405  10.9538  10.9545
    11.2714  11.2715  11.3366  11.3368  11.3717  11.3723  11.3724  11.3725
    11.4468  11.4470  11.5877  11.5883  11.5884  11.5884  11.8730  11.8732
    13.0335  13.0338  13.1107  13.1111  13.1111  13.1124  13.4773  13.4773
    13.4774  13.4775  13.5168  13.5169  13.7835  13.7836  14.0279  14.0281
    14.2075  14.2079  14.2322  14.2326  14.5402  14.5402  14.5403  14.5405
    14.7620  14.7621  15.2319  15.2321  15.2321  15.2323  15.2352  15.2353
    19.6081  19.6091  20.5887  20.5893  20.5896  20.5915  21.3039  21.3053
    22.0118  22.0124  22.0127  22.0147  22.2104  22.2118  23.1075  23.1089
    23.1366  23.1370  23.1946  23.1961  23.7993  23.7999  23.8005  23.8014
    23.8658  23.8668  24.5826  24.5833  24.5838  24.5838  24.6240  24.6240
    24.9524  24.9526  25.3043  25.3046  25.3049  25.3052  25.3501  25.3503
    25.5375  25.5391  25.8236  25.8244  25.8245  25.8254  26.1974  26.1978
    26.8185  26.8190  26.8196  26.8203  26.9576  26.9577  26.9866  26.9879
    27.1864  27.1867  27.3445  27.3446  27.3447  27.3467  27.6037  27.6042
    27.6855  27.6861  27.8724  27.8724  27.8729  27.8735  28.0826  28.0826
    28.1651  28.1661  28.7244  28.7245  28.7250  28.7254  28.7912  28.7923
    28.9800  28.9807  29.8360  29.8364  29.8365  29.8370  30.7049  30.7050
    31.0284  31.0292  31.0293  31.0301  31.7848  31.7856  31.8296  31.8307
    31.8939  31.8943  31.8947  31.8954  32.4275  32.4279  32.9662  32.9664
    33.2245  33.2246  33.7104  33.7105  33.7112  33.7117  34.3072  34.3074
    34.5430  34.5448  34.7626  34.7628  35.0438  35.0449  35.0528  35.0529
    35.0530  35.0534  35.1507  35.1520  35.4096  35.4102  35.4406  35.4408
    35.4414  35.4418  36.2411  36.2418  36.3043  36.3044  36.3049  36.3051
    36.5418  36.5419  36.5421  36.5430  36.7360  36.7363  37.7342  37.7345
    37.7346  37.7354  37.7510  37.7516  38.1448  38.1457  38.2304  38.2314
    38.2338  38.2344  38.3505  38.3510  38.3513  38.3518  38.5533  38.5534
    38.6612  38.6619  38.7542  38.7549  38.7555  38.7560  38.8217  38.8223
    38.8879  38.8884  39.2463  39.2465  39.2826  39.2826  39.2829  39.2835
    39.8479  39.8487  39.8487  39.8491  39.8491  39.8492  39.8504  39.8507
    39.8525  39.8525  39.8531  39.8531  39.8555  39.8555  39.8555  39.8556
    40.0161  40.0165  40.0530  40.0534  40.0537  40.0545  40.9767  40.9777
    41.3571  41.3573  41.4660  41.4662  41.4663  41.4665  41.5119  41.5121
    41.5485  41.5488  42.0466  42.0471  42.0675  42.0678  42.5313  42.5314
    42.5318  42.5327  43.0407  43.0410  43.0412  43.0415  43.5431  43.5442
[...]
    47.3558  47.3571  47.3897  47.3900  47.5895  47.5899  47.5902  47.5906
    47.7341  47.7343  47.7343  47.7348  47.9583  47.9587  48.4931  48.4934
    48.6972  48.6976  48.8428  48.8434  48.8436  48.8444  48.8769  48.8782
    48.9913  48.9922  49.0153  49.0157  49.0162  49.0163  49.2391  49.2397
    49.2760  49.2764  49.5365  49.5370  49.5753  49.5754  49.5754  49.5757
    49.7956  49.7962  49.8148  49.8154  50.0017  50.0024  50.2163  50.2168
    50.2170  50.2176  50.4135  50.4138  50.4142  50.4143  50.8892  50.8899
    50.8917  50.8918  50.8924  50.8929  50.9687  50.9700  51.4642  51.4646
    51.4648  51.4654  51.5125  51.5126  51.5584  51.5589  52.0104  52.0107
    52.1117  52.1125  52.3690  52.3696  52.7271  52.7274  52.7276  52.7282
    52.8516  52.8518  53.1034  53.1039  53.2706  53.2710  53.2786  53.2790
    53.2792  53.2793  53.6880  53.6882  54.1199  54.1203  54.1206  54.1214
    54.2598  54.2610  54.3518  54.3521  54.4379  54.4383  54.4385  54.4394
    54.4531  54.4537  54.4935  54.4945  54.9120  54.9122  54.9122  54.9125
    55.0377  55.0381  55.1791  55.1791  55.5146  55.5147  55.5152  55.5155

     the Fermi energy is    11.6238 ev

!    total energy              =   -3758.59548728 Ry
     Harris-Foulkes estimate   =   -3758.59548751 Ry
     estimated scf accuracy    <       0.00000025 Ry

     The total energy is the sum of the following terms:

     one-electron contribution =   -1108.34262363 Ry
     hartree contribution      =     841.91531378 Ry
     xc contribution           =    -696.48190792 Ry
     ewald contribution        =   -2795.66030549 Ry
     Hubbard energy            =      -0.02709457 Ry
     smearing contrib. (-TS)   =       0.00113056 Ry

     total magnetization       =     0.00 Bohr mag/cell
     absolute magnetization    =     0.00 Bohr mag/cell

     convergence has been achieved in  10 iterations

     Writing output data file pwscf.save

     General routines

     Parallel routines
     Hubbard U routines

   This run was terminated on:  18:44:50  14Feb2014

   JOB DONE.