     Program PWSCF v.5.0.2 (svn rev. 9656) starts on 15Feb2014 at  3: 7:30

     Current dimensions of program PWSCF are:
     Max number of different atomic species (ntypx) = 10
     Max number of k-points (npk) =  40000
     Max angular momentum in pseudopotentials (lmaxx) =  3
     Reading input from alpha_0.15/alpha_0.15.in
Warning: card &IONS ignored
Warning: card / ignored
Warning: card &CELL ignored
Warning: card / ignored

     Subspace diagonalization in iterative solution of the eigenvalue problem:
     a serial algorithm will be used

     bravais-lattice index     =            0
     lattice parameter (alat)  =      17.1965  a.u.
     unit-cell volume          =    3475.9200 (a.u.)^3
     number of atoms/cell      =           48
     number of atomic types    =            3
     number of electrons       =       432.00
     number of Kohn-Sham states=          648
     kinetic-energy cutoff     =      40.0000  Ry
     charge density cutoff     =     500.0000  Ry
     convergence threshold     =      1.0E-06
     mixing beta               =       0.7000
     number of iterations used =            8  plain     mixing
     Exchange-correlation      = SLA  PW   PBE  PBE ( 1 4 3 4 0)
     EXX-fraction              =        0.00

     celldm(1)=  17.196508  celldm(2)=   0.000000  celldm(3)=   0.000000
     celldm(4)=   0.000000  celldm(5)=   0.000000  celldm(6)=   0.000000

     crystal axes: (cart. coord. in units of alat)
               a(1) = (   1.000000   0.000000   0.000000 )
               a(2) = (   0.000000   1.000000   0.000000 )
               a(3) = (   0.000000   0.000000   0.683516 )

     reciprocal axes: (cart. coord. in units 2 pi/alat)
               b(1) = (  1.000000  0.000000  0.000000 )
               b(2) = (  0.000000  1.000000  0.000000 )
               b(3) = (  0.000000  0.000000  1.463023 )

     PseudoPot. # 1 for Rh read from file:
     /home/camp/zhonxu/pseudo/rh_pbe_v1.uspp.F.UPF
     MD5 check sum: 37b626987ad0dd8ec6bf4cc9ef289918
     Pseudo is Ultrasoft + core correction, Zval = 15.0
     Generated by new atomic code, or converted to UPF format
     Using radial grid of  969 points,  7 beta functions with:
                l(1) =   0
                l(2) =   0
                l(3) =   1
                l(4) =   1
                l(5) =   2
                l(6) =   2
                l(7) =   2
     Q(r) pseudized with  6 coefficients,  rinner =    1.050   1.050   1.050
                                                       1.050   1.050

     PseudoPot. # 2 for O  read from file:
     /home/camp/zhonxu/pseudo/o_pbe_v1.01.uspp.F.UPF
     MD5 check sum: 2bcb18d16ea4b960afae9ec6d52f22d2
     Pseudo is Ultrasoft + core correction, Zval =  6.0
     Generated by new atomic code, or converted to UPF format
     Using radial grid of  737 points,  5 beta functions with:
                l(1) =   0
                l(2) =   0
                l(3) =   1
                l(4) =   1
                l(5) =   2
     Q(r) pseudized with  8 coefficients,  rinner =    0.900   0.900   0.900
                                                       0.900   0.900

     PseudoPot. # 3 for O  read from file:
     /home/camp/zhonxu/pseudo/o_pbe_v1.01.uspp.F.UPF
     MD5 check sum: 2bcb18d16ea4b960afae9ec6d52f22d2
     Pseudo is Ultrasoft + core correction, Zval =  6.0
     Generated by new atomic code, or converted to UPF format
     Using radial grid of  737 points,  5 beta functions with:
                l(1) =   0
                l(2) =   0
                l(3) =   1
                l(4) =   1
                l(5) =   2
     Q(r) pseudized with  8 coefficients,  rinner =    0.900   0.900   0.900
                                                       0.900   0.900

     atomic species   valence    mass     pseudopotential
        Rh0           15.00   102.90550     Rh( 1.00)
        O1             6.00    15.99940     O ( 1.00)
        O2             6.00    15.99940     O ( 1.00)

     Starting magnetic structure
     atomic species   magnetization
        Rh0          0.000
        O1           0.000
        O2           0.000

     Simplified LDA+U calculation (l_max = 2) with parameters (eV):
     atomic species    L          U    alpha       J0     beta
        Rh0            2     0.0000   0.0000   0.0000   0.0000
        O1             1     0.0000   0.1500   0.0000   0.0000
        O2             1     0.0000   0.0000   0.0000   0.0000

      4 Sym. Ops. (no inversion) found

   Cartesian axes

     site n.     atom                  positions (alat units)
         1           Rh0 tau(   1) = (  -0.1550000  -0.1550000   0.0000000  )
         2           Rh0 tau(   2) = (   0.0950000   0.0950000   0.1708791  )
         3           Rh0 tau(   3) = (  -0.1550000  -0.1550000   0.3417582  )
         4           Rh0 tau(   4) = (   0.0950000   0.0950000   0.5126374  )
         5           Rh0 tau(   5) = (  -0.1550000   0.3450000   0.0000000  )
         6           Rh0 tau(   6) = (   0.0950000   0.5950000   0.1708791  )
         7           Rh0 tau(   7) = (  -0.1550000   0.3450000   0.3417582  )
         8           Rh0 tau(   8) = (   0.0950000   0.5950000   0.5126374  )
         9           Rh0 tau(   9) = (   0.3450000  -0.1550000   0.0000000  )
        10           Rh0 tau(  10) = (   0.5950000   0.0950000   0.1708791  )
        11           Rh0 tau(  11) = (   0.3450000  -0.1550000   0.3417582  )
        12           Rh0 tau(  12) = (   0.5950000   0.0950000   0.5126374  )
        13           Rh0 tau(  13) = (   0.3450000   0.3450000   0.0000000  )
        14           Rh0 tau(  14) = (   0.5950000   0.5950000   0.1708791  )
        15           Rh0 tau(  15) = (   0.3450000   0.3450000   0.3417582  )
        16           Rh0 tau(  16) = (   0.5950000   0.5950000   0.5126374  )
        17           O1  tau(  17) = (   0.0000000   0.0000000   0.0000000  )
        18           O2  tau(  18) = (  -0.3100000  -0.3100000   0.0000000  )
        19           O2  tau(  19) = (   0.2500000  -0.0600000   0.1708791  )
        20           O2  tau(  20) = (  -0.0600000   0.2500000   0.1708791  )
        21           O2  tau(  21) = (   0.0000000   0.0000000   0.3417582  )
        22           O2  tau(  22) = (  -0.3100000  -0.3100000   0.3417582  )
        23           O2  tau(  23) = (   0.2500000  -0.0600000   0.5126374  )
        24           O2  tau(  24) = (  -0.0600000   0.2500000   0.5126374  )
        25           O2  tau(  25) = (   0.0000000   0.5000000   0.0000000  )
        26           O2  tau(  26) = (  -0.3100000   0.1900000   0.0000000  )
        27           O2  tau(  27) = (   0.2500000   0.4400000   0.1708791  )
        28           O2  tau(  28) = (  -0.0600000   0.7500000   0.1708791  )
        29           O2  tau(  29) = (   0.0000000   0.5000000   0.3417582  )
        30           O2  tau(  30) = (  -0.3100000   0.1900000   0.3417582  )
        31           O2  tau(  31) = (   0.2500000   0.4400000   0.5126374  )
        32           O2  tau(  32) = (  -0.0600000   0.7500000   0.5126374  )
        33           O2  tau(  33) = (   0.5000000   0.0000000   0.0000000  )
        34           O2  tau(  34) = (   0.1900000  -0.3100000   0.0000000  )
        35           O2  tau(  35) = (   0.7500000  -0.0600000   0.1708791  )
        36           O2  tau(  36) = (   0.4400000   0.2500000   0.1708791  )
        37           O2  tau(  37) = (   0.5000000   0.0000000   0.3417582  )
        38           O2  tau(  38) = (   0.1900000  -0.3100000   0.3417582  )
        39           O2  tau(  39) = (   0.7500000  -0.0600000   0.5126374  )
        40           O2  tau(  40) = (   0.4400000   0.2500000   0.5126374  )
        41           O2  tau(  41) = (   0.5000000   0.5000000   0.0000000  )
        42           O2  tau(  42) = (   0.1900000   0.1900000   0.0000000  )
        43           O2  tau(  43) = (   0.7500000   0.4400000   0.1708791  )
        44           O2  tau(  44) = (   0.4400000   0.7500000   0.1708791  )
        45           O2  tau(  45) = (   0.5000000   0.5000000   0.3417582  )
        46           O2  tau(  46) = (   0.1900000   0.1900000   0.3417582  )
        47           O2  tau(  47) = (   0.7500000   0.4400000   0.5126374  )
        48           O2  tau(  48) = (   0.4400000   0.7500000   0.5126374  )

     number of k points=    42  Methfessel-Paxton smearing, width (Ry)=  0.0100
                       cart. coord. in units 2pi/alat
        k(    1) = (   0.0000000   0.0000000   0.0000000), wk =   0.0156250
        k(    2) = (   0.0000000   0.0000000   0.3657556), wk =   0.0312500
        k(    3) = (   0.0000000   0.0000000  -0.7315113), wk =   0.0156250
        k(    4) = (   0.0000000   0.2500000   0.0000000), wk =   0.0625000
        k(    5) = (   0.0000000   0.2500000   0.3657556), wk =   0.1250000
        k(    6) = (   0.0000000   0.2500000  -0.7315113), wk =   0.0625000
        k(    7) = (   0.0000000  -0.5000000   0.0000000), wk =   0.0312500
        k(    8) = (   0.0000000  -0.5000000   0.3657556), wk =   0.0625000
        k(    9) = (   0.0000000  -0.5000000  -0.7315113), wk =   0.0312500
        k(   10) = (   0.2500000   0.2500000   0.0000000), wk =   0.0312500
        k(   11) = (   0.2500000   0.2500000   0.3657556), wk =   0.0625000
        k(   12) = (   0.2500000   0.2500000  -0.7315113), wk =   0.0312500
        k(   13) = (   0.2500000  -0.5000000   0.0000000), wk =   0.0625000
        k(   14) = (   0.2500000  -0.5000000   0.3657556), wk =   0.1250000
        k(   15) = (   0.2500000  -0.5000000  -0.7315113), wk =   0.0625000
        k(   16) = (  -0.5000000  -0.5000000   0.0000000), wk =   0.0156250
        k(   17) = (  -0.5000000  -0.5000000   0.3657556), wk =   0.0312500
        k(   18) = (  -0.5000000  -0.5000000  -0.7315113), wk =   0.0156250
        k(   19) = (   0.2500000  -0.2500000   0.0000000), wk =   0.0312500
        k(   20) = (   0.2500000  -0.2500000   0.3657556), wk =   0.0625000
        k(   21) = (   0.2500000  -0.2500000  -0.7315113), wk =   0.0312500
        k(   22) = (   0.0000000   0.0000000   0.0000000), wk =   0.0156250
        k(   23) = (   0.0000000   0.0000000   0.3657556), wk =   0.0312500
        k(   24) = (   0.0000000   0.0000000  -0.7315113), wk =   0.0156250
        k(   25) = (   0.0000000   0.2500000   0.0000000), wk =   0.0625000
        k(   26) = (   0.0000000   0.2500000   0.3657556), wk =   0.1250000
        k(   27) = (   0.0000000   0.2500000  -0.7315113), wk =   0.0625000
        k(   28) = (   0.0000000  -0.5000000   0.0000000), wk =   0.0312500
        k(   29) = (   0.0000000  -0.5000000   0.3657556), wk =   0.0625000
        k(   30) = (   0.0000000  -0.5000000  -0.7315113), wk =   0.0312500
        k(   31) = (   0.2500000   0.2500000   0.0000000), wk =   0.0312500
        k(   32) = (   0.2500000   0.2500000   0.3657556), wk =   0.0625000
        k(   33) = (   0.2500000   0.2500000  -0.7315113), wk =   0.0312500
        k(   34) = (   0.2500000  -0.5000000   0.0000000), wk =   0.0625000
        k(   35) = (   0.2500000  -0.5000000   0.3657556), wk =   0.1250000
        k(   36) = (   0.2500000  -0.5000000  -0.7315113), wk =   0.0625000
[...]
    eigenvectors:
  0.000  1.000  0.000
  0.500  0.000  0.500
  0.500  0.000  0.500
    occupations:
  0.866 -0.000 -0.000
 -0.000  0.882 -0.024
 -0.000 -0.024  0.882
   spin  2
    eigenvalues:
  0.858  0.866  0.906
    eigenvectors:
  0.000  1.000  0.000
  0.500  0.000  0.500
  0.500  0.000  0.500
    occupations:
  0.866 -0.000 -0.000
 -0.000  0.882 -0.024
 -0.000 -0.024  0.882
atomic mag. moment =     0.000000
atom   42   Tr[ns(na)] (up, down, total) =   2.63069  2.63069  5.26137
   spin  1
    eigenvalues:
  0.858  0.866  0.906
    eigenvectors:
  0.000  1.000  0.000
  0.500  0.000  0.500
  0.500  0.000  0.500
    occupations:
  0.866 -0.000 -0.000
 -0.000  0.882 -0.024
 -0.000 -0.024  0.882
   spin  2
    eigenvalues:
  0.858  0.866  0.906
    eigenvectors:
  0.000  1.000  0.000
  0.500  0.000  0.500
  0.500  0.000  0.500
    occupations:
  0.866 -0.000 -0.000
 -0.000  0.882 -0.024
 -0.000 -0.024  0.882
atomic mag. moment =     0.000000
atom   43   Tr[ns(na)] (up, down, total) =   2.63043  2.63043  5.26086
   spin  1
    eigenvalues:
  0.858  0.866  0.906
    eigenvectors:
  0.000  1.000  0.000
  0.500  0.000  0.500
  0.500  0.000  0.500
    occupations:
  0.866 -0.000 -0.000
 -0.000  0.882  0.024
 -0.000  0.024  0.882
   spin  2
    eigenvalues:
  0.858  0.866  0.906
    eigenvectors:
  0.000  1.000  0.000
  0.500  0.000  0.500
  0.500  0.000  0.500
    occupations:
  0.866 -0.000 -0.000
 -0.000  0.882  0.024
 -0.000  0.024  0.882
atomic mag. moment =     0.000000
atom   44   Tr[ns(na)] (up, down, total) =   2.63043  2.63043  5.26086
   spin  1
    eigenvalues:
  0.858  0.866  0.906
    eigenvectors:
  0.000  1.000  0.000
  0.500  0.000  0.500
  0.500  0.000  0.500
    occupations:
  0.866 -0.000 -0.000
 -0.000  0.882  0.024
 -0.000  0.024  0.882
   spin  2
    eigenvalues:
  0.858  0.866  0.906
    eigenvectors:
  0.000  1.000  0.000
  0.500  0.000  0.500
  0.500  0.000  0.500
    occupations:
  0.866 -0.000 -0.000
 -0.000  0.882  0.024
 -0.000  0.024  0.882
atomic mag. moment =     0.000000
atom   45   Tr[ns(na)] (up, down, total) =   2.63046  2.63045  5.26091
   spin  1
    eigenvalues:
  0.858  0.866  0.906
    eigenvectors:
  0.000  1.000  0.000
  0.500  0.000  0.500
  0.500  0.000  0.500
    occupations:
  0.866 -0.000 -0.000
 -0.000  0.882 -0.024
 -0.000 -0.024  0.882
   spin  2
    eigenvalues:
  0.858  0.866  0.906
    eigenvectors:
  0.000  1.000  0.000
  0.500  0.000  0.500
  0.500  0.000  0.500
    occupations:
  0.866 -0.000 -0.000
 -0.000  0.882 -0.024
 -0.000 -0.024  0.882
atomic mag. moment =     0.000000
atom   46   Tr[ns(na)] (up, down, total) =   2.63041  2.63041  5.26082
   spin  1
    eigenvalues:
  0.858  0.866  0.906
    eigenvectors:
  0.000  1.000  0.000
  0.500  0.000  0.500
  0.500  0.000  0.500
    occupations:
  0.866 -0.000 -0.000
 -0.000  0.882 -0.024
 -0.000 -0.024  0.882
   spin  2
    eigenvalues:
  0.858  0.866  0.906
    eigenvectors:
  0.000  1.000  0.000
  0.500  0.000  0.500
  0.500  0.000  0.500
    occupations:
  0.866 -0.000 -0.000
 -0.000  0.882 -0.024
 -0.000 -0.024  0.882
atomic mag. moment =    -0.000000
atom   47   Tr[ns(na)] (up, down, total) =   2.63043  2.63043  5.26086
   spin  1
    eigenvalues:
  0.858  0.866  0.906
    eigenvectors:
  0.000  1.000  0.000
  0.500  0.000  0.500
  0.500  0.000  0.500
    occupations:
  0.866  0.000  0.000
  0.000  0.882  0.024
  0.000  0.024  0.882
   spin  2
    eigenvalues:
  0.858  0.866  0.906
    eigenvectors:
  0.000  1.000  0.000
  0.500  0.000  0.500
  0.500  0.000  0.500
    occupations:
  0.866  0.000  0.000
  0.000  0.882  0.024
  0.000  0.024  0.882
atomic mag. moment =     0.000000
atom   48   Tr[ns(na)] (up, down, total) =   2.63043  2.63043  5.26086
   spin  1
    eigenvalues:
  0.858  0.866  0.906
    eigenvectors:
  0.000  1.000  0.000
  0.500  0.000  0.500
  0.500  0.000  0.500
    occupations:
  0.866  0.000  0.000
  0.000  0.882  0.024
  0.000  0.024  0.882
   spin  2
    eigenvalues:
  0.858  0.866  0.906
    eigenvectors:
  0.000  1.000  0.000
  0.500  0.000  0.500
  0.500  0.000  0.500
    occupations:
  0.866  0.000  0.000
  0.000  0.882  0.024
  0.000  0.024  0.882
atomic mag. moment =     0.000000
N of occupied +U levels = 295.7065250
 --- exit write_ns ---

 ------ SPIN UP ------------

          k = 0.0000 0.0000 0.0000 ( 14907 PWs)   bands (ev):

   -36.1815 -36.1807 -36.1805 -36.1803 -36.1749 -36.1744 -36.1742 -36.1740
   -36.1568 -36.1564 -36.1558 -36.1557 -36.1546 -36.1541 -36.1539 -36.1537
   -36.1470 -36.1463 -36.1460 -36.1458 -36.1415 -36.1407 -36.1407 -36.1406
   -36.0659 -36.0601 -36.0593 -36.0592 -36.0589 -36.0589 -36.0588 -36.0531
   -35.9666 -35.9660 -35.9657 -35.9654 -35.9643 -35.9639 -35.9633 -35.9631
   -35.9480 -35.9478 -35.9477 -35.9475 -35.9474 -35.9472 -35.9471 -35.9470
    -8.2682  -7.6481  -7.6412  -7.5842  -7.5735  -7.5732  -7.5729  -7.1912
    -7.1164  -7.1043  -7.1041  -7.1039  -7.0135  -7.0077  -6.9046  -6.8951
    -6.8927  -6.8914  -6.8043  -6.7992  -6.6991  -6.6888  -6.6885  -6.6884
    -6.5826  -6.5734  -6.5730  -6.5729  -6.4536  -6.4488  -6.3208  -6.3163
     3.3324   3.3993   3.4036   3.4426   4.3415   4.3418   4.3433   4.3481
     4.3598   4.3602   4.3611   4.3665   4.5296   4.5300   4.6280   4.6304
     4.6924   4.6948   4.7774   4.7774   4.7779   4.7817   4.8712   4.9077
     4.9080   4.9216   4.9248   5.0380   5.0381   5.0385   5.0426   5.3812
     5.3854   5.6906   5.6915   5.9054   5.9070   6.1347   6.1354   6.1363
     6.1393   6.4482   6.4483   6.4500   6.4542   6.5587   6.5591   6.5616
     6.5654   6.7267   6.7288   6.7458   6.7482   7.1531   7.1556   7.1666
     7.1687   7.1792   7.1798   7.1810   7.1827   7.3919   7.3951   7.4974
     7.4984   7.4985   7.5021   7.5361   7.5374   7.5376   7.5417   7.6201
     7.6668   7.6670   8.1098   8.1115   8.3821   8.3853   8.4668   8.4679
     9.0808   9.0889   9.0892   9.0902   9.0902   9.0914   9.0919   9.1566
     9.1728   9.1742   9.2268   9.2271   9.2273   9.2320   9.2651   9.3090
     9.3094   9.3171   9.3174   9.3385   9.3387   9.3820   9.3822   9.3823
     9.3878   9.7028   9.7036   9.8203   9.8211   9.8582   9.8600   9.8602
     9.8606   9.8756   9.8761   9.9466  10.3242  10.3356  10.3365  10.3370
    10.3374  10.3680  10.3693  10.3693  10.3699  10.5967  10.5980  10.8780
    10.8790  11.2561  11.2570  11.3472  11.3478  11.3481  11.3493  11.7495
    11.8846  11.8853  11.9187  11.9191  12.0305  12.0310  12.0311  12.0319
    12.2801  12.2816  12.2819  12.2821  12.4350  13.5880  13.5885  13.6110
    13.6114  13.6246  13.6249  13.7890  13.7904  14.0684  14.0688  14.4443
    14.4452  14.4454  14.4456  14.8113  14.8118  14.8120  14.8123  15.1788
    15.1789  15.1948  15.1949  15.4377  15.4379  15.4385  15.4386  16.0990
    17.6200  20.0441  20.0473  20.0483  20.0495  21.3940  21.3948  21.5068
    21.5072  22.0622  22.0628  22.2899  22.2899  22.2919  22.2923  22.3153
    22.3163  22.3506  22.3515  23.0771  23.0790  23.0792  23.0796  23.9362
    23.9366  23.9850  23.9867  23.9878  23.9887  24.4597  24.4597  25.0154
    25.0974  25.0984  25.1508  25.2254  25.2256  25.6024  25.6030  26.1121
    26.1131  26.1136  26.1142  26.1450  26.1481  26.1487  26.1500  26.1505
    26.1508  26.2948  26.2950  26.5886  26.7886  26.7888  26.7894  26.7896
    27.1453  27.1455  27.7758  27.8024  27.8030  27.8051  27.8055  27.8772
    27.8772  28.1136  28.1151  28.1158  28.1171  28.4543  28.4547  28.4570
    28.4573  28.8192  29.0670  29.0673  29.4878  29.4898  29.5157  29.7561
    29.7568  30.2521  30.2524  30.2542  30.2543  30.7177  30.7184  30.7215
    30.7219  31.0559  31.0559  31.2218  31.2225  31.3083  31.3087  31.7504
    31.8743  31.8758  31.8761  31.8774  31.9096  31.9097  33.0782  33.0788
    33.0911  33.0926  33.0933  33.0935  33.1348  33.1352  33.5659  33.5667
    34.0994  34.1018  34.4645  34.4646  34.9762  34.9783  34.9786  34.9790
    35.0538  35.0549  35.4621  35.4640  35.4642  35.4654  35.5194  35.8471
    35.8484  35.8556  35.8561  35.9735  35.9738  36.6537  36.6540  37.2168
    37.2169  37.2177  37.2186  37.2949  37.2953  37.2958  37.2967  37.3402
    37.3406  37.3410  37.3422  37.4721  37.4723  37.4737  37.4744  37.6644
    37.6653  38.1914  38.4762  38.4776  38.5804  38.5819  38.6871  38.6876
    38.6881  38.6890  38.8769  38.8769  39.0224  39.0780  39.0796  39.2134
    39.2140  39.2141  39.2143  39.3595  39.4203  39.4222  39.7023  39.7035
    39.7197  39.8196  39.8203  39.8237  39.8582  39.8584  39.8591  39.8592
    39.8594  39.8596  39.8608  39.8612  39.8640  39.8651  39.8654  39.8657
    39.8658  39.8660  39.8664  39.8670  39.9089  39.9113  39.9118  40.0631
    41.3662  41.3667  41.7854  41.7866  41.9464  41.9472  42.1503  42.1505
    42.1519  42.1521  42.1544  42.1685  42.1693  42.1694  42.1698  42.4758
    42.4905  42.4915  42.6300  42.6316  42.6323  42.6331  42.7151  42.7158
[...]
    47.5681  47.8034  47.8041  48.0570  48.0574  48.2291  48.2299  48.2326
    48.2329  48.3040  48.3042  48.3052  48.3053  48.3590  48.3607  48.6943
    48.6952  48.6963  48.6967  48.6989  48.7001  48.8255  48.8261  48.8273
    48.8279  48.9379  48.9381  48.9408  48.9415  49.1636  49.1641  49.2677
    49.2692  49.5525  49.5533  49.5552  49.5553  49.6100  49.6119  49.6121
    49.6128  49.8328  49.8333  50.3545  50.3554  50.5672  50.5675  50.5839
    50.5841  50.6596  50.6606  50.6608  50.6609  50.8067  50.8069  50.9885
    50.9887  51.3067  51.3076  51.3381  51.3444  51.3465  51.3469  51.3476
    51.5297  51.5301  51.5303  51.5306  51.5548  51.5560  51.8606  51.9182
    51.9184  51.9742  52.0751  52.0767  52.3312  52.3313  52.3317  52.3320
    52.4458  52.4464  52.4822  52.4826  52.7758  52.7765  52.7766  52.7770
    52.8479  53.2998  53.5380  53.5384  53.5587  53.5590  53.6858  53.8317
    53.8433  53.8451  53.9751  53.9757  53.9761  53.9761  54.4495  54.4503
    54.8797  54.8806  54.8809  54.8817  54.9242  54.9250  54.9255  54.9263
    55.1510  55.1518  55.3502  55.3502  55.4799  55.4803  55.5047  55.5750

[...]

          k =-0.5000-0.5000 0.0000 ( 14848 PWs)   bands (ev):

[...]

 ------ SPIN DOWN ----------

[...]

          k =-0.5000-0.5000-0.7315 ( 14864 PWs)   bands (ev):

[...]

          k = 0.2500-0.2500-0.7315 ( 14880 PWs)   bands (ev):

   -36.1542 -36.1532 -36.1529 -36.1528 -36.1527 -36.1526 -36.1525 -36.1523
   -36.1519 -36.1518 -36.1518 -36.1518 -36.1518 -36.1513 -36.1510 -36.1506
   -36.1200 -36.1198 -36.1178 -36.1177 -36.1168 -36.1167 -36.1167 -36.1163
   -36.1158 -36.1155 -36.1140 -36.1137 -36.1133 -36.1132 -36.1128 -36.1126
   -35.9576 -35.9574 -35.9566 -35.9563 -35.9561 -35.9560 -35.9560 -35.9560
   -35.9559 -35.9559 -35.9559 -35.9558 -35.9554 -35.9553 -35.9551 -35.9551
    -7.7115  -7.7040  -7.4413  -7.4319  -7.4316  -7.4315  -7.3521  -7.3416
    -7.1902  -7.1900  -7.0628  -7.0435  -7.0435  -7.0434  -6.9566  -6.9518
    -6.8190  -6.8027  -6.8025  -6.8023  -6.7335  -6.7329  -6.6834  -6.6782
    -6.6781  -6.6780  -6.6689  -6.6681  -6.6678  -6.6605  -6.5895  -6.5808
     3.9785   3.9832   4.0406   4.0488   4.3177   4.3177   4.3182   4.3184
     4.3370   4.3370   4.3574   4.3591   4.7062   4.7092   4.7329   4.7329
     4.7374   4.7381   4.8346   4.8365   4.9228   4.9229   4.9230   4.9264
     4.9312   4.9332   5.1639   5.1639   5.1648   5.1748   5.1790   5.1797
     5.5791   5.5793   5.5821   5.5882   5.7680   5.7707   5.9315   5.9323
     6.0441   6.0443   6.0451   6.0464   6.1061   6.1067   6.5822   6.5884
     6.6199   6.6203   6.6216   6.6241   6.7378   6.7432   6.9265   6.9283
     7.0161   7.0164   7.0192   7.0226   7.5258   7.5262   7.5271   7.5271
     7.5279   7.5303   7.5508   7.5515   7.5823   7.5824   7.5937   7.5938
     7.6770   7.6773   7.6775   7.6787   7.8819   7.8836   8.0827   8.0846
     8.1394   8.1422   8.2516   8.2533   8.4147   8.4148   8.4157   8.4158
     8.7471   8.7485   9.0094   9.0101   9.0106   9.0127   9.2372   9.2373
     9.7646   9.7661   9.9334   9.9337   9.9749   9.9752   9.9806   9.9809
     9.9811   9.9843  10.3705  10.3710  10.3988  10.3994  10.4106  10.4108
    10.4108  10.4112  10.4986  10.4992  10.5638  10.5646  10.5647  10.5648
    10.6239  10.6257  10.8426  10.8435  10.8436  10.8437  10.9572  10.9587
    11.2742  11.2745  11.3401  11.3403  11.3749  11.3751  11.3752  11.3766
    11.4496  11.4501  11.5911  11.5911  11.5913  11.5924  11.8761  11.8765
    13.0359  13.0366  13.1112  13.1143  13.1143  13.1151  13.4800  13.4802
    13.4804  13.4806  13.5197  13.5197  13.7861  13.7863  14.0300  14.0308
    14.2099  14.2109  14.2347  14.2356  14.5427  14.5431  14.5433  14.5434
    14.7648  14.7649  15.2342  15.2348  15.2349  15.2352  15.2379  15.2381
    19.6070  19.6093  20.5855  20.5895  20.5902  20.5917  21.3027  21.3055
    22.0083  22.0128  22.0135  22.0147  22.2091  22.2121  23.1068  23.1099
    23.1358  23.1365  23.1942  23.1974  23.7973  23.7992  23.8007  23.8021
    23.8648  23.8669  24.5825  24.5825  24.5837  24.5854  24.6240  24.6241
    24.9525  24.9528  25.3037  25.3042  25.3048  25.3057  25.3492  25.3497
    25.5358  25.5394  25.8224  25.8246  25.8246  25.8264  26.1971  26.1979
    26.8169  26.8184  26.8197  26.8208  26.9580  26.9581  26.9859  26.9888
    27.1862  27.1868  27.3417  27.3462  27.3462  27.3467  27.6038  27.6049
    27.6852  27.6866  27.8709  27.8721  27.8734  27.8734  28.0826  28.0827
    28.1639  28.1660  28.7237  28.7247  28.7257  28.7259  28.7905  28.7929
    28.9798  28.9812  29.8358  29.8372  29.8374  29.8383  30.7049  30.7052
    31.0273  31.0291  31.0293  31.0311  31.7842  31.7860  31.8291  31.8316
    31.8926  31.8942  31.8951  31.8959  32.4278  32.4286  32.9661  32.9665
    33.2251  33.2253  33.7095  33.7107  33.7121  33.7123  34.3081  34.3086
    34.5411  34.5450  34.7624  34.7627  35.0425  35.0452  35.0524  35.0535
    35.0536  35.0538  35.1494  35.1520  35.4099  35.4111  35.4396  35.4405
    35.4418  35.4422  36.2400  36.2417  36.3041  36.3045  36.3057  36.3059
    36.5404  36.5422  36.5426  36.5428  36.7361  36.7368  37.7328  37.7346
    37.7348  37.7355  37.7506  37.7518  38.1448  38.1467  38.2297  38.2317
    38.2333  38.2346  38.3497  38.3507  38.3513  38.3525  38.5537  38.5539
    38.6601  38.6617  38.7527  38.7538  38.7551  38.7566  38.8220  38.8232
    38.8877  38.8889  39.2461  39.2464  39.2817  39.2828  39.2836  39.2837
    39.8519  39.8522  39.8524  39.8526  39.8530  39.8531  39.8544  39.8549
    39.8565  39.8566  39.8570  39.8570  39.8596  39.8596  39.8601  39.8602
    40.0162  40.0172  40.0522  40.0540  40.0545  40.0554  40.9755  40.9779
    41.3570  41.3575  41.4660  41.4665  41.4668  41.4671  41.5114  41.5118
    41.5482  41.5487  42.0459  42.0470  42.0673  42.0680  42.5298  42.5319
    42.5327  42.5329  43.0403  43.0411  43.0416  43.0421  43.5423  43.5448
[...]
    47.3545  47.3573  47.3904  47.3910  47.5886  47.5894  47.5901  47.5911
    47.7334  47.7345  47.7346  47.7349  47.9579  47.9587  48.4936  48.4943
    48.6974  48.6982  48.8417  48.8434  48.8438  48.8452  48.8759  48.8786
    48.9908  48.9926  49.0150  49.0152  49.0163  49.0171  49.2393  49.2404
    49.2762  49.2770  49.5367  49.5377  49.5752  49.5758  49.5758  49.5760
    49.7944  49.7956  49.8147  49.8159  50.0002  50.0017  50.2155  50.2169
    50.2172  50.2184  50.4129  50.4132  50.4141  50.4147  50.8879  50.8900
    50.8911  50.8921  50.8930  50.8936  50.9681  50.9709  51.4634  51.4646
    51.4650  51.4659  51.5129  51.5131  51.5589  51.5601  52.0107  52.0113
    52.1112  52.1129  52.3682  52.3695  52.7263  52.7276  52.7278  52.7286
    52.8517  52.8522  53.1028  53.1040  53.2702  53.2713  53.2788  53.2790
    53.2794  53.2802  53.6885  53.6890  54.1182  54.1201  54.1207  54.1216
    54.2587  54.2613  54.3517  54.3524  54.4367  54.4386  54.4391  54.4399
    54.4527  54.4539  54.4933  54.4954  54.9117  54.9123  54.9124  54.9128
    55.0374  55.0383  55.1800  55.1800  55.5143  55.5148  55.5160  55.5163

     the Fermi energy is    11.6270 ev

!    total energy              =   -3758.51047253 Ry
     Harris-Foulkes estimate   =   -3758.51047330 Ry
     estimated scf accuracy    <       0.00000080 Ry

     The total energy is the sum of the following terms:

     one-electron contribution =   -1108.36159058 Ry
     hartree contribution      =     841.93452602 Ry
     xc contribution           =    -696.48210104 Ry
     ewald contribution        =   -2795.66030549 Ry
     Hubbard energy            =       0.05786755 Ry
     smearing contrib. (-TS)   =       0.00113102 Ry

     total magnetization       =     0.00 Bohr mag/cell
     absolute magnetization    =     0.00 Bohr mag/cell

     convergence has been achieved in  14 iterations

     Writing output data file pwscf.save

     General routines

     Parallel routines
     Hubbard U routines

   This run was terminated on:   9:55:18  15Feb2014

   JOB DONE.