     Program PWSCF v.5.0.2 (svn rev. 9656) starts on 14Feb2014 at 22: 0:48

     Current dimensions of program PWSCF are:
     Max number of different atomic species (ntypx) = 10
     Max number of k-points (npk) =  40000
     Max angular momentum in pseudopotentials (lmaxx) =  3
     Reading input from alpha_0.07/alpha_0.07.in
Warning: card &IONS ignored
Warning: card / ignored
Warning: card &CELL ignored
Warning: card / ignored

     Subspace diagonalization in iterative solution of the eigenvalue problem:
     a serial algorithm will be used

     bravais-lattice index     =            0
     lattice parameter (alat)  =      17.1965  a.u.
     unit-cell volume          =    3475.9200 (a.u.)^3
     number of atoms/cell      =           48
     number of atomic types    =            3
     number of electrons       =       432.00
     number of Kohn-Sham states=          648
     kinetic-energy cutoff     =      40.0000  Ry
     charge density cutoff     =     500.0000  Ry
     convergence threshold     =      1.0E-06
     mixing beta               =       0.7000
     number of iterations used =            8  plain     mixing
     Exchange-correlation      = SLA  PW   PBE  PBE ( 1 4 3 4 0)
     EXX-fraction              =        0.00

     celldm(1)=  17.196508  celldm(2)=   0.000000  celldm(3)=   0.000000
     celldm(4)=   0.000000  celldm(5)=   0.000000  celldm(6)=   0.000000

     crystal axes: (cart. coord. in units of alat)
               a(1) = (   1.000000   0.000000   0.000000 )
               a(2) = (   0.000000   1.000000   0.000000 )
               a(3) = (   0.000000   0.000000   0.683516 )

     reciprocal axes: (cart. coord. in units 2 pi/alat)
               b(1) = (  1.000000  0.000000  0.000000 )
               b(2) = (  0.000000  1.000000  0.000000 )
               b(3) = (  0.000000  0.000000  1.463023 )

     PseudoPot. # 1 for Rh read from file:
     /home/camp/zhonxu/pseudo/rh_pbe_v1.uspp.F.UPF
     MD5 check sum: 37b626987ad0dd8ec6bf4cc9ef289918
     Pseudo is Ultrasoft + core correction, Zval = 15.0
     Generated by new atomic code, or converted to UPF format
     Using radial grid of  969 points,  7 beta functions with:
                l(1) =   0
                l(2) =   0
                l(3) =   1
                l(4) =   1
                l(5) =   2
                l(6) =   2
                l(7) =   2
     Q(r) pseudized with  6 coefficients,  rinner =    1.050   1.050   1.050
                                                       1.050   1.050

     PseudoPot. # 2 for O  read from file:
     /home/camp/zhonxu/pseudo/o_pbe_v1.01.uspp.F.UPF
     MD5 check sum: 2bcb18d16ea4b960afae9ec6d52f22d2
     Pseudo is Ultrasoft + core correction, Zval =  6.0
     Generated by new atomic code, or converted to UPF format
     Using radial grid of  737 points,  5 beta functions with:
                l(1) =   0
                l(2) =   0
                l(3) =   1
                l(4) =   1
                l(5) =   2
     Q(r) pseudized with  8 coefficients,  rinner =    0.900   0.900   0.900
                                                       0.900   0.900

     PseudoPot. # 3 for O  read from file:
     /home/camp/zhonxu/pseudo/o_pbe_v1.01.uspp.F.UPF
     MD5 check sum: 2bcb18d16ea4b960afae9ec6d52f22d2
     Pseudo is Ultrasoft + core correction, Zval =  6.0
     Generated by new atomic code, or converted to UPF format
     Using radial grid of  737 points,  5 beta functions with:
                l(1) =   0
                l(2) =   0
                l(3) =   1
                l(4) =   1
                l(5) =   2
     Q(r) pseudized with  8 coefficients,  rinner =    0.900   0.900   0.900
                                                       0.900   0.900

     atomic species   valence    mass     pseudopotential
        Rh0           15.00   102.90550     Rh( 1.00)
        O1             6.00    15.99940     O ( 1.00)
        O2             6.00    15.99940     O ( 1.00)

     Starting magnetic structure
     atomic species   magnetization
        Rh0          0.000
        O1           0.000
        O2           0.000

     Simplified LDA+U calculation (l_max = 2) with parameters (eV):
     atomic species    L          U    alpha       J0     beta
        Rh0            2     0.0000   0.0000   0.0000   0.0000
        O1             1     0.0000   0.0700   0.0000   0.0000
        O2             1     0.0000   0.0000   0.0000   0.0000

      4 Sym. Ops. (no inversion) found

   Cartesian axes

     site n.     atom                  positions (alat units)
         1           Rh0 tau(   1) = (  -0.1550000  -0.1550000   0.0000000  )
         2           Rh0 tau(   2) = (   0.0950000   0.0950000   0.1708791  )
         3           Rh0 tau(   3) = (  -0.1550000  -0.1550000   0.3417582  )
         4           Rh0 tau(   4) = (   0.0950000   0.0950000   0.5126374  )
         5           Rh0 tau(   5) = (  -0.1550000   0.3450000   0.0000000  )
         6           Rh0 tau(   6) = (   0.0950000   0.5950000   0.1708791  )
         7           Rh0 tau(   7) = (  -0.1550000   0.3450000   0.3417582  )
         8           Rh0 tau(   8) = (   0.0950000   0.5950000   0.5126374  )
         9           Rh0 tau(   9) = (   0.3450000  -0.1550000   0.0000000  )
        10           Rh0 tau(  10) = (   0.5950000   0.0950000   0.1708791  )
        11           Rh0 tau(  11) = (   0.3450000  -0.1550000   0.3417582  )
        12           Rh0 tau(  12) = (   0.5950000   0.0950000   0.5126374  )
        13           Rh0 tau(  13) = (   0.3450000   0.3450000   0.0000000  )
        14           Rh0 tau(  14) = (   0.5950000   0.5950000   0.1708791  )
        15           Rh0 tau(  15) = (   0.3450000   0.3450000   0.3417582  )
        16           Rh0 tau(  16) = (   0.5950000   0.5950000   0.5126374  )
        17           O1  tau(  17) = (   0.0000000   0.0000000   0.0000000  )
        18           O2  tau(  18) = (  -0.3100000  -0.3100000   0.0000000  )
        19           O2  tau(  19) = (   0.2500000  -0.0600000   0.1708791  )
        20           O2  tau(  20) = (  -0.0600000   0.2500000   0.1708791  )
        21           O2  tau(  21) = (   0.0000000   0.0000000   0.3417582  )
        22           O2  tau(  22) = (  -0.3100000  -0.3100000   0.3417582  )
        23           O2  tau(  23) = (   0.2500000  -0.0600000   0.5126374  )
        24           O2  tau(  24) = (  -0.0600000   0.2500000   0.5126374  )
        25           O2  tau(  25) = (   0.0000000   0.5000000   0.0000000  )
        26           O2  tau(  26) = (  -0.3100000   0.1900000   0.0000000  )
        27           O2  tau(  27) = (   0.2500000   0.4400000   0.1708791  )
        28           O2  tau(  28) = (  -0.0600000   0.7500000   0.1708791  )
        29           O2  tau(  29) = (   0.0000000   0.5000000   0.3417582  )
        30           O2  tau(  30) = (  -0.3100000   0.1900000   0.3417582  )
        31           O2  tau(  31) = (   0.2500000   0.4400000   0.5126374  )
        32           O2  tau(  32) = (  -0.0600000   0.7500000   0.5126374  )
        33           O2  tau(  33) = (   0.5000000   0.0000000   0.0000000  )
        34           O2  tau(  34) = (   0.1900000  -0.3100000   0.0000000  )
        35           O2  tau(  35) = (   0.7500000  -0.0600000   0.1708791  )
        36           O2  tau(  36) = (   0.4400000   0.2500000   0.1708791  )
        37           O2  tau(  37) = (   0.5000000   0.0000000   0.3417582  )
        38           O2  tau(  38) = (   0.1900000  -0.3100000   0.3417582  )
        39           O2  tau(  39) = (   0.7500000  -0.0600000   0.5126374  )
        40           O2  tau(  40) = (   0.4400000   0.2500000   0.5126374  )
        41           O2  tau(  41) = (   0.5000000   0.5000000   0.0000000  )
        42           O2  tau(  42) = (   0.1900000   0.1900000   0.0000000  )
        43           O2  tau(  43) = (   0.7500000   0.4400000   0.1708791  )
        44           O2  tau(  44) = (   0.4400000   0.7500000   0.1708791  )
        45           O2  tau(  45) = (   0.5000000   0.5000000   0.3417582  )
        46           O2  tau(  46) = (   0.1900000   0.1900000   0.3417582  )
        47           O2  tau(  47) = (   0.7500000   0.4400000   0.5126374  )
        48           O2  tau(  48) = (   0.4400000   0.7500000   0.5126374  )

     number of k points=    42  Methfessel-Paxton smearing, width (Ry)=  0.0100
                       cart. coord. in units 2pi/alat
        k(    1) = (   0.0000000   0.0000000   0.0000000), wk =   0.0156250
        k(    2) = (   0.0000000   0.0000000   0.3657556), wk =   0.0312500
        k(    3) = (   0.0000000   0.0000000  -0.7315113), wk =   0.0156250
        k(    4) = (   0.0000000   0.2500000   0.0000000), wk =   0.0625000
        k(    5) = (   0.0000000   0.2500000   0.3657556), wk =   0.1250000
        k(    6) = (   0.0000000   0.2500000  -0.7315113), wk =   0.0625000
        k(    7) = (   0.0000000  -0.5000000   0.0000000), wk =   0.0312500
        k(    8) = (   0.0000000  -0.5000000   0.3657556), wk =   0.0625000
        k(    9) = (   0.0000000  -0.5000000  -0.7315113), wk =   0.0312500
        k(   10) = (   0.2500000   0.2500000   0.0000000), wk =   0.0312500
        k(   11) = (   0.2500000   0.2500000   0.3657556), wk =   0.0625000
        k(   12) = (   0.2500000   0.2500000  -0.7315113), wk =   0.0312500
        k(   13) = (   0.2500000  -0.5000000   0.0000000), wk =   0.0625000
        k(   14) = (   0.2500000  -0.5000000   0.3657556), wk =   0.1250000
        k(   15) = (   0.2500000  -0.5000000  -0.7315113), wk =   0.0625000
        k(   16) = (  -0.5000000  -0.5000000   0.0000000), wk =   0.0156250
        k(   17) = (  -0.5000000  -0.5000000   0.3657556), wk =   0.0312500
        k(   18) = (  -0.5000000  -0.5000000  -0.7315113), wk =   0.0156250
        k(   19) = (   0.2500000  -0.2500000   0.0000000), wk =   0.0312500
        k(   20) = (   0.2500000  -0.2500000   0.3657556), wk =   0.0625000
        k(   21) = (   0.2500000  -0.2500000  -0.7315113), wk =   0.0312500
        k(   22) = (   0.0000000   0.0000000   0.0000000), wk =   0.0156250
        k(   23) = (   0.0000000   0.0000000   0.3657556), wk =   0.0312500
        k(   24) = (   0.0000000   0.0000000  -0.7315113), wk =   0.0156250
        k(   25) = (   0.0000000   0.2500000   0.0000000), wk =   0.0625000
        k(   26) = (   0.0000000   0.2500000   0.3657556), wk =   0.1250000
        k(   27) = (   0.0000000   0.2500000  -0.7315113), wk =   0.0625000
        k(   28) = (   0.0000000  -0.5000000   0.0000000), wk =   0.0312500
        k(   29) = (   0.0000000  -0.5000000   0.3657556), wk =   0.0625000
        k(   30) = (   0.0000000  -0.5000000  -0.7315113), wk =   0.0312500
        k(   31) = (   0.2500000   0.2500000   0.0000000), wk =   0.0312500
        k(   32) = (   0.2500000   0.2500000   0.3657556), wk =   0.0625000
        k(   33) = (   0.2500000   0.2500000  -0.7315113), wk =   0.0312500
        k(   34) = (   0.2500000  -0.5000000   0.0000000), wk =   0.0625000
        k(   35) = (   0.2500000  -0.5000000   0.3657556), wk =   0.1250000
        k(   36) = (   0.2500000  -0.5000000  -0.7315113), wk =   0.0625000
[...]
    eigenvectors:
  0.000  1.000  0.000
  0.500  0.000  0.500
  0.500  0.000  0.500
    occupations:
  0.866 -0.000 -0.000
 -0.000  0.882 -0.024
 -0.000 -0.024  0.882
   spin  2
    eigenvalues:
  0.858  0.866  0.906
    eigenvectors:
  0.000  1.000  0.000
  0.500  0.000  0.500
  0.500  0.000  0.500
    occupations:
  0.866 -0.000 -0.000
 -0.000  0.882 -0.024
 -0.000 -0.024  0.882
atomic mag. moment =     0.000000
atom   42   Tr[ns(na)] (up, down, total) =   2.63052  2.63052  5.26105
   spin  1
    eigenvalues:
  0.858  0.866  0.906
    eigenvectors:
  0.000  1.000  0.000
  0.500  0.000  0.500
  0.500  0.000  0.500
    occupations:
  0.866 -0.000 -0.000
 -0.000  0.882 -0.024
 -0.000 -0.024  0.882
   spin  2
    eigenvalues:
  0.858  0.866  0.906
    eigenvectors:
  0.000  1.000  0.000
  0.500  0.000  0.500
  0.500  0.000  0.500
    occupations:
  0.866 -0.000 -0.000
 -0.000  0.882 -0.024
 -0.000 -0.024  0.882
atomic mag. moment =     0.000000
atom   43   Tr[ns(na)] (up, down, total) =   2.63039  2.63039  5.26079
   spin  1
    eigenvalues:
  0.858  0.866  0.906
    eigenvectors:
  0.000  1.000  0.000
  0.500  0.000  0.500
  0.500  0.000  0.500
    occupations:
  0.866 -0.000 -0.000
 -0.000  0.882  0.024
 -0.000  0.024  0.882
   spin  2
    eigenvalues:
  0.858  0.866  0.906
    eigenvectors:
  0.000  1.000  0.000
  0.500  0.000  0.500
  0.500  0.000  0.500
    occupations:
  0.866 -0.000 -0.000
 -0.000  0.882  0.024
 -0.000  0.024  0.882
atomic mag. moment =     0.000000
atom   44   Tr[ns(na)] (up, down, total) =   2.63039  2.63039  5.26079
   spin  1
    eigenvalues:
  0.858  0.866  0.906
    eigenvectors:
  0.000  1.000  0.000
  0.500  0.000  0.500
  0.500  0.000  0.500
    occupations:
  0.866 -0.000 -0.000
 -0.000  0.882  0.024
 -0.000  0.024  0.882
   spin  2
    eigenvalues:
  0.858  0.866  0.906
    eigenvectors:
  0.000  1.000  0.000
  0.500  0.000  0.500
  0.500  0.000  0.500
    occupations:
  0.866 -0.000 -0.000
 -0.000  0.882  0.024
 -0.000  0.024  0.882
atomic mag. moment =     0.000000
atom   45   Tr[ns(na)] (up, down, total) =   2.63040  2.63040  5.26079
   spin  1
    eigenvalues:
  0.858  0.866  0.906
    eigenvectors:
  0.000  1.000  0.000
  0.500  0.000  0.500
  0.500  0.000  0.500
    occupations:
  0.866 -0.000 -0.000
 -0.000  0.882 -0.024
 -0.000 -0.024  0.882
   spin  2
    eigenvalues:
  0.858  0.866  0.906
    eigenvectors:
  0.000  1.000  0.000
  0.500  0.000  0.500
  0.500  0.000  0.500
    occupations:
  0.866 -0.000 -0.000
 -0.000  0.882 -0.024
 -0.000 -0.024  0.882
atomic mag. moment =     0.000000
atom   46   Tr[ns(na)] (up, down, total) =   2.63038  2.63038  5.26076
   spin  1
    eigenvalues:
  0.858  0.866  0.906
    eigenvectors:
  0.000  1.000  0.000
  0.500  0.000  0.500
  0.500  0.000  0.500
    occupations:
  0.866 -0.000 -0.000
 -0.000  0.882 -0.024
 -0.000 -0.024  0.882
   spin  2
    eigenvalues:
  0.858  0.866  0.906
    eigenvectors:
  0.000  1.000  0.000
  0.500  0.000  0.500
  0.500  0.000  0.500
    occupations:
  0.866 -0.000 -0.000
 -0.000  0.882 -0.024
 -0.000 -0.024  0.882
atomic mag. moment =    -0.000000
atom   47   Tr[ns(na)] (up, down, total) =   2.63039  2.63039  5.26079
   spin  1
    eigenvalues:
  0.858  0.866  0.906
    eigenvectors:
  0.000  1.000  0.000
  0.500  0.000  0.500
  0.500  0.000  0.500
    occupations:
  0.866  0.000  0.000
  0.000  0.882  0.024
  0.000  0.024  0.882
   spin  2
    eigenvalues:
  0.858  0.866  0.906
    eigenvectors:
  0.000  1.000  0.000
  0.500  0.000  0.500
  0.500  0.000  0.500
    occupations:
  0.866  0.000  0.000
  0.000  0.882  0.024
  0.000  0.024  0.882
atomic mag. moment =     0.000000
atom   48   Tr[ns(na)] (up, down, total) =   2.63039  2.63039  5.26079
   spin  1
    eigenvalues:
  0.858  0.866  0.906
    eigenvectors:
  0.000  1.000  0.000
  0.500  0.000  0.500
  0.500  0.000  0.500
    occupations:
  0.866  0.000  0.000
  0.000  0.882  0.024
  0.000  0.024  0.882
   spin  2
    eigenvalues:
  0.858  0.866  0.906
    eigenvectors:
  0.000  1.000  0.000
  0.500  0.000  0.500
  0.500  0.000  0.500
    occupations:
  0.866  0.000  0.000
  0.000  0.882  0.024
  0.000  0.024  0.882
atomic mag. moment =     0.000000
N of occupied +U levels = 295.7068564
 --- exit write_ns ---

 ------ SPIN UP ------------

          k = 0.0000 0.0000 0.0000 ( 14907 PWs)   bands (ev):

   -36.1821 -36.1819 -36.1819 -36.1816 -36.1757 -36.1757 -36.1755 -36.1753
   -36.1577 -36.1577 -36.1572 -36.1571 -36.1555 -36.1554 -36.1554 -36.1551
   -36.1477 -36.1477 -36.1474 -36.1472 -36.1423 -36.1422 -36.1421 -36.1420
   -36.0671 -36.0608 -36.0606 -36.0606 -36.0603 -36.0602 -36.0600 -36.0543
   -35.9673 -35.9672 -35.9671 -35.9668 -35.9651 -35.9651 -35.9646 -35.9644
   -35.9492 -35.9488 -35.9488 -35.9488 -35.9487 -35.9485 -35.9485 -35.9483
    -8.2676  -7.6450  -7.6422  -7.5794  -7.5746  -7.5744  -7.5742  -7.1901
    -7.1104  -7.1052  -7.1052  -7.1051  -7.0115  -7.0088  -6.8999  -6.8961
    -6.8935  -6.8923  -6.8026  -6.8002  -6.6946  -6.6897  -6.6896  -6.6896
    -6.5789  -6.5742  -6.5742  -6.5741  -6.4524  -6.4499  -6.3196  -6.3173
     3.3307   3.3984   3.4005   3.4398   4.3405   4.3406   4.3415   4.3438
     4.3588   4.3590   4.3594   4.3621   4.5278   4.5279   4.6270   4.6282
     4.6915   4.6926   4.7764   4.7764   4.7766   4.7786   4.8691   4.9055
     4.9056   4.9200   4.9215   5.0368   5.0370   5.0371   5.0390   5.3803
     5.3823   5.6891   5.6895   5.9034   5.9041   6.1340   6.1342   6.1347
     6.1361   6.4475   6.4475   6.4483   6.4503   6.5578   6.5579   6.5592
     6.5610   6.7257   6.7267   6.7448   6.7459   7.1524   7.1536   7.1658
     7.1668   7.1783   7.1785   7.1791   7.1798   7.3904   7.3920   7.4969
     7.4973   7.4973   7.4992   7.5351   7.5357   7.5357   7.5377   7.6179
     7.6648   7.6648   8.1090   8.1097   8.3811   8.3827   8.4653   8.4658
     9.0792   9.0884   9.0886   9.0890   9.0890   9.0899   9.0901   9.1558
     9.1717   9.1723   9.2259   9.2260   9.2262   9.2284   9.2641   9.3083
     9.3084   9.3164   9.3164   9.3377   9.3377   9.3811   9.3813   9.3813
     9.3839   9.7015   9.7018   9.8197   9.8199   9.8583   9.8589   9.8590
     9.8593   9.8748   9.8750   9.9456  10.3227  10.3351  10.3355  10.3358
    10.3359  10.3676  10.3680  10.3681  10.3683  10.5959  10.5964  10.8771
    10.8775  11.2551  11.2556  11.3465  11.3468  11.3469  11.3475  11.7486
    11.8836  11.8840  11.9176  11.9179  12.0297  12.0300  12.0300  12.0304
    12.2798  12.2805  12.2806  12.2807  12.4337  13.5870  13.5874  13.6102
    13.6103  13.6237  13.6238  13.7883  13.7890  14.0674  14.0677  14.4438
    14.4442  14.4442  14.4444  14.8106  14.8108  14.8108  14.8110  15.1778
    15.1778  15.1938  15.1938  15.4370  15.4371  15.4373  15.4373  16.0980
    17.6201  20.0460  20.0475  20.0479  20.0485  21.3945  21.3948  21.5070
    21.5072  22.0625  22.0628  22.2908  22.2908  22.2916  22.2918  22.3155
    22.3160  22.3509  22.3513  23.0779  23.0788  23.0789  23.0791  23.9362
    23.9364  23.9863  23.9870  23.9875  23.9879  24.4599  24.4600  25.0152
    25.0977  25.0982  25.1511  25.2255  25.2256  25.6028  25.6030  26.1129
    26.1134  26.1136  26.1138  26.1472  26.1485  26.1488  26.1497  26.1498
    26.1501  26.2947  26.2949  26.5885  26.7889  26.7890  26.7893  26.7893
    27.1453  27.1455  27.7761  27.8032  27.8035  27.8044  27.8046  27.8771
    27.8771  28.1146  28.1153  28.1156  28.1162  28.4550  28.4552  28.4562
    28.4564  28.8193  29.0671  29.0673  29.4884  29.4893  29.5155  29.7562
    29.7565  30.2527  30.2529  30.2536  30.2537  30.7190  30.7193  30.7208
    30.7210  31.0558  31.0558  31.2219  31.2222  31.3083  31.3085  31.7506
    31.8751  31.8757  31.8759  31.8765  31.9096  31.9097  33.0784  33.0787
    33.0918  33.0925  33.0928  33.0929  33.1349  33.1351  33.5660  33.5665
    34.1001  34.1012  34.4645  34.4645  34.9772  34.9781  34.9782  34.9784
    35.0542  35.0547  35.4632  35.4641  35.4642  35.4647  35.5195  35.8475
    35.8481  35.8557  35.8559  35.9736  35.9737  36.6537  36.6538  37.2172
    37.2172  37.2176  37.2180  37.2952  37.2954  37.2956  37.2960  37.3406
    37.3408  37.3409  37.3415  37.4726  37.4727  37.4734  37.4737  37.6646
    37.6650  38.1914  38.4766  38.4772  38.5808  38.5815  38.6876  38.6878
    38.6881  38.6885  38.8769  38.8769  39.0223  39.0784  39.0792  39.2138
    39.2140  39.2141  39.2141  39.3593  39.4209  39.4219  39.7021  39.7028
    39.7187  39.8197  39.8200  39.8227  39.8565  39.8569  39.8575  39.8578
    39.8579  39.8580  39.8589  39.8594  39.8636  39.8638  39.8640  39.8641
    39.8650  39.8659  39.8661  39.8663  39.9082  39.9101  39.9105  40.0623
    41.3663  41.3666  41.7857  41.7863  41.9468  41.9472  42.1511  42.1511
    42.1518  42.1518  42.1539  42.1689  42.1693  42.1694  42.1695  42.4757
    42.4907  42.4912  42.6310  42.6317  42.6320  42.6324  42.7151  42.7155
[...]
    47.5682  47.8036  47.8039  48.0572  48.0574  48.2303  48.2307  48.2319
    48.2321  48.3044  48.3046  48.3050  48.3051  48.3596  48.3604  48.6950
    48.6954  48.6959  48.6961  48.6992  48.6998  48.8261  48.8264  48.8270
    48.8272  48.9379  48.9380  48.9408  48.9411  49.1638  49.1640  49.2681
    49.2688  49.5533  49.5537  49.5545  49.5546  49.6108  49.6116  49.6118
    49.6120  49.8330  49.8332  50.3546  50.3550  50.5673  50.5674  50.5841
    50.5841  50.6602  50.6606  50.6607  50.6608  50.8068  50.8069  50.9887
    50.9888  51.3069  51.3073  51.3378  51.3455  51.3464  51.3466  51.3469
    51.5300  51.5302  51.5303  51.5304  51.5551  51.5557  51.8605  51.9183
    51.9184  51.9744  52.0756  52.0763  52.3313  52.3313  52.3315  52.3317
    52.4458  52.4461  52.4823  52.4824  52.7762  52.7765  52.7766  52.7767
    52.8479  53.2997  53.5379  53.5381  53.5588  53.5589  53.6857  53.8319
    53.8438  53.8445  53.9756  53.9758  53.9760  53.9760  54.4498  54.4502
    54.8803  54.8807  54.8808  54.8811  54.9247  54.9250  54.9253  54.9256
    55.1511  55.1515  55.3501  55.3502  55.4800  55.4801  55.5047  55.5751

[...]

          k =-0.5000-0.5000 0.0000 ( 14848 PWs)   bands (ev):

[...]

 ------ SPIN DOWN ----------

[...]

          k =-0.5000-0.5000-0.7315 ( 14864 PWs)   bands (ev):

[...]

          k = 0.2500-0.2500-0.7315 ( 14880 PWs)   bands (ev):

   -36.1546 -36.1543 -36.1542 -36.1540 -36.1538 -36.1538 -36.1534 -36.1533
   -36.1532 -36.1532 -36.1532 -36.1532 -36.1529 -36.1528 -36.1524 -36.1523
   -36.1211 -36.1210 -36.1188 -36.1188 -36.1180 -36.1179 -36.1179 -36.1178
   -36.1169 -36.1168 -36.1149 -36.1148 -36.1147 -36.1146 -36.1139 -36.1139
   -35.9579 -35.9579 -35.9576 -35.9576 -35.9574 -35.9574 -35.9574 -35.9574
   -35.9573 -35.9571 -35.9571 -35.9569 -35.9569 -35.9567 -35.9565 -35.9565
    -7.7085  -7.7053  -7.4368  -7.4330  -7.4328  -7.4328  -7.3476  -7.3428
    -7.1911  -7.1910  -7.0531  -7.0448  -7.0447  -7.0445  -6.9552  -6.9529
    -6.8113  -6.8037  -6.8037  -6.8035  -6.7341  -6.7339  -6.6811  -6.6791
    -6.6791  -6.6790  -6.6691  -6.6691  -6.6663  -6.6617  -6.5867  -6.5820
     3.9772   3.9797   4.0393   4.0431   4.3169   4.3169   4.3171   4.3172
     4.3360   4.3361   4.3564   4.3572   4.7048   4.7064   4.7317   4.7317
     4.7339   4.7341   4.8335   4.8344   4.9218   4.9219   4.9219   4.9238
     4.9289   4.9300   5.1627   5.1628   5.1633   5.1679   5.1780   5.1783
     5.5779   5.5780   5.5794   5.5823   5.7667   5.7681   5.9302   5.9305
     6.0433   6.0433   6.0437   6.0443   6.1050   6.1054   6.5812   6.5842
     6.6192   6.6194   6.6199   6.6212   6.7365   6.7390   6.9255   6.9264
     7.0149   7.0151   7.0165   7.0180   7.5250   7.5251   7.5260   7.5260
     7.5264   7.5276   7.5500   7.5503   7.5812   7.5813   7.5925   7.5925
     7.6762   7.6763   7.6764   7.6770   7.8807   7.8815   8.0815   8.0825
     8.1383   8.1396   8.2497   8.2505   8.4137   8.4137   8.4141   8.4142
     8.7455   8.7462   9.0087   9.0090   9.0092   9.0102   9.2362   9.2363
     9.7635   9.7643   9.9327   9.9328   9.9742   9.9743   9.9798   9.9798
     9.9800   9.9816  10.3696  10.3697  10.3979  10.3981  10.4097  10.4097
    10.4098  10.4099  10.4977  10.4978  10.5631  10.5635  10.5635  10.5636
    10.6230  10.6239  10.8419  10.8422  10.8423  10.8424  10.9562  10.9569
    11.2732  11.2733  11.3388  11.3390  11.3740  11.3741  11.3742  11.3748
    11.4486  11.4488  11.5900  11.5901  11.5901  11.5907  11.8750  11.8752
    13.0352  13.0354  13.1117  13.1130  13.1131  13.1135  13.4790  13.4792
    13.4792  13.4793  13.5186  13.5187  13.7851  13.7853  14.0294  14.0296
    14.2092  14.2097  14.2339  14.2344  14.5419  14.5421  14.5421  14.5422
    14.7638  14.7638  15.2335  15.2337  15.2339  15.2340  15.2369  15.2370
    19.6078  19.6088  20.5877  20.5895  20.5899  20.5905  21.3036  21.3049
    22.0107  22.0127  22.0131  22.0136  22.2101  22.2114  23.1076  23.1090
    23.1362  23.1366  23.1949  23.1964  23.7989  23.7997  23.8004  23.8010
    23.8655  23.8665  24.5830  24.5830  24.5836  24.5843  24.6240  24.6240
    24.9525  24.9527  25.3043  25.3045  25.3048  25.3052  25.3496  25.3498
    25.5370  25.5386  25.8235  25.8245  25.8245  25.8253  26.1973  26.1977
    26.8182  26.8189  26.8195  26.8200  26.9579  26.9580  26.9866  26.9879
    27.1864  27.1867  27.3436  27.3456  27.3456  27.3458  27.6039  27.6044
    27.6855  27.6862  27.8719  27.8725  27.8730  27.8730  28.0826  28.0826
    28.1647  28.1657  28.7243  28.7248  28.7252  28.7254  28.7912  28.7922
    28.9801  28.9807  29.8363  29.8369  29.8370  29.8374  30.7049  30.7051
    31.0284  31.0292  31.0292  31.0301  31.7847  31.7855  31.8297  31.8308
    31.8936  31.8943  31.8948  31.8952  32.4278  32.4282  32.9662  32.9664
    33.2249  33.2250  33.7103  33.7109  33.7115  33.7116  34.3079  34.3081
    34.5425  34.5443  34.7626  34.7627  35.0435  35.0447  35.0528  35.0533
    35.0533  35.0534  35.1503  35.1515  35.4100  35.4106  35.4404  35.4409
    35.4414  35.4416  36.2407  36.2415  36.3045  36.3047  36.3052  36.3053
    36.5413  36.5422  36.5424  36.5425  36.7362  36.7365  37.7338  37.7346
    37.7347  37.7350  37.7509  37.7515  38.1452  38.1460  38.2303  38.2313
    38.2337  38.2343  38.3505  38.3509  38.3512  38.3517  38.5536  38.5537
    38.6608  38.6615  38.7539  38.7544  38.7550  38.7557  38.8221  38.8227
    38.8880  38.8885  39.2463  39.2464  39.2823  39.2829  39.2832  39.2833
    39.8504  39.8506  39.8508  39.8510  39.8513  39.8516  39.8524  39.8531
    39.8552  39.8552  39.8557  39.8557  39.8580  39.8581  39.8582  39.8583
    40.0164  40.0168  40.0531  40.0539  40.0541  40.0545  40.9763  40.9774
    41.3571  41.3573  41.4662  41.4664  41.4665  41.4667  41.5117  41.5118
    41.5484  41.5486  42.0463  42.0468  42.0675  42.0678  42.5309  42.5319
    42.5322  42.5323  43.0408  43.0411  43.0413  43.0416  43.5430  43.5442
[...]
    47.3555  47.3567  47.3902  47.3905  47.5893  47.5897  47.5901  47.5905
    47.7339  47.7344  47.7345  47.7346  47.9582  47.9586  48.4936  48.4939
    48.6975  48.6978  48.8427  48.8435  48.8437  48.8443  48.8767  48.8779
    48.9913  48.9921  49.0155  49.0155  49.0161  49.0164  49.2394  49.2399
    49.2762  49.2766  49.5368  49.5372  49.5754  49.5757  49.5757  49.5758
    49.7951  49.7956  49.8149  49.8155  50.0010  50.0017  50.2163  50.2169
    50.2171  50.2176  50.4134  50.4135  50.4140  50.4143  50.8889  50.8898
    50.8917  50.8921  50.8925  50.8928  50.9688  50.9701  51.4641  51.4647
    51.4649  51.4653  51.5128  51.5128  51.5589  51.5594  52.0107  52.0110
    52.1117  52.1125  52.3687  52.3693  52.7270  52.7276  52.7277  52.7280
    52.8517  52.8519  53.1032  53.1038  53.2706  53.2710  53.2789  53.2791
    53.2793  53.2796  53.6884  53.6886  54.1194  54.1203  54.1206  54.1210
    54.2596  54.2608  54.3519  54.3522  54.4377  54.4386  54.4388  54.4392
    54.4530  54.4536  54.4937  54.4947  54.9120  54.9123  54.9123  54.9125
    55.0377  55.0381  55.1797  55.1797  55.5147  55.5150  55.5155  55.5156

     the Fermi energy is    11.6258 ev

!    total energy              =   -3758.54135479 Ry
     Harris-Foulkes estimate   =   -3758.54135501 Ry
     estimated scf accuracy    <       0.00000024 Ry

     The total energy is the sum of the following terms:

     one-electron contribution =   -1108.35632568 Ry
     hartree contribution      =     841.92926179 Ry
     xc contribution           =    -696.48215410 Ry
     ewald contribution        =   -2795.66030549 Ry
     Hubbard energy            =       0.02703782 Ry
     smearing contrib. (-TS)   =       0.00113088 Ry

     total magnetization       =     0.00 Bohr mag/cell
     absolute magnetization    =     0.00 Bohr mag/cell

     convergence has been achieved in  10 iterations

     Writing output data file pwscf.save

     General routines

     Parallel routines
     Hubbard U routines

   This run was terminated on:   3: 3:48  15Feb2014

   JOB DONE.