     Program PWSCF v.5.0.2 (svn rev. 9656) starts on 24Jan2014 at 15:37:44

     Current dimensions of program PWSCF are:
     Max number of different atomic species (ntypx) = 10
     Max number of k-points (npk) =  40000
     Max angular momentum in pseudopotentials (lmaxx) =  3
     Reading input from SnO2-v-0.90.in

     Subspace diagonalization in iterative solution of the eigenvalue problem:
     a serial algorithm will be used

     bravais-lattice index     =            0
     lattice parameter (alat)  =       8.9362  a.u.
     unit-cell volume          =     459.8794 (a.u.)^3
     number of atoms/cell      =            6
     number of atomic types    =            2
     number of electrons       =        52.00
     number of Kohn-Sham states=           75
     kinetic-energy cutoff     =      40.0000  Ry
     charge density cutoff     =     500.0000  Ry
     convergence threshold     =      1.0E-06
     mixing beta               =       0.3000
     number of iterations used =            8  plain     mixing
     Exchange-correlation      = SLA  PW   PBE  PBE ( 1 4 3 4 0)
     EXX-fraction              =        0.00
     nstep                     =           50

     celldm(1)=   8.936199  celldm(2)=   0.000000  celldm(3)=   0.000000
     celldm(4)=   0.000000  celldm(5)=   0.000000  celldm(6)=   0.000000

     crystal axes: (cart. coord. in units of alat)
               a(1) = (   1.000000   0.000000   0.000000 )
               a(2) = (   0.000000   1.000000   0.000000 )
               a(3) = (   0.000000   0.000000   0.644444 )

     reciprocal axes: (cart. coord. in units 2 pi/alat)
               b(1) = (  1.000000  0.000000  0.000000 )
               b(2) = (  0.000000  1.000000  0.000000 )
               b(3) = (  0.000000  0.000000  1.551724 )

     PseudoPot. # 1 for Sn read from file:
     /home/camp/zhonxu/pseudo/sn_pbe_v1.uspp.F.UPF
     MD5 check sum: 4cf58ce39ec5d5d420df3dd08604eb00
     Pseudo is Ultrasoft + core correction, Zval = 14.0
     Generated by new atomic code, or converted to UPF format
     Using radial grid of  891 points,  6 beta functions with:
                l(1) =   0
                l(2) =   0
                l(3) =   1
                l(4) =   1
                l(5) =   2
                l(6) =   2
     Q(r) pseudized with  6 coefficients,  rinner =    1.200   1.200   1.200
                                                       1.200   1.200

     PseudoPot. # 2 for O  read from file:
     /home/camp/zhonxu/pseudo/o_pbe_v1.01.uspp.F.UPF
     MD5 check sum: 2bcb18d16ea4b960afae9ec6d52f22d2
     Pseudo is Ultrasoft + core correction, Zval =  6.0
     Generated by new atomic code, or converted to UPF format
     Using radial grid of  737 points,  5 beta functions with:
                l(1) =   0
                l(2) =   0
                l(3) =   1
                l(4) =   1
                l(5) =   2
     Q(r) pseudized with  8 coefficients,  rinner =    0.900   0.900   0.900
                                                       0.900   0.900

     atomic species   valence    mass     pseudopotential
        Sn0           14.00   118.71000     Sn( 1.00)
        O1             6.00    15.99940     O ( 1.00)

     Starting magnetic structure
     atomic species   magnetization
        Sn0          0.600
        O1           0.000

      8 Sym. Ops., with inversion, found
          (note:  8 additional sym.ops. were found but ignored
           their fractional translations are incommensurate with FFT grid)

   Cartesian axes

     site n.     atom                  positions (alat units)
         1           Sn0 tau(   1) = (   0.0000000   0.0000000   0.0000000  )
         2           Sn0 tau(   2) = (   0.5000000   0.5000000   0.3222222  )
         3           O1  tau(   3) = (   0.3050000   0.3050000   0.0000000  )
         4           O1  tau(   4) = (  -0.3050000  -0.3050000   0.0000000  )
         5           O1  tau(   5) = (   0.8050000   0.1950000   0.3222222  )
         6           O1  tau(   6) = (   0.1950000   0.8050000   0.3222222  )

     number of k points=    54  Methfessel-Paxton smearing, width (Ry)=  0.0100
                       cart. coord. in units 2pi/alat
        k(    1) = (   0.0000000   0.0000000   0.0000000), wk =   0.0080000
        k(    2) = (   0.0000000   0.0000000   0.3103448), wk =   0.0160000
        k(    3) = (   0.0000000   0.0000000   0.6206897), wk =   0.0160000
        k(    4) = (   0.0000000   0.2000000   0.0000000), wk =   0.0320000
        k(    5) = (   0.0000000   0.2000000   0.3103448), wk =   0.0640000
        k(    6) = (   0.0000000   0.2000000   0.6206897), wk =   0.0640000
        k(    7) = (   0.0000000   0.4000000   0.0000000), wk =   0.0320000
        k(    8) = (   0.0000000   0.4000000   0.3103448), wk =   0.0640000
        k(    9) = (   0.0000000   0.4000000   0.6206897), wk =   0.0640000
        k(   10) = (   0.2000000   0.2000000   0.0000000), wk =   0.0160000
        k(   11) = (   0.2000000   0.2000000   0.3103448), wk =   0.0320000
        k(   12) = (   0.2000000   0.2000000   0.6206897), wk =   0.0320000
        k(   13) = (   0.2000000   0.4000000   0.0000000), wk =   0.0320000
        k(   14) = (   0.2000000   0.4000000   0.3103448), wk =   0.0640000
        k(   15) = (   0.2000000   0.4000000   0.6206897), wk =   0.0640000
        k(   16) = (   0.4000000   0.4000000   0.0000000), wk =   0.0160000
        k(   17) = (   0.4000000   0.4000000   0.3103448), wk =   0.0320000
        k(   18) = (   0.4000000   0.4000000   0.6206897), wk =   0.0320000
        k(   19) = (  -0.2000000   0.2000000   0.0000000), wk =   0.0160000
        k(   20) = (  -0.2000000   0.2000000  -0.3103448), wk =   0.0320000
        k(   21) = (  -0.2000000   0.2000000  -0.6206897), wk =   0.0320000
        k(   22) = (  -0.2000000   0.4000000   0.0000000), wk =   0.0320000
        k(   23) = (  -0.2000000   0.4000000  -0.3103448), wk =   0.0640000
        k(   24) = (  -0.2000000   0.4000000  -0.6206897), wk =   0.0640000
        k(   25) = (  -0.4000000   0.4000000   0.0000000), wk =   0.0160000
        k(   26) = (  -0.4000000   0.4000000  -0.3103448), wk =   0.0320000
        k(   27) = (  -0.4000000   0.4000000  -0.6206897), wk =   0.0320000
        k(   28) = (   0.0000000   0.0000000   0.0000000), wk =   0.0080000
        k(   29) = (   0.0000000   0.0000000   0.3103448), wk =   0.0160000
        k(   30) = (   0.0000000   0.0000000   0.6206897), wk =   0.0160000
        k(   31) = (   0.0000000   0.2000000   0.0000000), wk =   0.0320000
        k(   32) = (   0.0000000   0.2000000   0.3103448), wk =   0.0640000
        k(   33) = (   0.0000000   0.2000000   0.6206897), wk =   0.0640000
        k(   34) = (   0.0000000   0.4000000   0.0000000), wk =   0.0320000
        k(   35) = (   0.0000000   0.4000000   0.3103448), wk =   0.0640000
        k(   36) = (   0.0000000   0.4000000   0.6206897), wk =   0.0640000
        k(   37) = (   0.2000000   0.2000000   0.0000000), wk =   0.0160000
        k(   38) = (   0.2000000   0.2000000   0.3103448), wk =   0.0320000
        k(   39) = (   0.2000000   0.2000000   0.6206897), wk =   0.0320000
        k(   40) = (   0.2000000   0.4000000   0.0000000), wk =   0.0320000
        k(   41) = (   0.2000000   0.4000000   0.3103448), wk =   0.0640000
        k(   42) = (   0.2000000   0.4000000   0.6206897), wk =   0.0640000
        k(   43) = (   0.4000000   0.4000000   0.0000000), wk =   0.0160000
        k(   44) = (   0.4000000   0.4000000   0.3103448), wk =   0.0320000
        k(   45) = (   0.4000000   0.4000000   0.6206897), wk =   0.0320000
        k(   46) = (  -0.2000000   0.2000000   0.0000000), wk =   0.0160000
        k(   47) = (  -0.2000000   0.2000000  -0.3103448), wk =   0.0320000
        k(   48) = (  -0.2000000   0.2000000  -0.6206897), wk =   0.0320000
        k(   49) = (  -0.2000000   0.4000000   0.0000000), wk =   0.0320000
        k(   50) = (  -0.2000000   0.4000000  -0.3103448), wk =   0.0640000
        k(   51) = (  -0.2000000   0.4000000  -0.6206897), wk =   0.0640000
        k(   52) = (  -0.4000000   0.4000000   0.0000000), wk =   0.0160000
        k(   53) = (  -0.4000000   0.4000000  -0.3103448), wk =   0.0320000
        k(   54) = (  -0.4000000   0.4000000  -0.6206897), wk =   0.0320000

     Largest allocated arrays     est. size (Mb)     dimensions
     Largest temporary arrays     est. size (Mb)     dimensions

     Check: negative/imaginary core charge=   -0.000004    0.000000

     Initial potential from superposition of free atoms

     starting charge   49.99990, renormalised to   52.00000
     Starting wfc are   34 randomized atomic wfcs

     Self-consistent Calculation

     iteration #  1     ecut=    40.00 Ry     beta=0.30
     Davidson diagonalization with overlap
     ethr =  1.00E-02,  avg # of iterations =  5.1

     total energy              =    -454.67081575 Ry
     Harris-Foulkes estimate   =    -454.80793129 Ry
     estimated scf accuracy    <       3.54897761 Ry

     total magnetization       =     0.00 Bohr mag/cell
     absolute magnetization    =     0.83 Bohr mag/cell

[...]

     End of self-consistent calculation

 ------ SPIN UP ------------

          k = 0.0000 0.0000 0.0000 (  1955 PWs)   bands (ev):

   -10.9583 -10.1713  -9.6776  -9.6361  -9.6360  -9.4996  -9.4844  -9.3757
    -9.3585  -9.3585  -8.9055  -7.0482  -7.0482  -4.9147   1.9180   5.8692
     5.8692   6.4960   6.9705   8.3470   8.3915   9.2420   9.2421   9.4479
     9.4479  10.3198  12.2740  17.2772  17.2772  17.4548  20.8472  21.9235
    22.8616  22.8616  23.1875  23.2788  26.8229  28.0619  29.8398  30.2272
    30.6697  30.6697  31.1355  31.1355  31.2367  31.2394  31.6118  31.6119
    33.0030  33.3434  33.6813  34.2735  36.8920  36.8920  39.1019  39.1442
    39.1442  39.6397  41.6101  41.6299  41.6299  43.0958  44.1311  44.2687
    45.1149  45.1150  45.5666  46.0674  46.1214  46.1214  47.7053  48.0796
    48.6330  48.6330  49.4202

[...]

          k =-0.2000 0.2000 0.0000 (  1967 PWs)   bands (ev):

[...]

 ------ SPIN DOWN ----------

[...]

     the Fermi energy is    11.2525 ev

!    total energy              =    -455.46195144 Ry
     Harris-Foulkes estimate   =    -455.46194614 Ry
     estimated scf accuracy    <       0.00000004 Ry

     The total energy is the sum of the following terms:

     one-electron contribution =    -124.31220683 Ry
     hartree contribution      =     105.16324829 Ry
     xc contribution           =    -125.04220764 Ry
     ewald contribution        =    -311.27078527 Ry
     smearing contrib. (-TS)   =       0.00000000 Ry

[...]

     convergence has been achieved in   9 iterations

     Forces acting on atoms (Ry/au):

     atom    1 type  1   force =     0.00000000    0.00000000    0.00000000
     atom    2 type  1   force =     0.00000000    0.00000000    0.00000000
     atom    3 type  2   force =    -0.01239932   -0.01239932    0.00000000
     atom    4 type  2   force =     0.01239932    0.01239932    0.00000000
     atom    5 type  2   force =    -0.01239955    0.01239955    0.00000000
     atom    6 type  2   force =     0.01239955   -0.01239955    0.00000000

[...]
        k(    6) = (  -0.0000002   0.2044052   0.5942246), wk =   0.0640000
        k(    7) = (  -0.0000003   0.4088104   0.0000000), wk =   0.0320000
        k(    8) = (  -0.0000003   0.4088104   0.2971123), wk =   0.0640000
        k(    9) = (  -0.0000003   0.4088104   0.5942246), wk =   0.0640000
        k(   10) = (   0.2044050   0.2044050   0.0000000), wk =   0.0160000
        k(   11) = (   0.2044050   0.2044050   0.2971123), wk =   0.0320000
        k(   12) = (   0.2044050   0.2044050   0.5942246), wk =   0.0320000
        k(   13) = (   0.2044049   0.4088102   0.0000000), wk =   0.0320000
        k(   14) = (   0.2044049   0.4088102   0.2971123), wk =   0.0640000
        k(   15) = (   0.2044049   0.4088102   0.5942246), wk =   0.0640000
        k(   16) = (   0.4088101   0.4088101   0.0000000), wk =   0.0160000
        k(   17) = (   0.4088101   0.4088101   0.2971123), wk =   0.0320000
        k(   18) = (   0.4088101   0.4088101   0.5942246), wk =   0.0320000
        k(   19) = (  -0.2044054   0.2044054   0.0000000), wk =   0.0160000
        k(   20) = (  -0.2044054   0.2044054  -0.2971123), wk =   0.0320000
        k(   21) = (  -0.2044054   0.2044054  -0.5942246), wk =   0.0320000
        k(   22) = (  -0.2044055   0.4088106   0.0000000), wk =   0.0320000
        k(   23) = (  -0.2044055   0.4088106  -0.2971123), wk =   0.0640000
        k(   24) = (  -0.2044055   0.4088106  -0.5942246), wk =   0.0640000
        k(   25) = (  -0.4088107   0.4088107   0.0000000), wk =   0.0160000
        k(   26) = (  -0.4088107   0.4088107  -0.2971123), wk =   0.0320000
        k(   27) = (  -0.4088107   0.4088107  -0.5942246), wk =   0.0320000
        k(   28) = (   0.0000000   0.0000000   0.0000000), wk =   0.0080000
        k(   29) = (   0.0000000   0.0000000   0.2971123), wk =   0.0160000
        k(   30) = (   0.0000000   0.0000000   0.5942246), wk =   0.0160000
        k(   31) = (  -0.0000002   0.2044052   0.0000000), wk =   0.0320000
        k(   32) = (  -0.0000002   0.2044052   0.2971123), wk =   0.0640000
        k(   33) = (  -0.0000002   0.2044052   0.5942246), wk =   0.0640000
        k(   34) = (  -0.0000003   0.4088104   0.0000000), wk =   0.0320000
        k(   35) = (  -0.0000003   0.4088104   0.2971123), wk =   0.0640000
        k(   36) = (  -0.0000003   0.4088104   0.5942246), wk =   0.0640000
        k(   37) = (   0.2044050   0.2044050   0.0000000), wk =   0.0160000
        k(   38) = (   0.2044050   0.2044050   0.2971123), wk =   0.0320000
        k(   39) = (   0.2044050   0.2044050   0.5942246), wk =   0.0320000
        k(   40) = (   0.2044049   0.4088102   0.0000000), wk =   0.0320000
        k(   41) = (   0.2044049   0.4088102   0.2971123), wk =   0.0640000
        k(   42) = (   0.2044049   0.4088102   0.5942246), wk =   0.0640000
        k(   43) = (   0.4088101   0.4088101   0.0000000), wk =   0.0160000
        k(   44) = (   0.4088101   0.4088101   0.2971123), wk =   0.0320000
        k(   45) = (   0.4088101   0.4088101   0.5942246), wk =   0.0320000
        k(   46) = (  -0.2044054   0.2044054   0.0000000), wk =   0.0160000
        k(   47) = (  -0.2044054   0.2044054  -0.2971123), wk =   0.0320000
        k(   48) = (  -0.2044054   0.2044054  -0.5942246), wk =   0.0320000
        k(   49) = (  -0.2044055   0.4088106   0.0000000), wk =   0.0320000
        k(   50) = (  -0.2044055   0.4088106  -0.2971123), wk =   0.0640000
        k(   51) = (  -0.2044055   0.4088106  -0.5942246), wk =   0.0640000
        k(   52) = (  -0.4088107   0.4088107   0.0000000), wk =   0.0160000
        k(   53) = (  -0.4088107   0.4088107  -0.2971123), wk =   0.0320000
        k(   54) = (  -0.4088107   0.4088107  -0.5942246), wk =   0.0320000

[...]

     Threshold (ethr) on eigenvalues was too large:
     Diagonalizing with lowered threshold

     Davidson diagonalization with overlap
     ethr =  2.41E-09,  avg # of iterations =  1.7

[...]

     Total force =     0.000199     Total SCF correction =     0.000049
     SCF correction compared to forces is large: reduce conv_thr to get better values

[...]

     Volume is kept fixed: isostatic pressure set to zero

     bfgs converged in   6 scf cycles and   5 bfgs steps
     (criteria: energy < 0.10E-03, force < 0.10E-02, cell < 0.50E+00)

     End of BFGS Geometry Optimization

     Final enthalpy =    -455.4737581567 Ry
Begin final coordinates
     new unit-cell volume =    459.87943 a.u.^3 (    68.14710 Ang^3 )

CELL_PARAMETERS (alat=  8.93619905)
   0.978448686   0.000000743   0.000000000
   0.000000743   0.978448686   0.000000000
   0.000000000   0.000000000   0.673146165

ATOMIC_POSITIONS (crystal)
Sn0      0.000000000   0.000000000   0.000000000    0   0   0
Sn0      0.500000000   0.500000000   0.500000000    0   0   0
O1       0.305404478   0.305404478   0.000000000    1   1   0
O1      -0.305404478  -0.305404478   0.000000000    1   1   0
O1       0.805404537   0.194595463   0.500000000    1   1   0
O1       0.194595463   0.805404537   0.500000000    1   1   0
End final coordinates

     A final scf calculation at the relaxed structure.
     The G-vectors are recalculated for the final unit cell
     Results may differ from those at the preceding step.

     bravais-lattice index     =            0
     lattice parameter (alat)  =       8.9362  a.u.
     unit-cell volume          =     459.8794 (a.u.)^3
     number of atoms/cell      =            6
     number of atomic types    =            2
     number of electrons       =        52.00
     number of Kohn-Sham states=           75
     kinetic-energy cutoff     =      40.0000  Ry
     charge density cutoff     =     500.0000  Ry
     convergence threshold     =      1.0E-08
     mixing beta               =       0.3000
     number of iterations used =            8  plain     mixing
     Exchange-correlation      = SLA  PW   PBE  PBE ( 1 4 3 4 0)
     EXX-fraction              =        0.00

     celldm(1)=   8.936199  celldm(2)=   0.000000  celldm(3)=   0.000000
     celldm(4)=   0.000000  celldm(5)=   0.000000  celldm(6)=   0.000000

     crystal axes: (cart. coord. in units of alat)
               a(1) = (   0.978449   0.000001   0.000000 )
               a(2) = (   0.000001   0.978449   0.000000 )
               a(3) = (   0.000000   0.000000   0.673146 )

     reciprocal axes: (cart. coord. in units 2 pi/alat)
               b(1) = (  1.022026 -0.000001  0.000000 )
               b(2) = ( -0.000001  1.022026  0.000000 )
               b(3) = (  0.000000  0.000000  1.485561 )

     PseudoPot. # 1 for Sn read from file:
     /home/camp/zhonxu/pseudo/sn_pbe_v1.uspp.F.UPF
     MD5 check sum: 4cf58ce39ec5d5d420df3dd08604eb00
     Pseudo is Ultrasoft + core correction, Zval = 14.0
     Generated by new atomic code, or converted to UPF format
     Using radial grid of  891 points,  6 beta functions with:
                l(1) =   0
                l(2) =   0
                l(3) =   1
                l(4) =   1
                l(5) =   2
                l(6) =   2
     Q(r) pseudized with  6 coefficients,  rinner =    1.200   1.200   1.200
                                                       1.200   1.200

     PseudoPot. # 2 for O  read from file:
     /home/camp/zhonxu/pseudo/o_pbe_v1.01.uspp.F.UPF
     MD5 check sum: 2bcb18d16ea4b960afae9ec6d52f22d2
     Pseudo is Ultrasoft + core correction, Zval =  6.0
     Generated by new atomic code, or converted to UPF format
     Using radial grid of  737 points,  5 beta functions with:
                l(1) =   0
                l(2) =   0
                l(3) =   1
                l(4) =   1
                l(5) =   2
     Q(r) pseudized with  8 coefficients,  rinner =    0.900   0.900   0.900
                                                       0.900   0.900

     atomic species   valence    mass     pseudopotential
        Sn0           14.00   118.71000     Sn( 1.00)
        O1             6.00    15.99940     O ( 1.00)

     Starting magnetic structure
     atomic species   magnetization
        Sn0          0.600
        O1           0.000

      8 Sym. Ops., with inversion, found
          (note:  8 additional sym.ops. were found but ignored
           their fractional translations are incommensurate with FFT grid)

   Cartesian axes

     site n.     atom                  positions (alat units)
         1           Sn0 tau(   1) = (   0.0000000   0.0000000   0.0000000  )
         2           Sn0 tau(   2) = (   0.4892247   0.4892247   0.3365731  )
         3           O1  tau(   3) = (   0.2988228   0.2988228   0.0000000  )
         4           O1  tau(   4) = (  -0.2988228  -0.2988228   0.0000000  )
         5           O1  tau(   5) = (   0.7880472   0.1904023   0.3365731  )
         6           O1  tau(   6) = (   0.1904023   0.7880472   0.3365731  )

     number of k points=    54  Methfessel-Paxton smearing, width (Ry)=  0.0100
                       cart. coord. in units 2pi/alat
        k(    1) = (   0.0000000   0.0000000   0.0000000), wk =   0.0080000
        k(    2) = (   0.0000000   0.0000000   0.2971123), wk =   0.0160000
        k(    3) = (   0.0000000   0.0000000   0.5942246), wk =   0.0160000
        k(    4) = (  -0.0000002   0.2044052   0.0000000), wk =   0.0320000
        k(    5) = (  -0.0000002   0.2044052   0.2971123), wk =   0.0640000
        k(    6) = (  -0.0000002   0.2044052   0.5942246), wk =   0.0640000
        k(    7) = (  -0.0000003   0.4088104   0.0000000), wk =   0.0320000
        k(    8) = (  -0.0000003   0.4088104   0.2971123), wk =   0.0640000
        k(    9) = (  -0.0000003   0.4088104   0.5942246), wk =   0.0640000
        k(   10) = (   0.2044050   0.2044050   0.0000000), wk =   0.0160000
        k(   11) = (   0.2044050   0.2044050   0.2971123), wk =   0.0320000
        k(   12) = (   0.2044050   0.2044050   0.5942246), wk =   0.0320000
        k(   13) = (   0.2044049   0.4088102   0.0000000), wk =   0.0320000
        k(   14) = (   0.2044049   0.4088102   0.2971123), wk =   0.0640000
        k(   15) = (   0.2044049   0.4088102   0.5942246), wk =   0.0640000
        k(   16) = (   0.4088101   0.4088101   0.0000000), wk =   0.0160000
        k(   17) = (   0.4088101   0.4088101   0.2971123), wk =   0.0320000
        k(   18) = (   0.4088101   0.4088101   0.5942246), wk =   0.0320000
        k(   19) = (  -0.2044054   0.2044054   0.0000000), wk =   0.0160000
        k(   20) = (  -0.2044054   0.2044054  -0.2971123), wk =   0.0320000
        k(   21) = (  -0.2044054   0.2044054  -0.5942246), wk =   0.0320000
        k(   22) = (  -0.2044055   0.4088106   0.0000000), wk =   0.0320000
        k(   23) = (  -0.2044055   0.4088106  -0.2971123), wk =   0.0640000
        k(   24) = (  -0.2044055   0.4088106  -0.5942246), wk =   0.0640000
        k(   25) = (  -0.4088107   0.4088107   0.0000000), wk =   0.0160000
        k(   26) = (  -0.4088107   0.4088107  -0.2971123), wk =   0.0320000
        k(   27) = (  -0.4088107   0.4088107  -0.5942246), wk =   0.0320000
        k(   28) = (   0.0000000   0.0000000   0.0000000), wk =   0.0080000
        k(   29) = (   0.0000000   0.0000000   0.2971123), wk =   0.0160000
        k(   30) = (   0.0000000   0.0000000   0.5942246), wk =   0.0160000
        k(   31) = (  -0.0000002   0.2044052   0.0000000), wk =   0.0320000
        k(   32) = (  -0.0000002   0.2044052   0.2971123), wk =   0.0640000
        k(   33) = (  -0.0000002   0.2044052   0.5942246), wk =   0.0640000
        k(   34) = (  -0.0000003   0.4088104   0.0000000), wk =   0.0320000
        k(   35) = (  -0.0000003   0.4088104   0.2971123), wk =   0.0640000
        k(   36) = (  -0.0000003   0.4088104   0.5942246), wk =   0.0640000
        k(   37) = (   0.2044050   0.2044050   0.0000000), wk =   0.0160000
        k(   38) = (   0.2044050   0.2044050   0.2971123), wk =   0.0320000
        k(   39) = (   0.2044050   0.2044050   0.5942246), wk =   0.0320000
        k(   40) = (   0.2044049   0.4088102   0.0000000), wk =   0.0320000
        k(   41) = (   0.2044049   0.4088102   0.2971123), wk =   0.0640000
        k(   42) = (   0.2044049   0.4088102   0.5942246), wk =   0.0640000
        k(   43) = (   0.4088101   0.4088101   0.0000000), wk =   0.0160000
        k(   44) = (   0.4088101   0.4088101   0.2971123), wk =   0.0320000
        k(   45) = (   0.4088101   0.4088101   0.5942246), wk =   0.0320000
        k(   46) = (  -0.2044054   0.2044054   0.0000000), wk =   0.0160000
        k(   47) = (  -0.2044054   0.2044054  -0.2971123), wk =   0.0320000
        k(   48) = (  -0.2044054   0.2044054  -0.5942246), wk =   0.0320000
        k(   49) = (  -0.2044055   0.4088106   0.0000000), wk =   0.0320000
        k(   50) = (  -0.2044055   0.4088106  -0.2971123), wk =   0.0640000
        k(   51) = (  -0.2044055   0.4088106  -0.5942246), wk =   0.0640000
        k(   52) = (  -0.4088107   0.4088107   0.0000000), wk =   0.0160000
        k(   53) = (  -0.4088107   0.4088107  -0.2971123), wk =   0.0320000
        k(   54) = (  -0.4088107   0.4088107  -0.5942246), wk =   0.0320000

     Largest allocated arrays     est. size (Mb)     dimensions
     Largest temporary arrays     est. size (Mb)     dimensions

     Check: negative/imaginary core charge=   -0.000004    0.000000

     Initial potential from superposition of free atoms

     starting charge   49.99990, renormalised to   52.00000
     Starting wfc are   34 randomized atomic wfcs

     Self-consistent Calculation

[...]

     total energy              =    -455.47372558 Ry
     Harris-Foulkes estimate   =    -455.47372297 Ry
     estimated scf accuracy    <       0.00000002 Ry

[...]

     iteration # 10     ecut=    40.00 Ry     beta=0.30
     Davidson diagonalization with overlap
     ethr =  4.06E-11,  avg # of iterations =  2.0

     End of self-consistent calculation

 ------ SPIN UP ------------

[...]

 ------ SPIN DOWN ----------

[...]

          k = 0.4088 0.4088 0.5942 (  1984 PWs)   bands (ev):

[...]

          k =-0.4088 0.4088-0.5942 (  1984 PWs)   bands (ev):

   -10.5820 -10.4496 -10.1454  -9.9485  -9.4412  -9.4360  -9.3852  -9.3810
    -9.3792  -9.3723  -6.9708  -6.6903  -5.4806  -5.2849   2.3694   2.5183
     5.3993   5.4099   6.5195   7.5741   7.9664   8.9042   9.2524   9.3238
     9.4506   9.5126  15.9417  16.0777  19.5206  19.8708  21.2173  21.5418
    22.0313  22.3251  23.6333  23.9280  25.5021  25.7713  26.1002  28.0756
    29.0384  29.3409  29.9009  31.0227  31.2253  31.2260  33.1548  33.7459
    35.7634  35.8849  36.4768  37.1672  37.5751  37.9596  39.2616  39.8289
    39.9463  41.6129  41.9498  42.2570  44.0316  44.2983  44.7391  45.1189
    45.2053  45.8157  46.3838  46.8365  47.3164  47.8878  47.8971  48.4539
    49.2620  49.9396  50.2687

     the Fermi energy is    10.4449 ev

!    total energy              =    -455.47372809 Ry
     Harris-Foulkes estimate   =    -455.47372559 Ry
     estimated scf accuracy    <          6.3E-09 Ry

     The total energy is the sum of the following terms:

     one-electron contribution =    -120.49433936 Ry
     hartree contribution      =     103.33244144 Ry
     xc contribution           =    -124.98569412 Ry
     ewald contribution        =    -313.32614370 Ry
     smearing contrib. (-TS)   =       0.00000765 Ry

     total magnetization       =     0.00 Bohr mag/cell
     absolute magnetization    =     0.00 Bohr mag/cell

     convergence has been achieved in  10 iterations

     Forces acting on atoms (Ry/au):

     atom    1 type  1   force =     0.00000000    0.00000000    0.00000000
     atom    2 type  1   force =     0.00000000    0.00000000    0.00000000
     atom    3 type  2   force =     0.00005479    0.00005479    0.00000000
     atom    4 type  2   force =    -0.00005479   -0.00005479    0.00000000
     atom    5 type  2   force =     0.00005483   -0.00005483    0.00000000
     atom    6 type  2   force =    -0.00005483    0.00005483    0.00000000

     Total force =     0.000155     Total SCF correction =     0.000010

     entering subroutine stress ...

          total   stress  (Ry/bohr**3)                   (kbar)     P=  226.69
   0.00154215  -0.00000003   0.00000000        226.86     -0.00      0.00
  -0.00000003   0.00154215   0.00000000         -0.00    226.86      0.00
   0.00000000   0.00000000   0.00153866          0.00      0.00    226.35

     General routines

     Parallel routines

   This run was terminated on:  16: 7: 5  24Jan2014

   JOB DONE.
Running PBS batch system epilogue script
Job id: 251913.audhumbla.fysik.dtu.dk
Username: zhonxu
Groupname: campgst
Jobname: SnO2/fine-EOS/ferro/SnO2-v-0.90
Sessionid: 27616
Queuename: verylong
Accounting:
This job has allocated the following 4 nodes:
q029 q029 q029 q029
Finished epilogue job 251913.audhumbla.fysik.dtu.dk for zhonxu