     Program PWSCF v.5.0.2 (svn rev. 9656) starts on 23Jan2014 at 20:52:14

     Current dimensions of program PWSCF are:
     Max number of different atomic species (ntypx) = 10
     Max number of k-points (npk) =  40000
     Max angular momentum in pseudopotentials (lmaxx) =  3
     Reading input from MoO2-v-1.1.in

     Subspace diagonalization in iterative solution of the eigenvalue problem:
     a serial algorithm will be used

     bravais-lattice index     =            0
     lattice parameter (alat)  =       8.9385  a.u.
     unit-cell volume          =     460.2364 (a.u.)^3
     number of atoms/cell      =            6
     number of atomic types    =            2
     number of electrons       =        52.00
     number of Kohn-Sham states=           78
     kinetic-energy cutoff     =      40.0000  Ry
     charge density cutoff     =     500.0000  Ry
     convergence threshold     =      1.0E-06
     mixing beta               =       0.7000
     number of iterations used =            8  plain     mixing
     Exchange-correlation      = SLA  PW   PBE  PBE ( 1 4 3 4 0)
     EXX-fraction              =        0.00
     nstep                     =           50

     celldm(1)=   8.938511  celldm(2)=   0.000000  celldm(3)=   0.000000
     celldm(4)=   0.000000  celldm(5)=   0.000000  celldm(6)=   0.000000

     crystal axes: (cart. coord. in units of alat)
               a(1) = (   1.000000   0.000000   0.000000 )
               a(2) = (   0.000000   1.000000   0.000000 )
               a(3) = (   0.000000   0.000000   0.644444 )

     reciprocal axes: (cart. coord. in units 2 pi/alat)
               b(1) = (  1.000000  0.000000  0.000000 )
               b(2) = (  0.000000  1.000000  0.000000 )
               b(3) = (  0.000000  0.000000  1.551724 )

     PseudoPot. # 1 for Mo read from file:
     /home/camp/zhonxu/pseudo/mo_pbe_v1.uspp.F.UPF
     MD5 check sum: 30c4dcd161f5d35cd49bb5239c51a633
     Pseudo is Ultrasoft + core correction, Zval = 14.0
     Generated by new atomic code, or converted to UPF format
     Using radial grid of  889 points,  6 beta functions with:
                l(1) =   0
                l(2) =   0
                l(3) =   1
                l(4) =   1
                l(5) =   2
                l(6) =   2
     Q(r) pseudized with  6 coefficients,  rinner =    1.000   1.000   1.000
                                                       1.000   1.000

     PseudoPot. # 2 for O  read from file:
     /home/camp/zhonxu/pseudo/o_pbe_v1.01.uspp.F.UPF
     MD5 check sum: 2bcb18d16ea4b960afae9ec6d52f22d2
     Pseudo is Ultrasoft + core correction, Zval =  6.0
     Generated by new atomic code, or converted to UPF format
     Using radial grid of  737 points,  5 beta functions with:
                l(1) =   0
                l(2) =   0
                l(3) =   1
                l(4) =   1
                l(5) =   2
     Q(r) pseudized with  8 coefficients,  rinner =    0.900   0.900   0.900
                                                       0.900   0.900

     atomic species   valence    mass     pseudopotential
        Mo0           14.00    95.94000     Mo( 1.00)
        O1             6.00    15.99940     O ( 1.00)

     Starting magnetic structure
     atomic species   magnetization
        Mo0          0.600
        O1           0.000

      8 Sym. Ops., with inversion, found
          (note:  8 additional sym.ops. were found but ignored
           their fractional translations are incommensurate with FFT grid)

   Cartesian axes

     site n.     atom                  positions (alat units)
         1           Mo0 tau(   1) = (   0.0000000   0.0000000   0.0000000  )
         2           Mo0 tau(   2) = (   0.5000000   0.5000000   0.3222222  )
         3           O1  tau(   3) = (   0.3050000   0.3050000   0.0000000  )
         4           O1  tau(   4) = (  -0.3050000  -0.3050000   0.0000000  )
         5           O1  tau(   5) = (   0.8050000   0.1950000   0.3222222  )
         6           O1  tau(   6) = (   0.1950000   0.8050000   0.3222222  )

     number of k points=    54  Methfessel-Paxton smearing, width (Ry)=  0.0100
                       cart. coord. in units 2pi/alat
        k(    1) = (   0.0000000   0.0000000   0.0000000), wk =   0.0080000
        k(    2) = (   0.0000000   0.0000000   0.3103448), wk =   0.0160000
        k(    3) = (   0.0000000   0.0000000   0.6206897), wk =   0.0160000
        k(    4) = (   0.0000000   0.2000000   0.0000000), wk =   0.0320000
        k(    5) = (   0.0000000   0.2000000   0.3103448), wk =   0.0640000
        k(    6) = (   0.0000000   0.2000000   0.6206897), wk =   0.0640000
        k(    7) = (   0.0000000   0.4000000   0.0000000), wk =   0.0320000
        k(    8) = (   0.0000000   0.4000000   0.3103448), wk =   0.0640000
        k(    9) = (   0.0000000   0.4000000   0.6206897), wk =   0.0640000
        k(   10) = (   0.2000000   0.2000000   0.0000000), wk =   0.0160000
        k(   11) = (   0.2000000   0.2000000   0.3103448), wk =   0.0320000
        k(   12) = (   0.2000000   0.2000000   0.6206897), wk =   0.0320000
        k(   13) = (   0.2000000   0.4000000   0.0000000), wk =   0.0320000
        k(   14) = (   0.2000000   0.4000000   0.3103448), wk =   0.0640000
        k(   15) = (   0.2000000   0.4000000   0.6206897), wk =   0.0640000
        k(   16) = (   0.4000000   0.4000000   0.0000000), wk =   0.0160000
        k(   17) = (   0.4000000   0.4000000   0.3103448), wk =   0.0320000
        k(   18) = (   0.4000000   0.4000000   0.6206897), wk =   0.0320000
        k(   19) = (  -0.2000000   0.2000000   0.0000000), wk =   0.0160000
        k(   20) = (  -0.2000000   0.2000000  -0.3103448), wk =   0.0320000
        k(   21) = (  -0.2000000   0.2000000  -0.6206897), wk =   0.0320000
        k(   22) = (  -0.2000000   0.4000000   0.0000000), wk =   0.0320000
        k(   23) = (  -0.2000000   0.4000000  -0.3103448), wk =   0.0640000
        k(   24) = (  -0.2000000   0.4000000  -0.6206897), wk =   0.0640000
        k(   25) = (  -0.4000000   0.4000000   0.0000000), wk =   0.0160000
        k(   26) = (  -0.4000000   0.4000000  -0.3103448), wk =   0.0320000
        k(   27) = (  -0.4000000   0.4000000  -0.6206897), wk =   0.0320000
        k(   28) = (   0.0000000   0.0000000   0.0000000), wk =   0.0080000
        k(   29) = (   0.0000000   0.0000000   0.3103448), wk =   0.0160000
        k(   30) = (   0.0000000   0.0000000   0.6206897), wk =   0.0160000
        k(   31) = (   0.0000000   0.2000000   0.0000000), wk =   0.0320000
        k(   32) = (   0.0000000   0.2000000   0.3103448), wk =   0.0640000
        k(   33) = (   0.0000000   0.2000000   0.6206897), wk =   0.0640000
        k(   34) = (   0.0000000   0.4000000   0.0000000), wk =   0.0320000
        k(   35) = (   0.0000000   0.4000000   0.3103448), wk =   0.0640000
        k(   36) = (   0.0000000   0.4000000   0.6206897), wk =   0.0640000
        k(   37) = (   0.2000000   0.2000000   0.0000000), wk =   0.0160000
        k(   38) = (   0.2000000   0.2000000   0.3103448), wk =   0.0320000
        k(   39) = (   0.2000000   0.2000000   0.6206897), wk =   0.0320000
        k(   40) = (   0.2000000   0.4000000   0.0000000), wk =   0.0320000
        k(   41) = (   0.2000000   0.4000000   0.3103448), wk =   0.0640000
        k(   42) = (   0.2000000   0.4000000   0.6206897), wk =   0.0640000
        k(   43) = (   0.4000000   0.4000000   0.0000000), wk =   0.0160000
        k(   44) = (   0.4000000   0.4000000   0.3103448), wk =   0.0320000
        k(   45) = (   0.4000000   0.4000000   0.6206897), wk =   0.0320000
        k(   46) = (  -0.2000000   0.2000000   0.0000000), wk =   0.0160000
        k(   47) = (  -0.2000000   0.2000000  -0.3103448), wk =   0.0320000
        k(   48) = (  -0.2000000   0.2000000  -0.6206897), wk =   0.0320000
        k(   49) = (  -0.2000000   0.4000000   0.0000000), wk =   0.0320000
        k(   50) = (  -0.2000000   0.4000000  -0.3103448), wk =   0.0640000
        k(   51) = (  -0.2000000   0.4000000  -0.6206897), wk =   0.0640000
        k(   52) = (  -0.4000000   0.4000000   0.0000000), wk =   0.0160000
        k(   53) = (  -0.4000000   0.4000000  -0.3103448), wk =   0.0320000
        k(   54) = (  -0.4000000   0.4000000  -0.6206897), wk =   0.0320000

     Largest allocated arrays     est. size (Mb)     dimensions
     Largest temporary arrays     est. size (Mb)     dimensions

     Check: negative/imaginary core charge=   -0.000007    0.000000

     Initial potential from superposition of free atoms

     starting charge   51.99787, renormalised to   52.00000
     Starting wfc are   42 randomized atomic wfcs

     Self-consistent Calculation

     iteration #  1     ecut=    40.00 Ry     beta=0.70
     Davidson diagonalization with overlap
     ethr =  1.00E-02,  avg # of iterations =  5.4

     negative rho (up, down):  0.000E+00 0.146E-02

     total energy              =    -406.72411165 Ry
     Harris-Foulkes estimate   =    -407.12543193 Ry
     estimated scf accuracy    <       2.50207980 Ry

     total magnetization       =     4.00 Bohr mag/cell
     absolute magnetization    =     5.02 Bohr mag/cell

[...]

     End of self-consistent calculation

 ------ SPIN UP ------------

          k = 0.0000 0.0000 0.0000 (  1955 PWs)   bands (ev):

   -49.5563 -49.5432 -23.7118 -23.7114 -23.6916 -23.6535 -23.5510 -23.5507
    -7.5355  -6.7838  -5.7292  -5.7291   4.3331   4.3751   5.4622   5.9972
     5.9974   8.0880   8.0880   8.5635   9.5153   9.7039   9.7040  10.2777
    11.7638  12.1458  12.4642  12.4645  12.6028  15.4100  15.5841  17.4468
    18.3205  18.3207  19.6548  21.4386  21.4389  24.8243  26.6106  26.8504
    27.5903  28.5018  28.9142  28.9142  31.2606  31.7481  32.5278  32.5281
    33.4683  33.4684  34.8525  37.9454  37.9455  38.0685  38.8157  39.1225
    40.7133  41.6519  41.6702  41.6703  41.9800  42.0477  42.2365  42.2365
    43.0167  43.9169  43.9170  45.0619  46.1498  48.1943  48.1944  48.5365
    48.7108  49.4783  49.4786  49.7783  50.3192  50.8546

[...]

          k =-0.2000 0.2000 0.0000 (  1967 PWs)   bands (ev):

[...]

 ------ SPIN DOWN ----------

[...]

     the Fermi energy is    13.2178 ev

!    total energy              =    -407.76685897 Ry
     Harris-Foulkes estimate   =    -407.76685869 Ry
     estimated scf accuracy    <       0.00000015 Ry

     The total energy is the sum of the following terms:

     one-electron contribution =    -115.32049457 Ry
     hartree contribution      =      86.17574757 Ry
     xc contribution           =     -67.43221020 Ry
     ewald contribution        =    -311.19028437 Ry
     smearing contrib. (-TS)   =       0.00038260 Ry

[...]

     convergence has been achieved in  38 iterations

     Forces acting on atoms (Ry/au):

     negative rho (up, down):  0.000E+00 0.224E-03
     atom    1 type  1   force =     0.00000000    0.00000000    0.00000000
     atom    2 type  1   force =     0.00000000    0.00000000    0.00000000
     atom    3 type  2   force =    -0.02997741   -0.02997741    0.00000000
     atom    4 type  2   force =     0.02997741    0.02997741   -0.00000000
[...]
        k(    3) = (   0.0000000   0.0000000   0.6879981), wk =   0.0160000
        k(    4) = (   0.0000036   0.1899650   0.0000000), wk =   0.0320000
        k(    5) = (   0.0000036   0.1899650   0.3439990), wk =   0.0640000
        k(    6) = (   0.0000036   0.1899650   0.6879981), wk =   0.0640000
        k(    7) = (   0.0000072   0.3799300   0.0000000), wk =   0.0320000
        k(    8) = (   0.0000072   0.3799300   0.3439990), wk =   0.0640000
        k(    9) = (   0.0000072   0.3799300   0.6879981), wk =   0.0640000
        k(   10) = (   0.1899686   0.1899686   0.0000000), wk =   0.0160000
        k(   11) = (   0.1899686   0.1899686   0.3439990), wk =   0.0320000
        k(   12) = (   0.1899686   0.1899686   0.6879981), wk =   0.0320000
        k(   13) = (   0.1899723   0.3799337   0.0000000), wk =   0.0320000
        k(   14) = (   0.1899723   0.3799337   0.3439990), wk =   0.0640000
        k(   15) = (   0.1899723   0.3799337   0.6879981), wk =   0.0640000
        k(   16) = (   0.3799373   0.3799373   0.0000000), wk =   0.0160000
        k(   17) = (   0.3799373   0.3799373   0.3439990), wk =   0.0320000
        k(   18) = (   0.3799373   0.3799373   0.6879981), wk =   0.0320000
        k(   19) = (  -0.1899614   0.1899614   0.0000000), wk =   0.0160000
        k(   20) = (  -0.1899614   0.1899614  -0.3439990), wk =   0.0320000
        k(   21) = (  -0.1899614   0.1899614  -0.6879981), wk =   0.0320000
        k(   22) = (  -0.1899578   0.3799264   0.0000000), wk =   0.0320000
        k(   23) = (  -0.1899578   0.3799264  -0.3439990), wk =   0.0640000
        k(   24) = (  -0.1899578   0.3799264  -0.6879981), wk =   0.0640000
        k(   25) = (  -0.3799228   0.3799228   0.0000000), wk =   0.0160000
        k(   26) = (  -0.3799228   0.3799228  -0.3439990), wk =   0.0320000
        k(   27) = (  -0.3799228   0.3799228  -0.6879981), wk =   0.0320000
        k(   28) = (   0.0000000   0.0000000   0.0000000), wk =   0.0080000
        k(   29) = (   0.0000000   0.0000000   0.3439990), wk =   0.0160000
        k(   30) = (   0.0000000   0.0000000   0.6879981), wk =   0.0160000
        k(   31) = (   0.0000036   0.1899650   0.0000000), wk =   0.0320000
        k(   32) = (   0.0000036   0.1899650   0.3439990), wk =   0.0640000
        k(   33) = (   0.0000036   0.1899650   0.6879981), wk =   0.0640000
        k(   34) = (   0.0000072   0.3799300   0.0000000), wk =   0.0320000
        k(   35) = (   0.0000072   0.3799300   0.3439990), wk =   0.0640000
        k(   36) = (   0.0000072   0.3799300   0.6879981), wk =   0.0640000
        k(   37) = (   0.1899686   0.1899686   0.0000000), wk =   0.0160000
        k(   38) = (   0.1899686   0.1899686   0.3439990), wk =   0.0320000
        k(   39) = (   0.1899686   0.1899686   0.6879981), wk =   0.0320000
        k(   40) = (   0.1899723   0.3799337   0.0000000), wk =   0.0320000
        k(   41) = (   0.1899723   0.3799337   0.3439990), wk =   0.0640000
        k(   42) = (   0.1899723   0.3799337   0.6879981), wk =   0.0640000
        k(   43) = (   0.3799373   0.3799373   0.0000000), wk =   0.0160000
        k(   44) = (   0.3799373   0.3799373   0.3439990), wk =   0.0320000
        k(   45) = (   0.3799373   0.3799373   0.6879981), wk =   0.0320000
        k(   46) = (  -0.1899614   0.1899614   0.0000000), wk =   0.0160000
        k(   47) = (  -0.1899614   0.1899614  -0.3439990), wk =   0.0320000
        k(   48) = (  -0.1899614   0.1899614  -0.6879981), wk =   0.0320000
        k(   49) = (  -0.1899578   0.3799264   0.0000000), wk =   0.0320000
        k(   50) = (  -0.1899578   0.3799264  -0.3439990), wk =   0.0640000
        k(   51) = (  -0.1899578   0.3799264  -0.6879981), wk =   0.0640000
        k(   52) = (  -0.3799228   0.3799228   0.0000000), wk =   0.0160000
        k(   53) = (  -0.3799228   0.3799228  -0.3439990), wk =   0.0320000
        k(   54) = (  -0.3799228   0.3799228  -0.6879981), wk =   0.0320000

[...]

     Threshold (ethr) on eigenvalues was too large:
     Diagonalizing with lowered threshold

     Davidson diagonalization with overlap
     ethr =  1.29E-08,  avg # of iterations =  2.0

[...]

     Total force =     0.000050     Total SCF correction =     0.000115
     SCF correction compared to forces is large: reduce conv_thr to get better values

[...]

     Volume is kept fixed: isostatic pressure set to zero

     bfgs converged in   9 scf cycles and   8 bfgs steps
     (criteria: energy < 0.10E-03, force < 0.10E-02, cell < 0.50E+00)

     End of BFGS Geometry Optimization

     Final enthalpy =    -407.8307625953 Ry
Begin final coordinates
     new unit-cell volume =    460.23642 a.u.^3 (    68.20000 Ang^3 )

CELL_PARAMETERS (alat=  8.93851073)
   1.052825410  -0.000020083   0.000000000
  -0.000020083   1.052825410   0.000000000
   0.000000000   0.000000000   0.581396975

ATOMIC_POSITIONS (crystal)
Mo0      0.000000000   0.000000000   0.000000000    0   0   0
Mo0      0.500000000   0.500000000   0.500000000    0   0   0
O1       0.281624857   0.281624857   0.000000000    1   1   0
O1      -0.281624857  -0.281624857   0.000000000    1   1   0
O1       0.781625316   0.218374684   0.500000000    1   1   0
O1       0.218374684   0.781625316   0.500000000    1   1   0
End final coordinates

     A final scf calculation at the relaxed structure.
     The G-vectors are recalculated for the final unit cell
     Results may differ from those at the preceding step.

     bravais-lattice index     =            0
     lattice parameter (alat)  =       8.9385  a.u.
     unit-cell volume          =     460.2364 (a.u.)^3
     number of atoms/cell      =            6
     number of atomic types    =            2
     number of electrons       =        52.00
     number of Kohn-Sham states=           78
     kinetic-energy cutoff     =      40.0000  Ry
     charge density cutoff     =     500.0000  Ry
     convergence threshold     =      1.0E-08
     mixing beta               =       0.7000
     number of iterations used =            8  plain     mixing
     Exchange-correlation      = SLA  PW   PBE  PBE ( 1 4 3 4 0)
     EXX-fraction              =        0.00

     celldm(1)=   8.938511  celldm(2)=   0.000000  celldm(3)=   0.000000
     celldm(4)=   0.000000  celldm(5)=   0.000000  celldm(6)=   0.000000

     crystal axes: (cart. coord. in units of alat)
               a(1) = (   1.052825  -0.000020   0.000000 )
               a(2) = (  -0.000020   1.052825   0.000000 )
               a(3) = (   0.000000   0.000000   0.581397 )

     reciprocal axes: (cart. coord. in units 2 pi/alat)
               b(1) = (  0.949825  0.000018 -0.000000 )
               b(2) = (  0.000018  0.949825 -0.000000 )
               b(3) = ( -0.000000 -0.000000  1.719995 )

     PseudoPot. # 1 for Mo read from file:
     /home/camp/zhonxu/pseudo/mo_pbe_v1.uspp.F.UPF
     MD5 check sum: 30c4dcd161f5d35cd49bb5239c51a633
     Pseudo is Ultrasoft + core correction, Zval = 14.0
     Generated by new atomic code, or converted to UPF format
     Using radial grid of  889 points,  6 beta functions with:
                l(1) =   0
                l(2) =   0
                l(3) =   1
                l(4) =   1
                l(5) =   2
                l(6) =   2
     Q(r) pseudized with  6 coefficients,  rinner =    1.000   1.000   1.000
                                                       1.000   1.000

     PseudoPot. # 2 for O  read from file:
     /home/camp/zhonxu/pseudo/o_pbe_v1.01.uspp.F.UPF
     MD5 check sum: 2bcb18d16ea4b960afae9ec6d52f22d2
     Pseudo is Ultrasoft + core correction, Zval =  6.0
     Generated by new atomic code, or converted to UPF format
     Using radial grid of  737 points,  5 beta functions with:
                l(1) =   0
                l(2) =   0
                l(3) =   1
                l(4) =   1
                l(5) =   2
     Q(r) pseudized with  8 coefficients,  rinner =    0.900   0.900   0.900
                                                       0.900   0.900

     atomic species   valence    mass     pseudopotential
        Mo0           14.00    95.94000     Mo( 1.00)
        O1             6.00    15.99940     O ( 1.00)

     Starting magnetic structure
     atomic species   magnetization
        Mo0          0.600
        O1           0.000

      8 Sym. Ops., with inversion, found
          (note:  8 additional sym.ops. were found but ignored
           their fractional translations are incommensurate with FFT grid)

   Cartesian axes

     site n.     atom                  positions (alat units)
         1           Mo0 tau(   1) = (   0.0000000   0.0000000   0.0000000  )
         2           Mo0 tau(   2) = (   0.5264027   0.5264027   0.2906985  )
         3           O1  tau(   3) = (   0.2964961   0.2964961   0.0000000  )
         4           O1  tau(   4) = (  -0.2964961  -0.2964961   0.0000000  )
         5           O1  tau(   5) = (   0.8229106   0.2298947   0.2906985  )
         6           O1  tau(   6) = (   0.2298947   0.8229106   0.2906985  )

     number of k points=    54  Methfessel-Paxton smearing, width (Ry)=  0.0100
                       cart. coord. in units 2pi/alat
        k(    1) = (   0.0000000   0.0000000   0.0000000), wk =   0.0080000
        k(    2) = (   0.0000000   0.0000000   0.3439990), wk =   0.0160000
        k(    3) = (   0.0000000   0.0000000   0.6879981), wk =   0.0160000
        k(    4) = (   0.0000036   0.1899650   0.0000000), wk =   0.0320000
        k(    5) = (   0.0000036   0.1899650   0.3439990), wk =   0.0640000
        k(    6) = (   0.0000036   0.1899650   0.6879981), wk =   0.0640000
        k(    7) = (   0.0000072   0.3799300   0.0000000), wk =   0.0320000
        k(    8) = (   0.0000072   0.3799300   0.3439990), wk =   0.0640000
        k(    9) = (   0.0000072   0.3799300   0.6879981), wk =   0.0640000
        k(   10) = (   0.1899686   0.1899686   0.0000000), wk =   0.0160000
        k(   11) = (   0.1899686   0.1899686   0.3439990), wk =   0.0320000
        k(   12) = (   0.1899686   0.1899686   0.6879981), wk =   0.0320000
        k(   13) = (   0.1899723   0.3799337   0.0000000), wk =   0.0320000
        k(   14) = (   0.1899723   0.3799337   0.3439990), wk =   0.0640000
        k(   15) = (   0.1899723   0.3799337   0.6879981), wk =   0.0640000
        k(   16) = (   0.3799373   0.3799373   0.0000000), wk =   0.0160000
        k(   17) = (   0.3799373   0.3799373   0.3439990), wk =   0.0320000
        k(   18) = (   0.3799373   0.3799373   0.6879981), wk =   0.0320000
        k(   19) = (  -0.1899614   0.1899614   0.0000000), wk =   0.0160000
        k(   20) = (  -0.1899614   0.1899614  -0.3439990), wk =   0.0320000
        k(   21) = (  -0.1899614   0.1899614  -0.6879981), wk =   0.0320000
        k(   22) = (  -0.1899578   0.3799264   0.0000000), wk =   0.0320000
        k(   23) = (  -0.1899578   0.3799264  -0.3439990), wk =   0.0640000
        k(   24) = (  -0.1899578   0.3799264  -0.6879981), wk =   0.0640000
        k(   25) = (  -0.3799228   0.3799228   0.0000000), wk =   0.0160000
        k(   26) = (  -0.3799228   0.3799228  -0.3439990), wk =   0.0320000
        k(   27) = (  -0.3799228   0.3799228  -0.6879981), wk =   0.0320000
        k(   28) = (   0.0000000   0.0000000   0.0000000), wk =   0.0080000
        k(   29) = (   0.0000000   0.0000000   0.3439990), wk =   0.0160000
        k(   30) = (   0.0000000   0.0000000   0.6879981), wk =   0.0160000
        k(   31) = (   0.0000036   0.1899650   0.0000000), wk =   0.0320000
        k(   32) = (   0.0000036   0.1899650   0.3439990), wk =   0.0640000
        k(   33) = (   0.0000036   0.1899650   0.6879981), wk =   0.0640000
        k(   34) = (   0.0000072   0.3799300   0.0000000), wk =   0.0320000
        k(   35) = (   0.0000072   0.3799300   0.3439990), wk =   0.0640000
        k(   36) = (   0.0000072   0.3799300   0.6879981), wk =   0.0640000
        k(   37) = (   0.1899686   0.1899686   0.0000000), wk =   0.0160000
        k(   38) = (   0.1899686   0.1899686   0.3439990), wk =   0.0320000
        k(   39) = (   0.1899686   0.1899686   0.6879981), wk =   0.0320000
        k(   40) = (   0.1899723   0.3799337   0.0000000), wk =   0.0320000
        k(   41) = (   0.1899723   0.3799337   0.3439990), wk =   0.0640000
        k(   42) = (   0.1899723   0.3799337   0.6879981), wk =   0.0640000
        k(   43) = (   0.3799373   0.3799373   0.0000000), wk =   0.0160000
        k(   44) = (   0.3799373   0.3799373   0.3439990), wk =   0.0320000
        k(   45) = (   0.3799373   0.3799373   0.6879981), wk =   0.0320000
        k(   46) = (  -0.1899614   0.1899614   0.0000000), wk =   0.0160000
        k(   47) = (  -0.1899614   0.1899614  -0.3439990), wk =   0.0320000
        k(   48) = (  -0.1899614   0.1899614  -0.6879981), wk =   0.0320000
        k(   49) = (  -0.1899578   0.3799264   0.0000000), wk =   0.0320000
        k(   50) = (  -0.1899578   0.3799264  -0.3439990), wk =   0.0640000
        k(   51) = (  -0.1899578   0.3799264  -0.6879981), wk =   0.0640000
        k(   52) = (  -0.3799228   0.3799228   0.0000000), wk =   0.0160000
        k(   53) = (  -0.3799228   0.3799228  -0.3439990), wk =   0.0320000
        k(   54) = (  -0.3799228   0.3799228  -0.6879981), wk =   0.0320000

     Largest allocated arrays     est. size (Mb)     dimensions
     Largest temporary arrays     est. size (Mb)     dimensions

     Check: negative/imaginary core charge=   -0.000007    0.000000

     Initial potential from superposition of free atoms

     starting charge   51.99787, renormalised to   52.00000
     Starting wfc are   42 randomized atomic wfcs

     Self-consistent Calculation

[...]

     negative rho (up, down):  0.000E+00 0.311E-05

[...]

     total energy              =    -407.83093737 Ry
     Harris-Foulkes estimate   =    -407.83093730 Ry
     estimated scf accuracy    <       0.00000004 Ry

[...]

     iteration # 15     ecut=    40.00 Ry     beta=0.70
     Davidson diagonalization with overlap
     ethr =  7.38E-11,  avg # of iterations =  2.0

     End of self-consistent calculation

 ------ SPIN UP ------------

[...]

 ------ SPIN DOWN ----------

[...]

          k = 0.3799 0.3799 0.6880 (  1961 PWs)   bands (ev):

[...]

          k =-0.3799 0.3799-0.6880 (  1961 PWs)   bands (ev):

   -49.6191 -49.6188 -24.1384 -24.1360 -23.9106 -23.9072 -23.5687 -23.5684
    -6.5164  -6.3097  -6.1619  -5.9333   5.3208   5.6860   5.7855   6.0682
     6.2540   6.7410   6.8636   7.5555   8.5100   8.6901   9.5056   9.6473
    12.3203  12.5690  13.2923  13.6503  14.8138  14.8988  16.4988  17.3897
    17.6938  18.4284  21.9905  22.3884  22.7938  22.9830  26.0543  26.0995
    28.1030  28.1780  28.6873  28.9058  29.9575  30.4190  31.4145  31.9490
    34.7086  35.0167  35.5228  35.8292  37.5558  38.0716  39.3920  39.7227
    40.5725  40.8955  41.6057  42.4300  42.4916  43.0028  43.1404  43.9971
    44.3504  44.4826  44.5256  45.3080  45.6519  45.8425  46.4396  46.5709
    47.9823  49.0875  51.7435  51.7682  52.2663  52.4906

     the Fermi energy is    12.6011 ev

!    total energy              =    -407.83093749 Ry
     Harris-Foulkes estimate   =    -407.83093748 Ry
     estimated scf accuracy    <          2.5E-09 Ry

     The total energy is the sum of the following terms:

     one-electron contribution =    -118.23086762 Ry
     hartree contribution      =      87.20908329 Ry
     xc contribution           =     -67.30568228 Ry
     ewald contribution        =    -309.50345675 Ry
     smearing contrib. (-TS)   =      -0.00001413 Ry

     total magnetization       =     0.00 Bohr mag/cell
     absolute magnetization    =     0.00 Bohr mag/cell

     convergence has been achieved in  15 iterations

     Forces acting on atoms (Ry/au):

     atom    1 type  1   force =     0.00000000    0.00000000    0.00000000
     atom    2 type  1   force =     0.00000000    0.00000000    0.00000000
     atom    3 type  2   force =    -0.00007533   -0.00007533   -0.00000000
     atom    4 type  2   force =     0.00007533    0.00007533   -0.00000000
     atom    5 type  2   force =    -0.00007833    0.00007833   -0.00000000
     atom    6 type  2   force =     0.00007833   -0.00007833   -0.00000000

     Total force =     0.000217     Total SCF correction =     0.000018

     entering subroutine stress ...

          total   stress  (Ry/bohr**3)                   (kbar)     P=  -70.16
  -0.00047321   0.00000074   0.00000000        -69.61      0.11      0.00
   0.00000074  -0.00047321   0.00000000          0.11    -69.61      0.00
   0.00000000   0.00000000  -0.00048449          0.00      0.00    -71.27

     General routines

     Parallel routines

   This run was terminated on:  22: 2:46  23Jan2014

   JOB DONE.