     Program PWSCF v.5.0.2 (svn rev. 9656) starts on 28Apr2014 at  2: 3:49

     Current dimensions of program PWSCF are:
     Max number of different atomic species (ntypx) = 10
     Max number of k-points (npk) =  40000
     Max angular momentum in pseudopotentials (lmaxx) =  3
     Reading input from pwscf.in
Warning: card &CELL ignored
Warning: card / ignored

     Subspace diagonalization in iterative solution of the eigenvalue problem:
     a serial algorithm will be used

     bravais-lattice index     =            0
     lattice parameter (alat)  =      12.2076  a.u.
     unit-cell volume          =    7496.5096 (a.u.)^3
     number of atoms/cell      =           31
     number of atomic types    =            3
     number of electrons       =       246.00
     number of Kohn-Sham states=          369
     kinetic-energy cutoff     =      40.0000  Ry
     charge density cutoff     =     500.0000  Ry
     convergence threshold     =      1.0E-06
     mixing beta               =       0.7000
     number of iterations used =            8  plain     mixing
     Exchange-correlation      = SLA  PW   PBE  PBE ( 1 4 3 4 0)
     EXX-fraction              =        0.00
     nstep                     =           50

     celldm(1)=  12.207631  celldm(2)=   0.000000  celldm(3)=   0.000000
     celldm(4)=   0.000000  celldm(5)=   0.000000  celldm(6)=   0.000000

     crystal axes: (cart. coord. in units of alat)
               a(1) = (   1.000000   0.000000   0.000000 )
               a(2) = (   0.000000   1.004836   0.000000 )
               a(3) = (   0.000000   0.000000   4.100811 )

     reciprocal axes: (cart. coord. in units 2 pi/alat)
               b(1) = (  1.000000  0.000000  0.000000 )
               b(2) = (  0.000000  0.995187  0.000000 )
               b(3) = (  0.000000  0.000000  0.243854 )

     PseudoPot. # 1 for O  read from file:
     /home/camp/zhonxu/pseudo/o_pbe_v1.01.uspp.F.UPF
     MD5 check sum: 2bcb18d16ea4b960afae9ec6d52f22d2
     Pseudo is Ultrasoft + core correction, Zval =  6.0
     Generated by new atomic code, or converted to UPF format
     Using radial grid of  737 points,  5 beta functions with:
                l(1) =   0
                l(2) =   0
                l(3) =   1
                l(4) =   1
                l(5) =   2
     Q(r) pseudized with  8 coefficients,  rinner =    0.900   0.900   0.900
                                                       0.900   0.900

     PseudoPot. # 2 for Pt read from file:
     /home/camp/zhonxu/pseudo/pt_pbe_v1.uspp.F.UPF
     MD5 check sum: 4c71d6ad5ef119f1eb26a4d0b7884226
     Pseudo is Ultrasoft + core correction, Zval = 16.0
     Generated by new atomic code, or converted to UPF format
     Using radial grid of  985 points,  6 beta functions with:
                l(1) =   0
                l(2) =   0
                l(3) =   1
                l(4) =   1
                l(5) =   2
                l(6) =   2
     Q(r) pseudized with  8 coefficients,  rinner =    1.300   1.300   1.300
                                                       1.300   1.300

     PseudoPot. # 3 for H  read from file:
     /home/camp/zhonxu/pseudo/h_pbe_v1.uspp.F.UPF
     MD5 check sum: 3408e3ff4ec8b0a4e358431e7e038a48
     Pseudo is Ultrasoft, Zval =  1.0
     Generated by new atomic code, or converted to UPF format
     Using radial grid of  615 points,  2 beta functions with:
                l(1) =   0
                l(2) =   0
     Q(r) pseudized with  8 coefficients,  rinner =    0.700

     atomic species   valence    mass     pseudopotential
        O0             6.00    15.99940     O ( 1.00)
        Pt1           16.00   195.08000     Pt( 1.00)
        H2             1.00     1.00794     H ( 1.00)

     Simplified LDA+U calculation (l_max = 2) with parameters (eV):
     atomic species    L          U    alpha       J0     beta
        Pt1            2     1.0000   0.0000   0.0000   0.0000

     No symmetry found

   Cartesian axes

     site n.     atom                  positions (alat units)
         1           O0  tau(   1) = (   0.0000000   0.0000000   1.5489174  )
         2           O0  tau(   2) = (   0.0000000   0.5024180   1.6470088  )
         3           Pt1 tau(   3) = (   0.2500000   0.5024180   1.8504500  )
         4           Pt1 tau(   4) = (   0.0000000   0.0000000   1.8564782  )
         5           O0  tau(   5) = (   0.2500000   0.8139171   1.8182587  )
         6           O0  tau(   6) = (   0.2500000   0.1909188   1.8867012  )
         7           O0  tau(   7) = (   0.0000000   0.5024180   2.0373240  )
         8           O0  tau(   8) = (   0.0000000   0.0000000   2.1721997  )
         9           Pt1 tau(   9) = (   0.2500000   0.0000000   2.3623543  )
        10           Pt1 tau(  10) = (   0.0000000   0.5024180   2.3594017  )
        11           O0  tau(  11) = (   0.2500000   0.6933368   2.3215512  )
        12           O0  tau(  12) = (   0.2500000   0.3114991   2.4021322  )
        13           O0  tau(  13) = (   0.0000000   0.0000000   2.5481621  )
        14           O0  tau(  14) = (   0.5000000   0.0000000   1.5492455  )
        15           O0  tau(  15) = (   0.5000000   0.5024180   1.6439332  )
        16           Pt1 tau(  16) = (   0.7500000   0.5024180   1.8504910  )
        17           Pt1 tau(  17) = (   0.5000000   0.0000000   1.8565192  )
        18           O0  tau(  18) = (   0.7500000   0.8139171   1.8184227  )
        19           O0  tau(  19) = (   0.7500000   0.1909188   1.8866602  )
        20           O0  tau(  20) = (   0.5000000   0.5024180   2.0431061  )
        21           O0  tau(  21) = (   0.5000000   0.0000000   2.1716256  )
        22           Pt1 tau(  22) = (   0.7500000   0.0000000   2.3623953  )
        23           Pt1 tau(  23) = (   0.5000000   0.5024180   2.3697358  )
        24           O0  tau(  24) = (   0.7500000   0.6933368   2.3215102  )
        25           O0  tau(  25) = (   0.7500000   0.3114991   2.4021732  )
        26           O0  tau(  26) = (   0.5000000   0.0000000   2.5480390  )
        27           H2  tau(  27) = (   0.0001100   0.6425926   1.5814778  )
        28           H2  tau(  28) = (   0.5001800   0.6431151   1.5801656  )
        29           H2  tau(  29) = (   0.1426600   0.0364956   1.5073762  )
        30           H2  tau(  30) = (   0.6419200   0.0388771   1.5073762  )
        31           O0  tau(  31) = (   0.5000900   0.5753691   2.6428088  )

     number of k points=    10  Methfessel-Paxton smearing, width (Ry)=  0.0100
                       cart. coord. in units 2pi/alat
        k(    1) = (   0.0000000   0.0000000   0.0000000), wk =   0.1250000
        k(    2) = (   0.0000000   0.2487968   0.0000000), wk =   0.2500000
        k(    3) = (   0.0000000  -0.4975937   0.0000000), wk =   0.1250000
        k(    4) = (   0.2500000   0.0000000   0.0000000), wk =   0.2500000
        k(    5) = (   0.2500000   0.2487968   0.0000000), wk =   0.2500000
        k(    6) = (   0.2500000  -0.4975937   0.0000000), wk =   0.2500000
        k(    7) = (  -0.5000000   0.0000000   0.0000000), wk =   0.1250000
        k(    8) = (  -0.5000000   0.2487968   0.0000000), wk =   0.2500000
        k(    9) = (  -0.5000000  -0.4975937   0.0000000), wk =   0.1250000
        k(   10) = (  -0.2500000   0.2487968   0.0000000), wk =   0.2500000

     Largest allocated arrays     est. size (Mb)     dimensions
     Largest temporary arrays     est. size (Mb)     dimensions

     Check: negative/imaginary core charge=   -0.000003    0.000000

     Initial potential from superposition of free atoms
     Check: negative starting charge=   -1.533958

     starting charge  241.99985, renormalised to  246.00000

     negative rho (up, down):  0.156E+01 0.000E+00
     Number of +U iterations with fixed ns =  0
     Starting occupations:
 --- enter write_ns ---
 LDA+U parameters:
U( 2)     =  1.00000000
alpha( 2) =  0.00000000
atom    3   Tr[ns(na)] =   8.00000
    eigenvalues:
  0.800  0.800  0.800  0.800  0.800
    eigenvectors:
  1.000  0.000  0.000  0.000  0.000
  0.000  1.000  0.000  0.000  0.000
  0.000  0.000  1.000  0.000  0.000
  0.000  0.000  0.000  1.000  0.000
  0.000  0.000  0.000  0.000  1.000
    occupations:
  0.800  0.000  0.000  0.000  0.000
  0.000  0.800  0.000  0.000  0.000
  0.000  0.000  0.800  0.000  0.000
  0.000  0.000  0.000  0.800  0.000
  0.000  0.000  0.000  0.000  0.800
atom    4   Tr[ns(na)] =   8.00000
    eigenvalues:
  0.800  0.800  0.800  0.800  0.800
    eigenvectors:
  1.000  0.000  0.000  0.000  0.000
  0.000  1.000  0.000  0.000  0.000
  0.000  0.000  1.000  0.000  0.000
  0.000  0.000  0.000  1.000  0.000
  0.000  0.000  0.000  0.000  1.000
    occupations:
  0.800  0.000  0.000  0.000  0.000
  0.000  0.800  0.000  0.000  0.000
  0.000  0.000  0.800  0.000  0.000
  0.000  0.000  0.000  0.800  0.000
  0.000  0.000  0.000  0.000  0.800
atom    9   Tr[ns(na)] =   8.00000
    eigenvalues:
  0.800  0.800  0.800  0.800  0.800
    eigenvectors:
  1.000  0.000  0.000  0.000  0.000
  0.000  1.000  0.000  0.000  0.000
  0.000  0.000  1.000  0.000  0.000
  0.000  0.000  0.000  1.000  0.000
  0.000  0.000  0.000  0.000  1.000
    occupations:
  0.800  0.000  0.000  0.000  0.000
  0.000  0.800  0.000  0.000  0.000
  0.000  0.000  0.800  0.000  0.000
  0.000  0.000  0.000  0.800  0.000
  0.000  0.000  0.000  0.000  0.800
atom   10   Tr[ns(na)] =   8.00000
    eigenvalues:
  0.800  0.800  0.800  0.800  0.800
    eigenvectors:
  1.000  0.000  0.000  0.000  0.000
  0.000  1.000  0.000  0.000  0.000
  0.000  0.000  1.000  0.000  0.000
  0.000  0.000  0.000  1.000  0.000
  0.000  0.000  0.000  0.000  1.000
    occupations:
  0.800  0.000  0.000  0.000  0.000
  0.000  0.800  0.000  0.000  0.000
  0.000  0.000  0.800  0.000  0.000
  0.000  0.000  0.000  0.800  0.000
  0.000  0.000  0.000  0.000  0.800
atom   16   Tr[ns(na)] =   8.00000
    eigenvalues:
  0.800  0.800  0.800  0.800  0.800
    eigenvectors:
  1.000  0.000  0.000  0.000  0.000
  0.000  1.000  0.000  0.000  0.000
  0.000  0.000  1.000  0.000  0.000
  0.000  0.000  0.000  1.000  0.000
  0.000  0.000  0.000  0.000  1.000
    occupations:
  0.800  0.000  0.000  0.000  0.000
  0.000  0.800  0.000  0.000  0.000
  0.000  0.000  0.800  0.000  0.000
  0.000  0.000  0.000  0.800  0.000
  0.000  0.000  0.000  0.000  0.800
atom   17   Tr[ns(na)] =   8.00000
    eigenvalues:
  0.800  0.800  0.800  0.800  0.800
    eigenvectors:
  1.000  0.000  0.000  0.000  0.000
  0.000  1.000  0.000  0.000  0.000
  0.000  0.000  1.000  0.000  0.000
  0.000  0.000  0.000  1.000  0.000
  0.000  0.000  0.000  0.000  1.000
    occupations:
  0.800  0.000  0.000  0.000  0.000
  0.000  0.800  0.000  0.000  0.000
  0.000  0.000  0.800  0.000  0.000
  0.000  0.000  0.000  0.800  0.000
  0.000  0.000  0.000  0.000  0.800
atom   22   Tr[ns(na)] =   8.00000
    eigenvalues:
  0.800  0.800  0.800  0.800  0.800
    eigenvectors:
  1.000  0.000  0.000  0.000  0.000
  0.000  1.000  0.000  0.000  0.000
  0.000  0.000  1.000  0.000  0.000
  0.000  0.000  0.000  1.000  0.000
  0.000  0.000  0.000  0.000  1.000
    occupations:
  0.800  0.000  0.000  0.000  0.000
  0.000  0.800  0.000  0.000  0.000
[...]
  0.012  0.841  0.001  0.005  0.142
  0.000  0.000  0.989  0.009  0.002
    occupations:
  0.947  0.001 -0.008 -0.091  0.001
  0.001  0.704  0.001  0.001 -0.004
 -0.008  0.001  0.954 -0.023  0.001
 -0.091  0.001 -0.023  0.755 -0.000
  0.001 -0.004  0.001 -0.000  0.949
atom   10   Tr[ns(na)] =   8.69352
    eigenvalues:
  0.662  0.748  0.973  0.980  0.985
    eigenvectors:
  0.000  0.981  0.000  0.006  0.012
  0.010  0.000  0.990  0.000  0.000
  0.000  0.001  0.000  0.411  0.588
  0.000  0.017  0.000  0.583  0.400
  0.990  0.000  0.010  0.000  0.000
    occupations:
  0.753  0.000 -0.008  0.031  0.000
  0.000  0.969  0.000 -0.000 -0.032
 -0.008  0.000  0.982 -0.001 -0.000
  0.031 -0.000 -0.001  0.978 -0.000
  0.000 -0.032 -0.000 -0.000  0.665
atom   16   Tr[ns(na)] =   8.66310
    eigenvalues:
  0.684  0.697  0.982  0.983  0.986
    eigenvectors:
  0.044  0.132  0.500  0.303  0.020
  0.758  0.241  0.000  0.000  0.000
  0.000  0.003  0.002  0.119  0.876
  0.197  0.624  0.109  0.055  0.016
  0.000  0.000  0.388  0.523  0.088
    occupations:
  0.931 -0.004  0.007 -0.110  0.001
 -0.004  0.687 -0.002 -0.004 -0.004
  0.007 -0.002  0.985  0.016 -0.001
 -0.110 -0.004  0.016  0.746 -0.001
  0.001 -0.004 -0.001 -0.001  0.983
atom   17   Tr[ns(na)] =   8.64950
    eigenvalues:
  0.684  0.703  0.974  0.981  0.983
    eigenvectors:
  0.000  0.986  0.005  0.001  0.007
  0.008  0.000  0.039  0.948  0.005
  0.000  0.004  0.941  0.035  0.020
  0.000  0.009  0.014  0.009  0.968
  0.992  0.000  0.000  0.008  0.000
    occupations:
  0.707 -0.005 -0.018  0.026 -0.001
 -0.005  0.978  0.001  0.000  0.026
 -0.018  0.001  0.973  0.003  0.000
  0.026  0.000  0.003  0.981  0.000
 -0.001  0.026  0.000  0.000  0.686
atom   22   Tr[ns(na)] =   8.62030
    eigenvalues:
  0.704  0.716  0.949  0.957  0.983
    eigenvectors:
  0.000  0.136  0.001  0.011  0.852
  0.997  0.003  0.000  0.000  0.000
  0.000  0.010  0.014  0.971  0.004
  0.003  0.850  0.001  0.005  0.142
  0.000  0.000  0.984  0.014  0.002
    occupations:
  0.947  0.000 -0.008 -0.091 -0.001
  0.000  0.704 -0.001 -0.001 -0.004
 -0.008 -0.001  0.954 -0.023 -0.001
 -0.091 -0.001 -0.023  0.755  0.001
 -0.001 -0.004 -0.001  0.001  0.949
atom   23   Tr[ns(na)] =   8.59886
    eigenvalues:
  0.712  0.735  0.915  0.952  0.986
    eigenvectors:
  0.000  0.897  0.096  0.000  0.007
  0.014  0.000  0.000  0.986  0.000
  0.000  0.089  0.892  0.000  0.020
  0.000  0.014  0.012  0.000  0.974
  0.986  0.000  0.000  0.014  0.000
    occupations:
  0.754  0.000  0.050  0.026 -0.000
  0.000  0.948 -0.000  0.000 -0.028
  0.050 -0.000  0.900 -0.016 -0.000
  0.026  0.000 -0.016  0.981 -0.000
 -0.000 -0.028 -0.000 -0.000  0.716
N of occupied +U levels =  69.1600630
 --- exit write_ns ---

     Threshold (ethr) on eigenvalues was too large:
     Diagonalizing with lowered threshold

     Davidson diagonalization with overlap
     ethr =  8.82E-09,  avg # of iterations =  2.0

[...]

     total energy              =   -2280.55566986 Ry
     Harris-Foulkes estimate   =   -2280.55566986 Ry
     estimated scf accuracy    <       0.00000005 Ry

     iteration # 15     ecut=    40.00 Ry     beta=0.70
     Davidson diagonalization with overlap
     ethr =  4.59E-12,  avg # of iterations =  1.0

     negative rho (up, down):  0.158E+01 0.000E+00

     End of self-consistent calculation
 --- enter write_ns ---
 LDA+U parameters:
U( 2)     =  1.00000000
alpha( 2) =  0.00000000
atom    3   Tr[ns(na)] =   8.66312
    eigenvalues:
  0.684  0.697  0.982  0.983  0.986
    eigenvectors:
  0.045  0.132  0.487  0.319  0.018
  0.755  0.244  0.000  0.000  0.000
  0.000  0.003  0.005  0.121  0.870
  0.199  0.621  0.107  0.058  0.015
  0.000  0.000  0.402  0.502  0.096
    occupations:
  0.931  0.003  0.007 -0.110 -0.000
  0.003  0.688  0.002  0.004 -0.004
  0.007  0.002  0.984  0.016  0.001
 -0.110  0.004  0.016  0.746  0.001
 -0.000 -0.004  0.001  0.001  0.983
atom    4   Tr[ns(na)] =   8.65096
    eigenvalues:
  0.682  0.702  0.977  0.981  0.983
    eigenvectors:
  0.000  0.987  0.006  0.003  0.005
  0.008  0.000  0.094  0.888  0.010
  0.000  0.004  0.858  0.075  0.062
  0.000  0.009  0.041  0.028  0.922
  0.992  0.000  0.001  0.007  0.000
    occupations:
  0.706 -0.005 -0.018  0.026 -0.001
 -0.005  0.978  0.001  0.000  0.026
 -0.018  0.001  0.977  0.003  0.000
  0.026  0.000  0.003  0.980  0.000
 -0.001  0.026  0.000  0.000  0.685
atom    9   Tr[ns(na)] =   8.61990
    eigenvalues:
  0.704  0.716  0.949  0.957  0.983
    eigenvectors:
  0.002  0.135  0.001  0.010  0.853
  0.985  0.015  0.000  0.000  0.000
  0.000  0.010  0.009  0.976  0.004
  0.012  0.841  0.001  0.005  0.142
  0.000  0.000  0.989  0.009  0.002
    occupations:
  0.947  0.001 -0.008 -0.091  0.001
  0.001  0.704  0.001  0.001 -0.004
 -0.008  0.001  0.954 -0.023  0.001
 -0.091  0.001 -0.023  0.755 -0.000
  0.001 -0.004  0.001 -0.000  0.949
atom   10   Tr[ns(na)] =   8.69625
    eigenvalues:
  0.662  0.749  0.973  0.980  0.985
    eigenvectors:
  0.000  0.981  0.000  0.006  0.012
  0.010  0.000  0.990  0.000  0.000
  0.000  0.001  0.000  0.409  0.589
  0.000  0.017  0.000  0.584  0.398
  0.990  0.000  0.010  0.000  0.000
    occupations:
  0.754  0.000 -0.008  0.031  0.000
  0.000  0.969  0.000 -0.000 -0.032
 -0.008  0.000  0.982 -0.001 -0.000
  0.031 -0.000 -0.001  0.978 -0.000
  0.000 -0.032 -0.000 -0.000  0.665
atom   16   Tr[ns(na)] =   8.66321
    eigenvalues:
  0.684  0.697  0.982  0.983  0.986
    eigenvectors:
  0.045  0.131  0.493  0.311  0.020
  0.755  0.244  0.000  0.000  0.000
  0.000  0.003  0.003  0.119  0.875
  0.199  0.621  0.108  0.056  0.016
  0.000  0.000  0.396  0.514  0.090
    occupations:
  0.931 -0.004  0.007 -0.110  0.001
 -0.004  0.688 -0.002 -0.004 -0.004
  0.007 -0.002  0.984  0.016 -0.001
 -0.110 -0.004  0.016  0.746 -0.001
  0.001 -0.004 -0.001 -0.001  0.983
atom   17   Tr[ns(na)] =   8.64924
    eigenvalues:
  0.684  0.703  0.974  0.981  0.983
    eigenvectors:
  0.000  0.986  0.005  0.001  0.007
  0.008  0.000  0.039  0.948  0.005
  0.000  0.004  0.942  0.034  0.020
  0.000  0.009  0.014  0.009  0.969
  0.992  0.000  0.000  0.008  0.000
    occupations:
  0.707 -0.005 -0.018  0.026 -0.001
 -0.005  0.978  0.001  0.000  0.026
 -0.018  0.001  0.973  0.003  0.000
  0.026  0.000  0.003  0.981  0.000
 -0.001  0.026  0.000  0.000  0.686
atom   22   Tr[ns(na)] =   8.61990
    eigenvalues:
  0.704  0.716  0.949  0.957  0.983
    eigenvectors:
  0.000  0.136  0.001  0.010  0.852
  0.997  0.003  0.000  0.000  0.000
  0.000  0.010  0.015  0.971  0.004
  0.003  0.850  0.001  0.005  0.142
  0.000  0.000  0.984  0.014  0.002
    occupations:
  0.947  0.000 -0.008 -0.091 -0.001
  0.000  0.704 -0.001 -0.001 -0.004
 -0.008 -0.001  0.954 -0.023 -0.001
 -0.091 -0.001 -0.023  0.755  0.001
 -0.001 -0.004 -0.001  0.001  0.949
atom   23   Tr[ns(na)] =   8.59821
    eigenvalues:
  0.712  0.735  0.914  0.952  0.986
    eigenvectors:
  0.000  0.897  0.096  0.000  0.007
  0.014  0.000  0.000  0.986  0.000
  0.000  0.089  0.891  0.000  0.020
  0.000  0.014  0.012  0.000  0.974
  0.986  0.000  0.000  0.014  0.000
    occupations:
  0.754  0.000  0.050  0.026 -0.000
  0.000  0.948 -0.000  0.000 -0.028
  0.050 -0.000  0.900 -0.016 -0.000
  0.026  0.000 -0.016  0.981 -0.000
 -0.000 -0.028 -0.000 -0.000  0.716
N of occupied +U levels =  69.1607905
 --- exit write_ns ---

[...]

          k = 0.2500-0.4976 0.0000 ( 32026 PWs)   bands (ev):

[...]

          k =-0.2500 0.2488 0.0000 ( 32025 PWs)   bands (ev):

   -56.3032 -56.2150 -56.0919 -55.9305 -55.8911 -55.8454 -55.8080 -55.7867
   -55.7841 -55.7809 -55.7349 -55.6723 -55.6679 -55.5798 -55.5384 -55.5004
   -55.4956 -55.4950 -55.4907 -55.4881 -55.4488 -55.1619 -54.9093 -54.6088
   -22.1405 -21.8470 -21.2813 -21.1050 -20.7764 -20.6536 -20.6490 -20.4797
   -20.4504 -20.3784 -20.3037 -20.2576 -20.2305 -20.0878 -20.0258 -20.0205
   -19.2998 -19.0784 -18.8823 -10.3423 -10.0987 -10.0369  -9.8919  -9.5069
    -9.4529  -9.3885  -9.2029  -9.1628  -9.1256  -9.0308  -9.0129  -8.8592
    -8.7007  -8.6846  -8.6215  -8.4628  -8.4109  -8.1159  -7.9300  -7.8794
    -7.7754  -7.7318  -7.5837  -7.2411  -7.1513  -7.0774  -6.9974  -6.8915
    -6.8535  -6.7931  -6.7291  -6.5924  -6.5507  -6.5076  -6.4613  -6.2527
    -6.2307  -6.1337  -6.0280  -5.8708  -5.7949  -5.6899  -5.5761  -5.4136
    -5.3146  -5.1981  -5.0986  -5.0175  -4.9499  -4.8616  -4.7538  -4.5120
    -4.4655  -4.4089  -4.3750  -4.1942  -4.0835  -3.9504  -3.8767  -3.8221
    -3.7495  -3.7062  -3.6363  -3.5697  -3.5073  -3.4696  -3.2048  -3.1767
    -3.0261  -2.7700  -2.6528  -2.5006  -2.4364  -2.3559  -2.2820  -2.1654
    -2.0200  -1.8915  -1.7828  -1.6876  -1.5540  -1.1537  -1.0458  -0.6944
    -0.3673  -0.1882   0.0888   0.3661   0.5991   0.7484   0.7785   0.9221
     1.1114   1.3047   1.3444   1.7362   3.0524   3.8150   4.6013   5.0127
     5.0413   5.1176   5.3307   5.6532   6.0607   6.1577   6.1807   6.3101
     6.4408   6.5332   6.6770   6.8495   6.9559   7.0065   7.1040   7.2098
     7.3646   7.4763   7.5449   7.5862   7.6734   7.8626   7.9226   8.0157
     8.1398   8.2337   8.2912   8.4354   8.5460   8.6428   8.6682   8.7497
     8.8419   8.9810   9.1315   9.2908   9.3481   9.4617   9.5271   9.5856
     9.6998   9.8661  10.0031  10.1179  10.1980  10.2605  10.3204  10.3816
    10.5267  10.5827  10.6571  10.7756  10.8075  10.9457  11.0449  11.0772
    11.1737  11.2065  11.3585  11.4499  11.4806  11.7030  11.7224  11.7737
    11.8477  11.9436  11.9811  12.0594  12.1299  12.2113  12.2555  12.3248
    12.4020  12.4505  12.5095  12.5656  12.6341  12.7318  12.8165  12.8747
    12.9229  13.0192  13.1480  13.1673  13.2161  13.4105  13.4962  13.5358
    13.6136  13.6895  13.7560  13.8474  13.8913  13.9528  14.0205  14.1138
    14.1740  14.2685  14.4076  14.4753  14.5355  14.6232  14.7316  14.8049
    14.8624  14.9314  15.0617  15.2012  15.2340  15.3207  15.4004  15.4424
    15.5196  15.5721  15.6225  15.6624  15.7470  15.7590  15.8150  15.8485
    15.9093  15.9989  16.0463  16.0889  16.1481  16.1871  16.2371  16.3259
    16.3498  16.3562  16.4331  16.4894  16.5060  16.5221  16.5282  16.5717
    16.5986  16.7380  16.7974  16.8535  16.9050  16.9181  17.0144  17.0987
    17.1312  17.1850  17.2016  17.2327  17.2586  17.3278  17.4251  17.4638
    17.5031  17.5503  17.5845  17.6132  17.7260  17.7714  17.8843  17.9455
    18.0447  18.0816  18.1267  18.2133  18.2667  18.3691  18.4636  18.5057
    18.5873  18.6147  18.6920  18.7107  18.8059  18.8331  18.8950  19.0115
    19.0328  19.1453  19.1698  19.1999  19.3147  19.3571  19.4259  19.4425
    19.6354  19.7541  19.8194  19.8791  19.9373  19.9504  19.9811  20.0568
    20.1095  20.2001  20.2338  20.2953  20.3561  20.3661  20.4904  20.5677
    20.6413  20.6844  20.7550  20.8292  20.9122  20.9727  21.0146  21.0697
    21.0804  21.2257  21.2677  21.3748  21.4169  21.4699  21.5161  21.5574
    21.6067  21.6559  21.7246  21.7826  21.8233  21.8860  21.9832  22.0932
    22.1234

     the Fermi energy is    -1.7367 ev

!    total energy              =   -2280.55566986 Ry
     Harris-Foulkes estimate   =   -2280.55566986 Ry
     estimated scf accuracy    <          1.8E-09 Ry

     The total energy is the sum of the following terms:

     one-electron contribution =  -23640.44329096 Ry
     hartree contribution      =   11860.60461398 Ry
     xc contribution           =    -572.02392588 Ry
     ewald contribution        =   10071.01555349 Ry
     Hubbard energy            =       0.29164525 Ry
     smearing contrib. (-TS)   =      -0.00026574 Ry

     convergence has been achieved in  15 iterations

     Forces acting on atoms (Ry/au):

     negative rho (up, down):  0.158E+01 0.000E+00
     atom    1 type  1   force =    -0.00862072   -0.00463504    0.00003362
     atom    2 type  1   force =     0.00015815    0.00368842    0.00023914
     atom    3 type  2   force =     0.01468407    0.00690484    0.00017416
     atom    4 type  2   force =     0.01082711    0.00458071    0.00009651
     atom    5 type  1   force =     0.00118366   -0.00450323   -0.00046528
     atom    6 type  1   force =    -0.00022662   -0.00218715    0.00044917
     atom    7 type  1   force =     0.00008887   -0.00038141   -0.00037693
     atom    8 type  1   force =    -0.00415436    0.00260246   -0.00017708
     atom    9 type  2   force =     0.00528849   -0.00432045    0.00036387
     atom   10 type  2   force =    -0.00001956   -0.01786093   -0.00044151
     atom   11 type  1   force =    -0.00489217    0.00194291   -0.00090605
     atom   12 type  1   force =    -0.00969090    0.01295394    0.00003729
     atom   13 type  1   force =    -0.00112979   -0.00805582    0.00006083
     atom   14 type  1   force =    -0.00889877   -0.00348152    0.00002243
     atom   15 type  1   force =     0.00022641    0.00174046    0.00026320
     atom   16 type  2   force =    -0.01540687    0.00681989    0.00021453
     atom   17 type  2   force =     0.01073342    0.00481191    0.00009849
     atom   18 type  1   force =     0.00119689   -0.00445057   -0.00047598
     atom   19 type  1   force =     0.00011022   -0.00210414    0.00044491
     atom   20 type  1   force =     0.00009402   -0.00324218   -0.00007330
     atom   21 type  1   force =    -0.00402664    0.00268127   -0.00011203
     atom   22 type  2   force =    -0.00149712   -0.00419126    0.00042109
     atom   23 type  2   force =    -0.00023380    0.01171750    0.00035050
     atom   24 type  1   force =     0.00499716    0.00196880   -0.00093042
     atom   25 type  1   force =     0.00983862    0.01291397    0.00002764
     atom   26 type  1   force =    -0.00109905   -0.01506069    0.00011156
     atom   27 type  3   force =    -0.00000052    0.00009530    0.00044371
     atom   28 type  3   force =    -0.00002649   -0.00009583    0.00052499
     atom   29 type  3   force =     0.00019060   -0.00037831    0.00021290
     atom   30 type  3   force =     0.00029112   -0.00068572    0.00022676
     atom   31 type  1   force =     0.00001458    0.00021186   -0.00085873

     Total force =     0.002386     Total SCF correction =     0.000190

     bfgs converged in   4 scf cycles and   3 bfgs steps
     (criteria: energy < 0.10E-03, force < 0.10E-02)

     End of BFGS Geometry Optimization

     Final energy   =   -2280.5556698599 Ry
Begin final coordinates

ATOMIC_POSITIONS (crystal)
O0       0.000000000   0.000000000   0.377698355    0   0   1
O0       0.000000000   0.500000000   0.401686209    0   0   1
Pt1      0.250000000   0.500000000   0.451242422    0   0   1
Pt1      0.000000000   0.000000000   0.452703937    0   0   1
O0       0.250000000   0.810000000   0.443337779    0   0   1
O0       0.250000000   0.190000000   0.460125004    0   0   1
O0       0.000000000   0.500000000   0.496807402    0   0   1
O0       0.000000000   0.000000000   0.529753683    0   0   1
Pt1      0.250000000   0.000000000   0.576060436    0   0   1
Pt1      0.000000000   0.500000000   0.575182422    0   0   1
O0       0.250000000   0.690000000   0.566039029    0   0   1
O0       0.250000000   0.310000000   0.585792089    0   0   1
O0       0.000000000   0.000000000   0.621398183    0   0   1
O0       0.500000000   0.000000000   0.377768680    0   0   1
O0       0.500000000   0.500000000   0.400959377    0   0   1
Pt1      0.750000000   0.500000000   0.451245416    0   0   1
Pt1      0.500000000   0.000000000   0.452709216    0   0   1
O0       0.750000000   0.810000000   0.443378282    0   0   1
O0       0.750000000   0.190000000   0.460114827    0   0   1
O0       0.500000000   0.500000000   0.498212418    0   0   1
O0       0.500000000   0.000000000   0.529611328    0   0   1
Pt1      0.750000000   0.000000000   0.576061403    0   0   1
Pt1      0.500000000   0.500000000   0.577761676    0   0   1
O0       0.750000000   0.690000000   0.566027369    0   0   1
O0       0.750000000   0.310000000   0.585802397    0   0   1
O0       0.500000000   0.000000000   0.621390458    0   0   1
H2       0.000109487   0.639468270   0.385704811
H2       0.500171246   0.640024838   0.385376413
H2       0.142743463   0.036175116   0.367610537
H2       0.642060839   0.038432781   0.367612296
O0       0.500097420   0.572778238   0.644496149
End final coordinates

     General routines

     Parallel routines
     Hubbard U routines

   This run was terminated on:   6:13: 7  28Apr2014

   JOB DONE.
Running PBS batch system epilogue script
Job id: 340469.audhumbla.fysik.dtu.dk
Username: zhonxu
Groupname: campgst
Jobname: PtO2/Eads-2-layers/O-U-1.0
Sessionid: 26742
Queuename: verylong
Accounting:
This job has allocated the following 16 nodes:
b081 b081 b081 b081 b081 b081 b081 b081 b065 b065 b065 b065 b065 b065 b065 b065
Finished epilogue job 340469.audhumbla.fysik.dtu.dk for zhonxu