     Program PWSCF v.5.0.2 (svn rev. 9656) starts on 16Apr2014 at 15:12:47

     Current dimensions of program PWSCF are:
     Max number of different atomic species (ntypx) = 10
     Max number of k-points (npk) =  40000
     Max angular momentum in pseudopotentials (lmaxx) =  3
     Reading input from pwscf.in
Warning: card &CELL ignored
Warning: card / ignored

     Subspace diagonalization in iterative solution of the eigenvalue problem:
     a serial algorithm will be used

     bravais-lattice index     =            0
     lattice parameter (alat)  =      11.2250  a.u.
     unit-cell volume          =    7005.5484 (a.u.)^3
     number of atoms/cell      =           31
     number of atomic types    =            3
     number of electrons       =       214.00
     number of Kohn-Sham states=          309
     kinetic-energy cutoff     =      40.0000  Ry
     charge density cutoff     =     500.0000  Ry
     convergence threshold     =      1.0E-06
     mixing beta               =       0.3000
     number of iterations used =            8  plain     mixing
     Exchange-correlation      = SLA  PW   PBE  PBE ( 1 4 3 4 0)
     EXX-fraction              =        0.00
     nstep                     =           50

     celldm(1)=  11.224973  celldm(2)=   0.000000  celldm(3)=   0.000000
     celldm(4)=   0.000000  celldm(5)=   0.000000  celldm(6)=   0.000000

     crystal axes: (cart. coord. in units of alat)
               a(1) = (   1.000000   0.000000   0.000000 )
               a(2) = (   0.000000   1.107086   0.000000 )
               a(3) = (   0.000000   0.000000   4.474090 )

     reciprocal axes: (cart. coord. in units 2 pi/alat)
               b(1) = (  1.000000  0.000000  0.000000 )
               b(2) = (  0.000000  0.903272  0.000000 )
               b(3) = (  0.000000  0.000000  0.223509 )

     PseudoPot. # 1 for O  read from file:
     /home/camp/zhonxu/pseudo/o_pbe_v1.01.uspp.F.UPF
     MD5 check sum: 2bcb18d16ea4b960afae9ec6d52f22d2
     Pseudo is Ultrasoft + core correction, Zval =  6.0
     Generated by new atomic code, or converted to UPF format
     Using radial grid of  737 points,  5 beta functions with:
                l(1) =   0
                l(2) =   0
                l(3) =   1
                l(4) =   1
                l(5) =   2
     Q(r) pseudized with  8 coefficients,  rinner =    0.900   0.900   0.900
                                                       0.900   0.900

     PseudoPot. # 2 for Ti read from file:
     /home/camp/zhonxu/pseudo/ti_pbe_v1.uspp.F.UPF
     MD5 check sum: bcc8f6961b3b91f0cac3ca967d22d0fb
     Pseudo is Ultrasoft + core correction, Zval = 12.0
     Generated by new atomic code, or converted to UPF format
     Using radial grid of  851 points,  6 beta functions with:
                l(1) =   0
                l(2) =   0
                l(3) =   1
                l(4) =   1
                l(5) =   2
                l(6) =   2
     Q(r) pseudized with  6 coefficients,  rinner =    1.000   1.000   1.000
                                                       1.000   1.000

     PseudoPot. # 3 for H  read from file:
     /home/camp/zhonxu/pseudo/h_pbe_v1.uspp.F.UPF
     MD5 check sum: 3408e3ff4ec8b0a4e358431e7e038a48
     Pseudo is Ultrasoft, Zval =  1.0
     Generated by new atomic code, or converted to UPF format
     Using radial grid of  615 points,  2 beta functions with:
                l(1) =   0
                l(2) =   0
     Q(r) pseudized with  8 coefficients,  rinner =    0.700

     atomic species   valence    mass     pseudopotential
        O0             6.00    15.99940     O ( 1.00)
        Ti1           12.00    47.88000     Ti( 1.00)
        H2             1.00     1.00794     H ( 1.00)

     No symmetry found

   Cartesian axes

     site n.     atom                  positions (alat units)
         1           O0  tau(   1) = (   0.0000000   0.0000000   1.6916981  )
         2           O0  tau(   2) = (   0.0000000   0.5535432   1.7793455  )
         3           Ti1 tau(   3) = (   0.2500000   0.5535432   2.0135193  )
         4           Ti1 tau(   4) = (   0.0000000   0.0000000   2.0249730  )
         5           O0  tau(   5) = (   0.2500000   0.8967400   2.0128482  )
         6           O0  tau(   6) = (   0.2500000   0.2103464   2.0156222  )
         7           O0  tau(   7) = (   0.0000000   0.5535432   2.2215645  )
         8           O0  tau(   8) = (   0.0000000   0.0000000   2.3494787  )
         9           Ti1 tau(   9) = (   0.2500000   0.0000000   2.6002962  )
        10           Ti1 tau(  10) = (   0.0000000   0.5535432   2.5369431  )
        11           O0  tau(  11) = (   0.2500000   0.7638896   2.5922876  )
        12           O0  tau(  12) = (   0.2500000   0.3431968   2.5913480  )
        13           O0  tau(  13) = (   0.0000000   0.0000000   2.7827496  )
        14           O0  tau(  14) = (   0.5000000   0.0000000   1.6981408  )
        15           O0  tau(  15) = (   0.5000000   0.5535432   1.7778690  )
        16           Ti1 tau(  16) = (   0.7500000   0.5535432   2.0135641  )
        17           Ti1 tau(  17) = (   0.5000000   0.0000000   2.0312815  )
        18           O0  tau(  18) = (   0.7500000   0.8967400   2.0121324  )
        19           O0  tau(  19) = (   0.7500000   0.2103464   2.0164275  )
        20           O0  tau(  20) = (   0.5000000   0.5535432   2.2018785  )
        21           O0  tau(  21) = (   0.5000000   0.0000000   2.3534159  )
        22           Ti1 tau(  22) = (   0.7500000   0.0000000   2.6002515  )
        23           Ti1 tau(  23) = (   0.5000000   0.5535432   2.6684813  )
        24           O0  tau(  24) = (   0.7500000   0.7638896   2.5918849  )
        25           O0  tau(  25) = (   0.7500000   0.3431968   2.5918849  )
        26           O0  tau(  26) = (   0.5000000   0.0000000   2.7810494  )
        27           H2  tau(  27) = (  -0.0007500   0.6909437   1.6851659  )
        28           H2  tau(  28) = (   0.4991700   0.6890395   1.6816761  )
        29           H2  tau(  29) = (   0.1493000   0.0317512   1.6251684  )
        30           H2  tau(  30) = (   0.6485500   0.0323491   1.6306267  )
        31           O0  tau(  31) = (   0.4997200   0.5535432   2.9491410  )

     number of k points=    10  Methfessel-Paxton smearing, width (Ry)=  0.0100
                       cart. coord. in units 2pi/alat
        k(    1) = (   0.0000000   0.0000000   0.0000000), wk =   0.1250000
        k(    2) = (   0.0000000   0.2258180   0.0000000), wk =   0.2500000
        k(    3) = (   0.0000000  -0.4516359   0.0000000), wk =   0.1250000
        k(    4) = (   0.2500000   0.0000000   0.0000000), wk =   0.2500000
        k(    5) = (   0.2500000   0.2258180   0.0000000), wk =   0.2500000
        k(    6) = (   0.2500000  -0.4516359   0.0000000), wk =   0.2500000
        k(    7) = (  -0.5000000   0.0000000   0.0000000), wk =   0.1250000
        k(    8) = (  -0.5000000   0.2258180   0.0000000), wk =   0.2500000
        k(    9) = (  -0.5000000  -0.4516359   0.0000000), wk =   0.1250000
        k(   10) = (  -0.2500000   0.2258180   0.0000000), wk =   0.2500000

     Largest allocated arrays     est. size (Mb)     dimensions
     Largest temporary arrays     est. size (Mb)     dimensions

     Check: negative/imaginary core charge=   -0.000006    0.000000

     Initial potential from superposition of free atoms
     Check: negative starting charge=   -0.102580

     starting charge  205.99958, renormalised to  214.00000

     negative rho (up, down):  0.107E+00 0.000E+00
     Starting wfc are  160 randomized atomic wfcs

     Self-consistent Calculation

     iteration #  1     ecut=    40.00 Ry     beta=0.30
     Davidson diagonalization with overlap
     ethr =  1.00E-02,  avg # of iterations =  6.0

     negative rho (up, down):  0.106E+00 0.000E+00

     total energy              =   -1554.07782577 Ry
     Harris-Foulkes estimate   =   -1568.89975560 Ry
     estimated scf accuracy    <      30.15909267 Ry

[...]

     End of self-consistent calculation

          k = 0.0000 0.0000 0.0000 ( 29975 PWs)   bands (ev):

   -60.5289 -60.4893 -60.2044 -59.7049 -59.6622 -59.3046 -59.2630 -58.5634
   -37.0923 -36.8032 -36.7176 -36.7092 -36.6773 -36.6272 -36.5698 -36.4518
   -36.3888 -36.3364 -36.0342 -35.9319 -35.8805 -35.8693 -35.8577 -35.8133
   -35.5849 -35.5835 -35.5492 -35.4853 -35.3702 -35.0043 -34.9331 -34.8886
   -22.0681 -21.7314 -21.1275 -20.9417 -20.4695 -20.3904 -20.1627 -20.1566
   -19.9444 -19.9086 -19.6953 -19.6433 -19.6298 -19.6192 -19.3134 -19.2962
   -18.8807 -18.7760 -17.9799  -9.8495  -9.4340  -8.7972  -8.7497  -8.1115
    -8.0566  -8.0216  -7.6905  -7.5247  -7.4263  -7.3443  -7.3278  -7.2499
    -7.0989  -7.0559  -6.9739  -6.9314  -6.8808  -6.8609  -6.6021  -6.5814
    -6.4306  -6.2485  -6.1134  -5.9758  -5.9657  -5.8425  -5.6086  -5.5307
    -5.4160  -5.3800  -5.3582  -5.2890  -5.1249  -5.1085  -5.0796  -4.9055
    -4.8238  -4.6946  -4.6125  -4.4637  -4.4218  -4.4191  -4.3811  -4.3566
    -4.2833  -4.1261  -4.0929  -4.0427  -3.8487  -3.8217  -3.7357  -3.6320
    -3.5960  -3.5708  -3.4046  -3.2503  -1.2777  -1.0875  -0.9511  -0.9414
    -0.8681  -0.7307  -0.5057  -0.2054  -0.1978  -0.1264  -0.0882   0.1447
     0.1686   0.1940   0.1972   0.4152   0.4177   0.6037   0.7431   0.7931
     1.0130   1.2115   1.2831   1.7662   1.7819   1.9686   1.9961   2.1324
     2.2485   2.4329   2.5547   2.6975   2.8994   3.0094   3.0903   3.4268
     3.5733   3.5928   3.6965   3.8447   3.8963   3.9869   4.2337   4.2985
     4.6906   5.1327   5.5600   5.6258   5.7011   6.0810   6.1671   6.6996
     6.9575   7.1205   7.1702   7.3149   7.3827   7.5327   7.5586   7.7361
     7.8117   7.8558   7.9488   8.1078   8.2087   8.2203   8.2884   8.4340
     8.5368   8.5789   8.6508   8.7580   8.8523   8.8677   8.9606   9.0307
     9.0779   9.2335   9.3555   9.4145   9.4274   9.6213   9.7927   9.8717
     9.9429  10.0818  10.3595  10.4835  10.5847  10.6272  10.7112  10.7186
    10.8207  10.9539  10.9760  11.0579  11.1256  11.1435  11.2432  11.2937
    11.3269  11.3662  11.3957  11.4855  11.5517  11.6424  11.7088  11.7479
    11.8730  11.9471  11.9682  12.0509  12.1391  12.1655  12.2355  12.3016
    12.3535  12.4261  12.5017  12.5399  12.6287  12.6665  12.8049  12.8441
    12.9578  13.0160  13.1186  13.2876  13.2991  13.3373  13.4003  13.6056
    13.6174  13.7074  13.7776  13.8008  13.9248  14.0055  14.0322  14.0953
    14.2138  14.4119  14.4995  14.5551  14.6758  14.7257  14.8214  14.8686
    14.8803  15.0462  15.0745  15.1306  15.2658  15.3715  15.4641  15.5482
    15.5803  15.6487  15.8785  16.0837  16.0900  16.2632  16.2961  16.3557
    16.4104  16.4324  16.5642  16.5859  16.7458  16.8728  16.9133  17.0705
    17.1506  17.2109  17.4073  17.4942  17.5324  17.5786  17.6013  17.6357
    17.6967  17.7389  17.8850  17.9096  18.0375  18.1107  18.1389  18.1712
    18.2196  18.2565  18.2817  18.3613  18.4274  18.5370  18.6298  18.7144
    18.7563  18.8673  18.9035  18.9895  19.0822

[...]

          k =-0.5000 0.0000 0.0000 ( 29982 PWs)   bands (ev):

[...]

     the Fermi energy is    -3.4582 ev

!    total energy              =   -1566.94254624 Ry
[...]
     atom    1 type  1   force =    -0.00000931   -0.01222567    0.00009455
     atom    2 type  1   force =     0.00007878    0.01879405    0.00019227
     atom    3 type  2   force =     0.06461833   -0.01244701   -0.00295348
     atom    4 type  2   force =    -0.00324541    0.00587149   -0.00574379
     atom    5 type  1   force =    -0.00240356   -0.06720974   -0.00089635
     atom    6 type  1   force =    -0.00459274    0.06839975   -0.00005490
     atom    7 type  1   force =    -0.00000294    0.00092088    0.00836965
     atom    8 type  1   force =     0.00209036   -0.00134534    0.00524124
     atom    9 type  2   force =     0.00816050    0.00017608    0.00080146
     atom   10 type  2   force =     0.00001350    0.00019911    0.01270610
     atom   11 type  1   force =    -0.03749002    0.00099098   -0.00089994
     atom   12 type  1   force =    -0.03736858   -0.00062280   -0.00027468
     atom   13 type  1   force =     0.00020472    0.00017738    0.00517090
     atom   14 type  1   force =    -0.00185129   -0.01123273   -0.00498722
     atom   15 type  1   force =    -0.00003512    0.01523394   -0.00322682
     atom   16 type  2   force =    -0.06422885   -0.01245495   -0.00295520
     atom   17 type  2   force =    -0.00437314    0.00519038   -0.00681107
     atom   18 type  1   force =     0.00637393   -0.06708198   -0.00050688
     atom   19 type  1   force =     0.00488491    0.06882223   -0.00096647
     atom   20 type  1   force =    -0.00031527    0.00002709   -0.00274945
     atom   21 type  1   force =     0.00223480   -0.00099642   -0.00194913
     atom   22 type  2   force =    -0.00865303   -0.00008291    0.00084017
     atom   23 type  2   force =    -0.00004983   -0.00010284   -0.01338254
     atom   24 type  1   force =     0.03750579    0.00108430   -0.00037472
     atom   25 type  1   force =     0.03727532   -0.00068221   -0.00082609
     atom   26 type  1   force =     0.00020914   -0.00010015    0.00136738
     atom   27 type  3   force =    -0.00007626   -0.00182874   -0.00095894
     atom   28 type  3   force =     0.00005449   -0.00030408   -0.00351410
     atom   29 type  3   force =    -0.00045976    0.00151689    0.00133987
     atom   30 type  3   force =     0.00141012    0.00138094    0.00010359
     atom   31 type  1   force =     0.00004044   -0.00006790    0.01780460

     Total force =     0.030938     Total SCF correction =     0.002532

     BFGS Geometry Optimization

     number of scf cycles    =   1
     number of bfgs steps    =   0

     energy   new            =   -1566.9425462416 Ry

     new trust radius        =       0.0178047743 bohr
     new conv_thr            =       0.0000010000 Ry

ATOMIC_POSITIONS (crystal)
O0       0.000000000   0.000000000   0.378111883    0   0   1
O0       0.000000000   0.500000000   0.397703828    0   0   1
Ti1      0.250000000   0.500000000   0.449981191    0   0   1
Ti1      0.000000000   0.000000000   0.452485631    0   0   1
O0       0.250000000   0.810000000   0.449872152    0   0   1
O0       0.250000000   0.190000000   0.450508907    0   0   1
O0       0.000000000   0.500000000   0.496706655    0   0   1
O0       0.000000000   0.000000000   0.525234362    0   0   1
Ti1      0.250000000   0.000000000   0.581205958    0   0   1
Ti1      0.000000000   0.500000000   0.567283001    0   0   1
O0       0.250000000   0.690000000   0.579382081    0   0   1
O0       0.250000000   0.310000000   0.579184531    0   0   1
O0       0.000000000   0.000000000   0.622072962    0   0   1
O0       0.500000000   0.000000000   0.379450696    0   0   1
O0       0.500000000   0.500000000   0.397305748    0   0   1
Ti1      0.750000000   0.500000000   0.449991157    0   0   1
Ti1      0.500000000   0.000000000   0.453874380    0   0   1
O0       0.750000000   0.810000000   0.449719907    0   0   1
O0       0.750000000   0.190000000   0.450670756    0   0   1
O0       0.500000000   0.500000000   0.492085254    0   0   1
O0       0.500000000   0.000000000   0.525971189    0   0   1
Ti1      0.750000000   0.000000000   0.581196729    0   0   1
Ti1      0.500000000   0.500000000   0.596163530    0   0   1
O0       0.750000000   0.690000000   0.579302539    0   0   1
O0       0.750000000   0.310000000   0.579293551    0   0   1
O0       0.500000000   0.000000000   0.621617227    0   0   1
H2      -0.000756794   0.623962842   0.376630906
H2       0.499174854   0.622365531   0.375800028
H2       0.149259042   0.028802064   0.363266679
H2       0.648675624   0.029331124   0.364462063
O0       0.499723602   0.499994536   0.659514521

     Check: negative starting charge=   -0.102580
     NEW-OLD atomic charge density approx. for the potential

     Check: negative/imaginary core charge=   -0.000006    0.000000
     Check: negative starting charge=   -0.102437

[...]

     energy   old            =   -1566.9425462416 Ry
     energy   new            =   -1566.9431608128 Ry

     CASE: energy  _new < energy  _old

[...]

     Total force =     0.003350     Total SCF correction =     0.000389
     SCF correction compared to forces is large: reduce conv_thr to get better values

     number of scf cycles    =  13
     number of bfgs steps    =  12

     energy   old            =   -1566.9446282026 Ry
     energy   new            =   -1566.9446623118 Ry

     CASE: energy  _new < energy  _old

     new trust radius        =       0.0046294084 bohr
     new conv_thr            =       0.0000000100 Ry

ATOMIC_POSITIONS (crystal)
O0       0.000000000   0.000000000   0.378011260    0   0   1
O0       0.000000000   0.500000000   0.397870568    0   0   1
Ti1      0.250000000   0.500000000   0.450083602    0   0   1
Ti1      0.000000000   0.000000000   0.452761091    0   0   1
O0       0.250000000   0.810000000   0.449286505    0   0   1
O0       0.250000000   0.190000000   0.450154506    0   0   1
O0       0.000000000   0.500000000   0.497626727    0   0   1
O0       0.000000000   0.000000000   0.525491008    0   0   1
Ti1      0.250000000   0.000000000   0.581060793    0   0   1
Ti1      0.000000000   0.500000000   0.568467680    0   0   1
O0       0.250000000   0.690000000   0.580444533    0   0   1
O0       0.250000000   0.310000000   0.580459493    0   0   1
O0       0.000000000   0.000000000   0.622301378    0   0   1
O0       0.500000000   0.000000000   0.377852356    0   0   1
O0       0.500000000   0.500000000   0.397127802    0   0   1
Ti1      0.750000000   0.500000000   0.450084316    0   0   1
Ti1      0.500000000   0.000000000   0.451587439    0   0   1
O0       0.750000000   0.810000000   0.449343890    0   0   1
O0       0.750000000   0.190000000   0.450018008    0   0   1
O0       0.500000000   0.500000000   0.491752934    0   0   1
O0       0.500000000   0.000000000   0.525286470    0   0   1
Ti1      0.750000000   0.000000000   0.581053225    0   0   1
Ti1      0.500000000   0.500000000   0.598243594    0   0   1
O0       0.750000000   0.690000000   0.580547868    0   0   1
O0       0.750000000   0.310000000   0.580350289    0   0   1
O0       0.500000000   0.000000000   0.621508736    0   0   1
H2      -0.000735470   0.619772655   0.375445283
H2       0.499420849   0.615758104   0.373555118
H2       0.148662775   0.034072147   0.363543729
H2       0.648927488   0.032826902   0.363359789
O0       0.499993951   0.499858687   0.661370010

     Check: negative starting charge=   -0.102362
     NEW-OLD atomic charge density approx. for the potential

     Check: negative/imaginary core charge=   -0.000006    0.000000
     Check: negative starting charge=   -0.102444

[...]

     Self-consistent Calculation

[...]

     total energy              =   -1566.94467504 Ry
     Harris-Foulkes estimate   =   -1566.94467504 Ry
     estimated scf accuracy    <       0.00000001 Ry

     iteration # 11     ecut=    40.00 Ry     beta=0.30
     Davidson diagonalization with overlap
     ethr =  5.07E-12,  avg # of iterations =  1.0

     negative rho (up, down):  0.102E+00 0.000E+00

     End of self-consistent calculation

[...]

          k = 0.2500-0.4516 0.0000 ( 29882 PWs)   bands (ev):

[...]

          k =-0.2500 0.2258 0.0000 ( 29912 PWs)   bands (ev):

   -60.5120 -60.4841 -60.1920 -59.6959 -59.6652 -59.2738 -59.2445 -58.6047
   -37.0150 -36.7756 -36.7178 -36.6943 -36.6726 -36.6711 -36.5473 -36.4345
   -36.3773 -36.2640 -36.0194 -35.9441 -35.9411 -35.8433 -35.8208 -35.7525
   -35.5584 -35.5457 -35.5339 -35.4676 -35.4088 -35.0148 -34.9791 -34.9306
   -21.9615 -21.7157 -21.0282 -20.7819 -20.3117 -20.2663 -20.2430 -20.1820
   -19.9929 -19.8496 -19.7738 -19.7520 -19.6400 -19.5490 -19.3324 -19.2068
   -18.8858 -18.8192 -17.9665  -9.8093  -9.5278  -8.5531  -8.2993  -8.0226
    -7.8056  -7.7069  -7.6740  -7.5937  -7.3769  -7.3334  -7.2483  -7.1984
    -7.0546  -6.9683  -6.9064  -6.8426  -6.7596  -6.6307  -6.5562  -6.4908
    -6.3132  -6.2054  -6.0772  -5.9708  -5.8161  -5.7609  -5.6777  -5.5752
    -5.5233  -5.4348  -5.4039  -5.3260  -5.2506  -5.1807  -5.0843  -5.0056
    -4.9650  -4.9183  -4.8410  -4.7564  -4.6657  -4.5049  -4.4538  -4.2525
    -4.1904  -4.1373  -4.1260  -4.0303  -3.9695  -3.9061  -3.7417  -3.6981
    -3.6181  -3.5487  -3.4854  -3.3455  -1.1161  -1.0902  -0.9757  -0.8482
    -0.5236  -0.4606  -0.4042  -0.3490  -0.2228  -0.0705   0.0104   0.1319
     0.1424   0.2041   0.4027   0.5062   0.5574   0.6984   0.8344   0.9062
     0.9920   1.1105   1.1612   1.6293   1.8735   1.9270   1.9974   2.0420
     2.2404   2.3100   2.6642   2.7994   2.9787   3.1813   3.2489   3.2721
     3.4356   3.5466   3.7439   3.8839   3.9462   4.0496   4.4667   4.6092
     4.6679   4.8559   5.2263   5.7776   5.8810   5.9965   6.1561   6.3020
     6.3320   6.5472   6.7354   6.8940   7.0168   7.2626   7.3127   7.4126
     7.6101   7.6912   7.7621   7.8924   7.9233   8.0374   8.2079   8.3396
     8.4852   8.6865   8.7447   8.8155   8.9963   9.1401   9.2047   9.2952
     9.3746   9.4750   9.5841   9.6064   9.7138   9.8410   9.8836  10.0297
    10.1026  10.2676  10.3320  10.4796  10.5800  10.6933  10.7984  10.8386
    10.9383  11.0081  11.0673  11.1263  11.1621  11.2845  11.3725  11.4051
    11.4593  11.5247  11.6810  11.7068  11.8014  11.8752  11.9348  12.0126
    12.0668  12.1115  12.1847  12.2969  12.4080  12.4186  12.4963  12.5471
    12.6073  12.7377  12.8050  12.9063  12.9483  12.9884  13.0793  13.2125
    13.3250  13.3534  13.4242  13.4661  13.5750  13.6573  13.7344  13.8035
    13.8462  13.9074  13.9992  14.0809  14.1396  14.1774  14.3127  14.3760
    14.4431  14.5448  14.5967  14.6386  14.7311  14.7730  14.8764  14.9973
    15.0867  15.1869  15.2324  15.2954  15.3888  15.4599  15.4909  15.5849
    15.6191  15.6997  15.7573  15.8467  15.8704  15.9906  16.0521  16.0886
    16.1633  16.2087  16.3144  16.3665  16.4689  16.6134  16.7010  16.7099
    16.7780  16.8452  16.8821  16.9289  16.9642  17.0907  17.1145  17.1943
    17.2686  17.3353  17.4239  17.4798  17.5497  17.6120  17.6413  17.7041
    17.7771  17.8409  17.9597  18.0360  18.1292  18.2063  18.2499  18.3089
    18.4011  18.4863  18.5800  18.5982  18.6577

     the Fermi energy is    -3.4297 ev

!    total energy              =   -1566.94467505 Ry
     Harris-Foulkes estimate   =   -1566.94467505 Ry
     estimated scf accuracy    <          5.2E-09 Ry

     The total energy is the sum of the following terms:

     one-electron contribution =  -18547.22028514 Ry
     hartree contribution      =    9289.63412045 Ry
     xc contribution           =    -276.75007324 Ry
     ewald contribution        =    7967.39144876 Ry
     smearing contrib. (-TS)   =       0.00011412 Ry

     convergence has been achieved in  11 iterations

     Forces acting on atoms (Ry/au):

     negative rho (up, down):  0.102E+00 0.000E+00
     atom    1 type  1   force =    -0.00074704   -0.00998136    0.00024032
     atom    2 type  1   force =     0.00012766    0.01510623    0.00013321
     atom    3 type  2   force =     0.05817715   -0.01083557   -0.00020483
     atom    4 type  2   force =    -0.00369314    0.00449080   -0.00088513
     atom    5 type  1   force =    -0.00278827   -0.06612823    0.00061174
     atom    6 type  1   force =    -0.00574977    0.06836440    0.00054705
     atom    7 type  1   force =    -0.00003194    0.00085241   -0.00056921
     atom    8 type  1   force =     0.00199733   -0.00115059   -0.00030338
     atom    9 type  2   force =     0.00800741    0.00012441   -0.00006516
     atom   10 type  2   force =     0.00005046    0.00024153   -0.00069188
     atom   11 type  1   force =    -0.03395462   -0.00132260    0.00022346
     atom   12 type  1   force =    -0.03434619    0.00166796    0.00001487
     atom   13 type  1   force =     0.00014921    0.00015163    0.00025595
     atom   14 type  1   force =    -0.00013594   -0.00917925   -0.00043775
     atom   15 type  1   force =     0.00007401    0.01176335   -0.00059197
     atom   16 type  2   force =    -0.05778197   -0.00974045   -0.00018894
     atom   17 type  2   force =    -0.00408763    0.00394054    0.00036172
     atom   18 type  1   force =     0.00770996   -0.06625060    0.00057228
     atom   19 type  1   force =     0.00511807    0.06817851    0.00064944
     atom   20 type  1   force =    -0.00026375   -0.00018023    0.00015883
     atom   21 type  1   force =     0.00209666   -0.00086628   -0.00013116
     atom   22 type  2   force =    -0.00841509   -0.00002010   -0.00007244
     atom   23 type  2   force =     0.00001320   -0.00011773    0.00012555
     atom   24 type  1   force =     0.03446940   -0.00120489    0.00003377
     atom   25 type  1   force =     0.03370419    0.00154863    0.00019978
     atom   26 type  1   force =     0.00022108   -0.00009944   -0.00029431
     atom   27 type  3   force =     0.00004980    0.00023079    0.00045521
     atom   28 type  3   force =    -0.00004086    0.00020407   -0.00057281
     atom   29 type  3   force =    -0.00004963    0.00013683    0.00023891
     atom   30 type  3   force =     0.00010469    0.00006748   -0.00031438
     atom   31 type  1   force =     0.00001554    0.00000773    0.00050125

     Total force =     0.002306     Total SCF correction =     0.000128

     bfgs converged in  14 scf cycles and  13 bfgs steps
     (criteria: energy < 0.10E-03, force < 0.10E-02)

     End of BFGS Geometry Optimization

     Final energy   =   -1566.9446750452 Ry
Begin final coordinates

ATOMIC_POSITIONS (crystal)
O0       0.000000000   0.000000000   0.378011260    0   0   1
O0       0.000000000   0.500000000   0.397870568    0   0   1
Ti1      0.250000000   0.500000000   0.450083602    0   0   1
Ti1      0.000000000   0.000000000   0.452761091    0   0   1
O0       0.250000000   0.810000000   0.449286505    0   0   1
O0       0.250000000   0.190000000   0.450154506    0   0   1
O0       0.000000000   0.500000000   0.497626727    0   0   1
O0       0.000000000   0.000000000   0.525491008    0   0   1
Ti1      0.250000000   0.000000000   0.581060793    0   0   1
Ti1      0.000000000   0.500000000   0.568467680    0   0   1
O0       0.250000000   0.690000000   0.580444533    0   0   1
O0       0.250000000   0.310000000   0.580459493    0   0   1
O0       0.000000000   0.000000000   0.622301378    0   0   1
O0       0.500000000   0.000000000   0.377852356    0   0   1
O0       0.500000000   0.500000000   0.397127802    0   0   1
Ti1      0.750000000   0.500000000   0.450084316    0   0   1
Ti1      0.500000000   0.000000000   0.451587439    0   0   1
O0       0.750000000   0.810000000   0.449343890    0   0   1
O0       0.750000000   0.190000000   0.450018008    0   0   1
O0       0.500000000   0.500000000   0.491752934    0   0   1
O0       0.500000000   0.000000000   0.525286470    0   0   1
Ti1      0.750000000   0.000000000   0.581053225    0   0   1
Ti1      0.500000000   0.500000000   0.598243594    0   0   1
O0       0.750000000   0.690000000   0.580547868    0   0   1
O0       0.750000000   0.310000000   0.580350289    0   0   1
O0       0.500000000   0.000000000   0.621508736    0   0   1
H2      -0.000735470   0.619772655   0.375445283
H2       0.499420849   0.615758104   0.373555118
H2       0.148662775   0.034072147   0.363543729
H2       0.648927488   0.032826902   0.363359789
O0       0.499993951   0.499858687   0.661370010
End final coordinates

     General routines

     Parallel routines

   This run was terminated on:   1:39:44  17Apr2014

   JOB DONE.
Running PBS batch system epilogue script
Job id: 335001.audhumbla.fysik.dtu.dk
Username: zhonxu
Groupname: campgst
Jobname: TiO2/Eads-2-layers/O-relax-surf
Sessionid: 6457
Queuename: verylong
Accounting:
This job has allocated the following 16 nodes:
a105 a105 a105 a105 a105 a105 a105 a105 a104 a104 a104 a104 a104 a104 a104 a104
Finished epilogue job 335001.audhumbla.fysik.dtu.dk for zhonxu