     Program PWSCF v.5.0.2 (svn rev. 9656) starts on 28Apr2014 at 15:25:34

     Current dimensions of program PWSCF are:
     Max number of different atomic species (ntypx) = 10
     Max number of k-points (npk) =  40000
     Max angular momentum in pseudopotentials (lmaxx) =  3
     Reading input from pwscf.in
Warning: card &CELL ignored
Warning: card / ignored

     Subspace diagonalization in iterative solution of the eigenvalue problem:
     a serial algorithm will be used

     bravais-lattice index     =            0
     lattice parameter (alat)  =      10.3179  a.u.
     unit-cell volume          =    6964.3238 (a.u.)^3
     number of atoms/cell      =           31
     number of atomic types    =            3
     number of electrons       =       230.00
     number of Kohn-Sham states=          345
     kinetic-energy cutoff     =      40.0000  Ry
     charge density cutoff     =     500.0000  Ry
     convergence threshold     =      1.0E-06
     mixing beta               =       0.7000
     number of iterations used =            8  plain     mixing
     Exchange-correlation      = SLA  PW   PBE  PBE ( 1 4 3 4 0)
     EXX-fraction              =        0.00
     nstep                     =           50

     celldm(1)=  10.317905  celldm(2)=   0.000000  celldm(3)=   0.000000
     celldm(4)=   0.000000  celldm(5)=   0.000000  celldm(6)=   0.000000

     crystal axes: (cart. coord. in units of alat)
               a(1) = (   1.000000   0.000000   0.000000 )
               a(2) = (   0.000000   1.282117   0.000000 )
               a(3) = (   0.000000   0.000000   4.945120 )

     reciprocal axes: (cart. coord. in units 2 pi/alat)
               b(1) = (  1.000000  0.000000  0.000000 )
               b(2) = (  0.000000  0.779960  0.000000 )
               b(3) = (  0.000000  0.000000  0.202220 )

     PseudoPot. # 1 for O  read from file:
     /home/camp/zhonxu/pseudo/o_pbe_v1.01.uspp.F.UPF
     MD5 check sum: 2bcb18d16ea4b960afae9ec6d52f22d2
     Pseudo is Ultrasoft + core correction, Zval =  6.0
     Generated by new atomic code, or converted to UPF format
     Using radial grid of  737 points,  5 beta functions with:
                l(1) =   0
                l(2) =   0
                l(3) =   1
                l(4) =   1
                l(5) =   2
     Q(r) pseudized with  8 coefficients,  rinner =    0.900   0.900   0.900
                                                       0.900   0.900

     PseudoPot. # 2 for Mo read from file:
     /home/camp/zhonxu/pseudo/mo_pbe_v1.uspp.F.UPF
     MD5 check sum: 30c4dcd161f5d35cd49bb5239c51a633
     Pseudo is Ultrasoft + core correction, Zval = 14.0
     Generated by new atomic code, or converted to UPF format
     Using radial grid of  889 points,  6 beta functions with:
                l(1) =   0
                l(2) =   0
                l(3) =   1
                l(4) =   1
                l(5) =   2
                l(6) =   2
     Q(r) pseudized with  6 coefficients,  rinner =    1.000   1.000   1.000
                                                       1.000   1.000

     PseudoPot. # 3 for H  read from file:
     /home/camp/zhonxu/pseudo/h_pbe_v1.uspp.F.UPF
     MD5 check sum: 3408e3ff4ec8b0a4e358431e7e038a48
     Pseudo is Ultrasoft, Zval =  1.0
     Generated by new atomic code, or converted to UPF format
     Using radial grid of  615 points,  2 beta functions with:
                l(1) =   0
                l(2) =   0
     Q(r) pseudized with  8 coefficients,  rinner =    0.700

     atomic species   valence    mass     pseudopotential
        O0             6.00    15.99940     O ( 1.00)
        Mo1           14.00    95.94000     Mo( 1.00)
        H2             1.00     1.00794     H ( 1.00)

     Simplified LDA+U calculation (l_max = 2) with parameters (eV):
     atomic species    L          U    alpha       J0     beta
        Mo1            2     1.0000   0.0000   0.0000   0.0000

     No symmetry found

   Cartesian axes

     site n.     atom                  positions (alat units)
         1           O0  tau(   1) = (   0.0000000   0.0000000   1.8298429  )
         2           O0  tau(   2) = (   0.0000000   0.6410583   1.8994207  )
         3           Mo1 tau(   3) = (   0.2500000   0.6410583   2.1871278  )
         4           Mo1 tau(   4) = (   0.0000000   0.0000000   2.1851992  )
         5           O0  tau(   5) = (   0.2500000   1.0000510   2.1890070  )
         6           O0  tau(   6) = (   0.2500000   0.2820657   2.1893531  )
         7           O0  tau(   7) = (   0.0000000   0.6410583   2.4671700  )
         8           O0  tau(   8) = (   0.0000000   0.0000000   2.5523250  )
         9           Mo1 tau(   9) = (   0.2500000   0.0000000   2.8391419  )
        10           Mo1 tau(  10) = (   0.0000000   0.6410583   2.8013612  )
        11           O0  tau(  11) = (   0.2500000   0.9231240   2.8197571  )
        12           O0  tau(  12) = (   0.2500000   0.3589927   2.8195593  )
        13           O0  tau(  13) = (   0.0000000   0.0000000   3.0891672  )
        14           O0  tau(  14) = (   0.5000000   0.0000000   1.8327111  )
        15           O0  tau(  15) = (   0.5000000   0.6410583   1.8997669  )
        16           Mo1 tau(  16) = (   0.7500000   0.6410583   2.1871773  )
        17           Mo1 tau(  17) = (   0.5000000   0.0000000   2.1922708  )
        18           O0  tau(  18) = (   0.7500000   1.0000510   2.1898476  )
        19           O0  tau(  19) = (   0.7500000   0.2820657   2.1889575  )
        20           O0  tau(  20) = (   0.5000000   0.6410583   2.4516918  )
        21           O0  tau(  21) = (   0.5000000   0.0000000   2.5499019  )
        22           Mo1 tau(  22) = (   0.7500000   0.0000000   2.8391419  )
        23           Mo1 tau(  23) = (   0.5000000   0.6410583   2.8716808  )
        24           O0  tau(  24) = (   0.7500000   0.9231240   2.8197571  )
        25           O0  tau(  25) = (   0.7500000   0.3589927   2.8196582  )
        26           O0  tau(  26) = (   0.5000000   0.0000000   3.0881782  )
        27           H2  tau(  27) = (  -0.0006600   0.7686802   1.7727267  )
        28           H2  tau(  28) = (   0.4996400   0.7964252   1.8076887  )
        29           H2  tau(  29) = (   0.1674000   0.0210652   1.7585342  )
        30           H2  tau(  30) = (   0.6637700   0.0258988   1.7570507  )
        31           O0  tau(  31) = (   0.5000200   0.6407506   3.1806520  )

     number of k points=    10  Methfessel-Paxton smearing, width (Ry)=  0.0100
                       cart. coord. in units 2pi/alat
        k(    1) = (   0.0000000   0.0000000   0.0000000), wk =   0.1250000
        k(    2) = (   0.0000000   0.1949901   0.0000000), wk =   0.2500000
        k(    3) = (   0.0000000  -0.3899801   0.0000000), wk =   0.1250000
        k(    4) = (   0.2500000   0.0000000   0.0000000), wk =   0.2500000
        k(    5) = (   0.2500000   0.1949901   0.0000000), wk =   0.2500000
        k(    6) = (   0.2500000  -0.3899801   0.0000000), wk =   0.2500000
        k(    7) = (  -0.5000000   0.0000000   0.0000000), wk =   0.1250000
        k(    8) = (  -0.5000000   0.1949901   0.0000000), wk =   0.2500000
        k(    9) = (  -0.5000000  -0.3899801   0.0000000), wk =   0.1250000
        k(   10) = (  -0.2500000   0.1949901   0.0000000), wk =   0.2500000

     Largest allocated arrays     est. size (Mb)     dimensions
     Largest temporary arrays     est. size (Mb)     dimensions

     Check: negative/imaginary core charge=   -0.000003    0.000000

     Initial potential from superposition of free atoms
     Check: negative starting charge=   -0.002499

     starting charge  229.99143, renormalised to  230.00000

     negative rho (up, down):  0.250E-02 0.000E+00
     Number of +U iterations with fixed ns =  0
     Starting occupations:
 --- enter write_ns ---
 LDA+U parameters:
U( 2)     =  1.00000000
alpha( 2) =  0.00000000
atom    3   Tr[ns(na)] =   5.00000
    eigenvalues:
  0.500  0.500  0.500  0.500  0.500
    eigenvectors:
  1.000  0.000  0.000  0.000  0.000
  0.000  1.000  0.000  0.000  0.000
  0.000  0.000  1.000  0.000  0.000
  0.000  0.000  0.000  1.000  0.000
  0.000  0.000  0.000  0.000  1.000
    occupations:
  0.500  0.000  0.000  0.000  0.000
  0.000  0.500  0.000  0.000  0.000
  0.000  0.000  0.500  0.000  0.000
  0.000  0.000  0.000  0.500  0.000
  0.000  0.000  0.000  0.000  0.500
atom    4   Tr[ns(na)] =   5.00000
    eigenvalues:
  0.500  0.500  0.500  0.500  0.500
    eigenvectors:
  1.000  0.000  0.000  0.000  0.000
  0.000  1.000  0.000  0.000  0.000
  0.000  0.000  1.000  0.000  0.000
  0.000  0.000  0.000  1.000  0.000
  0.000  0.000  0.000  0.000  1.000
    occupations:
  0.500  0.000  0.000  0.000  0.000
  0.000  0.500  0.000  0.000  0.000
  0.000  0.000  0.500  0.000  0.000
  0.000  0.000  0.000  0.500  0.000
  0.000  0.000  0.000  0.000  0.500
atom    9   Tr[ns(na)] =   5.00000
    eigenvalues:
  0.500  0.500  0.500  0.500  0.500
    eigenvectors:
  1.000  0.000  0.000  0.000  0.000
  0.000  1.000  0.000  0.000  0.000
  0.000  0.000  1.000  0.000  0.000
  0.000  0.000  0.000  1.000  0.000
  0.000  0.000  0.000  0.000  1.000
    occupations:
  0.500  0.000  0.000  0.000  0.000
  0.000  0.500  0.000  0.000  0.000
  0.000  0.000  0.500  0.000  0.000
  0.000  0.000  0.000  0.500  0.000
  0.000  0.000  0.000  0.000  0.500
atom   10   Tr[ns(na)] =   5.00000
    eigenvalues:
  0.500  0.500  0.500  0.500  0.500
    eigenvectors:
  1.000  0.000  0.000  0.000  0.000
  0.000  1.000  0.000  0.000  0.000
  0.000  0.000  1.000  0.000  0.000
  0.000  0.000  0.000  1.000  0.000
  0.000  0.000  0.000  0.000  1.000
    occupations:
  0.500  0.000  0.000  0.000  0.000
  0.000  0.500  0.000  0.000  0.000
  0.000  0.000  0.500  0.000  0.000
  0.000  0.000  0.000  0.500  0.000
  0.000  0.000  0.000  0.000  0.500
atom   16   Tr[ns(na)] =   5.00000
    eigenvalues:
  0.500  0.500  0.500  0.500  0.500
    eigenvectors:
  1.000  0.000  0.000  0.000  0.000
  0.000  1.000  0.000  0.000  0.000
  0.000  0.000  1.000  0.000  0.000
  0.000  0.000  0.000  1.000  0.000
  0.000  0.000  0.000  0.000  1.000
    occupations:
  0.500  0.000  0.000  0.000  0.000
  0.000  0.500  0.000  0.000  0.000
  0.000  0.000  0.500  0.000  0.000
  0.000  0.000  0.000  0.500  0.000
  0.000  0.000  0.000  0.000  0.500
atom   17   Tr[ns(na)] =   5.00000
    eigenvalues:
  0.500  0.500  0.500  0.500  0.500
    eigenvectors:
  1.000  0.000  0.000  0.000  0.000
  0.000  1.000  0.000  0.000  0.000
  0.000  0.000  1.000  0.000  0.000
  0.000  0.000  0.000  1.000  0.000
  0.000  0.000  0.000  0.000  1.000
    occupations:
  0.500  0.000  0.000  0.000  0.000
  0.000  0.500  0.000  0.000  0.000
  0.000  0.000  0.500  0.000  0.000
  0.000  0.000  0.000  0.500  0.000
  0.000  0.000  0.000  0.000  0.500
atom   22   Tr[ns(na)] =   5.00000
    eigenvalues:
  0.500  0.500  0.500  0.500  0.500
    eigenvectors:
  1.000  0.000  0.000  0.000  0.000
  0.000  1.000  0.000  0.000  0.000
  0.000  0.000  1.000  0.000  0.000
  0.000  0.000  0.000  1.000  0.000
  0.000  0.000  0.000  0.000  1.000
    occupations:
  0.500  0.000  0.000  0.000  0.000
  0.000  0.500  0.000  0.000  0.000
[...]
  0.000 -0.002  0.000 -0.000  0.524
atom    9   Tr[ns(na)] =   5.81532
    eigenvalues:
  0.507  0.539  0.587  0.593  0.682
    eigenvectors:
  0.000  0.000  0.200  0.012  0.787
  0.000  0.000  0.063  0.937  0.000
  0.296  0.704  0.000  0.000  0.000
  0.000  0.000  0.737  0.051  0.212
  0.704  0.295  0.000  0.000  0.000
    occupations:
  0.662 -0.001  0.000 -0.039 -0.001
 -0.001  0.593 -0.000 -0.001 -0.001
  0.000 -0.000  0.529 -0.000  0.015
 -0.039 -0.001 -0.000  0.607  0.001
 -0.001 -0.001  0.015  0.001  0.516
atom   10   Tr[ns(na)] =   5.76748
    eigenvalues:
  0.501  0.521  0.522  0.634  0.706
    eigenvectors:
  0.992  0.007  0.000  0.000  0.000
  0.000  0.000  0.000  1.000  0.000
  0.007  0.991  0.001  0.000  0.000
  0.000  0.000  0.000  0.000  1.000
  0.000  0.001  0.999  0.000  0.000
    occupations:
  0.501  0.000 -0.002  0.004  0.000
  0.000  0.634  0.000 -0.000 -0.000
 -0.002  0.000  0.521  0.000 -0.000
  0.004 -0.000  0.000  0.706  0.000
  0.000 -0.000 -0.000  0.000  0.522
atom   16   Tr[ns(na)] =   5.82013
    eigenvalues:
  0.495  0.529  0.572  0.606  0.707
    eigenvectors:
  0.012  0.037  0.324  0.000  0.627
  0.000  0.929  0.066  0.002  0.002
  0.809  0.000  0.000  0.178  0.013
  0.000  0.033  0.602  0.006  0.358
  0.178  0.001  0.007  0.814  0.000
    occupations:
  0.654  0.013  0.019 -0.065  0.004
  0.013  0.533  0.003  0.004 -0.002
  0.019  0.003  0.518 -0.009 -0.042
 -0.065  0.004 -0.009  0.619 -0.002
  0.004 -0.002 -0.042 -0.002  0.586
atom   17   Tr[ns(na)] =   5.81983
    eigenvalues:
  0.468  0.523  0.580  0.603  0.736
    eigenvectors:
  0.000  0.000  0.954  0.042  0.004
  0.001  0.000  0.042  0.956  0.000
  0.999  0.000  0.000  0.001  0.000
  0.000  0.000  0.004  0.001  0.995
  0.000  1.000  0.000  0.000  0.000
    occupations:
  0.581  0.005  0.000 -0.010  0.000
  0.005  0.602  0.005 -0.002 -0.001
  0.000  0.005  0.469  0.000  0.000
 -0.010 -0.002  0.000  0.736  0.000
  0.000 -0.001  0.000  0.000  0.523
atom   22   Tr[ns(na)] =   5.81473
    eigenvalues:
  0.507  0.539  0.587  0.594  0.681
    eigenvectors:
  0.000  0.000  0.198  0.015  0.787
  0.000  0.000  0.074  0.926  0.000
  0.289  0.711  0.000  0.000  0.000
  0.000  0.000  0.728  0.059  0.213
  0.711  0.289  0.000  0.000  0.000
    occupations:
  0.661  0.001  0.000 -0.039 -0.001
  0.001  0.593 -0.000  0.001 -0.000
  0.000 -0.000  0.530 -0.000 -0.015
 -0.039  0.001 -0.000  0.607  0.000
 -0.001 -0.000 -0.015  0.000  0.516
atom   23   Tr[ns(na)] =   5.87744
    eigenvalues:
  0.518  0.530  0.541  0.618  0.731
    eigenvectors:
  0.000  0.000  0.000  0.974  0.026
  0.000  0.000  1.000  0.000  0.000
  0.000  1.000  0.000  0.000  0.000
  0.000  0.000  0.000  0.026  0.974
  1.000  0.000  0.000  0.000  0.000
    occupations:
  0.621  0.000 -0.000 -0.018 -0.000
  0.000  0.541 -0.000  0.000  0.000
 -0.000 -0.000  0.530  0.000 -0.000
 -0.018  0.000  0.000  0.728  0.000
 -0.000  0.000 -0.000  0.000  0.518
N of occupied +U levels =  46.5347336
 --- exit write_ns ---

     Threshold (ethr) on eigenvalues was too large:
     Diagonalizing with lowered threshold

     Davidson diagonalization with overlap
     ethr =  1.15E-08,  avg # of iterations =  2.3

[...]

     total energy              =   -1731.82340950 Ry
     Harris-Foulkes estimate   =   -1731.82340950 Ry
     estimated scf accuracy    <       0.00000003 Ry

     iteration # 15     ecut=    40.00 Ry     beta=0.70
     Davidson diagonalization with overlap
     ethr =  1.13E-11,  avg # of iterations =  1.0

     negative rho (up, down):  0.353E-02 0.000E+00

     End of self-consistent calculation
 --- enter write_ns ---
 LDA+U parameters:
U( 2)     =  1.00000000
alpha( 2) =  0.00000000
atom    3   Tr[ns(na)] =   5.82044
    eigenvalues:
  0.497  0.529  0.572  0.606  0.706
    eigenvectors:
  0.012  0.037  0.325  0.000  0.625
  0.000  0.929  0.066  0.002  0.002
  0.808  0.000  0.000  0.179  0.013
  0.000  0.033  0.601  0.007  0.360
  0.179  0.001  0.008  0.812  0.000
    occupations:
  0.653 -0.013  0.019 -0.065 -0.004
 -0.013  0.533 -0.003 -0.004 -0.002
  0.019 -0.003  0.519 -0.009  0.041
 -0.065 -0.004 -0.009  0.619  0.003
 -0.004 -0.002  0.041  0.003  0.586
atom    4   Tr[ns(na)] =   5.79997
    eigenvalues:
  0.459  0.523  0.577  0.618  0.723
    eigenvectors:
  0.000  0.000  0.992  0.007  0.001
  0.001  0.000  0.007  0.992  0.000
  0.999  0.000  0.000  0.001  0.000
  0.000  0.000  0.001  0.000  0.999
  0.000  1.000  0.000  0.000  0.000
    occupations:
  0.577  0.003  0.001 -0.004  0.000
  0.003  0.617  0.004 -0.001 -0.002
  0.001  0.004  0.459 -0.001  0.000
 -0.004 -0.001 -0.001  0.723 -0.000
  0.000 -0.002  0.000 -0.000  0.523
atom    9   Tr[ns(na)] =   5.81586
    eigenvalues:
  0.507  0.539  0.587  0.593  0.682
    eigenvectors:
  0.000  0.000  0.200  0.012  0.787
  0.000  0.000  0.064  0.936  0.000
  0.296  0.704  0.000  0.000  0.000
  0.000  0.000  0.736  0.051  0.212
  0.704  0.296  0.000  0.000  0.000
    occupations:
  0.662 -0.001  0.000 -0.039 -0.001
 -0.001  0.593 -0.000 -0.001 -0.000
  0.000 -0.000  0.529 -0.000  0.015
 -0.039 -0.001 -0.000  0.607  0.001
 -0.001 -0.000  0.015  0.001  0.516
atom   10   Tr[ns(na)] =   5.76561
    eigenvalues:
  0.501  0.521  0.522  0.633  0.706
    eigenvectors:
  0.992  0.007  0.000  0.000  0.000
  0.000  0.000  0.000  1.000  0.000
  0.008  0.992  0.001  0.000  0.000
  0.000  0.000  0.000  0.000  1.000
  0.000  0.001  0.999  0.000  0.000
    occupations:
  0.501  0.000 -0.002  0.004  0.000
  0.000  0.633  0.000 -0.000 -0.000
 -0.002  0.000  0.521  0.000 -0.000
  0.004 -0.000  0.000  0.706  0.000
  0.000 -0.000 -0.000  0.000  0.522
atom   16   Tr[ns(na)] =   5.82042
    eigenvalues:
  0.496  0.529  0.572  0.606  0.707
    eigenvectors:
  0.012  0.037  0.324  0.000  0.626
  0.000  0.929  0.066  0.002  0.002
  0.809  0.000  0.000  0.177  0.013
  0.000  0.033  0.602  0.006  0.359
  0.178  0.001  0.007  0.814  0.000
    occupations:
  0.654  0.013  0.019 -0.065  0.004
  0.013  0.533  0.003  0.004 -0.002
  0.019  0.003  0.518 -0.009 -0.042
 -0.065  0.004 -0.009  0.619 -0.002
  0.004 -0.002 -0.042 -0.002  0.586
atom   17   Tr[ns(na)] =   5.82069
    eigenvalues:
  0.468  0.523  0.580  0.603  0.737
    eigenvectors:
  0.000  0.000  0.955  0.040  0.004
  0.001  0.000  0.041  0.957  0.000
  0.999  0.000  0.000  0.001  0.000
  0.000  0.000  0.004  0.001  0.995
  0.000  1.000  0.000  0.000  0.000
    occupations:
  0.581  0.005  0.000 -0.010  0.000
  0.005  0.602  0.005 -0.002 -0.001
  0.000  0.005  0.469  0.000  0.000
 -0.010 -0.002  0.000  0.736  0.000
  0.000 -0.001  0.000  0.000  0.523
atom   22   Tr[ns(na)] =   5.81548
    eigenvalues:
  0.507  0.539  0.587  0.594  0.681
    eigenvectors:
  0.000  0.000  0.198  0.015  0.786
  0.000  0.000  0.074  0.926  0.000
  0.290  0.710  0.000  0.000  0.000
  0.000  0.000  0.727  0.059  0.213
  0.710  0.290  0.000  0.000  0.000
    occupations:
  0.661  0.001  0.000 -0.039 -0.001
  0.001  0.593 -0.000  0.001 -0.000
  0.000 -0.000  0.530 -0.000 -0.015
 -0.039  0.001 -0.000  0.607  0.000
 -0.001 -0.000 -0.015  0.000  0.516
atom   23   Tr[ns(na)] =   5.87434
    eigenvalues:
  0.518  0.530  0.541  0.618  0.730
    eigenvectors:
  0.000  0.000  0.000  0.974  0.026
  0.000  0.000  1.000  0.000  0.000
  0.000  1.000  0.000  0.000  0.000
  0.000  0.000  0.000  0.026  0.974
  1.000  0.000  0.000  0.000  0.000
    occupations:
  0.621  0.000 -0.000 -0.018 -0.000
  0.000  0.541 -0.000  0.000  0.000
 -0.000 -0.000  0.530  0.000 -0.000
 -0.018  0.000  0.000  0.727  0.000
 -0.000  0.000 -0.000  0.000  0.518
N of occupied +U levels =  46.5328135
 --- exit write_ns ---

[...]

          k = 0.2500-0.3900 0.0000 ( 29726 PWs)   bands (ev):

[...]

          k =-0.2500 0.1950 0.0000 ( 29746 PWs)   bands (ev):

   -62.9419 -62.7852 -62.6983 -62.5174 -62.5138 -62.4750 -62.4308 -62.4155
   -37.5764 -37.3738 -37.1674 -37.1315 -37.0410 -36.9616 -36.9221 -36.8650
   -36.8516 -36.8118 -36.7918 -36.7109 -36.7098 -36.6956 -36.6438 -36.6112
   -36.5969 -36.5312 -36.5092 -36.4935 -36.4852 -36.3491 -36.1848 -36.1094
   -20.8177 -20.5481 -20.1025 -20.0138 -19.8894 -19.7114 -19.6429 -19.5475
   -19.4974 -19.2890 -19.1641 -19.0645 -19.0403 -19.0047 -18.9060 -18.8385
   -18.4094 -18.3301 -18.2572  -8.8696  -8.7252  -8.4308  -8.0742  -7.9177
    -7.9021  -7.7948  -7.6237  -7.5477  -7.4597  -7.3256  -7.1421  -7.0509
    -6.9400  -6.7356  -6.6150  -6.5257  -6.4978  -6.3445  -6.2736  -6.0582
    -5.9909  -5.9544  -5.8637  -5.6695  -5.5625  -5.4710  -5.3558  -5.2151
    -5.1704  -5.0706  -4.9489  -4.8160  -4.7558  -4.7133  -4.6105  -4.5928
    -4.5052  -4.3795  -4.2761  -4.2619  -4.1853  -3.9876  -3.9655  -3.8750
    -3.8397  -3.7714  -3.6622  -3.5772  -3.5162  -3.4511  -3.4151  -3.2739
    -3.1308  -3.0478  -2.9948  -2.7253  -1.7899  -1.6525  -1.5483  -0.7468
    -0.6679  -0.5812  -0.4827   0.0363   0.1440   0.4798   0.5071   0.6089
     0.8239   0.8548   0.9700   1.1682   1.2802   1.4485   1.5554   1.6007
     1.6918   1.7104   1.7542   2.0545   2.2268   3.2083   3.2328   3.4930
     3.5492   3.6891   3.8870   4.0918   4.1583   4.2940   4.5415   4.6013
     4.7087   4.9587   5.2600   5.3050   5.5673   5.6547   5.7602   5.8220
     5.9471   6.0544   6.3184   6.5080   6.7721   6.9526   7.1512   7.2152
     7.2575   7.5946   7.6197   7.8094   8.0351   8.0954   8.2803   8.3490
     8.5180   8.5898   8.6739   8.8013   9.0073   9.1271   9.1931   9.3527
     9.4810   9.5249   9.6265   9.6395   9.6787   9.7386   9.9509  10.0908
    10.1338  10.2386  10.3111  10.3750  10.5369  10.5757  10.6825  10.7494
    10.8664  10.9734  11.0312  11.2076  11.3741  11.4668  11.5979  11.6655
    11.7576  11.8170  11.9262  11.9705  12.0409  12.2722  12.3332  12.4084
    12.4464  12.4875  12.5469  12.5965  12.6698  12.8383  12.9085  12.9164
    13.0374  13.1786  13.2487  13.2626  13.3353  13.4152  13.4684  13.5350
    13.5806  13.6629  13.7023  13.7660  13.8778  13.9329  14.0349  14.1135
    14.1685  14.2092  14.3272  14.4081  14.4395  14.5483  14.6101  14.6666
    14.7019  14.7610  14.8626  14.9123  14.9404  15.0155  15.1827  15.2156
    15.3427  15.3842  15.4603  15.5548  15.6108  15.7162  15.7864  15.8663
    15.9415  15.9823  16.0631  16.1455  16.1933  16.2351  16.3062  16.3706
    16.4300  16.4580  16.5707  16.6382  16.7562  16.8503  16.8851  16.9561
    17.0691  17.1246  17.2488  17.2737  17.3036  17.3949  17.4614  17.5668
    17.5876  17.6886  17.7226  17.7882  17.9053  17.9767  18.0298  18.1177
    18.1371  18.2257  18.2688  18.3526  18.4027  18.4835  18.5795  18.6369
    18.7722  18.8305  18.9250  18.9646  19.0808  19.1070  19.1575  19.2364
    19.4184  19.4558  19.5717  19.6778  19.7032  19.8124  19.8471  19.9019
    19.9624  20.0408  20.1187  20.1984  20.2615  20.2990  20.3576  20.4308
    20.4442  20.5088  20.5863  20.6564  20.6707  20.7076  20.7801  20.8877
    20.9188  20.9975  21.0533  21.1294  21.1893  21.2522  21.3079  21.3794
    21.4843  21.5377  21.5954  21.6787  21.7481  21.7760  21.8180  21.8570
    21.8845

     the Fermi energy is    -0.2054 ev

!    total energy              =   -1731.82340950 Ry
     Harris-Foulkes estimate   =   -1731.82340950 Ry
     estimated scf accuracy    <          3.5E-09 Ry

     The total energy is the sum of the following terms:

     one-electron contribution =  -22109.84645154 Ry
     hartree contribution      =   11076.54243781 Ry
     xc contribution           =    -293.71219047 Ry
     ewald contribution        =    9594.49429687 Ry
     Hubbard energy            =       0.69836040 Ry
     smearing contrib. (-TS)   =       0.00013743 Ry

     convergence has been achieved in  15 iterations

     Forces acting on atoms (Ry/au):

     negative rho (up, down):  0.353E-02 0.000E+00
     atom    1 type  1   force =     0.00030156   -0.00335915   -0.00006318
     atom    2 type  1   force =    -0.00021028    0.00625314    0.00019093
     atom    3 type  2   force =    -0.04976174   -0.00918846    0.00019692
     atom    4 type  2   force =     0.00131182    0.00515776    0.00000038
     atom    5 type  1   force =    -0.00372768    0.00226276    0.00015003
     atom    6 type  1   force =    -0.00543503   -0.00354780    0.00016245
     atom    7 type  1   force =     0.00021162    0.00049010    0.00009654
     atom    8 type  1   force =     0.00317773    0.00039388   -0.00033020
     atom    9 type  2   force =     0.00134153   -0.00016337    0.00002705
     atom   10 type  2   force =    -0.00008099    0.00016601    0.00022764
     atom   11 type  1   force =    -0.01121588   -0.03774166   -0.00019284
     atom   12 type  1   force =    -0.01177476    0.03795208   -0.00020177
     atom   13 type  1   force =    -0.00008018    0.00019897    0.00012684
     atom   14 type  1   force =    -0.00548254   -0.00607522   -0.00049086
     atom   15 type  1   force =     0.00005441    0.01100473    0.00031287
     atom   16 type  2   force =     0.04916596   -0.01004410    0.00024082
     atom   17 type  2   force =    -0.00223622    0.00291735    0.00042124
     atom   18 type  1   force =     0.00635036    0.00336881    0.00015527
     atom   19 type  1   force =     0.00577529   -0.00361489    0.00011649
     atom   20 type  1   force =     0.00016389    0.00378091   -0.00016896
     atom   21 type  1   force =     0.00320793    0.00045973    0.00047250
     atom   22 type  2   force =    -0.00530985   -0.00084531    0.00014205
     atom   23 type  2   force =     0.00012863    0.00034193    0.00025790
     atom   24 type  1   force =     0.01159765   -0.03769433   -0.00018399
     atom   25 type  1   force =     0.01146864    0.03794051   -0.00017293
     atom   26 type  1   force =     0.00003792    0.00032324   -0.00036637
     atom   27 type  3   force =     0.00000785   -0.00053661   -0.00010592
     atom   28 type  3   force =    -0.00000813   -0.00015494   -0.00001122
     atom   29 type  3   force =     0.00036096    0.00001134   -0.00008716
     atom   30 type  3   force =     0.00067270   -0.00004681   -0.00005799
     atom   31 type  1   force =    -0.00001315   -0.00001060   -0.00086451

     Total force =     0.001791     Total SCF correction =     0.000102

     bfgs converged in   5 scf cycles and   4 bfgs steps
     (criteria: energy < 0.10E-03, force < 0.10E-02)

     End of BFGS Geometry Optimization

     Final energy   =   -1731.8234094987 Ry
Begin final coordinates

ATOMIC_POSITIONS (crystal)
O0       0.000000000   0.000000000   0.370094831    0   0   1
O0       0.000000000   0.500000000   0.384212484    0   0   1
Mo1      0.250000000   0.500000000   0.442267213    0   0   1
Mo1      0.000000000   0.000000000   0.441869571    0   0   1
O0       0.250000000   0.780000000   0.442659647    0   0   1
O0       0.250000000   0.220000000   0.442752707    0   0   1
O0       0.000000000   0.500000000   0.499037438    0   0   1
O0       0.000000000   0.000000000   0.516158669    0   0   1
Mo1      0.250000000   0.000000000   0.574067763    0   0   1
Mo1      0.000000000   0.500000000   0.566500801    0   0   1
O0       0.250000000   0.720000000   0.570288186    0   0   1
O0       0.250000000   0.280000000   0.570245731    0   0   1
O0       0.000000000   0.000000000   0.624552856    0   0   1
O0       0.500000000   0.000000000   0.370700729    0   0   1
O0       0.500000000   0.500000000   0.384131258    0   0   1
Mo1      0.750000000   0.500000000   0.442268986    0   0   1
Mo1      0.500000000   0.000000000   0.443213942    0   0   1
O0       0.750000000   0.780000000   0.442845983    0   0   1
O0       0.750000000   0.220000000   0.442641483    0   0   1
O0       0.500000000   0.500000000   0.495966678    0   0   1
O0       0.500000000   0.000000000   0.515549271    0   0   1
Mo1      0.750000000   0.000000000   0.574087032    0   0   1
Mo1      0.500000000   0.500000000   0.580484090    0   0   1
O0       0.750000000   0.720000000   0.570281365    0   0   1
O0       0.750000000   0.280000000   0.570275251    0   0   1
O0       0.500000000   0.000000000   0.624422927    0   0   1
H2      -0.000656725   0.599071603   0.358487552
H2       0.499638687   0.621167385   0.365519321
H2       0.167287384   0.016388030   0.355651799
H2       0.663807541   0.020081861   0.355387250
O0       0.500005319   0.499740694   0.642957187
End final coordinates

     General routines

     Parallel routines
     Hubbard U routines

   This run was terminated on:  19:44:48  28Apr2014

   JOB DONE.
Running PBS batch system epilogue script
Job id: 340367.audhumbla.fysik.dtu.dk
Username: zhonxu
Groupname: campgst
Jobname: MoO2/Eads-2-layers/O-U-1.0
Sessionid: 23545
Queuename: verylong
Accounting:
This job has allocated the following 16 nodes:
c132 c132 c132 c132 c132 c132 c132 c132 c009 c009 c009 c009 c009 c009 c009 c009
Finished epilogue job 340367.audhumbla.fysik.dtu.dk for zhonxu