     Program PWSCF v.5.0.2 (svn rev. 9656) starts on 29Apr2014 at  7: 5:41

     Current dimensions of program PWSCF are:
     Max number of different atomic species (ntypx) = 10
     Max number of k-points (npk) =  40000
     Max angular momentum in pseudopotentials (lmaxx) =  3
     Reading input from pwscf.in
Warning: card &CELL ignored
Warning: card / ignored

     Subspace diagonalization in iterative solution of the eigenvalue problem:
     a serial algorithm will be used

     bravais-lattice index     =            0
     lattice parameter (alat)  =      12.0187  a.u.
     unit-cell volume          =    7280.5819 (a.u.)^3
     number of atoms/cell      =           32
     number of atomic types    =            3
     number of electrons       =       239.00
     number of Kohn-Sham states=          358
     kinetic-energy cutoff     =      40.0000  Ry
     charge density cutoff     =     500.0000  Ry
     convergence threshold     =      1.0E-06
     mixing beta               =       0.7000
     number of iterations used =            8  plain     mixing
     Exchange-correlation      = SLA  PW   PBE  PBE ( 1 4 3 4 0)
     EXX-fraction              =        0.00
     nstep                     =           50

     celldm(1)=  12.018658  celldm(2)=   0.000000  celldm(3)=   0.000000
     celldm(4)=   0.000000  celldm(5)=   0.000000  celldm(6)=   0.000000

     crystal axes: (cart. coord. in units of alat)
               a(1) = (   1.000000   0.000000   0.000000 )
               a(2) = (   0.000000   1.009517   0.000000 )
               a(3) = (   0.000000   0.000000   4.154171 )

     reciprocal axes: (cart. coord. in units 2 pi/alat)
               b(1) = (  1.000000  0.000000  0.000000 )
               b(2) = (  0.000000  0.990572  0.000000 )
               b(3) = (  0.000000  0.000000  0.240722 )

     PseudoPot. # 1 for O  read from file:
     /home/camp/zhonxu/pseudo/o_pbe_v1.01.uspp.F.UPF
     MD5 check sum: 2bcb18d16ea4b960afae9ec6d52f22d2
     Pseudo is Ultrasoft + core correction, Zval =  6.0
     Generated by new atomic code, or converted to UPF format
     Using radial grid of  737 points,  5 beta functions with:
                l(1) =   0
                l(2) =   0
                l(3) =   1
                l(4) =   1
                l(5) =   2
     Q(r) pseudized with  8 coefficients,  rinner =    0.900   0.900   0.900
                                                       0.900   0.900

     PseudoPot. # 2 for Ir read from file:
     /home/camp/zhonxu/pseudo/ir_pbe_v1.uspp.F.UPF
     MD5 check sum: abf987a9674477536ede83817f8f8b70
     Pseudo is Ultrasoft + core correction, Zval = 15.0
     Generated by new atomic code, or converted to UPF format
     Using radial grid of  983 points,  7 beta functions with:
                l(1) =   0
                l(2) =   0
                l(3) =   1
                l(4) =   1
                l(5) =   1
                l(6) =   2
                l(7) =   2
     Q(r) pseudized with  8 coefficients,  rinner =    1.350   1.350   1.350
                                                       1.350   1.350

     PseudoPot. # 3 for H  read from file:
     /home/camp/zhonxu/pseudo/h_pbe_v1.uspp.F.UPF
     MD5 check sum: 3408e3ff4ec8b0a4e358431e7e038a48
     Pseudo is Ultrasoft, Zval =  1.0
     Generated by new atomic code, or converted to UPF format
     Using radial grid of  615 points,  2 beta functions with:
                l(1) =   0
                l(2) =   0
     Q(r) pseudized with  8 coefficients,  rinner =    0.700

     atomic species   valence    mass     pseudopotential
        O0             6.00    15.99940     O ( 1.00)
        Ir1           15.00   192.22000     Ir( 1.00)
        H2             1.00     1.00794     H ( 1.00)

     Simplified LDA+U calculation (l_max = 2) with parameters (eV):
     atomic species    L          U    alpha       J0     beta
        Ir1            2     6.0000   0.0000   0.0000   0.0000

     No symmetry found

   Cartesian axes

     site n.     atom                  positions (alat units)
         1           O0  tau(   1) = (   0.0000000   0.0000000   1.5715230  )
         2           O0  tau(   2) = (   0.0000000   0.5047586   1.6723863  )
         3           Ir1 tau(   3) = (   0.2500000   0.5047586   1.8804272  )
         4           Ir1 tau(   4) = (   0.0000000   0.0000000   1.8823796  )
         5           O0  tau(   5) = (   0.2500000   0.8177090   1.8809672  )
         6           O0  tau(   6) = (   0.2500000   0.1918083   1.8797625  )
         7           O0  tau(   7) = (   0.0000000   0.5047586   2.0697743  )
         8           O0  tau(   8) = (   0.0000000   0.0000000   2.1967673  )
         9           Ir1 tau(   9) = (   0.2500000   0.0000000   2.3926365  )
        10           Ir1 tau(  10) = (   0.0000000   0.5047586   2.3747736  )
        11           O0  tau(  11) = (   0.2500000   0.6965669   2.3923873  )
        12           O0  tau(  12) = (   0.2500000   0.3129503   2.3927196  )
        13           O0  tau(  13) = (   0.0000000   0.0000000   2.5779541  )
        14           O0  tau(  14) = (   0.5000000   0.0000000   1.5704845  )
        15           O0  tau(  15) = (   0.5000000   0.5047586   1.6698107  )
        16           Ir1 tau(  16) = (   0.7500000   0.5047586   1.8805103  )
        17           Ir1 tau(  17) = (   0.5000000   0.0000000   1.8817565  )
        18           O0  tau(  18) = (   0.7500000   0.8177090   1.8810503  )
        19           O0  tau(  19) = (   0.7500000   0.1918083   1.8797625  )
        20           O0  tau(  20) = (   0.5000000   0.5047586   2.0748424  )
        21           O0  tau(  21) = (   0.5000000   0.0000000   2.1964350  )
        22           Ir1 tau(  22) = (   0.7500000   0.0000000   2.3925119  )
        23           Ir1 tau(  23) = (   0.5000000   0.5047586   2.3910995  )
        24           O0  tau(  24) = (   0.7500000   0.6965669   2.3896040  )
        25           O0  tau(  25) = (   0.7500000   0.3129503   2.3900194  )
        26           O0  tau(  26) = (   0.5000000   0.0000000   2.5760847  )
        27           H2  tau(  27) = (  -0.0000400   0.6399431   1.5942048  )
        28           H2  tau(  28) = (   0.5000100   0.6429817   1.5968219  )
        29           H2  tau(  29) = (   0.1437000   0.0339904   1.5235839  )
        30           H2  tau(  30) = (   0.6431700   0.0357369   1.5224622  )
        31           O0  tau(  31) = (   0.5156900   0.5047586   2.6944786  )
        32           H2  tau(  32) = (   0.3744100   0.5050918   2.7575805  )

     number of k points=    10  Methfessel-Paxton smearing, width (Ry)=  0.0100
                       cart. coord. in units 2pi/alat
        k(    1) = (   0.0000000   0.0000000   0.0000000), wk =   0.1250000
        k(    2) = (   0.0000000   0.2476431   0.0000000), wk =   0.2500000
        k(    3) = (   0.0000000  -0.4952862   0.0000000), wk =   0.1250000
        k(    4) = (   0.2500000   0.0000000   0.0000000), wk =   0.2500000
        k(    5) = (   0.2500000   0.2476431   0.0000000), wk =   0.2500000
        k(    6) = (   0.2500000  -0.4952862   0.0000000), wk =   0.2500000
        k(    7) = (  -0.5000000   0.0000000   0.0000000), wk =   0.1250000
        k(    8) = (  -0.5000000   0.2476431   0.0000000), wk =   0.2500000
        k(    9) = (  -0.5000000  -0.4952862   0.0000000), wk =   0.1250000
        k(   10) = (  -0.2500000   0.2476431   0.0000000), wk =   0.2500000

     Largest allocated arrays     est. size (Mb)     dimensions
     Largest temporary arrays     est. size (Mb)     dimensions

     Check: negative/imaginary core charge=   -0.000003    0.000000

     Initial potential from superposition of free atoms
     Check: negative starting charge=   -3.334647

     starting charge  234.99967, renormalised to  239.00000

     negative rho (up, down):  0.339E+01 0.000E+00
     Number of +U iterations with fixed ns =  0
     Starting occupations:
 --- enter write_ns ---
 LDA+U parameters:
U( 2)     =  6.00000000
alpha( 2) =  0.00000000
atom    3   Tr[ns(na)] =   7.00000
    eigenvalues:
  0.700  0.700  0.700  0.700  0.700
    eigenvectors:
  1.000  0.000  0.000  0.000  0.000
  0.000  1.000  0.000  0.000  0.000
  0.000  0.000  1.000  0.000  0.000
  0.000  0.000  0.000  1.000  0.000
  0.000  0.000  0.000  0.000  1.000
    occupations:
  0.700  0.000  0.000  0.000  0.000
  0.000  0.700  0.000  0.000  0.000
  0.000  0.000  0.700  0.000  0.000
  0.000  0.000  0.000  0.700  0.000
  0.000  0.000  0.000  0.000  0.700
atom    4   Tr[ns(na)] =   7.00000
    eigenvalues:
  0.700  0.700  0.700  0.700  0.700
    eigenvectors:
  1.000  0.000  0.000  0.000  0.000
  0.000  1.000  0.000  0.000  0.000
  0.000  0.000  1.000  0.000  0.000
  0.000  0.000  0.000  1.000  0.000
  0.000  0.000  0.000  0.000  1.000
    occupations:
  0.700  0.000  0.000  0.000  0.000
  0.000  0.700  0.000  0.000  0.000
  0.000  0.000  0.700  0.000  0.000
  0.000  0.000  0.000  0.700  0.000
  0.000  0.000  0.000  0.000  0.700
atom    9   Tr[ns(na)] =   7.00000
    eigenvalues:
  0.700  0.700  0.700  0.700  0.700
    eigenvectors:
  1.000  0.000  0.000  0.000  0.000
  0.000  1.000  0.000  0.000  0.000
  0.000  0.000  1.000  0.000  0.000
  0.000  0.000  0.000  1.000  0.000
  0.000  0.000  0.000  0.000  1.000
    occupations:
  0.700  0.000  0.000  0.000  0.000
  0.000  0.700  0.000  0.000  0.000
  0.000  0.000  0.700  0.000  0.000
  0.000  0.000  0.000  0.700  0.000
  0.000  0.000  0.000  0.000  0.700
atom   10   Tr[ns(na)] =   7.00000
    eigenvalues:
  0.700  0.700  0.700  0.700  0.700
    eigenvectors:
  1.000  0.000  0.000  0.000  0.000
  0.000  1.000  0.000  0.000  0.000
  0.000  0.000  1.000  0.000  0.000
  0.000  0.000  0.000  1.000  0.000
  0.000  0.000  0.000  0.000  1.000
    occupations:
  0.700  0.000  0.000  0.000  0.000
  0.000  0.700  0.000  0.000  0.000
  0.000  0.000  0.700  0.000  0.000
  0.000  0.000  0.000  0.700  0.000
  0.000  0.000  0.000  0.000  0.700
atom   16   Tr[ns(na)] =   7.00000
    eigenvalues:
  0.700  0.700  0.700  0.700  0.700
    eigenvectors:
  1.000  0.000  0.000  0.000  0.000
  0.000  1.000  0.000  0.000  0.000
  0.000  0.000  1.000  0.000  0.000
  0.000  0.000  0.000  1.000  0.000
  0.000  0.000  0.000  0.000  1.000
    occupations:
  0.700  0.000  0.000  0.000  0.000
  0.000  0.700  0.000  0.000  0.000
  0.000  0.000  0.700  0.000  0.000
  0.000  0.000  0.000  0.700  0.000
  0.000  0.000  0.000  0.000  0.700
atom   17   Tr[ns(na)] =   7.00000
    eigenvalues:
  0.700  0.700  0.700  0.700  0.700
    eigenvectors:
  1.000  0.000  0.000  0.000  0.000
  0.000  1.000  0.000  0.000  0.000
  0.000  0.000  1.000  0.000  0.000
  0.000  0.000  0.000  1.000  0.000
  0.000  0.000  0.000  0.000  1.000
    occupations:
  0.700  0.000  0.000  0.000  0.000
  0.000  0.700  0.000  0.000  0.000
  0.000  0.000  0.700  0.000  0.000
  0.000  0.000  0.000  0.700  0.000
  0.000  0.000  0.000  0.000  0.700
atom   22   Tr[ns(na)] =   7.00000
    eigenvalues:
  0.700  0.700  0.700  0.700  0.700
    eigenvectors:
  1.000  0.000  0.000  0.000  0.000
  0.000  1.000  0.000  0.000  0.000
  0.000  0.000  1.000  0.000  0.000
  0.000  0.000  0.000  1.000  0.000
[...]
  0.941 -0.000  0.000 -0.110 -0.000
 -0.000  0.654  0.001  0.000 -0.000
  0.000  0.001  0.876 -0.000 -0.001
 -0.110  0.000 -0.000  0.713  0.001
 -0.000 -0.000 -0.001  0.001  0.914
atom   10   Tr[ns(na)] =   8.15845
    eigenvalues:
  0.583  0.612  0.942  0.956  0.986
    eigenvectors:
  0.991  0.000  0.000  0.000  0.009
  0.000  0.000  1.000  0.000  0.000
  0.000  0.000  0.000  1.000  0.000
  0.009  0.000  0.000  0.000  0.991
  0.000  1.000  0.000  0.000  0.000
    occupations:
  0.586 -0.004  0.001  0.038 -0.000
 -0.004  0.942 -0.000  0.000 -0.000
  0.001 -0.000  0.956 -0.000  0.002
  0.038  0.000 -0.000  0.983 -0.000
 -0.000 -0.000  0.002 -0.000  0.612
atom   16   Tr[ns(na)] =   8.20811
    eigenvalues:
  0.605  0.633  0.911  0.971  0.984
    eigenvectors:
  0.002  0.181  0.003  0.001  0.813
  0.994  0.005  0.000  0.000  0.000
  0.000  0.000  0.977  0.020  0.003
  0.004  0.813  0.000  0.000  0.183
  0.000  0.000  0.019  0.979  0.002
    occupations:
  0.920  0.005  0.003 -0.136  0.001
  0.005  0.605  0.001 -0.000 -0.004
  0.003  0.001  0.912 -0.004 -0.008
 -0.136 -0.000 -0.004  0.697  0.000
  0.001 -0.004 -0.008  0.000  0.970
atom   17   Tr[ns(na)] =   8.20334
    eigenvalues:
  0.619  0.670  0.893  0.934  0.986
    eigenvectors:
  0.000  0.989  0.000  0.000  0.011
  0.000  0.000  0.104  0.896  0.000
  0.000  0.000  0.896  0.104  0.000
  0.000  0.011  0.000  0.000  0.989
  0.999  0.000  0.000  0.000  0.000
    occupations:
  0.673 -0.003 -0.001  0.032  0.001
 -0.003  0.930  0.013  0.000 -0.002
 -0.001  0.013  0.897 -0.000  0.000
  0.032  0.000 -0.000  0.983  0.000
  0.001 -0.002  0.000  0.000  0.619
atom   22   Tr[ns(na)] =   8.18949
    eigenvalues:
  0.655  0.669  0.870  0.916  0.985
    eigenvectors:
  0.000  0.139  0.000  0.000  0.861
  1.000  0.000  0.000  0.000  0.000
  0.000  0.000  0.999  0.001  0.000
  0.000  0.861  0.000  0.000  0.139
  0.000  0.000  0.001  0.999  0.000
    occupations:
  0.941  0.001 -0.000 -0.109 -0.000
  0.001  0.655  0.001 -0.000 -0.000
 -0.000  0.001  0.870 -0.000  0.001
 -0.109 -0.000 -0.000  0.713  0.001
 -0.000 -0.000  0.001  0.001  0.916
atom   23   Tr[ns(na)] =   8.18630
    eigenvalues:
  0.625  0.677  0.864  0.941  0.986
    eigenvectors:
  0.000  0.988  0.000  0.000  0.011
  0.000  0.000  0.000  0.999  0.000
  0.000  0.000  1.000  0.000  0.000
  0.000  0.011  0.000  0.000  0.989
  1.000  0.000  0.000  0.000  0.000
    occupations:
  0.680  0.006 -0.000  0.032 -0.000
  0.006  0.941 -0.001 -0.000 -0.000
 -0.000 -0.001  0.864  0.000 -0.001
  0.032 -0.000  0.000  0.983 -0.000
 -0.000 -0.000 -0.001 -0.000  0.625
N of occupied +U levels =  65.5511696
 --- exit write_ns ---

     Threshold (ethr) on eigenvalues was too large:
     Diagonalizing with lowered threshold

     Davidson diagonalization with overlap
     ethr =  2.54E-09,  avg # of iterations =  2.0

[...]

     total energy              =   -2105.13681522 Ry
     Harris-Foulkes estimate   =   -2105.13681522 Ry
     estimated scf accuracy    <       0.00000002 Ry

     iteration # 12     ecut=    40.00 Ry     beta=0.70
     Davidson diagonalization with overlap
     ethr =  4.68E-12,  avg # of iterations =  1.0

     negative rho (up, down):  0.314E+01 0.000E+00

     End of self-consistent calculation
 --- enter write_ns ---
 LDA+U parameters:
U( 2)     =  6.00000000
alpha( 2) =  0.00000000
atom    3   Tr[ns(na)] =   8.20815
    eigenvalues:
  0.604  0.633  0.911  0.972  0.985
    eigenvectors:
  0.002  0.182  0.003  0.000  0.813
  0.995  0.004  0.000  0.000  0.000
  0.000  0.000  0.974  0.024  0.003
  0.003  0.814  0.000  0.000  0.183
  0.000  0.000  0.023  0.976  0.001
    occupations:
  0.920 -0.005  0.003 -0.136 -0.001
 -0.005  0.604 -0.001  0.000 -0.004
  0.003 -0.001  0.913 -0.004  0.009
 -0.136  0.000 -0.004  0.697 -0.001
 -0.001 -0.004  0.009 -0.001  0.970
atom    4   Tr[ns(na)] =   8.20199
    eigenvalues:
  0.621  0.671  0.885  0.938  0.986
    eigenvectors:
  0.000  0.989  0.000  0.000  0.011
  0.000  0.000  0.047  0.953  0.000
  0.000  0.000  0.953  0.047  0.000
  0.000  0.011  0.000  0.000  0.989
  1.000  0.000  0.000  0.000  0.000
    occupations:
  0.675 -0.003 -0.000  0.033  0.001
 -0.003  0.935  0.011  0.000 -0.002
 -0.000  0.011  0.888 -0.000  0.001
  0.033  0.000 -0.000  0.983  0.000
  0.001 -0.002  0.001  0.000  0.621
atom    9   Tr[ns(na)] =   8.19459
    eigenvalues:
  0.654  0.668  0.876  0.914  0.985
    eigenvectors:
  0.000  0.140  0.000  0.000  0.860
  0.999  0.001  0.000  0.000  0.000
  0.000  0.000  0.999  0.001  0.000
  0.001  0.859  0.000  0.000  0.140
  0.000  0.000  0.001  0.999  0.000
    occupations:
  0.941 -0.000  0.000 -0.110 -0.000
 -0.000  0.654  0.001  0.000 -0.000
  0.000  0.001  0.876 -0.000 -0.001
 -0.110  0.000 -0.000  0.713  0.001
 -0.000 -0.000 -0.001  0.001  0.914
atom   10   Tr[ns(na)] =   8.15872
    eigenvalues:
  0.583  0.612  0.942  0.956  0.986
    eigenvectors:
  0.991  0.000  0.000  0.000  0.009
  0.000  0.000  1.000  0.000  0.000
  0.000  0.000  0.000  1.000  0.000
  0.009  0.000  0.000  0.000  0.991
  0.000  1.000  0.000  0.000  0.000
    occupations:
  0.586 -0.004  0.001  0.038 -0.000
 -0.004  0.942 -0.000  0.000 -0.000
  0.001 -0.000  0.956 -0.000  0.002
  0.038  0.000 -0.000  0.983 -0.000
 -0.000 -0.000  0.002 -0.000  0.612
atom   16   Tr[ns(na)] =   8.20806
    eigenvalues:
  0.604  0.633  0.911  0.971  0.984
    eigenvectors:
  0.002  0.182  0.003  0.001  0.813
  0.994  0.005  0.000  0.000  0.000
  0.000  0.000  0.977  0.020  0.003
  0.004  0.813  0.000  0.000  0.183
  0.000  0.000  0.019  0.979  0.002
    occupations:
  0.920  0.005  0.003 -0.136  0.001
  0.005  0.605  0.001 -0.000 -0.004
  0.003  0.001  0.912 -0.004 -0.008
 -0.136 -0.000 -0.004  0.697  0.000
  0.001 -0.004 -0.008  0.000  0.970
atom   17   Tr[ns(na)] =   8.20313
    eigenvalues:
  0.619  0.670  0.893  0.934  0.986
    eigenvectors:
  0.000  0.989  0.000  0.000  0.011
  0.000  0.000  0.104  0.896  0.000
  0.000  0.000  0.896  0.104  0.000
  0.000  0.011  0.000  0.000  0.989
  0.999  0.000  0.000  0.000  0.000
    occupations:
  0.673 -0.003 -0.001  0.032  0.001
 -0.003  0.930  0.013  0.000 -0.002
 -0.001  0.013  0.897 -0.000  0.000
  0.032  0.000 -0.000  0.983  0.000
  0.001 -0.002  0.000  0.000  0.619
atom   22   Tr[ns(na)] =   8.18965
    eigenvalues:
  0.655  0.669  0.870  0.916  0.985
    eigenvectors:
  0.000  0.139  0.000  0.000  0.861
  1.000  0.000  0.000  0.000  0.000
  0.000  0.000  0.999  0.001  0.000
  0.000  0.861  0.000  0.000  0.139
  0.000  0.000  0.001  0.999  0.000
    occupations:
  0.941  0.001 -0.000 -0.109 -0.000
  0.001  0.655  0.001 -0.000 -0.000
 -0.000  0.001  0.870 -0.000  0.001
 -0.109 -0.000 -0.000  0.713  0.001
 -0.000 -0.000  0.001  0.001  0.916
atom   23   Tr[ns(na)] =   8.18681
    eigenvalues:
  0.625  0.677  0.864  0.941  0.986
    eigenvectors:
  0.000  0.988  0.000  0.000  0.011
  0.000  0.000  0.000  0.999  0.000
  0.000  0.000  1.000  0.000  0.000
  0.000  0.011  0.000  0.000  0.989
  1.000  0.000  0.000  0.000  0.000
    occupations:
  0.680  0.006 -0.000  0.033 -0.000
  0.006  0.941 -0.001 -0.000 -0.000
 -0.000 -0.001  0.864  0.000 -0.001
  0.033 -0.000  0.000  0.983 -0.000
 -0.000 -0.000 -0.001 -0.000  0.625
N of occupied +U levels =  65.5510974
 --- exit write_ns ---

[...]

          k = 0.2500-0.4953 0.0000 ( 31088 PWs)   bands (ev):

[...]

          k =-0.2500 0.2476 0.0000 ( 31099 PWs)   bands (ev):

   -50.4901 -50.4395 -50.3819 -50.3606 -50.3364 -50.3236 -50.2670 -50.2599
   -50.2548 -50.2469 -50.2457 -50.2000 -50.1880 -50.1104 -50.0483 -50.0173
   -49.9995 -49.9943 -49.9474 -49.9298 -49.8970 -49.8742 -49.8668 -49.8608
   -21.4132 -21.1798 -21.0935 -21.0152 -20.7087 -20.6411 -20.6032 -20.5002
   -20.3904 -20.3261 -20.1804 -20.1285 -19.9752 -19.9592 -19.8980 -19.8438
   -19.6501 -18.9244 -18.7774 -10.6714 -10.5188 -10.2899 -10.1698  -9.8717
    -9.7733  -9.6619  -9.6153  -9.2593  -8.9920  -8.9467  -8.8381  -8.7978
    -8.7338  -8.5406  -8.3808  -8.2497  -8.1731  -7.9078  -7.7403  -7.6811
    -7.5244  -7.4649  -7.3216  -7.2637  -7.1848  -7.0888  -6.8818  -6.7294
    -6.6188  -6.5448  -6.4743  -6.3899  -6.2921  -6.1819  -6.1547  -6.0604
    -5.9908  -5.9108  -5.7433  -5.6675  -5.5329  -5.3583  -5.1298  -5.0076
    -4.8911  -4.7454  -4.6767  -4.4731  -4.4435  -4.3590  -4.0599  -3.9798
    -3.8141  -3.7261  -3.6820  -3.6338  -3.4892  -3.4258  -3.3429  -3.2808
    -3.1698  -3.0850  -3.0083  -2.9823  -2.9349  -2.8412  -2.7253  -2.6187
    -2.5493  -2.4282  -2.0335  -1.8181  -1.6634  -1.4439  -1.2239  -1.2056
    -1.1490  -0.9155  -0.7797  -0.5481   0.0465   1.0348   1.0929   1.4046
     1.6784   1.8522   2.2551   2.4468   2.7755   2.8134   2.9428   3.0380
     3.2262   3.3619   3.4389   3.7541   3.8761   4.3077   4.8101   5.2287
     5.4781   5.6421   5.7140   5.9882   6.2746   6.5297   6.6223   6.6460
     6.7175   6.9101   7.1030   7.1899   7.3805   7.4821   7.6100   7.7161
     7.9257   8.0324   8.1193   8.1703   8.2687   8.4606   8.5227   8.5936
     8.8227   8.8900   8.9223   8.9849   9.1158   9.2104   9.3366   9.4311
     9.4738   9.5882   9.6211   9.6645   9.6897   9.6982   9.7054   9.7213
     9.7666   9.7926   9.8480   9.8813   9.8863  10.0790  10.1152  10.1543
    10.2271  10.3448  10.3643  10.4599  10.5369  10.6002  10.6440  10.8068
    10.8329  10.9737  11.0014  11.1607  11.1936  11.2590  11.4101  11.5207
    11.5573  11.6609  11.7298  11.7936  11.8333  11.9588  12.1499  12.2035
    12.2559  12.3547  12.3884  12.4619  12.5551  12.6285  12.6665  12.7361
    12.7879  12.8668  12.9402  13.0142  13.0486  13.1945  13.2429  13.2839
    13.3349  13.4156  13.5598  13.6802  13.7645  13.8282  13.9266  13.9409
    14.0202  14.0840  14.1746  14.2461  14.3335  14.4100  14.4964  14.5315
    14.7114  14.7737  14.7947  14.9582  15.0857  15.1948  15.2626  15.3401
    15.4397  15.4914  15.5183  15.6060  15.6697  15.7528  15.7872  15.8699
    15.9169  15.9251  16.0008  16.0548  16.1528  16.1983  16.2474  16.3139
    16.3811  16.4023  16.4546  16.5379  16.5810  16.6833  16.7226  16.7634
    16.8133  16.8836  17.0800  17.1343  17.1654  17.2956  17.3468  17.4329
    17.4561  17.5309  17.5602  17.6073  17.6767  17.7116  17.7436  17.8372
    17.9147  17.9376  17.9836  18.1112  18.2140  18.2430  18.3074  18.3828
    18.4663  18.6129  18.6552  18.7091  18.7913  18.8599  18.8828  18.9813
    19.0321  19.0931  19.1646  19.2281  19.3054  19.3342  19.4047  19.5692
    19.6159  19.6496  19.7293  19.7830  19.8521  19.9817  20.0610  20.1026
    20.1407  20.2425  20.3971  20.4141  20.5108  20.6229  20.6613  20.7087
    20.7777  20.7956  20.9269  20.9487  20.9650  21.0316  21.0838  21.1763
    21.2063  21.3045  21.3232  21.3702  21.4331  21.4685  21.5211  21.6226
    21.7079  21.7450  21.8277  21.8566  21.8746  21.9795

     the Fermi energy is    -1.2200 ev

!    total energy              =   -2105.13681522 Ry
     Harris-Foulkes estimate   =   -2105.13681522 Ry
     estimated scf accuracy    <          5.2E-09 Ry

     The total energy is the sum of the following terms:

     one-electron contribution =  -22803.18958381 Ry
     hartree contribution      =   11447.64916061 Ry
     xc contribution           =    -577.25379104 Ry
     ewald contribution        =    9825.46150302 Ry
     Hubbard energy            =       2.19666143 Ry
     smearing contrib. (-TS)   =      -0.00076544 Ry

     convergence has been achieved in  12 iterations

     Forces acting on atoms (Ry/au):

     negative rho (up, down):  0.314E+01 0.000E+00
     atom    1 type  1   force =    -0.00667570   -0.01207968    0.00013158
     atom    2 type  1   force =     0.00024679    0.00246600   -0.00041254
     atom    3 type  2   force =     0.03050328    0.00832081    0.00013862
     atom    4 type  2   force =     0.00872842    0.00771912    0.00000725
     atom    5 type  1   force =    -0.00497690   -0.01441026   -0.00027832
     atom    6 type  1   force =     0.00666530    0.01190601   -0.00016296
     atom    7 type  1   force =     0.00171653   -0.00234797   -0.00009579
     atom    8 type  1   force =    -0.00249194   -0.00065211   -0.00010529
     atom    9 type  2   force =     0.00701975    0.00022108    0.00011132
     atom   10 type  2   force =    -0.00784344   -0.00117145   -0.00003375
     atom   11 type  1   force =    -0.00092541    0.01643980    0.00007907
     atom   12 type  1   force =    -0.00059979   -0.01639462    0.00004575
     atom   13 type  1   force =    -0.00131255   -0.00015246   -0.00002107
     atom   14 type  1   force =    -0.00779898   -0.01334738    0.00002684
     atom   15 type  1   force =     0.00030018    0.00342150   -0.00027253
     atom   16 type  2   force =    -0.03122982    0.00715682    0.00014806
     atom   17 type  2   force =     0.00906339    0.00815246    0.00004841
     atom   18 type  1   force =    -0.00454652   -0.01381479   -0.00026331
     atom   19 type  1   force =     0.00587172    0.01312038   -0.00016933
     atom   20 type  1   force =    -0.00161178   -0.00563346    0.00044912
     atom   21 type  1   force =    -0.00391510   -0.00060122   -0.00001131
     atom   22 type  2   force =    -0.00443386    0.00059634    0.00007928
     atom   23 type  2   force =     0.00316753   -0.00005834    0.00017186
     atom   24 type  1   force =     0.00222154    0.02038235   -0.00014490
     atom   25 type  1   force =     0.00321650   -0.02052292   -0.00015112
     atom   26 type  1   force =    -0.00070906   -0.00023464    0.00023983
     atom   27 type  3   force =    -0.00000227    0.00041563    0.00018545
     atom   28 type  3   force =     0.00002743    0.00052418    0.00054290
     atom   29 type  3   force =    -0.00006765    0.00004929    0.00020623
     atom   30 type  3   force =    -0.00018418    0.00056215    0.00009693
     atom   31 type  1   force =     0.00055665   -0.00007456   -0.00032514
     atom   32 type  3   force =     0.00001994    0.00004196   -0.00026112

     Total force =     0.001602     Total SCF correction =     0.000274
     SCF correction compared to forces is large: reduce conv_thr to get better values

     bfgs converged in  10 scf cycles and   9 bfgs steps
     (criteria: energy < 0.10E-03, force < 0.10E-02)

     End of BFGS Geometry Optimization

     Final energy   =   -2105.1368152191 Ry
Begin final coordinates

ATOMIC_POSITIONS (crystal)
O0       0.000000000   0.000000000   0.378765366    0   0   1
O0       0.000000000   0.500000000   0.403419742    0   0   1
Ir1      0.250000000   0.500000000   0.453014127    0   0   1
Ir1      0.000000000   0.000000000   0.453223787    0   0   1
O0       0.250000000   0.810000000   0.453130106    0   0   1
O0       0.250000000   0.190000000   0.452691391    0   0   1
O0       0.000000000   0.500000000   0.499187165    0   0   1
O0       0.000000000   0.000000000   0.528530935    0   0   1
Ir1      0.250000000   0.000000000   0.575325471    0   0   1
Ir1      0.000000000   0.500000000   0.571891783    0   0   1
O0       0.250000000   0.690000000   0.575250976    0   0   1
O0       0.250000000   0.310000000   0.575304928    0   0   1
O0       0.000000000   0.000000000   0.619945279    0   0   1
O0       0.500000000   0.000000000   0.378406869    0   0   1
O0       0.500000000   0.500000000   0.402604318    0   0   1
Ir1      0.750000000   0.500000000   0.453017946    0   0   1
Ir1      0.500000000   0.000000000   0.452979762    0   0   1
O0       0.750000000   0.810000000   0.453149921    0   0   1
O0       0.750000000   0.190000000   0.452669386    0   0   1
O0       0.500000000   0.500000000   0.499957429    0   0   1
O0       0.500000000   0.000000000   0.528525509    0   0   1
Ir1      0.750000000   0.000000000   0.575270612    0   0   1
Ir1      0.500000000   0.500000000   0.574869422    0   0   1
O0       0.750000000   0.690000000   0.574566227    0   0   1
O0       0.750000000   0.310000000   0.574658675    0   0   1
O0       0.500000000   0.000000000   0.619634440    0   0   1
H2      -0.000218900   0.632372894   0.384166975
H2       0.499882222   0.636226012   0.384965001
H2       0.143647042   0.033976635   0.367190059
H2       0.642780299   0.036858406   0.366835990
O0       0.516367291   0.499737946   0.647740373
H2       0.375925888   0.500399683   0.663390033
End final coordinates

     General routines

     Parallel routines
     Hubbard U routines

   This run was terminated on:  17:20:28  29Apr2014

   JOB DONE.
Running PBS batch system epilogue script
Job id: 340428.audhumbla.fysik.dtu.dk
Username: zhonxu
Groupname: campgst
Jobname: IrO2/Eads-2-layers/OH-U-6.0
Sessionid: 5575
Queuename: verylong
Accounting:
This job has allocated the following 16 nodes:
d104 d104 d104 d104 d104 d104 d104 d104 d041 d041 d041 d041 d041 d041 d041 d041
Finished epilogue job 340428.audhumbla.fysik.dtu.dk for zhonxu