     Program PWSCF v.5.0.2 (svn rev. 9656) starts on 24Feb2014 at 20:27: 5

     Current dimensions of program PWSCF are:
     Max number of different atomic species (ntypx) = 10
     Max number of k-points (npk) =  40000
     Max angular momentum in pseudopotentials (lmaxx) =  3
     Reading input from slab-relax.in
Warning: card &CELL ignored
Warning: card / ignored

     Subspace diagonalization in iterative solution of the eigenvalue problem:
     a serial algorithm will be used

     Found symmetry operation: I + ( -0.5000  0.0000  0.0000)
     This is a supercell, fractional translations are disabled

     bravais-lattice index     =            0
     lattice parameter (alat)  =      11.2250  a.u.
     unit-cell volume          =    9585.4248 (a.u.)^3
     number of atoms/cell      =           48
     number of atomic types    =            2
     number of electrons       =       384.00
     number of Kohn-Sham states=          552
     kinetic-energy cutoff     =      40.0000  Ry
     charge density cutoff     =     500.0000  Ry
     convergence threshold     =      1.0E-06
     mixing beta               =       0.7000
     number of iterations used =            8  plain     mixing
     Exchange-correlation      = SLA  PW   PBE  PBE ( 1 4 3 4 0)
     EXX-fraction              =        0.00
     nstep                     =           50

     celldm(1)=  11.224973  celldm(2)=   0.000000  celldm(3)=   0.000000
     celldm(4)=   0.000000  celldm(5)=   0.000000  celldm(6)=   0.000000

     crystal axes: (cart. coord. in units of alat)
               a(1) = (   1.000000   0.000000   0.000000 )
               a(2) = (   0.000000   1.107086   0.000000 )
               a(3) = (   0.000000   0.000000   6.121726 )

     reciprocal axes: (cart. coord. in units 2 pi/alat)
               b(1) = (  1.000000  0.000000  0.000000 )
               b(2) = (  0.000000  0.903272  0.000000 )
               b(3) = (  0.000000  0.000000  0.163353 )

     PseudoPot. # 1 for O  read from file:
     /home/camp/zhonxu/pseudo/o_pbe_v1.01.uspp.F.UPF
     MD5 check sum: 2bcb18d16ea4b960afae9ec6d52f22d2
     Pseudo is Ultrasoft + core correction, Zval =  6.0
     Generated by new atomic code, or converted to UPF format
     Using radial grid of  737 points,  5 beta functions with:
                l(1) =   0
                l(2) =   0
                l(3) =   1
                l(4) =   1
                l(5) =   2
     Q(r) pseudized with  8 coefficients,  rinner =    0.900   0.900   0.900
                                                       0.900   0.900

     PseudoPot. # 2 for Ti read from file:
     /home/camp/zhonxu/pseudo/ti_pbe_v1.uspp.F.UPF
     MD5 check sum: bcc8f6961b3b91f0cac3ca967d22d0fb
     Pseudo is Ultrasoft + core correction, Zval = 12.0
     Generated by new atomic code, or converted to UPF format
     Using radial grid of  851 points,  6 beta functions with:
                l(1) =   0
                l(2) =   0
                l(3) =   1
                l(4) =   1
                l(5) =   2
                l(6) =   2
     Q(r) pseudized with  6 coefficients,  rinner =    1.000   1.000   1.000
                                                       1.000   1.000

     atomic species   valence    mass     pseudopotential
        O0             6.00    15.99940     O ( 1.00)
        Ti1           12.00    47.88000     Ti( 1.00)

      4 Sym. Ops. (no inversion) found

   Cartesian axes

     site n.     atom                  positions (alat units)
         1           O0  tau(   1) = (   0.0000000   0.5535432   2.0202309  )
         2           Ti1 tau(   2) = (   0.2500000   0.5535432   2.2305735  )
         3           Ti1 tau(   3) = (   0.0000000   0.0000000   2.2305735  )
         4           O0  tau(   4) = (   0.2500000   0.8967400   2.2305735  )
         5           O0  tau(   5) = (   0.2500000   0.2103464   2.2305735  )
         6           O0  tau(   6) = (   0.0000000   0.5535432   2.4409160  )
         7           O0  tau(   7) = (   0.0000000   0.0000000   2.5737574  )
         8           Ti1 tau(   8) = (   0.2500000   0.0000000   2.7841000  )
         9           Ti1 tau(   9) = (   0.0000000   0.5535432   2.7841000  )
        10           O0  tau(  10) = (   0.2500000   0.7638896   2.7841000  )
        11           O0  tau(  11) = (   0.2500000   0.3431968   2.7841000  )
        12           O0  tau(  12) = (   0.0000000   0.0000000   2.9944425  )
        13           O0  tau(  13) = (   0.0000000   0.5535432   3.1272839  )
        14           Ti1 tau(  14) = (   0.2500000   0.5535432   3.3376265  )
        15           Ti1 tau(  15) = (   0.0000000   0.0000000   3.3376265  )
        16           O0  tau(  16) = (   0.2500000   0.8967400   3.3376265  )
        17           O0  tau(  17) = (   0.2500000   0.2103464   3.3376265  )
        18           O0  tau(  18) = (   0.0000000   0.5535432   3.5479690  )
        19           O0  tau(  19) = (   0.0000000   0.0000000   3.6808104  )
        20           Ti1 tau(  20) = (   0.2500000   0.0000000   3.8911530  )
        21           Ti1 tau(  21) = (   0.0000000   0.5535432   3.8911530  )
        22           O0  tau(  22) = (   0.2500000   0.7638896   3.8911530  )
        23           O0  tau(  23) = (   0.2500000   0.3431968   3.8911530  )
        24           O0  tau(  24) = (   0.0000000   0.0000000   4.1014955  )
        25           O0  tau(  25) = (   0.5000000   0.5535432   2.0202309  )
        26           Ti1 tau(  26) = (   0.7500000   0.5535432   2.2305735  )
        27           Ti1 tau(  27) = (   0.5000000   0.0000000   2.2305735  )
        28           O0  tau(  28) = (   0.7500000   0.8967400   2.2305735  )
        29           O0  tau(  29) = (   0.7500000   0.2103464   2.2305735  )
        30           O0  tau(  30) = (   0.5000000   0.5535432   2.4409160  )
        31           O0  tau(  31) = (   0.5000000   0.0000000   2.5737574  )
        32           Ti1 tau(  32) = (   0.7500000   0.0000000   2.7841000  )
        33           Ti1 tau(  33) = (   0.5000000   0.5535432   2.7841000  )
        34           O0  tau(  34) = (   0.7500000   0.7638896   2.7841000  )
        35           O0  tau(  35) = (   0.7500000   0.3431968   2.7841000  )
        36           O0  tau(  36) = (   0.5000000   0.0000000   2.9944425  )
        37           O0  tau(  37) = (   0.5000000   0.5535432   3.1272839  )
        38           Ti1 tau(  38) = (   0.7500000   0.5535432   3.3376265  )
        39           Ti1 tau(  39) = (   0.5000000   0.0000000   3.3376265  )
        40           O0  tau(  40) = (   0.7500000   0.8967400   3.3376265  )
        41           O0  tau(  41) = (   0.7500000   0.2103464   3.3376265  )
        42           O0  tau(  42) = (   0.5000000   0.5535432   3.5479690  )
        43           O0  tau(  43) = (   0.5000000   0.0000000   3.6808104  )
        44           Ti1 tau(  44) = (   0.7500000   0.0000000   3.8911530  )
        45           Ti1 tau(  45) = (   0.5000000   0.5535432   3.8911530  )
        46           O0  tau(  46) = (   0.7500000   0.7638896   3.8911530  )
        47           O0  tau(  47) = (   0.7500000   0.3431968   3.8911530  )
        48           O0  tau(  48) = (   0.5000000   0.0000000   4.1014955  )

     number of k points=     9  Methfessel-Paxton smearing, width (Ry)=  0.0100
                       cart. coord. in units 2pi/alat
        k(    1) = (   0.0000000   0.0000000   0.0000000), wk =   0.1250000
        k(    2) = (   0.0000000   0.2258180   0.0000000), wk =   0.2500000
        k(    3) = (   0.0000000  -0.4516359   0.0000000), wk =   0.1250000
        k(    4) = (   0.2500000   0.0000000   0.0000000), wk =   0.2500000
        k(    5) = (   0.2500000   0.2258180   0.0000000), wk =   0.5000000
        k(    6) = (   0.2500000  -0.4516359   0.0000000), wk =   0.2500000
        k(    7) = (  -0.5000000   0.0000000   0.0000000), wk =   0.1250000
        k(    8) = (  -0.5000000   0.2258180   0.0000000), wk =   0.2500000
        k(    9) = (  -0.5000000  -0.4516359   0.0000000), wk =   0.1250000

     Largest allocated arrays     est. size (Mb)     dimensions
     Largest temporary arrays     est. size (Mb)     dimensions

     Check: negative/imaginary core charge=   -0.000007    0.000000

     Initial potential from superposition of free atoms
     Check: negative starting charge=   -0.203397

     starting charge  367.99925, renormalised to  384.00000

     negative rho (up, down):  0.212E+00 0.000E+00
     Starting wfc are  288 randomized atomic wfcs

     Self-consistent Calculation

     iteration #  1     ecut=    40.00 Ry     beta=0.70
     Davidson diagonalization with overlap
     ethr =  1.00E-02,  avg # of iterations =  6.6

     negative rho (up, down):  0.238E+00 0.000E+00

     total energy              =   -2925.82493930 Ry
     Harris-Foulkes estimate   =   -2933.83065304 Ry
     estimated scf accuracy    <      10.01929197 Ry

[...]

     End of self-consistent calculation

          k = 0.0000 0.0000 0.0000 ( 40985 PWs)   bands (ev):

   -58.9409 -58.9404 -58.9012 -58.9007 -58.4677 -58.4676 -58.4275 -58.4274
   -58.1977 -58.1976 -58.1576 -58.1575 -57.3029 -57.3026 -57.2629 -57.2626
   -35.4278 -35.4273 -35.2257 -35.2252 -35.1958 -35.1953 -35.1630 -35.1625
   -35.0553 -35.0548 -35.0304 -35.0300 -34.9805 -34.9800 -34.7606 -34.7602
   -34.7536 -34.7509 -34.6677 -34.6634 -34.6444 -34.6437 -34.6043 -34.6035
   -34.5829 -34.5824 -34.4614 -34.4591 -34.3836 -34.3829 -34.3682 -34.3675
   -34.3373 -34.3364 -34.3077 -34.3074 -33.7758 -33.7755 -33.6548 -33.6546
   -33.6255 -33.6253 -33.5475 -33.5472 -33.4428 -33.4426 -33.3222 -33.3220
   -19.5467 -19.4516 -19.2651 -19.0734 -18.8393 -18.6333 -18.6058 -18.6057
   -18.6010 -18.5896 -18.3499 -18.3497 -18.2220 -18.1812 -18.1327 -18.0598
   -18.0596 -18.0465 -18.0056 -17.9879 -17.9824 -17.9311 -17.8768 -17.8479
   -17.7056 -17.6472 -17.5710 -17.5638 -16.1938 -16.1925 -16.1321 -16.1320
    -7.1336  -7.1160  -6.9778  -6.8574  -6.8082  -6.6930  -6.3659  -6.2582
    -5.9864  -5.9461  -5.9432  -5.9281  -5.9209  -5.7629  -5.7062  -5.6992
    -5.6990  -5.6675  -5.6169  -5.5609  -5.4965  -5.4881  -5.4616  -5.4478
    -5.3765  -5.3540  -5.3502  -5.2708  -5.2642  -5.2409  -5.1397  -5.0705
    -5.0452  -5.0329  -5.0235  -4.9069  -4.8149  -4.5982  -4.4209  -4.4168
    -4.3611  -4.3602  -4.2944  -4.2364  -4.2294  -4.0683  -4.0478  -4.0350
    -3.9188  -3.8800  -3.8772  -3.8362  -3.7826  -3.7415  -3.7410  -3.7044
    -3.6779  -3.6524  -3.5955  -3.4656  -3.4142  -3.3976  -3.2293  -3.2167
    -3.1862  -3.1588  -3.1235  -3.0556  -2.9555  -2.9120  -2.8848  -2.8170
    -2.7625  -2.7469  -2.7177  -2.6578  -2.6157  -2.5080  -2.4019  -2.3041
    -2.1929  -2.1801  -2.0731  -2.0650  -1.9371  -1.7624  -1.7623  -1.5871
    -1.4873  -1.4698  -1.3847  -1.3820  -1.3719  -1.3564  -1.3409  -1.3281
     0.1166   0.2068   0.2127   0.2257   0.5167   0.5203   0.5427   0.5587
     0.7282   0.8333   0.9525   0.9602   0.9772   1.0190   1.0419   1.0429
     1.0986   1.1873   1.1889   1.2797   1.3175   1.3318   1.4512   1.4544
     1.5236   1.5478   1.6533   1.7068   1.7095   1.7804   1.7974   1.8541
[...]
     Diagonalizing with lowered threshold

     Davidson diagonalization with overlap
     ethr =  2.62E-08,  avg # of iterations =  1.1

[...]

     number of scf cycles    =  19
     number of bfgs steps    =  18

     energy   old            =   -2931.6738468069 Ry
     energy   new            =   -2931.6738911825 Ry

     CASE: energy  _new < energy  _old

     new trust radius        =       0.0026273911 bohr
     new conv_thr            =       0.0000000100 Ry

ATOMIC_POSITIONS (crystal)
O0       0.000000000   0.500000000   0.330010000    0   0   0
Ti1      0.250000000   0.500000000   0.364370000    0   0   0
Ti1      0.000000000   0.000000000   0.364370000    0   0   0
O0       0.250000000   0.810000000   0.364370000    0   0   0
O0       0.250000000   0.190000000   0.364370000    0   0   0
O0       0.000000000   0.500000000   0.398730000    0   0   0
O0       0.000000000   0.000000000   0.420430000    0   0   0
Ti1      0.250000000   0.000000000   0.454790000    0   0   0
Ti1      0.000000000   0.500000000   0.454790000    0   0   0
O0       0.250000000   0.690000000   0.454790000    0   0   0
O0       0.250000000   0.310000000   0.454790000    0   0   0
O0       0.000000000   0.000000000   0.489150000    0   0   0
O0       0.000000000   0.500000000   0.511615085
Ti1      0.250000000   0.500000000   0.543768457
Ti1      0.000000000   0.000000000   0.550052440
O0       0.250000000   0.801556927   0.546210690
O0       0.250000000   0.198443073   0.546210690
O0       0.000000000   0.500000000   0.582218523
O0       0.000000000   0.000000000   0.601140855
Ti1      0.250000000   0.000000000   0.642535952
Ti1      0.000000000   0.500000000   0.632093949
O0       0.250000000   0.687239577   0.641306251
O0       0.250000000   0.312760423   0.641306251
O0       0.000000000   0.000000000   0.671943580
O0       0.500000000   0.500000000   0.330010000    0   0   0
Ti1      0.750000000   0.500000000   0.364370000    0   0   0
Ti1      0.500000000   0.000000000   0.364370000    0   0   0
O0       0.750000000   0.810000000   0.364370000    0   0   0
O0       0.750000000   0.190000000   0.364370000    0   0   0
O0       0.500000000   0.500000000   0.398730000    0   0   0
O0       0.500000000   0.000000000   0.420430000    0   0   0
Ti1      0.750000000   0.000000000   0.454790000    0   0   0
Ti1      0.500000000   0.500000000   0.454790000    0   0   0
O0       0.750000000   0.690000000   0.454790000    0   0   0
O0       0.750000000   0.310000000   0.454790000    0   0   0
O0       0.500000000   0.000000000   0.489150000    0   0   0
O0       0.500000000   0.500000000   0.511615085
Ti1      0.750000000   0.500000000   0.543768457
Ti1      0.500000000   0.000000000   0.550052440
O0       0.750000000   0.801556927   0.546210690
O0       0.750000000   0.198443073   0.546210690
O0       0.500000000   0.500000000   0.582218523
O0       0.500000000   0.000000000   0.601140855
Ti1      0.750000000   0.000000000   0.642535952
Ti1      0.500000000   0.500000000   0.632093949
O0       0.750000000   0.687239577   0.641306251
O0       0.750000000   0.312760423   0.641306251
O0       0.500000000   0.000000000   0.671943580

     Check: negative starting charge=   -0.203996
     NEW-OLD atomic charge density approx. for the potential

     Check: negative/imaginary core charge=   -0.000007    0.000000
     Check: negative starting charge=   -0.203978

[...]

     Self-consistent Calculation

[...]

     Threshold (ethr) on eigenvalues was too large:
     Diagonalizing with lowered threshold

     Davidson diagonalization with overlap
     ethr =  3.36E-09,  avg # of iterations =  2.2

[...]

     total energy              =   -2931.67390693 Ry
     Harris-Foulkes estimate   =   -2931.67390694 Ry
     estimated scf accuracy    <       0.00000002 Ry

     iteration #  8     ecut=    40.00 Ry     beta=0.70
     Davidson diagonalization with overlap
     ethr =  5.15E-12,  avg # of iterations =  1.0

     negative rho (up, down):  0.202E+00 0.000E+00

     End of self-consistent calculation

[...]

          k = 0.2500-0.4516 0.0000 ( 40874 PWs)   bands (ev):

[...]

          k =-0.5000-0.4516 0.0000 ( 40844 PWs)   bands (ev):

   -58.7398 -58.7398 -58.6962 -58.6962 -58.4711 -58.4711 -58.2591 -58.2591
   -58.1707 -58.1707 -58.1135 -58.1135 -57.8982 -57.8982 -57.1865 -57.1865
   -35.0895 -35.0895 -35.0316 -35.0316 -35.0215 -35.0215 -34.9727 -34.9727
   -34.9306 -34.9306 -34.8646 -34.8646 -34.8347 -34.8347 -34.7745 -34.7745
   -34.6792 -34.6792 -34.5974 -34.5974 -34.5259 -34.5259 -34.4953 -34.4953
   -34.4718 -34.4718 -34.4507 -34.4507 -34.4129 -34.4129 -34.3674 -34.3674
   -34.3534 -34.3534 -34.3107 -34.3107 -34.2445 -34.2445 -34.1679 -34.1679
   -34.1316 -34.1316 -33.5372 -33.5372 -33.4615 -33.4615 -33.4015 -33.4015
   -19.0466 -19.0466 -18.7602 -18.7602 -18.6105 -18.6105 -18.4221 -18.4221
   -18.4076 -18.4076 -18.3896 -18.3896 -18.3245 -18.3245 -18.2523 -18.2523
   -18.2300 -18.2300 -18.1543 -18.1543 -18.0098 -18.0098 -17.8139 -17.8139
   -17.6150 -17.6150 -17.5544 -17.5544 -17.5141 -17.5141 -16.1660 -16.1660
    -6.4700  -6.4700  -6.1453  -6.1453  -5.8855  -5.8855  -5.7921  -5.7921
    -5.6927  -5.6927  -5.6787  -5.6787  -5.6563  -5.6563  -5.6372  -5.6372
    -5.6121  -5.6121  -5.5889  -5.5889  -5.5692  -5.5692  -5.4202  -5.4202
    -5.3891  -5.3891  -5.3140  -5.3140  -5.2268  -5.2268  -5.0702  -5.0702
    -4.9884  -4.9884  -4.8848  -4.8848  -4.8798  -4.8798  -4.8255  -4.8255
    -4.4598  -4.4598  -4.4069  -4.4069  -4.3021  -4.3021  -4.2446  -4.2446
    -4.0771  -4.0771  -4.0284  -4.0284  -3.9987  -3.9987  -3.8928  -3.8928
    -3.7724  -3.7724  -3.7548  -3.7548  -3.6893  -3.6893  -3.5943  -3.5943
    -3.5857  -3.5857  -3.4549  -3.4549  -3.3736  -3.3736  -3.1677  -3.1677
    -3.0547  -3.0547  -2.7966  -2.7966  -2.7115  -2.7115  -2.5032  -2.5032
    -2.4919  -2.4919  -2.4867  -2.4867  -2.4035  -2.4035  -2.2520  -2.2520
    -2.0836  -2.0836  -2.0319  -2.0319  -1.4638  -1.4638  -1.1829  -1.1829
     0.5918   0.5918   0.6360   0.6360   0.8898   0.8898   0.9630   0.9630
     0.9908   0.9908   1.1248   1.1248   1.2641   1.2641   1.2897   1.2897
     1.4126   1.4126   1.4804   1.4804   1.5764   1.5764   1.7174   1.7174
     1.7371   1.7371   1.9125   1.9125   1.9551   1.9551   2.0160   2.0160
     2.1095   2.1095   2.2271   2.2271   2.2506   2.2506   2.3007   2.3007
     2.3672   2.3672   2.5221   2.5221   2.7114   2.7114   2.8327   2.8327
     2.8605   2.8605   3.0960   3.0960   3.3701   3.3701   3.5749   3.5749
     3.7063   3.7063   3.7525   3.7525   3.8784   3.8784   4.0354   4.0354
     4.4676   4.4676   4.8142   4.8142   4.8288   4.8288   4.9386   4.9386
     5.1423   5.1423   5.3266   5.3266   5.5016   5.5016   5.7277   5.7277
     5.9807   5.9807   6.3337   6.3337   6.9346   6.9346   7.0656   7.0656
     7.1628   7.1628   7.2279   7.2279   7.4607   7.4607   7.5386   7.5386
     7.8928   7.8928   7.9663   7.9663   8.4312   8.4312   8.4815   8.4815
     8.7862   8.7862   8.8324   8.8324   9.1854   9.1854   9.2535   9.2535
     9.4162   9.4162   9.4743   9.4743   9.9898   9.9898  10.0464  10.0464
    10.2945  10.2945  10.2988  10.2988  10.8207  10.8207  10.9349  10.9349
    11.4371  11.4371  11.4496  11.4496  12.0428  12.0428  12.2405  12.2405
    12.3449  12.3449  12.4333  12.4333  12.8371  12.8371  12.9569  12.9569
    13.0816  13.0816  13.1750  13.1750  13.2187  13.2187  13.3308  13.3308
    13.3542  13.3542  13.4450  13.4450  13.4948  13.4948  13.5722  13.5722
    13.6791  13.6791  13.7098  13.7098  13.8927  13.8927  13.9166  13.9166
    13.9324  13.9324  14.0067  14.0067  14.0216  14.0216  14.0453  14.0453
    14.0481  14.0481  14.2734  14.2734  14.2798  14.2798  14.3293  14.3293
    14.3526  14.3526  14.5339  14.5339  14.6831  14.6831  14.7671  14.7671
    14.8286  14.8286  14.9667  14.9667  15.0646  15.0646  15.0806  15.0806
    15.2623  15.2623  15.3797  15.3797  15.4074  15.4074  15.4574  15.4574
    15.5182  15.5182  15.5767  15.5767  15.6184  15.6184  15.6217  15.6217
    15.7463  15.7463  15.7988  15.7988  15.8260  15.8260  15.9827  15.9827
    16.0319  16.0319  16.0894  16.0894  16.3035  16.3035  16.3527  16.3527
    16.5091  16.5091  16.5536  16.5536  16.5550  16.5550  16.5969  16.5969
    16.7088  16.7088  16.8257  16.8257  16.9483  16.9483  16.9992  16.9992
    17.1412  17.1412  17.2472  17.2472  17.3249  17.3249  17.4097  17.4097
    17.4803  17.4803  17.5277  17.5277  17.5355  17.5355  17.5583  17.5583
    17.9256  17.9256  17.9929  17.9929  18.1152  18.1152  18.1738  18.1738
    18.2053  18.2053  18.2798  18.2798  18.4177  18.4177  18.4405  18.4405
    18.8306  18.8306  18.8474  18.8474  18.9434  18.9434  18.9616  18.9616
    19.0356  19.0356  19.1261  19.1261  19.3013  19.3013  19.5076  19.5076
    19.5557  19.5557  19.5731  19.5731  19.7886  19.7886  19.8556  19.8556
    19.9558  19.9558  20.0811  20.0811  20.1698  20.1698  20.2138  20.2138
    20.6777  20.6777  20.6818  20.6818  20.9444  20.9444  21.0072  21.0072
    21.0619  21.0619  21.1963  21.1963  21.3591  21.3591  21.3642  21.3642
    21.7354  21.7354  21.7372  21.7372  21.9116  21.9116  21.9756  21.9756
    22.0998  22.0998  22.3819  22.3819  22.3824  22.3824  22.4626  22.4626
    22.5362  22.5362  22.5779  22.5779  22.6256  22.6256  22.6878  22.6878
    22.7026  22.7026  22.7775  22.7775  22.9637  22.9637  22.9800  22.9800

     the Fermi energy is    -1.1073 ev

!    total energy              =   -2931.67390693 Ry
     Harris-Foulkes estimate   =   -2931.67390694 Ry
     estimated scf accuracy    <          4.6E-09 Ry

     The total energy is the sum of the following terms:

     one-electron contribution =  -63318.34173746 Ry
     hartree contribution      =   31700.10611288 Ry
     xc contribution           =    -505.42153624 Ry
     ewald contribution        =   29191.98176171 Ry
     smearing contrib. (-TS)   =       0.00149217 Ry

     convergence has been achieved in   8 iterations

     Forces acting on atoms (Ry/au):

     negative rho (up, down):  0.202E+00 0.000E+00
     atom    1 type  1   force =     0.00000000    0.00000000    0.05888174
     atom    2 type  2   force =    -0.00000000    0.00000000   -0.13292060
     atom    3 type  2   force =     0.00000000    0.00000000    0.11732505
     atom    4 type  1   force =     0.00000000    0.03289148   -0.03171107
     atom    5 type  1   force =     0.00000000   -0.03289148   -0.03171107
     atom    6 type  1   force =     0.00000000    0.00000000    0.09599187
     atom    7 type  1   force =     0.00000000    0.00000000   -0.08672575
     atom    8 type  2   force =    -0.00000000    0.00000000    0.05784050
     atom    9 type  2   force =     0.00000000    0.00000000   -0.06635462
     atom   10 type  1   force =     0.00000000    0.02075375    0.00771405
     atom   11 type  1   force =     0.00000000   -0.02075375    0.00771405
     atom   12 type  1   force =     0.00000000    0.00000000    0.00389535
     atom   13 type  1   force =     0.00000000    0.00000000    0.00018226
     atom   14 type  2   force =    -0.00000000    0.00000000   -0.00005160
     atom   15 type  2   force =     0.00000000    0.00000000   -0.00043102
     atom   16 type  1   force =    -0.00000000   -0.00009636    0.00010855
     atom   17 type  1   force =    -0.00000000    0.00009636    0.00010855
     atom   18 type  1   force =     0.00000000    0.00000000   -0.00036724
     atom   19 type  1   force =     0.00000000    0.00000000   -0.00040514
     atom   20 type  2   force =     0.00000000    0.00000000   -0.00046640
     atom   21 type  2   force =     0.00000000    0.00000000    0.00040832
     atom   22 type  1   force =    -0.00000000    0.00079252    0.00029348
     atom   23 type  1   force =    -0.00000000   -0.00079252    0.00029348
     atom   24 type  1   force =     0.00000000    0.00000000    0.00038727
     atom   25 type  1   force =     0.00000000    0.00000000    0.05888174
     atom   26 type  2   force =     0.00000000    0.00000000   -0.13292060
     atom   27 type  2   force =     0.00000000    0.00000000    0.11732505
     atom   28 type  1   force =    -0.00000000    0.03289148   -0.03171107
     atom   29 type  1   force =    -0.00000000   -0.03289148   -0.03171107
     atom   30 type  1   force =     0.00000000    0.00000000    0.09599187
     atom   31 type  1   force =     0.00000000    0.00000000   -0.08672575
     atom   32 type  2   force =     0.00000000    0.00000000    0.05784050
     atom   33 type  2   force =     0.00000000    0.00000000   -0.06635462
     atom   34 type  1   force =    -0.00000000    0.02075375    0.00771405
     atom   35 type  1   force =    -0.00000000   -0.02075375    0.00771405
     atom   36 type  1   force =     0.00000000    0.00000000    0.00389535
     atom   37 type  1   force =     0.00000000    0.00000000    0.00018226
     atom   38 type  2   force =     0.00000000    0.00000000   -0.00005160
     atom   39 type  2   force =     0.00000000    0.00000000   -0.00043102
     atom   40 type  1   force =     0.00000000   -0.00009636    0.00010855
     atom   41 type  1   force =     0.00000000    0.00009636    0.00010855
     atom   42 type  1   force =     0.00000000    0.00000000   -0.00036724
     atom   43 type  1   force =     0.00000000    0.00000000   -0.00040514
     atom   44 type  2   force =    -0.00000000    0.00000000   -0.00046640
     atom   45 type  2   force =     0.00000000    0.00000000    0.00040832
     atom   46 type  1   force =     0.00000000    0.00079252    0.00029348
     atom   47 type  1   force =     0.00000000   -0.00079252    0.00029348
     atom   48 type  1   force =     0.00000000    0.00000000    0.00038727

     Total force =     0.002247     Total SCF correction =     0.000206

     bfgs converged in  20 scf cycles and  19 bfgs steps
     (criteria: energy < 0.10E-03, force < 0.10E-02)

     End of BFGS Geometry Optimization

     Final energy   =   -2931.6739069341 Ry
Begin final coordinates

ATOMIC_POSITIONS (crystal)
O0       0.000000000   0.500000000   0.330010000    0   0   0
Ti1      0.250000000   0.500000000   0.364370000    0   0   0
Ti1      0.000000000   0.000000000   0.364370000    0   0   0
O0       0.250000000   0.810000000   0.364370000    0   0   0
O0       0.250000000   0.190000000   0.364370000    0   0   0
O0       0.000000000   0.500000000   0.398730000    0   0   0
O0       0.000000000   0.000000000   0.420430000    0   0   0
Ti1      0.250000000   0.000000000   0.454790000    0   0   0
Ti1      0.000000000   0.500000000   0.454790000    0   0   0
O0       0.250000000   0.690000000   0.454790000    0   0   0
O0       0.250000000   0.310000000   0.454790000    0   0   0
O0       0.000000000   0.000000000   0.489150000    0   0   0
O0       0.000000000   0.500000000   0.511615085
Ti1      0.250000000   0.500000000   0.543768457
Ti1      0.000000000   0.000000000   0.550052440
O0       0.250000000   0.801556927   0.546210690
O0       0.250000000   0.198443073   0.546210690
O0       0.000000000   0.500000000   0.582218523
O0       0.000000000   0.000000000   0.601140855
Ti1      0.250000000   0.000000000   0.642535952
Ti1      0.000000000   0.500000000   0.632093949
O0       0.250000000   0.687239577   0.641306251
O0       0.250000000   0.312760423   0.641306251
O0       0.000000000   0.000000000   0.671943580
O0       0.500000000   0.500000000   0.330010000    0   0   0
Ti1      0.750000000   0.500000000   0.364370000    0   0   0
Ti1      0.500000000   0.000000000   0.364370000    0   0   0
O0       0.750000000   0.810000000   0.364370000    0   0   0
O0       0.750000000   0.190000000   0.364370000    0   0   0
O0       0.500000000   0.500000000   0.398730000    0   0   0
O0       0.500000000   0.000000000   0.420430000    0   0   0
Ti1      0.750000000   0.000000000   0.454790000    0   0   0
Ti1      0.500000000   0.500000000   0.454790000    0   0   0
O0       0.750000000   0.690000000   0.454790000    0   0   0
O0       0.750000000   0.310000000   0.454790000    0   0   0
O0       0.500000000   0.000000000   0.489150000    0   0   0
O0       0.500000000   0.500000000   0.511615085
Ti1      0.750000000   0.500000000   0.543768457
Ti1      0.500000000   0.000000000   0.550052440
O0       0.750000000   0.801556927   0.546210690
O0       0.750000000   0.198443073   0.546210690
O0       0.500000000   0.500000000   0.582218523
O0       0.500000000   0.000000000   0.601140855
Ti1      0.750000000   0.000000000   0.642535952
Ti1      0.500000000   0.500000000   0.632093949
O0       0.750000000   0.687239577   0.641306251
O0       0.750000000   0.312760423   0.641306251
O0       0.500000000   0.000000000   0.671943580
End final coordinates

     General routines

     Parallel routines

   This run was terminated on:   1:40:50  26Feb2014

   JOB DONE.