     Program PWSCF v.5.0.2 (svn rev. 9656) starts on 13Aug2014 at 10:39:31

     Current dimensions of program PWSCF are:
     Max number of different atomic species (ntypx) = 10
     Max number of k-points (npk) =  40000
     Max angular momentum in pseudopotentials (lmaxx) =  3
     Reading input from pwscf.in
Warning: card &CELL ignored
Warning: card / ignored

     Subspace diagonalization in iterative solution of the eigenvalue problem:
     a serial algorithm will be used

     bravais-lattice index     =            0
     lattice parameter (alat)  =      10.3179  a.u.
     unit-cell volume          =    6964.3238 (a.u.)^3
     number of atoms/cell      =           33
     number of atomic types    =            3
     number of electrons       =       237.00
     number of Kohn-Sham states=          355
     kinetic-energy cutoff     =      40.0000  Ry
     charge density cutoff     =     500.0000  Ry
     convergence threshold     =      1.0E-06
     mixing beta               =       0.3000
     number of iterations used =            8  plain     mixing
     Exchange-correlation      = SLA  PW   PBE  PBE ( 1 4 3 4 0)
     EXX-fraction              =        0.00
     nstep                     =           50

     celldm(1)=  10.317905  celldm(2)=   0.000000  celldm(3)=   0.000000
     celldm(4)=   0.000000  celldm(5)=   0.000000  celldm(6)=   0.000000

     crystal axes: (cart. coord. in units of alat)
               a(1) = (   1.000000   0.000000   0.000000 )
               a(2) = (   0.000000   1.282117   0.000000 )
               a(3) = (   0.000000   0.000000   4.945120 )

     reciprocal axes: (cart. coord. in units 2 pi/alat)
               b(1) = (  1.000000  0.000000  0.000000 )
               b(2) = (  0.000000  0.779960  0.000000 )
               b(3) = (  0.000000  0.000000  0.202220 )

     PseudoPot. # 1 for O  read from file:
     /home-research/zhongnanxu/gbrv_espresso_pseudo_v1.01/o_pbe_v1.01.uspp.F.UPF
     MD5 check sum: 2bcb18d16ea4b960afae9ec6d52f22d2
     Pseudo is Ultrasoft + core correction, Zval =  6.0
     Generated by new atomic code, or converted to UPF format
     Using radial grid of  737 points,  5 beta functions with:
                l(1) =   0
                l(2) =   0
                l(3) =   1
                l(4) =   1
                l(5) =   2
     Q(r) pseudized with  8 coefficients,  rinner =    0.900   0.900   0.900
                                                       0.900   0.900

     PseudoPot. # 2 for Mo read from file:
     /home-research/zhongnanxu/gbrv_espresso_pseudo_v1.01/mo_pbe_v1.uspp.F.UPF
     MD5 check sum: 30c4dcd161f5d35cd49bb5239c51a633
     Pseudo is Ultrasoft + core correction, Zval = 14.0
     Generated by new atomic code, or converted to UPF format
     Using radial grid of  889 points,  6 beta functions with:
                l(1) =   0
                l(2) =   0
                l(3) =   1
                l(4) =   1
                l(5) =   2
                l(6) =   2
     Q(r) pseudized with  6 coefficients,  rinner =    1.000   1.000   1.000
                                                       1.000   1.000

     PseudoPot. # 3 for H  read from file:
     /home-research/zhongnanxu/gbrv_espresso_pseudo_v1.01/h_pbe_v1.uspp.F.UPF
     MD5 check sum: 3408e3ff4ec8b0a4e358431e7e038a48
     Pseudo is Ultrasoft, Zval =  1.0
     Generated by new atomic code, or converted to UPF format
     Using radial grid of  615 points,  2 beta functions with:
                l(1) =   0
                l(2) =   0
     Q(r) pseudized with  8 coefficients,  rinner =    0.700

     atomic species   valence    mass     pseudopotential
        O0             6.00    15.99940     O ( 1.00)
        Mo1           14.00    95.94000     Mo( 1.00)
        H2             1.00     1.00794     H ( 1.00)

     Simplified LDA+U calculation (l_max = 2) with parameters (eV):
     atomic species    L          U    alpha       J0     beta
        Mo1            2     8.0000   0.0000   0.0000   0.0000

     No symmetry found

   Cartesian axes

     site n.     atom                  positions (alat units)
         1           O0  tau(   1) = (   0.0000000   0.0000000   1.8349858  )
         2           O0  tau(   2) = (   0.0000000   0.6410583   1.8969976  )
         3           Mo1 tau(   3) = (   0.2500000   0.6410583   2.1832706  )
         4           Mo1 tau(   4) = (   0.0000000   0.0000000   2.1872762  )
         5           O0  tau(   5) = (   0.2500000   1.0000510   2.1874740  )
         6           O0  tau(   6) = (   0.2500000   0.2820657   2.1886608  )
         7           O0  tau(   7) = (   0.0000000   0.6410583   2.4528786  )
         8           O0  tau(   8) = (   0.0000000   0.0000000   2.5450062  )
         9           Mo1 tau(   9) = (   0.2500000   0.0000000   2.8197076  )
        10           Mo1 tau(  10) = (   0.0000000   0.6410583   2.8157021  )
        11           O0  tau(  11) = (   0.2500000   0.9231240   2.8292023  )
        12           O0  tau(  12) = (   0.2500000   0.3589927   2.8328122  )
        13           O0  tau(  13) = (   0.0000000   0.0000000   3.0813045  )
        14           O0  tau(  14) = (   0.5000000   0.0000000   1.8198043  )
        15           O0  tau(  15) = (   0.5000000   0.6410583   1.8965031  )
        16           Mo1 tau(  16) = (   0.7500000   0.6410583   2.1832212  )
        17           Mo1 tau(  17) = (   0.5000000   0.0000000   2.1773859  )
        18           O0  tau(  18) = (   0.7500000   1.0000510   2.1896498  )
        19           O0  tau(  19) = (   0.7500000   0.2820657   2.1876223  )
        20           O0  tau(  20) = (   0.5000000   0.6410583   2.4806207  )
        21           O0  tau(  21) = (   0.5000000   0.0000000   2.5530173  )
        22           Mo1 tau(  22) = (   0.7500000   0.0000000   2.8477959  )
        23           Mo1 tau(  23) = (   0.5000000   0.6410583   2.8235154  )
        24           O0  tau(  24) = (   0.7500000   0.9231240   2.8301913  )
        25           O0  tau(  25) = (   0.7500000   0.3589927   2.8337023  )
        26           O0  tau(  26) = (   0.5000000   0.0000000   3.0834309  )
        27           H2  tau(  27) = (  -0.0006600   0.7981561   1.8100130  )
        28           H2  tau(  28) = (   0.5002500   0.7765396   1.7795016  )
        29           H2  tau(  29) = (   0.1651900   0.0340915   1.7626387  )
        30           H2  tau(  30) = (   0.6578400   0.0351813   1.7388527  )
        31           O0  tau(  31) = (   0.5002100   0.6575592   3.1815421  )
        32           O0  tau(  32) = (   0.4999400   0.4538693   3.3510114  )
        33           H2  tau(  33) = (   0.5000100   0.5472843   3.5056947  )

     number of k points=    10  Methfessel-Paxton smearing, width (Ry)=  0.0100
                       cart. coord. in units 2pi/alat
        k(    1) = (   0.0000000   0.0000000   0.0000000), wk =   0.1250000
        k(    2) = (   0.0000000   0.1949901   0.0000000), wk =   0.2500000
        k(    3) = (   0.0000000  -0.3899801   0.0000000), wk =   0.1250000
        k(    4) = (   0.2500000   0.0000000   0.0000000), wk =   0.2500000
        k(    5) = (   0.2500000   0.1949901   0.0000000), wk =   0.2500000
        k(    6) = (   0.2500000  -0.3899801   0.0000000), wk =   0.2500000
        k(    7) = (  -0.5000000   0.0000000   0.0000000), wk =   0.1250000
        k(    8) = (  -0.5000000   0.1949901   0.0000000), wk =   0.2500000
        k(    9) = (  -0.5000000  -0.3899801   0.0000000), wk =   0.1250000
        k(   10) = (  -0.2500000   0.1949901   0.0000000), wk =   0.2500000

     Largest allocated arrays     est. size (Mb)     dimensions
     Largest temporary arrays     est. size (Mb)     dimensions

     Check: negative/imaginary core charge=   -0.000003    0.000000

     Initial potential from superposition of free atoms
     Check: negative starting charge=   -0.002182

     starting charge  236.99142, renormalised to  237.00000

     negative rho (up, down):  0.218E-02 0.000E+00
     Number of +U iterations with fixed ns =  0
     Starting occupations:
 --- enter write_ns ---
 LDA+U parameters:
U( 2)     =  8.00000000
alpha( 2) =  0.00000000
atom    3   Tr[ns(na)] =   5.00000
    eigenvalues:
  0.500  0.500  0.500  0.500  0.500
    eigenvectors:
  1.000  0.000  0.000  0.000  0.000
  0.000  1.000  0.000  0.000  0.000
  0.000  0.000  1.000  0.000  0.000
  0.000  0.000  0.000  1.000  0.000
  0.000  0.000  0.000  0.000  1.000
    occupations:
  0.500  0.000  0.000  0.000  0.000
  0.000  0.500  0.000  0.000  0.000
  0.000  0.000  0.500  0.000  0.000
  0.000  0.000  0.000  0.500  0.000
  0.000  0.000  0.000  0.000  0.500
atom    4   Tr[ns(na)] =   5.00000
    eigenvalues:
  0.500  0.500  0.500  0.500  0.500
    eigenvectors:
  1.000  0.000  0.000  0.000  0.000
  0.000  1.000  0.000  0.000  0.000
  0.000  0.000  1.000  0.000  0.000
  0.000  0.000  0.000  1.000  0.000
  0.000  0.000  0.000  0.000  1.000
    occupations:
  0.500  0.000  0.000  0.000  0.000
  0.000  0.500  0.000  0.000  0.000
  0.000  0.000  0.500  0.000  0.000
  0.000  0.000  0.000  0.500  0.000
  0.000  0.000  0.000  0.000  0.500
atom    9   Tr[ns(na)] =   5.00000
    eigenvalues:
  0.500  0.500  0.500  0.500  0.500
    eigenvectors:
  1.000  0.000  0.000  0.000  0.000
  0.000  1.000  0.000  0.000  0.000
  0.000  0.000  1.000  0.000  0.000
  0.000  0.000  0.000  1.000  0.000
  0.000  0.000  0.000  0.000  1.000
    occupations:
  0.500  0.000  0.000  0.000  0.000
  0.000  0.500  0.000  0.000  0.000
  0.000  0.000  0.500  0.000  0.000
  0.000  0.000  0.000  0.500  0.000
  0.000  0.000  0.000  0.000  0.500
atom   10   Tr[ns(na)] =   5.00000
    eigenvalues:
  0.500  0.500  0.500  0.500  0.500
    eigenvectors:
  1.000  0.000  0.000  0.000  0.000
  0.000  1.000  0.000  0.000  0.000
  0.000  0.000  1.000  0.000  0.000
  0.000  0.000  0.000  1.000  0.000
  0.000  0.000  0.000  0.000  1.000
    occupations:
  0.500  0.000  0.000  0.000  0.000
  0.000  0.500  0.000  0.000  0.000
  0.000  0.000  0.500  0.000  0.000
  0.000  0.000  0.000  0.500  0.000
  0.000  0.000  0.000  0.000  0.500
atom   16   Tr[ns(na)] =   5.00000
    eigenvalues:
  0.500  0.500  0.500  0.500  0.500
    eigenvectors:
  1.000  0.000  0.000  0.000  0.000
  0.000  1.000  0.000  0.000  0.000
  0.000  0.000  1.000  0.000  0.000
  0.000  0.000  0.000  1.000  0.000
  0.000  0.000  0.000  0.000  1.000
    occupations:
  0.500  0.000  0.000  0.000  0.000
  0.000  0.500  0.000  0.000  0.000
  0.000  0.000  0.500  0.000  0.000
  0.000  0.000  0.000  0.500  0.000
  0.000  0.000  0.000  0.000  0.500
atom   17   Tr[ns(na)] =   5.00000
    eigenvalues:
  0.500  0.500  0.500  0.500  0.500
    eigenvectors:
  1.000  0.000  0.000  0.000  0.000
  0.000  1.000  0.000  0.000  0.000
  0.000  0.000  1.000  0.000  0.000
  0.000  0.000  0.000  1.000  0.000
  0.000  0.000  0.000  0.000  1.000
    occupations:
  0.500  0.000  0.000  0.000  0.000
  0.000  0.500  0.000  0.000  0.000
  0.000  0.000  0.500  0.000  0.000
  0.000  0.000  0.000  0.500  0.000
  0.000  0.000  0.000  0.000  0.500
atom   22   Tr[ns(na)] =   5.00000
    eigenvalues:
  0.500  0.500  0.500  0.500  0.500
    eigenvectors:
[...]
  0.000  0.000  0.031  0.246  0.723
  0.000  0.000  0.900  0.100  0.000
  0.290  0.710  0.000  0.000  0.000
  0.000  0.000  0.069  0.654  0.277
  0.710  0.290  0.000  0.000  0.000
    occupations:
  0.810  0.008  0.002 -0.121  0.002
  0.008  0.590  0.000  0.006  0.000
  0.002  0.000  0.412  0.001  0.037
 -0.121  0.006  0.001  0.689 -0.002
  0.002  0.000  0.037 -0.002  0.378
atom   10   Tr[ns(na)] =   5.57691
    eigenvalues:
  0.208  0.395  0.511  0.723  0.952
    eigenvectors:
  0.000  0.962  0.000  0.038  0.000
  0.000  0.000  0.000  0.000  1.000
  0.999  0.000  0.000  0.000  0.000
  0.000  0.038  0.000  0.962  0.000
  0.000  0.000  1.000  0.000  0.000
    occupations:
  0.407 -0.003 -0.002  0.062  0.000
 -0.003  0.952  0.002 -0.002 -0.003
 -0.002  0.002  0.208 -0.010  0.006
  0.062 -0.002 -0.010  0.711  0.000
  0.000 -0.003  0.006  0.000  0.511
atom   16   Tr[ns(na)] =   5.79339
    eigenvalues:
  0.316  0.503  0.580  0.710  0.787
    eigenvectors:
  0.006  0.036  0.247  0.025  0.685
  0.000  0.926  0.068  0.001  0.005
  0.876  0.000  0.000  0.105  0.019
  0.000  0.036  0.684  0.012  0.268
  0.118  0.001  0.001  0.856  0.024
    occupations:
  0.721 -0.025  0.035 -0.093  0.000
 -0.025  0.510 -0.006 -0.007 -0.007
  0.035 -0.006  0.367 -0.015  0.128
 -0.093 -0.007 -0.015  0.634 -0.002
  0.000 -0.007  0.128 -0.002  0.665
atom   17   Tr[ns(na)] =   5.69821
    eigenvalues:
  0.275  0.512  0.518  0.629  0.915
    eigenvectors:
  0.000  0.658  0.024  0.318  0.000
  0.001  0.004  0.000  0.008  0.987
  0.999  0.000  0.000  0.000  0.001
  0.000  0.302  0.012  0.674  0.012
  0.000  0.036  0.964  0.000  0.000
    occupations:
  0.549  0.006  0.002  0.054  0.001
  0.006  0.911  0.017 -0.035 -0.002
  0.002  0.017  0.276 -0.001  0.002
  0.054 -0.035 -0.001  0.596  0.000
  0.001 -0.002  0.002  0.000  0.518
atom   22   Tr[ns(na)] =   5.88092
    eigenvalues:
  0.496  0.524  0.624  0.638  0.658
    eigenvectors:
  0.000  0.000  0.012  0.449  0.539
  0.000  0.000  0.007  0.551  0.442
  0.871  0.128  0.000  0.000  0.000
  0.000  0.000  0.981  0.000  0.019
  0.128  0.872  0.000  0.000  0.000
    occupations:
  0.649 -0.010 -0.001 -0.004  0.000
 -0.010  0.647  0.000  0.003  0.001
 -0.001  0.000  0.500  0.001 -0.009
 -0.004  0.003  0.001  0.624  0.000
  0.000  0.001 -0.009  0.000  0.521
atom   23   Tr[ns(na)] =   5.84102
    eigenvalues:
  0.451  0.471  0.529  0.618  0.850
    eigenvectors:
  0.002  0.000  0.000  0.987  0.010
  0.001  0.990  0.008  0.000  0.000
  0.987  0.002  0.009  0.002  0.000
  0.000  0.000  0.000  0.010  0.989
  0.009  0.008  0.983  0.000  0.000
    occupations:
  0.620  0.001  0.008 -0.024  0.000
  0.001  0.472  0.000  0.003 -0.005
  0.008  0.000  0.453  0.007 -0.007
 -0.024  0.003  0.007  0.848  0.000
  0.000 -0.005 -0.007  0.000  0.528
N of occupied +U levels =  46.0591023
 --- exit write_ns ---

     Threshold (ethr) on eigenvalues was too large:
     Diagonalizing with lowered threshold

     Davidson diagonalization with overlap
     ethr =  5.11E-09,  avg # of iterations =  3.0

[...]

     total energy              =   -1760.31370580 Ry
     Harris-Foulkes estimate   =   -1760.31370588 Ry
     estimated scf accuracy    <       0.00000001 Ry

     iteration # 38     ecut=    40.00 Ry     beta=0.30
     Davidson diagonalization with overlap
     ethr =  4.33E-12,  avg # of iterations =  2.0

     negative rho (up, down):  0.355E-02 0.000E+00

     End of self-consistent calculation
 --- enter write_ns ---
 LDA+U parameters:
U( 2)     =  8.00000000
alpha( 2) =  0.00000000
atom    3   Tr[ns(na)] =   5.78025
    eigenvalues:
  0.317  0.507  0.583  0.681  0.802
    eigenvectors:
  0.007  0.034  0.256  0.003  0.701
  0.000  0.932  0.062  0.001  0.004
  0.893  0.000  0.000  0.097  0.010
  0.001  0.033  0.680  0.004  0.282
  0.100  0.001  0.001  0.895  0.002
    occupations:
  0.732  0.024  0.037 -0.100  0.004
  0.024  0.513  0.005  0.006 -0.006
  0.037  0.005  0.357 -0.016 -0.110
 -0.100  0.006 -0.016  0.642 -0.002
  0.004 -0.006 -0.110 -0.002  0.645
atom    4   Tr[ns(na)] =   5.73221
    eigenvalues:
  0.386  0.426  0.543  0.627  0.884
    eigenvectors:
  0.000  0.000  0.000  0.994  0.006
  0.054  0.943  0.000  0.000  0.003
  0.946  0.054  0.000  0.000  0.000
  0.000  0.003  0.000  0.006  0.991
  0.000  0.000  1.000  0.000  0.000
    occupations:
  0.628  0.005  0.002 -0.019  0.000
  0.005  0.426 -0.009 -0.025  0.000
  0.002 -0.009  0.388  0.000  0.002
 -0.019 -0.025  0.000  0.881  0.000
  0.000  0.000  0.002  0.000  0.543
atom    9   Tr[ns(na)] =   5.75601
    eigenvalues:
  0.354  0.436  0.587  0.616  0.885
    eigenvectors:
  0.000  0.000  0.031  0.246  0.723
  0.000  0.000  0.900  0.100  0.000
  0.291  0.709  0.000  0.000  0.000
  0.000  0.000  0.069  0.654  0.277
  0.709  0.291  0.000  0.000  0.000
    occupations:
  0.810  0.008  0.002 -0.121  0.002
  0.008  0.590  0.000  0.006  0.000
  0.002  0.000  0.412  0.001  0.037
 -0.121  0.006  0.001  0.688 -0.002
  0.002  0.000  0.037 -0.002  0.378
atom   10   Tr[ns(na)] =   5.57720
    eigenvalues:
  0.208  0.395  0.511  0.723  0.952
    eigenvectors:
  0.000  0.962  0.000  0.038  0.000
  0.000  0.000  0.000  0.000  1.000
  0.999  0.000  0.000  0.000  0.000
  0.000  0.038  0.000  0.962  0.000
  0.000  0.000  1.000  0.000  0.000
    occupations:
  0.407 -0.003 -0.002  0.062  0.000
 -0.003  0.952  0.002 -0.002 -0.003
 -0.002  0.002  0.208 -0.010  0.006
  0.062 -0.002 -0.010  0.711  0.000
  0.000 -0.003  0.006  0.000  0.511
atom   16   Tr[ns(na)] =   5.79316
    eigenvalues:
  0.316  0.503  0.580  0.710  0.787
    eigenvectors:
  0.006  0.036  0.247  0.026  0.684
  0.000  0.926  0.068  0.001  0.005
  0.876  0.000  0.000  0.104  0.019
  0.000  0.036  0.684  0.012  0.267
  0.117  0.001  0.001  0.856  0.025
    occupations:
  0.721 -0.025  0.035 -0.093  0.000
 -0.025  0.510 -0.006 -0.007 -0.007
  0.035 -0.006  0.366 -0.015  0.128
 -0.093 -0.007 -0.015  0.634 -0.002
  0.000 -0.007  0.128 -0.002  0.665
atom   17   Tr[ns(na)] =   5.69829
    eigenvalues:
  0.275  0.512  0.518  0.629  0.915
    eigenvectors:
  0.000  0.659  0.023  0.318  0.000
  0.001  0.004  0.000  0.008  0.988
  0.999  0.000  0.000  0.000  0.001
  0.000  0.303  0.011  0.674  0.012
  0.000  0.034  0.966  0.000  0.000
    occupations:
  0.549  0.006  0.002  0.054  0.001
  0.006  0.911  0.016 -0.035 -0.002
  0.002  0.016  0.276 -0.001  0.002
  0.054 -0.035 -0.001  0.596  0.000
  0.001 -0.002  0.002  0.000  0.518
atom   22   Tr[ns(na)] =   5.88072
    eigenvalues:
  0.496  0.524  0.624  0.638  0.658
    eigenvectors:
  0.000  0.000  0.012  0.449  0.539
  0.000  0.000  0.007  0.551  0.442
  0.871  0.129  0.000  0.000  0.000
  0.000  0.000  0.981  0.000  0.019
  0.129  0.871  0.000  0.000  0.000
    occupations:
  0.649 -0.010 -0.001 -0.004  0.000
 -0.010  0.647  0.000  0.003  0.001
 -0.001  0.000  0.500  0.001 -0.009
 -0.004  0.003  0.001  0.624  0.000
  0.000  0.001 -0.009  0.000  0.521
atom   23   Tr[ns(na)] =   5.84070
    eigenvalues:
  0.451  0.471  0.529  0.618  0.850
    eigenvectors:
  0.002  0.000  0.000  0.987  0.010
  0.001  0.990  0.008  0.000  0.000
  0.987  0.002  0.008  0.002  0.000
  0.000  0.000  0.000  0.010  0.989
  0.009  0.008  0.983  0.000  0.000
    occupations:
  0.620  0.001  0.008 -0.024  0.000
  0.001  0.472  0.000  0.003 -0.005
  0.008  0.000  0.452  0.007 -0.007
 -0.024  0.003  0.007  0.848  0.000
  0.000 -0.005 -0.007  0.000  0.528
N of occupied +U levels =  46.0585359
 --- exit write_ns ---

[...]

          k = 0.2500-0.3900 0.0000 ( 29726 PWs)   bands (ev):

[...]

          k =-0.2500 0.1950 0.0000 ( 29746 PWs)   bands (ev):

   -62.5027 -62.1512 -62.0235 -61.9798 -61.5916 -61.4564 -61.3307 -61.3022
   -36.9987 -36.7636 -36.7377 -36.6553 -36.6343 -36.4523 -36.1996 -36.1020
   -36.0736 -35.9903 -35.9620 -35.9243 -35.9137 -35.8504 -35.8026 -35.7939
   -35.7131 -35.6571 -35.5655 -35.5455 -35.2214 -35.0512 -34.9640 -34.9029
   -23.0708 -20.0280 -19.7550 -19.5503 -19.3666 -19.2427 -19.1062 -18.9774
   -18.9521 -18.8790 -18.8327 -18.5696 -18.4793 -18.4330 -18.3887 -18.2997
   -18.2138 -18.1743 -17.8152 -16.6753  -8.4555  -8.2446  -8.2027  -8.1139
    -7.8981  -7.7752  -7.6119  -7.5088  -7.4729  -7.2763  -7.2163  -7.0748
    -6.9223  -6.8408  -6.4762  -6.3670  -6.1927  -6.0717  -6.0147  -5.9073
    -5.8370  -5.7490  -5.6157  -5.5109  -5.3484  -5.1020  -5.0517  -4.9135
    -4.7767  -4.6748  -4.5736  -4.5222  -4.3330  -4.2489  -4.1802  -4.1474
    -4.0935  -4.0686  -4.0025  -3.9786  -3.8544  -3.8046  -3.5810  -3.4787
    -3.4225  -3.3620  -3.3042  -3.1951  -3.1519  -3.0957  -2.9732  -2.8805
    -2.7337  -2.6503  -2.5751  -2.4167  -2.2332  -1.9641  -1.9207  -1.8142
    -1.7424  -1.3569  -0.9436  -0.8560  -0.5367  -0.4626   0.6421   0.6671
     1.0157   1.1094   1.2167   1.3388   1.4568   1.6832   1.7619   1.8202
     1.8565   1.9753   2.3247   2.4186   2.5823   2.7663   3.1179   3.3513
     3.5725   3.8245   3.9136   3.9923   4.1226   4.2756   4.3214   4.4990
     4.5433   4.7147   4.7623   4.8502   4.9570   5.0694   5.2368   5.5311
     5.8688   5.9724   6.0759   6.1887   6.2680   6.3968   6.4784   6.5925
     6.6959   6.8833   6.9774   7.2408   7.3092   7.4524   7.7310   7.7907
     8.0946   8.2580   8.4110   8.4899   8.5727   8.7654   8.8319   8.9491
     9.0251   9.1526   9.2447   9.3771   9.5033   9.5681   9.6976   9.7482
     9.8247   9.9631  10.0329  10.1184  10.2696  10.4250  10.5264  10.6113
    10.6953  10.8294  10.9124  10.9631  11.0074  11.1415  11.3399  11.3898
    11.5031  11.6473  11.7377  11.8544  11.8960  11.9846  12.0200  12.1656
    12.1991  12.2762  12.3619  12.3817  12.4657  12.5668  12.6327  12.8204
    12.8980  12.9663  13.0361  13.1071  13.2109  13.2599  13.3657  13.4092
    13.4603  13.5538  13.6120  13.6969  13.7870  13.8860  13.9171  13.9685
    14.0468  14.0961  14.1403  14.2073  14.2699  14.3123  14.3828  14.4116
    14.4865  14.5360  14.6359  14.7646  14.8015  14.8988  14.9182  15.0668
    15.1612  15.1939  15.2906  15.4270  15.4772  15.5402  15.6406  15.6650
    15.7715  15.8668  15.9030  15.9907  16.0207  16.1478  16.2416  16.2796
    16.3113  16.4280  16.5144  16.5424  16.6024  16.6426  16.7315  16.7582
    16.8235  16.9105  17.0077  17.0709  17.1116  17.1610  17.2456  17.3166
    17.3512  17.4117  17.5054  17.5593  17.6843  17.7542  17.8090  17.9130
    18.0074  18.0508  18.1472  18.1509  18.2566  18.3800  18.4214  18.5183
    18.5878  18.6321  18.6984  18.7889  18.8739  18.9740  19.0094  19.0820
    19.1884  19.2897  19.3535  19.4518  19.4814  19.5278  19.6113  19.6810
    19.8331  19.8855  19.9772  20.0392  20.1201  20.1570  20.1853  20.2334
    20.2922  20.3723  20.4199  20.4531  20.5130  20.5888  20.6131  20.6516
    20.7466  20.7892  20.8915  20.9334  21.0024  21.1319  21.1700  21.2002
    21.2558  21.3727  21.4201  21.4569  21.5174  21.5831  21.6039  21.6320
    21.6691  21.7298  21.7977  21.8793  21.8941  21.9791  22.0340  22.0926
    22.1523  22.2009  22.3069

     the Fermi energy is    -0.0940 ev

!    total energy              =   -1760.31370586 Ry
     Harris-Foulkes estimate   =   -1760.31370586 Ry
     estimated scf accuracy    <          8.0E-09 Ry

     The total energy is the sum of the following terms:

     one-electron contribution =  -22437.39706928 Ry
     hartree contribution      =   11249.33566663 Ry
     xc contribution           =    -301.71726679 Ry
     ewald contribution        =    9724.46683030 Ry
     Hubbard energy            =       4.99736329 Ry
     smearing contrib. (-TS)   =       0.00076998 Ry

     convergence has been achieved in  38 iterations

     Forces acting on atoms (Ry/au):

     negative rho (up, down):  0.355E-02 0.000E+00
     atom    1 type  1   force =     0.02239967   -0.00485830    0.00007404
     atom    2 type  1   force =     0.00054760    0.00884696    0.00070617
     atom    3 type  2   force =     0.02858354   -0.00479794    0.00015552
     atom    4 type  2   force =    -0.03062028    0.00458489    0.00022287
     atom    5 type  1   force =     0.01347199   -0.00871871   -0.00005764
     atom    6 type  1   force =     0.01430570    0.00266505   -0.00016805
     atom    7 type  1   force =     0.00020861    0.00202471   -0.00005405
     atom    8 type  1   force =     0.00045737    0.00104707    0.00042455
     atom    9 type  2   force =     0.01803194   -0.00207843   -0.00012572
     atom   10 type  2   force =    -0.00233712    0.00102640    0.00002581
     atom   11 type  1   force =    -0.00371312    0.01720293   -0.00020233
     atom   12 type  1   force =    -0.00014834   -0.01097762   -0.00023861
     atom   13 type  1   force =    -0.02779287   -0.00228611    0.00002097
     atom   14 type  1   force =    -0.02238996   -0.00757635   -0.00005428
     atom   15 type  1   force =     0.00069682    0.00740269   -0.00001639
     atom   16 type  2   force =    -0.02981779   -0.00992875   -0.00000919
     atom   17 type  2   force =     0.02130112    0.00613658   -0.00021898
     atom   18 type  1   force =    -0.01239854    0.00234650   -0.00009491
     atom   19 type  1   force =    -0.01389632    0.00018555   -0.00000269
     atom   20 type  1   force =     0.00118211   -0.00183272    0.00056935
     atom   21 type  1   force =     0.03440901    0.00134060   -0.00041721
     atom   22 type  2   force =    -0.04626575   -0.00211791   -0.00018432
     atom   23 type  2   force =    -0.00008531    0.00072066    0.00003059
     atom   24 type  1   force =     0.00438998    0.02282167    0.00033292
     atom   25 type  1   force =     0.00065224   -0.01647875    0.00011994
     atom   26 type  1   force =     0.02951767   -0.00630949   -0.00046609
     atom   27 type  3   force =    -0.00002677   -0.00048447    0.00011405
     atom   28 type  3   force =    -0.00003410    0.00044482    0.00024946
     atom   29 type  3   force =     0.00007738   -0.00003092    0.00009613
     atom   30 type  3   force =     0.00031514   -0.00006699    0.00046167
     atom   31 type  1   force =    -0.00110101   -0.00054326   -0.00077142
     atom   32 type  1   force =     0.00024603    0.00047951    0.00007843
     atom   33 type  3   force =    -0.00016663   -0.00018985   -0.00060061

     Total force =     0.002052     Total SCF correction =     0.000035

     bfgs converged in  20 scf cycles and  19 bfgs steps
     (criteria: energy < 0.10E-03, force < 0.10E-02)

     End of BFGS Geometry Optimization

     Final energy   =   -1760.3137058616 Ry
Begin final coordinates

ATOMIC_POSITIONS (crystal)
O0       0.000000000   0.000000000   0.371011809    0   0   1
O0       0.000000000   0.500000000   0.382955106    0   0   1
Mo1      0.250000000   0.500000000   0.441247815    0   0   1
Mo1      0.000000000   0.000000000   0.441977003    0   0   1
O0       0.250000000   0.780000000   0.442025825    0   0   1
O0       0.250000000   0.220000000   0.441868376    0   0   1
O0       0.000000000   0.500000000   0.495925088    0   0   1
O0       0.000000000   0.000000000   0.514547616    0   0   1
Mo1      0.250000000   0.000000000   0.568395029    0   0   1
Mo1      0.000000000   0.500000000   0.569587425    0   0   1
O0       0.250000000   0.720000000   0.572235025    0   0   1
O0       0.250000000   0.280000000   0.573280220    0   0   1
O0       0.000000000   0.000000000   0.625291485    0   0   1
O0       0.500000000   0.000000000   0.365372514    0   0   1
O0       0.500000000   0.500000000   0.382586998    0   0   1
Mo1      0.750000000   0.500000000   0.441227522    0   0   1
Mo1      0.500000000   0.000000000   0.439123226    0   0   1
O0       0.750000000   0.780000000   0.442152548    0   0   1
O0       0.750000000   0.220000000   0.442251427    0   0   1
O0       0.500000000   0.500000000   0.502046777    0   0   1
O0       0.500000000   0.000000000   0.518179421    0   0   1
Mo1      0.750000000   0.000000000   0.580832343    0   0   1
Mo1      0.500000000   0.500000000   0.571011247    0   0   1
O0       0.750000000   0.720000000   0.573530500    0   0   1
O0       0.750000000   0.280000000   0.574330604    0   0   1
O0       0.500000000   0.000000000   0.625280423    0   0   1
H2       0.000254304   0.618281007   0.363233188
H2       0.499460653   0.612681467   0.360863637
H2       0.167215940   0.018480752   0.355965563
H2       0.664610078   0.022173795   0.351220865
O0       0.500210000   0.516219060   0.643105454    0   1   1
O0       0.499940000   0.355996819   0.676701124    0   1   1
H2       0.500010000   0.426264889   0.708376798    0   1   1
End final coordinates

     General routines

     Parallel routines
     Hubbard U routines

   This run was terminated on:  20:32:17  15Aug2014

   JOB DONE.
mv: inter-device move failed: `/scratch/1087944.gilgamesh.cheme.cmu.edu/pwscf.save' to `./pwscf.save'; unable to remove target: Is a directory