     Program PWSCF v.5.0.2 (svn rev. 9656) starts on 29Apr2014 at  8: 7: 8

     Current dimensions of program PWSCF are:
     Max number of different atomic species (ntypx) = 10
     Max number of k-points (npk) =  40000
     Max angular momentum in pseudopotentials (lmaxx) =  3
     Reading input from pwscf.in
Warning: card &CELL ignored
Warning: card / ignored

     Subspace diagonalization in iterative solution of the eigenvalue problem:
     a serial algorithm will be used

     bravais-lattice index     =            0
     lattice parameter (alat)  =      11.7919  a.u.
     unit-cell volume          =    7123.6633 (a.u.)^3
     number of atoms/cell      =           31
     number of atomic types    =            3
     number of electrons       =       246.00
     number of Kohn-Sham states=          357
     kinetic-energy cutoff     =      40.0000  Ry
     charge density cutoff     =     500.0000  Ry
     convergence threshold     =      1.0E-06
     mixing beta               =       0.7000
     number of iterations used =            8  plain     mixing
     Exchange-correlation      = SLA  PW   PBE  PBE ( 1 4 3 4 0)
     EXX-fraction              =        0.00
     nstep                     =           50

     celldm(1)=  11.791891  celldm(2)=   0.000000  celldm(3)=   0.000000
     celldm(4)=   0.000000  celldm(5)=   0.000000  celldm(6)=   0.000000

     crystal axes: (cart. coord. in units of alat)
               a(1) = (   1.000000   0.000000   0.000000 )
               a(2) = (   0.000000   1.026665   0.000000 )
               a(3) = (   0.000000   0.000000   4.231793 )

     reciprocal axes: (cart. coord. in units 2 pi/alat)
               b(1) = (  1.000000  0.000000  0.000000 )
               b(2) = (  0.000000  0.974028  0.000000 )
               b(3) = (  0.000000  0.000000  0.236306 )

     PseudoPot. # 1 for O  read from file:
     /home/camp/zhonxu/pseudo/o_pbe_v1.01.uspp.F.UPF
     MD5 check sum: 2bcb18d16ea4b960afae9ec6d52f22d2
     Pseudo is Ultrasoft + core correction, Zval =  6.0
     Generated by new atomic code, or converted to UPF format
     Using radial grid of  737 points,  5 beta functions with:
                l(1) =   0
                l(2) =   0
                l(3) =   1
                l(4) =   1
                l(5) =   2
     Q(r) pseudized with  8 coefficients,  rinner =    0.900   0.900   0.900
                                                       0.900   0.900

     PseudoPot. # 2 for Ru read from file:
     /home/camp/zhonxu/pseudo/ru_pbe_v1.uspp.F.UPF
     MD5 check sum: df00be1c11b23341d9806d8f1dfa10cf
     Pseudo is Ultrasoft + core correction, Zval = 16.0
     Generated by new atomic code, or converted to UPF format
     Using radial grid of  967 points,  6 beta functions with:
                l(1) =   0
                l(2) =   0
                l(3) =   1
                l(4) =   1
                l(5) =   2
                l(6) =   2
     Q(r) pseudized with  8 coefficients,  rinner =    1.300   1.300   1.300
                                                       1.300   1.300

     PseudoPot. # 3 for H  read from file:
     /home/camp/zhonxu/pseudo/h_pbe_v1.uspp.F.UPF
     MD5 check sum: 3408e3ff4ec8b0a4e358431e7e038a48
     Pseudo is Ultrasoft, Zval =  1.0
     Generated by new atomic code, or converted to UPF format
     Using radial grid of  615 points,  2 beta functions with:
                l(1) =   0
                l(2) =   0
     Q(r) pseudized with  8 coefficients,  rinner =    0.700

     atomic species   valence    mass     pseudopotential
        O0             6.00    15.99940     O ( 1.00)
        Ru1           16.00   101.07000     Ru( 1.00)
        H2             1.00     1.00794     H ( 1.00)

     Simplified LDA+U calculation (l_max = 2) with parameters (eV):
     atomic species    L          U    alpha       J0     beta
        Ru1            2     0.5000   0.0000   0.0000   0.0000

     No symmetry found

   Cartesian axes

     site n.     atom                  positions (alat units)
         1           O0  tau(   1) = (   0.0000000   0.0000000   1.6006333  )
         2           O0  tau(   2) = (   0.0000000   0.5133323   1.7090519  )
         3           Ru1 tau(   3) = (   0.2500000   0.5133323   1.9249579  )
         4           Ru1 tau(   4) = (   0.0000000   0.0000000   1.9138706  )
         5           O0  tau(   5) = (   0.2500000   0.8315984   1.9151825  )
         6           O0  tau(   6) = (   0.2500000   0.1950663   1.9148016  )
         7           O0  tau(   7) = (   0.0000000   0.5133323   2.1086177  )
         8           O0  tau(   8) = (   0.0000000   0.0000000   2.2256691  )
         9           Ru1 tau(   9) = (   0.2500000   0.0000000   2.4381898  )
        10           Ru1 tau(  10) = (   0.0000000   0.5133323   2.4080594  )
        11           O0  tau(  11) = (   0.2500000   0.7083986   2.4344235  )
        12           O0  tau(  12) = (   0.2500000   0.3182660   2.4336618  )
        13           O0  tau(  13) = (   0.0000000   0.0000000   2.6157981  )
        14           O0  tau(  14) = (   0.5000000   0.0000000   1.6005064  )
        15           O0  tau(  15) = (   0.5000000   0.5133323   1.7116333  )
        16           Ru1 tau(  16) = (   0.7500000   0.5133323   1.9249156  )
        17           Ru1 tau(  17) = (   0.5000000   0.0000000   1.9130666  )
        18           O0  tau(  18) = (   0.7500000   0.8315984   1.9150979  )
        19           O0  tau(  19) = (   0.7500000   0.1950663   1.9148440  )
        20           O0  tau(  20) = (   0.5000000   0.5133323   2.1279570  )
        21           O0  tau(  21) = (   0.5000000   0.0000000   2.2254152  )
        22           Ru1 tau(  22) = (   0.7500000   0.0000000   2.4382321  )
        23           Ru1 tau(  23) = (   0.5000000   0.5133323   2.4678123  )
        24           O0  tau(  24) = (   0.7500000   0.7083986   2.4345927  )
        25           O0  tau(  25) = (   0.7500000   0.3182660   2.4334925  )
        26           O0  tau(  26) = (   0.5000000   0.0000000   2.6078847  )
        27           H2  tau(  27) = (  -0.0002600   0.6438727   1.6192532  )
        28           H2  tau(  28) = (   0.4995800   0.6393041   1.6156985  )
        29           H2  tau(  29) = (   0.1450800   0.0331921   1.5470588  )
        30           H2  tau(  30) = (   0.6459600   0.0301326   1.5471435  )
        31           O0  tau(  31) = (   0.5000500   0.5106527   2.7413977  )

     number of k points=    10  Methfessel-Paxton smearing, width (Ry)=  0.0100
                       cart. coord. in units 2pi/alat
        k(    1) = (   0.0000000   0.0000000   0.0000000), wk =   0.1250000
        k(    2) = (   0.0000000   0.2435070   0.0000000), wk =   0.2500000
        k(    3) = (   0.0000000  -0.4870139   0.0000000), wk =   0.1250000
        k(    4) = (   0.2500000   0.0000000   0.0000000), wk =   0.2500000
        k(    5) = (   0.2500000   0.2435070   0.0000000), wk =   0.2500000
        k(    6) = (   0.2500000  -0.4870139   0.0000000), wk =   0.2500000
        k(    7) = (  -0.5000000   0.0000000   0.0000000), wk =   0.1250000
        k(    8) = (  -0.5000000   0.2435070   0.0000000), wk =   0.2500000
        k(    9) = (  -0.5000000  -0.4870139   0.0000000), wk =   0.1250000
        k(   10) = (  -0.2500000   0.2435070   0.0000000), wk =   0.2500000

     Largest allocated arrays     est. size (Mb)     dimensions
     Largest temporary arrays     est. size (Mb)     dimensions

     Check: negative/imaginary core charge=   -0.000003    0.000000

     Initial potential from superposition of free atoms
     Check: negative starting charge=   -0.520948

     starting charge  237.99981, renormalised to  246.00000

     negative rho (up, down):  0.538E+00 0.000E+00
     Number of +U iterations with fixed ns =  0
     Starting occupations:
 --- enter write_ns ---
 LDA+U parameters:
U( 2)     =  0.50000000
alpha( 2) =  0.00000000
atom    3   Tr[ns(na)] =   6.00000
    eigenvalues:
  0.600  0.600  0.600  0.600  0.600
    eigenvectors:
  1.000  0.000  0.000  0.000  0.000
  0.000  1.000  0.000  0.000  0.000
  0.000  0.000  1.000  0.000  0.000
  0.000  0.000  0.000  1.000  0.000
  0.000  0.000  0.000  0.000  1.000
    occupations:
  0.600  0.000  0.000  0.000  0.000
  0.000  0.600  0.000  0.000  0.000
  0.000  0.000  0.600  0.000  0.000
  0.000  0.000  0.000  0.600  0.000
  0.000  0.000  0.000  0.000  0.600
atom    4   Tr[ns(na)] =   6.00000
    eigenvalues:
  0.600  0.600  0.600  0.600  0.600
    eigenvectors:
  1.000  0.000  0.000  0.000  0.000
  0.000  1.000  0.000  0.000  0.000
  0.000  0.000  1.000  0.000  0.000
  0.000  0.000  0.000  1.000  0.000
  0.000  0.000  0.000  0.000  1.000
    occupations:
  0.600  0.000  0.000  0.000  0.000
  0.000  0.600  0.000  0.000  0.000
  0.000  0.000  0.600  0.000  0.000
  0.000  0.000  0.000  0.600  0.000
  0.000  0.000  0.000  0.000  0.600
atom    9   Tr[ns(na)] =   6.00000
    eigenvalues:
  0.600  0.600  0.600  0.600  0.600
    eigenvectors:
  1.000  0.000  0.000  0.000  0.000
  0.000  1.000  0.000  0.000  0.000
  0.000  0.000  1.000  0.000  0.000
  0.000  0.000  0.000  1.000  0.000
  0.000  0.000  0.000  0.000  1.000
    occupations:
  0.600  0.000  0.000  0.000  0.000
  0.000  0.600  0.000  0.000  0.000
  0.000  0.000  0.600  0.000  0.000
  0.000  0.000  0.000  0.600  0.000
  0.000  0.000  0.000  0.000  0.600
atom   10   Tr[ns(na)] =   6.00000
    eigenvalues:
  0.600  0.600  0.600  0.600  0.600
    eigenvectors:
  1.000  0.000  0.000  0.000  0.000
  0.000  1.000  0.000  0.000  0.000
  0.000  0.000  1.000  0.000  0.000
  0.000  0.000  0.000  1.000  0.000
  0.000  0.000  0.000  0.000  1.000
    occupations:
  0.600  0.000  0.000  0.000  0.000
  0.000  0.600  0.000  0.000  0.000
  0.000  0.000  0.600  0.000  0.000
  0.000  0.000  0.000  0.600  0.000
  0.000  0.000  0.000  0.000  0.600
atom   16   Tr[ns(na)] =   6.00000
    eigenvalues:
  0.600  0.600  0.600  0.600  0.600
    eigenvectors:
  1.000  0.000  0.000  0.000  0.000
  0.000  1.000  0.000  0.000  0.000
  0.000  0.000  1.000  0.000  0.000
  0.000  0.000  0.000  1.000  0.000
  0.000  0.000  0.000  0.000  1.000
    occupations:
  0.600  0.000  0.000  0.000  0.000
  0.000  0.600  0.000  0.000  0.000
  0.000  0.000  0.600  0.000  0.000
  0.000  0.000  0.000  0.600  0.000
  0.000  0.000  0.000  0.000  0.600
atom   17   Tr[ns(na)] =   6.00000
    eigenvalues:
  0.600  0.600  0.600  0.600  0.600
    eigenvectors:
  1.000  0.000  0.000  0.000  0.000
  0.000  1.000  0.000  0.000  0.000
  0.000  0.000  1.000  0.000  0.000
  0.000  0.000  0.000  1.000  0.000
  0.000  0.000  0.000  0.000  1.000
    occupations:
  0.600  0.000  0.000  0.000  0.000
  0.000  0.600  0.000  0.000  0.000
  0.000  0.000  0.600  0.000  0.000
  0.000  0.000  0.000  0.600  0.000
  0.000  0.000  0.000  0.000  0.600
atom   22   Tr[ns(na)] =   6.00000
    eigenvalues:
  0.600  0.600  0.600  0.600  0.600
    eigenvectors:
  1.000  0.000  0.000  0.000  0.000
  0.000  1.000  0.000  0.000  0.000
  0.000  0.000  1.000  0.000  0.000
  0.000  0.000  0.000  1.000  0.000
  0.000  0.000  0.000  0.000  1.000
    occupations:
  0.600  0.000  0.000  0.000  0.000
  0.000  0.600  0.000  0.000  0.000
[...]
 -0.000  0.013  0.698  0.001  0.000
  0.032 -0.001  0.001  0.946  0.000
  0.001 -0.001  0.000  0.000  0.558
atom    9   Tr[ns(na)] =   7.11935
    eigenvalues:
  0.585  0.602  0.768  0.801  0.803
    eigenvectors:
  0.001  0.163  0.000  0.336  0.500
  0.990  0.010  0.000  0.000  0.000
  0.000  0.000  0.970  0.017  0.013
  0.009  0.827  0.000  0.066  0.098
  0.000  0.000  0.030  0.581  0.389
    occupations:
  0.770 -0.002 -0.000 -0.074  0.001
 -0.002  0.585  0.001  0.003 -0.000
 -0.000  0.001  0.769  0.000 -0.006
 -0.074  0.003  0.000  0.635 -0.001
  0.001 -0.000 -0.006 -0.001  0.801
atom   10   Tr[ns(na)] =   7.16042
    eigenvalues:
  0.542  0.557  0.745  0.807  0.930
    eigenvectors:
  0.000  0.989  0.000  0.000  0.010
  0.000  0.000  0.000  1.000  0.000
  0.000  0.000  1.000  0.000  0.000
  0.000  0.010  0.000  0.000  0.989
  1.000  0.000  0.000  0.000  0.000
    occupations:
  0.560  0.000 -0.003  0.038  0.000
  0.000  0.807  0.000  0.000  0.001
 -0.003  0.000  0.745 -0.002  0.000
  0.038  0.000 -0.002  0.926  0.000
  0.000  0.001  0.000  0.000  0.542
atom   16   Tr[ns(na)] =   7.15250
    eigenvalues:
  0.532  0.573  0.707  0.816  0.949
    eigenvectors:
  0.001  0.188  0.006  0.001  0.805
  0.996  0.004  0.000  0.000  0.000
  0.000  0.001  0.987  0.003  0.010
  0.003  0.807  0.005  0.000  0.185
  0.000  0.000  0.003  0.997  0.000
    occupations:
  0.876  0.001  0.023 -0.146  0.001
  0.001  0.532 -0.001  0.003 -0.003
  0.023 -0.001  0.709 -0.007  0.006
 -0.146  0.003 -0.007  0.643 -0.002
  0.001 -0.003  0.006 -0.002  0.816
atom   17   Tr[ns(na)] =   7.13742
    eigenvalues:
  0.559  0.604  0.686  0.772  0.948
    eigenvectors:
  0.000  0.990  0.000  0.000  0.009
  0.000  0.000  0.017  0.983  0.000
  0.000  0.000  0.983  0.017  0.000
  0.000  0.009  0.000  0.000  0.991
  1.000  0.000  0.000  0.000  0.000
    occupations:
  0.607 -0.001 -0.000  0.033  0.001
 -0.001  0.770  0.011 -0.001 -0.001
 -0.000  0.011  0.688  0.000  0.000
  0.033 -0.001  0.000  0.945 -0.000
  0.001 -0.001  0.000 -0.000  0.559
atom   22   Tr[ns(na)] =   7.12000
    eigenvalues:
  0.585  0.602  0.768  0.802  0.803
    eigenvectors:
  0.000  0.165  0.001  0.332  0.502
  0.996  0.003  0.000  0.000  0.000
  0.000  0.000  0.968  0.014  0.017
  0.003  0.832  0.000  0.066  0.099
  0.000  0.000  0.031  0.588  0.381
    occupations:
  0.770  0.002  0.001 -0.074  0.000
  0.002  0.585  0.001 -0.002 -0.000
  0.001  0.001  0.769 -0.000  0.006
 -0.074 -0.002 -0.000  0.635 -0.000
  0.000 -0.000  0.006 -0.000  0.801
atom   23   Tr[ns(na)] =   7.15024
    eigenvalues:
  0.576  0.656  0.669  0.704  0.971
    eigenvectors:
  0.000  0.987  0.006  0.000  0.007
  0.000  0.000  0.000  1.000  0.000
  0.000  0.006  0.994  0.000  0.000
  0.000  0.007  0.000  0.000  0.993
  1.000  0.000  0.000  0.000  0.000
    occupations:
  0.658  0.000 -0.001  0.025 -0.000
  0.000  0.704  0.000  0.000  0.001
 -0.001  0.000  0.669  0.002 -0.000
  0.025  0.000  0.002  0.969 -0.000
 -0.000  0.001 -0.000 -0.000  0.576
N of occupied +U levels =  57.1541665
 --- exit write_ns ---

[...]

     total energy              =   -2163.18770686 Ry
     Harris-Foulkes estimate   =   -2163.18770686 Ry
     estimated scf accuracy    <       0.00000002 Ry

     iteration # 18     ecut=    40.00 Ry     beta=0.70
     Davidson diagonalization with overlap
     ethr =  8.03E-12,  avg # of iterations =  1.0

     negative rho (up, down):  0.580E+00 0.000E+00

     End of self-consistent calculation
 --- enter write_ns ---
 LDA+U parameters:
U( 2)     =  0.50000000
alpha( 2) =  0.00000000
atom    3   Tr[ns(na)] =   7.15081
    eigenvalues:
  0.532  0.573  0.707  0.815  0.948
    eigenvectors:
  0.001  0.188  0.005  0.000  0.805
  0.995  0.005  0.000  0.000  0.000
  0.000  0.001  0.989  0.001  0.009
  0.004  0.806  0.004  0.000  0.185
  0.000  0.000  0.001  0.998  0.000
    occupations:
  0.876 -0.001  0.022 -0.146 -0.001
 -0.001  0.532  0.001 -0.003 -0.002
  0.022  0.001  0.709 -0.007 -0.004
 -0.146 -0.003 -0.007  0.643  0.002
 -0.001 -0.002 -0.004  0.002  0.815
atom    4   Tr[ns(na)] =   7.15150
    eigenvalues:
  0.558  0.602  0.695  0.772  0.949
    eigenvectors:
  0.001  0.991  0.000  0.000  0.009
  0.000  0.000  0.032  0.968  0.000
  0.000  0.000  0.968  0.032  0.000
  0.000  0.009  0.000  0.000  0.991
  0.999  0.001  0.000  0.000  0.000
    occupations:
  0.605 -0.001 -0.000  0.032  0.001
 -0.001  0.769  0.013 -0.001 -0.001
 -0.000  0.013  0.697  0.001  0.000
  0.032 -0.001  0.001  0.946  0.000
  0.001 -0.001  0.000  0.000  0.558
atom    9   Tr[ns(na)] =   7.12195
    eigenvalues:
  0.585  0.602  0.768  0.801  0.804
    eigenvectors:
  0.001  0.163  0.000  0.266  0.570
  0.991  0.009  0.000  0.000  0.000
  0.000  0.000  0.973  0.017  0.009
  0.008  0.828  0.000  0.052  0.112
  0.000  0.000  0.027  0.665  0.309
    occupations:
  0.770 -0.002 -0.000 -0.074  0.001
 -0.002  0.585  0.001  0.002 -0.000
 -0.000  0.001  0.769  0.000 -0.005
 -0.074  0.002  0.000  0.635 -0.001
  0.001 -0.000 -0.005 -0.001  0.801
atom   10   Tr[ns(na)] =   7.16609
    eigenvalues:
  0.542  0.557  0.746  0.808  0.930
    eigenvectors:
  0.000  0.989  0.000  0.000  0.011
  0.000  0.000  0.000  1.000  0.000
  0.000  0.000  1.000  0.000  0.000
  0.000  0.010  0.000  0.000  0.989
  1.000  0.000  0.000  0.000  0.000
    occupations:
  0.561  0.000 -0.003  0.038  0.000
  0.000  0.808  0.000  0.000  0.001
 -0.003  0.000  0.746 -0.002  0.000
  0.038  0.000 -0.002  0.927  0.000
  0.000  0.001  0.000  0.000  0.542
atom   16   Tr[ns(na)] =   7.15091
    eigenvalues:
  0.532  0.573  0.707  0.816  0.948
    eigenvectors:
  0.001  0.188  0.006  0.001  0.805
  0.996  0.004  0.000  0.000  0.000
  0.000  0.001  0.987  0.002  0.010
  0.003  0.807  0.005  0.000  0.185
  0.000  0.000  0.003  0.997  0.000
    occupations:
  0.876  0.001  0.023 -0.146  0.001
  0.001  0.532 -0.001  0.003 -0.003
  0.023 -0.001  0.709 -0.007  0.006
 -0.146  0.003 -0.007  0.643 -0.002
  0.001 -0.003  0.006 -0.002  0.816
atom   17   Tr[ns(na)] =   7.14247
    eigenvalues:
  0.559  0.604  0.687  0.772  0.948
    eigenvectors:
  0.000  0.990  0.000  0.000  0.009
  0.000  0.000  0.017  0.983  0.000
  0.000  0.000  0.983  0.017  0.000
  0.000  0.009  0.000  0.000  0.991
  1.000  0.000  0.000  0.000  0.000
    occupations:
  0.607 -0.001 -0.000  0.033  0.001
 -0.001  0.771  0.011 -0.001 -0.001
 -0.000  0.011  0.689  0.000  0.000
  0.033 -0.001  0.000  0.945 -0.000
  0.001 -0.001  0.000 -0.000  0.559
atom   22   Tr[ns(na)] =   7.12194
    eigenvalues:
  0.585  0.602  0.768  0.802  0.804
    eigenvectors:
  0.000  0.164  0.001  0.200  0.635
  0.997  0.003  0.000  0.000  0.000
  0.000  0.000  0.971  0.018  0.011
  0.003  0.833  0.000  0.040  0.125
  0.000  0.000  0.028  0.743  0.229
    occupations:
  0.770  0.002  0.001 -0.074  0.000
  0.002  0.585  0.001 -0.002 -0.000
  0.001  0.001  0.769 -0.000  0.006
 -0.074 -0.002 -0.000  0.635 -0.000
  0.000 -0.000  0.006 -0.000  0.801
atom   23   Tr[ns(na)] =   7.14658
    eigenvalues:
  0.576  0.655  0.668  0.703  0.971
    eigenvectors:
  0.000  0.987  0.006  0.000  0.007
  0.000  0.000  0.000  1.000  0.000
  0.000  0.006  0.994  0.000  0.000
  0.000  0.007  0.000  0.000  0.993
  1.000  0.000  0.000  0.000  0.000
    occupations:
  0.657  0.000 -0.001  0.025 -0.000
  0.000  0.703  0.000  0.000  0.001
 -0.001  0.000  0.668  0.002 -0.000
  0.025  0.000  0.002  0.969 -0.000
 -0.000  0.001 -0.000 -0.000  0.576
N of occupied +U levels =  57.1522528
 --- exit write_ns ---

[...]

          k = 0.2500-0.4870 0.0000 ( 30468 PWs)   bands (ev):

[...]

          k =-0.2500 0.2435 0.0000 ( 30434 PWs)   bands (ev):

   -75.4810 -74.9785 -74.9708 -74.6721 -74.6235 -74.3979 -74.3255 -74.3183
   -45.9685 -45.2793 -45.1316 -45.1202 -44.9940 -44.9312 -44.9232 -44.9075
   -44.8652 -44.8473 -44.8348 -44.6839 -44.6233 -44.5346 -44.5161 -44.5008
   -44.4529 -44.4056 -44.3694 -44.2966 -44.2209 -44.1990 -44.1697 -44.1041
   -21.2099 -20.6785 -20.6442 -20.5927 -20.4031 -20.1390 -20.0742 -19.9841
   -19.8857 -19.7853 -19.7138 -19.6473 -19.5213 -19.5011 -19.4564 -19.4427
   -19.4092 -19.1288 -18.9175  -9.2645  -8.8475  -8.7711  -8.7451  -8.4901
    -8.4146  -8.2740  -8.2130  -8.0673  -7.9643  -7.9050  -7.8437  -7.7682
    -7.7006  -7.6574  -7.5311  -7.4106  -7.2541  -7.0334  -7.0077  -6.9047
    -6.8313  -6.6579  -6.3728  -6.2498  -6.2133  -6.0778  -5.8738  -5.8183
    -5.7612  -5.6978  -5.6569  -5.5140  -5.4711  -5.4007  -5.3468  -5.2332
    -5.1655  -5.0560  -4.9356  -4.8970  -4.7134  -4.6600  -4.5884  -4.4426
    -4.3243  -4.2515  -4.2004  -4.0936  -3.9887  -3.9045  -3.8170  -3.7039
    -3.4619  -3.3575  -3.2494  -2.9863  -2.3744  -2.2193  -2.1251  -2.0030
    -1.9548  -1.8722  -1.7916  -1.7319  -1.6596  -1.6384  -1.5836  -1.5064
    -1.4233  -1.2634  -1.2269  -1.0746  -0.9682  -0.7283  -0.5769  -0.5424
    -0.3872  -0.3498  -0.2299  -0.0433   0.5495   0.9961   1.3062   1.3463
     1.6317   2.0014   2.2528   2.4954   2.7132   2.8061   2.8885   2.9962
     3.0941   3.1636   3.3930   3.7341   3.8741   4.7159   4.8050   5.2977
     5.5886   5.6297   5.7794   6.3557   6.6051   6.6539   6.7180   6.7492
     6.8146   6.9926   7.1361   7.3546   7.5764   7.7889   7.8795   8.0067
     8.2084   8.3059   8.3656   8.4175   8.5322   8.5727   8.7012   8.7448
     8.9914   9.1557   9.1919   9.2781   9.4946   9.6458   9.7827   9.8294
     9.9405  10.0386  10.1218  10.1564  10.2851  10.3114  10.3711  10.5109
    10.5999  10.6478  10.6897  10.8844  10.9665  11.0964  11.1589  11.2618
    11.3745  11.4520  11.4844  11.5583  11.6848  11.7166  11.7744  11.8278
    11.9351  11.9742  12.1081  12.1342  12.1933  12.3076  12.4505  12.4957
    12.5450  12.5555  12.6321  12.7167  12.7817  12.8646  12.9227  13.0152
    13.0789  13.1343  13.2710  13.3464  13.3734  13.4822  13.4978  13.5836
    13.7434  13.8100  13.9026  13.9782  14.0504  14.1401  14.1780  14.2398
    14.4021  14.4359  14.5031  14.5511  14.5782  14.6987  14.7941  14.8497
    14.9448  14.9925  15.0545  15.1389  15.2983  15.4141  15.5521  15.5750
    15.6191  15.6871  15.7803  15.8127  15.8498  15.9095  15.9721  16.0579
    16.1096  16.1738  16.3080  16.3306  16.3776  16.4599  16.5518  16.6066
    16.6618  16.7277  16.7593  16.8015  16.8445  16.9074  16.9722  17.0166
    17.0981  17.1842  17.2427  17.3504  17.4221  17.4656  17.5015  17.5887
    17.6898  17.7699  17.7831  17.8358  17.9139  17.9630  18.0575  18.1026
    18.2313  18.2469  18.3024  18.3312  18.4356  18.4540  18.5743  18.6255
    18.7145  18.8104  18.8840  18.9610  19.0618  19.1127  19.1610  19.1818
    19.2597  19.3082  19.4352  19.4736  19.5208  19.5469  19.6433  19.7430
    19.8135  19.8620  19.9151  19.9974  20.0724  20.1754  20.2703  20.3213
    20.4425  20.5201  20.5503  20.6281  20.7568  20.8128  20.8635  20.8905
    20.9663  20.9955  21.0924  21.1287  21.1947  21.2672  21.3245  21.3840
    21.4730  21.5341  21.5658  21.5877  21.6481  21.7337  21.8492  21.9323
    21.9816  22.0427  22.0578  22.0970  22.1519

     the Fermi energy is    -1.1265 ev

!    total energy              =   -2163.18770685 Ry
     Harris-Foulkes estimate   =   -2163.18770686 Ry
     estimated scf accuracy    <          4.5E-09 Ry

     The total energy is the sum of the following terms:

     one-electron contribution =  -25068.97447993 Ry
     hartree contribution      =   12554.11359043 Ry
     xc contribution           =    -337.56972845 Ry
     ewald contribution        =   10688.97005562 Ry
     Hubbard energy            =       0.27329468 Ry
     smearing contrib. (-TS)   =      -0.00043920 Ry

     convergence has been achieved in  18 iterations

     Forces acting on atoms (Ry/au):

     negative rho (up, down):  0.580E+00 0.000E+00
     atom    1 type  1   force =    -0.00533660   -0.01053021    0.00044571
     atom    2 type  1   force =     0.00001940    0.00758770    0.00061545
     atom    3 type  2   force =     0.04242680    0.00017352    0.00039494
     atom    4 type  2   force =     0.00363523    0.00567863   -0.00000837
     atom    5 type  1   force =     0.00365479   -0.03336749   -0.00014670
     atom    6 type  1   force =     0.00209365    0.03503144   -0.00022443
     atom    7 type  1   force =     0.00024704   -0.00402036   -0.00069092
     atom    8 type  1   force =     0.00000812   -0.00158743   -0.00060103
     atom    9 type  2   force =    -0.00459563    0.00221250   -0.00037574
     atom   10 type  2   force =    -0.00003452   -0.00090390    0.00047357
     atom   11 type  1   force =    -0.00868924    0.00336154   -0.00008810
     atom   12 type  1   force =    -0.01011308   -0.00435167   -0.00001913
     atom   13 type  1   force =    -0.00148065   -0.00051524   -0.00047345
     atom   14 type  1   force =    -0.00412264   -0.00979885    0.00031038
     atom   15 type  1   force =    -0.00019601    0.00562033    0.00054450
     atom   16 type  2   force =    -0.04283872    0.00112677    0.00041219
     atom   17 type  2   force =     0.00297214    0.00570333    0.00002692
     atom   18 type  1   force =    -0.00057010   -0.03390066   -0.00020692
     atom   19 type  1   force =    -0.00036296    0.03446787   -0.00021231
     atom   20 type  1   force =     0.00010415   -0.00186422   -0.00004912
     atom   21 type  1   force =     0.00007014   -0.00145748   -0.00052022
     atom   22 type  2   force =     0.00608244    0.00215181   -0.00039807
     atom   23 type  2   force =     0.00001657    0.00153686    0.00045707
     atom   24 type  1   force =     0.00875548    0.00342886   -0.00009262
     atom   25 type  1   force =     0.01012237   -0.00431329   -0.00003865
     atom   26 type  1   force =    -0.00166915   -0.00072867   -0.00028384
     atom   27 type  3   force =    -0.00001741   -0.00033136    0.00009824
     atom   28 type  3   force =    -0.00002285   -0.00019298    0.00017468
     atom   29 type  3   force =    -0.00014833   -0.00012318    0.00046363
     atom   30 type  3   force =    -0.00000743   -0.00005695    0.00040732
     atom   31 type  1   force =    -0.00000301   -0.00003721   -0.00039499

     Total force =     0.002095     Total SCF correction =     0.000109

     bfgs converged in   3 scf cycles and   2 bfgs steps
     (criteria: energy < 0.10E-03, force < 0.10E-02)

     End of BFGS Geometry Optimization

     Final energy   =   -2163.1877068520 Ry
Begin final coordinates

ATOMIC_POSITIONS (crystal)
O0       0.000000000   0.000000000   0.378291377    0   0   1
O0       0.000000000   0.500000000   0.403898173    0   0   1
Ru1      0.250000000   0.500000000   0.454838898    0   0   1
Ru1      0.000000000   0.000000000   0.452274267    0   0   1
O0       0.250000000   0.810000000   0.452564612    0   0   1
O0       0.250000000   0.190000000   0.452469406    0   0   1
O0       0.000000000   0.500000000   0.498406503    0   0   1
O0       0.000000000   0.000000000   0.525850778    0   0   1
Ru1      0.250000000   0.000000000   0.576149911    0   0   1
Ru1      0.000000000   0.500000000   0.568936137    0   0   1
O0       0.250000000   0.690000000   0.575270838    0   0   1
O0       0.250000000   0.310000000   0.575094448    0   0   1
O0       0.000000000   0.000000000   0.618111025    0   0   1
O0       0.500000000   0.000000000   0.378242120    0   0   1
O0       0.500000000   0.500000000   0.404507880    0   0   1
Ru1      0.750000000   0.500000000   0.454830601    0   0   1
Ru1      0.500000000   0.000000000   0.452071612    0   0   1
O0       0.750000000   0.810000000   0.452540931    0   0   1
O0       0.750000000   0.190000000   0.452480708    0   0   1
O0       0.500000000   0.500000000   0.502869042    0   0   1
O0       0.500000000   0.000000000   0.525831828    0   0   1
Ru1      0.750000000   0.000000000   0.576161524    0   0   1
Ru1      0.500000000   0.500000000   0.583172480    0   0   1
O0       0.750000000   0.690000000   0.575310262    0   0   1
O0       0.750000000   0.310000000   0.575053256    0   0   1
O0       0.500000000   0.000000000   0.616238355    0   0   1
H2      -0.000263309   0.627019853   0.382658382
H2       0.499574973   0.622588863   0.381824303
H2       0.145091195   0.032319189   0.365597606
H2       0.645974402   0.029345017   0.365618221
O0       0.500050510   0.497382138   0.647804516
End final coordinates

     General routines

     Parallel routines
     Hubbard U routines

   This run was terminated on:  13:13: 5  29Apr2014

   JOB DONE.
Running PBS batch system epilogue script
Job id: 340434.audhumbla.fysik.dtu.dk
Username: zhonxu
Groupname: campgst
Jobname: RuO2/Eads-2-layers/O-U-0.5
Sessionid: 28186
Queuename: verylong
Accounting:
This job has allocated the following 16 nodes:
a096 a096 a096 a096 a096 a096 a096 a096 a039 a039 a039 a039 a039 a039 a039 a039
Finished epilogue job 340434.audhumbla.fysik.dtu.dk for zhonxu