     Program PWSCF v.5.0.2 (svn rev. 9656) starts on  2May2014 at  0:28:35

     Current dimensions of program PWSCF are:
     Max number of different atomic species (ntypx) = 10
     Max number of k-points (npk) =  40000
     Max angular momentum in pseudopotentials (lmaxx) =  3
     Reading input from pwscf.in
Warning: card &CELL ignored
Warning: card / ignored

     Subspace diagonalization in iterative solution of the eigenvalue problem:
     a serial algorithm will be used

     bravais-lattice index     =            0
     lattice parameter (alat)  =      10.1289  a.u.
     unit-cell volume          =    6836.7721 (a.u.)^3
     number of atoms/cell      =           32
     number of atomic types    =            3
     number of electrons       =       239.00
     number of Kohn-Sham states=          358
     kinetic-energy cutoff     =      40.0000  Ry
     charge density cutoff     =     500.0000  Ry
     convergence threshold     =      1.0E-06
     mixing beta               =       0.7000
     number of iterations used =            8  plain     mixing
     Exchange-correlation      = SLA  PW   PBE  PBE ( 1 4 3 4 0)
     EXX-fraction              =        0.00
     nstep                     =           50

     celldm(1)=  10.128932  celldm(2)=   0.000000  celldm(3)=   0.000000
     celldm(4)=   0.000000  celldm(5)=   0.000000  celldm(6)=   0.000000

     crystal axes: (cart. coord. in units of alat)
               a(1) = (   1.000000   0.000000   0.000000 )
               a(2) = (   0.000000   1.306037   0.000000 )
               a(3) = (   0.000000   0.000000   5.037380 )

     reciprocal axes: (cart. coord. in units 2 pi/alat)
               b(1) = (  1.000000  0.000000  0.000000 )
               b(2) = (  0.000000  0.765675  0.000000 )
               b(3) = (  0.000000  0.000000  0.198516 )

     PseudoPot. # 1 for O  read from file:
     /home/camp/zhonxu/pseudo/o_pbe_v1.01.uspp.F.UPF
     MD5 check sum: 2bcb18d16ea4b960afae9ec6d52f22d2
     Pseudo is Ultrasoft + core correction, Zval =  6.0
     Generated by new atomic code, or converted to UPF format
     Using radial grid of  737 points,  5 beta functions with:
                l(1) =   0
                l(2) =   0
                l(3) =   1
                l(4) =   1
                l(5) =   2
     Q(r) pseudized with  8 coefficients,  rinner =    0.900   0.900   0.900
                                                       0.900   0.900

     PseudoPot. # 2 for Re read from file:
     /home/camp/zhonxu/pseudo/re_pbe_v1.uspp.F.UPF
     MD5 check sum: 6f5a5dcaf9c96c20d0ffdde0de57afc6
     Pseudo is Ultrasoft + core correction, Zval = 15.0
     Generated by new atomic code, or converted to UPF format
     Using radial grid of  981 points,  8 beta functions with:
                l(1) =   0
                l(2) =   0
                l(3) =   1
                l(4) =   1
                l(5) =   2
                l(6) =   2
                l(7) =   3
                l(8) =   3
     Q(r) pseudized with  8 coefficients,  rinner =    1.000   1.000   1.000
                                                       1.000   1.000   1.000
                                                       1.000

     PseudoPot. # 3 for H  read from file:
     /home/camp/zhonxu/pseudo/h_pbe_v1.uspp.F.UPF
     MD5 check sum: 3408e3ff4ec8b0a4e358431e7e038a48
     Pseudo is Ultrasoft, Zval =  1.0
     Generated by new atomic code, or converted to UPF format
     Using radial grid of  615 points,  2 beta functions with:
                l(1) =   0
                l(2) =   0
     Q(r) pseudized with  8 coefficients,  rinner =    0.700

     atomic species   valence    mass     pseudopotential
        O0             6.00    15.99940     O ( 1.00)
        Re1           15.00   186.20700     Re( 1.00)
        H2             1.00     1.00794     H ( 1.00)

     Simplified LDA+U calculation (l_max = 2) with parameters (eV):
     atomic species    L          U    alpha       J0     beta
        Re1            2     3.5000   0.0000   0.0000   0.0000

     No symmetry found

   Cartesian axes

     site n.     atom                  positions (alat units)
         1           O0  tau(   1) = (   0.0000000   0.0000000   1.8669538  )
         2           O0  tau(   2) = (   0.0000000   0.6530184   1.9246318  )
         3           Re1 tau(   3) = (   0.2500000   0.6530184   2.2252626  )
         4           Re1 tau(   4) = (   0.0000000   0.0000000   2.2335239  )
         5           O0  tau(   5) = (   0.2500000   1.0187087   2.2252626  )
         6           O0  tau(   6) = (   0.2500000   0.2873281   2.2245574  )
         7           O0  tau(   7) = (   0.0000000   0.6530184   2.5039809  )
         8           O0  tau(   8) = (   0.0000000   0.0000000   2.5944019  )
         9           Re1 tau(   9) = (   0.2500000   0.0000000   2.8956372  )
        10           Re1 tau(  10) = (   0.0000000   0.6530184   2.8532728  )
        11           O0  tau(  11) = (   0.2500000   0.9403465   2.8863684  )
        12           O0  tau(  12) = (   0.2500000   0.3656903   2.8866706  )
        13           O0  tau(  13) = (   0.0000000   0.0000000   3.1589410  )
        14           O0  tau(  14) = (   0.5000000   0.0000000   1.8671553  )
        15           O0  tau(  15) = (   0.5000000   0.6530184   1.9260926  )
        16           Re1 tau(  16) = (   0.7500000   0.6530184   2.2254138  )
        17           Re1 tau(  17) = (   0.5000000   0.0000000   2.2327683  )
        18           O0  tau(  18) = (   0.7500000   1.0187087   2.2250108  )
        19           O0  tau(  19) = (   0.7500000   0.2873281   2.2249100  )
        20           O0  tau(  20) = (   0.5000000   0.6530184   2.5136527  )
        21           O0  tau(  21) = (   0.5000000   0.0000000   2.5937470  )
        22           Re1 tau(  22) = (   0.7500000   0.0000000   2.8949319  )
        23           Re1 tau(  23) = (   0.5000000   0.6530184   2.8846557  )
        24           O0  tau(  24) = (   0.7500000   0.9403465   2.8822881  )
        25           O0  tau(  25) = (   0.7500000   0.3656903   2.8822881  )
        26           O0  tau(  26) = (   0.5000000   0.0000000   3.1556667  )
        27           H2  tau(  27) = (  -0.0003600   0.8163644   1.8395505  )
        28           H2  tau(  28) = (   0.4996200   0.8138568   1.8363769  )
        29           H2  tau(  29) = (   0.1695000   0.0302217   1.7958260  )
        30           H2  tau(  30) = (   0.6704500   0.0285761   1.7967327  )
        31           O0  tau(  31) = (   0.5277600   0.6525874   3.2436194  )
        32           H2  tau(  32) = (   0.3788200   0.6519344   3.3501096  )

     number of k points=    10  Methfessel-Paxton smearing, width (Ry)=  0.0100
                       cart. coord. in units 2pi/alat
        k(    1) = (   0.0000000   0.0000000   0.0000000), wk =   0.1250000
        k(    2) = (   0.0000000   0.1914188   0.0000000), wk =   0.2500000
        k(    3) = (   0.0000000  -0.3828376   0.0000000), wk =   0.1250000
        k(    4) = (   0.2500000   0.0000000   0.0000000), wk =   0.2500000
        k(    5) = (   0.2500000   0.1914188   0.0000000), wk =   0.2500000
        k(    6) = (   0.2500000  -0.3828376   0.0000000), wk =   0.2500000
        k(    7) = (  -0.5000000   0.0000000   0.0000000), wk =   0.1250000
        k(    8) = (  -0.5000000   0.1914188   0.0000000), wk =   0.2500000
        k(    9) = (  -0.5000000  -0.3828376   0.0000000), wk =   0.1250000
        k(   10) = (  -0.2500000   0.1914188   0.0000000), wk =   0.2500000

     Largest allocated arrays     est. size (Mb)     dimensions
     Largest temporary arrays     est. size (Mb)     dimensions

     Check: negative/imaginary core charge=   -0.000003    0.000000

     Initial potential from superposition of free atoms
     Check: negative starting charge=   -0.237247

     starting charge  234.99957, renormalised to  239.00000

     negative rho (up, down):  0.241E+00 0.000E+00
     Number of +U iterations with fixed ns =  0
     Starting occupations:
 --- enter write_ns ---
 LDA+U parameters:
U( 2)     =  3.50000000
alpha( 2) =  0.00000000
atom    3   Tr[ns(na)] =   5.00000
    eigenvalues:
  0.500  0.500  0.500  0.500  0.500
    eigenvectors:
  1.000  0.000  0.000  0.000  0.000
  0.000  1.000  0.000  0.000  0.000
  0.000  0.000  1.000  0.000  0.000
  0.000  0.000  0.000  1.000  0.000
  0.000  0.000  0.000  0.000  1.000
    occupations:
  0.500  0.000  0.000  0.000  0.000
  0.000  0.500  0.000  0.000  0.000
  0.000  0.000  0.500  0.000  0.000
  0.000  0.000  0.000  0.500  0.000
  0.000  0.000  0.000  0.000  0.500
atom    4   Tr[ns(na)] =   5.00000
    eigenvalues:
  0.500  0.500  0.500  0.500  0.500
    eigenvectors:
  1.000  0.000  0.000  0.000  0.000
  0.000  1.000  0.000  0.000  0.000
  0.000  0.000  1.000  0.000  0.000
  0.000  0.000  0.000  1.000  0.000
  0.000  0.000  0.000  0.000  1.000
    occupations:
  0.500  0.000  0.000  0.000  0.000
  0.000  0.500  0.000  0.000  0.000
  0.000  0.000  0.500  0.000  0.000
  0.000  0.000  0.000  0.500  0.000
  0.000  0.000  0.000  0.000  0.500
atom    9   Tr[ns(na)] =   5.00000
    eigenvalues:
  0.500  0.500  0.500  0.500  0.500
    eigenvectors:
  1.000  0.000  0.000  0.000  0.000
  0.000  1.000  0.000  0.000  0.000
  0.000  0.000  1.000  0.000  0.000
  0.000  0.000  0.000  1.000  0.000
  0.000  0.000  0.000  0.000  1.000
    occupations:
  0.500  0.000  0.000  0.000  0.000
  0.000  0.500  0.000  0.000  0.000
  0.000  0.000  0.500  0.000  0.000
  0.000  0.000  0.000  0.500  0.000
  0.000  0.000  0.000  0.000  0.500
atom   10   Tr[ns(na)] =   5.00000
    eigenvalues:
  0.500  0.500  0.500  0.500  0.500
    eigenvectors:
  1.000  0.000  0.000  0.000  0.000
  0.000  1.000  0.000  0.000  0.000
  0.000  0.000  1.000  0.000  0.000
  0.000  0.000  0.000  1.000  0.000
  0.000  0.000  0.000  0.000  1.000
    occupations:
  0.500  0.000  0.000  0.000  0.000
  0.000  0.500  0.000  0.000  0.000
  0.000  0.000  0.500  0.000  0.000
  0.000  0.000  0.000  0.500  0.000
  0.000  0.000  0.000  0.000  0.500
atom   16   Tr[ns(na)] =   5.00000
    eigenvalues:
  0.500  0.500  0.500  0.500  0.500
    eigenvectors:
  1.000  0.000  0.000  0.000  0.000
  0.000  1.000  0.000  0.000  0.000
  0.000  0.000  1.000  0.000  0.000
  0.000  0.000  0.000  1.000  0.000
  0.000  0.000  0.000  0.000  1.000
    occupations:
  0.500  0.000  0.000  0.000  0.000
  0.000  0.500  0.000  0.000  0.000
  0.000  0.000  0.500  0.000  0.000
  0.000  0.000  0.000  0.500  0.000
  0.000  0.000  0.000  0.000  0.500
atom   17   Tr[ns(na)] =   5.00000
    eigenvalues:
  0.500  0.500  0.500  0.500  0.500
    eigenvectors:
  1.000  0.000  0.000  0.000  0.000
  0.000  1.000  0.000  0.000  0.000
  0.000  0.000  1.000  0.000  0.000
  0.000  0.000  0.000  1.000  0.000
  0.000  0.000  0.000  0.000  1.000
    occupations:
  0.500  0.000  0.000  0.000  0.000
  0.000  0.500  0.000  0.000  0.000
  0.000  0.000  0.500  0.000  0.000
  0.000  0.000  0.000  0.500  0.000
  0.000  0.000  0.000  0.000  0.500
atom   22   Tr[ns(na)] =   5.00000
    eigenvalues:
  0.500  0.500  0.500  0.500  0.500
    eigenvectors:
  1.000  0.000  0.000  0.000  0.000
[...]
  0.715 -0.000 -0.001 -0.070  0.001
 -0.000  0.607  0.000  0.000  0.000
 -0.001  0.000  0.606  0.001 -0.008
 -0.070  0.000  0.001  0.634 -0.001
  0.001  0.000 -0.008 -0.001  0.720
atom   10   Tr[ns(na)] =   6.52752
    eigenvalues:
  0.484  0.536  0.643  0.759  0.842
    eigenvectors:
  0.998  0.000  0.000  0.001  0.000
  0.000  0.000  0.000  0.000  0.999
  0.000  0.000  1.000  0.000  0.000
  0.001  0.000  0.000  0.999  0.000
  0.000  1.000  0.000  0.000  0.000
    occupations:
  0.484 -0.008 -0.000 -0.009 -0.000
 -0.008  0.842  0.001 -0.000  0.001
 -0.000  0.001  0.643 -0.000  0.000
 -0.009 -0.000 -0.000  0.759 -0.000
 -0.000  0.001  0.000 -0.000  0.536
atom   16   Tr[ns(na)] =   6.58741
    eigenvalues:
  0.539  0.569  0.604  0.769  0.813
    eigenvectors:
  0.000  0.344  0.002  0.653  0.000
  0.999  0.000  0.000  0.000  0.001
  0.000  0.002  0.989  0.008  0.000
  0.000  0.654  0.008  0.338  0.000
  0.001  0.000  0.000  0.000  0.999
    occupations:
  0.700  0.003  0.013 -0.094 -0.001
  0.003  0.539 -0.001 -0.002 -0.008
  0.013 -0.001  0.605 -0.008  0.003
 -0.094 -0.002 -0.008  0.637  0.001
 -0.001 -0.008  0.003  0.001  0.813
atom   17   Tr[ns(na)] =   6.55678
    eigenvalues:
  0.570  0.603  0.609  0.711  0.784
    eigenvectors:
  0.000  0.002  0.985  0.001  0.012
  0.000  0.005  0.001  0.994  0.000
  0.000  0.993  0.002  0.005  0.000
  0.000  0.000  0.012  0.000  0.988
  1.000  0.000  0.000  0.000  0.000
    occupations:
  0.611  0.003  0.000 -0.019  0.001
  0.003  0.711  0.008 -0.000 -0.002
  0.000  0.008  0.604  0.001 -0.000
 -0.019 -0.000  0.001  0.782 -0.000
  0.001 -0.002 -0.000 -0.000  0.570
atom   22   Tr[ns(na)] =   6.56140
    eigenvalues:
  0.593  0.602  0.605  0.721  0.759
    eigenvectors:
  0.253  0.000  0.000  0.005  0.742
  0.000  0.010  0.989  0.000  0.000
  0.000  0.987  0.010  0.003  0.000
  0.746  0.000  0.000  0.001  0.252
  0.000  0.003  0.000  0.991  0.006
    occupations:
  0.717  0.000 -0.001 -0.072  0.003
  0.000  0.605  0.000 -0.000  0.000
 -0.001  0.000  0.603  0.001  0.006
 -0.072 -0.000  0.001  0.635 -0.002
  0.003  0.000  0.006 -0.002  0.721
atom   23   Tr[ns(na)] =   6.55277
    eigenvalues:
  0.529  0.554  0.596  0.790  0.806
    eigenvectors:
  0.000  0.000  0.995  0.004  0.001
  0.000  0.000  0.001  0.006  0.993
  0.998  0.002  0.000  0.000  0.000
  0.000  0.000  0.004  0.991  0.006
  0.002  0.998  0.000  0.000  0.000
    occupations:
  0.597  0.007 -0.001 -0.012  0.000
  0.007  0.806  0.000  0.002  0.002
 -0.001  0.000  0.529  0.001 -0.001
 -0.012  0.002  0.001  0.790 -0.000
  0.000  0.002 -0.001 -0.000  0.554
N of occupied +U levels =  52.4999298
 --- exit write_ns ---

     Threshold (ethr) on eigenvalues was too large:
     Diagonalizing with lowered threshold

     Davidson diagonalization with overlap
     ethr =  4.71E-09,  avg # of iterations =  2.0

[...]

     total energy              =   -2174.30691711 Ry
     Harris-Foulkes estimate   =   -2174.30691711 Ry
     estimated scf accuracy    <       0.00000003 Ry

     iteration # 16     ecut=    40.00 Ry     beta=0.70
     Davidson diagonalization with overlap
     ethr =  5.20E-12,  avg # of iterations =  1.0

     negative rho (up, down):  0.241E+00 0.000E+00

     End of self-consistent calculation
 --- enter write_ns ---
 LDA+U parameters:
U( 2)     =  3.50000000
alpha( 2) =  0.00000000
atom    3   Tr[ns(na)] =   6.58699
    eigenvalues:
  0.540  0.569  0.601  0.770  0.814
    eigenvectors:
  0.000  0.343  0.003  0.654  0.000
  0.999  0.000  0.000  0.000  0.001
  0.000  0.002  0.989  0.009  0.000
  0.000  0.655  0.008  0.337  0.000
  0.001  0.000  0.000  0.000  0.999
    occupations:
  0.700 -0.003  0.014 -0.094  0.001
 -0.003  0.540  0.001  0.002 -0.008
  0.014  0.001  0.602 -0.008 -0.002
 -0.094  0.002 -0.008  0.637 -0.000
  0.001 -0.008 -0.002 -0.000  0.814
atom    4   Tr[ns(na)] =   6.56487
    eigenvalues:
  0.569  0.606  0.612  0.716  0.779
    eigenvectors:
  0.000  0.984  0.002  0.001  0.013
  0.000  0.001  0.008  0.992  0.000
  0.000  0.002  0.991  0.007  0.000
  0.000  0.013  0.000  0.000  0.987
  0.999  0.000  0.000  0.000  0.000
    occupations:
  0.609  0.003  0.000 -0.020  0.001
  0.003  0.715  0.009 -0.000 -0.002
  0.000  0.009  0.613  0.001 -0.000
 -0.020 -0.000  0.001  0.777 -0.000
  0.001 -0.002 -0.000 -0.000  0.569
atom    9   Tr[ns(na)] =   6.56306
    eigenvalues:
  0.594  0.605  0.607  0.720  0.755
    eigenvectors:
  0.251  0.000  0.000  0.002  0.747
  0.000  0.002  0.997  0.000  0.000
  0.000  0.993  0.002  0.005  0.000
  0.748  0.000  0.000  0.000  0.251
  0.000  0.005  0.000  0.992  0.003
    occupations:
  0.715 -0.000 -0.001 -0.070  0.001
 -0.000  0.607  0.000  0.000  0.000
 -0.001  0.000  0.606  0.001 -0.008
 -0.070  0.000  0.001  0.634 -0.001
  0.001  0.000 -0.008 -0.001  0.720
atom   10   Tr[ns(na)] =   6.52657
    eigenvalues:
  0.484  0.536  0.642  0.759  0.842
    eigenvectors:
  0.998  0.000  0.000  0.001  0.000
  0.000  0.000  0.000  0.000  0.999
  0.000  0.000  1.000  0.000  0.000
  0.001  0.000  0.000  0.999  0.000
  0.000  1.000  0.000  0.000  0.000
    occupations:
  0.484 -0.008 -0.000 -0.009 -0.000
 -0.008  0.842  0.001 -0.000  0.001
 -0.000  0.001  0.642 -0.000  0.000
 -0.009 -0.000 -0.000  0.759 -0.000
 -0.000  0.001  0.000 -0.000  0.536
atom   16   Tr[ns(na)] =   6.58800
    eigenvalues:
  0.539  0.569  0.604  0.769  0.814
    eigenvectors:
  0.000  0.344  0.002  0.653  0.000
  0.999  0.000  0.000  0.000  0.001
  0.000  0.002  0.989  0.008  0.000
  0.000  0.654  0.008  0.338  0.000
  0.001  0.000  0.000  0.000  0.999
    occupations:
  0.700  0.003  0.013 -0.094 -0.001
  0.003  0.539 -0.001 -0.002 -0.008
  0.013 -0.001  0.605 -0.008  0.003
 -0.094 -0.002 -0.008  0.637  0.001
 -0.001 -0.008  0.003  0.001  0.813
atom   17   Tr[ns(na)] =   6.55681
    eigenvalues:
  0.570  0.603  0.609  0.711  0.784
    eigenvectors:
  0.000  0.002  0.984  0.001  0.012
  0.000  0.005  0.001  0.994  0.000
  0.000  0.993  0.002  0.005  0.000
  0.000  0.000  0.012  0.000  0.988
  1.000  0.000  0.000  0.000  0.000
    occupations:
  0.611  0.003  0.000 -0.019  0.001
  0.003  0.711  0.008 -0.000 -0.002
  0.000  0.008  0.604  0.001 -0.000
 -0.019 -0.000  0.001  0.782 -0.000
  0.001 -0.002 -0.000 -0.000  0.570
atom   22   Tr[ns(na)] =   6.56133
    eigenvalues:
  0.593  0.602  0.605  0.721  0.759
    eigenvectors:
  0.253  0.000  0.000  0.005  0.742
  0.000  0.010  0.989  0.000  0.000
  0.000  0.987  0.010  0.003  0.000
  0.746  0.000  0.000  0.001  0.252
  0.000  0.003  0.000  0.991  0.006
    occupations:
  0.717  0.000 -0.001 -0.072  0.003
  0.000  0.605  0.000 -0.000  0.000
 -0.001  0.000  0.603  0.001  0.006
 -0.072 -0.000  0.001  0.635 -0.002
  0.003  0.000  0.006 -0.002  0.721
atom   23   Tr[ns(na)] =   6.55175
    eigenvalues:
  0.529  0.554  0.596  0.790  0.806
    eigenvectors:
  0.000  0.000  0.995  0.004  0.001
  0.000  0.000  0.001  0.006  0.993
  0.998  0.002  0.000  0.000  0.000
  0.000  0.000  0.004  0.991  0.006
  0.002  0.998  0.000  0.000  0.000
    occupations:
  0.597  0.007 -0.001 -0.012  0.000
  0.007  0.806  0.000  0.002  0.002
 -0.001  0.000  0.529  0.001 -0.001
 -0.012  0.002  0.001  0.790 -0.000
  0.000  0.002 -0.001 -0.000  0.554
N of occupied +U levels =  52.4993723
 --- exit write_ns ---

[...]

          k = 0.2500-0.3828 0.0000 ( 29202 PWs)   bands (ev):

[...]

          k =-0.2500 0.1914 0.0000 ( 29229 PWs)   bands (ev):

   -81.1205 -81.0289 -80.9077 -80.8670 -80.8470 -80.5262 -80.5104 -80.4872
   -43.1872 -43.0735 -43.0497 -43.0320 -42.9584 -42.9475 -42.9073 -42.9041
   -42.8574 -42.7762 -42.7645 -42.6993 -42.6574 -42.6508 -42.5644 -42.5497
   -42.5364 -42.5206 -42.5159 -42.4476 -42.4131 -42.3857 -42.0588 -41.9415
   -20.7881 -20.3411 -20.2876 -20.1665 -20.0798 -19.8419 -19.7781 -19.7316
   -19.5888 -19.5726 -19.4334 -19.3347 -19.2691 -19.0924 -19.0583 -19.0134
   -18.9200 -18.3579 -18.0698  -9.0215  -8.7719  -8.6896  -8.6552  -8.5775
    -8.3535  -8.3150  -8.2074  -8.0860  -7.9678  -7.8830  -7.8164  -7.6000
    -7.4112  -7.3564  -7.0648  -6.8798  -6.7398  -6.6444  -6.5738  -6.5195
    -6.3837  -6.1192  -6.0258  -5.8427  -5.7636  -5.7193  -5.5317  -5.4556
    -5.3491  -5.1723  -4.9976  -4.9661  -4.8722  -4.8043  -4.7589  -4.7224
    -4.6177  -4.5747  -4.5028  -4.3917  -4.1440  -3.9725  -3.8906  -3.8010
    -3.7268  -3.6470  -3.5708  -3.3872  -3.3458  -3.2824  -3.1917  -3.0658
    -2.8381  -2.7553  -2.6754  -2.5305  -2.2650  -2.0900  -1.9954  -1.2551
    -1.0370  -0.9980  -0.8557  -0.1543  -0.0992   0.2980   0.3873   0.5459
     0.6447   0.8262   0.8822   1.1572   1.3545   1.4332   1.5161   1.5895
     1.7263   1.8257   1.8656   2.1959   2.4809   3.7335   3.7736   3.8794
     3.9285   4.0914   4.1612   4.4128   4.5898   4.6538   4.8155   4.9464
     5.0012   5.2484   5.3496   5.6483   5.8707   5.9681   6.1275   6.3287
     6.4766   6.5658   6.7365   6.8642   7.0015   7.1342   7.3031   7.5266
     7.6942   7.7575   7.9420   8.0895   8.2693   8.3869   8.4883   8.5874
     8.6599   8.7407   8.9752   9.0316   9.1329   9.3890   9.4164   9.5950
     9.6446   9.6916   9.8272   9.9074   9.9442   9.9913  10.1042  10.2172
    10.2396  10.3725  10.4087  10.4962  10.5776  10.7365  10.7733  10.8693
    11.0077  11.1198  11.2004  11.3010  11.4583  11.5828  11.6825  11.7395
    11.8188  11.9500  12.0462  12.2140  12.3424  12.4904  12.5904  12.6117
    12.6724  12.7720  12.8102  12.8948  12.9553  13.0385  13.1039  13.2303
    13.2957  13.4203  13.5126  13.6467  13.6776  13.7532  13.8227  13.8827
    13.9484  13.9686  14.0603  14.1132  14.1432  14.2573  14.3570  14.4048
    14.4947  14.5320  14.5847  14.6879  14.7100  14.8102  14.8594  14.9091
    14.9636  14.9901  15.0163  15.0966  15.1468  15.2178  15.3172  15.4296
    15.5370  15.6205  15.6461  15.7380  15.8461  15.9561  16.0744  16.1527
    16.1841  16.2423  16.3209  16.4716  16.5468  16.5854  16.6063  16.7074
    16.7855  16.8772  16.9532  17.0268  17.1162  17.2075  17.2702  17.2840
    17.3650  17.4970  17.6083  17.6598  17.7285  17.7957  17.8321  17.9531
    17.9920  18.0255  18.1324  18.2055  18.2715  18.2993  18.4080  18.4783
    18.5522  18.5931  18.6489  18.7036  18.7701  18.8624  18.9239  19.0494
    19.1017  19.2274  19.3162  19.3790  19.4814  19.5685  19.6308  19.6836
    19.7598  19.8439  19.9539  20.0240  20.1599  20.2110  20.2667  20.3437
    20.4688  20.5238  20.5917  20.6377  20.6957  20.7698  20.8073  20.8488
    20.8954  20.9552  20.9814  21.1088  21.1568  21.1943  21.2502  21.3283
    21.4038  21.4766  21.5194  21.6179  21.6626  21.7190  21.7784  21.8489
    21.9372  21.9966  22.0884  22.1420  22.2189  22.2592  22.3348  22.3425
    22.4010  22.4401  22.5003  22.5414  22.6250  22.6587  22.7020  22.7358
    22.8073  22.8541  22.8800  22.9572  22.9813  23.0858

     the Fermi energy is     0.4573 ev

!    total energy              =   -2174.30691711 Ry
     Harris-Foulkes estimate   =   -2174.30691711 Ry
     estimated scf accuracy    <          3.6E-09 Ry

     The total energy is the sum of the following terms:

     one-electron contribution =  -24306.86206315 Ry
     hartree contribution      =   12172.19144544 Ry
     xc contribution           =    -595.10668090 Ry
     ewald contribution        =   10553.24991321 Ry
     Hubbard energy            =       2.21983676 Ry
     smearing contrib. (-TS)   =       0.00063154 Ry

     convergence has been achieved in  16 iterations

     Forces acting on atoms (Ry/au):

     negative rho (up, down):  0.241E+00 0.000E+00
     atom    1 type  1   force =    -0.00630775   -0.00669394   -0.00023849
     atom    2 type  1   force =     0.00009464    0.00483085   -0.00034017
     atom    3 type  2   force =     0.03010618   -0.00336808    0.00008261
     atom    4 type  2   force =     0.00171247    0.00682353    0.00002057
     atom    5 type  1   force =     0.00243268    0.00626054    0.00023606
     atom    6 type  1   force =     0.00098081   -0.00617645    0.00030198
     atom    7 type  1   force =     0.00355721   -0.00021522    0.00052370
     atom    8 type  1   force =     0.00342927   -0.00187306   -0.00043806
     atom    9 type  2   force =    -0.02732332    0.00191445   -0.00000385
     atom   10 type  2   force =    -0.00819492   -0.00126314    0.00018888
     atom   11 type  1   force =    -0.00757167   -0.00080368    0.00002698
     atom   12 type  1   force =    -0.00756770    0.00160600    0.00001419
     atom   13 type  1   force =    -0.00020251   -0.00018435    0.00020827
     atom   14 type  1   force =    -0.00269004   -0.00578463    0.00002948
     atom   15 type  1   force =     0.00024194    0.00330335   -0.00057745
     atom   16 type  2   force =    -0.03072943   -0.00305858    0.00007596
     atom   17 type  2   force =     0.00146320    0.00710230   -0.00007813
     atom   18 type  1   force =     0.00107982    0.00652812    0.00025685
     atom   19 type  1   force =    -0.00064393   -0.00658826    0.00032565
     atom   20 type  1   force =    -0.00264365   -0.00205890    0.00003344
     atom   21 type  1   force =     0.00168578   -0.00148845   -0.00023002
     atom   22 type  2   force =     0.02283598    0.00194870    0.00017013
     atom   23 type  2   force =     0.00117126   -0.00069536    0.00015670
     atom   24 type  1   force =     0.01074162    0.00081651   -0.00001616
     atom   25 type  1   force =     0.01078692   -0.00051312    0.00000098
     atom   26 type  1   force =     0.00061854   -0.00098198   -0.00005377
     atom   27 type  3   force =     0.00000419    0.00035225    0.00009577
     atom   28 type  3   force =    -0.00001203    0.00032776   -0.00029216
     atom   29 type  3   force =     0.00054058    0.00016265    0.00033036
     atom   30 type  3   force =     0.00048676   -0.00010342    0.00042519
     atom   31 type  1   force =    -0.00004718   -0.00003021   -0.00073435
     atom   32 type  3   force =    -0.00003574   -0.00009618   -0.00050114

     Total force =     0.001868     Total SCF correction =     0.000218
     SCF correction compared to forces is large: reduce conv_thr to get better values

     bfgs converged in   8 scf cycles and   7 bfgs steps
     (criteria: energy < 0.10E-03, force < 0.10E-02)

     End of BFGS Geometry Optimization

     Final energy   =   -2174.3069171079 Ry
Begin final coordinates

ATOMIC_POSITIONS (crystal)
O0       0.000000000   0.000000000   0.371262253    0   0   1
O0       0.000000000   0.500000000   0.382360402    0   0   1
Re1      0.250000000   0.500000000   0.441942020    0   0   1
Re1      0.000000000   0.000000000   0.443697025    0   0   1
O0       0.250000000   0.780000000   0.442046661    0   0   1
O0       0.250000000   0.220000000   0.441801036    0   0   1
O0       0.000000000   0.500000000   0.496925750    0   0   1
O0       0.000000000   0.000000000   0.514709866    0   0   1
Re1      0.250000000   0.000000000   0.574724260    0   0   1
Re1      0.000000000   0.500000000   0.565886378    0   0   1
O0       0.250000000   0.720000000   0.572472557    0   0   1
O0       0.250000000   0.280000000   0.572578954    0   0   1
O0       0.000000000   0.000000000   0.626922144    0   0   1
O0       0.500000000   0.000000000   0.371244439    0   0   1
O0       0.500000000   0.500000000   0.382854418    0   0   1
Re1      0.750000000   0.500000000   0.441945157    0   0   1
Re1      0.500000000   0.000000000   0.443412110    0   0   1
O0       0.750000000   0.780000000   0.441968132    0   0   1
O0       0.750000000   0.220000000   0.441887306    0   0   1
O0       0.500000000   0.500000000   0.499199947    0   0   1
O0       0.500000000   0.000000000   0.514567516    0   0   1
Re1      0.750000000   0.000000000   0.574472897    0   0   1
Re1      0.500000000   0.500000000   0.572707447    0   0   1
O0       0.750000000   0.720000000   0.571734778    0   0   1
O0       0.750000000   0.280000000   0.571706586    0   0   1
O0       0.500000000   0.000000000   0.626184108    0   0   1
H2      -0.000335699   0.624549242   0.365305076
H2       0.499595531   0.622025789   0.364631783
H2       0.168443720   0.023114469   0.356668948
H2       0.669802988   0.021514980   0.356886252
O0       0.527649600   0.499578226   0.643532132
H2       0.378919093   0.499068609   0.664791663
End final coordinates

     General routines

     Parallel routines
     Hubbard U routines

   This run was terminated on:  13:49:36   2May2014

   JOB DONE.
Running PBS batch system epilogue script
Job id: 340627.audhumbla.fysik.dtu.dk
Username: zhonxu
Groupname: campgst
Jobname: ReO2/Eads-2-layers/OH-U-3.5
Sessionid: 28060
Queuename: verylong
Accounting:
This job has allocated the following 16 nodes:
a065 a065 a065 a065 a065 a065 a065 a065 a025 a025 a025 a025 a025 a025 a025 a025
Finished epilogue job 340627.audhumbla.fysik.dtu.dk for zhonxu