     Program PWSCF v.5.0.2 (svn rev. 9656) starts on 15Mar2014 at  7:53:17

     Current dimensions of program PWSCF are:
     Max number of different atomic species (ntypx) = 10
     Max number of k-points (npk) =  40000
     Max angular momentum in pseudopotentials (lmaxx) =  3
     Reading input from pwscf.in
Warning: card &CELL ignored
Warning: card / ignored

     Subspace diagonalization in iterative solution of the eigenvalue problem:
     a serial algorithm will be used

     Found symmetry operation: I + ( -0.5000  0.0000  0.0000)
     This is a supercell, fractional translations are disabled

     bravais-lattice index     =            0
     lattice parameter (alat)  =      10.9604  a.u.
     unit-cell volume          =    8672.0454 (a.u.)^3
     number of atoms/cell      =           48
     number of atomic types    =            2
     number of electrons       =       416.00
     number of Kohn-Sham states=          600
     kinetic-energy cutoff     =      40.0000  Ry
     charge density cutoff     =     500.0000  Ry
     convergence threshold     =      1.0E-06
     mixing beta               =       0.3000
     number of iterations used =            8  plain     mixing
     Exchange-correlation      = SLA  PW   PBE  PBE ( 1 4 3 4 0)
     EXX-fraction              =        0.00
     nstep                     =           50

     celldm(1)=  10.960412  celldm(2)=   0.000000  celldm(3)=   0.000000
     celldm(4)=   0.000000  celldm(5)=   0.000000  celldm(6)=   0.000000

     crystal axes: (cart. coord. in units of alat)
               a(1) = (   1.000000   0.000000   0.000000 )
               a(2) = (   0.000000   1.067975   0.000000 )
               a(3) = (   0.000000   0.000000   6.167084 )

     reciprocal axes: (cart. coord. in units 2 pi/alat)
               b(1) = (  1.000000  0.000000  0.000000 )
               b(2) = (  0.000000  0.936351  0.000000 )
               b(3) = (  0.000000  0.000000  0.162151 )

     PseudoPot. # 1 for O  read from file:
     /home/camp/zhonxu/pseudo/o_pbe_v1.01.uspp.F.UPF
     MD5 check sum: 2bcb18d16ea4b960afae9ec6d52f22d2
     Pseudo is Ultrasoft + core correction, Zval =  6.0
     Generated by new atomic code, or converted to UPF format
     Using radial grid of  737 points,  5 beta functions with:
                l(1) =   0
                l(2) =   0
                l(3) =   1
                l(4) =   1
                l(5) =   2
     Q(r) pseudized with  8 coefficients,  rinner =    0.900   0.900   0.900
                                                       0.900   0.900

     PseudoPot. # 2 for Cr read from file:
     /home/camp/zhonxu/pseudo/cr_pbe_v1.uspp.F.UPF
     MD5 check sum: 68b6f918d1762dccfb11451fe85b0e0e
     Pseudo is Ultrasoft + core correction, Zval = 14.0
     Generated by new atomic code, or converted to UPF format
     Using radial grid of  857 points,  6 beta functions with:
                l(1) =   0
                l(2) =   0
                l(3) =   1
                l(4) =   1
                l(5) =   2
                l(6) =   2
     Q(r) pseudized with  6 coefficients,  rinner =    1.000   1.000   1.000
                                                       1.000   1.000

     atomic species   valence    mass     pseudopotential
        O0             6.00    15.99940     O ( 1.00)
        Cr1           14.00    51.99600     Cr( 1.00)

     Starting magnetic structure
     atomic species   magnetization
        O0           0.000
        Cr1          0.600

      4 Sym. Ops. (no inversion) found

   Cartesian axes

     site n.     atom                  positions (alat units)
         1           O0  tau(   1) = (   0.0000000   0.5339875   2.0689949  )
         2           Cr1 tau(   2) = (   0.2500000   0.5339875   2.2825610  )
         3           Cr1 tau(   3) = (   0.0000000   0.0000000   2.2825610  )
         4           O0  tau(   4) = (   0.2500000   0.8543801   2.2825610  )
         5           O0  tau(   5) = (   0.2500000   0.2135950   2.2825610  )
         6           O0  tau(   6) = (   0.0000000   0.5339875   2.4961271  )
         7           O0  tau(   7) = (   0.0000000   0.0000000   2.6029410  )
         8           Cr1 tau(   8) = (   0.2500000   0.0000000   2.8165688  )
         9           Cr1 tau(   9) = (   0.0000000   0.5339875   2.8165688  )
        10           O0  tau(  10) = (   0.2500000   0.7475825   2.8165688  )
        11           O0  tau(  11) = (   0.2500000   0.3203925   2.8165688  )
        12           O0  tau(  12) = (   0.0000000   0.0000000   3.0301349  )
        13           O0  tau(  13) = (   0.0000000   0.5339875   3.1450277  )
        14           Cr1 tau(  14) = (   0.2500000   0.5339875   3.3511316  )
        15           Cr1 tau(  15) = (   0.0000000   0.0000000   3.3744432  )
        16           O0  tau(  16) = (   0.2500000   0.8574024   3.3644525  )
        17           O0  tau(  17) = (   0.2500000   0.2105726   3.3644525  )
        18           O0  tau(  18) = (   0.0000000   0.5339875   3.5746267  )
        19           O0  tau(  19) = (   0.0000000   0.0000000   3.6980300  )
        20           Cr1 tau(  20) = (   0.2500000   0.0000000   3.9358945  )
        21           Cr1 tau(  21) = (   0.0000000   0.5339875   3.8795890  )
        22           O0  tau(  22) = (   0.2500000   0.7370630   3.9323792  )
        23           O0  tau(  23) = (   0.2500000   0.3309121   3.9323792  )
        24           O0  tau(  24) = (   0.0000000   0.0000000   4.1174534  )
        25           O0  tau(  25) = (   0.5000000   0.5339875   2.0689949  )
        26           Cr1 tau(  26) = (   0.7500000   0.5339875   2.2825610  )
        27           Cr1 tau(  27) = (   0.5000000   0.0000000   2.2825610  )
        28           O0  tau(  28) = (   0.7500000   0.8543801   2.2825610  )
        29           O0  tau(  29) = (   0.7500000   0.2135950   2.2825610  )
        30           O0  tau(  30) = (   0.5000000   0.5339875   2.4961271  )
        31           O0  tau(  31) = (   0.5000000   0.0000000   2.6029410  )
        32           Cr1 tau(  32) = (   0.7500000   0.0000000   2.8165688  )
        33           Cr1 tau(  33) = (   0.5000000   0.5339875   2.8165688  )
        34           O0  tau(  34) = (   0.7500000   0.7475825   2.8165688  )
        35           O0  tau(  35) = (   0.7500000   0.3203925   2.8165688  )
        36           O0  tau(  36) = (   0.5000000   0.0000000   3.0301349  )
        37           O0  tau(  37) = (   0.5000000   0.5339875   3.1450277  )
        38           Cr1 tau(  38) = (   0.7500000   0.5339875   3.3511316  )
        39           Cr1 tau(  39) = (   0.5000000   0.0000000   3.3744432  )
        40           O0  tau(  40) = (   0.7500000   0.8574024   3.3644525  )
        41           O0  tau(  41) = (   0.7500000   0.2105726   3.3644525  )
        42           O0  tau(  42) = (   0.5000000   0.5339875   3.5746267  )
        43           O0  tau(  43) = (   0.5000000   0.0000000   3.6980300  )
        44           Cr1 tau(  44) = (   0.7500000   0.0000000   3.9358945  )
        45           Cr1 tau(  45) = (   0.5000000   0.5339875   3.8795890  )
        46           O0  tau(  46) = (   0.7500000   0.7370630   3.9323792  )
        47           O0  tau(  47) = (   0.7500000   0.3309121   3.9323792  )
        48           O0  tau(  48) = (   0.5000000   0.0000000   4.1174534  )

     number of k points=    18  Methfessel-Paxton smearing, width (Ry)=  0.0100
                       cart. coord. in units 2pi/alat
        k(    1) = (   0.0000000   0.0000000   0.0000000), wk =   0.0625000
        k(    2) = (   0.0000000   0.2340879   0.0000000), wk =   0.1250000
        k(    3) = (   0.0000000  -0.4681757   0.0000000), wk =   0.0625000
        k(    4) = (   0.2500000   0.0000000   0.0000000), wk =   0.1250000
        k(    5) = (   0.2500000   0.2340879   0.0000000), wk =   0.2500000
        k(    6) = (   0.2500000  -0.4681757   0.0000000), wk =   0.1250000
        k(    7) = (  -0.5000000   0.0000000   0.0000000), wk =   0.0625000
        k(    8) = (  -0.5000000   0.2340879   0.0000000), wk =   0.1250000
        k(    9) = (  -0.5000000  -0.4681757   0.0000000), wk =   0.0625000
        k(   10) = (   0.0000000   0.0000000   0.0000000), wk =   0.0625000
        k(   11) = (   0.0000000   0.2340879   0.0000000), wk =   0.1250000
        k(   12) = (   0.0000000  -0.4681757   0.0000000), wk =   0.0625000
        k(   13) = (   0.2500000   0.0000000   0.0000000), wk =   0.1250000
        k(   14) = (   0.2500000   0.2340879   0.0000000), wk =   0.2500000
        k(   15) = (   0.2500000  -0.4681757   0.0000000), wk =   0.1250000
        k(   16) = (  -0.5000000   0.0000000   0.0000000), wk =   0.0625000
        k(   17) = (  -0.5000000   0.2340879   0.0000000), wk =   0.1250000
        k(   18) = (  -0.5000000  -0.4681757   0.0000000), wk =   0.0625000

     Largest allocated arrays     est. size (Mb)     dimensions
     Largest temporary arrays     est. size (Mb)     dimensions

     Check: negative/imaginary core charge=   -0.000015    0.000000

     Initial potential from superposition of free atoms
     Check: negative starting charge=(component1):   -0.002278
     Check: negative starting charge=(component2):   -0.000551

     starting charge  399.99976, renormalised to  416.00000

     negative rho (up, down):  0.237E-02 0.573E-03
     Starting wfc are  288 randomized atomic wfcs

     Self-consistent Calculation

     iteration #  1     ecut=    40.00 Ry     beta=0.30
     Davidson diagonalization with overlap
     ethr =  1.00E-02,  avg # of iterations =  5.4

     negative rho (up, down):  0.274E-02 0.924E-03

     total energy              =   -3839.59101907 Ry
     Harris-Foulkes estimate   =   -3841.44337173 Ry
     estimated scf accuracy    <      27.39099939 Ry

     total magnetization       =    32.00 Bohr mag/cell
     absolute magnetization    =    47.45 Bohr mag/cell

[...]

     End of self-consistent calculation

 ------ SPIN UP ------------

          k = 0.0000 0.0000 0.0000 ( 36905 PWs)   bands (ev):

   -73.7085 -73.6928 -73.6887 -73.6737 -73.6576 -73.6429 -73.6109 -73.5963
   -73.5528 -73.5380 -73.5021 -73.4884 -73.4874 -73.4740 -73.4596 -73.4449
   -45.1498 -45.1417 -45.1352 -45.0762 -45.0613 -45.0193 -44.9980 -44.9884
   -44.9869 -44.9838 -44.9794 -44.9699 -44.9644 -44.9621 -44.9535 -44.9533
   -44.9386 -44.9329 -44.9279 -44.9160 -44.9081 -44.9011 -44.8968 -44.8948
   -44.8933 -44.8884 -44.8834 -44.8833 -44.8785 -44.8730 -44.8723 -44.8720
   -44.8525 -44.8188 -44.8144 -44.8138 -44.8009 -44.7933 -44.7679 -44.7630
   -44.7420 -44.7390 -44.7109 -44.7077 -44.7003 -44.6817 -44.6419 -44.6305
   -19.8999 -19.6710 -19.4022 -19.1412 -18.9154 -18.6967 -18.6602 -18.5185
   -18.4406 -18.3935 -18.3790 -18.3470 -18.3308 -18.2498 -18.2484 -18.1969
   -18.1595 -18.1559 -18.1038 -18.0775 -18.0261 -17.9882 -17.9561 -17.8886
   -17.8793 -17.8710 -17.7936 -17.7488 -17.6754 -17.5394 -16.7507 -16.6619
    -7.7251  -7.5981  -7.5624  -7.5037  -7.2893  -6.9882  -6.9398  -6.6642
    -6.6072  -6.5655  -6.5603  -6.5091  -6.4459  -6.3258  -6.3207  -6.3052
    -6.2928  -6.2844  -6.2248  -6.1946  -6.1280  -6.1124  -6.0789  -6.0785
[...]
O0       0.250000000   0.800000000   0.370120000    0   0   0
O0       0.250000000   0.200000000   0.370120000    0   0   0
O0       0.000000000   0.500000000   0.404750000    0   0   0
O0       0.000000000   0.000000000   0.422070000    0   0   0
Cr1      0.250000000   0.000000000   0.456710000    0   0   0
Cr1      0.000000000   0.500000000   0.456710000    0   0   0
O0       0.250000000   0.700000000   0.456710000    0   0   0
O0       0.250000000   0.300000000   0.456710000    0   0   0
O0       0.000000000   0.000000000   0.491340000    0   0   0
O0       0.000000000   0.500000000   0.510154495
Cr1      0.250000026   0.500000000   0.543595292
Cr1      0.000000000   0.000000000   0.547139057
O0       0.250000002   0.802972836   0.545579116
O0       0.250000002   0.197027164   0.545579116
O0       0.000000000   0.500000000   0.579770177
O0       0.000000000   0.000000000   0.599678720
Cr1      0.250000020   0.000000000   0.638223252
Cr1      0.000000000   0.500000000   0.629206966
O0       0.249999997   0.690397615   0.637483190
O0       0.249999997   0.309602385   0.637483190
O0       0.000000000   0.000000000   0.667718511
O0       0.500000000   0.500000000   0.335490000    0   0   0
Cr1      0.750000000   0.500000000   0.370120000    0   0   0
Cr1      0.500000000   0.000000000   0.370120000    0   0   0
O0       0.750000000   0.800000000   0.370120000    0   0   0
O0       0.750000000   0.200000000   0.370120000    0   0   0
O0       0.500000000   0.500000000   0.404750000    0   0   0
O0       0.500000000   0.000000000   0.422070000    0   0   0
Cr1      0.750000000   0.000000000   0.456710000    0   0   0
Cr1      0.500000000   0.500000000   0.456710000    0   0   0
O0       0.750000000   0.700000000   0.456710000    0   0   0
O0       0.750000000   0.300000000   0.456710000    0   0   0
O0       0.500000000   0.000000000   0.491340000    0   0   0
O0       0.500000000   0.500000000   0.510154494
Cr1      0.749999974   0.500000000   0.543595292
Cr1      0.500000000   0.000000000   0.547139056
O0       0.749999998   0.802972836   0.545579116
O0       0.749999998   0.197027164   0.545579116
O0       0.500000000   0.500000000   0.579770178
O0       0.500000000   0.000000000   0.599678720
Cr1      0.749999980   0.000000000   0.638223252
Cr1      0.500000000   0.500000000   0.629206966
O0       0.750000003   0.690397615   0.637483190
O0       0.750000003   0.309602385   0.637483190
O0       0.500000000   0.000000000   0.667718504

     Check: negative starting charge=(component1):   -0.002815
     NEW-OLD atomic charge density approx. for the potential

     Check: negative/imaginary core charge=   -0.000015    0.000000
     Check: negative starting charge=(component1):   -0.002815

[...]

     Self-consistent Calculation

[...]

     iteration #  5     ecut=    40.00 Ry     beta=0.30
     Davidson diagonalization with overlap
     c_bands:  1 eigenvalues not converged
     ethr =  1.45E-06,  avg # of iterations =  4.2

[...]

     total energy              =   -3849.01983997 Ry
     Harris-Foulkes estimate   =   -3849.01983996 Ry
     estimated scf accuracy    <       0.00000001 Ry

[...]

     iteration # 27     ecut=    40.00 Ry     beta=0.30
     Davidson diagonalization with overlap
     ethr =  2.45E-12,  avg # of iterations =  1.0

     negative rho (up, down):  0.659E-02 0.245E-02

     End of self-consistent calculation

 ------ SPIN UP ------------

[...]

 ------ SPIN DOWN ----------

[...]

          k = 0.2500-0.4682 0.0000 ( 37058 PWs)   bands (ev):

[...]

          k =-0.5000-0.4682 0.0000 ( 37080 PWs)   bands (ev):

   -71.6065 -71.6065 -71.4658 -71.4658 -71.3441 -71.3441 -71.2543 -71.2543
   -71.2070 -71.2070 -71.1951 -71.1951 -71.1144 -71.1144 -70.7793 -70.7793
   -43.0861 -43.0861 -43.0520 -43.0520 -42.9719 -42.9719 -42.9214 -42.9214
   -42.9081 -42.9081 -42.8874 -42.8874 -42.7869 -42.7869 -42.7603 -42.7603
   -42.7580 -42.7580 -42.7233 -42.7233 -42.6501 -42.6501 -42.6241 -42.6241
   -42.5631 -42.5631 -42.5299 -42.5299 -42.5204 -42.5204 -42.4609 -42.4609
   -42.4552 -42.4552 -42.4369 -42.4369 -42.4227 -42.4227 -42.3827 -42.3827
   -42.3654 -42.3654 -42.3084 -42.3084 -42.0845 -42.0845 -42.0500 -42.0500
   -19.1675 -19.1675 -18.9594 -18.9594 -18.8787 -18.8787 -18.7554 -18.7554
   -18.6688 -18.6688 -18.5580 -18.5580 -18.4924 -18.4924 -18.4049 -18.4049
   -18.2598 -18.2598 -18.1268 -18.1268 -18.1009 -18.1009 -18.0665 -18.0665
   -18.0119 -18.0119 -17.8396 -17.8396 -17.7483 -17.7483 -16.9231 -16.9231
    -6.5310  -6.5310  -6.2303  -6.2303  -5.9997  -5.9997  -5.9448  -5.9448
    -5.9249  -5.9249  -5.9218  -5.9218  -5.8871  -5.8871  -5.7769  -5.7769
    -5.7721  -5.7721  -5.6803  -5.6803  -5.5740  -5.5740  -5.4837  -5.4837
    -5.4835  -5.4835  -5.4498  -5.4498  -5.3364  -5.3364  -5.1105  -5.1105
    -5.1003  -5.1003  -5.0830  -5.0830  -5.0191  -5.0191  -5.0016  -5.0016
    -4.8040  -4.8040  -4.6747  -4.6747  -4.4748  -4.4748  -4.4180  -4.4180
    -4.2648  -4.2648  -4.2080  -4.2080  -4.1515  -4.1515  -3.9562  -3.9562
    -3.9056  -3.9056  -3.8520  -3.8520  -3.7328  -3.7328  -3.6717  -3.6717
    -3.5268  -3.5268  -3.4918  -3.4918  -3.3383  -3.3383  -3.1497  -3.1497
    -3.0509  -3.0509  -2.9173  -2.9173  -2.6506  -2.6506  -2.3588  -2.3588
    -2.2732  -2.2732  -2.1883  -2.1883  -2.1630  -2.1630  -2.0162  -2.0162
    -1.8553  -1.8553  -1.7883  -1.7883  -1.6606  -1.6606  -1.5016  -1.5016
     0.8283   0.8283   0.9695   0.9695   1.0929   1.0929   1.1045   1.1045
     1.2494   1.2494   1.3723   1.3723   1.4525   1.4525   1.5092   1.5092
     1.7330   1.7330   1.7707   1.7707   1.8098   1.8098   1.8885   1.8885
     1.9808   1.9808   2.0041   2.0041   2.0587   2.0587   2.1138   2.1138
     2.1149   2.1149   2.3100   2.3100   2.3158   2.3158   2.3225   2.3225
     2.3708   2.3708   2.4378   2.4378   2.4546   2.4546   2.4805   2.4805
     2.8630   2.8630   3.0550   3.0550   3.3262   3.3262   3.4151   3.4151
     3.4269   3.4269   3.5294   3.5294   3.5353   3.5353   3.6677   3.6677
     4.0492   4.0492   4.1337   4.1337   4.3744   4.3744   4.5690   4.5690
     4.8098   4.8098   5.0091   5.0091   5.1016   5.1016   5.2103   5.2103
     6.5124   6.5124   6.6918   6.6918   7.2012   7.2013   7.3209   7.3209
     7.4387   7.4387   7.4937   7.4937   7.7548   7.7548   7.8254   7.8254
     8.2117   8.2118   8.2908   8.2908   8.7869   8.7869   8.8715   8.8715
     9.4591   9.4591   9.5328   9.5328  10.1698  10.1698  10.2026  10.2026
    10.4071  10.4071  10.4587  10.4587  11.0615  11.0615  11.0754  11.0754
    11.1049  11.1049  11.1764  11.1764  11.8849  11.8849  11.9514  11.9514
    12.0700  12.0700  12.1205  12.1205  12.8421  12.8421  12.8528  12.8528
    13.4494  13.4494  13.4812  13.4812  13.7005  13.7005  13.7202  13.7202
    14.2581  14.2581  14.4141  14.4141  14.4318  14.4318  14.4577  14.4577
    14.4936  14.4936  14.5417  14.5417  14.5592  14.5592  14.7495  14.7495
    14.8217  14.8217  14.9051  14.9051  15.0606  15.0606  15.0953  15.0953
    15.1731  15.1731  15.1732  15.1733  15.2096  15.2097  15.2430  15.2430
    15.2702  15.2702  15.3847  15.3847  15.4244  15.4244  15.4392  15.4392
    15.5129  15.5129  15.6284  15.6284  15.7280  15.7281  15.8234  15.8234
    16.0090  16.0090  16.0486  16.0486  16.1408  16.1409  16.2558  16.2559
    16.2828  16.2828  16.2847  16.2847  16.3954  16.3954  16.4417  16.4417
    16.4615  16.4615  16.5350  16.5350  16.6138  16.6138  16.7166  16.7166
    16.7768  16.7768  16.8385  16.8385  16.9259  16.9259  16.9367  16.9367
    16.9992  16.9992  17.0495  17.0495  17.1510  17.1510  17.1705  17.1705
    17.4804  17.4804  17.4849  17.4849  17.6608  17.6608  17.6936  17.6936
    17.7205  17.7205  17.7722  17.7723  17.9159  17.9159  17.9292  17.9292
    18.1315  18.1315  18.1773  18.1773  18.3060  18.3060  18.4218  18.4218
    18.4647  18.4647  18.5392  18.5392  18.6223  18.6223  18.6476  18.6476
    18.8359  18.8359  18.9583  18.9583  18.9600  18.9600  19.0071  19.0071
    19.2886  19.2886  19.2933  19.2933  19.3603  19.3603  19.4534  19.4535
    19.6257  19.6257  19.6863  19.6863  19.9609  19.9609  20.0034  20.0034
    20.1098  20.1098  20.1530  20.1530  20.1847  20.1847  20.2725  20.2725
    20.5428  20.5428  20.6301  20.6301  20.8709  20.8709  20.9179  20.9179
    21.0203  21.0204  21.0838  21.0839  21.2689  21.2689  21.2837  21.2837
    21.7023  21.7023  21.7525  21.7526  21.9989  21.9989  22.0733  22.0733
    22.2164  22.2164  22.2623  22.2623  22.2790  22.2790  22.4755  22.4755
    22.8457  22.8457  22.8652  22.8652  23.0964  23.0964  23.1068  23.1069
    23.6359  23.6359  23.6377  23.6377  23.6491  23.6491  23.7999  23.7999
    24.0081  24.0081  24.0625  24.0625  24.1002  24.1002  24.1413  24.1413
    24.2792  24.2792  24.3133  24.3133  24.3478  24.3478  24.3804  24.3804
    24.4509  24.4510  24.4794  24.4795  24.7124  24.7124  24.7454  24.7454
    24.8434  24.8434  24.8548  24.8548  25.0707  25.0707  25.0839  25.0839
    25.3248  25.3248  25.3424  25.3424  25.4827  25.4827  25.5032  25.5032
    25.6894  25.6894  25.7422  25.7422  25.8337  25.8337  25.8364  25.8364
    25.8792  25.8792  26.0167  26.0167  26.0570  26.0571  26.1822  26.1822
    26.1983  26.1983  26.2720  26.2720  26.3717  26.3717  26.4234  26.4234

     the Fermi energy is     0.0984 ev

!    total energy              =   -3849.01984002 Ry
     Harris-Foulkes estimate   =   -3849.01983997 Ry
     estimated scf accuracy    <          4.8E-09 Ry

     The total energy is the sum of the following terms:

     one-electron contribution =  -82859.33429386 Ry
     hartree contribution      =   41475.86610940 Ry
     xc contribution           =    -595.51228260 Ry
     ewald contribution        =   38129.96089617 Ry
     smearing contrib. (-TS)   =      -0.00026913 Ry

     total magnetization       =    32.00 Bohr mag/cell
     absolute magnetization    =    36.85 Bohr mag/cell

     convergence has been achieved in  27 iterations

     Forces acting on atoms (Ry/au):

     negative rho (up, down):  0.659E-02 0.245E-02
     atom    1 type  1   force =     0.00000000    0.00000000    0.07216598
     atom    2 type  2   force =    -0.00000003    0.00000000   -0.11852267
     atom    3 type  2   force =     0.00000000    0.00000000    0.08113079
     atom    4 type  1   force =    -0.00000001    0.04274702   -0.03622350
     atom    5 type  1   force =    -0.00000001   -0.04274702   -0.03622350
     atom    6 type  1   force =     0.00000000    0.00000000    0.01569583
     atom    7 type  1   force =     0.00000000    0.00000000   -0.01053771
     atom    8 type  2   force =    -0.00000000    0.00000000    0.02308795
     atom    9 type  2   force =     0.00000000    0.00000000   -0.00659880
     atom   10 type  1   force =     0.00000000   -0.01825034    0.00330285
     atom   11 type  1   force =     0.00000000    0.01825034    0.00330285
     atom   12 type  1   force =     0.00000000    0.00000000    0.00581365
     atom   13 type  1   force =     0.00000000    0.00000000    0.00069184
     atom   14 type  2   force =    -0.00000021   -0.00000000    0.00088368
     atom   15 type  2   force =     0.00000000    0.00000000    0.00030008
     atom   16 type  1   force =     0.00000001   -0.00012599    0.00052626
     atom   17 type  1   force =     0.00000001    0.00012599    0.00052626
     atom   18 type  1   force =     0.00000000    0.00000000    0.00076213
     atom   19 type  1   force =     0.00000000    0.00000000   -0.00001407
     atom   20 type  2   force =    -0.00000023    0.00000000    0.00006537
     atom   21 type  2   force =     0.00000000    0.00000000    0.00068351
     atom   22 type  1   force =     0.00000003    0.00012262   -0.00056951
     atom   23 type  1   force =     0.00000003   -0.00012262   -0.00056951
     atom   24 type  1   force =     0.00000000    0.00000000    0.00032015
     atom   25 type  1   force =     0.00000000    0.00000000    0.07216594
     atom   26 type  2   force =     0.00000003    0.00000000   -0.11852267
     atom   27 type  2   force =     0.00000000    0.00000000    0.08113075
     atom   28 type  1   force =     0.00000001    0.04274702   -0.03622350
     atom   29 type  1   force =     0.00000001   -0.04274702   -0.03622350
     atom   30 type  1   force =     0.00000000    0.00000000    0.01569585
     atom   31 type  1   force =     0.00000000    0.00000000   -0.01053770
     atom   32 type  2   force =     0.00000000    0.00000000    0.02308795
     atom   33 type  2   force =     0.00000000    0.00000000   -0.00659886
     atom   34 type  1   force =    -0.00000000   -0.01825034    0.00330285
     atom   35 type  1   force =    -0.00000000    0.01825034    0.00330285
     atom   36 type  1   force =     0.00000000    0.00000000    0.00581366
     atom   37 type  1   force =     0.00000000    0.00000000    0.00069181
     atom   38 type  2   force =     0.00000021    0.00000000    0.00088368
     atom   39 type  2   force =     0.00000000    0.00000000    0.00030002
     atom   40 type  1   force =    -0.00000001   -0.00012599    0.00052626
     atom   41 type  1   force =    -0.00000001    0.00012599    0.00052626
     atom   42 type  1   force =     0.00000000    0.00000000    0.00076214
     atom   43 type  1   force =     0.00000000    0.00000000   -0.00001406
     atom   44 type  2   force =     0.00000023    0.00000000    0.00006537
     atom   45 type  2   force =     0.00000000    0.00000000    0.00068360
     atom   46 type  1   force =    -0.00000003    0.00012262   -0.00056951
     atom   47 type  1   force =    -0.00000003   -0.00012262   -0.00056951
     atom   48 type  1   force =     0.00000000    0.00000000    0.00032039

     Total force =     0.002746     Total SCF correction =     0.000171

     bfgs converged in   4 scf cycles and   3 bfgs steps
     (criteria: energy < 0.10E-03, force < 0.10E-02)

     End of BFGS Geometry Optimization

     Final energy   =   -3849.0198400183 Ry
Begin final coordinates

ATOMIC_POSITIONS (crystal)
O0       0.000000000   0.500000000   0.335490000    0   0   0
Cr1      0.250000000   0.500000000   0.370120000    0   0   0
Cr1      0.000000000   0.000000000   0.370120000    0   0   0
O0       0.250000000   0.800000000   0.370120000    0   0   0
O0       0.250000000   0.200000000   0.370120000    0   0   0
O0       0.000000000   0.500000000   0.404750000    0   0   0
O0       0.000000000   0.000000000   0.422070000    0   0   0
Cr1      0.250000000   0.000000000   0.456710000    0   0   0
Cr1      0.000000000   0.500000000   0.456710000    0   0   0
O0       0.250000000   0.700000000   0.456710000    0   0   0
O0       0.250000000   0.300000000   0.456710000    0   0   0
O0       0.000000000   0.000000000   0.491340000    0   0   0
O0       0.000000000   0.500000000   0.510154495
Cr1      0.250000026   0.500000000   0.543595292
Cr1      0.000000000   0.000000000   0.547139057
O0       0.250000002   0.802972836   0.545579116
O0       0.250000002   0.197027164   0.545579116
O0       0.000000000   0.500000000   0.579770177
O0       0.000000000   0.000000000   0.599678720
Cr1      0.250000020   0.000000000   0.638223252
Cr1      0.000000000   0.500000000   0.629206966
O0       0.249999997   0.690397615   0.637483190
O0       0.249999997   0.309602385   0.637483190
O0       0.000000000   0.000000000   0.667718511
O0       0.500000000   0.500000000   0.335490000    0   0   0
Cr1      0.750000000   0.500000000   0.370120000    0   0   0
Cr1      0.500000000   0.000000000   0.370120000    0   0   0
O0       0.750000000   0.800000000   0.370120000    0   0   0
O0       0.750000000   0.200000000   0.370120000    0   0   0
O0       0.500000000   0.500000000   0.404750000    0   0   0
O0       0.500000000   0.000000000   0.422070000    0   0   0
Cr1      0.750000000   0.000000000   0.456710000    0   0   0
Cr1      0.500000000   0.500000000   0.456710000    0   0   0
O0       0.750000000   0.700000000   0.456710000    0   0   0
O0       0.750000000   0.300000000   0.456710000    0   0   0
O0       0.500000000   0.000000000   0.491340000    0   0   0
O0       0.500000000   0.500000000   0.510154494
Cr1      0.749999974   0.500000000   0.543595292
Cr1      0.500000000   0.000000000   0.547139056
O0       0.749999998   0.802972836   0.545579116
O0       0.749999998   0.197027164   0.545579116
O0       0.500000000   0.500000000   0.579770178
O0       0.500000000   0.000000000   0.599678720
Cr1      0.749999980   0.000000000   0.638223252
Cr1      0.500000000   0.500000000   0.629206966
O0       0.750000003   0.690397615   0.637483190
O0       0.750000003   0.309602385   0.637483190
O0       0.500000000   0.000000000   0.667718504
End final coordinates

     General routines

     Parallel routines

   This run was terminated on:   6:49:58  16Mar2014

   JOB DONE.