     Program PWSCF v.5.0.2 (svn rev. 9656) starts on  1May2014 at  6: 4: 8

     Current dimensions of program PWSCF are:
     Max number of different atomic species (ntypx) = 10
     Max number of k-points (npk) =  40000
     Max angular momentum in pseudopotentials (lmaxx) =  3
     Reading input from pwscf.in
Warning: card &CELL ignored
Warning: card / ignored

     Subspace diagonalization in iterative solution of the eigenvalue problem:
     a serial algorithm will be used

     bravais-lattice index     =            0
     lattice parameter (alat)  =      10.1289  a.u.
     unit-cell volume          =    6836.7721 (a.u.)^3
     number of atoms/cell      =           31
     number of atomic types    =            3
     number of electrons       =       238.00
     number of Kohn-Sham states=          357
     kinetic-energy cutoff     =      40.0000  Ry
     charge density cutoff     =     500.0000  Ry
     convergence threshold     =      1.0E-06
     mixing beta               =       0.7000
     number of iterations used =            8  plain     mixing
     Exchange-correlation      = SLA  PW   PBE  PBE ( 1 4 3 4 0)
     EXX-fraction              =        0.00
     nstep                     =           50

     celldm(1)=  10.128932  celldm(2)=   0.000000  celldm(3)=   0.000000
     celldm(4)=   0.000000  celldm(5)=   0.000000  celldm(6)=   0.000000

     crystal axes: (cart. coord. in units of alat)
               a(1) = (   1.000000   0.000000   0.000000 )
               a(2) = (   0.000000   1.306037   0.000000 )
               a(3) = (   0.000000   0.000000   5.037380 )

     reciprocal axes: (cart. coord. in units 2 pi/alat)
               b(1) = (  1.000000  0.000000  0.000000 )
               b(2) = (  0.000000  0.765675  0.000000 )
               b(3) = (  0.000000  0.000000  0.198516 )

     PseudoPot. # 1 for O  read from file:
     /home/camp/zhonxu/pseudo/o_pbe_v1.01.uspp.F.UPF
     MD5 check sum: 2bcb18d16ea4b960afae9ec6d52f22d2
     Pseudo is Ultrasoft + core correction, Zval =  6.0
     Generated by new atomic code, or converted to UPF format
     Using radial grid of  737 points,  5 beta functions with:
                l(1) =   0
                l(2) =   0
                l(3) =   1
                l(4) =   1
                l(5) =   2
     Q(r) pseudized with  8 coefficients,  rinner =    0.900   0.900   0.900
                                                       0.900   0.900

     PseudoPot. # 2 for Re read from file:
     /home/camp/zhonxu/pseudo/re_pbe_v1.uspp.F.UPF
     MD5 check sum: 6f5a5dcaf9c96c20d0ffdde0de57afc6
     Pseudo is Ultrasoft + core correction, Zval = 15.0
     Generated by new atomic code, or converted to UPF format
     Using radial grid of  981 points,  8 beta functions with:
                l(1) =   0
                l(2) =   0
                l(3) =   1
                l(4) =   1
                l(5) =   2
                l(6) =   2
                l(7) =   3
                l(8) =   3
     Q(r) pseudized with  8 coefficients,  rinner =    1.000   1.000   1.000
                                                       1.000   1.000   1.000
                                                       1.000

     PseudoPot. # 3 for H  read from file:
     /home/camp/zhonxu/pseudo/h_pbe_v1.uspp.F.UPF
     MD5 check sum: 3408e3ff4ec8b0a4e358431e7e038a48
     Pseudo is Ultrasoft, Zval =  1.0
     Generated by new atomic code, or converted to UPF format
     Using radial grid of  615 points,  2 beta functions with:
                l(1) =   0
                l(2) =   0
     Q(r) pseudized with  8 coefficients,  rinner =    0.700

     atomic species   valence    mass     pseudopotential
        O0             6.00    15.99940     O ( 1.00)
        Re1           15.00   186.20700     Re( 1.00)
        H2             1.00     1.00794     H ( 1.00)

     Simplified LDA+U calculation (l_max = 2) with parameters (eV):
     atomic species    L          U    alpha       J0     beta
        Re1            2     2.5000   0.0000   0.0000   0.0000

     No symmetry found

   Cartesian axes

     site n.     atom                  positions (alat units)
         1           O0  tau(   1) = (   0.0000000   0.0000000   1.8646870  )
         2           O0  tau(   2) = (   0.0000000   0.6530184   1.9287121  )
         3           Re1 tau(   3) = (   0.2500000   0.6530184   2.2295948  )
         4           Re1 tau(   4) = (   0.0000000   0.0000000   2.2312068  )
         5           O0  tau(   5) = (   0.2500000   1.0187087   2.2244063  )
         6           O0  tau(   6) = (   0.2500000   0.2873281   2.2234996  )
         7           O0  tau(   7) = (   0.0000000   0.6530184   2.5067011  )
         8           O0  tau(   8) = (   0.0000000   0.0000000   2.5914802  )
         9           Re1 tau(   9) = (   0.2500000   0.0000000   2.8910532  )
        10           Re1 tau(  10) = (   0.0000000   0.6530184   2.8571012  )
        11           O0  tau(  11) = (   0.2500000   0.9403465   2.8803235  )
        12           O0  tau(  12) = (   0.2500000   0.3656903   2.8804747  )
        13           O0  tau(  13) = (   0.0000000   0.0000000   3.1540044  )
        14           O0  tau(  14) = (   0.5000000   0.0000000   1.8645359  )
        15           O0  tau(  15) = (   0.5000000   0.6530184   1.9300722  )
        16           Re1 tau(  16) = (   0.7500000   0.6530184   2.2295444  )
        17           Re1 tau(  17) = (   0.5000000   0.0000000   2.2295948  )
        18           O0  tau(  18) = (   0.7500000   1.0187087   2.2239529  )
        19           O0  tau(  19) = (   0.7500000   0.2873281   2.2238522  )
        20           O0  tau(  20) = (   0.5000000   0.6530184   2.5186397  )
        21           O0  tau(  21) = (   0.5000000   0.0000000   2.5912283  )
        22           Re1 tau(  22) = (   0.7500000   0.0000000   2.8912547  )
        23           Re1 tau(  23) = (   0.5000000   0.6530184   2.9058631  )
        24           O0  tau(  24) = (   0.7500000   0.9403465   2.8806762  )
        25           O0  tau(  25) = (   0.7500000   0.3656903   2.8804243  )
        26           O0  tau(  26) = (   0.5000000   0.0000000   3.1508309  )
        27           H2  tau(  27) = (  -0.0003300   0.8166387   1.8441345  )
        28           H2  tau(  28) = (   0.4996000   0.8128642   1.8387445  )
        29           H2  tau(  29) = (   0.1687200   0.0311098   1.7921991  )
        30           H2  tau(  30) = (   0.6701100   0.0285761   1.7932066  )
        31           O0  tau(  31) = (   0.4998900   0.6523393   3.2273487  )

     number of k points=    10  Methfessel-Paxton smearing, width (Ry)=  0.0100
                       cart. coord. in units 2pi/alat
        k(    1) = (   0.0000000   0.0000000   0.0000000), wk =   0.1250000
        k(    2) = (   0.0000000   0.1914188   0.0000000), wk =   0.2500000
        k(    3) = (   0.0000000  -0.3828376   0.0000000), wk =   0.1250000
        k(    4) = (   0.2500000   0.0000000   0.0000000), wk =   0.2500000
        k(    5) = (   0.2500000   0.1914188   0.0000000), wk =   0.2500000
        k(    6) = (   0.2500000  -0.3828376   0.0000000), wk =   0.2500000
        k(    7) = (  -0.5000000   0.0000000   0.0000000), wk =   0.1250000
        k(    8) = (  -0.5000000   0.1914188   0.0000000), wk =   0.2500000
        k(    9) = (  -0.5000000  -0.3828376   0.0000000), wk =   0.1250000
        k(   10) = (  -0.2500000   0.1914188   0.0000000), wk =   0.2500000

     Largest allocated arrays     est. size (Mb)     dimensions
     Largest temporary arrays     est. size (Mb)     dimensions

     Check: negative/imaginary core charge=   -0.000003    0.000000

     Initial potential from superposition of free atoms
     Check: negative starting charge=   -0.237495

     starting charge  233.99958, renormalised to  238.00000

     negative rho (up, down):  0.242E+00 0.000E+00
     Number of +U iterations with fixed ns =  0
     Starting occupations:
 --- enter write_ns ---
 LDA+U parameters:
U( 2)     =  2.50000000
alpha( 2) =  0.00000000
atom    3   Tr[ns(na)] =   5.00000
    eigenvalues:
  0.500  0.500  0.500  0.500  0.500
    eigenvectors:
  1.000  0.000  0.000  0.000  0.000
  0.000  1.000  0.000  0.000  0.000
  0.000  0.000  1.000  0.000  0.000
  0.000  0.000  0.000  1.000  0.000
  0.000  0.000  0.000  0.000  1.000
    occupations:
  0.500  0.000  0.000  0.000  0.000
  0.000  0.500  0.000  0.000  0.000
  0.000  0.000  0.500  0.000  0.000
  0.000  0.000  0.000  0.500  0.000
  0.000  0.000  0.000  0.000  0.500
atom    4   Tr[ns(na)] =   5.00000
    eigenvalues:
  0.500  0.500  0.500  0.500  0.500
    eigenvectors:
  1.000  0.000  0.000  0.000  0.000
  0.000  1.000  0.000  0.000  0.000
  0.000  0.000  1.000  0.000  0.000
  0.000  0.000  0.000  1.000  0.000
  0.000  0.000  0.000  0.000  1.000
    occupations:
  0.500  0.000  0.000  0.000  0.000
  0.000  0.500  0.000  0.000  0.000
  0.000  0.000  0.500  0.000  0.000
  0.000  0.000  0.000  0.500  0.000
  0.000  0.000  0.000  0.000  0.500
atom    9   Tr[ns(na)] =   5.00000
    eigenvalues:
  0.500  0.500  0.500  0.500  0.500
    eigenvectors:
  1.000  0.000  0.000  0.000  0.000
  0.000  1.000  0.000  0.000  0.000
  0.000  0.000  1.000  0.000  0.000
  0.000  0.000  0.000  1.000  0.000
  0.000  0.000  0.000  0.000  1.000
    occupations:
  0.500  0.000  0.000  0.000  0.000
  0.000  0.500  0.000  0.000  0.000
  0.000  0.000  0.500  0.000  0.000
  0.000  0.000  0.000  0.500  0.000
  0.000  0.000  0.000  0.000  0.500
atom   10   Tr[ns(na)] =   5.00000
    eigenvalues:
  0.500  0.500  0.500  0.500  0.500
    eigenvectors:
  1.000  0.000  0.000  0.000  0.000
  0.000  1.000  0.000  0.000  0.000
  0.000  0.000  1.000  0.000  0.000
  0.000  0.000  0.000  1.000  0.000
  0.000  0.000  0.000  0.000  1.000
    occupations:
  0.500  0.000  0.000  0.000  0.000
  0.000  0.500  0.000  0.000  0.000
  0.000  0.000  0.500  0.000  0.000
  0.000  0.000  0.000  0.500  0.000
  0.000  0.000  0.000  0.000  0.500
atom   16   Tr[ns(na)] =   5.00000
    eigenvalues:
  0.500  0.500  0.500  0.500  0.500
    eigenvectors:
  1.000  0.000  0.000  0.000  0.000
  0.000  1.000  0.000  0.000  0.000
  0.000  0.000  1.000  0.000  0.000
  0.000  0.000  0.000  1.000  0.000
  0.000  0.000  0.000  0.000  1.000
    occupations:
  0.500  0.000  0.000  0.000  0.000
  0.000  0.500  0.000  0.000  0.000
  0.000  0.000  0.500  0.000  0.000
  0.000  0.000  0.000  0.500  0.000
  0.000  0.000  0.000  0.000  0.500
atom   17   Tr[ns(na)] =   5.00000
    eigenvalues:
  0.500  0.500  0.500  0.500  0.500
    eigenvectors:
  1.000  0.000  0.000  0.000  0.000
  0.000  1.000  0.000  0.000  0.000
  0.000  0.000  1.000  0.000  0.000
  0.000  0.000  0.000  1.000  0.000
  0.000  0.000  0.000  0.000  1.000
    occupations:
  0.500  0.000  0.000  0.000  0.000
  0.000  0.500  0.000  0.000  0.000
  0.000  0.000  0.500  0.000  0.000
  0.000  0.000  0.000  0.500  0.000
  0.000  0.000  0.000  0.000  0.500
atom   22   Tr[ns(na)] =   5.00000
    eigenvalues:
  0.500  0.500  0.500  0.500  0.500
    eigenvectors:
  1.000  0.000  0.000  0.000  0.000
  0.000  1.000  0.000  0.000  0.000
  0.000  0.000  1.000  0.000  0.000
  0.000  0.000  0.000  1.000  0.000
[...]
  1.000  0.000  0.000  0.000  0.000
    occupations:
  0.607  0.003  0.000 -0.020  0.001
  0.003  0.708  0.008 -0.000 -0.002
  0.000  0.008  0.617  0.000 -0.000
 -0.020 -0.000  0.000  0.773 -0.000
  0.001 -0.002 -0.000 -0.000  0.567
atom    9   Tr[ns(na)] =   6.54557
    eigenvalues:
  0.591  0.603  0.606  0.725  0.747
    eigenvectors:
  0.252  0.000  0.000  0.001  0.747
  0.000  0.001  0.998  0.000  0.000
  0.000  0.989  0.001  0.010  0.000
  0.747  0.000  0.000  0.000  0.252
  0.000  0.010  0.000  0.989  0.001
    occupations:
  0.708 -0.000 -0.001 -0.068  0.001
 -0.000  0.606  0.000  0.000  0.000
 -0.001  0.000  0.604  0.000 -0.012
 -0.068  0.000  0.000  0.631 -0.000
  0.001  0.000 -0.012 -0.000  0.724
atom   10   Tr[ns(na)] =   6.52081
    eigenvalues:
  0.481  0.543  0.671  0.720  0.846
    eigenvectors:
  0.999  0.000  0.000  0.001  0.000
  0.000  0.000  0.000  0.000  1.000
  0.000  0.000  1.000  0.000  0.000
  0.001  0.000  0.000  0.999  0.000
  0.000  1.000  0.000  0.000  0.000
    occupations:
  0.481 -0.000 -0.000 -0.005 -0.000
 -0.000  0.846  0.001 -0.000  0.000
 -0.000  0.001  0.671 -0.000  0.000
 -0.005 -0.000 -0.000  0.719 -0.000
 -0.000  0.000  0.000 -0.000  0.543
atom   16   Tr[ns(na)] =   6.56510
    eigenvalues:
  0.540  0.570  0.619  0.765  0.788
    eigenvectors:
  0.000  0.353  0.003  0.642  0.002
  0.998  0.001  0.000  0.000  0.001
  0.000  0.001  0.990  0.009  0.000
  0.001  0.645  0.006  0.346  0.001
  0.001  0.000  0.000  0.003  0.996
    occupations:
  0.696  0.002  0.012 -0.093 -0.001
  0.002  0.540 -0.001 -0.003 -0.008
  0.012 -0.001  0.620 -0.007  0.003
 -0.093 -0.003 -0.007  0.638  0.001
 -0.001 -0.008  0.003  0.001  0.788
atom   17   Tr[ns(na)] =   6.53583
    eigenvalues:
  0.568  0.607  0.610  0.704  0.779
    eigenvectors:
  0.000  0.981  0.004  0.001  0.014
  0.000  0.001  0.006  0.994  0.000
  0.000  0.004  0.990  0.005  0.000
  0.000  0.014  0.000  0.000  0.986
  1.000  0.000  0.000  0.000  0.000
    occupations:
  0.610  0.003  0.000 -0.020  0.000
  0.003  0.703  0.007 -0.000 -0.001
  0.000  0.007  0.611  0.002 -0.000
 -0.020 -0.000  0.002  0.777 -0.000
  0.000 -0.001 -0.000 -0.000  0.568
atom   22   Tr[ns(na)] =   6.54522
    eigenvalues:
  0.591  0.603  0.606  0.725  0.747
    eigenvectors:
  0.252  0.000  0.000  0.012  0.735
  0.000  0.004  0.996  0.000  0.000
  0.000  0.985  0.004  0.010  0.000
  0.748  0.000  0.000  0.004  0.248
  0.000  0.010  0.000  0.973  0.017
    occupations:
  0.707  0.000 -0.000 -0.067  0.002
  0.000  0.606  0.000 -0.000  0.000
 -0.000  0.000  0.604  0.000  0.012
 -0.067 -0.000  0.000  0.631 -0.001
  0.002  0.000  0.012 -0.001  0.724
atom   23   Tr[ns(na)] =   6.55845
    eigenvalues:
  0.580  0.607  0.616  0.655  0.821
    eigenvectors:
  0.000  0.000  0.000  0.981  0.019
  0.000  0.000  1.000  0.000  0.000
  0.000  1.000  0.000  0.000  0.000
  0.000  0.000  0.000  0.019  0.981
  1.000  0.000  0.000  0.000  0.000
    occupations:
  0.658  0.000 -0.000 -0.023 -0.000
  0.000  0.616 -0.000 -0.000  0.000
 -0.000 -0.000  0.607  0.001  0.000
 -0.023 -0.000  0.001  0.817 -0.000
 -0.000  0.000  0.000 -0.000  0.580
N of occupied +U levels =  52.3801303
 --- exit write_ns ---

     Threshold (ethr) on eigenvalues was too large:
     Diagonalizing with lowered threshold

     Davidson diagonalization with overlap
     ethr =  6.84E-09,  avg # of iterations =  2.0

[...]

     total energy              =   -2173.75837422 Ry
     Harris-Foulkes estimate   =   -2173.75837422 Ry
     estimated scf accuracy    <       0.00000003 Ry

     iteration # 11     ecut=    40.00 Ry     beta=0.70
     Davidson diagonalization with overlap
     ethr =  1.12E-11,  avg # of iterations =  1.0

     negative rho (up, down):  0.246E+00 0.000E+00

     End of self-consistent calculation
 --- enter write_ns ---
 LDA+U parameters:
U( 2)     =  2.50000000
alpha( 2) =  0.00000000
atom    3   Tr[ns(na)] =   6.56414
    eigenvalues:
  0.540  0.570  0.619  0.765  0.788
    eigenvectors:
  0.000  0.353  0.004  0.641  0.002
  0.998  0.001  0.000  0.000  0.001
  0.000  0.001  0.990  0.009  0.000
  0.001  0.646  0.005  0.346  0.001
  0.001  0.000  0.000  0.004  0.995
    occupations:
  0.696 -0.002  0.012 -0.093  0.001
 -0.002  0.540  0.001  0.003 -0.008
  0.012  0.001  0.620 -0.007 -0.003
 -0.093  0.003 -0.007  0.638 -0.001
  0.001 -0.008 -0.003 -0.001  0.788
atom    4   Tr[ns(na)] =   6.54375
    eigenvalues:
  0.567  0.605  0.616  0.709  0.775
    eigenvectors:
  0.000  0.984  0.000  0.001  0.015
  0.000  0.001  0.007  0.992  0.000
  0.000  0.000  0.993  0.007  0.000
  0.000  0.015  0.000  0.000  0.985
  1.000  0.000  0.000  0.000  0.000
    occupations:
  0.607  0.003  0.000 -0.020  0.001
  0.003  0.708  0.008 -0.000 -0.002
  0.000  0.008  0.616  0.000 -0.000
 -0.020 -0.000  0.000  0.773 -0.000
  0.001 -0.002 -0.000 -0.000  0.567
atom    9   Tr[ns(na)] =   6.54660
    eigenvalues:
  0.591  0.603  0.606  0.725  0.748
    eigenvectors:
  0.252  0.000  0.000  0.001  0.747
  0.000  0.001  0.998  0.000  0.000
  0.000  0.989  0.001  0.010  0.000
  0.747  0.000  0.000  0.000  0.252
  0.000  0.010  0.000  0.989  0.001
    occupations:
  0.708 -0.000 -0.001 -0.068  0.001
 -0.000  0.606  0.000  0.000  0.000
 -0.001  0.000  0.604  0.000 -0.012
 -0.068  0.000  0.000  0.631 -0.000
  0.001  0.000 -0.012 -0.000  0.724
atom   10   Tr[ns(na)] =   6.52000
    eigenvalues:
  0.481  0.543  0.671  0.719  0.846
    eigenvectors:
  0.999  0.000  0.000  0.001  0.000
  0.000  0.000  0.000  0.000  1.000
  0.000  0.000  1.000  0.000  0.000
  0.001  0.000  0.000  0.999  0.000
  0.000  1.000  0.000  0.000  0.000
    occupations:
  0.481 -0.000 -0.000 -0.005 -0.000
 -0.000  0.846  0.001 -0.000  0.000
 -0.000  0.001  0.671 -0.000  0.000
 -0.005 -0.000 -0.000  0.719 -0.000
 -0.000  0.000  0.000 -0.000  0.543
atom   16   Tr[ns(na)] =   6.56412
    eigenvalues:
  0.540  0.570  0.619  0.765  0.788
    eigenvectors:
  0.000  0.353  0.003  0.642  0.002
  0.998  0.001  0.000  0.000  0.001
  0.000  0.001  0.990  0.009  0.000
  0.001  0.645  0.006  0.346  0.001
  0.001  0.000  0.000  0.003  0.995
    occupations:
  0.696  0.002  0.012 -0.093 -0.001
  0.002  0.540 -0.001 -0.003 -0.008
  0.012 -0.001  0.620 -0.007  0.003
 -0.093 -0.003 -0.007  0.638  0.001
 -0.001 -0.008  0.003  0.001  0.788
atom   17   Tr[ns(na)] =   6.53536
    eigenvalues:
  0.568  0.607  0.610  0.704  0.779
    eigenvectors:
  0.000  0.981  0.004  0.001  0.014
  0.000  0.001  0.006  0.994  0.000
  0.000  0.005  0.990  0.005  0.000
  0.000  0.014  0.000  0.000  0.986
  1.000  0.000  0.000  0.000  0.000
    occupations:
  0.610  0.003  0.000 -0.020  0.000
  0.003  0.703  0.007 -0.000 -0.001
  0.000  0.007  0.611  0.002 -0.000
 -0.020 -0.000  0.002  0.777 -0.000
  0.000 -0.001 -0.000 -0.000  0.568
atom   22   Tr[ns(na)] =   6.54621
    eigenvalues:
  0.591  0.603  0.606  0.725  0.747
    eigenvectors:
  0.252  0.000  0.000  0.013  0.735
  0.000  0.005  0.995  0.000  0.000
  0.000  0.985  0.005  0.010  0.000
  0.748  0.000  0.000  0.004  0.248
  0.000  0.010  0.000  0.973  0.017
    occupations:
  0.707  0.000 -0.000 -0.067  0.002
  0.000  0.606  0.000 -0.000  0.000
 -0.000  0.000  0.605  0.000  0.012
 -0.067 -0.000  0.000  0.631 -0.001
  0.002  0.000  0.012 -0.001  0.724
atom   23   Tr[ns(na)] =   6.55902
    eigenvalues:
  0.580  0.607  0.616  0.655  0.821
    eigenvectors:
  0.000  0.000  0.000  0.981  0.019
  0.000  0.000  1.000  0.000  0.000
  0.000  1.000  0.000  0.000  0.000
  0.000  0.000  0.000  0.019  0.981
  1.000  0.000  0.000  0.000  0.000
    occupations:
  0.658  0.000 -0.000 -0.023 -0.000
  0.000  0.616 -0.000 -0.000  0.000
 -0.000 -0.000  0.607  0.001  0.000
 -0.023 -0.000  0.001  0.817 -0.000
 -0.000  0.000  0.000 -0.000  0.580
N of occupied +U levels =  52.3791915
 --- exit write_ns ---

[...]

          k = 0.2500-0.3828 0.0000 ( 29202 PWs)   bands (ev):

[...]

          k =-0.2500 0.1914 0.0000 ( 29229 PWs)   bands (ev):

   -82.1434 -81.5134 -81.4295 -81.2744 -81.2342 -80.9833 -80.9444 -80.8971
   -44.3355 -43.9914 -43.8503 -43.5913 -43.4472 -43.4214 -43.4137 -43.3443
   -43.2955 -43.2776 -43.2152 -43.1388 -43.0767 -43.0335 -43.0055 -42.9702
   -42.9366 -42.8977 -42.8947 -42.8345 -42.8313 -42.7811 -42.6785 -42.4239
   -21.0575 -20.6468 -20.5902 -20.4666 -20.3617 -20.1087 -20.0839 -20.0458
   -19.8708 -19.7572 -19.6590 -19.6106 -19.5686 -19.3813 -19.3544 -19.1961
   -18.6290 -18.5875 -18.3769  -9.2553  -9.1058  -9.0045  -8.9016  -8.7998
    -8.6987  -8.5266  -8.4766  -8.2445  -8.1855  -8.1060  -7.8667  -7.7785
    -7.6343  -7.4537  -7.3226  -7.1678  -7.0055  -6.9077  -6.8159  -6.6829
    -6.5127  -6.4212  -6.2840  -6.0791  -6.0225  -5.8846  -5.7762  -5.7146
    -5.5219  -5.4440  -5.3617  -5.2570  -5.2041  -5.0724  -5.0123  -4.9243
    -4.8831  -4.8108  -4.6831  -4.4528  -4.3967  -4.2435  -4.1696  -4.0812
    -4.0356  -3.9332  -3.8736  -3.7308  -3.6569  -3.5883  -3.5359  -3.3695
    -3.1992  -3.0572  -2.9641  -2.8546  -2.5109  -2.4605  -2.1706  -1.3371
    -1.2233  -1.1709  -0.9857  -0.3412  -0.3200   0.1638   0.2583   0.3104
     0.4956   0.5508   0.6550   0.8912   1.0713   1.2144   1.2873   1.2957
     1.3753   1.6098   1.6350   1.9223   2.1665   3.2529   3.4611   3.4719
     3.6523   3.7359   3.9106   4.1848   4.2843   4.3947   4.4971   4.6974
     4.8378   5.2250   5.4605   5.5536   5.7836   5.8686   6.0498   6.1844
     6.2782   6.4260   6.6835   6.8679   7.1034   7.2619   7.3918   7.5908
     7.6128   7.8222   8.0631   8.1013   8.2286   8.3696   8.5293   8.5972
     8.6304   8.7041   8.9199   9.0445   9.1510   9.3771   9.4607   9.5816
     9.6734   9.7707   9.8478   9.8947   9.9374  10.0084  10.0482  10.1933
    10.2590  10.3344  10.4032  10.4399  10.5427  10.6834  10.7868  10.9063
    11.0200  11.0835  11.1857  11.3674  11.4310  11.5402  11.5912  11.7930
    11.8361  11.9360  12.1118  12.2456  12.3597  12.5259  12.5481  12.6017
    12.6952  12.7177  12.8206  12.8887  12.9664  13.0427  13.1169  13.2528
    13.3321  13.4807  13.5456  13.5968  13.6963  13.7406  13.7669  13.8572
    13.8787  13.9397  14.0526  14.1280  14.1803  14.2210  14.2523  14.4218
    14.4814  14.5069  14.5249  14.6563  14.6712  14.8146  14.8386  14.9031
    15.0004  15.0242  15.0755  15.1464  15.1882  15.2376  15.2967  15.4721
    15.5410  15.5774  15.6714  15.7851  15.8897  16.0520  16.0961  16.1499
    16.2185  16.3023  16.3451  16.4410  16.5226  16.5594  16.6225  16.6694
    16.7643  16.8746  16.9432  17.0436  17.1292  17.1838  17.2603  17.3626
    17.4577  17.5022  17.5961  17.7346  17.7552  17.8218  17.8931  17.9455
    18.0080  18.0877  18.1353  18.1921  18.2877  18.3111  18.3596  18.4358
    18.5101  18.6177  18.6549  18.7374  18.8050  18.8985  18.9501  19.0221
    19.0889  19.2007  19.2980  19.4130  19.4899  19.5750  19.6384  19.7022
    19.7748  19.9076  20.0022  20.0634  20.1021  20.2000  20.2321  20.3636
    20.4804  20.4947  20.5685  20.6008  20.6720  20.7085  20.8170  20.8836
    20.9391  21.0321  21.0826  21.1683  21.2013  21.2620  21.2973  21.3701
    21.4368  21.4794  21.5555  21.6196  21.6441  21.7340  21.8240  21.9093
    21.9729  22.0552  22.0986  22.1804  22.2106  22.2382  22.3268  22.4147
    22.4334  22.4844  22.5325  22.5694  22.6425  22.6885  22.7181  22.7850
    22.8086  22.8717  22.9431  22.9943  23.0463

     the Fermi energy is     0.2274 ev

!    total energy              =   -2173.75837422 Ry
     Harris-Foulkes estimate   =   -2173.75837422 Ry
     estimated scf accuracy    <          5.1E-09 Ry

     The total energy is the sum of the following terms:

     one-electron contribution =  -24245.54344616 Ry
     hartree contribution      =   12137.86074709 Ry
     xc contribution           =    -594.27698881 Ry
     ewald contribution        =   10526.60107757 Ry
     Hubbard energy            =       1.60128963 Ry
     smearing contrib. (-TS)   =      -0.00105354 Ry

     convergence has been achieved in  11 iterations

     Forces acting on atoms (Ry/au):

     negative rho (up, down):  0.246E+00 0.000E+00
     atom    1 type  1   force =    -0.00643532   -0.00664744   -0.00026222
     atom    2 type  1   force =     0.00007688    0.00411496   -0.00042568
     atom    3 type  2   force =     0.03362497   -0.00284763   -0.00018544
     atom    4 type  2   force =     0.00188144    0.00729648    0.00008935
     atom    5 type  1   force =     0.00331140    0.00769225    0.00027120
     atom    6 type  1   force =     0.00190308   -0.00804273    0.00035911
     atom    7 type  1   force =    -0.00005780   -0.00013208   -0.00024719
     atom    8 type  1   force =     0.00259233   -0.00118577   -0.00049407
     atom    9 type  2   force =    -0.01592623    0.00182167    0.00010296
     atom   10 type  2   force =    -0.00012127   -0.00120487   -0.00008282
     atom   11 type  1   force =    -0.01336401   -0.01252948   -0.00030069
     atom   12 type  1   force =    -0.01433799    0.01245927   -0.00035199
     atom   13 type  1   force =    -0.00039549   -0.00042274    0.00041541
     atom   14 type  1   force =    -0.00267183   -0.00600037   -0.00017924
     atom   15 type  1   force =    -0.00005746    0.00245002   -0.00028425
     atom   16 type  2   force =    -0.03393270   -0.00263501   -0.00017894
     atom   17 type  2   force =     0.00110057    0.00793464    0.00003342
     atom   18 type  1   force =     0.00013747    0.00752578    0.00029485
     atom   19 type  1   force =    -0.00139302   -0.00800258    0.00034350
     atom   20 type  1   force =    -0.00004410   -0.00163627   -0.00027735
     atom   21 type  1   force =     0.00313190   -0.00186805   -0.00013703
     atom   22 type  2   force =     0.01253757    0.00218120    0.00009852
     atom   23 type  2   force =     0.00011730    0.00021633    0.00024501
     atom   24 type  1   force =     0.01379875   -0.01266726   -0.00030825
     atom   25 type  1   force =     0.01388971    0.01227733   -0.00034528
     atom   26 type  1   force =    -0.00046590   -0.00083922    0.00017033
     atom   27 type  3   force =    -0.00000430    0.00044078    0.00039672
     atom   28 type  3   force =    -0.00000469    0.00030883    0.00027587
     atom   29 type  3   force =     0.00056681    0.00001442    0.00018831
     atom   30 type  3   force =     0.00054214   -0.00004760    0.00020945
     atom   31 type  1   force =    -0.00000021   -0.00002488    0.00056644

     Total force =     0.001872     Total SCF correction =     0.000258
     SCF correction compared to forces is large: reduce conv_thr to get better values

     bfgs converged in   8 scf cycles and   7 bfgs steps
     (criteria: energy < 0.10E-03, force < 0.10E-02)

     End of BFGS Geometry Optimization

     Final energy   =   -2173.7583742155 Ry
Begin final coordinates

ATOMIC_POSITIONS (crystal)
O0       0.000000000   0.000000000   0.370636499    0   0   1
O0       0.000000000   0.500000000   0.383332346    0   0   1
Re1      0.250000000   0.500000000   0.442771831    0   0   1
Re1      0.000000000   0.000000000   0.443111541    0   0   1
O0       0.250000000   0.780000000   0.441814091    0   0   1
O0       0.250000000   0.220000000   0.441564836    0   0   1
O0       0.000000000   0.500000000   0.497606485    0   0   1
O0       0.000000000   0.000000000   0.514180534    0   0   1
Re1      0.250000000   0.000000000   0.573751230    0   0   1
Re1      0.000000000   0.500000000   0.567177022    0   0   1
O0       0.250000000   0.720000000   0.571354340    0   0   1
O0       0.250000000   0.280000000   0.571400959    0   0   1
O0       0.000000000   0.000000000   0.625877216    0   0   1
O0       0.500000000   0.000000000   0.370590068    0   0   1
O0       0.500000000   0.500000000   0.383521038    0   0   1
Re1      0.750000000   0.500000000   0.442766406    0   0   1
Re1      0.500000000   0.000000000   0.442771931    0   0   1
O0       0.750000000   0.780000000   0.441699569    0   0   1
O0       0.750000000   0.220000000   0.441641143    0   0   1
O0       0.500000000   0.500000000   0.500355694    0   0   1
O0       0.500000000   0.000000000   0.514153428    0   0   1
Re1      0.750000000   0.000000000   0.573789208    0   0   1
Re1      0.500000000   0.500000000   0.576248602    0   0   1
O0       0.750000000   0.720000000   0.571423098    0   0   1
O0       0.750000000   0.280000000   0.571391857    0   0   1
O0       0.500000000   0.000000000   0.625280209    0   0   1
H2      -0.000339351   0.624763704   0.366347663
H2       0.499586313   0.621979685   0.365259059
H2       0.168198453   0.023618104   0.355995238
H2       0.669742834   0.021570857   0.356213880
O0       0.499894125   0.499368218   0.639822980
End final coordinates

     General routines

     Parallel routines
     Hubbard U routines

   This run was terminated on:  16:16:13   1May2014

   JOB DONE.