     Program PWSCF v.5.0.2 (svn rev. 9656) starts on 27Apr2014 at  7:57:54

     Current dimensions of program PWSCF are:
     Max number of different atomic species (ntypx) = 10
     Max number of k-points (npk) =  40000
     Max angular momentum in pseudopotentials (lmaxx) =  3
     Reading input from pwscf.in
Warning: card &CELL ignored
Warning: card / ignored

     Subspace diagonalization in iterative solution of the eigenvalue problem:
     a serial algorithm will be used

     bravais-lattice index     =            0
     lattice parameter (alat)  =      11.7919  a.u.
     unit-cell volume          =    7123.6633 (a.u.)^3
     number of atoms/cell      =           32
     number of atomic types    =            3
     number of electrons       =       247.00
     number of Kohn-Sham states=          358
     kinetic-energy cutoff     =      40.0000  Ry
     charge density cutoff     =     500.0000  Ry
     convergence threshold     =      1.0E-06
     mixing beta               =       0.7000
     number of iterations used =            8  plain     mixing
     Exchange-correlation      = SLA  PW   PBE  PBE ( 1 4 3 4 0)
     EXX-fraction              =        0.00
     nstep                     =           50

     celldm(1)=  11.791891  celldm(2)=   0.000000  celldm(3)=   0.000000
     celldm(4)=   0.000000  celldm(5)=   0.000000  celldm(6)=   0.000000

     crystal axes: (cart. coord. in units of alat)
               a(1) = (   1.000000   0.000000   0.000000 )
               a(2) = (   0.000000   1.026665   0.000000 )
               a(3) = (   0.000000   0.000000   4.231793 )

     reciprocal axes: (cart. coord. in units 2 pi/alat)
               b(1) = (  1.000000  0.000000  0.000000 )
               b(2) = (  0.000000  0.974028  0.000000 )
               b(3) = (  0.000000  0.000000  0.236306 )

     PseudoPot. # 1 for O  read from file:
     /home/camp/zhonxu/pseudo/o_pbe_v1.01.uspp.F.UPF
     MD5 check sum: 2bcb18d16ea4b960afae9ec6d52f22d2
     Pseudo is Ultrasoft + core correction, Zval =  6.0
     Generated by new atomic code, or converted to UPF format
     Using radial grid of  737 points,  5 beta functions with:
                l(1) =   0
                l(2) =   0
                l(3) =   1
                l(4) =   1
                l(5) =   2
     Q(r) pseudized with  8 coefficients,  rinner =    0.900   0.900   0.900
                                                       0.900   0.900

     PseudoPot. # 2 for Ru read from file:
     /home/camp/zhonxu/pseudo/ru_pbe_v1.uspp.F.UPF
     MD5 check sum: df00be1c11b23341d9806d8f1dfa10cf
     Pseudo is Ultrasoft + core correction, Zval = 16.0
     Generated by new atomic code, or converted to UPF format
     Using radial grid of  967 points,  6 beta functions with:
                l(1) =   0
                l(2) =   0
                l(3) =   1
                l(4) =   1
                l(5) =   2
                l(6) =   2
     Q(r) pseudized with  8 coefficients,  rinner =    1.300   1.300   1.300
                                                       1.300   1.300

     PseudoPot. # 3 for H  read from file:
     /home/camp/zhonxu/pseudo/h_pbe_v1.uspp.F.UPF
     MD5 check sum: 3408e3ff4ec8b0a4e358431e7e038a48
     Pseudo is Ultrasoft, Zval =  1.0
     Generated by new atomic code, or converted to UPF format
     Using radial grid of  615 points,  2 beta functions with:
                l(1) =   0
                l(2) =   0
     Q(r) pseudized with  8 coefficients,  rinner =    0.700

     atomic species   valence    mass     pseudopotential
        O0             6.00    15.99940     O ( 1.00)
        Ru1           16.00   101.07000     Ru( 1.00)
        H2             1.00     1.00794     H ( 1.00)

     Simplified LDA+U calculation (l_max = 2) with parameters (eV):
     atomic species    L          U    alpha       J0     beta
        Ru1            2     4.0000   0.0000   0.0000   0.0000

     No symmetry found

   Cartesian axes

     site n.     atom                  positions (alat units)
         1           O0  tau(   1) = (   0.0000000   0.0000000   1.6035109  )
         2           O0  tau(   2) = (   0.0000000   0.5133323   1.7058780  )
         3           Ru1 tau(   3) = (   0.2500000   0.5133323   1.9200491  )
         4           Ru1 tau(   4) = (   0.0000000   0.0000000   1.9171714  )
         5           O0  tau(   5) = (   0.2500000   0.8315984   1.9169175  )
         6           O0  tau(   6) = (   0.2500000   0.1950663   1.9164520  )
         7           O0  tau(   7) = (   0.0000000   0.5133323   2.1053593  )
         8           O0  tau(   8) = (   0.0000000   0.0000000   2.2310435  )
         9           Ru1 tau(   9) = (   0.2500000   0.0000000   2.4441566  )
        10           Ru1 tau(  10) = (   0.0000000   0.5133323   2.4052664  )
        11           O0  tau(  11) = (   0.2500000   0.7083986   2.4364547  )
        12           O0  tau(  12) = (   0.2500000   0.3182660   2.4361585  )
        13           O0  tau(  13) = (   0.0000000   0.0000000   2.6233307  )
        14           O0  tau(  14) = (   0.5000000   0.0000000   1.6045689  )
        15           O0  tau(  15) = (   0.5000000   0.5133323   1.7057934  )
        16           Ru1 tau(  16) = (   0.7500000   0.5133323   1.9200914  )
        17           Ru1 tau(  17) = (   0.5000000   0.0000000   1.9176369  )
        18           O0  tau(  18) = (   0.7500000   0.8315984   1.9167059  )
        19           O0  tau(  19) = (   0.7500000   0.1950663   1.9164520  )
        20           O0  tau(  20) = (   0.5000000   0.5133323   2.1229635  )
        21           O0  tau(  21) = (   0.5000000   0.0000000   2.2303664  )
        22           Ru1 tau(  22) = (   0.7500000   0.0000000   2.4441143  )
        23           Ru1 tau(  23) = (   0.5000000   0.5133323   2.4370472  )
        24           O0  tau(  24) = (   0.7500000   0.7083986   2.4343812  )
        25           O0  tau(  25) = (   0.7500000   0.3182660   2.4338310  )
        26           O0  tau(  26) = (   0.5000000   0.0000000   2.6134283  )
        27           H2  tau(  27) = (  -0.0002400   0.6455975   1.6183222  )
        28           H2  tau(  28) = (   0.4995500   0.6408954   1.6119322  )
        29           H2  tau(  29) = (   0.1457200   0.0328533   1.5514599  )
        30           H2  tau(  30) = (   0.6465200   0.0301223   1.5527294  )
        31           O0  tau(  31) = (   0.5138700   0.5107965   2.7447408  )
        32           H2  tau(  32) = (   0.3716000   0.5093694   2.8125765  )

     number of k points=    10  Methfessel-Paxton smearing, width (Ry)=  0.0100
                       cart. coord. in units 2pi/alat
        k(    1) = (   0.0000000   0.0000000   0.0000000), wk =   0.1250000
        k(    2) = (   0.0000000   0.2435070   0.0000000), wk =   0.2500000
        k(    3) = (   0.0000000  -0.4870139   0.0000000), wk =   0.1250000
        k(    4) = (   0.2500000   0.0000000   0.0000000), wk =   0.2500000
        k(    5) = (   0.2500000   0.2435070   0.0000000), wk =   0.2500000
        k(    6) = (   0.2500000  -0.4870139   0.0000000), wk =   0.2500000
        k(    7) = (  -0.5000000   0.0000000   0.0000000), wk =   0.1250000
        k(    8) = (  -0.5000000   0.2435070   0.0000000), wk =   0.2500000
        k(    9) = (  -0.5000000  -0.4870139   0.0000000), wk =   0.1250000
        k(   10) = (  -0.2500000   0.2435070   0.0000000), wk =   0.2500000

     Largest allocated arrays     est. size (Mb)     dimensions
     Largest temporary arrays     est. size (Mb)     dimensions

     Check: negative/imaginary core charge=   -0.000003    0.000000

     Initial potential from superposition of free atoms
     Check: negative starting charge=   -0.522051

     starting charge  238.99980, renormalised to  247.00000

     negative rho (up, down):  0.540E+00 0.000E+00
     Number of +U iterations with fixed ns =  0
     Starting occupations:
 --- enter write_ns ---
 LDA+U parameters:
U( 2)     =  4.00000000
alpha( 2) =  0.00000000
atom    3   Tr[ns(na)] =   6.00000
    eigenvalues:
  0.600  0.600  0.600  0.600  0.600
    eigenvectors:
  1.000  0.000  0.000  0.000  0.000
  0.000  1.000  0.000  0.000  0.000
  0.000  0.000  1.000  0.000  0.000
  0.000  0.000  0.000  1.000  0.000
  0.000  0.000  0.000  0.000  1.000
    occupations:
  0.600  0.000  0.000  0.000  0.000
  0.000  0.600  0.000  0.000  0.000
  0.000  0.000  0.600  0.000  0.000
  0.000  0.000  0.000  0.600  0.000
  0.000  0.000  0.000  0.000  0.600
atom    4   Tr[ns(na)] =   6.00000
    eigenvalues:
  0.600  0.600  0.600  0.600  0.600
    eigenvectors:
  1.000  0.000  0.000  0.000  0.000
  0.000  1.000  0.000  0.000  0.000
  0.000  0.000  1.000  0.000  0.000
  0.000  0.000  0.000  1.000  0.000
  0.000  0.000  0.000  0.000  1.000
    occupations:
  0.600  0.000  0.000  0.000  0.000
  0.000  0.600  0.000  0.000  0.000
  0.000  0.000  0.600  0.000  0.000
  0.000  0.000  0.000  0.600  0.000
  0.000  0.000  0.000  0.000  0.600
atom    9   Tr[ns(na)] =   6.00000
    eigenvalues:
  0.600  0.600  0.600  0.600  0.600
    eigenvectors:
  1.000  0.000  0.000  0.000  0.000
  0.000  1.000  0.000  0.000  0.000
  0.000  0.000  1.000  0.000  0.000
  0.000  0.000  0.000  1.000  0.000
  0.000  0.000  0.000  0.000  1.000
    occupations:
  0.600  0.000  0.000  0.000  0.000
  0.000  0.600  0.000  0.000  0.000
  0.000  0.000  0.600  0.000  0.000
  0.000  0.000  0.000  0.600  0.000
  0.000  0.000  0.000  0.000  0.600
atom   10   Tr[ns(na)] =   6.00000
    eigenvalues:
  0.600  0.600  0.600  0.600  0.600
    eigenvectors:
  1.000  0.000  0.000  0.000  0.000
  0.000  1.000  0.000  0.000  0.000
  0.000  0.000  1.000  0.000  0.000
  0.000  0.000  0.000  1.000  0.000
  0.000  0.000  0.000  0.000  1.000
    occupations:
  0.600  0.000  0.000  0.000  0.000
  0.000  0.600  0.000  0.000  0.000
  0.000  0.000  0.600  0.000  0.000
  0.000  0.000  0.000  0.600  0.000
  0.000  0.000  0.000  0.000  0.600
atom   16   Tr[ns(na)] =   6.00000
    eigenvalues:
  0.600  0.600  0.600  0.600  0.600
    eigenvectors:
  1.000  0.000  0.000  0.000  0.000
  0.000  1.000  0.000  0.000  0.000
  0.000  0.000  1.000  0.000  0.000
  0.000  0.000  0.000  1.000  0.000
  0.000  0.000  0.000  0.000  1.000
    occupations:
  0.600  0.000  0.000  0.000  0.000
  0.000  0.600  0.000  0.000  0.000
  0.000  0.000  0.600  0.000  0.000
  0.000  0.000  0.000  0.600  0.000
  0.000  0.000  0.000  0.000  0.600
atom   17   Tr[ns(na)] =   6.00000
    eigenvalues:
  0.600  0.600  0.600  0.600  0.600
    eigenvectors:
  1.000  0.000  0.000  0.000  0.000
  0.000  1.000  0.000  0.000  0.000
  0.000  0.000  1.000  0.000  0.000
  0.000  0.000  0.000  1.000  0.000
  0.000  0.000  0.000  0.000  1.000
    occupations:
  0.600  0.000  0.000  0.000  0.000
  0.000  0.600  0.000  0.000  0.000
  0.000  0.000  0.600  0.000  0.000
  0.000  0.000  0.000  0.600  0.000
  0.000  0.000  0.000  0.000  0.600
atom   22   Tr[ns(na)] =   6.00000
    eigenvalues:
  0.600  0.600  0.600  0.600  0.600
    eigenvectors:
  1.000  0.000  0.000  0.000  0.000
  0.000  1.000  0.000  0.000  0.000
  0.000  0.000  1.000  0.000  0.000
  0.000  0.000  0.000  1.000  0.000
  0.000  0.000  0.000  0.000  1.000
[...]
  0.007  0.847  0.001  0.127  0.018
  0.000  0.000  0.000  0.124  0.875
    occupations:
  0.798 -0.004 -0.004 -0.084  0.004
 -0.004  0.574  0.001  0.003  0.001
 -0.004  0.001  0.772  0.001  0.001
 -0.084  0.003  0.001  0.629 -0.002
  0.004  0.001  0.001 -0.002  0.842
atom   10   Tr[ns(na)] =   7.25263
    eigenvalues:
  0.531  0.533  0.754  0.830  0.978
    eigenvectors:
  0.987  0.000  0.000  0.000  0.012
  0.000  0.000  0.000  1.000  0.000
  0.000  0.000  1.000  0.000  0.000
  0.012  0.000  0.000  0.000  0.988
  0.000  1.000  0.000  0.000  0.000
    occupations:
  0.537 -0.004  0.000  0.049  0.000
 -0.004  0.830  0.001  0.002  0.000
  0.000  0.001  0.754 -0.001  0.002
  0.049  0.002 -0.001  0.973  0.000
  0.000  0.000  0.002  0.000  0.533
atom   16   Tr[ns(na)] =   7.23364
    eigenvalues:
  0.511  0.555  0.692  0.885  0.974
    eigenvectors:
  0.000  0.181  0.008  0.001  0.809
  0.999  0.000  0.000  0.000  0.000
  0.000  0.002  0.959  0.023  0.016
  0.000  0.817  0.008  0.000  0.175
  0.000  0.000  0.024  0.975  0.000
    occupations:
  0.896 -0.005  0.033 -0.159 -0.003
 -0.005  0.511 -0.003  0.003 -0.005
  0.033 -0.003  0.700 -0.009  0.030
 -0.159  0.003 -0.009  0.629 -0.001
 -0.003 -0.005  0.030 -0.001  0.880
atom   17   Tr[ns(na)] =   7.22005
    eigenvalues:
  0.554  0.607  0.656  0.810  0.983
    eigenvectors:
  0.001  0.987  0.000  0.000  0.013
  0.000  0.000  0.014  0.986  0.000
  0.000  0.000  0.986  0.014  0.000
  0.000  0.013  0.000  0.000  0.987
  0.999  0.001  0.000  0.000  0.000
    occupations:
  0.612 -0.001  0.000  0.042  0.001
 -0.001  0.808  0.018 -0.001 -0.002
  0.000  0.018  0.658  0.001  0.000
  0.042 -0.001  0.001  0.978  0.000
  0.001 -0.002  0.000  0.000  0.554
atom   22   Tr[ns(na)] =   7.23517
    eigenvalues:
  0.568  0.591  0.749  0.841  0.869
    eigenvectors:
  0.000  0.147  0.000  0.025  0.828
  0.999  0.001  0.000  0.000  0.000
  0.000  0.000  0.999  0.000  0.000
  0.001  0.853  0.000  0.004  0.143
  0.000  0.000  0.001  0.970  0.029
    occupations:
  0.827  0.005 -0.001 -0.098  0.004
  0.005  0.568  0.001 -0.003  0.000
 -0.001  0.001  0.749  0.000 -0.002
 -0.098 -0.003  0.000  0.632 -0.003
  0.004  0.000 -0.002 -0.003  0.842
atom   23   Tr[ns(na)] =   7.21986
    eigenvalues:
  0.551  0.610  0.637  0.841  0.971
    eigenvectors:
  0.000  0.983  0.002  0.001  0.014
  0.000  0.001  0.000  0.999  0.000
  0.000  0.002  0.997  0.000  0.000
  0.000  0.014  0.000  0.000  0.986
  1.000  0.000  0.000  0.000  0.000
    occupations:
  0.615  0.006 -0.001  0.042  0.000
  0.006  0.841  0.004 -0.001  0.001
 -0.001  0.004  0.637  0.001 -0.001
  0.042 -0.001  0.001  0.965 -0.000
  0.000  0.001 -0.001 -0.000  0.551
N of occupied +U levels =  57.8505269
 --- exit write_ns ---

     Threshold (ethr) on eigenvalues was too large:
     Diagonalizing with lowered threshold

     Davidson diagonalization with overlap
     ethr =  1.68E-08,  avg # of iterations =  2.8

[...]

     total energy              =   -2162.60002214 Ry
     Harris-Foulkes estimate   =   -2162.60002215 Ry
     estimated scf accuracy    <       0.00000002 Ry

     iteration # 19     ecut=    40.00 Ry     beta=0.70
     Davidson diagonalization with overlap
     ethr =  8.10E-12,  avg # of iterations =  1.0

     negative rho (up, down):  0.576E+00 0.000E+00

     End of self-consistent calculation
 --- enter write_ns ---
 LDA+U parameters:
U( 2)     =  4.00000000
alpha( 2) =  0.00000000
atom    3   Tr[ns(na)] =   7.23239
    eigenvalues:
  0.511  0.555  0.689  0.885  0.975
    eigenvectors:
  0.000  0.181  0.009  0.001  0.809
  0.999  0.000  0.000  0.000  0.000
  0.000  0.002  0.963  0.019  0.016
  0.000  0.817  0.009  0.000  0.174
  0.000  0.000  0.020  0.980  0.000
    occupations:
  0.896  0.005  0.034 -0.159  0.002
  0.005  0.512  0.003 -0.003 -0.006
  0.034  0.003  0.697 -0.009 -0.027
 -0.159 -0.003 -0.009  0.630  0.000
  0.002 -0.006 -0.027  0.000  0.882
atom    4   Tr[ns(na)] =   7.22857
    eigenvalues:
  0.552  0.604  0.668  0.808  0.982
    eigenvectors:
  0.001  0.986  0.000  0.000  0.012
  0.000  0.000  0.031  0.969  0.000
  0.000  0.000  0.969  0.031  0.000
  0.000  0.012  0.000  0.000  0.988
  0.999  0.001  0.000  0.000  0.000
    occupations:
  0.608  0.000 -0.000  0.042  0.002
  0.000  0.804  0.024 -0.001 -0.001
 -0.000  0.024  0.672  0.001  0.000
  0.042 -0.001  0.001  0.977  0.000
  0.002 -0.001  0.000  0.000  0.552
atom    9   Tr[ns(na)] =   7.22874
    eigenvalues:
  0.574  0.594  0.772  0.831  0.843
    eigenvectors:
  0.000  0.147  0.003  0.750  0.100
  0.993  0.007  0.000  0.000  0.000
  0.000  0.000  0.995  0.005  0.000
  0.007  0.847  0.001  0.129  0.017
  0.000  0.000  0.000  0.116  0.883
    occupations:
  0.797 -0.004 -0.004 -0.084  0.004
 -0.004  0.574  0.001  0.003  0.001
 -0.004  0.001  0.773  0.001  0.001
 -0.084  0.003  0.001  0.629 -0.002
  0.004  0.001  0.001 -0.002  0.842
atom   10   Tr[ns(na)] =   7.25424
    eigenvalues:
  0.531  0.533  0.754  0.831  0.978
    eigenvectors:
  0.987  0.000  0.000  0.000  0.012
  0.000  0.000  0.000  1.000  0.000
  0.000  0.000  1.000  0.000  0.000
  0.012  0.000  0.000  0.000  0.988
  0.000  1.000  0.000  0.000  0.000
    occupations:
  0.537 -0.004  0.000  0.049  0.000
 -0.004  0.831  0.001  0.002  0.000
  0.000  0.001  0.754 -0.001  0.002
  0.049  0.002 -0.001  0.973  0.000
  0.000  0.000  0.002  0.000  0.533
atom   16   Tr[ns(na)] =   7.23347
    eigenvalues:
  0.511  0.555  0.692  0.885  0.974
    eigenvectors:
  0.000  0.181  0.008  0.001  0.809
  0.999  0.000  0.000  0.000  0.000
  0.000  0.002  0.959  0.023  0.016
  0.000  0.817  0.008  0.000  0.175
  0.000  0.000  0.024  0.975  0.000
    occupations:
  0.896 -0.005  0.033 -0.159 -0.003
 -0.005  0.511 -0.003  0.003 -0.005
  0.033 -0.003  0.700 -0.009  0.030
 -0.159  0.003 -0.009  0.629 -0.001
 -0.003 -0.005  0.030 -0.001  0.880
atom   17   Tr[ns(na)] =   7.22109
    eigenvalues:
  0.554  0.607  0.656  0.810  0.983
    eigenvectors:
  0.001  0.987  0.000  0.000  0.013
  0.000  0.000  0.014  0.986  0.000
  0.000  0.000  0.986  0.014  0.000
  0.000  0.013  0.000  0.000  0.987
  0.999  0.001  0.000  0.000  0.000
    occupations:
  0.612 -0.001  0.000  0.042  0.001
 -0.001  0.808  0.018 -0.001 -0.002
  0.000  0.018  0.659  0.001  0.000
  0.042 -0.001  0.001  0.978  0.000
  0.001 -0.002  0.000  0.000  0.554
atom   22   Tr[ns(na)] =   7.23229
    eigenvalues:
  0.568  0.591  0.748  0.841  0.868
    eigenvectors:
  0.000  0.147  0.000  0.026  0.828
  0.999  0.001  0.000  0.000  0.000
  0.000  0.000  0.999  0.000  0.000
  0.001  0.853  0.000  0.004  0.143
  0.000  0.000  0.001  0.970  0.029
    occupations:
  0.827  0.005 -0.001 -0.098  0.004
  0.005  0.568  0.001 -0.003  0.000
 -0.001  0.001  0.748  0.000 -0.002
 -0.098 -0.003  0.000  0.632 -0.003
  0.004  0.000 -0.002 -0.003  0.841
atom   23   Tr[ns(na)] =   7.22040
    eigenvalues:
  0.551  0.610  0.637  0.841  0.971
    eigenvectors:
  0.000  0.983  0.002  0.001  0.014
  0.000  0.001  0.000  0.999  0.000
  0.000  0.002  0.997  0.000  0.000
  0.000  0.014  0.000  0.000  0.986
  1.000  0.000  0.000  0.000  0.000
    occupations:
  0.615  0.006 -0.001  0.042  0.000
  0.006  0.841  0.004 -0.001  0.001
 -0.001  0.004  0.637  0.001 -0.001
  0.042 -0.001  0.001  0.965 -0.000
  0.000  0.001 -0.001 -0.000  0.551
N of occupied +U levels =  57.8511936
 --- exit write_ns ---

[...]

          k = 0.2500-0.4870 0.0000 ( 30468 PWs)   bands (ev):

[...]

          k =-0.2500 0.2435 0.0000 ( 30434 PWs)   bands (ev):

   -74.1349 -74.0420 -74.0160 -73.9748 -73.9168 -73.7050 -73.5028 -73.4898
   -44.3016 -44.2992 -44.2592 -44.2326 -44.1212 -44.1158 -44.0928 -44.0648
   -44.0510 -43.9446 -43.9423 -43.8840 -43.8263 -43.8262 -43.7540 -43.7324
   -43.7136 -43.6836 -43.6389 -43.5343 -43.4886 -43.4606 -43.3284 -43.2303
   -20.8569 -20.4135 -20.3532 -20.2529 -20.1528 -19.9523 -19.8451 -19.8181
   -19.7103 -19.6675 -19.6409 -19.4077 -19.3729 -19.3552 -19.2960 -19.2284
   -19.1676 -19.1061 -18.8535  -9.2880  -8.8754  -8.8179  -8.6427  -8.4961
    -8.4426  -8.3623  -8.2037  -7.9756  -7.8465  -7.7518  -7.7146  -7.6077
    -7.5434  -7.4967  -7.4621  -7.3606  -7.2920  -6.9980  -6.8815  -6.7664
    -6.5246  -6.4774  -6.3233  -6.1429  -6.0508  -5.9948  -5.8374  -5.7021
    -5.6224  -5.5616  -5.4870  -5.4520  -5.3182  -5.1612  -5.1002  -5.0729
    -5.0072  -4.9324  -4.8505  -4.8129  -4.6173  -4.4987  -4.3768  -4.2390
    -4.1580  -4.1320  -4.0563  -3.9144  -3.8501  -3.6716  -3.5862  -3.4948
    -3.2094  -3.1726  -3.0726  -2.8510  -2.5726  -2.4102  -2.3443  -2.3049
    -2.2765  -2.1364  -2.0990  -2.0237  -1.9985  -1.8982  -1.8054  -1.7753
    -1.6169  -1.5593  -1.2970  -1.1332  -0.9581  -0.6434  -0.5439  -0.4739
    -0.3506  -0.3023  -0.1526   0.1277   0.9381   1.6446   1.8128   1.8507
     2.0307   2.4650   2.7423   2.9358   3.2136   3.2989   3.3986   3.4671
     3.5410   3.6010   3.8565   3.9581   4.0679   4.4172   4.7123   5.1474
     5.5905   5.7111   5.7999   6.0922   6.3830   6.5046   6.6099   6.6679
     6.8438   6.9840   7.0320   7.2682   7.5316   7.7085   7.8766   7.9525
     8.0828   8.2905   8.3693   8.4966   8.5623   8.6085   8.7352   8.8162
     8.9390   9.1234   9.2080   9.3522   9.4356   9.5591   9.6671   9.8646
     9.9494  10.0376  10.1243  10.1478  10.2190  10.3430  10.3764  10.4558
    10.5473  10.6526  10.7497  10.8933  10.9122  10.9750  11.1160  11.3069
    11.3793  11.4193  11.5733  11.5893  11.6490  11.7996  11.8556  11.8773
    11.9730  12.0530  12.1142  12.1798  12.2687  12.3785  12.4161  12.5257
    12.5592  12.6264  12.7306  12.7690  12.7731  12.8838  12.9594  13.0084
    13.0953  13.1605  13.2124  13.3336  13.4002  13.4874  13.6241  13.6682
    13.7391  13.8357  13.9400  14.0452  14.1057  14.2119  14.2456  14.3364
    14.4015  14.5497  14.5884  14.6246  14.6959  14.7810  14.9015  14.9318
    14.9870  15.1381  15.1551  15.2354  15.3197  15.3990  15.5351  15.5660
    15.6280  15.7156  15.7791  15.8360  15.8662  15.8945  15.9468  16.0395
    16.0862  16.1495  16.2201  16.2844  16.3137  16.3602  16.4801  16.5347
    16.6283  16.7032  16.7527  16.8219  16.8836  16.9048  16.9624  17.0678
    17.1599  17.2086  17.3046  17.3645  17.4608  17.4768  17.5068  17.5474
    17.6280  17.6714  17.7476  17.8021  17.8604  17.9275  17.9949  18.0584
    18.1329  18.1857  18.2277  18.3005  18.3343  18.4405  18.5598  18.6108
    18.6819  18.7858  18.8348  18.8846  18.9538  19.0271  19.1054  19.1866
    19.2111  19.3030  19.4162  19.4519  19.5019  19.6497  19.7158  19.7518
    19.7837  19.8590  19.9714  19.9926  20.1168  20.2383  20.2914  20.3829
    20.4283  20.5461  20.6460  20.7185  20.7587  20.8244  20.8833  20.9556
    20.9785  21.0426  21.1182  21.2159  21.2565  21.3187  21.3280  21.3983
    21.4517  21.4904  21.5514  21.6019  21.6625  21.7471  21.8400  21.9011
    21.9543  21.9823  22.0018  22.0623  22.1387  22.2445

     the Fermi energy is    -1.1059 ev

!    total energy              =   -2162.60002214 Ry
     Harris-Foulkes estimate   =   -2162.60002215 Ry
     estimated scf accuracy    <          9.6E-09 Ry

     The total energy is the sum of the following terms:

     one-electron contribution =  -25272.76390668 Ry
     hartree contribution      =   12661.11063419 Ry
     xc contribution           =    -338.64075699 Ry
     ewald contribution        =   10785.62957567 Ry
     Hubbard energy            =       2.06338804 Ry
     smearing contrib. (-TS)   =       0.00104364 Ry

     convergence has been achieved in  19 iterations

     Forces acting on atoms (Ry/au):

     negative rho (up, down):  0.576E+00 0.000E+00
     atom    1 type  1   force =    -0.00563342   -0.00948837   -0.00047816
     atom    2 type  1   force =     0.00043263    0.00454758   -0.00062588
     atom    3 type  2   force =     0.01947328    0.00187075   -0.00059748
     atom    4 type  2   force =     0.00234012    0.00541006    0.00026066
     atom    5 type  1   force =     0.00144853   -0.03767063    0.00063190
     atom    6 type  1   force =     0.00256164    0.03874187    0.00057954
     atom    7 type  1   force =     0.00232765   -0.00273282   -0.00032553
     atom    8 type  1   force =     0.00395313   -0.00233278   -0.00031065
     atom    9 type  2   force =    -0.01901970    0.00258338   -0.00001943
     atom   10 type  2   force =    -0.00729429   -0.00087131   -0.00051116
     atom   11 type  1   force =    -0.01033785    0.01388458    0.00009195
     atom   12 type  1   force =    -0.01186885   -0.01468044    0.00005134
     atom   13 type  1   force =     0.00296375   -0.00043350    0.00027449
     atom   14 type  1   force =    -0.00395437   -0.00759071   -0.00024208
     atom   15 type  1   force =    -0.00003394    0.00354642    0.00010996
     atom   16 type  2   force =    -0.02066119    0.00420207   -0.00073198
     atom   17 type  2   force =     0.00224758    0.00462594    0.00024601
     atom   18 type  1   force =    -0.00026192   -0.03796619    0.00069237
     atom   19 type  1   force =     0.00308043    0.03675537    0.00059796
     atom   20 type  1   force =    -0.00232139   -0.00293219    0.00056823
     atom   21 type  1   force =    -0.00403441   -0.00041681   -0.00060563
     atom   22 type  2   force =     0.01699792    0.00200097    0.00015824
     atom   23 type  2   force =     0.00402361    0.00104736    0.00005839
     atom   24 type  1   force =     0.01290657    0.01771257    0.00026552
     atom   25 type  1   force =     0.01380166   -0.01816956    0.00021073
     atom   26 type  1   force =    -0.00345946   -0.00140117    0.00009974
     atom   27 type  3   force =     0.00002774    0.00036219    0.00004090
     atom   28 type  3   force =     0.00001734   -0.00028379   -0.00002106
     atom   29 type  3   force =     0.00023416    0.00002556   -0.00040310
     atom   30 type  3   force =     0.00016208   -0.00002804   -0.00032994
     atom   31 type  1   force =    -0.00039722   -0.00015678    0.00000845
     atom   32 type  3   force =     0.00027822   -0.00016155    0.00025571

     Total force =     0.002366     Total SCF correction =     0.000173

     bfgs converged in  17 scf cycles and  16 bfgs steps
     (criteria: energy < 0.10E-03, force < 0.10E-02)

     End of BFGS Geometry Optimization

     Final energy   =   -2162.6000221370 Ry
Begin final coordinates

ATOMIC_POSITIONS (crystal)
O0       0.000000000   0.000000000   0.380244526    0   0   1
O0       0.000000000   0.500000000   0.402557932    0   0   1
Ru1      0.250000000   0.500000000   0.453416571    0   0   1
Ru1      0.000000000   0.000000000   0.453867905    0   0   1
O0       0.250000000   0.810000000   0.453499917    0   0   1
O0       0.250000000   0.190000000   0.453262445    0   0   1
O0       0.000000000   0.500000000   0.498426274    0   0   1
O0       0.000000000   0.000000000   0.526747230    0   0   1
Ru1      0.250000000   0.000000000   0.577929273    0   0   1
Ru1      0.000000000   0.500000000   0.568308915    0   0   1
O0       0.250000000   0.690000000   0.575313341    0   0   1
O0       0.250000000   0.310000000   0.575388633    0   0   1
O0       0.000000000   0.000000000   0.619826315    0   0   1
O0       0.500000000   0.000000000   0.380384375    0   0   1
O0       0.500000000   0.500000000   0.404016104    0   0   1
Ru1      0.750000000   0.500000000   0.453411742    0   0   1
Ru1      0.500000000   0.000000000   0.453911939    0   0   1
O0       0.750000000   0.810000000   0.453469143    0   0   1
O0       0.750000000   0.190000000   0.453323104    0   0   1
O0       0.500000000   0.500000000   0.501965015    0   0   1
O0       0.500000000   0.000000000   0.526728892    0   0   1
Ru1      0.750000000   0.000000000   0.576960620    0   0   1
Ru1      0.500000000   0.500000000   0.575278605    0   0   1
O0       0.750000000   0.690000000   0.574310562    0   0   1
O0       0.750000000   0.310000000   0.574161635    0   0   1
O0       0.500000000   0.000000000   0.617500935    0   0   1
H2      -0.000483095   0.627242058   0.381522427
H2       0.499303445   0.613852448   0.378941687
H2       0.145663936   0.031114087   0.367737022
H2       0.646872048   0.026375700   0.367930723
O0       0.515707403   0.498037557   0.647498345
H2       0.374421975   0.494392118   0.663977848
End final coordinates

     General routines

     Parallel routines
     Hubbard U routines

   This run was terminated on:   5:22:42  28Apr2014

   JOB DONE.
Running PBS batch system epilogue script
Job id: 340458.audhumbla.fysik.dtu.dk
Username: zhonxu
Groupname: campgst
Jobname: RuO2/Eads-2-layers/OH-U-4.0
Sessionid: 9885
Queuename: verylong
Accounting:
This job has allocated the following 16 nodes:
c032 c032 c032 c032 c032 c032 c032 c032 c018 c018 c018 c018 c018 c018 c018 c018
Finished epilogue job 340458.audhumbla.fysik.dtu.dk for zhonxu