     Program PWSCF v.5.0.2 (svn rev. 9656) starts on 24Jan2014 at 12:59:54

     Current dimensions of program PWSCF are:
     Max number of different atomic species (ntypx) = 10
     Max number of k-points (npk) =  40000
     Max angular momentum in pseudopotentials (lmaxx) =  3
     Reading input from IrO2-v-1.10.in

     Subspace diagonalization in iterative solution of the eigenvalue problem:
     a serial algorithm will be used

     bravais-lattice index     =            0
     lattice parameter (alat)  =       9.1109  a.u.
     unit-cell volume          =     487.3829 (a.u.)^3
     number of atoms/cell      =            6
     number of atomic types    =            2
     number of electrons       =        54.00
     number of Kohn-Sham states=           78
     kinetic-energy cutoff     =      40.0000  Ry
     charge density cutoff     =     500.0000  Ry
     convergence threshold     =      1.0E-06
     mixing beta               =       0.3000
     number of iterations used =            8  plain     mixing
     Exchange-correlation      = SLA  PW   PBE  PBE ( 1 4 3 4 0)
     EXX-fraction              =        0.00
     nstep                     =           50

     celldm(1)=   9.110907  celldm(2)=   0.000000  celldm(3)=   0.000000
     celldm(4)=   0.000000  celldm(5)=   0.000000  celldm(6)=   0.000000

     crystal axes: (cart. coord. in units of alat)
               a(1) = (   1.000000   0.000000   0.000000 )
               a(2) = (   0.000000   1.000000   0.000000 )
               a(3) = (   0.000000   0.000000   0.644444 )

     reciprocal axes: (cart. coord. in units 2 pi/alat)
               b(1) = (  1.000000  0.000000  0.000000 )
               b(2) = (  0.000000  1.000000  0.000000 )
               b(3) = (  0.000000  0.000000  1.551724 )

     PseudoPot. # 1 for Ir read from file:
     /home/camp/zhonxu/pseudo/ir_pbe_v1.uspp.F.UPF
     MD5 check sum: abf987a9674477536ede83817f8f8b70
     Pseudo is Ultrasoft + core correction, Zval = 15.0
     Generated by new atomic code, or converted to UPF format
     Using radial grid of  983 points,  7 beta functions with:
                l(1) =   0
                l(2) =   0
                l(3) =   1
                l(4) =   1
                l(5) =   1
                l(6) =   2
                l(7) =   2
     Q(r) pseudized with  8 coefficients,  rinner =    1.350   1.350   1.350
                                                       1.350   1.350

     PseudoPot. # 2 for O  read from file:
     /home/camp/zhonxu/pseudo/o_pbe_v1.01.uspp.F.UPF
     MD5 check sum: 2bcb18d16ea4b960afae9ec6d52f22d2
     Pseudo is Ultrasoft + core correction, Zval =  6.0
     Generated by new atomic code, or converted to UPF format
     Using radial grid of  737 points,  5 beta functions with:
                l(1) =   0
                l(2) =   0
                l(3) =   1
                l(4) =   1
                l(5) =   2
     Q(r) pseudized with  8 coefficients,  rinner =    0.900   0.900   0.900
                                                       0.900   0.900

     atomic species   valence    mass     pseudopotential
        Ir0           15.00   192.22000     Ir( 1.00)
        O1             6.00    15.99940     O ( 1.00)

     Starting magnetic structure
     atomic species   magnetization
        Ir0          0.600
        O1           0.000

      8 Sym. Ops., with inversion, found
          (note:  8 additional sym.ops. were found but ignored
           their fractional translations are incommensurate with FFT grid)

   Cartesian axes

     site n.     atom                  positions (alat units)
         1           Ir0 tau(   1) = (   0.0000000   0.0000000   0.0000000  )
         2           Ir0 tau(   2) = (   0.5000000   0.5000000   0.3222222  )
         3           O1  tau(   3) = (   0.3050000   0.3050000   0.0000000  )
         4           O1  tau(   4) = (  -0.3050000  -0.3050000   0.0000000  )
         5           O1  tau(   5) = (   0.8050000   0.1950000   0.3222222  )
         6           O1  tau(   6) = (   0.1950000   0.8050000   0.3222222  )

     number of k points=    54  Methfessel-Paxton smearing, width (Ry)=  0.0100
                       cart. coord. in units 2pi/alat
        k(    1) = (   0.0000000   0.0000000   0.0000000), wk =   0.0080000
        k(    2) = (   0.0000000   0.0000000   0.3103448), wk =   0.0160000
        k(    3) = (   0.0000000   0.0000000   0.6206897), wk =   0.0160000
        k(    4) = (   0.0000000   0.2000000   0.0000000), wk =   0.0320000
        k(    5) = (   0.0000000   0.2000000   0.3103448), wk =   0.0640000
        k(    6) = (   0.0000000   0.2000000   0.6206897), wk =   0.0640000
        k(    7) = (   0.0000000   0.4000000   0.0000000), wk =   0.0320000
        k(    8) = (   0.0000000   0.4000000   0.3103448), wk =   0.0640000
        k(    9) = (   0.0000000   0.4000000   0.6206897), wk =   0.0640000
        k(   10) = (   0.2000000   0.2000000   0.0000000), wk =   0.0160000
        k(   11) = (   0.2000000   0.2000000   0.3103448), wk =   0.0320000
        k(   12) = (   0.2000000   0.2000000   0.6206897), wk =   0.0320000
        k(   13) = (   0.2000000   0.4000000   0.0000000), wk =   0.0320000
        k(   14) = (   0.2000000   0.4000000   0.3103448), wk =   0.0640000
        k(   15) = (   0.2000000   0.4000000   0.6206897), wk =   0.0640000
        k(   16) = (   0.4000000   0.4000000   0.0000000), wk =   0.0160000
        k(   17) = (   0.4000000   0.4000000   0.3103448), wk =   0.0320000
        k(   18) = (   0.4000000   0.4000000   0.6206897), wk =   0.0320000
        k(   19) = (  -0.2000000   0.2000000   0.0000000), wk =   0.0160000
        k(   20) = (  -0.2000000   0.2000000  -0.3103448), wk =   0.0320000
        k(   21) = (  -0.2000000   0.2000000  -0.6206897), wk =   0.0320000
        k(   22) = (  -0.2000000   0.4000000   0.0000000), wk =   0.0320000
        k(   23) = (  -0.2000000   0.4000000  -0.3103448), wk =   0.0640000
        k(   24) = (  -0.2000000   0.4000000  -0.6206897), wk =   0.0640000
        k(   25) = (  -0.4000000   0.4000000   0.0000000), wk =   0.0160000
        k(   26) = (  -0.4000000   0.4000000  -0.3103448), wk =   0.0320000
        k(   27) = (  -0.4000000   0.4000000  -0.6206897), wk =   0.0320000
        k(   28) = (   0.0000000   0.0000000   0.0000000), wk =   0.0080000
        k(   29) = (   0.0000000   0.0000000   0.3103448), wk =   0.0160000
        k(   30) = (   0.0000000   0.0000000   0.6206897), wk =   0.0160000
        k(   31) = (   0.0000000   0.2000000   0.0000000), wk =   0.0320000
        k(   32) = (   0.0000000   0.2000000   0.3103448), wk =   0.0640000
        k(   33) = (   0.0000000   0.2000000   0.6206897), wk =   0.0640000
        k(   34) = (   0.0000000   0.4000000   0.0000000), wk =   0.0320000
        k(   35) = (   0.0000000   0.4000000   0.3103448), wk =   0.0640000
        k(   36) = (   0.0000000   0.4000000   0.6206897), wk =   0.0640000
        k(   37) = (   0.2000000   0.2000000   0.0000000), wk =   0.0160000
        k(   38) = (   0.2000000   0.2000000   0.3103448), wk =   0.0320000
        k(   39) = (   0.2000000   0.2000000   0.6206897), wk =   0.0320000
        k(   40) = (   0.2000000   0.4000000   0.0000000), wk =   0.0320000
        k(   41) = (   0.2000000   0.4000000   0.3103448), wk =   0.0640000
        k(   42) = (   0.2000000   0.4000000   0.6206897), wk =   0.0640000
        k(   43) = (   0.4000000   0.4000000   0.0000000), wk =   0.0160000
        k(   44) = (   0.4000000   0.4000000   0.3103448), wk =   0.0320000
        k(   45) = (   0.4000000   0.4000000   0.6206897), wk =   0.0320000
        k(   46) = (  -0.2000000   0.2000000   0.0000000), wk =   0.0160000
        k(   47) = (  -0.2000000   0.2000000  -0.3103448), wk =   0.0320000
        k(   48) = (  -0.2000000   0.2000000  -0.6206897), wk =   0.0320000
        k(   49) = (  -0.2000000   0.4000000   0.0000000), wk =   0.0320000
        k(   50) = (  -0.2000000   0.4000000  -0.3103448), wk =   0.0640000
        k(   51) = (  -0.2000000   0.4000000  -0.6206897), wk =   0.0640000
        k(   52) = (  -0.4000000   0.4000000   0.0000000), wk =   0.0160000
        k(   53) = (  -0.4000000   0.4000000  -0.3103448), wk =   0.0320000
        k(   54) = (  -0.4000000   0.4000000  -0.6206897), wk =   0.0320000

     Largest allocated arrays     est. size (Mb)     dimensions
     Largest temporary arrays     est. size (Mb)     dimensions

     Check: negative/imaginary core charge=   -0.000005    0.000000

     Initial potential from superposition of free atoms
     Check: negative starting charge=(component1):   -0.668085
     Check: negative starting charge=(component2):   -0.166384

     starting charge   52.99993, renormalised to   54.00000

     negative rho (up, down):  0.681E+00 0.170E+00
     Starting wfc are   40 randomized atomic wfcs

     Self-consistent Calculation

     iteration #  1     ecut=    40.00 Ry     beta=0.30
     Davidson diagonalization with overlap
     ethr =  1.00E-02,  avg # of iterations =  5.2

     negative rho (up, down):  0.612E+00 0.194E+00

     total energy              =    -499.46184904 Ry
     Harris-Foulkes estimate   =    -501.53570492 Ry
     estimated scf accuracy    <       5.81603469 Ry

     total magnetization       =     8.38 Bohr mag/cell
     absolute magnetization    =     8.80 Bohr mag/cell

[...]

     End of self-consistent calculation

 ------ SPIN UP ------------

          k = 0.0000 0.0000 0.0000 (  2063 PWs)   bands (ev):

   -38.5894 -38.5893 -38.4455 -38.4454 -38.3940 -38.3871  -8.5370  -7.5339
    -6.8592  -6.8592   2.8095   3.1806   4.7085   4.7085   4.7875   7.0133
     7.0133   7.4300   8.5481   8.9931   8.9932   9.0382   9.0530   9.3046
     9.6147   9.6149  10.0588  11.7023  12.5536  14.9548  15.1428  15.1428
    16.3223  20.1312  20.1313  21.2215  21.2215  22.1100  23.6422  23.8367
    26.3570  26.6165  26.6165  28.1879  28.1973  30.4188  31.6322  31.6323
    32.6990  32.6990  34.1879  36.1897  36.3174  36.4476  36.4476  37.8382
    38.3164  38.9065  39.0745  40.1879  40.3758  40.3758  40.6897  40.6897
    41.2630  41.2630  42.2061  43.9248  44.7905  46.3773  46.3773  47.3234
    48.0955  48.0956  48.1652  48.5020  49.1793  49.1793

[...]

          k =-0.2000 0.2000 0.0000 (  2069 PWs)   bands (ev):

[...]

 ------ SPIN DOWN ----------

[...]

     the Fermi energy is    11.5395 ev

!    total energy              =    -501.23283973 Ry
     Harris-Foulkes estimate   =    -501.23283893 Ry
     estimated scf accuracy    <       0.00000025 Ry

     The total energy is the sum of the following terms:

     one-electron contribution =    -124.34821354 Ry
     hartree contribution      =      95.66342831 Ry
     xc contribution           =    -137.74939189 Ry
     ewald contribution        =    -334.79829581 Ry
     smearing contrib. (-TS)   =      -0.00036681 Ry

[...]

     convergence has been achieved in  15 iterations

     Forces acting on atoms (Ry/au):

     negative rho (up, down):  0.392E+00 0.391E+00
     atom    1 type  1   force =     0.00000000    0.00000000    0.00000000
     atom    2 type  1   force =     0.00000000    0.00000000    0.00000000
[...]
        k(   12) = (   0.2041410   0.2041410   0.5957699), wk =   0.0320000
        k(   13) = (   0.2041420   0.4082809   0.0000000), wk =   0.0320000
        k(   14) = (   0.2041420   0.4082809   0.2978849), wk =   0.0640000
        k(   15) = (   0.2041420   0.4082809   0.5957699), wk =   0.0640000
        k(   16) = (   0.4082820   0.4082820   0.0000000), wk =   0.0160000
        k(   17) = (   0.4082820   0.4082820   0.2978849), wk =   0.0320000
        k(   18) = (   0.4082820   0.4082820   0.5957699), wk =   0.0320000
        k(   19) = (  -0.2041389   0.2041389   0.0000000), wk =   0.0160000
        k(   20) = (  -0.2041389   0.2041389  -0.2978849), wk =   0.0320000
        k(   21) = (  -0.2041389   0.2041389  -0.5957699), wk =   0.0320000
        k(   22) = (  -0.2041378   0.4082788   0.0000000), wk =   0.0320000
        k(   23) = (  -0.2041378   0.4082788  -0.2978849), wk =   0.0640000
        k(   24) = (  -0.2041378   0.4082788  -0.5957699), wk =   0.0640000
        k(   25) = (  -0.4082778   0.4082778   0.0000000), wk =   0.0160000
        k(   26) = (  -0.4082778   0.4082778  -0.2978849), wk =   0.0320000
        k(   27) = (  -0.4082778   0.4082778  -0.5957699), wk =   0.0320000
        k(   28) = (   0.0000000   0.0000000   0.0000000), wk =   0.0080000
        k(   29) = (   0.0000000   0.0000000   0.2978849), wk =   0.0160000
        k(   30) = (   0.0000000   0.0000000   0.5957699), wk =   0.0160000
        k(   31) = (   0.0000010   0.2041399   0.0000000), wk =   0.0320000
        k(   32) = (   0.0000010   0.2041399   0.2978849), wk =   0.0640000
        k(   33) = (   0.0000010   0.2041399   0.5957699), wk =   0.0640000
        k(   34) = (   0.0000021   0.4082799   0.0000000), wk =   0.0320000
        k(   35) = (   0.0000021   0.4082799   0.2978849), wk =   0.0640000
        k(   36) = (   0.0000021   0.4082799   0.5957699), wk =   0.0640000
        k(   37) = (   0.2041410   0.2041410   0.0000000), wk =   0.0160000
        k(   38) = (   0.2041410   0.2041410   0.2978849), wk =   0.0320000
        k(   39) = (   0.2041410   0.2041410   0.5957699), wk =   0.0320000
        k(   40) = (   0.2041420   0.4082809   0.0000000), wk =   0.0320000
        k(   41) = (   0.2041420   0.4082809   0.2978849), wk =   0.0640000
        k(   42) = (   0.2041420   0.4082809   0.5957699), wk =   0.0640000
        k(   43) = (   0.4082820   0.4082820   0.0000000), wk =   0.0160000
        k(   44) = (   0.4082820   0.4082820   0.2978849), wk =   0.0320000
        k(   45) = (   0.4082820   0.4082820   0.5957699), wk =   0.0320000
        k(   46) = (  -0.2041389   0.2041389   0.0000000), wk =   0.0160000
        k(   47) = (  -0.2041389   0.2041389  -0.2978849), wk =   0.0320000
        k(   48) = (  -0.2041389   0.2041389  -0.5957699), wk =   0.0320000
        k(   49) = (  -0.2041378   0.4082788   0.0000000), wk =   0.0320000
        k(   50) = (  -0.2041378   0.4082788  -0.2978849), wk =   0.0640000
        k(   51) = (  -0.2041378   0.4082788  -0.5957699), wk =   0.0640000
        k(   52) = (  -0.4082778   0.4082778   0.0000000), wk =   0.0160000
        k(   53) = (  -0.4082778   0.4082778  -0.2978849), wk =   0.0320000
        k(   54) = (  -0.4082778   0.4082778  -0.5957699), wk =   0.0320000

     Check: negative/imaginary core charge=   -0.000005    0.000000
     Check: negative starting charge=(component1):   -0.835210

[...]

     Threshold (ethr) on eigenvalues was too large:
     Diagonalizing with lowered threshold

     Davidson diagonalization with overlap
     ethr =  1.02E-09,  avg # of iterations =  2.0

[...]

     Volume is kept fixed: isostatic pressure set to zero

     bfgs converged in   6 scf cycles and   5 bfgs steps
     (criteria: energy < 0.10E-03, force < 0.10E-02, cell < 0.50E+00)

     End of BFGS Geometry Optimization

     Final enthalpy =    -501.2439564915 Ry
Begin final coordinates
     new unit-cell volume =    487.38294 a.u.^3 (    72.22270 Ang^3 )

CELL_PARAMETERS (alat=  9.11090702)
   0.979720100  -0.000005025   0.000000000
  -0.000005025   0.979720100   0.000000000
   0.000000000   0.000000000   0.671400172

ATOMIC_POSITIONS (crystal)
Ir0      0.000000000   0.000000000   0.000000000    0   0   0
Ir0      0.500000000   0.500000000   0.500000000    0   0   0
O1       0.308695773   0.308695773   0.000000000    1   1   0
O1      -0.308695773  -0.308695773   0.000000000    1   1   0
O1       0.808695201   0.191304799   0.500000000    1   1   0
O1       0.191304799   0.808695201   0.500000000    1   1   0
End final coordinates

     A final scf calculation at the relaxed structure.
     The G-vectors are recalculated for the final unit cell
     Results may differ from those at the preceding step.

     bravais-lattice index     =            0
     lattice parameter (alat)  =       9.1109  a.u.
     unit-cell volume          =     487.3829 (a.u.)^3
     number of atoms/cell      =            6
     number of atomic types    =            2
     number of electrons       =        54.00
     number of Kohn-Sham states=           78
     kinetic-energy cutoff     =      40.0000  Ry
     charge density cutoff     =     500.0000  Ry
     convergence threshold     =      1.0E-08
     mixing beta               =       0.3000
     number of iterations used =            8  plain     mixing
     Exchange-correlation      = SLA  PW   PBE  PBE ( 1 4 3 4 0)
     EXX-fraction              =        0.00

     celldm(1)=   9.110907  celldm(2)=   0.000000  celldm(3)=   0.000000
     celldm(4)=   0.000000  celldm(5)=   0.000000  celldm(6)=   0.000000

     crystal axes: (cart. coord. in units of alat)
               a(1) = (   0.979720  -0.000005   0.000000 )
               a(2) = (  -0.000005   0.979720   0.000000 )
               a(3) = (   0.000000   0.000000   0.671400 )

     reciprocal axes: (cart. coord. in units 2 pi/alat)
               b(1) = (  1.020700  0.000005 -0.000000 )
               b(2) = (  0.000005  1.020700 -0.000000 )
               b(3) = ( -0.000000 -0.000000  1.489425 )

     PseudoPot. # 1 for Ir read from file:
     /home/camp/zhonxu/pseudo/ir_pbe_v1.uspp.F.UPF
     MD5 check sum: abf987a9674477536ede83817f8f8b70
     Pseudo is Ultrasoft + core correction, Zval = 15.0
     Generated by new atomic code, or converted to UPF format
     Using radial grid of  983 points,  7 beta functions with:
                l(1) =   0
                l(2) =   0
                l(3) =   1
                l(4) =   1
                l(5) =   1
                l(6) =   2
                l(7) =   2
     Q(r) pseudized with  8 coefficients,  rinner =    1.350   1.350   1.350
                                                       1.350   1.350

     PseudoPot. # 2 for O  read from file:
     /home/camp/zhonxu/pseudo/o_pbe_v1.01.uspp.F.UPF
     MD5 check sum: 2bcb18d16ea4b960afae9ec6d52f22d2
     Pseudo is Ultrasoft + core correction, Zval =  6.0
     Generated by new atomic code, or converted to UPF format
     Using radial grid of  737 points,  5 beta functions with:
                l(1) =   0
                l(2) =   0
                l(3) =   1
                l(4) =   1
                l(5) =   2
     Q(r) pseudized with  8 coefficients,  rinner =    0.900   0.900   0.900
                                                       0.900   0.900

     atomic species   valence    mass     pseudopotential
        Ir0           15.00   192.22000     Ir( 1.00)
        O1             6.00    15.99940     O ( 1.00)

     Starting magnetic structure
     atomic species   magnetization
        Ir0          0.600
        O1           0.000

      8 Sym. Ops., with inversion, found
          (note:  8 additional sym.ops. were found but ignored
           their fractional translations are incommensurate with FFT grid)

   Cartesian axes

     site n.     atom                  positions (alat units)
         1           Ir0 tau(   1) = (   0.0000000   0.0000000   0.0000000  )
         2           Ir0 tau(   2) = (   0.4898575   0.4898575   0.3357001  )
         3           O1  tau(   3) = (   0.3024339   0.3024339   0.0000000  )
         4           O1  tau(   4) = (  -0.3024339  -0.3024339   0.0000000  )
         5           O1  tau(   5) = (   0.7922940   0.1874211   0.3357001  )
         6           O1  tau(   6) = (   0.1874211   0.7922940   0.3357001  )

     number of k points=    54  Methfessel-Paxton smearing, width (Ry)=  0.0100
                       cart. coord. in units 2pi/alat
        k(    1) = (   0.0000000   0.0000000   0.0000000), wk =   0.0080000
        k(    2) = (   0.0000000   0.0000000   0.2978849), wk =   0.0160000
        k(    3) = (   0.0000000   0.0000000   0.5957699), wk =   0.0160000
        k(    4) = (   0.0000010   0.2041399   0.0000000), wk =   0.0320000
        k(    5) = (   0.0000010   0.2041399   0.2978849), wk =   0.0640000
        k(    6) = (   0.0000010   0.2041399   0.5957699), wk =   0.0640000
        k(    7) = (   0.0000021   0.4082799   0.0000000), wk =   0.0320000
        k(    8) = (   0.0000021   0.4082799   0.2978849), wk =   0.0640000
        k(    9) = (   0.0000021   0.4082799   0.5957699), wk =   0.0640000
        k(   10) = (   0.2041410   0.2041410   0.0000000), wk =   0.0160000
        k(   11) = (   0.2041410   0.2041410   0.2978849), wk =   0.0320000
        k(   12) = (   0.2041410   0.2041410   0.5957699), wk =   0.0320000
        k(   13) = (   0.2041420   0.4082809   0.0000000), wk =   0.0320000
        k(   14) = (   0.2041420   0.4082809   0.2978849), wk =   0.0640000
        k(   15) = (   0.2041420   0.4082809   0.5957699), wk =   0.0640000
        k(   16) = (   0.4082820   0.4082820   0.0000000), wk =   0.0160000
        k(   17) = (   0.4082820   0.4082820   0.2978849), wk =   0.0320000
        k(   18) = (   0.4082820   0.4082820   0.5957699), wk =   0.0320000
        k(   19) = (  -0.2041389   0.2041389   0.0000000), wk =   0.0160000
        k(   20) = (  -0.2041389   0.2041389  -0.2978849), wk =   0.0320000
        k(   21) = (  -0.2041389   0.2041389  -0.5957699), wk =   0.0320000
        k(   22) = (  -0.2041378   0.4082788   0.0000000), wk =   0.0320000
        k(   23) = (  -0.2041378   0.4082788  -0.2978849), wk =   0.0640000
        k(   24) = (  -0.2041378   0.4082788  -0.5957699), wk =   0.0640000
        k(   25) = (  -0.4082778   0.4082778   0.0000000), wk =   0.0160000
        k(   26) = (  -0.4082778   0.4082778  -0.2978849), wk =   0.0320000
        k(   27) = (  -0.4082778   0.4082778  -0.5957699), wk =   0.0320000
        k(   28) = (   0.0000000   0.0000000   0.0000000), wk =   0.0080000
        k(   29) = (   0.0000000   0.0000000   0.2978849), wk =   0.0160000
        k(   30) = (   0.0000000   0.0000000   0.5957699), wk =   0.0160000
        k(   31) = (   0.0000010   0.2041399   0.0000000), wk =   0.0320000
        k(   32) = (   0.0000010   0.2041399   0.2978849), wk =   0.0640000
        k(   33) = (   0.0000010   0.2041399   0.5957699), wk =   0.0640000
        k(   34) = (   0.0000021   0.4082799   0.0000000), wk =   0.0320000
        k(   35) = (   0.0000021   0.4082799   0.2978849), wk =   0.0640000
        k(   36) = (   0.0000021   0.4082799   0.5957699), wk =   0.0640000
        k(   37) = (   0.2041410   0.2041410   0.0000000), wk =   0.0160000
        k(   38) = (   0.2041410   0.2041410   0.2978849), wk =   0.0320000
        k(   39) = (   0.2041410   0.2041410   0.5957699), wk =   0.0320000
        k(   40) = (   0.2041420   0.4082809   0.0000000), wk =   0.0320000
        k(   41) = (   0.2041420   0.4082809   0.2978849), wk =   0.0640000
        k(   42) = (   0.2041420   0.4082809   0.5957699), wk =   0.0640000
        k(   43) = (   0.4082820   0.4082820   0.0000000), wk =   0.0160000
        k(   44) = (   0.4082820   0.4082820   0.2978849), wk =   0.0320000
        k(   45) = (   0.4082820   0.4082820   0.5957699), wk =   0.0320000
        k(   46) = (  -0.2041389   0.2041389   0.0000000), wk =   0.0160000
        k(   47) = (  -0.2041389   0.2041389  -0.2978849), wk =   0.0320000
        k(   48) = (  -0.2041389   0.2041389  -0.5957699), wk =   0.0320000
        k(   49) = (  -0.2041378   0.4082788   0.0000000), wk =   0.0320000
        k(   50) = (  -0.2041378   0.4082788  -0.2978849), wk =   0.0640000
        k(   51) = (  -0.2041378   0.4082788  -0.5957699), wk =   0.0640000
        k(   52) = (  -0.4082778   0.4082778   0.0000000), wk =   0.0160000
        k(   53) = (  -0.4082778   0.4082778  -0.2978849), wk =   0.0320000
        k(   54) = (  -0.4082778   0.4082778  -0.5957699), wk =   0.0320000

     Largest allocated arrays     est. size (Mb)     dimensions
     Largest temporary arrays     est. size (Mb)     dimensions

     Check: negative/imaginary core charge=   -0.000005    0.000000

     Initial potential from superposition of free atoms
     Check: negative starting charge=(component1):   -0.668364
     Check: negative starting charge=(component2):   -0.166489

     starting charge   52.99993, renormalised to   54.00000

     negative rho (up, down):  0.681E+00 0.170E+00
     Starting wfc are   40 randomized atomic wfcs

     Self-consistent Calculation

[...]

     total energy              =    -501.24424122 Ry
     Harris-Foulkes estimate   =    -501.24424138 Ry
     estimated scf accuracy    <       0.00000002 Ry

[...]

     iteration # 19     ecut=    40.00 Ry     beta=0.30
     Davidson diagonalization with overlap
     ethr =  4.20E-11,  avg # of iterations =  2.0

     negative rho (up, down):  0.392E+00 0.391E+00

     End of self-consistent calculation

 ------ SPIN UP ------------

[...]

 ------ SPIN DOWN ----------

[...]

          k = 0.4083 0.4083 0.5958 (  2091 PWs)   bands (ev):

[...]

          k =-0.4083 0.4083-0.5958 (  2091 PWs)   bands (ev):

   -38.5847 -38.5842 -38.5484 -38.5477 -38.3625 -38.3625  -7.3884  -7.3412
    -7.1883  -7.1618   4.1524   4.2191   4.6912   4.8106   5.1397   5.4997
     6.5283   6.5989   7.6657   7.8199   8.3334   8.6871  10.0517  10.0774
    10.1258  10.6556  11.0531  11.5021  12.9835  13.6082  14.0876  14.7040
    20.0381  20.4095  21.1171  21.1515  21.2040  21.2040  22.6292  23.1105
    23.9240  24.4992  27.7233  27.7756  29.4708  30.0297  30.7689  31.8498
    32.2408  32.4316  32.6365  33.8256  36.4469  36.8638  36.8915  36.9291
    38.5132  39.2322  39.8554  41.2414  41.3319  41.8608  42.1778  42.6768
    42.9400  43.0776  43.5381  44.3513  45.0414  45.3683  45.9551  46.6969
    47.0969  47.5272  47.8356  48.2875  48.5108  49.3494

     the Fermi energy is    11.5351 ev

!    total energy              =    -501.24424166 Ry
     Harris-Foulkes estimate   =    -501.24424156 Ry
     estimated scf accuracy    <          7.3E-09 Ry

     The total energy is the sum of the following terms:

     one-electron contribution =    -120.91485115 Ry
     hartree contribution      =      93.94613425 Ry
     xc contribution           =    -137.69473393 Ry
     ewald contribution        =    -336.58012028 Ry
     smearing contrib. (-TS)   =      -0.00067055 Ry

     total magnetization       =     0.02 Bohr mag/cell
     absolute magnetization    =     0.02 Bohr mag/cell

     convergence has been achieved in  19 iterations

     Forces acting on atoms (Ry/au):

     negative rho (up, down):  0.392E+00 0.391E+00
     atom    1 type  1   force =     0.00000000    0.00000000    0.00000000
     atom    2 type  1   force =     0.00000000    0.00000000    0.00000000
     atom    3 type  2   force =     0.00000452    0.00000452    0.00000000
     atom    4 type  2   force =    -0.00000452   -0.00000452    0.00000000
     atom    5 type  2   force =     0.00001272   -0.00001272   -0.00000000
     atom    6 type  2   force =    -0.00001272    0.00001272   -0.00000000

     Total force =     0.000027     Total SCF correction =     0.000047
     SCF correction compared to forces is large: reduce conv_thr to get better values

     entering subroutine stress ...

     negative rho (up, down):  0.392E+00 0.391E+00
          total   stress  (Ry/bohr**3)                   (kbar)     P= -218.22
  -0.00149054   0.00000004   0.00000000       -219.27      0.01      0.00
   0.00000004  -0.00149054   0.00000000          0.01   -219.27      0.00
   0.00000000   0.00000000  -0.00146922          0.00      0.00   -216.13

     General routines

     Parallel routines

   This run was terminated on:  13:51:30  24Jan2014

   JOB DONE.
Running PBS batch system epilogue script
Job id: 251897.audhumbla.fysik.dtu.dk
Username: zhonxu
Groupname: campgst
Jobname: IrO2/fine-EOS/ferro/IrO2-v-1.10
Sessionid: 2262
Queuename: verylong
Accounting:
This job has allocated the following 4 nodes:
q006 q006 q006 q006
Finished epilogue job 251897.audhumbla.fysik.dtu.dk for zhonxu