     Program PWSCF v.5.0.2 (svn rev. 9656) starts on 28Mar2014 at 23:28: 1

     Current dimensions of program PWSCF are:
     Max number of different atomic species (ntypx) = 10
     Max number of k-points (npk) =  40000
     Max angular momentum in pseudopotentials (lmaxx) =  3
     Reading input from pwscf.in
Warning: card &CELL ignored
Warning: card / ignored

     Subspace diagonalization in iterative solution of the eigenvalue problem:
     a serial algorithm will be used

     bravais-lattice index     =            0
     lattice parameter (alat)  =      10.9604  a.u.
     unit-cell volume          =    8672.0454 (a.u.)^3
     number of atoms/cell      =           49
     number of atomic types    =            2
     number of electrons       =       422.00
     number of Kohn-Sham states=          609
     kinetic-energy cutoff     =      40.0000  Ry
     charge density cutoff     =     500.0000  Ry
     convergence threshold     =      1.0E-06
     mixing beta               =       0.3000
     number of iterations used =            8  plain     mixing
     Exchange-correlation      = SLA  PW   PBE  PBE ( 1 4 3 4 0)
     EXX-fraction              =        0.00
     nstep                     =           50

     celldm(1)=  10.960412  celldm(2)=   0.000000  celldm(3)=   0.000000
     celldm(4)=   0.000000  celldm(5)=   0.000000  celldm(6)=   0.000000

     crystal axes: (cart. coord. in units of alat)
               a(1) = (   1.000000   0.000000   0.000000 )
               a(2) = (   0.000000   1.067975   0.000000 )
               a(3) = (   0.000000   0.000000   6.167084 )

     reciprocal axes: (cart. coord. in units 2 pi/alat)
               b(1) = (  1.000000  0.000000  0.000000 )
               b(2) = (  0.000000  0.936351  0.000000 )
               b(3) = (  0.000000  0.000000  0.162151 )

     PseudoPot. # 1 for O  read from file:
     /home/camp/zhonxu/pseudo/o_pbe_v1.01.uspp.F.UPF
     MD5 check sum: 2bcb18d16ea4b960afae9ec6d52f22d2
     Pseudo is Ultrasoft + core correction, Zval =  6.0
     Generated by new atomic code, or converted to UPF format
     Using radial grid of  737 points,  5 beta functions with:
                l(1) =   0
                l(2) =   0
                l(3) =   1
                l(4) =   1
                l(5) =   2
     Q(r) pseudized with  8 coefficients,  rinner =    0.900   0.900   0.900
                                                       0.900   0.900

     PseudoPot. # 2 for Cr read from file:
     /home/camp/zhonxu/pseudo/cr_pbe_v1.uspp.F.UPF
     MD5 check sum: 68b6f918d1762dccfb11451fe85b0e0e
     Pseudo is Ultrasoft + core correction, Zval = 14.0
     Generated by new atomic code, or converted to UPF format
     Using radial grid of  857 points,  6 beta functions with:
                l(1) =   0
                l(2) =   0
                l(3) =   1
                l(4) =   1
                l(5) =   2
                l(6) =   2
     Q(r) pseudized with  6 coefficients,  rinner =    1.000   1.000   1.000
                                                       1.000   1.000

     atomic species   valence    mass     pseudopotential
        O0             6.00    15.99940     O ( 1.00)
        Cr1           14.00    51.99600     Cr( 1.00)

     Starting magnetic structure
     atomic species   magnetization
        O0           0.000
        Cr1          0.600

      4 Sym. Ops. (no inversion) found

   Cartesian axes

     site n.     atom                  positions (alat units)
         1           O0  tau(   1) = (   0.0000000   0.5339875   2.0689949  )
         2           Cr1 tau(   2) = (   0.2500000   0.5339875   2.2825610  )
         3           Cr1 tau(   3) = (   0.0000000   0.0000000   2.2825610  )
         4           O0  tau(   4) = (   0.2500000   0.8543801   2.2825610  )
         5           O0  tau(   5) = (   0.2500000   0.2135950   2.2825610  )
         6           O0  tau(   6) = (   0.0000000   0.5339875   2.4961271  )
         7           O0  tau(   7) = (   0.0000000   0.0000000   2.6029410  )
         8           Cr1 tau(   8) = (   0.2500000   0.0000000   2.8165688  )
         9           Cr1 tau(   9) = (   0.0000000   0.5339875   2.8165688  )
        10           O0  tau(  10) = (   0.2500000   0.7475825   2.8165688  )
        11           O0  tau(  11) = (   0.2500000   0.3203925   2.8165688  )
        12           O0  tau(  12) = (   0.0000000   0.0000000   3.0301349  )
        13           O0  tau(  13) = (   0.0000000   0.5339875   3.1461377  )
        14           Cr1 tau(  14) = (   0.2500000   0.5339875   3.3524267  )
        15           Cr1 tau(  15) = (   0.0000000   0.0000000   3.3742582  )
        16           O0  tau(  16) = (   0.2500000   0.8575519   3.3646375  )
        17           O0  tau(  17) = (   0.2500000   0.2104231   3.3646375  )
        18           O0  tau(  18) = (   0.0000000   0.5339875   3.5754901  )
        19           O0  tau(  19) = (   0.0000000   0.0000000   3.6982767  )
        20           Cr1 tau(  20) = (   0.2500000   0.0000000   3.9359561  )
        21           Cr1 tau(  21) = (   0.0000000   0.5339875   3.8803907  )
        22           O0  tau(  22) = (   0.2500000   0.7373300   3.9313925  )
        23           O0  tau(  23) = (   0.2500000   0.3306451   3.9313925  )
        24           O0  tau(  24) = (   0.0000000   0.0000000   4.1178851  )
        25           O0  tau(  25) = (   0.5000000   0.5339875   2.0689949  )
        26           Cr1 tau(  26) = (   0.7500000   0.5339875   2.2825610  )
        27           Cr1 tau(  27) = (   0.5000000   0.0000000   2.2825610  )
        28           O0  tau(  28) = (   0.7500000   0.8543801   2.2825610  )
        29           O0  tau(  29) = (   0.7500000   0.2135950   2.2825610  )
        30           O0  tau(  30) = (   0.5000000   0.5339875   2.4961271  )
        31           O0  tau(  31) = (   0.5000000   0.0000000   2.6029410  )
        32           Cr1 tau(  32) = (   0.7500000   0.0000000   2.8165688  )
        33           Cr1 tau(  33) = (   0.5000000   0.5339875   2.8165688  )
        34           O0  tau(  34) = (   0.7500000   0.7475825   2.8165688  )
        35           O0  tau(  35) = (   0.7500000   0.3203925   2.8165688  )
        36           O0  tau(  36) = (   0.5000000   0.0000000   3.0301349  )
        37           O0  tau(  37) = (   0.5000000   0.5339875   3.1461377  )
        38           Cr1 tau(  38) = (   0.7500000   0.5339875   3.3524267  )
        39           Cr1 tau(  39) = (   0.5000000   0.0000000   3.3742582  )
        40           O0  tau(  40) = (   0.7500000   0.8575519   3.3646375  )
        41           O0  tau(  41) = (   0.7500000   0.2104231   3.3646375  )
        42           O0  tau(  42) = (   0.5000000   0.5339875   3.5754901  )
        43           O0  tau(  43) = (   0.5000000   0.0000000   3.6982767  )
        44           Cr1 tau(  44) = (   0.7500000   0.0000000   3.9359561  )
        45           Cr1 tau(  45) = (   0.5000000   0.5339875   3.8803907  )
        46           O0  tau(  46) = (   0.7500000   0.7373300   3.9313925  )
        47           O0  tau(  47) = (   0.7500000   0.3306451   3.9313925  )
        48           O0  tau(  48) = (   0.5000000   0.0000000   4.1178851  )
        49           O0  tau(  49) = (   0.5000000   0.5339875   4.0834111  )

     number of k points=    18  Methfessel-Paxton smearing, width (Ry)=  0.0100
                       cart. coord. in units 2pi/alat
        k(    1) = (   0.0000000   0.0000000   0.0000000), wk =   0.0625000
        k(    2) = (   0.0000000   0.2340879   0.0000000), wk =   0.1250000
        k(    3) = (   0.0000000  -0.4681757   0.0000000), wk =   0.0625000
        k(    4) = (   0.2500000   0.0000000   0.0000000), wk =   0.1250000
        k(    5) = (   0.2500000   0.2340879   0.0000000), wk =   0.2500000
        k(    6) = (   0.2500000  -0.4681757   0.0000000), wk =   0.1250000
        k(    7) = (  -0.5000000   0.0000000   0.0000000), wk =   0.0625000
        k(    8) = (  -0.5000000   0.2340879   0.0000000), wk =   0.1250000
        k(    9) = (  -0.5000000  -0.4681757   0.0000000), wk =   0.0625000
        k(   10) = (   0.0000000   0.0000000   0.0000000), wk =   0.0625000
        k(   11) = (   0.0000000   0.2340879   0.0000000), wk =   0.1250000
        k(   12) = (   0.0000000  -0.4681757   0.0000000), wk =   0.0625000
        k(   13) = (   0.2500000   0.0000000   0.0000000), wk =   0.1250000
        k(   14) = (   0.2500000   0.2340879   0.0000000), wk =   0.2500000
        k(   15) = (   0.2500000  -0.4681757   0.0000000), wk =   0.1250000
        k(   16) = (  -0.5000000   0.0000000   0.0000000), wk =   0.0625000
        k(   17) = (  -0.5000000   0.2340879   0.0000000), wk =   0.1250000
        k(   18) = (  -0.5000000  -0.4681757   0.0000000), wk =   0.0625000

     Largest allocated arrays     est. size (Mb)     dimensions
     Largest temporary arrays     est. size (Mb)     dimensions

     Check: negative/imaginary core charge=   -0.000015    0.000000

     Initial potential from superposition of free atoms
     Check: negative starting charge=(component1):   -0.002264
     Check: negative starting charge=(component2):   -0.000546

     starting charge  405.99976, renormalised to  422.00000

     negative rho (up, down):  0.235E-02 0.567E-03
     Starting wfc are  292 randomized atomic wfcs

     Self-consistent Calculation

     iteration #  1     ecut=    40.00 Ry     beta=0.30
     Davidson diagonalization with overlap
     ethr =  1.00E-02,  avg # of iterations =  5.3

     negative rho (up, down):  0.280E-02 0.915E-03

     total energy              =   -3813.47769764 Ry
     Harris-Foulkes estimate   =   -3874.03130774 Ry
     estimated scf accuracy    <     142.06167133 Ry

     total magnetization       =    39.03 Bohr mag/cell
     absolute magnetization    =    48.34 Bohr mag/cell

[...]

     End of self-consistent calculation

 ------ SPIN UP ------------

          k = 0.0000 0.0000 0.0000 ( 36905 PWs)   bands (ev):

   -74.5256 -73.7174 -73.7019 -73.6388 -73.5980 -73.5834 -73.5323 -73.5116
   -73.4973 -73.4970 -73.4894 -73.4885 -73.4812 -73.4750 -73.4582 -73.4351
   -48.1997 -45.1549 -45.1354 -45.0224 -45.0014 -44.9920 -44.9840 -44.9762
   -44.9719 -44.9663 -44.9530 -44.9487 -44.9245 -44.9044 -44.9021 -44.8984
   -44.8927 -44.8919 -44.8845 -44.8798 -44.8776 -44.8702 -44.8681 -44.8635
   -44.8582 -44.8428 -44.8376 -44.8265 -44.8108 -44.8070 -44.8029 -44.7985
   -44.7898 -44.7846 -44.7786 -44.7751 -44.7639 -44.7423 -44.7382 -44.7379
   -44.7266 -44.7104 -44.7039 -44.6966 -44.6926 -44.6721 -44.6400 -44.6307
   -19.9391 -19.7469 -19.4227 -19.1193 -18.8955 -18.7730 -18.6411 -18.3948
   -18.3922 -18.3860 -18.3107 -18.2955 -18.2901 -18.2222 -18.2110 -18.1513
   -18.1304 -18.0709 -18.0494 -18.0222 -17.9946 -17.9513 -17.8824 -17.8634
   -17.8543 -17.8199 -17.7591 -17.7364 -17.6406 -17.5040 -17.2049 -16.7496
   -16.6612  -9.5808  -9.3414  -8.0598  -7.6419  -7.5431  -7.4795  -7.2901
    -7.0056  -6.9042  -6.7712  -6.6298  -6.5060  -6.4675  -6.4337  -6.4103
    -6.3049  -6.2841  -6.2617  -6.2223  -6.2152  -6.1453  -6.0679  -6.0676
[...]
O0       0.250000000   0.802970000   0.545580000    0   0   0
O0       0.250000000   0.197030000   0.545580000    0   0   0
O0       0.000000000   0.500000000   0.579770000    0   0   0
O0       0.000000000   0.000000000   0.599680000    0   0   0
Cr1      0.250000000   0.000000000   0.638220000    0   0   0
Cr1      0.000000000   0.500000000   0.629210000    0   0   0
O0       0.250000000   0.690400000   0.637480000    0   0   0
O0       0.250000000   0.309600000   0.637480000    0   0   0
O0       0.000000000   0.000000000   0.667720000    0   0   0
O0       0.500000000   0.500000000   0.335490000    0   0   0
Cr1      0.750000000   0.500000000   0.370120000    0   0   0
Cr1      0.500000000   0.000000000   0.370120000    0   0   0
O0       0.750000000   0.800000000   0.370120000    0   0   0
O0       0.750000000   0.200000000   0.370120000    0   0   0
O0       0.500000000   0.500000000   0.404750000    0   0   0
O0       0.500000000   0.000000000   0.422070000    0   0   0
Cr1      0.750000000   0.000000000   0.456710000    0   0   0
Cr1      0.500000000   0.500000000   0.456710000    0   0   0
O0       0.750000000   0.700000000   0.456710000    0   0   0
O0       0.750000000   0.300000000   0.456710000    0   0   0
O0       0.500000000   0.000000000   0.491340000    0   0   0
O0       0.500000000   0.500000000   0.510150000    0   0   0
Cr1      0.750000000   0.500000000   0.543600000    0   0   0
Cr1      0.500000000   0.000000000   0.547140000    0   0   0
O0       0.750000000   0.802970000   0.545580000    0   0   0
O0       0.750000000   0.197030000   0.545580000    0   0   0
O0       0.500000000   0.500000000   0.579770000    0   0   0
O0       0.500000000   0.000000000   0.599680000    0   0   0
Cr1      0.750000000   0.000000000   0.638220000    0   0   0
Cr1      0.500000000   0.500000000   0.629210000    0   0   0
O0       0.750000000   0.690400000   0.637480000    0   0   0
O0       0.750000000   0.309600000   0.637480000    0   0   0
O0       0.500000000   0.000000000   0.667720000    0   0   0
O0       0.500000000   0.500000000   0.676678978

     Check: negative starting charge=(component1):   -0.002760
     NEW-OLD atomic charge density approx. for the potential

     Check: negative/imaginary core charge=   -0.000015    0.000000
     Check: negative starting charge=(component1):   -0.002760

[...]

     Self-consistent Calculation

[...]

     Threshold (ethr) on eigenvalues was too large:
     Diagonalizing with lowered threshold

     Davidson diagonalization with overlap
     ethr =  1.22E-08,  avg # of iterations =  1.0

[...]

     total energy              =   -3881.02771242 Ry
     Harris-Foulkes estimate   =   -3881.02771244 Ry
     estimated scf accuracy    <       0.00000282 Ry

[...]

     iteration # 24     ecut=    40.00 Ry     beta=0.30
     Davidson diagonalization with overlap
     ethr =  4.52E-11,  avg # of iterations =  1.0

     negative rho (up, down):  0.627E-02 0.244E-02

     End of self-consistent calculation

 ------ SPIN UP ------------

[...]

 ------ SPIN DOWN ----------

[...]

          k = 0.2500-0.4682 0.0000 ( 37058 PWs)   bands (ev):

[...]

          k =-0.5000-0.4682 0.0000 ( 37080 PWs)   bands (ev):

   -72.3619 -72.0166 -72.0166 -71.7497 -71.7497 -71.7123 -71.6169 -71.6169
   -71.4748 -71.4596 -71.4394 -71.4149 -71.4149 -71.4048 -71.0743 -71.0445
   -44.2231 -43.5669 -43.4562 -43.4522 -43.4195 -43.4084 -43.3370 -43.3370
   -43.3228 -43.3226 -43.3206 -43.3205 -43.2436 -43.2435 -43.0847 -43.0712
   -43.0531 -43.0475 -43.0275 -43.0083 -43.0062 -42.9855 -42.9854 -42.9354
   -42.9352 -42.9078 -42.9075 -42.8234 -42.7846 -42.7842 -42.7429 -42.7401
   -42.7364 -42.7160 -42.7083 -42.6866 -42.6848 -42.6748 -42.6616 -42.6412
   -42.6383 -42.6267 -42.6131 -42.5952 -42.3778 -42.3435 -42.3418 -42.3281
   -19.4377 -19.4057 -19.2392 -19.2224 -19.1837 -19.1501 -19.0085 -18.9876
   -18.9493 -18.8662 -18.8121 -18.7949 -18.7444 -18.7114 -18.6811 -18.6806
   -18.5410 -18.4788 -18.4103 -18.3943 -18.3850 -18.3727 -18.3501 -18.3452
   -18.2269 -18.2014 -18.1202 -18.1177 -18.0296 -17.9587 -17.5843 -17.2290
   -17.2063  -6.8082  -6.7510  -6.5046  -6.4983  -6.3861  -6.2571  -6.2307
    -6.2167  -6.2072  -6.2054  -6.1790  -6.1546  -6.1435  -6.1402  -6.0588
    -6.0508  -6.0462  -6.0422  -5.9615  -5.9608  -5.8788  -5.8486  -5.7704
    -5.7659  -5.7651  -5.7446  -5.7200  -5.7104  -5.6808  -5.6332  -5.3881
    -5.3721  -5.3589  -5.3567  -5.3077  -5.3020  -5.2780  -5.2767  -5.2727
    -5.2526  -5.0773  -5.0555  -4.9720  -4.9402  -4.9019  -4.7473  -4.6770
    -4.6682  -4.6127  -4.5691  -4.5264  -4.4767  -4.4455  -4.4125  -4.2857
    -4.2708  -4.2382  -4.2050  -4.1920  -4.0792  -4.0741  -3.9868  -3.9728
    -3.9101  -3.8138  -3.8027  -3.7879  -3.7763  -3.6887  -3.6709  -3.4721
    -3.4140  -3.3077  -3.2926  -3.2422  -3.1991  -3.0399  -2.9436  -2.9160
    -2.6738  -2.6119  -2.5672  -2.5267  -2.4673  -2.4462  -2.4351  -2.3998
    -2.3839  -2.2022  -2.1424  -2.1386  -2.1164  -2.0605  -1.9646  -1.9351
    -1.8075  -1.7830  -1.5490  -1.5410   0.4262   0.5431   0.6902   0.6903
     0.8006   0.8055   0.8089   0.8208   0.8415   1.0426   1.0612   1.0666
     1.1690   1.1896   1.2246   1.2256   1.4263   1.4357   1.4890   1.4933
     1.4941   1.5083   1.5667   1.5970   1.6564   1.6711   1.6999   1.7141
     1.7605   1.7711   1.8252   1.8291   1.8379   1.8521   1.9861   2.0189
     2.0260   2.0284   2.0303   2.0441   2.0444   2.0488   2.0892   2.0950
     2.1686   2.1844   2.2126   2.2199   2.5776   2.5899   2.7155   2.7677
     2.9848   3.1163   3.1319   3.1523   3.1548   3.2183   3.2222   3.2480
     3.2585   3.3387   3.3967   3.7375   3.7545   3.7944   3.8740   4.0486
     4.1028   4.2040   4.2857   4.4692   4.5231   4.6312   4.7491   4.8176
     4.8225   4.9071   4.9301   4.9956   6.2739   6.2771   7.2170   7.3184
     7.3194   7.4977   7.4995   7.6401   7.6619   7.6765   7.7102   7.8544
     7.9359   7.9799   8.0247   8.2191   8.3787   8.4238   8.4906   8.7225
     8.9421   8.9990   9.0613   9.3397   9.5915   9.6674   9.6760   9.8856
    10.1335  10.1416  10.1935  10.2242  10.3461  10.3891  10.4543  10.5699
    10.8977  10.9051  10.9247  11.0716  11.1197  11.2127  11.3255  11.4359
    11.7557  11.7569  11.7940  12.0112  12.0865  12.1242  12.2766  12.5107
    12.8670  12.9233  13.0343  13.3140  13.3251  13.3286  13.3687  13.4431
    13.6085  13.7170  13.8246  14.1433  14.1579  14.2688  14.2742  14.2820
    14.3103  14.3265  14.3554  14.3724  14.4375  14.4516  14.4782  14.5038
    14.5206  14.5412  14.6483  14.7200  14.7952  14.8320  14.8847  14.8870
    14.9219  14.9511  15.0047  15.0180  15.0262  15.1046  15.1331  15.1412
    15.1419  15.2363  15.3110  15.3145  15.3199  15.3217  15.3864  15.3892
    15.3958  15.4081  15.5954  15.6249  15.6385  15.6795  15.7758  15.8538
    15.9161  15.9309  15.9926  16.0117  16.0457  16.0974  16.1480  16.1863
    16.2157  16.2794  16.3206  16.3242  16.3367  16.3407  16.3884  16.4043
    16.4169  16.4617  16.4695  16.5884  16.6081  16.6161  16.6291  16.6400
    16.6463  16.6986  16.7149  16.7408  16.8314  16.8929  16.8967  16.9219
    16.9221  16.9975  17.0321  17.0329  17.0682  17.0690  17.1268  17.1671
    17.2227  17.2363  17.2366  17.4936  17.5507  17.5586  17.5620  17.5810
    17.6409  17.6491  17.6778  17.6947  17.7522  17.7726  17.8359  17.9107
    17.9648  17.9723  18.0204  18.0441  18.1037  18.1344  18.2032  18.2384
    18.2614  18.2633  18.3718  18.4283  18.4596  18.4664  18.5272  18.5284
    18.5960  18.6417  18.8488  18.8553  18.8654  18.8667  18.9081  18.9531
    18.9863  19.0088  19.0785  19.1310  19.1505  19.1545  19.2379  19.3400
    19.3670  19.4134  19.5467  19.6303  19.7227  19.7372  19.7550  19.7854
[...]
    20.7510  20.7730  20.8643  20.8864  20.9962  21.0158  21.1480  21.1907
    21.2760  21.2994  21.4760  21.6350  21.6932  21.7495  21.7848  21.8328
    22.0432  22.0555  22.0650  22.0844  22.1600  22.1698  22.2759  22.2840
    22.3332  22.5830  22.5977  22.8521  22.9360  22.9600  22.9641  23.0726
    23.1097  23.1162  23.3912  23.4023  23.4962  23.4965  23.5475  23.7101
    23.7137  23.7609  23.8439  23.9260  24.0385  24.0456  24.0464  24.1660
    24.1737  24.2048  24.2375  24.3482  24.3780  24.3823  24.4064  24.4318
    24.4544  24.4670  24.4726  24.5374  24.5993  24.6240  24.6335  24.6633
    24.7333  24.7396  24.8426  24.8761  24.9029  24.9097  24.9944  25.0327
    25.1082  25.1713  25.2051  25.2253  25.3139  25.3346  25.3819  25.3886
    25.4134  25.4927  25.5308  25.5802  25.5879  25.7082  25.7454  25.7621
    25.8023  25.8137  25.8522  25.8734  25.9137  25.9182  25.9238  26.0010
    26.0311  26.0670  26.0854  26.0857  26.0989  26.1530  26.2702  26.3242
    26.3282  26.3291  26.3457  26.3721  26.4123  26.4372  26.5042  26.5608
    26.5790

     the Fermi energy is    -0.1885 ev

!    total energy              =   -3881.02771248 Ry
     Harris-Foulkes estimate   =   -3881.02771245 Ry
     estimated scf accuracy    <       0.00000005 Ry

     The total energy is the sum of the following terms:

     one-electron contribution =  -83963.72802818 Ry
     hartree contribution      =   42026.52979194 Ry
     xc contribution           =    -602.36342166 Ry
     ewald contribution        =   38658.53505405 Ry
     smearing contrib. (-TS)   =      -0.00110865 Ry

     total magnetization       =    30.00 Bohr mag/cell
     absolute magnetization    =    36.53 Bohr mag/cell

     convergence has been achieved in  24 iterations

     Forces acting on atoms (Ry/au):

     negative rho (up, down):  0.627E-02 0.244E-02
     atom    1 type  1   force =     0.00000000    0.00000000    0.07240670
     atom    2 type  2   force =    -0.00002245    0.00000000   -0.11947174
     atom    3 type  2   force =     0.00000000    0.00000000    0.08144871
     atom    4 type  1   force =    -0.00027951    0.04258489   -0.03606322
     atom    5 type  1   force =    -0.00027951   -0.04258489   -0.03606322
     atom    6 type  1   force =     0.00000000    0.00000000    0.01743269
     atom    7 type  1   force =     0.00000000    0.00000000   -0.01135342
     atom    8 type  2   force =    -0.00066389    0.00000000    0.02391240
     atom    9 type  2   force =     0.00000000    0.00000000   -0.00050856
     atom   10 type  1   force =     0.00004773   -0.01810962    0.00294643
     atom   11 type  1   force =     0.00004773    0.01810962    0.00294643
     atom   12 type  1   force =     0.00000000    0.00000000    0.00562456
     atom   13 type  1   force =     0.00000000    0.00000000   -0.00078907
     atom   14 type  2   force =     0.00590639    0.00000000   -0.00998865
     atom   15 type  2   force =     0.00000000    0.00000000    0.00257778
     atom   16 type  1   force =     0.00078555   -0.00022043    0.00061176
     atom   17 type  1   force =     0.00078555    0.00022043    0.00061176
     atom   18 type  1   force =     0.00000000    0.00000000    0.00249268
     atom   19 type  1   force =     0.00000000    0.00000000   -0.00574136
     atom   20 type  2   force =    -0.00092801    0.00000000    0.01785387
     atom   21 type  2   force =     0.00000000    0.00000000   -0.00093772
     atom   22 type  1   force =    -0.05961318    0.03628809   -0.04306282
     atom   23 type  1   force =    -0.05961318   -0.03628809   -0.04306282
     atom   24 type  1   force =     0.00000000    0.00000000   -0.01035474
     atom   25 type  1   force =     0.00000000    0.00000000    0.07296200
     atom   26 type  2   force =     0.00002245    0.00000000   -0.11947174
     atom   27 type  2   force =     0.00000000    0.00000000    0.07913796
     atom   28 type  1   force =     0.00027951    0.04258489   -0.03606322
     atom   29 type  1   force =     0.00027951   -0.04258489   -0.03606322
     atom   30 type  1   force =     0.00000000    0.00000000    0.01563044
     atom   31 type  1   force =     0.00000000    0.00000000   -0.01060748
     atom   32 type  2   force =     0.00066389    0.00000000    0.02391240
     atom   33 type  2   force =     0.00000000    0.00000000   -0.00525844
     atom   34 type  1   force =    -0.00004773   -0.01810962    0.00294643
     atom   35 type  1   force =    -0.00004773    0.01810962    0.00294643
     atom   36 type  1   force =     0.00000000    0.00000000    0.00574244
     atom   37 type  1   force =     0.00000000    0.00000000   -0.00318354
     atom   38 type  2   force =    -0.00590639    0.00000000   -0.00998865
     atom   39 type  2   force =     0.00000000    0.00000000    0.00167985
     atom   40 type  1   force =    -0.00078555   -0.00022043    0.00061176
     atom   41 type  1   force =    -0.00078555    0.00022043    0.00061176
     atom   42 type  1   force =     0.00000000    0.00000000   -0.03367325
     atom   43 type  1   force =     0.00000000    0.00000000   -0.00061424
     atom   44 type  2   force =     0.00092801   -0.00000000    0.01785387
     atom   45 type  2   force =     0.00000000    0.00000000    0.21751280
     atom   46 type  1   force =     0.05961318    0.03628809   -0.04306282
     atom   47 type  1   force =     0.05961318   -0.03628809   -0.04306282
     atom   48 type  1   force =     0.00000000    0.00000000   -0.01450949
     atom   49 type  1   force =     0.00000000    0.00000000    0.00054237

     Total force =     0.000542     Total SCF correction =     0.000023

     bfgs converged in   8 scf cycles and   7 bfgs steps
     (criteria: energy < 0.10E-03, force < 0.10E-02)

     End of BFGS Geometry Optimization

     Final energy   =   -3881.0277124846 Ry
Begin final coordinates

ATOMIC_POSITIONS (crystal)
O0       0.000000000   0.500000000   0.335490000    0   0   0
Cr1      0.250000000   0.500000000   0.370120000    0   0   0
Cr1      0.000000000   0.000000000   0.370120000    0   0   0
O0       0.250000000   0.800000000   0.370120000    0   0   0
O0       0.250000000   0.200000000   0.370120000    0   0   0
O0       0.000000000   0.500000000   0.404750000    0   0   0
O0       0.000000000   0.000000000   0.422070000    0   0   0
Cr1      0.250000000   0.000000000   0.456710000    0   0   0
Cr1      0.000000000   0.500000000   0.456710000    0   0   0
O0       0.250000000   0.700000000   0.456710000    0   0   0
O0       0.250000000   0.300000000   0.456710000    0   0   0
O0       0.000000000   0.000000000   0.491340000    0   0   0
O0       0.000000000   0.500000000   0.510150000    0   0   0
Cr1      0.250000000   0.500000000   0.543600000    0   0   0
Cr1      0.000000000   0.000000000   0.547140000    0   0   0
O0       0.250000000   0.802970000   0.545580000    0   0   0
O0       0.250000000   0.197030000   0.545580000    0   0   0
O0       0.000000000   0.500000000   0.579770000    0   0   0
O0       0.000000000   0.000000000   0.599680000    0   0   0
Cr1      0.250000000   0.000000000   0.638220000    0   0   0
Cr1      0.000000000   0.500000000   0.629210000    0   0   0
O0       0.250000000   0.690400000   0.637480000    0   0   0
O0       0.250000000   0.309600000   0.637480000    0   0   0
O0       0.000000000   0.000000000   0.667720000    0   0   0
O0       0.500000000   0.500000000   0.335490000    0   0   0
Cr1      0.750000000   0.500000000   0.370120000    0   0   0
Cr1      0.500000000   0.000000000   0.370120000    0   0   0
O0       0.750000000   0.800000000   0.370120000    0   0   0
O0       0.750000000   0.200000000   0.370120000    0   0   0
O0       0.500000000   0.500000000   0.404750000    0   0   0
O0       0.500000000   0.000000000   0.422070000    0   0   0
Cr1      0.750000000   0.000000000   0.456710000    0   0   0
Cr1      0.500000000   0.500000000   0.456710000    0   0   0
O0       0.750000000   0.700000000   0.456710000    0   0   0
O0       0.750000000   0.300000000   0.456710000    0   0   0
O0       0.500000000   0.000000000   0.491340000    0   0   0
O0       0.500000000   0.500000000   0.510150000    0   0   0
Cr1      0.750000000   0.500000000   0.543600000    0   0   0
Cr1      0.500000000   0.000000000   0.547140000    0   0   0
O0       0.750000000   0.802970000   0.545580000    0   0   0
O0       0.750000000   0.197030000   0.545580000    0   0   0
O0       0.500000000   0.500000000   0.579770000    0   0   0
O0       0.500000000   0.000000000   0.599680000    0   0   0
Cr1      0.750000000   0.000000000   0.638220000    0   0   0
Cr1      0.500000000   0.500000000   0.629210000    0   0   0
O0       0.750000000   0.690400000   0.637480000    0   0   0
O0       0.750000000   0.309600000   0.637480000    0   0   0
O0       0.500000000   0.000000000   0.667720000    0   0   0
O0       0.500000000   0.500000000   0.676678978
End final coordinates

     General routines

     Parallel routines

   This run was terminated on:  13: 4:39  30Mar2014

   JOB DONE.