     Program PWSCF v.5.0.2 (svn rev. 9656) starts on  1Jun2014 at 12:16:38

     Current dimensions of program PWSCF are:
     Max number of different atomic species (ntypx) = 10
     Max number of k-points (npk) =  40000
     Max angular momentum in pseudopotentials (lmaxx) =  3
     Reading input from pwscf.in
Warning: card &CELL ignored
Warning: card / ignored

     Subspace diagonalization in iterative solution of the eigenvalue problem:
     a serial algorithm will be used

     bravais-lattice index     =            0
     lattice parameter (alat)  =      10.1289  a.u.
     unit-cell volume          =    6836.7721 (a.u.)^3
     number of atoms/cell      =           33
     number of atomic types    =            3
     number of electrons       =       245.00
     number of Kohn-Sham states=          367
     kinetic-energy cutoff     =      40.0000  Ry
     charge density cutoff     =     500.0000  Ry
     convergence threshold     =      1.0E-06
     mixing beta               =       0.7000
     number of iterations used =            8  plain     mixing
     Exchange-correlation      = SLA  PW   PBE  PBE ( 1 4 3 4 0)
     EXX-fraction              =        0.00
     nstep                     =           50

     celldm(1)=  10.128932  celldm(2)=   0.000000  celldm(3)=   0.000000
     celldm(4)=   0.000000  celldm(5)=   0.000000  celldm(6)=   0.000000

     crystal axes: (cart. coord. in units of alat)
               a(1) = (   1.000000   0.000000   0.000000 )
               a(2) = (   0.000000   1.306037   0.000000 )
               a(3) = (   0.000000   0.000000   5.037380 )

     reciprocal axes: (cart. coord. in units 2 pi/alat)
               b(1) = (  1.000000  0.000000  0.000000 )
               b(2) = (  0.000000  0.765675  0.000000 )
               b(3) = (  0.000000  0.000000  0.198516 )

     PseudoPot. # 1 for O  read from file:
     /home/camp/zhonxu/pseudo/o_pbe_v1.01.uspp.F.UPF
     MD5 check sum: 2bcb18d16ea4b960afae9ec6d52f22d2
     Pseudo is Ultrasoft + core correction, Zval =  6.0
     Generated by new atomic code, or converted to UPF format
     Using radial grid of  737 points,  5 beta functions with:
                l(1) =   0
                l(2) =   0
                l(3) =   1
                l(4) =   1
                l(5) =   2
     Q(r) pseudized with  8 coefficients,  rinner =    0.900   0.900   0.900
                                                       0.900   0.900

     PseudoPot. # 2 for Re read from file:
     /home/camp/zhonxu/pseudo/re_pbe_v1.uspp.F.UPF
     MD5 check sum: 6f5a5dcaf9c96c20d0ffdde0de57afc6
     Pseudo is Ultrasoft + core correction, Zval = 15.0
     Generated by new atomic code, or converted to UPF format
     Using radial grid of  981 points,  8 beta functions with:
                l(1) =   0
                l(2) =   0
                l(3) =   1
                l(4) =   1
                l(5) =   2
                l(6) =   2
                l(7) =   3
                l(8) =   3
     Q(r) pseudized with  8 coefficients,  rinner =    1.000   1.000   1.000
                                                       1.000   1.000   1.000
                                                       1.000

     PseudoPot. # 3 for H  read from file:
     /home/camp/zhonxu/pseudo/h_pbe_v1.uspp.F.UPF
     MD5 check sum: 3408e3ff4ec8b0a4e358431e7e038a48
     Pseudo is Ultrasoft, Zval =  1.0
     Generated by new atomic code, or converted to UPF format
     Using radial grid of  615 points,  2 beta functions with:
                l(1) =   0
                l(2) =   0
     Q(r) pseudized with  8 coefficients,  rinner =    0.700

     atomic species   valence    mass     pseudopotential
        O0             6.00    15.99940     O ( 1.00)
        Re1           15.00   186.20700     Re( 1.00)
        H2             1.00     1.00794     H ( 1.00)

     Simplified LDA+U calculation (l_max = 2) with parameters (eV):
     atomic species    L          U    alpha       J0     beta
        Re1            2     4.0000   0.0000   0.0000   0.0000

     No symmetry found

   Cartesian axes

     site n.     atom                  positions (alat units)
         1           O0  tau(   1) = (   0.0000000   0.0000000   1.8623194  )
         2           O0  tau(   2) = (   0.0000000   0.6530184   1.9253370  )
         3           Re1 tau(   3) = (   0.2500000   0.6530184   2.2271768  )
         4           Re1 tau(   4) = (   0.0000000   0.0000000   2.2287384  )
         5           O0  tau(   5) = (   0.2500000   1.0187087   2.2217869  )
         6           O0  tau(   6) = (   0.2500000   0.2873281   2.2210816  )
         7           O0  tau(   7) = (   0.0000000   0.6530184   2.5071544  )
         8           O0  tau(   8) = (   0.0000000   0.0000000   2.5894652  )
         9           Re1 tau(   9) = (   0.2500000   0.0000000   2.8894412  )
        10           Re1 tau(  10) = (   0.0000000   0.6530184   2.8583102  )
        11           O0  tau(  11) = (   0.2500000   0.9403465   2.8756892  )
        12           O0  tau(  12) = (   0.2500000   0.3656903   2.8872751  )
        13           O0  tau(  13) = (   0.0000000   0.0000000   3.1516368  )
        14           O0  tau(  14) = (   0.5000000   0.0000000   1.8624705  )
        15           O0  tau(  15) = (   0.5000000   0.6530184   1.9269994  )
        16           Re1 tau(  16) = (   0.7500000   0.6530184   2.2271768  )
        17           Re1 tau(  17) = (   0.5000000   0.0000000   2.2274287  )
        18           O0  tau(  18) = (   0.7500000   1.0187087   2.2214342  )
        19           O0  tau(  19) = (   0.7500000   0.2873281   2.2214846  )
        20           O0  tau(  20) = (   0.5000000   0.6530184   2.5086153  )
        21           O0  tau(  21) = (   0.5000000   0.0000000   2.5899690  )
        22           Re1 tau(  22) = (   0.7500000   0.0000000   2.8888367  )
        23           Re1 tau(  23) = (   0.5000000   0.6530184   2.9018835  )
        24           O0  tau(  24) = (   0.7500000   0.9403465   2.8756892  )
        25           O0  tau(  25) = (   0.7500000   0.3656903   2.8872248  )
        26           O0  tau(  26) = (   0.5000000   0.0000000   3.1466498  )
        27           H2  tau(  27) = (  -0.0002100   0.8169913   1.8417165  )
        28           H2  tau(  28) = (   0.4996400   0.8147057   1.8388956  )
        29           H2  tau(  29) = (   0.1678400   0.0328729   1.7887233  )
        30           H2  tau(  30) = (   0.6697500   0.0291246   1.7904864  )
        31           O0  tau(  31) = (   0.4996300   0.6876806   3.2307741  )
        32           O0  tau(  32) = (   0.5002900   0.4188329   3.4291461  )
        33           H2  tau(  33) = (   0.4999500   0.5176477   3.5843478  )

     number of k points=    10  Methfessel-Paxton smearing, width (Ry)=  0.0100
                       cart. coord. in units 2pi/alat
        k(    1) = (   0.0000000   0.0000000   0.0000000), wk =   0.1250000
        k(    2) = (   0.0000000   0.1914188   0.0000000), wk =   0.2500000
        k(    3) = (   0.0000000  -0.3828376   0.0000000), wk =   0.1250000
        k(    4) = (   0.2500000   0.0000000   0.0000000), wk =   0.2500000
        k(    5) = (   0.2500000   0.1914188   0.0000000), wk =   0.2500000
        k(    6) = (   0.2500000  -0.3828376   0.0000000), wk =   0.2500000
        k(    7) = (  -0.5000000   0.0000000   0.0000000), wk =   0.1250000
        k(    8) = (  -0.5000000   0.1914188   0.0000000), wk =   0.2500000
        k(    9) = (  -0.5000000  -0.3828376   0.0000000), wk =   0.1250000
        k(   10) = (  -0.2500000   0.1914188   0.0000000), wk =   0.2500000

     Largest allocated arrays     est. size (Mb)     dimensions
     Largest temporary arrays     est. size (Mb)     dimensions

     Check: negative/imaginary core charge=   -0.000003    0.000000

     Initial potential from superposition of free atoms
     Check: negative starting charge=   -0.236968

     starting charge  240.99957, renormalised to  245.00000

     negative rho (up, down):  0.241E+00 0.000E+00
     Number of +U iterations with fixed ns =  0
     Starting occupations:
 --- enter write_ns ---
 LDA+U parameters:
U( 2)     =  4.00000000
alpha( 2) =  0.00000000
atom    3   Tr[ns(na)] =   5.00000
    eigenvalues:
  0.500  0.500  0.500  0.500  0.500
    eigenvectors:
  1.000  0.000  0.000  0.000  0.000
  0.000  1.000  0.000  0.000  0.000
  0.000  0.000  1.000  0.000  0.000
  0.000  0.000  0.000  1.000  0.000
  0.000  0.000  0.000  0.000  1.000
    occupations:
  0.500  0.000  0.000  0.000  0.000
  0.000  0.500  0.000  0.000  0.000
  0.000  0.000  0.500  0.000  0.000
  0.000  0.000  0.000  0.500  0.000
  0.000  0.000  0.000  0.000  0.500
atom    4   Tr[ns(na)] =   5.00000
    eigenvalues:
  0.500  0.500  0.500  0.500  0.500
    eigenvectors:
  1.000  0.000  0.000  0.000  0.000
  0.000  1.000  0.000  0.000  0.000
  0.000  0.000  1.000  0.000  0.000
  0.000  0.000  0.000  1.000  0.000
  0.000  0.000  0.000  0.000  1.000
    occupations:
  0.500  0.000  0.000  0.000  0.000
  0.000  0.500  0.000  0.000  0.000
  0.000  0.000  0.500  0.000  0.000
  0.000  0.000  0.000  0.500  0.000
  0.000  0.000  0.000  0.000  0.500
atom    9   Tr[ns(na)] =   5.00000
    eigenvalues:
  0.500  0.500  0.500  0.500  0.500
    eigenvectors:
  1.000  0.000  0.000  0.000  0.000
  0.000  1.000  0.000  0.000  0.000
  0.000  0.000  1.000  0.000  0.000
  0.000  0.000  0.000  1.000  0.000
  0.000  0.000  0.000  0.000  1.000
    occupations:
  0.500  0.000  0.000  0.000  0.000
  0.000  0.500  0.000  0.000  0.000
  0.000  0.000  0.500  0.000  0.000
  0.000  0.000  0.000  0.500  0.000
  0.000  0.000  0.000  0.000  0.500
atom   10   Tr[ns(na)] =   5.00000
    eigenvalues:
  0.500  0.500  0.500  0.500  0.500
    eigenvectors:
  1.000  0.000  0.000  0.000  0.000
  0.000  1.000  0.000  0.000  0.000
  0.000  0.000  1.000  0.000  0.000
  0.000  0.000  0.000  1.000  0.000
  0.000  0.000  0.000  0.000  1.000
    occupations:
  0.500  0.000  0.000  0.000  0.000
  0.000  0.500  0.000  0.000  0.000
  0.000  0.000  0.500  0.000  0.000
  0.000  0.000  0.000  0.500  0.000
  0.000  0.000  0.000  0.000  0.500
atom   16   Tr[ns(na)] =   5.00000
    eigenvalues:
  0.500  0.500  0.500  0.500  0.500
    eigenvectors:
  1.000  0.000  0.000  0.000  0.000
  0.000  1.000  0.000  0.000  0.000
  0.000  0.000  1.000  0.000  0.000
  0.000  0.000  0.000  1.000  0.000
  0.000  0.000  0.000  0.000  1.000
    occupations:
  0.500  0.000  0.000  0.000  0.000
  0.000  0.500  0.000  0.000  0.000
  0.000  0.000  0.500  0.000  0.000
  0.000  0.000  0.000  0.500  0.000
  0.000  0.000  0.000  0.000  0.500
atom   17   Tr[ns(na)] =   5.00000
    eigenvalues:
  0.500  0.500  0.500  0.500  0.500
    eigenvectors:
  1.000  0.000  0.000  0.000  0.000
  0.000  1.000  0.000  0.000  0.000
  0.000  0.000  1.000  0.000  0.000
  0.000  0.000  0.000  1.000  0.000
  0.000  0.000  0.000  0.000  1.000
    occupations:
  0.500  0.000  0.000  0.000  0.000
  0.000  0.500  0.000  0.000  0.000
  0.000  0.000  0.500  0.000  0.000
  0.000  0.000  0.000  0.500  0.000
  0.000  0.000  0.000  0.000  0.500
atom   22   Tr[ns(na)] =   5.00000
    eigenvalues:
  0.500  0.500  0.500  0.500  0.500
[...]
    eigenvalues:
  0.473  0.539  0.652  0.750  0.866
    eigenvectors:
  0.999  0.000  0.000  0.001  0.000
  0.000  0.000  0.000  0.000  1.000
  0.000  0.000  0.994  0.005  0.000
  0.001  0.000  0.005  0.994  0.000
  0.000  1.000  0.000  0.000  0.000
    occupations:
  0.473  0.000 -0.003 -0.007  0.000
  0.000  0.866  0.002 -0.000 -0.003
 -0.003  0.002  0.652  0.007 -0.000
 -0.007 -0.000  0.007  0.749 -0.000
  0.000 -0.003 -0.000 -0.000  0.539
atom   16   Tr[ns(na)] =   6.57946
    eigenvalues:
  0.542  0.563  0.572  0.775  0.839
    eigenvectors:
  0.006  0.030  0.288  0.676  0.000
  0.987  0.006  0.006  0.001  0.001
  0.003  0.931  0.044  0.005  0.017
  0.004  0.017  0.661  0.318  0.000
  0.001  0.015  0.001  0.001  0.982
    occupations:
  0.709  0.006  0.014 -0.094  0.001
  0.006  0.542  0.000 -0.001 -0.008
  0.014  0.000  0.569 -0.007 -0.035
 -0.094 -0.001 -0.007  0.636  0.000
  0.001 -0.008 -0.035  0.000  0.834
atom   17   Tr[ns(na)] =   6.57019
    eigenvalues:
  0.572  0.600  0.606  0.724  0.782
    eigenvectors:
  0.000  0.001  0.989  0.000  0.009
  0.000  0.006  0.001  0.993  0.000
  0.000  0.993  0.001  0.006  0.000
  0.000  0.000  0.009  0.000  0.991
  0.999  0.000  0.000  0.000  0.000
    occupations:
  0.608  0.003  0.000 -0.017  0.001
  0.003  0.723  0.009 -0.000 -0.002
  0.000  0.009  0.601  0.001 -0.000
 -0.017 -0.000  0.001  0.781 -0.000
  0.001 -0.002 -0.000 -0.000  0.572
atom   22   Tr[ns(na)] =   6.57633
    eigenvalues:
  0.595  0.603  0.606  0.729  0.755
    eigenvectors:
  0.246  0.004  0.000  0.021  0.729
  0.000  0.124  0.876  0.000  0.000
  0.017  0.812  0.113  0.056  0.001
  0.737  0.010  0.003  0.006  0.244
  0.001  0.050  0.007  0.917  0.025
    occupations:
  0.715 -0.002  0.000 -0.069  0.003
 -0.002  0.606  0.001  0.001 -0.000
  0.000  0.001  0.610 -0.001  0.030
 -0.069  0.001 -0.001  0.635 -0.002
  0.003 -0.000  0.030 -0.002  0.723
atom   23   Tr[ns(na)] =   6.61292
    eigenvalues:
  0.546  0.554  0.592  0.784  0.829
    eigenvectors:
  0.000  0.000  0.969  0.027  0.004
  0.517  0.483  0.000  0.000  0.000
  0.000  0.000  0.001  0.037  0.962
  0.000  0.000  0.030  0.936  0.034
  0.483  0.517  0.000  0.000  0.000
    occupations:
  0.598  0.000 -0.009 -0.033 -0.000
  0.000  0.550 -0.006 -0.001 -0.004
 -0.009 -0.006  0.827  0.007  0.000
 -0.033 -0.001  0.007  0.780  0.000
 -0.000 -0.004  0.000  0.000  0.551
N of occupied +U levels =  52.6211741
 --- exit write_ns ---

     Threshold (ethr) on eigenvalues was too large:
     Diagonalizing with lowered threshold

     Davidson diagonalization with overlap
     ethr =  2.82E-09,  avg # of iterations =  2.3

[...]

     total energy              =   -2206.01618280 Ry
     Harris-Foulkes estimate   =   -2206.01618280 Ry
     estimated scf accuracy    <       0.00000001 Ry

     iteration # 12     ecut=    40.00 Ry     beta=0.70
     Davidson diagonalization with overlap
     ethr =  4.78E-12,  avg # of iterations =  1.0

     negative rho (up, down):  0.241E+00 0.000E+00

     End of self-consistent calculation
 --- enter write_ns ---
 LDA+U parameters:
U( 2)     =  4.00000000
alpha( 2) =  0.00000000
atom    3   Tr[ns(na)] =   6.57937
    eigenvalues:
  0.542  0.561  0.572  0.775  0.840
    eigenvectors:
  0.006  0.024  0.294  0.676  0.000
  0.986  0.006  0.007  0.001  0.001
  0.003  0.944  0.031  0.005  0.018
  0.004  0.010  0.668  0.317  0.000
  0.001  0.016  0.001  0.001  0.981
    occupations:
  0.709 -0.006  0.014 -0.094 -0.001
 -0.006  0.542 -0.000  0.001 -0.008
  0.014 -0.000  0.568 -0.007  0.036
 -0.094  0.001 -0.007  0.636 -0.000
 -0.001 -0.008  0.036 -0.000  0.835
atom    4   Tr[ns(na)] =   6.57170
    eigenvalues:
  0.573  0.610  0.615  0.701  0.787
    eigenvectors:
  0.000  0.985  0.000  0.002  0.012
  0.000  0.001  0.013  0.985  0.000
  0.000  0.001  0.986  0.013  0.000
  0.000  0.012  0.000  0.000  0.988
  0.999  0.000  0.000  0.000  0.000
    occupations:
  0.613  0.004  0.000 -0.019  0.001
  0.004  0.699  0.010 -0.000 -0.002
  0.000  0.010  0.616  0.000 -0.000
 -0.019 -0.000  0.000  0.785 -0.000
  0.001 -0.002 -0.000 -0.000  0.573
atom    9   Tr[ns(na)] =   6.57313
    eigenvalues:
  0.596  0.606  0.609  0.727  0.749
    eigenvectors:
  0.244  0.002  0.000  0.027  0.727
  0.002  0.032  0.966  0.000  0.000
  0.010  0.903  0.028  0.056  0.002
  0.744  0.006  0.004  0.008  0.238
  0.001  0.056  0.002  0.908  0.033
    occupations:
  0.710  0.002 -0.001 -0.065  0.003
  0.002  0.609 -0.001 -0.000  0.000
 -0.001 -0.001  0.613 -0.000 -0.029
 -0.065 -0.000 -0.000  0.633 -0.002
  0.003  0.000 -0.029 -0.002  0.721
atom   10   Tr[ns(na)] =   6.55793
    eigenvalues:
  0.473  0.539  0.652  0.750  0.866
    eigenvectors:
  0.999  0.000  0.000  0.001  0.000
  0.000  0.000  0.000  0.000  1.000
  0.000  0.000  0.994  0.005  0.000
  0.001  0.000  0.005  0.994  0.000
  0.000  1.000  0.000  0.000  0.000
    occupations:
  0.473  0.000 -0.002 -0.007  0.000
  0.000  0.866  0.002 -0.000 -0.003
 -0.002  0.002  0.652  0.007 -0.000
 -0.007 -0.000  0.007  0.749 -0.000
  0.000 -0.003 -0.000 -0.000  0.539
atom   16   Tr[ns(na)] =   6.57958
    eigenvalues:
  0.542  0.563  0.572  0.775  0.839
    eigenvectors:
  0.006  0.030  0.288  0.676  0.000
  0.987  0.006  0.006  0.001  0.001
  0.003  0.931  0.044  0.005  0.017
  0.004  0.018  0.661  0.318  0.000
  0.001  0.015  0.001  0.001  0.982
    occupations:
  0.709  0.006  0.014 -0.094  0.001
  0.006  0.542  0.000 -0.001 -0.008
  0.014  0.000  0.569 -0.007 -0.035
 -0.094 -0.001 -0.007  0.636  0.000
  0.001 -0.008 -0.035  0.000  0.834
atom   17   Tr[ns(na)] =   6.57067
    eigenvalues:
  0.572  0.601  0.606  0.724  0.782
    eigenvectors:
  0.000  0.001  0.989  0.000  0.009
  0.000  0.006  0.001  0.993  0.000
  0.000  0.993  0.001  0.006  0.000
  0.000  0.000  0.009  0.000  0.991
  0.999  0.000  0.000  0.000  0.000
    occupations:
  0.608  0.003  0.000 -0.017  0.001
  0.003  0.723  0.009 -0.000 -0.002
  0.000  0.009  0.601  0.001 -0.000
 -0.017 -0.000  0.001  0.781 -0.000
  0.001 -0.002 -0.000 -0.000  0.572
atom   22   Tr[ns(na)] =   6.57668
    eigenvalues:
  0.595  0.603  0.606  0.729  0.755
    eigenvectors:
  0.246  0.004  0.000  0.021  0.729
  0.000  0.126  0.873  0.000  0.000
  0.016  0.810  0.116  0.056  0.001
  0.737  0.010  0.003  0.006  0.244
  0.001  0.050  0.008  0.917  0.025
    occupations:
  0.715 -0.002  0.000 -0.069  0.003
 -0.002  0.606  0.001  0.001 -0.000
  0.000  0.001  0.610 -0.001  0.030
 -0.069  0.001 -0.001  0.635 -0.002
  0.003 -0.000  0.030 -0.002  0.723
atom   23   Tr[ns(na)] =   6.61237
    eigenvalues:
  0.546  0.554  0.592  0.784  0.829
    eigenvectors:
  0.000  0.000  0.969  0.027  0.004
  0.522  0.478  0.000  0.000  0.000
  0.000  0.000  0.001  0.037  0.962
  0.000  0.000  0.030  0.936  0.034
  0.478  0.522  0.000  0.000  0.000
    occupations:
  0.598  0.000 -0.009 -0.033 -0.000
  0.000  0.550 -0.006 -0.001 -0.004
 -0.009 -0.006  0.827  0.007  0.000
 -0.033 -0.001  0.007  0.780  0.000
 -0.000 -0.004  0.000  0.000  0.551
N of occupied +U levels =  52.6214466
 --- exit write_ns ---

[...]

          k = 0.2500-0.3828 0.0000 ( 29202 PWs)   bands (ev):

[...]

          k =-0.2500 0.1914 0.0000 ( 29229 PWs)   bands (ev):

   -80.9032 -80.8535 -80.6859 -80.6312 -80.4241 -80.3510 -80.3126 -80.1922
   -42.9980 -42.8778 -42.8615 -42.8139 -42.7944 -42.7418 -42.7099 -42.6765
   -42.6059 -42.5399 -42.5062 -42.4442 -42.3971 -42.3884 -42.3755 -42.3111
   -42.2862 -42.2395 -42.2251 -42.2001 -42.1521 -42.0040 -41.8614 -41.7014
   -21.0669 -20.4866 -20.1323 -20.0564 -19.9016 -19.7593 -19.6578 -19.5598
   -19.5385 -19.4445 -19.3134 -19.1551 -19.0327 -18.9548 -18.9024 -18.8012
   -18.7489 -18.1829 -17.9583 -16.8655  -8.7360  -8.5851  -8.5644  -8.4997
    -8.4827  -8.1184  -8.1132  -8.0389  -7.7617  -7.6627  -7.5952  -7.5187
    -7.4736  -7.3098  -7.0371  -6.9399  -6.7862  -6.5926  -6.4913  -6.3738
    -6.3310  -6.1702  -6.0384  -5.9146  -5.7534  -5.6110  -5.5436  -5.4643
    -5.3293  -5.2126  -5.1191  -5.0322  -4.8099  -4.7696  -4.7139  -4.5868
    -4.5402  -4.4904  -4.4560  -4.3470  -4.2783  -4.1785  -4.0495  -3.8569
    -3.7042  -3.6179  -3.5734  -3.5206  -3.4689  -3.3026  -3.1810  -3.0916
    -3.0609  -2.9209  -2.8159  -2.6272  -2.5644  -2.4438  -2.1122  -1.8857
    -1.7489  -1.4448  -1.0865  -0.8365  -0.8101  -0.5694  -0.0480   0.1250
     0.3206   0.4587   0.7190   0.9314   1.0190   1.0483   1.3277   1.4140
     1.5828   1.6151   1.8230   1.9011   1.9792   2.1273   2.3570   2.6473
     3.1875   3.9456   3.9584   4.1499   4.1846   4.3830   4.5234   4.7131
     4.8432   4.8643   5.0701   5.1142   5.2252   5.3308   5.4310   5.8672
     6.0299   6.1023   6.2907   6.5224   6.6484   6.7176   6.8475   6.8878
     7.0859   7.2896   7.4419   7.5473   7.7227   7.8373   8.0268   8.1489
     8.3580   8.5345   8.6635   8.7057   8.8098   8.8965   9.0837   9.1637
     9.2634   9.4365   9.5218   9.6430   9.7913   9.8289   9.9099  10.0074
    10.0832  10.0919  10.1953  10.3213  10.4150  10.5122  10.6040  10.6700
    10.6911  10.7806  10.9661  11.0499  11.1778  11.2309  11.4498  11.5247
    11.5615  11.6742  11.7922  11.8356  12.0581  12.0743  12.2714  12.3767
    12.5239  12.5920  12.6366  12.6804  12.7433  12.7945  12.9052  12.9722
    13.0852  13.1466  13.2341  13.3024  13.4113  13.5676  13.6280  13.7107
    13.7475  13.8685  13.9174  13.9734  14.0562  14.1065  14.1833  14.2739
    14.3559  14.3909  14.4544  14.4960  14.5285  14.6314  14.6656  14.7591
    14.8271  14.8378  14.9460  14.9810  15.0573  15.0890  15.1530  15.1940
    15.2803  15.4146  15.4431  15.4564  15.6310  15.7008  15.8011  15.9055
    16.0146  16.0970  16.1694  16.2554  16.3448  16.3782  16.4419  16.5037
    16.5818  16.7251  16.7818  16.8647  16.9259  17.0044  17.0647  17.1842
    17.2599  17.3322  17.3680  17.3839  17.5060  17.5489  17.6269  17.6958
    17.7994  17.8125  17.8989  18.0119  18.0540  18.1166  18.2644  18.3496
    18.3811  18.4540  18.5068  18.5499  18.6759  18.7168  18.7446  18.8345
    18.8543  18.9535  19.0959  19.1454  19.1929  19.2675  19.3742  19.4649
    19.5255  19.6232  19.6930  19.7877  19.8309  19.9414  20.0310  20.1321
    20.2259  20.3231  20.4042  20.4600  20.5233  20.5970  20.6101  20.6948
    20.7649  20.8513  20.8776  20.9153  20.9842  21.0030  21.1091  21.1646
    21.2277  21.2952  21.3274  21.4162  21.5195  21.5824  21.6419  21.7268
    21.7591  21.8427  21.8850  21.9542  22.0097  22.0644  22.1089  22.2044
    22.2616  22.3222  22.3500  22.4174  22.4510  22.5102  22.5679  22.6211
    22.6738  22.7119  22.7669  22.8332  22.8602  22.8971  23.0229  23.0526
    23.1110  23.1320  23.2013  23.2524  23.3015  23.3590  23.4017

     the Fermi energy is     0.5775 ev

!    total energy              =   -2206.01618279 Ry
     Harris-Foulkes estimate   =   -2206.01618280 Ry
     estimated scf accuracy    <          5.1E-09 Ry

     The total energy is the sum of the following terms:

     one-electron contribution =  -24710.30949053 Ry
     hartree contribution      =   12378.37389185 Ry
     xc contribution           =    -602.07951918 Ry
     ewald contribution        =   10725.47954604 Ry
     Hubbard energy            =       2.51920158 Ry
     smearing contrib. (-TS)   =       0.00018744 Ry

     convergence has been achieved in  12 iterations

     Forces acting on atoms (Ry/au):

     negative rho (up, down):  0.241E+00 0.000E+00
     atom    1 type  1   force =    -0.00312809   -0.00600355    0.00028167
     atom    2 type  1   force =     0.00003630    0.00354767   -0.00046578
     atom    3 type  2   force =     0.02338822   -0.00193448    0.00003102
     atom    4 type  2   force =     0.00023881    0.00663313   -0.00052677
     atom    5 type  1   force =     0.00272691    0.00275589    0.00036454
     atom    6 type  1   force =     0.00159158   -0.00383704    0.00035455
     atom    7 type  1   force =    -0.00043350   -0.00271502   -0.00028213
     atom    8 type  1   force =     0.00401769    0.00219356   -0.00057064
     atom    9 type  2   force =    -0.03719044   -0.00459533   -0.00015760
     atom   10 type  2   force =    -0.00028380    0.00164586   -0.00048213
     atom   11 type  1   force =    -0.01945225    0.00238733    0.00002414
     atom   12 type  1   force =    -0.01253246    0.00883328   -0.00045931
     atom   13 type  1   force =     0.00025196   -0.00360830    0.00040127
     atom   14 type  1   force =    -0.00327949   -0.00555069   -0.00002407
     atom   15 type  1   force =    -0.00000067    0.00417840   -0.00022126
     atom   16 type  2   force =    -0.02294798   -0.00254566    0.00003022
     atom   17 type  2   force =     0.00219869    0.00679122    0.00012734
     atom   18 type  1   force =     0.00011679    0.00291468    0.00033767
     atom   19 type  1   force =    -0.00091088   -0.00344903    0.00034267
     atom   20 type  1   force =    -0.00074210    0.00082625   -0.00020388
     atom   21 type  1   force =     0.00212749    0.00172287   -0.00036427
     atom   22 type  2   force =     0.03310153   -0.00144183    0.00014965
     atom   23 type  2   force =     0.00112975   -0.00813225    0.00024823
     atom   24 type  1   force =     0.01882831    0.00017424    0.00010580
     atom   25 type  1   force =     0.01267179    0.00758752   -0.00025541
     atom   26 type  1   force =    -0.00088363   -0.01037418    0.00021597
     atom   27 type  3   force =     0.00000222    0.00029948    0.00012188
     atom   28 type  3   force =    -0.00000093    0.00002862   -0.00034596
     atom   29 type  3   force =    -0.00056522   -0.00013497    0.00038812
     atom   30 type  3   force =    -0.00026942    0.00000487    0.00037505
     atom   31 type  1   force =    -0.00025514    0.00084065   -0.00016029
     atom   32 type  1   force =     0.00044457    0.00030338    0.00026538
     atom   33 type  3   force =     0.00000341    0.00065343    0.00035434

     Total force =     0.002277     Total SCF correction =     0.000318
     SCF correction compared to forces is large: reduce conv_thr to get better values

     entering subroutine stress ...

     negative rho (up, down):  0.241E+00 0.000E+00
          total   stress  (Ry/bohr**3)                   (kbar)     P=  -10.93
  -0.00007799  -0.00000020   0.00000230        -11.47     -0.03      0.34
  -0.00000020  -0.00009938  -0.00000622         -0.03    -14.62     -0.91
   0.00000230  -0.00000622  -0.00004563          0.34     -0.91     -6.71

     bfgs converged in  17 scf cycles and  16 bfgs steps
     (criteria: energy < 0.10E-03, force < 0.10E-02)

     End of BFGS Geometry Optimization

     Final energy   =   -2206.0161827947 Ry
Begin final coordinates

ATOMIC_POSITIONS (crystal)
O0       0.000000000   0.000000000   0.370936767    0   0   1
O0       0.000000000   0.500000000   0.382999585    0   0   1
Re1      0.250000000   0.500000000   0.442245570    0   0   1
Re1      0.000000000   0.000000000   0.443216934    0   0   1
O0       0.250000000   0.780000000   0.441545639    0   0   1
O0       0.250000000   0.220000000   0.441332555    0   0   1
O0       0.000000000   0.500000000   0.497785242    0   0   1
O0       0.000000000   0.000000000   0.513793284    0   0   1
Re1      0.250000000   0.000000000   0.574022643    0   0   1
Re1      0.000000000   0.500000000   0.567627303    0   0   1
O0       0.250000000   0.720000000   0.571334480    0   0   1
O0       0.250000000   0.280000000   0.573185365    0   0   1
O0       0.000000000   0.000000000   0.625958682    0   0   1
O0       0.500000000   0.000000000   0.370639615    0   0   1
O0       0.500000000   0.500000000   0.382602467    0   0   1
Re1      0.750000000   0.500000000   0.442236741    0   0   1
Re1      0.500000000   0.000000000   0.442718779    0   0   1
O0       0.750000000   0.780000000   0.441502328    0   0   1
O0       0.750000000   0.220000000   0.441458659    0   0   1
O0       0.500000000   0.500000000   0.497966590    0   0   1
O0       0.500000000   0.000000000   0.514150679    0   0   1
Re1      0.750000000   0.000000000   0.573657019    0   0   1
Re1      0.500000000   0.500000000   0.574378129    0   0   1
O0       0.750000000   0.720000000   0.571207439    0   0   1
O0       0.750000000   0.280000000   0.573100753    0   0   1
O0       0.500000000   0.000000000   0.625110032    0   0   1
H2      -0.000265952   0.622789369   0.365150926
H2       0.499561583   0.624778128   0.365658073
H2       0.168412635   0.024144431   0.356272501
H2       0.669767289   0.022039267   0.356300302
O0       0.498743464   0.524413014   0.641971331
O0       0.502009822   0.338514427   0.675162037
H2       0.499853346   0.404145602   0.707501551
End final coordinates

     General routines

     Parallel routines
     Hubbard U routines

   This run was terminated on:  16: 1:18   2Jun2014

   JOB DONE.