     Program PWSCF v.5.0.2 (svn rev. 9656) starts on 28Feb2014 at 13: 2:36

     Current dimensions of program PWSCF are:
     Max number of different atomic species (ntypx) = 10
     Max number of k-points (npk) =  40000
     Max angular momentum in pseudopotentials (lmaxx) =  3
     Reading input from pwscf.in
Warning: card &CELL ignored
Warning: card / ignored

     Subspace diagonalization in iterative solution of the eigenvalue problem:
     a serial algorithm will be used

     bravais-lattice index     =            0
     lattice parameter (alat)  =      10.3179  a.u.
     unit-cell volume          =    9693.3575 (a.u.)^3
     number of atoms/cell      =           48
     number of atomic types    =            2
     number of electrons       =       416.00
     number of Kohn-Sham states=          624
     kinetic-energy cutoff     =      40.0000  Ry
     charge density cutoff     =     500.0000  Ry
     convergence threshold     =      1.0E-06
     mixing beta               =       0.3000
     number of iterations used =            8  plain     mixing
     Exchange-correlation      = SLA  PW   PBE  PBE ( 1 4 3 4 0)
     EXX-fraction              =        0.00
     nstep                     =           50

     celldm(1)=  10.317905  celldm(2)=   0.000000  celldm(3)=   0.000000
     celldm(4)=   0.000000  celldm(5)=   0.000000  celldm(6)=   0.000000

     crystal axes: (cart. coord. in units of alat)
               a(1) = (   1.000000   0.000000   0.000000 )
               a(2) = (   0.000000   1.282117   0.000000 )
               a(3) = (   0.000000   0.000000   6.882911 )

     reciprocal axes: (cart. coord. in units 2 pi/alat)
               b(1) = (  1.000000  0.000000  0.000000 )
               b(2) = (  0.000000  0.779960  0.000000 )
               b(3) = (  0.000000  0.000000  0.145287 )

     PseudoPot. # 1 for O  read from file:
     /home/camp/zhonxu/pseudo/o_pbe_v1.01.uspp.F.UPF
     MD5 check sum: 2bcb18d16ea4b960afae9ec6d52f22d2
     Pseudo is Ultrasoft + core correction, Zval =  6.0
     Generated by new atomic code, or converted to UPF format
     Using radial grid of  737 points,  5 beta functions with:
                l(1) =   0
                l(2) =   0
                l(3) =   1
                l(4) =   1
                l(5) =   2
     Q(r) pseudized with  8 coefficients,  rinner =    0.900   0.900   0.900
                                                       0.900   0.900

     PseudoPot. # 2 for Mo read from file:
     /home/camp/zhonxu/pseudo/mo_pbe_v1.uspp.F.UPF
     MD5 check sum: 30c4dcd161f5d35cd49bb5239c51a633
     Pseudo is Ultrasoft + core correction, Zval = 14.0
     Generated by new atomic code, or converted to UPF format
     Using radial grid of  889 points,  6 beta functions with:
                l(1) =   0
                l(2) =   0
                l(3) =   1
                l(4) =   1
                l(5) =   2
                l(6) =   2
     Q(r) pseudized with  6 coefficients,  rinner =    1.000   1.000   1.000
                                                       1.000   1.000

     atomic species   valence    mass     pseudopotential
        O0             6.00    15.99940     O ( 1.00)
        Mo1           14.00    95.94000     Mo( 1.00)

      4 Sym. Ops. (no inversion) found

   Cartesian axes

     site n.     atom                  positions (alat units)
         1           O0  tau(   1) = (   0.0000000   0.6410583   2.1977822  )
         2           Mo1 tau(   2) = (   0.2500000   0.6410583   2.4798439  )
         3           Mo1 tau(   3) = (   0.0000000   0.0000000   2.4798439  )
         4           O0  tau(   4) = (   0.2500000   1.0000510   2.4798439  )
         5           O0  tau(   5) = (   0.2500000   0.2820657   2.4798439  )
         6           O0  tau(   6) = (   0.0000000   0.6410583   2.7619056  )
         7           O0  tau(   7) = (   0.0000000   0.0000000   2.8388565  )
         8           Mo1 tau(   8) = (   0.2500000   0.0000000   3.1209182  )
         9           Mo1 tau(   9) = (   0.0000000   0.6410583   3.1209182  )
        10           O0  tau(  10) = (   0.2500000   0.9231240   3.1209182  )
        11           O0  tau(  11) = (   0.2500000   0.3589927   3.1209182  )
        12           O0  tau(  12) = (   0.0000000   0.0000000   3.4029799  )
        13           O0  tau(  13) = (   0.0000000   0.6410583   3.4786231  )
        14           Mo1 tau(  14) = (   0.2478100   0.6410583   3.7500851  )
        15           Mo1 tau(  15) = (   0.0000000   0.0000000   3.7836049  )
        16           O0  tau(  16) = (   0.2498300   1.0045769   3.7666729  )
        17           O0  tau(  17) = (   0.2498300   0.2775398   3.7666729  )
        18           O0  tau(  18) = (   0.0000000   0.6410583   4.0335234  )
        19           O0  tau(  19) = (   0.0000000   0.0000000   4.1521848  )
        20           Mo1 tau(  20) = (   0.2584000   0.0000000   4.4376879  )
        21           Mo1 tau(  21) = (   0.0000000   0.6410583   4.3703730  )
        22           O0  tau(  22) = (   0.2508800   0.9089694   4.4287401  )
        23           O0  tau(  23) = (   0.2508800   0.3731472   4.4287401  )
        24           O0  tau(  24) = (   0.0000000   0.0000000   4.6803105  )
        25           O0  tau(  25) = (   0.5000000   0.6410583   2.1977822  )
        26           Mo1 tau(  26) = (   0.7500000   0.6410583   2.4798439  )
        27           Mo1 tau(  27) = (   0.5000000   0.0000000   2.4798439  )
        28           O0  tau(  28) = (   0.7500000   1.0000510   2.4798439  )
        29           O0  tau(  29) = (   0.7500000   0.2820657   2.4798439  )
        30           O0  tau(  30) = (   0.5000000   0.6410583   2.7619056  )
        31           O0  tau(  31) = (   0.5000000   0.0000000   2.8388565  )
        32           Mo1 tau(  32) = (   0.7500000   0.0000000   3.1209182  )
        33           Mo1 tau(  33) = (   0.5000000   0.6410583   3.1209182  )
        34           O0  tau(  34) = (   0.7500000   0.9231240   3.1209182  )
        35           O0  tau(  35) = (   0.7500000   0.3589927   3.1209182  )
        36           O0  tau(  36) = (   0.5000000   0.0000000   3.4029799  )
        37           O0  tau(  37) = (   0.5000000   0.6410583   3.4808256  )
        38           Mo1 tau(  38) = (   0.7521900   0.6410583   3.7500851  )
        39           Mo1 tau(  39) = (   0.5000000   0.0000000   3.7789933  )
        40           O0  tau(  40) = (   0.7501700   1.0045769   3.7666729  )
        41           O0  tau(  41) = (   0.7501700   0.2775398   3.7666729  )
        42           O0  tau(  42) = (   0.5000000   0.6410583   4.0321468  )
        43           O0  tau(  43) = (   0.5000000   0.0000000   4.1489498  )
        44           Mo1 tau(  44) = (   0.7416000   0.0000000   4.4376879  )
        45           Mo1 tau(  45) = (   0.5000000   0.6410583   4.3694094  )
        46           O0  tau(  46) = (   0.7491200   0.9089694   4.4287401  )
        47           O0  tau(  47) = (   0.7491200   0.3731472   4.4287401  )
        48           O0  tau(  48) = (   0.5000000   0.0000000   4.6935257  )

     number of k points=     9  Methfessel-Paxton smearing, width (Ry)=  0.0100
                       cart. coord. in units 2pi/alat
        k(    1) = (   0.0000000   0.0000000   0.0000000), wk =   0.1250000
        k(    2) = (   0.0000000   0.1949901   0.0000000), wk =   0.2500000
        k(    3) = (   0.0000000  -0.3899801   0.0000000), wk =   0.1250000
        k(    4) = (   0.2500000   0.0000000   0.0000000), wk =   0.2500000
        k(    5) = (   0.2500000   0.1949901   0.0000000), wk =   0.5000000
        k(    6) = (   0.2500000  -0.3899801   0.0000000), wk =   0.2500000
        k(    7) = (  -0.5000000   0.0000000   0.0000000), wk =   0.1250000
        k(    8) = (  -0.5000000   0.1949901   0.0000000), wk =   0.2500000
        k(    9) = (  -0.5000000  -0.3899801   0.0000000), wk =   0.1250000

     Largest allocated arrays     est. size (Mb)     dimensions
     Largest temporary arrays     est. size (Mb)     dimensions

     Check: negative/imaginary core charge=   -0.000004    0.000000

     Initial potential from superposition of free atoms
     Check: negative starting charge=   -0.003539

     starting charge  415.98294, renormalised to  416.00000

     negative rho (up, down):  0.354E-02 0.000E+00
     Starting wfc are  336 randomized atomic wfcs

     Self-consistent Calculation

     iteration #  1     ecut=    40.00 Ry     beta=0.30
     Davidson diagonalization with overlap
     ethr =  1.00E-02,  avg # of iterations =  6.4

     negative rho (up, down):  0.358E-02 0.000E+00

     total energy              =   -3258.65542192 Ry
     Harris-Foulkes estimate   =   -3265.38821459 Ry
     estimated scf accuracy    <      15.35569466 Ry

[...]

     iteration # 17     ecut=    40.00 Ry     beta=0.30
     Davidson diagonalization with overlap
     c_bands:  1 eigenvalues not converged
     ethr =  2.01E-06,  avg # of iterations =  7.1

[...]

     End of self-consistent calculation

          k = 0.0000 0.0000 0.0000 ( 41461 PWs)   bands (ev):

   -61.0811 -61.0656 -61.0304 -60.9570 -60.9495 -60.9055 -60.8996 -60.8651
   -60.8575 -60.8223 -60.7909 -60.7887 -60.7407 -60.7398 -60.7048 -60.6706
   -35.7629 -35.6443 -35.6041 -35.5570 -35.4760 -35.4686 -35.4588 -35.4295
   -35.3917 -35.3914 -35.3789 -35.3343 -35.2723 -35.2134 -35.1813 -35.1572
   -35.1518 -35.1142 -35.0819 -35.0814 -35.0533 -35.0229 -34.9951 -34.9922
   -34.9738 -34.9654 -34.9483 -34.9330 -34.9189 -34.9161 -34.9066 -34.9054
   -34.8937 -34.7788 -34.7721 -34.7654 -34.7433 -34.7357 -34.7272 -34.6971
   -34.6231 -34.6150 -34.5260 -34.4254 -34.4214 -34.3893 -34.3458 -34.3337
   -18.9740 -18.6790 -18.6267 -18.5383 -18.4600 -18.3910 -18.1453 -18.0414
   -17.9888 -17.9013 -17.8228 -17.8016 -17.7271 -17.7166 -17.6681 -17.5991
   -17.5916 -17.5622 -17.5460 -17.5117 -17.3936 -17.3888 -17.3654 -17.3145
   -17.2407 -17.2255 -17.1798 -16.9204 -16.6370 -16.4067 -15.8827 -15.6018
    -7.0584  -6.9205  -6.8894  -6.8247  -6.7621  -6.6018  -6.4958  -6.3048
    -6.0736  -5.9881  -5.8846  -5.8616  -5.8236  -5.7841  -5.6827  -5.6439
    -5.6433  -5.5814  -5.5268  -5.4971  -5.4834  -5.4782  -5.4348  -5.2733
    -5.2039  -5.1816  -5.0368  -5.0341  -5.0070  -4.9410  -4.8784  -4.8682
    -4.8349  -4.8263  -4.7725  -4.5764  -4.4524  -4.3254  -4.3031  -4.1928
    -4.1502  -4.1288  -3.9310  -3.8390  -3.8021  -3.7976  -3.7378  -3.7250
    -3.7033  -3.6301  -3.5822  -3.5456  -3.5092  -3.5016  -3.4723  -3.3845
    -3.2461  -3.1780  -3.1370  -3.1247  -3.1142  -3.0421  -3.0256  -2.8438
    -2.7980  -2.7680  -2.7608  -2.7483  -2.6585  -2.6162  -2.5474  -2.5225
    -2.4771  -2.3198  -2.3195  -2.2220  -2.1316  -2.0894  -2.0360  -2.0124
    -2.0027  -1.9916  -1.8193  -1.7347  -1.7296  -1.6608  -1.6442  -1.5749
    -1.5490  -1.5470  -1.4000  -1.1778  -1.0488  -0.9954  -0.9716  -0.9466
    -0.9067  -0.8699  -0.7629  -0.6061  -0.5442  -0.5407   0.3329   0.6737
     0.9167   1.0316   1.1364   1.1852   1.2277   1.3278   1.3996   1.7040
     1.7632   1.7838   1.7869   1.9645   1.9840   1.9921   2.0291   2.0764
[...]

ATOMIC_POSITIONS (crystal)
O0       0.000000000   0.500000000   0.319310000    0   0   0
Mo1      0.250000000   0.500000000   0.360290000    0   0   0
Mo1      0.000000000   0.000000000   0.360290000    0   0   0
O0       0.250000000   0.780000000   0.360290000    0   0   0
O0       0.250000000   0.220000000   0.360290000    0   0   0
O0       0.000000000   0.500000000   0.401270000    0   0   0
O0       0.000000000   0.000000000   0.412450000    0   0   0
Mo1      0.250000000   0.000000000   0.453430000    0   0   0
Mo1      0.000000000   0.500000000   0.453430000    0   0   0
O0       0.250000000   0.720000000   0.453430000    0   0   0
O0       0.250000000   0.280000000   0.453430000    0   0   0
O0       0.000000000   0.000000000   0.494410000    0   0   0
O0       0.000000000   0.500000000   0.504228056
Mo1      0.228664154   0.500000000   0.544663582
Mo1      0.000000000   0.000000000   0.550122543
O0       0.246019630   0.783281724   0.547492447
O0       0.246019630   0.216718276   0.547492447
O0       0.000000000   0.500000000   0.586972924
O0       0.000000000   0.000000000   0.602951808
Mo1      0.271944168   0.000000000   0.644351714
Mo1      0.000000000   0.500000000   0.635787964
O0       0.256871937   0.704765283   0.644045370
O0       0.256871937   0.295234717   0.644045370
O0       0.000000000   0.000000000   0.677645978
O0       0.500000000   0.500000000   0.319310000    0   0   0
Mo1      0.750000000   0.500000000   0.360290000    0   0   0
Mo1      0.500000000   0.000000000   0.360290000    0   0   0
O0       0.750000000   0.780000000   0.360290000    0   0   0
O0       0.750000000   0.220000000   0.360290000    0   0   0
O0       0.500000000   0.500000000   0.401270000    0   0   0
O0       0.500000000   0.000000000   0.412450000    0   0   0
Mo1      0.750000000   0.000000000   0.453430000    0   0   0
Mo1      0.500000000   0.500000000   0.453430000    0   0   0
O0       0.750000000   0.720000000   0.453430000    0   0   0
O0       0.750000000   0.280000000   0.453430000    0   0   0
O0       0.500000000   0.000000000   0.494410000    0   0   0
O0       0.500000000   0.500000000   0.507454887
Mo1      0.771335846   0.500000000   0.544663582
Mo1      0.500000000   0.000000000   0.548020022
O0       0.753980370   0.783281724   0.547492447
O0       0.753980370   0.216718276   0.547492447
O0       0.500000000   0.500000000   0.583828560
O0       0.500000000   0.000000000   0.600644962
Mo1      0.728055832  -0.000000000   0.644351714
Mo1      0.500000000   0.500000000   0.632733743
O0       0.743128063   0.704765283   0.644045370
O0       0.743128063   0.295234717   0.644045370
O0       0.500000000   0.000000000   0.683630814

     Check: negative starting charge=   -0.003580
     NEW-OLD atomic charge density approx. for the potential

     Check: negative/imaginary core charge=   -0.000004    0.000000
     Check: negative starting charge=   -0.003580

[...]

     Self-consistent Calculation

[...]

     Threshold (ethr) on eigenvalues was too large:
     Diagonalizing with lowered threshold

     Davidson diagonalization with overlap
     ethr =  6.99E-09,  avg # of iterations =  2.6

[...]

     total energy              =   -3262.10256478 Ry
     Harris-Foulkes estimate   =   -3262.10256478 Ry
     estimated scf accuracy    <       0.00000001 Ry

     iteration # 20     ecut=    40.00 Ry     beta=0.30
     Davidson diagonalization with overlap
     ethr =  2.48E-12,  avg # of iterations =  1.0

     negative rho (up, down):  0.478E-02 0.000E+00

     End of self-consistent calculation

[...]

          k = 0.2500-0.3900 0.0000 ( 41418 PWs)   bands (ev):

[...]

          k =-0.5000-0.3900 0.0000 ( 41316 PWs)   bands (ev):

   -61.3464 -61.1345 -61.0777 -61.0776 -61.0303 -60.9570 -60.9279 -60.9278
   -60.8761 -60.8760 -60.8709 -60.8457 -60.8259 -60.8250 -60.8223 -60.6887
   -35.8311 -35.6137 -35.5044 -35.4234 -35.4047 -35.3925 -35.3925 -35.2922
   -35.2412 -35.2299 -35.2255 -35.2196 -35.2190 -35.2064 -35.2005 -35.1977
   -35.1832 -35.1445 -35.1325 -35.1232 -35.1141 -35.1113 -35.1077 -35.1059
   -35.0744 -35.0397 -35.0396 -35.0161 -35.0105 -35.0105 -35.0058 -34.9872
   -34.9643 -34.9489 -34.9477 -34.9470 -34.9451 -34.9336 -34.9281 -34.9236
   -34.9152 -34.8978 -34.8893 -34.8617 -34.8118 -34.7121 -34.6690 -34.4920
   -18.8291 -18.6158 -18.5589 -18.2128 -18.1704 -18.1135 -18.0895 -18.0862
   -18.0802 -17.9912 -17.9547 -17.9363 -17.9036 -17.8945 -17.8862 -17.8707
   -17.7694 -17.6644 -17.6585 -17.5771 -17.5766 -17.5177 -17.4609 -17.4546
   -17.4516 -17.3374 -17.3048 -17.0750 -16.6524 -16.3738 -15.8970 -15.8642
    -6.9661  -6.3941  -6.2617  -6.2540  -6.2519  -6.2252  -6.1770  -6.1741
    -6.1725  -6.1146  -6.1054  -5.9972  -5.9673  -5.8198  -5.7401  -5.6592
    -5.4929  -5.4853  -5.4840  -5.4065  -5.3615  -5.2824  -5.2654  -5.1695
    -5.0531  -4.9750  -4.9279  -4.9125  -4.8959  -4.8769  -4.7366  -4.6929
    -4.6252  -4.5566  -4.5209  -4.5051  -4.4921  -4.4884  -4.4179  -4.3993
    -4.3806  -4.3736  -4.3595  -4.3062  -4.1993  -4.1390  -4.1165  -3.9368
    -3.8561  -3.8492  -3.7991  -3.7368  -3.7112  -3.6343  -3.6279  -3.5966
    -3.5557  -3.5320  -3.4350  -3.4282  -3.3415  -3.3147  -3.2500  -3.2325
    -3.1658  -3.1496  -3.1463  -3.0974  -3.0463  -3.0399  -2.8979  -2.7913
    -2.7661  -2.6314  -2.6292  -2.6165  -2.4624  -2.4371  -2.2108  -2.1533
    -2.0488  -2.0102  -2.0022  -1.9448  -1.9079  -1.8248  -1.7625  -1.6118
    -1.6088  -1.5633  -1.4573  -1.2844  -1.0687  -1.0652  -1.0637  -1.0423
    -0.0978   0.5866   0.6220   0.6879   0.8080   0.8174   0.9008   0.9085
     0.9832   0.9982   0.9997   1.0091   1.1433   1.1488   1.1809   1.2966
     1.3898   1.4241   1.4346   1.5129   1.7701   1.8638   1.8887   2.0149
     2.0956   2.1282   2.1434   2.1509   2.2559   2.2993   2.3131   2.3465
     2.4096   2.5123   2.6029   2.6680   2.7332   2.7513   2.8852   2.9011
     3.0107   3.0538   3.0962   3.1195   3.1340   3.2752   3.2760   3.3113
     3.3186   3.6699   3.6732   4.0231   4.1229   4.1999   4.4012   4.4039
     4.4073   4.4099   4.5281   4.7037   5.0798   5.1747   5.2365   5.2918
     5.7386   6.0434   6.0471   6.2138   6.4707   6.4806   6.6237   6.7549
     6.7785   6.8969   7.0514   7.1012   7.1347   7.2245   7.2759   7.3286
     7.3933   7.4273   7.4735   7.5688   8.4014   8.4023   8.4065   8.4165
     8.5186   8.5290   8.5309   8.5331   8.7766   8.7774   8.7843   8.7854
     9.0673   9.0776   9.1039   9.1162   9.4455   9.4596   9.4656   9.4836
     9.6356   9.6592   9.6704   9.6854  10.1644  10.1675  10.1735  10.2350
    10.2625  10.2727  10.2877  10.3144  10.9411  10.9911  11.0131  11.0236
    11.0403  11.0644  11.0677  11.1158  11.7416  11.7755  11.7839  11.8503
    12.3028  12.3069  12.3176  12.3450  12.7623  12.8533  12.8679  12.9734
    12.9839  13.1195  13.2651  13.2733  13.3208  13.3213  13.3313  13.3563
    13.3877  13.4206  13.4424  13.4998  13.7707  13.8078  13.8137  13.8707
    14.2024  14.2045  14.2212  14.2410  14.5101  14.5541  14.5642  14.5749
    14.5759  14.5809  14.6437  14.6724  14.6911  14.6981  14.6988  14.7236
    14.8238  14.8387  14.8541  14.8661  14.9029  14.9198  14.9401  14.9567
    15.1146  15.1487  15.1737  15.2190  15.2768  15.3155  15.3251  15.3261
    15.3317  15.3536  15.3708  15.3944  15.4066  15.4225  15.5578  15.6180
    15.6627  15.6975  15.7773  15.8151  15.8201  15.8245  15.8340  15.8784
    15.9104  15.9132  15.9199  15.9275  16.0698  16.1075  16.1277  16.1528
    16.2224  16.3283  16.3321  16.3778  16.4128  16.5178  16.5185  16.5979
    16.8954  16.9489  16.9647  17.0017  17.0248  17.0357  17.0498  17.0799
    17.2056  17.2429  17.3538  17.4404  17.5965  17.6486  17.6530  17.6901
    17.8259  17.8506  17.8771  17.8981  17.9756  18.0001  18.0778  18.1225
    18.3496  18.4390  18.4771  18.4824  18.4961  18.5113  18.5150  18.5404
    18.5937  18.6453  18.6666  18.6816  18.7205  18.7315  18.7727  18.7787
    18.8740  18.9173  18.9435  18.9502  19.0356  19.0639  19.0961  19.2000
    19.3122  19.3202  19.3455  19.3599  19.4464  19.4994  19.5079  19.5338
    19.5503  19.5901  19.6398  19.7179  19.7265  19.7545  19.8437  19.8441
    19.8448  19.8931  19.9211  19.9282  20.0503  20.0508  20.0805  20.0977
[...]
    21.5271  21.5719  21.5886  21.6080  21.6520  21.6758  21.6897  21.7419
    22.0177  22.0915  22.1114  22.1439  22.2777  22.2903  22.3567  22.3672
    22.4378  22.4487  22.4905  22.6511  22.8249  22.8341  22.8367  22.9042
    22.9133  22.9440  23.0042  23.0690  23.1742  23.1829  23.1974  23.2696
    23.2777  23.3425  23.4057  23.4101  23.4575  23.4729  23.4814  23.4998
    23.5688  23.5801  23.6076  23.6525  23.6807  23.7043  23.7399  23.7586
    23.7612  23.8076  23.8733  23.8859  24.1933  24.2254  24.2388  24.3167
    24.4154  24.4492  24.4629  24.4957  24.5136  24.5400  24.5732  24.6037
    24.6381  24.6439  24.6693  24.6974  24.7082  24.7240  24.7801  24.7880
    24.8363  24.8986  24.9053  24.9138  24.9400  24.9738  25.0045  25.0362
    25.0620  25.0674  25.0782  25.1663  25.3560  25.3817  25.3950  25.4278
    25.4817  25.5066  25.5670  25.5783  25.6410  25.6664  25.6771  25.6984
    25.7405  25.7524  25.7863  25.8075  25.8225  25.8738  25.9543  25.9626
    26.0287  26.0292  26.0626  26.1296  26.1723  26.2135  26.2226  26.2475
    26.3641  26.3794  26.3978  26.4107  26.4649  26.4891  26.5150  26.5232

     the Fermi energy is     1.3977 ev

!    total energy              =   -3262.10256478 Ry
     Harris-Foulkes estimate   =   -3262.10256478 Ry
     estimated scf accuracy    <          1.9E-09 Ry

     The total energy is the sum of the following terms:

     one-electron contribution =  -75853.27875676 Ry
     hartree contribution      =   37978.71840381 Ry
     xc contribution           =    -538.63244449 Ry
     ewald contribution        =   35151.09097956 Ry
     smearing contrib. (-TS)   =      -0.00074690 Ry

     convergence has been achieved in  20 iterations

     Forces acting on atoms (Ry/au):

     negative rho (up, down):  0.478E-02 0.000E+00
     atom    1 type  1   force =     0.00000000    0.00000000    0.12821716
     atom    2 type  2   force =    -0.00122895    0.00000000   -0.15067690
     atom    3 type  2   force =     0.00000000    0.00000000    0.09342147
     atom    4 type  1   force =     0.00075118    0.02451975   -0.01326932
     atom    5 type  1   force =     0.00075118   -0.02451975   -0.01326932
     atom    6 type  1   force =     0.00000000    0.00000000   -0.01302430
     atom    7 type  1   force =     0.00000000    0.00000000   -0.03512344
     atom    8 type  2   force =    -0.00664200   -0.00000000    0.02602029
     atom    9 type  2   force =     0.00000000    0.00000000   -0.04462276
     atom   10 type  1   force =     0.00360130   -0.01625373   -0.00134739
     atom   11 type  1   force =     0.00360130    0.01625373   -0.00134739
     atom   12 type  1   force =     0.00000000    0.00000000   -0.00039382
     atom   13 type  1   force =     0.00000000    0.00000000   -0.00053565
     atom   14 type  2   force =     0.00000552    0.00000000   -0.00066645
     atom   15 type  2   force =     0.00000000    0.00000000   -0.00083782
     atom   16 type  1   force =     0.00012045    0.00008253   -0.00018601
     atom   17 type  1   force =     0.00012045   -0.00008253   -0.00018601
     atom   18 type  1   force =     0.00000000    0.00000000   -0.00010346
     atom   19 type  1   force =     0.00000000    0.00000000   -0.00066460
     atom   20 type  2   force =     0.00041339    0.00000000   -0.00006967
     atom   21 type  2   force =     0.00000000    0.00000000   -0.00091891
     atom   22 type  1   force =    -0.00034105    0.00004232    0.00057812
     atom   23 type  1   force =    -0.00034105   -0.00004232    0.00057812
     atom   24 type  1   force =     0.00000000    0.00000000    0.00002386
     atom   25 type  1   force =     0.00000000    0.00000000    0.13078239
     atom   26 type  2   force =     0.00122895    0.00000000   -0.15067690
     atom   27 type  2   force =     0.00000000    0.00000000    0.09356495
     atom   28 type  1   force =    -0.00075118    0.02451975   -0.01326932
     atom   29 type  1   force =    -0.00075118   -0.02451975   -0.01326932
     atom   30 type  1   force =     0.00000000    0.00000000    0.00795929
     atom   31 type  1   force =     0.00000000    0.00000000   -0.03891573
     atom   32 type  2   force =     0.00664200    0.00000000    0.02602029
     atom   33 type  2   force =     0.00000000    0.00000000   -0.00874602
     atom   34 type  1   force =    -0.00360130   -0.01625373   -0.00134739
     atom   35 type  1   force =    -0.00360130    0.01625373   -0.00134739
     atom   36 type  1   force =     0.00000000    0.00000000   -0.00395770
     atom   37 type  1   force =     0.00000000    0.00000000    0.00044853
     atom   38 type  2   force =    -0.00000552    0.00000000   -0.00066645
     atom   39 type  2   force =     0.00000000    0.00000000   -0.00023076
     atom   40 type  1   force =    -0.00012045    0.00008253   -0.00018601
     atom   41 type  1   force =    -0.00012045   -0.00008253   -0.00018601
     atom   42 type  1   force =     0.00000000    0.00000000    0.00025698
     atom   43 type  1   force =     0.00000000    0.00000000    0.00087569
     atom   44 type  2   force =    -0.00041339   -0.00000000   -0.00006967
     atom   45 type  2   force =     0.00000000    0.00000000    0.00030905
     atom   46 type  1   force =     0.00034105    0.00004232    0.00057812
     atom   47 type  1   force =     0.00034105   -0.00004232    0.00057812
     atom   48 type  1   force =     0.00000000    0.00000000   -0.00010053

     Total force =     0.002598     Total SCF correction =     0.000085

     bfgs converged in  14 scf cycles and  13 bfgs steps
     (criteria: energy < 0.10E-03, force < 0.10E-02)

     End of BFGS Geometry Optimization

     Final energy   =   -3262.1025647798 Ry
Begin final coordinates

ATOMIC_POSITIONS (crystal)
O0       0.000000000   0.500000000   0.319310000    0   0   0
Mo1      0.250000000   0.500000000   0.360290000    0   0   0
Mo1      0.000000000   0.000000000   0.360290000    0   0   0
O0       0.250000000   0.780000000   0.360290000    0   0   0
O0       0.250000000   0.220000000   0.360290000    0   0   0
O0       0.000000000   0.500000000   0.401270000    0   0   0
O0       0.000000000   0.000000000   0.412450000    0   0   0
Mo1      0.250000000   0.000000000   0.453430000    0   0   0
Mo1      0.000000000   0.500000000   0.453430000    0   0   0
O0       0.250000000   0.720000000   0.453430000    0   0   0
O0       0.250000000   0.280000000   0.453430000    0   0   0
O0       0.000000000   0.000000000   0.494410000    0   0   0
O0       0.000000000   0.500000000   0.504228056
Mo1      0.228664154   0.500000000   0.544663582
Mo1      0.000000000   0.000000000   0.550122543
O0       0.246019630   0.783281724   0.547492447
O0       0.246019630   0.216718276   0.547492447
O0       0.000000000   0.500000000   0.586972924
O0       0.000000000   0.000000000   0.602951808
Mo1      0.271944168   0.000000000   0.644351714
Mo1      0.000000000   0.500000000   0.635787964
O0       0.256871937   0.704765283   0.644045370
O0       0.256871937   0.295234717   0.644045370
O0       0.000000000   0.000000000   0.677645978
O0       0.500000000   0.500000000   0.319310000    0   0   0
Mo1      0.750000000   0.500000000   0.360290000    0   0   0
Mo1      0.500000000   0.000000000   0.360290000    0   0   0
O0       0.750000000   0.780000000   0.360290000    0   0   0
O0       0.750000000   0.220000000   0.360290000    0   0   0
O0       0.500000000   0.500000000   0.401270000    0   0   0
O0       0.500000000   0.000000000   0.412450000    0   0   0
Mo1      0.750000000   0.000000000   0.453430000    0   0   0
Mo1      0.500000000   0.500000000   0.453430000    0   0   0
O0       0.750000000   0.720000000   0.453430000    0   0   0
O0       0.750000000   0.280000000   0.453430000    0   0   0
O0       0.500000000   0.000000000   0.494410000    0   0   0
O0       0.500000000   0.500000000   0.507454887
Mo1      0.771335846   0.500000000   0.544663582
Mo1      0.500000000   0.000000000   0.548020022
O0       0.753980370   0.783281724   0.547492447
O0       0.753980370   0.216718276   0.547492447
O0       0.500000000   0.500000000   0.583828560
O0       0.500000000   0.000000000   0.600644962
Mo1      0.728055832  -0.000000000   0.644351714
Mo1      0.500000000   0.500000000   0.632733743
O0       0.743128063   0.704765283   0.644045370
O0       0.743128063   0.295234717   0.644045370
O0       0.500000000   0.000000000   0.683630814
End final coordinates

     General routines

     Parallel routines

   This run was terminated on:   4:31:22   2Mar2014

   JOB DONE.