     Program PWSCF v.5.0.2 (svn rev. 9656) starts on  1May2014 at  6:15:28

     Current dimensions of program PWSCF are:
     Max number of different atomic species (ntypx) = 10
     Max number of k-points (npk) =  40000
     Max angular momentum in pseudopotentials (lmaxx) =  3
     Reading input from pwscf.in
Warning: card &CELL ignored
Warning: card / ignored

     Subspace diagonalization in iterative solution of the eigenvalue problem:
     a serial algorithm will be used

     bravais-lattice index     =            0
     lattice parameter (alat)  =      10.1289  a.u.
     unit-cell volume          =    6836.7721 (a.u.)^3
     number of atoms/cell      =           31
     number of atomic types    =            3
     number of electrons       =       238.00
     number of Kohn-Sham states=          357
     kinetic-energy cutoff     =      40.0000  Ry
     charge density cutoff     =     500.0000  Ry
     convergence threshold     =      1.0E-06
     mixing beta               =       0.7000
     number of iterations used =            8  plain     mixing
     Exchange-correlation      = SLA  PW   PBE  PBE ( 1 4 3 4 0)
     EXX-fraction              =        0.00
     nstep                     =           50

     celldm(1)=  10.128932  celldm(2)=   0.000000  celldm(3)=   0.000000
     celldm(4)=   0.000000  celldm(5)=   0.000000  celldm(6)=   0.000000

     crystal axes: (cart. coord. in units of alat)
               a(1) = (   1.000000   0.000000   0.000000 )
               a(2) = (   0.000000   1.306037   0.000000 )
               a(3) = (   0.000000   0.000000   5.037380 )

     reciprocal axes: (cart. coord. in units 2 pi/alat)
               b(1) = (  1.000000  0.000000  0.000000 )
               b(2) = (  0.000000  0.765675  0.000000 )
               b(3) = (  0.000000  0.000000  0.198516 )

     PseudoPot. # 1 for O  read from file:
     /home/camp/zhonxu/pseudo/o_pbe_v1.01.uspp.F.UPF
     MD5 check sum: 2bcb18d16ea4b960afae9ec6d52f22d2
     Pseudo is Ultrasoft + core correction, Zval =  6.0
     Generated by new atomic code, or converted to UPF format
     Using radial grid of  737 points,  5 beta functions with:
                l(1) =   0
                l(2) =   0
                l(3) =   1
                l(4) =   1
                l(5) =   2
     Q(r) pseudized with  8 coefficients,  rinner =    0.900   0.900   0.900
                                                       0.900   0.900

     PseudoPot. # 2 for Re read from file:
     /home/camp/zhonxu/pseudo/re_pbe_v1.uspp.F.UPF
     MD5 check sum: 6f5a5dcaf9c96c20d0ffdde0de57afc6
     Pseudo is Ultrasoft + core correction, Zval = 15.0
     Generated by new atomic code, or converted to UPF format
     Using radial grid of  981 points,  8 beta functions with:
                l(1) =   0
                l(2) =   0
                l(3) =   1
                l(4) =   1
                l(5) =   2
                l(6) =   2
                l(7) =   3
                l(8) =   3
     Q(r) pseudized with  8 coefficients,  rinner =    1.000   1.000   1.000
                                                       1.000   1.000   1.000
                                                       1.000

     PseudoPot. # 3 for H  read from file:
     /home/camp/zhonxu/pseudo/h_pbe_v1.uspp.F.UPF
     MD5 check sum: 3408e3ff4ec8b0a4e358431e7e038a48
     Pseudo is Ultrasoft, Zval =  1.0
     Generated by new atomic code, or converted to UPF format
     Using radial grid of  615 points,  2 beta functions with:
                l(1) =   0
                l(2) =   0
     Q(r) pseudized with  8 coefficients,  rinner =    0.700

     atomic species   valence    mass     pseudopotential
        O0             6.00    15.99940     O ( 1.00)
        Re1           15.00   186.20700     Re( 1.00)
        H2             1.00     1.00794     H ( 1.00)

     Simplified LDA+U calculation (l_max = 2) with parameters (eV):
     atomic species    L          U    alpha       J0     beta
        Re1            2     8.0000   0.0000   0.0000   0.0000

     No symmetry found

   Cartesian axes

     site n.     atom                  positions (alat units)
         1           O0  tau(   1) = (   0.0000000   0.0000000   1.8646870  )
         2           O0  tau(   2) = (   0.0000000   0.6530184   1.9287121  )
         3           Re1 tau(   3) = (   0.2500000   0.6530184   2.2295948  )
         4           Re1 tau(   4) = (   0.0000000   0.0000000   2.2312068  )
         5           O0  tau(   5) = (   0.2500000   1.0187087   2.2244063  )
         6           O0  tau(   6) = (   0.2500000   0.2873281   2.2234996  )
         7           O0  tau(   7) = (   0.0000000   0.6530184   2.5067011  )
         8           O0  tau(   8) = (   0.0000000   0.0000000   2.5914802  )
         9           Re1 tau(   9) = (   0.2500000   0.0000000   2.8910532  )
        10           Re1 tau(  10) = (   0.0000000   0.6530184   2.8571012  )
        11           O0  tau(  11) = (   0.2500000   0.9403465   2.8803235  )
        12           O0  tau(  12) = (   0.2500000   0.3656903   2.8804747  )
        13           O0  tau(  13) = (   0.0000000   0.0000000   3.1540044  )
        14           O0  tau(  14) = (   0.5000000   0.0000000   1.8645359  )
        15           O0  tau(  15) = (   0.5000000   0.6530184   1.9300722  )
        16           Re1 tau(  16) = (   0.7500000   0.6530184   2.2295444  )
        17           Re1 tau(  17) = (   0.5000000   0.0000000   2.2295948  )
        18           O0  tau(  18) = (   0.7500000   1.0187087   2.2239529  )
        19           O0  tau(  19) = (   0.7500000   0.2873281   2.2238522  )
        20           O0  tau(  20) = (   0.5000000   0.6530184   2.5186397  )
        21           O0  tau(  21) = (   0.5000000   0.0000000   2.5912283  )
        22           Re1 tau(  22) = (   0.7500000   0.0000000   2.8912547  )
        23           Re1 tau(  23) = (   0.5000000   0.6530184   2.9058631  )
        24           O0  tau(  24) = (   0.7500000   0.9403465   2.8806762  )
        25           O0  tau(  25) = (   0.7500000   0.3656903   2.8804243  )
        26           O0  tau(  26) = (   0.5000000   0.0000000   3.1508309  )
        27           H2  tau(  27) = (  -0.0003300   0.8166387   1.8441345  )
        28           H2  tau(  28) = (   0.4996000   0.8128642   1.8387445  )
        29           H2  tau(  29) = (   0.1687200   0.0311098   1.7921991  )
        30           H2  tau(  30) = (   0.6701100   0.0285761   1.7932066  )
        31           O0  tau(  31) = (   0.4998900   0.6523393   3.2273487  )

     number of k points=    10  Methfessel-Paxton smearing, width (Ry)=  0.0100
                       cart. coord. in units 2pi/alat
        k(    1) = (   0.0000000   0.0000000   0.0000000), wk =   0.1250000
        k(    2) = (   0.0000000   0.1914188   0.0000000), wk =   0.2500000
        k(    3) = (   0.0000000  -0.3828376   0.0000000), wk =   0.1250000
        k(    4) = (   0.2500000   0.0000000   0.0000000), wk =   0.2500000
        k(    5) = (   0.2500000   0.1914188   0.0000000), wk =   0.2500000
        k(    6) = (   0.2500000  -0.3828376   0.0000000), wk =   0.2500000
        k(    7) = (  -0.5000000   0.0000000   0.0000000), wk =   0.1250000
        k(    8) = (  -0.5000000   0.1914188   0.0000000), wk =   0.2500000
        k(    9) = (  -0.5000000  -0.3828376   0.0000000), wk =   0.1250000
        k(   10) = (  -0.2500000   0.1914188   0.0000000), wk =   0.2500000

     Largest allocated arrays     est. size (Mb)     dimensions
     Largest temporary arrays     est. size (Mb)     dimensions

     Check: negative/imaginary core charge=   -0.000003    0.000000

     Initial potential from superposition of free atoms
     Check: negative starting charge=   -0.237495

     starting charge  233.99958, renormalised to  238.00000

     negative rho (up, down):  0.242E+00 0.000E+00
     Number of +U iterations with fixed ns =  0
     Starting occupations:
 --- enter write_ns ---
 LDA+U parameters:
U( 2)     =  8.00000000
alpha( 2) =  0.00000000
atom    3   Tr[ns(na)] =   5.00000
    eigenvalues:
  0.500  0.500  0.500  0.500  0.500
    eigenvectors:
  1.000  0.000  0.000  0.000  0.000
  0.000  1.000  0.000  0.000  0.000
  0.000  0.000  1.000  0.000  0.000
  0.000  0.000  0.000  1.000  0.000
  0.000  0.000  0.000  0.000  1.000
    occupations:
  0.500  0.000  0.000  0.000  0.000
  0.000  0.500  0.000  0.000  0.000
  0.000  0.000  0.500  0.000  0.000
  0.000  0.000  0.000  0.500  0.000
  0.000  0.000  0.000  0.000  0.500
atom    4   Tr[ns(na)] =   5.00000
    eigenvalues:
  0.500  0.500  0.500  0.500  0.500
    eigenvectors:
  1.000  0.000  0.000  0.000  0.000
  0.000  1.000  0.000  0.000  0.000
  0.000  0.000  1.000  0.000  0.000
  0.000  0.000  0.000  1.000  0.000
  0.000  0.000  0.000  0.000  1.000
    occupations:
  0.500  0.000  0.000  0.000  0.000
  0.000  0.500  0.000  0.000  0.000
  0.000  0.000  0.500  0.000  0.000
  0.000  0.000  0.000  0.500  0.000
  0.000  0.000  0.000  0.000  0.500
atom    9   Tr[ns(na)] =   5.00000
    eigenvalues:
  0.500  0.500  0.500  0.500  0.500
    eigenvectors:
  1.000  0.000  0.000  0.000  0.000
  0.000  1.000  0.000  0.000  0.000
  0.000  0.000  1.000  0.000  0.000
  0.000  0.000  0.000  1.000  0.000
  0.000  0.000  0.000  0.000  1.000
    occupations:
  0.500  0.000  0.000  0.000  0.000
  0.000  0.500  0.000  0.000  0.000
  0.000  0.000  0.500  0.000  0.000
  0.000  0.000  0.000  0.500  0.000
  0.000  0.000  0.000  0.000  0.500
atom   10   Tr[ns(na)] =   5.00000
    eigenvalues:
  0.500  0.500  0.500  0.500  0.500
    eigenvectors:
  1.000  0.000  0.000  0.000  0.000
  0.000  1.000  0.000  0.000  0.000
  0.000  0.000  1.000  0.000  0.000
  0.000  0.000  0.000  1.000  0.000
  0.000  0.000  0.000  0.000  1.000
    occupations:
  0.500  0.000  0.000  0.000  0.000
  0.000  0.500  0.000  0.000  0.000
  0.000  0.000  0.500  0.000  0.000
  0.000  0.000  0.000  0.500  0.000
  0.000  0.000  0.000  0.000  0.500
atom   16   Tr[ns(na)] =   5.00000
    eigenvalues:
  0.500  0.500  0.500  0.500  0.500
    eigenvectors:
  1.000  0.000  0.000  0.000  0.000
  0.000  1.000  0.000  0.000  0.000
  0.000  0.000  1.000  0.000  0.000
  0.000  0.000  0.000  1.000  0.000
  0.000  0.000  0.000  0.000  1.000
    occupations:
  0.500  0.000  0.000  0.000  0.000
  0.000  0.500  0.000  0.000  0.000
  0.000  0.000  0.500  0.000  0.000
  0.000  0.000  0.000  0.500  0.000
  0.000  0.000  0.000  0.000  0.500
atom   17   Tr[ns(na)] =   5.00000
    eigenvalues:
  0.500  0.500  0.500  0.500  0.500
    eigenvectors:
  1.000  0.000  0.000  0.000  0.000
  0.000  1.000  0.000  0.000  0.000
  0.000  0.000  1.000  0.000  0.000
  0.000  0.000  0.000  1.000  0.000
  0.000  0.000  0.000  0.000  1.000
    occupations:
  0.500  0.000  0.000  0.000  0.000
  0.000  0.500  0.000  0.000  0.000
  0.000  0.000  0.500  0.000  0.000
  0.000  0.000  0.000  0.500  0.000
  0.000  0.000  0.000  0.000  0.500
atom   22   Tr[ns(na)] =   5.00000
    eigenvalues:
  0.500  0.500  0.500  0.500  0.500
    eigenvectors:
  1.000  0.000  0.000  0.000  0.000
  0.000  1.000  0.000  0.000  0.000
  0.000  0.000  1.000  0.000  0.000
  0.000  0.000  0.000  1.000  0.000
[...]
  0.995  0.000  0.000  0.000  0.005
  0.000  0.889  0.003  0.108  0.000
  0.005  0.000  0.000  0.000  0.994
    occupations:
  0.716  0.000 -0.000 -0.046  0.004
  0.000  0.612  0.000  0.002  0.000
 -0.000  0.000  0.440 -0.000 -0.036
 -0.046  0.002 -0.000  0.600 -0.003
  0.004  0.000 -0.036 -0.003  0.925
atom   10   Tr[ns(na)] =   6.42905
    eigenvalues:
  0.387  0.486  0.578  0.805  0.958
    eigenvectors:
  0.003  0.991  0.000  0.007  0.000
  0.000  0.000  0.000  0.000  1.000
  0.997  0.003  0.000  0.000  0.000
  0.000  0.007  0.000  0.993  0.000
  0.000  0.000  1.000  0.000  0.000
    occupations:
  0.488  0.000 -0.005  0.026  0.000
  0.000  0.958  0.000 -0.000  0.001
 -0.005  0.000  0.388  0.003 -0.000
  0.026 -0.000  0.003  0.802  0.000
  0.000  0.001 -0.000  0.000  0.578
atom   16   Tr[ns(na)] =   6.52931
    eigenvalues:
  0.389  0.538  0.582  0.799  0.957
    eigenvectors:
  0.007  0.001  0.247  0.745  0.000
  0.000  0.998  0.001  0.000  0.001
  0.986  0.000  0.000  0.007  0.006
  0.001  0.000  0.752  0.247  0.000
  0.006  0.001  0.000  0.000  0.993
    occupations:
  0.742  0.003  0.032 -0.093  0.002
  0.003  0.538  0.002 -0.000 -0.011
  0.032  0.002  0.396 -0.014 -0.044
 -0.093 -0.000 -0.014  0.635 -0.001
  0.002 -0.011 -0.044 -0.001  0.953
atom   17   Tr[ns(na)] =   6.57560
    eigenvalues:
  0.452  0.573  0.612  0.807  0.844
    eigenvectors:
  0.000  0.001  0.999  0.001  0.000
  0.003  0.000  0.000  0.000  0.997
  0.997  0.000  0.000  0.000  0.003
  0.000  0.000  0.001  0.999  0.000
  0.000  0.999  0.001  0.000  0.000
    occupations:
  0.612  0.000  0.000 -0.005  0.001
  0.000  0.843  0.020 -0.000 -0.000
  0.000  0.020  0.453  0.001  0.000
 -0.005 -0.000  0.001  0.807 -0.000
  0.001 -0.000  0.000 -0.000  0.573
atom   22   Tr[ns(na)] =   6.58508
    eigenvalues:
  0.437  0.584  0.612  0.733  0.927
    eigenvectors:
  0.000  0.109  0.000  0.890  0.001
  0.000  0.002  0.998  0.000  0.000
  0.994  0.000  0.000  0.000  0.006
  0.000  0.889  0.001  0.109  0.000
  0.006  0.000  0.000  0.001  0.994
    occupations:
  0.717  0.000 -0.000 -0.047  0.005
  0.000  0.612  0.001 -0.001 -0.000
 -0.000  0.001  0.439 -0.000  0.036
 -0.047 -0.001 -0.000  0.600 -0.004
  0.005 -0.000  0.036 -0.004  0.924
atom   23   Tr[ns(na)] =   6.62164
    eigenvalues:
  0.583  0.589  0.602  0.674  0.863
    eigenvectors:
  0.000  0.000  0.000  0.991  0.009
  0.999  0.001  0.000  0.000  0.000
  0.001  0.999  0.000  0.000  0.000
  0.000  0.000  0.000  0.009  0.991
  0.000  0.000  1.000  0.000  0.000
    occupations:
  0.676  0.000 -0.000 -0.018  0.000
  0.000  0.583  0.000 -0.000 -0.000
 -0.000  0.000  0.589  0.000 -0.000
 -0.018 -0.000  0.000  0.861  0.000
  0.000 -0.000 -0.000  0.000  0.602
N of occupied +U levels =  52.4310762
 --- exit write_ns ---

     Threshold (ethr) on eigenvalues was too large:
     Diagonalizing with lowered threshold

     Davidson diagonalization with overlap
     ethr =  6.49E-09,  avg # of iterations =  2.0

[...]

     total energy              =   -2170.36129898 Ry
     Harris-Foulkes estimate   =   -2170.36129897 Ry
     estimated scf accuracy    <       0.00000001 Ry

     iteration # 12     ecut=    40.00 Ry     beta=0.70
     Davidson diagonalization with overlap
     ethr =  5.45E-12,  avg # of iterations =  1.0

     negative rho (up, down):  0.237E+00 0.000E+00

     End of self-consistent calculation
 --- enter write_ns ---
 LDA+U parameters:
U( 2)     =  8.00000000
alpha( 2) =  0.00000000
atom    3   Tr[ns(na)] =   6.52980
    eigenvalues:
  0.390  0.538  0.582  0.798  0.957
    eigenvectors:
  0.007  0.001  0.247  0.745  0.000
  0.000  0.998  0.001  0.000  0.001
  0.985  0.000  0.000  0.007  0.007
  0.001  0.000  0.752  0.247  0.000
  0.007  0.001  0.000  0.000  0.993
    occupations:
  0.742 -0.003  0.032 -0.093 -0.002
 -0.003  0.538 -0.003  0.000 -0.011
  0.032 -0.003  0.397 -0.014  0.046
 -0.093  0.000 -0.014  0.635  0.001
 -0.002 -0.011  0.046  0.001  0.953
atom    4   Tr[ns(na)] =   6.57653
    eigenvalues:
  0.445  0.574  0.614  0.808  0.846
    eigenvectors:
  0.000  0.001  0.999  0.001  0.000
  0.002  0.000  0.000  0.000  0.998
  0.998  0.000  0.000  0.000  0.002
  0.000  0.000  0.001  0.999  0.000
  0.000  0.999  0.001  0.000  0.000
    occupations:
  0.614  0.000  0.001 -0.005  0.001
  0.000  0.846  0.018 -0.000 -0.000
  0.001  0.018  0.446  0.001  0.000
 -0.005 -0.000  0.001  0.808 -0.000
  0.001 -0.000  0.000 -0.000  0.574
atom    9   Tr[ns(na)] =   6.58464
    eigenvalues:
  0.437  0.584  0.612  0.732  0.927
    eigenvectors:
  0.000  0.108  0.000  0.891  0.000
  0.000  0.003  0.997  0.000  0.000
  0.995  0.000  0.000  0.000  0.005
  0.000  0.889  0.003  0.108  0.000
  0.005  0.000  0.000  0.000  0.994
    occupations:
  0.716  0.000 -0.000 -0.046  0.004
  0.000  0.612  0.000  0.002  0.000
 -0.000  0.000  0.440 -0.000 -0.036
 -0.046  0.002 -0.000  0.600 -0.003
  0.004  0.000 -0.036 -0.003  0.924
atom   10   Tr[ns(na)] =   6.42839
    eigenvalues:
  0.387  0.486  0.578  0.804  0.958
    eigenvectors:
  0.003  0.991  0.000  0.007  0.000
  0.000  0.000  0.000  0.000  1.000
  0.997  0.003  0.000  0.000  0.000
  0.000  0.007  0.000  0.993  0.000
  0.000  0.000  1.000  0.000  0.000
    occupations:
  0.488  0.000 -0.005  0.026  0.000
  0.000  0.958  0.000 -0.000  0.001
 -0.005  0.000  0.387  0.003 -0.000
  0.026 -0.000  0.003  0.802  0.000
  0.000  0.001 -0.000  0.000  0.578
atom   16   Tr[ns(na)] =   6.52935
    eigenvalues:
  0.389  0.538  0.582  0.799  0.957
    eigenvectors:
  0.007  0.001  0.247  0.745  0.000
  0.000  0.998  0.001  0.000  0.001
  0.986  0.000  0.000  0.007  0.006
  0.001  0.000  0.752  0.247  0.000
  0.006  0.001  0.000  0.000  0.993
    occupations:
  0.742  0.003  0.032 -0.093  0.002
  0.003  0.538  0.002 -0.000 -0.011
  0.032  0.002  0.396 -0.014 -0.044
 -0.093 -0.000 -0.014  0.635 -0.001
  0.002 -0.011 -0.044 -0.001  0.953
atom   17   Tr[ns(na)] =   6.57696
    eigenvalues:
  0.452  0.573  0.612  0.807  0.845
    eigenvectors:
  0.000  0.001  0.999  0.001  0.000
  0.003  0.000  0.000  0.000  0.997
  0.997  0.000  0.000  0.000  0.003
  0.000  0.000  0.001  0.999  0.000
  0.000  0.999  0.001  0.000  0.000
    occupations:
  0.612  0.000  0.000 -0.005  0.001
  0.000  0.844  0.020 -0.000 -0.000
  0.000  0.020  0.453  0.001  0.000
 -0.005 -0.000  0.001  0.807 -0.000
  0.001 -0.000  0.000 -0.000  0.573
atom   22   Tr[ns(na)] =   6.58474
    eigenvalues:
  0.437  0.584  0.612  0.733  0.927
    eigenvectors:
  0.000  0.109  0.000  0.890  0.001
  0.000  0.002  0.998  0.000  0.000
  0.995  0.000  0.000  0.000  0.005
  0.000  0.889  0.001  0.109  0.000
  0.005  0.000  0.000  0.001  0.994
    occupations:
  0.717  0.000 -0.000 -0.047  0.005
  0.000  0.612  0.001 -0.001 -0.000
 -0.000  0.001  0.439 -0.000  0.036
 -0.047 -0.001 -0.000  0.600 -0.004
  0.005 -0.000  0.036 -0.004  0.924
atom   23   Tr[ns(na)] =   6.62086
    eigenvalues:
  0.583  0.589  0.602  0.674  0.863
    eigenvectors:
  0.000  0.000  0.000  0.991  0.009
  0.999  0.001  0.000  0.000  0.000
  0.001  0.999  0.000  0.000  0.000
  0.000  0.000  0.000  0.009  0.991
  0.000  0.000  1.000  0.000  0.000
    occupations:
  0.676  0.000 -0.000 -0.018  0.000
  0.000  0.583  0.000 -0.000 -0.000
 -0.000  0.000  0.589  0.000 -0.000
 -0.018 -0.000  0.000  0.861  0.000
  0.000 -0.000 -0.000  0.000  0.601
N of occupied +U levels =  52.4312622
 --- exit write_ns ---

[...]

          k = 0.2500-0.3828 0.0000 ( 29202 PWs)   bands (ev):

[...]

          k =-0.2500 0.1914 0.0000 ( 29229 PWs)   bands (ev):

   -81.6921 -81.0253 -80.7245 -80.6839 -80.5940 -80.5584 -80.4206 -80.3817
   -44.1001 -43.5458 -43.3351 -43.1951 -43.1681 -42.9878 -42.8953 -42.8876
   -42.7955 -42.7487 -42.6869 -42.6743 -42.5790 -42.5670 -42.5331 -42.4707
   -42.3837 -42.3793 -42.3669 -42.3561 -42.3151 -41.9598 -41.7359 -41.7262
   -21.1751 -20.7991 -20.4829 -20.3599 -20.2568 -20.0820 -20.0581 -20.0097
   -19.9131 -19.8441 -19.6548 -19.4758 -19.3217 -19.2416 -19.2155 -19.0393
   -18.8870 -18.4081 -18.1985 -10.0374  -9.6906  -9.6172  -9.5052  -9.4741
    -9.1456  -9.0781  -8.5207  -8.4325  -8.3968  -8.2476  -8.0506  -7.9877
    -7.7028  -7.3911  -7.3479  -7.3017  -7.0909  -7.0397  -6.9336  -6.8454
    -6.7171  -6.3481  -6.2677  -6.0829  -6.0488  -5.9412  -5.8257  -5.6595
    -5.5593  -5.4572  -5.3932  -5.2711  -5.1753  -5.1274  -5.0750  -4.9749
    -4.9288  -4.7387  -4.6296  -4.5842  -4.4294  -4.3638  -4.2392  -4.1528
    -4.0612  -3.9601  -3.8261  -3.7815  -3.6094  -3.5232  -3.3904  -3.2460
    -3.1459  -2.9646  -2.9499  -2.9079  -2.6875  -2.6035  -2.4849  -2.0327
    -1.7360  -1.3513  -1.3334  -0.8103  -0.6814  -0.4805   0.0030   0.2016
     0.6719   0.8391   0.9046   1.0588   1.1271   1.2325   1.5312   1.6278
     1.7105   1.7249   1.8761   2.1183   2.7429   3.3741   3.4651   3.6730
     3.7298   3.8407   4.1090   4.3433   4.4055   4.6059   4.6797   4.8567
     5.0381   5.2634   5.5225   5.6778   5.8545   5.9881   6.0658   6.2411
     6.3451   6.5651   6.7326   6.8575   7.1116   7.2650   7.4166   7.5630
     7.5809   7.8392   8.0342   8.1157   8.2934   8.4074   8.5538   8.6099
     8.7202   8.7622   8.9211   9.1065   9.1793   9.4046   9.4885   9.6142
     9.6972   9.8141   9.9269   9.9442   9.9657  10.0444  10.1041  10.2842
    10.3185  10.4037  10.4958  10.5905  10.6307  10.7301  10.8374  10.8968
    11.0340  11.1468  11.2830  11.3937  11.4943  11.5984  11.6353  11.8390
    11.9022  11.9427  12.1683  12.3162  12.4175  12.4995  12.5960  12.6241
    12.7263  12.7804  12.8605  12.9509  12.9831  13.0530  13.1805  13.3380
    13.3456  13.5027  13.6303  13.6539  13.7114  13.7653  13.8144  13.9018
    13.9630  13.9959  14.0674  14.1547  14.2089  14.2443  14.3514  14.4630
    14.5114  14.5653  14.6558  14.7008  14.7952  14.8477  14.8984  14.9417
    15.0005  15.0225  15.1089  15.1651  15.2075  15.2802  15.3052  15.4567
    15.5587  15.6380  15.6774  15.8441  15.9138  16.0517  16.1037  16.1888
    16.2204  16.3311  16.3564  16.4688  16.5630  16.5961  16.6420  16.7143
    16.7445  16.8842  16.9743  17.0885  17.1589  17.2298  17.2907  17.3842
    17.4856  17.5180  17.6055  17.7695  17.8013  17.8484  17.9519  18.0179
    18.0487  18.1066  18.1323  18.2473  18.2897  18.4004  18.4555  18.4991
    18.5621  18.6317  18.6700  18.7752  18.8218  18.9115  19.0136  19.0560
    19.0919  19.2492  19.3529  19.3857  19.5269  19.5899  19.6249  19.7265
    19.7859  19.9939  20.0349  20.1064  20.1907  20.2251  20.3254  20.4467
    20.5285  20.5407  20.6147  20.6618  20.7683  20.8240  20.8703  20.9165
    20.9438  21.0199  21.0784  21.1528  21.2231  21.2557  21.3459  21.3968
    21.4520  21.4837  21.5444  21.6437  21.6894  21.7585  21.8220  21.9189
    21.9933  22.0956  22.1318  22.1772  22.2601  22.2873  22.3691  22.4268
    22.4472  22.5001  22.5554  22.5807  22.6440  22.7185  22.7595  22.7907
    22.8248  22.8830  22.9588  23.0133  23.0654

     the Fermi energy is     0.0448 ev

!    total energy              =   -2170.36129898 Ry
     Harris-Foulkes estimate   =   -2170.36129898 Ry
     estimated scf accuracy    <          9.8E-09 Ry

     The total energy is the sum of the following terms:

     one-electron contribution =  -24335.65366698 Ry
     hartree contribution      =   12185.97508931 Ry
     xc contribution           =    -594.67141105 Ry
     ewald contribution        =   10569.36428569 Ry
     Hubbard energy            =       4.62461386 Ry
     smearing contrib. (-TS)   =      -0.00020981 Ry

     convergence has been achieved in  12 iterations

     Forces acting on atoms (Ry/au):

     negative rho (up, down):  0.237E+00 0.000E+00
     atom    1 type  1   force =    -0.00425395   -0.00582835   -0.00030357
     atom    2 type  1   force =     0.00004055    0.00471757   -0.00021865
     atom    3 type  2   force =     0.04341621   -0.00135639    0.00007639
     atom    4 type  2   force =     0.00350888    0.00677607    0.00000669
     atom    5 type  1   force =     0.00078170    0.01462100   -0.00006117
     atom    6 type  1   force =     0.00214018   -0.01668237    0.00010661
     atom    7 type  1   force =    -0.00004810   -0.00180734    0.00013597
     atom    8 type  1   force =     0.00185171   -0.00065776    0.00046560
     atom    9 type  2   force =     0.01331651    0.00110498    0.00022823
     atom   10 type  2   force =    -0.00004717   -0.00118073    0.00020951
     atom   11 type  1   force =    -0.00912512   -0.04315864   -0.00013433
     atom   12 type  1   force =    -0.00936342    0.04278890   -0.00013549
     atom   13 type  1   force =    -0.00059839   -0.00029520    0.00030807
     atom   14 type  1   force =    -0.00444634   -0.00596747   -0.00026591
     atom   15 type  1   force =     0.00003493    0.00616700    0.00020636
     atom   16 type  2   force =    -0.04366697   -0.00165561    0.00007484
     atom   17 type  2   force =     0.00353434    0.00720835   -0.00017537
     atom   18 type  1   force =    -0.00071077    0.01486978   -0.00003913
     atom   19 type  1   force =     0.00058104   -0.01650042    0.00007474
     atom   20 type  1   force =    -0.00013686   -0.00257349   -0.00002728
     atom   21 type  1   force =     0.00165404   -0.00094435   -0.00013824
     atom   22 type  2   force =    -0.01662217    0.00102963    0.00028063
     atom   23 type  2   force =     0.00006428    0.00060837    0.00005417
     atom   24 type  1   force =     0.00877826   -0.04306286   -0.00014618
     atom   25 type  1   force =     0.00971441    0.04283127   -0.00013492
     atom   26 type  1   force =    -0.00064669   -0.00043979    0.00039286
     atom   27 type  3   force =    -0.00001663   -0.00020304   -0.00056786
     atom   28 type  3   force =    -0.00000840   -0.00044381   -0.00049715
     atom   29 type  3   force =     0.00013864   -0.00001983   -0.00000138
     atom   30 type  3   force =     0.00014269    0.00004186    0.00007872
     atom   31 type  1   force =    -0.00000739    0.00001267    0.00014724

     Total force =     0.001398     Total SCF correction =     0.000263
     SCF correction compared to forces is large: reduce conv_thr to get better values

     bfgs converged in  18 scf cycles and  17 bfgs steps
     (criteria: energy < 0.10E-03, force < 0.10E-02)

     End of BFGS Geometry Optimization

     Final energy   =   -2170.3612989811 Ry
Begin final coordinates

ATOMIC_POSITIONS (crystal)
O0       0.000000000   0.000000000   0.371834953    0   0   1
O0       0.000000000   0.500000000   0.383858940    0   0   1
Re1      0.250000000   0.500000000   0.442069138    0   0   1
Re1      0.000000000   0.000000000   0.443663970    0   0   1
O0       0.250000000   0.780000000   0.442204578    0   0   1
O0       0.250000000   0.220000000   0.442312083    0   0   1
O0       0.000000000   0.500000000   0.497426114    0   0   1
O0       0.000000000   0.000000000   0.515206731    0   0   1
Re1      0.250000000   0.000000000   0.573937037    0   0   1
Re1      0.000000000   0.500000000   0.566333530    0   0   1
O0       0.250000000   0.720000000   0.570033293    0   0   1
O0       0.250000000   0.280000000   0.570017935    0   0   1
O0       0.000000000   0.000000000   0.625633160    0   0   1
O0       0.500000000   0.000000000   0.371582948    0   0   1
O0       0.500000000   0.500000000   0.383027799    0   0   1
Re1      0.750000000   0.500000000   0.442061855    0   0   1
Re1      0.500000000   0.000000000   0.443355352    0   0   1
O0       0.750000000   0.780000000   0.442209026    0   0   1
O0       0.750000000   0.220000000   0.442332871    0   0   1
O0       0.500000000   0.500000000   0.499430923    0   0   1
O0       0.500000000   0.000000000   0.515190917    0   0   1
Re1      0.750000000   0.000000000   0.573913336    0   0   1
Re1      0.500000000   0.500000000   0.575389516    0   0   1
O0       0.750000000   0.720000000   0.570035875    0   0   1
O0       0.750000000   0.280000000   0.570006376    0   0   1
O0       0.500000000   0.000000000   0.625837942    0   0   1
H2      -0.000371313   0.622108647   0.365631807
H2       0.499628798   0.624943835   0.366128274
H2       0.170941372   0.017933059   0.357647537
H2       0.670859383   0.018410020   0.357422963
O0       0.500011829   0.499302606   0.638113220
End final coordinates

     General routines

     Parallel routines
     Hubbard U routines

   This run was terminated on:   5:50:21   2May2014

   JOB DONE.
Running PBS batch system epilogue script
Job id: 340619.audhumbla.fysik.dtu.dk
Username: zhonxu
Groupname: campgst
Jobname: ReO2/Eads-2-layers/O-U-8.0
Sessionid: 30023
Queuename: verylong
Accounting:
This job has allocated the following 16 nodes:
b104 b104 b104 b104 b104 b104 b104 b104 b069 b069 b069 b069 b069 b069 b069 b069
Finished epilogue job 340619.audhumbla.fysik.dtu.dk for zhonxu