     Program PWSCF v.5.0.2 (svn rev. 9656) starts on 23Jan2014 at 21:18:47

     Current dimensions of program PWSCF are:
     Max number of different atomic species (ntypx) = 10
     Max number of k-points (npk) =  40000
     Max angular momentum in pseudopotentials (lmaxx) =  3
     Reading input from IrO2-v-1.1.in

     Subspace diagonalization in iterative solution of the eigenvalue problem:
     a serial algorithm will be used

     bravais-lattice index     =            0
     lattice parameter (alat)  =       8.9385  a.u.
     unit-cell volume          =     460.2364 (a.u.)^3
     number of atoms/cell      =            6
     number of atomic types    =            2
     number of electrons       =        54.00
     number of Kohn-Sham states=           78
     kinetic-energy cutoff     =      40.0000  Ry
     charge density cutoff     =     500.0000  Ry
     convergence threshold     =      1.0E-06
     mixing beta               =       0.7000
     number of iterations used =            8  plain     mixing
     Exchange-correlation      = SLA  PW   PBE  PBE ( 1 4 3 4 0)
     EXX-fraction              =        0.00
     nstep                     =           50

     celldm(1)=   8.938511  celldm(2)=   0.000000  celldm(3)=   0.000000
     celldm(4)=   0.000000  celldm(5)=   0.000000  celldm(6)=   0.000000

     crystal axes: (cart. coord. in units of alat)
               a(1) = (   1.000000   0.000000   0.000000 )
               a(2) = (   0.000000   1.000000   0.000000 )
               a(3) = (   0.000000   0.000000   0.644444 )

     reciprocal axes: (cart. coord. in units 2 pi/alat)
               b(1) = (  1.000000  0.000000  0.000000 )
               b(2) = (  0.000000  1.000000  0.000000 )
               b(3) = (  0.000000  0.000000  1.551724 )

     PseudoPot. # 1 for Ir read from file:
     /home/camp/zhonxu/pseudo/ir_pbe_v1.uspp.F.UPF
     MD5 check sum: abf987a9674477536ede83817f8f8b70
     Pseudo is Ultrasoft + core correction, Zval = 15.0
     Generated by new atomic code, or converted to UPF format
     Using radial grid of  983 points,  7 beta functions with:
                l(1) =   0
                l(2) =   0
                l(3) =   1
                l(4) =   1
                l(5) =   1
                l(6) =   2
                l(7) =   2
     Q(r) pseudized with  8 coefficients,  rinner =    1.350   1.350   1.350
                                                       1.350   1.350

     PseudoPot. # 2 for O  read from file:
     /home/camp/zhonxu/pseudo/o_pbe_v1.01.uspp.F.UPF
     MD5 check sum: 2bcb18d16ea4b960afae9ec6d52f22d2
     Pseudo is Ultrasoft + core correction, Zval =  6.0
     Generated by new atomic code, or converted to UPF format
     Using radial grid of  737 points,  5 beta functions with:
                l(1) =   0
                l(2) =   0
                l(3) =   1
                l(4) =   1
                l(5) =   2
     Q(r) pseudized with  8 coefficients,  rinner =    0.900   0.900   0.900
                                                       0.900   0.900

     atomic species   valence    mass     pseudopotential
        Ir0           15.00   192.22000     Ir( 1.00)
        O1             6.00    15.99940     O ( 1.00)

     Starting magnetic structure
     atomic species   magnetization
        Ir0          0.600
        O1           0.000

      8 Sym. Ops., with inversion, found
          (note:  8 additional sym.ops. were found but ignored
           their fractional translations are incommensurate with FFT grid)

   Cartesian axes

     site n.     atom                  positions (alat units)
         1           Ir0 tau(   1) = (   0.0000000   0.0000000   0.0000000  )
         2           Ir0 tau(   2) = (   0.5000000   0.5000000   0.3222222  )
         3           O1  tau(   3) = (   0.3050000   0.3050000   0.0000000  )
         4           O1  tau(   4) = (  -0.3050000  -0.3050000   0.0000000  )
         5           O1  tau(   5) = (   0.8050000   0.1950000   0.3222222  )
         6           O1  tau(   6) = (   0.1950000   0.8050000   0.3222222  )

     number of k points=    54  Methfessel-Paxton smearing, width (Ry)=  0.0100
                       cart. coord. in units 2pi/alat
        k(    1) = (   0.0000000   0.0000000   0.0000000), wk =   0.0080000
        k(    2) = (   0.0000000   0.0000000   0.3103448), wk =   0.0160000
        k(    3) = (   0.0000000   0.0000000   0.6206897), wk =   0.0160000
        k(    4) = (   0.0000000   0.2000000   0.0000000), wk =   0.0320000
        k(    5) = (   0.0000000   0.2000000   0.3103448), wk =   0.0640000
        k(    6) = (   0.0000000   0.2000000   0.6206897), wk =   0.0640000
        k(    7) = (   0.0000000   0.4000000   0.0000000), wk =   0.0320000
        k(    8) = (   0.0000000   0.4000000   0.3103448), wk =   0.0640000
        k(    9) = (   0.0000000   0.4000000   0.6206897), wk =   0.0640000
        k(   10) = (   0.2000000   0.2000000   0.0000000), wk =   0.0160000
        k(   11) = (   0.2000000   0.2000000   0.3103448), wk =   0.0320000
        k(   12) = (   0.2000000   0.2000000   0.6206897), wk =   0.0320000
        k(   13) = (   0.2000000   0.4000000   0.0000000), wk =   0.0320000
        k(   14) = (   0.2000000   0.4000000   0.3103448), wk =   0.0640000
        k(   15) = (   0.2000000   0.4000000   0.6206897), wk =   0.0640000
        k(   16) = (   0.4000000   0.4000000   0.0000000), wk =   0.0160000
        k(   17) = (   0.4000000   0.4000000   0.3103448), wk =   0.0320000
        k(   18) = (   0.4000000   0.4000000   0.6206897), wk =   0.0320000
        k(   19) = (  -0.2000000   0.2000000   0.0000000), wk =   0.0160000
        k(   20) = (  -0.2000000   0.2000000  -0.3103448), wk =   0.0320000
        k(   21) = (  -0.2000000   0.2000000  -0.6206897), wk =   0.0320000
        k(   22) = (  -0.2000000   0.4000000   0.0000000), wk =   0.0320000
        k(   23) = (  -0.2000000   0.4000000  -0.3103448), wk =   0.0640000
        k(   24) = (  -0.2000000   0.4000000  -0.6206897), wk =   0.0640000
        k(   25) = (  -0.4000000   0.4000000   0.0000000), wk =   0.0160000
        k(   26) = (  -0.4000000   0.4000000  -0.3103448), wk =   0.0320000
        k(   27) = (  -0.4000000   0.4000000  -0.6206897), wk =   0.0320000
        k(   28) = (   0.0000000   0.0000000   0.0000000), wk =   0.0080000
        k(   29) = (   0.0000000   0.0000000   0.3103448), wk =   0.0160000
        k(   30) = (   0.0000000   0.0000000   0.6206897), wk =   0.0160000
        k(   31) = (   0.0000000   0.2000000   0.0000000), wk =   0.0320000
        k(   32) = (   0.0000000   0.2000000   0.3103448), wk =   0.0640000
        k(   33) = (   0.0000000   0.2000000   0.6206897), wk =   0.0640000
        k(   34) = (   0.0000000   0.4000000   0.0000000), wk =   0.0320000
        k(   35) = (   0.0000000   0.4000000   0.3103448), wk =   0.0640000
        k(   36) = (   0.0000000   0.4000000   0.6206897), wk =   0.0640000
        k(   37) = (   0.2000000   0.2000000   0.0000000), wk =   0.0160000
        k(   38) = (   0.2000000   0.2000000   0.3103448), wk =   0.0320000
        k(   39) = (   0.2000000   0.2000000   0.6206897), wk =   0.0320000
        k(   40) = (   0.2000000   0.4000000   0.0000000), wk =   0.0320000
        k(   41) = (   0.2000000   0.4000000   0.3103448), wk =   0.0640000
        k(   42) = (   0.2000000   0.4000000   0.6206897), wk =   0.0640000
        k(   43) = (   0.4000000   0.4000000   0.0000000), wk =   0.0160000
        k(   44) = (   0.4000000   0.4000000   0.3103448), wk =   0.0320000
        k(   45) = (   0.4000000   0.4000000   0.6206897), wk =   0.0320000
        k(   46) = (  -0.2000000   0.2000000   0.0000000), wk =   0.0160000
        k(   47) = (  -0.2000000   0.2000000  -0.3103448), wk =   0.0320000
        k(   48) = (  -0.2000000   0.2000000  -0.6206897), wk =   0.0320000
        k(   49) = (  -0.2000000   0.4000000   0.0000000), wk =   0.0320000
        k(   50) = (  -0.2000000   0.4000000  -0.3103448), wk =   0.0640000
        k(   51) = (  -0.2000000   0.4000000  -0.6206897), wk =   0.0640000
        k(   52) = (  -0.4000000   0.4000000   0.0000000), wk =   0.0160000
        k(   53) = (  -0.4000000   0.4000000  -0.3103448), wk =   0.0320000
        k(   54) = (  -0.4000000   0.4000000  -0.6206897), wk =   0.0320000

     Largest allocated arrays     est. size (Mb)     dimensions
     Largest temporary arrays     est. size (Mb)     dimensions

     Check: negative/imaginary core charge=   -0.000005    0.000000

     Initial potential from superposition of free atoms
     Check: negative starting charge=(component1):   -0.667501
     Check: negative starting charge=(component2):   -0.166128

     starting charge   52.99993, renormalised to   54.00000

     negative rho (up, down):  0.680E+00 0.169E+00
     Starting wfc are   40 randomized atomic wfcs

     Self-consistent Calculation

     iteration #  1     ecut=    40.00 Ry     beta=0.70
     Davidson diagonalization with overlap
     ethr =  1.00E-02,  avg # of iterations =  5.2

     negative rho (up, down):  0.515E+00 0.230E+00

     total energy              =    -498.03203943 Ry
     Harris-Foulkes estimate   =    -501.42448454 Ry
     estimated scf accuracy    <       5.59284769 Ry

     total magnetization       =     7.61 Bohr mag/cell
     absolute magnetization    =     8.03 Bohr mag/cell

[...]

     End of self-consistent calculation

 ------ SPIN UP ------------

          k = 0.0000 0.0000 0.0000 (  1955 PWs)   bands (ev):

   -37.5375 -37.5372 -37.3920 -37.3917 -37.3347 -37.3253  -7.8988  -6.8072
    -5.9954  -5.9953   3.4245   3.7636   5.3839   5.3966   5.3967   7.8555
     7.8555   8.3109   9.4910   9.9190   9.9192  10.0177  10.0482  10.3298
    10.6730  10.6730  11.0948  13.0950  13.8581  16.4665  16.6449  16.6450
    17.9263  21.4063  21.4064  22.3624  22.3626  23.9751  25.0477  25.2004
    27.7879  28.3050  28.3051  29.3955  29.8923  32.0892  33.0638  33.0639
    34.2099  34.2100  35.6835  38.0007  38.1845  38.2657  38.2657  40.0891
    40.4988  40.5093  40.9766  42.2710  42.2710  42.3453  42.7321  42.7322
    43.3700  43.3701  43.9622  45.8086  47.1113  48.7962  48.7963  49.4522
    50.1449  50.2002  50.2002  50.8756  51.4266  51.4267

[...]

          k =-0.2000 0.2000 0.0000 (  1967 PWs)   bands (ev):

[...]

 ------ SPIN DOWN ----------

[...]

     the Fermi energy is    12.7261 ev

!    total energy              =    -501.25387629 Ry
     Harris-Foulkes estimate   =    -501.25387611 Ry
     estimated scf accuracy    <       0.00000014 Ry

     The total energy is the sum of the following terms:

     one-electron contribution =    -114.85711651 Ry
     hartree contribution      =      92.89081445 Ry
     xc contribution           =    -138.03171373 Ry
     ewald contribution        =    -341.25552168 Ry
     smearing contrib. (-TS)   =      -0.00033882 Ry

[...]

     convergence has been achieved in  14 iterations

     Forces acting on atoms (Ry/au):

     negative rho (up, down):  0.391E+00 0.390E+00
     atom    1 type  1   force =     0.00000000    0.00000000    0.00000000
     atom    2 type  1   force =     0.00000000    0.00000000    0.00000000
[...]
        k(   12) = (   0.2050075   0.2050075   0.5907469), wk =   0.0320000
        k(   13) = (   0.2050091   0.4100135   0.0000000), wk =   0.0320000
        k(   14) = (   0.2050091   0.4100135   0.2953734), wk =   0.0640000
        k(   15) = (   0.2050091   0.4100135   0.5907469), wk =   0.0640000
        k(   16) = (   0.4100151   0.4100151   0.0000000), wk =   0.0160000
        k(   17) = (   0.4100151   0.4100151   0.2953734), wk =   0.0320000
        k(   18) = (   0.4100151   0.4100151   0.5907469), wk =   0.0320000
        k(   19) = (  -0.2050044   0.2050044   0.0000000), wk =   0.0160000
        k(   20) = (  -0.2050044   0.2050044  -0.2953734), wk =   0.0320000
        k(   21) = (  -0.2050044   0.2050044  -0.5907469), wk =   0.0320000
        k(   22) = (  -0.2050029   0.4100104   0.0000000), wk =   0.0320000
        k(   23) = (  -0.2050029   0.4100104  -0.2953734), wk =   0.0640000
        k(   24) = (  -0.2050029   0.4100104  -0.5907469), wk =   0.0640000
        k(   25) = (  -0.4100089   0.4100089   0.0000000), wk =   0.0160000
        k(   26) = (  -0.4100089   0.4100089  -0.2953734), wk =   0.0320000
        k(   27) = (  -0.4100089   0.4100089  -0.5907469), wk =   0.0320000
        k(   28) = (   0.0000000   0.0000000   0.0000000), wk =   0.0080000
        k(   29) = (   0.0000000   0.0000000   0.2953734), wk =   0.0160000
        k(   30) = (   0.0000000   0.0000000   0.5907469), wk =   0.0160000
        k(   31) = (   0.0000016   0.2050060   0.0000000), wk =   0.0320000
        k(   32) = (   0.0000016   0.2050060   0.2953734), wk =   0.0640000
        k(   33) = (   0.0000016   0.2050060   0.5907469), wk =   0.0640000
        k(   34) = (   0.0000031   0.4100120   0.0000000), wk =   0.0320000
        k(   35) = (   0.0000031   0.4100120   0.2953734), wk =   0.0640000
        k(   36) = (   0.0000031   0.4100120   0.5907469), wk =   0.0640000
        k(   37) = (   0.2050075   0.2050075   0.0000000), wk =   0.0160000
        k(   38) = (   0.2050075   0.2050075   0.2953734), wk =   0.0320000
        k(   39) = (   0.2050075   0.2050075   0.5907469), wk =   0.0320000
        k(   40) = (   0.2050091   0.4100135   0.0000000), wk =   0.0320000
        k(   41) = (   0.2050091   0.4100135   0.2953734), wk =   0.0640000
        k(   42) = (   0.2050091   0.4100135   0.5907469), wk =   0.0640000
        k(   43) = (   0.4100151   0.4100151   0.0000000), wk =   0.0160000
        k(   44) = (   0.4100151   0.4100151   0.2953734), wk =   0.0320000
        k(   45) = (   0.4100151   0.4100151   0.5907469), wk =   0.0320000
        k(   46) = (  -0.2050044   0.2050044   0.0000000), wk =   0.0160000
        k(   47) = (  -0.2050044   0.2050044  -0.2953734), wk =   0.0320000
        k(   48) = (  -0.2050044   0.2050044  -0.5907469), wk =   0.0320000
        k(   49) = (  -0.2050029   0.4100104   0.0000000), wk =   0.0320000
        k(   50) = (  -0.2050029   0.4100104  -0.2953734), wk =   0.0640000
        k(   51) = (  -0.2050029   0.4100104  -0.5907469), wk =   0.0640000
        k(   52) = (  -0.4100089   0.4100089   0.0000000), wk =   0.0160000
        k(   53) = (  -0.4100089   0.4100089  -0.2953734), wk =   0.0320000
        k(   54) = (  -0.4100089   0.4100089  -0.5907469), wk =   0.0320000

     Check: negative/imaginary core charge=   -0.000005    0.000000
     Check: negative starting charge=(component1):   -0.834618

[...]

     Threshold (ethr) on eigenvalues was too large:
     Diagonalizing with lowered threshold

     Davidson diagonalization with overlap
     ethr =  5.29E-10,  avg # of iterations =  2.0

[...]

     Volume is kept fixed: isostatic pressure set to zero

     bfgs converged in   7 scf cycles and   6 bfgs steps
     (criteria: energy < 0.10E-03, force < 0.10E-02, cell < 0.50E+00)

     End of BFGS Geometry Optimization

     Final enthalpy =    -501.2710378347 Ry
Begin final coordinates
     new unit-cell volume =    460.23642 a.u.^3 (    68.20000 Ang^3 )

CELL_PARAMETERS (alat=  8.93851073)
   0.975581301  -0.000007393   0.000000000
  -0.000007393   0.975581301   0.000000000
   0.000000000   0.000000000   0.677108942

ATOMIC_POSITIONS (crystal)
Ir0      0.000000000   0.000000000   0.000000000    0   0   0
Ir0      0.500000000   0.500000000   0.500000000    0   0   0
O1       0.308351042   0.308351042   0.000000000    1   1   0
O1      -0.308351042  -0.308351042   0.000000000    1   1   0
O1       0.808352434   0.191647566   0.500000000    1   1   0
O1       0.191647566   0.808352434   0.500000000    1   1   0
End final coordinates

     A final scf calculation at the relaxed structure.
     The G-vectors are recalculated for the final unit cell
     Results may differ from those at the preceding step.

     bravais-lattice index     =            0
     lattice parameter (alat)  =       8.9385  a.u.
     unit-cell volume          =     460.2364 (a.u.)^3
     number of atoms/cell      =            6
     number of atomic types    =            2
     number of electrons       =        54.00
     number of Kohn-Sham states=           78
     kinetic-energy cutoff     =      40.0000  Ry
     charge density cutoff     =     500.0000  Ry
     convergence threshold     =      1.0E-08
     mixing beta               =       0.7000
     number of iterations used =            8  plain     mixing
     Exchange-correlation      = SLA  PW   PBE  PBE ( 1 4 3 4 0)
     EXX-fraction              =        0.00

     celldm(1)=   8.938511  celldm(2)=   0.000000  celldm(3)=   0.000000
     celldm(4)=   0.000000  celldm(5)=   0.000000  celldm(6)=   0.000000

     crystal axes: (cart. coord. in units of alat)
               a(1) = (   0.975581  -0.000007   0.000000 )
               a(2) = (  -0.000007   0.975581   0.000000 )
               a(3) = (   0.000000   0.000000   0.677109 )

     reciprocal axes: (cart. coord. in units 2 pi/alat)
               b(1) = (  1.025030  0.000008 -0.000000 )
               b(2) = (  0.000008  1.025030 -0.000000 )
               b(3) = ( -0.000000 -0.000000  1.476867 )

     PseudoPot. # 1 for Ir read from file:
     /home/camp/zhonxu/pseudo/ir_pbe_v1.uspp.F.UPF
     MD5 check sum: abf987a9674477536ede83817f8f8b70
     Pseudo is Ultrasoft + core correction, Zval = 15.0
     Generated by new atomic code, or converted to UPF format
     Using radial grid of  983 points,  7 beta functions with:
                l(1) =   0
                l(2) =   0
                l(3) =   1
                l(4) =   1
                l(5) =   1
                l(6) =   2
                l(7) =   2
     Q(r) pseudized with  8 coefficients,  rinner =    1.350   1.350   1.350
                                                       1.350   1.350

     PseudoPot. # 2 for O  read from file:
     /home/camp/zhonxu/pseudo/o_pbe_v1.01.uspp.F.UPF
     MD5 check sum: 2bcb18d16ea4b960afae9ec6d52f22d2
     Pseudo is Ultrasoft + core correction, Zval =  6.0
     Generated by new atomic code, or converted to UPF format
     Using radial grid of  737 points,  5 beta functions with:
                l(1) =   0
                l(2) =   0
                l(3) =   1
                l(4) =   1
                l(5) =   2
     Q(r) pseudized with  8 coefficients,  rinner =    0.900   0.900   0.900
                                                       0.900   0.900

     atomic species   valence    mass     pseudopotential
        Ir0           15.00   192.22000     Ir( 1.00)
        O1             6.00    15.99940     O ( 1.00)

     Starting magnetic structure
     atomic species   magnetization
        Ir0          0.600
        O1           0.000

      8 Sym. Ops., with inversion, found
          (note:  8 additional sym.ops. were found but ignored
           their fractional translations are incommensurate with FFT grid)

   Cartesian axes

     site n.     atom                  positions (alat units)
         1           Ir0 tau(   1) = (   0.0000000   0.0000000   0.0000000  )
         2           Ir0 tau(   2) = (   0.4877870   0.4877870   0.3385545  )
         3           O1  tau(   3) = (   0.3008192   0.3008192   0.0000000  )
         4           O1  tau(   4) = (  -0.3008192  -0.3008192   0.0000000  )
         5           O1  tau(   5) = (   0.7886121   0.1869618   0.3385545  )
         6           O1  tau(   6) = (   0.1869618   0.7886121   0.3385545  )

     number of k points=    54  Methfessel-Paxton smearing, width (Ry)=  0.0100
                       cart. coord. in units 2pi/alat
        k(    1) = (   0.0000000   0.0000000   0.0000000), wk =   0.0080000
        k(    2) = (   0.0000000   0.0000000   0.2953734), wk =   0.0160000
        k(    3) = (   0.0000000   0.0000000   0.5907469), wk =   0.0160000
        k(    4) = (   0.0000016   0.2050060   0.0000000), wk =   0.0320000
        k(    5) = (   0.0000016   0.2050060   0.2953734), wk =   0.0640000
        k(    6) = (   0.0000016   0.2050060   0.5907469), wk =   0.0640000
        k(    7) = (   0.0000031   0.4100120   0.0000000), wk =   0.0320000
        k(    8) = (   0.0000031   0.4100120   0.2953734), wk =   0.0640000
        k(    9) = (   0.0000031   0.4100120   0.5907469), wk =   0.0640000
        k(   10) = (   0.2050075   0.2050075   0.0000000), wk =   0.0160000
        k(   11) = (   0.2050075   0.2050075   0.2953734), wk =   0.0320000
        k(   12) = (   0.2050075   0.2050075   0.5907469), wk =   0.0320000
        k(   13) = (   0.2050091   0.4100135   0.0000000), wk =   0.0320000
        k(   14) = (   0.2050091   0.4100135   0.2953734), wk =   0.0640000
        k(   15) = (   0.2050091   0.4100135   0.5907469), wk =   0.0640000
        k(   16) = (   0.4100151   0.4100151   0.0000000), wk =   0.0160000
        k(   17) = (   0.4100151   0.4100151   0.2953734), wk =   0.0320000
        k(   18) = (   0.4100151   0.4100151   0.5907469), wk =   0.0320000
        k(   19) = (  -0.2050044   0.2050044   0.0000000), wk =   0.0160000
        k(   20) = (  -0.2050044   0.2050044  -0.2953734), wk =   0.0320000
        k(   21) = (  -0.2050044   0.2050044  -0.5907469), wk =   0.0320000
        k(   22) = (  -0.2050029   0.4100104   0.0000000), wk =   0.0320000
        k(   23) = (  -0.2050029   0.4100104  -0.2953734), wk =   0.0640000
        k(   24) = (  -0.2050029   0.4100104  -0.5907469), wk =   0.0640000
        k(   25) = (  -0.4100089   0.4100089   0.0000000), wk =   0.0160000
        k(   26) = (  -0.4100089   0.4100089  -0.2953734), wk =   0.0320000
        k(   27) = (  -0.4100089   0.4100089  -0.5907469), wk =   0.0320000
        k(   28) = (   0.0000000   0.0000000   0.0000000), wk =   0.0080000
        k(   29) = (   0.0000000   0.0000000   0.2953734), wk =   0.0160000
        k(   30) = (   0.0000000   0.0000000   0.5907469), wk =   0.0160000
        k(   31) = (   0.0000016   0.2050060   0.0000000), wk =   0.0320000
        k(   32) = (   0.0000016   0.2050060   0.2953734), wk =   0.0640000
        k(   33) = (   0.0000016   0.2050060   0.5907469), wk =   0.0640000
        k(   34) = (   0.0000031   0.4100120   0.0000000), wk =   0.0320000
        k(   35) = (   0.0000031   0.4100120   0.2953734), wk =   0.0640000
        k(   36) = (   0.0000031   0.4100120   0.5907469), wk =   0.0640000
        k(   37) = (   0.2050075   0.2050075   0.0000000), wk =   0.0160000
        k(   38) = (   0.2050075   0.2050075   0.2953734), wk =   0.0320000
        k(   39) = (   0.2050075   0.2050075   0.5907469), wk =   0.0320000
        k(   40) = (   0.2050091   0.4100135   0.0000000), wk =   0.0320000
        k(   41) = (   0.2050091   0.4100135   0.2953734), wk =   0.0640000
        k(   42) = (   0.2050091   0.4100135   0.5907469), wk =   0.0640000
        k(   43) = (   0.4100151   0.4100151   0.0000000), wk =   0.0160000
        k(   44) = (   0.4100151   0.4100151   0.2953734), wk =   0.0320000
        k(   45) = (   0.4100151   0.4100151   0.5907469), wk =   0.0320000
        k(   46) = (  -0.2050044   0.2050044   0.0000000), wk =   0.0160000
        k(   47) = (  -0.2050044   0.2050044  -0.2953734), wk =   0.0320000
        k(   48) = (  -0.2050044   0.2050044  -0.5907469), wk =   0.0320000
        k(   49) = (  -0.2050029   0.4100104   0.0000000), wk =   0.0320000
        k(   50) = (  -0.2050029   0.4100104  -0.2953734), wk =   0.0640000
        k(   51) = (  -0.2050029   0.4100104  -0.5907469), wk =   0.0640000
        k(   52) = (  -0.4100089   0.4100089   0.0000000), wk =   0.0160000
        k(   53) = (  -0.4100089   0.4100089  -0.2953734), wk =   0.0320000
        k(   54) = (  -0.4100089   0.4100089  -0.5907469), wk =   0.0320000

     Largest allocated arrays     est. size (Mb)     dimensions
     Largest temporary arrays     est. size (Mb)     dimensions

     Check: negative/imaginary core charge=   -0.000005    0.000000

     Initial potential from superposition of free atoms
     Check: negative starting charge=(component1):   -0.668252
     Check: negative starting charge=(component2):   -0.166372

     starting charge   52.99993, renormalised to   54.00000

     negative rho (up, down):  0.681E+00 0.170E+00
     Starting wfc are   40 randomized atomic wfcs

     Self-consistent Calculation

[...]

     total energy              =    -501.27151596 Ry
     Harris-Foulkes estimate   =    -501.27151828 Ry
     estimated scf accuracy    <       0.00000003 Ry

[...]

     iteration # 18     ecut=    40.00 Ry     beta=0.70
     Davidson diagonalization with overlap
     ethr =  5.14E-11,  avg # of iterations =  3.0

     negative rho (up, down):  0.391E+00 0.391E+00

     End of self-consistent calculation

 ------ SPIN UP ------------

[...]

 ------ SPIN DOWN ----------

[...]

          k = 0.4100 0.4100 0.5907 (  1981 PWs)   bands (ev):

[...]

          k =-0.4100 0.4100-0.5907 (  1981 PWs)   bands (ev):

   -37.5478 -37.5467 -37.5195 -37.5179 -37.3053 -37.3050  -6.6175  -6.5629
    -6.3744  -6.3400   4.8293   4.9033   5.3581   5.4624   5.9115   6.2850
     7.4335   7.4860   8.4930   8.6769   9.3085   9.6606  11.0951  11.1365
    11.1768  11.7826  12.1553  12.6762  14.3517  14.9304  15.6157  16.1839
    21.5813  22.1166  22.3292  22.3312  22.3543  22.4445  23.9998  24.4237
    25.4404  26.0272  29.2131  29.2309  31.0522  31.6147  32.5425  33.4450
    34.0007  34.2944  34.3719  35.6854  38.3096  38.7108  38.7428  38.8198
    40.1952  40.8969  41.9161  43.1648  43.4064  43.7354  44.1901  44.6095
    44.9731  45.0330  45.7855  46.3394  47.0593  47.6804  47.9473  48.6819
    48.9641  49.6674  49.8713  50.3952  50.8399  51.6650

     the Fermi energy is    12.7153 ev

!    total energy              =    -501.27151855 Ry
     Harris-Foulkes estimate   =    -501.27151854 Ry
     estimated scf accuracy    <          2.7E-09 Ry

     The total energy is the sum of the following terms:

     one-electron contribution =    -110.41399159 Ry
     hartree contribution      =      90.66451942 Ry
     xc contribution           =    -137.95594256 Ry
     ewald contribution        =    -343.56536633 Ry
     smearing contrib. (-TS)   =      -0.00073749 Ry

     total magnetization       =     0.01 Bohr mag/cell
     absolute magnetization    =     0.01 Bohr mag/cell

     convergence has been achieved in  18 iterations

     Forces acting on atoms (Ry/au):

     negative rho (up, down):  0.391E+00 0.391E+00
     atom    1 type  1   force =     0.00000000    0.00000000    0.00000000
     atom    2 type  1   force =     0.00000000    0.00000000    0.00000000
     atom    3 type  2   force =     0.00004676    0.00004676    0.00000000
     atom    4 type  2   force =    -0.00004676   -0.00004676    0.00000000
     atom    5 type  2   force =     0.00004350   -0.00004350    0.00000000
     atom    6 type  2   force =    -0.00004350    0.00004350    0.00000000

     Total force =     0.000128     Total SCF correction =     0.000031
     SCF correction compared to forces is large: reduce conv_thr to get better values

     entering subroutine stress ...

     negative rho (up, down):  0.391E+00 0.391E+00
          total   stress  (Ry/bohr**3)                   (kbar)     P= -113.89
  -0.00078438   0.00000020   0.00000000       -115.39      0.03      0.00
   0.00000020  -0.00078438   0.00000000          0.03   -115.39      0.00
   0.00000000   0.00000000  -0.00075381          0.00      0.00   -110.89

     General routines

     Parallel routines

   This run was terminated on:  22: 4:46  23Jan2014

   JOB DONE.
Running PBS batch system epilogue script
Job id: 251184.audhumbla.fysik.dtu.dk
Username: zhonxu
Groupname: campgst
Jobname: IrO2/coarse-EOS/IrO2-v-1.1
Sessionid: 2244
Queuename: verylong
Accounting:
This job has allocated the following 4 nodes:
q099 q099 q099 q099
Finished epilogue job 251184.audhumbla.fysik.dtu.dk for zhonxu