     Program PWSCF v.5.0.2 (svn rev. 9656) starts on 23Jan2014 at 20:23:27

     Current dimensions of program PWSCF are:
     Max number of different atomic species (ntypx) = 10
     Max number of k-points (npk) =  40000
     Max angular momentum in pseudopotentials (lmaxx) =  3
     Reading input from MnO2-v-0.8.in

     Subspace diagonalization in iterative solution of the eigenvalue problem:
     a serial algorithm will be used

     bravais-lattice index     =            0
     lattice parameter (alat)  =       8.0383  a.u.
     unit-cell volume          =     334.7174 (a.u.)^3
     number of atoms/cell      =            6
     number of atomic types    =            2
     number of electrons       =        54.00
     number of Kohn-Sham states=           78
     kinetic-energy cutoff     =      40.0000  Ry
     charge density cutoff     =     500.0000  Ry
     convergence threshold     =      1.0E-06
     mixing beta               =       0.7000
     number of iterations used =            8  plain     mixing
     Exchange-correlation      = SLA  PW   PBE  PBE ( 1 4 3 4 0)
     EXX-fraction              =        0.00
     nstep                     =           50

     celldm(1)=   8.038301  celldm(2)=   0.000000  celldm(3)=   0.000000
     celldm(4)=   0.000000  celldm(5)=   0.000000  celldm(6)=   0.000000

     crystal axes: (cart. coord. in units of alat)
               a(1) = (   1.000000   0.000000   0.000000 )
               a(2) = (   0.000000   1.000000   0.000000 )
               a(3) = (   0.000000   0.000000   0.644444 )

     reciprocal axes: (cart. coord. in units 2 pi/alat)
               b(1) = (  1.000000  0.000000  0.000000 )
               b(2) = (  0.000000  1.000000  0.000000 )
               b(3) = (  0.000000  0.000000  1.551724 )

     PseudoPot. # 1 for Mn read from file:
     /home/camp/zhonxu/pseudo/mn_pbe_v1.uspp.F.UPF
     MD5 check sum: 5fd7c7b5c956fd19902447332617373a
     Pseudo is Ultrasoft + core correction, Zval = 15.0
     Generated by new atomic code, or converted to UPF format
     Using radial grid of  859 points,  6 beta functions with:
                l(1) =   0
                l(2) =   0
                l(3) =   1
                l(4) =   1
                l(5) =   2
                l(6) =   2
     Q(r) pseudized with  6 coefficients,  rinner =    1.150   1.150   1.150
                                                       1.150   1.150

     PseudoPot. # 2 for O  read from file:
     /home/camp/zhonxu/pseudo/o_pbe_v1.01.uspp.F.UPF
     MD5 check sum: 2bcb18d16ea4b960afae9ec6d52f22d2
     Pseudo is Ultrasoft + core correction, Zval =  6.0
     Generated by new atomic code, or converted to UPF format
     Using radial grid of  737 points,  5 beta functions with:
                l(1) =   0
                l(2) =   0
                l(3) =   1
                l(4) =   1
                l(5) =   2
     Q(r) pseudized with  8 coefficients,  rinner =    0.900   0.900   0.900
                                                       0.900   0.900

     atomic species   valence    mass     pseudopotential
        Mn0           15.00    54.93800     Mn( 1.00)
        O1             6.00    15.99940     O ( 1.00)

     Starting magnetic structure
     atomic species   magnetization
        Mn0          0.600
        O1           0.000

     16 Sym. Ops., with inversion, found ( 8 have fractional translation)

   Cartesian axes

     site n.     atom                  positions (alat units)
         1           Mn0 tau(   1) = (   0.0000000   0.0000000   0.0000000  )
         2           Mn0 tau(   2) = (   0.5000000   0.5000000   0.3222222  )
         3           O1  tau(   3) = (   0.3050000   0.3050000   0.0000000  )
         4           O1  tau(   4) = (  -0.3050000  -0.3050000   0.0000000  )
         5           O1  tau(   5) = (   0.8050000   0.1950000   0.3222222  )
         6           O1  tau(   6) = (   0.1950000   0.8050000   0.3222222  )

     number of k points=    36  Methfessel-Paxton smearing, width (Ry)=  0.0100
                       cart. coord. in units 2pi/alat
        k(    1) = (   0.0000000   0.0000000   0.0000000), wk =   0.0080000
        k(    2) = (   0.0000000   0.0000000   0.3103448), wk =   0.0160000
        k(    3) = (   0.0000000   0.0000000   0.6206897), wk =   0.0160000
        k(    4) = (   0.0000000   0.2000000   0.0000000), wk =   0.0320000
        k(    5) = (   0.0000000   0.2000000   0.3103448), wk =   0.0640000
        k(    6) = (   0.0000000   0.2000000   0.6206897), wk =   0.0640000
        k(    7) = (   0.0000000   0.4000000   0.0000000), wk =   0.0320000
        k(    8) = (   0.0000000   0.4000000   0.3103448), wk =   0.0640000
        k(    9) = (   0.0000000   0.4000000   0.6206897), wk =   0.0640000
        k(   10) = (   0.2000000   0.2000000   0.0000000), wk =   0.0320000
        k(   11) = (   0.2000000   0.2000000   0.3103448), wk =   0.0640000
        k(   12) = (   0.2000000   0.2000000   0.6206897), wk =   0.0640000
        k(   13) = (   0.2000000   0.4000000   0.0000000), wk =   0.0640000
        k(   14) = (   0.2000000   0.4000000   0.3103448), wk =   0.1280000
        k(   15) = (   0.2000000   0.4000000   0.6206897), wk =   0.1280000
        k(   16) = (   0.4000000   0.4000000   0.0000000), wk =   0.0320000
        k(   17) = (   0.4000000   0.4000000   0.3103448), wk =   0.0640000
        k(   18) = (   0.4000000   0.4000000   0.6206897), wk =   0.0640000
        k(   19) = (   0.0000000   0.0000000   0.0000000), wk =   0.0080000
        k(   20) = (   0.0000000   0.0000000   0.3103448), wk =   0.0160000
        k(   21) = (   0.0000000   0.0000000   0.6206897), wk =   0.0160000
        k(   22) = (   0.0000000   0.2000000   0.0000000), wk =   0.0320000
        k(   23) = (   0.0000000   0.2000000   0.3103448), wk =   0.0640000
        k(   24) = (   0.0000000   0.2000000   0.6206897), wk =   0.0640000
        k(   25) = (   0.0000000   0.4000000   0.0000000), wk =   0.0320000
        k(   26) = (   0.0000000   0.4000000   0.3103448), wk =   0.0640000
        k(   27) = (   0.0000000   0.4000000   0.6206897), wk =   0.0640000
        k(   28) = (   0.2000000   0.2000000   0.0000000), wk =   0.0320000
        k(   29) = (   0.2000000   0.2000000   0.3103448), wk =   0.0640000
        k(   30) = (   0.2000000   0.2000000   0.6206897), wk =   0.0640000
        k(   31) = (   0.2000000   0.4000000   0.0000000), wk =   0.0640000
        k(   32) = (   0.2000000   0.4000000   0.3103448), wk =   0.1280000
        k(   33) = (   0.2000000   0.4000000   0.6206897), wk =   0.1280000
        k(   34) = (   0.4000000   0.4000000   0.0000000), wk =   0.0320000
        k(   35) = (   0.4000000   0.4000000   0.3103448), wk =   0.0640000
        k(   36) = (   0.4000000   0.4000000   0.6206897), wk =   0.0640000

     Largest allocated arrays     est. size (Mb)     dimensions
     Largest temporary arrays     est. size (Mb)     dimensions

     Check: negative/imaginary core charge=   -0.000065    0.000000

     Initial potential from superposition of free atoms

     starting charge   51.99998, renormalised to   54.00000
     Starting wfc are   42 randomized atomic wfcs

     Self-consistent Calculation

     iteration #  1     ecut=    40.00 Ry     beta=0.70
     Davidson diagonalization with overlap
     ethr =  1.00E-02,  avg # of iterations =  5.0

     total energy              =    -553.42306720 Ry
     Harris-Foulkes estimate   =    -554.21212341 Ry
     estimated scf accuracy    <       3.94656416 Ry

     total magnetization       =     6.00 Bohr mag/cell
     absolute magnetization    =     7.08 Bohr mag/cell

[...]

     End of self-consistent calculation

 ------ SPIN UP ------------

          k = 0.0000 0.0000 0.0000 (  1447 PWs)   bands (ev):

   -69.0553 -69.0504 -37.8003 -37.7850 -37.7343 -37.7343 -37.6824 -37.6824
    -8.1265  -5.9641  -5.3665  -5.3665   3.9449   4.5751   5.1210   6.3205
     6.3205   8.2143   8.2143   9.0368  10.1171  10.2230  10.4501  10.4501
    10.6329  11.0367  11.4438  11.4438  12.1349  13.1679  13.2573  16.3501
    16.3501  17.2017  21.5793  24.6362  24.6362  27.3744  28.4275  29.0221
    32.2457  32.9869  32.9869  33.3447  33.5238  38.0782  38.4269  38.5387
    38.5387  39.8314  39.8314  40.3199  40.9299  40.9299  41.0518  42.6614
    44.7894  45.5034  48.8040  48.8040  48.8118  48.8118  48.9704  50.2228
    52.2007  54.0166  54.0166  54.1579  55.8079  56.1141  56.1141  57.1901
    58.9426  59.1858  60.8249  60.8250  61.3353  61.3354

[...]

 ------ SPIN DOWN ----------

[...]

     the Fermi energy is    13.0971 ev

!    total energy              =    -554.89795177 Ry
     Harris-Foulkes estimate   =    -554.89795204 Ry
     estimated scf accuracy    <       0.00000044 Ry

     The total energy is the sum of the following terms:

     one-electron contribution =    -250.91731414 Ry
     hartree contribution      =     157.05038076 Ry
     xc contribution           =     -81.55836557 Ry
     ewald contribution        =    -379.47274301 Ry
     smearing contrib. (-TS)   =       0.00009018 Ry

[...]

     convergence has been achieved in   9 iterations

     Forces acting on atoms (Ry/au):

     atom    1 type  1   force =     0.00000000    0.00000000    0.00000000
     atom    2 type  1   force =     0.00000000    0.00000000   -0.00000000
     atom    3 type  2   force =    -0.02271297   -0.02271297    0.00000000
     atom    4 type  2   force =     0.02271297    0.02271297   -0.00000000
     atom    5 type  2   force =    -0.02271297    0.02271297    0.00000000
     atom    6 type  2   force =     0.02271297   -0.02271297    0.00000000

     Total force =     0.064242     Total SCF correction =     0.000294

     entering subroutine stress ...

          total   stress  (Ry/bohr**3)                   (kbar)     P=  434.47
   0.00271583   0.00000000   0.00000000        399.51      0.00      0.00
   0.00000000   0.00271583   0.00000000          0.00    399.51      0.00
   0.00000000   0.00000000   0.00342873          0.00      0.00    504.38

     Volume is kept fixed: isostatic pressure set to zero

     BFGS Geometry Optimization

     number of scf cycles    =   1
     number of bfgs steps    =   0

     enthalpy new            =    -554.8979517709 Ry

     new trust radius        =       0.0434757402 bohr
     new conv_thr            =       0.0000010000 Ry

     new unit-cell volume =    334.71740 a.u.^3 (    49.60000 Ang^3 )

CELL_PARAMETERS (alat=  8.03830103)
   0.994094107   0.000000000   0.000000000
   0.000000000   0.994094107   0.000000000
   0.000000000   0.000000000   0.652124453

ATOMIC_POSITIONS (crystal)
Mn0      0.000000000   0.000000000   0.000000000    0   0   0
Mn0      0.500000000   0.500000000   0.500000000    0   0   0
O1       0.302174407   0.302174407   0.000000000    1   1   0
O1      -0.302174407  -0.302174407   0.000000000    1   1   0
O1       0.802174407   0.197825593   0.500000000    1   1   0
O1       0.197825593   0.802174407   0.500000000    1   1   0

     NEW-OLD atomic charge density approx. for the potential
     NEW k-points:
        k(    1) = (   0.0000000   0.0000000   0.0000000), wk =   0.0080000
[...]
        k(   14) = (   0.2011882   0.4023764   0.3066899), wk =   0.1280000
        k(   15) = (   0.2011882   0.4023764   0.6133799), wk =   0.1280000
        k(   16) = (   0.4023764   0.4023764   0.0000000), wk =   0.0320000
        k(   17) = (   0.4023764   0.4023764   0.3066899), wk =   0.0640000
        k(   18) = (   0.4023764   0.4023764   0.6133799), wk =   0.0640000
        k(   19) = (   0.0000000   0.0000000   0.0000000), wk =   0.0080000
        k(   20) = (   0.0000000   0.0000000   0.3066899), wk =   0.0160000
        k(   21) = (   0.0000000   0.0000000   0.6133799), wk =   0.0160000
        k(   22) = (   0.0000000   0.2011882   0.0000000), wk =   0.0320000
        k(   23) = (   0.0000000   0.2011882   0.3066899), wk =   0.0640000
        k(   24) = (   0.0000000   0.2011882   0.6133799), wk =   0.0640000
        k(   25) = (   0.0000000   0.4023764   0.0000000), wk =   0.0320000
        k(   26) = (   0.0000000   0.4023764   0.3066899), wk =   0.0640000
        k(   27) = (   0.0000000   0.4023764   0.6133799), wk =   0.0640000
        k(   28) = (   0.2011882   0.2011882   0.0000000), wk =   0.0320000
        k(   29) = (   0.2011882   0.2011882   0.3066899), wk =   0.0640000
        k(   30) = (   0.2011882   0.2011882   0.6133799), wk =   0.0640000
        k(   31) = (   0.2011882   0.4023764   0.0000000), wk =   0.0640000
        k(   32) = (   0.2011882   0.4023764   0.3066899), wk =   0.1280000
        k(   33) = (   0.2011882   0.4023764   0.6133799), wk =   0.1280000
        k(   34) = (   0.4023764   0.4023764   0.0000000), wk =   0.0320000
        k(   35) = (   0.4023764   0.4023764   0.3066899), wk =   0.0640000
        k(   36) = (   0.4023764   0.4023764   0.6133799), wk =   0.0640000

[...]

     enthalpy old            =    -554.8979517709 Ry
     enthalpy new            =    -554.9012110482 Ry

     CASE: enthalpy_new < enthalpy_old

[...]

     Threshold (ethr) on eigenvalues was too large:
     Diagonalizing with lowered threshold

     Davidson diagonalization with overlap
     ethr =  1.03E-08,  avg # of iterations =  1.1

[...]

     number of scf cycles    =   3
     number of bfgs steps    =   2

     enthalpy old            =    -554.9012110482 Ry
     enthalpy new            =    -554.9012231624 Ry

     CASE: enthalpy_new < enthalpy_old

     new trust radius        =       0.0003593200 bohr
     new conv_thr            =       0.0000000100 Ry

     new unit-cell volume =    334.71740 a.u.^3 (    49.60000 Ang^3 )

[...]

ATOMIC_POSITIONS (crystal)
Mn0      0.000000000   0.000000000   0.000000000    0   0   0
Mn0      0.500000000   0.500000000   0.500000000    0   0   0
O1       0.302380736   0.302380736   0.000000000    1   1   0
O1      -0.302380736  -0.302380736   0.000000000    1   1   0
O1       0.802380736   0.197619264   0.500000000    1   1   0
O1       0.197619264   0.802380736   0.500000000    1   1   0

     NEW-OLD atomic charge density approx. for the potential
     NEW k-points:
        k(    1) = (   0.0000000   0.0000000   0.0000000), wk =   0.0080000
        k(    2) = (   0.0000000   0.0000000   0.3068027), wk =   0.0160000
        k(    3) = (   0.0000000   0.0000000   0.6136054), wk =   0.0160000
        k(    4) = (   0.0000000   0.2011512   0.0000000), wk =   0.0320000
        k(    5) = (   0.0000000   0.2011512   0.3068027), wk =   0.0640000
        k(    6) = (   0.0000000   0.2011512   0.6136054), wk =   0.0640000
        k(    7) = (   0.0000000   0.4023024   0.0000000), wk =   0.0320000
        k(    8) = (   0.0000000   0.4023024   0.3068027), wk =   0.0640000
        k(    9) = (   0.0000000   0.4023024   0.6136054), wk =   0.0640000
        k(   10) = (   0.2011512   0.2011512   0.0000000), wk =   0.0320000
        k(   11) = (   0.2011512   0.2011512   0.3068027), wk =   0.0640000
        k(   12) = (   0.2011512   0.2011512   0.6136054), wk =   0.0640000
        k(   13) = (   0.2011512   0.4023024   0.0000000), wk =   0.0640000
        k(   14) = (   0.2011512   0.4023024   0.3068027), wk =   0.1280000
        k(   15) = (   0.2011512   0.4023024   0.6136054), wk =   0.1280000
        k(   16) = (   0.4023024   0.4023024   0.0000000), wk =   0.0320000
        k(   17) = (   0.4023024   0.4023024   0.3068027), wk =   0.0640000
        k(   18) = (   0.4023024   0.4023024   0.6136054), wk =   0.0640000
        k(   19) = (   0.0000000   0.0000000   0.0000000), wk =   0.0080000
        k(   20) = (   0.0000000   0.0000000   0.3068027), wk =   0.0160000
        k(   21) = (   0.0000000   0.0000000   0.6136054), wk =   0.0160000
        k(   22) = (   0.0000000   0.2011512   0.0000000), wk =   0.0320000
        k(   23) = (   0.0000000   0.2011512   0.3068027), wk =   0.0640000
        k(   24) = (   0.0000000   0.2011512   0.6136054), wk =   0.0640000
        k(   25) = (   0.0000000   0.4023024   0.0000000), wk =   0.0320000
        k(   26) = (   0.0000000   0.4023024   0.3068027), wk =   0.0640000
        k(   27) = (   0.0000000   0.4023024   0.6136054), wk =   0.0640000
        k(   28) = (   0.2011512   0.2011512   0.0000000), wk =   0.0320000
        k(   29) = (   0.2011512   0.2011512   0.3068027), wk =   0.0640000
        k(   30) = (   0.2011512   0.2011512   0.6136054), wk =   0.0640000
        k(   31) = (   0.2011512   0.4023024   0.0000000), wk =   0.0640000
        k(   32) = (   0.2011512   0.4023024   0.3068027), wk =   0.1280000
        k(   33) = (   0.2011512   0.4023024   0.6136054), wk =   0.1280000
        k(   34) = (   0.4023024   0.4023024   0.0000000), wk =   0.0320000
        k(   35) = (   0.4023024   0.4023024   0.3068027), wk =   0.0640000
        k(   36) = (   0.4023024   0.4023024   0.6136054), wk =   0.0640000

[...]

     Threshold (ethr) on eigenvalues was too large:
     Diagonalizing with lowered threshold

     Davidson diagonalization with overlap
     ethr =  7.38E-11,  avg # of iterations =  2.0

[...]

     Volume is kept fixed: isostatic pressure set to zero

     bfgs converged in   4 scf cycles and   3 bfgs steps
     (criteria: energy < 0.10E-03, force < 0.10E-02, cell < 0.50E+00)

     End of BFGS Geometry Optimization

     Final enthalpy =    -554.9012235093 Ry
Begin final coordinates
     new unit-cell volume =    334.71740 a.u.^3 (    49.60000 Ang^3 )

CELL_PARAMETERS (alat=  8.03830103)
   0.994276870   0.000000000   0.000000000
   0.000000000   0.994276870   0.000000000
   0.000000000   0.000000000   0.651884734

ATOMIC_POSITIONS (crystal)
Mn0      0.000000000   0.000000000   0.000000000    0   0   0
Mn0      0.500000000   0.500000000   0.500000000    0   0   0
O1       0.302380736   0.302380736   0.000000000    1   1   0
O1      -0.302380736  -0.302380736   0.000000000    1   1   0
O1       0.802380736   0.197619264   0.500000000    1   1   0
O1       0.197619264   0.802380736   0.500000000    1   1   0
End final coordinates

     A final scf calculation at the relaxed structure.
     The G-vectors are recalculated for the final unit cell
     Results may differ from those at the preceding step.

     bravais-lattice index     =            0
     lattice parameter (alat)  =       8.0383  a.u.
     unit-cell volume          =     334.7174 (a.u.)^3
     number of atoms/cell      =            6
     number of atomic types    =            2
     number of electrons       =        54.00
     number of Kohn-Sham states=           78
     kinetic-energy cutoff     =      40.0000  Ry
     charge density cutoff     =     500.0000  Ry
     convergence threshold     =      1.0E-08
     mixing beta               =       0.7000
     number of iterations used =            8  plain     mixing
     Exchange-correlation      = SLA  PW   PBE  PBE ( 1 4 3 4 0)
     EXX-fraction              =        0.00

     celldm(1)=   8.038301  celldm(2)=   0.000000  celldm(3)=   0.000000
     celldm(4)=   0.000000  celldm(5)=   0.000000  celldm(6)=   0.000000

     crystal axes: (cart. coord. in units of alat)
               a(1) = (   0.994277   0.000000   0.000000 )
               a(2) = (   0.000000   0.994277   0.000000 )
               a(3) = (   0.000000   0.000000   0.651885 )

     reciprocal axes: (cart. coord. in units 2 pi/alat)
               b(1) = (  1.005756  0.000000  0.000000 )
               b(2) = (  0.000000  1.005756  0.000000 )
               b(3) = (  0.000000  0.000000  1.534014 )

     PseudoPot. # 1 for Mn read from file:
     /home/camp/zhonxu/pseudo/mn_pbe_v1.uspp.F.UPF
     MD5 check sum: 5fd7c7b5c956fd19902447332617373a
     Pseudo is Ultrasoft + core correction, Zval = 15.0
     Generated by new atomic code, or converted to UPF format
     Using radial grid of  859 points,  6 beta functions with:
                l(1) =   0
                l(2) =   0
                l(3) =   1
                l(4) =   1
                l(5) =   2
                l(6) =   2
     Q(r) pseudized with  6 coefficients,  rinner =    1.150   1.150   1.150
                                                       1.150   1.150

     PseudoPot. # 2 for O  read from file:
     /home/camp/zhonxu/pseudo/o_pbe_v1.01.uspp.F.UPF
     MD5 check sum: 2bcb18d16ea4b960afae9ec6d52f22d2
     Pseudo is Ultrasoft + core correction, Zval =  6.0
     Generated by new atomic code, or converted to UPF format
     Using radial grid of  737 points,  5 beta functions with:
                l(1) =   0
                l(2) =   0
                l(3) =   1
                l(4) =   1
                l(5) =   2
     Q(r) pseudized with  8 coefficients,  rinner =    0.900   0.900   0.900
                                                       0.900   0.900

     atomic species   valence    mass     pseudopotential
        Mn0           15.00    54.93800     Mn( 1.00)
        O1             6.00    15.99940     O ( 1.00)

     Starting magnetic structure
     atomic species   magnetization
        Mn0          0.600
        O1           0.000

     16 Sym. Ops., with inversion, found ( 8 have fractional translation)

   Cartesian axes

     site n.     atom                  positions (alat units)
         1           Mn0 tau(   1) = (   0.0000000   0.0000000   0.0000000  )
         2           Mn0 tau(   2) = (   0.4971384   0.4971384   0.3259424  )
         3           O1  tau(   3) = (   0.3006502   0.3006502   0.0000000  )
         4           O1  tau(   4) = (  -0.3006502  -0.3006502   0.0000000  )
         5           O1  tau(   5) = (   0.7977886   0.1964883   0.3259424  )
         6           O1  tau(   6) = (   0.1964883   0.7977886   0.3259424  )

     number of k points=    36  Methfessel-Paxton smearing, width (Ry)=  0.0100
                       cart. coord. in units 2pi/alat
        k(    1) = (   0.0000000   0.0000000   0.0000000), wk =   0.0080000
        k(    2) = (   0.0000000   0.0000000   0.3068027), wk =   0.0160000
        k(    3) = (   0.0000000   0.0000000   0.6136054), wk =   0.0160000
        k(    4) = (   0.0000000   0.2011512   0.0000000), wk =   0.0320000
        k(    5) = (   0.0000000   0.2011512   0.3068027), wk =   0.0640000
        k(    6) = (   0.0000000   0.2011512   0.6136054), wk =   0.0640000
        k(    7) = (   0.0000000   0.4023024   0.0000000), wk =   0.0320000
        k(    8) = (   0.0000000   0.4023024   0.3068027), wk =   0.0640000
        k(    9) = (   0.0000000   0.4023024   0.6136054), wk =   0.0640000
        k(   10) = (   0.2011512   0.2011512   0.0000000), wk =   0.0320000
        k(   11) = (   0.2011512   0.2011512   0.3068027), wk =   0.0640000
        k(   12) = (   0.2011512   0.2011512   0.6136054), wk =   0.0640000
        k(   13) = (   0.2011512   0.4023024   0.0000000), wk =   0.0640000
        k(   14) = (   0.2011512   0.4023024   0.3068027), wk =   0.1280000
        k(   15) = (   0.2011512   0.4023024   0.6136054), wk =   0.1280000
        k(   16) = (   0.4023024   0.4023024   0.0000000), wk =   0.0320000
        k(   17) = (   0.4023024   0.4023024   0.3068027), wk =   0.0640000
        k(   18) = (   0.4023024   0.4023024   0.6136054), wk =   0.0640000
        k(   19) = (   0.0000000   0.0000000   0.0000000), wk =   0.0080000
        k(   20) = (   0.0000000   0.0000000   0.3068027), wk =   0.0160000
        k(   21) = (   0.0000000   0.0000000   0.6136054), wk =   0.0160000
        k(   22) = (   0.0000000   0.2011512   0.0000000), wk =   0.0320000
        k(   23) = (   0.0000000   0.2011512   0.3068027), wk =   0.0640000
        k(   24) = (   0.0000000   0.2011512   0.6136054), wk =   0.0640000
        k(   25) = (   0.0000000   0.4023024   0.0000000), wk =   0.0320000
        k(   26) = (   0.0000000   0.4023024   0.3068027), wk =   0.0640000
        k(   27) = (   0.0000000   0.4023024   0.6136054), wk =   0.0640000
        k(   28) = (   0.2011512   0.2011512   0.0000000), wk =   0.0320000
        k(   29) = (   0.2011512   0.2011512   0.3068027), wk =   0.0640000
        k(   30) = (   0.2011512   0.2011512   0.6136054), wk =   0.0640000
        k(   31) = (   0.2011512   0.4023024   0.0000000), wk =   0.0640000
        k(   32) = (   0.2011512   0.4023024   0.3068027), wk =   0.1280000
        k(   33) = (   0.2011512   0.4023024   0.6136054), wk =   0.1280000
        k(   34) = (   0.4023024   0.4023024   0.0000000), wk =   0.0320000
        k(   35) = (   0.4023024   0.4023024   0.3068027), wk =   0.0640000
        k(   36) = (   0.4023024   0.4023024   0.6136054), wk =   0.0640000

     Largest allocated arrays     est. size (Mb)     dimensions
     Largest temporary arrays     est. size (Mb)     dimensions

     Check: negative/imaginary core charge=   -0.000065    0.000000

     Initial potential from superposition of free atoms

     starting charge   51.99998, renormalised to   54.00000
     Starting wfc are   42 randomized atomic wfcs

     Self-consistent Calculation

[...]

     total energy              =    -554.90131644 Ry
     Harris-Foulkes estimate   =    -554.90131645 Ry
     estimated scf accuracy    <       0.00000007 Ry

[...]

     iteration # 11     ecut=    40.00 Ry     beta=0.70
     Davidson diagonalization with overlap
     ethr =  1.39E-10,  avg # of iterations =  1.0

     End of self-consistent calculation

 ------ SPIN UP ------------

[...]

 ------ SPIN DOWN ----------

[...]

          k = 0.4023 0.4023 0.6136 (  1436 PWs)   bands (ev):

   -65.8887 -65.8885 -34.9236 -34.9233 -34.6672 -34.6655 -34.6366 -34.6363
    -5.7854  -5.6657  -5.4907  -5.4623   5.6540   5.8857   5.9667   6.0315
     7.4472   7.6910   8.5977   8.6427  10.1972  10.3988  11.0150  11.3034
    13.7014  14.1047  14.1555  14.3144  14.4603  14.9881  16.2751  16.8593
    17.2097  17.7693  25.3131  25.6382  27.7570  28.3102  29.2362  29.6629
    30.8643  31.1213  31.7943  32.1964  33.2652  33.7153  37.3046  39.0300
    39.3901  39.7086  40.5739  41.1321  45.3330  45.4299  45.5714  46.4388
    48.4708  48.9504  49.1434  50.1089  51.1180  51.1818  51.9728  52.3920
    53.0098  54.1104  55.6546  56.7115  56.7721  57.0913  58.0389  58.3791
    58.6398  59.4030  59.4582  60.4233  61.2229  62.4531

     the Fermi energy is    13.0912 ev

!    total energy              =    -554.90131645 Ry
     Harris-Foulkes estimate   =    -554.90131645 Ry
     estimated scf accuracy    <          1.2E-09 Ry

     The total energy is the sum of the following terms:

     one-electron contribution =    -248.79149589 Ry
     hartree contribution      =     155.98772703 Ry
     xc contribution           =     -81.53740237 Ry
     ewald contribution        =    -380.56027948 Ry
     smearing contrib. (-TS)   =       0.00013425 Ry

     total magnetization       =     5.87 Bohr mag/cell
     absolute magnetization    =     5.96 Bohr mag/cell

     convergence has been achieved in  11 iterations

     Forces acting on atoms (Ry/au):

     atom    1 type  1   force =     0.00000000    0.00000000    0.00000000
     atom    2 type  1   force =     0.00000000    0.00000000    0.00000000
     atom    3 type  2   force =     0.00008033    0.00008033    0.00000000
     atom    4 type  2   force =    -0.00008033   -0.00008033    0.00000000
     atom    5 type  2   force =     0.00008033   -0.00008033    0.00000000
     atom    6 type  2   force =    -0.00008033    0.00008033    0.00000000

     Total force =     0.000227     Total SCF correction =     0.000005

     entering subroutine stress ...

          total   stress  (Ry/bohr**3)                   (kbar)     P=  409.10
   0.00277390   0.00000000   0.00000000        408.06      0.00      0.00
   0.00000000   0.00277390   0.00000000          0.00    408.06      0.00
   0.00000000   0.00000000   0.00279514          0.00      0.00    411.18

     General routines

     Parallel routines

   This run was terminated on:  20:35:32  23Jan2014

   JOB DONE.