     Program PWSCF v.5.0.2 (svn rev. 9656) starts on 15May2014 at  7:53:35

     Current dimensions of program PWSCF are:
     Max number of different atomic species (ntypx) = 10
     Max number of k-points (npk) =  40000
     Max angular momentum in pseudopotentials (lmaxx) =  3
     Reading input from pwscf.in
Warning: card &CELL ignored
Warning: card / ignored

     Subspace diagonalization in iterative solution of the eigenvalue problem:
     a serial algorithm will be used

     Found symmetry operation: I + ( -0.5000  0.0000  0.0000)
     This is a supercell, fractional translations are disabled

     bravais-lattice index     =            0
     lattice parameter (alat)  =      10.3179  a.u.
     unit-cell volume          =    6964.3238 (a.u.)^3
     number of atoms/cell      =           30
     number of atomic types    =            3
     number of electrons       =       224.00
     number of Kohn-Sham states=          336
     kinetic-energy cutoff     =      40.0000  Ry
     charge density cutoff     =     500.0000  Ry
     convergence threshold     =      1.0E-06
     mixing beta               =       0.3000
     number of iterations used =            8  plain     mixing
     Exchange-correlation      = SLA  PW   PBE  PBE ( 1 4 3 4 0)
     EXX-fraction              =        0.00
     nstep                     =           50

     celldm(1)=  10.317905  celldm(2)=   0.000000  celldm(3)=   0.000000
     celldm(4)=   0.000000  celldm(5)=   0.000000  celldm(6)=   0.000000

     crystal axes: (cart. coord. in units of alat)
               a(1) = (   1.000000   0.000000   0.000000 )
               a(2) = (   0.000000   1.282117   0.000000 )
               a(3) = (   0.000000   0.000000   4.945120 )

     reciprocal axes: (cart. coord. in units 2 pi/alat)
               b(1) = (  1.000000  0.000000  0.000000 )
               b(2) = (  0.000000  0.779960  0.000000 )
               b(3) = (  0.000000  0.000000  0.202220 )

     PseudoPot. # 1 for O  read from file:
     /home/camp/zhonxu/pseudo/o_pbe_v1.01.uspp.F.UPF
     MD5 check sum: 2bcb18d16ea4b960afae9ec6d52f22d2
     Pseudo is Ultrasoft + core correction, Zval =  6.0
     Generated by new atomic code, or converted to UPF format
     Using radial grid of  737 points,  5 beta functions with:
                l(1) =   0
                l(2) =   0
                l(3) =   1
                l(4) =   1
                l(5) =   2
     Q(r) pseudized with  8 coefficients,  rinner =    0.900   0.900   0.900
                                                       0.900   0.900

     PseudoPot. # 2 for Mo read from file:
     /home/camp/zhonxu/pseudo/mo_pbe_v1.uspp.F.UPF
     MD5 check sum: 30c4dcd161f5d35cd49bb5239c51a633
     Pseudo is Ultrasoft + core correction, Zval = 14.0
     Generated by new atomic code, or converted to UPF format
     Using radial grid of  889 points,  6 beta functions with:
                l(1) =   0
                l(2) =   0
                l(3) =   1
                l(4) =   1
                l(5) =   2
                l(6) =   2
     Q(r) pseudized with  6 coefficients,  rinner =    1.000   1.000   1.000
                                                       1.000   1.000

     PseudoPot. # 3 for H  read from file:
     /home/camp/zhonxu/pseudo/h_pbe_v1.uspp.F.UPF
     MD5 check sum: 3408e3ff4ec8b0a4e358431e7e038a48
     Pseudo is Ultrasoft, Zval =  1.0
     Generated by new atomic code, or converted to UPF format
     Using radial grid of  615 points,  2 beta functions with:
                l(1) =   0
                l(2) =   0
     Q(r) pseudized with  8 coefficients,  rinner =    0.700

     atomic species   valence    mass     pseudopotential
        O0             6.00    15.99940     O ( 1.00)
        Mo1           14.00    95.94000     Mo( 1.00)
        H2             1.00     1.00794     H ( 1.00)

     Simplified LDA+U calculation (l_max = 2) with parameters (eV):
     atomic species    L          U    alpha       J0     beta
        Mo1            2     7.5000   0.0000   0.0000   0.0000

     No symmetry found

   Cartesian axes

     site n.     atom                  positions (alat units)
         1           O0  tau(   1) = (   0.0000000   0.0000000   1.8465574  )
         2           O0  tau(   2) = (   0.0000000   0.6410583   1.8808271  )
         3           Mo1 tau(   3) = (   0.2500000   0.6410583   2.1650231  )
         4           Mo1 tau(   4) = (   0.0000000   0.0000000   2.2064633  )
         5           O0  tau(   5) = (   0.2500000   1.0000510   2.1927158  )
         6           O0  tau(   6) = (   0.2500000   0.2820657   2.1921224  )
         7           O0  tau(   7) = (   0.0000000   0.6410583   2.4520379  )
         8           O0  tau(   8) = (   0.0000000   0.0000000   2.5658746  )
         9           Mo1 tau(   9) = (   0.2500000   0.0000000   2.8596642  )
        10           Mo1 tau(  10) = (   0.0000000   0.6410583   2.7884050  )
        11           O0  tau(  11) = (   0.2500000   0.9231240   2.8369661  )
        12           O0  tau(  12) = (   0.2500000   0.3589927   2.8372628  )
        13           O0  tau(  13) = (   0.0000000   0.0000000   3.1104807  )
        14           O0  tau(  14) = (   0.5000000   0.0000000   1.8465574  )
        15           O0  tau(  15) = (   0.5000000   0.6410583   1.8808271  )
        16           Mo1 tau(  16) = (   0.7500000   0.6410583   2.1650231  )
        17           Mo1 tau(  17) = (   0.5000000   0.0000000   2.2064633  )
        18           O0  tau(  18) = (   0.7500000   1.0000510   2.1927158  )
        19           O0  tau(  19) = (   0.7500000   0.2820657   2.1921224  )
        20           O0  tau(  20) = (   0.5000000   0.6410583   2.4520379  )
        21           O0  tau(  21) = (   0.5000000   0.0000000   2.5658746  )
        22           Mo1 tau(  22) = (   0.7500000   0.0000000   2.8596642  )
        23           Mo1 tau(  23) = (   0.5000000   0.6410583   2.7884050  )
        24           O0  tau(  24) = (   0.7500000   0.9231240   2.8369661  )
        25           O0  tau(  25) = (   0.7500000   0.3589927   2.8372628  )
        26           O0  tau(  26) = (   0.5000000   0.0000000   3.1104807  )
        27           H2  tau(  27) = (  -0.0004900   0.7868222   1.7746059  )
        28           H2  tau(  28) = (   0.4995100   0.7868222   1.7746059  )
        29           H2  tau(  29) = (   0.1657500   0.0265270   1.7749026  )
        30           H2  tau(  30) = (   0.6657500   0.0265270   1.7749026  )

     number of k points=    10  Methfessel-Paxton smearing, width (Ry)=  0.0100
                       cart. coord. in units 2pi/alat
        k(    1) = (   0.0000000   0.0000000   0.0000000), wk =   0.1250000
        k(    2) = (   0.0000000   0.1949901   0.0000000), wk =   0.2500000
        k(    3) = (   0.0000000  -0.3899801   0.0000000), wk =   0.1250000
        k(    4) = (   0.2500000   0.0000000   0.0000000), wk =   0.2500000
        k(    5) = (   0.2500000   0.1949901   0.0000000), wk =   0.2500000
        k(    6) = (   0.2500000  -0.3899801   0.0000000), wk =   0.2500000
        k(    7) = (  -0.5000000   0.0000000   0.0000000), wk =   0.1250000
        k(    8) = (  -0.5000000   0.1949901   0.0000000), wk =   0.2500000
        k(    9) = (  -0.5000000  -0.3899801   0.0000000), wk =   0.1250000
        k(   10) = (  -0.2500000   0.1949901   0.0000000), wk =   0.2500000

     Largest allocated arrays     est. size (Mb)     dimensions
     Largest temporary arrays     est. size (Mb)     dimensions

     Check: negative/imaginary core charge=   -0.000003    0.000000

     Initial potential from superposition of free atoms
     Check: negative starting charge=   -0.002478

     starting charge  223.99143, renormalised to  224.00000

     negative rho (up, down):  0.248E-02 0.000E+00
     Number of +U iterations with fixed ns =  0
     Starting occupations:
 --- enter write_ns ---
 LDA+U parameters:
U( 2)     =  7.50000000
alpha( 2) =  0.00000000
atom    3   Tr[ns(na)] =   5.00000
    eigenvalues:
  0.500  0.500  0.500  0.500  0.500
    eigenvectors:
  1.000  0.000  0.000  0.000  0.000
  0.000  1.000  0.000  0.000  0.000
  0.000  0.000  1.000  0.000  0.000
  0.000  0.000  0.000  1.000  0.000
  0.000  0.000  0.000  0.000  1.000
    occupations:
  0.500  0.000  0.000  0.000  0.000
  0.000  0.500  0.000  0.000  0.000
  0.000  0.000  0.500  0.000  0.000
  0.000  0.000  0.000  0.500  0.000
  0.000  0.000  0.000  0.000  0.500
atom    4   Tr[ns(na)] =   5.00000
    eigenvalues:
  0.500  0.500  0.500  0.500  0.500
    eigenvectors:
  1.000  0.000  0.000  0.000  0.000
  0.000  1.000  0.000  0.000  0.000
  0.000  0.000  1.000  0.000  0.000
  0.000  0.000  0.000  1.000  0.000
  0.000  0.000  0.000  0.000  1.000
    occupations:
  0.500  0.000  0.000  0.000  0.000
  0.000  0.500  0.000  0.000  0.000
  0.000  0.000  0.500  0.000  0.000
  0.000  0.000  0.000  0.500  0.000
  0.000  0.000  0.000  0.000  0.500
atom    9   Tr[ns(na)] =   5.00000
    eigenvalues:
  0.500  0.500  0.500  0.500  0.500
    eigenvectors:
  1.000  0.000  0.000  0.000  0.000
  0.000  1.000  0.000  0.000  0.000
  0.000  0.000  1.000  0.000  0.000
  0.000  0.000  0.000  1.000  0.000
  0.000  0.000  0.000  0.000  1.000
    occupations:
  0.500  0.000  0.000  0.000  0.000
  0.000  0.500  0.000  0.000  0.000
  0.000  0.000  0.500  0.000  0.000
  0.000  0.000  0.000  0.500  0.000
  0.000  0.000  0.000  0.000  0.500
atom   10   Tr[ns(na)] =   5.00000
    eigenvalues:
  0.500  0.500  0.500  0.500  0.500
    eigenvectors:
  1.000  0.000  0.000  0.000  0.000
  0.000  1.000  0.000  0.000  0.000
  0.000  0.000  1.000  0.000  0.000
  0.000  0.000  0.000  1.000  0.000
  0.000  0.000  0.000  0.000  1.000
    occupations:
  0.500  0.000  0.000  0.000  0.000
  0.000  0.500  0.000  0.000  0.000
  0.000  0.000  0.500  0.000  0.000
  0.000  0.000  0.000  0.500  0.000
  0.000  0.000  0.000  0.000  0.500
atom   16   Tr[ns(na)] =   5.00000
    eigenvalues:
  0.500  0.500  0.500  0.500  0.500
    eigenvectors:
  1.000  0.000  0.000  0.000  0.000
  0.000  1.000  0.000  0.000  0.000
  0.000  0.000  1.000  0.000  0.000
  0.000  0.000  0.000  1.000  0.000
  0.000  0.000  0.000  0.000  1.000
    occupations:
  0.500  0.000  0.000  0.000  0.000
  0.000  0.500  0.000  0.000  0.000
  0.000  0.000  0.500  0.000  0.000
  0.000  0.000  0.000  0.500  0.000
  0.000  0.000  0.000  0.000  0.500
atom   17   Tr[ns(na)] =   5.00000
    eigenvalues:
  0.500  0.500  0.500  0.500  0.500
    eigenvectors:
  1.000  0.000  0.000  0.000  0.000
  0.000  1.000  0.000  0.000  0.000
  0.000  0.000  1.000  0.000  0.000
  0.000  0.000  0.000  1.000  0.000
  0.000  0.000  0.000  0.000  1.000
    occupations:
  0.500  0.000  0.000  0.000  0.000
  0.000  0.500  0.000  0.000  0.000
  0.000  0.000  0.500  0.000  0.000
  0.000  0.000  0.000  0.500  0.000
  0.000  0.000  0.000  0.000  0.500
atom   22   Tr[ns(na)] =   5.00000
    eigenvalues:
  0.500  0.500  0.500  0.500  0.500
    eigenvectors:
  1.000  0.000  0.000  0.000  0.000
  0.000  1.000  0.000  0.000  0.000
  0.000  0.000  1.000  0.000  0.000
  0.000  0.000  0.000  1.000  0.000
  0.000  0.000  0.000  0.000  1.000
    occupations:
[...]
  0.000  0.514 -0.000 -0.000 -0.015
  0.041 -0.000  0.360 -0.020  0.000
 -0.095 -0.000 -0.020  0.639  0.001
 -0.001 -0.015  0.000  0.001  0.658
atom    4   Tr[ns(na)] =   5.80840
    eigenvalues:
  0.343  0.519  0.594  0.655  0.793
    eigenvectors:
  0.000  0.000  0.976  0.023  0.001
  0.000  0.000  0.023  0.974  0.003
  0.999  0.000  0.000  0.000  0.000
  0.000  0.000  0.001  0.002  0.996
  0.000  1.000  0.000  0.000  0.000
    occupations:
  0.595  0.009  0.003  0.007 -0.000
  0.009  0.654 -0.006 -0.008 -0.001
  0.003 -0.006  0.343 -0.003  0.001
  0.007 -0.008 -0.003  0.793  0.000
 -0.000 -0.001  0.001  0.000  0.519
atom    9   Tr[ns(na)] =   5.83026
    eigenvalues:
  0.441  0.473  0.610  0.611  0.781
    eigenvectors:
  0.000  0.000  0.004  0.210  0.787
  0.000  0.000  0.983  0.017  0.000
  0.000  1.000  0.000  0.000  0.000
  0.000  0.000  0.013  0.773  0.213
  1.000  0.000  0.000  0.000  0.000
    occupations:
  0.744  0.000  0.000 -0.070 -0.001
  0.000  0.610 -0.000  0.000 -0.000
  0.000 -0.000  0.473 -0.001  0.000
 -0.070  0.000 -0.001  0.647  0.000
 -0.001 -0.000  0.000  0.000  0.441
atom   10   Tr[ns(na)] =   5.70604
    eigenvalues:
  0.290  0.453  0.496  0.784  0.830
    eigenvectors:
  0.000  0.996  0.000  0.003  0.000
  0.000  0.000  0.000  0.000  1.000
  1.000  0.000  0.000  0.000  0.000
  0.000  0.003  0.000  0.997  0.000
  0.000  0.000  1.000  0.000  0.000
    occupations:
  0.454  0.000 -0.002  0.019 -0.000
  0.000  0.830 -0.002 -0.000  0.000
 -0.002 -0.002  0.290  0.001  0.000
  0.019 -0.000  0.001  0.783  0.000
 -0.000  0.000  0.000  0.000  0.496
atom   16   Tr[ns(na)] =   5.79745
    eigenvalues:
  0.355  0.512  0.579  0.659  0.793
    eigenvectors:
  0.010  0.000  0.282  0.000  0.708
  0.000  0.990  0.000  0.010  0.000
  0.988  0.000  0.001  0.000  0.011
  0.001  0.000  0.717  0.000  0.281
  0.000  0.010  0.000  0.989  0.000
    occupations:
  0.728 -0.000  0.041 -0.095 -0.001
 -0.000  0.514 -0.000 -0.000 -0.015
  0.041 -0.000  0.360 -0.020  0.002
 -0.095 -0.000 -0.020  0.639  0.001
 -0.001 -0.015  0.002  0.001  0.658
atom   17   Tr[ns(na)] =   5.80817
    eigenvalues:
  0.343  0.519  0.593  0.656  0.793
    eigenvectors:
  0.000  0.000  0.976  0.023  0.001
  0.000  0.000  0.022  0.974  0.003
  0.999  0.000  0.000  0.000  0.000
  0.000  0.000  0.001  0.002  0.996
  0.000  1.000  0.000  0.000  0.000
    occupations:
  0.595  0.009  0.003  0.007 -0.000
  0.009  0.655 -0.006 -0.008 -0.001
  0.003 -0.006  0.343 -0.003  0.001
  0.007 -0.008 -0.003  0.793  0.000
 -0.000 -0.001  0.001  0.000  0.519
atom   22   Tr[ns(na)] =   5.83020
    eigenvalues:
  0.441  0.473  0.610  0.611  0.781
    eigenvectors:
  0.000  0.000  0.002  0.211  0.786
  0.000  0.000  0.989  0.011  0.000
  0.000  1.000  0.000  0.000  0.000
  0.000  0.000  0.008  0.778  0.214
  1.000  0.000  0.000  0.000  0.000
    occupations:
  0.745  0.000  0.000 -0.070 -0.001
  0.000  0.610 -0.000  0.000 -0.000
  0.000 -0.000  0.473 -0.001  0.000
 -0.070  0.000 -0.001  0.647  0.000
 -0.001 -0.000  0.000  0.000  0.441
atom   23   Tr[ns(na)] =   5.70691
    eigenvalues:
  0.291  0.454  0.496  0.785  0.829
    eigenvectors:
  0.000  0.997  0.000  0.003  0.000
  0.000  0.000  0.000  0.000  1.000
  1.000  0.000  0.000  0.000  0.000
  0.000  0.003  0.000  0.997  0.000
  0.000  0.000  1.000  0.000  0.000
    occupations:
  0.455  0.000 -0.002  0.019 -0.000
  0.000  0.829 -0.002 -0.000  0.000
 -0.002 -0.002  0.291  0.001  0.000
  0.019 -0.000  0.001  0.784  0.000
 -0.000  0.000  0.000  0.000  0.496
N of occupied +U levels =  46.2848817
 --- exit write_ns ---

     Threshold (ethr) on eigenvalues was too large:
     Diagonalizing with lowered threshold

     Davidson diagonalization with overlap
     ethr =  3.16E-08,  avg # of iterations =  1.9

[...]

     total energy              =   -1695.13166605 Ry
     Harris-Foulkes estimate   =   -1695.13166607 Ry
     estimated scf accuracy    <       0.00000001 Ry

     iteration # 25     ecut=    40.00 Ry     beta=0.30
     Davidson diagonalization with overlap
     ethr =  5.73E-12,  avg # of iterations =  1.0

     negative rho (up, down):  0.356E-02 0.000E+00

     End of self-consistent calculation
 --- enter write_ns ---
 LDA+U parameters:
U( 2)     =  7.50000000
alpha( 2) =  0.00000000
atom    3   Tr[ns(na)] =   5.79790
    eigenvalues:
  0.355  0.512  0.579  0.659  0.793
    eigenvectors:
  0.010  0.000  0.282  0.000  0.708
  0.000  0.989  0.000  0.011  0.000
  0.988  0.000  0.001  0.000  0.011
  0.001  0.000  0.718  0.000  0.281
  0.000  0.011  0.000  0.989  0.000
    occupations:
  0.728  0.000  0.041 -0.095 -0.001
  0.000  0.514 -0.000 -0.000 -0.015
  0.041 -0.000  0.360 -0.020  0.000
 -0.095 -0.000 -0.020  0.639  0.001
 -0.001 -0.015  0.000  0.001  0.658
atom    4   Tr[ns(na)] =   5.80963
    eigenvalues:
  0.343  0.519  0.594  0.655  0.794
    eigenvectors:
  0.000  0.000  0.975  0.024  0.001
  0.000  0.000  0.023  0.974  0.003
  0.999  0.000  0.000  0.000  0.000
  0.000  0.000  0.001  0.002  0.996
  0.000  1.000  0.000  0.000  0.000
    occupations:
  0.595  0.009  0.003  0.006 -0.000
  0.009  0.654 -0.006 -0.008 -0.001
  0.003 -0.006  0.344 -0.003  0.001
  0.006 -0.008 -0.003  0.793  0.000
 -0.000 -0.001  0.001  0.000  0.519
atom    9   Tr[ns(na)] =   5.83052
    eigenvalues:
  0.441  0.473  0.610  0.611  0.781
    eigenvectors:
  0.000  0.000  0.003  0.211  0.786
  0.000  0.000  0.988  0.012  0.000
  0.000  1.000  0.000  0.000  0.000
  0.000  0.000  0.009  0.777  0.214
  1.000  0.000  0.000  0.000  0.000
    occupations:
  0.745  0.000  0.000 -0.070 -0.001
  0.000  0.610 -0.000  0.000 -0.000
  0.000 -0.000  0.473 -0.001  0.000
 -0.070  0.000 -0.001  0.647  0.000
 -0.001 -0.000  0.000  0.000  0.441
atom   10   Tr[ns(na)] =   5.70204
    eigenvalues:
  0.289  0.453  0.495  0.784  0.830
    eigenvectors:
  0.000  0.996  0.000  0.003  0.000
  0.000  0.000  0.000  0.000  1.000
  1.000  0.000  0.000  0.000  0.000
  0.000  0.003  0.000  0.997  0.000
  0.000  0.000  1.000  0.000  0.000
    occupations:
  0.454  0.000 -0.002  0.019 -0.000
  0.000  0.830 -0.002 -0.000  0.000
 -0.002 -0.002  0.289  0.001  0.000
  0.019 -0.000  0.001  0.783  0.000
 -0.000  0.000  0.000  0.000  0.495
atom   16   Tr[ns(na)] =   5.79765
    eigenvalues:
  0.356  0.512  0.579  0.659  0.793
    eigenvectors:
  0.010  0.000  0.282  0.000  0.708
  0.000  0.989  0.000  0.011  0.000
  0.988  0.000  0.001  0.000  0.011
  0.001  0.000  0.717  0.000  0.281
  0.000  0.011  0.000  0.989  0.000
    occupations:
  0.728 -0.000  0.042 -0.095 -0.001
 -0.000  0.514 -0.000 -0.000 -0.015
  0.042 -0.000  0.360 -0.020  0.002
 -0.095 -0.000 -0.020  0.639  0.001
 -0.001 -0.015  0.002  0.001  0.657
atom   17   Tr[ns(na)] =   5.80960
    eigenvalues:
  0.343  0.519  0.594  0.655  0.793
    eigenvectors:
  0.000  0.000  0.976  0.023  0.001
  0.000  0.000  0.022  0.974  0.003
  0.999  0.000  0.000  0.000  0.000
  0.000  0.000  0.001  0.002  0.996
  0.000  1.000  0.000  0.000  0.000
    occupations:
  0.595  0.009  0.003  0.006 -0.000
  0.009  0.654 -0.006 -0.008 -0.001
  0.003 -0.006  0.343 -0.003  0.001
  0.006 -0.008 -0.003  0.793  0.000
 -0.000 -0.001  0.001  0.000  0.519
atom   22   Tr[ns(na)] =   5.83044
    eigenvalues:
  0.441  0.473  0.610  0.611  0.781
    eigenvectors:
  0.000  0.000  0.002  0.212  0.786
  0.000  0.000  0.993  0.007  0.000
  0.000  1.000  0.000  0.000  0.000
  0.000  0.000  0.005  0.781  0.214
  1.000  0.000  0.000  0.000  0.000
    occupations:
  0.745  0.000  0.000 -0.070 -0.001
  0.000  0.610 -0.000  0.000 -0.000
  0.000 -0.000  0.473 -0.001  0.000
 -0.070  0.000 -0.001  0.647  0.000
 -0.001 -0.000  0.000  0.000  0.441
atom   23   Tr[ns(na)] =   5.70310
    eigenvalues:
  0.290  0.453  0.495  0.785  0.828
    eigenvectors:
  0.000  0.996  0.000  0.003  0.000
  0.000  0.000  0.000  0.000  1.000
  1.000  0.000  0.000  0.000  0.000
  0.000  0.003  0.000  0.997  0.000
  0.000  0.000  1.000  0.000  0.000
    occupations:
  0.454  0.000 -0.002  0.019 -0.000
  0.000  0.828 -0.002 -0.000  0.000
 -0.002 -0.002  0.290  0.001  0.000
  0.019 -0.000  0.001  0.783  0.000
 -0.000  0.000  0.000  0.000  0.495
N of occupied +U levels =  46.2808769
 --- exit write_ns ---

[...]

          k = 0.2500-0.3900 0.0000 ( 29726 PWs)   bands (ev):

[...]

          k =-0.2500 0.1950 0.0000 ( 29746 PWs)   bands (ev):

   -62.4720 -62.3825 -62.0496 -62.0425 -61.9705 -61.9624 -61.8100 -61.7314
   -36.9893 -36.9756 -36.8965 -36.4538 -36.4011 -36.3727 -36.3181 -36.3001
   -36.2823 -36.2570 -36.2378 -36.2195 -36.2061 -36.1968 -36.1868 -36.1710
   -36.1079 -36.0966 -36.0809 -36.0501 -35.8259 -35.5333 -35.4970 -35.0929
   -20.5307 -20.2615 -19.7741 -19.7085 -19.5837 -19.4395 -19.3730 -19.3161
   -19.2579 -19.0881 -19.0422 -18.9091 -18.8907 -18.7745 -18.6895 -18.5583
   -18.3259 -18.1434  -8.7012  -8.5697  -8.3209  -8.1092  -8.0817  -8.0000
    -7.8048  -7.7002  -7.6612  -7.4811  -7.3001  -7.0994  -7.0587  -6.6847
    -6.6762  -6.6186  -6.3265  -6.2234  -6.1217  -6.0738  -5.9801  -5.8910
    -5.7618  -5.5586  -5.3657  -5.1972  -5.0708  -4.9940  -4.9353  -4.7903
    -4.7235  -4.5865  -4.5434  -4.4532  -4.4131  -4.4078  -4.3362  -4.2903
    -4.2669  -3.9582  -3.8235  -3.8068  -3.7403  -3.6954  -3.5112  -3.4953
    -3.3807  -3.3200  -3.1483  -3.0388  -3.0050  -2.8004  -2.6665  -2.5553
    -2.4123  -2.1581  -2.1031  -1.3062  -1.0855  -0.8276  -0.5602  -0.3182
     0.2593   0.3444   0.6773   0.8922   0.9299   1.0534   1.1530   1.2443
     1.3028   1.3963   1.7098   1.7661   2.0156   2.1801   2.2288   2.4117
     2.4244   2.9003   3.3731   3.6193   3.7025   3.8580   3.9730   4.1520
     4.2708   4.3847   4.5516   4.5753   4.6628   4.7034   4.9201   5.1183
     5.5057   5.6297   5.7723   5.9311   5.9398   6.1055   6.3088   6.3927
     6.5333   6.6370   6.9843   6.9897   7.0830   7.2936   7.5083   7.5832
     7.8974   7.9647   8.1692   8.2884   8.3084   8.5073   8.6493   8.7041
     8.8888   8.9991   9.0681   9.3190   9.3605   9.4090   9.5074   9.5535
     9.5804   9.6482   9.8172   9.9895  10.0467  10.2118  10.2701  10.3044
    10.4838  10.5395  10.6807  10.7571  10.7597  11.0049  11.0914  11.1131
    11.1139  11.2974  11.5913  11.6252  11.6477  11.7511  11.8448  11.8992
    11.9910  12.0860  12.2908  12.3029  12.3453  12.3475  12.4532  12.6507
    12.6554  12.8048  12.9085  12.9124  12.9699  13.0822  13.1157  13.2203
    13.3304  13.4298  13.4414  13.5029  13.5222  13.6701  13.6778  13.7580
    13.8625  13.9145  13.9956  14.0029  14.1514  14.1521  14.2280  14.3333
    14.4265  14.4481  14.4798  14.5463  14.5997  14.7562  14.8509  14.8693
    14.9602  15.0502  15.0594  15.2489  15.3058  15.3914  15.4768  15.5843
    15.6455  15.6745  15.7699  15.8425  15.9198  15.9946  16.0867  16.1348
    16.2004  16.3007  16.3116  16.3705  16.3887  16.4488  16.6041  16.7126
    16.7326  16.7636  16.8062  16.9068  17.0040  17.1178  17.1526  17.2275
    17.2594  17.2894  17.3536  17.4056  17.4809  17.6785  17.7006  17.8117
    17.8927  17.9046  18.0834  18.0864  18.1555  18.2729  18.3706  18.3777
    18.4403  18.4602  18.5584  18.5874  18.6244  18.8469  18.8943  19.0197
    19.0603  19.1137  19.1521  19.3078  19.3089  19.4915  19.6002  19.6033
    19.7324  19.7898  19.8307  19.9271  19.9504  20.0771  20.1434  20.1874
    20.2125  20.2556  20.3417  20.3675  20.4176  20.4215  20.5015  20.5127
    20.6463  20.6857  20.7456  20.8589  20.9136  20.9597  21.0570  21.0625
    21.1673  21.2305  21.2794  21.3143  21.4320  21.4864  21.5470  21.6310

     the Fermi energy is    -0.2815 ev

!    total energy              =   -1695.13166606 Ry
     Harris-Foulkes estimate   =   -1695.13166606 Ry
     estimated scf accuracy    <          9.4E-09 Ry

     The total energy is the sum of the following terms:

     one-electron contribution =  -21386.10910548 Ry
     hartree contribution      =   10715.89578076 Ry
     xc contribution           =    -286.75688155 Ry
     ewald contribution        =    9257.01660426 Ry
     Hubbard energy            =       4.82254672 Ry
     smearing contrib. (-TS)   =      -0.00061078 Ry

     convergence has been achieved in  25 iterations

     Forces acting on atoms (Ry/au):

     negative rho (up, down):  0.356E-02 0.000E+00
     atom    1 type  1   force =    -0.00057053   -0.00534854    0.00042850
     atom    2 type  1   force =     0.00006512    0.01191612    0.00048824
     atom    3 type  2   force =     0.00005318   -0.01185823   -0.00011292
     atom    4 type  2   force =    -0.00235995    0.00292789   -0.00093983
     atom    5 type  1   force =     0.00227547   -0.02103569    0.00005422
     atom    6 type  1   force =    -0.00073788    0.01894044    0.00029644
     atom    7 type  1   force =    -0.00002320    0.00493719   -0.00017734
     atom    8 type  1   force =     0.00383704    0.00014268   -0.00071699
     atom    9 type  2   force =    -0.00197239    0.00210399   -0.00014980
     atom   10 type  2   force =    -0.00000698    0.00128901   -0.00069928
     atom   11 type  1   force =    -0.00003554    0.00683248   -0.00002410
     atom   12 type  1   force =     0.00027354   -0.01024180    0.00004875
     atom   13 type  1   force =    -0.00019739   -0.00052990    0.00010887
     atom   14 type  1   force =    -0.00056361   -0.00534768    0.00039689
     atom   15 type  1   force =     0.00007676    0.01188762    0.00049211
     atom   16 type  2   force =    -0.00013734   -0.01185392   -0.00011262
     atom   17 type  2   force =    -0.00252065    0.00293964   -0.00098033
     atom   18 type  1   force =     0.00215867   -0.02114848    0.00004423
     atom   19 type  1   force =    -0.00085855    0.01905639    0.00027737
     atom   20 type  1   force =    -0.00001149    0.00495337   -0.00012047
     atom   21 type  1   force =     0.00382502    0.00013580   -0.00070669
     atom   22 type  2   force =    -0.00220287    0.00210424   -0.00014804
     atom   23 type  2   force =    -0.00001136    0.00125581   -0.00073471
     atom   24 type  1   force =    -0.00018925    0.00683976   -0.00002913
     atom   25 type  1   force =     0.00011027   -0.01024900    0.00004720
     atom   26 type  1   force =    -0.00022249   -0.00053137    0.00010613
     atom   27 type  3   force =    -0.00002386    0.00000404    0.00070266
     atom   28 type  3   force =    -0.00000936   -0.00000610    0.00068918
     atom   29 type  3   force =    -0.00001541   -0.00005584    0.00074248
     atom   30 type  3   force =    -0.00000498   -0.00005992    0.00072899

     Total force =     0.002661     Total SCF correction =     0.000150

     bfgs converged in  16 scf cycles and  15 bfgs steps
     (criteria: energy < 0.10E-03, force < 0.10E-02)

     End of BFGS Geometry Optimization

     Final energy   =   -1695.1316660599 Ry
Begin final coordinates

ATOMIC_POSITIONS (crystal)
O0       0.000000000   0.000000000   0.372453150    0   0   1
O0       0.000000000   0.500000000   0.381017947    0   0   1
Mo1      0.250000000   0.500000000   0.439460366    0   0   1
Mo1      0.000000000   0.000000000   0.444505575    0   0   1
O0       0.250000000   0.780000000   0.442736031    0   0   1
O0       0.250000000   0.220000000   0.442762657    0   0   1
O0       0.000000000   0.500000000   0.496711468    0   0   1
O0       0.000000000   0.000000000   0.517812327    0   0   1
Mo1      0.250000000   0.000000000   0.576920508    0   0   1
Mo1      0.000000000   0.500000000   0.566749778    0   0   1
O0       0.250000000   0.720000000   0.574775743    0   0   1
O0       0.250000000   0.280000000   0.574925371    0   0   1
O0       0.000000000   0.000000000   0.627519638    0   0   1
O0       0.500000000   0.000000000   0.372446433    0   0   1
O0       0.500000000   0.500000000   0.381014230    0   0   1
Mo1      0.750000000   0.500000000   0.439461271    0   0   1
Mo1      0.500000000   0.000000000   0.444495009    0   0   1
O0       0.750000000   0.780000000   0.442735827    0   0   1
O0       0.750000000   0.220000000   0.442764192    0   0   1
O0       0.500000000   0.500000000   0.496738791    0   0   1
O0       0.500000000   0.000000000   0.517817278    0   0   1
Mo1      0.750000000   0.000000000   0.576913209    0   0   1
Mo1      0.500000000   0.500000000   0.566733534    0   0   1
O0       0.750000000   0.720000000   0.574775248    0   0   1
O0       0.750000000   0.280000000   0.574924217    0   0   1
O0       0.500000000   0.000000000   0.627520622    0   0   1
H2      -0.000258434   0.614134838   0.359740343
H2       0.499733568   0.614135186   0.359737473
H2       0.164337002   0.023444940   0.357457048
H2       0.664347486   0.023442777   0.357454716
End final coordinates

     General routines

     Parallel routines
     Hubbard U routines

   This run was terminated on:   2:55:10  16May2014

   JOB DONE.