     Program PWSCF v.5.0.2 (svn rev. 9656) starts on  5May2014 at 11:34:34

     Current dimensions of program PWSCF are:
     Max number of different atomic species (ntypx) = 10
     Max number of k-points (npk) =  40000
     Max angular momentum in pseudopotentials (lmaxx) =  3
     Reading input from pwscf.in
Warning: card &CELL ignored
Warning: card / ignored

     Subspace diagonalization in iterative solution of the eigenvalue problem:
     a serial algorithm will be used

     Found symmetry operation: I + ( -0.5000  0.0000  0.0000)
     This is a supercell, fractional translations are disabled

     bravais-lattice index     =            0
     lattice parameter (alat)  =      10.3179  a.u.
     unit-cell volume          =    6964.3238 (a.u.)^3
     number of atoms/cell      =           30
     number of atomic types    =            3
     number of electrons       =       224.00
     number of Kohn-Sham states=          336
     kinetic-energy cutoff     =      40.0000  Ry
     charge density cutoff     =     500.0000  Ry
     convergence threshold     =      1.0E-06
     mixing beta               =       0.7000
     number of iterations used =            8  plain     mixing
     Exchange-correlation      = SLA  PW   PBE  PBE ( 1 4 3 4 0)
     EXX-fraction              =        0.00
     nstep                     =           50

     celldm(1)=  10.317905  celldm(2)=   0.000000  celldm(3)=   0.000000
     celldm(4)=   0.000000  celldm(5)=   0.000000  celldm(6)=   0.000000

     crystal axes: (cart. coord. in units of alat)
               a(1) = (   1.000000   0.000000   0.000000 )
               a(2) = (   0.000000   1.282117   0.000000 )
               a(3) = (   0.000000   0.000000   4.945120 )

     reciprocal axes: (cart. coord. in units 2 pi/alat)
               b(1) = (  1.000000  0.000000  0.000000 )
               b(2) = (  0.000000  0.779960  0.000000 )
               b(3) = (  0.000000  0.000000  0.202220 )

     PseudoPot. # 1 for O  read from file:
     /home/camp/zhonxu/pseudo/o_pbe_v1.01.uspp.F.UPF
     MD5 check sum: 2bcb18d16ea4b960afae9ec6d52f22d2
     Pseudo is Ultrasoft + core correction, Zval =  6.0
     Generated by new atomic code, or converted to UPF format
     Using radial grid of  737 points,  5 beta functions with:
                l(1) =   0
                l(2) =   0
                l(3) =   1
                l(4) =   1
                l(5) =   2
     Q(r) pseudized with  8 coefficients,  rinner =    0.900   0.900   0.900
                                                       0.900   0.900

     PseudoPot. # 2 for Mo read from file:
     /home/camp/zhonxu/pseudo/mo_pbe_v1.uspp.F.UPF
     MD5 check sum: 30c4dcd161f5d35cd49bb5239c51a633
     Pseudo is Ultrasoft + core correction, Zval = 14.0
     Generated by new atomic code, or converted to UPF format
     Using radial grid of  889 points,  6 beta functions with:
                l(1) =   0
                l(2) =   0
                l(3) =   1
                l(4) =   1
                l(5) =   2
                l(6) =   2
     Q(r) pseudized with  6 coefficients,  rinner =    1.000   1.000   1.000
                                                       1.000   1.000

     PseudoPot. # 3 for H  read from file:
     /home/camp/zhonxu/pseudo/h_pbe_v1.uspp.F.UPF
     MD5 check sum: 3408e3ff4ec8b0a4e358431e7e038a48
     Pseudo is Ultrasoft, Zval =  1.0
     Generated by new atomic code, or converted to UPF format
     Using radial grid of  615 points,  2 beta functions with:
                l(1) =   0
                l(2) =   0
     Q(r) pseudized with  8 coefficients,  rinner =    0.700

     atomic species   valence    mass     pseudopotential
        O0             6.00    15.99940     O ( 1.00)
        Mo1           14.00    95.94000     Mo( 1.00)
        H2             1.00     1.00794     H ( 1.00)

     Simplified LDA+U calculation (l_max = 2) with parameters (eV):
     atomic species    L          U    alpha       J0     beta
        Mo1            2     3.0000   0.0000   0.0000   0.0000

     No symmetry found

   Cartesian axes

     site n.     atom                  positions (alat units)
         1           O0  tau(   1) = (   0.0000000   0.0000000   1.8465574  )
         2           O0  tau(   2) = (   0.0000000   0.6410583   1.8808271  )
         3           Mo1 tau(   3) = (   0.2500000   0.6410583   2.1650231  )
         4           Mo1 tau(   4) = (   0.0000000   0.0000000   2.2064633  )
         5           O0  tau(   5) = (   0.2500000   1.0000510   2.1927158  )
         6           O0  tau(   6) = (   0.2500000   0.2820657   2.1921224  )
         7           O0  tau(   7) = (   0.0000000   0.6410583   2.4520379  )
         8           O0  tau(   8) = (   0.0000000   0.0000000   2.5658746  )
         9           Mo1 tau(   9) = (   0.2500000   0.0000000   2.8596642  )
        10           Mo1 tau(  10) = (   0.0000000   0.6410583   2.7884050  )
        11           O0  tau(  11) = (   0.2500000   0.9231240   2.8369661  )
        12           O0  tau(  12) = (   0.2500000   0.3589927   2.8372628  )
        13           O0  tau(  13) = (   0.0000000   0.0000000   3.1104807  )
        14           O0  tau(  14) = (   0.5000000   0.0000000   1.8465574  )
        15           O0  tau(  15) = (   0.5000000   0.6410583   1.8808271  )
        16           Mo1 tau(  16) = (   0.7500000   0.6410583   2.1650231  )
        17           Mo1 tau(  17) = (   0.5000000   0.0000000   2.2064633  )
        18           O0  tau(  18) = (   0.7500000   1.0000510   2.1927158  )
        19           O0  tau(  19) = (   0.7500000   0.2820657   2.1921224  )
        20           O0  tau(  20) = (   0.5000000   0.6410583   2.4520379  )
        21           O0  tau(  21) = (   0.5000000   0.0000000   2.5658746  )
        22           Mo1 tau(  22) = (   0.7500000   0.0000000   2.8596642  )
        23           Mo1 tau(  23) = (   0.5000000   0.6410583   2.7884050  )
        24           O0  tau(  24) = (   0.7500000   0.9231240   2.8369661  )
        25           O0  tau(  25) = (   0.7500000   0.3589927   2.8372628  )
        26           O0  tau(  26) = (   0.5000000   0.0000000   3.1104807  )
        27           H2  tau(  27) = (  -0.0004900   0.7868222   1.7746059  )
        28           H2  tau(  28) = (   0.4995100   0.7868222   1.7746059  )
        29           H2  tau(  29) = (   0.1657500   0.0265270   1.7749026  )
        30           H2  tau(  30) = (   0.6657500   0.0265270   1.7749026  )

     number of k points=    10  Methfessel-Paxton smearing, width (Ry)=  0.0100
                       cart. coord. in units 2pi/alat
        k(    1) = (   0.0000000   0.0000000   0.0000000), wk =   0.1250000
        k(    2) = (   0.0000000   0.1949901   0.0000000), wk =   0.2500000
        k(    3) = (   0.0000000  -0.3899801   0.0000000), wk =   0.1250000
        k(    4) = (   0.2500000   0.0000000   0.0000000), wk =   0.2500000
        k(    5) = (   0.2500000   0.1949901   0.0000000), wk =   0.2500000
        k(    6) = (   0.2500000  -0.3899801   0.0000000), wk =   0.2500000
        k(    7) = (  -0.5000000   0.0000000   0.0000000), wk =   0.1250000
        k(    8) = (  -0.5000000   0.1949901   0.0000000), wk =   0.2500000
        k(    9) = (  -0.5000000  -0.3899801   0.0000000), wk =   0.1250000
        k(   10) = (  -0.2500000   0.1949901   0.0000000), wk =   0.2500000

     Largest allocated arrays     est. size (Mb)     dimensions
     Largest temporary arrays     est. size (Mb)     dimensions

     Check: negative/imaginary core charge=   -0.000003    0.000000

     Initial potential from superposition of free atoms
     Check: negative starting charge=   -0.002478

     starting charge  223.99143, renormalised to  224.00000

     negative rho (up, down):  0.248E-02 0.000E+00
     Number of +U iterations with fixed ns =  0
     Starting occupations:
 --- enter write_ns ---
 LDA+U parameters:
U( 2)     =  3.00000000
alpha( 2) =  0.00000000
atom    3   Tr[ns(na)] =   5.00000
    eigenvalues:
  0.500  0.500  0.500  0.500  0.500
    eigenvectors:
  1.000  0.000  0.000  0.000  0.000
  0.000  1.000  0.000  0.000  0.000
  0.000  0.000  1.000  0.000  0.000
  0.000  0.000  0.000  1.000  0.000
  0.000  0.000  0.000  0.000  1.000
    occupations:
  0.500  0.000  0.000  0.000  0.000
  0.000  0.500  0.000  0.000  0.000
  0.000  0.000  0.500  0.000  0.000
  0.000  0.000  0.000  0.500  0.000
  0.000  0.000  0.000  0.000  0.500
atom    4   Tr[ns(na)] =   5.00000
    eigenvalues:
  0.500  0.500  0.500  0.500  0.500
    eigenvectors:
  1.000  0.000  0.000  0.000  0.000
  0.000  1.000  0.000  0.000  0.000
  0.000  0.000  1.000  0.000  0.000
  0.000  0.000  0.000  1.000  0.000
  0.000  0.000  0.000  0.000  1.000
    occupations:
  0.500  0.000  0.000  0.000  0.000
  0.000  0.500  0.000  0.000  0.000
  0.000  0.000  0.500  0.000  0.000
  0.000  0.000  0.000  0.500  0.000
  0.000  0.000  0.000  0.000  0.500
atom    9   Tr[ns(na)] =   5.00000
    eigenvalues:
  0.500  0.500  0.500  0.500  0.500
    eigenvectors:
  1.000  0.000  0.000  0.000  0.000
  0.000  1.000  0.000  0.000  0.000
  0.000  0.000  1.000  0.000  0.000
  0.000  0.000  0.000  1.000  0.000
  0.000  0.000  0.000  0.000  1.000
    occupations:
  0.500  0.000  0.000  0.000  0.000
  0.000  0.500  0.000  0.000  0.000
  0.000  0.000  0.500  0.000  0.000
  0.000  0.000  0.000  0.500  0.000
  0.000  0.000  0.000  0.000  0.500
atom   10   Tr[ns(na)] =   5.00000
    eigenvalues:
  0.500  0.500  0.500  0.500  0.500
    eigenvectors:
  1.000  0.000  0.000  0.000  0.000
  0.000  1.000  0.000  0.000  0.000
  0.000  0.000  1.000  0.000  0.000
  0.000  0.000  0.000  1.000  0.000
  0.000  0.000  0.000  0.000  1.000
    occupations:
  0.500  0.000  0.000  0.000  0.000
  0.000  0.500  0.000  0.000  0.000
  0.000  0.000  0.500  0.000  0.000
  0.000  0.000  0.000  0.500  0.000
  0.000  0.000  0.000  0.000  0.500
atom   16   Tr[ns(na)] =   5.00000
    eigenvalues:
  0.500  0.500  0.500  0.500  0.500
    eigenvectors:
  1.000  0.000  0.000  0.000  0.000
  0.000  1.000  0.000  0.000  0.000
  0.000  0.000  1.000  0.000  0.000
  0.000  0.000  0.000  1.000  0.000
  0.000  0.000  0.000  0.000  1.000
    occupations:
  0.500  0.000  0.000  0.000  0.000
  0.000  0.500  0.000  0.000  0.000
  0.000  0.000  0.500  0.000  0.000
  0.000  0.000  0.000  0.500  0.000
  0.000  0.000  0.000  0.000  0.500
atom   17   Tr[ns(na)] =   5.00000
    eigenvalues:
  0.500  0.500  0.500  0.500  0.500
    eigenvectors:
  1.000  0.000  0.000  0.000  0.000
  0.000  1.000  0.000  0.000  0.000
  0.000  0.000  1.000  0.000  0.000
  0.000  0.000  0.000  1.000  0.000
  0.000  0.000  0.000  0.000  1.000
    occupations:
  0.500  0.000  0.000  0.000  0.000
  0.000  0.500  0.000  0.000  0.000
  0.000  0.000  0.500  0.000  0.000
  0.000  0.000  0.000  0.500  0.000
  0.000  0.000  0.000  0.000  0.500
atom   22   Tr[ns(na)] =   5.00000
    eigenvalues:
  0.500  0.500  0.500  0.500  0.500
    eigenvectors:
  1.000  0.000  0.000  0.000  0.000
  0.000  1.000  0.000  0.000  0.000
  0.000  0.000  1.000  0.000  0.000
  0.000  0.000  0.000  1.000  0.000
  0.000  0.000  0.000  0.000  1.000
    occupations:
[...]
  0.000  0.495 -0.000 -0.000 -0.003
  0.023 -0.000  0.486 -0.011 -0.000
 -0.091 -0.000 -0.011  0.626  0.000
 -0.000 -0.003 -0.000  0.000  0.630
atom    4   Tr[ns(na)] =   5.83460
    eigenvalues:
  0.450  0.522  0.584  0.624  0.737
    eigenvectors:
  0.000  0.000  0.986  0.013  0.001
  0.001  0.000  0.013  0.986  0.000
  0.999  0.000  0.000  0.001  0.000
  0.000  0.000  0.001  0.000  0.999
  0.000  1.000  0.000  0.000  0.000
    occupations:
  0.584  0.005  0.001 -0.004  0.000
  0.005  0.623  0.005 -0.001 -0.000
  0.001  0.005  0.450 -0.002  0.000
 -0.004 -0.001 -0.002  0.737  0.000
  0.000 -0.000  0.000  0.000  0.522
atom    9   Tr[ns(na)] =   5.83736
    eigenvalues:
  0.514  0.519  0.582  0.590  0.714
    eigenvectors:
  0.000  0.000  0.238  0.000  0.762
  0.000  0.000  0.000  1.000  0.000
  0.001  0.999  0.000  0.000  0.000
  0.000  0.000  0.762  0.000  0.238
  0.999  0.001  0.000  0.000  0.000
    occupations:
  0.683  0.000  0.002 -0.056 -0.002
  0.000  0.589 -0.000  0.000 -0.001
  0.002 -0.000  0.519 -0.001  0.000
 -0.056  0.000 -0.001  0.613  0.001
 -0.002 -0.001  0.000  0.001  0.514
atom   10   Tr[ns(na)] =   5.79382
    eigenvalues:
  0.486  0.498  0.504  0.652  0.757
    eigenvectors:
  0.041  0.954  0.000  0.000  0.004
  0.000  0.000  0.000  1.000  0.000
  0.959  0.041  0.000  0.000  0.000
  0.000  0.004  0.000  0.000  0.996
  0.000  0.000  1.000  0.000  0.000
    occupations:
  0.499  0.000 -0.002 -0.017 -0.000
  0.000  0.652 -0.001  0.000 -0.000
 -0.002 -0.001  0.487  0.000 -0.000
 -0.017  0.000  0.000  0.756  0.000
 -0.000 -0.000 -0.000  0.000  0.504
atom   16   Tr[ns(na)] =   5.84181
    eigenvalues:
  0.484  0.495  0.559  0.630  0.753
    eigenvectors:
  0.013  0.000  0.340  0.000  0.647
  0.000  0.999  0.000  0.001  0.000
  0.987  0.000  0.004  0.000  0.009
  0.000  0.000  0.656  0.000  0.344
  0.000  0.001  0.000  0.999  0.000
    occupations:
  0.683  0.000  0.023 -0.091 -0.000
  0.000  0.495 -0.000 -0.000 -0.003
  0.023 -0.000  0.486 -0.011 -0.000
 -0.091 -0.000 -0.011  0.626  0.000
 -0.000 -0.003 -0.000  0.000  0.630
atom   17   Tr[ns(na)] =   5.83440
    eigenvalues:
  0.450  0.522  0.584  0.624  0.737
    eigenvectors:
  0.000  0.000  0.986  0.013  0.001
  0.001  0.000  0.013  0.986  0.000
  0.999  0.000  0.000  0.001  0.000
  0.000  0.000  0.001  0.000  0.999
  0.000  1.000  0.000  0.000  0.000
    occupations:
  0.584  0.005  0.001 -0.004  0.000
  0.005  0.623  0.005 -0.001 -0.000
  0.001  0.005  0.450 -0.002  0.000
 -0.004 -0.001 -0.002  0.737  0.000
  0.000 -0.000  0.000  0.000  0.522
atom   22   Tr[ns(na)] =   5.83730
    eigenvalues:
  0.514  0.519  0.582  0.589  0.714
    eigenvectors:
  0.000  0.000  0.238  0.000  0.762
  0.000  0.000  0.000  1.000  0.000
  0.001  0.999  0.000  0.000  0.000
  0.000  0.000  0.762  0.000  0.238
  0.999  0.001  0.000  0.000  0.000
    occupations:
  0.683  0.000  0.002 -0.056 -0.002
  0.000  0.589 -0.000  0.000 -0.001
  0.002 -0.000  0.519 -0.001  0.000
 -0.056  0.000 -0.001  0.613  0.001
 -0.002 -0.001  0.000  0.001  0.514
atom   23   Tr[ns(na)] =   5.79368
    eigenvalues:
  0.486  0.498  0.504  0.652  0.757
    eigenvectors:
  0.041  0.954  0.000  0.000  0.004
  0.000  0.000  0.000  1.000  0.000
  0.959  0.041  0.000  0.000  0.000
  0.000  0.004  0.000  0.000  0.996
  0.000  0.000  1.000  0.000  0.000
    occupations:
  0.499  0.000 -0.002 -0.017 -0.000
  0.000  0.652 -0.001  0.000 -0.000
 -0.002 -0.001  0.486  0.000 -0.000
 -0.017  0.000  0.000  0.756  0.000
 -0.000 -0.000 -0.000  0.000  0.504
N of occupied +U levels =  46.6141164
 --- exit write_ns ---

     Threshold (ethr) on eigenvalues was too large:
     Diagonalizing with lowered threshold

     Davidson diagonalization with overlap
     ethr =  5.78E-09,  avg # of iterations =  3.0

[...]

     total energy              =   -1698.14547458 Ry
     Harris-Foulkes estimate   =   -1698.14547458 Ry
     estimated scf accuracy    <       0.00000002 Ry

     iteration # 14     ecut=    40.00 Ry     beta=0.70
     Davidson diagonalization with overlap
     ethr =  5.65E-12,  avg # of iterations =  1.0

     negative rho (up, down):  0.353E-02 0.000E+00

     End of self-consistent calculation
 --- enter write_ns ---
 LDA+U parameters:
U( 2)     =  3.00000000
alpha( 2) =  0.00000000
atom    3   Tr[ns(na)] =   5.84248
    eigenvalues:
  0.484  0.495  0.559  0.631  0.753
    eigenvectors:
  0.013  0.000  0.340  0.000  0.647
  0.000  0.999  0.000  0.001  0.000
  0.987  0.000  0.004  0.000  0.009
  0.000  0.000  0.656  0.000  0.344
  0.000  0.001  0.000  0.999  0.000
    occupations:
  0.683  0.000  0.023 -0.091 -0.000
  0.000  0.495 -0.000 -0.000 -0.003
  0.023 -0.000  0.486 -0.011 -0.000
 -0.091 -0.000 -0.011  0.626  0.000
 -0.000 -0.003 -0.000  0.000  0.630
atom    4   Tr[ns(na)] =   5.83441
    eigenvalues:
  0.450  0.522  0.584  0.624  0.737
    eigenvectors:
  0.000  0.000  0.986  0.013  0.001
  0.001  0.000  0.014  0.985  0.000
  0.999  0.000  0.000  0.001  0.000
  0.000  0.000  0.001  0.000  0.999
  0.000  1.000  0.000  0.000  0.000
    occupations:
  0.584  0.005  0.001 -0.004  0.000
  0.005  0.623  0.005 -0.001 -0.000
  0.001  0.005  0.450 -0.002  0.000
 -0.004 -0.001 -0.002  0.737  0.000
  0.000 -0.000  0.000  0.000  0.522
atom    9   Tr[ns(na)] =   5.83675
    eigenvalues:
  0.514  0.519  0.582  0.589  0.714
    eigenvectors:
  0.000  0.000  0.238  0.000  0.762
  0.000  0.000  0.000  1.000  0.000
  0.001  0.999  0.000  0.000  0.000
  0.000  0.000  0.762  0.000  0.238
  0.999  0.001  0.000  0.000  0.000
    occupations:
  0.683  0.000  0.002 -0.056 -0.002
  0.000  0.589 -0.000  0.000 -0.001
  0.002 -0.000  0.519 -0.001  0.000
 -0.056  0.000 -0.001  0.613  0.001
 -0.002 -0.001  0.000  0.001  0.514
atom   10   Tr[ns(na)] =   5.79313
    eigenvalues:
  0.486  0.498  0.504  0.652  0.757
    eigenvectors:
  0.041  0.954  0.000  0.000  0.004
  0.000  0.000  0.000  1.000  0.000
  0.959  0.041  0.000  0.000  0.000
  0.000  0.004  0.000  0.000  0.996
  0.000  0.000  1.000  0.000  0.000
    occupations:
  0.499  0.000 -0.002 -0.017 -0.000
  0.000  0.652 -0.001  0.000 -0.000
 -0.002 -0.001  0.486  0.000 -0.000
 -0.017  0.000  0.000  0.756  0.000
 -0.000 -0.000 -0.000  0.000  0.504
atom   16   Tr[ns(na)] =   5.84249
    eigenvalues:
  0.484  0.495  0.559  0.631  0.753
    eigenvectors:
  0.013  0.000  0.340  0.000  0.647
  0.000  0.999  0.000  0.001  0.000
  0.987  0.000  0.004  0.000  0.009
  0.000  0.000  0.656  0.000  0.344
  0.000  0.001  0.000  0.999  0.000
    occupations:
  0.683  0.000  0.023 -0.091 -0.000
  0.000  0.495 -0.000 -0.000 -0.003
  0.023 -0.000  0.486 -0.011 -0.000
 -0.091 -0.000 -0.011  0.626  0.000
 -0.000 -0.003 -0.000  0.000  0.630
atom   17   Tr[ns(na)] =   5.83441
    eigenvalues:
  0.450  0.522  0.584  0.624  0.737
    eigenvectors:
  0.000  0.000  0.986  0.013  0.001
  0.001  0.000  0.014  0.986  0.000
  0.999  0.000  0.000  0.001  0.000
  0.000  0.000  0.001  0.000  0.999
  0.000  1.000  0.000  0.000  0.000
    occupations:
  0.584  0.005  0.001 -0.004  0.000
  0.005  0.623  0.005 -0.001 -0.000
  0.001  0.005  0.450 -0.002  0.000
 -0.004 -0.001 -0.002  0.737  0.000
  0.000 -0.000  0.000  0.000  0.522
atom   22   Tr[ns(na)] =   5.83677
    eigenvalues:
  0.514  0.519  0.582  0.589  0.714
    eigenvectors:
  0.000  0.000  0.238  0.000  0.762
  0.000  0.000  0.000  1.000  0.000
  0.001  0.999  0.000  0.000  0.000
  0.000  0.000  0.762  0.000  0.238
  0.999  0.001  0.000  0.000  0.000
    occupations:
  0.683  0.000  0.002 -0.056 -0.002
  0.000  0.589 -0.000  0.000 -0.001
  0.002 -0.000  0.519 -0.001  0.000
 -0.056  0.000 -0.001  0.613  0.001
 -0.002 -0.001  0.000  0.001  0.514
atom   23   Tr[ns(na)] =   5.79312
    eigenvalues:
  0.486  0.498  0.504  0.652  0.757
    eigenvectors:
  0.041  0.954  0.000  0.000  0.004
  0.000  0.000  0.000  1.000  0.000
  0.959  0.041  0.000  0.000  0.000
  0.000  0.004  0.000  0.000  0.996
  0.000  0.000  1.000  0.000  0.000
    occupations:
  0.499  0.000 -0.002 -0.017 -0.000
  0.000  0.652 -0.001  0.000 -0.000
 -0.002 -0.001  0.486  0.000 -0.000
 -0.017  0.000  0.000  0.756  0.000
 -0.000 -0.000 -0.000  0.000  0.504
N of occupied +U levels =  46.6135700
 --- exit write_ns ---

[...]

          k = 0.2500-0.3900 0.0000 ( 29726 PWs)   bands (ev):

[...]

          k =-0.2500 0.1950 0.0000 ( 29746 PWs)   bands (ev):

   -62.2738 -62.2407 -62.1872 -62.1594 -62.0889 -62.0564 -62.0071 -61.9744
   -36.8137 -36.7658 -36.6867 -36.6840 -36.6077 -36.4781 -36.4289 -36.3861
   -36.3759 -36.3686 -36.3482 -36.2890 -36.2678 -36.2507 -36.2173 -36.2142
   -36.1904 -36.1059 -36.0948 -36.0361 -36.0245 -35.7579 -35.6888 -35.6570
   -20.7763 -20.5233 -19.8971 -19.7017 -19.6566 -19.5853 -19.4588 -19.3809
   -19.2484 -19.1272 -19.0460 -18.8712 -18.8103 -18.7820 -18.6647 -18.5582
   -18.1087 -17.9545  -8.8090  -8.6436  -8.0705  -7.8422  -7.6696  -7.6551
    -7.5782  -7.4972  -7.3358  -7.2744  -7.2132  -7.1377  -6.9356  -6.8707
    -6.6938  -6.3369  -6.2323  -6.1558  -6.1116  -5.9610  -5.8659  -5.8480
    -5.7271  -5.5849  -5.4595  -5.3395  -5.2702  -5.2072  -5.0169  -4.9434
    -4.7619  -4.6291  -4.5983  -4.4881  -4.4106  -4.3461  -4.2966  -4.2498
    -4.1525  -4.1438  -4.0499  -3.9138  -3.8066  -3.7028  -3.4906  -3.3594
    -3.3484  -3.2702  -3.1814  -3.0320  -2.9933  -2.7604  -2.6563  -2.4592
    -2.0207  -1.8417  -1.5997  -0.7744  -0.6326  -0.4950  -0.3317   0.1481
     0.1786   0.5094   0.7585   0.7824   0.9669   1.0935   1.1645   1.3688
     1.4988   1.5214   1.5499   1.6762   1.7746   1.8067   1.9430   2.0602
     2.3270   2.5069   3.3284   3.4696   3.7239   3.7329   3.9277   4.0803
     4.3408   4.3896   4.5521   4.6203   4.7029   4.8302   4.9421   5.1741
     5.5280   5.6875   5.7595   5.8866   5.9207   6.0922   6.3158   6.4027
     6.5540   6.6608   6.9700   6.9965   7.1056   7.2660   7.5147   7.5972
     7.9197   7.9344   8.1867   8.2806   8.2816   8.4752   8.6411   8.6567
     8.9093   8.9974   9.0690   9.2965   9.3928   9.4225   9.5038   9.5531
     9.5691   9.6036   9.8325   9.9780  10.0338  10.1852  10.2337  10.2729
    10.4747  10.4955  10.6369  10.7284  10.7358  10.9453  11.0715  11.0871
    11.0955  11.2498  11.5341  11.6062  11.6131  11.7395  11.8057  11.9094
    11.9605  12.0763  12.2721  12.3074  12.3457  12.3640  12.4484  12.6096
    12.6757  12.7550  12.8694  12.8925  12.9754  13.0875  13.1088  13.1905
    13.3232  13.4301  13.4328  13.5022  13.5104  13.6330  13.6640  13.7274
    13.8592  13.8886  13.9640  13.9849  14.1272  14.1512  14.2423  14.3480
    14.3935  14.4499  14.5041  14.5631  14.6080  14.7327  14.8409  14.8509
    14.9536  15.0449  15.0589  15.2131  15.2948  15.4072  15.4925  15.5482
    15.6451  15.6596  15.7606  15.8354  15.8932  15.9572  16.0470  16.0994
    16.1978  16.2751  16.2895  16.3428  16.3761  16.4491  16.5786  16.7063
    16.7172  16.7698  16.7745  16.8899  17.0041  17.0966  17.1802  17.2004
    17.2264  17.3100  17.3457  17.4098  17.4962  17.6794  17.6887  17.7970
    17.9029  17.9140  18.0945  18.1003  18.1823  18.2438  18.3396  18.3717
    18.4199  18.4340  18.5298  18.5644  18.6137  18.7926  18.8693  19.0163
    19.0631  19.1206  19.1413  19.2551  19.3042  19.4952  19.5704  19.6004
    19.7140  19.7794  19.8101  19.9068  19.9618  20.0737  20.1465  20.1622
    20.1955  20.2586  20.3408  20.3784  20.4084  20.4243  20.5133  20.5245
    20.6533  20.6946  20.7414  20.8205  20.9287  20.9638  21.0278  21.0707
    21.1156  21.2009  21.2141  21.3015  21.4247  21.4703  21.5531  21.6410

     the Fermi energy is     0.1134 ev

!    total energy              =   -1698.14547458 Ry
     Harris-Foulkes estimate   =   -1698.14547458 Ry
     estimated scf accuracy    <          2.8E-09 Ry

     The total energy is the sum of the following terms:

     one-electron contribution =  -21420.59112856 Ry
     hartree contribution      =   10732.15374168 Ry
     xc contribution           =    -286.62861213 Ry
     ewald contribution        =    9274.85644956 Ry
     Hubbard energy            =       2.06532345 Ry
     smearing contrib. (-TS)   =      -0.00124857 Ry

     convergence has been achieved in  14 iterations

     Forces acting on atoms (Ry/au):

     negative rho (up, down):  0.353E-02 0.000E+00
     atom    1 type  1   force =    -0.00252481   -0.00517341   -0.00035022
     atom    2 type  1   force =    -0.00005787    0.00988311    0.00011777
     atom    3 type  2   force =    -0.00026547   -0.00579158    0.00068626
     atom    4 type  2   force =    -0.00072962    0.00294208   -0.00009633
     atom    5 type  1   force =     0.00158072   -0.00936761   -0.00007980
     atom    6 type  1   force =     0.00003437    0.00696929   -0.00004611
     atom    7 type  1   force =     0.00019888    0.00065334   -0.00028762
     atom    8 type  1   force =     0.00317882    0.00077705    0.00034389
     atom    9 type  2   force =    -0.00194678   -0.00035590   -0.00000862
     atom   10 type  2   force =    -0.00000433    0.00084621    0.00052380
     atom   11 type  1   force =    -0.00021451   -0.04051108    0.00027204
     atom   12 type  1   force =     0.00029090    0.03951875    0.00029953
     atom   13 type  1   force =    -0.00018345    0.00017161   -0.00052706
     atom   14 type  1   force =    -0.00251737   -0.00517364   -0.00033488
     atom   15 type  1   force =    -0.00006136    0.00987772    0.00011796
     atom   16 type  2   force =    -0.00028990   -0.00579264    0.00068756
     atom   17 type  2   force =    -0.00073961    0.00294285   -0.00008961
     atom   18 type  1   force =     0.00158879   -0.00936459   -0.00007769
     atom   19 type  1   force =     0.00003915    0.00696688   -0.00004448
     atom   20 type  1   force =     0.00019728    0.00065297   -0.00029856
     atom   21 type  1   force =     0.00317678    0.00077828    0.00032182
     atom   22 type  2   force =    -0.00197313   -0.00035620   -0.00000631
     atom   23 type  2   force =    -0.00000221    0.00084603    0.00050431
     atom   24 type  1   force =    -0.00020536   -0.04051152    0.00027105
     atom   25 type  1   force =     0.00030206    0.03951949    0.00029768
     atom   26 type  1   force =    -0.00019184    0.00017024   -0.00052623
     atom   27 type  3   force =     0.00000043   -0.00015510   -0.00089685
     atom   28 type  3   force =     0.00000029   -0.00015303   -0.00089739
     atom   29 type  3   force =     0.00066392   -0.00040398    0.00006075
     atom   30 type  3   force =     0.00065523   -0.00040561    0.00006334

     Total force =     0.002430     Total SCF correction =     0.000166

     bfgs converged in   5 scf cycles and   4 bfgs steps
     (criteria: energy < 0.10E-03, force < 0.10E-02)

     End of BFGS Geometry Optimization

     Final energy   =   -1698.1454745767 Ry
Begin final coordinates

ATOMIC_POSITIONS (crystal)
O0       0.000000000   0.000000000   0.373508257    0   0   1
O0       0.000000000   0.500000000   0.380320150    0   0   1
Mo1      0.250000000   0.500000000   0.437678765    0   0   1
Mo1      0.000000000   0.000000000   0.446052411    0   0   1
O0       0.250000000   0.780000000   0.443460620    0   0   1
O0       0.250000000   0.220000000   0.443348866    0   0   1
O0       0.000000000   0.500000000   0.496167879    0   0   1
O0       0.000000000   0.000000000   0.518448985    0   0   1
Mo1      0.250000000   0.000000000   0.578293233    0   0   1
Mo1      0.000000000   0.500000000   0.563812400    0   0   1
O0       0.250000000   0.720000000   0.573786646    0   0   1
O0       0.250000000   0.280000000   0.573852806    0   0   1
O0       0.000000000   0.000000000   0.629029207    0   0   1
O0       0.500000000   0.000000000   0.373507197    0   0   1
O0       0.500000000   0.500000000   0.380318654    0   0   1
Mo1      0.750000000   0.500000000   0.437678621    0   0   1
Mo1      0.500000000   0.000000000   0.446051784    0   0   1
O0       0.750000000   0.780000000   0.443460515    0   0   1
O0       0.750000000   0.220000000   0.443348709    0   0   1
O0       0.500000000   0.500000000   0.496169304    0   0   1
O0       0.500000000   0.000000000   0.518450382    0   0   1
Mo1      0.750000000   0.000000000   0.578291273    0   0   1
Mo1      0.500000000   0.500000000   0.563813636    0   0   1
O0       0.750000000   0.720000000   0.573786410    0   0   1
O0       0.750000000   0.280000000   0.573852531    0   0   1
O0       0.500000000   0.000000000   0.629030492    0   0   1
H2      -0.000488521   0.613390432   0.358763836
H2       0.499511426   0.613392803   0.358763215
H2       0.165946557   0.020401693   0.359016800
H2       0.665949019   0.020402059   0.359016416
End final coordinates

     General routines

     Parallel routines
     Hubbard U routines

   This run was terminated on:  15:36: 5   5May2014

   JOB DONE.