     Program PWSCF v.5.0.2 (svn rev. 9656) starts on  9May2014 at  0: 8:28

     Current dimensions of program PWSCF are:
     Max number of different atomic species (ntypx) = 10
     Max number of k-points (npk) =  40000
     Max angular momentum in pseudopotentials (lmaxx) =  3
     Reading input from pwscf.in
Warning: card &CELL ignored
Warning: card / ignored

     Subspace diagonalization in iterative solution of the eigenvalue problem:
     a serial algorithm will be used

     bravais-lattice index     =            0
     lattice parameter (alat)  =      11.1872  a.u.
     unit-cell volume          =    7531.8600 (a.u.)^3
     number of atoms/cell      =           30
     number of atomic types    =            3
     number of electrons       =       216.00
     number of Kohn-Sham states=          324
     kinetic-energy cutoff     =      40.0000  Ry
     charge density cutoff     =     500.0000  Ry
     convergence threshold     =      1.0E-06
     mixing beta               =       0.7000
     number of iterations used =            8  plain     mixing
     Exchange-correlation      = SLA  PW   PBE  PBE ( 1 4 3 4 0)
     EXX-fraction              =        0.00
     nstep                     =           50

     celldm(1)=  11.187179  celldm(2)=   0.000000  celldm(3)=   0.000000
     celldm(4)=   0.000000  celldm(5)=   0.000000  celldm(6)=   0.000000

     crystal axes: (cart. coord. in units of alat)
               a(1) = (   1.000000   0.000000   0.000000 )
               a(2) = (   0.000000   1.180104   0.000000 )
               a(3) = (   0.000000   0.000000   4.558482 )

     reciprocal axes: (cart. coord. in units 2 pi/alat)
               b(1) = (  1.000000  0.000000  0.000000 )
               b(2) = (  0.000000  0.847383  0.000000 )
               b(3) = (  0.000000  0.000000  0.219371 )

     PseudoPot. # 1 for O  read from file:
     /home/camp/zhonxu/pseudo/o_pbe_v1.01.uspp.F.UPF
     MD5 check sum: 2bcb18d16ea4b960afae9ec6d52f22d2
     Pseudo is Ultrasoft + core correction, Zval =  6.0
     Generated by new atomic code, or converted to UPF format
     Using radial grid of  737 points,  5 beta functions with:
                l(1) =   0
                l(2) =   0
                l(3) =   1
                l(4) =   1
                l(5) =   2
     Q(r) pseudized with  8 coefficients,  rinner =    0.900   0.900   0.900
                                                       0.900   0.900

     PseudoPot. # 2 for Nb read from file:
     /home/camp/zhonxu/pseudo/nb_pbe_v1.uspp.F.UPF
     MD5 check sum: 573aab8a2fa660278ed4a62cd769473f
     Pseudo is Ultrasoft + core correction, Zval = 13.0
     Generated by new atomic code, or converted to UPF format
     Using radial grid of  887 points,  6 beta functions with:
                l(1) =   0
                l(2) =   0
                l(3) =   1
                l(4) =   1
                l(5) =   2
                l(6) =   2
     Q(r) pseudized with  6 coefficients,  rinner =    1.000   1.000   1.000
                                                       1.000   1.000

     PseudoPot. # 3 for H  read from file:
     /home/camp/zhonxu/pseudo/h_pbe_v1.uspp.F.UPF
     MD5 check sum: 3408e3ff4ec8b0a4e358431e7e038a48
     Pseudo is Ultrasoft, Zval =  1.0
     Generated by new atomic code, or converted to UPF format
     Using radial grid of  615 points,  2 beta functions with:
                l(1) =   0
                l(2) =   0
     Q(r) pseudized with  8 coefficients,  rinner =    0.700

     atomic species   valence    mass     pseudopotential
        O0             6.00    15.99940     O ( 1.00)
        Nb1           13.00    92.90640     Nb( 1.00)
        H2             1.00     1.00794     H ( 1.00)

     Simplified LDA+U calculation (l_max = 2) with parameters (eV):
     atomic species    L          U    alpha       J0     beta
        Nb1            2     4.0000   0.0000   0.0000   0.0000

     No symmetry found

   Cartesian axes

     site n.     atom                  positions (alat units)
         1           O0  tau(   1) = (   0.0000000   0.0000000   1.7080633  )
         2           O0  tau(   2) = (   0.0000000   0.5900519   1.7583889  )
         3           Nb1 tau(   3) = (   0.2500000   0.5900519   2.0066439  )
         4           Nb1 tau(   4) = (   0.0000000   0.0000000   2.0401487  )
         5           O0  tau(   5) = (   0.2500000   0.9322821   2.0429294  )
         6           O0  tau(   6) = (   0.2500000   0.2478218   2.0431118  )
         7           O0  tau(   7) = (   0.0000000   0.5900519   2.2709903  )
         8           O0  tau(   8) = (   0.0000000   0.0000000   2.3999042  )
         9           Nb1 tau(   9) = (   0.2500000   0.0000000   2.6489340  )
        10           Nb1 tau(  10) = (   0.0000000   0.5900519   2.5868019  )
        11           O0  tau(  11) = (   0.2500000   0.8378738   2.6444667  )
        12           O0  tau(  12) = (   0.2500000   0.3422301   2.6445123  )
        13           O0  tau(  13) = (   0.0000000   0.0000000   2.8518777  )
        14           O0  tau(  14) = (   0.5000000   0.0000000   1.7080633  )
        15           O0  tau(  15) = (   0.5000000   0.5900519   1.7583889  )
        16           Nb1 tau(  16) = (   0.7500000   0.5900519   2.0066439  )
        17           Nb1 tau(  17) = (   0.5000000   0.0000000   2.0401487  )
        18           O0  tau(  18) = (   0.7500000   0.9322821   2.0429294  )
        19           O0  tau(  19) = (   0.7500000   0.2478218   2.0431118  )
        20           O0  tau(  20) = (   0.5000000   0.5900519   2.2709903  )
        21           O0  tau(  21) = (   0.5000000   0.0000000   2.3999497  )
        22           Nb1 tau(  22) = (   0.7500000   0.0000000   2.6489340  )
        23           Nb1 tau(  23) = (   0.5000000   0.5900519   2.5867563  )
        24           O0  tau(  24) = (   0.7500000   0.8378738   2.6444667  )
        25           O0  tau(  25) = (   0.7500000   0.3422301   2.6445123  )
        26           O0  tau(  26) = (   0.5000000   0.0000000   2.8518777  )
        27           H2  tau(  27) = (  -0.0004200   0.5934860   1.5928705  )
        28           H2  tau(  28) = (   0.4995800   0.5932146   1.5928249  )
        29           H2  tau(  29) = (   0.1513000  -0.0014397   1.6372701  )
        30           H2  tau(  30) = (   0.6512900  -0.0014397   1.6372701  )

     number of k points=    10  Methfessel-Paxton smearing, width (Ry)=  0.0100
                       cart. coord. in units 2pi/alat
        k(    1) = (   0.0000000   0.0000000   0.0000000), wk =   0.1250000
        k(    2) = (   0.0000000   0.2118458   0.0000000), wk =   0.2500000
        k(    3) = (   0.0000000  -0.4236915   0.0000000), wk =   0.1250000
        k(    4) = (   0.2500000   0.0000000   0.0000000), wk =   0.2500000
        k(    5) = (   0.2500000   0.2118458   0.0000000), wk =   0.2500000
        k(    6) = (   0.2500000  -0.4236915   0.0000000), wk =   0.2500000
        k(    7) = (  -0.5000000   0.0000000   0.0000000), wk =   0.1250000
        k(    8) = (  -0.5000000   0.2118458   0.0000000), wk =   0.2500000
        k(    9) = (  -0.5000000  -0.4236915   0.0000000), wk =   0.1250000
        k(   10) = (  -0.2500000   0.2118458   0.0000000), wk =   0.2500000

     Largest allocated arrays     est. size (Mb)     dimensions
     Largest temporary arrays     est. size (Mb)     dimensions

     Check: negative/imaginary core charge=   -0.000003    0.000000

     Initial potential from superposition of free atoms
     Check: negative starting charge=   -0.003843

     starting charge  215.97807, renormalised to  216.00000

     negative rho (up, down):  0.384E-02 0.000E+00
     Number of +U iterations with fixed ns =  0
     Starting occupations:
 --- enter write_ns ---
 LDA+U parameters:
U( 2)     =  4.00000000
alpha( 2) =  0.00000000
atom    3   Tr[ns(na)] =   3.00000
    eigenvalues:
  0.300  0.300  0.300  0.300  0.300
    eigenvectors:
  1.000  0.000  0.000  0.000  0.000
  0.000  1.000  0.000  0.000  0.000
  0.000  0.000  1.000  0.000  0.000
  0.000  0.000  0.000  1.000  0.000
  0.000  0.000  0.000  0.000  1.000
    occupations:
  0.300  0.000  0.000  0.000  0.000
  0.000  0.300  0.000  0.000  0.000
  0.000  0.000  0.300  0.000  0.000
  0.000  0.000  0.000  0.300  0.000
  0.000  0.000  0.000  0.000  0.300
atom    4   Tr[ns(na)] =   3.00000
    eigenvalues:
  0.300  0.300  0.300  0.300  0.300
    eigenvectors:
  1.000  0.000  0.000  0.000  0.000
  0.000  1.000  0.000  0.000  0.000
  0.000  0.000  1.000  0.000  0.000
  0.000  0.000  0.000  1.000  0.000
  0.000  0.000  0.000  0.000  1.000
    occupations:
  0.300  0.000  0.000  0.000  0.000
  0.000  0.300  0.000  0.000  0.000
  0.000  0.000  0.300  0.000  0.000
  0.000  0.000  0.000  0.300  0.000
  0.000  0.000  0.000  0.000  0.300
atom    9   Tr[ns(na)] =   3.00000
    eigenvalues:
  0.300  0.300  0.300  0.300  0.300
    eigenvectors:
  1.000  0.000  0.000  0.000  0.000
  0.000  1.000  0.000  0.000  0.000
  0.000  0.000  1.000  0.000  0.000
  0.000  0.000  0.000  1.000  0.000
  0.000  0.000  0.000  0.000  1.000
    occupations:
  0.300  0.000  0.000  0.000  0.000
  0.000  0.300  0.000  0.000  0.000
  0.000  0.000  0.300  0.000  0.000
  0.000  0.000  0.000  0.300  0.000
  0.000  0.000  0.000  0.000  0.300
atom   10   Tr[ns(na)] =   3.00000
    eigenvalues:
  0.300  0.300  0.300  0.300  0.300
    eigenvectors:
  1.000  0.000  0.000  0.000  0.000
  0.000  1.000  0.000  0.000  0.000
  0.000  0.000  1.000  0.000  0.000
  0.000  0.000  0.000  1.000  0.000
  0.000  0.000  0.000  0.000  1.000
    occupations:
  0.300  0.000  0.000  0.000  0.000
  0.000  0.300  0.000  0.000  0.000
  0.000  0.000  0.300  0.000  0.000
  0.000  0.000  0.000  0.300  0.000
  0.000  0.000  0.000  0.000  0.300
atom   16   Tr[ns(na)] =   3.00000
    eigenvalues:
  0.300  0.300  0.300  0.300  0.300
    eigenvectors:
  1.000  0.000  0.000  0.000  0.000
  0.000  1.000  0.000  0.000  0.000
  0.000  0.000  1.000  0.000  0.000
  0.000  0.000  0.000  1.000  0.000
  0.000  0.000  0.000  0.000  1.000
    occupations:
  0.300  0.000  0.000  0.000  0.000
  0.000  0.300  0.000  0.000  0.000
  0.000  0.000  0.300  0.000  0.000
  0.000  0.000  0.000  0.300  0.000
  0.000  0.000  0.000  0.000  0.300
atom   17   Tr[ns(na)] =   3.00000
    eigenvalues:
  0.300  0.300  0.300  0.300  0.300
    eigenvectors:
  1.000  0.000  0.000  0.000  0.000
  0.000  1.000  0.000  0.000  0.000
  0.000  0.000  1.000  0.000  0.000
  0.000  0.000  0.000  1.000  0.000
  0.000  0.000  0.000  0.000  1.000
    occupations:
  0.300  0.000  0.000  0.000  0.000
  0.000  0.300  0.000  0.000  0.000
  0.000  0.000  0.300  0.000  0.000
  0.000  0.000  0.000  0.300  0.000
  0.000  0.000  0.000  0.000  0.300
atom   22   Tr[ns(na)] =   3.00000
    eigenvalues:
  0.300  0.300  0.300  0.300  0.300
    eigenvectors:
  1.000  0.000  0.000  0.000  0.000
  0.000  1.000  0.000  0.000  0.000
  0.000  0.000  1.000  0.000  0.000
  0.000  0.000  0.000  1.000  0.000
  0.000  0.000  0.000  0.000  1.000
    occupations:
  0.300  0.000  0.000  0.000  0.000
  0.000  0.300  0.000  0.000  0.000
  0.000  0.000  0.300  0.000  0.000
  0.000  0.000  0.000  0.300  0.000
[...]
  0.000  0.000  0.000  0.616  0.384
  0.992  0.008  0.000  0.000  0.000
    occupations:
  0.687  0.000  0.001 -0.087 -0.000
  0.000  0.509 -0.000  0.000  0.000
  0.001 -0.000  0.395 -0.000 -0.004
 -0.087  0.000 -0.000  0.645  0.000
 -0.000  0.000 -0.004  0.000  0.346
atom    4   Tr[ns(na)] =   5.22640
    eigenvalues:
  0.391  0.411  0.551  0.585  0.675
    eigenvectors:
  0.000  0.004  0.000  0.996  0.000
  0.000  0.995  0.000  0.004  0.001
  1.000  0.000  0.000  0.000  0.000
  0.000  0.001  0.000  0.000  0.999
  0.000  0.000  1.000  0.000  0.000
    occupations:
  0.584  0.011 -0.000 -0.000  0.000
  0.011  0.412  0.000 -0.009  0.000
 -0.000  0.000  0.391  0.000  0.001
 -0.000 -0.009  0.000  0.674  0.000
  0.000  0.000  0.001  0.000  0.551
atom    9   Tr[ns(na)] =   5.27998
    eigenvalues:
  0.448  0.461  0.504  0.612  0.614
    eigenvectors:
  0.885  0.000  0.000  0.115  0.000
  0.000  0.000  0.000  0.001  0.999
  0.000  0.000  1.000  0.000  0.000
  0.115  0.000  0.000  0.885  0.001
  0.000  1.000  0.000  0.000  0.000
    occupations:
  0.467 -0.000 -0.000  0.052  0.000
 -0.000  0.614  0.000 -0.000  0.000
 -0.000  0.000  0.504  0.000  0.000
  0.052 -0.000  0.000  0.594 -0.000
  0.000  0.000  0.000 -0.000  0.461
atom   10   Tr[ns(na)] =   5.11405
    eigenvalues:
  0.349  0.485  0.492  0.512  0.719
    eigenvectors:
  0.000  0.995  0.000  0.000  0.005
  0.000  0.000  1.000  0.000  0.000
  1.000  0.000  0.000  0.000  0.000
  0.000  0.005  0.000  0.000  0.995
  0.000  0.000  0.000  1.000  0.000
    occupations:
  0.486  0.000  0.000 -0.016 -0.000
  0.000  0.492 -0.000 -0.000  0.000
  0.000 -0.000  0.349 -0.000  0.000
 -0.016 -0.000 -0.000  0.718 -0.000
 -0.000  0.000  0.000 -0.000  0.512
atom   16   Tr[ns(na)] =   5.16450
    eigenvalues:
  0.345  0.396  0.509  0.577  0.755
    eigenvectors:
  0.000  0.000  0.000  0.384  0.616
  0.000  0.000  1.000  0.000  0.000
  0.008  0.992  0.000  0.000  0.000
  0.000  0.000  0.000  0.616  0.384
  0.992  0.008  0.000  0.000  0.000
    occupations:
  0.687  0.000  0.001 -0.087  0.000
  0.000  0.509  0.000  0.000  0.000
  0.001  0.000  0.395 -0.000 -0.004
 -0.087  0.000 -0.000  0.645 -0.000
  0.000  0.000 -0.004 -0.000  0.346
atom   17   Tr[ns(na)] =   5.22645
    eigenvalues:
  0.391  0.411  0.551  0.585  0.675
    eigenvectors:
  0.000  0.004  0.000  0.996  0.000
  0.000  0.995  0.000  0.004  0.001
  1.000  0.000  0.000  0.000  0.000
  0.000  0.001  0.000  0.000  0.999
  0.000  0.000  1.000  0.000  0.000
    occupations:
  0.584  0.011 -0.000 -0.000  0.000
  0.011  0.412  0.000 -0.009  0.000
 -0.000  0.000  0.391  0.000  0.001
 -0.000 -0.009  0.000  0.674  0.000
  0.000  0.000  0.001  0.000  0.551
atom   22   Tr[ns(na)] =   5.27998
    eigenvalues:
  0.448  0.461  0.504  0.612  0.614
    eigenvectors:
  0.885  0.000  0.000  0.115  0.000
  0.000  0.000  0.000  0.001  0.999
  0.000  0.000  1.000  0.000  0.000
  0.115  0.000  0.000  0.885  0.001
  0.000  1.000  0.000  0.000  0.000
    occupations:
  0.467 -0.000 -0.000  0.052  0.000
 -0.000  0.614  0.000 -0.000  0.000
 -0.000  0.000  0.504  0.000  0.000
  0.052 -0.000  0.000  0.594 -0.000
  0.000  0.000  0.000 -0.000  0.461
atom   23   Tr[ns(na)] =   5.11370
    eigenvalues:
  0.349  0.485  0.491  0.512  0.719
    eigenvectors:
  0.000  0.995  0.000  0.000  0.005
  0.000  0.000  1.000  0.000  0.000
  1.000  0.000  0.000  0.000  0.000
  0.000  0.005  0.000  0.000  0.995
  0.000  0.000  0.000  1.000  0.000
    occupations:
  0.486  0.000 -0.000 -0.016 -0.000
  0.000  0.491 -0.000 -0.000  0.000
 -0.000 -0.000  0.349 -0.000  0.000
 -0.016 -0.000 -0.000  0.718 -0.000
 -0.000  0.000  0.000 -0.000  0.512
N of occupied +U levels =  41.5695755
 --- exit write_ns ---

     Threshold (ethr) on eigenvalues was too large:
     Diagonalizing with lowered threshold

     Davidson diagonalization with overlap
     ethr =  1.67E-09,  avg # of iterations =  3.0

[...]

     total energy              =   -1527.38178905 Ry
     Harris-Foulkes estimate   =   -1527.38178906 Ry
     estimated scf accuracy    <       0.00000002 Ry

     iteration #  9     ecut=    40.00 Ry     beta=0.70
     Davidson diagonalization with overlap
     ethr =  1.04E-11,  avg # of iterations =  1.0

     negative rho (up, down):  0.362E-02 0.000E+00

     End of self-consistent calculation
 --- enter write_ns ---
 LDA+U parameters:
U( 2)     =  4.00000000
alpha( 2) =  0.00000000
atom    3   Tr[ns(na)] =   5.16434
    eigenvalues:
  0.345  0.396  0.509  0.577  0.755
    eigenvectors:
  0.000  0.000  0.000  0.384  0.616
  0.000  0.000  1.000  0.000  0.000
  0.008  0.992  0.000  0.000  0.000
  0.000  0.000  0.000  0.616  0.384
  0.992  0.008  0.000  0.000  0.000
    occupations:
  0.687  0.000  0.001 -0.087 -0.000
  0.000  0.509 -0.000  0.000  0.000
  0.001 -0.000  0.395 -0.000 -0.004
 -0.087  0.000 -0.000  0.645  0.000
 -0.000  0.000 -0.004  0.000  0.346
atom    4   Tr[ns(na)] =   5.22610
    eigenvalues:
  0.391  0.411  0.551  0.585  0.675
    eigenvectors:
  0.000  0.004  0.000  0.996  0.000
  0.000  0.995  0.000  0.004  0.001
  1.000  0.000  0.000  0.000  0.000
  0.000  0.001  0.000  0.000  0.999
  0.000  0.000  1.000  0.000  0.000
    occupations:
  0.584  0.011 -0.000 -0.000  0.000
  0.011  0.412  0.000 -0.009  0.000
 -0.000  0.000  0.391  0.000  0.001
 -0.000 -0.009  0.000  0.674  0.000
  0.000  0.000  0.001  0.000  0.551
atom    9   Tr[ns(na)] =   5.28035
    eigenvalues:
  0.448  0.461  0.504  0.612  0.614
    eigenvectors:
  0.885  0.000  0.000  0.115  0.000
  0.000  0.000  0.000  0.001  0.999
  0.000  0.000  1.000  0.000  0.000
  0.115  0.000  0.000  0.885  0.001
  0.000  1.000  0.000  0.000  0.000
    occupations:
  0.467 -0.000 -0.000  0.052  0.000
 -0.000  0.614  0.000 -0.000  0.000
 -0.000  0.000  0.504  0.000  0.000
  0.052 -0.000  0.000  0.594 -0.000
  0.000  0.000  0.000 -0.000  0.461
atom   10   Tr[ns(na)] =   5.11415
    eigenvalues:
  0.349  0.485  0.492  0.512  0.719
    eigenvectors:
  0.000  0.995  0.000  0.000  0.005
  0.000  0.000  1.000  0.000  0.000
  1.000  0.000  0.000  0.000  0.000
  0.000  0.005  0.000  0.000  0.995
  0.000  0.000  0.000  1.000  0.000
    occupations:
  0.486  0.000  0.000 -0.016 -0.000
  0.000  0.492 -0.000 -0.000  0.000
  0.000 -0.000  0.349 -0.000  0.000
 -0.016 -0.000 -0.000  0.718 -0.000
 -0.000  0.000  0.000 -0.000  0.512
atom   16   Tr[ns(na)] =   5.16434
    eigenvalues:
  0.345  0.396  0.509  0.577  0.755
    eigenvectors:
  0.000  0.000  0.000  0.384  0.616
  0.000  0.000  1.000  0.000  0.000
  0.008  0.992  0.000  0.000  0.000
  0.000  0.000  0.000  0.616  0.384
  0.992  0.008  0.000  0.000  0.000
    occupations:
  0.687  0.000  0.001 -0.087  0.000
  0.000  0.509  0.000  0.000  0.000
  0.001  0.000  0.395 -0.000 -0.004
 -0.087  0.000 -0.000  0.645 -0.000
  0.000  0.000 -0.004 -0.000  0.346
atom   17   Tr[ns(na)] =   5.22616
    eigenvalues:
  0.391  0.411  0.551  0.585  0.675
    eigenvectors:
  0.000  0.004  0.000  0.996  0.000
  0.000  0.995  0.000  0.004  0.001
  1.000  0.000  0.000  0.000  0.000
  0.000  0.001  0.000  0.000  0.999
  0.000  0.000  1.000  0.000  0.000
    occupations:
  0.584  0.011 -0.000 -0.000  0.000
  0.011  0.412  0.000 -0.009  0.000
 -0.000  0.000  0.391  0.000  0.001
 -0.000 -0.009  0.000  0.674  0.000
  0.000  0.000  0.001  0.000  0.551
atom   22   Tr[ns(na)] =   5.28035
    eigenvalues:
  0.448  0.461  0.504  0.612  0.614
    eigenvectors:
  0.885  0.000  0.000  0.115  0.000
  0.000  0.000  0.000  0.001  0.999
  0.000  0.000  1.000  0.000  0.000
  0.115  0.000  0.000  0.885  0.001
  0.000  1.000  0.000  0.000  0.000
    occupations:
  0.467 -0.000 -0.000  0.052  0.000
 -0.000  0.614  0.000 -0.000  0.000
 -0.000  0.000  0.504  0.000  0.000
  0.052 -0.000  0.000  0.594 -0.000
  0.000  0.000  0.000 -0.000  0.461
atom   23   Tr[ns(na)] =   5.11416
    eigenvalues:
  0.349  0.485  0.492  0.512  0.719
    eigenvectors:
  0.000  0.995  0.000  0.000  0.005
  0.000  0.000  1.000  0.000  0.000
  1.000  0.000  0.000  0.000  0.000
  0.000  0.005  0.000  0.000  0.995
  0.000  0.000  0.000  1.000  0.000
    occupations:
  0.486  0.000 -0.000 -0.016 -0.000
  0.000  0.492 -0.000 -0.000  0.000
 -0.000 -0.000  0.349 -0.000  0.000
 -0.016 -0.000 -0.000  0.718 -0.000
 -0.000  0.000  0.000 -0.000  0.512
N of occupied +U levels =  41.5699655
 --- exit write_ns ---

[...]

          k = 0.2500-0.4237 0.0000 ( 32188 PWs)   bands (ev):

[...]

          k =-0.2500 0.2118 0.0000 ( 32165 PWs)   bands (ev):

   -56.2316 -56.1652 -55.8763 -55.8202 -55.8136 -55.7556 -55.4808 -55.4248
   -33.0497 -32.4378 -32.3239 -32.3106 -32.2983 -32.2980 -32.2498 -32.2347
   -32.2288 -32.1714 -32.1621 -32.1261 -32.1147 -32.0341 -31.8060 -31.7874
   -31.6752 -31.6599 -31.6380 -31.6347 -31.6075 -31.4999 -31.3726 -31.0740
   -20.4488 -20.3194 -19.3085 -19.0804 -18.9592 -18.8631 -18.8368 -18.7707
   -18.7663 -18.6114 -18.6076 -18.5705 -18.1506 -18.0557 -17.9825 -17.9362
   -17.8997 -17.7706  -9.0075  -8.6389  -7.4860  -7.0683  -6.9089  -6.6619
    -6.5001  -6.4308  -6.3799  -6.2265  -6.2116  -6.1414  -6.1249  -5.9034
    -5.8726  -5.8235  -5.7439  -5.5458  -5.5179  -5.3344  -5.0521  -5.0475
    -4.9961  -4.9145  -4.7931  -4.5995  -4.4225  -4.3670  -4.2782  -4.2619
    -4.2385  -4.1673  -3.9955  -3.9536  -3.9248  -3.8672  -3.8252  -3.8168
    -3.5624  -3.5281  -3.4989  -3.4298  -3.3825  -3.3006  -3.1660  -3.1330
    -3.0172  -2.9752  -2.8491  -2.7436  -2.6448  -2.5519  -2.4810  -2.1859
    -0.9114   0.0762   0.1550   1.0451   1.1530   1.4561   1.6667   1.7750
     1.7789   1.9628   1.9652   2.2054   2.2321   2.3660   2.4828   2.4858
     2.5660   2.6575   2.7137   2.8577   2.9390   2.9503   3.0214   3.0980
     3.3078   3.3242   3.6917   4.2319   4.4599   4.5580   4.6806   4.7765
     4.9140   5.0226   5.0245   5.1646   5.2906   5.3907   5.4167   5.6012
     5.7449   5.8549   5.8988   5.9938   6.2019   6.2875   6.4075   6.4921
     6.5211   6.5376   6.6251   6.7948   6.9290   6.9725   7.1855   7.2491
     7.3199   7.5244   7.7241   7.7980   7.9316   7.9515   8.1483   8.1641
     8.2367   8.3234   8.4403   8.6459   8.7116   8.8563   9.0051   9.0798
     9.0903   9.2315   9.3272   9.4399   9.5533   9.5956   9.6533   9.7755
     9.8436   9.9841   9.9979  10.1789  10.2020  10.4044  10.4275  10.6191
    10.6812  10.7639  10.9454  10.9646  11.0201  11.0722  11.1636  11.2089
    11.2756  11.3958  11.4553  11.4622  11.5382  11.5685  11.7575  11.8835
    11.9202  12.0696  12.0933  12.1716  12.2367  12.2894  12.4469  12.4878
    12.6446  12.6706  12.7249  12.7743  12.8702  12.8717  12.9462  12.9588
    13.0345  13.0877  13.1775  13.2661  13.3112  13.4280  13.4927  13.5086
    13.6139  13.7102  13.7711  13.8995  13.9430  13.9446  13.9909  14.0812
    14.1160  14.2801  14.3329  14.3995  14.4840  14.6044  14.6129  14.8614
    14.8960  14.9089  15.0260  15.1446  15.2054  15.2628  15.2629  15.3791
    15.4018  15.4088  15.5192  15.5246  15.5952  15.7319  15.7662  15.8175
    15.8235  15.9063  16.0356  16.0391  16.0692  16.2699  16.2732  16.3960
    16.4584  16.5961  16.6175  16.6533  16.7364  16.7385  16.7860  16.8828
    16.9673  17.0108  17.0466  17.2362  17.2879  17.2902  17.4020  17.4452
    17.4940  17.5673  17.6339  17.6970  17.7425  17.8506  17.8715  18.0033
    18.0398  18.0556  18.1092  18.2634  18.3352  18.4442  18.5090  18.6039
    18.6368  18.7294  18.7339  18.8059  18.8765  18.9228  18.9365  19.0483
    19.1633  19.2006  19.2825  19.3061  19.3650  19.3801  19.4010  19.5271
    19.5476  19.6054  19.6463  19.7206

     the Fermi energy is     1.0296 ev

!    total energy              =   -1527.38178905 Ry
     Harris-Foulkes estimate   =   -1527.38178906 Ry
     estimated scf accuracy    <          4.2E-09 Ry

     The total energy is the sum of the following terms:

     one-electron contribution =  -18264.77124405 Ry
     hartree contribution      =    9159.03322093 Ry
     xc contribution           =    -279.71006093 Ry
     ewald contribution        =    7855.28347717 Ry
     Hubbard energy            =       2.78283638 Ry
     smearing contrib. (-TS)   =      -0.00001855 Ry

     convergence has been achieved in   9 iterations

     Forces acting on atoms (Ry/au):

     negative rho (up, down):  0.362E-02 0.000E+00
     atom    1 type  1   force =     0.00069138   -0.00033509    0.00002768
     atom    2 type  1   force =    -0.00051414    0.00049508    0.00076105
     atom    3 type  2   force =     0.00085432   -0.00030033   -0.00003064
     atom    4 type  2   force =    -0.00379473    0.00017184   -0.00015094
     atom    5 type  1   force =     0.00045502   -0.02726591   -0.00004255
     atom    6 type  1   force =     0.00053241    0.02718299   -0.00000859
     atom    7 type  1   force =    -0.00001064    0.00006607   -0.00039374
     atom    8 type  1   force =     0.00152614    0.00000172    0.00029543
     atom    9 type  2   force =    -0.00017503    0.00000429    0.00029594
     atom   10 type  2   force =     0.00008730   -0.00000773   -0.00036223
     atom   11 type  1   force =    -0.00001327   -0.03730399   -0.00012444
     atom   12 type  1   force =    -0.00001067    0.03729858   -0.00011965
     atom   13 type  1   force =     0.00030669    0.00000068    0.00033485
     atom   14 type  1   force =     0.00069302   -0.00032290    0.00001484
     atom   15 type  1   force =    -0.00051763    0.00047862   -0.00043354
     atom   16 type  2   force =     0.00094889   -0.00030275   -0.00003059
     atom   17 type  2   force =    -0.00379296    0.00016988   -0.00013609
     atom   18 type  1   force =     0.00047722   -0.02726521   -0.00004354
     atom   19 type  1   force =     0.00053489    0.02718395   -0.00000897
     atom   20 type  1   force =    -0.00001073    0.00005617   -0.00043338
     atom   21 type  1   force =     0.00152557    0.00000087    0.00026989
     atom   22 type  2   force =    -0.00018632    0.00000439    0.00029593
     atom   23 type  2   force =     0.00008733   -0.00000976   -0.00036521
     atom   24 type  1   force =    -0.00001173   -0.03730389   -0.00012439
     atom   25 type  1   force =    -0.00001130    0.03729866   -0.00011963
     atom   26 type  1   force =     0.00030664    0.00000074    0.00033303
     atom   27 type  3   force =    -0.00000722   -0.00020101   -0.00032384
     atom   28 type  3   force =    -0.00000407   -0.00021823    0.00074465
     atom   29 type  3   force =     0.00001668    0.00021226   -0.00006182
     atom   30 type  3   force =     0.00001691    0.00020999   -0.00005952

     Total force =     0.001699     Total SCF correction =     0.000147

     bfgs converged in  12 scf cycles and  11 bfgs steps
     (criteria: energy < 0.10E-03, force < 0.10E-02)

     End of BFGS Geometry Optimization

     Final energy   =   -1527.3817890533 Ry
Begin final coordinates

ATOMIC_POSITIONS (crystal)
O0       0.000000000   0.000000000   0.374715288    0   0   1
O0       0.000000000   0.500000000   0.385075170    0   0   1
Nb1      0.250000000   0.500000000   0.440143795    0   0   1
Nb1      0.000000000   0.000000000   0.447606950    0   0   1
O0       0.250000000   0.790000000   0.447413354    0   0   1
O0       0.250000000   0.210000000   0.447399026    0   0   1
O0       0.000000000   0.500000000   0.497273407    0   0   1
O0       0.000000000   0.000000000   0.526504485    0   0   1
Nb1      0.250000000   0.000000000   0.581245432    0   0   1
Nb1      0.000000000   0.500000000   0.567256932    0   0   1
O0       0.250000000   0.710000000   0.581899016    0   0   1
O0       0.250000000   0.290000000   0.581898741    0   0   1
O0       0.000000000   0.000000000   0.625523673    0   0   1
O0       0.500000000   0.000000000   0.374715097    0   0   1
O0       0.500000000   0.500000000   0.385086839    0   0   1
Nb1      0.750000000   0.500000000   0.440143790    0   0   1
Nb1      0.500000000   0.000000000   0.447606314    0   0   1
O0       0.750000000   0.790000000   0.447413202    0   0   1
O0       0.750000000   0.210000000   0.447399301    0   0   1
O0       0.500000000   0.500000000   0.497275339    0   0   1
O0       0.500000000   0.000000000   0.526506590    0   0   1
Nb1      0.750000000   0.000000000   0.581245432    0   0   1
Nb1      0.500000000   0.500000000   0.567258592    0   0   1
O0       0.750000000   0.710000000   0.581898997    0   0   1
O0       0.750000000   0.290000000   0.581898758    0   0   1
O0       0.500000000   0.000000000   0.625523875    0   0   1
H2      -0.000475884   0.502328974   0.348831951
H2       0.499524049   0.502096038   0.348822072
H2       0.151692387  -0.000461658   0.359454461
H2       0.651692472  -0.000470190   0.359454120
End final coordinates

     General routines

     Parallel routines
     Hubbard U routines

   This run was terminated on:   9:11:27   9May2014

   JOB DONE.