     Program PWSCF v.5.0.2 (svn rev. 9656) starts on  1Jun2014 at 12:51:32

     Current dimensions of program PWSCF are:
     Max number of different atomic species (ntypx) = 10
     Max number of k-points (npk) =  40000
     Max angular momentum in pseudopotentials (lmaxx) =  3
     Reading input from pwscf.in
Warning: card &CELL ignored
Warning: card / ignored

     Subspace diagonalization in iterative solution of the eigenvalue problem:
     a serial algorithm will be used

     bravais-lattice index     =            0
     lattice parameter (alat)  =      10.1289  a.u.
     unit-cell volume          =    6836.7721 (a.u.)^3
     number of atoms/cell      =           33
     number of atomic types    =            3
     number of electrons       =       245.00
     number of Kohn-Sham states=          367
     kinetic-energy cutoff     =      40.0000  Ry
     charge density cutoff     =     500.0000  Ry
     convergence threshold     =      1.0E-06
     mixing beta               =       0.7000
     number of iterations used =            8  plain     mixing
     Exchange-correlation      = SLA  PW   PBE  PBE ( 1 4 3 4 0)
     EXX-fraction              =        0.00
     nstep                     =           50

     celldm(1)=  10.128932  celldm(2)=   0.000000  celldm(3)=   0.000000
     celldm(4)=   0.000000  celldm(5)=   0.000000  celldm(6)=   0.000000

     crystal axes: (cart. coord. in units of alat)
               a(1) = (   1.000000   0.000000   0.000000 )
               a(2) = (   0.000000   1.306037   0.000000 )
               a(3) = (   0.000000   0.000000   5.037380 )

     reciprocal axes: (cart. coord. in units 2 pi/alat)
               b(1) = (  1.000000  0.000000  0.000000 )
               b(2) = (  0.000000  0.765675  0.000000 )
               b(3) = (  0.000000  0.000000  0.198516 )

     PseudoPot. # 1 for O  read from file:
     /home/camp/zhonxu/pseudo/o_pbe_v1.01.uspp.F.UPF
     MD5 check sum: 2bcb18d16ea4b960afae9ec6d52f22d2
     Pseudo is Ultrasoft + core correction, Zval =  6.0
     Generated by new atomic code, or converted to UPF format
     Using radial grid of  737 points,  5 beta functions with:
                l(1) =   0
                l(2) =   0
                l(3) =   1
                l(4) =   1
                l(5) =   2
     Q(r) pseudized with  8 coefficients,  rinner =    0.900   0.900   0.900
                                                       0.900   0.900

     PseudoPot. # 2 for Re read from file:
     /home/camp/zhonxu/pseudo/re_pbe_v1.uspp.F.UPF
     MD5 check sum: 6f5a5dcaf9c96c20d0ffdde0de57afc6
     Pseudo is Ultrasoft + core correction, Zval = 15.0
     Generated by new atomic code, or converted to UPF format
     Using radial grid of  981 points,  8 beta functions with:
                l(1) =   0
                l(2) =   0
                l(3) =   1
                l(4) =   1
                l(5) =   2
                l(6) =   2
                l(7) =   3
                l(8) =   3
     Q(r) pseudized with  8 coefficients,  rinner =    1.000   1.000   1.000
                                                       1.000   1.000   1.000
                                                       1.000

     PseudoPot. # 3 for H  read from file:
     /home/camp/zhonxu/pseudo/h_pbe_v1.uspp.F.UPF
     MD5 check sum: 3408e3ff4ec8b0a4e358431e7e038a48
     Pseudo is Ultrasoft, Zval =  1.0
     Generated by new atomic code, or converted to UPF format
     Using radial grid of  615 points,  2 beta functions with:
                l(1) =   0
                l(2) =   0
     Q(r) pseudized with  8 coefficients,  rinner =    0.700

     atomic species   valence    mass     pseudopotential
        O0             6.00    15.99940     O ( 1.00)
        Re1           15.00   186.20700     Re( 1.00)
        H2             1.00     1.00794     H ( 1.00)

     Simplified LDA+U calculation (l_max = 2) with parameters (eV):
     atomic species    L          U    alpha       J0     beta
        Re1            2     5.5000   0.0000   0.0000   0.0000

     No symmetry found

   Cartesian axes

     site n.     atom                  positions (alat units)
         1           O0  tau(   1) = (   0.0000000   0.0000000   1.8623194  )
         2           O0  tau(   2) = (   0.0000000   0.6530184   1.9253370  )
         3           Re1 tau(   3) = (   0.2500000   0.6530184   2.2271768  )
         4           Re1 tau(   4) = (   0.0000000   0.0000000   2.2287384  )
         5           O0  tau(   5) = (   0.2500000   1.0187087   2.2217869  )
         6           O0  tau(   6) = (   0.2500000   0.2873281   2.2210816  )
         7           O0  tau(   7) = (   0.0000000   0.6530184   2.5071544  )
         8           O0  tau(   8) = (   0.0000000   0.0000000   2.5894652  )
         9           Re1 tau(   9) = (   0.2500000   0.0000000   2.8894412  )
        10           Re1 tau(  10) = (   0.0000000   0.6530184   2.8583102  )
        11           O0  tau(  11) = (   0.2500000   0.9403465   2.8756892  )
        12           O0  tau(  12) = (   0.2500000   0.3656903   2.8872751  )
        13           O0  tau(  13) = (   0.0000000   0.0000000   3.1516368  )
        14           O0  tau(  14) = (   0.5000000   0.0000000   1.8624705  )
        15           O0  tau(  15) = (   0.5000000   0.6530184   1.9269994  )
        16           Re1 tau(  16) = (   0.7500000   0.6530184   2.2271768  )
        17           Re1 tau(  17) = (   0.5000000   0.0000000   2.2274287  )
        18           O0  tau(  18) = (   0.7500000   1.0187087   2.2214342  )
        19           O0  tau(  19) = (   0.7500000   0.2873281   2.2214846  )
        20           O0  tau(  20) = (   0.5000000   0.6530184   2.5086153  )
        21           O0  tau(  21) = (   0.5000000   0.0000000   2.5899690  )
        22           Re1 tau(  22) = (   0.7500000   0.0000000   2.8888367  )
        23           Re1 tau(  23) = (   0.5000000   0.6530184   2.9018835  )
        24           O0  tau(  24) = (   0.7500000   0.9403465   2.8756892  )
        25           O0  tau(  25) = (   0.7500000   0.3656903   2.8872248  )
        26           O0  tau(  26) = (   0.5000000   0.0000000   3.1466498  )
        27           H2  tau(  27) = (  -0.0002100   0.8169913   1.8417165  )
        28           H2  tau(  28) = (   0.4996400   0.8147057   1.8388956  )
        29           H2  tau(  29) = (   0.1678400   0.0328729   1.7887233  )
        30           H2  tau(  30) = (   0.6697500   0.0291246   1.7904864  )
        31           O0  tau(  31) = (   0.4996300   0.6876806   3.2307741  )
        32           O0  tau(  32) = (   0.5002900   0.4188329   3.4291461  )
        33           H2  tau(  33) = (   0.4999500   0.5176477   3.5843478  )

     number of k points=    10  Methfessel-Paxton smearing, width (Ry)=  0.0100
                       cart. coord. in units 2pi/alat
        k(    1) = (   0.0000000   0.0000000   0.0000000), wk =   0.1250000
        k(    2) = (   0.0000000   0.1914188   0.0000000), wk =   0.2500000
        k(    3) = (   0.0000000  -0.3828376   0.0000000), wk =   0.1250000
        k(    4) = (   0.2500000   0.0000000   0.0000000), wk =   0.2500000
        k(    5) = (   0.2500000   0.1914188   0.0000000), wk =   0.2500000
        k(    6) = (   0.2500000  -0.3828376   0.0000000), wk =   0.2500000
        k(    7) = (  -0.5000000   0.0000000   0.0000000), wk =   0.1250000
        k(    8) = (  -0.5000000   0.1914188   0.0000000), wk =   0.2500000
        k(    9) = (  -0.5000000  -0.3828376   0.0000000), wk =   0.1250000
        k(   10) = (  -0.2500000   0.1914188   0.0000000), wk =   0.2500000

     Largest allocated arrays     est. size (Mb)     dimensions
     Largest temporary arrays     est. size (Mb)     dimensions

     Check: negative/imaginary core charge=   -0.000003    0.000000

     Initial potential from superposition of free atoms
     Check: negative starting charge=   -0.236968

     starting charge  240.99957, renormalised to  245.00000

     negative rho (up, down):  0.241E+00 0.000E+00
     Number of +U iterations with fixed ns =  0
     Starting occupations:
 --- enter write_ns ---
 LDA+U parameters:
U( 2)     =  5.50000000
alpha( 2) =  0.00000000
atom    3   Tr[ns(na)] =   5.00000
    eigenvalues:
  0.500  0.500  0.500  0.500  0.500
    eigenvectors:
  1.000  0.000  0.000  0.000  0.000
  0.000  1.000  0.000  0.000  0.000
  0.000  0.000  1.000  0.000  0.000
  0.000  0.000  0.000  1.000  0.000
  0.000  0.000  0.000  0.000  1.000
    occupations:
  0.500  0.000  0.000  0.000  0.000
  0.000  0.500  0.000  0.000  0.000
  0.000  0.000  0.500  0.000  0.000
  0.000  0.000  0.000  0.500  0.000
  0.000  0.000  0.000  0.000  0.500
atom    4   Tr[ns(na)] =   5.00000
    eigenvalues:
  0.500  0.500  0.500  0.500  0.500
    eigenvectors:
  1.000  0.000  0.000  0.000  0.000
  0.000  1.000  0.000  0.000  0.000
  0.000  0.000  1.000  0.000  0.000
  0.000  0.000  0.000  1.000  0.000
  0.000  0.000  0.000  0.000  1.000
    occupations:
  0.500  0.000  0.000  0.000  0.000
  0.000  0.500  0.000  0.000  0.000
  0.000  0.000  0.500  0.000  0.000
  0.000  0.000  0.000  0.500  0.000
  0.000  0.000  0.000  0.000  0.500
atom    9   Tr[ns(na)] =   5.00000
    eigenvalues:
  0.500  0.500  0.500  0.500  0.500
    eigenvectors:
  1.000  0.000  0.000  0.000  0.000
  0.000  1.000  0.000  0.000  0.000
  0.000  0.000  1.000  0.000  0.000
  0.000  0.000  0.000  1.000  0.000
  0.000  0.000  0.000  0.000  1.000
    occupations:
  0.500  0.000  0.000  0.000  0.000
  0.000  0.500  0.000  0.000  0.000
  0.000  0.000  0.500  0.000  0.000
  0.000  0.000  0.000  0.500  0.000
  0.000  0.000  0.000  0.000  0.500
atom   10   Tr[ns(na)] =   5.00000
    eigenvalues:
  0.500  0.500  0.500  0.500  0.500
    eigenvectors:
  1.000  0.000  0.000  0.000  0.000
  0.000  1.000  0.000  0.000  0.000
  0.000  0.000  1.000  0.000  0.000
  0.000  0.000  0.000  1.000  0.000
  0.000  0.000  0.000  0.000  1.000
    occupations:
  0.500  0.000  0.000  0.000  0.000
  0.000  0.500  0.000  0.000  0.000
  0.000  0.000  0.500  0.000  0.000
  0.000  0.000  0.000  0.500  0.000
  0.000  0.000  0.000  0.000  0.500
atom   16   Tr[ns(na)] =   5.00000
    eigenvalues:
  0.500  0.500  0.500  0.500  0.500
    eigenvectors:
  1.000  0.000  0.000  0.000  0.000
  0.000  1.000  0.000  0.000  0.000
  0.000  0.000  1.000  0.000  0.000
  0.000  0.000  0.000  1.000  0.000
  0.000  0.000  0.000  0.000  1.000
    occupations:
  0.500  0.000  0.000  0.000  0.000
  0.000  0.500  0.000  0.000  0.000
  0.000  0.000  0.500  0.000  0.000
  0.000  0.000  0.000  0.500  0.000
  0.000  0.000  0.000  0.000  0.500
atom   17   Tr[ns(na)] =   5.00000
    eigenvalues:
  0.500  0.500  0.500  0.500  0.500
    eigenvectors:
  1.000  0.000  0.000  0.000  0.000
  0.000  1.000  0.000  0.000  0.000
  0.000  0.000  1.000  0.000  0.000
  0.000  0.000  0.000  1.000  0.000
  0.000  0.000  0.000  0.000  1.000
    occupations:
  0.500  0.000  0.000  0.000  0.000
  0.000  0.500  0.000  0.000  0.000
  0.000  0.000  0.500  0.000  0.000
  0.000  0.000  0.000  0.500  0.000
  0.000  0.000  0.000  0.000  0.500
atom   22   Tr[ns(na)] =   5.00000
    eigenvalues:
  0.500  0.500  0.500  0.500  0.500
[...]
  0.001  0.899  0.003  0.000 -0.003
 -0.003  0.003  0.626  0.008 -0.002
 -0.002  0.000  0.008  0.759 -0.000
  0.000 -0.003 -0.002 -0.000  0.540
atom   16   Tr[ns(na)] =   6.59448
    eigenvalues:
  0.539  0.542  0.573  0.783  0.860
    eigenvectors:
  0.015  0.003  0.289  0.694  0.000
  0.045  0.943  0.012  0.001  0.001
  0.920  0.050  0.006  0.005  0.018
  0.002  0.005  0.693  0.300  0.000
  0.019  0.000  0.000  0.000  0.981
    occupations:
  0.718  0.007  0.017 -0.096  0.002
  0.007  0.543  0.001 -0.000 -0.008
  0.017  0.001  0.547 -0.008 -0.043
 -0.096 -0.000 -0.008  0.636 -0.001
  0.002 -0.008 -0.043 -0.001  0.854
atom   17   Tr[ns(na)] =   6.60221
    eigenvalues:
  0.569  0.587  0.608  0.748  0.789
    eigenvectors:
  0.001  0.000  0.992  0.000  0.007
  0.000  0.008  0.000  0.992  0.000
  0.000  0.992  0.000  0.008  0.000
  0.000  0.000  0.007  0.000  0.993
  0.999  0.000  0.001  0.000  0.000
    occupations:
  0.609  0.003  0.000 -0.015  0.001
  0.003  0.747  0.014 -0.000 -0.001
  0.000  0.014  0.588  0.001 -0.000
 -0.015 -0.000  0.001  0.788 -0.000
  0.001 -0.001 -0.000 -0.000  0.569
atom   22   Tr[ns(na)] =   6.61766
    eigenvalues:
  0.576  0.592  0.599  0.762  0.780
    eigenvectors:
  0.000  0.240  0.003  0.112  0.644
  0.004  0.021  0.975  0.000  0.000
  0.952  0.001  0.004  0.038  0.006
  0.001  0.738  0.018  0.033  0.210
  0.043  0.000  0.000  0.817  0.139
    occupations:
  0.732 -0.003  0.000 -0.079  0.005
 -0.003  0.598  0.001  0.001 -0.000
  0.000  0.001  0.584 -0.001  0.039
 -0.079  0.001 -0.001  0.638 -0.004
  0.005 -0.000  0.039 -0.004  0.757
atom   23   Tr[ns(na)] =   6.62610
    eigenvalues:
  0.518  0.550  0.587  0.791  0.866
    eigenvectors:
  0.000  0.000  0.969  0.030  0.001
  0.978  0.021  0.000  0.000  0.002
  0.002  0.000  0.000  0.012  0.987
  0.000  0.000  0.031  0.959  0.010
  0.021  0.979  0.000  0.000  0.000
    occupations:
  0.594  0.001 -0.007 -0.035 -0.000
  0.001  0.519 -0.014 -0.003 -0.005
 -0.007 -0.014  0.865  0.007 -0.000
 -0.035 -0.003  0.007  0.786  0.000
 -0.000 -0.005 -0.000  0.000  0.549
N of occupied +U levels =  52.8012797
 --- exit write_ns ---

     Threshold (ethr) on eigenvalues was too large:
     Diagonalizing with lowered threshold

     Davidson diagonalization with overlap
     ethr =  1.68E-08,  avg # of iterations =  2.0

[...]

     total energy              =   -2205.07891625 Ry
     Harris-Foulkes estimate   =   -2205.07891626 Ry
     estimated scf accuracy    <       0.00000003 Ry

     iteration # 16     ecut=    40.00 Ry     beta=0.70
     Davidson diagonalization with overlap
     ethr =  1.15E-11,  avg # of iterations =  1.0

     negative rho (up, down):  0.238E+00 0.000E+00

     End of self-consistent calculation
 --- enter write_ns ---
 LDA+U parameters:
U( 2)     =  5.50000000
alpha( 2) =  0.00000000
atom    3   Tr[ns(na)] =   6.58953
    eigenvalues:
  0.532  0.543  0.574  0.784  0.862
    eigenvectors:
  0.010  0.006  0.289  0.694  0.000
  0.006  0.978  0.015  0.001  0.001
  0.957  0.008  0.003  0.005  0.026
  0.000  0.008  0.692  0.300  0.000
  0.026  0.000  0.000  0.000  0.973
    occupations:
  0.720 -0.007  0.017 -0.096 -0.003
 -0.007  0.543 -0.001 -0.000 -0.008
  0.017 -0.001  0.542 -0.008  0.052
 -0.096 -0.000 -0.008  0.637  0.001
 -0.003 -0.008  0.052  0.001  0.853
atom    4   Tr[ns(na)] =   6.60175
    eigenvalues:
  0.572  0.603  0.615  0.713  0.797
    eigenvectors:
  0.000  0.000  0.988  0.001  0.010
  0.000  0.016  0.002  0.982  0.000
  0.000  0.983  0.000  0.016  0.000
  0.000  0.000  0.009  0.000  0.990
  0.999  0.000  0.000  0.000  0.000
    occupations:
  0.617  0.004  0.000 -0.018  0.001
  0.004  0.711  0.014 -0.001 -0.002
  0.000  0.014  0.605  0.000 -0.001
 -0.018 -0.001  0.000  0.796 -0.000
  0.001 -0.002 -0.001 -0.000  0.572
atom    9   Tr[ns(na)] =   6.59674
    eigenvalues:
  0.594  0.598  0.615  0.736  0.756
    eigenvectors:
  0.008  0.212  0.000  0.653  0.128
  0.000  0.003  0.996  0.001  0.000
  0.921  0.034  0.000  0.007  0.038
  0.027  0.751  0.003  0.180  0.039
  0.044  0.001  0.000  0.159  0.796
    occupations:
  0.708  0.003 -0.002 -0.058  0.006
  0.003  0.615 -0.000 -0.001  0.000
 -0.002 -0.000  0.601  0.000 -0.033
 -0.058 -0.001  0.000  0.629 -0.005
  0.006  0.000 -0.033 -0.005  0.745
atom   10   Tr[ns(na)] =   6.57766
    eigenvalues:
  0.464  0.540  0.626  0.760  0.899
    eigenvectors:
  1.000  0.000  0.000  0.000  0.000
  0.000  0.000  0.000  0.000  1.000
  0.000  0.000  0.995  0.004  0.000
  0.000  0.000  0.004  0.996  0.000
  0.000  1.000  0.000  0.000  0.000
    occupations:
  0.464  0.001 -0.003 -0.002  0.000
  0.001  0.899  0.004  0.000 -0.003
 -0.003  0.004  0.627  0.008 -0.002
 -0.002  0.000  0.008  0.759 -0.000
  0.000 -0.003 -0.002 -0.000  0.540
atom   16   Tr[ns(na)] =   6.59398
    eigenvalues:
  0.539  0.542  0.573  0.783  0.860
    eigenvectors:
  0.015  0.003  0.289  0.694  0.000
  0.041  0.946  0.012  0.001  0.001
  0.924  0.046  0.006  0.005  0.018
  0.002  0.005  0.693  0.300  0.000
  0.019  0.000  0.000  0.000  0.981
    occupations:
  0.718  0.007  0.017 -0.096  0.002
  0.007  0.543  0.001 -0.000 -0.008
  0.017  0.001  0.546 -0.008 -0.043
 -0.096 -0.000 -0.008  0.636 -0.001
  0.002 -0.008 -0.043 -0.001  0.854
atom   17   Tr[ns(na)] =   6.60246
    eigenvalues:
  0.569  0.587  0.608  0.748  0.789
    eigenvectors:
  0.001  0.000  0.992  0.000  0.007
  0.000  0.008  0.000  0.992  0.000
  0.000  0.992  0.000  0.008  0.000
  0.000  0.000  0.007  0.000  0.993
  0.999  0.000  0.001  0.000  0.000
    occupations:
  0.609  0.002  0.000 -0.015  0.001
  0.002  0.747  0.014 -0.000 -0.001
  0.000  0.014  0.588  0.001 -0.000
 -0.015 -0.000  0.001  0.788 -0.000
  0.001 -0.001 -0.000 -0.000  0.569
atom   22   Tr[ns(na)] =   6.61434
    eigenvalues:
  0.575  0.592  0.598  0.762  0.780
    eigenvectors:
  0.000  0.240  0.003  0.108  0.648
  0.003  0.022  0.975  0.000  0.000
  0.952  0.001  0.004  0.038  0.006
  0.001  0.737  0.018  0.032  0.212
  0.043  0.000  0.000  0.823  0.133
    occupations:
  0.732 -0.003  0.000 -0.079  0.005
 -0.003  0.598  0.001  0.001 -0.000
  0.000  0.001  0.583 -0.001  0.039
 -0.079  0.001 -0.001  0.637 -0.004
  0.005 -0.000  0.039 -0.004  0.756
atom   23   Tr[ns(na)] =   6.62603
    eigenvalues:
  0.518  0.550  0.587  0.791  0.866
    eigenvectors:
  0.000  0.000  0.969  0.030  0.001
  0.978  0.021  0.000  0.000  0.002
  0.002  0.000  0.000  0.012  0.986
  0.000  0.000  0.031  0.959  0.011
  0.021  0.979  0.000  0.000  0.000
    occupations:
  0.594  0.001 -0.006 -0.035 -0.001
  0.001  0.519 -0.014 -0.003 -0.005
 -0.006 -0.014  0.865  0.007 -0.000
 -0.035 -0.003  0.007  0.786  0.000
 -0.001 -0.005 -0.000  0.000  0.549
N of occupied +U levels =  52.8024916
 --- exit write_ns ---

[...]

          k = 0.2500-0.3828 0.0000 ( 29202 PWs)   bands (ev):

[...]

          k =-0.2500 0.1914 0.0000 ( 29229 PWs)   bands (ev):

   -80.7393 -80.6432 -80.5152 -80.3085 -80.2254 -80.1795 -80.1493 -79.9940
   -42.8002 -42.7395 -42.6603 -42.6223 -42.5956 -42.5496 -42.5365 -42.4794
   -42.4192 -42.3905 -42.3206 -42.2961 -42.2070 -42.1792 -42.1632 -42.1428
   -42.1299 -42.1078 -42.0796 -41.9745 -41.9001 -41.6856 -41.6233 -41.5369
   -21.3369 -20.4761 -20.1257 -20.0361 -19.8422 -19.7523 -19.6347 -19.5479
   -19.4965 -19.3912 -19.2954 -19.1155 -18.9651 -18.9119 -18.8822 -18.7927
   -18.6644 -18.1557 -17.9459 -16.8031  -8.8009  -8.7519  -8.6176  -8.5963
    -8.5175  -8.1589  -8.1357  -8.0478  -7.8440  -7.7127  -7.6701  -7.6117
    -7.5451  -7.3509  -7.0192  -6.9477  -6.8221  -6.5894  -6.5322  -6.3690
    -6.3202  -6.1623  -6.0952  -5.9154  -5.7554  -5.6217  -5.5440  -5.4731
    -5.3226  -5.2080  -5.1299  -5.0291  -4.8119  -4.7672  -4.7306  -4.5889
    -4.5321  -4.4819  -4.4412  -4.3246  -4.2797  -4.2410  -4.0569  -3.8661
    -3.7007  -3.6082  -3.5644  -3.5200  -3.4664  -3.2878  -3.1616  -3.0801
    -3.0293  -2.9122  -2.8040  -2.6212  -2.5548  -2.4579  -2.1546  -1.9392
    -1.8216  -1.4978  -1.2002  -0.9165  -0.8471  -0.6771  -0.1078   0.0706
     0.2508   0.2843   0.6879   0.9075   1.0655   1.0943   1.3757   1.4684
     1.5513   1.6531   1.8424   1.9115   1.9774   2.1228   2.4390   2.7492
     3.3577   3.9641   4.0101   4.2088   4.2949   4.4755   4.6130   4.7693
     4.8976   4.9196   5.0799   5.1646   5.3108   5.3397   5.4446   5.8703
     6.0660   6.1495   6.3066   6.5879   6.6464   6.7360   6.8526   6.9284
     7.0689   7.3142   7.4585   7.5445   7.6991   7.8190   8.0231   8.1269
     8.3806   8.5287   8.6594   8.7194   8.8347   8.9371   9.0831   9.1682
     9.2700   9.4358   9.5172   9.6303   9.7930   9.8212   9.9022  10.0093
    10.0848  10.1235  10.2075  10.3372  10.4167  10.5294  10.6316  10.7150
    10.7399  10.8280  10.9834  11.0594  11.1883  11.2366  11.4627  11.5334
    11.5646  11.7001  11.8087  11.8444  12.0578  12.1208  12.2694  12.3671
    12.5142  12.5980  12.6342  12.6826  12.7477  12.8198  12.9043  12.9969
    13.0793  13.1760  13.2399  13.3198  13.4073  13.5971  13.6413  13.7102
    13.7635  13.8854  13.9226  13.9916  14.0719  14.1137  14.1935  14.3007
    14.3726  14.3995  14.4607  14.4979  14.5513  14.6239  14.6730  14.7683
    14.8306  14.8544  14.9644  14.9949  15.0665  15.1060  15.1949  15.2309
    15.2959  15.4242  15.4585  15.4687  15.6334  15.7081  15.8383  15.9094
    16.0287  16.0958  16.1743  16.2853  16.3602  16.3858  16.4412  16.5102
    16.5803  16.7395  16.7897  16.8809  16.9336  16.9946  17.0752  17.1915
    17.2693  17.3472  17.3654  17.3954  17.5282  17.5594  17.6284  17.6892
    17.7885  17.8213  17.8950  18.0182  18.0581  18.1360  18.2707  18.3661
    18.4050  18.4714  18.5102  18.5730  18.6956  18.7368  18.7629  18.8502
    18.8683  18.9723  19.0949  19.1696  19.2153  19.3009  19.3819  19.4710
    19.5207  19.6376  19.7078  19.7923  19.8367  19.9481  20.0347  20.1395
    20.2410  20.3371  20.4054  20.4847  20.5485  20.6003  20.6215  20.6997
    20.7628  20.8463  20.8881  20.9170  20.9915  21.0301  21.1282  21.1572
    21.2326  21.3014  21.3465  21.4268  21.5180  21.5895  21.6402  21.7455
    21.7707  21.8611  21.8967  21.9632  22.0114  22.0648  22.1074  22.2171
    22.2552  22.3101  22.3492  22.4125  22.4537  22.5233  22.5687  22.6217
    22.6714  22.7126  22.7632  22.8300  22.8644  22.8981  23.0357  23.0738
    23.1163  23.1360  23.2024  23.2710  23.3094  23.3713  23.4181

     the Fermi energy is     0.5658 ev

!    total energy              =   -2205.07891625 Ry
     Harris-Foulkes estimate   =   -2205.07891626 Ry
     estimated scf accuracy    <          4.4E-09 Ry

     The total energy is the sum of the following terms:

     one-electron contribution =  -24724.43980257 Ry
     hartree contribution      =   12386.40346611 Ry
     xc contribution           =    -602.14787202 Ry
     ewald contribution        =   10731.69660721 Ry
     Hubbard energy            =       3.40833758 Ry
     smearing contrib. (-TS)   =       0.00034744 Ry

     convergence has been achieved in  16 iterations

     Forces acting on atoms (Ry/au):

     negative rho (up, down):  0.238E+00 0.000E+00
     atom    1 type  1   force =    -0.00223260   -0.00575956    0.00019014
     atom    2 type  1   force =     0.00052366    0.00300780   -0.00076894
     atom    3 type  2   force =     0.02721415   -0.00080510   -0.00010309
     atom    4 type  2   force =    -0.00217645    0.00592293   -0.00054863
     atom    5 type  1   force =     0.00143213    0.00167393    0.00062837
     atom    6 type  1   force =     0.00115212   -0.00282679    0.00059614
     atom    7 type  1   force =    -0.00119410   -0.00348329   -0.00054041
     atom    8 type  1   force =     0.00847017    0.00201592   -0.00090076
     atom    9 type  2   force =    -0.03951315   -0.00592169    0.00043030
     atom   10 type  2   force =    -0.00253961    0.00157494   -0.00070920
     atom   11 type  1   force =    -0.02040456    0.01006005    0.00037635
     atom   12 type  1   force =    -0.01286566    0.00330103   -0.00041308
     atom   13 type  1   force =     0.00435353   -0.00379021    0.00010428
     atom   14 type  1   force =    -0.00461678   -0.00549379    0.00013661
     atom   15 type  1   force =     0.00009604    0.00409045   -0.00009580
     atom   16 type  2   force =    -0.02452232   -0.00189370   -0.00008603
     atom   17 type  2   force =     0.00466032    0.00648476   -0.00006194
     atom   18 type  1   force =     0.00048662    0.00239680    0.00065805
     atom   19 type  1   force =     0.00000886   -0.00252233    0.00073529
     atom   20 type  1   force =    -0.00304044    0.00034080   -0.00014792
     atom   21 type  1   force =    -0.00129955    0.00186425   -0.00068321
     atom   22 type  2   force =     0.03319371    0.00040122   -0.00061974
     atom   23 type  2   force =     0.00364390   -0.00765080    0.00072300
     atom   24 type  1   force =     0.01900601    0.00236459    0.00006124
     atom   25 type  1   force =     0.01447959    0.00291443   -0.00062688
     atom   26 type  1   force =    -0.00458144   -0.01010607    0.00005693
     atom   27 type  3   force =     0.00004446    0.00028396   -0.00034224
     atom   28 type  3   force =    -0.00002195   -0.00004808   -0.00031956
     atom   29 type  3   force =    -0.00011015   -0.00006681    0.00076911
     atom   30 type  3   force =    -0.00002137   -0.00000014    0.00075574
     atom   31 type  1   force =    -0.00046670    0.00086743    0.00000503
     atom   32 type  1   force =     0.00086137    0.00013980    0.00040279
     atom   33 type  3   force =    -0.00001978    0.00066328    0.00033805

     Total force =     0.003247     Total SCF correction =     0.000167

     entering subroutine stress ...

     negative rho (up, down):  0.238E+00 0.000E+00
          total   stress  (Ry/bohr**3)                   (kbar)     P=  -12.18
  -0.00009454  -0.00000048   0.00000035        -13.91     -0.07      0.05
  -0.00000048  -0.00010758  -0.00000635         -0.07    -15.83     -0.93
   0.00000035  -0.00000635  -0.00004631          0.05     -0.93     -6.81

     bfgs converged in  18 scf cycles and  17 bfgs steps
     (criteria: energy < 0.10E-03, force < 0.10E-02)

     End of BFGS Geometry Optimization

     Final energy   =   -2205.0789162535 Ry
Begin final coordinates

ATOMIC_POSITIONS (crystal)
O0       0.000000000   0.000000000   0.371307763    0   0   1
O0       0.000000000   0.500000000   0.383179951    0   0   1
Re1      0.250000000   0.500000000   0.442223603    0   0   1
Re1      0.000000000   0.000000000   0.443381329    0   0   1
O0       0.250000000   0.780000000   0.441565852    0   0   1
O0       0.250000000   0.220000000   0.441351205    0   0   1
O0       0.000000000   0.500000000   0.497863563    0   0   1
O0       0.000000000   0.000000000   0.513604294    0   0   1
Re1      0.250000000   0.000000000   0.574935711    0   0   1
Re1      0.000000000   0.500000000   0.567717611    0   0   1
O0       0.250000000   0.720000000   0.571454020    0   0   1
O0       0.250000000   0.280000000   0.573266217    0   0   1
O0       0.000000000   0.000000000   0.626021414    0   0   1
O0       0.500000000   0.000000000   0.370858576    0   0   1
O0       0.500000000   0.500000000   0.382486230    0   0   1
Re1      0.750000000   0.500000000   0.442135733    0   0   1
Re1      0.500000000   0.000000000   0.442856267    0   0   1
O0       0.750000000   0.780000000   0.441569134    0   0   1
O0       0.750000000   0.220000000   0.441554433    0   0   1
O0       0.500000000   0.500000000   0.497661443    0   0   1
O0       0.500000000   0.000000000   0.514166773    0   0   1
Re1      0.750000000   0.000000000   0.572946830    0   0   1
Re1      0.500000000   0.500000000   0.574244604    0   0   1
O0       0.750000000   0.720000000   0.571013044    0   0   1
O0       0.750000000   0.280000000   0.572889594    0   0   1
O0       0.500000000   0.000000000   0.625221231    0   0   1
H2      -0.000107399   0.622005154   0.365007204
H2       0.499514879   0.625286190   0.365807104
H2       0.168166510   0.023820775   0.356451123
H2       0.669320173   0.022231003   0.356375884
O0       0.497368653   0.524352793   0.642120546
O0       0.503214440   0.340929861   0.674447460
H2       0.499767615   0.404612763   0.707044254
End final coordinates

     General routines

     Parallel routines
     Hubbard U routines

   This run was terminated on:  19:26:54   2Jun2014

   JOB DONE.
Running PBS batch system epilogue script
Job id: 373386.audhumbla.fysik.dtu.dk
Username: zhonxu
Groupname: campgst
Jobname: ReO2/Eads-2-layers/OOH-U-5.5
Sessionid: 29047
Queuename: verylong
Accounting:
This job has allocated the following 16 nodes:
d082 d082 d082 d082 d082 d082 d082 d082 d072 d072 d072 d072 d072 d072 d072 d072
Finished epilogue job 373386.audhumbla.fysik.dtu.dk for zhonxu