     Program PWSCF v.5.0.2 (svn rev. 9656) starts on 10May2014 at  2:37: 2

     Current dimensions of program PWSCF are:
     Max number of different atomic species (ntypx) = 10
     Max number of k-points (npk) =  40000
     Max angular momentum in pseudopotentials (lmaxx) =  3
     Reading input from pwscf.in
Warning: card &CELL ignored
Warning: card / ignored

     Subspace diagonalization in iterative solution of the eigenvalue problem:
     a serial algorithm will be used

     bravais-lattice index     =            0
     lattice parameter (alat)  =      10.9604  a.u.
     unit-cell volume          =    6350.6732 (a.u.)^3
     number of atoms/cell      =           30
     number of atomic types    =            3
     number of electrons       =       224.00 (up: 120.00, down: 104.00)
     number of Kohn-Sham states=          324
     kinetic-energy cutoff     =      40.0000  Ry
     charge density cutoff     =     500.0000  Ry
     convergence threshold     =      1.0E-06
     mixing beta               =       0.7000
     number of iterations used =            8  plain     mixing
     Exchange-correlation      = SLA  PW   PBE  PBE ( 1 4 3 4 0)
     EXX-fraction              =        0.00
     nstep                     =           50

     celldm(1)=  10.960412  celldm(2)=   0.000000  celldm(3)=   0.000000
     celldm(4)=   0.000000  celldm(5)=   0.000000  celldm(6)=   0.000000

     crystal axes: (cart. coord. in units of alat)
               a(1) = (   1.000000   0.000000   0.000000 )
               a(2) = (   0.000000   1.067975   0.000000 )
               a(3) = (   0.000000   0.000000   4.516251 )

     reciprocal axes: (cart. coord. in units 2 pi/alat)
               b(1) = (  1.000000  0.000000  0.000000 )
               b(2) = (  0.000000  0.936351  0.000000 )
               b(3) = (  0.000000  0.000000  0.221423 )

     PseudoPot. # 1 for O  read from file:
     /home/camp/zhonxu/pseudo/o_pbe_v1.01.uspp.F.UPF
     MD5 check sum: 2bcb18d16ea4b960afae9ec6d52f22d2
     Pseudo is Ultrasoft + core correction, Zval =  6.0
     Generated by new atomic code, or converted to UPF format
     Using radial grid of  737 points,  5 beta functions with:
                l(1) =   0
                l(2) =   0
                l(3) =   1
                l(4) =   1
                l(5) =   2
     Q(r) pseudized with  8 coefficients,  rinner =    0.900   0.900   0.900
                                                       0.900   0.900

     PseudoPot. # 2 for Cr read from file:
     /home/camp/zhonxu/pseudo/cr_pbe_v1.uspp.F.UPF
     MD5 check sum: 68b6f918d1762dccfb11451fe85b0e0e
     Pseudo is Ultrasoft + core correction, Zval = 14.0
     Generated by new atomic code, or converted to UPF format
     Using radial grid of  857 points,  6 beta functions with:
                l(1) =   0
                l(2) =   0
                l(3) =   1
                l(4) =   1
                l(5) =   2
                l(6) =   2
     Q(r) pseudized with  6 coefficients,  rinner =    1.000   1.000   1.000
                                                       1.000   1.000

     PseudoPot. # 3 for H  read from file:
     /home/camp/zhonxu/pseudo/h_pbe_v1.uspp.F.UPF
     MD5 check sum: 3408e3ff4ec8b0a4e358431e7e038a48
     Pseudo is Ultrasoft, Zval =  1.0
     Generated by new atomic code, or converted to UPF format
     Using radial grid of  615 points,  2 beta functions with:
                l(1) =   0
                l(2) =   0
     Q(r) pseudized with  8 coefficients,  rinner =    0.700

     atomic species   valence    mass     pseudopotential
        O0             6.00    15.99940     O ( 1.00)
        Cr1           14.00    51.99600     Cr( 1.00)
        H2             1.00     1.00794     H ( 1.00)

     Starting magnetic structure
     atomic species   magnetization
        O0           0.000
        Cr1          0.600
        H2           0.000

     Simplified LDA+U calculation (l_max = 2) with parameters (eV):
     atomic species    L          U    alpha       J0     beta
        Cr1            2     8.0000   0.0000   0.0000   0.0000

     No symmetry found

   Cartesian axes

     site n.     atom                  positions (alat units)
         1           O0  tau(   1) = (   0.0000000   0.0000000   1.7181625  )
         2           O0  tau(   2) = (   0.0000000   0.5339875   1.8008551  )
         3           Cr1 tau(   3) = (   0.2500000   0.5339875   2.0300096  )
         4           Cr1 tau(   4) = (   0.0000000   0.0000000   2.0413454  )
         5           O0  tau(   5) = (   0.2500000   0.8543801   2.0369195  )
         6           O0  tau(   6) = (   0.2500000   0.2135950   2.0378227  )
         7           O0  tau(   7) = (   0.0000000   0.5339875   2.2471058  )
         8           O0  tau(   8) = (   0.0000000   0.0000000   2.3700833  )
         9           Cr1 tau(   9) = (   0.2500000   0.0000000   2.6079543  )
        10           Cr1 tau(  10) = (   0.0000000   0.5339875   2.5535334  )
        11           O0  tau(  11) = (   0.2500000   0.7475825   2.5983798  )
        12           O0  tau(  12) = (   0.2500000   0.3203925   2.5982895  )
        13           O0  tau(  13) = (   0.0000000   0.0000000   2.7910882  )
        14           O0  tau(  14) = (   0.5000000   0.0000000   1.7181625  )
        15           O0  tau(  15) = (   0.5000000   0.5339875   1.8008551  )
        16           Cr1 tau(  16) = (   0.7500000   0.5339875   2.0300096  )
        17           Cr1 tau(  17) = (   0.5000000   0.0000000   2.0413454  )
        18           O0  tau(  18) = (   0.7500000   0.8543801   2.0369195  )
        19           O0  tau(  19) = (   0.7500000   0.2135950   2.0378227  )
        20           O0  tau(  20) = (   0.5000000   0.5339875   2.2471058  )
        21           O0  tau(  21) = (   0.5000000   0.0000000   2.3700833  )
        22           Cr1 tau(  22) = (   0.7500000   0.0000000   2.6079543  )
        23           Cr1 tau(  23) = (   0.5000000   0.5339875   2.5535334  )
        24           O0  tau(  24) = (   0.7500000   0.7475825   2.5983798  )
        25           O0  tau(  25) = (   0.7500000   0.3203925   2.5982895  )
        26           O0  tau(  26) = (   0.5000000   0.0000000   2.7910882  )
        27           H2  tau(  27) = (  -0.0006900   0.6851274   1.7196980  )
        28           H2  tau(  28) = (   0.4993100   0.6851274   1.7196980  )
        29           H2  tau(  29) = (   0.1573400   0.0316548   1.6594512  )
        30           H2  tau(  30) = (   0.6573500   0.0316548   1.6594512  )

     number of k points=    20  Methfessel-Paxton smearing, width (Ry)=  0.0100
                       cart. coord. in units 2pi/alat
        k(    1) = (   0.0000000   0.0000000   0.0000000), wk =   0.0625000
        k(    2) = (   0.0000000   0.2340879   0.0000000), wk =   0.1250000
        k(    3) = (   0.0000000  -0.4681757   0.0000000), wk =   0.0625000
        k(    4) = (   0.2500000   0.0000000   0.0000000), wk =   0.1250000
        k(    5) = (   0.2500000   0.2340879   0.0000000), wk =   0.1250000
        k(    6) = (   0.2500000  -0.4681757   0.0000000), wk =   0.1250000
        k(    7) = (  -0.5000000   0.0000000   0.0000000), wk =   0.0625000
        k(    8) = (  -0.5000000   0.2340879   0.0000000), wk =   0.1250000
        k(    9) = (  -0.5000000  -0.4681757   0.0000000), wk =   0.0625000
        k(   10) = (  -0.2500000   0.2340879   0.0000000), wk =   0.1250000
        k(   11) = (   0.0000000   0.0000000   0.0000000), wk =   0.0625000
        k(   12) = (   0.0000000   0.2340879   0.0000000), wk =   0.1250000
        k(   13) = (   0.0000000  -0.4681757   0.0000000), wk =   0.0625000
        k(   14) = (   0.2500000   0.0000000   0.0000000), wk =   0.1250000
        k(   15) = (   0.2500000   0.2340879   0.0000000), wk =   0.1250000
        k(   16) = (   0.2500000  -0.4681757   0.0000000), wk =   0.1250000
        k(   17) = (  -0.5000000   0.0000000   0.0000000), wk =   0.0625000
        k(   18) = (  -0.5000000   0.2340879   0.0000000), wk =   0.1250000
        k(   19) = (  -0.5000000  -0.4681757   0.0000000), wk =   0.0625000
        k(   20) = (  -0.2500000   0.2340879   0.0000000), wk =   0.1250000

     Largest allocated arrays     est. size (Mb)     dimensions
     Largest temporary arrays     est. size (Mb)     dimensions

     Check: negative/imaginary core charge=   -0.000012    0.000000

     Initial potential from superposition of free atoms
     Check: negative starting charge=(component1):   -0.001590
     Check: negative starting charge=(component2):   -0.000511

     starting charge  215.99984, renormalised to  224.00000

     negative rho (up, down):  0.165E-02 0.530E-03
     Number of +U iterations with fixed ns =  0
     Starting occupations:
 --- enter write_ns ---
 LDA+U parameters:
U( 2)     =  8.00000000
alpha( 2) =  0.00000000
atom    3   Tr[ns(na)] (up, down, total) =   5.00000  0.00000  5.00000
   spin  1
    eigenvalues:
  1.000  1.000  1.000  1.000  1.000
    eigenvectors:
  1.000  0.000  0.000  0.000  0.000
  0.000  1.000  0.000  0.000  0.000
  0.000  0.000  1.000  0.000  0.000
  0.000  0.000  0.000  1.000  0.000
  0.000  0.000  0.000  0.000  1.000
    occupations:
  1.000  0.000  0.000  0.000  0.000
  0.000  1.000  0.000  0.000  0.000
  0.000  0.000  1.000  0.000  0.000
  0.000  0.000  0.000  1.000  0.000
  0.000  0.000  0.000  0.000  1.000
   spin  2
    eigenvalues:
  0.000  0.000  0.000  0.000  0.000
    eigenvectors:
  1.000  0.000  0.000  0.000  0.000
  0.000  1.000  0.000  0.000  0.000
  0.000  0.000  1.000  0.000  0.000
  0.000  0.000  0.000  1.000  0.000
  0.000  0.000  0.000  0.000  1.000
    occupations:
  0.000  0.000  0.000  0.000  0.000
  0.000  0.000  0.000  0.000  0.000
  0.000  0.000  0.000  0.000  0.000
  0.000  0.000  0.000  0.000  0.000
  0.000  0.000  0.000  0.000  0.000
atomic mag. moment =     5.000000
atom    4   Tr[ns(na)] (up, down, total) =   5.00000  0.00000  5.00000
   spin  1
    eigenvalues:
  1.000  1.000  1.000  1.000  1.000
    eigenvectors:
  1.000  0.000  0.000  0.000  0.000
  0.000  1.000  0.000  0.000  0.000
  0.000  0.000  1.000  0.000  0.000
  0.000  0.000  0.000  1.000  0.000
  0.000  0.000  0.000  0.000  1.000
    occupations:
  1.000  0.000  0.000  0.000  0.000
  0.000  1.000  0.000  0.000  0.000
  0.000  0.000  1.000  0.000  0.000
  0.000  0.000  0.000  1.000  0.000
  0.000  0.000  0.000  0.000  1.000
   spin  2
    eigenvalues:
  0.000  0.000  0.000  0.000  0.000
    eigenvectors:
  1.000  0.000  0.000  0.000  0.000
  0.000  1.000  0.000  0.000  0.000
  0.000  0.000  1.000  0.000  0.000
  0.000  0.000  0.000  1.000  0.000
  0.000  0.000  0.000  0.000  1.000
    occupations:
  0.000  0.000  0.000  0.000  0.000
  0.000  0.000  0.000  0.000  0.000
  0.000  0.000  0.000  0.000  0.000
  0.000  0.000  0.000  0.000  0.000
  0.000  0.000  0.000  0.000  0.000
atomic mag. moment =     5.000000
atom    9   Tr[ns(na)] (up, down, total) =   5.00000  0.00000  5.00000
   spin  1
    eigenvalues:
  1.000  1.000  1.000  1.000  1.000
    eigenvectors:
  1.000  0.000  0.000  0.000  0.000
  0.000  1.000  0.000  0.000  0.000
  0.000  0.000  1.000  0.000  0.000
[...]
  0.000  0.000  0.999  0.000  0.000
  0.000  0.738  0.000  0.000  0.262
  0.000  0.000  0.000  1.000  0.000
    occupations:
  0.862 -0.000 -0.002 -0.222 -0.000
 -0.000  0.428 -0.000 -0.000 -0.005
 -0.002 -0.000  0.910 -0.006  0.001
 -0.222 -0.000 -0.006  0.622 -0.000
 -0.000 -0.005  0.001 -0.000  0.968
   spin  2
    eigenvalues:
  0.050  0.063  0.066  0.242  0.295
    eigenvectors:
  0.732  0.000  0.036  0.000  0.232
  0.000  0.001  0.000  0.999  0.000
  0.043  0.000  0.956  0.000  0.000
  0.225  0.000  0.007  0.000  0.768
  0.000  0.999  0.000  0.001  0.000
    occupations:
  0.108 -0.000 -0.001  0.103 -0.000
 -0.000  0.242 -0.000 -0.000  0.007
 -0.001 -0.000  0.066  0.005  0.000
  0.103 -0.000  0.005  0.239 -0.000
 -0.000  0.007  0.000 -0.000  0.064
atomic mag. moment =     3.071301
atom    4   Tr[ns(na)] (up, down, total) =   3.81167  0.70687  4.51854
   spin  1
    eigenvalues:
  0.465  0.487  0.929  0.939  0.992
    eigenvectors:
  0.000  0.997  0.000  0.001  0.001
  0.000  0.001  0.019  0.979  0.000
  0.000  0.000  0.981  0.019  0.000
  0.000  0.001  0.000  0.000  0.998
  1.000  0.000  0.000  0.000  0.000
    occupations:
  0.488 -0.017 -0.001  0.019  0.000
 -0.017  0.938  0.001  0.002  0.001
 -0.001  0.001  0.930 -0.000  0.002
  0.019  0.002 -0.000  0.991 -0.000
  0.000  0.001  0.002 -0.000  0.465
   spin  2
    eigenvalues:
  0.056  0.061  0.062  0.244  0.285
    eigenvectors:
  0.000  0.010  0.001  0.989  0.000
  0.025  0.287  0.687  0.001  0.000
  0.972  0.016  0.012  0.000  0.000
  0.002  0.687  0.300  0.010  0.000
  0.000  0.000  0.000  0.000  1.000
    occupations:
  0.242  0.005  0.001 -0.018  0.000
  0.005  0.061 -0.001 -0.000 -0.000
  0.001 -0.001  0.056  0.000  0.000
 -0.018 -0.000  0.000  0.063 -0.000
  0.000 -0.000  0.000 -0.000  0.285
atomic mag. moment =     3.104802
atom    9   Tr[ns(na)] (up, down, total) =   3.81859  0.74512  4.56371
   spin  1
    eigenvalues:
  0.501  0.521  0.865  0.938  0.995
    eigenvectors:
  0.000  0.230  0.000  0.000  0.770
  0.999  0.001  0.000  0.000  0.000
  0.000  0.000  1.000  0.000  0.000
  0.001  0.769  0.000  0.000  0.230
  0.000  0.000  0.000  1.000  0.000
    occupations:
  0.886  0.000 -0.000 -0.200 -0.000
  0.000  0.501  0.001  0.001 -0.000
 -0.000  0.001  0.865 -0.001 -0.000
 -0.200  0.001 -0.001  0.630  0.000
 -0.000 -0.000 -0.000  0.000  0.938
   spin  2
    eigenvalues:
  0.059  0.067  0.068  0.251  0.301
    eigenvectors:
  0.793  0.000  0.000  0.000  0.207
  0.000  0.000  0.000  1.000  0.000
  0.000  1.000  0.000  0.000  0.000
  0.207  0.000  0.000  0.000  0.793
  0.000  0.000  1.000  0.000  0.000
    occupations:
  0.109 -0.000  0.000  0.098 -0.000
 -0.000  0.251 -0.000 -0.000  0.000
  0.000 -0.000  0.067  0.000 -0.000
  0.098 -0.000  0.000  0.251 -0.000
 -0.000  0.000 -0.000 -0.000  0.068
atomic mag. moment =     3.073467
atom   10   Tr[ns(na)] (up, down, total) =   3.81302  0.64196  4.45498
   spin  1
    eigenvalues:
  0.414  0.494  0.948  0.964  0.993
    eigenvectors:
  0.999  0.000  0.000  0.000  0.001
  0.000  0.000  0.000  1.000  0.000
  0.000  0.000  1.000  0.000  0.000
  0.001  0.000  0.000  0.000  0.999
  0.000  1.000  0.000  0.000  0.000
    occupations:
  0.415  0.000 -0.004  0.020 -0.000
  0.000  0.964  0.000 -0.000 -0.001
 -0.004  0.000  0.947  0.000 -0.000
  0.020 -0.000  0.000  0.992  0.000
 -0.000 -0.001 -0.000  0.000  0.494
   spin  2
    eigenvalues:
  0.058  0.062  0.071  0.172  0.278
    eigenvectors:
  0.019  0.000  0.000  0.981  0.000
  0.000  0.000  1.000  0.000  0.000
  0.000  1.000  0.000  0.000  0.000
  0.981  0.000  0.000  0.019  0.000
  0.000  0.000  0.000  0.000  1.000
    occupations:
  0.170 -0.000 -0.000 -0.016  0.000
 -0.000  0.071  0.000  0.000  0.001
 -0.000  0.000  0.062 -0.000  0.000
 -0.016  0.000 -0.000  0.060 -0.000
  0.000  0.001  0.000 -0.000  0.278
atomic mag. moment =     3.171055
atom   16   Tr[ns(na)] (up, down, total) =   3.78914  0.71784  4.50699
   spin  1
    eigenvalues:
  0.428  0.489  0.910  0.968  0.994
    eigenvectors:
  0.000  0.262  0.000  0.000  0.737
  1.000  0.000  0.000  0.000  0.000
  0.000  0.000  0.999  0.000  0.000
  0.000  0.738  0.000  0.000  0.262
  0.000  0.000  0.000  1.000  0.000
    occupations:
  0.862 -0.000 -0.002 -0.222 -0.000
 -0.000  0.428 -0.000 -0.000 -0.005
 -0.002 -0.000  0.910 -0.006  0.001
 -0.222 -0.000 -0.006  0.622 -0.000
 -0.000 -0.005  0.001 -0.000  0.968
   spin  2
    eigenvalues:
  0.050  0.063  0.066  0.242  0.295
    eigenvectors:
  0.732  0.000  0.036  0.000  0.232
  0.000  0.001  0.000  0.999  0.000
  0.043  0.000  0.956  0.000  0.000
  0.225  0.000  0.007  0.000  0.768
  0.000  0.999  0.000  0.001  0.000
    occupations:
  0.108 -0.000 -0.001  0.103 -0.000
 -0.000  0.242 -0.000 -0.000  0.007
 -0.001 -0.000  0.066  0.005  0.000
  0.103 -0.000  0.005  0.239 -0.000
 -0.000  0.007  0.000 -0.000  0.064
atomic mag. moment =     3.071301
atom   17   Tr[ns(na)] (up, down, total) =   3.81167  0.70687  4.51854
   spin  1
    eigenvalues:
  0.465  0.487  0.929  0.939  0.992
    eigenvectors:
  0.000  0.997  0.000  0.001  0.001
  0.000  0.001  0.019  0.979  0.000
  0.000  0.000  0.981  0.019  0.000
  0.000  0.001  0.000  0.000  0.998
  1.000  0.000  0.000  0.000  0.000
    occupations:
  0.488 -0.017 -0.001  0.019  0.000
 -0.017  0.938  0.001  0.002  0.001
 -0.001  0.001  0.930 -0.000  0.002
  0.019  0.002 -0.000  0.991 -0.000
  0.000  0.001  0.002 -0.000  0.465
   spin  2
    eigenvalues:
  0.056  0.061  0.062  0.244  0.285
    eigenvectors:
  0.000  0.010  0.001  0.989  0.000
  0.025  0.286  0.688  0.001  0.000
  0.972  0.016  0.012  0.000  0.000
  0.002  0.688  0.299  0.010  0.000
  0.000  0.000  0.000  0.000  1.000
    occupations:
  0.242  0.005  0.001 -0.018  0.000
  0.005  0.061 -0.001 -0.000 -0.000
  0.001 -0.001  0.056  0.000  0.000
 -0.018 -0.000  0.000  0.063 -0.000
  0.000 -0.000  0.000 -0.000  0.285
atomic mag. moment =     3.104795
atom   22   Tr[ns(na)] (up, down, total) =   3.81858  0.74512  4.56370
   spin  1
    eigenvalues:
  0.501  0.521  0.865  0.938  0.995
    eigenvectors:
  0.000  0.230  0.000  0.000  0.770
  0.999  0.001  0.000  0.000  0.000
  0.000  0.000  1.000  0.000  0.000
  0.001  0.769  0.000  0.000  0.230
  0.000  0.000  0.000  1.000  0.000
    occupations:
  0.886  0.000 -0.000 -0.200 -0.000
  0.000  0.501  0.001  0.001 -0.000
 -0.000  0.001  0.865 -0.001 -0.000
 -0.200  0.001 -0.001  0.630  0.000
 -0.000 -0.000 -0.000  0.000  0.938
   spin  2
    eigenvalues:
  0.059  0.067  0.068  0.251  0.301
    eigenvectors:
  0.793  0.000  0.000  0.000  0.207
  0.000  0.000  0.000  1.000  0.000
  0.000  1.000  0.000  0.000  0.000
  0.207  0.000  0.000  0.000  0.793
  0.000  0.000  1.000  0.000  0.000
    occupations:
  0.109 -0.000  0.000  0.098 -0.000
 -0.000  0.251 -0.000 -0.000  0.000
  0.000 -0.000  0.067  0.000 -0.000
  0.098 -0.000  0.000  0.251 -0.000
 -0.000  0.000 -0.000 -0.000  0.068
atomic mag. moment =     3.073458
atom   23   Tr[ns(na)] (up, down, total) =   3.81302  0.64196  4.45498
   spin  1
    eigenvalues:
  0.414  0.494  0.948  0.964  0.993
    eigenvectors:
  0.999  0.000  0.000  0.000  0.001
  0.000  0.000  0.000  1.000  0.000
  0.000  0.000  1.000  0.000  0.000
  0.001  0.000  0.000  0.000  0.999
  0.000  1.000  0.000  0.000  0.000
    occupations:
  0.415  0.000 -0.004  0.020 -0.000
  0.000  0.964  0.000 -0.000 -0.001
 -0.004  0.000  0.947  0.000 -0.000
  0.020 -0.000  0.000  0.992  0.000
 -0.000 -0.001 -0.000  0.000  0.494
   spin  2
    eigenvalues:
  0.058  0.062  0.071  0.172  0.278
    eigenvectors:
  0.019  0.000  0.000  0.981  0.000
  0.000  0.000  1.000  0.000  0.000
  0.000  1.000  0.000  0.000  0.000
  0.981  0.000  0.000  0.019  0.000
  0.000  0.000  0.000  0.000  1.000
    occupations:
  0.170 -0.000 -0.000 -0.016  0.000
 -0.000  0.071  0.000  0.000  0.001
 -0.000  0.000  0.062 -0.000  0.000
 -0.016  0.000 -0.000  0.060 -0.000
  0.000  0.001  0.000 -0.000  0.278
atomic mag. moment =     3.171052
N of occupied +U levels =  36.0884201
 --- exit write_ns ---

 ------ SPIN UP ------------

[...]

 ------ SPIN DOWN ----------

[...]

          k = 0.2500-0.4682 0.0000 ( 27150 PWs)   bands (ev):

[...]

          k =-0.2500 0.2341 0.0000 ( 27132 PWs)   bands (ev):

   -72.0636 -72.0521 -71.8316 -71.8211 -71.7598 -71.7480 -71.7052 -71.6943
   -43.6122 -43.6010 -43.4890 -43.3478 -43.3414 -43.3081 -43.3074 -43.3071
   -43.2816 -43.2794 -43.2678 -43.2191 -43.1967 -43.1870 -43.1515 -43.1307
   -43.1227 -43.0882 -43.0625 -43.0598 -43.0384 -43.0168 -42.9912 -42.9068
   -21.2282 -20.8391 -20.6229 -20.5679 -20.3141 -20.2812 -20.2380 -20.2314
   -20.0709 -20.0147 -19.9570 -19.8673 -19.7465 -19.7280 -19.6767 -19.6560
   -19.5918 -19.5312  -8.3836  -8.3023  -7.9850  -7.7309  -7.6681  -7.3957
    -7.2896  -7.1822  -7.0361  -6.9649  -6.7574  -6.7469  -6.6832  -6.6059
    -6.5554  -6.4799  -6.4313  -6.0865  -6.0675  -5.9635  -5.9195  -5.7968
    -5.7179  -5.6696  -5.6388  -5.5069  -5.4305  -5.3500  -5.3201  -5.2384
    -5.2368  -5.1301  -5.1091  -5.0600  -4.9537  -4.8663  -4.8575  -4.6442
    -4.5889  -4.5756  -4.4014  -4.3297  -4.2523  -4.2013  -4.1515  -4.1478
    -4.0856  -4.0348  -4.0121  -3.9645  -3.8582  -3.7022  -3.6629  -3.5380
     2.3725   2.5627   3.0838   3.1857   3.2070   3.2879   3.3272   3.3454
     3.3829   3.4450   3.4903   3.4973   3.5863   3.6451   3.6611   3.7387
     3.8287   3.8968   3.8978   3.9792   4.0204   4.0389   4.0952   4.1204
     4.1356   4.2398   4.2421   4.3051   4.3304   4.3342   4.4062   4.4678
     4.4745   4.5448   4.5808   4.6282   4.6728   4.7311   4.7724   4.7777
     4.8312   4.8863   4.9655   5.0010   5.3901   5.7222   5.8197   6.0248
     6.0818   6.2110   6.4061   6.5251   6.6408   6.8401   6.8909   7.2238
     7.3795   7.6110   7.6360   7.8595   8.0572   8.1799   8.3675   8.4697
     8.4908   8.6548   8.7866   8.8206   9.0203   9.2157   9.2194   9.3186
     9.3619   9.5568   9.8117   9.9504   9.9867   9.9894  10.1189  10.1422
    10.3207  10.4298  10.5765  10.6824  10.7393  10.8579  10.9410  11.0399
    11.1595  11.2431  11.3410  11.4047  11.4804  11.6122  11.6420  11.7282
    11.8326  11.8725  12.0214  12.1178  12.2076  12.2325  12.3035  12.4257
    12.5772  12.5989  12.7441  12.7559  12.8143  12.9337  12.9352  13.0629
    13.1038  13.1700  13.2108  13.2516  13.3504  13.3894  13.4620  13.6050
    13.6965  13.7808  13.8003  14.0003  14.0451  14.0921  14.1753  14.2089
    14.2171  14.3755  14.4142  14.5450  14.5883  14.6418  14.7237  14.8324
    14.8811  14.9642  15.1194  15.1472  15.1588  15.1876  15.4018  15.5408
    15.6259  15.6500  15.8668  15.8983  15.9961  16.0510  16.1817  16.1948
    16.2176  16.2951  16.2958  16.4318  16.4931  16.5663  16.7550  16.7727
    16.8282  16.8678  16.9152  17.0182  17.0570  17.2020  17.2557  17.3261
    17.3978  17.4757  17.5833  17.6429  17.6635  17.7792  17.8244  17.8401
    17.9643  18.0256  18.0831  18.1242  18.2366  18.2733  18.3203  18.3537
    18.4674  18.5033  18.6189  18.7416  18.7680  18.9145  18.9554  19.0378
    19.0438  19.1112  19.2508  19.3244  19.4311  19.4579  19.5697  19.6856
    19.7228  19.7254  19.8669  19.8678  19.8815  20.0058  20.0490  20.1562
    20.1664  20.3151  20.3892  20.4300  20.4827  20.5589  20.5668  20.7841
    20.8358  20.9377  21.0023  21.0820

     the spin up/dw Fermi energies are    -2.4758   -2.5896 ev

!    total energy              =   -1990.12258772 Ry
     Harris-Foulkes estimate   =   -1990.12258772 Ry
     estimated scf accuracy    <          6.2E-09 Ry

     The total energy is the sum of the following terms:

     one-electron contribution =  -22669.30593253 Ry
     hartree contribution      =   11353.70676611 Ry
     xc contribution           =    -315.87314658 Ry
     ewald contribution        =    9638.57105952 Ry
     Hubbard energy            =       2.77887709 Ry
     smearing contrib. (-TS)   =      -0.00021132 Ry

     total magnetization       =    16.00 Bohr mag/cell
     absolute magnetization    =    33.44 Bohr mag/cell

     convergence has been achieved in  22 iterations

     Forces acting on atoms (Ry/au):

     negative rho (up, down):  0.648E-02 0.170E-02
     atom    1 type  1   force =    -0.00362364   -0.00905347   -0.00060048
     atom    2 type  1   force =     0.00004940    0.00410642    0.00031626
     atom    3 type  2   force =    -0.00032618    0.00311315   -0.00009278
     atom    4 type  2   force =     0.00371660    0.00420477   -0.00007350
     atom    5 type  1   force =     0.00107087    0.00797788    0.00006109
     atom    6 type  1   force =    -0.00050704   -0.00724003   -0.00012597
     atom    7 type  1   force =    -0.00000547   -0.00300356   -0.00024912
     atom    8 type  1   force =    -0.00112089    0.00007889    0.00063721
     atom    9 type  2   force =     0.00058662    0.00046770   -0.00034371
     atom   10 type  2   force =    -0.00015483   -0.00033031    0.00018642
     atom   11 type  1   force =    -0.00022416   -0.04273467   -0.00004792
     atom   12 type  1   force =     0.00021588    0.04331113   -0.00003301
     atom   13 type  1   force =    -0.00022593   -0.00027851    0.00006222
     atom   14 type  1   force =    -0.00361890   -0.00905160   -0.00060348
     atom   15 type  1   force =     0.00004958    0.00410945    0.00031848
     atom   16 type  2   force =    -0.00032902    0.00311282   -0.00009178
     atom   17 type  2   force =     0.00372062    0.00420410   -0.00008827
     atom   18 type  1   force =     0.00107039    0.00797853    0.00006210
     atom   19 type  1   force =    -0.00050727   -0.00724090   -0.00012551
     atom   20 type  1   force =    -0.00000247   -0.00300388   -0.00025409
     atom   21 type  1   force =    -0.00111621    0.00007872    0.00063295
     atom   22 type  2   force =     0.00060187    0.00046748   -0.00034375
     atom   23 type  2   force =    -0.00013726   -0.00033035    0.00018517
     atom   24 type  1   force =    -0.00021684   -0.04273416   -0.00004864
     atom   25 type  1   force =     0.00022313    0.04331056   -0.00003369
     atom   26 type  1   force =    -0.00022157   -0.00027847    0.00006194
     atom   27 type  3   force =    -0.00005343   -0.00049547   -0.00037755
     atom   28 type  3   force =    -0.00005339   -0.00049645   -0.00037734
     atom   29 type  3   force =     0.00056745   -0.00012541    0.00069403
     atom   30 type  3   force =     0.00057210   -0.00012437    0.00069271

     Total force =     0.002162     Total SCF correction =     0.000344
     SCF correction compared to forces is large: reduce conv_thr to get better values

     bfgs converged in  17 scf cycles and  16 bfgs steps
     (criteria: energy < 0.10E-03, force < 0.10E-02)

     End of BFGS Geometry Optimization

     Final energy   =   -1990.1225877176 Ry
Begin final coordinates

ATOMIC_POSITIONS (crystal)
O0       0.000000000   0.000000000   0.373698218    0   0   1
O0       0.000000000   0.500000000   0.393218007    0   0   1
Cr1      0.250000000   0.500000000   0.446225019    0   0   1
Cr1      0.000000000   0.000000000   0.450446045    0   0   1
O0       0.250000000   0.800000000   0.448549348    0   0   1
O0       0.250000000   0.200000000   0.448579869    0   0   1
O0       0.000000000   0.500000000   0.497963627    0   0   1
O0       0.000000000   0.000000000   0.527720317    0   0   1
Cr1      0.250000000   0.000000000   0.580309827    0   0   1
Cr1      0.000000000   0.500000000   0.571080575    0   0   1
O0       0.250000000   0.700000000   0.580896330    0   0   1
O0       0.250000000   0.300000000   0.581128327    0   0   1
O0       0.000000000   0.000000000   0.629971163    0   0   1
O0       0.500000000   0.000000000   0.373700819    0   0   1
O0       0.500000000   0.500000000   0.393217634    0   0   1
Cr1      0.750000000   0.500000000   0.446225006    0   0   1
Cr1      0.500000000   0.000000000   0.450449337    0   0   1
O0       0.750000000   0.800000000   0.448548928    0   0   1
O0       0.750000000   0.200000000   0.448579936    0   0   1
O0       0.500000000   0.500000000   0.497964289    0   0   1
O0       0.500000000   0.000000000   0.527721564    0   0   1
Cr1      0.750000000   0.000000000   0.580309790    0   0   1
Cr1      0.500000000   0.500000000   0.571081733    0   0   1
O0       0.750000000   0.700000000   0.580896382    0   0   1
O0       0.750000000   0.300000000   0.581128351    0   0   1
O0       0.500000000   0.000000000   0.629971580    0   0   1
H2      -0.000667287   0.637656937   0.374144769
H2       0.499332769   0.637660076   0.374145571
H2       0.158510416   0.028787514   0.361092948
H2       0.658508962   0.028787225   0.361094692
End final coordinates

     General routines

     Parallel routines
     Hubbard U routines

   This run was terminated on:  12:19:57  11May2014

   JOB DONE.