     Program PWSCF v.5.0.2 (svn rev. 9656) starts on 25May2014 at  6:11:41

     Current dimensions of program PWSCF are:
     Max number of different atomic species (ntypx) = 10
     Max number of k-points (npk) =  40000
     Max angular momentum in pseudopotentials (lmaxx) =  3
     Reading input from pwscf.in
Warning: card &CELL ignored
Warning: card / ignored

     Subspace diagonalization in iterative solution of the eigenvalue problem:
     a serial algorithm will be used

     bravais-lattice index     =            0
     lattice parameter (alat)  =      11.7919  a.u.
     unit-cell volume          =    7123.6633 (a.u.)^3
     number of atoms/cell      =           30
     number of atomic types    =            3
     number of electrons       =       240.00
     number of Kohn-Sham states=          348
     kinetic-energy cutoff     =      40.0000  Ry
     charge density cutoff     =     500.0000  Ry
     convergence threshold     =      1.0E-06
     mixing beta               =       0.7000
     number of iterations used =            8  plain     mixing
     Exchange-correlation      = SLA  PW   PBE  PBE ( 1 4 3 4 0)
     EXX-fraction              =        0.00
     nstep                     =           50

     celldm(1)=  11.791891  celldm(2)=   0.000000  celldm(3)=   0.000000
     celldm(4)=   0.000000  celldm(5)=   0.000000  celldm(6)=   0.000000

     crystal axes: (cart. coord. in units of alat)
               a(1) = (   1.000000   0.000000   0.000000 )
               a(2) = (   0.000000   1.026665   0.000000 )
               a(3) = (   0.000000   0.000000   4.231793 )

     reciprocal axes: (cart. coord. in units 2 pi/alat)
               b(1) = (  1.000000  0.000000  0.000000 )
               b(2) = (  0.000000  0.974028  0.000000 )
               b(3) = (  0.000000  0.000000  0.236306 )

     PseudoPot. # 1 for O  read from file:
     /home/camp/zhonxu/pseudo/o_pbe_v1.01.uspp.F.UPF
     MD5 check sum: 2bcb18d16ea4b960afae9ec6d52f22d2
     Pseudo is Ultrasoft + core correction, Zval =  6.0
     Generated by new atomic code, or converted to UPF format
     Using radial grid of  737 points,  5 beta functions with:
                l(1) =   0
                l(2) =   0
                l(3) =   1
                l(4) =   1
                l(5) =   2
     Q(r) pseudized with  8 coefficients,  rinner =    0.900   0.900   0.900
                                                       0.900   0.900

     PseudoPot. # 2 for Ru read from file:
     /home/camp/zhonxu/pseudo/ru_pbe_v1.uspp.F.UPF
     MD5 check sum: df00be1c11b23341d9806d8f1dfa10cf
     Pseudo is Ultrasoft + core correction, Zval = 16.0
     Generated by new atomic code, or converted to UPF format
     Using radial grid of  967 points,  6 beta functions with:
                l(1) =   0
                l(2) =   0
                l(3) =   1
                l(4) =   1
                l(5) =   2
                l(6) =   2
     Q(r) pseudized with  8 coefficients,  rinner =    1.300   1.300   1.300
                                                       1.300   1.300

     PseudoPot. # 3 for H  read from file:
     /home/camp/zhonxu/pseudo/h_pbe_v1.uspp.F.UPF
     MD5 check sum: 3408e3ff4ec8b0a4e358431e7e038a48
     Pseudo is Ultrasoft, Zval =  1.0
     Generated by new atomic code, or converted to UPF format
     Using radial grid of  615 points,  2 beta functions with:
                l(1) =   0
                l(2) =   0
     Q(r) pseudized with  8 coefficients,  rinner =    0.700

     atomic species   valence    mass     pseudopotential
        O0             6.00    15.99940     O ( 1.00)
        Ru1           16.00   101.07000     Ru( 1.00)
        H2             1.00     1.00794     H ( 1.00)

     Simplified LDA+U calculation (l_max = 2) with parameters (eV):
     atomic species    L          U    alpha       J0     beta
        Ru1            2     7.0000   0.0000   0.0000   0.0000

     No symmetry found

   Cartesian axes

     site n.     atom                  positions (alat units)
         1           O0  tau(   1) = (   0.0000000   0.0000000   1.6165026  )
         2           O0  tau(   2) = (   0.0000000   0.5133323   1.7004613  )
         3           Ru1 tau(   3) = (   0.2500000   0.5133323   1.9130666  )
         4           Ru1 tau(   4) = (   0.0000000   0.0000000   1.9266083  )
         5           O0  tau(   5) = (   0.2500000   0.8315984   1.9220380  )
         6           O0  tau(   6) = (   0.2500000   0.1950663   1.9212340  )
         7           O0  tau(   7) = (   0.0000000   0.5133323   2.1142037  )
         8           O0  tau(   8) = (   0.0000000   0.0000000   2.2329055  )
         9           Ru1 tau(   9) = (   0.2500000   0.0000000   2.4587563  )
        10           Ru1 tau(  10) = (   0.0000000   0.5133323   2.4111909  )
        11           O0  tau(  11) = (   0.2500000   0.7083986   2.4386130  )
        12           O0  tau(  12) = (   0.2500000   0.3182660   2.4397132  )
        13           O0  tau(  13) = (   0.0000000   0.0000000   2.6262083  )
        14           O0  tau(  14) = (   0.5000000   0.0000000   1.6164179  )
        15           O0  tau(  15) = (   0.5000000   0.5133323   1.7004190  )
        16           Ru1 tau(  16) = (   0.7500000   0.5133323   1.9130243  )
        17           Ru1 tau(  17) = (   0.5000000   0.0000000   1.9263967  )
        18           O0  tau(  18) = (   0.7500000   0.8315984   1.9218264  )
        19           O0  tau(  19) = (   0.7500000   0.1950663   1.9209801  )
        20           O0  tau(  20) = (   0.5000000   0.5133323   2.1142037  )
        21           O0  tau(  21) = (   0.5000000   0.0000000   2.2327785  )
        22           Ru1 tau(  22) = (   0.7500000   0.0000000   2.4429717  )
        23           Ru1 tau(  23) = (   0.5000000   0.5133323   2.4112756  )
        24           O0  tau(  24) = (   0.7500000   0.7083986   2.4338310  )
        25           O0  tau(  25) = (   0.7500000   0.3182660   2.4350159  )
        26           O0  tau(  26) = (   0.5000000   0.0000000   2.6265469  )
        27           H2  tau(  27) = (  -0.0006100   0.6327848   1.5973749  )
        28           H2  tau(  28) = (   0.4991900   0.6328156   1.5973749  )
        29           H2  tau(  29) = (   0.1468400   0.0246297   1.5625895  )
        30           H2  tau(  30) = (   0.6468500   0.0247529   1.5625895  )

     number of k points=    10  Methfessel-Paxton smearing, width (Ry)=  0.0100
                       cart. coord. in units 2pi/alat
        k(    1) = (   0.0000000   0.0000000   0.0000000), wk =   0.1250000
        k(    2) = (   0.0000000   0.2435070   0.0000000), wk =   0.2500000
        k(    3) = (   0.0000000  -0.4870139   0.0000000), wk =   0.1250000
        k(    4) = (   0.2500000   0.0000000   0.0000000), wk =   0.2500000
        k(    5) = (   0.2500000   0.2435070   0.0000000), wk =   0.2500000
        k(    6) = (   0.2500000  -0.4870139   0.0000000), wk =   0.2500000
        k(    7) = (  -0.5000000   0.0000000   0.0000000), wk =   0.1250000
        k(    8) = (  -0.5000000   0.2435070   0.0000000), wk =   0.2500000
        k(    9) = (  -0.5000000  -0.4870139   0.0000000), wk =   0.1250000
        k(   10) = (  -0.2500000   0.2435070   0.0000000), wk =   0.2500000

     Largest allocated arrays     est. size (Mb)     dimensions
     Largest temporary arrays     est. size (Mb)     dimensions

     Check: negative/imaginary core charge=   -0.000003    0.000000

     Initial potential from superposition of free atoms
     Check: negative starting charge=   -0.520261

     starting charge  231.99981, renormalised to  240.00000

     negative rho (up, down):  0.538E+00 0.000E+00
     Number of +U iterations with fixed ns =  0
     Starting occupations:
 --- enter write_ns ---
 LDA+U parameters:
U( 2)     =  7.00000000
alpha( 2) =  0.00000000
atom    3   Tr[ns(na)] =   6.00000
    eigenvalues:
  0.600  0.600  0.600  0.600  0.600
    eigenvectors:
  1.000  0.000  0.000  0.000  0.000
  0.000  1.000  0.000  0.000  0.000
  0.000  0.000  1.000  0.000  0.000
  0.000  0.000  0.000  1.000  0.000
  0.000  0.000  0.000  0.000  1.000
    occupations:
  0.600  0.000  0.000  0.000  0.000
  0.000  0.600  0.000  0.000  0.000
  0.000  0.000  0.600  0.000  0.000
  0.000  0.000  0.000  0.600  0.000
  0.000  0.000  0.000  0.000  0.600
atom    4   Tr[ns(na)] =   6.00000
    eigenvalues:
  0.600  0.600  0.600  0.600  0.600
    eigenvectors:
  1.000  0.000  0.000  0.000  0.000
  0.000  1.000  0.000  0.000  0.000
  0.000  0.000  1.000  0.000  0.000
  0.000  0.000  0.000  1.000  0.000
  0.000  0.000  0.000  0.000  1.000
    occupations:
  0.600  0.000  0.000  0.000  0.000
  0.000  0.600  0.000  0.000  0.000
  0.000  0.000  0.600  0.000  0.000
  0.000  0.000  0.000  0.600  0.000
  0.000  0.000  0.000  0.000  0.600
atom    9   Tr[ns(na)] =   6.00000
    eigenvalues:
  0.600  0.600  0.600  0.600  0.600
    eigenvectors:
  1.000  0.000  0.000  0.000  0.000
  0.000  1.000  0.000  0.000  0.000
  0.000  0.000  1.000  0.000  0.000
  0.000  0.000  0.000  1.000  0.000
  0.000  0.000  0.000  0.000  1.000
    occupations:
  0.600  0.000  0.000  0.000  0.000
  0.000  0.600  0.000  0.000  0.000
  0.000  0.000  0.600  0.000  0.000
  0.000  0.000  0.000  0.600  0.000
  0.000  0.000  0.000  0.000  0.600
atom   10   Tr[ns(na)] =   6.00000
    eigenvalues:
  0.600  0.600  0.600  0.600  0.600
    eigenvectors:
  1.000  0.000  0.000  0.000  0.000
  0.000  1.000  0.000  0.000  0.000
  0.000  0.000  1.000  0.000  0.000
  0.000  0.000  0.000  1.000  0.000
  0.000  0.000  0.000  0.000  1.000
    occupations:
  0.600  0.000  0.000  0.000  0.000
  0.000  0.600  0.000  0.000  0.000
  0.000  0.000  0.600  0.000  0.000
  0.000  0.000  0.000  0.600  0.000
  0.000  0.000  0.000  0.000  0.600
atom   16   Tr[ns(na)] =   6.00000
    eigenvalues:
  0.600  0.600  0.600  0.600  0.600
    eigenvectors:
  1.000  0.000  0.000  0.000  0.000
  0.000  1.000  0.000  0.000  0.000
  0.000  0.000  1.000  0.000  0.000
  0.000  0.000  0.000  1.000  0.000
  0.000  0.000  0.000  0.000  1.000
    occupations:
  0.600  0.000  0.000  0.000  0.000
  0.000  0.600  0.000  0.000  0.000
  0.000  0.000  0.600  0.000  0.000
  0.000  0.000  0.000  0.600  0.000
  0.000  0.000  0.000  0.000  0.600
atom   17   Tr[ns(na)] =   6.00000
    eigenvalues:
  0.600  0.600  0.600  0.600  0.600
    eigenvectors:
  1.000  0.000  0.000  0.000  0.000
  0.000  1.000  0.000  0.000  0.000
  0.000  0.000  1.000  0.000  0.000
  0.000  0.000  0.000  1.000  0.000
  0.000  0.000  0.000  0.000  1.000
    occupations:
  0.600  0.000  0.000  0.000  0.000
  0.000  0.600  0.000  0.000  0.000
  0.000  0.000  0.600  0.000  0.000
  0.000  0.000  0.000  0.600  0.000
  0.000  0.000  0.000  0.000  0.600
atom   22   Tr[ns(na)] =   6.00000
    eigenvalues:
  0.600  0.600  0.600  0.600  0.600
    eigenvectors:
  1.000  0.000  0.000  0.000  0.000
  0.000  1.000  0.000  0.000  0.000
  0.000  0.000  1.000  0.000  0.000
  0.000  0.000  0.000  1.000  0.000
  0.000  0.000  0.000  0.000  1.000
    occupations:
  0.600  0.000  0.000  0.000  0.000
  0.000  0.600  0.000  0.000  0.000
  0.000  0.000  0.600  0.000  0.000
  0.000  0.000  0.000  0.600  0.000
[...]
    occupations:
  0.582  0.002 -0.005 -0.022  0.008
  0.002  0.600  0.002 -0.000  0.001
 -0.005  0.002  0.901  0.000  0.000
 -0.022 -0.000  0.000  0.617 -0.003
  0.008  0.001  0.000 -0.003  0.913
atom   10   Tr[ns(na)] =   7.30388
    eigenvalues:
  0.491  0.520  0.782  0.883  0.977
    eigenvectors:
  0.986  0.000  0.000  0.001  0.013
  0.000  0.000  0.000  0.989  0.011
  0.000  0.000  0.999  0.000  0.000
  0.014  0.000  0.000  0.010  0.976
  0.000  1.000  0.000  0.000  0.000
    occupations:
  0.498 -0.005  0.001  0.056 -0.000
 -0.005  0.884  0.000  0.010 -0.001
  0.001  0.000  0.782 -0.003  0.005
  0.056  0.010 -0.003  0.969 -0.000
 -0.000 -0.001  0.005 -0.000  0.520
atom   16   Tr[ns(na)] =   7.27439
    eigenvalues:
  0.488  0.542  0.700  0.925  0.983
    eigenvectors:
  0.000  0.180  0.007  0.000  0.813
  1.000  0.000  0.000  0.000  0.000
  0.000  0.002  0.984  0.000  0.014
  0.000  0.818  0.009  0.000  0.174
  0.000  0.000  0.000  1.000  0.000
    occupations:
  0.901  0.000  0.033 -0.167 -0.000
  0.000  0.488 -0.000 -0.000 -0.007
  0.033 -0.000  0.703 -0.007  0.001
 -0.167 -0.000 -0.007  0.620 -0.000
 -0.000 -0.007  0.001 -0.000  0.925
atom   17   Tr[ns(na)] =   7.26679
    eigenvalues:
  0.549  0.606  0.607  0.884  0.987
    eigenvectors:
  0.002  0.664  0.316  0.000  0.018
  0.000  0.006  0.007  0.987  0.000
  0.000  0.317  0.670  0.013  0.000
  0.000  0.011  0.006  0.000  0.982
  0.998  0.001  0.000  0.000  0.000
    occupations:
  0.613 -0.004  0.000  0.050  0.003
 -0.004  0.880  0.031  0.001 -0.001
  0.000  0.031  0.611  0.002 -0.000
  0.050  0.001  0.002  0.980  0.000
  0.003 -0.001 -0.000  0.000  0.549
atom   22   Tr[ns(na)] =   7.31984
    eigenvalues:
  0.529  0.553  0.707  0.899  0.971
    eigenvectors:
  0.000  0.161  0.000  0.000  0.839
  1.000  0.000  0.000  0.000  0.000
  0.000  0.000  1.000  0.000  0.000
  0.000  0.839  0.000  0.000  0.161
  0.000  0.000  0.000  1.000  0.000
    occupations:
  0.904  0.001 -0.002 -0.154  0.000
  0.001  0.529  0.001  0.000  0.000
 -0.002  0.001  0.707  0.000  0.001
 -0.154  0.000  0.000  0.620 -0.001
  0.000  0.000  0.001 -0.001  0.899
atom   23   Tr[ns(na)] =   7.30421
    eigenvalues:
  0.490  0.519  0.784  0.882  0.977
    eigenvectors:
  0.986  0.000  0.000  0.001  0.013
  0.000  0.000  0.001  0.988  0.011
  0.000  0.000  0.998  0.001  0.000
  0.014  0.000  0.000  0.010  0.976
  0.000  1.000  0.000  0.000  0.000
    occupations:
  0.497  0.005  0.001  0.056 -0.000
  0.005  0.882 -0.003 -0.010 -0.001
  0.001 -0.003  0.784 -0.003 -0.005
  0.056 -0.010 -0.003  0.970 -0.000
 -0.000 -0.001 -0.005 -0.000  0.519
N of occupied +U levels =  58.2320574
 --- exit write_ns ---

     Threshold (ethr) on eigenvalues was too large:
     Diagonalizing with lowered threshold

     Davidson diagonalization with overlap
     ethr =  7.92E-08,  avg # of iterations =  2.0

[...]

     total energy              =   -2127.70201501 Ry
     Harris-Foulkes estimate   =   -2127.70201501 Ry
     estimated scf accuracy    <       0.00000001 Ry

     iteration # 20     ecut=    40.00 Ry     beta=0.70
     Davidson diagonalization with overlap
     ethr =  5.78E-12,  avg # of iterations =  1.0

     negative rho (up, down):  0.570E+00 0.000E+00

     End of self-consistent calculation
 --- enter write_ns ---
 LDA+U parameters:
U( 2)     =  7.00000000
alpha( 2) =  0.00000000
atom    3   Tr[ns(na)] =   7.27165
    eigenvalues:
  0.490  0.543  0.690  0.930  0.983
    eigenvectors:
  0.000  0.179  0.010  0.000  0.811
  1.000  0.000  0.000  0.000  0.000
  0.000  0.003  0.979  0.000  0.018
  0.000  0.819  0.011  0.000  0.171
  0.000  0.000  0.000  1.000  0.000
    occupations:
  0.902 -0.000  0.039 -0.165 -0.000
 -0.000  0.490 -0.000 -0.000 -0.009
  0.039 -0.000  0.695 -0.010  0.002
 -0.165 -0.000 -0.010  0.620 -0.000
 -0.000 -0.009  0.002 -0.000  0.929
atom    4   Tr[ns(na)] =   7.26725
    eigenvalues:
  0.549  0.606  0.607  0.885  0.987
    eigenvectors:
  0.002  0.933  0.047  0.000  0.018
  0.000  0.000  0.012  0.988  0.000
  0.001  0.047  0.940  0.012  0.000
  0.000  0.017  0.001  0.000  0.982
  0.997  0.002  0.000  0.000  0.000
    occupations:
  0.613 -0.001 -0.000  0.050  0.002
 -0.001  0.882  0.030 -0.001 -0.001
 -0.000  0.030  0.610  0.002  0.002
  0.050 -0.001  0.002  0.980  0.000
  0.002 -0.001  0.002  0.000  0.549
atom    9   Tr[ns(na)] =   7.22669
    eigenvalues:
  0.571  0.600  0.628  0.902  0.913
    eigenvectors:
  0.808  0.001  0.191  0.000  0.001
  0.002  0.996  0.001  0.000  0.000
  0.000  0.000  0.000  1.000  0.000
  0.190  0.003  0.808  0.000  0.000
  0.000  0.000  0.000  0.000  0.999
    occupations:
  0.582  0.002 -0.005 -0.022  0.008
  0.002  0.600  0.002 -0.000  0.001
 -0.005  0.002  0.901  0.000  0.000
 -0.022 -0.000  0.000  0.617 -0.003
  0.008  0.001  0.000 -0.003  0.913
atom   10   Tr[ns(na)] =   7.30036
    eigenvalues:
  0.490  0.520  0.781  0.882  0.977
    eigenvectors:
  0.986  0.000  0.000  0.001  0.013
  0.000  0.000  0.000  0.989  0.011
  0.000  0.000  0.999  0.000  0.000
  0.014  0.000  0.000  0.010  0.976
  0.000  1.000  0.000  0.000  0.000
    occupations:
  0.497 -0.005  0.001  0.057 -0.000
 -0.005  0.883  0.000  0.010 -0.001
  0.001  0.000  0.781 -0.003  0.004
  0.057  0.010 -0.003  0.969 -0.000
 -0.000 -0.001  0.004 -0.000  0.520
atom   16   Tr[ns(na)] =   7.27683
    eigenvalues:
  0.488  0.542  0.700  0.926  0.983
    eigenvectors:
  0.000  0.180  0.007  0.000  0.813
  1.000  0.000  0.000  0.000  0.000
  0.000  0.002  0.984  0.000  0.014
  0.000  0.818  0.009  0.000  0.174
  0.000  0.000  0.000  1.000  0.000
    occupations:
  0.901  0.000  0.033 -0.167 -0.000
  0.000  0.488 -0.000 -0.000 -0.007
  0.033 -0.000  0.704 -0.007  0.001
 -0.167 -0.000 -0.007  0.620 -0.000
 -0.000 -0.007  0.001 -0.000  0.926
atom   17   Tr[ns(na)] =   7.26755
    eigenvalues:
  0.549  0.606  0.608  0.884  0.987
    eigenvectors:
  0.002  0.699  0.282  0.000  0.018
  0.000  0.005  0.007  0.987  0.000
  0.000  0.283  0.705  0.013  0.000
  0.000  0.012  0.006  0.000  0.982
  0.998  0.002  0.000  0.000  0.000
    occupations:
  0.613 -0.004  0.000  0.050  0.003
 -0.004  0.881  0.031  0.001 -0.001
  0.000  0.031  0.611  0.002 -0.000
  0.050  0.001  0.002  0.980  0.000
  0.003 -0.001 -0.000  0.000  0.549
atom   22   Tr[ns(na)] =   7.32053
    eigenvalues:
  0.529  0.553  0.708  0.899  0.971
    eigenvectors:
  0.000  0.161  0.000  0.000  0.839
  1.000  0.000  0.000  0.000  0.000
  0.000  0.000  1.000  0.000  0.000
  0.000  0.839  0.000  0.000  0.161
  0.000  0.000  0.000  1.000  0.000
    occupations:
  0.904  0.001 -0.002 -0.154  0.000
  0.001  0.529  0.001  0.000  0.000
 -0.002  0.001  0.708  0.000  0.001
 -0.154  0.000  0.000  0.620 -0.001
  0.000  0.000  0.001 -0.001  0.899
atom   23   Tr[ns(na)] =   7.30066
    eigenvalues:
  0.490  0.519  0.783  0.881  0.977
    eigenvectors:
  0.986  0.000  0.000  0.001  0.013
  0.000  0.000  0.001  0.988  0.010
  0.000  0.000  0.998  0.001  0.000
  0.014  0.000  0.000  0.010  0.976
  0.000  1.000  0.000  0.000  0.000
    occupations:
  0.496  0.005  0.001  0.056 -0.000
  0.005  0.882 -0.003 -0.010 -0.001
  0.001 -0.003  0.783 -0.003 -0.005
  0.056 -0.010 -0.003  0.969 -0.000
 -0.000 -0.001 -0.005 -0.000  0.519
N of occupied +U levels =  58.2315241
 --- exit write_ns ---

[...]

          k = 0.2500-0.4870 0.0000 ( 30468 PWs)   bands (ev):

[...]

          k =-0.2500 0.2435 0.0000 ( 30434 PWs)   bands (ev):

   -74.1084 -73.4814 -73.4733 -73.1224 -73.1190 -73.1121 -73.0601 -73.0289
   -44.3790 -44.3471 -43.8104 -43.8003 -43.6280 -43.5201 -43.5069 -43.4905
   -43.4766 -43.3554 -43.2812 -43.2655 -43.2340 -43.1592 -43.1451 -43.1043
   -43.0873 -43.0652 -43.0280 -43.0181 -42.9431 -42.9187 -42.9166 -42.7933
   -20.5706 -20.1977 -20.1878 -20.0465 -19.9541 -19.8720 -19.7779 -19.7038
   -19.6601 -19.5491 -19.4731 -19.2638 -19.2054 -19.1431 -19.1187 -19.0072
   -18.9408 -18.9151  -9.5208  -9.1213  -9.0662  -8.9526  -8.9154  -8.7147
    -8.5629  -8.5148  -7.8934  -7.8479  -7.7087  -7.6690  -7.5388  -7.4621
    -7.4391  -7.3642  -7.2642  -7.1725  -7.1309  -6.7994  -6.6530  -6.4878
    -6.3217  -6.1910  -6.1342  -6.0273  -5.9883  -5.8606  -5.7394  -5.6921
    -5.5722  -5.5029  -5.4061  -5.2877  -5.1837  -5.0826  -4.9633  -4.9327
    -4.8946  -4.8125  -4.6761  -4.5141  -4.3328  -4.2086  -4.1325  -4.0982
    -4.0246  -3.8737  -3.8320  -3.6747  -3.4932  -3.3717  -3.2553  -3.0441
    -2.9498  -2.8532  -2.7987  -2.7129  -2.6620  -2.6067  -2.5127  -2.3596
    -2.2831  -2.2426  -2.1199  -2.0798  -1.7743  -1.7222  -1.5780  -1.2934
    -0.8629  -0.8010  -0.7062  -0.5891  -0.4346  -0.3629  -0.1888   0.1730
     1.1961   1.3649   1.6657   2.0890   2.1927   2.6392   2.8496   3.0617
     3.2275   3.4394   3.6069   3.6950   3.7781   3.8947   3.9988   4.0839
     4.1219   4.4228   4.6055   5.0469   5.5189   5.6865   5.7627   6.0443
     6.0843   6.3403   6.4761   6.4804   6.7828   6.8288   6.8922   7.1558
     7.4373   7.5047   7.8275   7.8653   7.9512   8.1944   8.2187   8.3255
     8.5235   8.5597   8.7365   8.7507   8.8973   9.0384   9.1839   9.2713
     9.3232   9.5031   9.5545   9.7585   9.8005   9.9768   9.9989  10.0749
    10.1036  10.2385  10.3271  10.4018  10.4565  10.5998  10.6073  10.8019
    10.8706  10.8797  11.0737  11.1904  11.3317  11.3901  11.4588  11.5289
    11.5841  11.6583  11.7535  11.8500  11.8864  11.9884  12.0294  12.1100
    12.1637  12.3062  12.4054  12.4334  12.5685  12.6159  12.6888  12.7405
    12.7895  12.8966  12.9703  12.9939  13.1119  13.1778  13.2389  13.3521
    13.3986  13.4925  13.6363  13.6964  13.7341  13.8044  13.8797  14.0028
    14.0866  14.1506  14.2577  14.3318  14.3967  14.4317  14.5841  14.6390
    14.6734  14.8056  14.8862  14.9886  15.0291  15.0821  15.1462  15.2657
    15.3293  15.4270  15.4544  15.5105  15.6613  15.7242  15.7746  15.8056
    15.8265  15.9106  15.9484  15.9886  16.0283  16.0952  16.1364  16.1864
    16.3014  16.4363  16.4642  16.5384  16.5818  16.6970  16.7155  16.8315
    16.8774  16.9128  17.0246  17.0397  17.1710  17.2226  17.3588  17.3814
    17.4346  17.4805  17.5148  17.5683  17.6454  17.6636  17.7127  17.8442
    17.8679  17.9066  17.9574  18.0195  18.0566  18.1298  18.1771  18.3181
    18.3239  18.4467  18.5678  18.6431  18.6764  18.7407  18.7954  18.8794
    18.9614  19.0264  19.1102  19.1929  19.2442  19.2710  19.3835  19.4348
    19.5023  19.6497  19.7271  19.7635  19.8407  19.8682  19.9174  20.0233
    20.1771  20.2112  20.2709  20.4336  20.4792  20.5872  20.6649  20.7353
    20.8090  20.8346  20.9244  20.9459  21.0375  21.0837  21.1123  21.1529
    21.2352  21.2901  21.3109  21.3493  21.3858  21.4871  21.5233  21.5856
    21.6850  21.7569  21.8422  21.8716

     the Fermi energy is    -1.1528 ev

!    total energy              =   -2127.70201501 Ry
     Harris-Foulkes estimate   =   -2127.70201501 Ry
     estimated scf accuracy    <          2.9E-09 Ry

     The total energy is the sum of the following terms:

     one-electron contribution =  -24458.69506252 Ry
     hartree contribution      =   12254.26330929 Ry
     xc contribution           =    -330.98875839 Ry
     ewald contribution        =   10404.33850972 Ry
     Hubbard energy            =       3.37972561 Ry
     smearing contrib. (-TS)   =       0.00026128 Ry

     convergence has been achieved in  20 iterations

     Forces acting on atoms (Ry/au):

     negative rho (up, down):  0.570E+00 0.000E+00
     atom    1 type  1   force =    -0.00563109   -0.00721124   -0.00072754
     atom    2 type  1   force =     0.00007774    0.00176491    0.00047579
     atom    3 type  2   force =     0.00038463    0.00525360    0.00050786
     atom    4 type  2   force =     0.00467166    0.00458993    0.00003029
     atom    5 type  1   force =    -0.00158675   -0.04732758    0.00069320
     atom    6 type  1   force =     0.00436794    0.04668205    0.00062342
     atom    7 type  1   force =     0.00180154   -0.00178926   -0.00034223
     atom    8 type  1   force =     0.03268346   -0.00003574   -0.00078591
     atom    9 type  2   force =     0.00292440   -0.00028579   -0.00087640
     atom   10 type  2   force =     0.00700044   -0.00212648   -0.00011944
     atom   11 type  1   force =    -0.00130411    0.00852792   -0.00048337
     atom   12 type  1   force =     0.00116225   -0.00734835   -0.00041141
     atom   13 type  1   force =     0.03311854   -0.00071968    0.00066507
     atom   14 type  1   force =    -0.00517986   -0.00710690   -0.00082165
     atom   15 type  1   force =    -0.00023540    0.00167287    0.00043879
     atom   16 type  2   force =    -0.00044418    0.00400377    0.00057729
     atom   17 type  2   force =     0.00500813    0.00396976   -0.00003502
     atom   18 type  1   force =    -0.00230161   -0.04471601    0.00034496
     atom   19 type  1   force =     0.00478244    0.04492187    0.00033394
     atom   20 type  1   force =    -0.00245651   -0.00155538   -0.00035307
     atom   21 type  1   force =    -0.03646632   -0.00103908   -0.00093111
     atom   22 type  2   force =     0.00010267    0.00169028   -0.00059610
     atom   23 type  2   force =    -0.00665782   -0.00226579   -0.00010861
     atom   24 type  1   force =    -0.00076786    0.03386326    0.00044660
     atom   25 type  1   force =     0.00069058   -0.03521625    0.00037947
     atom   26 type  1   force =    -0.03603804    0.00150734    0.00087593
     atom   27 type  3   force =    -0.00000704    0.00014578    0.00066374
     atom   28 type  3   force =     0.00000518    0.00018696    0.00067575
     atom   29 type  3   force =     0.00014950   -0.00000764   -0.00059295
     atom   30 type  3   force =     0.00014550   -0.00002912   -0.00054729

     Total force =     0.003130     Total SCF correction =     0.000215

     entering subroutine stress ...

     negative rho (up, down):  0.570E+00 0.000E+00
          total   stress  (Ry/bohr**3)                   (kbar)     P=   -5.56
  -0.00002384   0.00000544   0.00000258         -3.51      0.80      0.38
   0.00000544  -0.00005464   0.00000233          0.80     -8.04      0.34
   0.00000258   0.00000233  -0.00003498          0.38      0.34     -5.15

     bfgs converged in  16 scf cycles and  15 bfgs steps
     (criteria: energy < 0.10E-03, force < 0.10E-02)

     End of BFGS Geometry Optimization

     Final energy   =   -2127.7020150108 Ry
Begin final coordinates

ATOMIC_POSITIONS (crystal)
O0       0.000000000   0.000000000   0.381274512    0   0   1
O0       0.000000000   0.500000000   0.402302199    0   0   1
Ru1      0.250000000   0.500000000   0.452383877    0   0   1
Ru1      0.000000000   0.000000000   0.454489982    0   0   1
O0       0.250000000   0.810000000   0.453878185    0   0   1
O0       0.250000000   0.190000000   0.453676690    0   0   1
O0       0.000000000   0.500000000   0.499981419    0   0   1
O0       0.000000000   0.000000000   0.527236762    0   0   1
Ru1      0.250000000   0.000000000   0.583031981    0   0   1
Ru1      0.000000000   0.500000000   0.570158124    0   0   1
O0       0.250000000   0.690000000   0.578688051    0   0   1
O0       0.250000000   0.310000000   0.578722634    0   0   1
O0       0.000000000   0.000000000   0.619930198    0   0   1
O0       0.500000000   0.000000000   0.381255141    0   0   1
O0       0.500000000   0.500000000   0.402269848    0   0   1
Ru1      0.750000000   0.500000000   0.452580274    0   0   1
Ru1      0.500000000   0.000000000   0.454438236    0   0   1
O0       0.750000000   0.810000000   0.453865407    0   0   1
O0       0.750000000   0.190000000   0.453734897    0   0   1
O0       0.500000000   0.500000000   0.499968868    0   0   1
O0       0.500000000   0.000000000   0.527190399    0   0   1
Ru1      0.750000000   0.000000000   0.574877467    0   0   1
Ru1      0.500000000   0.500000000   0.570174294    0   0   1
O0       0.750000000   0.690000000   0.573773439    0   0   1
O0       0.750000000   0.310000000   0.573932935    0   0   1
O0       0.500000000   0.000000000   0.620041990    0   0   1
H2      -0.000627311   0.617976346   0.378395175
H2       0.499181604   0.618157414   0.378415868
H2       0.147872176   0.024055791   0.369166579
H2       0.647734520   0.024058021   0.369044567
End final coordinates

     General routines

     Parallel routines
     Hubbard U routines

   This run was terminated on:   7:24:56  26May2014

   JOB DONE.
Running PBS batch system epilogue script
Job id: 366674.audhumbla.fysik.dtu.dk
Username: zhonxu
Groupname: campgst
Jobname: RuO2/Eads-2-layers/bare-U-7.0
Sessionid: 11533
Queuename: verylong
Accounting:
This job has allocated the following 16 nodes:
b070 b070 b070 b070 b070 b070 b070 b070 b018 b018 b018 b018 b018 b018 b018 b018
Finished epilogue job 366674.audhumbla.fysik.dtu.dk for zhonxu