     Program PWSCF v.5.0.2 (svn rev. 9656) starts on  5Jun2014 at 20:38:32

     Current dimensions of program PWSCF are:
     Max number of different atomic species (ntypx) = 10
     Max number of k-points (npk) =  40000
     Max angular momentum in pseudopotentials (lmaxx) =  3
     Reading input from pwscf.in
Warning: card &CELL ignored
Warning: card / ignored

     Subspace diagonalization in iterative solution of the eigenvalue problem:
     a serial algorithm will be used

     bravais-lattice index     =            0
     lattice parameter (alat)  =      11.2250  a.u.
     unit-cell volume          =    7005.5484 (a.u.)^3
     number of atoms/cell      =           33
     number of atomic types    =            3
     number of electrons       =       221.00
     number of Kohn-Sham states=          319
     kinetic-energy cutoff     =      40.0000  Ry
     charge density cutoff     =     500.0000  Ry
     convergence threshold     =      1.0E-06
     mixing beta               =       0.7000
     number of iterations used =            8  plain     mixing
     Exchange-correlation      = SLA  PW   PBE  PBE ( 1 4 3 4 0)
     EXX-fraction              =        0.00
     nstep                     =           50

     celldm(1)=  11.224973  celldm(2)=   0.000000  celldm(3)=   0.000000
     celldm(4)=   0.000000  celldm(5)=   0.000000  celldm(6)=   0.000000

     crystal axes: (cart. coord. in units of alat)
               a(1) = (   1.000000   0.000000   0.000000 )
               a(2) = (   0.000000   1.107086   0.000000 )
               a(3) = (   0.000000   0.000000   4.474090 )

     reciprocal axes: (cart. coord. in units 2 pi/alat)
               b(1) = (  1.000000  0.000000  0.000000 )
               b(2) = (  0.000000  0.903272  0.000000 )
               b(3) = (  0.000000  0.000000  0.223509 )

     PseudoPot. # 1 for O  read from file:
     /home/camp/zhonxu/pseudo/o_pbe_v1.01.uspp.F.UPF
     MD5 check sum: 2bcb18d16ea4b960afae9ec6d52f22d2
     Pseudo is Ultrasoft + core correction, Zval =  6.0
     Generated by new atomic code, or converted to UPF format
     Using radial grid of  737 points,  5 beta functions with:
                l(1) =   0
                l(2) =   0
                l(3) =   1
                l(4) =   1
                l(5) =   2
     Q(r) pseudized with  8 coefficients,  rinner =    0.900   0.900   0.900
                                                       0.900   0.900

     PseudoPot. # 2 for Ti read from file:
     /home/camp/zhonxu/pseudo/ti_pbe_v1.uspp.F.UPF
     MD5 check sum: bcc8f6961b3b91f0cac3ca967d22d0fb
     Pseudo is Ultrasoft + core correction, Zval = 12.0
     Generated by new atomic code, or converted to UPF format
     Using radial grid of  851 points,  6 beta functions with:
                l(1) =   0
                l(2) =   0
                l(3) =   1
                l(4) =   1
                l(5) =   2
                l(6) =   2
     Q(r) pseudized with  6 coefficients,  rinner =    1.000   1.000   1.000
                                                       1.000   1.000

     PseudoPot. # 3 for H  read from file:
     /home/camp/zhonxu/pseudo/h_pbe_v1.uspp.F.UPF
     MD5 check sum: 3408e3ff4ec8b0a4e358431e7e038a48
     Pseudo is Ultrasoft, Zval =  1.0
     Generated by new atomic code, or converted to UPF format
     Using radial grid of  615 points,  2 beta functions with:
                l(1) =   0
                l(2) =   0
     Q(r) pseudized with  8 coefficients,  rinner =    0.700

     atomic species   valence    mass     pseudopotential
        O0             6.00    15.99940     O ( 1.00)
        Ti1           12.00    47.88000     Ti( 1.00)
        H2             1.00     1.00794     H ( 1.00)

     Simplified LDA+U calculation (l_max = 2) with parameters (eV):
     atomic species    L          U    alpha       J0     beta
        Ti1            2     6.5000   0.0000   0.0000   0.0000

     No symmetry found

   Cartesian axes

     site n.     atom                  positions (alat units)
         1           O0  tau(   1) = (   0.0000000   0.0000000   1.6827946  )
         2           O0  tau(   2) = (   0.0000000   0.5535432   1.7841775  )
         3           Ti1 tau(   3) = (   0.2500000   0.5535432   2.0184408  )
         4           Ti1 tau(   4) = (   0.0000000   0.0000000   2.0149511  )
         5           O0  tau(   5) = (   0.2500000   0.8967400   2.0118192  )
         6           O0  tau(   6) = (   0.2500000   0.2103464   2.0162038  )
         7           O0  tau(   7) = (   0.0000000   0.5535432   2.2318549  )
         8           O0  tau(   8) = (   0.0000000   0.0000000   2.3580243  )
         9           Ti1 tau(   9) = (   0.2500000   0.0000000   2.6006541  )
        10           Ti1 tau(  10) = (   0.0000000   0.5535432   2.5542131  )
        11           O0  tau(  11) = (   0.2500000   0.7638896   2.5968064  )
        12           O0  tau(  12) = (   0.2500000   0.3431968   2.6000725  )
        13           O0  tau(  13) = (   0.0000000   0.0000000   2.7947849  )
        14           O0  tau(  14) = (   0.5000000   0.0000000   1.6856581  )
        15           O0  tau(  15) = (   0.5000000   0.5535432   1.7841328  )
        16           Ti1 tau(  16) = (   0.7500000   0.5535432   2.0185751  )
        17           Ti1 tau(  17) = (   0.5000000   0.0000000   2.0198726  )
        18           O0  tau(  18) = (   0.7500000   0.8967400   2.0116850  )
        19           O0  tau(  19) = (   0.7500000   0.2103464   2.0166065  )
        20           O0  tau(  20) = (   0.5000000   0.5535432   2.2318997  )
        21           O0  tau(  21) = (   0.5000000   0.0000000   2.3598139  )
        22           Ti1 tau(  22) = (   0.7500000   0.0000000   2.6001173  )
        23           Ti1 tau(  23) = (   0.5000000   0.5535432   2.5981039  )
        24           O0  tau(  24) = (   0.7500000   0.7638896   2.5899163  )
        25           O0  tau(  25) = (   0.7500000   0.3431968   2.5921981  )
        26           O0  tau(  26) = (   0.5000000   0.0000000   2.7966193  )
        27           H2  tau(  27) = (   0.0000100   0.6947631   1.6949194  )
        28           H2  tau(  28) = (   0.5001200   0.6966784   1.6976486  )
        29           H2  tau(  29) = (   0.1516300   0.0361685   1.6245867  )
        30           H2  tau(  30) = (   0.6509100   0.0365671   1.6260184  )
        31           O0  tau(  31) = (   0.5532600   0.5720647   2.9392085  )
        32           O0  tau(  32) = (   0.3991000   0.4470968   3.0667201  )
        33           H2  tau(  33) = (   0.4825900   0.4304684   3.2095778  )

     number of k points=    10  Methfessel-Paxton smearing, width (Ry)=  0.0100
                       cart. coord. in units 2pi/alat
        k(    1) = (   0.0000000   0.0000000   0.0000000), wk =   0.1250000
        k(    2) = (   0.0000000   0.2258180   0.0000000), wk =   0.2500000
        k(    3) = (   0.0000000  -0.4516359   0.0000000), wk =   0.1250000
        k(    4) = (   0.2500000   0.0000000   0.0000000), wk =   0.2500000
        k(    5) = (   0.2500000   0.2258180   0.0000000), wk =   0.2500000
        k(    6) = (   0.2500000  -0.4516359   0.0000000), wk =   0.2500000
        k(    7) = (  -0.5000000   0.0000000   0.0000000), wk =   0.1250000
        k(    8) = (  -0.5000000   0.2258180   0.0000000), wk =   0.2500000
        k(    9) = (  -0.5000000  -0.4516359   0.0000000), wk =   0.1250000
        k(   10) = (  -0.2500000   0.2258180   0.0000000), wk =   0.2500000

     Largest allocated arrays     est. size (Mb)     dimensions
     Largest temporary arrays     est. size (Mb)     dimensions

     Check: negative/imaginary core charge=   -0.000006    0.000000

     Initial potential from superposition of free atoms
     Check: negative starting charge=   -0.102416

     starting charge  212.99957, renormalised to  221.00000

     negative rho (up, down):  0.106E+00 0.000E+00
     Number of +U iterations with fixed ns =  0
     Starting occupations:
 --- enter write_ns ---
 LDA+U parameters:
U( 2)     =  6.50000000
alpha( 2) =  0.00000000
atom    3   Tr[ns(na)] =   2.00000
    eigenvalues:
  0.200  0.200  0.200  0.200  0.200
    eigenvectors:
  1.000  0.000  0.000  0.000  0.000
  0.000  1.000  0.000  0.000  0.000
  0.000  0.000  1.000  0.000  0.000
  0.000  0.000  0.000  1.000  0.000
  0.000  0.000  0.000  0.000  1.000
    occupations:
  0.200  0.000  0.000  0.000  0.000
  0.000  0.200  0.000  0.000  0.000
  0.000  0.000  0.200  0.000  0.000
  0.000  0.000  0.000  0.200  0.000
  0.000  0.000  0.000  0.000  0.200
atom    4   Tr[ns(na)] =   2.00000
    eigenvalues:
  0.200  0.200  0.200  0.200  0.200
    eigenvectors:
  1.000  0.000  0.000  0.000  0.000
  0.000  1.000  0.000  0.000  0.000
  0.000  0.000  1.000  0.000  0.000
  0.000  0.000  0.000  1.000  0.000
  0.000  0.000  0.000  0.000  1.000
    occupations:
  0.200  0.000  0.000  0.000  0.000
  0.000  0.200  0.000  0.000  0.000
  0.000  0.000  0.200  0.000  0.000
  0.000  0.000  0.000  0.200  0.000
  0.000  0.000  0.000  0.000  0.200
atom    9   Tr[ns(na)] =   2.00000
    eigenvalues:
  0.200  0.200  0.200  0.200  0.200
    eigenvectors:
  1.000  0.000  0.000  0.000  0.000
  0.000  1.000  0.000  0.000  0.000
  0.000  0.000  1.000  0.000  0.000
  0.000  0.000  0.000  1.000  0.000
  0.000  0.000  0.000  0.000  1.000
    occupations:
  0.200  0.000  0.000  0.000  0.000
  0.000  0.200  0.000  0.000  0.000
  0.000  0.000  0.200  0.000  0.000
  0.000  0.000  0.000  0.200  0.000
  0.000  0.000  0.000  0.000  0.200
atom   10   Tr[ns(na)] =   2.00000
    eigenvalues:
  0.200  0.200  0.200  0.200  0.200
    eigenvectors:
  1.000  0.000  0.000  0.000  0.000
  0.000  1.000  0.000  0.000  0.000
  0.000  0.000  1.000  0.000  0.000
  0.000  0.000  0.000  1.000  0.000
  0.000  0.000  0.000  0.000  1.000
    occupations:
  0.200  0.000  0.000  0.000  0.000
  0.000  0.200  0.000  0.000  0.000
  0.000  0.000  0.200  0.000  0.000
  0.000  0.000  0.000  0.200  0.000
  0.000  0.000  0.000  0.000  0.200
atom   16   Tr[ns(na)] =   2.00000
    eigenvalues:
  0.200  0.200  0.200  0.200  0.200
    eigenvectors:
  1.000  0.000  0.000  0.000  0.000
  0.000  1.000  0.000  0.000  0.000
  0.000  0.000  1.000  0.000  0.000
  0.000  0.000  0.000  1.000  0.000
  0.000  0.000  0.000  0.000  1.000
    occupations:
  0.200  0.000  0.000  0.000  0.000
  0.000  0.200  0.000  0.000  0.000
  0.000  0.000  0.200  0.000  0.000
  0.000  0.000  0.000  0.200  0.000
  0.000  0.000  0.000  0.000  0.200
atom   17   Tr[ns(na)] =   2.00000
    eigenvalues:
  0.200  0.200  0.200  0.200  0.200
    eigenvectors:
  1.000  0.000  0.000  0.000  0.000
  0.000  1.000  0.000  0.000  0.000
  0.000  0.000  1.000  0.000  0.000
  0.000  0.000  0.000  1.000  0.000
  0.000  0.000  0.000  0.000  1.000
    occupations:
  0.200  0.000  0.000  0.000  0.000
  0.000  0.200  0.000  0.000  0.000
  0.000  0.000  0.200  0.000  0.000
  0.000  0.000  0.000  0.200  0.000
  0.000  0.000  0.000  0.000  0.200
atom   22   Tr[ns(na)] =   2.00000
    eigenvalues:
  0.200  0.200  0.200  0.200  0.200
    eigenvectors:
  1.000  0.000  0.000  0.000  0.000
  0.000  1.000  0.000  0.000  0.000
  0.000  0.000  1.000  0.000  0.000
[...]
  0.996  0.004  0.000  0.000  0.000
  0.000  0.000  0.107  0.893  0.001
  0.004  0.996  0.000  0.000  0.000
    occupations:
  0.202 -0.001  0.000  0.062 -0.000
 -0.001  0.467  0.001  0.002 -0.001
  0.000  0.001  0.130 -0.001  0.003
  0.062  0.002 -0.001  0.362  0.000
 -0.000 -0.001  0.003  0.000  0.171
atom   10   Tr[ns(na)] =   2.60290
    eigenvalues:
  0.138  0.169  0.192  0.326  0.476
    eigenvectors:
  0.021  0.000  0.000  0.979  0.000
  0.000  0.002  0.998  0.000  0.000
  0.000  0.998  0.002  0.000  0.000
  0.979  0.000  0.000  0.021  0.000
  0.000  0.000  0.000  0.000  1.000
    occupations:
  0.322 -0.001 -0.001 -0.027 -0.000
 -0.001  0.192 -0.001  0.000 -0.001
 -0.001 -0.001  0.169  0.000 -0.000
 -0.027  0.000  0.000  0.142 -0.000
 -0.000 -0.001 -0.000 -0.000  0.476
atom   16   Tr[ns(na)] =   2.56233
    eigenvalues:
  0.124  0.140  0.154  0.422  0.442
    eigenvectors:
  0.735  0.024  0.046  0.163  0.033
  0.000  0.002  0.000  0.187  0.810
  0.079  0.159  0.762  0.000  0.000
  0.183  0.004  0.008  0.649  0.155
  0.003  0.811  0.184  0.000  0.002
    occupations:
  0.185 -0.000 -0.004  0.119 -0.001
 -0.000  0.437 -0.001  0.009  0.014
 -0.004 -0.001  0.150  0.008  0.006
  0.119  0.009  0.008  0.367  0.000
 -0.001  0.014  0.006  0.000  0.143
atom   17   Tr[ns(na)] =   2.67283
    eigenvalues:
  0.127  0.154  0.169  0.434  0.452
    eigenvectors:
  0.007  0.002  0.000  0.000  0.990
  0.002  0.859  0.136  0.000  0.003
  0.001  0.135  0.863  0.000  0.000
  0.990  0.004  0.000  0.000  0.007
  0.000  0.000  0.000  1.000  0.000
    occupations:
  0.449  0.016  0.005 -0.026 -0.000
  0.016  0.157 -0.005 -0.000 -0.003
  0.005 -0.005  0.167  0.001 -0.000
 -0.026 -0.000  0.001  0.129 -0.000
 -0.000 -0.003 -0.000 -0.000  0.434
atom   22   Tr[ns(na)] =   2.66813
    eigenvalues:
  0.130  0.173  0.182  0.382  0.467
    eigenvectors:
  0.000  0.000  0.896  0.104  0.000
  0.000  0.000  0.000  0.001  0.999
  0.996  0.004  0.000  0.000  0.000
  0.000  0.000  0.104  0.896  0.001
  0.004  0.996  0.000  0.000  0.000
    occupations:
  0.202  0.001 -0.001  0.061 -0.000
  0.001  0.467 -0.001 -0.002 -0.000
 -0.001 -0.001  0.130 -0.003 -0.003
  0.061 -0.002 -0.003  0.361 -0.000
 -0.000 -0.000 -0.003 -0.000  0.172
atom   23   Tr[ns(na)] =   2.60289
    eigenvalues:
  0.134  0.140  0.167  0.387  0.475
    eigenvectors:
  0.002  0.010  0.001  0.986  0.000
  0.085  0.041  0.873  0.001  0.000
  0.823  0.062  0.114  0.001  0.000
  0.089  0.886  0.013  0.012  0.000
  0.000  0.000  0.000  0.000  1.000
    occupations:
  0.384 -0.006  0.007 -0.027 -0.002
 -0.006  0.163 -0.010 -0.002 -0.002
  0.007 -0.010  0.138  0.002 -0.000
 -0.027 -0.002  0.002  0.143 -0.000
 -0.002 -0.002 -0.000 -0.000  0.475
N of occupied +U levels =  21.0124852
 --- exit write_ns ---

[...]

     total energy              =   -1596.75269508 Ry
     Harris-Foulkes estimate   =   -1596.75269508 Ry
     estimated scf accuracy    <       0.00000001 Ry

     iteration # 12     ecut=    40.00 Ry     beta=0.70
     Davidson diagonalization with overlap
     ethr =  5.15E-12,  avg # of iterations =  1.0

     negative rho (up, down):  0.107E+00 0.000E+00

     End of self-consistent calculation
 --- enter write_ns ---
 LDA+U parameters:
U( 2)     =  6.50000000
alpha( 2) =  0.00000000
atom    3   Tr[ns(na)] =   2.56226
    eigenvalues:
  0.124  0.140  0.154  0.422  0.442
    eigenvectors:
  0.736  0.025  0.045  0.161  0.034
  0.000  0.002  0.000  0.193  0.804
  0.078  0.158  0.763  0.000  0.000
  0.183  0.005  0.008  0.645  0.160
  0.003  0.811  0.184  0.000  0.002
    occupations:
  0.185  0.000 -0.004  0.119  0.000
  0.000  0.437  0.001 -0.009  0.014
 -0.004  0.001  0.150  0.007 -0.006
  0.119 -0.009  0.007  0.367 -0.001
  0.000  0.014 -0.006 -0.001  0.143
atom    4   Tr[ns(na)] =   2.67613
    eigenvalues:
  0.127  0.154  0.170  0.436  0.452
    eigenvectors:
  0.007  0.003  0.000  0.000  0.990
  0.002  0.871  0.124  0.000  0.003
  0.001  0.123  0.876  0.000  0.000
  0.989  0.004  0.000  0.000  0.007
  0.000  0.000  0.000  1.000  0.000
    occupations:
  0.449  0.016  0.005 -0.026 -0.000
  0.016  0.157 -0.005 -0.000 -0.003
  0.005 -0.005  0.168  0.001 -0.000
 -0.026 -0.000  0.001  0.129 -0.000
 -0.000 -0.003 -0.000 -0.000  0.436
atom    9   Tr[ns(na)] =   2.66415
    eigenvalues:
  0.130  0.171  0.181  0.383  0.467
    eigenvectors:
  0.000  0.000  0.893  0.107  0.000
  0.000  0.000  0.000  0.001  0.999
  0.996  0.004  0.000  0.000  0.000
  0.000  0.000  0.107  0.893  0.001
  0.004  0.996  0.000  0.000  0.000
    occupations:
  0.202 -0.001  0.000  0.062 -0.000
 -0.001  0.467  0.001  0.002 -0.001
  0.000  0.001  0.130 -0.001  0.003
  0.062  0.002 -0.001  0.362  0.000
 -0.000 -0.001  0.003  0.000  0.171
atom   10   Tr[ns(na)] =   2.60349
    eigenvalues:
  0.138  0.169  0.192  0.326  0.476
    eigenvectors:
  0.021  0.000  0.000  0.979  0.000
  0.000  0.002  0.998  0.000  0.000
  0.000  0.998  0.002  0.000  0.000
  0.979  0.000  0.000  0.021  0.000
  0.000  0.000  0.000  0.000  1.000
    occupations:
  0.323 -0.001 -0.001 -0.027 -0.000
 -0.001  0.192 -0.001  0.000 -0.001
 -0.001 -0.001  0.169  0.000 -0.000
 -0.027  0.000  0.000  0.142 -0.000
 -0.000 -0.001 -0.000 -0.000  0.476
atom   16   Tr[ns(na)] =   2.56214
    eigenvalues:
  0.124  0.140  0.154  0.422  0.442
    eigenvectors:
  0.735  0.024  0.046  0.163  0.033
  0.000  0.002  0.000  0.187  0.810
  0.079  0.160  0.761  0.000  0.000
  0.183  0.005  0.008  0.649  0.155
  0.003  0.810  0.185  0.000  0.002
    occupations:
  0.184 -0.000 -0.004  0.119 -0.001
 -0.000  0.437 -0.001  0.009  0.014
 -0.004 -0.001  0.149  0.008  0.006
  0.119  0.009  0.008  0.367  0.000
 -0.001  0.014  0.006  0.000  0.143
atom   17   Tr[ns(na)] =   2.67253
    eigenvalues:
  0.127  0.154  0.169  0.434  0.452
    eigenvectors:
  0.007  0.002  0.000  0.000  0.990
  0.002  0.859  0.136  0.000  0.003
  0.001  0.135  0.864  0.000  0.000
  0.990  0.004  0.000  0.000  0.007
  0.000  0.000  0.000  1.000  0.000
    occupations:
  0.449  0.016  0.005 -0.026 -0.000
  0.016  0.157 -0.005 -0.000 -0.003
  0.005 -0.005  0.167  0.001 -0.000
 -0.026 -0.000  0.001  0.129 -0.000
 -0.000 -0.003 -0.000 -0.000  0.434
atom   22   Tr[ns(na)] =   2.66770
    eigenvalues:
  0.130  0.173  0.182  0.382  0.467
    eigenvectors:
  0.000  0.000  0.896  0.104  0.000
  0.000  0.000  0.000  0.001  0.999
  0.996  0.004  0.000  0.000  0.000
  0.000  0.000  0.104  0.895  0.001
  0.004  0.996  0.000  0.000  0.000
    occupations:
  0.202  0.001 -0.001  0.061 -0.000
  0.001  0.467 -0.001 -0.002 -0.000
 -0.001 -0.001  0.130 -0.003 -0.003
  0.061 -0.002 -0.003  0.361 -0.000
 -0.000 -0.000 -0.003 -0.000  0.172
atom   23   Tr[ns(na)] =   2.60370
    eigenvalues:
  0.134  0.140  0.167  0.387  0.475
    eigenvectors:
  0.003  0.010  0.001  0.986  0.000
  0.085  0.043  0.872  0.001  0.000
  0.820  0.065  0.114  0.001  0.000
  0.092  0.882  0.013  0.012  0.000
  0.000  0.000  0.000  0.000  1.000
    occupations:
  0.384 -0.006  0.007 -0.027 -0.002
 -0.006  0.163 -0.010 -0.002 -0.002
  0.007 -0.010  0.138  0.002 -0.000
 -0.027 -0.002  0.002  0.143 -0.000
 -0.002 -0.002 -0.000 -0.000  0.475
N of occupied +U levels =  21.0120967
 --- exit write_ns ---

[...]

          k = 0.2500-0.4516 0.0000 ( 29882 PWs)   bands (ev):

[...]

          k =-0.2500 0.2258 0.0000 ( 29912 PWs)   bands (ev):

   -61.3357 -61.3114 -61.0560 -60.7380 -59.9926 -59.9632 -59.5410 -59.5139
   -37.7219 -37.5137 -37.4900 -37.4179 -37.4072 -37.3866 -37.3827 -37.2530
   -37.1618 -36.9230 -36.9119 -36.8825 -36.4673 -36.2788 -36.2107 -36.1693
   -36.0215 -35.9982 -35.8512 -35.8299 -35.8087 -35.7059 -35.6442 -35.5202
   -24.9200 -21.3681 -21.1477 -20.2260 -19.7574 -19.6903 -19.3737 -19.2841
   -19.1457 -19.0522 -18.9849 -18.9739 -18.9543 -18.7831 -18.7286 -18.1361
   -17.8654 -17.6707 -17.4803 -17.4052  -9.6225  -8.9885  -8.7727  -7.9875
    -7.3081  -7.1701  -7.1661  -7.0816  -6.9893  -6.7657  -6.7243  -6.6494
    -6.6028  -6.5253  -6.4516  -6.3440  -6.2897  -6.2289  -6.1422  -6.0179
    -5.9329  -5.7246  -5.6710  -5.4563  -5.3436  -5.1160  -5.0434  -4.9150
    -4.9064  -4.8092  -4.7701  -4.6936  -4.6112  -4.5505  -4.4450  -4.3918
    -4.3703  -4.3020  -4.2435  -4.1204  -4.0498  -3.9571  -3.8693  -3.7315
    -3.6589  -3.5440  -3.3594  -3.1163  -2.9491  -2.8159  -2.8042  -2.7068
    -2.6266  -2.4920  -2.4017  -2.3148  -2.2574  -2.1473  -2.0661   0.1945
     0.4466   0.5473   0.5751   0.6168   0.7694   0.8522   0.9441   0.9968
     1.0885   1.1575   1.2217   1.4327   1.4912   1.5681   1.6681   1.8275
     1.8679   1.9253   2.0201   2.0900   2.1317   2.2355   2.2878   2.3046
     2.4014   2.4889   2.5093   2.5368   2.7712   2.9584   3.0865   3.1337
     3.1687   3.3185   3.4934   3.5445   3.7311   3.8440   3.8783   4.0086
     4.1805   4.1922   4.2724   4.7169   5.2020   5.3001   5.6317   5.6608
     5.7626   6.0282   6.1222   6.3193   6.4267   6.6185   6.7610   7.0518
     7.1618   7.3190   7.4711   7.5762   7.7908   7.9808   8.0331   8.1154
     8.2227   8.2880   8.4464   8.4710   8.6119   8.7366   8.8688   8.9921
     9.1105   9.2209   9.3091   9.4898   9.5447   9.6177   9.7396   9.7827
     9.8836   9.9757  10.0795  10.2545  10.3334  10.4152  10.4766  10.5880
    10.6789  10.7633  10.8721  10.9727  11.0499  11.0910  11.1832  11.2416
    11.3449  11.4227  11.5104  11.5595  11.6341  11.7187  11.7751  11.8594
    11.9368  12.0471  12.0690  12.1655  12.1965  12.2788  12.3380  12.4085
    12.5240  12.5587  12.6236  12.6814  12.8180  12.8770  12.9890  13.0235
    13.0630  13.1237  13.1949  13.3366  13.4396  13.5539  13.6354  13.7126
    13.7701  13.8255  13.9138  13.9927  14.0856  14.1177  14.1751  14.2152
    14.2495  14.3246  14.3952  14.4795  14.5260  14.5785  14.6127  14.7156
    14.8145  14.8942  14.9303  15.0323  15.1260  15.2317  15.2579  15.3314
    15.4653  15.5399  15.5916  15.6362  15.6909  15.7510  15.7754  15.8830
    15.9471  15.9899  16.0541  16.1194  16.2431  16.2876  16.3493  16.4176
    16.4918  16.5721  16.6348  16.7250  16.8120  16.8592  16.8762  16.9213
    16.9952  17.0614  17.1549  17.1963  17.3045  17.3472  17.4270  17.4726
    17.5565  17.5962  17.6419  17.7822  17.8549  17.9248  17.9788  18.0489
    18.0953  18.2338  18.2932  18.3938  18.4218  18.5432  18.5872  18.6360
    18.6984  18.7656  18.8262  18.9314  18.9996  19.0582  19.1291

     the Fermi energy is    -2.0517 ev

!    total energy              =   -1596.75269508 Ry
     Harris-Foulkes estimate   =   -1596.75269508 Ry
     estimated scf accuracy    <          1.3E-09 Ry

     The total energy is the sum of the following terms:

     one-electron contribution =  -19134.61434270 Ry
     hartree contribution      =    9587.70504493 Ry
     xc contribution           =    -284.42135909 Ry
     ewald contribution        =    8231.24772487 Ry
     Hubbard energy            =       3.33127214 Ry
     smearing contrib. (-TS)   =      -0.00103522 Ry

     convergence has been achieved in  12 iterations

     Forces acting on atoms (Ry/au):

     negative rho (up, down):  0.107E+00 0.000E+00
     atom    1 type  1   force =    -0.00413802   -0.01543406   -0.00003326
     atom    2 type  1   force =     0.00011260    0.01733650    0.00002117
     atom    3 type  2   force =     0.03529011   -0.00835840   -0.00017443
     atom    4 type  2   force =     0.00206658    0.00981614   -0.00038269
     atom    5 type  1   force =    -0.00020846   -0.09077797    0.00029352
     atom    6 type  1   force =    -0.00330451    0.08861139    0.00033444
     atom    7 type  1   force =    -0.00029227    0.00078162    0.00022413
     atom    8 type  1   force =     0.00031723   -0.00153143    0.00007689
     atom    9 type  2   force =    -0.00568763    0.00053653   -0.00019557
     atom   10 type  2   force =     0.00362566    0.00229255   -0.00011961
     atom   11 type  1   force =    -0.02250182   -0.01560397   -0.00002317
     atom   12 type  1   force =    -0.02043688    0.01755907    0.00022765
     atom   13 type  1   force =    -0.00046876    0.00135815   -0.00049402
     atom   14 type  1   force =    -0.00437522   -0.01562010   -0.00002632
     atom   15 type  1   force =     0.00009082    0.01786196    0.00007717
     atom   16 type  2   force =    -0.03524548   -0.00807582   -0.00014702
     atom   17 type  2   force =     0.00175186    0.00975451    0.00042212
     atom   18 type  1   force =     0.00447196   -0.09094960    0.00028759
     atom   19 type  1   force =     0.00198769    0.08828436    0.00044502
     atom   20 type  1   force =     0.00036476    0.00096643   -0.00098257
     atom   21 type  1   force =     0.00114161   -0.00145599   -0.00031142
     atom   22 type  2   force =     0.00501116   -0.00102277   -0.00032419
     atom   23 type  2   force =    -0.00416004    0.00359733   -0.00010028
     atom   24 type  1   force =     0.02276522   -0.01517197   -0.00089083
     atom   25 type  1   force =     0.02125797    0.00607584    0.00055615
     atom   26 type  1   force =     0.00047279   -0.00056649    0.00006565
     atom   27 type  3   force =     0.00003800    0.00005885    0.00017183
     atom   28 type  3   force =    -0.00001186   -0.00021229   -0.00019977
     atom   29 type  3   force =     0.00032778   -0.00007470    0.00061061
     atom   30 type  3   force =     0.00026432   -0.00008556    0.00044870
     atom   31 type  1   force =    -0.00000698   -0.00037685   -0.00005950
     atom   32 type  1   force =    -0.00072575    0.00053360    0.00019264
     atom   33 type  3   force =     0.00020556   -0.00010686    0.00000940

     Total force =     0.002342     Total SCF correction =     0.000070

     entering subroutine stress ...

     negative rho (up, down):  0.107E+00 0.000E+00
          total   stress  (Ry/bohr**3)                   (kbar)     P=   14.07
   0.00024938  -0.00000106   0.00000360         36.69     -0.16      0.53
  -0.00000106   0.00007346   0.00000296         -0.16     10.81      0.44
   0.00000360   0.00000296  -0.00003599          0.53      0.44     -5.29

     bfgs converged in  32 scf cycles and  31 bfgs steps
     (criteria: energy < 0.10E-03, force < 0.10E-02)

     End of BFGS Geometry Optimization

     Final energy   =   -1596.7526950786 Ry
Begin final coordinates

ATOMIC_POSITIONS (crystal)
O0       0.000000000   0.000000000   0.376708605    0   0   1
O0       0.000000000   0.500000000   0.398423945    0   0   1
Ti1      0.250000000   0.500000000   0.450975537    0   0   1
Ti1      0.000000000   0.000000000   0.450952691    0   0   1
O0       0.250000000   0.810000000   0.449898720    0   0   1
O0       0.250000000   0.190000000   0.450989434    0   0   1
O0       0.000000000   0.500000000   0.498764529    0   0   1
O0       0.000000000   0.000000000   0.527404814    0   0   1
Ti1      0.250000000   0.000000000   0.581407942    0   0   1
Ti1      0.000000000   0.500000000   0.570904826    0   0   1
O0       0.250000000   0.690000000   0.580108134    0   0   1
O0       0.250000000   0.310000000   0.580109002    0   0   1
O0       0.000000000   0.000000000   0.624909777    0   0   1
O0       0.500000000   0.000000000   0.377206990    0   0   1
O0       0.500000000   0.500000000   0.398481375    0   0   1
Ti1      0.750000000   0.500000000   0.450953859    0   0   1
Ti1      0.500000000   0.000000000   0.451791999    0   0   1
O0       0.750000000   0.810000000   0.449905905    0   0   1
O0       0.750000000   0.190000000   0.450980497    0   0   1
O0       0.500000000   0.500000000   0.498657751    0   0   1
O0       0.500000000   0.000000000   0.527729093    0   0   1
Ti1      0.750000000   0.000000000   0.581517180    0   0   1
Ti1      0.500000000   0.500000000   0.580356090    0   0   1
O0       0.750000000   0.690000000   0.580595305    0   0   1
O0       0.750000000   0.310000000   0.579290251    0   0   1
O0       0.500000000   0.000000000   0.625282277    0   0   1
H2      -0.000221901   0.630104121   0.379375039
H2       0.499831767   0.631098126   0.379816839
H2       0.151701404   0.029535626   0.363336567
H2       0.651495728   0.030039337   0.363790291
O0       0.532727259   0.507379565   0.657391282
O0       0.372369754   0.385859407   0.681806156
H2       0.440097160   0.373115738   0.715667297
End final coordinates

     General routines

     Parallel routines
     Hubbard U routines

   This run was terminated on:   4:33: 1   7Jun2014

   JOB DONE.
Running PBS batch system epilogue script
Job id: 381416.audhumbla.fysik.dtu.dk
Username: zhonxu
Groupname: campgst
Jobname: TiO2/Eads-2-layers/OOH-U-6.5
Sessionid: 30722
Queuename: verylong
Accounting:
This job has allocated the following 16 nodes:
b079 b079 b079 b079 b079 b079 b079 b079 b059 b059 b059 b059 b059 b059 b059 b059
Finished epilogue job 381416.audhumbla.fysik.dtu.dk for zhonxu