     Program PWSCF v.5.0.2 (svn rev. 9656) starts on 31May2014 at 23:37:36

     Current dimensions of program PWSCF are:
     Max number of different atomic species (ntypx) = 10
     Max number of k-points (npk) =  40000
     Max angular momentum in pseudopotentials (lmaxx) =  3
     Reading input from pwscf.in
Warning: card &CELL ignored
Warning: card / ignored

     Subspace diagonalization in iterative solution of the eigenvalue problem:
     a serial algorithm will be used

     bravais-lattice index     =            0
     lattice parameter (alat)  =      11.2250  a.u.
     unit-cell volume          =    7005.5484 (a.u.)^3
     number of atoms/cell      =           33
     number of atomic types    =            3
     number of electrons       =       221.00
     number of Kohn-Sham states=          319
     kinetic-energy cutoff     =      40.0000  Ry
     charge density cutoff     =     500.0000  Ry
     convergence threshold     =      1.0E-06
     mixing beta               =       0.7000
     number of iterations used =            8  plain     mixing
     Exchange-correlation      = SLA  PW   PBE  PBE ( 1 4 3 4 0)
     EXX-fraction              =        0.00
     nstep                     =           50

     celldm(1)=  11.224973  celldm(2)=   0.000000  celldm(3)=   0.000000
     celldm(4)=   0.000000  celldm(5)=   0.000000  celldm(6)=   0.000000

     crystal axes: (cart. coord. in units of alat)
               a(1) = (   1.000000   0.000000   0.000000 )
               a(2) = (   0.000000   1.107086   0.000000 )
               a(3) = (   0.000000   0.000000   4.474090 )

     reciprocal axes: (cart. coord. in units 2 pi/alat)
               b(1) = (  1.000000  0.000000  0.000000 )
               b(2) = (  0.000000  0.903272  0.000000 )
               b(3) = (  0.000000  0.000000  0.223509 )

     PseudoPot. # 1 for O  read from file:
     /home/camp/zhonxu/pseudo/o_pbe_v1.01.uspp.F.UPF
     MD5 check sum: 2bcb18d16ea4b960afae9ec6d52f22d2
     Pseudo is Ultrasoft + core correction, Zval =  6.0
     Generated by new atomic code, or converted to UPF format
     Using radial grid of  737 points,  5 beta functions with:
                l(1) =   0
                l(2) =   0
                l(3) =   1
                l(4) =   1
                l(5) =   2
     Q(r) pseudized with  8 coefficients,  rinner =    0.900   0.900   0.900
                                                       0.900   0.900

     PseudoPot. # 2 for Ti read from file:
     /home/camp/zhonxu/pseudo/ti_pbe_v1.uspp.F.UPF
     MD5 check sum: bcc8f6961b3b91f0cac3ca967d22d0fb
     Pseudo is Ultrasoft + core correction, Zval = 12.0
     Generated by new atomic code, or converted to UPF format
     Using radial grid of  851 points,  6 beta functions with:
                l(1) =   0
                l(2) =   0
                l(3) =   1
                l(4) =   1
                l(5) =   2
                l(6) =   2
     Q(r) pseudized with  6 coefficients,  rinner =    1.000   1.000   1.000
                                                       1.000   1.000

     PseudoPot. # 3 for H  read from file:
     /home/camp/zhonxu/pseudo/h_pbe_v1.uspp.F.UPF
     MD5 check sum: 3408e3ff4ec8b0a4e358431e7e038a48
     Pseudo is Ultrasoft, Zval =  1.0
     Generated by new atomic code, or converted to UPF format
     Using radial grid of  615 points,  2 beta functions with:
                l(1) =   0
                l(2) =   0
     Q(r) pseudized with  8 coefficients,  rinner =    0.700

     atomic species   valence    mass     pseudopotential
        O0             6.00    15.99940     O ( 1.00)
        Ti1           12.00    47.88000     Ti( 1.00)
        H2             1.00     1.00794     H ( 1.00)

     Simplified LDA+U calculation (l_max = 2) with parameters (eV):
     atomic species    L          U    alpha       J0     beta
        Ti1            2     6.5000   0.0000   0.0000   0.0000

     No symmetry found

   Cartesian axes

     site n.     atom                  positions (alat units)
         1           O0  tau(   1) = (   0.0000000   0.0000000   1.6912954  )
         2           O0  tau(   2) = (   0.0000000   0.5535432   1.7865040  )
         3           Ti1 tau(   3) = (   0.2500000   0.5535432   2.0182619  )
         4           Ti1 tau(   4) = (   0.0000000   0.0000000   2.0215280  )
         5           O0  tau(   5) = (   0.2500000   0.8967400   2.0132062  )
         6           O0  tau(   6) = (   0.2500000   0.2103464   2.0173223  )
         7           O0  tau(   7) = (   0.0000000   0.5535432   2.2297074  )
         8           O0  tau(   8) = (   0.0000000   0.0000000   2.3520737  )
         9           Ti1 tau(   9) = (   0.2500000   0.0000000   2.5974328  )
        10           Ti1 tau(  10) = (   0.0000000   0.5535432   2.5411040  )
        11           O0  tau(  11) = (   0.2500000   0.7638896   2.5876345  )
        12           O0  tau(  12) = (   0.2500000   0.3431968   2.5923323  )
        13           O0  tau(  13) = (   0.0000000   0.0000000   2.7826601  )
        14           O0  tau(  14) = (   0.5000000   0.0000000   1.6946510  )
        15           O0  tau(  15) = (   0.5000000   0.5535432   1.7849381  )
        16           Ti1 tau(  16) = (   0.7500000   0.5535432   2.0183066  )
        17           Ti1 tau(  17) = (   0.5000000   0.0000000   2.0277470  )
        18           O0  tau(  18) = (   0.7500000   0.8967400   2.0129377  )
        19           O0  tau(  19) = (   0.7500000   0.2103464   2.0175013  )
        20           O0  tau(  20) = (   0.5000000   0.5535432   2.2179405  )
        21           O0  tau(  21) = (   0.5000000   0.0000000   2.3528791  )
        22           Ti1 tau(  22) = (   0.7500000   0.0000000   2.5974328  )
        23           Ti1 tau(  23) = (   0.5000000   0.5535432   2.6181478  )
        24           O0  tau(  24) = (   0.7500000   0.7638896   2.5875898  )
        25           O0  tau(  25) = (   0.7500000   0.3431968   2.5922429  )
        26           O0  tau(  26) = (   0.5000000   0.0000000   2.7811837  )
        27           H2  tau(  27) = (  -0.0004600   0.6930693   1.6949194  )
        28           H2  tau(  28) = (   0.4997200   0.6918293   1.6916086  )
        29           H2  tau(  29) = (   0.1490000   0.0365781   1.6268238  )
        30           H2  tau(  30) = (   0.6482800   0.0381834   1.6297319  )
        31           O0  tau(  31) = (   0.5003100   0.5833902   2.9430115  )
        32           O0  tau(  32) = (   0.4991200   0.3876242   3.0783974  )
        33           H2  tau(  33) = (   0.5003600   0.4575034   3.2295322  )

     number of k points=    10  Methfessel-Paxton smearing, width (Ry)=  0.0100
                       cart. coord. in units 2pi/alat
        k(    1) = (   0.0000000   0.0000000   0.0000000), wk =   0.1250000
        k(    2) = (   0.0000000   0.2258180   0.0000000), wk =   0.2500000
        k(    3) = (   0.0000000  -0.4516359   0.0000000), wk =   0.1250000
        k(    4) = (   0.2500000   0.0000000   0.0000000), wk =   0.2500000
        k(    5) = (   0.2500000   0.2258180   0.0000000), wk =   0.2500000
        k(    6) = (   0.2500000  -0.4516359   0.0000000), wk =   0.2500000
        k(    7) = (  -0.5000000   0.0000000   0.0000000), wk =   0.1250000
        k(    8) = (  -0.5000000   0.2258180   0.0000000), wk =   0.2500000
        k(    9) = (  -0.5000000  -0.4516359   0.0000000), wk =   0.1250000
        k(   10) = (  -0.2500000   0.2258180   0.0000000), wk =   0.2500000

     Largest allocated arrays     est. size (Mb)     dimensions
     Largest temporary arrays     est. size (Mb)     dimensions

     Check: negative/imaginary core charge=   -0.000006    0.000000

     Initial potential from superposition of free atoms
     Check: negative starting charge=   -0.102033

     starting charge  212.99957, renormalised to  221.00000

     negative rho (up, down):  0.106E+00 0.000E+00
     Number of +U iterations with fixed ns =  0
     Starting occupations:
 --- enter write_ns ---
 LDA+U parameters:
U( 2)     =  6.50000000
alpha( 2) =  0.00000000
atom    3   Tr[ns(na)] =   2.00000
    eigenvalues:
  0.200  0.200  0.200  0.200  0.200
    eigenvectors:
  1.000  0.000  0.000  0.000  0.000
  0.000  1.000  0.000  0.000  0.000
  0.000  0.000  1.000  0.000  0.000
  0.000  0.000  0.000  1.000  0.000
  0.000  0.000  0.000  0.000  1.000
    occupations:
  0.200  0.000  0.000  0.000  0.000
  0.000  0.200  0.000  0.000  0.000
  0.000  0.000  0.200  0.000  0.000
  0.000  0.000  0.000  0.200  0.000
  0.000  0.000  0.000  0.000  0.200
atom    4   Tr[ns(na)] =   2.00000
    eigenvalues:
  0.200  0.200  0.200  0.200  0.200
    eigenvectors:
  1.000  0.000  0.000  0.000  0.000
  0.000  1.000  0.000  0.000  0.000
  0.000  0.000  1.000  0.000  0.000
  0.000  0.000  0.000  1.000  0.000
  0.000  0.000  0.000  0.000  1.000
    occupations:
  0.200  0.000  0.000  0.000  0.000
  0.000  0.200  0.000  0.000  0.000
  0.000  0.000  0.200  0.000  0.000
  0.000  0.000  0.000  0.200  0.000
  0.000  0.000  0.000  0.000  0.200
atom    9   Tr[ns(na)] =   2.00000
    eigenvalues:
  0.200  0.200  0.200  0.200  0.200
    eigenvectors:
  1.000  0.000  0.000  0.000  0.000
  0.000  1.000  0.000  0.000  0.000
  0.000  0.000  1.000  0.000  0.000
  0.000  0.000  0.000  1.000  0.000
  0.000  0.000  0.000  0.000  1.000
    occupations:
  0.200  0.000  0.000  0.000  0.000
  0.000  0.200  0.000  0.000  0.000
  0.000  0.000  0.200  0.000  0.000
  0.000  0.000  0.000  0.200  0.000
  0.000  0.000  0.000  0.000  0.200
atom   10   Tr[ns(na)] =   2.00000
    eigenvalues:
  0.200  0.200  0.200  0.200  0.200
    eigenvectors:
  1.000  0.000  0.000  0.000  0.000
  0.000  1.000  0.000  0.000  0.000
  0.000  0.000  1.000  0.000  0.000
  0.000  0.000  0.000  1.000  0.000
  0.000  0.000  0.000  0.000  1.000
    occupations:
  0.200  0.000  0.000  0.000  0.000
  0.000  0.200  0.000  0.000  0.000
  0.000  0.000  0.200  0.000  0.000
  0.000  0.000  0.000  0.200  0.000
  0.000  0.000  0.000  0.000  0.200
atom   16   Tr[ns(na)] =   2.00000
    eigenvalues:
  0.200  0.200  0.200  0.200  0.200
    eigenvectors:
  1.000  0.000  0.000  0.000  0.000
  0.000  1.000  0.000  0.000  0.000
  0.000  0.000  1.000  0.000  0.000
  0.000  0.000  0.000  1.000  0.000
  0.000  0.000  0.000  0.000  1.000
    occupations:
  0.200  0.000  0.000  0.000  0.000
  0.000  0.200  0.000  0.000  0.000
  0.000  0.000  0.200  0.000  0.000
  0.000  0.000  0.000  0.200  0.000
  0.000  0.000  0.000  0.000  0.200
atom   17   Tr[ns(na)] =   2.00000
    eigenvalues:
  0.200  0.200  0.200  0.200  0.200
    eigenvectors:
  1.000  0.000  0.000  0.000  0.000
  0.000  1.000  0.000  0.000  0.000
  0.000  0.000  1.000  0.000  0.000
  0.000  0.000  0.000  1.000  0.000
  0.000  0.000  0.000  0.000  1.000
    occupations:
  0.200  0.000  0.000  0.000  0.000
  0.000  0.200  0.000  0.000  0.000
  0.000  0.000  0.200  0.000  0.000
  0.000  0.000  0.000  0.200  0.000
  0.000  0.000  0.000  0.000  0.200
atom   22   Tr[ns(na)] =   2.00000
    eigenvalues:
  0.200  0.200  0.200  0.200  0.200
    eigenvectors:
  1.000  0.000  0.000  0.000  0.000
  0.000  1.000  0.000  0.000  0.000
  0.000  0.000  1.000  0.000  0.000
[...]
    eigenvectors:
  0.000  0.000  0.895  0.105  0.000
  0.000  0.000  0.000  0.001  0.999
  0.997  0.003  0.000  0.000  0.000
  0.000  0.000  0.105  0.895  0.001
  0.003  0.997  0.000  0.000  0.000
    occupations:
  0.203 -0.001  0.001  0.062 -0.000
 -0.001  0.467  0.001  0.002 -0.000
  0.001  0.001  0.128  0.001  0.002
  0.062  0.002  0.001  0.362  0.000
 -0.000 -0.000  0.002  0.000  0.171
atom   10   Tr[ns(na)] =   2.60390
    eigenvalues:
  0.138  0.169  0.192  0.327  0.476
    eigenvectors:
  0.021  0.000  0.000  0.979  0.000
  0.000  0.001  0.999  0.000  0.000
  0.000  0.999  0.001  0.000  0.000
  0.979  0.000  0.000  0.021  0.000
  0.000  0.000  0.000  0.000  1.000
    occupations:
  0.323 -0.000 -0.002 -0.027  0.000
 -0.000  0.192 -0.001  0.000  0.001
 -0.002 -0.001  0.169 -0.000 -0.004
 -0.027  0.000 -0.000  0.142 -0.000
  0.000  0.001 -0.004 -0.000  0.476
atom   16   Tr[ns(na)] =   2.56342
    eigenvalues:
  0.124  0.140  0.155  0.422  0.441
    eigenvectors:
  0.735  0.024  0.045  0.162  0.033
  0.000  0.002  0.001  0.188  0.809
  0.079  0.169  0.752  0.000  0.000
  0.183  0.004  0.008  0.649  0.156
  0.003  0.801  0.195  0.000  0.002
    occupations:
  0.184 -0.000 -0.004  0.119 -0.001
 -0.000  0.437 -0.001  0.009  0.014
 -0.004 -0.001  0.150  0.008  0.006
  0.119  0.009  0.008  0.367  0.000
 -0.001  0.014  0.006  0.000  0.144
atom   17   Tr[ns(na)] =   2.67062
    eigenvalues:
  0.127  0.154  0.169  0.434  0.451
    eigenvectors:
  0.007  0.002  0.000  0.000  0.990
  0.002  0.834  0.161  0.000  0.003
  0.001  0.160  0.839  0.000  0.000
  0.990  0.004  0.000  0.000  0.007
  0.000  0.000  0.000  1.000  0.000
    occupations:
  0.448  0.015  0.005 -0.026 -0.000
  0.015  0.157 -0.005 -0.000 -0.003
  0.005 -0.005  0.167  0.001 -0.000
 -0.026 -0.000  0.001  0.129 -0.000
 -0.000 -0.003 -0.000 -0.000  0.434
atom   22   Tr[ns(na)] =   2.66480
    eigenvalues:
  0.130  0.172  0.181  0.381  0.467
    eigenvectors:
  0.000  0.000  0.894  0.106  0.000
  0.000  0.000  0.000  0.000  0.999
  0.996  0.004  0.000  0.000  0.000
  0.000  0.000  0.106  0.894  0.001
  0.004  0.996  0.000  0.000  0.000
    occupations:
  0.202  0.001  0.000  0.062 -0.000
  0.001  0.467 -0.001 -0.002  0.000
  0.000 -0.001  0.130 -0.000 -0.003
  0.062 -0.002 -0.000  0.360 -0.000
 -0.000  0.000 -0.003 -0.000  0.172
atom   23   Tr[ns(na)] =   2.60264
    eigenvalues:
  0.134  0.139  0.167  0.386  0.475
    eigenvectors:
  0.000  0.015  0.003  0.981  0.000
  0.089  0.054  0.850  0.007  0.000
  0.879  0.012  0.109  0.000  0.000
  0.032  0.920  0.037  0.011  0.000
  0.000  0.000  0.000  0.000  1.000
    occupations:
  0.381 -0.019 -0.001 -0.026 -0.001
 -0.019  0.164 -0.010 -0.002  0.002
 -0.001 -0.010  0.138  0.003  0.004
 -0.026 -0.002  0.003  0.143 -0.000
 -0.001  0.002  0.004 -0.000  0.475
N of occupied +U levels =  21.0074903
 --- exit write_ns ---

[...]

     total energy              =   -1596.75148498 Ry
     Harris-Foulkes estimate   =   -1596.75148499 Ry
     estimated scf accuracy    <       0.00000004 Ry

     iteration # 15     ecut=    40.00 Ry     beta=0.70
     Davidson diagonalization with overlap
     ethr =  1.67E-11,  avg # of iterations =  1.0

     negative rho (up, down):  0.108E+00 0.000E+00

     End of self-consistent calculation
 --- enter write_ns ---
 LDA+U parameters:
U( 2)     =  6.50000000
alpha( 2) =  0.00000000
atom    3   Tr[ns(na)] =   2.56425
    eigenvalues:
  0.124  0.140  0.155  0.422  0.442
    eigenvectors:
  0.735  0.023  0.046  0.162  0.033
  0.000  0.002  0.000  0.189  0.808
  0.079  0.162  0.759  0.000  0.000
  0.183  0.005  0.008  0.648  0.156
  0.003  0.808  0.187  0.000  0.002
    occupations:
  0.184 -0.000 -0.004  0.119  0.000
 -0.000  0.437  0.001 -0.009  0.014
 -0.004  0.001  0.150  0.008 -0.006
  0.119 -0.009  0.008  0.367 -0.001
  0.000  0.014 -0.006 -0.001  0.144
atom    4   Tr[ns(na)] =   2.67425
    eigenvalues:
  0.127  0.153  0.170  0.436  0.451
    eigenvectors:
  0.007  0.003  0.000  0.000  0.990
  0.003  0.848  0.146  0.000  0.003
  0.001  0.145  0.853  0.000  0.000
  0.989  0.004  0.000  0.000  0.007
  0.000  0.000  0.000  0.999  0.000
    occupations:
  0.448  0.016  0.005 -0.026 -0.000
  0.016  0.156 -0.006 -0.000 -0.003
  0.005 -0.006  0.168  0.001 -0.000
 -0.026 -0.000  0.001  0.129 -0.000
 -0.000 -0.003 -0.000 -0.000  0.436
atom    9   Tr[ns(na)] =   2.66489
    eigenvalues:
  0.129  0.171  0.182  0.383  0.467
    eigenvectors:
  0.000  0.000  0.895  0.105  0.000
  0.000  0.000  0.000  0.001  0.999
  0.997  0.003  0.000  0.000  0.000
  0.000  0.000  0.105  0.895  0.001
  0.003  0.997  0.000  0.000  0.000
    occupations:
  0.203 -0.001  0.001  0.062 -0.000
 -0.001  0.467  0.001  0.002 -0.000
  0.001  0.001  0.129  0.001  0.002
  0.062  0.002  0.001  0.362  0.000
 -0.000 -0.000  0.002  0.000  0.171
atom   10   Tr[ns(na)] =   2.60458
    eigenvalues:
  0.138  0.169  0.192  0.327  0.476
    eigenvectors:
  0.021  0.000  0.000  0.979  0.000
  0.000  0.001  0.999  0.000  0.000
  0.000  0.998  0.001  0.000  0.000
  0.979  0.000  0.000  0.021  0.000
  0.000  0.000  0.000  0.000  1.000
    occupations:
  0.323 -0.000 -0.002 -0.027  0.000
 -0.000  0.192 -0.001  0.000  0.001
 -0.002 -0.001  0.169 -0.000 -0.004
 -0.027  0.000 -0.000  0.142 -0.000
  0.000  0.001 -0.004 -0.000  0.476
atom   16   Tr[ns(na)] =   2.56359
    eigenvalues:
  0.124  0.140  0.155  0.422  0.441
    eigenvectors:
  0.736  0.023  0.045  0.162  0.033
  0.000  0.002  0.000  0.187  0.811
  0.078  0.166  0.756  0.000  0.000
  0.183  0.004  0.008  0.650  0.155
  0.002  0.805  0.190  0.000  0.002
    occupations:
  0.184  0.000 -0.004  0.119 -0.001
  0.000  0.437 -0.001  0.009  0.014
 -0.004 -0.001  0.150  0.008  0.006
  0.119  0.009  0.008  0.367  0.000
 -0.001  0.014  0.006  0.000  0.144
atom   17   Tr[ns(na)] =   2.67074
    eigenvalues:
  0.127  0.154  0.169  0.434  0.452
    eigenvectors:
  0.007  0.002  0.000  0.000  0.990
  0.002  0.832  0.163  0.000  0.003
  0.001  0.162  0.836  0.000  0.000
  0.990  0.004  0.000  0.000  0.007
  0.000  0.000  0.000  1.000  0.000
    occupations:
  0.449  0.015  0.005 -0.026 -0.000
  0.015  0.157 -0.005 -0.000 -0.003
  0.005 -0.005  0.167  0.001 -0.000
 -0.026 -0.000  0.001  0.129 -0.000
 -0.000 -0.003 -0.000 -0.000  0.434
atom   22   Tr[ns(na)] =   2.66578
    eigenvalues:
  0.131  0.172  0.181  0.382  0.467
    eigenvectors:
  0.000  0.000  0.894  0.106  0.000
  0.000  0.000  0.000  0.000  0.999
  0.996  0.004  0.000  0.000  0.000
  0.000  0.000  0.106  0.894  0.000
  0.004  0.996  0.000  0.000  0.000
    occupations:
  0.202  0.001  0.000  0.062 -0.000
  0.001  0.467 -0.001 -0.002  0.000
  0.000 -0.001  0.131 -0.000 -0.003
  0.062 -0.002 -0.000  0.360 -0.000
 -0.000  0.000 -0.003 -0.000  0.172
atom   23   Tr[ns(na)] =   2.60272
    eigenvalues:
  0.134  0.139  0.167  0.386  0.475
    eigenvectors:
  0.000  0.015  0.003  0.981  0.000
  0.091  0.053  0.849  0.007  0.000
  0.876  0.013  0.112  0.000  0.000
  0.033  0.919  0.036  0.011  0.000
  0.000  0.000  0.000  0.000  1.000
    occupations:
  0.382 -0.019 -0.001 -0.026 -0.001
 -0.019  0.164 -0.010 -0.002  0.002
 -0.001 -0.010  0.138  0.003  0.004
 -0.026 -0.002  0.003  0.143 -0.000
 -0.001  0.002  0.004 -0.000  0.475
N of occupied +U levels =  21.0108183
 --- exit write_ns ---

[...]

          k = 0.2500-0.4516 0.0000 ( 29882 PWs)   bands (ev):

[...]

          k =-0.2500 0.2258 0.0000 ( 29912 PWs)   bands (ev):

   -61.3313 -61.3068 -61.0517 -60.7420 -59.9939 -59.9642 -59.5316 -59.5056
   -37.7201 -37.5105 -37.4876 -37.4139 -37.4015 -37.3807 -37.3805 -37.2494
   -37.1579 -36.9294 -36.9141 -36.8841 -36.4675 -36.2800 -36.2116 -36.1695
   -36.0216 -35.9982 -35.8431 -35.8221 -35.7986 -35.6961 -35.6346 -35.5109
   -24.9296 -21.3779 -21.1575 -20.2380 -19.7573 -19.6868 -19.3632 -19.2834
   -19.1406 -19.0502 -18.9839 -18.9711 -18.9511 -18.7798 -18.7272 -18.1186
   -17.8463 -17.6652 -17.4600 -17.3987  -9.6277  -9.0277  -8.8091  -7.9833
    -7.3110  -7.1697  -7.1543  -7.0791  -6.9953  -6.7626  -6.7251  -6.6451
    -6.6017  -6.5268  -6.4585  -6.3410  -6.2814  -6.2260  -6.1287  -6.0148
    -5.9308  -5.7213  -5.6671  -5.4519  -5.3313  -5.1055  -5.0465  -4.9164
    -4.8975  -4.8006  -4.7696  -4.6797  -4.6048  -4.5508  -4.4414  -4.3901
    -4.3611  -4.2988  -4.2411  -4.1052  -4.0499  -3.9438  -3.8580  -3.7296
    -3.6448  -3.5424  -3.3527  -3.1183  -2.9478  -2.7983  -2.7905  -2.6954
    -2.6142  -2.4752  -2.3994  -2.3117  -2.2515  -2.1474  -2.0599   0.1963
     0.4501   0.5493   0.5782   0.6186   0.7757   0.8566   0.9497   0.9962
     1.0970   1.1599   1.2248   1.4343   1.4965   1.5693   1.6687   1.8299
     1.8739   1.9274   2.0269   2.0933   2.1332   2.2377   2.2907   2.3090
     2.4047   2.4936   2.5121   2.5387   2.7777   2.9640   3.0915   3.1351
     3.1723   3.3151   3.4950   3.5448   3.7553   3.8415   3.8801   4.0081
     4.1782   4.1891   4.2765   4.7097   5.2129   5.3009   5.6185   5.6480
     5.7596   6.0210   6.1208   6.3118   6.4372   6.6117   6.7607   7.0536
     7.1524   7.3245   7.4596   7.5715   7.7840   7.9775   8.0367   8.1060
     8.2057   8.2890   8.4463   8.4839   8.5983   8.7551   8.8720   8.9813
     9.1131   9.2132   9.3055   9.4770   9.5388   9.6103   9.7331   9.7739
     9.8886   9.9687  10.0866  10.2400  10.3445  10.3981  10.4563  10.5865
    10.6850  10.7827  10.8711  10.9680  11.0160  11.0791  11.1676  11.2541
    11.3279  11.4225  11.5072  11.5460  11.6379  11.7173  11.7795  11.8640
    11.9448  12.0122  12.0661  12.1587  12.2047  12.2836  12.3520  12.3769
    12.5206  12.5535  12.6277  12.7020  12.7997  12.9015  12.9816  13.0289
    13.0620  13.1050  13.1993  13.3247  13.4338  13.5427  13.6358  13.7268
    13.7510  13.8093  13.9173  13.9718  14.0833  14.1071  14.1760  14.2233
    14.2496  14.3457  14.3997  14.4793  14.5464  14.5757  14.6164  14.7137
    14.8169  14.8851  14.9359  15.0306  15.1307  15.2469  15.2683  15.3269
    15.4567  15.5377  15.5855  15.6472  15.6833  15.7430  15.7767  15.8788
    15.9426  16.0097  16.0538  16.1106  16.2340  16.3029  16.3455  16.4023
    16.5050  16.5787  16.6391  16.7366  16.7998  16.8550  16.8809  16.9130
    17.0037  17.0812  17.1539  17.1853  17.3136  17.3465  17.4217  17.4527
    17.5590  17.6032  17.6686  17.7578  17.8592  17.9219  17.9803  18.0467
    18.0858  18.2046  18.2938  18.3938  18.4318  18.5260  18.5729  18.6274
    18.7052  18.7640  18.8219  18.9138  18.9828  19.0525  19.1287

     the Fermi energy is    -2.0473 ev

!    total energy              =   -1596.75148498 Ry
     Harris-Foulkes estimate   =   -1596.75148499 Ry
     estimated scf accuracy    <          4.4E-09 Ry

     The total energy is the sum of the following terms:

     one-electron contribution =  -19103.60421922 Ry
     hartree contribution      =    9572.22740043 Ry
     xc contribution           =    -284.42247695 Ry
     ewald contribution        =    8215.71745143 Ry
     Hubbard energy            =       3.33131928 Ry
     smearing contrib. (-TS)   =      -0.00095995 Ry

     convergence has been achieved in  15 iterations

     Forces acting on atoms (Ry/au):

     negative rho (up, down):  0.108E+00 0.000E+00
     atom    1 type  1   force =    -0.00298354   -0.01413351    0.00126559
     atom    2 type  1   force =     0.00006797    0.01404589   -0.00212986
     atom    3 type  2   force =     0.03671890   -0.00732709   -0.00110992
     atom    4 type  2   force =     0.00152904    0.00925166    0.00088908
     atom    5 type  1   force =    -0.00012385   -0.09018421    0.00054496
     atom    6 type  1   force =    -0.00341855    0.08851293    0.00094307
     atom    7 type  1   force =     0.00177235   -0.00063851    0.00018531
     atom    8 type  1   force =     0.00136472    0.00011822    0.00101348
     atom    9 type  2   force =    -0.00453247    0.00023049   -0.00063375
     atom   10 type  2   force =     0.00324175    0.00283848    0.00116994
     atom   11 type  1   force =    -0.02251290   -0.01727197   -0.00031433
     atom   12 type  1   force =    -0.01953134    0.01916845    0.00006292
     atom   13 type  1   force =    -0.00249168    0.00002702   -0.00064880
     atom   14 type  1   force =    -0.00410137   -0.01458272    0.00106092
     atom   15 type  1   force =     0.00037039    0.01546534   -0.00143802
     atom   16 type  2   force =    -0.03672157   -0.00685036   -0.00121594
     atom   17 type  2   force =     0.00192145    0.00927671    0.00123113
     atom   18 type  1   force =     0.00450296   -0.09035417    0.00048512
     atom   19 type  1   force =     0.00195124    0.08819127    0.00074675
     atom   20 type  1   force =    -0.00145714   -0.00024483   -0.00190447
     atom   21 type  1   force =     0.00003458    0.00007699   -0.00022526
     atom   22 type  2   force =     0.00399175   -0.00160025   -0.00029772
     atom   23 type  2   force =    -0.00256363    0.00548091   -0.00189910
     atom   24 type  1   force =     0.02300323   -0.01276650    0.00211009
     atom   25 type  1   force =     0.02172122    0.00460266   -0.00030990
     atom   26 type  1   force =     0.00258924   -0.00102436   -0.00107615
     atom   27 type  3   force =    -0.00008322    0.00202644    0.00060480
     atom   28 type  3   force =    -0.00008105    0.00116867    0.00038999
     atom   29 type  3   force =    -0.00036090   -0.00107047    0.00005264
     atom   30 type  3   force =    -0.00012723   -0.00089191    0.00047426
     atom   31 type  1   force =    -0.00042999    0.00097193   -0.00000916
     atom   32 type  1   force =    -0.00387978   -0.00199740   -0.00272542
     atom   33 type  3   force =     0.00061942   -0.00051579    0.00270775

     Total force =     0.008756     Total SCF correction =     0.000174

     entering subroutine stress ...

     negative rho (up, down):  0.108E+00 0.000E+00
          total   stress  (Ry/bohr**3)                   (kbar)     P=   14.11
   0.00024915  -0.00000145   0.00000080         36.65     -0.21      0.12
  -0.00000145   0.00007516   0.00000138         -0.21     11.06      0.20
   0.00000080   0.00000138  -0.00003658          0.12      0.20     -5.38

     The maximum number of steps has been reached.

     End of BFGS Geometry Optimization
Begin final coordinates

ATOMIC_POSITIONS (crystal)
O0       0.000000000   0.000000000   0.376123146    0   0   1
O0       0.000000000   0.500000000   0.398781261    0   0   1
Ti1      0.250000000   0.500000000   0.451135963    0   0   1
Ti1      0.000000000   0.000000000   0.450356466    0   0   1
O0       0.250000000   0.810000000   0.449655176    0   0   1
O0       0.250000000   0.190000000   0.450639707    0   0   1
O0       0.000000000   0.500000000   0.498837143    0   0   1
O0       0.000000000   0.000000000   0.527035036    0   0   1
Ti1      0.250000000   0.000000000   0.581273063    0   0   1
Ti1      0.000000000   0.500000000   0.570889219    0   0   1
O0       0.250000000   0.690000000   0.580406059    0   0   1
O0       0.250000000   0.310000000   0.581139380    0   0   1
O0       0.000000000   0.000000000   0.624660385    0   0   1
O0       0.500000000   0.000000000   0.376760424    0   0   1
O0       0.500000000   0.500000000   0.398767222    0   0   1
Ti1      0.750000000   0.500000000   0.451169982    0   0   1
Ti1      0.500000000   0.000000000   0.451457974    0   0   1
O0       0.750000000   0.810000000   0.449632544    0   0   1
O0       0.750000000   0.190000000   0.450731297    0   0   1
O0       0.500000000   0.500000000   0.498850662    0   0   1
O0       0.500000000   0.000000000   0.527438928    0   0   1
Ti1      0.750000000   0.000000000   0.581152705    0   0   1
Ti1      0.500000000   0.500000000   0.580698189    0   0   1
O0       0.750000000   0.690000000   0.578874630    0   0   1
O0       0.750000000   0.310000000   0.579377579    0   0   1
O0       0.500000000   0.000000000   0.625069661    0   0   1
H2       0.000009786   0.627562281   0.378831486
H2       0.500115671   0.629294170   0.379437255
H2       0.151628813   0.032665767   0.363111247
H2       0.650910286   0.033034346   0.363429748
O0       0.553256121   0.516727857   0.656936043
O0       0.399103813   0.403853622   0.685443878
H2       0.482594584   0.388829062   0.717366542
End final coordinates

     General routines

     Parallel routines
     Hubbard U routines

   This run was terminated on:  23:28:21   2Jun2014

   JOB DONE.
Running PBS batch system epilogue script
Job id: 373337.audhumbla.fysik.dtu.dk
Username: zhonxu
Groupname: campgst
Jobname: TiO2/Eads-2-layers/OOH-U-6.5
Sessionid: 17972
Queuename: verylong
Accounting:
This job has allocated the following 16 nodes:
c038 c038 c038 c038 c038 c038 c038 c038 c023 c023 c023 c023 c023 c023 c023 c023
Finished epilogue job 373337.audhumbla.fysik.dtu.dk for zhonxu