     Program PWSCF v.5.0.2 (svn rev. 9656) starts on 24Jan2014 at 15: 2:10

     Current dimensions of program PWSCF are:
     Max number of different atomic species (ntypx) = 10
     Max number of k-points (npk) =  40000
     Max angular momentum in pseudopotentials (lmaxx) =  3
     Reading input from ReO2-v-0.95.in

     Subspace diagonalization in iterative solution of the eigenvalue problem:
     a serial algorithm will be used

     bravais-lattice index     =            0
     lattice parameter (alat)  =       8.6303  a.u.
     unit-cell volume          =     414.2543 (a.u.)^3
     number of atoms/cell      =            6
     number of atomic types    =            2
     number of electrons       =        54.00
     number of Kohn-Sham states=           81
     kinetic-energy cutoff     =      40.0000  Ry
     charge density cutoff     =     500.0000  Ry
     convergence threshold     =      1.0E-06
     mixing beta               =       0.3000
     number of iterations used =            8  plain     mixing
     Exchange-correlation      = SLA  PW   PBE  PBE ( 1 4 3 4 0)
     EXX-fraction              =        0.00
     nstep                     =           50

     celldm(1)=   8.630325  celldm(2)=   0.000000  celldm(3)=   0.000000
     celldm(4)=   0.000000  celldm(5)=   0.000000  celldm(6)=   0.000000

     crystal axes: (cart. coord. in units of alat)
               a(1) = (   1.000000   0.000000   0.000000 )
               a(2) = (   0.000000   1.000000   0.000000 )
               a(3) = (   0.000000   0.000000   0.644444 )

     reciprocal axes: (cart. coord. in units 2 pi/alat)
               b(1) = (  1.000000  0.000000  0.000000 )
               b(2) = (  0.000000  1.000000  0.000000 )
               b(3) = (  0.000000  0.000000  1.551724 )

     PseudoPot. # 1 for Re read from file:
     /home/camp/zhonxu/pseudo/re_pbe_v1.uspp.F.UPF
     MD5 check sum: 6f5a5dcaf9c96c20d0ffdde0de57afc6
     Pseudo is Ultrasoft + core correction, Zval = 15.0
     Generated by new atomic code, or converted to UPF format
     Using radial grid of  981 points,  8 beta functions with:
                l(1) =   0
                l(2) =   0
                l(3) =   1
                l(4) =   1
                l(5) =   2
                l(6) =   2
                l(7) =   3
                l(8) =   3
     Q(r) pseudized with  8 coefficients,  rinner =    1.000   1.000   1.000
                                                       1.000   1.000   1.000
                                                       1.000

     PseudoPot. # 2 for O  read from file:
     /home/camp/zhonxu/pseudo/o_pbe_v1.01.uspp.F.UPF
     MD5 check sum: 2bcb18d16ea4b960afae9ec6d52f22d2
     Pseudo is Ultrasoft + core correction, Zval =  6.0
     Generated by new atomic code, or converted to UPF format
     Using radial grid of  737 points,  5 beta functions with:
                l(1) =   0
                l(2) =   0
                l(3) =   1
                l(4) =   1
                l(5) =   2
     Q(r) pseudized with  8 coefficients,  rinner =    0.900   0.900   0.900
                                                       0.900   0.900

     atomic species   valence    mass     pseudopotential
        Re0           15.00   186.20700     Re( 1.00)
        O1             6.00    15.99940     O ( 1.00)

     Starting magnetic structure
     atomic species   magnetization
        Re0          0.600
        O1           0.000

     16 Sym. Ops., with inversion, found ( 8 have fractional translation)

   Cartesian axes

     site n.     atom                  positions (alat units)
         1           Re0 tau(   1) = (   0.0000000   0.0000000   0.0000000  )
         2           Re0 tau(   2) = (   0.5000000   0.5000000   0.3222222  )
         3           O1  tau(   3) = (   0.3050000   0.3050000   0.0000000  )
         4           O1  tau(   4) = (  -0.3050000  -0.3050000   0.0000000  )
         5           O1  tau(   5) = (   0.8050000   0.1950000   0.3222222  )
         6           O1  tau(   6) = (   0.1950000   0.8050000   0.3222222  )

     number of k points=    36  Methfessel-Paxton smearing, width (Ry)=  0.0100
                       cart. coord. in units 2pi/alat
        k(    1) = (   0.0000000   0.0000000   0.0000000), wk =   0.0080000
        k(    2) = (   0.0000000   0.0000000   0.3103448), wk =   0.0160000
        k(    3) = (   0.0000000   0.0000000   0.6206897), wk =   0.0160000
        k(    4) = (   0.0000000   0.2000000   0.0000000), wk =   0.0320000
        k(    5) = (   0.0000000   0.2000000   0.3103448), wk =   0.0640000
        k(    6) = (   0.0000000   0.2000000   0.6206897), wk =   0.0640000
        k(    7) = (   0.0000000   0.4000000   0.0000000), wk =   0.0320000
        k(    8) = (   0.0000000   0.4000000   0.3103448), wk =   0.0640000
        k(    9) = (   0.0000000   0.4000000   0.6206897), wk =   0.0640000
        k(   10) = (   0.2000000   0.2000000   0.0000000), wk =   0.0320000
        k(   11) = (   0.2000000   0.2000000   0.3103448), wk =   0.0640000
        k(   12) = (   0.2000000   0.2000000   0.6206897), wk =   0.0640000
        k(   13) = (   0.2000000   0.4000000   0.0000000), wk =   0.0640000
        k(   14) = (   0.2000000   0.4000000   0.3103448), wk =   0.1280000
        k(   15) = (   0.2000000   0.4000000   0.6206897), wk =   0.1280000
        k(   16) = (   0.4000000   0.4000000   0.0000000), wk =   0.0320000
        k(   17) = (   0.4000000   0.4000000   0.3103448), wk =   0.0640000
        k(   18) = (   0.4000000   0.4000000   0.6206897), wk =   0.0640000
        k(   19) = (   0.0000000   0.0000000   0.0000000), wk =   0.0080000
        k(   20) = (   0.0000000   0.0000000   0.3103448), wk =   0.0160000
        k(   21) = (   0.0000000   0.0000000   0.6206897), wk =   0.0160000
        k(   22) = (   0.0000000   0.2000000   0.0000000), wk =   0.0320000
        k(   23) = (   0.0000000   0.2000000   0.3103448), wk =   0.0640000
        k(   24) = (   0.0000000   0.2000000   0.6206897), wk =   0.0640000
        k(   25) = (   0.0000000   0.4000000   0.0000000), wk =   0.0320000
        k(   26) = (   0.0000000   0.4000000   0.3103448), wk =   0.0640000
        k(   27) = (   0.0000000   0.4000000   0.6206897), wk =   0.0640000
        k(   28) = (   0.2000000   0.2000000   0.0000000), wk =   0.0320000
        k(   29) = (   0.2000000   0.2000000   0.3103448), wk =   0.0640000
        k(   30) = (   0.2000000   0.2000000   0.6206897), wk =   0.0640000
        k(   31) = (   0.2000000   0.4000000   0.0000000), wk =   0.0640000
        k(   32) = (   0.2000000   0.4000000   0.3103448), wk =   0.1280000
        k(   33) = (   0.2000000   0.4000000   0.6206897), wk =   0.1280000
        k(   34) = (   0.4000000   0.4000000   0.0000000), wk =   0.0320000
        k(   35) = (   0.4000000   0.4000000   0.3103448), wk =   0.0640000
        k(   36) = (   0.4000000   0.4000000   0.6206897), wk =   0.0640000

     Largest allocated arrays     est. size (Mb)     dimensions
     Largest temporary arrays     est. size (Mb)     dimensions

     Check: negative/imaginary core charge=   -0.000004    0.000000

     Initial potential from superposition of free atoms
     Check: negative starting charge=(component1):   -0.046602
     Check: negative starting charge=(component2):   -0.011285

     starting charge   52.99990, renormalised to   54.00000

     negative rho (up, down):  0.475E-01 0.115E-01
     Starting wfc are   42 randomized atomic wfcs

     Self-consistent Calculation

     iteration #  1     ecut=    40.00 Ry     beta=0.30
     Davidson diagonalization with overlap
     ethr =  1.00E-02,  avg # of iterations =  5.1

     negative rho (up, down):  0.341E-01 0.285E-01

     total energy              =    -517.62539299 Ry
     Harris-Foulkes estimate   =    -517.76700422 Ry
     estimated scf accuracy    <       2.23295991 Ry

     total magnetization       =     5.98 Bohr mag/cell
     absolute magnetization    =     6.26 Bohr mag/cell

[...]

     End of self-consistent calculation

 ------ SPIN UP ------------

          k = 0.0000 0.0000 0.0000 (  1803 PWs)   bands (ev):

   -65.0348 -65.0300 -27.0339 -27.0339 -27.0036 -26.9676 -26.8998 -26.8998
    -6.1318  -4.9880  -3.6033  -3.6033   5.4900   5.8300   7.1569   7.7864
     7.7864  10.1737  10.1737  10.7455  11.8776  12.0952  12.0952  12.7191
    14.5317  14.5765  15.4728  15.5774  15.5774  19.1886  19.2272  20.1495
    22.5442  22.5442  24.1571  24.4179  24.4179  28.4091  29.0643  29.3611
    31.7204  31.7597  32.5510  32.5510  34.8711  35.6296  36.2885  36.2885
    37.3916  37.3916  38.5050  42.5801  42.8622  42.8622  43.4626  43.8968
    45.3186  46.3328  46.3328  46.7917  47.0494  47.1132  47.1132  48.0676
    48.1558  49.1305  49.1305  49.4273  52.2087  54.3848  54.3848  54.4694
    55.2781  55.2781  55.2996  56.0867  56.4274  56.5285  56.5487  56.5487
    57.7195

[...]

 ------ SPIN DOWN ----------

[...]

     the Fermi energy is    16.4645 ev

!    total energy              =    -518.42260573 Ry
     Harris-Foulkes estimate   =    -518.42260530 Ry
     estimated scf accuracy    <       0.00000016 Ry

     The total energy is the sum of the following terms:

     one-electron contribution =    -110.29041500 Ry
     hartree contribution      =      88.36763952 Ry
     xc contribution           =    -143.05804187 Ry
     ewald contribution        =    -353.44161258 Ry
     smearing contrib. (-TS)   =      -0.00017581 Ry

[...]

     convergence has been achieved in  19 iterations

     Forces acting on atoms (Ry/au):

     negative rho (up, down):  0.271E-01 0.311E-01
     atom    1 type  1   force =     0.00000000    0.00000000    0.00000000
     atom    2 type  1   force =     0.00000000    0.00000000   -0.00000000
     atom    3 type  2   force =    -0.07304772   -0.07304772    0.00000000
     atom    4 type  2   force =     0.07304772    0.07304772    0.00000000
     atom    5 type  2   force =    -0.07304772    0.07304772    0.00000000
     atom    6 type  2   force =     0.07304772   -0.07304772    0.00000000

     Total force =     0.206610     Total SCF correction =     0.000138

     entering subroutine stress ...

     negative rho (up, down):  0.271E-01 0.311E-01
          total   stress  (Ry/bohr**3)                   (kbar)     P=  323.32
   0.00216334   0.00000000   0.00000000        318.24      0.00      0.00
   0.00000000   0.00216334   0.00000000          0.00    318.24      0.00
   0.00000000   0.00000000   0.00226693          0.00      0.00    333.48

     Volume is kept fixed: isostatic pressure set to zero

     BFGS Geometry Optimization

     number of scf cycles    =   1
     number of bfgs steps    =   0

     enthalpy new            =    -518.4226057300 Ry

     new trust radius        =       0.1033050768 bohr
     new conv_thr            =       0.0000010000 Ry

     new unit-cell volume =    414.25428 a.u.^3 (    61.38615 Ang^3 )

CELL_PARAMETERS (alat=  8.63032544)
   0.999137532   0.000000000   0.000000000
   0.000000000   0.999137532   0.000000000
   0.000000000   0.000000000   0.645557510

ATOMIC_POSITIONS (crystal)
Re0      0.000000000   0.000000000   0.000000000    0   0   0
[...]
        k(   31) = (   0.2001726   0.4003453   0.0000000), wk =   0.0640000
        k(   32) = (   0.2001726   0.4003453   0.3098097), wk =   0.1280000
        k(   33) = (   0.2001726   0.4003453   0.6196195), wk =   0.1280000
        k(   34) = (   0.4003453   0.4003453   0.0000000), wk =   0.0320000
        k(   35) = (   0.4003453   0.4003453   0.3098097), wk =   0.0640000
        k(   36) = (   0.4003453   0.4003453   0.6196195), wk =   0.0640000

     Check: negative/imaginary core charge=   -0.000004    0.000000
     Check: negative starting charge=(component1):   -0.057928

[...]

     enthalpy old            =    -518.4226057300 Ry
     enthalpy new            =    -518.4509527151 Ry

     CASE: enthalpy_new < enthalpy_old

[...]

     Total force =     0.000417     Total SCF correction =     0.000468
     SCF correction compared to forces is large: reduce conv_thr to get better values

[...]

     number of scf cycles    =   6
     number of bfgs steps    =   5

     enthalpy old            =    -518.5253700964 Ry
     enthalpy new            =    -518.5273281544 Ry

     CASE: enthalpy_new < enthalpy_old

     new trust radius        =       0.0007547894 bohr
     new conv_thr            =       0.0000000100 Ry

     new unit-cell volume =    414.25428 a.u.^3 (    61.38615 Ang^3 )

[...]

ATOMIC_POSITIONS (crystal)
Re0      0.000000000   0.000000000   0.000000000    0   0   0
Re0      0.500000000   0.500000000   0.500000000    0   0   0
O1       0.280113754   0.280113754   0.000000000    1   1   0
O1      -0.280113754  -0.280113754   0.000000000    1   1   0
O1       0.780113754   0.219886246   0.500000000    1   1   0
O1       0.219886246   0.780113754   0.500000000    1   1   0

     Check: negative starting charge=(component1):   -0.057928
     NEW-OLD atomic charge density approx. for the potential
     NEW k-points:
        k(    1) = (   0.0000000   0.0000000   0.0000000), wk =   0.0080000
        k(    2) = (   0.0000000   0.0000000   0.3503136), wk =   0.0160000
        k(    3) = (   0.0000000   0.0000000   0.7006273), wk =   0.0160000
        k(    4) = (   0.0000000   0.1882451   0.0000000), wk =   0.0320000
        k(    5) = (   0.0000000   0.1882451   0.3503136), wk =   0.0640000
        k(    6) = (   0.0000000   0.1882451   0.7006273), wk =   0.0640000
        k(    7) = (   0.0000000   0.3764902   0.0000000), wk =   0.0320000
        k(    8) = (   0.0000000   0.3764902   0.3503136), wk =   0.0640000
        k(    9) = (   0.0000000   0.3764902   0.7006273), wk =   0.0640000
        k(   10) = (   0.1882451   0.1882451   0.0000000), wk =   0.0320000
        k(   11) = (   0.1882451   0.1882451   0.3503136), wk =   0.0640000
        k(   12) = (   0.1882451   0.1882451   0.7006273), wk =   0.0640000
        k(   13) = (   0.1882451   0.3764902   0.0000000), wk =   0.0640000
        k(   14) = (   0.1882451   0.3764902   0.3503136), wk =   0.1280000
        k(   15) = (   0.1882451   0.3764902   0.7006273), wk =   0.1280000
        k(   16) = (   0.3764902   0.3764902   0.0000000), wk =   0.0320000
        k(   17) = (   0.3764902   0.3764902   0.3503136), wk =   0.0640000
        k(   18) = (   0.3764902   0.3764902   0.7006273), wk =   0.0640000
        k(   19) = (   0.0000000   0.0000000   0.0000000), wk =   0.0080000
        k(   20) = (   0.0000000   0.0000000   0.3503136), wk =   0.0160000
        k(   21) = (   0.0000000   0.0000000   0.7006273), wk =   0.0160000
        k(   22) = (   0.0000000   0.1882451   0.0000000), wk =   0.0320000
        k(   23) = (   0.0000000   0.1882451   0.3503136), wk =   0.0640000
        k(   24) = (   0.0000000   0.1882451   0.7006273), wk =   0.0640000
        k(   25) = (   0.0000000   0.3764902   0.0000000), wk =   0.0320000
        k(   26) = (   0.0000000   0.3764902   0.3503136), wk =   0.0640000
        k(   27) = (   0.0000000   0.3764902   0.7006273), wk =   0.0640000
        k(   28) = (   0.1882451   0.1882451   0.0000000), wk =   0.0320000
        k(   29) = (   0.1882451   0.1882451   0.3503136), wk =   0.0640000
        k(   30) = (   0.1882451   0.1882451   0.7006273), wk =   0.0640000
        k(   31) = (   0.1882451   0.3764902   0.0000000), wk =   0.0640000
        k(   32) = (   0.1882451   0.3764902   0.3503136), wk =   0.1280000
        k(   33) = (   0.1882451   0.3764902   0.7006273), wk =   0.1280000
        k(   34) = (   0.3764902   0.3764902   0.0000000), wk =   0.0320000
        k(   35) = (   0.3764902   0.3764902   0.3503136), wk =   0.0640000
        k(   36) = (   0.3764902   0.3764902   0.7006273), wk =   0.0640000

     Check: negative/imaginary core charge=   -0.000003    0.000000
     Check: negative starting charge=(component1):   -0.057928

[...]

     Threshold (ethr) on eigenvalues was too large:
     Diagonalizing with lowered threshold

     Davidson diagonalization with overlap
     ethr =  2.90E-10,  avg # of iterations =  2.0

[...]

     Total force =     0.000107     Total SCF correction =     0.000133
     SCF correction compared to forces is large: reduce conv_thr to get better values

[...]

     Volume is kept fixed: isostatic pressure set to zero

     bfgs converged in   7 scf cycles and   6 bfgs steps
     (criteria: energy < 0.10E-03, force < 0.10E-02, cell < 0.50E+00)

     End of BFGS Geometry Optimization

     Final enthalpy =    -518.5273285723 Ry
Begin final coordinates
     new unit-cell volume =    414.25428 a.u.^3 (    61.38615 Ang^3 )

CELL_PARAMETERS (alat=  8.63032544)
   1.062444529   0.000000000   0.000000000
   0.000000000   1.062444529   0.000000000
   0.000000000   0.000000000   0.570916974

ATOMIC_POSITIONS (crystal)
Re0      0.000000000   0.000000000   0.000000000    0   0   0
Re0      0.500000000   0.500000000   0.500000000    0   0   0
O1       0.280113754   0.280113754   0.000000000    1   1   0
O1      -0.280113754  -0.280113754   0.000000000    1   1   0
O1       0.780113754   0.219886246   0.500000000    1   1   0
O1       0.219886246   0.780113754   0.500000000    1   1   0
End final coordinates

     A final scf calculation at the relaxed structure.
     The G-vectors are recalculated for the final unit cell
     Results may differ from those at the preceding step.

     bravais-lattice index     =            0
     lattice parameter (alat)  =       8.6303  a.u.
     unit-cell volume          =     414.2543 (a.u.)^3
     number of atoms/cell      =            6
     number of atomic types    =            2
     number of electrons       =        54.00
     number of Kohn-Sham states=           81
     kinetic-energy cutoff     =      40.0000  Ry
     charge density cutoff     =     500.0000  Ry
     convergence threshold     =      1.0E-08
     mixing beta               =       0.3000
     number of iterations used =            8  plain     mixing
     Exchange-correlation      = SLA  PW   PBE  PBE ( 1 4 3 4 0)
     EXX-fraction              =        0.00

     celldm(1)=   8.630325  celldm(2)=   0.000000  celldm(3)=   0.000000
     celldm(4)=   0.000000  celldm(5)=   0.000000  celldm(6)=   0.000000

     crystal axes: (cart. coord. in units of alat)
               a(1) = (   1.062445   0.000000   0.000000 )
               a(2) = (   0.000000   1.062445   0.000000 )
               a(3) = (   0.000000   0.000000   0.570917 )

     reciprocal axes: (cart. coord. in units 2 pi/alat)
               b(1) = (  0.941226  0.000000  0.000000 )
               b(2) = (  0.000000  0.941226  0.000000 )
               b(3) = (  0.000000  0.000000  1.751568 )

     PseudoPot. # 1 for Re read from file:
     /home/camp/zhonxu/pseudo/re_pbe_v1.uspp.F.UPF
     MD5 check sum: 6f5a5dcaf9c96c20d0ffdde0de57afc6
     Pseudo is Ultrasoft + core correction, Zval = 15.0
     Generated by new atomic code, or converted to UPF format
     Using radial grid of  981 points,  8 beta functions with:
                l(1) =   0
                l(2) =   0
                l(3) =   1
                l(4) =   1
                l(5) =   2
                l(6) =   2
                l(7) =   3
                l(8) =   3
     Q(r) pseudized with  8 coefficients,  rinner =    1.000   1.000   1.000
                                                       1.000   1.000   1.000
                                                       1.000

     PseudoPot. # 2 for O  read from file:
     /home/camp/zhonxu/pseudo/o_pbe_v1.01.uspp.F.UPF
     MD5 check sum: 2bcb18d16ea4b960afae9ec6d52f22d2
     Pseudo is Ultrasoft + core correction, Zval =  6.0
     Generated by new atomic code, or converted to UPF format
     Using radial grid of  737 points,  5 beta functions with:
                l(1) =   0
                l(2) =   0
                l(3) =   1
                l(4) =   1
                l(5) =   2
     Q(r) pseudized with  8 coefficients,  rinner =    0.900   0.900   0.900
                                                       0.900   0.900

     atomic species   valence    mass     pseudopotential
        Re0           15.00   186.20700     Re( 1.00)
        O1             6.00    15.99940     O ( 1.00)

     Starting magnetic structure
     atomic species   magnetization
        Re0          0.600
        O1           0.000

     16 Sym. Ops., with inversion, found ( 8 have fractional translation)

   Cartesian axes

     site n.     atom                  positions (alat units)
         1           Re0 tau(   1) = (   0.0000000   0.0000000   0.0000000  )
         2           Re0 tau(   2) = (   0.5312223   0.5312223   0.2854585  )
         3           O1  tau(   3) = (   0.2976053   0.2976053   0.0000000  )
         4           O1  tau(   4) = (  -0.2976053  -0.2976053   0.0000000  )
         5           O1  tau(   5) = (   0.8288276   0.2336169   0.2854585  )
         6           O1  tau(   6) = (   0.2336169   0.8288276   0.2854585  )

     number of k points=    36  Methfessel-Paxton smearing, width (Ry)=  0.0100
                       cart. coord. in units 2pi/alat
        k(    1) = (   0.0000000   0.0000000   0.0000000), wk =   0.0080000
        k(    2) = (   0.0000000   0.0000000   0.3503136), wk =   0.0160000
        k(    3) = (   0.0000000   0.0000000   0.7006273), wk =   0.0160000
        k(    4) = (   0.0000000   0.1882451   0.0000000), wk =   0.0320000
        k(    5) = (   0.0000000   0.1882451   0.3503136), wk =   0.0640000
        k(    6) = (   0.0000000   0.1882451   0.7006273), wk =   0.0640000
        k(    7) = (   0.0000000   0.3764902   0.0000000), wk =   0.0320000
        k(    8) = (   0.0000000   0.3764902   0.3503136), wk =   0.0640000
        k(    9) = (   0.0000000   0.3764902   0.7006273), wk =   0.0640000
        k(   10) = (   0.1882451   0.1882451   0.0000000), wk =   0.0320000
        k(   11) = (   0.1882451   0.1882451   0.3503136), wk =   0.0640000
        k(   12) = (   0.1882451   0.1882451   0.7006273), wk =   0.0640000
        k(   13) = (   0.1882451   0.3764902   0.0000000), wk =   0.0640000
        k(   14) = (   0.1882451   0.3764902   0.3503136), wk =   0.1280000
        k(   15) = (   0.1882451   0.3764902   0.7006273), wk =   0.1280000
        k(   16) = (   0.3764902   0.3764902   0.0000000), wk =   0.0320000
        k(   17) = (   0.3764902   0.3764902   0.3503136), wk =   0.0640000
        k(   18) = (   0.3764902   0.3764902   0.7006273), wk =   0.0640000
        k(   19) = (   0.0000000   0.0000000   0.0000000), wk =   0.0080000
        k(   20) = (   0.0000000   0.0000000   0.3503136), wk =   0.0160000
        k(   21) = (   0.0000000   0.0000000   0.7006273), wk =   0.0160000
        k(   22) = (   0.0000000   0.1882451   0.0000000), wk =   0.0320000
        k(   23) = (   0.0000000   0.1882451   0.3503136), wk =   0.0640000
        k(   24) = (   0.0000000   0.1882451   0.7006273), wk =   0.0640000
        k(   25) = (   0.0000000   0.3764902   0.0000000), wk =   0.0320000
        k(   26) = (   0.0000000   0.3764902   0.3503136), wk =   0.0640000
        k(   27) = (   0.0000000   0.3764902   0.7006273), wk =   0.0640000
        k(   28) = (   0.1882451   0.1882451   0.0000000), wk =   0.0320000
        k(   29) = (   0.1882451   0.1882451   0.3503136), wk =   0.0640000
        k(   30) = (   0.1882451   0.1882451   0.7006273), wk =   0.0640000
        k(   31) = (   0.1882451   0.3764902   0.0000000), wk =   0.0640000
        k(   32) = (   0.1882451   0.3764902   0.3503136), wk =   0.1280000
        k(   33) = (   0.1882451   0.3764902   0.7006273), wk =   0.1280000
        k(   34) = (   0.3764902   0.3764902   0.0000000), wk =   0.0320000
        k(   35) = (   0.3764902   0.3764902   0.3503136), wk =   0.0640000
        k(   36) = (   0.3764902   0.3764902   0.7006273), wk =   0.0640000

     Largest allocated arrays     est. size (Mb)     dimensions
     Largest temporary arrays     est. size (Mb)     dimensions

     Check: negative/imaginary core charge=   -0.000004    0.000000

     Initial potential from superposition of free atoms
     Check: negative starting charge=(component1):   -0.048068
     Check: negative starting charge=(component2):   -0.011690

     starting charge   52.99990, renormalised to   54.00000

     negative rho (up, down):  0.490E-01 0.119E-01
     Starting wfc are   42 randomized atomic wfcs

     Self-consistent Calculation

[...]

     total energy              =    -518.52921379 Ry
     Harris-Foulkes estimate   =    -518.52921394 Ry
     estimated scf accuracy    <       0.00000001 Ry

[...]

     iteration # 17     ecut=    40.00 Ry     beta=0.30
     Davidson diagonalization with overlap
     ethr =  2.76E-11,  avg # of iterations =  2.0

     negative rho (up, down):  0.312E-01 0.312E-01

     End of self-consistent calculation

 ------ SPIN UP ------------

[...]

 ------ SPIN DOWN ----------

[...]

          k = 0.3765 0.3765 0.7006 (  1781 PWs)   bands (ev):

   -65.5486 -65.5485 -27.9506 -27.9501 -27.5048 -27.5015 -27.4717 -27.4689
    -4.5226  -4.2722  -4.0668  -3.7793   6.8136   7.2748   7.3532   7.7270
     7.8840   8.5938   8.7316   9.5849  10.6996  10.9095  11.8497  12.0717
    14.7743  15.0462  16.0706  16.4868  18.1148  18.2260  20.1456  21.1875
    21.5297  22.3382  24.9984  25.4570  25.6829  25.8068  29.6531  29.6694
    31.0002  31.1596  32.1513  32.4956  34.1549  34.8128  35.3063  35.9708
    38.5606  38.8461  39.6581  39.8538  42.2151  42.6647  43.7300  44.2218
    44.3601  44.6799  46.2382  46.9856  47.3488  47.7539  48.2765  48.6106
    49.0951  49.6331  49.8063  50.5027  51.3936  51.5454  52.0243  52.1963
    53.7318  54.7041  56.9735  57.9316  58.2690  58.4194  59.4086  59.4611
    60.8825

     the Fermi energy is    16.2833 ev

!    total energy              =    -518.52921410 Ry
     Harris-Foulkes estimate   =    -518.52921404 Ry
     estimated scf accuracy    <          3.3E-09 Ry

     The total energy is the sum of the following terms:

     one-electron contribution =    -115.53389908 Ry
     hartree contribution      =      90.47965878 Ry
     xc contribution           =    -142.95810353 Ry
     ewald contribution        =    -350.51656630 Ry
     smearing contrib. (-TS)   =      -0.00030397 Ry

     total magnetization       =    -0.00 Bohr mag/cell
     absolute magnetization    =     0.00 Bohr mag/cell

     convergence has been achieved in  17 iterations

     Forces acting on atoms (Ry/au):

     negative rho (up, down):  0.312E-01 0.312E-01
     atom    1 type  1   force =     0.00000000    0.00000000    0.00000000
     atom    2 type  1   force =     0.00000000    0.00000000   -0.00000000
     atom    3 type  2   force =    -0.00017022   -0.00017022    0.00000000
     atom    4 type  2   force =     0.00017022    0.00017022    0.00000000
     atom    5 type  2   force =    -0.00017022    0.00017022    0.00000000
     atom    6 type  2   force =     0.00017022   -0.00017022    0.00000000

     Total force =     0.000481     Total SCF correction =     0.000045

     entering subroutine stress ...

     negative rho (up, down):  0.312E-01 0.312E-01
          total   stress  (Ry/bohr**3)                   (kbar)     P=  213.17
   0.00147212   0.00000000   0.00000000        216.56      0.00      0.00
   0.00000000   0.00147212   0.00000000          0.00    216.56      0.00
   0.00000000   0.00000000   0.00140310          0.00      0.00    206.40

     General routines

     Parallel routines

   This run was terminated on:  15:37:28  24Jan2014

   JOB DONE.
Running PBS batch system epilogue script
Job id: 251929.audhumbla.fysik.dtu.dk
Username: zhonxu
Groupname: campgst
Jobname: ReO2/fine-EOS/ferro/ReO2-v-0.95
Sessionid: 27358
Queuename: verylong
Accounting:
This job has allocated the following 4 nodes:
q029 q029 q029 q029
Finished epilogue job 251929.audhumbla.fysik.dtu.dk for zhonxu