     Program PWSCF v.5.0.2 (svn rev. 9656) starts on 16Apr2014 at 14:54:40

     Current dimensions of program PWSCF are:
     Max number of different atomic species (ntypx) = 10
     Max number of k-points (npk) =  40000
     Max angular momentum in pseudopotentials (lmaxx) =  3
     Reading input from pwscf.in
Warning: card &CELL ignored
Warning: card / ignored

     Subspace diagonalization in iterative solution of the eigenvalue problem:
     a serial algorithm will be used

     bravais-lattice index     =            0
     lattice parameter (alat)  =      11.7919  a.u.
     unit-cell volume          =    7123.6633 (a.u.)^3
     number of atoms/cell      =           32
     number of atomic types    =            3
     number of electrons       =       247.00
     number of Kohn-Sham states=          358
     kinetic-energy cutoff     =      40.0000  Ry
     charge density cutoff     =     500.0000  Ry
     convergence threshold     =      1.0E-06
     mixing beta               =       0.3000
     number of iterations used =            8  plain     mixing
     Exchange-correlation      = SLA  PW   PBE  PBE ( 1 4 3 4 0)
     EXX-fraction              =        0.00
     nstep                     =           50

     celldm(1)=  11.791891  celldm(2)=   0.000000  celldm(3)=   0.000000
     celldm(4)=   0.000000  celldm(5)=   0.000000  celldm(6)=   0.000000

     crystal axes: (cart. coord. in units of alat)
               a(1) = (   1.000000   0.000000   0.000000 )
               a(2) = (   0.000000   1.026665   0.000000 )
               a(3) = (   0.000000   0.000000   4.231793 )

     reciprocal axes: (cart. coord. in units 2 pi/alat)
               b(1) = (  1.000000  0.000000  0.000000 )
               b(2) = (  0.000000  0.974028  0.000000 )
               b(3) = (  0.000000  0.000000  0.236306 )

     PseudoPot. # 1 for O  read from file:
     /home/camp/zhonxu/pseudo/o_pbe_v1.01.uspp.F.UPF
     MD5 check sum: 2bcb18d16ea4b960afae9ec6d52f22d2
     Pseudo is Ultrasoft + core correction, Zval =  6.0
     Generated by new atomic code, or converted to UPF format
     Using radial grid of  737 points,  5 beta functions with:
                l(1) =   0
                l(2) =   0
                l(3) =   1
                l(4) =   1
                l(5) =   2
     Q(r) pseudized with  8 coefficients,  rinner =    0.900   0.900   0.900
                                                       0.900   0.900

     PseudoPot. # 2 for Ru read from file:
     /home/camp/zhonxu/pseudo/ru_pbe_v1.uspp.F.UPF
     MD5 check sum: df00be1c11b23341d9806d8f1dfa10cf
     Pseudo is Ultrasoft + core correction, Zval = 16.0
     Generated by new atomic code, or converted to UPF format
     Using radial grid of  967 points,  6 beta functions with:
                l(1) =   0
                l(2) =   0
                l(3) =   1
                l(4) =   1
                l(5) =   2
                l(6) =   2
     Q(r) pseudized with  8 coefficients,  rinner =    1.300   1.300   1.300
                                                       1.300   1.300

     PseudoPot. # 3 for H  read from file:
     /home/camp/zhonxu/pseudo/h_pbe_v1.uspp.F.UPF
     MD5 check sum: 3408e3ff4ec8b0a4e358431e7e038a48
     Pseudo is Ultrasoft, Zval =  1.0
     Generated by new atomic code, or converted to UPF format
     Using radial grid of  615 points,  2 beta functions with:
                l(1) =   0
                l(2) =   0
     Q(r) pseudized with  8 coefficients,  rinner =    0.700

     atomic species   valence    mass     pseudopotential
        O0             6.00    15.99940     O ( 1.00)
        Ru1           16.00   101.07000     Ru( 1.00)
        H2             1.00     1.00794     H ( 1.00)

     No symmetry found

   Cartesian axes

     site n.     atom                  positions (alat units)
         1           O0  tau(   1) = (   0.0000000   0.0000000   1.6034686  )
         2           O0  tau(   2) = (   0.0000000   0.5133323   1.7059627  )
         3           Ru1 tau(   3) = (   0.2500000   0.5133323   1.9197951  )
         4           Ru1 tau(   4) = (   0.0000000   0.0000000   1.9172138  )
         5           O0  tau(   5) = (   0.2500000   0.8315984   1.9169175  )
         6           O0  tau(   6) = (   0.2500000   0.1950663   1.9164097  )
         7           O0  tau(   7) = (   0.0000000   0.5133323   2.1049361  )
         8           O0  tau(   8) = (   0.0000000   0.0000000   2.2309589  )
         9           Ru1 tau(   9) = (   0.2500000   0.0000000   2.4440720  )
        10           Ru1 tau(  10) = (   0.0000000   0.5133323   2.4050125  )
        11           O0  tau(  11) = (   0.2500000   0.7083986   2.4362855  )
        12           O0  tau(  12) = (   0.2500000   0.3182660   2.4359892  )
        13           O0  tau(  13) = (   0.0000000   0.0000000   2.6232884  )
        14           O0  tau(  14) = (   0.5000000   0.0000000   1.6045266  )
        15           O0  tau(  15) = (   0.5000000   0.5133323   1.7057087  )
        16           Ru1 tau(  16) = (   0.7500000   0.5133323   1.9197951  )
        17           Ru1 tau(  17) = (   0.5000000   0.0000000   1.9177216  )
        18           O0  tau(  18) = (   0.7500000   0.8315984   1.9167059  )
        19           O0  tau(  19) = (   0.7500000   0.1950663   1.9164097  )
        20           O0  tau(  20) = (   0.5000000   0.5133323   2.1230905  )
        21           O0  tau(  21) = (   0.5000000   0.0000000   2.2304087  )
        22           Ru1 tau(  22) = (   0.7500000   0.0000000   2.4444105  )
        23           Ru1 tau(  23) = (   0.5000000   0.5133323   2.4373011  )
        24           O0  tau(  24) = (   0.7500000   0.7083986   2.4349313  )
        25           O0  tau(  25) = (   0.7500000   0.3182660   2.4344658  )
        26           O0  tau(  26) = (   0.5000000   0.0000000   2.6136822  )
        27           H2  tau(  27) = (  -0.0002400   0.6454230   1.6181530  )
        28           H2  tau(  28) = (   0.4995400   0.6407414   1.6116360  )
        29           H2  tau(  29) = (   0.1458200   0.0328738   1.5516292  )
        30           H2  tau(  30) = (   0.6466400   0.0301634   1.5529410  )
        31           O0  tau(  31) = (   0.5137100   0.5107246   2.7446139  )
        32           H2  tau(  32) = (   0.3716700   0.5094721   2.8125342  )

     number of k points=    10  Methfessel-Paxton smearing, width (Ry)=  0.0100
                       cart. coord. in units 2pi/alat
        k(    1) = (   0.0000000   0.0000000   0.0000000), wk =   0.1250000
        k(    2) = (   0.0000000   0.2435070   0.0000000), wk =   0.2500000
        k(    3) = (   0.0000000  -0.4870139   0.0000000), wk =   0.1250000
        k(    4) = (   0.2500000   0.0000000   0.0000000), wk =   0.2500000
        k(    5) = (   0.2500000   0.2435070   0.0000000), wk =   0.2500000
        k(    6) = (   0.2500000  -0.4870139   0.0000000), wk =   0.2500000
        k(    7) = (  -0.5000000   0.0000000   0.0000000), wk =   0.1250000
        k(    8) = (  -0.5000000   0.2435070   0.0000000), wk =   0.2500000
        k(    9) = (  -0.5000000  -0.4870139   0.0000000), wk =   0.1250000
        k(   10) = (  -0.2500000   0.2435070   0.0000000), wk =   0.2500000

     Largest allocated arrays     est. size (Mb)     dimensions
     Largest temporary arrays     est. size (Mb)     dimensions

     Check: negative/imaginary core charge=   -0.000003    0.000000

     Initial potential from superposition of free atoms
     Check: negative starting charge=   -0.522162

     starting charge  238.99980, renormalised to  247.00000

     negative rho (up, down):  0.540E+00 0.000E+00
     Starting wfc are  185 randomized atomic wfcs

     Self-consistent Calculation

     iteration #  1     ecut=    40.00 Ry     beta=0.30
     Davidson diagonalization with overlap
     ethr =  1.00E-02,  avg # of iterations =  6.3

     negative rho (up, down):  0.576E+00 0.000E+00

     total energy              =   -2144.86556058 Ry
     Harris-Foulkes estimate   =   -2168.67654648 Ry
     estimated scf accuracy    <      48.49934560 Ry

[...]

     End of self-consistent calculation

          k = 0.0000 0.0000 0.0000 ( 30363 PWs)   bands (ev):

   -74.8418 -74.8277 -74.6129 -74.5354 -74.4801 -74.3118 -74.2118 -74.2003
   -44.9899 -44.8071 -44.8065 -44.8053 -44.7910 -44.7619 -44.7194 -44.6901
   -44.6869 -44.6018 -44.5064 -44.5054 -44.4729 -44.3968 -44.3631 -44.3381
   -44.3080 -44.2564 -44.2512 -44.2335 -44.1106 -44.0875 -44.0741 -43.9987
   -21.1630 -20.6312 -20.5741 -20.4631 -20.3507 -19.9913 -19.7927 -19.7016
   -19.6508 -19.6317 -19.6127 -19.5779 -19.5719 -19.4781 -19.2587 -19.1216
   -19.1177 -19.0463 -18.7873  -9.2589  -9.1450  -9.0995  -8.4430  -8.2855
    -8.2012  -8.1291  -7.9758  -7.8318  -7.7629  -7.7470  -7.7224  -7.7106
    -7.5640  -7.5433  -7.4656  -7.3383  -7.2529  -7.1785  -7.0114  -6.8608
    -6.7048  -6.5976  -6.4225  -6.0624  -5.9477  -5.6349  -5.5999  -5.5759
    -5.4355  -5.2190  -5.1291  -5.0668  -4.9651  -4.9128  -4.8897  -4.7892
    -4.6652  -4.6341  -4.5240  -4.5017  -4.3787  -4.3052  -4.2321  -4.1101
    -3.9535  -3.9208  -3.8307  -3.7848  -3.6818  -3.6437  -3.4931  -3.3738
    -3.2451  -3.2211  -2.8363  -2.7346  -2.4730  -2.2540  -2.1959  -2.0345
    -1.9983  -1.7689  -1.7345  -1.6588  -1.5911  -1.5491  -1.4473  -1.4345
    -1.2773  -1.2570  -1.1171  -1.1014  -0.9196  -0.5884  -0.4887  -0.2612
    -0.2381  -0.0257   0.1075   0.3456   0.4597   1.2468   1.3458   1.8822
     2.0649   2.1528   2.2457   2.2622   2.4744   2.9750   3.1895   3.3810
     3.4622   3.5224   3.5992   3.6653   3.7296   4.2441   4.3114   4.7708
     5.1855   5.9902   6.1662   6.3853   6.6265   6.8889   7.0860   7.3069
     7.3713   7.5358   7.5519   7.9019   7.9428   8.0382   8.0732   8.1652
     8.2297   8.3513   8.3779   8.4664   8.5152   8.6033   8.6707   8.7497
     8.7864   8.9825   9.0702   9.1978   9.2453   9.2742   9.3472   9.4303
     9.6627   9.6786   9.7109   9.8180   9.9345   9.9920  10.1951  10.2620
    10.5105  10.7319  10.7493  10.8679  11.0180  11.0570  11.0968  11.1394
    11.2942  11.3173  11.3842  11.4517  11.6321  11.6430  11.7121  11.7798
    11.8077  11.8458  11.8630  11.9752  12.0657  12.0745  12.1965  12.2445
    12.2760  12.2923  12.3973  12.4442  12.4727  12.5190  12.5878  12.6397
    12.7483  12.8000  12.8622  12.9030  12.9490  13.0723  13.1708  13.2243
    13.2656  13.3011  13.4293  13.5525  13.6864  13.7507  13.8006  13.9155
    13.9638  14.0774  14.1840  14.2414  14.2933  14.3500  14.5415  14.5585
    14.6079  14.6974  14.8549  14.9696  15.0231  15.1161  15.2662  15.3925
    15.5079  15.5988  15.7404  15.8083  15.8530  15.8881  15.9372  16.0409
    16.1977  16.2131  16.2646  16.3825  16.4912  16.6636  16.7691  16.8695
    16.9021  17.1404  17.1795  17.2346  17.3113  17.3877  17.4202  17.4895
    17.5900  17.7052  17.7553  17.9121  17.9629  18.0890  18.1967  18.2290
    18.3338  18.3550  18.4515  18.5544  18.5956  18.6866  18.7157  18.7347
    18.7933  18.8447  18.9048  18.9790  19.0368  19.1000  19.1755  19.2197
    19.2624  19.3057  19.3807  19.4142  19.5574  19.6179  19.6333  19.7171
[...]
     atom   18 type  1   force =     0.00158050   -0.02785060   -0.00004506
     atom   19 type  1   force =     0.00164138    0.02860366   -0.00001995
     atom   20 type  1   force =    -0.00090110   -0.00111127   -0.00037395
     atom   21 type  1   force =    -0.00030955   -0.00154904   -0.00007686
     atom   22 type  2   force =     0.01642835    0.00205430   -0.00078854
     atom   23 type  2   force =     0.00315578    0.00214900   -0.00125027
     atom   24 type  1   force =     0.01284689    0.00345663   -0.00132526
     atom   25 type  1   force =     0.01425907   -0.00425371   -0.00154836
     atom   26 type  1   force =    -0.00174363   -0.00093143   -0.00051531
     atom   27 type  3   force =    -0.00001019    0.00033832    0.00040846
     atom   28 type  3   force =     0.00001672    0.00035247    0.00061149
     atom   29 type  3   force =    -0.00035189   -0.00008825   -0.00035269
     atom   30 type  3   force =    -0.00037894   -0.00012251   -0.00049941
     atom   31 type  1   force =     0.00114321    0.00017657    0.00027073
     atom   32 type  3   force =    -0.00098997   -0.00024411    0.00046544

     Total force =     0.003926     Total SCF correction =     0.002372
     SCF correction compared to forces is large: reduce conv_thr to get better values

     BFGS Geometry Optimization

     number of scf cycles    =   1
     number of bfgs steps    =   0

     energy   new            =   -2164.7298104981 Ry

     new trust radius        =       0.0015483641 bohr
     new conv_thr            =       0.0000010000 Ry

ATOMIC_POSITIONS (crystal)
O0       0.000000000   0.000000000   0.378911970    0   0   1
O0       0.000000000   0.500000000   0.403121043    0   0   1
Ru1      0.250000000   0.500000000   0.453679676    0   0   1
Ru1      0.000000000   0.000000000   0.453049835    0   0   1
O0       0.250000000   0.810000000   0.452979108    0   0   1
O0       0.250000000   0.190000000   0.452860211    0   0   1
O0       0.000000000   0.500000000   0.497431842    0   0   1
O0       0.000000000   0.000000000   0.527194813    0   0   1
Ru1      0.250000000   0.000000000   0.577553113    0   0   1
Ru1      0.000000000   0.500000000   0.568332129    0   0   1
O0       0.250000000   0.690000000   0.575718717    0   0   1
O0       0.250000000   0.310000000   0.575647358    0   0   1
O0       0.000000000   0.000000000   0.619905415    0   0   1
O0       0.500000000   0.000000000   0.379164205    0   0   1
O0       0.500000000   0.500000000   0.403071834    0   0   1
Ru1      0.750000000   0.500000000   0.453682593    0   0   1
Ru1      0.500000000   0.000000000   0.453167128    0   0   1
O0       0.750000000   0.810000000   0.452929097    0   0   1
O0       0.750000000   0.190000000   0.452859600    0   0   1
O0       0.500000000   0.500000000   0.501692506    0   0   1
O0       0.500000000   0.000000000   0.527058460    0   0   1
Ru1      0.750000000   0.000000000   0.577614198    0   0   1
Ru1      0.500000000   0.500000000   0.575924945    0   0   1
O0       0.750000000   0.690000000   0.575363442    0   0   1
O0       0.750000000   0.310000000   0.575248971    0   0   1
O0       0.500000000   0.000000000   0.617619673    0   0   1
H2      -0.000240864   0.628687946   0.382388185
H2       0.499541418   0.624129115   0.380852254
H2       0.145790159   0.032012710   0.366652932
H2       0.646607865   0.029369880   0.366959992
O0       0.513806949   0.497474585   0.648575425
H2       0.371586047   0.496219836   0.664629327

     Check: negative starting charge=   -0.522162
     NEW-OLD atomic charge density approx. for the potential

     Check: negative/imaginary core charge=   -0.000003    0.000000
     Check: negative starting charge=   -0.522143

[...]

     energy   old            =   -2164.7298104981 Ry
     energy   new            =   -2164.7298226254 Ry

     CASE: energy  _new < energy  _old

[...]

     Threshold (ethr) on eigenvalues was too large:
     Diagonalizing with lowered threshold

     Davidson diagonalization with overlap
     ethr =  4.56E-08,  avg # of iterations =  2.0

[...]

     Total force =     0.002589     Total SCF correction =     0.000318
     SCF correction compared to forces is large: reduce conv_thr to get better values

     number of scf cycles    =   3
     number of bfgs steps    =   2

     energy   old            =   -2164.7298226254 Ry
     energy   new            =   -2164.7298344480 Ry

     CASE: energy  _new < energy  _old

     new trust radius        =       0.0034838192 bohr
     new conv_thr            =       0.0000000100 Ry

ATOMIC_POSITIONS (crystal)
O0       0.000000000   0.000000000   0.378920286    0   0   1
O0       0.000000000   0.500000000   0.403113872    0   0   1
Ru1      0.250000000   0.500000000   0.453722864    0   0   1
Ru1      0.000000000   0.000000000   0.453043559    0   0   1
O0       0.250000000   0.810000000   0.452982653    0   0   1
O0       0.250000000   0.190000000   0.452867625    0   0   1
O0       0.000000000   0.500000000   0.497506882    0   0   1
O0       0.000000000   0.000000000   0.527206304    0   0   1
Ru1      0.250000000   0.000000000   0.577569348    0   0   1
Ru1      0.000000000   0.500000000   0.568383795    0   0   1
O0       0.250000000   0.690000000   0.575751968    0   0   1
O0       0.250000000   0.310000000   0.575676034    0   0   1
O0       0.000000000   0.000000000   0.619914077    0   0   1
O0       0.500000000   0.000000000   0.379171661    0   0   1
O0       0.500000000   0.500000000   0.403094486    0   0   1
Ru1      0.750000000   0.500000000   0.453732639    0   0   1
Ru1      0.500000000   0.000000000   0.453154877    0   0   1
O0       0.750000000   0.810000000   0.452933511    0   0   1
O0       0.750000000   0.190000000   0.452865987    0   0   1
O0       0.500000000   0.500000000   0.501669528    0   0   1
O0       0.500000000   0.000000000   0.527053864    0   0   1
Ru1      0.750000000   0.000000000   0.577562825    0   0   1
Ru1      0.500000000   0.500000000   0.575886816    0   0   1
O0       0.750000000   0.690000000   0.575263597    0   0   1
O0       0.750000000   0.310000000   0.575132613    0   0   1
O0       0.500000000   0.000000000   0.617571843    0   0   1
H2      -0.000244508   0.628827971   0.382419605
H2       0.499547803   0.624246204   0.380905169
H2       0.145718607   0.031996531   0.366621322
H2       0.646519616   0.029339020   0.366917381
O0       0.513865231   0.497530999   0.648595501
H2       0.371602004   0.496139653   0.664627507

     Check: negative starting charge=   -0.522106
     NEW-OLD atomic charge density approx. for the potential

     Check: negative/imaginary core charge=   -0.000003    0.000000
     Check: negative starting charge=   -0.522060

[...]

     Self-consistent Calculation

[...]

     Threshold (ethr) on eigenvalues was too large:
     Diagonalizing with lowered threshold

     Davidson diagonalization with overlap
     ethr =  2.01E-08,  avg # of iterations =  2.3

[...]

     total energy              =   -2164.72984617 Ry
     Harris-Foulkes estimate   =   -2164.72984618 Ry
     estimated scf accuracy    <       0.00000001 Ry

     iteration # 15     ecut=    40.00 Ry     beta=0.30
     Davidson diagonalization with overlap
     ethr =  5.37E-12,  avg # of iterations =  1.0

     negative rho (up, down):  0.581E+00 0.000E+00

     End of self-consistent calculation

[...]

          k = 0.2500-0.4870 0.0000 ( 30468 PWs)   bands (ev):

[...]

          k =-0.2500 0.2435 0.0000 ( 30434 PWs)   bands (ev):

   -74.8424 -74.8340 -74.6125 -74.5389 -74.4832 -74.3153 -74.2115 -74.2026
   -44.9667 -44.8362 -44.8064 -44.8056 -44.7975 -44.7651 -44.7192 -44.6976
   -44.6901 -44.6059 -44.4895 -44.4876 -44.4731 -44.3860 -44.3661 -44.3642
   -44.3200 -44.2704 -44.2632 -44.2122 -44.1238 -44.0923 -44.0676 -44.0151
   -21.0449 -20.5332 -20.5069 -20.4297 -20.2393 -19.9536 -19.8880 -19.7999
   -19.7572 -19.6470 -19.5597 -19.5181 -19.4951 -19.4448 -19.3117 -19.2627
   -19.2570 -19.2023 -18.8527  -9.1139  -8.6015  -8.5789  -8.5303  -8.2089
    -8.1675  -8.1071  -8.0327  -7.8895  -7.8036  -7.7259  -7.6979  -7.6042
    -7.5463  -7.4584  -7.3935  -7.2878  -7.1938  -6.9218  -6.7918  -6.7286
    -6.6073  -6.5413  -6.4588  -6.0460  -5.9594  -5.8880  -5.7824  -5.5674
    -5.5100  -5.4796  -5.4515  -5.3625  -5.2667  -5.2117  -5.0778  -5.0271
    -5.0029  -4.9005  -4.8211  -4.7326  -4.5539  -4.4669  -4.3259  -4.1903
    -4.1503  -4.1149  -3.9877  -3.9351  -3.8086  -3.6420  -3.5518  -3.4637
    -3.1475  -3.1326  -3.0226  -2.7758  -2.0772  -2.0006  -1.8786  -1.7830
    -1.6951  -1.6210  -1.5673  -1.4446  -1.4120  -1.3881  -1.3395  -1.2915
    -1.2452  -1.1600  -1.0773  -0.9988  -0.7160  -0.5392  -0.4033  -0.3661
    -0.2780  -0.1595  -0.0501   0.1367   0.6434   1.3343   1.4826   1.5519
     1.6831   2.1225   2.4581   2.5659   2.9334   2.9906   3.1048   3.1649
     3.2295   3.3043   3.5468   3.8225   4.0263   4.3019   4.7905   5.2099
     5.6356   5.7662   5.8532   6.1019   6.4048   6.5633   6.6772   6.7224
     6.7882   7.0302   7.1011   7.3294   7.5536   7.7362   7.8420   7.9655
     8.1127   8.2736   8.3711   8.4362   8.5329   8.5717   8.7211   8.7783
     8.9539   9.1039   9.1880   9.3103   9.3765   9.4955   9.6848   9.8369
     9.8981   9.9993  10.0882  10.1827  10.2119  10.3117  10.4004  10.4577
    10.5816  10.6469  10.6955  10.8405  10.9094  11.0033  11.0904  11.2833
    11.3544  11.4037  11.5044  11.5560  11.6576  11.7547  11.7761  11.8405
    11.9141  11.9902  12.1162  12.1633  12.2128  12.3158  12.4312  12.4776
    12.5058  12.5856  12.6348  12.7036  12.7545  12.8137  12.8991  13.0026
    13.0638  13.1229  13.1993  13.2937  13.3871  13.4651  13.5301  13.5898
    13.7085  13.7999  13.8855  13.9989  14.0597  14.1302  14.1789  14.2482
    14.3455  14.4641  14.5293  14.5771  14.5963  14.6633  14.7837  14.8178
    14.8889  14.9984  15.0588  15.1482  15.2570  15.3485  15.5317  15.5616
    15.6243  15.6629  15.7741  15.8121  15.8478  15.8563  15.9665  16.0403
    16.0798  16.1362  16.1846  16.3082  16.3327  16.3601  16.4485  16.5323
    16.6156  16.7080  16.7615  16.7836  16.8301  16.8742  16.9731  17.0181
    17.1075  17.1906  17.2220  17.3279  17.4082  17.4677  17.4908  17.5618
    17.6005  17.6794  17.7244  17.8003  17.8393  17.9039  17.9938  18.0817
    18.1256  18.2103  18.2388  18.3030  18.3506  18.4274  18.5331  18.5888
    18.6853  18.7870  18.8398  18.9257  18.9799  19.0500  19.1265  19.1874
    19.2104  19.3027  19.3711  19.4507  19.4900  19.5423  19.6446  19.7486
    19.7784  19.8298  19.8939  19.9926  20.0540  20.1772  20.2648  20.3229
    20.3646  20.4741  20.5882  20.6543  20.7225  20.7953  20.8520  20.9285
    20.9495  21.0226  21.1165  21.1396  21.2057  21.2887  21.3557  21.3984
    21.4280  21.4792  21.5470  21.5733  21.6069  21.7021  21.7877  21.8158
    21.9481  21.9829  22.0239  22.0458  22.1281  22.2195

     the Fermi energy is    -0.8755 ev

!    total energy              =   -2164.72984617 Ry
     Harris-Foulkes estimate   =   -2164.72984617 Ry
     estimated scf accuracy    <          3.8E-09 Ry

     The total energy is the sum of the following terms:

     one-electron contribution =  -25187.97000129 Ry
     hartree contribution      =   12615.59599901 Ry
     xc contribution           =    -338.40989018 Ry
     ewald contribution        =   10746.05383597 Ry
     smearing contrib. (-TS)   =       0.00021032 Ry

     convergence has been achieved in  15 iterations

     Forces acting on atoms (Ry/au):

     negative rho (up, down):  0.581E+00 0.000E+00
     atom    1 type  1   force =    -0.00550249   -0.01187768   -0.00007026
     atom    2 type  1   force =     0.00058348    0.00971318    0.00043373
     atom    3 type  2   force =     0.03788337   -0.00179086   -0.00022309
     atom    4 type  2   force =     0.00392421    0.00604008   -0.00002676
     atom    5 type  1   force =     0.00143341   -0.02743540    0.00012665
     atom    6 type  1   force =    -0.00011380    0.02905544    0.00014226
     atom    7 type  1   force =     0.00188059   -0.00383906    0.00010547
     atom    8 type  1   force =    -0.00001392   -0.00188261   -0.00023050
     atom    9 type  2   force =    -0.01586486    0.00204714    0.00004282
     atom   10 type  2   force =    -0.00730604   -0.00009336    0.00037329
     atom   11 type  1   force =    -0.01069588    0.00210614    0.00032324
     atom   12 type  1   force =    -0.01235806   -0.00289369    0.00031467
     atom   13 type  1   force =    -0.00125466   -0.00073970   -0.00001242
     atom   14 type  1   force =    -0.00409365   -0.01062589   -0.00021507
     atom   15 type  1   force =    -0.00007326    0.00658911    0.00044030
     atom   16 type  2   force =    -0.03917298   -0.00134628   -0.00030665
     atom   17 type  2   force =     0.00294626    0.00618027   -0.00000263
     atom   18 type  1   force =     0.00166513   -0.02786250    0.00015369
     atom   19 type  1   force =     0.00175894    0.02865055    0.00017069
     atom   20 type  1   force =    -0.00111103   -0.00117898    0.00015997
     atom   21 type  1   force =    -0.00051729   -0.00155188   -0.00013445
     atom   22 type  2   force =     0.01684481    0.00203114   -0.00036794
     atom   23 type  2   force =     0.00321093    0.00215961    0.00071730
     atom   24 type  1   force =     0.01280529    0.00374280   -0.00053554
     atom   25 type  1   force =     0.01416051   -0.00454612   -0.00063868
     atom   26 type  1   force =    -0.00139258   -0.00089847   -0.00041178
     atom   27 type  3   force =    -0.00001015    0.00017581    0.00051378
     atom   28 type  3   force =     0.00001625    0.00018453    0.00070538
     atom   29 type  3   force =    -0.00000048    0.00001151   -0.00032207
     atom   30 type  3   force =    -0.00001480   -0.00002842   -0.00044075
     atom   31 type  1   force =    -0.00058431    0.00011672   -0.00034485
     atom   32 type  3   force =     0.00096706   -0.00021313   -0.00043979

     Total force =     0.002325     Total SCF correction =     0.000184

     bfgs converged in   4 scf cycles and   3 bfgs steps
     (criteria: energy < 0.10E-03, force < 0.10E-02)

     End of BFGS Geometry Optimization

     Final energy   =   -2164.7298461712 Ry
Begin final coordinates

ATOMIC_POSITIONS (crystal)
O0       0.000000000   0.000000000   0.378920286    0   0   1
O0       0.000000000   0.500000000   0.403113872    0   0   1
Ru1      0.250000000   0.500000000   0.453722864    0   0   1
Ru1      0.000000000   0.000000000   0.453043559    0   0   1
O0       0.250000000   0.810000000   0.452982653    0   0   1
O0       0.250000000   0.190000000   0.452867625    0   0   1
O0       0.000000000   0.500000000   0.497506882    0   0   1
O0       0.000000000   0.000000000   0.527206304    0   0   1
Ru1      0.250000000   0.000000000   0.577569348    0   0   1
Ru1      0.000000000   0.500000000   0.568383795    0   0   1
O0       0.250000000   0.690000000   0.575751968    0   0   1
O0       0.250000000   0.310000000   0.575676034    0   0   1
O0       0.000000000   0.000000000   0.619914077    0   0   1
O0       0.500000000   0.000000000   0.379171661    0   0   1
O0       0.500000000   0.500000000   0.403094486    0   0   1
Ru1      0.750000000   0.500000000   0.453732639    0   0   1
Ru1      0.500000000   0.000000000   0.453154877    0   0   1
O0       0.750000000   0.810000000   0.452933511    0   0   1
O0       0.750000000   0.190000000   0.452865987    0   0   1
O0       0.500000000   0.500000000   0.501669528    0   0   1
O0       0.500000000   0.000000000   0.527053864    0   0   1
Ru1      0.750000000   0.000000000   0.577562825    0   0   1
Ru1      0.500000000   0.500000000   0.575886816    0   0   1
O0       0.750000000   0.690000000   0.575263597    0   0   1
O0       0.750000000   0.310000000   0.575132613    0   0   1
O0       0.500000000   0.000000000   0.617571843    0   0   1
H2      -0.000244508   0.628827971   0.382419605
H2       0.499547803   0.624246204   0.380905169
H2       0.145718607   0.031996531   0.366621322
H2       0.646519616   0.029339020   0.366917381
O0       0.513865231   0.497530999   0.648595501
H2       0.371602004   0.496139653   0.664627507
End final coordinates

     General routines

     Parallel routines

   This run was terminated on:  18:56:49  16Apr2014

   JOB DONE.
Running PBS batch system epilogue script
Job id: 334998.audhumbla.fysik.dtu.dk
Username: zhonxu
Groupname: campgst
Jobname: RuO2/Eads-2-layers/OH-relax-surf
Sessionid: 17502
Queuename: verylong
Accounting:
This job has allocated the following 16 nodes:
b023 b023 b023 b023 b023 b023 b023 b023 b007 b007 b007 b007 b007 b007 b007 b007
Finished epilogue job 334998.audhumbla.fysik.dtu.dk for zhonxu