     Program PWSCF v.5.0.2 (svn rev. 9656) starts on 31May2014 at  7:13:20

     Current dimensions of program PWSCF are:
     Max number of different atomic species (ntypx) = 10
     Max number of k-points (npk) =  40000
     Max angular momentum in pseudopotentials (lmaxx) =  3
     Reading input from pwscf.in
Warning: card &CELL ignored
Warning: card / ignored

     Subspace diagonalization in iterative solution of the eigenvalue problem:
     a serial algorithm will be used

     bravais-lattice index     =            0
     lattice parameter (alat)  =      12.2076  a.u.
     unit-cell volume          =    7496.5096 (a.u.)^3
     number of atoms/cell      =           33
     number of atomic types    =            3
     number of electrons       =       253.00
     number of Kohn-Sham states=          379
     kinetic-energy cutoff     =      40.0000  Ry
     charge density cutoff     =     500.0000  Ry
     convergence threshold     =      1.0E-06
     mixing beta               =       0.7000
     number of iterations used =            8  plain     mixing
     Exchange-correlation      = SLA  PW   PBE  PBE ( 1 4 3 4 0)
     EXX-fraction              =        0.00
     nstep                     =           50

     celldm(1)=  12.207631  celldm(2)=   0.000000  celldm(3)=   0.000000
     celldm(4)=   0.000000  celldm(5)=   0.000000  celldm(6)=   0.000000

     crystal axes: (cart. coord. in units of alat)
               a(1) = (   1.000000   0.000000   0.000000 )
               a(2) = (   0.000000   1.004836   0.000000 )
               a(3) = (   0.000000   0.000000   4.100811 )

     reciprocal axes: (cart. coord. in units 2 pi/alat)
               b(1) = (  1.000000  0.000000  0.000000 )
               b(2) = (  0.000000  0.995187  0.000000 )
               b(3) = (  0.000000  0.000000  0.243854 )

     PseudoPot. # 1 for O  read from file:
     /home/camp/zhonxu/pseudo/o_pbe_v1.01.uspp.F.UPF
     MD5 check sum: 2bcb18d16ea4b960afae9ec6d52f22d2
     Pseudo is Ultrasoft + core correction, Zval =  6.0
     Generated by new atomic code, or converted to UPF format
     Using radial grid of  737 points,  5 beta functions with:
                l(1) =   0
                l(2) =   0
                l(3) =   1
                l(4) =   1
                l(5) =   2
     Q(r) pseudized with  8 coefficients,  rinner =    0.900   0.900   0.900
                                                       0.900   0.900

     PseudoPot. # 2 for Pt read from file:
     /home/camp/zhonxu/pseudo/pt_pbe_v1.uspp.F.UPF
     MD5 check sum: 4c71d6ad5ef119f1eb26a4d0b7884226
     Pseudo is Ultrasoft + core correction, Zval = 16.0
     Generated by new atomic code, or converted to UPF format
     Using radial grid of  985 points,  6 beta functions with:
                l(1) =   0
                l(2) =   0
                l(3) =   1
                l(4) =   1
                l(5) =   2
                l(6) =   2
     Q(r) pseudized with  8 coefficients,  rinner =    1.300   1.300   1.300
                                                       1.300   1.300

     PseudoPot. # 3 for H  read from file:
     /home/camp/zhonxu/pseudo/h_pbe_v1.uspp.F.UPF
     MD5 check sum: 3408e3ff4ec8b0a4e358431e7e038a48
     Pseudo is Ultrasoft, Zval =  1.0
     Generated by new atomic code, or converted to UPF format
     Using radial grid of  615 points,  2 beta functions with:
                l(1) =   0
                l(2) =   0
     Q(r) pseudized with  8 coefficients,  rinner =    0.700

     atomic species   valence    mass     pseudopotential
        O0             6.00    15.99940     O ( 1.00)
        Pt1           16.00   195.08000     Pt( 1.00)
        H2             1.00     1.00794     H ( 1.00)

     Simplified LDA+U calculation (l_max = 2) with parameters (eV):
     atomic species    L          U    alpha       J0     beta
        Pt1            2     5.0000   0.0000   0.0000   0.0000

     No symmetry found

   Cartesian axes

     site n.     atom                  positions (alat units)
         1           O0  tau(   1) = (   0.0000000   0.0000000   1.5494095  )
         2           O0  tau(   2) = (   0.0000000   0.5024180   1.6475009  )
         3           Pt1 tau(   3) = (   0.2500000   0.5024180   1.8504910  )
         4           Pt1 tau(   4) = (   0.0000000   0.0000000   1.8570523  )
         5           O0  tau(   5) = (   0.2500000   0.8139171   1.8187098  )
         6           O0  tau(   6) = (   0.2500000   0.1909188   1.8864142  )
         7           O0  tau(   7) = (   0.0000000   0.5024180   2.0369959  )
         8           O0  tau(   8) = (   0.0000000   0.0000000   2.1720357  )
         9           Pt1 tau(   9) = (   0.2500000   0.0000000   2.3614521  )
        10           Pt1 tau(  10) = (   0.0000000   0.5024180   2.3598528  )
        11           O0  tau(  11) = (   0.2500000   0.6933368   2.3268823  )
        12           O0  tau(  12) = (   0.2500000   0.3114991   2.4033624  )
        13           O0  tau(  13) = (   0.0000000   0.0000000   2.5482851  )
        14           O0  tau(  14) = (   0.5000000   0.0000000   1.5485073  )
        15           O0  tau(  15) = (   0.5000000   0.5024180   1.6434821  )
        16           Pt1 tau(  16) = (   0.7500000   0.5024180   1.8504910  )
        17           Pt1 tau(  17) = (   0.5000000   0.0000000   1.8561092  )
        18           O0  tau(  18) = (   0.7500000   0.8139171   1.8187918  )
        19           O0  tau(  19) = (   0.7500000   0.1909188   1.8863321  )
        20           O0  tau(  20) = (   0.5000000   0.5024180   2.0428191  )
        21           O0  tau(  21) = (   0.5000000   0.0000000   2.1708874  )
        22           Pt1 tau(  22) = (   0.7500000   0.0000000   2.3614521  )
        23           Pt1 tau(  23) = (   0.5000000   0.5024180   2.3628874  )
        24           O0  tau(  24) = (   0.7500000   0.6933368   2.3268003  )
        25           O0  tau(  25) = (   0.7500000   0.3114991   2.4034034  )
        26           O0  tau(  26) = (   0.5000000   0.0000000   2.5460296  )
        27           H2  tau(  27) = (   0.0000200   0.6429744   1.5830361  )
        28           H2  tau(  28) = (   0.5000600   0.6435874   1.5806577  )
        29           H2  tau(  29) = (   0.1433700   0.0339333   1.5082373  )
        30           H2  tau(  30) = (   0.6430800   0.0354607   1.5076632  )
        31           O0  tau(  31) = (   0.5001100   0.5589199   2.6603192  )
        32           O0  tau(  32) = (   0.4999400   0.3687346   2.7792838  )
        33           H2  tau(  33) = (   0.4999900   0.4305019   2.9192445  )

     number of k points=    10  Methfessel-Paxton smearing, width (Ry)=  0.0100
                       cart. coord. in units 2pi/alat
        k(    1) = (   0.0000000   0.0000000   0.0000000), wk =   0.1250000
        k(    2) = (   0.0000000   0.2487968   0.0000000), wk =   0.2500000
        k(    3) = (   0.0000000  -0.4975937   0.0000000), wk =   0.1250000
        k(    4) = (   0.2500000   0.0000000   0.0000000), wk =   0.2500000
        k(    5) = (   0.2500000   0.2487968   0.0000000), wk =   0.2500000
        k(    6) = (   0.2500000  -0.4975937   0.0000000), wk =   0.2500000
        k(    7) = (  -0.5000000   0.0000000   0.0000000), wk =   0.1250000
        k(    8) = (  -0.5000000   0.2487968   0.0000000), wk =   0.2500000
        k(    9) = (  -0.5000000  -0.4975937   0.0000000), wk =   0.1250000
        k(   10) = (  -0.2500000   0.2487968   0.0000000), wk =   0.2500000

     Largest allocated arrays     est. size (Mb)     dimensions
     Largest temporary arrays     est. size (Mb)     dimensions

     Check: negative/imaginary core charge=   -0.000003    0.000000

     Initial potential from superposition of free atoms
     Check: negative starting charge=   -1.535323

     starting charge  248.99983, renormalised to  253.00000

     negative rho (up, down):  0.156E+01 0.000E+00
     Number of +U iterations with fixed ns =  0
     Starting occupations:
 --- enter write_ns ---
 LDA+U parameters:
U( 2)     =  5.00000000
alpha( 2) =  0.00000000
atom    3   Tr[ns(na)] =   8.00000
    eigenvalues:
  0.800  0.800  0.800  0.800  0.800
    eigenvectors:
  1.000  0.000  0.000  0.000  0.000
  0.000  1.000  0.000  0.000  0.000
  0.000  0.000  1.000  0.000  0.000
  0.000  0.000  0.000  1.000  0.000
  0.000  0.000  0.000  0.000  1.000
    occupations:
  0.800  0.000  0.000  0.000  0.000
  0.000  0.800  0.000  0.000  0.000
  0.000  0.000  0.800  0.000  0.000
  0.000  0.000  0.000  0.800  0.000
  0.000  0.000  0.000  0.000  0.800
atom    4   Tr[ns(na)] =   8.00000
    eigenvalues:
  0.800  0.800  0.800  0.800  0.800
    eigenvectors:
  1.000  0.000  0.000  0.000  0.000
  0.000  1.000  0.000  0.000  0.000
  0.000  0.000  1.000  0.000  0.000
  0.000  0.000  0.000  1.000  0.000
  0.000  0.000  0.000  0.000  1.000
    occupations:
  0.800  0.000  0.000  0.000  0.000
  0.000  0.800  0.000  0.000  0.000
  0.000  0.000  0.800  0.000  0.000
  0.000  0.000  0.000  0.800  0.000
  0.000  0.000  0.000  0.000  0.800
atom    9   Tr[ns(na)] =   8.00000
    eigenvalues:
  0.800  0.800  0.800  0.800  0.800
    eigenvectors:
  1.000  0.000  0.000  0.000  0.000
  0.000  1.000  0.000  0.000  0.000
  0.000  0.000  1.000  0.000  0.000
  0.000  0.000  0.000  1.000  0.000
  0.000  0.000  0.000  0.000  1.000
    occupations:
  0.800  0.000  0.000  0.000  0.000
  0.000  0.800  0.000  0.000  0.000
  0.000  0.000  0.800  0.000  0.000
  0.000  0.000  0.000  0.800  0.000
  0.000  0.000  0.000  0.000  0.800
atom   10   Tr[ns(na)] =   8.00000
    eigenvalues:
  0.800  0.800  0.800  0.800  0.800
    eigenvectors:
  1.000  0.000  0.000  0.000  0.000
  0.000  1.000  0.000  0.000  0.000
  0.000  0.000  1.000  0.000  0.000
  0.000  0.000  0.000  1.000  0.000
  0.000  0.000  0.000  0.000  1.000
    occupations:
  0.800  0.000  0.000  0.000  0.000
  0.000  0.800  0.000  0.000  0.000
  0.000  0.000  0.800  0.000  0.000
  0.000  0.000  0.000  0.800  0.000
  0.000  0.000  0.000  0.000  0.800
atom   16   Tr[ns(na)] =   8.00000
    eigenvalues:
  0.800  0.800  0.800  0.800  0.800
    eigenvectors:
  1.000  0.000  0.000  0.000  0.000
  0.000  1.000  0.000  0.000  0.000
  0.000  0.000  1.000  0.000  0.000
  0.000  0.000  0.000  1.000  0.000
  0.000  0.000  0.000  0.000  1.000
    occupations:
  0.800  0.000  0.000  0.000  0.000
  0.000  0.800  0.000  0.000  0.000
  0.000  0.000  0.800  0.000  0.000
  0.000  0.000  0.000  0.800  0.000
  0.000  0.000  0.000  0.000  0.800
atom   17   Tr[ns(na)] =   8.00000
    eigenvalues:
  0.800  0.800  0.800  0.800  0.800
    eigenvectors:
  1.000  0.000  0.000  0.000  0.000
  0.000  1.000  0.000  0.000  0.000
  0.000  0.000  1.000  0.000  0.000
  0.000  0.000  0.000  1.000  0.000
  0.000  0.000  0.000  0.000  1.000
    occupations:
  0.800  0.000  0.000  0.000  0.000
  0.000  0.800  0.000  0.000  0.000
  0.000  0.000  0.800  0.000  0.000
  0.000  0.000  0.000  0.800  0.000
  0.000  0.000  0.000  0.000  0.800
atom   22   Tr[ns(na)] =   8.00000
    eigenvalues:
  0.800  0.800  0.800  0.800  0.800
    eigenvectors:
  1.000  0.000  0.000  0.000  0.000
  0.000  1.000  0.000  0.000  0.000
  0.000  0.000  1.000  0.000  0.000
[...]
  0.665  0.780  0.984  0.986  0.990
    eigenvectors:
  0.000  0.979  0.000  0.014  0.007
  0.015  0.000  0.985  0.000  0.000
  0.000  0.001  0.000  0.182  0.817
  0.000  0.020  0.000  0.804  0.176
  0.985  0.000  0.015  0.000  0.000
    occupations:
  0.785 -0.000 -0.006  0.029  0.000
 -0.000  0.979 -0.000  0.000 -0.038
 -0.006 -0.000  0.989 -0.001  0.000
  0.029  0.000 -0.001  0.982 -0.000
  0.000 -0.038  0.000 -0.000  0.669
atom   16   Tr[ns(na)] =   8.75108
    eigenvalues:
  0.696  0.713  0.987  0.988  0.991
    eigenvectors:
  0.046  0.126  0.818  0.002  0.008
  0.760  0.240  0.000  0.000  0.000
  0.001  0.004  0.017  0.000  0.978
  0.193  0.630  0.162  0.000  0.014
  0.000  0.000  0.003  0.997  0.000
    occupations:
  0.939 -0.007  0.008 -0.105 -0.000
 -0.007  0.700 -0.001 -0.005 -0.002
  0.008 -0.001  0.990  0.018  0.000
 -0.105 -0.005  0.018  0.758 -0.001
 -0.000 -0.002  0.000 -0.001  0.988
atom   17   Tr[ns(na)] =   8.74442
    eigenvalues:
  0.695  0.718  0.984  0.987  0.988
    eigenvectors:
  0.000  0.985  0.009  0.003  0.003
  0.012  0.000  0.076  0.866  0.046
  0.000  0.005  0.790  0.028  0.177
  0.000  0.009  0.123  0.093  0.775
  0.988  0.000  0.001  0.010  0.001
    occupations:
  0.722 -0.004 -0.019  0.026 -0.001
 -0.004  0.983  0.000  0.000  0.032
 -0.019  0.000  0.984  0.003  0.000
  0.026  0.000  0.003  0.985  0.000
 -0.001  0.032  0.000  0.000  0.699
atom   22   Tr[ns(na)] =   8.73312
    eigenvalues:
  0.718  0.727  0.962  0.972  0.988
    eigenvectors:
  0.001  0.134  0.001  0.016  0.849
  0.998  0.002  0.000  0.000  0.000
  0.000  0.012  0.035  0.944  0.009
  0.002  0.852  0.000  0.004  0.142
  0.000  0.000  0.964  0.036  0.000
    occupations:
  0.952  0.002 -0.009 -0.088  0.000
  0.002  0.718  0.000 -0.000 -0.003
 -0.009  0.000  0.969 -0.026 -0.002
 -0.088 -0.000 -0.026  0.766 -0.000
  0.000 -0.003 -0.002 -0.000  0.962
atom   23   Tr[ns(na)] =   8.74003
    eigenvalues:
  0.709  0.714  0.972  0.986  0.988
    eigenvectors:
  0.000  0.958  0.000  0.033  0.009
  0.021  0.000  0.979  0.000  0.000
  0.000  0.034  0.000  0.966  0.000
  0.000  0.009  0.000  0.001  0.991
  0.979  0.000  0.021  0.000  0.000
    occupations:
  0.726  0.000  0.049  0.025 -0.000
  0.000  0.967  0.000 -0.000 -0.038
  0.049  0.000  0.977 -0.005 -0.000
  0.025 -0.000 -0.005  0.986 -0.000
 -0.000 -0.038 -0.000 -0.000  0.714
N of occupied +U levels =  70.0080956
 --- exit write_ns ---

     Threshold (ethr) on eigenvalues was too large:
     Diagonalizing with lowered threshold

     Davidson diagonalization with overlap
     ethr =  3.37E-08,  avg # of iterations =  1.2

[...]

     total energy              =   -2312.81473103 Ry
     Harris-Foulkes estimate   =   -2312.81473103 Ry
     estimated scf accuracy    <       0.00000002 Ry

     iteration # 16     ecut=    40.00 Ry     beta=0.70
     Davidson diagonalization with overlap
     ethr =  9.32E-12,  avg # of iterations =  1.0

     negative rho (up, down):  0.157E+01 0.000E+00

     End of self-consistent calculation
 --- enter write_ns ---
 LDA+U parameters:
U( 2)     =  5.00000000
alpha( 2) =  0.00000000
atom    3   Tr[ns(na)] =   8.75129
    eigenvalues:
  0.696  0.713  0.987  0.988  0.991
    eigenvectors:
  0.047  0.125  0.816  0.005  0.008
  0.755  0.245  0.000  0.000  0.000
  0.001  0.004  0.017  0.000  0.978
  0.197  0.626  0.162  0.001  0.014
  0.000  0.000  0.006  0.994  0.000
    occupations:
  0.939  0.007  0.008 -0.105  0.001
  0.007  0.700  0.002  0.005 -0.002
  0.008  0.002  0.990  0.018 -0.000
 -0.105  0.005  0.018  0.758  0.001
  0.001 -0.002 -0.000  0.001  0.988
atom    4   Tr[ns(na)] =   8.74559
    eigenvalues:
  0.696  0.718  0.985  0.987  0.988
    eigenvectors:
  0.000  0.985  0.009  0.003  0.003
  0.012  0.000  0.051  0.882  0.055
  0.000  0.005  0.822  0.014  0.159
  0.000  0.009  0.117  0.091  0.783
  0.988  0.000  0.001  0.011  0.001
    occupations:
  0.722 -0.004 -0.019  0.026 -0.001
 -0.004  0.983  0.000  0.000  0.031
 -0.019  0.000  0.984  0.003  0.000
  0.026  0.000  0.003  0.985  0.000
 -0.001  0.031  0.000  0.000  0.699
atom    9   Tr[ns(na)] =   8.73212
    eigenvalues:
  0.718  0.727  0.962  0.972  0.988
    eigenvectors:
  0.000  0.134  0.000  0.016  0.849
  0.998  0.002  0.000  0.000  0.000
  0.000  0.012  0.032  0.947  0.009
  0.002  0.852  0.000  0.004  0.142
  0.000  0.000  0.967  0.033  0.000
    occupations:
  0.952 -0.001 -0.009 -0.088 -0.000
 -0.001  0.718  0.000  0.001 -0.003
 -0.009  0.000  0.968 -0.026  0.002
 -0.088  0.001 -0.026  0.765  0.000
 -0.000 -0.003  0.002  0.000  0.962
atom   10   Tr[ns(na)] =   8.81319
    eigenvalues:
  0.665  0.782  0.984  0.986  0.990
    eigenvectors:
  0.000  0.979  0.000  0.014  0.007
  0.015  0.000  0.985  0.000  0.000
  0.000  0.001  0.000  0.182  0.817
  0.000  0.020  0.000  0.804  0.175
  0.985  0.000  0.015  0.000  0.000
    occupations:
  0.786 -0.000 -0.006  0.029  0.000
 -0.000  0.979 -0.000  0.000 -0.038
 -0.006 -0.000  0.989 -0.001  0.000
  0.029  0.000 -0.001  0.982 -0.000
  0.000 -0.038  0.000 -0.000  0.670
atom   16   Tr[ns(na)] =   8.75129
    eigenvalues:
  0.696  0.713  0.987  0.988  0.991
    eigenvectors:
  0.047  0.124  0.818  0.003  0.008
  0.753  0.246  0.000  0.000  0.000
  0.001  0.004  0.017  0.000  0.978
  0.198  0.625  0.162  0.000  0.014
  0.000  0.000  0.003  0.997  0.000
    occupations:
  0.939 -0.007  0.008 -0.105 -0.000
 -0.007  0.700 -0.001 -0.005 -0.002
  0.008 -0.001  0.990  0.018  0.000
 -0.105 -0.005  0.018  0.758 -0.001
 -0.000 -0.002  0.000 -0.001  0.988
atom   17   Tr[ns(na)] =   8.74422
    eigenvalues:
  0.695  0.718  0.984  0.987  0.988
    eigenvectors:
  0.000  0.985  0.009  0.003  0.003
  0.012  0.000  0.075  0.867  0.046
  0.000  0.005  0.794  0.027  0.174
  0.000  0.009  0.121  0.092  0.777
  0.988  0.000  0.001  0.010  0.001
    occupations:
  0.722 -0.004 -0.019  0.026 -0.001
 -0.004  0.983  0.000  0.000  0.032
 -0.019  0.000  0.984  0.003  0.000
  0.026  0.000  0.003  0.985  0.000
 -0.001  0.032  0.000  0.000  0.699
atom   22   Tr[ns(na)] =   8.73209
    eigenvalues:
  0.718  0.727  0.962  0.972  0.988
    eigenvectors:
  0.001  0.134  0.001  0.016  0.849
  0.997  0.002  0.000  0.000  0.000
  0.000  0.012  0.037  0.942  0.009
  0.002  0.851  0.000  0.004  0.142
  0.000  0.000  0.962  0.037  0.000
    occupations:
  0.952  0.002 -0.009 -0.088  0.000
  0.002  0.718  0.000 -0.000 -0.003
 -0.009  0.000  0.968 -0.026 -0.002
 -0.088 -0.000 -0.026  0.765 -0.000
  0.000 -0.003 -0.002 -0.000  0.962
atom   23   Tr[ns(na)] =   8.73950
    eigenvalues:
  0.709  0.714  0.972  0.986  0.988
    eigenvectors:
  0.000  0.958  0.000  0.033  0.009
  0.021  0.000  0.979  0.000  0.000
  0.000  0.034  0.000  0.966  0.000
  0.000  0.009  0.000  0.000  0.991
  0.979  0.000  0.021  0.000  0.000
    occupations:
  0.726  0.000  0.049  0.025 -0.000
  0.000  0.967  0.000 -0.000 -0.038
  0.049  0.000  0.977 -0.005 -0.000
  0.025 -0.000 -0.005  0.986 -0.000
 -0.000 -0.038 -0.000 -0.000  0.714
N of occupied +U levels =  70.0092872
 --- exit write_ns ---

[...]

          k = 0.2500-0.4976 0.0000 ( 32026 PWs)   bands (ev):

[...]

          k =-0.2500 0.2488 0.0000 ( 32025 PWs)   bands (ev):

   -54.6758 -54.6594 -54.6207 -54.6175 -54.5766 -54.5654 -54.5337 -54.4944
   -54.4765 -54.4724 -54.4549 -54.4516 -54.4094 -54.3201 -54.3156 -54.3019
   -54.2974 -54.2038 -54.1993 -54.1791 -54.1741 -53.8116 -53.5824 -53.2044
   -23.8632 -21.4809 -21.2120 -20.5682 -20.4256 -20.1500 -20.0837 -20.0095
   -19.8652 -19.8427 -19.7167 -19.6656 -19.5841 -19.5292 -19.3923 -19.3362
   -19.2965 -18.6577 -18.4294 -17.4694 -10.2767 -10.0862  -9.9477  -9.9025
    -9.4696  -9.4611  -9.4025  -9.2526  -9.1132  -8.9785  -8.8888  -8.8206
    -8.7438  -8.6239  -8.4855  -8.4392  -8.3552  -8.2884  -8.2008  -7.8004
    -7.7463  -7.6270  -7.5506  -7.4099  -7.3647  -7.2437  -7.1839  -7.0481
    -7.0146  -6.8028  -6.7687  -6.7059  -6.6020  -6.5076  -6.4449  -6.3371
    -6.2834  -6.2612  -6.1835  -6.0618  -5.9957  -5.8823  -5.6621  -5.6053
    -5.4101  -5.2356  -5.0854  -4.9524  -4.8721  -4.8304  -4.7355  -4.6460
    -4.5980  -4.4348  -4.4050  -4.1994  -4.1404  -3.9538  -3.7883  -3.7481
    -3.6267  -3.5094  -3.4166  -3.3143  -3.1979  -3.1751  -3.0783  -2.9802
    -2.8610  -2.8158  -2.5191  -2.5034  -2.2586  -2.1158  -2.0309  -1.9118
    -1.8526  -1.8061  -1.7596  -1.6349  -1.3614  -1.2608  -1.1923  -1.0609
    -0.4711  -0.2633  -0.1378   0.3281   0.4839   0.8245   1.0265   1.3057
     1.3874   1.5326   1.5859   1.8751   2.0156   2.0715   2.3454   3.3951
     3.7917   4.0559   4.5609   4.8779   5.0978   5.5501   5.7421   5.7888
     5.9796   6.1499   6.2805   6.4561   6.5219   6.7500   6.8676   6.9689
     7.0105   7.1463   7.2972   7.4672   7.6121   7.6649   7.7857   7.8856
     7.9617   8.0766   8.2039   8.2575   8.4309   8.4914   8.6077   8.6962
     8.8132   8.8295   8.9686   9.0002   9.1530   9.2200   9.3462   9.4257
     9.5288   9.5960   9.6922   9.7536   9.8752   9.9894  10.0151  10.1290
    10.1987  10.2961  10.3959  10.4753  10.5700  10.6491  10.7221  10.7941
    10.9476  11.0140  11.0880  11.2013  11.3195  11.3547  11.4502  11.5482
    11.6284  11.7334  11.8058  11.8714  11.9524  12.0450  12.0926  12.1565
    12.2233  12.2991  12.3812  12.4348  12.5825  12.6512  12.7319  12.7984
    12.8785  12.9137  12.9917  13.0651  13.2240  13.2959  13.3436  13.4547
    13.5473  13.6369  13.6667  13.7161  13.8138  13.8403  13.9583  14.0323
    14.1132  14.1607  14.2662  14.4086  14.4300  14.4947  14.6080  14.7230
    14.7712  14.8428  14.9405  14.9794  15.0556  15.1502  15.1919  15.2987
    15.3223  15.3385  15.3861  15.4256  15.5145  15.5733  15.6448  15.6591
    15.7730  15.8534  15.8802  15.9328  15.9829  16.0738  16.1304  16.1685
    16.2331  16.2800  16.3434  16.4302  16.5264  16.6027  16.7456  16.7791
    16.8260  16.9306  16.9880  17.0425  17.0721  17.1483  17.2041  17.2493
    17.3271  17.3466  17.4029  17.4546  17.4818  17.5893  17.5977  17.6545
    17.6930  17.7333  17.7585  17.7791  17.8095  17.8286  17.8549  17.9006
    17.9343  17.9910  18.0265  18.0948  18.1337  18.2760  18.3627  18.3890
    18.4019  18.4937  18.5537  18.6085  18.6863  18.7370  18.8111  18.8607
    18.9519  19.0028  19.0423  19.1163  19.1267  19.2166  19.3105  19.3815
    19.4518  19.5554  19.6135  19.6444  19.7070  19.8440  19.9776  20.0269
    20.0962  20.1625  20.1984  20.2407  20.2838  20.3283  20.3621  20.4266
    20.5366  20.5923  20.6342  20.7039  20.7412  20.8213  20.8257  20.8572
    20.9444  20.9854  21.0503  21.1082  21.1628  21.2303  21.3191  21.3422
    21.4031  21.5003  21.5151  21.5788  21.6166  21.6843  21.7741  21.8775
    21.9421  21.9911  22.0718  22.1445  22.1860  22.2617  22.3138  22.3384
    22.4505  22.4890  22.5279

     the Fermi energy is    -1.1772 ev

!    total energy              =   -2312.81473103 Ry
     Harris-Foulkes estimate   =   -2312.81473103 Ry
     estimated scf accuracy    <          3.8E-09 Ry

     The total energy is the sum of the following terms:

     one-electron contribution =  -24131.78278913 Ry
     hartree contribution      =   12117.41546818 Ry
     xc contribution           =    -580.04423004 Ry
     ewald contribution        =   10280.25228036 Ry
     Hubbard energy            =       1.34451359 Ry
     smearing contrib. (-TS)   =       0.00002601 Ry

     convergence has been achieved in  16 iterations

     Forces acting on atoms (Ry/au):

     negative rho (up, down):  0.157E+01 0.000E+00
     atom    1 type  1   force =    -0.00693452   -0.00332557    0.00031681
     atom    2 type  1   force =     0.00012147    0.00466859    0.00063996
     atom    3 type  2   force =     0.00738258    0.00569564   -0.00004909
     atom    4 type  2   force =     0.00946846    0.00391679    0.00043680
     atom    5 type  1   force =     0.00110866   -0.00368194    0.00036579
     atom    6 type  1   force =     0.00008132   -0.00296817    0.00008239
     atom    7 type  1   force =     0.00011873   -0.00076587    0.00011483
     atom    8 type  1   force =    -0.00394631    0.00010345    0.00055541
     atom    9 type  2   force =     0.00630260    0.00396553   -0.00013598
     atom   10 type  2   force =    -0.00006839   -0.02378303    0.00026031
     atom   11 type  1   force =    -0.00048707    0.00236258   -0.00019542
     atom   12 type  1   force =    -0.01277516    0.01089828   -0.00014631
     atom   13 type  1   force =    -0.00109573   -0.00769782   -0.00026364
     atom   14 type  1   force =    -0.00737187   -0.00313572    0.00009264
     atom   15 type  1   force =     0.00013790    0.00102900   -0.00024921
     atom   16 type  2   force =    -0.00825370    0.00579187   -0.00001118
     atom   17 type  2   force =     0.00947638    0.00544061    0.00029127
     atom   18 type  1   force =     0.00131110   -0.00370735    0.00036676
     atom   19 type  1   force =     0.00001910   -0.00291875    0.00009820
     atom   20 type  1   force =    -0.00001629   -0.00381026   -0.00032917
     atom   21 type  1   force =    -0.00385005    0.00233935    0.00038592
     atom   22 type  2   force =    -0.00281465    0.00389835   -0.00012967
     atom   23 type  2   force =     0.00012000    0.00788732   -0.00073162
     atom   24 type  1   force =     0.00056007    0.00242631   -0.00020117
     atom   25 type  1   force =     0.01283583    0.01093164   -0.00013170
     atom   26 type  1   force =    -0.00102084   -0.01622191   -0.00035107
     atom   27 type  3   force =     0.00000226   -0.00031171    0.00008869
     atom   28 type  3   force =    -0.00000803    0.00016870    0.00007717
     atom   29 type  3   force =    -0.00026651   -0.00013440   -0.00059968
     atom   30 type  3   force =    -0.00011907   -0.00016907   -0.00042955
     atom   31 type  1   force =     0.00002416   -0.00026237    0.00082126
     atom   32 type  1   force =    -0.00006074    0.00099275   -0.00039715
     atom   33 type  3   force =     0.00001831    0.00037720   -0.00064261

     Total force =     0.002436     Total SCF correction =     0.000098

     entering subroutine stress ...

     negative rho (up, down):  0.157E+01 0.000E+00
          total   stress  (Ry/bohr**3)                   (kbar)     P=  -20.81
  -0.00022524   0.00000005   0.00000369        -33.13      0.01      0.54
   0.00000005  -0.00014633  -0.00000707          0.01    -21.53     -1.04
   0.00000369  -0.00000707  -0.00005291          0.54     -1.04     -7.78

     bfgs converged in   9 scf cycles and   8 bfgs steps
     (criteria: energy < 0.10E-03, force < 0.10E-02)

     End of BFGS Geometry Optimization

     Final energy   =   -2312.8147310255 Ry
Begin final coordinates

ATOMIC_POSITIONS (crystal)
O0       0.000000000   0.000000000   0.377554633    0   0   1
O0       0.000000000   0.500000000   0.401735752    0   0   1
Pt1      0.250000000   0.500000000   0.451288339    0   0   1
Pt1      0.000000000   0.000000000   0.452665811    0   0   1
O0       0.250000000   0.810000000   0.442508854    0   0   1
O0       0.250000000   0.190000000   0.460944812    0   0   1
O0       0.000000000   0.500000000   0.496647012    0   0   1
O0       0.000000000   0.000000000   0.529699441    0   0   1
Pt1      0.250000000   0.000000000   0.575743824    0   0   1
Pt1      0.000000000   0.500000000   0.575311784    0   0   1
O0       0.250000000   0.690000000   0.566051885    0   0   1
O0       0.250000000   0.310000000   0.586831719    0   0   1
O0       0.000000000   0.000000000   0.621410708    0   0   1
O0       0.500000000   0.000000000   0.377442612    0   0   1
O0       0.500000000   0.500000000   0.401195909    0   0   1
Pt1      0.750000000   0.500000000   0.451290893    0   0   1
Pt1      0.500000000   0.000000000   0.452533749    0   0   1
O0       0.750000000   0.810000000   0.442520230    0   0   1
O0       0.750000000   0.190000000   0.460928503    0   0   1
O0       0.500000000   0.500000000   0.498150150    0   0   1
O0       0.500000000   0.000000000   0.529492134    0   0   1
Pt1      0.750000000   0.000000000   0.575740632    0   0   1
Pt1      0.500000000   0.500000000   0.576011304    0   0   1
O0       0.750000000   0.690000000   0.566026775    0   0   1
O0       0.750000000   0.310000000   0.586815434    0   0   1
O0       0.500000000   0.000000000   0.620952720    0   0   1
H2       0.000033059   0.641227296   0.386686029
H2       0.500071207   0.641168058   0.386250429
H2       0.143990601   0.033931269   0.368041427
H2       0.643576236   0.035198024   0.367859166
O0       0.500218711   0.556701410   0.648957360
O0       0.499814960   0.368236582   0.677551759
H2       0.500022584   0.428241863   0.711888210
End final coordinates

     General routines

     Parallel routines
     Hubbard U routines

   This run was terminated on:  19: 9:16  31May2014

   JOB DONE.