     Program PWSCF v.5.0.2 (svn rev. 9656) starts on 28Mar2014 at  6:21:46

     Current dimensions of program PWSCF are:
     Max number of different atomic species (ntypx) = 10
     Max number of k-points (npk) =  40000
     Max angular momentum in pseudopotentials (lmaxx) =  3
     Reading input from pwscf.in
Warning: card &CELL ignored
Warning: card / ignored

     Subspace diagonalization in iterative solution of the eigenvalue problem:
     a serial algorithm will be used

     bravais-lattice index     =            0
     lattice parameter (alat)  =      11.7919  a.u.
     unit-cell volume          =    9723.6088 (a.u.)^3
     number of atoms/cell      =           50
     number of atomic types    =            3
     number of electrons       =       455.00
     number of Kohn-Sham states=          658
     kinetic-energy cutoff     =      40.0000  Ry
     charge density cutoff     =     500.0000  Ry
     convergence threshold     =      1.0E-06
     mixing beta               =       0.3000
     number of iterations used =            8  plain     mixing
     Exchange-correlation      = SLA  PW   PBE  PBE ( 1 4 3 4 0)
     EXX-fraction              =        0.00
     nstep                     =           50

     celldm(1)=  11.791891  celldm(2)=   0.000000  celldm(3)=   0.000000
     celldm(4)=   0.000000  celldm(5)=   0.000000  celldm(6)=   0.000000

     crystal axes: (cart. coord. in units of alat)
               a(1) = (   1.000000   0.000000   0.000000 )
               a(2) = (   0.000000   1.026665   0.000000 )
               a(3) = (   0.000000   0.000000   5.776283 )

     reciprocal axes: (cart. coord. in units 2 pi/alat)
               b(1) = (  1.000000  0.000000  0.000000 )
               b(2) = (  0.000000  0.974028  0.000000 )
               b(3) = (  0.000000  0.000000  0.173122 )

     PseudoPot. # 1 for O  read from file:
     /home/camp/zhonxu/pseudo/o_pbe_v1.01.uspp.F.UPF
     MD5 check sum: 2bcb18d16ea4b960afae9ec6d52f22d2
     Pseudo is Ultrasoft + core correction, Zval =  6.0
     Generated by new atomic code, or converted to UPF format
     Using radial grid of  737 points,  5 beta functions with:
                l(1) =   0
                l(2) =   0
                l(3) =   1
                l(4) =   1
                l(5) =   2
     Q(r) pseudized with  8 coefficients,  rinner =    0.900   0.900   0.900
                                                       0.900   0.900

     PseudoPot. # 2 for Ru read from file:
     /home/camp/zhonxu/pseudo/ru_pbe_v1.uspp.F.UPF
     MD5 check sum: df00be1c11b23341d9806d8f1dfa10cf
     Pseudo is Ultrasoft + core correction, Zval = 16.0
     Generated by new atomic code, or converted to UPF format
     Using radial grid of  967 points,  6 beta functions with:
                l(1) =   0
                l(2) =   0
                l(3) =   1
                l(4) =   1
                l(5) =   2
                l(6) =   2
     Q(r) pseudized with  8 coefficients,  rinner =    1.300   1.300   1.300
                                                       1.300   1.300

     PseudoPot. # 3 for H  read from file:
     /home/camp/zhonxu/pseudo/h_pbe_v1.uspp.F.UPF
     MD5 check sum: 3408e3ff4ec8b0a4e358431e7e038a48
     Pseudo is Ultrasoft, Zval =  1.0
     Generated by new atomic code, or converted to UPF format
     Using radial grid of  615 points,  2 beta functions with:
                l(1) =   0
                l(2) =   0
     Q(r) pseudized with  8 coefficients,  rinner =    0.700

     atomic species   valence    mass     pseudopotential
        O0             6.00    15.99940     O ( 1.00)
        Ru1           16.00   101.07000     Ru( 1.00)
        H2             1.00     1.00794     H ( 1.00)

      2 Sym. Ops. (no inversion) found

   Cartesian axes

     site n.     atom                  positions (alat units)
         1           O0  tau(   1) = (   0.0000000   0.5133323   1.9230980  )
         2           Ru1 tau(   2) = (   0.2500000   0.5133323   2.1181631  )
         3           Ru1 tau(   3) = (   0.0000000   0.0000000   2.1181631  )
         4           O0  tau(   4) = (   0.2500000   0.8315984   2.1181631  )
         5           O0  tau(   5) = (   0.2500000   0.1950663   2.1181631  )
         6           O0  tau(   6) = (   0.0000000   0.5133323   2.3132282  )
         7           O0  tau(   7) = (   0.0000000   0.0000000   2.4364363  )
         8           Ru1 tau(   8) = (   0.2500000   0.0000000   2.6315014  )
         9           Ru1 tau(   9) = (   0.0000000   0.5133323   2.6315014  )
        10           O0  tau(  10) = (   0.2500000   0.7083986   2.6315014  )
        11           O0  tau(  11) = (   0.2500000   0.3182660   2.6315014  )
        12           O0  tau(  12) = (   0.0000000   0.0000000   2.8265665  )
        13           O0  tau(  13) = (   0.0000000   0.5133323   2.9427276  )
        14           Ru1 tau(  14) = (   0.2500000   0.5133323   3.1406808  )
        15           Ru1 tau(  15) = (   0.0000000   0.0000000   3.1457639  )
        16           O0  tau(  16) = (   0.2500000   0.8279742   3.1435689  )
        17           O0  tau(  17) = (   0.2500000   0.1986904   3.1435689  )
        18           O0  tau(  18) = (   0.0000000   0.5133323   3.3386918  )
        19           O0  tau(  19) = (   0.0000000   0.0000000   3.4580876  )
        20           Ru1 tau(  20) = (   0.2500000   0.0000000   3.6718101  )
        21           Ru1 tau(  21) = (   0.0000000   0.5133323   3.6403293  )
        22           O0  tau(  22) = (   0.2500000   0.7080495   3.6659760  )
        23           O0  tau(  23) = (   0.2500000   0.3186151   3.6659760  )
        24           O0  tau(  24) = (   0.0000000   0.0000000   3.8466582  )
        25           O0  tau(  25) = (   0.5000000   0.5133323   1.9230980  )
        26           Ru1 tau(  26) = (   0.7500000   0.5133323   2.1181631  )
        27           Ru1 tau(  27) = (   0.5000000   0.0000000   2.1181631  )
        28           O0  tau(  28) = (   0.7500000   0.8315984   2.1181631  )
        29           O0  tau(  29) = (   0.7500000   0.1950663   2.1181631  )
        30           O0  tau(  30) = (   0.5000000   0.5133323   2.3132282  )
        31           O0  tau(  31) = (   0.5000000   0.0000000   2.4364363  )
        32           Ru1 tau(  32) = (   0.7500000   0.0000000   2.6315014  )
        33           Ru1 tau(  33) = (   0.5000000   0.5133323   2.6315014  )
        34           O0  tau(  34) = (   0.7500000   0.7083986   2.6315014  )
        35           O0  tau(  35) = (   0.7500000   0.3182660   2.6315014  )
        36           O0  tau(  36) = (   0.5000000   0.0000000   2.8265665  )
        37           O0  tau(  37) = (   0.5000000   0.5133323   2.9427276  )
        38           Ru1 tau(  38) = (   0.7500000   0.5133323   3.1406808  )
        39           Ru1 tau(  39) = (   0.5000000   0.0000000   3.1457639  )
        40           O0  tau(  40) = (   0.7500000   0.8279742   3.1435689  )
        41           O0  tau(  41) = (   0.7500000   0.1986904   3.1435689  )
        42           O0  tau(  42) = (   0.5000000   0.5133323   3.3386918  )
        43           O0  tau(  43) = (   0.5000000   0.0000000   3.4580876  )
        44           Ru1 tau(  44) = (   0.7500000   0.0000000   3.6718101  )
        45           Ru1 tau(  45) = (   0.5000000   0.5133323   3.6403293  )
        46           O0  tau(  46) = (   0.7500000   0.7080495   3.6659760  )
        47           O0  tau(  47) = (   0.7500000   0.3186151   3.6659760  )
        48           O0  tau(  48) = (   0.5000000   0.0000000   3.8466582  )
        49           O0  tau(  49) = (   0.5000000   0.5133323   3.8530698  )
        50           H2  tau(  50) = (   0.3637800   0.5133323   3.9091576  )

     number of k points=     9  Methfessel-Paxton smearing, width (Ry)=  0.0100
                       cart. coord. in units 2pi/alat
        k(    1) = (   0.0000000   0.0000000   0.0000000), wk =   0.1250000
        k(    2) = (   0.0000000   0.2435070   0.0000000), wk =   0.2500000
        k(    3) = (   0.0000000  -0.4870139   0.0000000), wk =   0.1250000
        k(    4) = (   0.2500000   0.0000000   0.0000000), wk =   0.2500000
        k(    5) = (   0.2500000   0.2435070   0.0000000), wk =   0.5000000
        k(    6) = (   0.2500000  -0.4870139   0.0000000), wk =   0.2500000
        k(    7) = (  -0.5000000   0.0000000   0.0000000), wk =   0.1250000
        k(    8) = (  -0.5000000   0.2435070   0.0000000), wk =   0.2500000
        k(    9) = (  -0.5000000  -0.4870139   0.0000000), wk =   0.1250000

     Largest allocated arrays     est. size (Mb)     dimensions
     Largest temporary arrays     est. size (Mb)     dimensions

     Check: negative/imaginary core charge=   -0.000004    0.000000

     Initial potential from superposition of free atoms
     Check: negative starting charge=   -1.045864

     starting charge  438.99969, renormalised to  455.00000

     negative rho (up, down):  0.108E+01 0.000E+00
     Starting wfc are  341 randomized atomic wfcs

     Self-consistent Calculation

     iteration #  1     ecut=    40.00 Ry     beta=0.30
     Davidson diagonalization with overlap
     ethr =  1.00E-02,  avg # of iterations =  5.8

     negative rho (up, down):  0.115E+01 0.000E+00

     total energy              =   -4014.79781267 Ry
     Harris-Foulkes estimate   =   -4166.82693367 Ry
     estimated scf accuracy    <     302.08719382 Ry

[...]

     End of self-consistent calculation

          k = 0.0000 0.0000 0.0000 ( 41487 PWs)   bands (ev):

   -74.1928 -72.7444 -72.7300 -72.5708 -72.5586 -72.4125 -72.4020 -72.3805
   -72.3528 -72.3459 -72.3143 -72.2795 -72.2463 -72.2356 -72.0886 -72.0707
   -46.9986 -43.6040 -43.2900 -42.9005 -42.7229 -42.7155 -42.7087 -42.6355
   -42.6294 -42.6163 -42.6159 -42.6139 -42.5808 -42.5790 -42.5764 -42.5742
   -42.5658 -42.5438 -42.4971 -42.4713 -42.4542 -42.4540 -42.4477 -42.4190
   -42.3965 -42.3836 -42.3372 -42.2885 -42.2684 -42.2683 -42.2668 -42.2308
   -42.2262 -42.2146 -42.2082 -42.2030 -42.1689 -42.1630 -42.1478 -42.1446
   -42.1272 -42.1180 -42.0870 -42.0503 -42.0207 -41.9703 -41.9302 -41.8948
   -22.1682 -18.9018 -18.7078 -18.5599 -18.4404 -18.3208 -18.1488 -17.9187
   -17.9114 -17.8984 -17.8526 -17.7850 -17.7110 -17.6742 -17.6425 -17.6315
   -17.6236 -17.6107 -17.5543 -17.5494 -17.4879 -17.4800 -17.3584 -17.3385
   -17.2941 -17.1209 -17.1023 -17.0996 -17.0369 -16.9752 -16.8343 -16.2578
   -16.1906 -11.7612  -9.4550  -8.7744  -7.1734  -7.1069  -7.0865  -7.0345
    -6.8151  -6.7597  -6.1268  -6.0752  -5.9204  -5.8984  -5.8876  -5.8724
    -5.8104  -5.7653  -5.6971  -5.6942  -5.6917  -5.6760  -5.6645  -5.6561
    -5.6018  -5.5529  -5.5393  -5.5302  -5.4999  -5.4812  -5.4125  -5.3055
    -5.2906  -5.2067  -5.1797  -5.1103  -5.1033  -5.0751  -4.9220  -4.8224
    -4.5967  -4.4939  -4.4841  -4.3789  -4.2207  -3.7948  -3.7349  -3.6984
    -3.6480  -3.6224  -3.6092  -3.5919  -3.5732  -3.5484  -3.3660  -3.3497
    -3.2723  -3.2454  -3.1678  -3.1464  -3.1101  -3.0755  -3.0420  -3.0289
    -2.9876  -2.9262  -2.8781  -2.8200  -2.7962  -2.6621  -2.6086  -2.5906
    -2.4649  -2.4580  -2.4264  -2.3734  -2.3597  -2.3321  -2.2927  -2.2180
[...]
O0       0.250000000   0.806470000   0.544220000    0   0   0
O0       0.250000000   0.193530000   0.544220000    0   0   0
O0       0.000000000   0.500000000   0.578000000    0   0   0
O0       0.000000000   0.000000000   0.598670000    0   0   0
Ru1      0.250000000   0.000000000   0.635670000    0   0   0
Ru1      0.000000000   0.500000000   0.630220000    0   0   0
O0       0.250000000   0.689660000   0.634660000    0   0   0
O0       0.250000000   0.310340000   0.634660000    0   0   0
O0       0.000000000   0.000000000   0.665940000    0   0   0
O0       0.500000000   0.500000000   0.332930000    0   0   0
Ru1      0.750000000   0.500000000   0.366700000    0   0   0
Ru1      0.500000000   0.000000000   0.366700000    0   0   0
O0       0.750000000   0.810000000   0.366700000    0   0   0
O0       0.750000000   0.190000000   0.366700000    0   0   0
O0       0.500000000   0.500000000   0.400470000    0   0   0
O0       0.500000000   0.000000000   0.421800000    0   0   0
Ru1      0.750000000   0.000000000   0.455570000    0   0   0
Ru1      0.500000000   0.500000000   0.455570000    0   0   0
O0       0.750000000   0.690000000   0.455570000    0   0   0
O0       0.750000000   0.310000000   0.455570000    0   0   0
O0       0.500000000   0.000000000   0.489340000    0   0   0
O0       0.500000000   0.500000000   0.509450000    0   0   0
Ru1      0.750000000   0.500000000   0.543720000    0   0   0
Ru1      0.500000000   0.000000000   0.544600000    0   0   0
O0       0.750000000   0.806470000   0.544220000    0   0   0
O0       0.750000000   0.193530000   0.544220000    0   0   0
O0       0.500000000   0.500000000   0.578000000    0   0   0
O0       0.500000000   0.000000000   0.598670000    0   0   0
Ru1      0.750000000   0.000000000   0.635670000    0   0   0
Ru1      0.500000000   0.500000000   0.630220000    0   0   0
O0       0.750000000   0.689660000   0.634660000    0   0   0
O0       0.750000000   0.310340000   0.634660000    0   0   0
O0       0.500000000   0.000000000   0.665940000    0   0   0
O0       0.514208007   0.500000000   0.684169196
H2       0.371340483   0.500000000   0.695639902

     Check: negative starting charge=   -1.046918
     NEW-OLD atomic charge density approx. for the potential

     Check: negative/imaginary core charge=   -0.000004    0.000000
     Check: negative starting charge=   -1.046920

[...]

     Self-consistent Calculation

[...]

     Threshold (ethr) on eigenvalues was too large:
     Diagonalizing with lowered threshold

     Davidson diagonalization with overlap
     ethr =  4.42E-09,  avg # of iterations =  1.0

[...]

     total energy              =   -4157.69728555 Ry
     Harris-Foulkes estimate   =   -4157.69728555 Ry
     estimated scf accuracy    <       0.00000004 Ry

     iteration # 26     ecut=    40.00 Ry     beta=0.30
     Davidson diagonalization with overlap
     ethr =  3.38E-12,  avg # of iterations =  1.0

     negative rho (up, down):  0.116E+01 0.000E+00

     End of self-consistent calculation

[...]

          k = 0.2500-0.4870 0.0000 ( 41596 PWs)   bands (ev):

[...]

          k =-0.5000-0.4870 0.0000 ( 41560 PWs)   bands (ev):

   -73.1264 -73.1204 -72.9254 -72.9238 -72.9235 -72.7576 -72.7575 -72.7185
   -72.6992 -72.6953 -72.6893 -72.6495 -72.6464 -72.6441 -72.4434 -72.4356
   -43.2005 -43.1977 -43.1521 -43.0962 -43.0929 -42.9827 -42.9826 -42.9749
   -42.9693 -42.9562 -42.9320 -42.9315 -42.9240 -42.9237 -42.9236 -42.8966
   -42.8952 -42.8819 -42.8505 -42.8490 -42.7820 -42.7750 -42.7657 -42.7652
   -42.7114 -42.7112 -42.6591 -42.6502 -42.6360 -42.6067 -42.6035 -42.5995
   -42.5967 -42.5915 -42.5878 -42.5782 -42.5734 -42.5065 -42.4896 -42.4831
   -42.4816 -42.4781 -42.4703 -42.4696 -42.4667 -42.4130 -42.2792 -42.2698
   -18.7348 -18.6464 -18.5338 -18.5309 -18.3975 -18.3951 -18.2703 -18.2628
   -18.1486 -18.1181 -18.1077 -18.1012 -18.0745 -18.0397 -18.0201 -18.0031
   -17.9607 -17.9510 -17.9215 -17.9159 -17.9041 -17.9023 -17.8393 -17.8357
   -17.8316 -17.8103 -17.7408 -17.7222 -17.5624 -17.4180 -17.4080 -16.6720
   -16.6637  -6.7942  -6.7408  -6.6146  -6.6135  -6.3467  -6.2426  -6.1236
    -6.1211  -6.0265  -6.0049  -5.9953  -5.9905  -5.9875  -5.9859  -5.9818
    -5.9656  -5.9579  -5.9480  -5.9420  -5.9255  -5.8035  -5.6768  -5.6659
    -5.6631  -5.6616  -5.6091  -5.5896  -5.5884  -5.5877  -5.5465  -5.3160
    -5.3157  -5.2931  -5.2825  -5.2577  -5.2555  -5.2435  -5.2272  -5.2246
    -5.1958  -5.0051  -4.8180  -4.7184  -4.7100  -4.7013  -4.6833  -4.6715
    -4.5506  -4.4217  -4.2536  -4.1995  -4.1666  -4.1378  -4.1072  -4.0605
    -3.9496  -3.9100  -3.8998  -3.8362  -3.8302  -3.8199  -3.8086  -3.8064
    -3.8051  -3.7743  -3.5978  -3.5610  -3.5388  -3.5357  -3.5332  -3.5139
    -3.4834  -3.3884  -3.1725  -3.1063  -3.0814  -3.0620  -2.5736  -2.5700
    -2.4412  -2.4153  -2.3464  -2.3321  -2.2751  -2.2699  -2.1632  -2.1617
    -2.0957  -2.0440  -1.9165  -1.8789  -1.8719  -1.8557  -1.7974  -1.7919
    -1.6518  -1.6161  -1.4587  -0.9015  -0.5318  -0.4548  -0.4394  -0.3946
    -0.2159  -0.1853  -0.1716  -0.1082   0.0331   0.1234   0.1430   0.1809
     0.2009   0.2343   0.2611   0.3449   0.5099   0.5646   0.6736   0.6816
     0.7383   0.7870   0.7943   0.8033   0.8644   0.8661   0.8727   0.8785
     0.9025   0.9305   0.9649   0.9780   0.9950   0.9966   1.0608   1.1712
     1.1908   1.2426   1.2511   1.2997   1.3244   1.3765   1.4137   1.4146
     1.4520   1.4808   1.5336   1.5686   2.2053   2.2101   2.5926   3.2136
     3.3059   3.3445   3.3541   3.3837   3.3912   3.4478   3.4504   3.5946
     3.6039   3.6385   3.7148   4.2043   4.2330   4.2444   4.3412   4.5610
     4.6327   4.6573   4.7286   5.0299   5.1138   5.1341   5.2123   5.3565
     5.4033   5.4116   5.4960   5.5208   6.6614   6.8524   6.8552   7.8212
     7.8264   7.8520   7.8578   7.9726   8.0357   8.0967   8.0990   8.1436
     8.3358   8.3880   8.4047   8.4811   8.7580   8.7941   8.8383   8.9163
     9.2676   9.2762   9.3799   9.4231   9.5442   9.5736   9.5862   9.5887
     9.9709   9.9770  10.0384  10.0701  10.1410  10.1476  10.1570  10.1967
    10.7677  10.7721  10.8350  10.8635  10.9444  10.9672  10.9758  11.0653
    11.5717  11.5886  11.6578  11.7254  12.0448  12.0849  12.1808  12.2922
    12.5438  12.6019  12.6217  12.8370  13.0299  13.0492  13.0770  13.1017
    13.2182  13.2978  13.3339  13.5568  13.6639  13.6865  13.7201  13.7830
    13.7950  13.8281  13.8490  13.8859  13.9309  14.0232  14.0427  14.0573
    14.1396  14.1471  14.1789  14.2508  14.2625  14.3921  14.4214  14.4283
    14.5158  14.5914  14.6025  14.7070  14.7118  14.7295  14.8321  14.9098
    14.9192  14.9579  14.9644  15.0359  15.0672  15.0702  15.0985  15.3060
    15.3140  15.3183  15.3467  15.3645  15.3803  15.4019  15.4093  15.5946
    15.6444  15.6656  15.6902  15.6953  15.7079  15.7374  15.7394  15.7672
    15.7727  15.7971  15.8088  15.8449  15.8616  15.9006  15.9032  15.9112
    15.9164  15.9386  15.9924  16.0481  16.1367  16.1395  16.1563  16.1687
    16.2056  16.2382  16.2700  16.2974  16.3725  16.3986  16.4104  16.4445
    16.4832  16.4978  16.5259  16.5593  16.6620  16.7343  16.7370  16.7471
    16.8048  16.8225  16.8271  16.9017  16.9766  17.0512  17.0554  17.0921
    17.2934  17.3110  17.3442  17.3696  17.4342  17.4597  17.4688  17.4822
    17.6384  17.6620  17.7245  17.7621  17.7627  17.7917  17.8354  17.9174
    18.0533  18.0578  18.0902  18.1163  18.1449  18.1909  18.2356  18.3007
    18.3395  18.3744  18.3959  18.3998  18.5206  18.5418  18.5666  18.6564
    18.7683  18.7857  18.8084  18.8579  18.9181  18.9890  18.9922  19.0178
    19.0222  19.0497  19.1372  19.2900  19.3664  19.3822  19.4060  19.4137
[...]
    23.1278  23.1605  23.1992  23.3147  23.3528  23.3647  23.3801  23.4384
    23.4852  23.5070  23.5268  23.5696  23.6631  23.6681  23.7094  23.7595
    23.8318  23.8443  23.8458  23.8788  23.8871  23.9473  23.9584  24.0308
    24.0398  24.0567  24.0947  24.1082  24.1747  24.1969  24.2133  24.2438
    24.3317  24.3492  24.3789  24.4188  24.4627  24.4826  24.4886  24.5048
    24.5859  24.6313  24.6644  24.6666  24.8616  24.8703  24.8933  24.9694
    24.9786  24.9892  24.9978  25.0133  25.1492  25.1592  25.1861  25.2180
    25.2602  25.3306  25.3793  25.4029  25.4316  25.5245  25.5397  25.5542
    25.6384  25.6697  25.7185  25.7608  25.8145  25.8776  25.9202  25.9282
    25.9427  25.9473  26.0916  26.0998  26.1288  26.1978  26.2146  26.3089
    26.3724  26.4204  26.4574  26.4613  26.5556  26.5562  26.6351  26.6539
    26.7244  26.8688  26.9007  26.9606  26.9629  26.9961  27.0060  27.0566
    27.0915  27.1154  27.1211  27.1706  27.2463  27.2588  27.2983  27.3228
    27.3400  27.3593  27.3776  27.4942  27.5795  27.5884  27.5965  27.6155
    27.6254  27.6914

     the Fermi energy is     0.8505 ev

!    total energy              =   -4157.69728555 Ry
     Harris-Foulkes estimate   =   -4157.69728555 Ry
     estimated scf accuracy    <          6.7E-09 Ry

     The total energy is the sum of the following terms:

     one-electron contribution =  -87197.79326013 Ry
     hartree contribution      =   43657.27946051 Ry
     xc contribution           =    -634.67172619 Ry
     ewald contribution        =   40017.48887882 Ry
     smearing contrib. (-TS)   =      -0.00063855 Ry

     convergence has been achieved in  26 iterations

     Forces acting on atoms (Ry/au):

     negative rho (up, down):  0.116E+01 0.000E+00
     atom    1 type  1   force =    -0.00002152    0.00000000    0.05494195
     atom    2 type  2   force =    -0.00002537    0.00000000   -0.08825912
     atom    3 type  2   force =    -0.00001354    0.00000000    0.08294327
     atom    4 type  1   force =    -0.00014590   -0.00461916   -0.02546381
     atom    5 type  1   force =    -0.00014590    0.00461916   -0.02546381
     atom    6 type  1   force =     0.00005116    0.00000000    0.04151803
     atom    7 type  1   force =     0.00001028    0.00000000   -0.03043748
     atom    8 type  2   force =    -0.00065512    0.00000000   -0.02029843
     atom    9 type  2   force =    -0.00002870    0.00000000   -0.00938205
     atom   10 type  1   force =     0.00035513    0.02294554   -0.00294697
     atom   11 type  1   force =     0.00035513   -0.02294554   -0.00294697
     atom   12 type  1   force =    -0.00002434    0.00000000    0.03152445
     atom   13 type  1   force =     0.00053506    0.00000000    0.00054449
     atom   14 type  2   force =     0.01158006    0.00000000   -0.00764268
     atom   15 type  2   force =     0.00002999    0.00000000    0.00064675
     atom   16 type  1   force =    -0.00022166   -0.00017152   -0.00034344
     atom   17 type  1   force =    -0.00022166    0.00017152   -0.00034344
     atom   18 type  1   force =     0.00137349    0.00000000   -0.00790651
     atom   19 type  1   force =    -0.00004087    0.00000000   -0.00012765
     atom   20 type  2   force =     0.00878536    0.00000000    0.01005428
     atom   21 type  2   force =    -0.00967996    0.00000000   -0.00110987
     atom   22 type  1   force =    -0.01510972    0.00470627   -0.01779530
     atom   23 type  1   force =    -0.01510972   -0.00470627   -0.01779530
     atom   24 type  1   force =     0.00064423    0.00000000   -0.00290492
     atom   25 type  1   force =    -0.00000238    0.00000000    0.05600950
     atom   26 type  2   force =     0.00002894    0.00000000   -0.08839107
     atom   27 type  2   force =     0.00001325    0.00000000    0.08290875
     atom   28 type  1   force =     0.00014617   -0.00458052   -0.02547132
     atom   29 type  1   force =     0.00014617    0.00458052   -0.02547132
     atom   30 type  1   force =    -0.00001010    0.00000000    0.03572520
     atom   31 type  1   force =     0.00000339    0.00000000   -0.03041098
     atom   32 type  2   force =     0.00065987    0.00000000   -0.02028961
     atom   33 type  2   force =    -0.00000192    0.00000000   -0.01375154
     atom   34 type  1   force =    -0.00034424    0.02297026   -0.00294517
     atom   35 type  1   force =    -0.00034424   -0.02297026   -0.00294517
     atom   36 type  1   force =     0.00000651    0.00000000    0.03349266
     atom   37 type  1   force =     0.00004752    0.00000000   -0.00028194
     atom   38 type  2   force =    -0.01231890    0.00000000   -0.00720483
     atom   39 type  2   force =     0.00000883    0.00000000    0.00192447
     atom   40 type  1   force =     0.00017955   -0.00022580   -0.00039689
     atom   41 type  1   force =     0.00017955    0.00022580   -0.00039689
     atom   42 type  1   force =    -0.00036651    0.00000000   -0.00955532
     atom   43 type  1   force =    -0.00000777    0.00000000   -0.00038570
     atom   44 type  2   force =    -0.00911828    0.00000000    0.01224853
     atom   45 type  2   force =     0.00370770    0.00000000    0.10143597
     atom   46 type  1   force =     0.01769955    0.00638551   -0.02346529
     atom   47 type  1   force =     0.01769955   -0.00638551   -0.02346529
     atom   48 type  1   force =    -0.00021124    0.00000000   -0.00992221
     atom   49 type  1   force =    -0.00040529    0.00000000    0.00022305
     atom   50 type  3   force =     0.00032839    0.00000000   -0.00022306

     Total force =     0.000610     Total SCF correction =     0.000028

     bfgs converged in  20 scf cycles and  19 bfgs steps
     (criteria: energy < 0.10E-03, force < 0.10E-02)

     End of BFGS Geometry Optimization

     Final energy   =   -4157.6972855482 Ry
Begin final coordinates

ATOMIC_POSITIONS (crystal)
O0       0.000000000   0.500000000   0.332930000    0   0   0
Ru1      0.250000000   0.500000000   0.366700000    0   0   0
Ru1      0.000000000   0.000000000   0.366700000    0   0   0
O0       0.250000000   0.810000000   0.366700000    0   0   0
O0       0.250000000   0.190000000   0.366700000    0   0   0
O0       0.000000000   0.500000000   0.400470000    0   0   0
O0       0.000000000   0.000000000   0.421800000    0   0   0
Ru1      0.250000000   0.000000000   0.455570000    0   0   0
Ru1      0.000000000   0.500000000   0.455570000    0   0   0
O0       0.250000000   0.690000000   0.455570000    0   0   0
O0       0.250000000   0.310000000   0.455570000    0   0   0
O0       0.000000000   0.000000000   0.489340000    0   0   0
O0       0.000000000   0.500000000   0.509450000    0   0   0
Ru1      0.250000000   0.500000000   0.543720000    0   0   0
Ru1      0.000000000   0.000000000   0.544600000    0   0   0
O0       0.250000000   0.806470000   0.544220000    0   0   0
O0       0.250000000   0.193530000   0.544220000    0   0   0
O0       0.000000000   0.500000000   0.578000000    0   0   0
O0       0.000000000   0.000000000   0.598670000    0   0   0
Ru1      0.250000000   0.000000000   0.635670000    0   0   0
Ru1      0.000000000   0.500000000   0.630220000    0   0   0
O0       0.250000000   0.689660000   0.634660000    0   0   0
O0       0.250000000   0.310340000   0.634660000    0   0   0
O0       0.000000000   0.000000000   0.665940000    0   0   0
O0       0.500000000   0.500000000   0.332930000    0   0   0
Ru1      0.750000000   0.500000000   0.366700000    0   0   0
Ru1      0.500000000   0.000000000   0.366700000    0   0   0
O0       0.750000000   0.810000000   0.366700000    0   0   0
O0       0.750000000   0.190000000   0.366700000    0   0   0
O0       0.500000000   0.500000000   0.400470000    0   0   0
O0       0.500000000   0.000000000   0.421800000    0   0   0
Ru1      0.750000000   0.000000000   0.455570000    0   0   0
Ru1      0.500000000   0.500000000   0.455570000    0   0   0
O0       0.750000000   0.690000000   0.455570000    0   0   0
O0       0.750000000   0.310000000   0.455570000    0   0   0
O0       0.500000000   0.000000000   0.489340000    0   0   0
O0       0.500000000   0.500000000   0.509450000    0   0   0
Ru1      0.750000000   0.500000000   0.543720000    0   0   0
Ru1      0.500000000   0.000000000   0.544600000    0   0   0
O0       0.750000000   0.806470000   0.544220000    0   0   0
O0       0.750000000   0.193530000   0.544220000    0   0   0
O0       0.500000000   0.500000000   0.578000000    0   0   0
O0       0.500000000   0.000000000   0.598670000    0   0   0
Ru1      0.750000000   0.000000000   0.635670000    0   0   0
Ru1      0.500000000   0.500000000   0.630220000    0   0   0
O0       0.750000000   0.689660000   0.634660000    0   0   0
O0       0.750000000   0.310340000   0.634660000    0   0   0
O0       0.500000000   0.000000000   0.665940000    0   0   0
O0       0.514208007   0.500000000   0.684169196
H2       0.371340483   0.500000000   0.695639902
End final coordinates

     General routines

     Parallel routines

   This run was terminated on:   5:24:31  30Mar2014

   JOB DONE.