     Program PWSCF v.5.0.2 (svn rev. 9656) starts on  9May2014 at  5:49: 0

     Current dimensions of program PWSCF are:
     Max number of different atomic species (ntypx) = 10
     Max number of k-points (npk) =  40000
     Max angular momentum in pseudopotentials (lmaxx) =  3
     Reading input from pwscf.in
Warning: card &CELL ignored
Warning: card / ignored

     Subspace diagonalization in iterative solution of the eigenvalue problem:
     a serial algorithm will be used

     bravais-lattice index     =            0
     lattice parameter (alat)  =      11.1872  a.u.
     unit-cell volume          =    7531.8600 (a.u.)^3
     number of atoms/cell      =           30
     number of atomic types    =            3
     number of electrons       =       216.00
     number of Kohn-Sham states=          324
     kinetic-energy cutoff     =      40.0000  Ry
     charge density cutoff     =     500.0000  Ry
     convergence threshold     =      1.0E-06
     mixing beta               =       0.7000
     number of iterations used =            8  plain     mixing
     Exchange-correlation      = SLA  PW   PBE  PBE ( 1 4 3 4 0)
     EXX-fraction              =        0.00
     nstep                     =           50

     celldm(1)=  11.187179  celldm(2)=   0.000000  celldm(3)=   0.000000
     celldm(4)=   0.000000  celldm(5)=   0.000000  celldm(6)=   0.000000

     crystal axes: (cart. coord. in units of alat)
               a(1) = (   1.000000   0.000000   0.000000 )
               a(2) = (   0.000000   1.180104   0.000000 )
               a(3) = (   0.000000   0.000000   4.558482 )

     reciprocal axes: (cart. coord. in units 2 pi/alat)
               b(1) = (  1.000000  0.000000  0.000000 )
               b(2) = (  0.000000  0.847383  0.000000 )
               b(3) = (  0.000000  0.000000  0.219371 )

     PseudoPot. # 1 for O  read from file:
     /home/camp/zhonxu/pseudo/o_pbe_v1.01.uspp.F.UPF
     MD5 check sum: 2bcb18d16ea4b960afae9ec6d52f22d2
     Pseudo is Ultrasoft + core correction, Zval =  6.0
     Generated by new atomic code, or converted to UPF format
     Using radial grid of  737 points,  5 beta functions with:
                l(1) =   0
                l(2) =   0
                l(3) =   1
                l(4) =   1
                l(5) =   2
     Q(r) pseudized with  8 coefficients,  rinner =    0.900   0.900   0.900
                                                       0.900   0.900

     PseudoPot. # 2 for Nb read from file:
     /home/camp/zhonxu/pseudo/nb_pbe_v1.uspp.F.UPF
     MD5 check sum: 573aab8a2fa660278ed4a62cd769473f
     Pseudo is Ultrasoft + core correction, Zval = 13.0
     Generated by new atomic code, or converted to UPF format
     Using radial grid of  887 points,  6 beta functions with:
                l(1) =   0
                l(2) =   0
                l(3) =   1
                l(4) =   1
                l(5) =   2
                l(6) =   2
     Q(r) pseudized with  6 coefficients,  rinner =    1.000   1.000   1.000
                                                       1.000   1.000

     PseudoPot. # 3 for H  read from file:
     /home/camp/zhonxu/pseudo/h_pbe_v1.uspp.F.UPF
     MD5 check sum: 3408e3ff4ec8b0a4e358431e7e038a48
     Pseudo is Ultrasoft, Zval =  1.0
     Generated by new atomic code, or converted to UPF format
     Using radial grid of  615 points,  2 beta functions with:
                l(1) =   0
                l(2) =   0
     Q(r) pseudized with  8 coefficients,  rinner =    0.700

     atomic species   valence    mass     pseudopotential
        O0             6.00    15.99940     O ( 1.00)
        Nb1           13.00    92.90640     Nb( 1.00)
        H2             1.00     1.00794     H ( 1.00)

     Simplified LDA+U calculation (l_max = 2) with parameters (eV):
     atomic species    L          U    alpha       J0     beta
        Nb1            2     6.5000   0.0000   0.0000   0.0000

     No symmetry found

   Cartesian axes

     site n.     atom                  positions (alat units)
         1           O0  tau(   1) = (   0.0000000   0.0000000   1.7080633  )
         2           O0  tau(   2) = (   0.0000000   0.5900519   1.7583889  )
         3           Nb1 tau(   3) = (   0.2500000   0.5900519   2.0066439  )
         4           Nb1 tau(   4) = (   0.0000000   0.0000000   2.0401487  )
         5           O0  tau(   5) = (   0.2500000   0.9322821   2.0429294  )
         6           O0  tau(   6) = (   0.2500000   0.2478218   2.0431118  )
         7           O0  tau(   7) = (   0.0000000   0.5900519   2.2709903  )
         8           O0  tau(   8) = (   0.0000000   0.0000000   2.3999042  )
         9           Nb1 tau(   9) = (   0.2500000   0.0000000   2.6489340  )
        10           Nb1 tau(  10) = (   0.0000000   0.5900519   2.5868019  )
        11           O0  tau(  11) = (   0.2500000   0.8378738   2.6444667  )
        12           O0  tau(  12) = (   0.2500000   0.3422301   2.6445123  )
        13           O0  tau(  13) = (   0.0000000   0.0000000   2.8518777  )
        14           O0  tau(  14) = (   0.5000000   0.0000000   1.7080633  )
        15           O0  tau(  15) = (   0.5000000   0.5900519   1.7583889  )
        16           Nb1 tau(  16) = (   0.7500000   0.5900519   2.0066439  )
        17           Nb1 tau(  17) = (   0.5000000   0.0000000   2.0401487  )
        18           O0  tau(  18) = (   0.7500000   0.9322821   2.0429294  )
        19           O0  tau(  19) = (   0.7500000   0.2478218   2.0431118  )
        20           O0  tau(  20) = (   0.5000000   0.5900519   2.2709903  )
        21           O0  tau(  21) = (   0.5000000   0.0000000   2.3999497  )
        22           Nb1 tau(  22) = (   0.7500000   0.0000000   2.6489340  )
        23           Nb1 tau(  23) = (   0.5000000   0.5900519   2.5867563  )
        24           O0  tau(  24) = (   0.7500000   0.8378738   2.6444667  )
        25           O0  tau(  25) = (   0.7500000   0.3422301   2.6445123  )
        26           O0  tau(  26) = (   0.5000000   0.0000000   2.8518777  )
        27           H2  tau(  27) = (  -0.0004200   0.5934860   1.5928705  )
        28           H2  tau(  28) = (   0.4995800   0.5932146   1.5928249  )
        29           H2  tau(  29) = (   0.1513000  -0.0014397   1.6372701  )
        30           H2  tau(  30) = (   0.6512900  -0.0014397   1.6372701  )

     number of k points=    10  Methfessel-Paxton smearing, width (Ry)=  0.0100
                       cart. coord. in units 2pi/alat
        k(    1) = (   0.0000000   0.0000000   0.0000000), wk =   0.1250000
        k(    2) = (   0.0000000   0.2118458   0.0000000), wk =   0.2500000
        k(    3) = (   0.0000000  -0.4236915   0.0000000), wk =   0.1250000
        k(    4) = (   0.2500000   0.0000000   0.0000000), wk =   0.2500000
        k(    5) = (   0.2500000   0.2118458   0.0000000), wk =   0.2500000
        k(    6) = (   0.2500000  -0.4236915   0.0000000), wk =   0.2500000
        k(    7) = (  -0.5000000   0.0000000   0.0000000), wk =   0.1250000
        k(    8) = (  -0.5000000   0.2118458   0.0000000), wk =   0.2500000
        k(    9) = (  -0.5000000  -0.4236915   0.0000000), wk =   0.1250000
        k(   10) = (  -0.2500000   0.2118458   0.0000000), wk =   0.2500000

     Largest allocated arrays     est. size (Mb)     dimensions
     Largest temporary arrays     est. size (Mb)     dimensions

     Check: negative/imaginary core charge=   -0.000003    0.000000

     Initial potential from superposition of free atoms
     Check: negative starting charge=   -0.003843

     starting charge  215.97807, renormalised to  216.00000

     negative rho (up, down):  0.384E-02 0.000E+00
     Number of +U iterations with fixed ns =  0
     Starting occupations:
 --- enter write_ns ---
 LDA+U parameters:
U( 2)     =  6.50000000
alpha( 2) =  0.00000000
atom    3   Tr[ns(na)] =   3.00000
    eigenvalues:
  0.300  0.300  0.300  0.300  0.300
    eigenvectors:
  1.000  0.000  0.000  0.000  0.000
  0.000  1.000  0.000  0.000  0.000
  0.000  0.000  1.000  0.000  0.000
  0.000  0.000  0.000  1.000  0.000
  0.000  0.000  0.000  0.000  1.000
    occupations:
  0.300  0.000  0.000  0.000  0.000
  0.000  0.300  0.000  0.000  0.000
  0.000  0.000  0.300  0.000  0.000
  0.000  0.000  0.000  0.300  0.000
  0.000  0.000  0.000  0.000  0.300
atom    4   Tr[ns(na)] =   3.00000
    eigenvalues:
  0.300  0.300  0.300  0.300  0.300
    eigenvectors:
  1.000  0.000  0.000  0.000  0.000
  0.000  1.000  0.000  0.000  0.000
  0.000  0.000  1.000  0.000  0.000
  0.000  0.000  0.000  1.000  0.000
  0.000  0.000  0.000  0.000  1.000
    occupations:
  0.300  0.000  0.000  0.000  0.000
  0.000  0.300  0.000  0.000  0.000
  0.000  0.000  0.300  0.000  0.000
  0.000  0.000  0.000  0.300  0.000
  0.000  0.000  0.000  0.000  0.300
atom    9   Tr[ns(na)] =   3.00000
    eigenvalues:
  0.300  0.300  0.300  0.300  0.300
    eigenvectors:
  1.000  0.000  0.000  0.000  0.000
  0.000  1.000  0.000  0.000  0.000
  0.000  0.000  1.000  0.000  0.000
  0.000  0.000  0.000  1.000  0.000
  0.000  0.000  0.000  0.000  1.000
    occupations:
  0.300  0.000  0.000  0.000  0.000
  0.000  0.300  0.000  0.000  0.000
  0.000  0.000  0.300  0.000  0.000
  0.000  0.000  0.000  0.300  0.000
  0.000  0.000  0.000  0.000  0.300
atom   10   Tr[ns(na)] =   3.00000
    eigenvalues:
  0.300  0.300  0.300  0.300  0.300
    eigenvectors:
  1.000  0.000  0.000  0.000  0.000
  0.000  1.000  0.000  0.000  0.000
  0.000  0.000  1.000  0.000  0.000
  0.000  0.000  0.000  1.000  0.000
  0.000  0.000  0.000  0.000  1.000
    occupations:
  0.300  0.000  0.000  0.000  0.000
  0.000  0.300  0.000  0.000  0.000
  0.000  0.000  0.300  0.000  0.000
  0.000  0.000  0.000  0.300  0.000
  0.000  0.000  0.000  0.000  0.300
atom   16   Tr[ns(na)] =   3.00000
    eigenvalues:
  0.300  0.300  0.300  0.300  0.300
    eigenvectors:
  1.000  0.000  0.000  0.000  0.000
  0.000  1.000  0.000  0.000  0.000
  0.000  0.000  1.000  0.000  0.000
  0.000  0.000  0.000  1.000  0.000
  0.000  0.000  0.000  0.000  1.000
    occupations:
  0.300  0.000  0.000  0.000  0.000
  0.000  0.300  0.000  0.000  0.000
  0.000  0.000  0.300  0.000  0.000
  0.000  0.000  0.000  0.300  0.000
  0.000  0.000  0.000  0.000  0.300
atom   17   Tr[ns(na)] =   3.00000
    eigenvalues:
  0.300  0.300  0.300  0.300  0.300
    eigenvectors:
  1.000  0.000  0.000  0.000  0.000
  0.000  1.000  0.000  0.000  0.000
  0.000  0.000  1.000  0.000  0.000
  0.000  0.000  0.000  1.000  0.000
  0.000  0.000  0.000  0.000  1.000
    occupations:
  0.300  0.000  0.000  0.000  0.000
  0.000  0.300  0.000  0.000  0.000
  0.000  0.000  0.300  0.000  0.000
  0.000  0.000  0.000  0.300  0.000
  0.000  0.000  0.000  0.000  0.300
atom   22   Tr[ns(na)] =   3.00000
    eigenvalues:
  0.300  0.300  0.300  0.300  0.300
    eigenvectors:
  1.000  0.000  0.000  0.000  0.000
  0.000  1.000  0.000  0.000  0.000
  0.000  0.000  1.000  0.000  0.000
  0.000  0.000  0.000  1.000  0.000
  0.000  0.000  0.000  0.000  1.000
    occupations:
  0.300  0.000  0.000  0.000  0.000
  0.000  0.300  0.000  0.000  0.000
  0.000  0.000  0.300  0.000  0.000
  0.000  0.000  0.000  0.300  0.000
[...]
  0.996  0.000  0.000  0.003  0.001
  0.000  1.000  0.000  0.000  0.000
  0.001  0.000  0.000  0.000  0.999
  0.000  0.000  1.000  0.000  0.000
    occupations:
  0.580  0.014 -0.000 -0.001  0.000
  0.014  0.313  0.000 -0.015 -0.000
 -0.000  0.000  0.340  0.000  0.001
 -0.001 -0.015  0.000  0.778  0.000
  0.000 -0.000  0.001  0.000  0.552
atom    9   Tr[ns(na)] =   5.26104
    eigenvalues:
  0.446  0.463  0.465  0.626  0.631
    eigenvectors:
  0.880  0.000  0.000  0.120  0.000
  0.000  0.000  0.000  0.000  1.000
  0.000  0.000  1.000  0.000  0.000
  0.120  0.000  0.000  0.880  0.000
  0.000  1.000  0.000  0.000  0.000
    occupations:
  0.468  0.000  0.000  0.059  0.000
  0.000  0.631  0.000  0.000 -0.000
  0.000  0.000  0.465 -0.000  0.000
  0.059  0.000 -0.000  0.605 -0.000
  0.000 -0.000  0.000 -0.000  0.463
atom   10   Tr[ns(na)] =   5.06489
    eigenvalues:
  0.327  0.432  0.487  0.513  0.773
    eigenvectors:
  0.000  0.000  0.998  0.000  0.002
  0.000  1.000  0.000  0.000  0.000
  1.000  0.000  0.000  0.000  0.000
  0.000  0.000  0.002  0.000  0.998
  0.000  0.000  0.000  1.000  0.000
    occupations:
  0.487  0.000 -0.000 -0.014  0.000
  0.000  0.432  0.000  0.000  0.000
 -0.000  0.000  0.327 -0.000  0.000
 -0.014  0.000 -0.000  0.773 -0.000
  0.000  0.000  0.000 -0.000  0.513
atom   16   Tr[ns(na)] =   5.08222
    eigenvalues:
  0.324  0.337  0.507  0.595  0.778
    eigenvectors:
  0.000  0.000  0.000  0.343  0.657
  0.000  0.000  1.000  0.000  0.000
  0.002  0.998  0.000  0.000  0.000
  0.000  0.000  0.000  0.657  0.343
  0.998  0.002  0.000  0.000  0.000
    occupations:
  0.715  0.000  0.001 -0.087  0.000
  0.000  0.507  0.000 -0.000  0.000
  0.001  0.000  0.337 -0.000 -0.001
 -0.087 -0.000 -0.000  0.658 -0.000
  0.000  0.000 -0.001 -0.000  0.324
atom   17   Tr[ns(na)] =   5.12717
    eigenvalues:
  0.312  0.340  0.552  0.581  0.778
    eigenvectors:
  0.003  0.000  0.000  0.997  0.000
  0.996  0.000  0.000  0.003  0.001
  0.000  1.000  0.000  0.000  0.000
  0.001  0.000  0.000  0.000  0.999
  0.000  0.000  1.000  0.000  0.000
    occupations:
  0.580  0.014 -0.000 -0.001  0.000
  0.014  0.313  0.000 -0.015 -0.000
 -0.000  0.000  0.340  0.000  0.001
 -0.001 -0.015  0.000  0.778  0.000
  0.000 -0.000  0.001  0.000  0.552
atom   22   Tr[ns(na)] =   5.26104
    eigenvalues:
  0.446  0.463  0.465  0.626  0.631
    eigenvectors:
  0.880  0.000  0.000  0.120  0.000
  0.000  0.000  0.000  0.000  1.000
  0.000  0.000  1.000  0.000  0.000
  0.120  0.000  0.000  0.880  0.000
  0.000  1.000  0.000  0.000  0.000
    occupations:
  0.468  0.000  0.000  0.059  0.000
  0.000  0.631  0.000  0.000 -0.000
  0.000  0.000  0.465 -0.000  0.000
  0.059  0.000 -0.000  0.605 -0.000
  0.000 -0.000  0.000 -0.000  0.463
atom   23   Tr[ns(na)] =   5.06477
    eigenvalues:
  0.327  0.432  0.487  0.513  0.773
    eigenvectors:
  0.000  0.000  0.998  0.000  0.002
  0.000  1.000  0.000  0.000  0.000
  1.000  0.000  0.000  0.000  0.000
  0.000  0.000  0.002  0.000  0.998
  0.000  0.000  0.000  1.000  0.000
    occupations:
  0.487  0.000 -0.000 -0.014  0.000
  0.000  0.432 -0.000  0.000  0.000
 -0.000 -0.000  0.327 -0.000  0.000
 -0.014  0.000 -0.000  0.773 -0.000
  0.000  0.000  0.000 -0.000  0.513
N of occupied +U levels =  41.0705022
 --- exit write_ns ---

     Threshold (ethr) on eigenvalues was too large:
     Diagonalizing with lowered threshold

     Davidson diagonalization with overlap
     ethr =  3.71E-09,  avg # of iterations =  2.5

[...]

     total energy              =   -1525.67652459 Ry
     Harris-Foulkes estimate   =   -1525.67652459 Ry
     estimated scf accuracy    <       0.00000001 Ry

     iteration #  9     ecut=    40.00 Ry     beta=0.70
     Davidson diagonalization with overlap
     ethr =  4.75E-12,  avg # of iterations =  1.3

     negative rho (up, down):  0.364E-02 0.000E+00

     End of self-consistent calculation
 --- enter write_ns ---
 LDA+U parameters:
U( 2)     =  6.50000000
alpha( 2) =  0.00000000
atom    3   Tr[ns(na)] =   5.08231
    eigenvalues:
  0.324  0.337  0.507  0.595  0.778
    eigenvectors:
  0.000  0.000  0.000  0.343  0.657
  0.000  0.000  1.000  0.000  0.000
  0.002  0.998  0.000  0.000  0.000
  0.000  0.000  0.000  0.657  0.343
  0.998  0.002  0.000  0.000  0.000
    occupations:
  0.715  0.000  0.001 -0.087 -0.000
  0.000  0.507 -0.000 -0.000  0.000
  0.001 -0.000  0.337 -0.000 -0.001
 -0.087 -0.000 -0.000  0.658  0.000
 -0.000  0.000 -0.001  0.000  0.324
atom    4   Tr[ns(na)] =   5.12751
    eigenvalues:
  0.312  0.340  0.552  0.581  0.779
    eigenvectors:
  0.003  0.000  0.000  0.997  0.000
  0.996  0.000  0.000  0.003  0.001
  0.000  1.000  0.000  0.000  0.000
  0.001  0.000  0.000  0.000  0.999
  0.000  0.000  1.000  0.000  0.000
    occupations:
  0.580  0.014 -0.000 -0.001  0.000
  0.014  0.313  0.000 -0.015 -0.000
 -0.000  0.000  0.340  0.000  0.001
 -0.001 -0.015  0.000  0.778  0.000
  0.000 -0.000  0.001  0.000  0.552
atom    9   Tr[ns(na)] =   5.26039
    eigenvalues:
  0.446  0.463  0.464  0.626  0.631
    eigenvectors:
  0.880  0.000  0.000  0.120  0.000
  0.000  0.000  0.000  0.000  1.000
  0.000  0.000  1.000  0.000  0.000
  0.120  0.000  0.000  0.880  0.000
  0.000  1.000  0.000  0.000  0.000
    occupations:
  0.468  0.000  0.000  0.059  0.000
  0.000  0.631  0.000  0.000 -0.000
  0.000  0.000  0.464 -0.000  0.000
  0.059  0.000 -0.000  0.605 -0.000
  0.000 -0.000  0.000 -0.000  0.463
atom   10   Tr[ns(na)] =   5.06440
    eigenvalues:
  0.327  0.432  0.487  0.513  0.773
    eigenvectors:
  0.000  0.000  0.998  0.000  0.002
  0.000  1.000  0.000  0.000  0.000
  1.000  0.000  0.000  0.000  0.000
  0.000  0.000  0.002  0.000  0.998
  0.000  0.000  0.000  1.000  0.000
    occupations:
  0.487  0.000 -0.000 -0.014  0.000
  0.000  0.432  0.000  0.000  0.000
 -0.000  0.000  0.327 -0.000  0.000
 -0.014  0.000 -0.000  0.773 -0.000
  0.000  0.000  0.000 -0.000  0.513
atom   16   Tr[ns(na)] =   5.08231
    eigenvalues:
  0.324  0.337  0.507  0.595  0.778
    eigenvectors:
  0.000  0.000  0.000  0.343  0.657
  0.000  0.000  1.000  0.000  0.000
  0.002  0.998  0.000  0.000  0.000
  0.000  0.000  0.000  0.657  0.343
  0.998  0.002  0.000  0.000  0.000
    occupations:
  0.715  0.000  0.001 -0.087  0.000
  0.000  0.507  0.000 -0.000  0.000
  0.001  0.000  0.337 -0.000 -0.001
 -0.087 -0.000 -0.000  0.658 -0.000
  0.000  0.000 -0.001 -0.000  0.324
atom   17   Tr[ns(na)] =   5.12750
    eigenvalues:
  0.312  0.340  0.552  0.581  0.779
    eigenvectors:
  0.003  0.000  0.000  0.997  0.000
  0.996  0.000  0.000  0.003  0.001
  0.000  1.000  0.000  0.000  0.000
  0.001  0.000  0.000  0.000  0.999
  0.000  0.000  1.000  0.000  0.000
    occupations:
  0.580  0.014 -0.000 -0.001  0.000
  0.014  0.313  0.000 -0.015 -0.000
 -0.000  0.000  0.340  0.000  0.001
 -0.001 -0.015  0.000  0.778  0.000
  0.000 -0.000  0.001  0.000  0.552
atom   22   Tr[ns(na)] =   5.26039
    eigenvalues:
  0.446  0.463  0.464  0.626  0.631
    eigenvectors:
  0.880  0.000  0.000  0.120  0.000
  0.000  0.000  0.000  0.000  1.000
  0.000  0.000  1.000  0.000  0.000
  0.120  0.000  0.000  0.880  0.000
  0.000  1.000  0.000  0.000  0.000
    occupations:
  0.468  0.000  0.000  0.059  0.000
  0.000  0.631  0.000  0.000 -0.000
  0.000  0.000  0.464 -0.000  0.000
  0.059  0.000 -0.000  0.605 -0.000
  0.000 -0.000  0.000 -0.000  0.463
atom   23   Tr[ns(na)] =   5.06444
    eigenvalues:
  0.327  0.432  0.487  0.513  0.773
    eigenvectors:
  0.000  0.000  0.998  0.000  0.002
  0.000  1.000  0.000  0.000  0.000
  1.000  0.000  0.000  0.000  0.000
  0.000  0.000  0.002  0.000  0.998
  0.000  0.000  0.000  1.000  0.000
    occupations:
  0.487  0.000 -0.000 -0.014  0.000
  0.000  0.432 -0.000  0.000  0.000
 -0.000 -0.000  0.327 -0.000  0.000
 -0.014  0.000 -0.000  0.773 -0.000
  0.000  0.000  0.000 -0.000  0.513
N of occupied +U levels =  41.0692667
 --- exit write_ns ---

[...]

          k = 0.2500-0.4237 0.0000 ( 32188 PWs)   bands (ev):

[...]

          k =-0.2500 0.2118 0.0000 ( 32165 PWs)   bands (ev):

   -56.3953 -56.3260 -56.0885 -56.0291 -55.6630 -55.6034 -55.5848 -55.5243
   -33.1512 -32.6046 -32.5002 -32.4828 -32.4473 -32.4225 -32.4065 -32.4058
   -32.4054 -32.3790 -32.2817 -32.0892 -32.0401 -31.9745 -31.9137 -31.8542
   -31.8083 -31.7999 -31.5669 -31.4498 -31.4390 -31.3201 -31.2979 -31.2376
   -20.4864 -20.3328 -19.2576 -19.2207 -18.9282 -18.8823 -18.8141 -18.7762
   -18.7342 -18.7063 -18.6570 -18.6042 -18.0199 -17.9533 -17.9392 -17.9281
   -17.8427 -17.7605  -9.1971  -8.6775  -7.2972  -7.2207  -7.1475  -6.8294
    -6.5651  -6.5232  -6.3982  -6.3557  -6.2952  -6.2007  -6.1419  -5.9255
    -5.8553  -5.7881  -5.5102  -5.4366  -5.3898  -5.2432  -5.0266  -4.9653
    -4.8752  -4.8206  -4.7247  -4.4568  -4.4008  -4.2680  -4.2387  -4.1901
    -4.0912  -4.0843  -3.8972  -3.8875  -3.8752  -3.7871  -3.6740  -3.6739
    -3.4855  -3.4516  -3.4115  -3.3002  -3.2565  -3.2032  -3.1244  -3.1024
    -2.9959  -2.9785  -2.7836  -2.6661  -2.5949  -2.5050  -2.3576  -2.1207
    -1.5400  -0.5004  -0.1897   1.0872   1.4302   1.5746   1.7526   1.7642
     1.8422   1.8433   2.1627   2.1918   2.3562   2.4467   2.5015   2.6093
     2.6432   2.7160   2.9226   2.9386   3.0872   3.0936   3.1687   3.1930
     3.2914   3.4768   3.8201   4.2436   4.4027   4.5309   4.6429   4.7071
     4.8237   4.8884   4.9390   5.1287   5.2167   5.2242   5.3154   5.5824
     5.7404   5.8296   5.9036   5.9629   6.1755   6.2594   6.3800   6.4555
     6.4659   6.4874   6.6147   6.7443   6.9022   6.9185   7.1749   7.2302
     7.2603   7.5666   7.6999   7.8018   7.9009   7.9712   8.1325   8.1508
     8.2420   8.3445   8.4538   8.6508   8.7276   8.8742   9.0051   9.0867
     9.1007   9.2263   9.3354   9.4224   9.5783   9.5937   9.6974   9.7548
     9.8825   9.9865   9.9968  10.1978  10.2329  10.3726  10.4490  10.6242
    10.7048  10.7702  10.9591  10.9789  11.0185  11.0849  11.1693  11.2017
    11.2691  11.4200  11.4557  11.4659  11.5563  11.5782  11.7463  11.8962
    11.9252  12.0454  12.1213  12.1743  12.2465  12.2795  12.4378  12.4929
    12.6410  12.6766  12.7454  12.7630  12.8636  12.8854  12.9393  12.9876
    13.0316  13.1076  13.1918  13.2638  13.3223  13.4384  13.4934  13.5089
    13.5833  13.7094  13.7701  13.8826  13.9395  13.9577  13.9858  14.0886
    14.1205  14.3014  14.3455  14.4113  14.4601  14.5859  14.6183  14.8601
    14.9033  14.9237  15.0406  15.1470  15.1918  15.2542  15.2868  15.3797
    15.3939  15.4044  15.5093  15.5349  15.6114  15.7278  15.8065  15.8188
    15.8552  15.9038  16.0314  16.0381  16.0745  16.2705  16.2761  16.3990
    16.4755  16.5845  16.6192  16.6465  16.7354  16.7724  16.7920  16.8991
    16.9831  17.0056  17.0617  17.2643  17.2871  17.2993  17.3958  17.4351
    17.5106  17.5596  17.6317  17.7132  17.7397  17.8530  17.8718  17.9971
    18.0382  18.0488  18.1075  18.2577  18.3519  18.4411  18.5030  18.6119
    18.6575  18.7427  18.7500  18.8063  18.8775  18.9298  18.9386  19.0496
    19.1401  19.1991  19.2955  19.3060  19.3567  19.4017  19.4089  19.5131
    19.5391  19.6015  19.6554  19.7140

     the Fermi energy is     1.0157 ev

!    total energy              =   -1525.67652459 Ry
     Harris-Foulkes estimate   =   -1525.67652460 Ry
     estimated scf accuracy    <          3.6E-09 Ry

     The total energy is the sum of the following terms:

     one-electron contribution =  -18200.39152207 Ry
     hartree contribution      =    9127.04397011 Ry
     xc contribution           =    -279.77785761 Ry
     ewald contribution        =    7823.09223815 Ry
     Hubbard energy            =       4.35692199 Ry
     smearing contrib. (-TS)   =      -0.00027517 Ry

     convergence has been achieved in   9 iterations

     Forces acting on atoms (Ry/au):

     negative rho (up, down):  0.364E-02 0.000E+00
     atom    1 type  1   force =     0.00050251   -0.00036169   -0.00006016
     atom    2 type  1   force =    -0.00006482    0.00037048    0.00045592
     atom    3 type  2   force =     0.00019469   -0.00017493   -0.00025238
     atom    4 type  2   force =    -0.00135716    0.00012381    0.00044578
     atom    5 type  1   force =     0.00033710   -0.05130191   -0.00036699
     atom    6 type  1   force =     0.00036496    0.05126934   -0.00035599
     atom    7 type  1   force =    -0.00015201    0.00001178   -0.00043791
     atom    8 type  1   force =     0.00052393    0.00000308   -0.00023533
     atom    9 type  2   force =     0.00003985   -0.00000356    0.00008725
     atom   10 type  2   force =     0.00001789   -0.00000994   -0.00052212
     atom   11 type  1   force =    -0.00001079   -0.02686784    0.00046150
     atom   12 type  1   force =    -0.00001060    0.02687125    0.00046402
     atom   13 type  1   force =     0.00009498    0.00000154    0.00030622
     atom   14 type  1   force =     0.00049912   -0.00034697   -0.00006036
     atom   15 type  1   force =    -0.00006452    0.00034774    0.00066260
     atom   16 type  2   force =     0.00017769   -0.00017673   -0.00025239
     atom   17 type  2   force =    -0.00135793    0.00012048    0.00044478
     atom   18 type  1   force =     0.00034679   -0.05130125   -0.00036734
     atom   19 type  1   force =     0.00035981    0.05126905   -0.00035559
     atom   20 type  1   force =    -0.00015188   -0.00000076   -0.00043634
     atom   21 type  1   force =     0.00052394    0.00000286   -0.00025375
     atom   22 type  2   force =     0.00003735   -0.00000349    0.00008729
     atom   23 type  2   force =     0.00001786   -0.00001138   -0.00053467
     atom   24 type  1   force =     0.00000042   -0.02686778    0.00046146
     atom   25 type  1   force =    -0.00000002    0.02687128    0.00046401
     atom   26 type  1   force =     0.00009497    0.00000142    0.00030786
     atom   27 type  3   force =     0.00000674   -0.00014272    0.00079316
     atom   28 type  3   force =     0.00000626   -0.00014846    0.00060276
     atom   29 type  3   force =    -0.00048919    0.00022900   -0.00077691
     atom   30 type  3   force =    -0.00048795    0.00022630   -0.00077639

     Total force =     0.002578     Total SCF correction =     0.000191

     bfgs converged in  12 scf cycles and  11 bfgs steps
     (criteria: energy < 0.10E-03, force < 0.10E-02)

     End of BFGS Geometry Optimization

     Final energy   =   -1525.6765245929 Ry
Begin final coordinates

ATOMIC_POSITIONS (crystal)
O0       0.000000000   0.000000000   0.373039440    0   0   1
O0       0.000000000   0.500000000   0.384521972    0   0   1
Nb1      0.250000000   0.500000000   0.439898328    0   0   1
Nb1      0.000000000   0.000000000   0.446225771    0   0   1
O0       0.250000000   0.790000000   0.448336431    0   0   1
O0       0.250000000   0.210000000   0.448325898    0   0   1
O0       0.000000000   0.500000000   0.497560735    0   0   1
O0       0.000000000   0.000000000   0.527919032    0   0   1
Nb1      0.250000000   0.000000000   0.581280386    0   0   1
Nb1      0.000000000   0.500000000   0.567365300    0   0   1
O0       0.250000000   0.710000000   0.582350172    0   0   1
O0       0.250000000   0.290000000   0.582350180    0   0   1
O0       0.000000000   0.000000000   0.625896711    0   0   1
O0       0.500000000   0.000000000   0.373039713    0   0   1
O0       0.500000000   0.500000000   0.384520681    0   0   1
Nb1      0.750000000   0.500000000   0.439898324    0   0   1
Nb1      0.500000000   0.000000000   0.446225911    0   0   1
O0       0.750000000   0.790000000   0.448336079    0   0   1
O0       0.750000000   0.210000000   0.448325900    0   0   1
O0       0.500000000   0.500000000   0.497560718    0   0   1
O0       0.500000000   0.000000000   0.527920108    0   0   1
Nb1      0.750000000   0.000000000   0.581280385    0   0   1
Nb1      0.500000000   0.500000000   0.567365678    0   0   1
O0       0.750000000   0.710000000   0.582350165    0   0   1
O0       0.750000000   0.290000000   0.582350186    0   0   1
O0       0.500000000   0.000000000   0.625896845    0   0   1
H2      -0.000398169   0.502594046   0.348343989
H2       0.499601931   0.502337093   0.348345078
H2       0.153652560  -0.000517858   0.358830021
H2       0.653651480  -0.000526471   0.358829861
End final coordinates

     General routines

     Parallel routines
     Hubbard U routines

   This run was terminated on:  13:26:21   9May2014

   JOB DONE.
Running PBS batch system epilogue script
Job id: 340855.audhumbla.fysik.dtu.dk
Username: zhonxu
Groupname: campgst
Jobname: NbO2/Eads-2-layers/bare-U-6.5
Sessionid: 14181
Queuename: verylong
Accounting:
This job has allocated the following 16 nodes:
a092 a092 a092 a092 a092 a092 a092 a092 a090 a090 a090 a090 a090 a090 a090 a090
Finished epilogue job 340855.audhumbla.fysik.dtu.dk for zhonxu