     Program PWSCF v.5.0.2 (svn rev. 9656) starts on 29Apr2014 at  0:43:41

     Current dimensions of program PWSCF are:
     Max number of different atomic species (ntypx) = 10
     Max number of k-points (npk) =  40000
     Max angular momentum in pseudopotentials (lmaxx) =  3
     Reading input from pwscf.in
Warning: card &CELL ignored
Warning: card / ignored

     Subspace diagonalization in iterative solution of the eigenvalue problem:
     a serial algorithm will be used

     bravais-lattice index     =            0
     lattice parameter (alat)  =      10.3179  a.u.
     unit-cell volume          =    6964.3238 (a.u.)^3
     number of atoms/cell      =           32
     number of atomic types    =            3
     number of electrons       =       231.00
     number of Kohn-Sham states=          346
     kinetic-energy cutoff     =      40.0000  Ry
     charge density cutoff     =     500.0000  Ry
     convergence threshold     =      1.0E-06
     mixing beta               =       0.7000
     number of iterations used =            8  plain     mixing
     Exchange-correlation      = SLA  PW   PBE  PBE ( 1 4 3 4 0)
     EXX-fraction              =        0.00
     nstep                     =           50

     celldm(1)=  10.317905  celldm(2)=   0.000000  celldm(3)=   0.000000
     celldm(4)=   0.000000  celldm(5)=   0.000000  celldm(6)=   0.000000

     crystal axes: (cart. coord. in units of alat)
               a(1) = (   1.000000   0.000000   0.000000 )
               a(2) = (   0.000000   1.282117   0.000000 )
               a(3) = (   0.000000   0.000000   4.945120 )

     reciprocal axes: (cart. coord. in units 2 pi/alat)
               b(1) = (  1.000000  0.000000  0.000000 )
               b(2) = (  0.000000  0.779960  0.000000 )
               b(3) = (  0.000000  0.000000  0.202220 )

     PseudoPot. # 1 for O  read from file:
     /home/camp/zhonxu/pseudo/o_pbe_v1.01.uspp.F.UPF
     MD5 check sum: 2bcb18d16ea4b960afae9ec6d52f22d2
     Pseudo is Ultrasoft + core correction, Zval =  6.0
     Generated by new atomic code, or converted to UPF format
     Using radial grid of  737 points,  5 beta functions with:
                l(1) =   0
                l(2) =   0
                l(3) =   1
                l(4) =   1
                l(5) =   2
     Q(r) pseudized with  8 coefficients,  rinner =    0.900   0.900   0.900
                                                       0.900   0.900

     PseudoPot. # 2 for Mo read from file:
     /home/camp/zhonxu/pseudo/mo_pbe_v1.uspp.F.UPF
     MD5 check sum: 30c4dcd161f5d35cd49bb5239c51a633
     Pseudo is Ultrasoft + core correction, Zval = 14.0
     Generated by new atomic code, or converted to UPF format
     Using radial grid of  889 points,  6 beta functions with:
                l(1) =   0
                l(2) =   0
                l(3) =   1
                l(4) =   1
                l(5) =   2
                l(6) =   2
     Q(r) pseudized with  6 coefficients,  rinner =    1.000   1.000   1.000
                                                       1.000   1.000

     PseudoPot. # 3 for H  read from file:
     /home/camp/zhonxu/pseudo/h_pbe_v1.uspp.F.UPF
     MD5 check sum: 3408e3ff4ec8b0a4e358431e7e038a48
     Pseudo is Ultrasoft, Zval =  1.0
     Generated by new atomic code, or converted to UPF format
     Using radial grid of  615 points,  2 beta functions with:
                l(1) =   0
                l(2) =   0
     Q(r) pseudized with  8 coefficients,  rinner =    0.700

     atomic species   valence    mass     pseudopotential
        O0             6.00    15.99940     O ( 1.00)
        Mo1           14.00    95.94000     Mo( 1.00)
        H2             1.00     1.00794     H ( 1.00)

     Simplified LDA+U calculation (l_max = 2) with parameters (eV):
     atomic species    L          U    alpha       J0     beta
        Mo1            2     4.0000   0.0000   0.0000   0.0000

     No symmetry found

   Cartesian axes

     site n.     atom                  positions (alat units)
         1           O0  tau(   1) = (   0.0000000   0.0000000   1.8362221  )
         2           O0  tau(   2) = (   0.0000000   0.6410583   1.8932888  )
         3           Mo1 tau(   3) = (   0.2500000   0.6410583   2.1787211  )
         4           Mo1 tau(   4) = (   0.0000000   0.0000000   2.1942488  )
         5           O0  tau(   5) = (   0.2500000   1.0000510   2.1917762  )
         6           O0  tau(   6) = (   0.2500000   0.2820657   2.1916279  )
         7           O0  tau(   7) = (   0.0000000   0.6410583   2.4619282  )
         8           O0  tau(   8) = (   0.0000000   0.0000000   2.5552920  )
         9           Mo1 tau(   9) = (   0.2500000   0.0000000   2.8451750  )
        10           Mo1 tau(  10) = (   0.0000000   0.6410583   2.7951798  )
        11           O0  tau(  11) = (   0.2500000   0.9231240   2.8229220  )
        12           O0  tau(  12) = (   0.2500000   0.3589927   2.8238121  )
        13           O0  tau(  13) = (   0.0000000   0.0000000   3.0959420  )
        14           O0  tau(  14) = (   0.5000000   0.0000000   1.8365188  )
        15           O0  tau(  15) = (   0.5000000   0.6410583   1.8939316  )
        16           Mo1 tau(  16) = (   0.7500000   0.6410583   2.1784244  )
        17           Mo1 tau(  17) = (   0.5000000   0.0000000   2.1964741  )
        18           O0  tau(  18) = (   0.7500000   1.0000510   2.1920730  )
        19           O0  tau(  19) = (   0.7500000   0.2820657   2.1913806  )
        20           O0  tau(  20) = (   0.5000000   0.6410583   2.4641535  )
        21           O0  tau(  21) = (   0.5000000   0.0000000   2.5544514  )
        22           Mo1 tau(  22) = (   0.7500000   0.0000000   2.8455212  )
        23           Mo1 tau(  23) = (   0.5000000   0.6410583   2.8262846  )
        24           O0  tau(  24) = (   0.7500000   0.9231240   2.8210923  )
        25           O0  tau(  25) = (   0.7500000   0.3589927   2.8208450  )
        26           O0  tau(  26) = (   0.5000000   0.0000000   3.0950519  )
        27           H2  tau(  27) = (  -0.0007600   0.7828861   1.7821225  )
        28           H2  tau(  28) = (   0.4995000   0.7914763   1.7941391  )
        29           H2  tau(  29) = (   0.1669200   0.0220268   1.7647651  )
        30           H2  tau(  30) = (   0.6653100   0.0245269   1.7632816  )
        31           O0  tau(  31) = (   0.5147600   0.6413532   3.1767948  )
        32           H2  tau(  32) = (   0.3891500   0.6353401   3.3044778  )

     number of k points=    10  Methfessel-Paxton smearing, width (Ry)=  0.0100
                       cart. coord. in units 2pi/alat
        k(    1) = (   0.0000000   0.0000000   0.0000000), wk =   0.1250000
        k(    2) = (   0.0000000   0.1949901   0.0000000), wk =   0.2500000
        k(    3) = (   0.0000000  -0.3899801   0.0000000), wk =   0.1250000
        k(    4) = (   0.2500000   0.0000000   0.0000000), wk =   0.2500000
        k(    5) = (   0.2500000   0.1949901   0.0000000), wk =   0.2500000
        k(    6) = (   0.2500000  -0.3899801   0.0000000), wk =   0.2500000
        k(    7) = (  -0.5000000   0.0000000   0.0000000), wk =   0.1250000
        k(    8) = (  -0.5000000   0.1949901   0.0000000), wk =   0.2500000
        k(    9) = (  -0.5000000  -0.3899801   0.0000000), wk =   0.1250000
        k(   10) = (  -0.2500000   0.1949901   0.0000000), wk =   0.2500000

     Largest allocated arrays     est. size (Mb)     dimensions
     Largest temporary arrays     est. size (Mb)     dimensions

     Check: negative/imaginary core charge=   -0.000003    0.000000

     Initial potential from superposition of free atoms
     Check: negative starting charge=   -0.002345

     starting charge  230.99142, renormalised to  231.00000

     negative rho (up, down):  0.235E-02 0.000E+00
     Number of +U iterations with fixed ns =  0
     Starting occupations:
 --- enter write_ns ---
 LDA+U parameters:
U( 2)     =  4.00000000
alpha( 2) =  0.00000000
atom    3   Tr[ns(na)] =   5.00000
    eigenvalues:
  0.500  0.500  0.500  0.500  0.500
    eigenvectors:
  1.000  0.000  0.000  0.000  0.000
  0.000  1.000  0.000  0.000  0.000
  0.000  0.000  1.000  0.000  0.000
  0.000  0.000  0.000  1.000  0.000
  0.000  0.000  0.000  0.000  1.000
    occupations:
  0.500  0.000  0.000  0.000  0.000
  0.000  0.500  0.000  0.000  0.000
  0.000  0.000  0.500  0.000  0.000
  0.000  0.000  0.000  0.500  0.000
  0.000  0.000  0.000  0.000  0.500
atom    4   Tr[ns(na)] =   5.00000
    eigenvalues:
  0.500  0.500  0.500  0.500  0.500
    eigenvectors:
  1.000  0.000  0.000  0.000  0.000
  0.000  1.000  0.000  0.000  0.000
  0.000  0.000  1.000  0.000  0.000
  0.000  0.000  0.000  1.000  0.000
  0.000  0.000  0.000  0.000  1.000
    occupations:
  0.500  0.000  0.000  0.000  0.000
  0.000  0.500  0.000  0.000  0.000
  0.000  0.000  0.500  0.000  0.000
  0.000  0.000  0.000  0.500  0.000
  0.000  0.000  0.000  0.000  0.500
atom    9   Tr[ns(na)] =   5.00000
    eigenvalues:
  0.500  0.500  0.500  0.500  0.500
    eigenvectors:
  1.000  0.000  0.000  0.000  0.000
  0.000  1.000  0.000  0.000  0.000
  0.000  0.000  1.000  0.000  0.000
  0.000  0.000  0.000  1.000  0.000
  0.000  0.000  0.000  0.000  1.000
    occupations:
  0.500  0.000  0.000  0.000  0.000
  0.000  0.500  0.000  0.000  0.000
  0.000  0.000  0.500  0.000  0.000
  0.000  0.000  0.000  0.500  0.000
  0.000  0.000  0.000  0.000  0.500
atom   10   Tr[ns(na)] =   5.00000
    eigenvalues:
  0.500  0.500  0.500  0.500  0.500
    eigenvectors:
  1.000  0.000  0.000  0.000  0.000
  0.000  1.000  0.000  0.000  0.000
  0.000  0.000  1.000  0.000  0.000
  0.000  0.000  0.000  1.000  0.000
  0.000  0.000  0.000  0.000  1.000
    occupations:
  0.500  0.000  0.000  0.000  0.000
  0.000  0.500  0.000  0.000  0.000
  0.000  0.000  0.500  0.000  0.000
  0.000  0.000  0.000  0.500  0.000
  0.000  0.000  0.000  0.000  0.500
atom   16   Tr[ns(na)] =   5.00000
    eigenvalues:
  0.500  0.500  0.500  0.500  0.500
    eigenvectors:
  1.000  0.000  0.000  0.000  0.000
  0.000  1.000  0.000  0.000  0.000
  0.000  0.000  1.000  0.000  0.000
  0.000  0.000  0.000  1.000  0.000
  0.000  0.000  0.000  0.000  1.000
    occupations:
  0.500  0.000  0.000  0.000  0.000
  0.000  0.500  0.000  0.000  0.000
  0.000  0.000  0.500  0.000  0.000
  0.000  0.000  0.000  0.500  0.000
  0.000  0.000  0.000  0.000  0.500
atom   17   Tr[ns(na)] =   5.00000
    eigenvalues:
  0.500  0.500  0.500  0.500  0.500
    eigenvectors:
  1.000  0.000  0.000  0.000  0.000
  0.000  1.000  0.000  0.000  0.000
  0.000  0.000  1.000  0.000  0.000
  0.000  0.000  0.000  1.000  0.000
  0.000  0.000  0.000  0.000  1.000
    occupations:
  0.500  0.000  0.000  0.000  0.000
  0.000  0.500  0.000  0.000  0.000
  0.000  0.000  0.500  0.000  0.000
  0.000  0.000  0.000  0.500  0.000
  0.000  0.000  0.000  0.000  0.500
atom   22   Tr[ns(na)] =   5.00000
    eigenvalues:
  0.500  0.500  0.500  0.500  0.500
    eigenvectors:
  1.000  0.000  0.000  0.000  0.000
  0.000  1.000  0.000  0.000  0.000
  0.000  0.000  1.000  0.000  0.000
  0.000  0.000  0.000  1.000  0.000
  0.000  0.000  0.000  0.000  1.000
[...]
  0.000  0.000  0.205  0.011  0.783
  0.000  0.000  0.055  0.945  0.000
  0.118  0.882  0.000  0.000  0.000
  0.000  0.000  0.740  0.044  0.217
  0.882  0.118  0.000  0.000  0.000
    occupations:
  0.695 -0.001 -0.000 -0.052 -0.000
 -0.001  0.600 -0.001 -0.001 -0.000
 -0.000 -0.001  0.518  0.000  0.014
 -0.052 -0.001  0.000  0.622 -0.000
 -0.000 -0.000  0.014 -0.000  0.485
atom   10   Tr[ns(na)] =   5.79194
    eigenvalues:
  0.451  0.488  0.515  0.712  0.731
    eigenvectors:
  0.007  0.993  0.000  0.000  0.000
  0.000  0.000  0.000  1.000  0.000
  0.993  0.007  0.000  0.000  0.000
  0.000  0.000  0.000  0.000  1.000
  0.000  0.000  1.000  0.000  0.000
    occupations:
  0.487 -0.002 -0.003  0.004 -0.000
 -0.002  0.712 -0.002 -0.000  0.000
 -0.003 -0.002  0.451 -0.000 -0.000
  0.004 -0.000 -0.000  0.731 -0.000
 -0.000  0.000 -0.000 -0.000  0.515
atom   16   Tr[ns(na)] =   5.83055
    eigenvalues:
  0.452  0.504  0.567  0.628  0.765
    eigenvectors:
  0.011  0.000  0.318  0.001  0.670
  0.000  0.998  0.000  0.002  0.000
  0.977  0.000  0.002  0.011  0.010
  0.000  0.000  0.680  0.000  0.320
  0.011  0.002  0.000  0.987  0.000
    occupations:
  0.698  0.000  0.028 -0.092  0.001
  0.000  0.504  0.002 -0.001 -0.005
  0.028  0.002  0.457 -0.013 -0.018
 -0.092 -0.001 -0.013  0.630  0.001
  0.001 -0.005 -0.018  0.001  0.626
atom   17   Tr[ns(na)] =   5.83411
    eigenvalues:
  0.421  0.521  0.587  0.631  0.757
    eigenvectors:
  0.000  0.000  0.991  0.009  0.000
  0.000  0.000  0.009  0.990  0.000
  1.000  0.000  0.000  0.000  0.000
  0.000  0.000  0.000  0.000  0.999
  0.000  1.000  0.000  0.000  0.000
    occupations:
  0.587  0.004  0.001 -0.002  0.000
  0.004  0.630  0.004 -0.002 -0.001
  0.001  0.004  0.421 -0.003  0.000
 -0.002 -0.002 -0.003  0.757  0.000
  0.000 -0.001  0.000  0.000  0.521
atom   22   Tr[ns(na)] =   5.83638
    eigenvalues:
  0.471  0.524  0.594  0.597  0.732
    eigenvectors:
  0.000  0.000  0.170  0.055  0.775
  0.000  0.000  0.248  0.752  0.000
  0.101  0.899  0.000  0.000  0.000
  0.000  0.000  0.582  0.193  0.225
  0.899  0.101  0.000  0.000  0.000
    occupations:
  0.701  0.001  0.000 -0.057 -0.003
  0.001  0.596  0.000  0.001 -0.000
  0.000  0.000  0.519 -0.000 -0.016
 -0.057  0.001 -0.000  0.625  0.001
 -0.003 -0.000 -0.016  0.001  0.477
atom   23   Tr[ns(na)] =   5.85679
    eigenvalues:
  0.491  0.523  0.527  0.596  0.791
    eigenvectors:
  0.000  0.022  0.001  0.968  0.009
  0.000  0.953  0.024  0.023  0.000
  0.999  0.000  0.001  0.000  0.000
  0.000  0.000  0.000  0.009  0.991
  0.001  0.025  0.975  0.000  0.000
    occupations:
  0.596  0.011  0.000 -0.019  0.000
  0.011  0.525 -0.000  0.001  0.001
  0.000 -0.000  0.491 -0.001 -0.001
 -0.019  0.001 -0.001  0.789 -0.000
  0.000  0.001 -0.001 -0.000  0.527
N of occupied +U levels =  46.6466744
 --- exit write_ns ---

     Threshold (ethr) on eigenvalues was too large:
     Diagonalizing with lowered threshold

     Davidson diagonalization with overlap
     ethr =  3.13E-09,  avg # of iterations =  3.0

[...]

     total energy              =   -1730.93172714 Ry
     Harris-Foulkes estimate   =   -1730.93172714 Ry
     estimated scf accuracy    <       0.00000002 Ry

     iteration # 13     ecut=    40.00 Ry     beta=0.70
     Davidson diagonalization with overlap
     ethr =  7.83E-12,  avg # of iterations =  1.0

     negative rho (up, down):  0.341E-02 0.000E+00

     End of self-consistent calculation
 --- enter write_ns ---
 LDA+U parameters:
U( 2)     =  4.00000000
alpha( 2) =  0.00000000
atom    3   Tr[ns(na)] =   5.83301
    eigenvalues:
  0.454  0.505  0.567  0.632  0.759
    eigenvectors:
  0.011  0.000  0.314  0.001  0.674
  0.000  0.998  0.000  0.002  0.000
  0.978  0.000  0.002  0.010  0.009
  0.000  0.000  0.684  0.000  0.316
  0.010  0.002  0.000  0.987  0.000
    occupations:
  0.695 -0.001  0.027 -0.089  0.000
 -0.001  0.506 -0.001  0.001 -0.005
  0.027 -0.001  0.459 -0.012  0.018
 -0.089  0.001 -0.012  0.627 -0.001
  0.000 -0.005  0.018 -0.001  0.630
atom    4   Tr[ns(na)] =   5.82580
    eigenvalues:
  0.409  0.521  0.583  0.646  0.753
    eigenvectors:
  0.000  0.000  0.994  0.006  0.000
  0.000  0.000  0.006  0.994  0.000
  1.000  0.000  0.000  0.000  0.000
  0.000  0.000  0.000  0.000  1.000
  0.000  1.000  0.000  0.000  0.000
    occupations:
  0.584  0.005  0.001 -0.001  0.000
  0.005  0.645  0.003 -0.002 -0.000
  0.001  0.003  0.409  0.000  0.000
 -0.001 -0.002  0.000  0.753  0.000
  0.000 -0.000  0.000  0.000  0.521
atom    9   Tr[ns(na)] =   5.83829
    eigenvalues:
  0.480  0.523  0.594  0.600  0.722
    eigenvectors:
  0.000  0.000  0.205  0.011  0.783
  0.000  0.000  0.055  0.944  0.000
  0.118  0.882  0.000  0.000  0.000
  0.000  0.000  0.739  0.044  0.217
  0.882  0.118  0.000  0.000  0.000
    occupations:
  0.695 -0.001 -0.000 -0.052 -0.000
 -0.001  0.600 -0.001 -0.001 -0.000
 -0.000 -0.001  0.518  0.000  0.014
 -0.052 -0.001  0.000  0.622 -0.000
 -0.000 -0.000  0.014 -0.000  0.485
atom   10   Tr[ns(na)] =   5.79193
    eigenvalues:
  0.451  0.488  0.515  0.712  0.731
    eigenvectors:
  0.007  0.993  0.000  0.000  0.000
  0.000  0.000  0.000  1.000  0.000
  0.993  0.007  0.000  0.000  0.000
  0.000  0.000  0.000  0.000  1.000
  0.000  0.000  1.000  0.000  0.000
    occupations:
  0.487 -0.002 -0.003  0.004 -0.000
 -0.002  0.712 -0.002 -0.000  0.000
 -0.003 -0.002  0.451 -0.000 -0.000
  0.004 -0.000 -0.000  0.731 -0.000
 -0.000  0.000 -0.000 -0.000  0.515
atom   16   Tr[ns(na)] =   5.83108
    eigenvalues:
  0.452  0.504  0.567  0.628  0.765
    eigenvectors:
  0.011  0.000  0.318  0.001  0.670
  0.000  0.998  0.000  0.002  0.000
  0.977  0.000  0.002  0.010  0.010
  0.000  0.000  0.680  0.000  0.320
  0.011  0.002  0.000  0.987  0.000
    occupations:
  0.698  0.000  0.028 -0.092  0.001
  0.000  0.504  0.002 -0.001 -0.005
  0.028  0.002  0.457 -0.013 -0.018
 -0.092 -0.001 -0.013  0.630  0.001
  0.001 -0.005 -0.018  0.001  0.626
atom   17   Tr[ns(na)] =   5.83382
    eigenvalues:
  0.421  0.521  0.587  0.630  0.757
    eigenvectors:
  0.000  0.000  0.990  0.009  0.000
  0.000  0.000  0.009  0.990  0.000
  1.000  0.000  0.000  0.000  0.000
  0.000  0.000  0.000  0.000  0.999
  0.000  1.000  0.000  0.000  0.000
    occupations:
  0.587  0.004  0.001 -0.002  0.000
  0.004  0.630  0.004 -0.002 -0.001
  0.001  0.004  0.421 -0.003  0.000
 -0.002 -0.002 -0.003  0.757  0.000
  0.000 -0.001  0.000  0.000  0.521
atom   22   Tr[ns(na)] =   5.83574
    eigenvalues:
  0.471  0.524  0.593  0.597  0.732
    eigenvectors:
  0.000  0.000  0.169  0.055  0.775
  0.000  0.000  0.250  0.750  0.000
  0.101  0.899  0.000  0.000  0.000
  0.000  0.000  0.581  0.195  0.225
  0.899  0.101  0.000  0.000  0.000
    occupations:
  0.701  0.001  0.000 -0.057 -0.003
  0.001  0.596  0.000  0.001 -0.000
  0.000  0.000  0.519 -0.000 -0.016
 -0.057  0.001 -0.000  0.625  0.001
 -0.003 -0.000 -0.016  0.001  0.477
atom   23   Tr[ns(na)] =   5.85704
    eigenvalues:
  0.491  0.523  0.527  0.596  0.791
    eigenvectors:
  0.000  0.022  0.001  0.968  0.009
  0.000  0.953  0.024  0.023  0.000
  0.999  0.000  0.001  0.000  0.000
  0.000  0.000  0.000  0.009  0.991
  0.001  0.025  0.974  0.000  0.000
    occupations:
  0.596  0.011  0.000 -0.019  0.000
  0.011  0.525 -0.000  0.001  0.001
  0.000 -0.000  0.492 -0.001 -0.001
 -0.019  0.001 -0.001  0.789 -0.000
  0.000  0.001 -0.001 -0.000  0.527
N of occupied +U levels =  46.6467069
 --- exit write_ns ---

[...]

          k = 0.2500-0.3900 0.0000 ( 29726 PWs)   bands (ev):

[...]

          k =-0.2500 0.1950 0.0000 ( 29746 PWs)   bands (ev):

   -62.2800 -62.2569 -62.1630 -61.9163 -61.8933 -61.8401 -61.8350 -61.8116
   -36.8299 -36.7372 -36.6699 -36.5924 -36.4557 -36.3200 -36.2496 -36.2453
   -36.2387 -36.2146 -36.1844 -36.1517 -36.1348 -36.1274 -36.0808 -36.0451
   -36.0443 -35.9872 -35.9463 -35.9453 -35.9144 -35.5709 -35.4661 -35.4541
   -20.4966 -20.2177 -19.7193 -19.6382 -19.5075 -19.4321 -19.3064 -19.2523
   -19.1553 -19.1072 -18.8761 -18.7716 -18.7328 -18.6882 -18.6159 -18.5307
   -18.4000 -18.0689 -17.9036  -8.6345  -8.3765  -8.1432  -8.0906  -7.7372
    -7.5956  -7.5267  -7.4020  -7.2782  -7.2163  -7.1177  -7.0055  -6.8466
    -6.6681  -6.6090  -6.3295  -6.2410  -6.2041  -6.0926  -5.9234  -5.8149
    -5.6891  -5.6324  -5.5189  -5.4187  -5.1820  -5.1430  -5.0302  -4.8897
    -4.7996  -4.6346  -4.5748  -4.4095  -4.3578  -4.2938  -4.2368  -4.1868
    -4.1570  -4.1013  -4.0150  -3.9409  -3.7906  -3.7024  -3.6141  -3.4952
    -3.4202  -3.3171  -3.2627  -3.1603  -3.1119  -3.0135  -2.9673  -2.8188
    -2.6903  -2.6296  -2.5706  -2.2974  -1.8193  -1.6677  -1.5401  -0.5567
    -0.4604  -0.3985  -0.2089   0.4147   0.5116   0.7892   0.8895   1.0042
     1.0882   1.2964   1.3311   1.5302   1.6763   1.7333   1.7704   1.8793
     1.9312   1.9675   2.0623   2.4394   2.6824   3.5087   3.7017   3.8056
     3.9520   4.0823   4.1720   4.2942   4.5506   4.6477   4.7243   4.8582
     4.9183   5.0446   5.1026   5.3535   5.7057   5.9025   5.9655   6.0812
     6.2185   6.3003   6.4391   6.4999   6.6032   6.8218   7.1244   7.1717
     7.2701   7.3590   7.6187   7.7004   8.0068   8.1187   8.3025   8.3734
     8.5322   8.6378   8.7528   8.8790   8.9669   9.0819   9.1681   9.2988
     9.4300   9.4967   9.5827   9.6489   9.7259   9.7971   9.8548   9.9793
    10.1061  10.3506  10.3862  10.4659  10.5249  10.7049  10.7619  10.8575
    10.9307  11.0429  11.1523  11.2168  11.3997  11.5211  11.6400  11.6688
    11.8034  11.8910  11.9215  12.0446  12.0821  12.2101  12.2965  12.3543
    12.4149  12.4471  12.5122  12.6542  12.7661  12.8539  12.9868  13.0497
    13.1001  13.1992  13.2557  13.3448  13.3775  13.4785  13.5180  13.5723
    13.6530  13.7447  13.8307  13.8891  13.9546  14.0293  14.0427  14.1217
    14.1915  14.2305  14.2872  14.3562  14.3934  14.5027  14.5384  14.6349
    14.7010  14.7659  14.8597  14.9455  15.0205  15.1309  15.1442  15.2596
    15.3550  15.4462  15.5336  15.5933  15.6231  15.7472  15.8004  15.9674
    15.9871  16.0343  16.0994  16.1434  16.2380  16.3341  16.4068  16.4404
    16.4762  16.5046  16.5750  16.6627  16.7845  16.8250  16.8536  16.9861
    17.0739  17.1357  17.2104  17.2571  17.2805  17.3451  17.4219  17.4902
    17.5336  17.6054  17.7021  17.8260  17.9052  17.9891  18.0640  18.1256
    18.2192  18.2684  18.3227  18.3377  18.4344  18.5655  18.6018  18.7244
    18.7800  18.8604  18.9662  18.9910  19.0580  19.1404  19.2385  19.2802
    19.3767  19.4394  19.5457  19.6082  19.8105  19.8284  19.9337  19.9777
    20.0017  20.1009  20.1346  20.1745  20.2523  20.2766  20.3523  20.3604
    20.3980  20.4832  20.5273  20.6145  20.6525  20.7461  20.7950  20.8292
    20.9078  21.0219  21.0424  21.1459  21.2416  21.2806  21.3366  21.3812
    21.4416  21.4963  21.5344  21.6047  21.6406  21.7191  21.7534  21.7906
    21.8333  21.8844

     the Fermi energy is     0.2196 ev

!    total energy              =   -1730.93172714 Ry
     Harris-Foulkes estimate   =   -1730.93172714 Ry
     estimated scf accuracy    <          4.7E-09 Ry

     The total energy is the sum of the following terms:

     one-electron contribution =  -22264.20937105 Ry
     hartree contribution      =   11158.08515193 Ry
     xc contribution           =    -294.57617140 Ry
     ewald contribution        =    9667.04104778 Ry
     Hubbard energy            =       2.72785985 Ry
     smearing contrib. (-TS)   =      -0.00024425 Ry

     convergence has been achieved in  13 iterations

     Forces acting on atoms (Ry/au):

     negative rho (up, down):  0.341E-02 0.000E+00
     atom    1 type  1   force =    -0.00123975   -0.00499148    0.00020861
     atom    2 type  1   force =    -0.00004551    0.00613493   -0.00017126
     atom    3 type  2   force =     0.01698638   -0.00556097   -0.00005788
     atom    4 type  2   force =     0.00213086    0.00413343    0.00050373
     atom    5 type  1   force =     0.00090771   -0.01453008   -0.00025772
     atom    6 type  1   force =    -0.00052168    0.01187090   -0.00030001
     atom    7 type  1   force =    -0.00004209    0.00160891    0.00028498
     atom    8 type  1   force =     0.00339094   -0.00003046   -0.00014881
     atom    9 type  2   force =     0.00019219    0.00059891   -0.00036932
     atom   10 type  2   force =    -0.00599877    0.00103083    0.00030488
     atom   11 type  1   force =    -0.01674711   -0.01275690    0.00023617
     atom   12 type  1   force =    -0.01656064    0.01084302    0.00037226
     atom   13 type  1   force =     0.00157445    0.00029622   -0.00007456
     atom   14 type  1   force =    -0.00188728   -0.00561039    0.00019328
     atom   15 type  1   force =    -0.00064888    0.00972364    0.00009495
     atom   16 type  2   force =    -0.01191688   -0.00752961   -0.00001537
     atom   17 type  2   force =    -0.00320872    0.00416556    0.00043591
     atom   18 type  1   force =     0.00166297   -0.01496287   -0.00027303
     atom   19 type  1   force =     0.00027472    0.01302390   -0.00017228
     atom   20 type  1   force =    -0.00896643    0.00023316   -0.00059381
     atom   21 type  1   force =     0.00349604    0.00126214   -0.00006238
     atom   22 type  2   force =    -0.00453686   -0.00018314    0.00002356
     atom   23 type  2   force =     0.01057287    0.00277193    0.00028471
     atom   24 type  1   force =     0.01595053   -0.01102618    0.00015518
     atom   25 type  1   force =     0.01664915    0.00966964    0.00007385
     atom   26 type  1   force =    -0.00152400    0.00014573   -0.00061324
     atom   27 type  3   force =     0.00000650    0.00044754    0.00006213
     atom   28 type  3   force =    -0.00002014    0.00005221   -0.00009660
     atom   29 type  3   force =    -0.00010011   -0.00006446    0.00002216
     atom   30 type  3   force =    -0.00025940   -0.00009190   -0.00018587
     atom   31 type  1   force =     0.00027875    0.00005443   -0.00005266
     atom   32 type  3   force =     0.00015019   -0.00072857    0.00018844

     Total force =     0.001794     Total SCF correction =     0.000155

     bfgs converged in  14 scf cycles and  13 bfgs steps
     (criteria: energy < 0.10E-03, force < 0.10E-02)

     End of BFGS Geometry Optimization

     Final energy   =   -1730.9317271394 Ry
Begin final coordinates

ATOMIC_POSITIONS (crystal)
O0       0.000000000   0.000000000   0.371180854    0   0   1
O0       0.000000000   0.500000000   0.383376203    0   0   1
Mo1      0.250000000   0.500000000   0.440862196    0   0   1
Mo1      0.000000000   0.000000000   0.443202356    0   0   1
O0       0.250000000   0.780000000   0.443377037    0   0   1
O0       0.250000000   0.220000000   0.443334262    0   0   1
O0       0.000000000   0.500000000   0.497954889    0   0   1
O0       0.000000000   0.000000000   0.516640605    0   0   1
Mo1      0.250000000   0.000000000   0.575284954    0   0   1
Mo1      0.000000000   0.500000000   0.565817972    0   0   1
O0       0.250000000   0.720000000   0.571026505    0   0   1
O0       0.250000000   0.280000000   0.571217336    0   0   1
O0       0.000000000   0.000000000   0.625482738    0   0   1
O0       0.500000000   0.000000000   0.371497130    0   0   1
O0       0.500000000   0.500000000   0.382703890    0   0   1
Mo1      0.750000000   0.500000000   0.440632094    0   0   1
Mo1      0.500000000   0.000000000   0.443744154    0   0   1
O0       0.750000000   0.780000000   0.443468476    0   0   1
O0       0.750000000   0.220000000   0.443211897    0   0   1
O0       0.500000000   0.500000000   0.499573038    0   0   1
O0       0.500000000   0.000000000   0.516184941    0   0   1
Mo1      0.750000000   0.000000000   0.574658490    0   0   1
Mo1      0.500000000   0.500000000   0.570903987    0   0   1
O0       0.750000000   0.720000000   0.571055510    0   0   1
O0       0.750000000   0.280000000   0.571043643    0   0   1
O0       0.500000000   0.000000000   0.625447189    0   0   1
H2      -0.000965620   0.609566865   0.360598183
H2       0.499513742   0.615264446   0.361836391
H2       0.166859149   0.017268363   0.356656570
H2       0.665540981   0.018798935   0.356623737
O0       0.506341046   0.500420180   0.641429024
H2       0.392925252   0.493264451   0.669323749
End final coordinates

     General routines

     Parallel routines
     Hubbard U routines

   This run was terminated on:  14:32:13  29Apr2014

   JOB DONE.
Running PBS batch system epilogue script
Job id: 340390.audhumbla.fysik.dtu.dk
Username: zhonxu
Groupname: campgst
Jobname: MoO2/Eads-2-layers/OH-U-4.0
Sessionid: 5315
Queuename: verylong
Accounting:
This job has allocated the following 16 nodes:
b130 b130 b130 b130 b130 b130 b130 b130 b119 b119 b119 b119 b119 b119 b119 b119
Finished epilogue job 340390.audhumbla.fysik.dtu.dk for zhonxu