     Program PWSCF v.5.0.2 (svn rev. 9656) starts on  9Feb2014 at  0:41:50

     Current dimensions of program PWSCF are:
     Max number of different atomic species (ntypx) = 10
     Max number of k-points (npk) =  40000
     Max angular momentum in pseudopotentials (lmaxx) =  3
     Reading input from ReO2-1-pert.in
Warning: card &IONS ignored
Warning: card / ignored
Warning: card &CELL ignored
Warning: card / ignored

     Subspace diagonalization in iterative solution of the eigenvalue problem:
     a serial algorithm will be used

     bravais-lattice index     =            0
     lattice parameter (alat)  =      18.7083  a.u.
     unit-cell volume          =    3545.1269 (a.u.)^3
     number of atoms/cell      =           48
     number of atomic types    =            3
     number of electrons       =       432.00
     number of Kohn-Sham states=          648
     kinetic-energy cutoff     =      40.0000  Ry
     charge density cutoff     =     500.0000  Ry
     convergence threshold     =      1.0E-06
     mixing beta               =       0.7000
     number of iterations used =            8  plain     mixing
     Exchange-correlation      = SLA  PW   PBE  PBE ( 1 4 3 4 0)
     EXX-fraction              =        0.00

     celldm(1)=  18.708289  celldm(2)=   0.000000  celldm(3)=   0.000000
     celldm(4)=   0.000000  celldm(5)=   0.000000  celldm(6)=   0.000000

     crystal axes: (cart. coord. in units of alat)
               a(1) = (   1.000000   0.000000   0.000000 )
               a(2) = (   0.000000   1.000000   0.000000 )
               a(3) = (   0.000000   0.000000   0.541414 )

     reciprocal axes: (cart. coord. in units 2 pi/alat)
               b(1) = (  1.000000  0.000000  0.000000 )
               b(2) = (  0.000000  1.000000  0.000000 )
               b(3) = (  0.000000  0.000000  1.847015 )

     PseudoPot. # 1 for Re read from file:
     /home/camp/zhonxu/pseudo/re_pbe_v1.uspp.F.UPF
     MD5 check sum: 6f5a5dcaf9c96c20d0ffdde0de57afc6
     Pseudo is Ultrasoft + core correction, Zval = 15.0
     Generated by new atomic code, or converted to UPF format
     Using radial grid of  981 points,  8 beta functions with:
                l(1) =   0
                l(2) =   0
                l(3) =   1
                l(4) =   1
                l(5) =   2
                l(6) =   2
                l(7) =   3
                l(8) =   3
     Q(r) pseudized with  8 coefficients,  rinner =    1.000   1.000   1.000
                                                       1.000   1.000   1.000
                                                       1.000

     PseudoPot. # 2 for Re read from file:
     /home/camp/zhonxu/pseudo/re_pbe_v1.uspp.F.UPF
     MD5 check sum: 6f5a5dcaf9c96c20d0ffdde0de57afc6
     Pseudo is Ultrasoft + core correction, Zval = 15.0
     Generated by new atomic code, or converted to UPF format
     Using radial grid of  981 points,  8 beta functions with:
                l(1) =   0
                l(2) =   0
                l(3) =   1
                l(4) =   1
                l(5) =   2
                l(6) =   2
                l(7) =   3
                l(8) =   3
     Q(r) pseudized with  8 coefficients,  rinner =    1.000   1.000   1.000
                                                       1.000   1.000   1.000
                                                       1.000

     PseudoPot. # 3 for O  read from file:
     /home/camp/zhonxu/pseudo/o_pbe_v1.01.uspp.F.UPF
     MD5 check sum: 2bcb18d16ea4b960afae9ec6d52f22d2
     Pseudo is Ultrasoft + core correction, Zval =  6.0
     Generated by new atomic code, or converted to UPF format
     Using radial grid of  737 points,  5 beta functions with:
                l(1) =   0
                l(2) =   0
                l(3) =   1
                l(4) =   1
                l(5) =   2
     Q(r) pseudized with  8 coefficients,  rinner =    0.900   0.900   0.900
                                                       0.900   0.900

     atomic species   valence    mass     pseudopotential
        Re0           15.00   186.20700     Re( 1.00)
        Re1           15.00   186.20700     Re( 1.00)
        O2             6.00    15.99940     O ( 1.00)

     Starting magnetic structure
     atomic species   magnetization
        Re0          0.000
        Re1          0.000
        O2           0.000

     Simplified LDA+U calculation (l_max = 2) with parameters (eV):
     atomic species    L          U    alpha       J0     beta
        Re0            2     0.0000   0.0000   0.0000   0.0000
        Re1            2     0.0000   0.0000   0.0000   0.0000
        O2             1     0.0000   0.0000   0.0000   0.0000

      8 Sym. Ops., with inversion, found

   Cartesian axes

     site n.     atom                  positions (alat units)
         1           Re0 tau(   1) = (   0.0000000   0.0000000   0.0000000  )
         2           Re1 tau(   2) = (   0.2500000   0.2500000   0.1353535  )
         3           Re1 tau(   3) = (   0.0000000   0.0000000   0.2707071  )
         4           Re1 tau(   4) = (   0.2500000   0.2500000   0.4060606  )
         5           Re1 tau(   5) = (   0.0000000   0.5000000   0.0000000  )
         6           Re1 tau(   6) = (   0.2500000   0.7500000   0.1353535  )
         7           Re1 tau(   7) = (   0.0000000   0.5000000   0.2707071  )
         8           Re1 tau(   8) = (   0.2500000   0.7500000   0.4060606  )
         9           Re1 tau(   9) = (   0.5000000   0.0000000   0.0000000  )
        10           Re1 tau(  10) = (   0.7500000   0.2500000   0.1353535  )
        11           Re1 tau(  11) = (   0.5000000   0.0000000   0.2707071  )
        12           Re1 tau(  12) = (   0.7500000   0.2500000   0.4060606  )
        13           Re1 tau(  13) = (   0.5000000   0.5000000   0.0000000  )
        14           Re1 tau(  14) = (   0.7500000   0.7500000   0.1353535  )
        15           Re1 tau(  15) = (   0.5000000   0.5000000   0.2707071  )
        16           Re1 tau(  16) = (   0.7500000   0.7500000   0.4060606  )
        17           O2  tau(  17) = (   0.1400000   0.1400000   0.0000000  )
        18           O2  tau(  18) = (  -0.1400000  -0.1400000   0.0000000  )
        19           O2  tau(  19) = (   0.3900000   0.1100000   0.1353535  )
        20           O2  tau(  20) = (   0.1100000   0.3900000   0.1353535  )
        21           O2  tau(  21) = (   0.1400000   0.1400000   0.2707071  )
        22           O2  tau(  22) = (  -0.1400000  -0.1400000   0.2707071  )
        23           O2  tau(  23) = (   0.3900000   0.1100000   0.4060606  )
        24           O2  tau(  24) = (   0.1100000   0.3900000   0.4060606  )
        25           O2  tau(  25) = (   0.1400000   0.6400000   0.0000000  )
        26           O2  tau(  26) = (  -0.1400000   0.3600000   0.0000000  )
        27           O2  tau(  27) = (   0.3900000   0.6100000   0.1353535  )
        28           O2  tau(  28) = (   0.1100000   0.8900000   0.1353535  )
        29           O2  tau(  29) = (   0.1400000   0.6400000   0.2707071  )
        30           O2  tau(  30) = (  -0.1400000   0.3600000   0.2707071  )
        31           O2  tau(  31) = (   0.3900000   0.6100000   0.4060606  )
        32           O2  tau(  32) = (   0.1100000   0.8900000   0.4060606  )
        33           O2  tau(  33) = (   0.6400000   0.1400000   0.0000000  )
        34           O2  tau(  34) = (   0.3600000  -0.1400000   0.0000000  )
        35           O2  tau(  35) = (   0.8900000   0.1100000   0.1353535  )
        36           O2  tau(  36) = (   0.6100000   0.3900000   0.1353535  )
        37           O2  tau(  37) = (   0.6400000   0.1400000   0.2707071  )
        38           O2  tau(  38) = (   0.3600000  -0.1400000   0.2707071  )
        39           O2  tau(  39) = (   0.8900000   0.1100000   0.4060606  )
        40           O2  tau(  40) = (   0.6100000   0.3900000   0.4060606  )
        41           O2  tau(  41) = (   0.6400000   0.6400000   0.0000000  )
        42           O2  tau(  42) = (   0.3600000   0.3600000   0.0000000  )
        43           O2  tau(  43) = (   0.8900000   0.6100000   0.1353535  )
        44           O2  tau(  44) = (   0.6100000   0.8900000   0.1353535  )
        45           O2  tau(  45) = (   0.6400000   0.6400000   0.2707071  )
        46           O2  tau(  46) = (   0.3600000   0.3600000   0.2707071  )
        47           O2  tau(  47) = (   0.8900000   0.6100000   0.4060606  )
        48           O2  tau(  48) = (   0.6100000   0.8900000   0.4060606  )

     number of k points=    42  Methfessel-Paxton smearing, width (Ry)=  0.0100
                       cart. coord. in units 2pi/alat
        k(    1) = (   0.0000000   0.0000000   0.0000000), wk =   0.0156250
        k(    2) = (   0.0000000   0.0000000   0.4617537), wk =   0.0312500
        k(    3) = (   0.0000000   0.0000000  -0.9235075), wk =   0.0156250
        k(    4) = (   0.0000000   0.2500000   0.0000000), wk =   0.0625000
        k(    5) = (   0.0000000   0.2500000   0.4617537), wk =   0.1250000
        k(    6) = (   0.0000000   0.2500000  -0.9235075), wk =   0.0625000
        k(    7) = (   0.0000000  -0.5000000   0.0000000), wk =   0.0312500
        k(    8) = (   0.0000000  -0.5000000   0.4617537), wk =   0.0625000
        k(    9) = (   0.0000000  -0.5000000  -0.9235075), wk =   0.0312500
        k(   10) = (   0.2500000   0.2500000   0.0000000), wk =   0.0312500
        k(   11) = (   0.2500000   0.2500000   0.4617537), wk =   0.0625000
        k(   12) = (   0.2500000   0.2500000  -0.9235075), wk =   0.0312500
        k(   13) = (   0.2500000  -0.5000000   0.0000000), wk =   0.0625000
        k(   14) = (   0.2500000  -0.5000000   0.4617537), wk =   0.1250000
        k(   15) = (   0.2500000  -0.5000000  -0.9235075), wk =   0.0625000
        k(   16) = (  -0.5000000  -0.5000000   0.0000000), wk =   0.0156250
        k(   17) = (  -0.5000000  -0.5000000   0.4617537), wk =   0.0312500
        k(   18) = (  -0.5000000  -0.5000000  -0.9235075), wk =   0.0156250
        k(   19) = (  -0.2500000   0.2500000   0.0000000), wk =   0.0312500
        k(   20) = (  -0.2500000   0.2500000  -0.4617537), wk =   0.0625000
        k(   21) = (  -0.2500000   0.2500000   0.9235075), wk =   0.0312500
        k(   22) = (   0.0000000   0.0000000   0.0000000), wk =   0.0156250
        k(   23) = (   0.0000000   0.0000000   0.4617537), wk =   0.0312500
        k(   24) = (   0.0000000   0.0000000  -0.9235075), wk =   0.0156250
        k(   25) = (   0.0000000   0.2500000   0.0000000), wk =   0.0625000
        k(   26) = (   0.0000000   0.2500000   0.4617537), wk =   0.1250000
        k(   27) = (   0.0000000   0.2500000  -0.9235075), wk =   0.0625000
        k(   28) = (   0.0000000  -0.5000000   0.0000000), wk =   0.0312500
        k(   29) = (   0.0000000  -0.5000000   0.4617537), wk =   0.0625000
        k(   30) = (   0.0000000  -0.5000000  -0.9235075), wk =   0.0312500
        k(   31) = (   0.2500000   0.2500000   0.0000000), wk =   0.0312500
        k(   32) = (   0.2500000   0.2500000   0.4617537), wk =   0.0625000
        k(   33) = (   0.2500000   0.2500000  -0.9235075), wk =   0.0312500
[...]
    eigenvectors:
  0.000  1.000  0.000
  0.500  0.000  0.500
  0.500  0.000  0.500
    occupations:
  0.908 -0.000 -0.000
 -0.000  0.907 -0.003
 -0.000 -0.003  0.907
   spin  2
    eigenvalues:
  0.904  0.908  0.911
    eigenvectors:
  0.000  1.000  0.000
  0.500  0.000  0.500
  0.500  0.000  0.500
    occupations:
  0.908 -0.000 -0.000
 -0.000  0.907 -0.003
 -0.000 -0.003  0.907
atomic mag. moment =     0.000000
atom   42   Tr[ns(na)] (up, down, total) =   2.72340  2.72340  5.44681
   spin  1
    eigenvalues:
  0.904  0.908  0.911
    eigenvectors:
  0.000  1.000  0.000
  0.500  0.000  0.500
  0.500  0.000  0.500
    occupations:
  0.908 -0.000 -0.000
 -0.000  0.907 -0.003
 -0.000 -0.003  0.907
   spin  2
    eigenvalues:
  0.904  0.908  0.911
    eigenvectors:
  0.000  1.000  0.000
  0.500  0.000  0.500
  0.500  0.000  0.500
    occupations:
  0.908 -0.000 -0.000
 -0.000  0.907 -0.003
 -0.000 -0.003  0.907
atomic mag. moment =     0.000000
atom   43   Tr[ns(na)] (up, down, total) =   2.72339  2.72339  5.44678
   spin  1
    eigenvalues:
  0.904  0.908  0.911
    eigenvectors:
  0.000  1.000  0.000
  0.500  0.000  0.500
  0.500  0.000  0.500
    occupations:
  0.908 -0.000  0.000
 -0.000  0.907  0.003
  0.000  0.003  0.907
   spin  2
    eigenvalues:
  0.904  0.908  0.911
    eigenvectors:
  0.000  1.000  0.000
  0.500  0.000  0.500
  0.500  0.000  0.500
    occupations:
  0.908 -0.000  0.000
 -0.000  0.907  0.003
  0.000  0.003  0.907
atomic mag. moment =     0.000000
atom   44   Tr[ns(na)] (up, down, total) =   2.72339  2.72339  5.44678
   spin  1
    eigenvalues:
  0.904  0.908  0.911
    eigenvectors:
  0.000  1.000  0.000
  0.500  0.000  0.500
  0.500  0.000  0.500
    occupations:
  0.908  0.000 -0.000
  0.000  0.907  0.003
 -0.000  0.003  0.907
   spin  2
    eigenvalues:
  0.904  0.908  0.911
    eigenvectors:
  0.000  1.000  0.000
  0.500  0.000  0.500
  0.500  0.000  0.500
    occupations:
  0.908  0.000 -0.000
  0.000  0.907  0.003
 -0.000  0.003  0.907
atomic mag. moment =     0.000000
atom   45   Tr[ns(na)] (up, down, total) =   2.72340  2.72340  5.44680
   spin  1
    eigenvalues:
  0.904  0.908  0.911
    eigenvectors:
  0.000  1.000  0.000
  0.500  0.000  0.500
  0.500  0.000  0.500
    occupations:
  0.908 -0.000 -0.000
 -0.000  0.907 -0.003
 -0.000 -0.003  0.907
   spin  2
    eigenvalues:
  0.904  0.908  0.911
    eigenvectors:
  0.000  1.000  0.000
  0.500  0.000  0.500
  0.500  0.000  0.500
    occupations:
  0.908 -0.000 -0.000
 -0.000  0.907 -0.003
 -0.000 -0.003  0.907
atomic mag. moment =     0.000000
atom   46   Tr[ns(na)] (up, down, total) =   2.72340  2.72340  5.44680
   spin  1
    eigenvalues:
  0.904  0.908  0.911
    eigenvectors:
  0.000  1.000  0.000
  0.500  0.000  0.500
  0.500  0.000  0.500
    occupations:
  0.908 -0.000 -0.000
 -0.000  0.907 -0.003
 -0.000 -0.003  0.907
   spin  2
    eigenvalues:
  0.904  0.908  0.911
    eigenvectors:
  0.000  1.000  0.000
  0.500  0.000  0.500
  0.500  0.000  0.500
    occupations:
  0.908 -0.000 -0.000
 -0.000  0.907 -0.003
 -0.000 -0.003  0.907
atomic mag. moment =     0.000000
atom   47   Tr[ns(na)] (up, down, total) =   2.72339  2.72339  5.44678
   spin  1
    eigenvalues:
  0.904  0.908  0.911
    eigenvectors:
  0.000  1.000  0.000
  0.500  0.000  0.500
  0.500  0.000  0.500
    occupations:
  0.908  0.000 -0.000
  0.000  0.907  0.003
 -0.000  0.003  0.907
   spin  2
    eigenvalues:
  0.904  0.908  0.911
    eigenvectors:
  0.000  1.000  0.000
  0.500  0.000  0.500
  0.500  0.000  0.500
    occupations:
  0.908  0.000 -0.000
  0.000  0.907  0.003
 -0.000  0.003  0.907
atomic mag. moment =     0.000000
atom   48   Tr[ns(na)] (up, down, total) =   2.72339  2.72339  5.44678
   spin  1
    eigenvalues:
  0.904  0.908  0.911
    eigenvectors:
  0.000  1.000  0.000
  0.500  0.000  0.500
  0.500  0.000  0.500
    occupations:
  0.908 -0.000  0.000
 -0.000  0.907  0.003
  0.000  0.003  0.907
   spin  2
    eigenvalues:
  0.904  0.908  0.911
    eigenvectors:
  0.000  1.000  0.000
  0.500  0.000  0.500
  0.500  0.000  0.500
    occupations:
  0.908 -0.000  0.000
 -0.000  0.907  0.003
  0.000  0.003  0.907
atomic mag. moment =     0.000000
N of occupied +U levels = 278.5177716
 --- exit write_ns ---

 ------ SPIN UP ------------

          k = 0.0000 0.0000 0.0000 ( 15161 PWs)   bands (ev):

   -67.0598 -67.0590 -67.0590 -67.0590 -67.0590 -67.0589 -67.0589 -67.0581
   -67.0037 -67.0037 -67.0037 -67.0037 -67.0037 -67.0037 -67.0037 -67.0036
   -29.2648 -29.2648 -29.2648 -29.2648 -29.2634 -29.2634 -29.2633 -29.2633
   -29.0403 -29.0403 -29.0355 -29.0355 -29.0108 -29.0108 -29.0108 -29.0108
   -28.9797 -28.9797 -28.9797 -28.9797 -28.9543 -28.9543 -28.9501 -28.9501
   -28.8931 -28.8931 -28.8927 -28.8926 -28.8915 -28.8915 -28.8915 -28.8915
   -28.8694 -28.8693 -28.8688 -28.8688 -28.8687 -28.8687 -28.8687 -28.8687
   -28.3972 -28.3905 -28.3905 -28.3904 -28.3904 -28.3904 -28.3904 -28.3834
    -6.7972  -6.2245  -6.2245  -5.9982  -5.9982  -5.9982  -5.9982  -5.7334
    -5.7057  -5.7057  -5.7057  -5.7057  -5.3233  -5.3233  -5.3233  -5.3233
    -5.3172  -5.3172  -5.2683  -5.2683  -5.0947  -5.0946  -5.0322  -5.0321
    -5.0185  -5.0185  -4.9370  -4.9370  -4.5588  -4.5588  -4.5588  -4.5588
     4.5611   4.8134   4.8134   5.0709   5.5185   5.5185   5.5186   5.5186
     5.7538   5.7538   5.7538   5.7538   6.0504   6.0504   6.0505   6.0505
     6.1412   6.3211   6.3211   6.3510   6.3510   6.5899   6.5899   7.0123
     7.0123   7.0123   7.0123   7.1509   7.1509   7.2478   7.2479   7.2849
     7.2850   7.2862   7.2862   7.3345   7.3346   7.7509   7.7509   7.7510
     7.7510   8.2110   8.2110   8.2111   8.2111   8.5497   8.5497   8.6683
     8.6684   8.6756   8.6756   8.7046   8.7046   8.8854   8.8854   8.8855
     8.8855   8.9469   8.9469   9.2057   9.2057   9.2057   9.2057   9.2636
     9.2636   9.4227   9.4227   9.4227   9.4227   9.8380   9.8380   9.9666
     9.9667  10.1943  10.1943  10.5213  10.5213  10.5213  10.5213  10.6467
    10.6467  10.6467  10.6467  10.6768  10.8172  10.8338  10.8338  10.8845
    10.8846  10.9014  10.9014  10.9234  10.9234  10.9234  10.9234  11.0126
    11.0613  11.0613  11.4119  11.6916  11.8494  11.8494  11.8494  11.8494
    12.4046  12.4046  12.4046  12.4046  13.2021  13.7887  13.7888  14.3727
    14.3727  14.4600  14.4600  14.7584  14.7584  14.7747  14.7747  14.8088
    14.8088  15.3806  15.3806  15.3807  15.3807  15.3844  15.3845  15.3845
    15.3845  15.7284  15.7284  15.7284  15.7284  15.9407  15.9408  16.9079
    17.0559  17.0559  17.0559  17.0559  17.2008  17.3991  17.3991  17.4207
    17.4207  17.8058  17.8058  17.8059  17.8059  18.0413  18.0414  18.1580
    18.1580  18.1580  18.1580  18.3599  18.6856  18.6856  18.7553  18.7553
    18.7553  18.7553  18.8785  18.8785  18.8955  18.8955  19.2233  19.2234
    19.3168  19.3168  19.6217  19.6217  21.3617  21.3617  21.3617  21.3617
    21.4497  21.4497  21.4497  21.4497  21.5520  22.8849  22.8850  22.9227
    22.9227  23.0930  23.0930  23.4546  23.4546  23.4546  23.4546  23.5188
    23.5188  23.7566  23.7566  24.4044  24.4044  24.6297  24.6297  24.6297
    24.6297  25.3388  25.6734  25.6735  25.7373  25.9306  25.9306  25.9306
    25.9306  25.9623  25.9623  25.9623  25.9623  26.2456  26.3709  26.3709
    26.3709  26.3709  26.6418  26.6418  27.4466  27.4466  27.6436  27.6436
    28.0539  28.0539  28.2760  28.2760  28.2760  28.2760  28.4120  28.4121
    28.5705  28.5705  28.6713  28.6713  28.6713  28.6713  29.0150  29.0150
    29.0150  29.0150  29.4638  29.4638  29.6224  29.6225  29.8156  29.8156
    30.5230  30.6091  30.6091  31.2127  31.2127  31.2127  31.2127  32.2448
    32.2448  32.2448  32.2448  32.7967  32.7968  32.8424  32.8424  32.8424
    32.8424  32.8499  32.8499  32.9896  32.9896  33.1954  33.1954  33.8237
    34.0028  34.0028  34.1070  34.1070  34.2538  34.2538  34.8704  34.8704
    34.8704  34.8704  34.9497  35.0858  35.0858  35.0858  35.0858  35.3185
    35.3185  35.9374  35.9374  35.9374  35.9374  36.0655  36.0655  36.0990
    36.0990  36.1433  36.4278  36.4278  36.4278  36.4278  36.4999  36.4999
    36.7615  36.7615  37.3584  37.3584  37.3584  37.3584  37.4412  37.4412
    37.5129  37.5129  37.5293  37.9761  37.9762  37.9822  38.4422  38.4422
    38.5567  38.5567  38.5567  38.5567  38.7382  38.7382  38.7382  38.7382
    38.7693  38.7693  39.4202  39.4202  39.4202  39.4202  39.7550  39.7550
    39.9089  39.9089  40.1545  40.1545  40.1545  40.1545  40.5725  40.9996
    40.9996  41.1661  41.1661  41.1881  41.1882  42.1108  42.1108  42.1108
    42.1108  42.6573  42.6574  42.7748  42.7748  42.7748  42.7748  43.3281
    43.3281  43.3281  43.3281  43.3459  43.3459  43.3459  43.3459  43.5749
    43.8317  43.8317  43.8989  43.8989  44.0121  44.0121  44.2922  44.2922
    44.2922  44.2922  44.3320  44.4837  44.4838  44.7056  44.7056  44.9412
[...]
    47.6047  47.6047  47.6463  47.6463  48.0317  48.0317  48.2176  48.2176
    48.2176  48.2176  48.3676  48.3677  48.3729  48.3729  48.3729  48.3729
    48.9301  48.9301  48.9302  48.9302  49.0717  49.0717  49.2806  49.2806
    49.3905  49.3905  49.4766  49.4766  49.7698  49.7698  50.0862  50.0862
    50.1830  50.1830  50.1830  50.1830  50.7630  50.7630  50.7630  50.7630
    50.8812  50.8812  50.8812  50.8812  51.0952  51.0952  51.2645  51.2645
    51.4493  51.4493  51.4515  51.5411  51.5411  51.5411  51.5411  51.7697
    51.9088  52.1513  52.1513  52.1513  52.1513  52.3196  52.3196  52.3762
    52.3762  52.4641  52.4641  52.4641  52.4641  52.7841  52.8445  52.8445
    52.8445  52.8445  53.2686  53.3565  53.3565  53.4345  53.4345  53.4345
    53.4345  53.6461  53.6461  54.4447  54.4447  54.4586  54.4586  54.4586
    54.4586  54.4608  54.4608  54.7758  54.7758  54.7758  54.7758  54.8585
    54.8585  54.9475  54.9475  54.9476  54.9476  55.2185  55.2185  55.6172
    55.6172  55.6535  55.8060  55.8060  55.8522  55.8522  55.8584  55.8584
    55.8584  55.8584  56.1375  56.1376  56.2198  56.2198  56.2747  56.2747

[...]

          k =-0.5000-0.5000 0.0000 ( 15164 PWs)   bands (ev):

[...]

 ------ SPIN DOWN ----------

[...]

          k = 0.2500-0.5000-0.9235 ( 15168 PWs)   bands (ev):

[...]

          k =-0.2500 0.2500 0.9235 ( 15156 PWs)   bands (ev):

   -67.0319 -67.0318 -67.0316 -67.0316 -67.0316 -67.0315 -67.0315 -67.0314
   -67.0313 -67.0312 -67.0312 -67.0312 -67.0311 -67.0311 -67.0309 -67.0308
   -28.9682 -28.9681 -28.9656 -28.9655 -28.9610 -28.9609 -28.9592 -28.9592
   -28.9592 -28.9591 -28.9575 -28.9574 -28.9417 -28.9417 -28.9416 -28.9416
   -28.9384 -28.9384 -28.9382 -28.9382 -28.9209 -28.9208 -28.9192 -28.9192
   -28.9191 -28.9191 -28.9178 -28.9177 -28.9109 -28.9108 -28.9089 -28.9088
   -28.8422 -28.8421 -28.8389 -28.8389 -28.8384 -28.8384 -28.8383 -28.8383
   -28.8376 -28.8374 -28.8351 -28.8351 -28.8351 -28.8351 -28.8346 -28.8345
    -6.0358  -6.0357  -5.8226  -5.8226  -5.8226  -5.8225  -5.7193  -5.7192
    -5.5957  -5.5957  -5.5303  -5.5303  -5.5302  -5.5302  -5.3469  -5.3468
    -5.1468  -5.1468  -5.1446  -5.1445  -5.1304  -5.1304  -5.1303  -5.1303
    -5.1221  -5.1221  -5.1221  -5.1221  -5.1051  -5.1051  -5.0987  -5.0987
     5.8090   5.8090   5.8090   5.8091   5.8236   5.8236   5.8326   5.8326
     5.9556   5.9556   5.9804   5.9804   5.9804   5.9804   6.0103   6.0103
     6.7573   6.7573   6.8013   6.8013   7.0376   7.0377   7.0397   7.0397
     7.0397   7.0397   7.1903   7.1903   7.2989   7.2989   7.2990   7.2990
     7.3051   7.3052   7.6119   7.6119   7.6119   7.6119   7.9091   7.9091
     7.9238   7.9238   7.9238   7.9238   7.9415   7.9415   8.1859   8.1859
     8.1859   8.1859   8.4513   8.4514   8.4612   8.4613   8.4844   8.4845
     9.0381   9.0381   9.0381   9.0381   9.1559   9.1559   9.2199   9.2200
     9.3102   9.3102   9.3102   9.3102   9.3132   9.3132   9.3373   9.3373
     9.4343   9.4343   9.6371   9.6371   9.6372   9.6372   9.9596   9.9596
    10.1712  10.1713  10.4376  10.4376  10.5092  10.5092  10.5092  10.5092
    10.7899  10.7899  11.0707  11.0707  11.0707  11.0708  11.4054  11.4055
    13.2223  13.2224  13.2590  13.2590  13.2590  13.2590  13.4166  13.4167
    13.4777  13.4777  13.5739  13.5739  13.5756  13.5756  13.5756  13.5756
    13.6650  13.6651  13.8694  13.8695  14.0135  14.0135  14.0136  14.0136
    14.3528  14.3528  14.4519  14.4519  14.6930  14.6930  14.7008  14.7008
    14.7008  14.7008  15.2223  15.2223  15.2615  15.2615  15.2615  15.2615
    15.5118  15.5118  15.8429  15.8429  15.8430  15.8430  16.3614  16.3615
    17.1409  17.1409  17.1410  17.1410  17.7840  17.7840  17.8964  17.8964
    17.9279  17.9279  17.9279  17.9279  18.5390  18.5390  18.7568  18.7568
    18.8104  18.8104  19.0747  19.0748  19.4326  19.4326  19.4326  19.4326
    19.7380  19.7380  20.4340  20.4340  20.4340  20.4340  20.9324  20.9324
    21.2236  21.2236  22.3347  22.3347  22.3348  22.3348  22.8996  22.8996
    23.7039  23.7039  23.7040  23.7040  23.8184  23.8185  23.9128  23.9128
    24.4672  24.4672  25.0584  25.0585  25.1936  25.1936  25.1936  25.1936
    25.3367  25.3368  25.3928  25.3928  25.3928  25.3928  25.7335  25.7335
    26.8587  26.8587  27.4333  27.4334  27.4334  27.4334  27.6144  27.6145
    28.4014  28.4014  28.4014  28.4014  28.4395  28.4395  28.5920  28.5920
    28.8644  28.8644  28.8644  28.8644  28.9048  28.9048  28.9412  28.9412
    28.9666  28.9666  28.9666  28.9666  29.1983  29.1983  29.4350  29.4350
    29.6411  29.6411  29.6412  29.6412  29.8411  29.8411  29.9316  29.9316
    30.5036  30.5036  30.7816  30.7816  30.7816  30.7816  30.8955  30.8955
    30.9040  30.9040  30.9998  30.9998  31.9316  31.9316  31.9316  31.9316
    32.2817  32.2817  32.4622  32.4622  32.4622  32.4622  33.5190  33.5190
    33.5190  33.5190  33.6013  33.6014  33.6914  33.6914  34.3472  34.3472
    34.6697  34.6697  35.0407  35.0407  35.2621  35.2621  35.2622  35.2622
    36.0159  36.0160  36.4385  36.4385  36.4385  36.4385  36.4545  36.4545
    36.4883  36.4883  36.4883  36.4883  36.9507  36.9507  37.0034  37.0034
    37.0034  37.0034  37.4164  37.4164  37.5410  37.5410  37.6907  37.6907
    38.0673  38.0673  38.0673  38.0673  38.3119  38.3119  38.3357  38.3357
    38.7242  38.7242  38.8512  38.8512  39.0154  39.0154  39.2043  39.2043
    39.2044  39.2044  39.3468  39.3468  39.3545  39.3545  39.3545  39.3545
    39.7239  39.7239  39.8369  39.8369  40.1315  40.1315  40.2658  40.2658
    40.2658  40.2658  41.0237  41.0237  41.0237  41.0237  41.4223  41.4223
    41.5628  41.5628  41.9599  41.9599  41.9599  41.9599  42.0142  42.0142
    42.5351  42.5351  43.1428  43.1428  43.1428  43.1428  43.2988  43.2988
    43.4077  43.4077  43.4077  43.4077  43.4471  43.4472  43.5336  43.5336
    43.8369  43.8369  43.9984  43.9984  43.9984  43.9984  44.0751  44.0751
[...]
    48.2093  48.2093  48.2985  48.2985  48.4111  48.4111  48.4111  48.4111
    48.6447  48.6447  48.8334  48.8334  48.9447  48.9448  48.9448  48.9448
    49.0193  49.0193  49.1057  49.1057  49.1778  49.1778  49.1779  49.1779
    49.2070  49.2070  49.2912  49.2912  49.5973  49.5973  49.5973  49.5973
    49.6750  49.6750  49.7894  49.7894  49.7894  49.7894  49.9176  49.9176
    50.0934  50.0934  50.4780  50.4780  50.4781  50.4781  50.8704  50.8704
    50.8834  50.8834  50.8834  50.8834  51.1962  51.1962  51.7393  51.7393
    51.7393  51.7393  51.7426  51.7426  52.0856  52.0857  52.1361  52.1361
    52.1361  52.1361  52.3431  52.3431  52.3610  52.3611  52.3755  52.3755
    52.8628  52.8628  52.9412  52.9412  52.9412  52.9412  53.2449  53.2449
    53.2449  53.2449  53.4181  53.4181  53.6409  53.6409  53.8039  53.8039
    53.8039  53.8039  53.9104  53.9104  54.3200  54.3201  54.5985  54.5985
    54.9999  54.9999  54.9999  54.9999  55.1314  55.1314  55.2317  55.2317
    55.2317  55.2317  55.4322  55.4322  55.4661  55.4661  55.5072  55.5072
    56.0937  56.0937  56.0937  56.0937  56.2178  56.2178  56.4327  56.4327

     the Fermi energy is    14.7606 ev

!    total energy              =   -4148.32858593 Ry
     Harris-Foulkes estimate   =   -4148.32858598 Ry
     estimated scf accuracy    <       0.00000006 Ry

     The total energy is the sum of the following terms:

     one-electron contribution =   -1009.78091601 Ry
     hartree contribution      =     745.82464479 Ry
     xc contribution           =   -1140.44981075 Ry
     ewald contribution        =   -2743.92224506 Ry
     Hubbard energy            =       0.00000000 Ry
     smearing contrib. (-TS)   =      -0.00025890 Ry

     total magnetization       =     0.00 Bohr mag/cell
     absolute magnetization    =     0.00 Bohr mag/cell

     convergence has been achieved in  14 iterations

     Writing output data file pwscf.save

     General routines

     Parallel routines
     Hubbard U routines

   This run was terminated on:   8:34:43   9Feb2014

   JOB DONE.