     Program PWSCF v.5.0.2 (svn rev. 9656) starts on  6May2014 at  5: 0:50

     Current dimensions of program PWSCF are:
     Max number of different atomic species (ntypx) = 10
     Max number of k-points (npk) =  40000
     Max angular momentum in pseudopotentials (lmaxx) =  3
     Reading input from pwscf.in
Warning: card &CELL ignored
Warning: card / ignored

     Subspace diagonalization in iterative solution of the eigenvalue problem:
     a serial algorithm will be used

     bravais-lattice index     =            0
     lattice parameter (alat)  =      11.7919  a.u.
     unit-cell volume          =    7123.6633 (a.u.)^3
     number of atoms/cell      =           30
     number of atomic types    =            3
     number of electrons       =       240.00
     number of Kohn-Sham states=          348
     kinetic-energy cutoff     =      40.0000  Ry
     charge density cutoff     =     500.0000  Ry
     convergence threshold     =      1.0E-06
     mixing beta               =       0.7000
     number of iterations used =            8  plain     mixing
     Exchange-correlation      = SLA  PW   PBE  PBE ( 1 4 3 4 0)
     EXX-fraction              =        0.00
     nstep                     =           50

     celldm(1)=  11.791891  celldm(2)=   0.000000  celldm(3)=   0.000000
     celldm(4)=   0.000000  celldm(5)=   0.000000  celldm(6)=   0.000000

     crystal axes: (cart. coord. in units of alat)
               a(1) = (   1.000000   0.000000   0.000000 )
               a(2) = (   0.000000   1.026665   0.000000 )
               a(3) = (   0.000000   0.000000   4.231793 )

     reciprocal axes: (cart. coord. in units 2 pi/alat)
               b(1) = (  1.000000  0.000000  0.000000 )
               b(2) = (  0.000000  0.974028  0.000000 )
               b(3) = (  0.000000  0.000000  0.236306 )

     PseudoPot. # 1 for O  read from file:
     /home/camp/zhonxu/pseudo/o_pbe_v1.01.uspp.F.UPF
     MD5 check sum: 2bcb18d16ea4b960afae9ec6d52f22d2
     Pseudo is Ultrasoft + core correction, Zval =  6.0
     Generated by new atomic code, or converted to UPF format
     Using radial grid of  737 points,  5 beta functions with:
                l(1) =   0
                l(2) =   0
                l(3) =   1
                l(4) =   1
                l(5) =   2
     Q(r) pseudized with  8 coefficients,  rinner =    0.900   0.900   0.900
                                                       0.900   0.900

     PseudoPot. # 2 for Ru read from file:
     /home/camp/zhonxu/pseudo/ru_pbe_v1.uspp.F.UPF
     MD5 check sum: df00be1c11b23341d9806d8f1dfa10cf
     Pseudo is Ultrasoft + core correction, Zval = 16.0
     Generated by new atomic code, or converted to UPF format
     Using radial grid of  967 points,  6 beta functions with:
                l(1) =   0
                l(2) =   0
                l(3) =   1
                l(4) =   1
                l(5) =   2
                l(6) =   2
     Q(r) pseudized with  8 coefficients,  rinner =    1.300   1.300   1.300
                                                       1.300   1.300

     PseudoPot. # 3 for H  read from file:
     /home/camp/zhonxu/pseudo/h_pbe_v1.uspp.F.UPF
     MD5 check sum: 3408e3ff4ec8b0a4e358431e7e038a48
     Pseudo is Ultrasoft, Zval =  1.0
     Generated by new atomic code, or converted to UPF format
     Using radial grid of  615 points,  2 beta functions with:
                l(1) =   0
                l(2) =   0
     Q(r) pseudized with  8 coefficients,  rinner =    0.700

     atomic species   valence    mass     pseudopotential
        O0             6.00    15.99940     O ( 1.00)
        Ru1           16.00   101.07000     Ru( 1.00)
        H2             1.00     1.00794     H ( 1.00)

     Simplified LDA+U calculation (l_max = 2) with parameters (eV):
     atomic species    L          U    alpha       J0     beta
        Ru1            2     5.0000   0.0000   0.0000   0.0000

     No symmetry found

   Cartesian axes

     site n.     atom                  positions (alat units)
         1           O0  tau(   1) = (   0.0000000   0.0000000   1.6080390  )
         2           O0  tau(   2) = (   0.0000000   0.5133323   1.7023233  )
         3           Ru1 tau(   3) = (   0.2500000   0.5133323   1.9175523  )
         4           Ru1 tau(   4) = (   0.0000000   0.0000000   1.9215302  )
         5           O0  tau(   5) = (   0.2500000   0.8315984   1.9195836  )
         6           O0  tau(   6) = (   0.2500000   0.1950663   1.9193297  )
         7           O0  tau(   7) = (   0.0000000   0.5133323   2.1106490  )
         8           O0  tau(   8) = (   0.0000000   0.0000000   2.2345136  )
         9           Ru1 tau(   9) = (   0.2500000   0.0000000   2.4487269  )
        10           Ru1 tau(  10) = (   0.0000000   0.5133323   2.4113179  )
        11           O0  tau(  11) = (   0.2500000   0.7083986   2.4387399  )
        12           O0  tau(  12) = (   0.2500000   0.3182660   2.4402210  )
        13           O0  tau(  13) = (   0.0000000   0.0000000   2.6238385  )
        14           O0  tau(  14) = (   0.5000000   0.0000000   1.6080390  )
        15           O0  tau(  15) = (   0.5000000   0.5133323   1.7023233  )
        16           Ru1 tau(  16) = (   0.7500000   0.5133323   1.9175523  )
        17           Ru1 tau(  17) = (   0.5000000   0.0000000   1.9215302  )
        18           O0  tau(  18) = (   0.7500000   0.8315984   1.9195836  )
        19           O0  tau(  19) = (   0.7500000   0.1950663   1.9193297  )
        20           O0  tau(  20) = (   0.5000000   0.5133323   2.1106490  )
        21           O0  tau(  21) = (   0.5000000   0.0000000   2.2345136  )
        22           Ru1 tau(  22) = (   0.7500000   0.0000000   2.4487269  )
        23           Ru1 tau(  23) = (   0.5000000   0.5133323   2.4113179  )
        24           O0  tau(  24) = (   0.7500000   0.7083986   2.4387399  )
        25           O0  tau(  25) = (   0.7500000   0.3182660   2.4401787  )
        26           O0  tau(  26) = (   0.5000000   0.0000000   2.6238385  )
        27           H2  tau(  27) = (  -0.0004100   0.6466653   1.6162063  )
        28           H2  tau(  28) = (   0.4995900   0.6466653   1.6162063  )
        29           H2  tau(  29) = (   0.1464700   0.0296706   1.5559879  )
        30           H2  tau(  30) = (   0.6464700   0.0296706   1.5559879  )

     number of k points=    10  Methfessel-Paxton smearing, width (Ry)=  0.0100
                       cart. coord. in units 2pi/alat
        k(    1) = (   0.0000000   0.0000000   0.0000000), wk =   0.1250000
        k(    2) = (   0.0000000   0.2435070   0.0000000), wk =   0.2500000
        k(    3) = (   0.0000000  -0.4870139   0.0000000), wk =   0.1250000
        k(    4) = (   0.2500000   0.0000000   0.0000000), wk =   0.2500000
        k(    5) = (   0.2500000   0.2435070   0.0000000), wk =   0.2500000
        k(    6) = (   0.2500000  -0.4870139   0.0000000), wk =   0.2500000
        k(    7) = (  -0.5000000   0.0000000   0.0000000), wk =   0.1250000
        k(    8) = (  -0.5000000   0.2435070   0.0000000), wk =   0.2500000
        k(    9) = (  -0.5000000  -0.4870139   0.0000000), wk =   0.1250000
        k(   10) = (  -0.2500000   0.2435070   0.0000000), wk =   0.2500000

     Largest allocated arrays     est. size (Mb)     dimensions
     Largest temporary arrays     est. size (Mb)     dimensions

     Check: negative/imaginary core charge=   -0.000003    0.000000

     Initial potential from superposition of free atoms
     Check: negative starting charge=   -0.522083

     starting charge  231.99981, renormalised to  240.00000

     negative rho (up, down):  0.540E+00 0.000E+00
     Number of +U iterations with fixed ns =  0
     Starting occupations:
 --- enter write_ns ---
 LDA+U parameters:
U( 2)     =  5.00000000
alpha( 2) =  0.00000000
atom    3   Tr[ns(na)] =   6.00000
    eigenvalues:
  0.600  0.600  0.600  0.600  0.600
    eigenvectors:
  1.000  0.000  0.000  0.000  0.000
  0.000  1.000  0.000  0.000  0.000
  0.000  0.000  1.000  0.000  0.000
  0.000  0.000  0.000  1.000  0.000
  0.000  0.000  0.000  0.000  1.000
    occupations:
  0.600  0.000  0.000  0.000  0.000
  0.000  0.600  0.000  0.000  0.000
  0.000  0.000  0.600  0.000  0.000
  0.000  0.000  0.000  0.600  0.000
  0.000  0.000  0.000  0.000  0.600
atom    4   Tr[ns(na)] =   6.00000
    eigenvalues:
  0.600  0.600  0.600  0.600  0.600
    eigenvectors:
  1.000  0.000  0.000  0.000  0.000
  0.000  1.000  0.000  0.000  0.000
  0.000  0.000  1.000  0.000  0.000
  0.000  0.000  0.000  1.000  0.000
  0.000  0.000  0.000  0.000  1.000
    occupations:
  0.600  0.000  0.000  0.000  0.000
  0.000  0.600  0.000  0.000  0.000
  0.000  0.000  0.600  0.000  0.000
  0.000  0.000  0.000  0.600  0.000
  0.000  0.000  0.000  0.000  0.600
atom    9   Tr[ns(na)] =   6.00000
    eigenvalues:
  0.600  0.600  0.600  0.600  0.600
    eigenvectors:
  1.000  0.000  0.000  0.000  0.000
  0.000  1.000  0.000  0.000  0.000
  0.000  0.000  1.000  0.000  0.000
  0.000  0.000  0.000  1.000  0.000
  0.000  0.000  0.000  0.000  1.000
    occupations:
  0.600  0.000  0.000  0.000  0.000
  0.000  0.600  0.000  0.000  0.000
  0.000  0.000  0.600  0.000  0.000
  0.000  0.000  0.000  0.600  0.000
  0.000  0.000  0.000  0.000  0.600
atom   10   Tr[ns(na)] =   6.00000
    eigenvalues:
  0.600  0.600  0.600  0.600  0.600
    eigenvectors:
  1.000  0.000  0.000  0.000  0.000
  0.000  1.000  0.000  0.000  0.000
  0.000  0.000  1.000  0.000  0.000
  0.000  0.000  0.000  1.000  0.000
  0.000  0.000  0.000  0.000  1.000
    occupations:
  0.600  0.000  0.000  0.000  0.000
  0.000  0.600  0.000  0.000  0.000
  0.000  0.000  0.600  0.000  0.000
  0.000  0.000  0.000  0.600  0.000
  0.000  0.000  0.000  0.000  0.600
atom   16   Tr[ns(na)] =   6.00000
    eigenvalues:
  0.600  0.600  0.600  0.600  0.600
    eigenvectors:
  1.000  0.000  0.000  0.000  0.000
  0.000  1.000  0.000  0.000  0.000
  0.000  0.000  1.000  0.000  0.000
  0.000  0.000  0.000  1.000  0.000
  0.000  0.000  0.000  0.000  1.000
    occupations:
  0.600  0.000  0.000  0.000  0.000
  0.000  0.600  0.000  0.000  0.000
  0.000  0.000  0.600  0.000  0.000
  0.000  0.000  0.000  0.600  0.000
  0.000  0.000  0.000  0.000  0.600
atom   17   Tr[ns(na)] =   6.00000
    eigenvalues:
  0.600  0.600  0.600  0.600  0.600
    eigenvectors:
  1.000  0.000  0.000  0.000  0.000
  0.000  1.000  0.000  0.000  0.000
  0.000  0.000  1.000  0.000  0.000
  0.000  0.000  0.000  1.000  0.000
  0.000  0.000  0.000  0.000  1.000
    occupations:
  0.600  0.000  0.000  0.000  0.000
  0.000  0.600  0.000  0.000  0.000
  0.000  0.000  0.600  0.000  0.000
  0.000  0.000  0.000  0.600  0.000
  0.000  0.000  0.000  0.000  0.600
atom   22   Tr[ns(na)] =   6.00000
    eigenvalues:
  0.600  0.600  0.600  0.600  0.600
    eigenvectors:
  1.000  0.000  0.000  0.000  0.000
  0.000  1.000  0.000  0.000  0.000
  0.000  0.000  1.000  0.000  0.000
  0.000  0.000  0.000  1.000  0.000
  0.000  0.000  0.000  0.000  1.000
    occupations:
  0.600  0.000  0.000  0.000  0.000
  0.000  0.600  0.000  0.000  0.000
  0.000  0.000  0.600  0.000  0.000
  0.000  0.000  0.000  0.600  0.000
[...]
  0.000  0.022  0.659  0.002  0.000
  0.043 -0.001  0.002  0.979  0.000
  0.002 -0.001  0.000  0.000  0.552
atom    9   Tr[ns(na)] =   7.26434
    eigenvalues:
  0.562  0.583  0.757  0.861  0.870
    eigenvectors:
  0.000  0.136  0.002  0.487  0.375
  1.000  0.000  0.000  0.000  0.000
  0.000  0.000  0.997  0.002  0.001
  0.000  0.864  0.001  0.076  0.060
  0.000  0.000  0.000  0.436  0.564
    occupations:
  0.826  0.001 -0.006 -0.096  0.004
  0.001  0.562  0.001  0.000  0.001
 -0.006  0.001  0.757  0.001  0.000
 -0.096  0.000  0.001  0.622 -0.002
  0.004  0.001  0.000 -0.002  0.866
atom   10   Tr[ns(na)] =   7.27403
    eigenvalues:
  0.512  0.528  0.767  0.859  0.970
    eigenvectors:
  0.986  0.000  0.000  0.000  0.014
  0.000  0.000  0.000  1.000  0.000
  0.000  0.000  1.000  0.000  0.000
  0.014  0.000  0.000  0.000  0.986
  0.000  1.000  0.000  0.000  0.000
    occupations:
  0.518  0.000  0.001  0.053  0.000
  0.000  0.859  0.001  0.000 -0.001
  0.001  0.001  0.767 -0.003 -0.000
  0.053  0.000 -0.003  0.964 -0.000
  0.000 -0.001 -0.000 -0.000  0.528
atom   16   Tr[ns(na)] =   7.26148
    eigenvalues:
  0.500  0.549  0.717  0.889  0.975
    eigenvectors:
  0.000  0.184  0.008  0.000  0.808
  1.000  0.000  0.000  0.000  0.000
  0.000  0.001  0.986  0.000  0.013
  0.000  0.815  0.006  0.000  0.179
  0.000  0.000  0.000  1.000  0.000
    occupations:
  0.895  0.000  0.029 -0.163 -0.000
  0.000  0.501 -0.000 -0.000 -0.005
  0.029 -0.000  0.720 -0.008  0.000
 -0.163 -0.000 -0.008  0.626 -0.000
 -0.000 -0.005  0.000 -0.000  0.889
atom   17   Tr[ns(na)] =   7.24419
    eigenvalues:
  0.552  0.606  0.656  0.824  0.984
    eigenvectors:
  0.001  0.986  0.000  0.000  0.013
  0.000  0.000  0.018  0.982  0.000
  0.000  0.000  0.982  0.018  0.000
  0.000  0.013  0.000  0.000  0.987
  0.999  0.001  0.000  0.000  0.000
    occupations:
  0.611 -0.001  0.000  0.043  0.002
 -0.001  0.821  0.022 -0.001 -0.001
  0.000  0.022  0.659  0.002  0.000
  0.043 -0.001  0.002  0.979  0.000
  0.002 -0.001  0.000  0.000  0.552
atom   22   Tr[ns(na)] =   7.26445
    eigenvalues:
  0.562  0.583  0.757  0.861  0.870
    eigenvectors:
  0.000  0.136  0.002  0.486  0.376
  1.000  0.000  0.000  0.000  0.000
  0.000  0.000  0.997  0.002  0.001
  0.000  0.864  0.001  0.075  0.060
  0.000  0.000  0.000  0.436  0.564
    occupations:
  0.826  0.001 -0.006 -0.096  0.004
  0.001  0.562  0.001  0.000  0.001
 -0.006  0.001  0.757  0.001  0.000
 -0.096  0.000  0.001  0.622 -0.002
  0.004  0.001  0.000 -0.002  0.866
atom   23   Tr[ns(na)] =   7.27444
    eigenvalues:
  0.512  0.528  0.767  0.859  0.970
    eigenvectors:
  0.986  0.000  0.000  0.000  0.014
  0.000  0.000  0.000  1.000  0.000
  0.000  0.000  1.000  0.000  0.000
  0.014  0.000  0.000  0.000  0.986
  0.000  1.000  0.000  0.000  0.000
    occupations:
  0.518  0.000  0.001  0.053  0.000
  0.000  0.859  0.001  0.000 -0.001
  0.001  0.001  0.767 -0.003 -0.000
  0.053  0.000 -0.003  0.964 -0.000
  0.000 -0.001 -0.000 -0.000  0.528
N of occupied +U levels =  58.0891813
 --- exit write_ns ---

     Threshold (ethr) on eigenvalues was too large:
     Diagonalizing with lowered threshold

     Davidson diagonalization with overlap
     ethr =  2.49E-08,  avg # of iterations =  1.8

[...]

     total energy              =   -2128.69000658 Ry
     Harris-Foulkes estimate   =   -2128.69000658 Ry
     estimated scf accuracy    <       0.00000002 Ry

     iteration # 15     ecut=    40.00 Ry     beta=0.70
     Davidson diagonalization with overlap
     ethr =  8.14E-12,  avg # of iterations =  1.0

     negative rho (up, down):  0.570E+00 0.000E+00

     End of self-consistent calculation
 --- enter write_ns ---
 LDA+U parameters:
U( 2)     =  5.00000000
alpha( 2) =  0.00000000
atom    3   Tr[ns(na)] =   7.26340
    eigenvalues:
  0.500  0.549  0.717  0.890  0.975
    eigenvectors:
  0.000  0.184  0.008  0.000  0.808
  1.000  0.000  0.000  0.000  0.000
  0.000  0.001  0.986  0.000  0.013
  0.000  0.815  0.006  0.000  0.179
  0.000  0.000  0.000  1.000  0.000
    occupations:
  0.895  0.000  0.029 -0.163 -0.000
  0.000  0.501 -0.000 -0.000 -0.005
  0.029 -0.000  0.720 -0.008  0.000
 -0.163 -0.000 -0.008  0.626 -0.000
 -0.000 -0.005  0.000 -0.000  0.890
atom    4   Tr[ns(na)] =   7.24505
    eigenvalues:
  0.552  0.606  0.656  0.824  0.984
    eigenvectors:
  0.001  0.986  0.000  0.000  0.013
  0.000  0.000  0.018  0.982  0.000
  0.000  0.000  0.982  0.018  0.000
  0.000  0.013  0.000  0.000  0.987
  0.999  0.001  0.000  0.000  0.000
    occupations:
  0.611 -0.001  0.000  0.043  0.002
 -0.001  0.821  0.022 -0.001 -0.001
  0.000  0.022  0.659  0.002  0.000
  0.043 -0.001  0.002  0.979  0.000
  0.002 -0.001  0.000  0.000  0.552
atom    9   Tr[ns(na)] =   7.26279
    eigenvalues:
  0.562  0.583  0.757  0.860  0.869
    eigenvectors:
  0.000  0.136  0.002  0.495  0.367
  1.000  0.000  0.000  0.000  0.000
  0.000  0.000  0.997  0.002  0.001
  0.000  0.864  0.001  0.077  0.058
  0.000  0.000  0.000  0.426  0.574
    occupations:
  0.826  0.001 -0.006 -0.096  0.004
  0.001  0.562  0.001  0.000  0.001
 -0.006  0.001  0.757  0.001  0.000
 -0.096  0.000  0.001  0.622 -0.002
  0.004  0.001  0.000 -0.002  0.865
atom   10   Tr[ns(na)] =   7.27351
    eigenvalues:
  0.512  0.528  0.767  0.859  0.970
    eigenvectors:
  0.986  0.000  0.000  0.000  0.014
  0.000  0.000  0.000  1.000  0.000
  0.000  0.000  1.000  0.000  0.000
  0.014  0.000  0.000  0.000  0.986
  0.000  1.000  0.000  0.000  0.000
    occupations:
  0.518  0.000  0.001  0.053  0.000
  0.000  0.859  0.001  0.000 -0.001
  0.001  0.001  0.767 -0.003 -0.000
  0.053  0.000 -0.003  0.964 -0.000
  0.000 -0.001 -0.000 -0.000  0.528
atom   16   Tr[ns(na)] =   7.26336
    eigenvalues:
  0.500  0.549  0.717  0.890  0.975
    eigenvectors:
  0.000  0.184  0.008  0.000  0.808
  1.000  0.000  0.000  0.000  0.000
  0.000  0.001  0.986  0.000  0.013
  0.000  0.815  0.006  0.000  0.179
  0.000  0.000  0.000  1.000  0.000
    occupations:
  0.895  0.000  0.029 -0.163 -0.000
  0.000  0.501 -0.000 -0.000 -0.005
  0.029 -0.000  0.720 -0.008  0.000
 -0.163 -0.000 -0.008  0.626 -0.000
 -0.000 -0.005  0.000 -0.000  0.890
atom   17   Tr[ns(na)] =   7.24504
    eigenvalues:
  0.552  0.606  0.656  0.824  0.984
    eigenvectors:
  0.001  0.986  0.000  0.000  0.013
  0.000  0.000  0.018  0.982  0.000
  0.000  0.000  0.982  0.018  0.000
  0.000  0.013  0.000  0.000  0.987
  0.999  0.001  0.000  0.000  0.000
    occupations:
  0.611 -0.001  0.000  0.043  0.002
 -0.001  0.821  0.022 -0.001 -0.001
  0.000  0.022  0.659  0.002  0.000
  0.043 -0.001  0.002  0.979  0.000
  0.002 -0.001  0.000  0.000  0.552
atom   22   Tr[ns(na)] =   7.26281
    eigenvalues:
  0.562  0.583  0.757  0.860  0.869
    eigenvectors:
  0.000  0.136  0.002  0.495  0.367
  1.000  0.000  0.000  0.000  0.000
  0.000  0.000  0.997  0.002  0.001
  0.000  0.864  0.001  0.077  0.059
  0.000  0.000  0.000  0.427  0.573
    occupations:
  0.826  0.001 -0.006 -0.096  0.004
  0.001  0.562  0.001  0.000  0.001
 -0.006  0.001  0.757  0.001  0.000
 -0.096  0.000  0.001  0.622 -0.002
  0.004  0.001  0.000 -0.002  0.865
atom   23   Tr[ns(na)] =   7.27354
    eigenvalues:
  0.512  0.528  0.767  0.859  0.970
    eigenvectors:
  0.986  0.000  0.000  0.000  0.014
  0.000  0.000  0.000  1.000  0.000
  0.000  0.000  1.000  0.000  0.000
  0.014  0.000  0.000  0.000  0.986
  0.000  1.000  0.000  0.000  0.000
    occupations:
  0.518  0.000  0.001  0.053  0.000
  0.000  0.859  0.001  0.000 -0.001
  0.001  0.001  0.767 -0.003 -0.000
  0.053  0.000 -0.003  0.964 -0.000
  0.000 -0.001 -0.000 -0.000  0.528
N of occupied +U levels =  58.0894950
 --- exit write_ns ---

[...]

          k = 0.2500-0.4870 0.0000 ( 30468 PWs)   bands (ev):

[...]

          k =-0.2500 0.2435 0.0000 ( 30434 PWs)   bands (ev):

   -73.7981 -73.7908 -73.7545 -73.7465 -73.4843 -73.4764 -73.3274 -73.3203
   -44.1250 -44.1165 -43.8756 -43.8733 -43.8637 -43.7892 -43.7782 -43.7390
   -43.7252 -43.7015 -43.6879 -43.6803 -43.6151 -43.5540 -43.5221 -43.5196
   -43.5185 -43.3883 -43.3136 -43.2931 -43.2878 -43.2657 -43.2574 -43.1337
   -20.7554 -20.3239 -20.2646 -20.2331 -20.1603 -20.0070 -19.7892 -19.7890
   -19.6774 -19.6198 -19.5733 -19.3480 -19.3017 -19.2299 -19.1425 -19.0418
   -19.0219 -18.8729  -9.3733  -8.9162  -8.8927  -8.7174  -8.5664  -8.3884
    -8.3091  -8.2545  -7.8324  -7.8221  -7.7315  -7.6697  -7.5280  -7.4581
    -7.4264  -7.4157  -7.3500  -7.1980  -6.9650  -6.7742  -6.7286  -6.4500
    -6.2554  -6.2362  -6.1089  -5.9884  -5.9365  -5.7590  -5.6511  -5.5866
    -5.4862  -5.4640  -5.3603  -5.2023  -5.1132  -5.0780  -4.9499  -4.9388
    -4.8153  -4.8076  -4.6483  -4.5332  -4.3231  -4.2280  -4.1568  -4.1035
    -4.0267  -3.8752  -3.8321  -3.5773  -3.5020  -3.2480  -3.2007  -2.9183
    -2.7860  -2.6644  -2.5022  -2.4997  -2.3707  -2.3579  -2.2987  -2.1359
    -2.1230  -1.9937  -1.9355  -1.9102  -1.6328  -1.5724  -1.4546  -1.2222
    -0.9688  -0.7551  -0.6595  -0.5396  -0.4346  -0.3104  -0.1889   0.1032
     0.9539   1.1128   1.8339   1.9295   2.0289   2.4920   2.6238   2.8953
     3.0881   3.3197   3.5050   3.5074   3.5883   3.7173   3.9338   3.9628
     4.0381   4.4015   4.6260   5.0668   5.5271   5.7072   5.7727   6.0490
     6.1150   6.3713   6.5159   6.5171   6.7640   6.8512   6.9270   7.1568
     7.4596   7.5197   7.8162   7.9020   7.9440   8.2077   8.2428   8.3557
     8.4913   8.5537   8.7283   8.7495   8.8460   9.0151   9.1773   9.2350
     9.3103   9.5031   9.5268   9.7910   9.7940   9.9907   9.9925  10.0715
    10.0777  10.2803  10.3262  10.4105  10.4428  10.5941  10.6286  10.8034
    10.8467  10.8902  11.0622  11.1764  11.3224  11.3648  11.4623  11.5421
    11.5827  11.6641  11.7219  11.8329  11.8955  12.0002  12.0328  12.0975
    12.1730  12.3158  12.3957  12.4538  12.5457  12.5924  12.6855  12.7243
    12.7857  12.8930  12.9114  12.9856  13.0361  13.1566  13.2295  13.3734
    13.3758  13.4789  13.6321  13.6705  13.7232  13.7828  13.8665  13.9998
    14.0440  14.1192  14.2173  14.3557  14.3636  14.4225  14.5760  14.5958
    14.6289  14.7632  14.8561  14.9490  14.9888  15.0617  15.0958  15.2312
    15.2734  15.3971  15.4778  15.5186  15.6688  15.7321  15.7631  15.8124
    15.8249  15.9291  15.9445  15.9807  16.0278  16.0962  16.1614  16.1803
    16.2984  16.4228  16.4559  16.5440  16.5961  16.7169  16.7199  16.8309
    16.8620  16.8854  17.0177  17.0355  17.1346  17.2197  17.3246  17.4144
    17.4147  17.4801  17.5042  17.5872  17.6303  17.6427  17.7139  17.8209
    17.8828  17.8868  17.9792  18.0037  18.0628  18.1485  18.1641  18.3208
    18.3215  18.4494  18.5497  18.6402  18.6541  18.7427  18.7616  18.8818
    18.9798  19.0317  19.1095  19.1850  19.2479  19.2738  19.3788  19.4164
    19.4797  19.6203  19.6895  19.7737  19.8463  19.8527  19.9122  20.0126
    20.1132  20.2001  20.2490  20.4355  20.4403  20.5858  20.6682  20.7358
    20.7877  20.8222  20.9038  20.9105  21.0156  21.0835  21.0931  21.1281
    21.2468  21.2588  21.3268  21.3540  21.3881  21.4644  21.4966  21.6265
    21.6785  21.7044  21.8277  21.8641

     the Fermi energy is    -1.1086 ev

!    total energy              =   -2128.69000658 Ry
     Harris-Foulkes estimate   =   -2128.69000658 Ry
     estimated scf accuracy    <          3.5E-09 Ry

     The total energy is the sum of the following terms:

     one-electron contribution =  -24519.08757852 Ry
     hartree contribution      =   12282.83398431 Ry
     xc contribution           =    -330.90110338 Ry
     ewald contribution        =   10435.94235993 Ry
     Hubbard energy            =       2.52094732 Ry
     smearing contrib. (-TS)   =       0.00138375 Ry

     convergence has been achieved in  15 iterations

     Forces acting on atoms (Ry/au):

     negative rho (up, down):  0.570E+00 0.000E+00
     atom    1 type  1   force =    -0.00441686   -0.00840724    0.00033543
     atom    2 type  1   force =    -0.00017080    0.00368727   -0.00018001
     atom    3 type  2   force =    -0.00021777    0.00417380   -0.00029106
     atom    4 type  2   force =     0.00256910    0.00482162    0.00037512
     atom    5 type  1   force =     0.00015692   -0.03500815    0.00014746
     atom    6 type  1   force =     0.00294312    0.03485649   -0.00000730
     atom    7 type  1   force =    -0.00004917   -0.00217479    0.00008452
     atom    8 type  1   force =     0.00017380   -0.00097893    0.00066448
     atom    9 type  2   force =     0.00076783    0.00125935    0.00007236
     atom   10 type  2   force =     0.00011771   -0.00104195   -0.00016520
     atom   11 type  1   force =    -0.00021486    0.02025235   -0.00014325
     atom   12 type  1   force =     0.00016929   -0.02100948   -0.00019686
     atom   13 type  1   force =    -0.00164132   -0.00033562   -0.00026074
     atom   14 type  1   force =    -0.00442105   -0.00840878    0.00033252
     atom   15 type  1   force =    -0.00016040    0.00368766   -0.00018162
     atom   16 type  2   force =    -0.00021738    0.00416988   -0.00028830
     atom   17 type  2   force =     0.00257020    0.00482181    0.00037112
     atom   18 type  1   force =     0.00015265   -0.03501256    0.00014650
     atom   19 type  1   force =     0.00293861    0.03486041   -0.00000894
     atom   20 type  1   force =    -0.00004304   -0.00217533    0.00007178
     atom   21 type  1   force =     0.00016735   -0.00097842    0.00067586
     atom   22 type  2   force =     0.00082050    0.00126142    0.00005987
     atom   23 type  2   force =     0.00011189   -0.00104137   -0.00015888
     atom   24 type  1   force =    -0.00021050    0.02024896   -0.00013993
     atom   25 type  1   force =     0.00017440   -0.02101109   -0.00018198
     atom   26 type  1   force =    -0.00164736   -0.00033695   -0.00024884
     atom   27 type  3   force =     0.00001699    0.00004933   -0.00005355
     atom   28 type  3   force =     0.00001630    0.00004938   -0.00005421
     atom   29 type  3   force =    -0.00023163   -0.00014044   -0.00038790
     atom   30 type  3   force =    -0.00022454   -0.00013860   -0.00038842

     Total force =     0.001564     Total SCF correction =     0.000133

     bfgs converged in  16 scf cycles and  15 bfgs steps
     (criteria: energy < 0.10E-03, force < 0.10E-02)

     End of BFGS Geometry Optimization

     Final energy   =   -2128.6900065816 Ry
Begin final coordinates

ATOMIC_POSITIONS (crystal)
O0       0.000000000   0.000000000   0.381074003    0   0   1
O0       0.000000000   0.500000000   0.402879261    0   0   1
Ru1      0.250000000   0.500000000   0.453050940    0   0   1
Ru1      0.000000000   0.000000000   0.454616719    0   0   1
O0       0.250000000   0.810000000   0.453902417    0   0   1
O0       0.250000000   0.190000000   0.453756133    0   0   1
O0       0.000000000   0.500000000   0.499678914    0   0   1
O0       0.000000000   0.000000000   0.527207572    0   0   1
Ru1      0.250000000   0.000000000   0.578444666    0   0   1
Ru1      0.000000000   0.500000000   0.569783483    0   0   1
O0       0.250000000   0.690000000   0.575608810    0   0   1
O0       0.250000000   0.310000000   0.575832813    0   0   1
O0       0.000000000   0.000000000   0.619948954    0   0   1
O0       0.500000000   0.000000000   0.381074610    0   0   1
O0       0.500000000   0.500000000   0.402879466    0   0   1
Ru1      0.750000000   0.500000000   0.453050935    0   0   1
Ru1      0.500000000   0.000000000   0.454617040    0   0   1
O0       0.750000000   0.810000000   0.453902507    0   0   1
O0       0.750000000   0.190000000   0.453756281    0   0   1
O0       0.500000000   0.500000000   0.499679106    0   0   1
O0       0.500000000   0.000000000   0.527206908    0   0   1
Ru1      0.750000000   0.000000000   0.578444469    0   0   1
Ru1      0.500000000   0.500000000   0.569783426    0   0   1
O0       0.750000000   0.690000000   0.575607952    0   0   1
O0       0.750000000   0.310000000   0.575829994    0   0   1
O0       0.500000000   0.000000000   0.619945953    0   0   1
H2      -0.000648094   0.621476646   0.379948248
H2       0.499352571   0.621476536   0.379948434
H2       0.146807347   0.027453974   0.368705140
H2       0.646805505   0.027452738   0.368704844
End final coordinates

     General routines

     Parallel routines
     Hubbard U routines

   This run was terminated on:  23: 9:23   6May2014

   JOB DONE.
Running PBS batch system epilogue script
Job id: 340784.audhumbla.fysik.dtu.dk
Username: zhonxu
Groupname: campgst
Jobname: RuO2/Eads-2-layers/bare-U-5.0
Sessionid: 14335
Queuename: verylong
Accounting:
This job has allocated the following 16 nodes:
b041 b041 b041 b041 b041 b041 b041 b041 b033 b033 b033 b033 b033 b033 b033 b033
Finished epilogue job 340784.audhumbla.fysik.dtu.dk for zhonxu