     Program PWSCF v.5.0.2 (svn rev. 9656) starts on  5May2014 at 20:22:43

     Current dimensions of program PWSCF are:
     Max number of different atomic species (ntypx) = 10
     Max number of k-points (npk) =  40000
     Max angular momentum in pseudopotentials (lmaxx) =  3
     Reading input from pwscf.in
Warning: card &CELL ignored
Warning: card / ignored

     Subspace diagonalization in iterative solution of the eigenvalue problem:
     a serial algorithm will be used

     bravais-lattice index     =            0
     lattice parameter (alat)  =      12.0187  a.u.
     unit-cell volume          =    7280.5819 (a.u.)^3
     number of atoms/cell      =           30
     number of atomic types    =            3
     number of electrons       =       232.00
     number of Kohn-Sham states=          348
     kinetic-energy cutoff     =      40.0000  Ry
     charge density cutoff     =     500.0000  Ry
     convergence threshold     =      1.0E-06
     mixing beta               =       0.7000
     number of iterations used =            8  plain     mixing
     Exchange-correlation      = SLA  PW   PBE  PBE ( 1 4 3 4 0)
     EXX-fraction              =        0.00
     nstep                     =           50

     celldm(1)=  12.018658  celldm(2)=   0.000000  celldm(3)=   0.000000
     celldm(4)=   0.000000  celldm(5)=   0.000000  celldm(6)=   0.000000

     crystal axes: (cart. coord. in units of alat)
               a(1) = (   1.000000   0.000000   0.000000 )
               a(2) = (   0.000000   1.009517   0.000000 )
               a(3) = (   0.000000   0.000000   4.154171 )

     reciprocal axes: (cart. coord. in units 2 pi/alat)
               b(1) = (  1.000000  0.000000  0.000000 )
               b(2) = (  0.000000  0.990572  0.000000 )
               b(3) = (  0.000000  0.000000  0.240722 )

     PseudoPot. # 1 for O  read from file:
     /home/camp/zhonxu/pseudo/o_pbe_v1.01.uspp.F.UPF
     MD5 check sum: 2bcb18d16ea4b960afae9ec6d52f22d2
     Pseudo is Ultrasoft + core correction, Zval =  6.0
     Generated by new atomic code, or converted to UPF format
     Using radial grid of  737 points,  5 beta functions with:
                l(1) =   0
                l(2) =   0
                l(3) =   1
                l(4) =   1
                l(5) =   2
     Q(r) pseudized with  8 coefficients,  rinner =    0.900   0.900   0.900
                                                       0.900   0.900

     PseudoPot. # 2 for Ir read from file:
     /home/camp/zhonxu/pseudo/ir_pbe_v1.uspp.F.UPF
     MD5 check sum: abf987a9674477536ede83817f8f8b70
     Pseudo is Ultrasoft + core correction, Zval = 15.0
     Generated by new atomic code, or converted to UPF format
     Using radial grid of  983 points,  7 beta functions with:
                l(1) =   0
                l(2) =   0
                l(3) =   1
                l(4) =   1
                l(5) =   1
                l(6) =   2
                l(7) =   2
     Q(r) pseudized with  8 coefficients,  rinner =    1.350   1.350   1.350
                                                       1.350   1.350

     PseudoPot. # 3 for H  read from file:
     /home/camp/zhonxu/pseudo/h_pbe_v1.uspp.F.UPF
     MD5 check sum: 3408e3ff4ec8b0a4e358431e7e038a48
     Pseudo is Ultrasoft, Zval =  1.0
     Generated by new atomic code, or converted to UPF format
     Using radial grid of  615 points,  2 beta functions with:
                l(1) =   0
                l(2) =   0
     Q(r) pseudized with  8 coefficients,  rinner =    0.700

     atomic species   valence    mass     pseudopotential
        O0             6.00    15.99940     O ( 1.00)
        Ir1           15.00   192.22000     Ir( 1.00)
        H2             1.00     1.00794     H ( 1.00)

     Simplified LDA+U calculation (l_max = 2) with parameters (eV):
     atomic species    L          U    alpha       J0     beta
        Ir1            2     2.0000   0.0000   0.0000   0.0000

     No symmetry found

   Cartesian axes

     site n.     atom                  positions (alat units)
         1           O0  tau(   1) = (   0.0000000   0.0000000   1.5730185  )
         2           O0  tau(   2) = (   0.0000000   0.5047586   1.6673182  )
         3           Ir1 tau(   3) = (   0.2500000   0.5047586   1.8780178  )
         4           Ir1 tau(   4) = (   0.0000000   0.0000000   1.8842906  )
         5           O0  tau(   5) = (   0.2500000   0.8177090   1.8825458  )
         6           O0  tau(   6) = (   0.2500000   0.1918083   1.8810503  )
         7           O0  tau(   7) = (   0.0000000   0.5047586   2.0695666  )
         8           O0  tau(   8) = (   0.0000000   0.0000000   2.1991352  )
         9           Ir1 tau(   9) = (   0.2500000   0.0000000   2.3955860  )
        10           Ir1 tau(  10) = (   0.0000000   0.5047586   2.3764768  )
        11           O0  tau(  11) = (   0.2500000   0.6965669   2.3975800  )
        12           O0  tau(  12) = (   0.2500000   0.3129503   2.3977461  )
        13           O0  tau(  13) = (   0.0000000   0.0000000   2.5806958  )
        14           O0  tau(  14) = (   0.5000000   0.0000000   1.5730185  )
        15           O0  tau(  15) = (   0.5000000   0.5047586   1.6673182  )
        16           Ir1 tau(  16) = (   0.7500000   0.5047586   1.8780178  )
        17           Ir1 tau(  17) = (   0.5000000   0.0000000   1.8842906  )
        18           O0  tau(  18) = (   0.7500000   0.8177090   1.8825458  )
        19           O0  tau(  19) = (   0.7500000   0.1918083   1.8810503  )
        20           O0  tau(  20) = (   0.5000000   0.5047586   2.0695666  )
        21           O0  tau(  21) = (   0.5000000   0.0000000   2.1991352  )
        22           Ir1 tau(  22) = (   0.7500000   0.0000000   2.3955860  )
        23           Ir1 tau(  23) = (   0.5000000   0.5047586   2.3764768  )
        24           O0  tau(  24) = (   0.7500000   0.6965669   2.3975800  )
        25           O0  tau(  25) = (   0.7500000   0.3129503   2.3977461  )
        26           O0  tau(  26) = (   0.5000000   0.0000000   2.5807374  )
        27           H2  tau(  27) = (  -0.0000500   0.6423962   1.5933324  )
        28           H2  tau(  28) = (   0.4999500   0.6423962   1.5933324  )
        29           H2  tau(  29) = (   0.1436500   0.0338188   1.5249132  )
        30           H2  tau(  30) = (   0.6436500   0.0338188   1.5249132  )

     number of k points=    10  Methfessel-Paxton smearing, width (Ry)=  0.0100
                       cart. coord. in units 2pi/alat
        k(    1) = (   0.0000000   0.0000000   0.0000000), wk =   0.1250000
        k(    2) = (   0.0000000   0.2476431   0.0000000), wk =   0.2500000
        k(    3) = (   0.0000000  -0.4952862   0.0000000), wk =   0.1250000
        k(    4) = (   0.2500000   0.0000000   0.0000000), wk =   0.2500000
        k(    5) = (   0.2500000   0.2476431   0.0000000), wk =   0.2500000
        k(    6) = (   0.2500000  -0.4952862   0.0000000), wk =   0.2500000
        k(    7) = (  -0.5000000   0.0000000   0.0000000), wk =   0.1250000
        k(    8) = (  -0.5000000   0.2476431   0.0000000), wk =   0.2500000
        k(    9) = (  -0.5000000  -0.4952862   0.0000000), wk =   0.1250000
        k(   10) = (  -0.2500000   0.2476431   0.0000000), wk =   0.2500000

     Largest allocated arrays     est. size (Mb)     dimensions
     Largest temporary arrays     est. size (Mb)     dimensions

     Check: negative/imaginary core charge=   -0.000003    0.000000

     Initial potential from superposition of free atoms
     Check: negative starting charge=   -3.334716

     starting charge  227.99968, renormalised to  232.00000

     negative rho (up, down):  0.339E+01 0.000E+00
     Number of +U iterations with fixed ns =  0
     Starting occupations:
 --- enter write_ns ---
 LDA+U parameters:
U( 2)     =  2.00000000
alpha( 2) =  0.00000000
atom    3   Tr[ns(na)] =   7.00000
    eigenvalues:
  0.700  0.700  0.700  0.700  0.700
    eigenvectors:
  1.000  0.000  0.000  0.000  0.000
  0.000  1.000  0.000  0.000  0.000
  0.000  0.000  1.000  0.000  0.000
  0.000  0.000  0.000  1.000  0.000
  0.000  0.000  0.000  0.000  1.000
    occupations:
  0.700  0.000  0.000  0.000  0.000
  0.000  0.700  0.000  0.000  0.000
  0.000  0.000  0.700  0.000  0.000
  0.000  0.000  0.000  0.700  0.000
  0.000  0.000  0.000  0.000  0.700
atom    4   Tr[ns(na)] =   7.00000
    eigenvalues:
  0.700  0.700  0.700  0.700  0.700
    eigenvectors:
  1.000  0.000  0.000  0.000  0.000
  0.000  1.000  0.000  0.000  0.000
  0.000  0.000  1.000  0.000  0.000
  0.000  0.000  0.000  1.000  0.000
  0.000  0.000  0.000  0.000  1.000
    occupations:
  0.700  0.000  0.000  0.000  0.000
  0.000  0.700  0.000  0.000  0.000
  0.000  0.000  0.700  0.000  0.000
  0.000  0.000  0.000  0.700  0.000
  0.000  0.000  0.000  0.000  0.700
atom    9   Tr[ns(na)] =   7.00000
    eigenvalues:
  0.700  0.700  0.700  0.700  0.700
    eigenvectors:
  1.000  0.000  0.000  0.000  0.000
  0.000  1.000  0.000  0.000  0.000
  0.000  0.000  1.000  0.000  0.000
  0.000  0.000  0.000  1.000  0.000
  0.000  0.000  0.000  0.000  1.000
    occupations:
  0.700  0.000  0.000  0.000  0.000
  0.000  0.700  0.000  0.000  0.000
  0.000  0.000  0.700  0.000  0.000
  0.000  0.000  0.000  0.700  0.000
  0.000  0.000  0.000  0.000  0.700
atom   10   Tr[ns(na)] =   7.00000
    eigenvalues:
  0.700  0.700  0.700  0.700  0.700
    eigenvectors:
  1.000  0.000  0.000  0.000  0.000
  0.000  1.000  0.000  0.000  0.000
  0.000  0.000  1.000  0.000  0.000
  0.000  0.000  0.000  1.000  0.000
  0.000  0.000  0.000  0.000  1.000
    occupations:
  0.700  0.000  0.000  0.000  0.000
  0.000  0.700  0.000  0.000  0.000
  0.000  0.000  0.700  0.000  0.000
  0.000  0.000  0.000  0.700  0.000
  0.000  0.000  0.000  0.000  0.700
atom   16   Tr[ns(na)] =   7.00000
    eigenvalues:
  0.700  0.700  0.700  0.700  0.700
    eigenvectors:
  1.000  0.000  0.000  0.000  0.000
  0.000  1.000  0.000  0.000  0.000
  0.000  0.000  1.000  0.000  0.000
  0.000  0.000  0.000  1.000  0.000
  0.000  0.000  0.000  0.000  1.000
    occupations:
  0.700  0.000  0.000  0.000  0.000
  0.000  0.700  0.000  0.000  0.000
  0.000  0.000  0.700  0.000  0.000
  0.000  0.000  0.000  0.700  0.000
  0.000  0.000  0.000  0.000  0.700
atom   17   Tr[ns(na)] =   7.00000
    eigenvalues:
  0.700  0.700  0.700  0.700  0.700
    eigenvectors:
  1.000  0.000  0.000  0.000  0.000
  0.000  1.000  0.000  0.000  0.000
  0.000  0.000  1.000  0.000  0.000
  0.000  0.000  0.000  1.000  0.000
  0.000  0.000  0.000  0.000  1.000
    occupations:
  0.700  0.000  0.000  0.000  0.000
  0.000  0.700  0.000  0.000  0.000
  0.000  0.000  0.700  0.000  0.000
  0.000  0.000  0.000  0.700  0.000
  0.000  0.000  0.000  0.000  0.700
atom   22   Tr[ns(na)] =   7.00000
    eigenvalues:
  0.700  0.700  0.700  0.700  0.700
    eigenvectors:
  1.000  0.000  0.000  0.000  0.000
  0.000  1.000  0.000  0.000  0.000
  0.000  0.000  1.000  0.000  0.000
  0.000  0.000  0.000  1.000  0.000
  0.000  0.000  0.000  0.000  1.000
    occupations:
  0.700  0.000  0.000  0.000  0.000
  0.000  0.700  0.000  0.000  0.000
  0.000  0.000  0.700  0.000  0.000
[...]
 -0.001  0.011  0.864 -0.000  0.000
  0.032  0.000 -0.000  0.978  0.000
  0.001 -0.001  0.000  0.000  0.619
atom    9   Tr[ns(na)] =   8.06070
    eigenvalues:
  0.649  0.665  0.849  0.888  0.979
    eigenvectors:
  0.000  0.145  0.000  0.000  0.855
  1.000  0.000  0.000  0.000  0.000
  0.000  0.000  1.000  0.000  0.000
  0.000  0.855  0.000  0.000  0.145
  0.000  0.000  0.000  1.000  0.000
    occupations:
  0.934  0.000 -0.000 -0.111 -0.001
  0.000  0.649  0.000  0.000 -0.000
 -0.000  0.000  0.849 -0.000 -0.000
 -0.111  0.000 -0.000  0.711  0.001
 -0.001 -0.000 -0.000  0.001  0.888
atom   10   Tr[ns(na)] =   8.05934
    eigenvalues:
  0.592  0.608  0.922  0.929  0.979
    eigenvectors:
  0.995  0.000  0.000  0.000  0.005
  0.000  0.000  1.000  0.000  0.000
  0.000  0.000  0.000  1.000  0.000
  0.005  0.000  0.000  0.000  0.995
  0.000  1.000  0.000  0.000  0.000
    occupations:
  0.594  0.000  0.002  0.028 -0.000
  0.000  0.922 -0.000  0.000 -0.000
  0.002 -0.000  0.929  0.000  0.000
  0.028  0.000  0.000  0.977  0.000
 -0.000 -0.000  0.000  0.000  0.608
atom   16   Tr[ns(na)] =   8.10931
    eigenvalues:
  0.603  0.627  0.890  0.966  0.969
    eigenvectors:
  0.000  0.193  0.003  0.002  0.802
  1.000  0.000  0.000  0.000  0.000
  0.000  0.000  0.996  0.000  0.003
  0.000  0.807  0.000  0.000  0.193
  0.000  0.000  0.000  0.998  0.002
    occupations:
  0.902 -0.000  0.003 -0.135  0.000
 -0.000  0.603 -0.000 -0.000 -0.006
  0.003 -0.000  0.890 -0.004  0.001
 -0.135 -0.000 -0.004  0.693 -0.000
  0.000 -0.006  0.001 -0.000  0.965
atom   17   Tr[ns(na)] =   8.08083
    eigenvalues:
  0.619  0.665  0.861  0.914  0.981
    eigenvectors:
  0.000  0.989  0.000  0.000  0.010
  0.000  0.000  0.048  0.952  0.000
  0.000  0.000  0.952  0.048  0.000
  0.000  0.010  0.000  0.000  0.990
  1.000  0.000  0.000  0.000  0.000
    occupations:
  0.669 -0.003 -0.001  0.032  0.001
 -0.003  0.912  0.011  0.000 -0.001
 -0.001  0.011  0.864 -0.000  0.000
  0.032  0.000 -0.000  0.978  0.000
  0.001 -0.001  0.000  0.000  0.619
atom   22   Tr[ns(na)] =   8.06114
    eigenvalues:
  0.649  0.665  0.849  0.888  0.979
    eigenvectors:
  0.000  0.145  0.000  0.000  0.855
  1.000  0.000  0.000  0.000  0.000
  0.000  0.000  1.000  0.000  0.000
  0.000  0.855  0.000  0.000  0.145
  0.000  0.000  0.000  1.000  0.000
    occupations:
  0.934  0.000 -0.000 -0.111 -0.001
  0.000  0.649  0.000  0.000 -0.000
 -0.000  0.000  0.849 -0.000 -0.000
 -0.111  0.000 -0.000  0.711  0.001
 -0.001 -0.000 -0.000  0.001  0.888
atom   23   Tr[ns(na)] =   8.05900
    eigenvalues:
  0.592  0.608  0.922  0.929  0.979
    eigenvectors:
  0.995  0.000  0.000  0.000  0.005
  0.000  0.000  1.000  0.000  0.000
  0.000  0.000  0.000  1.000  0.000
  0.005  0.000  0.000  0.000  0.995
  0.000  1.000  0.000  0.000  0.000
    occupations:
  0.594  0.000  0.002  0.028 -0.000
  0.000  0.922 -0.000  0.000 -0.000
  0.002 -0.000  0.929  0.000  0.000
  0.028  0.000  0.000  0.977  0.000
 -0.000 -0.000  0.000  0.000  0.608
N of occupied +U levels =  64.6210399
 --- exit write_ns ---

     Threshold (ethr) on eigenvalues was too large:
     Diagonalizing with lowered threshold

     Davidson diagonalization with overlap
     ethr =  2.67E-08,  avg # of iterations =  1.9

[...]

     total energy              =   -2073.21149956 Ry
     Harris-Foulkes estimate   =   -2073.21149957 Ry
     estimated scf accuracy    <       0.00000016 Ry

     iteration # 14     ecut=    40.00 Ry     beta=0.70
     Davidson diagonalization with overlap
     ethr =  2.22E-11,  avg # of iterations =  1.0

     negative rho (up, down):  0.313E+01 0.000E+00

     End of self-consistent calculation
 --- enter write_ns ---
 LDA+U parameters:
U( 2)     =  2.00000000
alpha( 2) =  0.00000000
atom    3   Tr[ns(na)] =   8.10816
    eigenvalues:
  0.603  0.627  0.890  0.965  0.969
    eigenvectors:
  0.000  0.193  0.003  0.002  0.802
  1.000  0.000  0.000  0.000  0.000
  0.000  0.000  0.996  0.000  0.004
  0.000  0.806  0.000  0.000  0.193
  0.000  0.000  0.000  0.998  0.002
    occupations:
  0.902 -0.000  0.003 -0.135  0.000
 -0.000  0.603 -0.000 -0.000 -0.006
  0.003 -0.000  0.890 -0.004  0.001
 -0.135 -0.000 -0.004  0.693 -0.000
  0.000 -0.006  0.001 -0.000  0.965
atom    4   Tr[ns(na)] =   8.08022
    eigenvalues:
  0.619  0.665  0.861  0.914  0.981
    eigenvectors:
  0.000  0.989  0.000  0.000  0.010
  0.000  0.000  0.048  0.952  0.000
  0.000  0.000  0.952  0.048  0.000
  0.000  0.010  0.000  0.000  0.990
  1.000  0.000  0.000  0.000  0.000
    occupations:
  0.669 -0.003 -0.001  0.032  0.001
 -0.003  0.912  0.011  0.000 -0.001
 -0.001  0.011  0.864 -0.000  0.000
  0.032  0.000 -0.000  0.978  0.000
  0.001 -0.001  0.000  0.000  0.619
atom    9   Tr[ns(na)] =   8.06173
    eigenvalues:
  0.649  0.665  0.849  0.888  0.979
    eigenvectors:
  0.000  0.145  0.000  0.000  0.855
  1.000  0.000  0.000  0.000  0.000
  0.000  0.000  1.000  0.000  0.000
  0.000  0.855  0.000  0.000  0.145
  0.000  0.000  0.000  1.000  0.000
    occupations:
  0.934  0.000 -0.000 -0.111 -0.001
  0.000  0.649  0.000  0.000 -0.000
 -0.000  0.000  0.849 -0.000 -0.000
 -0.111  0.000 -0.000  0.711  0.001
 -0.001 -0.000 -0.000  0.001  0.888
atom   10   Tr[ns(na)] =   8.06074
    eigenvalues:
  0.592  0.608  0.922  0.929  0.979
    eigenvectors:
  0.995  0.000  0.000  0.000  0.005
  0.000  0.000  1.000  0.000  0.000
  0.000  0.000  0.000  1.000  0.000
  0.005  0.000  0.000  0.000  0.995
  0.000  1.000  0.000  0.000  0.000
    occupations:
  0.594  0.000  0.002  0.028 -0.000
  0.000  0.922 -0.000  0.000 -0.000
  0.002 -0.000  0.929  0.000  0.000
  0.028  0.000  0.000  0.977  0.000
 -0.000 -0.000  0.000  0.000  0.608
atom   16   Tr[ns(na)] =   8.10814
    eigenvalues:
  0.603  0.627  0.890  0.965  0.969
    eigenvectors:
  0.000  0.193  0.003  0.002  0.802
  1.000  0.000  0.000  0.000  0.000
  0.000  0.000  0.996  0.000  0.004
  0.000  0.806  0.000  0.000  0.193
  0.000  0.000  0.000  0.998  0.002
    occupations:
  0.902 -0.000  0.003 -0.135  0.000
 -0.000  0.603 -0.000 -0.000 -0.006
  0.003 -0.000  0.890 -0.004  0.001
 -0.135 -0.000 -0.004  0.693 -0.000
  0.000 -0.006  0.001 -0.000  0.965
atom   17   Tr[ns(na)] =   8.08023
    eigenvalues:
  0.619  0.665  0.861  0.914  0.981
    eigenvectors:
  0.000  0.989  0.000  0.000  0.010
  0.000  0.000  0.048  0.952  0.000
  0.000  0.000  0.952  0.048  0.000
  0.000  0.010  0.000  0.000  0.990
  1.000  0.000  0.000  0.000  0.000
    occupations:
  0.669 -0.003 -0.001  0.032  0.001
 -0.003  0.912  0.011  0.000 -0.001
 -0.001  0.011  0.864 -0.000  0.000
  0.032  0.000 -0.000  0.978  0.000
  0.001 -0.001  0.000  0.000  0.619
atom   22   Tr[ns(na)] =   8.06167
    eigenvalues:
  0.649  0.665  0.849  0.888  0.979
    eigenvectors:
  0.000  0.145  0.000  0.000  0.855
  1.000  0.000  0.000  0.000  0.000
  0.000  0.000  1.000  0.000  0.000
  0.000  0.855  0.000  0.000  0.145
  0.000  0.000  0.000  1.000  0.000
    occupations:
  0.934  0.000 -0.000 -0.111 -0.001
  0.000  0.649  0.000  0.000 -0.000
 -0.000  0.000  0.849 -0.000 -0.000
 -0.111  0.000 -0.000  0.711  0.001
 -0.001 -0.000 -0.000  0.001  0.888
atom   23   Tr[ns(na)] =   8.06076
    eigenvalues:
  0.592  0.608  0.922  0.929  0.979
    eigenvectors:
  0.995  0.000  0.000  0.000  0.005
  0.000  0.000  1.000  0.000  0.000
  0.000  0.000  0.000  1.000  0.000
  0.005  0.000  0.000  0.000  0.995
  0.000  1.000  0.000  0.000  0.000
    occupations:
  0.594  0.000  0.002  0.028 -0.000
  0.000  0.922 -0.000  0.000 -0.000
  0.002 -0.000  0.929  0.000  0.000
  0.028  0.000  0.000  0.977  0.000
 -0.000 -0.000  0.000  0.000  0.608
N of occupied +U levels =  64.6216400
 --- exit write_ns ---

[...]

          k = 0.2500-0.4953 0.0000 ( 31088 PWs)   bands (ev):

[...]

          k =-0.2500 0.2476 0.0000 ( 31099 PWs)   bands (ev):

   -50.8804 -50.8758 -50.8640 -50.8148 -50.8076 -50.7899 -50.7378 -50.6651
   -50.6479 -50.6384 -50.6329 -50.6102 -50.6056 -50.5589 -50.5390 -50.5307
   -50.5270 -50.4709 -50.4611 -50.4524 -50.3940 -50.3834 -50.2762 -50.2654
   -21.4755 -21.0891 -21.0439 -20.9773 -20.6299 -20.4868 -20.4482 -20.4261
   -20.2998 -20.1939 -20.0908 -20.0097 -19.9017 -19.8685 -19.7401 -19.5661
   -18.7010 -18.6014  -9.9411  -9.7750  -9.7321  -9.3882  -8.9155  -8.9094
    -8.8655  -8.7364  -8.6693  -8.6319  -8.5519  -8.5067  -8.4113  -8.3746
    -8.1183  -8.0721  -7.9928  -7.7649  -7.4745  -7.4301  -7.3354  -7.1676
    -7.1212  -6.8167  -6.6884  -6.5734  -6.4600  -6.3247  -6.2319  -6.2044
    -6.0955  -6.0465  -5.9313  -5.8668  -5.8623  -5.7179  -5.5803  -5.5358
    -5.2949  -5.1946  -5.0529  -4.8706  -4.8658  -4.6603  -4.5917  -4.5381
    -4.3742  -4.2149  -4.1336  -3.7885  -3.7022  -3.4594  -3.3505  -3.2285
    -3.2072  -3.0555  -2.8344  -2.8335  -2.7233  -2.6632  -2.6388  -2.5264
    -2.5243  -2.4223  -2.3659  -2.2181  -2.0964  -2.0276  -1.8208  -1.6105
    -1.2964  -1.1555  -1.1506  -0.9352  -0.9294  -0.6874  -0.5106  -0.3697
    -0.1211   0.0682   0.9695   1.1261   1.5847   1.6621   1.7862   2.1692
     2.3771   2.6599   2.8551   2.8850   3.1749   3.2115   3.3378   3.4215
     3.7705   4.3263   4.7632   5.1744   5.4076   5.5814   5.6880   5.8805
     6.1398   6.2943   6.5453   6.5850   6.6391   6.8266   7.0541   7.0896
     7.2998   7.3772   7.4463   7.6279   7.6809   7.8735   7.9909   8.0702
     8.1599   8.3555   8.4456   8.4476   8.5707   8.7459   8.8104   8.8625
     8.9144   9.0997   9.0998   9.1241   9.1525   9.2049   9.2054   9.2367
     9.3068   9.3102   9.3161   9.3176   9.3323   9.5226   9.6228   9.6918
     9.7421   9.9006  10.0119  10.0923  10.1828  10.3085  10.3098  10.4028
    10.4207  10.4730  10.5811  10.7516  10.8047  10.8216  10.9389  11.0247
    11.0278  11.2323  11.3381  11.4178  11.5438  11.5701  11.6973  11.7400
    11.7901  11.9361  12.0605  12.1366  12.1711  12.2805  12.2910  12.3844
    12.5227  12.5995  12.6216  12.6845  12.7244  12.7927  12.8243  12.9094
    13.0601  13.0913  13.1372  13.2070  13.2860  13.3351  13.4503  13.5823
    13.5849  13.7331  13.8566  13.8704  13.9789  13.9830  14.0533  14.1284
    14.2543  14.3448  14.4067  14.4980  14.5550  14.7405  14.7430  14.8671
    14.8698  15.1890  15.1965  15.3574  15.3600  15.4934  15.5438  15.5702
    15.6190  15.7550  15.7723  15.8251  15.8674  15.9070  15.9781  16.0511
    16.0596  16.1167  16.1497  16.2589  16.3365  16.3628  16.4279  16.4322
    16.5709  16.6491  16.7059  16.7474  16.7898  16.8271  17.0808  17.1465
    17.1877  17.3496  17.3684  17.4415  17.4423  17.4818  17.5649  17.5850
    17.6513  17.7282  17.7342  17.8421  17.9036  17.9221  17.9688  17.9765
    18.1825  18.2256  18.3092  18.3794  18.4543  18.4888  18.5785  18.6146
    18.7789  18.8422  18.9223  18.9450  19.0447  19.1124  19.1309  19.1959
    19.2663  19.2842  19.3497  19.4385  19.5642  19.6099  19.7124  19.7417
    19.8314  19.9220  19.9683  20.0631  20.1156  20.2786  20.3411  20.3429
    20.4437  20.5299  20.5860  20.6277  20.6600  20.7695  20.7974  20.8682
    20.8776  20.9539  21.0088  21.1185  21.1298  21.2743  21.3257  21.3501
    21.3514  21.4258  21.4726  21.5439

     the Fermi energy is    -0.9407 ev

!    total energy              =   -2073.21149956 Ry
     Harris-Foulkes estimate   =   -2073.21149957 Ry
     estimated scf accuracy    <          5.4E-09 Ry

     The total energy is the sum of the following terms:

     one-electron contribution =  -22029.20727868 Ry
     hartree contribution      =   11056.28497856 Ry
     xc contribution           =    -569.32549600 Ry
     ewald contribution        =    9468.25959727 Ry
     Hubbard energy            =       0.77814664 Ry
     smearing contrib. (-TS)   =      -0.00144735 Ry

     convergence has been achieved in  14 iterations

     Forces acting on atoms (Ry/au):

     negative rho (up, down):  0.313E+01 0.000E+00
     atom    1 type  1   force =    -0.00748951   -0.01374412   -0.00007062
     atom    2 type  1   force =     0.00009653    0.00536521   -0.00022476
     atom    3 type  2   force =     0.00002619    0.00497486   -0.00050477
     atom    4 type  2   force =     0.00926308    0.00780447   -0.00039512
     atom    5 type  1   force =    -0.00307712   -0.01637806   -0.00010749
     atom    6 type  1   force =     0.00434757    0.01452786   -0.00004614
     atom    7 type  1   force =    -0.00037741   -0.00165830    0.00082771
     atom    8 type  1   force =    -0.00330157   -0.00048385    0.00004368
     atom    9 type  2   force =     0.00120210    0.00011217   -0.00026409
     atom   10 type  2   force =     0.00000250   -0.00141241   -0.00070107
     atom   11 type  1   force =    -0.00009937    0.01076822    0.00047986
     atom   12 type  1   force =     0.00020433   -0.01030930    0.00049128
     atom   13 type  1   force =    -0.00087633   -0.00011408   -0.00014839
     atom   14 type  1   force =    -0.00749795   -0.01374664   -0.00005717
     atom   15 type  1   force =     0.00010293    0.00536189   -0.00022216
     atom   16 type  2   force =     0.00002712    0.00497483   -0.00050322
     atom   17 type  2   force =     0.00926921    0.00780422   -0.00040312
     atom   18 type  1   force =    -0.00307380   -0.01638036   -0.00010205
     atom   19 type  1   force =     0.00435087    0.01453012   -0.00004022
     atom   20 type  1   force =    -0.00036127   -0.00165837    0.00083174
     atom   21 type  1   force =    -0.00327019   -0.00048397    0.00004747
     atom   22 type  2   force =     0.00120163    0.00011213   -0.00026854
     atom   23 type  2   force =     0.00001575   -0.00141246   -0.00070668
     atom   24 type  1   force =    -0.00009207    0.01077422    0.00047184
     atom   25 type  1   force =     0.00021156   -0.01031530    0.00048320
     atom   26 type  1   force =    -0.00085663   -0.00011399   -0.00015258
     atom   27 type  3   force =     0.00001631    0.00028228    0.00067626
     atom   28 type  3   force =     0.00001693    0.00028522    0.00067437
     atom   29 type  3   force =     0.00000409    0.00026554   -0.00005119
     atom   30 type  3   force =     0.00001451    0.00026796   -0.00005805

     Total force =     0.002381     Total SCF correction =     0.000157

     bfgs converged in   8 scf cycles and   7 bfgs steps
     (criteria: energy < 0.10E-03, force < 0.10E-02)

     End of BFGS Geometry Optimization

     Final energy   =   -2073.2114995626 Ry
Begin final coordinates

ATOMIC_POSITIONS (crystal)
O0       0.000000000   0.000000000   0.378835623    0   0   1
O0       0.000000000   0.500000000   0.401862878    0   0   1
Ir1      0.250000000   0.500000000   0.452436313    0   0   1
Ir1      0.000000000   0.000000000   0.453578635    0   0   1
O0       0.250000000   0.810000000   0.453327452    0   0   1
O0       0.250000000   0.190000000   0.452911456    0   0   1
O0       0.000000000   0.500000000   0.498691620    0   0   1
O0       0.000000000   0.000000000   0.529172983    0   0   1
Ir1      0.250000000   0.000000000   0.576207809    0   0   1
Ir1      0.000000000   0.500000000   0.572046497    0   0   1
O0       0.250000000   0.690000000   0.576470203    0   0   1
O0       0.250000000   0.310000000   0.576505727    0   0   1
O0       0.000000000   0.000000000   0.620824776    0   0   1
O0       0.500000000   0.000000000   0.378835010    0   0   1
O0       0.500000000   0.500000000   0.401862700    0   0   1
Ir1      0.750000000   0.500000000   0.452436180    0   0   1
Ir1      0.500000000   0.000000000   0.453578585    0   0   1
O0       0.750000000   0.810000000   0.453326961    0   0   1
O0       0.750000000   0.190000000   0.452910936    0   0   1
O0       0.500000000   0.500000000   0.498691427    0   0   1
O0       0.500000000   0.000000000   0.529172900    0   0   1
Ir1      0.750000000   0.000000000   0.576208261    0   0   1
Ir1      0.500000000   0.500000000   0.572046722    0   0   1
O0       0.750000000   0.690000000   0.576471440    0   0   1
O0       0.750000000   0.310000000   0.576506947    0   0   1
O0       0.500000000   0.000000000   0.620825143    0   0   1
H2      -0.000138418   0.636153051   0.384045004
H2       0.499861079   0.636153195   0.384045019
H2       0.143512600   0.034149453   0.367267121
H2       0.643512930   0.034149991   0.367267672
End final coordinates

     General routines

     Parallel routines
     Hubbard U routines

   This run was terminated on:   4: 9:25   6May2014

   JOB DONE.
Running PBS batch system epilogue script
Job id: 340761.audhumbla.fysik.dtu.dk
Username: zhonxu
Groupname: campgst
Jobname: IrO2/Eads-2-layers/bare-U-2.0
Sessionid: 7431
Queuename: verylong
Accounting:
This job has allocated the following 16 nodes:
a039 a039 a039 a039 a039 a039 a039 a039 a007 a007 a007 a007 a007 a007 a007 a007
Finished epilogue job 340761.audhumbla.fysik.dtu.dk for zhonxu