     Program PWSCF v.5.0.2 (svn rev. 9656) starts on  7Apr2014 at 21:34: 4

     Current dimensions of program PWSCF are:
     Max number of different atomic species (ntypx) = 10
     Max number of k-points (npk) =  40000
     Max angular momentum in pseudopotentials (lmaxx) =  3
     Reading input from pwscf.in
Warning: card &CELL ignored
Warning: card / ignored

     Subspace diagonalization in iterative solution of the eigenvalue problem:
     a serial algorithm will be used

     bravais-lattice index     =            0
     lattice parameter (alat)  =      10.1289  a.u.
     unit-cell volume          =    6836.7721 (a.u.)^3
     number of atoms/cell      =           32
     number of atomic types    =            3
     number of electrons       =       239.00
     number of Kohn-Sham states=          358
     kinetic-energy cutoff     =      40.0000  Ry
     charge density cutoff     =     500.0000  Ry
     convergence threshold     =      1.0E-06
     mixing beta               =       0.3000
     number of iterations used =            8  plain     mixing
     Exchange-correlation      = SLA  PW   PBE  PBE ( 1 4 3 4 0)
     EXX-fraction              =        0.00
     nstep                     =           50

     celldm(1)=  10.128932  celldm(2)=   0.000000  celldm(3)=   0.000000
     celldm(4)=   0.000000  celldm(5)=   0.000000  celldm(6)=   0.000000

     crystal axes: (cart. coord. in units of alat)
               a(1) = (   1.000000   0.000000   0.000000 )
               a(2) = (   0.000000   1.306037   0.000000 )
               a(3) = (   0.000000   0.000000   5.037380 )

     reciprocal axes: (cart. coord. in units 2 pi/alat)
               b(1) = (  1.000000  0.000000  0.000000 )
               b(2) = (  0.000000  0.765675  0.000000 )
               b(3) = (  0.000000  0.000000  0.198516 )

     PseudoPot. # 1 for O  read from file:
     /home/camp/zhonxu/pseudo/o_pbe_v1.01.uspp.F.UPF
     MD5 check sum: 2bcb18d16ea4b960afae9ec6d52f22d2
     Pseudo is Ultrasoft + core correction, Zval =  6.0
     Generated by new atomic code, or converted to UPF format
     Using radial grid of  737 points,  5 beta functions with:
                l(1) =   0
                l(2) =   0
                l(3) =   1
                l(4) =   1
                l(5) =   2
     Q(r) pseudized with  8 coefficients,  rinner =    0.900   0.900   0.900
                                                       0.900   0.900

     PseudoPot. # 2 for Re read from file:
     /home/camp/zhonxu/pseudo/re_pbe_v1.uspp.F.UPF
     MD5 check sum: 6f5a5dcaf9c96c20d0ffdde0de57afc6
     Pseudo is Ultrasoft + core correction, Zval = 15.0
     Generated by new atomic code, or converted to UPF format
     Using radial grid of  981 points,  8 beta functions with:
                l(1) =   0
                l(2) =   0
                l(3) =   1
                l(4) =   1
                l(5) =   2
                l(6) =   2
                l(7) =   3
                l(8) =   3
     Q(r) pseudized with  8 coefficients,  rinner =    1.000   1.000   1.000
                                                       1.000   1.000   1.000
                                                       1.000

     PseudoPot. # 3 for H  read from file:
     /home/camp/zhonxu/pseudo/h_pbe_v1.uspp.F.UPF
     MD5 check sum: 3408e3ff4ec8b0a4e358431e7e038a48
     Pseudo is Ultrasoft, Zval =  1.0
     Generated by new atomic code, or converted to UPF format
     Using radial grid of  615 points,  2 beta functions with:
                l(1) =   0
                l(2) =   0
     Q(r) pseudized with  8 coefficients,  rinner =    0.700

     atomic species   valence    mass     pseudopotential
        O0             6.00    15.99940     O ( 1.00)
        Re1           15.00   186.20700     Re( 1.00)
        H2             1.00     1.00794     H ( 1.00)

     Starting magnetic structure
     atomic species   magnetization
        O0           0.000
        Re1          0.000
        H2           0.000

     No symmetry found

   Cartesian axes

     site n.     atom                  positions (alat units)
         1           O0  tau(   1) = (   0.0000000   0.0000000   1.8690191  )
         2           O0  tau(   2) = (   0.0000000   0.6530184   1.9227680  )
         3           Re1 tau(   3) = (   0.2500000   0.6530184   2.2233988  )
         4           Re1 tau(   4) = (   0.0000000   0.0000000   2.2355893  )
         5           O0  tau(   5) = (   0.2500000   1.0187087   2.2257664  )
         6           O0  tau(   6) = (   0.2500000   0.2873281   2.2253130  )
         7           O0  tau(   7) = (   0.0000000   0.6530184   2.5021171  )
         8           O0  tau(   8) = (   0.0000000   0.0000000   2.5963161  )
         9           Re1 tau(   9) = (   0.2500000   0.0000000   2.8976018  )
        10           Re1 tau(  10) = (   0.0000000   0.6530184   2.8515601  )
        11           O0  tau(  11) = (   0.2500000   0.9403465   2.8864188  )
        12           O0  tau(  12) = (   0.2500000   0.3656903   2.8866203  )
        13           O0  tau(  13) = (   0.0000000   0.0000000   3.1612582  )
        14           O0  tau(  14) = (   0.5000000   0.0000000   1.8690695  )
        15           O0  tau(  15) = (   0.5000000   0.6530184   1.9241281  )
        16           Re1 tau(  16) = (   0.7500000   0.6530184   2.2236003  )
        17           Re1 tau(  17) = (   0.5000000   0.0000000   2.2348337  )
        18           O0  tau(  18) = (   0.7500000   1.0187087   2.2255649  )
        19           O0  tau(  19) = (   0.7500000   0.2873281   2.2255145  )
        20           O0  tau(  20) = (   0.5000000   0.6530184   2.5116881  )
        21           O0  tau(  21) = (   0.5000000   0.0000000   2.5956612  )
        22           Re1 tau(  22) = (   0.7500000   0.0000000   2.8971988  )
        23           Re1 tau(  23) = (   0.5000000   0.6530184   2.8816333  )
        24           O0  tau(  24) = (   0.7500000   0.9403465   2.8817844  )
        25           O0  tau(  25) = (   0.7500000   0.3656903   2.8817844  )
        26           O0  tau(  26) = (   0.5000000   0.0000000   3.1582358  )
        27           H2  tau(  27) = (  -0.0003900   0.8171089   1.8390467  )
        28           H2  tau(  28) = (   0.4996300   0.8158289   1.8379889  )
        29           H2  tau(  29) = (   0.1695500   0.0290071   1.7976394  )
        30           H2  tau(  30) = (   0.6700400   0.0285761   1.7980424  )
        31           O0  tau(  31) = (   0.5299700   0.6525090   3.2404458  )
        32           H2  tau(  32) = (   0.3780900   0.6523262   3.3425535  )

     number of k points=    20  Methfessel-Paxton smearing, width (Ry)=  0.0100
                       cart. coord. in units 2pi/alat
        k(    1) = (   0.0000000   0.0000000   0.0000000), wk =   0.0625000
        k(    2) = (   0.0000000   0.1914188   0.0000000), wk =   0.1250000
        k(    3) = (   0.0000000  -0.3828376   0.0000000), wk =   0.0625000
        k(    4) = (   0.2500000   0.0000000   0.0000000), wk =   0.1250000
        k(    5) = (   0.2500000   0.1914188   0.0000000), wk =   0.1250000
        k(    6) = (   0.2500000  -0.3828376   0.0000000), wk =   0.1250000
        k(    7) = (  -0.5000000   0.0000000   0.0000000), wk =   0.0625000
        k(    8) = (  -0.5000000   0.1914188   0.0000000), wk =   0.1250000
        k(    9) = (  -0.5000000  -0.3828376   0.0000000), wk =   0.0625000
        k(   10) = (  -0.2500000   0.1914188   0.0000000), wk =   0.1250000
        k(   11) = (   0.0000000   0.0000000   0.0000000), wk =   0.0625000
        k(   12) = (   0.0000000   0.1914188   0.0000000), wk =   0.1250000
        k(   13) = (   0.0000000  -0.3828376   0.0000000), wk =   0.0625000
        k(   14) = (   0.2500000   0.0000000   0.0000000), wk =   0.1250000
        k(   15) = (   0.2500000   0.1914188   0.0000000), wk =   0.1250000
        k(   16) = (   0.2500000  -0.3828376   0.0000000), wk =   0.1250000
        k(   17) = (  -0.5000000   0.0000000   0.0000000), wk =   0.0625000
        k(   18) = (  -0.5000000   0.1914188   0.0000000), wk =   0.1250000
        k(   19) = (  -0.5000000  -0.3828376   0.0000000), wk =   0.0625000
        k(   20) = (  -0.2500000   0.1914188   0.0000000), wk =   0.1250000

     Largest allocated arrays     est. size (Mb)     dimensions
     Largest temporary arrays     est. size (Mb)     dimensions

     Check: negative/imaginary core charge=   -0.000003    0.000000

     Initial potential from superposition of free atoms
     Check: negative starting charge=(component1):   -0.118645
     Check: negative starting charge=(component2):   -0.118645

     starting charge  234.99957, renormalised to  239.00000

     negative rho (up, down):  0.121E+00 0.121E+00
     Starting wfc are  185 randomized atomic wfcs

     Self-consistent Calculation

     iteration #  1     ecut=    40.00 Ry     beta=0.30
     Davidson diagonalization with overlap
     ethr =  1.00E-02,  avg # of iterations =  6.2

     negative rho (up, down):  0.130E+00 0.130E+00

     total energy              =   -2173.18036555 Ry
     Harris-Foulkes estimate   =   -2178.21571370 Ry
     estimated scf accuracy    <      10.80774790 Ry

     total magnetization       =    -0.00 Bohr mag/cell
     absolute magnetization    =     0.00 Bohr mag/cell

[...]

     End of self-consistent calculation

 ------ SPIN UP ------------

          k = 0.0000 0.0000 0.0000 ( 29221 PWs)   bands (ev):

   -81.5083 -81.4197 -81.3258 -81.2826 -81.2257 -81.0426 -80.9905 -80.9872
   -43.7059 -43.5573 -43.4062 -43.4009 -43.3714 -43.3136 -43.2841 -43.2781
   -43.2487 -43.2448 -43.2085 -43.1787 -43.1001 -43.0319 -42.9663 -42.9519
   -42.9369 -42.8951 -42.8923 -42.8527 -42.8356 -42.6653 -42.4793 -42.4003
   -21.0588 -20.5572 -20.4743 -20.3670 -20.1190 -19.8119 -19.5239 -19.5234
   -19.4663 -19.4490 -19.3755 -19.2786 -19.2319 -19.2045 -19.1501 -19.1109
   -18.7315 -18.2736 -17.9070  -9.4804  -9.3551  -9.1737  -8.6836  -8.5531
    -8.1882  -8.1643  -7.9578  -7.8744  -7.7734  -7.6400  -7.5744  -7.3966
    -7.2965  -7.1927  -7.1579  -6.9786  -6.9428  -6.8961  -6.7864  -6.5051
    -6.4234  -6.1335  -5.9579  -5.6504  -5.5629  -5.4766  -5.4009  -5.2943
    -5.1979  -5.0845  -5.0139  -4.9267  -4.7634  -4.6924  -4.5933  -4.4621
    -4.3647  -4.3538  -4.1413  -4.1076  -3.9993  -3.8923  -3.6733  -3.6098
    -3.4177  -3.3372  -3.3112  -3.2493  -3.2161  -3.2052  -3.1004  -3.0249
    -3.0068  -2.9429  -2.8249  -2.6397  -2.5489  -2.4845  -2.3225  -1.0404
    -0.6871  -0.5396  -0.1255  -0.1020   0.1137   0.3498   0.4997   0.6149
     0.7020   0.7718   1.0008   1.0901   1.2714   1.3263   1.5510   1.9466
     2.6852   3.0573   3.1472   3.1841   3.4011   3.4863   3.5111   3.6586
     4.0318   4.1217   4.2440   4.5412   4.5985   4.6510   4.8009   4.8330
     4.9233   5.0067   5.0250   5.1209   5.2992   5.4165   5.4590   6.0287
     6.2009   6.3830   6.6324   6.9001   7.4555   7.6193   7.6715   7.8451
     7.8963   8.0694   8.1340   8.1621   8.3307   8.3750   8.6063   8.7296
     8.8396   8.9025   8.9673   9.0424   9.1120   9.1838   9.2447   9.3513
     9.5014   9.6371   9.7844   9.7939   9.8634   9.9219  10.0488  10.1305
[...]
     atom   22 type  2   force =     0.01813797    0.00174693    0.00020184
     atom   23 type  2   force =     0.00142363   -0.00057226    0.00277618
     atom   24 type  1   force =     0.00939325   -0.01428182   -0.00008989
     atom   25 type  1   force =     0.00928207    0.01381998   -0.00006887
     atom   26 type  1   force =     0.00079324   -0.00046781   -0.00298608
     atom   27 type  3   force =    -0.00001868   -0.00010562   -0.00038627
     atom   28 type  3   force =    -0.00000052   -0.00026251   -0.00136183
     atom   29 type  3   force =     0.00056512    0.00049456   -0.00043574
     atom   30 type  3   force =     0.00077989    0.00011533   -0.00026716
     atom   31 type  1   force =    -0.00248952    0.00001624   -0.00109370
     atom   32 type  3   force =     0.00067330   -0.00010073    0.00347182

     Total force =     0.007768     Total SCF correction =     0.002843
     SCF correction compared to forces is large: reduce conv_thr to get better values

     BFGS Geometry Optimization

     number of scf cycles    =   1
     number of bfgs steps    =   0

     energy   new            =   -2176.5589620868 Ry

     new trust radius        =       0.0035379431 bohr
     new conv_thr            =       0.0000010000 Ry

ATOMIC_POSITIONS (crystal)
O0       0.000000000   0.000000000   0.371016954    0   0   1
O0       0.000000000   0.500000000   0.381709633    0   0   1
Re1      0.250000000   0.500000000   0.441411165    0   0   1
Re1      0.000000000   0.000000000   0.443765001    0   0   1
O0       0.250000000   0.780000000   0.441848005    0   0   1
O0       0.250000000   0.220000000   0.441755285    0   0   1
O0       0.000000000   0.500000000   0.496743278    0   0   1
O0       0.000000000   0.000000000   0.515421399    0   0   1
Re1      0.250000000   0.000000000   0.575239129    0   0   1
Re1      0.000000000   0.500000000   0.566077169    0   0   1
O0       0.250000000   0.720000000   0.573001971    0   0   1
O0       0.250000000   0.280000000   0.573043029    0   0   1
O0       0.000000000   0.000000000   0.627521559    0   0   1
O0       0.500000000   0.000000000   0.371036184    0   0   1
O0       0.500000000   0.500000000   0.381980850    0   0   1
Re1      0.750000000   0.500000000   0.441447452    0   0   1
Re1      0.500000000   0.000000000   0.443615584    0   0   1
O0       0.750000000   0.780000000   0.441807329    0   0   1
O0       0.750000000   0.220000000   0.441796798    0   0   1
O0       0.500000000   0.500000000   0.498615192    0   0   1
O0       0.500000000   0.000000000   0.515271732    0   0   1
Re1      0.750000000   0.000000000   0.575143956    0   0   1
Re1      0.500000000   0.500000000   0.572104410    0   0   1
O0       0.750000000   0.720000000   0.572078238    0   0   1
O0       0.750000000   0.280000000   0.572078650    0   0   1
O0       0.500000000   0.000000000   0.626901476    0   0   1
H2      -0.000391845   0.625632016   0.365072430
H2       0.499629948   0.624640156   0.364843310
H2       0.169605793   0.022247385   0.356851460
H2       0.670116996   0.021888718   0.356934764
O0       0.529724217   0.499611228   0.643258565
H2       0.378156473   0.499462386   0.663618044

     Check: negative starting charge=(component1):   -0.237290
     NEW-OLD atomic charge density approx. for the potential

     Check: negative/imaginary core charge=   -0.000003    0.000000
     Check: negative starting charge=(component1):   -0.237262

[...]

     energy   old            =   -2176.5589620868 Ry
     energy   new            =   -2176.5590067644 Ry

     CASE: energy  _new < energy  _old

[...]

     Threshold (ethr) on eigenvalues was too large:
     Diagonalizing with lowered threshold

     Davidson diagonalization with overlap
     ethr =  6.68E-08,  avg # of iterations =  1.4

[...]

     Total force =     0.006928     Total SCF correction =     0.000383

[...]

     Total force =     0.002603     Total SCF correction =     0.000382
     SCF correction compared to forces is large: reduce conv_thr to get better values

     number of scf cycles    =   9
     number of bfgs steps    =   8

     energy   old            =   -2176.5593174746 Ry
     energy   new            =   -2176.5593305807 Ry

     CASE: energy  _new < energy  _old

     new trust radius        =       0.0043346569 bohr
     new conv_thr            =       0.0000000100 Ry

ATOMIC_POSITIONS (crystal)
O0       0.000000000   0.000000000   0.370620133    0   0   1
O0       0.000000000   0.500000000   0.382072075    0   0   1
Re1      0.250000000   0.500000000   0.441754657    0   0   1
Re1      0.000000000   0.000000000   0.443390161    0   0   1
O0       0.250000000   0.780000000   0.441752471    0   0   1
O0       0.250000000   0.220000000   0.441609916    0   0   1
O0       0.000000000   0.500000000   0.497079792    0   0   1
O0       0.000000000   0.000000000   0.515031102    0   0   1
Re1      0.250000000   0.000000000   0.574831646    0   0   1
Re1      0.000000000   0.500000000   0.566419663    0   0   1
O0       0.250000000   0.720000000   0.572988774    0   0   1
O0       0.250000000   0.280000000   0.573051657    0   0   1
O0       0.000000000   0.000000000   0.627096338    0   0   1
O0       0.500000000   0.000000000   0.370655983    0   0   1
O0       0.500000000   0.500000000   0.382358478    0   0   1
Re1      0.750000000   0.500000000   0.441780201    0   0   1
Re1      0.500000000   0.000000000   0.443236224    0   0   1
O0       0.750000000   0.780000000   0.441698005    0   0   1
O0       0.750000000   0.220000000   0.441675312    0   0   1
O0       0.500000000   0.500000000   0.498999282    0   0   1
O0       0.500000000   0.000000000   0.514901400    0   0   1
Re1      0.750000000   0.000000000   0.574685457    0   0   1
Re1      0.500000000   0.500000000   0.572651502    0   0   1
O0       0.750000000   0.720000000   0.572175869    0   0   1
O0       0.750000000   0.280000000   0.572176484    0   0   1
O0       0.500000000   0.000000000   0.626452168    0   0   1
H2      -0.000363631   0.625074871   0.365176465
H2       0.499617319   0.623145912   0.364547953
H2       0.169499420   0.023144034   0.356502707
H2       0.670445541   0.021882479   0.356679878
O0       0.527756626   0.499666077   0.643907629
H2       0.378821414   0.499172945   0.665050619

     Check: negative starting charge=(component1):   -0.237234
     NEW-OLD atomic charge density approx. for the potential

     Check: negative/imaginary core charge=   -0.000003    0.000000
     Check: negative starting charge=(component1):   -0.237250

[...]

     Self-consistent Calculation

[...]

     Threshold (ethr) on eigenvalues was too large:
     Diagonalizing with lowered threshold

     Davidson diagonalization with overlap
     ethr =  4.65E-08,  avg # of iterations =  1.0

[...]

     total energy              =   -2176.55934017 Ry
     Harris-Foulkes estimate   =   -2176.55934019 Ry
     estimated scf accuracy    <       0.00000001 Ry

[...]

     iteration # 19     ecut=    40.00 Ry     beta=0.30
     Davidson diagonalization with overlap
     ethr =  4.21E-12,  avg # of iterations =  2.0

     negative rho (up, down):  0.123E+00 0.124E+00

     End of self-consistent calculation

 ------ SPIN UP ------------

[...]

 ------ SPIN DOWN ----------

[...]

          k = 0.2500-0.3828 0.0000 ( 29202 PWs)   bands (ev):

[...]

          k =-0.2500 0.1914 0.0000 ( 29229 PWs)   bands (ev):

   -81.4822 -81.4010 -81.3018 -81.2585 -81.2186 -81.0209 -80.9817 -80.9591
   -43.5643 -43.4225 -43.3701 -43.3651 -43.2720 -43.2693 -43.2448 -43.2402
   -43.2255 -43.1792 -43.1695 -43.1429 -43.0623 -42.9955 -42.9566 -42.9485
   -42.9399 -42.9110 -42.8967 -42.8702 -42.8511 -42.7900 -42.5743 -42.5185
   -20.8379 -20.3885 -20.3066 -20.1942 -20.1076 -19.7741 -19.7093 -19.6968
   -19.5178 -19.4177 -19.3969 -19.3511 -19.2563 -19.1136 -19.0772 -19.0428
   -18.8124 -18.2799 -18.0017  -8.9757  -8.6589  -8.6066  -8.5639  -8.3741
    -8.2863  -8.2449  -8.0362  -7.9788  -7.8867  -7.6599  -7.6096  -7.3600
    -7.2815  -7.2163  -6.9447  -6.8336  -6.7147  -6.6049  -6.4988  -6.3704
    -6.3407  -6.0029  -5.9039  -5.7466  -5.6836  -5.5921  -5.5063  -5.4242
    -5.3036  -5.0580  -4.9789  -4.9432  -4.8389  -4.7416  -4.6974  -4.6286
    -4.5590  -4.4831  -4.3668  -4.2561  -4.1266  -3.9422  -3.8550  -3.7914
    -3.6706  -3.5668  -3.5254  -3.3441  -3.3003  -3.2292  -3.1148  -2.9991
    -2.7820  -2.6770  -2.5956  -2.4489  -2.0139  -1.8531  -1.8012  -0.9663
    -0.8384  -0.7405  -0.6210  -0.0564   0.0699   0.5474   0.5905   0.6694
     0.7894   0.8774   1.0082   1.1856   1.3700   1.3923   1.5391   1.7052
     1.7337   1.9740   2.0252   2.1599   2.4107   3.6407   3.6655   3.7436
     3.7760   3.9624   4.0156   4.2591   4.4686   4.6024   4.7126   4.8800
     4.9518   5.1808   5.3729   5.6133   5.8435   5.8954   6.1202   6.2699
     6.4325   6.4887   6.6914   6.9121   7.0060   7.0804   7.3211   7.5693
     7.6929   7.8059   7.9456   8.1363   8.2761   8.3337   8.5129   8.5852
     8.6273   8.7275   8.9386   9.0443   9.1295   9.3798   9.4624   9.5957
     9.6301   9.6915   9.8211   9.8892   9.9148  10.0019  10.0974  10.1824
    10.2519  10.3414  10.3844  10.4325  10.5054  10.7305  10.7561  10.8934
    11.0069  11.1182  11.1654  11.2675  11.4759  11.5309  11.6876  11.7546
    11.8278  11.9207  12.0381  12.2270  12.3455  12.4516  12.5938  12.6368
    12.6537  12.7407  12.8219  12.8774  12.9497  13.0372  13.1113  13.2295
    13.2839  13.4309  13.5187  13.6237  13.6915  13.7468  13.8406  13.8555
    13.9385  13.9608  13.9914  14.0701  14.1443  14.2463  14.3123  14.4181
    14.4946  14.5243  14.5766  14.6467  14.7162  14.7424  14.8523  14.8904
    14.9540  15.0019  15.0434  15.0897  15.1419  15.2133  15.3057  15.4684
    15.5091  15.5991  15.6699  15.7366  15.8395  15.9384  16.0784  16.1435
    16.1923  16.2418  16.3154  16.4850  16.5228  16.5865  16.6307  16.6868
    16.7926  16.8807  16.9565  17.0055  17.1212  17.2138  17.2493  17.2783
    17.3677  17.4855  17.6238  17.6728  17.7399  17.7933  17.8440  17.9418
    17.9700  18.0582  18.1281  18.1574  18.2648  18.2935  18.4038  18.4467
    18.5077  18.5893  18.6422  18.7106  18.7590  18.8713  18.9384  19.0182
    19.0802  19.2383  19.3048  19.3397  19.4847  19.5457  19.6366  19.6785
    19.7462  19.8493  19.9369  20.0270  20.1233  20.1718  20.2285  20.2960
    20.4488  20.5201  20.5698  20.6206  20.6926  20.7388  20.7760  20.8373
    20.8863  20.9740  20.9975  21.1479  21.1754  21.2282  21.2679  21.3214
    21.4104  21.4373  21.5134  21.6118  21.6587  21.7043  21.7625  21.8509
    21.9391  22.0160  22.0969  22.1166  22.2241  22.2466  22.3187  22.3729
    22.4213  22.4681  22.4955  22.5603  22.6357  22.6780  22.7108  22.7506
    22.7808  22.8460  22.8977  22.9334  23.0123  23.0781

     the Fermi energy is     0.6112 ev

!    total energy              =   -2176.55934018 Ry
     Harris-Foulkes estimate   =   -2176.55934018 Ry
     estimated scf accuracy    <          5.3E-09 Ry

     The total energy is the sum of the following terms:

     one-electron contribution =  -24246.17288801 Ry
     hartree contribution      =   12140.24395235 Ry
     xc contribution           =    -594.98119779 Ry
     ewald contribution        =   10524.35245686 Ry
     smearing contrib. (-TS)   =      -0.00166360 Ry

     total magnetization       =     0.00 Bohr mag/cell
     absolute magnetization    =     0.01 Bohr mag/cell

     convergence has been achieved in  19 iterations

     Forces acting on atoms (Ry/au):

     negative rho (up, down):  0.123E+00 0.124E+00
     atom    1 type  1   force =    -0.00546337   -0.00737872   -0.00055088
     atom    2 type  1   force =     0.00004478    0.00573017    0.00003205
     atom    3 type  2   force =     0.02979921   -0.00389644    0.00017765
     atom    4 type  2   force =     0.00184786    0.00780091    0.00015743
     atom    5 type  1   force =     0.00273031    0.01371184   -0.00008405
     atom    6 type  1   force =     0.00101780   -0.01467224   -0.00006710
     atom    7 type  1   force =     0.00322911    0.00011462    0.00016258
     atom    8 type  1   force =     0.00298606   -0.00158696    0.00074782
     atom    9 type  2   force =    -0.02348293    0.00156525   -0.00026723
     atom   10 type  2   force =    -0.00677876   -0.00045462    0.00036517
     atom   11 type  1   force =    -0.00521542   -0.01575120    0.00021779
     atom   12 type  1   force =    -0.00534490    0.01582582    0.00024706
     atom   13 type  1   force =    -0.00080721   -0.00007563    0.00022654
     atom   14 type  1   force =    -0.00269377   -0.00668981   -0.00032336
     atom   15 type  1   force =     0.00027129    0.00451674    0.00000377
     atom   16 type  2   force =    -0.03046380   -0.00390011    0.00005629
     atom   17 type  2   force =     0.00128059    0.00820365   -0.00006939
     atom   18 type  1   force =     0.00118352    0.01425727   -0.00010813
     atom   19 type  1   force =    -0.00076504   -0.01501935   -0.00006385
     atom   20 type  1   force =    -0.00230690   -0.00126502    0.00059381
     atom   21 type  1   force =     0.00195622   -0.00160292    0.00014711
     atom   22 type  2   force =     0.01965701    0.00171029   -0.00025874
     atom   23 type  2   force =    -0.00116205   -0.00062519   -0.00036262
     atom   24 type  1   force =     0.00862841   -0.01448554    0.00029741
     atom   25 type  1   force =     0.00847316    0.01410675    0.00027843
     atom   26 type  1   force =     0.00071325   -0.00052530   -0.00062260
     atom   27 type  3   force =     0.00000922    0.00023714    0.00041278
     atom   28 type  3   force =     0.00000101    0.00017768    0.00038841
     atom   29 type  3   force =     0.00008480    0.00010384   -0.00050160
     atom   30 type  3   force =    -0.00003792   -0.00003684   -0.00043915
     atom   31 type  1   force =     0.00030450    0.00001392   -0.00074514
     atom   32 type  3   force =     0.00030396   -0.00010999   -0.00004825

     Total force =     0.002051     Total SCF correction =     0.000175

     bfgs converged in  10 scf cycles and   9 bfgs steps
     (criteria: energy < 0.10E-03, force < 0.10E-02)

     End of BFGS Geometry Optimization

     Final energy   =   -2176.5593401843 Ry
Begin final coordinates

ATOMIC_POSITIONS (crystal)
O0       0.000000000   0.000000000   0.370620133    0   0   1
O0       0.000000000   0.500000000   0.382072075    0   0   1
Re1      0.250000000   0.500000000   0.441754657    0   0   1
Re1      0.000000000   0.000000000   0.443390161    0   0   1
O0       0.250000000   0.780000000   0.441752471    0   0   1
O0       0.250000000   0.220000000   0.441609916    0   0   1
O0       0.000000000   0.500000000   0.497079792    0   0   1
O0       0.000000000   0.000000000   0.515031102    0   0   1
Re1      0.250000000   0.000000000   0.574831646    0   0   1
Re1      0.000000000   0.500000000   0.566419663    0   0   1
O0       0.250000000   0.720000000   0.572988774    0   0   1
O0       0.250000000   0.280000000   0.573051657    0   0   1
O0       0.000000000   0.000000000   0.627096338    0   0   1
O0       0.500000000   0.000000000   0.370655983    0   0   1
O0       0.500000000   0.500000000   0.382358478    0   0   1
Re1      0.750000000   0.500000000   0.441780201    0   0   1
Re1      0.500000000   0.000000000   0.443236224    0   0   1
O0       0.750000000   0.780000000   0.441698005    0   0   1
O0       0.750000000   0.220000000   0.441675312    0   0   1
O0       0.500000000   0.500000000   0.498999282    0   0   1
O0       0.500000000   0.000000000   0.514901400    0   0   1
Re1      0.750000000   0.000000000   0.574685457    0   0   1
Re1      0.500000000   0.500000000   0.572651502    0   0   1
O0       0.750000000   0.720000000   0.572175869    0   0   1
O0       0.750000000   0.280000000   0.572176484    0   0   1
O0       0.500000000   0.000000000   0.626452168    0   0   1
H2      -0.000363631   0.625074871   0.365176465
H2       0.499617319   0.623145912   0.364547953
H2       0.169499420   0.023144034   0.356502707
H2       0.670445541   0.021882479   0.356679878
O0       0.527756626   0.499666077   0.643907629
H2       0.378821414   0.499172945   0.665050619
End final coordinates

     General routines

     Parallel routines

   This run was terminated on:  15:54: 5   8Apr2014

   JOB DONE.
Running PBS batch system epilogue script
Job id: 329699.audhumbla.fysik.dtu.dk
Username: zhonxu
Groupname: campgst
Jobname: ReO2/Eads-2-layers/OH-relax-surf
Sessionid: 25376
Queuename: verylong
Accounting:
This job has allocated the following 16 nodes:
b044 b044 b044 b044 b044 b044 b044 b044 b033 b033 b033 b033 b033 b033 b033 b033
Finished epilogue job 329699.audhumbla.fysik.dtu.dk for zhonxu