     Program PWSCF v.5.0.2 (svn rev. 9656) starts on  1Jun2014 at  7:41:42

     Current dimensions of program PWSCF are:
     Max number of different atomic species (ntypx) = 10
     Max number of k-points (npk) =  40000
     Max angular momentum in pseudopotentials (lmaxx) =  3
     Reading input from pwscf.in
Warning: card &CELL ignored
Warning: card / ignored

     Subspace diagonalization in iterative solution of the eigenvalue problem:
     a serial algorithm will be used

     bravais-lattice index     =            0
     lattice parameter (alat)  =      11.1872  a.u.
     unit-cell volume          =    7531.8600 (a.u.)^3
     number of atoms/cell      =           33
     number of atomic types    =            3
     number of electrons       =       229.00
     number of Kohn-Sham states=          343
     kinetic-energy cutoff     =      40.0000  Ry
     charge density cutoff     =     500.0000  Ry
     convergence threshold     =      1.0E-06
     mixing beta               =       0.7000
     number of iterations used =            8  plain     mixing
     Exchange-correlation      = SLA  PW   PBE  PBE ( 1 4 3 4 0)
     EXX-fraction              =        0.00
     nstep                     =           50

     celldm(1)=  11.187179  celldm(2)=   0.000000  celldm(3)=   0.000000
     celldm(4)=   0.000000  celldm(5)=   0.000000  celldm(6)=   0.000000

     crystal axes: (cart. coord. in units of alat)
               a(1) = (   1.000000   0.000000   0.000000 )
               a(2) = (   0.000000   1.180104   0.000000 )
               a(3) = (   0.000000   0.000000   4.558482 )

     reciprocal axes: (cart. coord. in units 2 pi/alat)
               b(1) = (  1.000000  0.000000  0.000000 )
               b(2) = (  0.000000  0.847383  0.000000 )
               b(3) = (  0.000000  0.000000  0.219371 )

     PseudoPot. # 1 for O  read from file:
     /home/camp/zhonxu/pseudo/o_pbe_v1.01.uspp.F.UPF
     MD5 check sum: 2bcb18d16ea4b960afae9ec6d52f22d2
     Pseudo is Ultrasoft + core correction, Zval =  6.0
     Generated by new atomic code, or converted to UPF format
     Using radial grid of  737 points,  5 beta functions with:
                l(1) =   0
                l(2) =   0
                l(3) =   1
                l(4) =   1
                l(5) =   2
     Q(r) pseudized with  8 coefficients,  rinner =    0.900   0.900   0.900
                                                       0.900   0.900

     PseudoPot. # 2 for Nb read from file:
     /home/camp/zhonxu/pseudo/nb_pbe_v1.uspp.F.UPF
     MD5 check sum: 573aab8a2fa660278ed4a62cd769473f
     Pseudo is Ultrasoft + core correction, Zval = 13.0
     Generated by new atomic code, or converted to UPF format
     Using radial grid of  887 points,  6 beta functions with:
                l(1) =   0
                l(2) =   0
                l(3) =   1
                l(4) =   1
                l(5) =   2
                l(6) =   2
     Q(r) pseudized with  6 coefficients,  rinner =    1.000   1.000   1.000
                                                       1.000   1.000

     PseudoPot. # 3 for H  read from file:
     /home/camp/zhonxu/pseudo/h_pbe_v1.uspp.F.UPF
     MD5 check sum: 3408e3ff4ec8b0a4e358431e7e038a48
     Pseudo is Ultrasoft, Zval =  1.0
     Generated by new atomic code, or converted to UPF format
     Using radial grid of  615 points,  2 beta functions with:
                l(1) =   0
                l(2) =   0
     Q(r) pseudized with  8 coefficients,  rinner =    0.700

     atomic species   valence    mass     pseudopotential
        O0             6.00    15.99940     O ( 1.00)
        Nb1           13.00    92.90640     Nb( 1.00)
        H2             1.00     1.00794     H ( 1.00)

     Simplified LDA+U calculation (l_max = 2) with parameters (eV):
     atomic species    L          U    alpha       J0     beta
        Nb1            2     5.5000   0.0000   0.0000   0.0000

     No symmetry found

   Cartesian axes

     site n.     atom                  positions (alat units)
         1           O0  tau(   1) = (   0.0000000   0.0000000   1.6962113  )
         2           O0  tau(   2) = (   0.0000000   0.5900519   1.7723835  )
         3           Nb1 tau(   3) = (   0.2500000   0.5900519   2.0257895  )
         4           Nb1 tau(   4) = (   0.0000000   0.0000000   2.0274306  )
         5           O0  tau(   5) = (   0.2500000   0.9322821   2.0383253  )
         6           O0  tau(   6) = (   0.2500000   0.2478218   2.0381886  )
         7           O0  tau(   7) = (   0.0000000   0.5900519   2.2790132  )
         8           O0  tau(   8) = (   0.0000000   0.0000000   2.3853170  )
         9           Nb1 tau(   9) = (   0.2500000   0.0000000   2.6318397  )
        10           Nb1 tau(  10) = (   0.0000000   0.5900519   2.5956910  )
        11           O0  tau(  11) = (   0.2500000   0.8378738   2.6232242  )
        12           O0  tau(  12) = (   0.2500000   0.3422301   2.6255034  )
        13           O0  tau(  13) = (   0.0000000   0.0000000   2.8344187  )
        14           O0  tau(  14) = (   0.5000000   0.0000000   1.6974420  )
        15           O0  tau(  15) = (   0.5000000   0.5900519   1.7789021  )
        16           Nb1 tau(  16) = (   0.7500000   0.5900519   2.0259719  )
        17           Nb1 tau(  17) = (   0.5000000   0.0000000   2.0298010  )
        18           O0  tau(  18) = (   0.7500000   0.9322821   2.0382798  )
        19           O0  tau(  19) = (   0.7500000   0.2478218   2.0381886  )
        20           O0  tau(  20) = (   0.5000000   0.5900519   2.2737254  )
        21           O0  tau(  21) = (   0.5000000   0.0000000   2.3845421  )
        22           Nb1 tau(  22) = (   0.7500000   0.0000000   2.6318397  )
        23           Nb1 tau(  23) = (   0.5000000   0.5900519   2.6269166  )
        24           O0  tau(  24) = (   0.7500000   0.8378738   2.6231786  )
        25           O0  tau(  25) = (   0.7500000   0.3422301   2.6254579  )
        26           O0  tau(  26) = (   0.5000000   0.0000000   2.8332335  )
        27           H2  tau(  27) = (  -0.0005200   0.5958463   1.6070929  )
        28           H2  tau(  28) = (   0.4994400   0.5914445   1.6138395  )
        29           H2  tau(  29) = (   0.1507700   0.0008261   1.6243240  )
        30           H2  tau(  30) = (   0.6503900   0.0006019   1.6249166  )
        31           O0  tau(  31) = (   0.5000000   0.6010623   2.9587285  )
        32           O0  tau(  32) = (   0.5000000   0.4103103   3.1155403  )
        33           H2  tau(  33) = (   0.5000000   0.4955964   3.2584031  )

     number of k points=    10  Methfessel-Paxton smearing, width (Ry)=  0.0100
                       cart. coord. in units 2pi/alat
        k(    1) = (   0.0000000   0.0000000   0.0000000), wk =   0.1250000
        k(    2) = (   0.0000000   0.2118458   0.0000000), wk =   0.2500000
        k(    3) = (   0.0000000  -0.4236915   0.0000000), wk =   0.1250000
        k(    4) = (   0.2500000   0.0000000   0.0000000), wk =   0.2500000
        k(    5) = (   0.2500000   0.2118458   0.0000000), wk =   0.2500000
        k(    6) = (   0.2500000  -0.4236915   0.0000000), wk =   0.2500000
        k(    7) = (  -0.5000000   0.0000000   0.0000000), wk =   0.1250000
        k(    8) = (  -0.5000000   0.2118458   0.0000000), wk =   0.2500000
        k(    9) = (  -0.5000000  -0.4236915   0.0000000), wk =   0.1250000
        k(   10) = (  -0.2500000   0.2118458   0.0000000), wk =   0.2500000

     Largest allocated arrays     est. size (Mb)     dimensions
     Largest temporary arrays     est. size (Mb)     dimensions

     Check: negative/imaginary core charge=   -0.000003    0.000000

     Initial potential from superposition of free atoms
     Check: negative starting charge=   -0.003307

     starting charge  228.97806, renormalised to  229.00000

     negative rho (up, down):  0.331E-02 0.000E+00
     Number of +U iterations with fixed ns =  0
     Starting occupations:
 --- enter write_ns ---
 LDA+U parameters:
U( 2)     =  5.50000000
alpha( 2) =  0.00000000
atom    3   Tr[ns(na)] =   3.00000
    eigenvalues:
  0.300  0.300  0.300  0.300  0.300
    eigenvectors:
  1.000  0.000  0.000  0.000  0.000
  0.000  1.000  0.000  0.000  0.000
  0.000  0.000  1.000  0.000  0.000
  0.000  0.000  0.000  1.000  0.000
  0.000  0.000  0.000  0.000  1.000
    occupations:
  0.300  0.000  0.000  0.000  0.000
  0.000  0.300  0.000  0.000  0.000
  0.000  0.000  0.300  0.000  0.000
  0.000  0.000  0.000  0.300  0.000
  0.000  0.000  0.000  0.000  0.300
atom    4   Tr[ns(na)] =   3.00000
    eigenvalues:
  0.300  0.300  0.300  0.300  0.300
    eigenvectors:
  1.000  0.000  0.000  0.000  0.000
  0.000  1.000  0.000  0.000  0.000
  0.000  0.000  1.000  0.000  0.000
  0.000  0.000  0.000  1.000  0.000
  0.000  0.000  0.000  0.000  1.000
    occupations:
  0.300  0.000  0.000  0.000  0.000
  0.000  0.300  0.000  0.000  0.000
  0.000  0.000  0.300  0.000  0.000
  0.000  0.000  0.000  0.300  0.000
  0.000  0.000  0.000  0.000  0.300
atom    9   Tr[ns(na)] =   3.00000
    eigenvalues:
  0.300  0.300  0.300  0.300  0.300
    eigenvectors:
  1.000  0.000  0.000  0.000  0.000
  0.000  1.000  0.000  0.000  0.000
  0.000  0.000  1.000  0.000  0.000
  0.000  0.000  0.000  1.000  0.000
  0.000  0.000  0.000  0.000  1.000
    occupations:
  0.300  0.000  0.000  0.000  0.000
  0.000  0.300  0.000  0.000  0.000
  0.000  0.000  0.300  0.000  0.000
  0.000  0.000  0.000  0.300  0.000
  0.000  0.000  0.000  0.000  0.300
atom   10   Tr[ns(na)] =   3.00000
    eigenvalues:
  0.300  0.300  0.300  0.300  0.300
    eigenvectors:
  1.000  0.000  0.000  0.000  0.000
  0.000  1.000  0.000  0.000  0.000
  0.000  0.000  1.000  0.000  0.000
  0.000  0.000  0.000  1.000  0.000
  0.000  0.000  0.000  0.000  1.000
    occupations:
  0.300  0.000  0.000  0.000  0.000
  0.000  0.300  0.000  0.000  0.000
  0.000  0.000  0.300  0.000  0.000
  0.000  0.000  0.000  0.300  0.000
  0.000  0.000  0.000  0.000  0.300
atom   16   Tr[ns(na)] =   3.00000
    eigenvalues:
  0.300  0.300  0.300  0.300  0.300
    eigenvectors:
  1.000  0.000  0.000  0.000  0.000
  0.000  1.000  0.000  0.000  0.000
  0.000  0.000  1.000  0.000  0.000
  0.000  0.000  0.000  1.000  0.000
  0.000  0.000  0.000  0.000  1.000
    occupations:
  0.300  0.000  0.000  0.000  0.000
  0.000  0.300  0.000  0.000  0.000
  0.000  0.000  0.300  0.000  0.000
  0.000  0.000  0.000  0.300  0.000
  0.000  0.000  0.000  0.000  0.300
atom   17   Tr[ns(na)] =   3.00000
    eigenvalues:
  0.300  0.300  0.300  0.300  0.300
    eigenvectors:
  1.000  0.000  0.000  0.000  0.000
  0.000  1.000  0.000  0.000  0.000
  0.000  0.000  1.000  0.000  0.000
  0.000  0.000  0.000  1.000  0.000
  0.000  0.000  0.000  0.000  1.000
    occupations:
  0.300  0.000  0.000  0.000  0.000
  0.000  0.300  0.000  0.000  0.000
  0.000  0.000  0.300  0.000  0.000
  0.000  0.000  0.000  0.300  0.000
  0.000  0.000  0.000  0.000  0.300
atom   22   Tr[ns(na)] =   3.00000
    eigenvalues:
  0.300  0.300  0.300  0.300  0.300
    eigenvectors:
  1.000  0.000  0.000  0.000  0.000
  0.000  1.000  0.000  0.000  0.000
  0.000  0.000  1.000  0.000  0.000
[...]
  0.000  0.000  1.000  0.000  0.000
  0.000  1.000  0.000  0.000  0.000
  1.000  0.000  0.000  0.000  0.000
  0.000  0.000  0.000  0.000  1.000
  0.000  0.000  0.000  1.000  0.000
    occupations:
  0.504  0.000  0.001  0.000  0.000
  0.000  0.365  0.000  0.001  0.001
  0.001  0.000  0.328 -0.002 -0.000
  0.000  0.001 -0.002  0.802 -0.000
  0.000  0.001 -0.000 -0.000  0.533
atom   16   Tr[ns(na)] =   5.11649
    eigenvalues:
  0.335  0.342  0.515  0.595  0.772
    eigenvectors:
  0.000  0.000  0.001  0.343  0.656
  0.000  0.000  0.999  0.001  0.000
  0.739  0.261  0.000  0.000  0.000
  0.000  0.000  0.000  0.656  0.344
  0.261  0.739  0.000  0.000  0.000
    occupations:
  0.711  0.005  0.001 -0.084  0.003
  0.005  0.515  0.001 -0.001  0.001
  0.001  0.001  0.337 -0.001  0.003
 -0.084 -0.001 -0.001  0.655 -0.002
  0.003  0.001  0.003 -0.002  0.340
atom   17   Tr[ns(na)] =   5.16205
    eigenvalues:
  0.338  0.364  0.552  0.585  0.742
    eigenvectors:
  0.003  0.000  0.000  0.997  0.000
  0.996  0.000  0.000  0.003  0.001
  0.000  1.000  0.000  0.000  0.000
  0.001  0.000  0.000  0.000  0.999
  0.000  0.000  1.000  0.000  0.000
    occupations:
  0.584  0.014  0.000 -0.003 -0.000
  0.014  0.340 -0.000 -0.012  0.000
  0.000 -0.000  0.364 -0.000  0.001
 -0.003 -0.012 -0.000  0.741  0.000
 -0.000  0.000  0.001  0.000  0.552
atom   22   Tr[ns(na)] =   5.25387
    eigenvalues:
  0.441  0.455  0.473  0.628  0.630
    eigenvectors:
  0.001  0.872  0.000  0.107  0.020
  0.000  0.000  0.000  0.158  0.842
  0.991  0.001  0.008  0.000  0.000
  0.000  0.126  0.000  0.735  0.139
  0.008  0.000  0.992  0.000  0.000
    occupations:
  0.477 -0.000 -0.000  0.058 -0.000
 -0.000  0.630 -0.000  0.001  0.000
 -0.000 -0.000  0.441  0.001 -0.003
  0.058  0.001  0.001  0.607  0.000
 -0.000  0.000 -0.003  0.000  0.473
atom   23   Tr[ns(na)] =   5.20310
    eigenvalues:
  0.331  0.485  0.560  0.600  0.625
    eigenvectors:
  0.002  0.000  0.000  0.838  0.160
  0.000  0.995  0.005  0.000  0.000
  0.998  0.000  0.000  0.001  0.001
  0.000  0.000  0.000  0.161  0.839
  0.000  0.005  0.995  0.000  0.000
    occupations:
  0.603  0.000  0.012  0.009 -0.000
  0.000  0.486 -0.000 -0.000 -0.005
  0.012 -0.000  0.332  0.004  0.000
  0.009 -0.000  0.004  0.621 -0.000
 -0.000 -0.005  0.000 -0.000  0.559
N of occupied +U levels =  41.3369303
 --- exit write_ns ---

     Threshold (ethr) on eigenvalues was too large:
     Diagonalizing with lowered threshold

     Davidson diagonalization with overlap
     ethr =  1.49E-08,  avg # of iterations =  2.0

[...]

     total energy              =   -1591.84809711 Ry
     Harris-Foulkes estimate   =   -1591.84809711 Ry
     estimated scf accuracy    <       0.00000001 Ry

     iteration # 12     ecut=    40.00 Ry     beta=0.70
     Davidson diagonalization with overlap
     ethr =  5.43E-12,  avg # of iterations =  1.1

     negative rho (up, down):  0.341E-02 0.000E+00

     End of self-consistent calculation
 --- enter write_ns ---
 LDA+U parameters:
U( 2)     =  5.50000000
alpha( 2) =  0.00000000
atom    3   Tr[ns(na)] =   5.11674
    eigenvalues:
  0.336  0.342  0.515  0.595  0.772
    eigenvectors:
  0.000  0.000  0.001  0.343  0.656
  0.000  0.000  0.999  0.001  0.000
  0.731  0.269  0.000  0.000  0.000
  0.000  0.000  0.000  0.656  0.344
  0.269  0.731  0.000  0.000  0.000
    occupations:
  0.711 -0.005  0.002 -0.084 -0.003
 -0.005  0.515 -0.001  0.001  0.001
  0.002 -0.001  0.337 -0.001 -0.003
 -0.084  0.001 -0.001  0.655  0.002
 -0.003  0.001 -0.003  0.002  0.340
atom    4   Tr[ns(na)] =   5.16673
    eigenvalues:
  0.336  0.364  0.552  0.584  0.746
    eigenvectors:
  0.003  0.000  0.000  0.997  0.000
  0.996  0.000  0.000  0.003  0.001
  0.000  1.000  0.000  0.000  0.000
  0.001  0.000  0.000  0.000  0.999
  0.000  0.000  1.000  0.000  0.000
    occupations:
  0.584  0.014  0.000 -0.002 -0.000
  0.014  0.337 -0.000 -0.012  0.000
  0.000 -0.000  0.364 -0.000  0.001
 -0.002 -0.012 -0.000  0.746  0.000
 -0.000  0.000  0.001  0.000  0.552
atom    9   Tr[ns(na)] =   5.25434
    eigenvalues:
  0.441  0.455  0.473  0.628  0.630
    eigenvectors:
  0.001  0.872  0.000  0.105  0.021
  0.000  0.000  0.000  0.172  0.828
  0.990  0.001  0.009  0.000  0.000
  0.000  0.126  0.000  0.723  0.150
  0.009  0.000  0.991  0.000  0.000
    occupations:
  0.477  0.000 -0.000  0.058  0.000
  0.000  0.629  0.000 -0.001  0.000
 -0.000  0.000  0.441  0.001  0.003
  0.058 -0.001  0.001  0.607 -0.000
  0.000  0.000  0.003 -0.000  0.473
atom   10   Tr[ns(na)] =   5.06494
    eigenvalues:
  0.328  0.365  0.504  0.533  0.803
    eigenvectors:
  0.000  0.000  1.000  0.000  0.000
  0.000  1.000  0.000  0.000  0.000
  1.000  0.000  0.000  0.000  0.000
  0.000  0.000  0.000  0.000  1.000
  0.000  0.000  0.000  1.000  0.000
    occupations:
  0.504  0.000  0.001  0.000  0.000
  0.000  0.365  0.000  0.001  0.001
  0.001  0.000  0.328 -0.002 -0.000
  0.000  0.001 -0.002  0.803 -0.000
  0.000  0.001 -0.000 -0.000  0.533
atom   16   Tr[ns(na)] =   5.11693
    eigenvalues:
  0.335  0.342  0.515  0.595  0.772
    eigenvectors:
  0.000  0.000  0.001  0.343  0.656
  0.000  0.000  0.999  0.001  0.000
  0.741  0.259  0.000  0.000  0.000
  0.000  0.000  0.000  0.656  0.344
  0.259  0.741  0.000  0.000  0.000
    occupations:
  0.711  0.005  0.001 -0.084  0.003
  0.005  0.515  0.001 -0.001  0.001
  0.001  0.001  0.337 -0.001  0.003
 -0.084 -0.001 -0.001  0.655 -0.002
  0.003  0.001  0.003 -0.002  0.340
atom   17   Tr[ns(na)] =   5.16238
    eigenvalues:
  0.338  0.364  0.552  0.585  0.742
    eigenvectors:
  0.003  0.000  0.000  0.997  0.000
  0.996  0.000  0.000  0.003  0.001
  0.000  1.000  0.000  0.000  0.000
  0.001  0.000  0.000  0.000  0.999
  0.000  0.000  1.000  0.000  0.000
    occupations:
  0.584  0.014  0.000 -0.003 -0.000
  0.014  0.340 -0.000 -0.012  0.000
  0.000 -0.000  0.364 -0.000  0.001
 -0.003 -0.012 -0.000  0.741  0.000
 -0.000  0.000  0.001  0.000  0.552
atom   22   Tr[ns(na)] =   5.25451
    eigenvalues:
  0.441  0.455  0.473  0.628  0.630
    eigenvectors:
  0.001  0.872  0.000  0.106  0.020
  0.000  0.000  0.000  0.162  0.838
  0.990  0.001  0.008  0.000  0.000
  0.000  0.126  0.000  0.731  0.142
  0.008  0.000  0.991  0.000  0.000
    occupations:
  0.477 -0.000 -0.000  0.058 -0.000
 -0.000  0.629 -0.000  0.001  0.000
 -0.000 -0.000  0.441  0.001 -0.003
  0.058  0.001  0.001  0.607  0.000
 -0.000  0.000 -0.003  0.000  0.473
atom   23   Tr[ns(na)] =   5.20084
    eigenvalues:
  0.331  0.485  0.560  0.600  0.624
    eigenvectors:
  0.002  0.000  0.000  0.827  0.172
  0.000  0.995  0.005  0.000  0.000
  0.998  0.000  0.000  0.001  0.001
  0.000  0.000  0.000  0.172  0.828
  0.000  0.005  0.995  0.000  0.000
    occupations:
  0.603  0.000  0.012  0.009 -0.000
  0.000  0.486 -0.000 -0.000 -0.005
  0.012 -0.000  0.332  0.004  0.000
  0.009 -0.000  0.004  0.620 -0.000
 -0.000 -0.005  0.000 -0.000  0.559
N of occupied +U levels =  41.3374134
 --- exit write_ns ---

[...]

          k = 0.2500-0.4237 0.0000 ( 32188 PWs)   bands (ev):

[...]

          k =-0.2500 0.2118 0.0000 ( 32165 PWs)   bands (ev):

   -56.2893 -56.2206 -55.7467 -55.6882 -55.6350 -55.5508 -55.4836 -55.3890
   -33.0314 -32.5120 -32.3726 -32.3158 -32.3132 -32.2811 -32.2391 -32.2102
   -32.1615 -32.0220 -32.0204 -31.9667 -31.9309 -31.8858 -31.8690 -31.6490
   -31.6371 -31.5245 -31.4424 -31.4271 -31.3001 -31.2853 -31.1959 -31.1789
   -22.4464 -20.1399 -19.9783 -19.2138 -19.0656 -18.7736 -18.7379 -18.7311
   -18.6595 -18.6099 -18.5950 -18.5748 -17.8625 -17.8411 -17.8127 -17.7971
   -17.7427 -17.7284 -17.6169 -16.0618  -8.7792  -8.3237  -7.7235  -7.3068
    -7.0151  -6.9365  -6.7425  -6.4757  -6.3425  -6.2833  -6.2124  -6.0929
    -6.0720  -6.0566  -5.8046  -5.7815  -5.6825  -5.4015  -5.3638  -5.3268
    -5.2747  -5.1021  -4.8985  -4.8531  -4.7151  -4.5005  -4.3865  -4.3688
    -4.2602  -4.1414  -4.0363  -3.9769  -3.9509  -3.9117  -3.8028  -3.7493
    -3.6853  -3.6476  -3.6243  -3.5526  -3.4186  -3.3259  -3.2627  -3.2475
    -3.1675  -3.0227  -2.9984  -2.9005  -2.8382  -2.8068  -2.7231  -2.5617
    -2.4968  -2.4436  -2.3491  -2.3243  -2.0256  -1.8572  -0.8610  -0.7255
     0.1290   0.1751   1.4009   1.6484   1.8798   1.8850   1.9750   2.0061
     2.1352   2.3207   2.4517   2.5486   2.5827   2.6960   2.7915   2.7983
     2.8525   2.9478   3.0360   3.1132   3.2315   3.2485   3.3790   3.5940
     3.8982   4.2191   4.3701   4.4234   4.7058   4.7911   4.9681   5.1495
     5.1863   5.2341   5.3337   5.4647   5.4789   5.6848   5.8045   5.8671
     5.9388   6.0335   6.0542   6.1578   6.4015   6.4722   6.5466   6.7003
     6.7444   6.7922   6.8541   6.9996   7.1080   7.2912   7.3437   7.4456
     7.5388   7.7678   7.8879   8.0086   8.0618   8.1447   8.2988   8.3363
     8.5122   8.5889   8.7293   8.8028   8.9405   8.9645   9.0603   9.2601
     9.3052   9.4250   9.4848   9.5613   9.6687   9.7986   9.8708   9.9547
    10.0627  10.1360  10.2209  10.3360  10.4264  10.4626  10.6116  10.7894
    10.8669  10.9912  11.0342  11.1113  11.1729  11.2313  11.3122  11.3879
    11.4814  11.5898  11.6105  11.6541  11.7044  11.8758  11.9141  12.0057
    12.1179  12.1852  12.2287  12.3312  12.4555  12.5534  12.6038  12.7088
    12.7478  12.8000  12.8593  12.9261  12.9462  13.0062  13.0569  13.1868
    13.2228  13.3008  13.3382  13.4233  13.5398  13.5903  13.6518  13.7208
    13.7682  13.8638  13.9088  14.0003  14.0492  14.0790  14.1352  14.2387
    14.3140  14.4033  14.4286  14.4918  14.6570  14.7511  14.7991  14.8806
    14.9547  15.0825  15.1709  15.2465  15.3111  15.3195  15.4081  15.4521
    15.5027  15.5516  15.5846  15.7015  15.7709  15.8112  15.8765  15.9020
    15.9861  16.0615  16.1243  16.2031  16.2872  16.3736  16.3915  16.4365
    16.5567  16.6744  16.7100  16.7412  16.7879  16.8772  16.9237  17.0409
    17.0719  17.1202  17.1819  17.2401  17.3208  17.3826  17.4917  17.5142
    17.5688  17.6297  17.6918  17.8284  17.8757  17.9387  17.9664  18.0690
    18.1233  18.2166  18.2935  18.3523  18.4150  18.5579  18.5865  18.6478
    18.6532  18.7610  18.8260  18.8764  18.9716  19.0142  19.0846  19.1002
    19.2062  19.2820  19.2999  19.3810  19.4352  19.4610  19.5185  19.5916
    19.6750  19.7478  19.7800  19.8133  19.8833  19.9166  19.9800  20.0378
    20.0600  20.1294  20.1713  20.2417  20.2907  20.3662  20.4248

     the Fermi energy is     1.1898 ev

!    total energy              =   -1591.84809711 Ry
     Harris-Foulkes estimate   =   -1591.84809711 Ry
     estimated scf accuracy    <          3.5E-09 Ry

     The total energy is the sum of the following terms:

     one-electron contribution =  -19298.18522968 Ry
     hartree contribution      =    9682.47785285 Ry
     xc contribution           =    -294.73187488 Ry
     ewald contribution        =    8314.86263160 Ry
     Hubbard energy            =       3.72868402 Ry
     smearing contrib. (-TS)   =      -0.00016102 Ry

     convergence has been achieved in  12 iterations

     Forces acting on atoms (Ry/au):

     negative rho (up, down):  0.341E-02 0.000E+00
     atom    1 type  1   force =     0.00111076   -0.00029976    0.00037602
     atom    2 type  1   force =    -0.00006488    0.00046656    0.00040995
     atom    3 type  2   force =     0.02976658   -0.00009944   -0.00028099
     atom    4 type  2   force =    -0.00231050    0.00002829    0.00007898
     atom    5 type  1   force =    -0.00154787   -0.02819369    0.00010186
     atom    6 type  1   force =    -0.00137133    0.02808542    0.00011135
     atom    7 type  1   force =    -0.00014980   -0.00006598    0.00001700
     atom    8 type  1   force =     0.00105230    0.00100359   -0.00041871
     atom    9 type  2   force =     0.00148967   -0.00054457    0.00013185
     atom   10 type  2   force =     0.00017980   -0.00037688   -0.00065640
     atom   11 type  1   force =    -0.00086779    0.00819796   -0.00042093
     atom   12 type  1   force =     0.00153602   -0.00329982   -0.00027353
     atom   13 type  1   force =     0.00022121   -0.00141213    0.00064029
     atom   14 type  1   force =     0.00104695   -0.00001244    0.00034502
     atom   15 type  1   force =    -0.00006483    0.00017010   -0.00040723
     atom   16 type  2   force =    -0.02946523   -0.00015955   -0.00031979
     atom   17 type  2   force =    -0.00327330   -0.00003937   -0.00002410
     atom   18 type  1   force =     0.00229027   -0.02806040    0.00006515
     atom   19 type  1   force =     0.00199309    0.02797724    0.00008345
     atom   20 type  1   force =    -0.00013064   -0.00382916    0.00055492
     atom   21 type  1   force =     0.00102216    0.00076763   -0.00034762
     atom   22 type  2   force =    -0.00148084   -0.00054480    0.00015656
     atom   23 type  2   force =    -0.00008408    0.00033121    0.00005286
     atom   24 type  1   force =     0.00080850    0.00817357   -0.00045975
     atom   25 type  1   force =    -0.00158366   -0.00328320   -0.00031458
     atom   26 type  1   force =     0.00016324   -0.00460110    0.00092273
     atom   27 type  3   force =     0.00000792    0.00006798    0.00055263
     atom   28 type  3   force =     0.00000816   -0.00027693   -0.00059475
     atom   29 type  3   force =    -0.00018498    0.00003369    0.00042395
     atom   30 type  3   force =    -0.00013512    0.00000272    0.00045885
     atom   31 type  1   force =     0.00001804    0.00032879    0.00071739
     atom   32 type  1   force =     0.00000142   -0.00028188   -0.00078321
     atom   33 type  3   force =    -0.00000125   -0.00025365   -0.00089921

     Total force =     0.002663     Total SCF correction =     0.000081

     entering subroutine stress ...

     negative rho (up, down):  0.341E-02 0.000E+00
          total   stress  (Ry/bohr**3)                   (kbar)     P=   -1.90
  -0.00001230  -0.00000004   0.00000064         -1.81     -0.01      0.09
  -0.00000004   0.00000824  -0.00000040         -0.01      1.21     -0.06
   0.00000064  -0.00000040  -0.00003469          0.09     -0.06     -5.10

     bfgs converged in  14 scf cycles and  13 bfgs steps
     (criteria: energy < 0.10E-03, force < 0.10E-02)

     End of BFGS Geometry Optimization

     Final energy   =   -1591.8480971070 Ry
Begin final coordinates

ATOMIC_POSITIONS (crystal)
O0       0.000000000   0.000000000   0.371271013    0   0   1
O0       0.000000000   0.500000000   0.387334020    0   0   1
Nb1      0.250000000   0.500000000   0.443011928    0   0   1
Nb1      0.000000000   0.000000000   0.444109286    0   0   1
O0       0.250000000   0.790000000   0.447528838    0   0   1
O0       0.250000000   0.210000000   0.447495496    0   0   1
O0       0.000000000   0.500000000   0.499199391    0   0   1
O0       0.000000000   0.000000000   0.524368230    0   0   1
Nb1      0.250000000   0.000000000   0.577765336    0   0   1
Nb1      0.000000000   0.500000000   0.568312158    0   0   1
O0       0.250000000   0.710000000   0.577992703    0   0   1
O0       0.250000000   0.290000000   0.578543613    0   0   1
O0       0.000000000   0.000000000   0.622233841    0   0   1
O0       0.500000000   0.000000000   0.371499888    0   0   1
O0       0.500000000   0.500000000   0.387772026    0   0   1
Nb1      0.750000000   0.500000000   0.443019421    0   0   1
Nb1      0.500000000   0.000000000   0.444365823    0   0   1
O0       0.750000000   0.790000000   0.447506327    0   0   1
O0       0.750000000   0.210000000   0.447485566    0   0   1
O0       0.500000000   0.500000000   0.500528277    0   0   1
O0       0.500000000   0.000000000   0.524456640    0   0   1
Nb1      0.750000000   0.000000000   0.577793730    0   0   1
Nb1      0.500000000   0.500000000   0.575581732    0   0   1
O0       0.750000000   0.710000000   0.577961586    0   0   1
O0       0.750000000   0.290000000   0.578512841    0   0   1
O0       0.500000000   0.000000000   0.621852788    0   0   1
H2      -0.000423923   0.505300053   0.351166278
H2       0.499593352   0.500237586   0.351583280
H2       0.151551146   0.000914993   0.356031348
H2       0.651333333   0.000625304   0.356159749
O0       0.500027788   0.511637700   0.649543550
O0       0.500001117   0.348666100   0.682703909
H2       0.499993801   0.417513020   0.714569389
End final coordinates

     General routines

     Parallel routines
     Hubbard U routines

   This run was terminated on:  22:16:14   1Jun2014

   JOB DONE.
Running PBS batch system epilogue script
Job id: 373369.audhumbla.fysik.dtu.dk
Username: zhonxu
Groupname: campgst
Jobname: NbO2/Eads-2-layers/OOH-U-5.5
Sessionid: 32734
Queuename: verylong
Accounting:
This job has allocated the following 16 nodes:
a130 a130 a130 a130 a130 a130 a130 a130 a095 a095 a095 a095 a095 a095 a095 a095
Finished epilogue job 373369.audhumbla.fysik.dtu.dk for zhonxu