     Program PWSCF v.5.0.2 (svn rev. 9656) starts on 28May2014 at  1:34:10

     Current dimensions of program PWSCF are:
     Max number of different atomic species (ntypx) = 10
     Max number of k-points (npk) =  40000
     Max angular momentum in pseudopotentials (lmaxx) =  3
     Reading input from pwscf.in
Warning: card &CELL ignored
Warning: card / ignored

     Subspace diagonalization in iterative solution of the eigenvalue problem:
     a serial algorithm will be used

     bravais-lattice index     =            0
     lattice parameter (alat)  =      10.3179  a.u.
     unit-cell volume          =    6964.3238 (a.u.)^3
     number of atoms/cell      =           33
     number of atomic types    =            3
     number of electrons       =       237.00
     number of Kohn-Sham states=          355
     kinetic-energy cutoff     =      40.0000  Ry
     charge density cutoff     =     500.0000  Ry
     convergence threshold     =      1.0E-06
     mixing beta               =       0.7000
     number of iterations used =            8  plain     mixing
     Exchange-correlation      = SLA  PW   PBE  PBE ( 1 4 3 4 0)
     EXX-fraction              =        0.00
     nstep                     =           50

     celldm(1)=  10.317905  celldm(2)=   0.000000  celldm(3)=   0.000000
     celldm(4)=   0.000000  celldm(5)=   0.000000  celldm(6)=   0.000000

     crystal axes: (cart. coord. in units of alat)
               a(1) = (   1.000000   0.000000   0.000000 )
               a(2) = (   0.000000   1.282117   0.000000 )
               a(3) = (   0.000000   0.000000   4.945120 )

     reciprocal axes: (cart. coord. in units 2 pi/alat)
               b(1) = (  1.000000  0.000000  0.000000 )
               b(2) = (  0.000000  0.779960  0.000000 )
               b(3) = (  0.000000  0.000000  0.202220 )

     PseudoPot. # 1 for O  read from file:
     /home/camp/zhonxu/pseudo/o_pbe_v1.01.uspp.F.UPF
     MD5 check sum: 2bcb18d16ea4b960afae9ec6d52f22d2
     Pseudo is Ultrasoft + core correction, Zval =  6.0
     Generated by new atomic code, or converted to UPF format
     Using radial grid of  737 points,  5 beta functions with:
                l(1) =   0
                l(2) =   0
                l(3) =   1
                l(4) =   1
                l(5) =   2
     Q(r) pseudized with  8 coefficients,  rinner =    0.900   0.900   0.900
                                                       0.900   0.900

     PseudoPot. # 2 for Mo read from file:
     /home/camp/zhonxu/pseudo/mo_pbe_v1.uspp.F.UPF
     MD5 check sum: 30c4dcd161f5d35cd49bb5239c51a633
     Pseudo is Ultrasoft + core correction, Zval = 14.0
     Generated by new atomic code, or converted to UPF format
     Using radial grid of  889 points,  6 beta functions with:
                l(1) =   0
                l(2) =   0
                l(3) =   1
                l(4) =   1
                l(5) =   2
                l(6) =   2
     Q(r) pseudized with  6 coefficients,  rinner =    1.000   1.000   1.000
                                                       1.000   1.000

     PseudoPot. # 3 for H  read from file:
     /home/camp/zhonxu/pseudo/h_pbe_v1.uspp.F.UPF
     MD5 check sum: 3408e3ff4ec8b0a4e358431e7e038a48
     Pseudo is Ultrasoft, Zval =  1.0
     Generated by new atomic code, or converted to UPF format
     Using radial grid of  615 points,  2 beta functions with:
                l(1) =   0
                l(2) =   0
     Q(r) pseudized with  8 coefficients,  rinner =    0.700

     atomic species   valence    mass     pseudopotential
        O0             6.00    15.99940     O ( 1.00)
        Mo1           14.00    95.94000     Mo( 1.00)
        H2             1.00     1.00794     H ( 1.00)

     Simplified LDA+U calculation (l_max = 2) with parameters (eV):
     atomic species    L          U    alpha       J0     beta
        Mo1            2     1.5000   0.0000   0.0000   0.0000

     No symmetry found

   Cartesian axes

     site n.     atom                  positions (alat units)
         1           O0  tau(   1) = (   0.0000000   0.0000000   1.8345407  )
         2           O0  tau(   2) = (   0.0000000   0.6410583   1.8924976  )
         3           Mo1 tau(   3) = (   0.2500000   0.6410583   2.1781772  )
         4           Mo1 tau(   4) = (   0.0000000   0.0000000   2.1929631  )
         5           O0  tau(   5) = (   0.2500000   1.0000510   2.1897982  )
         6           O0  tau(   6) = (   0.2500000   0.2820657   2.1891553  )
         7           O0  tau(   7) = (   0.0000000   0.6410583   2.4607413  )
         8           O0  tau(   8) = (   0.0000000   0.0000000   2.5556382  )
         9           Mo1 tau(   9) = (   0.2500000   0.0000000   2.8453728  )
        10           Mo1 tau(  10) = (   0.0000000   0.6410583   2.7952787  )
        11           O0  tau(  11) = (   0.2500000   0.9231240   2.8196582  )
        12           O0  tau(  12) = (   0.2500000   0.3589927   2.8248011  )
        13           O0  tau(  13) = (   0.0000000   0.0000000   3.0952003  )
        14           O0  tau(  14) = (   0.5000000   0.0000000   1.8353814  )
        15           O0  tau(  15) = (   0.5000000   0.6410583   1.8936349  )
        16           Mo1 tau(  16) = (   0.7500000   0.6410583   2.1781277  )
        17           Mo1 tau(  17) = (   0.5000000   0.0000000   2.1954851  )
        18           O0  tau(  18) = (   0.7500000   1.0000510   2.1899960  )
        19           O0  tau(  19) = (   0.7500000   0.2820657   2.1890564  )
        20           O0  tau(  20) = (   0.5000000   0.6410583   2.4612853  )
        21           O0  tau(  21) = (   0.5000000   0.0000000   2.5539074  )
        22           Mo1 tau(  22) = (   0.7500000   0.0000000   2.8439387  )
        23           Mo1 tau(  23) = (   0.5000000   0.6410583   2.8209934  )
        24           O0  tau(  24) = (   0.7500000   0.9231240   2.8195098  )
        25           O0  tau(  25) = (   0.7500000   0.3589927   2.8246033  )
        26           O0  tau(  26) = (   0.5000000   0.0000000   3.0932717  )
        27           H2  tau(  27) = (  -0.0005800   0.7846554   1.7836060  )
        28           H2  tau(  28) = (   0.4995100   0.7915788   1.7940402  )
        29           H2  tau(  29) = (   0.1672700   0.0232576   1.7642706  )
        30           H2  tau(  30) = (   0.6659000   0.0248346   1.7633310  )
        31           O0  tau(  31) = (   0.5002100   0.6666879   3.1760530  )
        32           O0  tau(  32) = (   0.4999400   0.4570233   3.3393409  )
        33           H2  tau(  33) = (   0.5000100   0.5446560   3.4973869  )

     number of k points=    10  Methfessel-Paxton smearing, width (Ry)=  0.0100
                       cart. coord. in units 2pi/alat
        k(    1) = (   0.0000000   0.0000000   0.0000000), wk =   0.1250000
        k(    2) = (   0.0000000   0.1949901   0.0000000), wk =   0.2500000
        k(    3) = (   0.0000000  -0.3899801   0.0000000), wk =   0.1250000
        k(    4) = (   0.2500000   0.0000000   0.0000000), wk =   0.2500000
        k(    5) = (   0.2500000   0.1949901   0.0000000), wk =   0.2500000
        k(    6) = (   0.2500000  -0.3899801   0.0000000), wk =   0.2500000
        k(    7) = (  -0.5000000   0.0000000   0.0000000), wk =   0.1250000
        k(    8) = (  -0.5000000   0.1949901   0.0000000), wk =   0.2500000
        k(    9) = (  -0.5000000  -0.3899801   0.0000000), wk =   0.1250000
        k(   10) = (  -0.2500000   0.1949901   0.0000000), wk =   0.2500000

     Largest allocated arrays     est. size (Mb)     dimensions
     Largest temporary arrays     est. size (Mb)     dimensions

     Check: negative/imaginary core charge=   -0.000003    0.000000

     Initial potential from superposition of free atoms
     Check: negative starting charge=   -0.002157

     starting charge  236.99142, renormalised to  237.00000

     negative rho (up, down):  0.216E-02 0.000E+00
     Number of +U iterations with fixed ns =  0
     Starting occupations:
 --- enter write_ns ---
 LDA+U parameters:
U( 2)     =  1.50000000
alpha( 2) =  0.00000000
atom    3   Tr[ns(na)] =   5.00000
    eigenvalues:
  0.500  0.500  0.500  0.500  0.500
    eigenvectors:
  1.000  0.000  0.000  0.000  0.000
  0.000  1.000  0.000  0.000  0.000
  0.000  0.000  1.000  0.000  0.000
  0.000  0.000  0.000  1.000  0.000
  0.000  0.000  0.000  0.000  1.000
    occupations:
  0.500  0.000  0.000  0.000  0.000
  0.000  0.500  0.000  0.000  0.000
  0.000  0.000  0.500  0.000  0.000
  0.000  0.000  0.000  0.500  0.000
  0.000  0.000  0.000  0.000  0.500
atom    4   Tr[ns(na)] =   5.00000
    eigenvalues:
  0.500  0.500  0.500  0.500  0.500
    eigenvectors:
  1.000  0.000  0.000  0.000  0.000
  0.000  1.000  0.000  0.000  0.000
  0.000  0.000  1.000  0.000  0.000
  0.000  0.000  0.000  1.000  0.000
  0.000  0.000  0.000  0.000  1.000
    occupations:
  0.500  0.000  0.000  0.000  0.000
  0.000  0.500  0.000  0.000  0.000
  0.000  0.000  0.500  0.000  0.000
  0.000  0.000  0.000  0.500  0.000
  0.000  0.000  0.000  0.000  0.500
atom    9   Tr[ns(na)] =   5.00000
    eigenvalues:
  0.500  0.500  0.500  0.500  0.500
    eigenvectors:
  1.000  0.000  0.000  0.000  0.000
  0.000  1.000  0.000  0.000  0.000
  0.000  0.000  1.000  0.000  0.000
  0.000  0.000  0.000  1.000  0.000
  0.000  0.000  0.000  0.000  1.000
    occupations:
  0.500  0.000  0.000  0.000  0.000
  0.000  0.500  0.000  0.000  0.000
  0.000  0.000  0.500  0.000  0.000
  0.000  0.000  0.000  0.500  0.000
  0.000  0.000  0.000  0.000  0.500
atom   10   Tr[ns(na)] =   5.00000
    eigenvalues:
  0.500  0.500  0.500  0.500  0.500
    eigenvectors:
  1.000  0.000  0.000  0.000  0.000
  0.000  1.000  0.000  0.000  0.000
  0.000  0.000  1.000  0.000  0.000
  0.000  0.000  0.000  1.000  0.000
  0.000  0.000  0.000  0.000  1.000
    occupations:
  0.500  0.000  0.000  0.000  0.000
  0.000  0.500  0.000  0.000  0.000
  0.000  0.000  0.500  0.000  0.000
  0.000  0.000  0.000  0.500  0.000
  0.000  0.000  0.000  0.000  0.500
atom   16   Tr[ns(na)] =   5.00000
    eigenvalues:
  0.500  0.500  0.500  0.500  0.500
    eigenvectors:
  1.000  0.000  0.000  0.000  0.000
  0.000  1.000  0.000  0.000  0.000
  0.000  0.000  1.000  0.000  0.000
  0.000  0.000  0.000  1.000  0.000
  0.000  0.000  0.000  0.000  1.000
    occupations:
  0.500  0.000  0.000  0.000  0.000
  0.000  0.500  0.000  0.000  0.000
  0.000  0.000  0.500  0.000  0.000
  0.000  0.000  0.000  0.500  0.000
  0.000  0.000  0.000  0.000  0.500
atom   17   Tr[ns(na)] =   5.00000
    eigenvalues:
  0.500  0.500  0.500  0.500  0.500
    eigenvectors:
  1.000  0.000  0.000  0.000  0.000
  0.000  1.000  0.000  0.000  0.000
  0.000  0.000  1.000  0.000  0.000
  0.000  0.000  0.000  1.000  0.000
  0.000  0.000  0.000  0.000  1.000
    occupations:
  0.500  0.000  0.000  0.000  0.000
  0.000  0.500  0.000  0.000  0.000
  0.000  0.000  0.500  0.000  0.000
  0.000  0.000  0.000  0.500  0.000
  0.000  0.000  0.000  0.000  0.500
atom   22   Tr[ns(na)] =   5.00000
    eigenvalues:
  0.500  0.500  0.500  0.500  0.500
    eigenvectors:
  1.000  0.000  0.000  0.000  0.000
  0.000  1.000  0.000  0.000  0.000
  0.000  0.000  1.000  0.000  0.000
[...]
  0.666 -0.001 -0.000 -0.043 -0.002
 -0.001  0.592 -0.001 -0.001 -0.000
 -0.000 -0.001  0.532  0.000  0.014
 -0.043 -0.001  0.000  0.610  0.000
 -0.002 -0.000  0.014  0.000  0.511
atom   10   Tr[ns(na)] =   5.76866
    eigenvalues:
  0.496  0.508  0.518  0.632  0.730
    eigenvectors:
  0.961  0.038  0.000  0.000  0.001
  0.000  0.000  0.000  1.000  0.000
  0.038  0.961  0.000  0.000  0.000
  0.001  0.000  0.000  0.000  0.999
  0.000  0.000  1.000  0.000  0.000
    occupations:
  0.497  0.000 -0.002 -0.007  0.000
  0.000  0.632 -0.000  0.000 -0.000
 -0.002 -0.000  0.508 -0.001 -0.000
 -0.007  0.000 -0.001  0.729 -0.000
  0.000 -0.000 -0.000 -0.000  0.518
atom   16   Tr[ns(na)] =   5.82648
    eigenvalues:
  0.504  0.512  0.564  0.598  0.736
    eigenvectors:
  0.013  0.001  0.339  0.000  0.646
  0.003  0.994  0.002  0.001  0.000
  0.965  0.002  0.004  0.019  0.009
  0.000  0.001  0.655  0.001  0.344
  0.019  0.001  0.001  0.979  0.000
    occupations:
  0.674  0.002  0.020 -0.081  0.000
  0.002  0.512  0.001  0.001 -0.003
  0.020  0.001  0.508 -0.010 -0.013
 -0.081  0.001 -0.010  0.623 -0.000
  0.000 -0.003 -0.013 -0.000  0.596
atom   17   Tr[ns(na)] =   5.82607
    eigenvalues:
  0.468  0.522  0.581  0.619  0.724
    eigenvectors:
  0.000  0.000  0.990  0.009  0.001
  0.001  0.000  0.009  0.990  0.000
  0.999  0.000  0.000  0.001  0.000
  0.000  0.000  0.001  0.000  0.998
  0.000  1.000  0.000  0.000  0.000
    occupations:
  0.581  0.004  0.001 -0.005  0.000
  0.004  0.618  0.004 -0.001 -0.001
  0.001  0.004  0.468 -0.000  0.000
 -0.005 -0.001 -0.000  0.723  0.000
  0.000 -0.001  0.000  0.000  0.522
atom   22   Tr[ns(na)] =   5.82253
    eigenvalues:
  0.503  0.538  0.585  0.591  0.694
    eigenvectors:
  0.000  0.000  0.212  0.019  0.769
  0.000  0.000  0.081  0.919  0.000
  0.198  0.802  0.000  0.000  0.000
  0.000  0.000  0.707  0.062  0.231
  0.802  0.198  0.000  0.000  0.000
    occupations:
  0.669  0.001 -0.001 -0.045 -0.001
  0.001  0.591 -0.000  0.001 -0.000
 -0.001 -0.000  0.531  0.000 -0.014
 -0.045  0.001  0.000  0.611  0.001
 -0.001 -0.000 -0.014  0.001  0.510
atom   23   Tr[ns(na)] =   5.84066
    eigenvalues:
  0.524  0.526  0.550  0.578  0.742
    eigenvectors:
  0.002  0.000  0.000  0.988  0.010
  0.000  0.024  0.975  0.000  0.000
  0.994  0.004  0.000  0.003  0.000
  0.000  0.000  0.000  0.010  0.990
  0.003  0.972  0.024  0.000  0.000
    occupations:
  0.579  0.000  0.002 -0.016  0.000
  0.000  0.550  0.000 -0.000 -0.004
  0.002  0.000  0.524  0.003  0.000
 -0.016 -0.000  0.003  0.741 -0.000
  0.000 -0.004  0.000 -0.000  0.526
N of occupied +U levels =  46.5500975
 --- exit write_ns ---

     Threshold (ethr) on eigenvalues was too large:
     Diagonalizing with lowered threshold

     Davidson diagonalization with overlap
     ethr =  4.47E-09,  avg # of iterations =  3.0

[...]

     total energy              =   -1764.66517484 Ry
     Harris-Foulkes estimate   =   -1764.66517486 Ry
     estimated scf accuracy    <       0.00000025 Ry

     iteration # 14     ecut=    40.00 Ry     beta=0.70
     Davidson diagonalization with overlap
     ethr =  7.84E-12,  avg # of iterations =  1.0

     negative rho (up, down):  0.334E-02 0.000E+00

     End of self-consistent calculation
 --- enter write_ns ---
 LDA+U parameters:
U( 2)     =  1.50000000
alpha( 2) =  0.00000000
atom    3   Tr[ns(na)] =   5.82725
    eigenvalues:
  0.505  0.512  0.563  0.598  0.735
    eigenvectors:
  0.013  0.001  0.339  0.000  0.646
  0.004  0.994  0.002  0.001  0.000
  0.965  0.003  0.004  0.018  0.010
  0.000  0.001  0.654  0.001  0.344
  0.017  0.001  0.001  0.980  0.000
    occupations:
  0.674 -0.002  0.020 -0.081 -0.000
 -0.002  0.512 -0.001 -0.001 -0.003
  0.020 -0.001  0.509 -0.010  0.012
 -0.081 -0.001 -0.010  0.623  0.000
 -0.000 -0.003  0.012  0.000  0.596
atom    4   Tr[ns(na)] =   5.81676
    eigenvalues:
  0.457  0.522  0.579  0.626  0.725
    eigenvectors:
  0.000  0.000  0.992  0.007  0.001
  0.001  0.000  0.007  0.992  0.000
  0.999  0.000  0.000  0.001  0.000
  0.000  0.000  0.001  0.000  0.999
  0.000  1.000  0.000  0.000  0.000
    occupations:
  0.579  0.004  0.000 -0.004  0.000
  0.004  0.625  0.005 -0.001  0.000
  0.000  0.005  0.457  0.000  0.000
 -0.004 -0.001  0.000  0.725  0.000
  0.000  0.000  0.000  0.000  0.522
atom    9   Tr[ns(na)] =   5.82227
    eigenvalues:
  0.504  0.539  0.586  0.592  0.689
    eigenvectors:
  0.000  0.000  0.220  0.009  0.771
  0.000  0.000  0.038  0.962  0.000
  0.190  0.810  0.000  0.000  0.000
  0.000  0.000  0.742  0.029  0.229
  0.810  0.190  0.000  0.000  0.000
    occupations:
  0.666 -0.001 -0.000 -0.043 -0.002
 -0.001  0.592 -0.001 -0.001 -0.000
 -0.000 -0.001  0.532  0.000  0.014
 -0.043 -0.001  0.000  0.610  0.000
 -0.002 -0.000  0.014  0.000  0.511
atom   10   Tr[ns(na)] =   5.76725
    eigenvalues:
  0.496  0.508  0.518  0.632  0.729
    eigenvectors:
  0.960  0.039  0.000  0.000  0.001
  0.000  0.000  0.000  1.000  0.000
  0.039  0.961  0.000  0.000  0.000
  0.001  0.000  0.000  0.000  0.999
  0.000  0.000  1.000  0.000  0.000
    occupations:
  0.497  0.000 -0.002 -0.007  0.000
  0.000  0.632 -0.000  0.000 -0.000
 -0.002 -0.000  0.508 -0.001 -0.000
 -0.007  0.000 -0.001  0.729 -0.000
  0.000 -0.000 -0.000 -0.000  0.518
atom   16   Tr[ns(na)] =   5.82688
    eigenvalues:
  0.504  0.512  0.564  0.598  0.736
    eigenvectors:
  0.013  0.001  0.339  0.000  0.647
  0.003  0.994  0.001  0.001  0.000
  0.965  0.002  0.004  0.019  0.009
  0.000  0.001  0.655  0.001  0.344
  0.019  0.001  0.001  0.979  0.000
    occupations:
  0.674  0.002  0.020 -0.081  0.000
  0.002  0.512  0.001  0.001 -0.003
  0.020  0.001  0.508 -0.010 -0.013
 -0.081  0.001 -0.010  0.623 -0.000
  0.000 -0.003 -0.013 -0.000  0.596
atom   17   Tr[ns(na)] =   5.82579
    eigenvalues:
  0.468  0.522  0.581  0.619  0.724
    eigenvectors:
  0.000  0.000  0.990  0.009  0.001
  0.001  0.000  0.009  0.990  0.000
  0.999  0.000  0.000  0.001  0.000
  0.000  0.000  0.001  0.000  0.998
  0.000  1.000  0.000  0.000  0.000
    occupations:
  0.581  0.004  0.001 -0.005  0.000
  0.004  0.618  0.004 -0.001 -0.001
  0.001  0.004  0.468 -0.000  0.000
 -0.005 -0.001 -0.000  0.723  0.000
  0.000 -0.001  0.000  0.000  0.522
atom   22   Tr[ns(na)] =   5.82251
    eigenvalues:
  0.503  0.538  0.585  0.591  0.694
    eigenvectors:
  0.000  0.000  0.212  0.020  0.769
  0.000  0.000  0.083  0.917  0.000
  0.198  0.802  0.000  0.000  0.000
  0.000  0.000  0.706  0.063  0.231
  0.802  0.198  0.000  0.000  0.000
    occupations:
  0.669  0.001 -0.001 -0.046 -0.001
  0.001  0.591 -0.000  0.001 -0.000
 -0.001 -0.000  0.531  0.000 -0.014
 -0.046  0.001  0.000  0.611  0.001
 -0.001 -0.000 -0.014  0.001  0.510
atom   23   Tr[ns(na)] =   5.84035
    eigenvalues:
  0.524  0.526  0.550  0.578  0.742
    eigenvectors:
  0.002  0.000  0.000  0.988  0.010
  0.000  0.024  0.975  0.000  0.000
  0.994  0.003  0.000  0.003  0.000
  0.000  0.000  0.000  0.010  0.990
  0.003  0.972  0.025  0.000  0.000
    occupations:
  0.579  0.000  0.002 -0.016  0.000
  0.000  0.550  0.000 -0.000 -0.004
  0.002  0.000  0.524  0.003  0.000
 -0.016 -0.000  0.003  0.741 -0.000
  0.000 -0.004  0.000 -0.000  0.526
N of occupied +U levels =  46.5490613
 --- exit write_ns ---

[...]

          k = 0.2500-0.3900 0.0000 ( 29726 PWs)   bands (ev):

[...]

          k =-0.2500 0.1950 0.0000 ( 29746 PWs)   bands (ev):

   -62.0561 -61.9845 -61.9675 -61.8361 -61.8325 -61.8181 -61.7523 -61.7496
   -36.6422 -36.4154 -36.3797 -36.3512 -36.3016 -36.2950 -36.2055 -36.1875
   -36.1532 -36.0991 -36.0508 -36.0146 -35.9995 -35.9828 -35.9734 -35.9515
   -35.8652 -35.8468 -35.8403 -35.8116 -35.7962 -35.5639 -35.4821 -35.4451
   -22.8066 -20.3456 -20.0884 -19.5094 -19.3830 -19.2733 -19.0986 -19.0295
   -18.9556 -18.8332 -18.7410 -18.6321 -18.5160 -18.4654 -18.3783 -18.3427
   -18.2469 -17.7789 -17.6254 -16.5561  -8.3707  -8.2439  -8.1196  -7.7653
    -7.4359  -7.3044  -7.2909  -7.1968  -7.0276  -6.9426  -6.8954  -6.8559
    -6.7504  -6.5711  -6.4683  -6.3169  -6.0222  -5.9857  -5.8790  -5.8269
    -5.6978  -5.6289  -5.5507  -5.3966  -5.2690  -5.2317  -5.0313  -4.9776
    -4.9018  -4.7487  -4.6568  -4.5951  -4.3993  -4.2928  -4.1656  -4.1343
    -4.0715  -4.0066  -3.9636  -3.9141  -3.7894  -3.7685  -3.6855  -3.6127
    -3.4730  -3.3762  -3.2470  -3.1189  -3.0178  -2.9989  -2.9194  -2.8306
    -2.7125  -2.6869  -2.5155  -2.4138  -2.3340  -2.1431  -1.3547  -1.2732
    -1.1658  -1.0676  -0.2935  -0.0666   0.0145   0.1049   0.5513   0.6292
     0.9634   1.0905   1.1518   1.2836   1.4430   1.5332   1.7244   1.7823
     1.8957   2.0219   2.1681   2.2682   2.2914   2.3796   2.6081   2.8302
     3.6843   3.7491   4.0380   4.0949   4.2108   4.2946   4.3709   4.4735
     4.7108   4.7899   4.9271   4.9612   5.1704   5.2266   5.3459   5.5630
     5.9048   6.0612   6.1640   6.2580   6.3404   6.4396   6.5201   6.5995
     6.7333   6.9502   7.0056   7.2733   7.3303   7.4360   7.7357   7.7851
     8.0837   8.2346   8.4533   8.4958   8.6498   8.7291   8.8709   8.9603
     9.0060   9.1977   9.2506   9.3601   9.5076   9.6132   9.6839   9.7748
     9.8229   9.9197   9.9714  10.0886  10.2169  10.4189  10.5365  10.6071
    10.7000  10.7982  10.8915  10.9427  11.0131  11.1264  11.2809  11.3752
    11.4923  11.6548  11.7291  11.8375  11.9043  11.9390  12.0166  12.1698
    12.1989  12.2594  12.3561  12.3669  12.4601  12.5473  12.6201  12.8104
    12.8939  12.9810  13.0236  13.1534  13.2009  13.2370  13.3772  13.4401
    13.5292  13.5592  13.6450  13.6918  13.7493  13.8312  13.8898  13.9546
    14.0379  14.0841  14.1265  14.2003  14.2408  14.2884  14.3656  14.3886
    14.4577  14.5229  14.6186  14.7432  14.7836  14.8774  14.9165  15.0713
    15.1364  15.2335  15.2866  15.4176  15.4775  15.4958  15.6358  15.6844
    15.7910  15.8778  15.9148  16.0119  16.0646  16.1563  16.2467  16.2831
    16.3317  16.4280  16.5045  16.5616  16.5872  16.6216  16.7229  16.7609
    16.8406  16.9199  16.9647  17.0917  17.1059  17.1901  17.2738  17.3059
    17.3375  17.3852  17.4978  17.5865  17.6750  17.7533  17.7957  17.8948
    18.0509  18.0891  18.1320  18.1941  18.2298  18.3477  18.3957  18.4861
    18.5750  18.6131  18.6822  18.7742  18.9029  18.9411  19.0158  19.0601
    19.1858  19.2398  19.3688  19.4054  19.4241  19.5368  19.6004  19.6930
    19.8205  19.8867  19.9866  20.0407  20.1057  20.1473  20.1908  20.2406
    20.2671  20.3340  20.4415  20.4680  20.4887  20.5401  20.6038  20.6788
    20.7576  20.8250  20.8783  20.9374  20.9923  21.0992  21.1377  21.2330
    21.2936  21.3573  21.4033  21.4600  21.5227  21.5456  21.6086  21.6259
    21.6649  21.7405  21.8157  21.8660  21.9009  21.9463  21.9881  22.0780
    22.1418  22.2150  22.2859

     the Fermi energy is     0.4823 ev

!    total energy              =   -1764.66517485 Ry
     Harris-Foulkes estimate   =   -1764.66517485 Ry
     estimated scf accuracy    <          3.7E-09 Ry

     The total energy is the sum of the following terms:

     one-electron contribution =  -22648.86563285 Ry
     hartree contribution      =   11353.93392451 Ry
     xc contribution           =    -301.54227658 Ry
     ewald contribution        =    9830.76511416 Ry
     Hubbard energy            =       1.04376093 Ry
     smearing contrib. (-TS)   =      -0.00006501 Ry

     convergence has been achieved in  14 iterations

     Forces acting on atoms (Ry/au):

     negative rho (up, down):  0.334E-02 0.000E+00
     atom    1 type  1   force =    -0.00103834   -0.00513283   -0.00050354
     atom    2 type  1   force =    -0.00013202    0.00918101    0.00019110
     atom    3 type  2   force =    -0.00965774   -0.00841603    0.00047774
     atom    4 type  2   force =     0.00080904    0.00535949    0.00067615
     atom    5 type  1   force =     0.00006176   -0.00458909    0.00022347
     atom    6 type  1   force =    -0.00174098    0.00212229    0.00011127
     atom    7 type  1   force =     0.00030732   -0.00113318   -0.00032009
     atom    8 type  1   force =     0.00272620    0.00228648   -0.00021977
     atom    9 type  2   force =    -0.00485409   -0.00374394   -0.00037023
     atom   10 type  2   force =    -0.00032436    0.00297185    0.00086629
     atom   11 type  1   force =    -0.01429725   -0.02252506    0.00018003
     atom   12 type  1   force =    -0.01140137    0.02852699    0.00031452
     atom   13 type  1   force =     0.00010131   -0.00177941   -0.00039159
     atom   14 type  1   force =    -0.00324872   -0.00608116   -0.00025414
     atom   15 type  1   force =    -0.00000203    0.01063925   -0.00013311
     atom   16 type  2   force =     0.00894334   -0.00822770    0.00045835
     atom   17 type  2   force =    -0.00133092    0.00420252    0.00005231
     atom   18 type  1   force =     0.00266452   -0.00507473    0.00023830
     atom   19 type  1   force =     0.00199330    0.00194164    0.00013340
     atom   20 type  1   force =     0.00022164    0.00069537   -0.00059570
     atom   21 type  1   force =     0.00353521    0.00216329    0.00021234
     atom   22 type  2   force =     0.00087045   -0.00384430   -0.00055123
     atom   23 type  2   force =     0.00047620    0.00184178    0.00054992
     atom   24 type  1   force =     0.01427838   -0.02210758    0.00015637
     atom   25 type  1   force =     0.01133184    0.02853504    0.00027239
     atom   26 type  1   force =    -0.00042154   -0.00660263   -0.00054124
     atom   27 type  3   force =    -0.00000539   -0.00055272   -0.00037117
     atom   28 type  3   force =     0.00000182   -0.00023734   -0.00060962
     atom   29 type  3   force =     0.00013221   -0.00018280   -0.00004468
     atom   30 type  3   force =    -0.00003501   -0.00010165   -0.00012927
     atom   31 type  1   force =     0.00009626   -0.00039536    0.00009416
     atom   32 type  1   force =    -0.00007632   -0.00066504   -0.00073343
     atom   33 type  3   force =     0.00001528    0.00092553    0.00056072

     Total force =     0.002723     Total SCF correction =     0.000264

     entering subroutine stress ...

     negative rho (up, down):  0.334E-02 0.000E+00
          total   stress  (Ry/bohr**3)                   (kbar)     P=   -4.65
  -0.00000032  -0.00000056   0.00000157         -0.05     -0.08      0.23
  -0.00000056  -0.00005886  -0.00000178         -0.08     -8.66     -0.26
   0.00000157  -0.00000178  -0.00003556          0.23     -0.26     -5.23

     bfgs converged in   4 scf cycles and   3 bfgs steps
     (criteria: energy < 0.10E-03, force < 0.10E-02)

     End of BFGS Geometry Optimization

     Final energy   =   -1764.6651748468 Ry
Begin final coordinates

ATOMIC_POSITIONS (crystal)
O0       0.000000000   0.000000000   0.371112336    0   0   1
O0       0.000000000   0.500000000   0.382731777    0   0   1
Mo1      0.250000000   0.500000000   0.440442242    0   0   1
Mo1      0.000000000   0.000000000   0.443381067    0   0   1
O0       0.250000000   0.780000000   0.442861562    0   0   1
O0       0.250000000   0.220000000   0.442714540    0   0   1
O0       0.000000000   0.500000000   0.497688978    0   0   1
O0       0.000000000   0.000000000   0.516660319    0   0   1
Mo1      0.250000000   0.000000000   0.575356466    0   0   1
Mo1      0.000000000   0.500000000   0.565236987    0   0   1
O0       0.250000000   0.720000000   0.570266353    0   0   1
O0       0.250000000   0.280000000   0.571335034    0   0   1
O0       0.000000000   0.000000000   0.625809884    0   0   1
O0       0.500000000   0.000000000   0.371297672    0   0   1
O0       0.500000000   0.500000000   0.382893847    0   0   1
Mo1      0.750000000   0.500000000   0.440436948    0   0   1
Mo1      0.500000000   0.000000000   0.443962345    0   0   1
O0       0.750000000   0.780000000   0.442903929    0   0   1
O0       0.750000000   0.220000000   0.442695727    0   0   1
O0       0.500000000   0.500000000   0.497934212    0   0   1
O0       0.500000000   0.000000000   0.516180538    0   0   1
Mo1      0.750000000   0.000000000   0.575052140    0   0   1
Mo1      0.500000000   0.500000000   0.570394868    0   0   1
O0       0.750000000   0.720000000   0.570234666    0   0   1
O0       0.750000000   0.280000000   0.571291230    0   0   1
O0       0.500000000   0.000000000   0.625451399    0   0   1
H2      -0.000581453   0.611764607   0.360638676
H2       0.499511573   0.617266070   0.362726385
H2       0.167053839   0.018046369   0.356778955
H2       0.665601028   0.019290698   0.356588689
O0       0.500254058   0.519704072   0.642188045
O0       0.499909656   0.356586486   0.675281843
H2       0.500016687   0.424892195   0.707220340
End final coordinates

     General routines

     Parallel routines
     Hubbard U routines

   This run was terminated on:   6: 6:19  28May2014

   JOB DONE.