     Program PWSCF v.5.0.2 (svn rev. 9656) starts on  9May2014 at 19: 4:45

     Current dimensions of program PWSCF are:
     Max number of different atomic species (ntypx) = 10
     Max number of k-points (npk) =  40000
     Max angular momentum in pseudopotentials (lmaxx) =  3
     Reading input from pwscf.in
Warning: card &CELL ignored
Warning: card / ignored

     Subspace diagonalization in iterative solution of the eigenvalue problem:
     a serial algorithm will be used

     bravais-lattice index     =            0
     lattice parameter (alat)  =      10.9604  a.u.
     unit-cell volume          =    6350.6732 (a.u.)^3
     number of atoms/cell      =           30
     number of atomic types    =            3
     number of electrons       =       224.00 (up: 120.00, down: 104.00)
     number of Kohn-Sham states=          324
     kinetic-energy cutoff     =      40.0000  Ry
     charge density cutoff     =     500.0000  Ry
     convergence threshold     =      1.0E-06
     mixing beta               =       0.7000
     number of iterations used =            8  plain     mixing
     Exchange-correlation      = SLA  PW   PBE  PBE ( 1 4 3 4 0)
     EXX-fraction              =        0.00
     nstep                     =           50

     celldm(1)=  10.960412  celldm(2)=   0.000000  celldm(3)=   0.000000
     celldm(4)=   0.000000  celldm(5)=   0.000000  celldm(6)=   0.000000

     crystal axes: (cart. coord. in units of alat)
               a(1) = (   1.000000   0.000000   0.000000 )
               a(2) = (   0.000000   1.067975   0.000000 )
               a(3) = (   0.000000   0.000000   4.516251 )

     reciprocal axes: (cart. coord. in units 2 pi/alat)
               b(1) = (  1.000000  0.000000  0.000000 )
               b(2) = (  0.000000  0.936351  0.000000 )
               b(3) = (  0.000000  0.000000  0.221423 )

     PseudoPot. # 1 for O  read from file:
     /home/camp/zhonxu/pseudo/o_pbe_v1.01.uspp.F.UPF
     MD5 check sum: 2bcb18d16ea4b960afae9ec6d52f22d2
     Pseudo is Ultrasoft + core correction, Zval =  6.0
     Generated by new atomic code, or converted to UPF format
     Using radial grid of  737 points,  5 beta functions with:
                l(1) =   0
                l(2) =   0
                l(3) =   1
                l(4) =   1
                l(5) =   2
     Q(r) pseudized with  8 coefficients,  rinner =    0.900   0.900   0.900
                                                       0.900   0.900

     PseudoPot. # 2 for Cr read from file:
     /home/camp/zhonxu/pseudo/cr_pbe_v1.uspp.F.UPF
     MD5 check sum: 68b6f918d1762dccfb11451fe85b0e0e
     Pseudo is Ultrasoft + core correction, Zval = 14.0
     Generated by new atomic code, or converted to UPF format
     Using radial grid of  857 points,  6 beta functions with:
                l(1) =   0
                l(2) =   0
                l(3) =   1
                l(4) =   1
                l(5) =   2
                l(6) =   2
     Q(r) pseudized with  6 coefficients,  rinner =    1.000   1.000   1.000
                                                       1.000   1.000

     PseudoPot. # 3 for H  read from file:
     /home/camp/zhonxu/pseudo/h_pbe_v1.uspp.F.UPF
     MD5 check sum: 3408e3ff4ec8b0a4e358431e7e038a48
     Pseudo is Ultrasoft, Zval =  1.0
     Generated by new atomic code, or converted to UPF format
     Using radial grid of  615 points,  2 beta functions with:
                l(1) =   0
                l(2) =   0
     Q(r) pseudized with  8 coefficients,  rinner =    0.700

     atomic species   valence    mass     pseudopotential
        O0             6.00    15.99940     O ( 1.00)
        Cr1           14.00    51.99600     Cr( 1.00)
        H2             1.00     1.00794     H ( 1.00)

     Starting magnetic structure
     atomic species   magnetization
        O0           0.000
        Cr1          0.600
        H2           0.000

     Simplified LDA+U calculation (l_max = 2) with parameters (eV):
     atomic species    L          U    alpha       J0     beta
        Cr1            2     2.0000   0.0000   0.0000   0.0000

     No symmetry found

   Cartesian axes

     site n.     atom                  positions (alat units)
         1           O0  tau(   1) = (   0.0000000   0.0000000   1.7181625  )
         2           O0  tau(   2) = (   0.0000000   0.5339875   1.8008551  )
         3           Cr1 tau(   3) = (   0.2500000   0.5339875   2.0300096  )
         4           Cr1 tau(   4) = (   0.0000000   0.0000000   2.0413454  )
         5           O0  tau(   5) = (   0.2500000   0.8543801   2.0369195  )
         6           O0  tau(   6) = (   0.2500000   0.2135950   2.0378227  )
         7           O0  tau(   7) = (   0.0000000   0.5339875   2.2471058  )
         8           O0  tau(   8) = (   0.0000000   0.0000000   2.3700833  )
         9           Cr1 tau(   9) = (   0.2500000   0.0000000   2.6079543  )
        10           Cr1 tau(  10) = (   0.0000000   0.5339875   2.5535334  )
        11           O0  tau(  11) = (   0.2500000   0.7475825   2.5983798  )
        12           O0  tau(  12) = (   0.2500000   0.3203925   2.5982895  )
        13           O0  tau(  13) = (   0.0000000   0.0000000   2.7910882  )
        14           O0  tau(  14) = (   0.5000000   0.0000000   1.7181625  )
        15           O0  tau(  15) = (   0.5000000   0.5339875   1.8008551  )
        16           Cr1 tau(  16) = (   0.7500000   0.5339875   2.0300096  )
        17           Cr1 tau(  17) = (   0.5000000   0.0000000   2.0413454  )
        18           O0  tau(  18) = (   0.7500000   0.8543801   2.0369195  )
        19           O0  tau(  19) = (   0.7500000   0.2135950   2.0378227  )
        20           O0  tau(  20) = (   0.5000000   0.5339875   2.2471058  )
        21           O0  tau(  21) = (   0.5000000   0.0000000   2.3700833  )
        22           Cr1 tau(  22) = (   0.7500000   0.0000000   2.6079543  )
        23           Cr1 tau(  23) = (   0.5000000   0.5339875   2.5535334  )
        24           O0  tau(  24) = (   0.7500000   0.7475825   2.5983798  )
        25           O0  tau(  25) = (   0.7500000   0.3203925   2.5982895  )
        26           O0  tau(  26) = (   0.5000000   0.0000000   2.7910882  )
        27           H2  tau(  27) = (  -0.0006900   0.6851274   1.7196980  )
        28           H2  tau(  28) = (   0.4993100   0.6851274   1.7196980  )
        29           H2  tau(  29) = (   0.1573400   0.0316548   1.6594512  )
        30           H2  tau(  30) = (   0.6573500   0.0316548   1.6594512  )

     number of k points=    20  Methfessel-Paxton smearing, width (Ry)=  0.0100
                       cart. coord. in units 2pi/alat
        k(    1) = (   0.0000000   0.0000000   0.0000000), wk =   0.0625000
        k(    2) = (   0.0000000   0.2340879   0.0000000), wk =   0.1250000
        k(    3) = (   0.0000000  -0.4681757   0.0000000), wk =   0.0625000
        k(    4) = (   0.2500000   0.0000000   0.0000000), wk =   0.1250000
        k(    5) = (   0.2500000   0.2340879   0.0000000), wk =   0.1250000
        k(    6) = (   0.2500000  -0.4681757   0.0000000), wk =   0.1250000
        k(    7) = (  -0.5000000   0.0000000   0.0000000), wk =   0.0625000
        k(    8) = (  -0.5000000   0.2340879   0.0000000), wk =   0.1250000
        k(    9) = (  -0.5000000  -0.4681757   0.0000000), wk =   0.0625000
        k(   10) = (  -0.2500000   0.2340879   0.0000000), wk =   0.1250000
        k(   11) = (   0.0000000   0.0000000   0.0000000), wk =   0.0625000
        k(   12) = (   0.0000000   0.2340879   0.0000000), wk =   0.1250000
        k(   13) = (   0.0000000  -0.4681757   0.0000000), wk =   0.0625000
        k(   14) = (   0.2500000   0.0000000   0.0000000), wk =   0.1250000
        k(   15) = (   0.2500000   0.2340879   0.0000000), wk =   0.1250000
        k(   16) = (   0.2500000  -0.4681757   0.0000000), wk =   0.1250000
        k(   17) = (  -0.5000000   0.0000000   0.0000000), wk =   0.0625000
        k(   18) = (  -0.5000000   0.2340879   0.0000000), wk =   0.1250000
        k(   19) = (  -0.5000000  -0.4681757   0.0000000), wk =   0.0625000
        k(   20) = (  -0.2500000   0.2340879   0.0000000), wk =   0.1250000

     Largest allocated arrays     est. size (Mb)     dimensions
     Largest temporary arrays     est. size (Mb)     dimensions

     Check: negative/imaginary core charge=   -0.000012    0.000000

     Initial potential from superposition of free atoms
     Check: negative starting charge=(component1):   -0.001590
     Check: negative starting charge=(component2):   -0.000511

     starting charge  215.99984, renormalised to  224.00000

     negative rho (up, down):  0.165E-02 0.530E-03
     Number of +U iterations with fixed ns =  0
     Starting occupations:
 --- enter write_ns ---
 LDA+U parameters:
U( 2)     =  2.00000000
alpha( 2) =  0.00000000
atom    3   Tr[ns(na)] (up, down, total) =   5.00000  0.00000  5.00000
   spin  1
    eigenvalues:
  1.000  1.000  1.000  1.000  1.000
    eigenvectors:
  1.000  0.000  0.000  0.000  0.000
  0.000  1.000  0.000  0.000  0.000
  0.000  0.000  1.000  0.000  0.000
  0.000  0.000  0.000  1.000  0.000
  0.000  0.000  0.000  0.000  1.000
    occupations:
  1.000  0.000  0.000  0.000  0.000
  0.000  1.000  0.000  0.000  0.000
  0.000  0.000  1.000  0.000  0.000
  0.000  0.000  0.000  1.000  0.000
  0.000  0.000  0.000  0.000  1.000
   spin  2
    eigenvalues:
  0.000  0.000  0.000  0.000  0.000
    eigenvectors:
  1.000  0.000  0.000  0.000  0.000
  0.000  1.000  0.000  0.000  0.000
  0.000  0.000  1.000  0.000  0.000
  0.000  0.000  0.000  1.000  0.000
  0.000  0.000  0.000  0.000  1.000
    occupations:
  0.000  0.000  0.000  0.000  0.000
  0.000  0.000  0.000  0.000  0.000
  0.000  0.000  0.000  0.000  0.000
  0.000  0.000  0.000  0.000  0.000
  0.000  0.000  0.000  0.000  0.000
atomic mag. moment =     5.000000
atom    4   Tr[ns(na)] (up, down, total) =   5.00000  0.00000  5.00000
   spin  1
    eigenvalues:
  1.000  1.000  1.000  1.000  1.000
    eigenvectors:
  1.000  0.000  0.000  0.000  0.000
  0.000  1.000  0.000  0.000  0.000
  0.000  0.000  1.000  0.000  0.000
  0.000  0.000  0.000  1.000  0.000
  0.000  0.000  0.000  0.000  1.000
    occupations:
  1.000  0.000  0.000  0.000  0.000
  0.000  1.000  0.000  0.000  0.000
  0.000  0.000  1.000  0.000  0.000
  0.000  0.000  0.000  1.000  0.000
  0.000  0.000  0.000  0.000  1.000
   spin  2
    eigenvalues:
  0.000  0.000  0.000  0.000  0.000
    eigenvectors:
  1.000  0.000  0.000  0.000  0.000
  0.000  1.000  0.000  0.000  0.000
  0.000  0.000  1.000  0.000  0.000
  0.000  0.000  0.000  1.000  0.000
  0.000  0.000  0.000  0.000  1.000
    occupations:
  0.000  0.000  0.000  0.000  0.000
  0.000  0.000  0.000  0.000  0.000
  0.000  0.000  0.000  0.000  0.000
  0.000  0.000  0.000  0.000  0.000
  0.000  0.000  0.000  0.000  0.000
atomic mag. moment =     5.000000
atom    9   Tr[ns(na)] (up, down, total) =   5.00000  0.00000  5.00000
   spin  1
    eigenvalues:
  1.000  1.000  1.000  1.000  1.000
    eigenvectors:
  1.000  0.000  0.000  0.000  0.000
  0.000  1.000  0.000  0.000  0.000
  0.000  0.000  1.000  0.000  0.000
[...]
  0.757  0.000  0.018  0.000  0.225
  0.000  0.002  0.000  0.998  0.000
  0.020  0.000  0.979  0.000  0.000
  0.223  0.000  0.002  0.000  0.775
  0.000  0.998  0.000  0.002  0.000
    occupations:
  0.163 -0.000 -0.004  0.113 -0.000
 -0.000  0.341 -0.000 -0.000  0.011
 -0.004 -0.000  0.154  0.008  0.000
  0.113 -0.000  0.008  0.311 -0.000
 -0.000  0.011  0.000 -0.000  0.125
atomic mag. moment =     2.467966
atom    4   Tr[ns(na)] (up, down, total) =   3.44595  1.22576  4.67171
   spin  1
    eigenvalues:
  0.484  0.532  0.608  0.838  0.984
    eigenvectors:
  0.001  0.994  0.000  0.001  0.004
  0.000  0.001  0.013  0.986  0.000
  0.000  0.001  0.987  0.013  0.000
  0.000  0.004  0.000  0.000  0.996
  0.999  0.001  0.000  0.000  0.000
    occupations:
  0.534 -0.009 -0.003  0.027  0.002
 -0.009  0.835  0.026  0.001  0.000
 -0.003  0.026  0.611  0.001  0.000
  0.027  0.001  0.001  0.982  0.000
  0.002  0.000  0.000  0.000  0.484
   spin  2
    eigenvalues:
  0.112  0.146  0.188  0.375  0.404
    eigenvectors:
  0.003  0.003  0.000  0.001  0.994
  0.001  0.961  0.035  0.000  0.003
  0.000  0.035  0.965  0.000  0.000
  0.996  0.001  0.000  0.000  0.002
  0.000  0.000  0.000  0.999  0.001
    occupations:
  0.403  0.014  0.003 -0.014  0.001
  0.014  0.149 -0.008  0.000 -0.000
  0.003 -0.008  0.187  0.000 -0.000
 -0.014  0.000  0.000  0.113 -0.000
  0.001 -0.000 -0.000 -0.000  0.375
atomic mag. moment =     2.220188
atom    9   Tr[ns(na)] (up, down, total) =   3.39572  1.34103  4.73675
   spin  1
    eigenvalues:
  0.526  0.537  0.689  0.810  0.834
    eigenvectors:
  0.001  0.167  0.001  0.820  0.011
  0.994  0.006  0.000  0.000  0.000
  0.000  0.000  0.999  0.001  0.000
  0.004  0.827  0.000  0.166  0.002
  0.000  0.000  0.000  0.013  0.987
    occupations:
  0.764  0.001 -0.004 -0.102  0.002
  0.001  0.526  0.002  0.000  0.000
 -0.004  0.002  0.689  0.001 -0.000
 -0.102  0.000  0.001  0.583 -0.001
  0.002  0.000 -0.000 -0.001  0.834
   spin  2
    eigenvalues:
  0.173  0.178  0.180  0.404  0.406
    eigenvectors:
  0.845  0.003  0.001  0.147  0.005
  0.000  0.000  0.000  0.031  0.969
  0.003  0.997  0.000  0.000  0.000
  0.151  0.001  0.000  0.823  0.026
  0.001  0.000  0.999  0.000  0.000
    occupations:
  0.208 -0.000  0.000  0.083 -0.000
 -0.000  0.406 -0.000 -0.000  0.000
  0.000 -0.000  0.178 -0.000  0.000
  0.083 -0.000 -0.000  0.370  0.000
 -0.000  0.000  0.000  0.000  0.180
atomic mag. moment =     2.054694
atom   10   Tr[ns(na)] (up, down, total) =   3.59802  1.04237  4.64039
   spin  1
    eigenvalues:
  0.467  0.473  0.789  0.893  0.976
    eigenvectors:
  0.997  0.001  0.000  0.000  0.002
  0.000  0.000  0.000  1.000  0.000
  0.000  0.000  1.000  0.000  0.000
  0.002  0.000  0.000  0.000  0.998
  0.001  0.999  0.000  0.000  0.000
    occupations:
  0.468  0.000  0.001  0.024 -0.000
  0.000  0.893 -0.002 -0.000 -0.001
  0.001 -0.002  0.789 -0.001 -0.000
  0.024 -0.000 -0.001  0.975 -0.000
 -0.000 -0.001 -0.000 -0.000  0.473
   spin  2
    eigenvalues:
  0.100  0.145  0.154  0.290  0.353
    eigenvectors:
  0.007  0.000  0.000  0.993  0.000
  0.000  1.000  0.000  0.000  0.000
  0.000  0.000  1.000  0.000  0.000
  0.993  0.000  0.000  0.007  0.000
  0.000  0.000  0.000  0.000  1.000
    occupations:
  0.289 -0.000 -0.000 -0.016 -0.000
 -0.000  0.145  0.000 -0.000  0.000
 -0.000  0.000  0.154  0.000  0.000
 -0.016 -0.000  0.000  0.102 -0.000
 -0.000  0.000  0.000 -0.000  0.353
atomic mag. moment =     2.555645
atom   16   Tr[ns(na)] (up, down, total) =   3.56311  1.09514  4.65825
   spin  1
    eigenvalues:
  0.456  0.501  0.697  0.931  0.978
    eigenvectors:
  0.000  0.225  0.003  0.000  0.772
  0.999  0.000  0.000  0.001  0.000
  0.000  0.000  0.996  0.000  0.004
  0.000  0.775  0.001  0.000  0.224
  0.001  0.000  0.000  0.999  0.000
    occupations:
  0.870 -0.000  0.016 -0.199 -0.000
 -0.000  0.457 -0.000 -0.000 -0.011
  0.016 -0.000  0.699 -0.008  0.002
 -0.199 -0.000 -0.008  0.608 -0.000
 -0.000 -0.011  0.002 -0.000  0.930
   spin  2
    eigenvalues:
  0.101  0.125  0.155  0.342  0.372
    eigenvectors:
  0.757  0.000  0.018  0.000  0.225
  0.000  0.002  0.000  0.998  0.000
  0.020  0.000  0.979  0.000  0.000
  0.223  0.000  0.002  0.000  0.775
  0.000  0.998  0.000  0.002  0.000
    occupations:
  0.163 -0.000 -0.004  0.113 -0.000
 -0.000  0.341 -0.000 -0.000  0.011
 -0.004 -0.000  0.154  0.008  0.000
  0.113 -0.000  0.008  0.311 -0.000
 -0.000  0.011  0.000 -0.000  0.125
atomic mag. moment =     2.467972
atom   17   Tr[ns(na)] (up, down, total) =   3.44589  1.22573  4.67161
   spin  1
    eigenvalues:
  0.484  0.532  0.608  0.838  0.984
    eigenvectors:
  0.001  0.994  0.000  0.001  0.004
  0.000  0.001  0.013  0.986  0.000
  0.000  0.001  0.987  0.013  0.000
  0.000  0.004  0.000  0.000  0.996
  0.999  0.001  0.000  0.000  0.000
    occupations:
  0.534 -0.009 -0.003  0.027  0.002
 -0.009  0.835  0.026  0.001  0.000
 -0.003  0.026  0.611  0.001  0.000
  0.027  0.001  0.001  0.982  0.000
  0.002  0.000  0.000  0.000  0.484
   spin  2
    eigenvalues:
  0.112  0.146  0.188  0.375  0.404
    eigenvectors:
  0.003  0.003  0.000  0.001  0.994
  0.001  0.961  0.035  0.000  0.003
  0.000  0.035  0.965  0.000  0.000
  0.996  0.001  0.000  0.000  0.002
  0.000  0.000  0.000  0.999  0.001
    occupations:
  0.403  0.014  0.003 -0.014  0.001
  0.014  0.149 -0.008  0.000 -0.000
  0.003 -0.008  0.187  0.000 -0.000
 -0.014  0.000  0.000  0.113 -0.000
  0.001 -0.000 -0.000 -0.000  0.375
atomic mag. moment =     2.220158
atom   22   Tr[ns(na)] (up, down, total) =   3.39598  1.34068  4.73666
   spin  1
    eigenvalues:
  0.526  0.537  0.689  0.810  0.834
    eigenvectors:
  0.001  0.167  0.001  0.819  0.011
  0.994  0.005  0.000  0.000  0.000
  0.000  0.000  0.999  0.001  0.000
  0.004  0.827  0.000  0.166  0.002
  0.000  0.000  0.000  0.013  0.987
    occupations:
  0.764  0.001 -0.004 -0.102  0.002
  0.001  0.526  0.002  0.000  0.000
 -0.004  0.002  0.689  0.001 -0.000
 -0.102  0.000  0.001  0.583 -0.001
  0.002  0.000 -0.000 -0.001  0.834
   spin  2
    eigenvalues:
  0.173  0.178  0.180  0.404  0.406
    eigenvectors:
  0.845  0.003  0.001  0.146  0.005
  0.000  0.000  0.000  0.033  0.967
  0.003  0.997  0.000  0.000  0.000
  0.151  0.001  0.000  0.821  0.028
  0.001  0.000  0.999  0.000  0.000
    occupations:
  0.208 -0.000  0.000  0.083 -0.000
 -0.000  0.406 -0.000 -0.000  0.000
  0.000 -0.000  0.178 -0.000  0.000
  0.083 -0.000 -0.000  0.369  0.000
 -0.000  0.000  0.000  0.000  0.180
atomic mag. moment =     2.055297
atom   23   Tr[ns(na)] (up, down, total) =   3.59804  1.04238  4.64042
   spin  1
    eigenvalues:
  0.467  0.473  0.789  0.893  0.976
    eigenvectors:
  0.997  0.001  0.000  0.000  0.002
  0.000  0.000  0.000  1.000  0.000
  0.000  0.000  1.000  0.000  0.000
  0.002  0.000  0.000  0.000  0.998
  0.001  0.999  0.000  0.000  0.000
    occupations:
  0.468  0.000  0.001  0.024 -0.000
  0.000  0.893 -0.002 -0.000 -0.001
  0.001 -0.002  0.789 -0.001 -0.000
  0.024 -0.000 -0.001  0.975 -0.000
 -0.000 -0.001 -0.000 -0.000  0.473
   spin  2
    eigenvalues:
  0.100  0.145  0.154  0.290  0.353
    eigenvectors:
  0.007  0.000  0.000  0.993  0.000
  0.000  1.000  0.000  0.000  0.000
  0.000  0.000  1.000  0.000  0.000
  0.993  0.000  0.000  0.007  0.000
  0.000  0.000  0.000  0.000  1.000
    occupations:
  0.289 -0.000 -0.000 -0.016 -0.000
 -0.000  0.145  0.000 -0.000  0.000
 -0.000  0.000  0.154  0.000  0.000
 -0.016 -0.000  0.000  0.102 -0.000
 -0.000  0.000  0.000 -0.000  0.353
atomic mag. moment =     2.555654
N of occupied +U levels =  37.4140430
 --- exit write_ns ---

 ------ SPIN UP ------------

[...]

 ------ SPIN DOWN ----------

[...]

          k = 0.2500-0.4682 0.0000 ( 27150 PWs)   bands (ev):

[...]

          k =-0.2500 0.2341 0.0000 ( 27132 PWs)   bands (ev):

   -73.0372 -73.0254 -72.7643 -72.7531 -72.4491 -72.4382 -72.4071 -72.3958
   -44.4587 -44.4477 -44.4087 -44.4027 -44.3743 -44.3548 -44.3452 -44.2587
   -44.1433 -44.1196 -44.0483 -44.0354 -44.0122 -44.0064 -43.9118 -43.8984
   -43.8759 -43.7782 -43.7082 -43.6980 -43.6718 -43.6174 -43.5684 -43.4843
   -21.2796 -20.7844 -20.7773 -20.5349 -20.3363 -20.3293 -20.0457 -19.9995
   -19.9697 -19.8350 -19.7933 -19.6915 -19.6105 -19.6055 -19.5023 -19.4858
   -19.3359 -19.2288  -8.7943  -8.5389  -8.1642  -8.0188  -7.9756  -7.6249
    -7.4792  -7.4328  -7.4228  -7.3683  -7.2501  -7.1718  -7.0299  -6.9682
    -6.8547  -6.7863  -6.6782  -6.5491  -6.5460  -6.4339  -6.4239  -6.2511
    -6.1488  -5.9411  -5.8510  -5.8105  -5.5529  -5.4198  -5.3833  -5.3390
    -5.2972  -5.1638  -5.1162  -5.0953  -4.9990  -4.9542  -4.8597  -4.6241
    -4.5783  -4.5119  -4.3705  -4.2738  -4.1719  -4.1575  -4.0419  -3.9754
    -3.9287  -3.7718  -3.6959  -3.6222  -3.4507  -3.2176  -3.2169  -2.9337
     0.0781   0.2100   0.2764   0.4186   0.4192   0.4885   0.5771   0.6094
     0.6278   0.7416   0.7668   0.8646   0.8716   0.9131   0.9922   1.1243
     1.1386   1.1774   1.2888   1.3147   1.3998   1.5145   1.5884   1.6288
     1.7146   1.7494   1.9414   2.2019   2.2437   2.3930   2.6265   2.6612
     2.8269   2.9323   3.0153   3.1263   3.1948   3.5367   3.5966   3.6489
     3.8422   3.9626   4.2800   4.7456   5.2691   5.6795   5.7984   5.8931
     5.9665   6.1347   6.3296   6.4470   6.6750   6.8187   6.8413   7.2028
     7.3715   7.5544   7.7334   7.9643   7.9675   8.2112   8.2875   8.4207
     8.6022   8.7200   8.9395   8.9727   9.2271   9.2446   9.2499   9.4152
     9.5015   9.6837   9.7886   9.8548  10.0390  10.0701  10.2483  10.2530
    10.4101  10.4700  10.6157  10.7123  10.7741  10.9485  11.0375  11.0935
    11.1621  11.3324  11.4936  11.5389  11.5935  11.6157  11.7867  11.8262
    11.8836  12.0073  12.0767  12.1518  12.2792  12.3058  12.3989  12.5697
    12.6675  12.6984  12.8040  12.9134  12.9270  12.9815  13.0158  13.0984
    13.0986  13.1941  13.2516  13.3142  13.5332  13.6447  13.6949  13.7727
    13.8466  13.8979  13.9614  14.0140  14.0979  14.2635  14.3297  14.4289
    14.5241  14.5278  14.5924  14.6730  14.7619  14.8461  14.8844  15.0405
    15.1485  15.2721  15.3272  15.4197  15.4511  15.4695  15.5827  15.6031
    15.7606  15.8033  15.8803  15.9349  16.0068  16.0732  16.1507  16.1672
    16.2509  16.2777  16.3921  16.5594  16.5985  16.6421  16.8012  16.8380
    16.8729  16.9398  16.9973  17.1029  17.1910  17.2128  17.3818  17.3936
    17.4319  17.4350  17.5441  17.6292  17.6394  17.7236  17.7542  17.8497
    17.9219  18.0074  18.0387  18.1542  18.2248  18.2864  18.3606  18.3641
    18.4344  18.6181  18.6259  18.7542  18.7859  18.8651  18.9382  19.0416
    19.1056  19.1581  19.2838  19.3382  19.3872  19.4188  19.4969  19.5788
    19.6290  19.6543  19.7542  19.7921  19.8357  19.9497  20.1067  20.1134
    20.2408  20.3425  20.4048  20.4713  20.5074  20.6610  20.6896  20.8208
    20.8452  20.9108  21.0926  21.1064

     the spin up/dw Fermi energies are    -1.7583   -2.7851 ev

!    total energy              =   -1992.66784163 Ry
     Harris-Foulkes estimate   =   -1992.66784163 Ry
     estimated scf accuracy    <          9.7E-09 Ry

     The total energy is the sum of the following terms:

     one-electron contribution =  -23460.72136604 Ry
     hartree contribution      =   11747.24530460 Ry
     xc contribution           =    -315.11807742 Ry
     ewald contribution        =   10034.92367017 Ry
     Hubbard energy            =       1.00143199 Ry
     smearing contrib. (-TS)   =       0.00119507 Ry

     total magnetization       =    16.00 Bohr mag/cell
     absolute magnetization    =    21.82 Bohr mag/cell

     convergence has been achieved in  17 iterations

     Forces acting on atoms (Ry/au):

     negative rho (up, down):  0.529E-02 0.187E-02
     atom    1 type  1   force =    -0.00453692   -0.01360236    0.00042712
     atom    2 type  1   force =     0.00001341    0.01139905   -0.00036488
     atom    3 type  2   force =    -0.00018696   -0.00286014   -0.00039605
     atom    4 type  2   force =     0.00290210    0.00729107    0.00060357
     atom    5 type  1   force =     0.00211168    0.00639614    0.00052003
     atom    6 type  1   force =     0.00020813   -0.00626175    0.00065446
     atom    7 type  1   force =    -0.00009032   -0.00140041   -0.00081945
     atom    8 type  1   force =    -0.00020235   -0.00029182   -0.00008612
     atom    9 type  2   force =     0.00069105   -0.00048668   -0.00072390
     atom   10 type  2   force =     0.00002674   -0.00046374    0.00071976
     atom   11 type  1   force =    -0.00031781   -0.05110553    0.00004057
     atom   12 type  1   force =     0.00043908    0.05158889    0.00002454
     atom   13 type  1   force =    -0.00073936    0.00026074    0.00020209
     atom   14 type  1   force =    -0.00452320   -0.01360082    0.00044095
     atom   15 type  1   force =     0.00001257    0.01140369   -0.00036293
     atom   16 type  2   force =    -0.00019701   -0.00286108   -0.00039514
     atom   17 type  2   force =     0.00289937    0.00729120    0.00059962
     atom   18 type  1   force =     0.00209056    0.00639756    0.00052112
     atom   19 type  1   force =     0.00018693   -0.00626264    0.00065452
     atom   20 type  1   force =    -0.00008642   -0.00140059   -0.00082508
     atom   21 type  1   force =    -0.00021930   -0.00029230   -0.00010915
     atom   22 type  2   force =     0.00068787   -0.00048678   -0.00075373
     atom   23 type  2   force =     0.00003851   -0.00046389    0.00071845
     atom   24 type  1   force =    -0.00031262   -0.05112225    0.00003642
     atom   25 type  1   force =     0.00044368    0.05160569    0.00002005
     atom   26 type  1   force =    -0.00080814    0.00026219    0.00020248
     atom   27 type  3   force =     0.00000812   -0.00048813   -0.00067883
     atom   28 type  3   force =     0.00000836   -0.00049085   -0.00067696
     atom   29 type  3   force =    -0.00026897    0.00002356   -0.00009815
     atom   30 type  3   force =    -0.00027877    0.00002195   -0.00009537

     Total force =     0.002869     Total SCF correction =     0.000416
     SCF correction compared to forces is large: reduce conv_thr to get better values

     bfgs converged in   9 scf cycles and   8 bfgs steps
     (criteria: energy < 0.10E-03, force < 0.10E-02)

     End of BFGS Geometry Optimization

     Final energy   =   -1992.6678416307 Ry
Begin final coordinates

ATOMIC_POSITIONS (crystal)
O0       0.000000000   0.000000000   0.379873807    0   0   1
O0       0.000000000   0.500000000   0.397964748    0   0   1
Cr1      0.250000000   0.500000000   0.449079477    0   0   1
Cr1      0.000000000   0.000000000   0.451846263    0   0   1
O0       0.250000000   0.800000000   0.450706597    0   0   1
O0       0.250000000   0.200000000   0.450811842    0   0   1
O0       0.000000000   0.500000000   0.497429043    0   0   1
O0       0.000000000   0.000000000   0.525182122    0   0   1
Cr1      0.250000000   0.000000000   0.578233593    0   0   1
Cr1      0.000000000   0.500000000   0.566029708    0   0   1
O0       0.250000000   0.700000000   0.575546106    0   0   1
O0       0.250000000   0.300000000   0.575589825    0   0   1
O0       0.000000000   0.000000000   0.619602935    0   0   1
O0       0.500000000   0.000000000   0.379873853    0   0   1
O0       0.500000000   0.500000000   0.397964636    0   0   1
Cr1      0.750000000   0.500000000   0.449079430    0   0   1
Cr1      0.500000000   0.000000000   0.451846544    0   0   1
O0       0.750000000   0.800000000   0.450706484    0   0   1
O0       0.750000000   0.200000000   0.450811779    0   0   1
O0       0.500000000   0.500000000   0.497428959    0   0   1
O0       0.500000000   0.000000000   0.525182863    0   0   1
Cr1      0.750000000   0.000000000   0.578224959    0   0   1
Cr1      0.500000000   0.500000000   0.566029532    0   0   1
O0       0.750000000   0.700000000   0.575545529    0   0   1
O0       0.750000000   0.300000000   0.575589248    0   0   1
O0       0.500000000   0.000000000   0.619603171    0   0   1
H2      -0.000578874   0.641092364   0.379968294
H2       0.499420598   0.641092927   0.379968259
H2       0.157836034   0.029906406   0.367170064
H2       0.657837642   0.029905461   0.367170330
End final coordinates

     General routines

     Parallel routines
     Hubbard U routines

   This run was terminated on:   9:10: 8  10May2014

   JOB DONE.
Running PBS batch system epilogue script
Job id: 340914.audhumbla.fysik.dtu.dk
Username: zhonxu
Groupname: campgst
Jobname: CrO2/Eads-2-layers/bare-U-2.0
Sessionid: 10233
Queuename: verylong
Accounting:
This job has allocated the following 16 nodes:
c094 c094 c094 c094 c094 c094 c094 c094 c071 c071 c071 c071 c071 c071 c071 c071
Finished epilogue job 340914.audhumbla.fysik.dtu.dk for zhonxu