     Program PWSCF v.5.0.2 (svn rev. 9656) starts on 28Apr2014 at  1:52:34

     Current dimensions of program PWSCF are:
     Max number of different atomic species (ntypx) = 10
     Max number of k-points (npk) =  40000
     Max angular momentum in pseudopotentials (lmaxx) =  3
     Reading input from pwscf.in
Warning: card &CELL ignored
Warning: card / ignored

     Subspace diagonalization in iterative solution of the eigenvalue problem:
     a serial algorithm will be used

     bravais-lattice index     =            0
     lattice parameter (alat)  =      11.7919  a.u.
     unit-cell volume          =    7123.6633 (a.u.)^3
     number of atoms/cell      =           32
     number of atomic types    =            3
     number of electrons       =       247.00
     number of Kohn-Sham states=          358
     kinetic-energy cutoff     =      40.0000  Ry
     charge density cutoff     =     500.0000  Ry
     convergence threshold     =      1.0E-06
     mixing beta               =       0.7000
     number of iterations used =            8  plain     mixing
     Exchange-correlation      = SLA  PW   PBE  PBE ( 1 4 3 4 0)
     EXX-fraction              =        0.00
     nstep                     =           50

     celldm(1)=  11.791891  celldm(2)=   0.000000  celldm(3)=   0.000000
     celldm(4)=   0.000000  celldm(5)=   0.000000  celldm(6)=   0.000000

     crystal axes: (cart. coord. in units of alat)
               a(1) = (   1.000000   0.000000   0.000000 )
               a(2) = (   0.000000   1.026665   0.000000 )
               a(3) = (   0.000000   0.000000   4.231793 )

     reciprocal axes: (cart. coord. in units 2 pi/alat)
               b(1) = (  1.000000  0.000000  0.000000 )
               b(2) = (  0.000000  0.974028  0.000000 )
               b(3) = (  0.000000  0.000000  0.236306 )

     PseudoPot. # 1 for O  read from file:
     /home/camp/zhonxu/pseudo/o_pbe_v1.01.uspp.F.UPF
     MD5 check sum: 2bcb18d16ea4b960afae9ec6d52f22d2
     Pseudo is Ultrasoft + core correction, Zval =  6.0
     Generated by new atomic code, or converted to UPF format
     Using radial grid of  737 points,  5 beta functions with:
                l(1) =   0
                l(2) =   0
                l(3) =   1
                l(4) =   1
                l(5) =   2
     Q(r) pseudized with  8 coefficients,  rinner =    0.900   0.900   0.900
                                                       0.900   0.900

     PseudoPot. # 2 for Ru read from file:
     /home/camp/zhonxu/pseudo/ru_pbe_v1.uspp.F.UPF
     MD5 check sum: df00be1c11b23341d9806d8f1dfa10cf
     Pseudo is Ultrasoft + core correction, Zval = 16.0
     Generated by new atomic code, or converted to UPF format
     Using radial grid of  967 points,  6 beta functions with:
                l(1) =   0
                l(2) =   0
                l(3) =   1
                l(4) =   1
                l(5) =   2
                l(6) =   2
     Q(r) pseudized with  8 coefficients,  rinner =    1.300   1.300   1.300
                                                       1.300   1.300

     PseudoPot. # 3 for H  read from file:
     /home/camp/zhonxu/pseudo/h_pbe_v1.uspp.F.UPF
     MD5 check sum: 3408e3ff4ec8b0a4e358431e7e038a48
     Pseudo is Ultrasoft, Zval =  1.0
     Generated by new atomic code, or converted to UPF format
     Using radial grid of  615 points,  2 beta functions with:
                l(1) =   0
                l(2) =   0
     Q(r) pseudized with  8 coefficients,  rinner =    0.700

     atomic species   valence    mass     pseudopotential
        O0             6.00    15.99940     O ( 1.00)
        Ru1           16.00   101.07000     Ru( 1.00)
        H2             1.00     1.00794     H ( 1.00)

     Simplified LDA+U calculation (l_max = 2) with parameters (eV):
     atomic species    L          U    alpha       J0     beta
        Ru1            2     7.0000   0.0000   0.0000   0.0000

     No symmetry found

   Cartesian axes

     site n.     atom                  positions (alat units)
         1           O0  tau(   1) = (   0.0000000   0.0000000   1.6035109  )
         2           O0  tau(   2) = (   0.0000000   0.5133323   1.7058780  )
         3           Ru1 tau(   3) = (   0.2500000   0.5133323   1.9200491  )
         4           Ru1 tau(   4) = (   0.0000000   0.0000000   1.9171714  )
         5           O0  tau(   5) = (   0.2500000   0.8315984   1.9169175  )
         6           O0  tau(   6) = (   0.2500000   0.1950663   1.9164520  )
         7           O0  tau(   7) = (   0.0000000   0.5133323   2.1053593  )
         8           O0  tau(   8) = (   0.0000000   0.0000000   2.2310435  )
         9           Ru1 tau(   9) = (   0.2500000   0.0000000   2.4441566  )
        10           Ru1 tau(  10) = (   0.0000000   0.5133323   2.4052664  )
        11           O0  tau(  11) = (   0.2500000   0.7083986   2.4364547  )
        12           O0  tau(  12) = (   0.2500000   0.3182660   2.4361585  )
        13           O0  tau(  13) = (   0.0000000   0.0000000   2.6233307  )
        14           O0  tau(  14) = (   0.5000000   0.0000000   1.6045689  )
        15           O0  tau(  15) = (   0.5000000   0.5133323   1.7057934  )
        16           Ru1 tau(  16) = (   0.7500000   0.5133323   1.9200914  )
        17           Ru1 tau(  17) = (   0.5000000   0.0000000   1.9176369  )
        18           O0  tau(  18) = (   0.7500000   0.8315984   1.9167059  )
        19           O0  tau(  19) = (   0.7500000   0.1950663   1.9164520  )
        20           O0  tau(  20) = (   0.5000000   0.5133323   2.1229635  )
        21           O0  tau(  21) = (   0.5000000   0.0000000   2.2303664  )
        22           Ru1 tau(  22) = (   0.7500000   0.0000000   2.4441143  )
        23           Ru1 tau(  23) = (   0.5000000   0.5133323   2.4370472  )
        24           O0  tau(  24) = (   0.7500000   0.7083986   2.4343812  )
        25           O0  tau(  25) = (   0.7500000   0.3182660   2.4338310  )
        26           O0  tau(  26) = (   0.5000000   0.0000000   2.6134283  )
        27           H2  tau(  27) = (  -0.0002400   0.6455975   1.6183222  )
        28           H2  tau(  28) = (   0.4995500   0.6408954   1.6119322  )
        29           H2  tau(  29) = (   0.1457200   0.0328533   1.5514599  )
        30           H2  tau(  30) = (   0.6465200   0.0301223   1.5527294  )
        31           O0  tau(  31) = (   0.5138700   0.5107965   2.7447408  )
        32           H2  tau(  32) = (   0.3716000   0.5093694   2.8125765  )

     number of k points=    10  Methfessel-Paxton smearing, width (Ry)=  0.0100
                       cart. coord. in units 2pi/alat
        k(    1) = (   0.0000000   0.0000000   0.0000000), wk =   0.1250000
        k(    2) = (   0.0000000   0.2435070   0.0000000), wk =   0.2500000
        k(    3) = (   0.0000000  -0.4870139   0.0000000), wk =   0.1250000
        k(    4) = (   0.2500000   0.0000000   0.0000000), wk =   0.2500000
        k(    5) = (   0.2500000   0.2435070   0.0000000), wk =   0.2500000
        k(    6) = (   0.2500000  -0.4870139   0.0000000), wk =   0.2500000
        k(    7) = (  -0.5000000   0.0000000   0.0000000), wk =   0.1250000
        k(    8) = (  -0.5000000   0.2435070   0.0000000), wk =   0.2500000
        k(    9) = (  -0.5000000  -0.4870139   0.0000000), wk =   0.1250000
        k(   10) = (  -0.2500000   0.2435070   0.0000000), wk =   0.2500000

     Largest allocated arrays     est. size (Mb)     dimensions
     Largest temporary arrays     est. size (Mb)     dimensions

     Check: negative/imaginary core charge=   -0.000003    0.000000

     Initial potential from superposition of free atoms
     Check: negative starting charge=   -0.522051

     starting charge  238.99980, renormalised to  247.00000

     negative rho (up, down):  0.540E+00 0.000E+00
     Number of +U iterations with fixed ns =  0
     Starting occupations:
 --- enter write_ns ---
 LDA+U parameters:
U( 2)     =  7.00000000
alpha( 2) =  0.00000000
atom    3   Tr[ns(na)] =   6.00000
    eigenvalues:
  0.600  0.600  0.600  0.600  0.600
    eigenvectors:
  1.000  0.000  0.000  0.000  0.000
  0.000  1.000  0.000  0.000  0.000
  0.000  0.000  1.000  0.000  0.000
  0.000  0.000  0.000  1.000  0.000
  0.000  0.000  0.000  0.000  1.000
    occupations:
  0.600  0.000  0.000  0.000  0.000
  0.000  0.600  0.000  0.000  0.000
  0.000  0.000  0.600  0.000  0.000
  0.000  0.000  0.000  0.600  0.000
  0.000  0.000  0.000  0.000  0.600
atom    4   Tr[ns(na)] =   6.00000
    eigenvalues:
  0.600  0.600  0.600  0.600  0.600
    eigenvectors:
  1.000  0.000  0.000  0.000  0.000
  0.000  1.000  0.000  0.000  0.000
  0.000  0.000  1.000  0.000  0.000
  0.000  0.000  0.000  1.000  0.000
  0.000  0.000  0.000  0.000  1.000
    occupations:
  0.600  0.000  0.000  0.000  0.000
  0.000  0.600  0.000  0.000  0.000
  0.000  0.000  0.600  0.000  0.000
  0.000  0.000  0.000  0.600  0.000
  0.000  0.000  0.000  0.000  0.600
atom    9   Tr[ns(na)] =   6.00000
    eigenvalues:
  0.600  0.600  0.600  0.600  0.600
    eigenvectors:
  1.000  0.000  0.000  0.000  0.000
  0.000  1.000  0.000  0.000  0.000
  0.000  0.000  1.000  0.000  0.000
  0.000  0.000  0.000  1.000  0.000
  0.000  0.000  0.000  0.000  1.000
    occupations:
  0.600  0.000  0.000  0.000  0.000
  0.000  0.600  0.000  0.000  0.000
  0.000  0.000  0.600  0.000  0.000
  0.000  0.000  0.000  0.600  0.000
  0.000  0.000  0.000  0.000  0.600
atom   10   Tr[ns(na)] =   6.00000
    eigenvalues:
  0.600  0.600  0.600  0.600  0.600
    eigenvectors:
  1.000  0.000  0.000  0.000  0.000
  0.000  1.000  0.000  0.000  0.000
  0.000  0.000  1.000  0.000  0.000
  0.000  0.000  0.000  1.000  0.000
  0.000  0.000  0.000  0.000  1.000
    occupations:
  0.600  0.000  0.000  0.000  0.000
  0.000  0.600  0.000  0.000  0.000
  0.000  0.000  0.600  0.000  0.000
  0.000  0.000  0.000  0.600  0.000
  0.000  0.000  0.000  0.000  0.600
atom   16   Tr[ns(na)] =   6.00000
    eigenvalues:
  0.600  0.600  0.600  0.600  0.600
    eigenvectors:
  1.000  0.000  0.000  0.000  0.000
  0.000  1.000  0.000  0.000  0.000
  0.000  0.000  1.000  0.000  0.000
  0.000  0.000  0.000  1.000  0.000
  0.000  0.000  0.000  0.000  1.000
    occupations:
  0.600  0.000  0.000  0.000  0.000
  0.000  0.600  0.000  0.000  0.000
  0.000  0.000  0.600  0.000  0.000
  0.000  0.000  0.000  0.600  0.000
  0.000  0.000  0.000  0.000  0.600
atom   17   Tr[ns(na)] =   6.00000
    eigenvalues:
  0.600  0.600  0.600  0.600  0.600
    eigenvectors:
  1.000  0.000  0.000  0.000  0.000
  0.000  1.000  0.000  0.000  0.000
  0.000  0.000  1.000  0.000  0.000
  0.000  0.000  0.000  1.000  0.000
  0.000  0.000  0.000  0.000  1.000
    occupations:
  0.600  0.000  0.000  0.000  0.000
  0.000  0.600  0.000  0.000  0.000
  0.000  0.000  0.600  0.000  0.000
  0.000  0.000  0.000  0.600  0.000
  0.000  0.000  0.000  0.000  0.600
atom   22   Tr[ns(na)] =   6.00000
    eigenvalues:
  0.600  0.600  0.600  0.600  0.600
    eigenvectors:
  1.000  0.000  0.000  0.000  0.000
  0.000  1.000  0.000  0.000  0.000
  0.000  0.000  1.000  0.000  0.000
  0.000  0.000  0.000  1.000  0.000
  0.000  0.000  0.000  0.000  1.000
[...]
  0.051 -0.001  0.002  0.980  0.000
  0.004 -0.002  0.000  0.000  0.549
atom    9   Tr[ns(na)] =   7.22802
    eigenvalues:
  0.571  0.601  0.634  0.892  0.917
    eigenvectors:
  0.796  0.005  0.198  0.000  0.002
  0.005  0.995  0.000  0.000  0.000
  0.000  0.000  0.000  0.371  0.628
  0.198  0.000  0.801  0.000  0.000
  0.001  0.000  0.001  0.628  0.370
    occupations:
  0.584  0.002 -0.006 -0.025  0.013
  0.002  0.601  0.003  0.001  0.001
 -0.006  0.003  0.907  0.000 -0.012
 -0.025  0.001  0.000  0.621 -0.004
  0.013  0.001 -0.012 -0.004  0.901
atom   10   Tr[ns(na)] =   7.30290
    eigenvalues:
  0.501  0.522  0.781  0.863  0.984
    eigenvectors:
  0.987  0.000  0.000  0.001  0.012
  0.001  0.000  0.001  0.992  0.007
  0.000  0.000  0.999  0.001  0.000
  0.012  0.000  0.000  0.006  0.981
  0.000  1.000  0.000  0.000  0.000
    occupations:
  0.507 -0.009  0.002  0.053 -0.000
 -0.009  0.864  0.002  0.011 -0.000
  0.002  0.002  0.781 -0.001  0.005
  0.053  0.011 -0.001  0.977 -0.000
 -0.000 -0.000  0.005 -0.000  0.522
atom   16   Tr[ns(na)] =   7.23957
    eigenvalues:
  0.499  0.549  0.640  0.945  0.987
    eigenvectors:
  0.001  0.174  0.006  0.000  0.819
  0.999  0.000  0.000  0.000  0.001
  0.000  0.010  0.956  0.017  0.017
  0.000  0.816  0.021  0.000  0.163
  0.000  0.000  0.017  0.983  0.000
    occupations:
  0.908 -0.010  0.044 -0.161 -0.006
 -0.010  0.499 -0.005  0.004 -0.009
  0.044 -0.005  0.650 -0.010  0.039
 -0.161  0.004 -0.010  0.623  0.001
 -0.006 -0.009  0.039  0.001  0.940
atom   17   Tr[ns(na)] =   7.25804
    eigenvalues:
  0.549  0.590  0.608  0.895  0.987
    eigenvectors:
  0.002  0.002  0.977  0.000  0.018
  0.000  0.011  0.000  0.989  0.000
  0.000  0.987  0.003  0.010  0.000
  0.000  0.000  0.018  0.000  0.982
  0.998  0.000  0.002  0.000  0.000
    occupations:
  0.615 -0.005  0.001  0.051  0.003
 -0.005  0.892  0.031  0.001 -0.002
  0.001  0.031  0.593  0.001 -0.000
  0.051  0.001  0.001  0.980 -0.000
  0.003 -0.002 -0.000 -0.000  0.549
atom   22   Tr[ns(na)] =   7.31473
    eigenvalues:
  0.533  0.558  0.701  0.893  0.972
    eigenvectors:
  0.001  0.161  0.000  0.000  0.838
  0.998  0.002  0.000  0.000  0.000
  0.000  0.000  0.999  0.001  0.000
  0.002  0.836  0.000  0.000  0.162
  0.000  0.000  0.001  0.999  0.000
    occupations:
  0.905  0.002 -0.000 -0.152  0.000
  0.002  0.533  0.001  0.000 -0.000
 -0.000  0.001  0.701  0.000 -0.005
 -0.152  0.000  0.000  0.625 -0.001
  0.000 -0.000 -0.005 -0.001  0.893
atom   23   Tr[ns(na)] =   7.24633
    eigenvalues:
  0.550  0.571  0.615  0.906  0.982
    eigenvectors:
  0.000  0.000  0.977  0.006  0.017
  0.000  0.001  0.004  0.984  0.011
  0.001  0.997  0.001  0.001  0.000
  0.000  0.000  0.019  0.009  0.972
  0.999  0.001  0.000  0.000  0.000
    occupations:
  0.622  0.017 -0.000  0.049  0.001
  0.017  0.905  0.010 -0.010 -0.000
 -0.000  0.010  0.571  0.001  0.001
  0.049 -0.010  0.001  0.974 -0.000
  0.001 -0.000  0.001 -0.000  0.550
N of occupied +U levels =  58.0873394
 --- exit write_ns ---

     Threshold (ethr) on eigenvalues was too large:
     Diagonalizing with lowered threshold

     Davidson diagonalization with overlap
     ethr =  1.07E-08,  avg # of iterations =  3.0

[...]

     total energy              =   -2161.09514977 Ry
     Harris-Foulkes estimate   =   -2161.09514977 Ry
     estimated scf accuracy    <       0.00000002 Ry

     iteration # 19     ecut=    40.00 Ry     beta=0.70
     Davidson diagonalization with overlap
     ethr =  7.40E-12,  avg # of iterations =  1.0

     negative rho (up, down):  0.572E+00 0.000E+00

     End of self-consistent calculation
 --- enter write_ns ---
 LDA+U parameters:
U( 2)     =  7.00000000
alpha( 2) =  0.00000000
atom    3   Tr[ns(na)] =   7.23695
    eigenvalues:
  0.503  0.551  0.633  0.945  0.987
    eigenvectors:
  0.000  0.174  0.005  0.000  0.820
  0.999  0.000  0.000  0.001  0.001
  0.001  0.013  0.955  0.014  0.018
  0.000  0.813  0.025  0.000  0.162
  0.000  0.000  0.014  0.985  0.000
    occupations:
  0.909  0.010  0.046 -0.160  0.005
  0.010  0.503  0.005 -0.004 -0.010
  0.046  0.005  0.643 -0.010 -0.036
 -0.160 -0.004 -0.010  0.624 -0.001
  0.005 -0.010 -0.036 -0.001  0.940
atom    4   Tr[ns(na)] =   7.26171
    eigenvalues:
  0.548  0.594  0.606  0.895  0.987
    eigenvectors:
  0.004  0.003  0.974  0.000  0.018
  0.000  0.026  0.000  0.973  0.000
  0.000  0.970  0.003  0.027  0.000
  0.000  0.000  0.018  0.000  0.982
  0.996  0.000  0.004  0.000  0.000
    occupations:
  0.613 -0.001 -0.001  0.051  0.004
 -0.001  0.887  0.048 -0.001 -0.002
 -0.001  0.048  0.603  0.002  0.000
  0.051 -0.001  0.002  0.980  0.000
  0.004 -0.002  0.000  0.000  0.549
atom    9   Tr[ns(na)] =   7.22869
    eigenvalues:
  0.571  0.601  0.634  0.892  0.917
    eigenvectors:
  0.797  0.005  0.196  0.000  0.001
  0.005  0.995  0.000  0.000  0.000
  0.000  0.000  0.000  0.371  0.628
  0.197  0.000  0.803  0.000  0.000
  0.001  0.000  0.001  0.628  0.370
    occupations:
  0.584  0.002 -0.006 -0.025  0.012
  0.002  0.601  0.003  0.001  0.001
 -0.006  0.003  0.908  0.000 -0.012
 -0.025  0.001  0.000  0.621 -0.004
  0.012  0.001 -0.012 -0.004  0.901
atom   10   Tr[ns(na)] =   7.30173
    eigenvalues:
  0.501  0.522  0.781  0.863  0.984
    eigenvectors:
  0.987  0.000  0.000  0.001  0.012
  0.001  0.000  0.001  0.992  0.007
  0.000  0.000  0.999  0.001  0.000
  0.012  0.000  0.000  0.006  0.982
  0.000  1.000  0.000  0.000  0.000
    occupations:
  0.507 -0.009  0.002  0.053 -0.000
 -0.009  0.863  0.002  0.011 -0.000
  0.002  0.002  0.781 -0.001  0.005
  0.053  0.011 -0.001  0.977 -0.000
 -0.000 -0.000  0.005 -0.000  0.522
atom   16   Tr[ns(na)] =   7.24024
    eigenvalues:
  0.499  0.549  0.640  0.945  0.987
    eigenvectors:
  0.001  0.174  0.006  0.000  0.819
  0.998  0.000  0.000  0.000  0.001
  0.000  0.010  0.956  0.017  0.017
  0.000  0.816  0.021  0.000  0.163
  0.000  0.000  0.017  0.982  0.000
    occupations:
  0.908 -0.010  0.044 -0.161 -0.006
 -0.010  0.499 -0.005  0.004 -0.009
  0.044 -0.005  0.650 -0.010  0.039
 -0.161  0.004 -0.010  0.623  0.001
 -0.006 -0.009  0.039  0.001  0.940
atom   17   Tr[ns(na)] =   7.25824
    eigenvalues:
  0.549  0.590  0.608  0.895  0.987
    eigenvectors:
  0.002  0.002  0.977  0.000  0.018
  0.000  0.010  0.000  0.989  0.000
  0.000  0.987  0.003  0.010  0.000
  0.000  0.000  0.018  0.000  0.982
  0.998  0.000  0.002  0.000  0.000
    occupations:
  0.615 -0.005  0.001  0.051  0.003
 -0.005  0.892  0.031  0.001 -0.002
  0.001  0.031  0.593  0.001 -0.000
  0.051  0.001  0.001  0.980 -0.000
  0.003 -0.002 -0.000 -0.000  0.549
atom   22   Tr[ns(na)] =   7.31396
    eigenvalues:
  0.533  0.558  0.701  0.893  0.972
    eigenvectors:
  0.000  0.161  0.000  0.000  0.838
  0.998  0.002  0.000  0.000  0.000
  0.000  0.000  0.999  0.001  0.000
  0.002  0.836  0.000  0.000  0.162
  0.000  0.000  0.001  0.999  0.000
    occupations:
  0.905  0.002 -0.000 -0.152  0.000
  0.002  0.533  0.001  0.000 -0.000
 -0.000  0.001  0.701  0.000 -0.005
 -0.152  0.000  0.000  0.625 -0.001
  0.000 -0.000 -0.005 -0.001  0.893
atom   23   Tr[ns(na)] =   7.24581
    eigenvalues:
  0.550  0.571  0.614  0.906  0.982
    eigenvectors:
  0.000  0.000  0.977  0.006  0.017
  0.000  0.001  0.004  0.984  0.011
  0.001  0.998  0.001  0.001  0.000
  0.000  0.000  0.019  0.009  0.972
  0.999  0.001  0.000  0.000  0.000
    occupations:
  0.622  0.017 -0.000  0.049  0.001
  0.017  0.905  0.010 -0.010 -0.000
 -0.000  0.010  0.571  0.001  0.001
  0.049 -0.010  0.001  0.974 -0.000
  0.001 -0.000  0.001 -0.000  0.550
N of occupied +U levels =  58.0873362
 --- exit write_ns ---

[...]

          k = 0.2500-0.4870 0.0000 ( 30468 PWs)   bands (ev):

[...]

          k =-0.2500 0.2435 0.0000 ( 30434 PWs)   bands (ev):

   -74.1944 -73.6347 -73.5319 -73.5000 -73.2342 -73.2030 -73.1988 -73.1649
   -44.4963 -44.3977 -43.9457 -43.8633 -43.8257 -43.7292 -43.7005 -43.6305
   -43.5658 -43.5422 -43.4712 -43.4493 -43.4106 -43.3275 -43.3009 -43.2811
   -43.2590 -43.1950 -43.1553 -43.1465 -43.1289 -42.9783 -42.9210 -42.8074
   -20.6489 -20.2996 -20.1794 -20.1058 -20.0238 -19.9072 -19.8242 -19.7945
   -19.7182 -19.5748 -19.5344 -19.3349 -19.2305 -19.2111 -19.1765 -19.1519
   -19.0223 -18.9877 -18.9570  -9.5426  -9.2133  -9.1359  -9.0077  -8.9648
    -8.8445  -8.7435  -8.6383  -8.0039  -7.9289  -7.8337  -7.7571  -7.6267
    -7.5942  -7.5403  -7.4672  -7.4273  -7.2847  -7.1989  -6.9301  -6.7150
    -6.6012  -6.4181  -6.2818  -6.2227  -6.1294  -6.0189  -5.9012  -5.8283
    -5.7811  -5.7225  -5.5846  -5.5483  -5.4105  -5.2736  -5.1698  -5.0994
    -5.0167  -4.9833  -4.9446  -4.8010  -4.6541  -4.5372  -4.3839  -4.2559
    -4.1808  -4.1672  -4.0440  -3.9141  -3.8524  -3.7207  -3.6224  -3.5138
    -3.3047  -3.1806  -3.1323  -3.0341  -2.9338  -2.8560  -2.8149  -2.6880
    -2.6292  -2.4985  -2.4679  -2.3783  -2.2898  -2.1899  -2.1350  -2.1122
    -1.9016  -1.7524  -1.4716  -1.1745  -0.8294  -0.7485  -0.6679  -0.5157
    -0.3767  -0.2226  -0.1209   0.2356   1.2501   1.5948   1.9844   2.0454
     2.2071   2.6735   2.9517   3.0782   3.3830   3.5154   3.5784   3.6869
     3.7471   3.8160   4.0023   4.0342   4.1358   4.5434   4.6690   5.1065
     5.5702   5.7010   5.7958   6.0496   6.3243   6.4622   6.5634   6.6249
     6.8751   6.9503   6.9916   7.2455   7.5007   7.6884   7.8870   7.9381
     8.0531   8.2845   8.3388   8.4754   8.5901   8.6361   8.7486   8.8531
     8.9700   9.1104   9.2233   9.3828   9.4543   9.5965   9.6486   9.8692
     9.9559  10.0519  10.0948  10.1618  10.2130  10.3170  10.3579  10.4908
    10.5457  10.6583  10.7408  10.8929  10.9492  10.9826  11.1440  11.3173
    11.3783  11.4440  11.5728  11.5832  11.6426  11.8385  11.8596  11.9126
    12.0068  12.0553  12.0985  12.1929  12.2656  12.3925  12.4206  12.5175
    12.5964  12.6696  12.7405  12.7932  12.8119  12.9334  12.9771  13.0475
    13.1489  13.1797  13.2182  13.3359  13.4091  13.5114  13.6306  13.7017
    13.7579  13.8592  13.9653  14.0858  14.1217  14.2168  14.3058  14.3614
    14.4366  14.5818  14.6115  14.6561  14.7342  14.8573  14.9551  14.9940
    15.0548  15.1626  15.2333  15.2762  15.3642  15.4602  15.5343  15.5606
    15.6325  15.7552  15.7837  15.8534  15.8631  15.9108  15.9648  16.0203
    16.1110  16.1595  16.2020  16.2495  16.2959  16.3727  16.5003  16.5756
    16.6235  16.6933  16.7396  16.8448  16.8938  16.9174  16.9671  17.1041
    17.1849  17.2292  17.3284  17.4134  17.4530  17.4750  17.5217  17.5807
    17.6312  17.6870  17.7574  17.8169  17.8770  17.9541  17.9893  18.0587
    18.1395  18.1597  18.2385  18.3003  18.3382  18.4554  18.5636  18.6259
    18.7154  18.7832  18.8358  18.8955  18.9501  19.0266  19.1083  19.1883
    19.2316  19.2926  19.4222  19.4694  19.5250  19.7098  19.7260  19.7610
    19.7976  19.8894  19.9654  20.0625  20.1586  20.2456  20.3265  20.4035
    20.4668  20.5806  20.6436  20.7342  20.7822  20.8610  20.9222  20.9655
    21.0129  21.0471  21.1423  21.2347  21.2817  21.3166  21.3412  21.3903
    21.4345  21.5097  21.5725  21.6028  21.6837  21.7846  21.8603  21.9116
    21.9507  21.9872  22.0058  22.0682  22.1462  22.2406

     the Fermi energy is    -1.1727 ev

!    total energy              =   -2161.09514977 Ry
     Harris-Foulkes estimate   =   -2161.09514977 Ry
     estimated scf accuracy    <          5.3E-09 Ry

     The total energy is the sum of the following terms:

     one-electron contribution =  -25220.75659481 Ry
     hartree contribution      =   12637.32691471 Ry
     xc contribution           =    -338.78075390 Ry
     ewald contribution        =   10757.71450667 Ry
     Hubbard energy            =       3.40123702 Ry
     smearing contrib. (-TS)   =      -0.00045946 Ry

     convergence has been achieved in  19 iterations

     Forces acting on atoms (Ry/au):

     negative rho (up, down):  0.572E+00 0.000E+00
     atom    1 type  1   force =    -0.00670258   -0.00771358    0.00018415
     atom    2 type  1   force =     0.00056632    0.00146599    0.00007988
     atom    3 type  2   force =     0.01151518    0.00241263   -0.00016867
     atom    4 type  2   force =     0.00691217    0.00475206    0.00017592
     atom    5 type  1   force =    -0.00343899   -0.05515014   -0.00036151
     atom    6 type  1   force =     0.00553807    0.05789477   -0.00026438
     atom    7 type  1   force =     0.00562460   -0.00221224    0.00080788
     atom    8 type  1   force =     0.03241452    0.00009493    0.00056686
     atom    9 type  2   force =    -0.01127047    0.00000122   -0.00034450
     atom   10 type  2   force =    -0.00378046   -0.00117762    0.00054119
     atom   11 type  1   force =    -0.01467639    0.00419898   -0.00018005
     atom   12 type  1   force =    -0.01683240   -0.00437382   -0.00014440
     atom   13 type  1   force =     0.04014900   -0.00130134   -0.00039126
     atom   14 type  1   force =    -0.00485533   -0.00623592    0.00012733
     atom   15 type  1   force =    -0.00037529    0.00062858   -0.00001435
     atom   16 type  2   force =    -0.01214416    0.00855146   -0.00003485
     atom   17 type  2   force =     0.00464171    0.00472877    0.00011316
     atom   18 type  1   force =    -0.00395475   -0.05821033   -0.00021059
     atom   19 type  1   force =     0.00671456    0.05389248   -0.00019577
     atom   20 type  1   force =    -0.00865240   -0.00348249   -0.00036064
     atom   21 type  1   force =    -0.03945419   -0.00078142    0.00039692
     atom   22 type  2   force =    -0.00485687   -0.00013871    0.00033877
     atom   23 type  2   force =     0.00514564    0.00064754   -0.00007107
     atom   24 type  1   force =     0.02022212    0.03663348   -0.00075121
     atom   25 type  1   force =     0.01882724   -0.03673224   -0.00081722
     atom   26 type  1   force =    -0.02731668    0.00198151   -0.00041840
     atom   27 type  3   force =    -0.00004139    0.00022252    0.00042291
     atom   28 type  3   force =    -0.00002639   -0.00011755   -0.00009184
     atom   29 type  3   force =    -0.00001909   -0.00007266    0.00004468
     atom   30 type  3   force =     0.00006875    0.00001794    0.00026533
     atom   31 type  1   force =     0.00013703   -0.00006749    0.00038287
     atom   32 type  3   force =    -0.00007909   -0.00035732    0.00037286

     Total force =     0.002145     Total SCF correction =     0.000356
     SCF correction compared to forces is large: reduce conv_thr to get better values

     bfgs converged in  26 scf cycles and  25 bfgs steps
     (criteria: energy < 0.10E-03, force < 0.10E-02)

     End of BFGS Geometry Optimization

     Final energy   =   -2161.0951497701 Ry
Begin final coordinates

ATOMIC_POSITIONS (crystal)
O0       0.000000000   0.000000000   0.380406216    0   0   1
O0       0.000000000   0.500000000   0.401477003    0   0   1
Ru1      0.250000000   0.500000000   0.452874293    0   0   1
Ru1      0.000000000   0.000000000   0.453606963    0   0   1
O0       0.250000000   0.810000000   0.453550512    0   0   1
O0       0.250000000   0.190000000   0.453231051    0   0   1
O0       0.000000000   0.500000000   0.498880983    0   0   1
O0       0.000000000   0.000000000   0.526357602    0   0   1
Ru1      0.250000000   0.000000000   0.581975350    0   0   1
Ru1      0.000000000   0.500000000   0.568750558    0   0   1
O0       0.250000000   0.690000000   0.577461059    0   0   1
O0       0.250000000   0.310000000   0.577620330    0   0   1
O0       0.000000000   0.000000000   0.618824729    0   0   1
O0       0.500000000   0.000000000   0.380643800    0   0   1
O0       0.500000000   0.500000000   0.403711720    0   0   1
Ru1      0.750000000   0.500000000   0.452841243    0   0   1
Ru1      0.500000000   0.000000000   0.453816033    0   0   1
O0       0.750000000   0.810000000   0.453496445    0   0   1
O0       0.750000000   0.190000000   0.453339286    0   0   1
O0       0.500000000   0.500000000   0.502593164    0   0   1
O0       0.500000000   0.000000000   0.526304295    0   0   1
Ru1      0.750000000   0.000000000   0.573726244    0   0   1
Ru1      0.500000000   0.500000000   0.575692414    0   0   1
O0       0.750000000   0.690000000   0.573130720    0   0   1
O0       0.750000000   0.310000000   0.572875467    0   0   1
O0       0.500000000   0.000000000   0.618420738    0   0   1
H2      -0.000545831   0.627434196   0.380587218
H2       0.499198479   0.609552875   0.377614197
H2       0.146594212   0.028821776   0.368048652
H2       0.647730361   0.022132143   0.368175579
O0       0.522952038   0.497824624   0.647429355
H2       0.382579293   0.492294574   0.664356777
End final coordinates

     General routines

     Parallel routines
     Hubbard U routines

   This run was terminated on:  19:39: 9  29Apr2014

   JOB DONE.