     Program PWSCF v.5.0.2 (svn rev. 9656) starts on 23Jan2014 at 19:16:21

     Current dimensions of program PWSCF are:
     Max number of different atomic species (ntypx) = 10
     Max number of k-points (npk) =  40000
     Max angular momentum in pseudopotentials (lmaxx) =  3
     Reading input from NbO2-v-0.8.in

     Subspace diagonalization in iterative solution of the eigenvalue problem:
     a serial algorithm will be used

     bravais-lattice index     =            0
     lattice parameter (alat)  =       8.0383  a.u.
     unit-cell volume          =     334.7174 (a.u.)^3
     number of atoms/cell      =            6
     number of atomic types    =            2
     number of electrons       =        50.00
     number of Kohn-Sham states=           75
     kinetic-energy cutoff     =      40.0000  Ry
     charge density cutoff     =     500.0000  Ry
     convergence threshold     =      1.0E-06
     mixing beta               =       0.7000
     number of iterations used =            8  plain     mixing
     Exchange-correlation      = SLA  PW   PBE  PBE ( 1 4 3 4 0)
     EXX-fraction              =        0.00
     nstep                     =           50

     celldm(1)=   8.038301  celldm(2)=   0.000000  celldm(3)=   0.000000
     celldm(4)=   0.000000  celldm(5)=   0.000000  celldm(6)=   0.000000

     crystal axes: (cart. coord. in units of alat)
               a(1) = (   1.000000   0.000000   0.000000 )
               a(2) = (   0.000000   1.000000   0.000000 )
               a(3) = (   0.000000   0.000000   0.644444 )

     reciprocal axes: (cart. coord. in units 2 pi/alat)
               b(1) = (  1.000000  0.000000  0.000000 )
               b(2) = (  0.000000  1.000000  0.000000 )
               b(3) = (  0.000000  0.000000  1.551724 )

     PseudoPot. # 1 for Nb read from file:
     /home/camp/zhonxu/pseudo/nb_pbe_v1.uspp.F.UPF
     MD5 check sum: 573aab8a2fa660278ed4a62cd769473f
     Pseudo is Ultrasoft + core correction, Zval = 13.0
     Generated by new atomic code, or converted to UPF format
     Using radial grid of  887 points,  6 beta functions with:
                l(1) =   0
                l(2) =   0
                l(3) =   1
                l(4) =   1
                l(5) =   2
                l(6) =   2
     Q(r) pseudized with  6 coefficients,  rinner =    1.000   1.000   1.000
                                                       1.000   1.000

     PseudoPot. # 2 for O  read from file:
     /home/camp/zhonxu/pseudo/o_pbe_v1.01.uspp.F.UPF
     MD5 check sum: 2bcb18d16ea4b960afae9ec6d52f22d2
     Pseudo is Ultrasoft + core correction, Zval =  6.0
     Generated by new atomic code, or converted to UPF format
     Using radial grid of  737 points,  5 beta functions with:
                l(1) =   0
                l(2) =   0
                l(3) =   1
                l(4) =   1
                l(5) =   2
     Q(r) pseudized with  8 coefficients,  rinner =    0.900   0.900   0.900
                                                       0.900   0.900

     atomic species   valence    mass     pseudopotential
        Nb0           13.00    92.90640     Nb( 1.00)
        O1             6.00    15.99940     O ( 1.00)

     Starting magnetic structure
     atomic species   magnetization
        Nb0          0.600
        O1           0.000

     16 Sym. Ops., with inversion, found ( 8 have fractional translation)

   Cartesian axes

     site n.     atom                  positions (alat units)
         1           Nb0 tau(   1) = (   0.0000000   0.0000000   0.0000000  )
         2           Nb0 tau(   2) = (   0.5000000   0.5000000   0.3222222  )
         3           O1  tau(   3) = (   0.3050000   0.3050000   0.0000000  )
         4           O1  tau(   4) = (  -0.3050000  -0.3050000   0.0000000  )
         5           O1  tau(   5) = (   0.8050000   0.1950000   0.3222222  )
         6           O1  tau(   6) = (   0.1950000   0.8050000   0.3222222  )

     number of k points=    36  Methfessel-Paxton smearing, width (Ry)=  0.0100
                       cart. coord. in units 2pi/alat
        k(    1) = (   0.0000000   0.0000000   0.0000000), wk =   0.0080000
        k(    2) = (   0.0000000   0.0000000   0.3103448), wk =   0.0160000
        k(    3) = (   0.0000000   0.0000000   0.6206897), wk =   0.0160000
        k(    4) = (   0.0000000   0.2000000   0.0000000), wk =   0.0320000
        k(    5) = (   0.0000000   0.2000000   0.3103448), wk =   0.0640000
        k(    6) = (   0.0000000   0.2000000   0.6206897), wk =   0.0640000
        k(    7) = (   0.0000000   0.4000000   0.0000000), wk =   0.0320000
        k(    8) = (   0.0000000   0.4000000   0.3103448), wk =   0.0640000
        k(    9) = (   0.0000000   0.4000000   0.6206897), wk =   0.0640000
        k(   10) = (   0.2000000   0.2000000   0.0000000), wk =   0.0320000
        k(   11) = (   0.2000000   0.2000000   0.3103448), wk =   0.0640000
        k(   12) = (   0.2000000   0.2000000   0.6206897), wk =   0.0640000
        k(   13) = (   0.2000000   0.4000000   0.0000000), wk =   0.0640000
        k(   14) = (   0.2000000   0.4000000   0.3103448), wk =   0.1280000
        k(   15) = (   0.2000000   0.4000000   0.6206897), wk =   0.1280000
        k(   16) = (   0.4000000   0.4000000   0.0000000), wk =   0.0320000
        k(   17) = (   0.4000000   0.4000000   0.3103448), wk =   0.0640000
        k(   18) = (   0.4000000   0.4000000   0.6206897), wk =   0.0640000
        k(   19) = (   0.0000000   0.0000000   0.0000000), wk =   0.0080000
        k(   20) = (   0.0000000   0.0000000   0.3103448), wk =   0.0160000
        k(   21) = (   0.0000000   0.0000000   0.6206897), wk =   0.0160000
        k(   22) = (   0.0000000   0.2000000   0.0000000), wk =   0.0320000
        k(   23) = (   0.0000000   0.2000000   0.3103448), wk =   0.0640000
        k(   24) = (   0.0000000   0.2000000   0.6206897), wk =   0.0640000
        k(   25) = (   0.0000000   0.4000000   0.0000000), wk =   0.0320000
        k(   26) = (   0.0000000   0.4000000   0.3103448), wk =   0.0640000
        k(   27) = (   0.0000000   0.4000000   0.6206897), wk =   0.0640000
        k(   28) = (   0.2000000   0.2000000   0.0000000), wk =   0.0320000
        k(   29) = (   0.2000000   0.2000000   0.3103448), wk =   0.0640000
        k(   30) = (   0.2000000   0.2000000   0.6206897), wk =   0.0640000
        k(   31) = (   0.2000000   0.4000000   0.0000000), wk =   0.0640000
        k(   32) = (   0.2000000   0.4000000   0.3103448), wk =   0.1280000
        k(   33) = (   0.2000000   0.4000000   0.6206897), wk =   0.1280000
        k(   34) = (   0.4000000   0.4000000   0.0000000), wk =   0.0320000
        k(   35) = (   0.4000000   0.4000000   0.3103448), wk =   0.0640000
        k(   36) = (   0.4000000   0.4000000   0.6206897), wk =   0.0640000

     Largest allocated arrays     est. size (Mb)     dimensions
     Largest temporary arrays     est. size (Mb)     dimensions

     Check: negative/imaginary core charge=   -0.000008    0.000000

     Initial potential from superposition of free atoms

     starting charge   49.99453, renormalised to   50.00000
     Starting wfc are   42 randomized atomic wfcs

     Self-consistent Calculation

     iteration #  1     ecut=    40.00 Ry     beta=0.70
     Davidson diagonalization with overlap
     ethr =  1.00E-02,  avg # of iterations =  5.3

     total energy              =    -363.20141751 Ry
     Harris-Foulkes estimate   =    -364.07533725 Ry
     estimated scf accuracy    <       3.23889790 Ry

     total magnetization       =     2.00 Bohr mag/cell
     absolute magnetization    =     2.73 Bohr mag/cell

[...]

     End of self-consistent calculation

 ------ SPIN UP ------------

          k = 0.0000 0.0000 0.0000 (  1447 PWs)   bands (ev):

   -35.7756 -35.6322 -13.2318 -13.2318 -12.0062 -12.0062 -11.8860 -11.6244
    -2.4708  -2.1297   1.6196   1.6196   8.4435   9.0557   9.3466  10.8222
    10.8222  14.0500  14.0500  15.0430  15.6242  15.6397  15.6397  16.1975
    20.0848  20.7809  21.3823  21.7732  21.7732  26.1100  26.3603  26.9831
    29.5855  29.5855  30.6046  30.6046  32.6836  33.6757  35.5459  36.8922
    37.9326  39.1535  39.1535  40.2685  41.2681  42.4943  42.4943  43.3465
    43.3465  43.6374  43.7344  48.9380  49.8295  49.8295  51.4803  52.8203
    53.3187  53.3902  53.9895  53.9895  54.6109  54.6109  56.4680  57.5181
    57.8902  57.8902  58.4934  59.3277  60.7334  61.6757  63.0954  63.6636
    63.6636  64.1688  65.2358

[...]

 ------ SPIN DOWN ----------

[...]

     the Fermi energy is    21.3429 ev

!    total energy              =    -364.52110396 Ry
     Harris-Foulkes estimate   =    -364.52110261 Ry
     estimated scf accuracy    <       0.00000091 Ry

     The total energy is the sum of the following terms:

     one-electron contribution =     -44.98569945 Ry
     hartree contribution      =      62.99122312 Ry
     xc contribution           =     -67.85305542 Ry
     ewald contribution        =    -314.67346808 Ry
     smearing contrib. (-TS)   =      -0.00010414 Ry

[...]

     convergence has been achieved in  10 iterations

     Forces acting on atoms (Ry/au):

     atom    1 type  1   force =     0.00000000    0.00000000    0.00000000
     atom    2 type  1   force =     0.00000000    0.00000000    0.00000000
     atom    3 type  2   force =    -0.10089186   -0.10089186   -0.00000000
     atom    4 type  2   force =     0.10089186    0.10089186    0.00000000
     atom    5 type  2   force =    -0.10089186    0.10089186    0.00000000
     atom    6 type  2   force =     0.10089186   -0.10089186    0.00000000

     Total force =     0.285365     Total SCF correction =     0.000036

     entering subroutine stress ...

          total   stress  (Ry/bohr**3)                   (kbar)     P= 1970.96
   0.01223867   0.00000000   0.00000000       1800.37      0.00      0.00
   0.00000000   0.01223867   0.00000000          0.00   1800.37      0.00
   0.00000000   0.00000000   0.01571762          0.00      0.00   2312.14

     Volume is kept fixed: isostatic pressure set to zero

     BFGS Geometry Optimization

     number of scf cycles    =   1
     number of bfgs steps    =   0

     enthalpy new            =    -364.5211039626 Ry

     new trust radius        =       0.2121608725 bohr
     new conv_thr            =       0.0000010000 Ry

     new unit-cell volume =    334.71740 a.u.^3 (    49.60000 Ang^3 )

CELL_PARAMETERS (alat=  8.03830103)
   0.971810473   0.000000000   0.000000000
   0.000000000   0.971810473   0.000000000
   0.000000000   0.000000000   0.682373785

ATOMIC_POSITIONS (crystal)
Nb0      0.000000000   0.000000000   0.000000000    0   0   0
Nb0      0.500000000   0.500000000   0.500000000    0   0   0
O1       0.292448609   0.292448609   0.000000000    1   1   0
O1      -0.292448609  -0.292448609   0.000000000    1   1   0
O1       0.792448609   0.207551391   0.500000000    1   1   0
O1       0.207551391   0.792448609   0.500000000    1   1   0

     NEW-OLD atomic charge density approx. for the potential
     NEW k-points:
        k(    1) = (   0.0000000   0.0000000   0.0000000), wk =   0.0080000
[...]
        k(   23) = (   0.0000000   0.2058014   0.2930945), wk =   0.0640000
        k(   24) = (   0.0000000   0.2058014   0.5861890), wk =   0.0640000
        k(   25) = (   0.0000000   0.4116029   0.0000000), wk =   0.0320000
        k(   26) = (   0.0000000   0.4116029   0.2930945), wk =   0.0640000
        k(   27) = (   0.0000000   0.4116029   0.5861890), wk =   0.0640000
        k(   28) = (   0.2058014   0.2058014   0.0000000), wk =   0.0320000
        k(   29) = (   0.2058014   0.2058014   0.2930945), wk =   0.0640000
        k(   30) = (   0.2058014   0.2058014   0.5861890), wk =   0.0640000
        k(   31) = (   0.2058014   0.4116029   0.0000000), wk =   0.0640000
        k(   32) = (   0.2058014   0.4116029   0.2930945), wk =   0.1280000
        k(   33) = (   0.2058014   0.4116029   0.5861890), wk =   0.1280000
        k(   34) = (   0.4116029   0.4116029   0.0000000), wk =   0.0320000
        k(   35) = (   0.4116029   0.4116029   0.2930945), wk =   0.0640000
        k(   36) = (   0.4116029   0.4116029   0.5861890), wk =   0.0640000

[...]

     enthalpy old            =    -364.5211039626 Ry
     enthalpy new            =    -364.4824491417 Ry

     CASE: enthalpy_new > enthalpy_old

[...]

     CASE: enthalpy_new < enthalpy_old

[...]

     Threshold (ethr) on eigenvalues was too large:
     Diagonalizing with lowered threshold

     Davidson diagonalization with overlap
     ethr =  5.56E-08,  avg # of iterations =  1.0

[...]

     Total force =     0.002833     Total SCF correction =     0.000011

[...]

     Total force =     0.000910     Total SCF correction =     0.000094
     SCF correction compared to forces is large: reduce conv_thr to get better values

[...]

     number of scf cycles    =  11
     number of bfgs steps    =   9

     enthalpy old            =    -364.5494461471 Ry
     enthalpy new            =    -364.5494541552 Ry

     CASE: enthalpy_new < enthalpy_old

     new trust radius        =       0.0002504772 bohr
     new conv_thr            =       0.0000000100 Ry

     new unit-cell volume =    334.71740 a.u.^3 (    49.60000 Ang^3 )

[...]

ATOMIC_POSITIONS (crystal)
Nb0      0.000000000   0.000000000   0.000000000    0   0   0
Nb0      0.500000000   0.500000000   0.500000000    0   0   0
O1       0.304135603   0.304135603   0.000000000    1   1   0
O1      -0.304135603  -0.304135603   0.000000000    1   1   0
O1       0.804135603   0.195864397   0.500000000    1   1   0
O1       0.195864397   0.804135603   0.500000000    1   1   0

     NEW-OLD atomic charge density approx. for the potential
     NEW k-points:
        k(    1) = (   0.0000000   0.0000000   0.0000000), wk =   0.0080000
        k(    2) = (   0.0000000   0.0000000   0.2971418), wk =   0.0160000
        k(    3) = (   0.0000000   0.0000000   0.5942837), wk =   0.0160000
        k(    4) = (   0.0000000   0.2043950   0.0000000), wk =   0.0320000
        k(    5) = (   0.0000000   0.2043950   0.2971418), wk =   0.0640000
        k(    6) = (   0.0000000   0.2043950   0.5942837), wk =   0.0640000
        k(    7) = (   0.0000000   0.4087901   0.0000000), wk =   0.0320000
        k(    8) = (   0.0000000   0.4087901   0.2971418), wk =   0.0640000
        k(    9) = (   0.0000000   0.4087901   0.5942837), wk =   0.0640000
        k(   10) = (   0.2043950   0.2043950   0.0000000), wk =   0.0320000
        k(   11) = (   0.2043950   0.2043950   0.2971418), wk =   0.0640000
        k(   12) = (   0.2043950   0.2043950   0.5942837), wk =   0.0640000
        k(   13) = (   0.2043950   0.4087901   0.0000000), wk =   0.0640000
        k(   14) = (   0.2043950   0.4087901   0.2971418), wk =   0.1280000
        k(   15) = (   0.2043950   0.4087901   0.5942837), wk =   0.1280000
        k(   16) = (   0.4087901   0.4087901   0.0000000), wk =   0.0320000
        k(   17) = (   0.4087901   0.4087901   0.2971418), wk =   0.0640000
        k(   18) = (   0.4087901   0.4087901   0.5942837), wk =   0.0640000
        k(   19) = (   0.0000000   0.0000000   0.0000000), wk =   0.0080000
        k(   20) = (   0.0000000   0.0000000   0.2971418), wk =   0.0160000
        k(   21) = (   0.0000000   0.0000000   0.5942837), wk =   0.0160000
        k(   22) = (   0.0000000   0.2043950   0.0000000), wk =   0.0320000
        k(   23) = (   0.0000000   0.2043950   0.2971418), wk =   0.0640000
        k(   24) = (   0.0000000   0.2043950   0.5942837), wk =   0.0640000
        k(   25) = (   0.0000000   0.4087901   0.0000000), wk =   0.0320000
        k(   26) = (   0.0000000   0.4087901   0.2971418), wk =   0.0640000
        k(   27) = (   0.0000000   0.4087901   0.5942837), wk =   0.0640000
        k(   28) = (   0.2043950   0.2043950   0.0000000), wk =   0.0320000
        k(   29) = (   0.2043950   0.2043950   0.2971418), wk =   0.0640000
        k(   30) = (   0.2043950   0.2043950   0.5942837), wk =   0.0640000
        k(   31) = (   0.2043950   0.4087901   0.0000000), wk =   0.0640000
        k(   32) = (   0.2043950   0.4087901   0.2971418), wk =   0.1280000
        k(   33) = (   0.2043950   0.4087901   0.5942837), wk =   0.1280000
        k(   34) = (   0.4087901   0.4087901   0.0000000), wk =   0.0320000
        k(   35) = (   0.4087901   0.4087901   0.2971418), wk =   0.0640000
        k(   36) = (   0.4087901   0.4087901   0.5942837), wk =   0.0640000

[...]

     Threshold (ethr) on eigenvalues was too large:
     Diagonalizing with lowered threshold

     Davidson diagonalization with overlap
     ethr =  5.80E-11,  avg # of iterations =  2.0

[...]

     Volume is kept fixed: isostatic pressure set to zero

     bfgs converged in  12 scf cycles and  10 bfgs steps
     (criteria: energy < 0.10E-03, force < 0.10E-02, cell < 0.50E+00)

     End of BFGS Geometry Optimization

     Final enthalpy =    -364.5494544174 Ry
Begin final coordinates
     new unit-cell volume =    334.71740 a.u.^3 (    49.60000 Ang^3 )

CELL_PARAMETERS (alat=  8.03830103)
   0.978497322   0.000000000   0.000000000
   0.000000000   0.978497322   0.000000000
   0.000000000   0.000000000   0.673079249

ATOMIC_POSITIONS (crystal)
Nb0      0.000000000   0.000000000   0.000000000    0   0   0
Nb0      0.500000000   0.500000000   0.500000000    0   0   0
O1       0.304135603   0.304135603   0.000000000    1   1   0
O1      -0.304135603  -0.304135603   0.000000000    1   1   0
O1       0.804135603   0.195864397   0.500000000    1   1   0
O1       0.195864397   0.804135603   0.500000000    1   1   0
End final coordinates

     A final scf calculation at the relaxed structure.
     The G-vectors are recalculated for the final unit cell
     Results may differ from those at the preceding step.

     bravais-lattice index     =            0
     lattice parameter (alat)  =       8.0383  a.u.
     unit-cell volume          =     334.7174 (a.u.)^3
     number of atoms/cell      =            6
     number of atomic types    =            2
     number of electrons       =        50.00
     number of Kohn-Sham states=           75
     kinetic-energy cutoff     =      40.0000  Ry
     charge density cutoff     =     500.0000  Ry
     convergence threshold     =      1.0E-08
     mixing beta               =       0.7000
     number of iterations used =            8  plain     mixing
     Exchange-correlation      = SLA  PW   PBE  PBE ( 1 4 3 4 0)
     EXX-fraction              =        0.00

     celldm(1)=   8.038301  celldm(2)=   0.000000  celldm(3)=   0.000000
     celldm(4)=   0.000000  celldm(5)=   0.000000  celldm(6)=   0.000000

     crystal axes: (cart. coord. in units of alat)
               a(1) = (   0.978497   0.000000   0.000000 )
               a(2) = (   0.000000   0.978497   0.000000 )
               a(3) = (   0.000000   0.000000   0.673079 )

     reciprocal axes: (cart. coord. in units 2 pi/alat)
               b(1) = (  1.021975  0.000000  0.000000 )
               b(2) = (  0.000000  1.021975  0.000000 )
               b(3) = (  0.000000  0.000000  1.485709 )

     PseudoPot. # 1 for Nb read from file:
     /home/camp/zhonxu/pseudo/nb_pbe_v1.uspp.F.UPF
     MD5 check sum: 573aab8a2fa660278ed4a62cd769473f
     Pseudo is Ultrasoft + core correction, Zval = 13.0
     Generated by new atomic code, or converted to UPF format
     Using radial grid of  887 points,  6 beta functions with:
                l(1) =   0
                l(2) =   0
                l(3) =   1
                l(4) =   1
                l(5) =   2
                l(6) =   2
     Q(r) pseudized with  6 coefficients,  rinner =    1.000   1.000   1.000
                                                       1.000   1.000

     PseudoPot. # 2 for O  read from file:
     /home/camp/zhonxu/pseudo/o_pbe_v1.01.uspp.F.UPF
     MD5 check sum: 2bcb18d16ea4b960afae9ec6d52f22d2
     Pseudo is Ultrasoft + core correction, Zval =  6.0
     Generated by new atomic code, or converted to UPF format
     Using radial grid of  737 points,  5 beta functions with:
                l(1) =   0
                l(2) =   0
                l(3) =   1
                l(4) =   1
                l(5) =   2
     Q(r) pseudized with  8 coefficients,  rinner =    0.900   0.900   0.900
                                                       0.900   0.900

     atomic species   valence    mass     pseudopotential
        Nb0           13.00    92.90640     Nb( 1.00)
        O1             6.00    15.99940     O ( 1.00)

     Starting magnetic structure
     atomic species   magnetization
        Nb0          0.600
        O1           0.000

     16 Sym. Ops., with inversion, found ( 8 have fractional translation)

   Cartesian axes

     site n.     atom                  positions (alat units)
         1           Nb0 tau(   1) = (   0.0000000   0.0000000   0.0000000  )
         2           Nb0 tau(   2) = (   0.4892487   0.4892487   0.3365396  )
         3           O1  tau(   3) = (   0.2975959   0.2975959   0.0000000  )
         4           O1  tau(   4) = (  -0.2975959  -0.2975959   0.0000000  )
         5           O1  tau(   5) = (   0.7868445   0.1916528   0.3365396  )
         6           O1  tau(   6) = (   0.1916528   0.7868445   0.3365396  )

     number of k points=    36  Methfessel-Paxton smearing, width (Ry)=  0.0100
                       cart. coord. in units 2pi/alat
        k(    1) = (   0.0000000   0.0000000   0.0000000), wk =   0.0080000
        k(    2) = (   0.0000000   0.0000000   0.2971418), wk =   0.0160000
        k(    3) = (   0.0000000   0.0000000   0.5942837), wk =   0.0160000
        k(    4) = (   0.0000000   0.2043950   0.0000000), wk =   0.0320000
        k(    5) = (   0.0000000   0.2043950   0.2971418), wk =   0.0640000
        k(    6) = (   0.0000000   0.2043950   0.5942837), wk =   0.0640000
        k(    7) = (   0.0000000   0.4087901   0.0000000), wk =   0.0320000
        k(    8) = (   0.0000000   0.4087901   0.2971418), wk =   0.0640000
        k(    9) = (   0.0000000   0.4087901   0.5942837), wk =   0.0640000
        k(   10) = (   0.2043950   0.2043950   0.0000000), wk =   0.0320000
        k(   11) = (   0.2043950   0.2043950   0.2971418), wk =   0.0640000
        k(   12) = (   0.2043950   0.2043950   0.5942837), wk =   0.0640000
        k(   13) = (   0.2043950   0.4087901   0.0000000), wk =   0.0640000
        k(   14) = (   0.2043950   0.4087901   0.2971418), wk =   0.1280000
        k(   15) = (   0.2043950   0.4087901   0.5942837), wk =   0.1280000
        k(   16) = (   0.4087901   0.4087901   0.0000000), wk =   0.0320000
        k(   17) = (   0.4087901   0.4087901   0.2971418), wk =   0.0640000
        k(   18) = (   0.4087901   0.4087901   0.5942837), wk =   0.0640000
        k(   19) = (   0.0000000   0.0000000   0.0000000), wk =   0.0080000
        k(   20) = (   0.0000000   0.0000000   0.2971418), wk =   0.0160000
        k(   21) = (   0.0000000   0.0000000   0.5942837), wk =   0.0160000
        k(   22) = (   0.0000000   0.2043950   0.0000000), wk =   0.0320000
        k(   23) = (   0.0000000   0.2043950   0.2971418), wk =   0.0640000
        k(   24) = (   0.0000000   0.2043950   0.5942837), wk =   0.0640000
        k(   25) = (   0.0000000   0.4087901   0.0000000), wk =   0.0320000
        k(   26) = (   0.0000000   0.4087901   0.2971418), wk =   0.0640000
        k(   27) = (   0.0000000   0.4087901   0.5942837), wk =   0.0640000
        k(   28) = (   0.2043950   0.2043950   0.0000000), wk =   0.0320000
        k(   29) = (   0.2043950   0.2043950   0.2971418), wk =   0.0640000
        k(   30) = (   0.2043950   0.2043950   0.5942837), wk =   0.0640000
        k(   31) = (   0.2043950   0.4087901   0.0000000), wk =   0.0640000
        k(   32) = (   0.2043950   0.4087901   0.2971418), wk =   0.1280000
        k(   33) = (   0.2043950   0.4087901   0.5942837), wk =   0.1280000
        k(   34) = (   0.4087901   0.4087901   0.0000000), wk =   0.0320000
        k(   35) = (   0.4087901   0.4087901   0.2971418), wk =   0.0640000
        k(   36) = (   0.4087901   0.4087901   0.5942837), wk =   0.0640000

     Largest allocated arrays     est. size (Mb)     dimensions
     Largest temporary arrays     est. size (Mb)     dimensions

     Check: negative/imaginary core charge=   -0.000008    0.000000

     Initial potential from superposition of free atoms

     starting charge   49.99453, renormalised to   50.00000
     Starting wfc are   42 randomized atomic wfcs

     Self-consistent Calculation

[...]

     total energy              =    -364.54952567 Ry
     Harris-Foulkes estimate   =    -364.54952568 Ry
     estimated scf accuracy    <       0.00000003 Ry

[...]

     iteration # 12     ecut=    40.00 Ry     beta=0.70
     Davidson diagonalization with overlap
     ethr =  5.83E-11,  avg # of iterations =  1.1

     End of self-consistent calculation

 ------ SPIN UP ------------

[...]

 ------ SPIN DOWN ----------

[...]

          k = 0.4088 0.4088 0.5943 (  1433 PWs)   bands (ev):

   -35.5039 -35.4990 -13.7505 -13.6927 -12.6883 -12.5824 -11.9468 -11.9354
    -1.3104  -0.6760   0.1078   0.8337  10.0515  10.3563  11.5443  11.9200
    12.4126  12.5854  13.9610  14.3244  14.4998  14.6502  15.7950  15.9028
    21.0482  21.7894  22.4284  22.6480  22.8715  23.5528  28.0003  28.3833
    29.0817  29.6091  29.7708  30.2012  32.0479  33.1978  34.1482  35.4387
    38.0723  38.4798  39.0952  39.8388  40.7576  41.2691  42.1164  42.5541
    46.9174  47.1144  48.8824  49.4596  50.2119  51.0428  51.3199  52.2219
    53.4260  53.6283  54.6408  54.8055  55.9242  56.0606  56.2866  57.2986
    57.5283  57.9683  58.4489  58.7466  59.7739  60.3166  60.3513  60.8173
    61.2706  61.6598  63.0421

     the Fermi energy is    21.3594 ev

!    total energy              =    -364.54952568 Ry
     Harris-Foulkes estimate   =    -364.54952567 Ry
     estimated scf accuracy    <          4.9E-09 Ry

     The total energy is the sum of the following terms:

     one-electron contribution =     -41.08456828 Ry
     hartree contribution      =      61.12828549 Ry
     xc contribution           =     -67.77931876 Ry
     ewald contribution        =    -316.81382332 Ry
     smearing contrib. (-TS)   =      -0.00010080 Ry

     total magnetization       =     0.00 Bohr mag/cell
     absolute magnetization    =     0.00 Bohr mag/cell

     convergence has been achieved in  12 iterations

     Forces acting on atoms (Ry/au):

     atom    1 type  1   force =     0.00000000    0.00000000   -0.00000000
     atom    2 type  1   force =     0.00000000    0.00000000   -0.00000000
     atom    3 type  2   force =    -0.00011379   -0.00011379   -0.00000000
     atom    4 type  2   force =     0.00011379    0.00011379   -0.00000000
     atom    5 type  2   force =    -0.00011379    0.00011379    0.00000000
     atom    6 type  2   force =     0.00011379   -0.00011379    0.00000000

     Total force =     0.000322     Total SCF correction =     0.000033
     SCF correction compared to forces is large: reduce conv_thr to get better values

     entering subroutine stress ...

          total   stress  (Ry/bohr**3)                   (kbar)     P= 1881.82
   0.01279101   0.00000000   0.00000000       1881.62      0.00      0.00
   0.00000000   0.01279101   0.00000000          0.00   1881.62      0.00
   0.00000000   0.00000000   0.01279497          0.00      0.00   1882.21

     General routines

     Parallel routines

   This run was terminated on:  19:45:11  23Jan2014

   JOB DONE.
Running PBS batch system epilogue script
Job id: 251211.audhumbla.fysik.dtu.dk
Username: zhonxu
Groupname: campgst
Jobname: NbO2/coarse-EOS/NbO2-v-0.8
Sessionid: 24173
Queuename: verylong
Accounting:
This job has allocated the following 4 nodes:
q095 q095 q095 q095
Finished epilogue job 251211.audhumbla.fysik.dtu.dk for zhonxu