     Program PWSCF v.5.0.2 (svn rev. 9656) starts on 30Apr2014 at  3:39: 0

     Current dimensions of program PWSCF are:
     Max number of different atomic species (ntypx) = 10
     Max number of k-points (npk) =  40000
     Max angular momentum in pseudopotentials (lmaxx) =  3
     Reading input from pwscf.in
Warning: card &CELL ignored
Warning: card / ignored

     Subspace diagonalization in iterative solution of the eigenvalue problem:
     a serial algorithm will be used

     bravais-lattice index     =            0
     lattice parameter (alat)  =      11.7541  a.u.
     unit-cell volume          =    7139.8207 (a.u.)^3
     number of atoms/cell      =           31
     number of atomic types    =            3
     number of electrons       =       238.00
     number of Kohn-Sham states=          357
     kinetic-energy cutoff     =      40.0000  Ry
     charge density cutoff     =     500.0000  Ry
     convergence threshold     =      1.0E-06
     mixing beta               =       0.7000
     number of iterations used =            8  plain     mixing
     Exchange-correlation      = SLA  PW   PBE  PBE ( 1 4 3 4 0)
     EXX-fraction              =        0.00
     nstep                     =           50

     celldm(1)=  11.754097  celldm(2)=   0.000000  celldm(3)=   0.000000
     celldm(4)=   0.000000  celldm(5)=   0.000000  celldm(6)=   0.000000

     crystal axes: (cart. coord. in units of alat)
               a(1) = (   1.000000   0.000000   0.000000 )
               a(2) = (   0.000000   1.034513   0.000000 )
               a(3) = (   0.000000   0.000000   4.249947 )

     reciprocal axes: (cart. coord. in units 2 pi/alat)
               b(1) = (  1.000000  0.000000  0.000000 )
               b(2) = (  0.000000  0.966638  0.000000 )
               b(3) = (  0.000000  0.000000  0.235297 )

     PseudoPot. # 1 for O  read from file:
     /home/camp/zhonxu/pseudo/o_pbe_v1.01.uspp.F.UPF
     MD5 check sum: 2bcb18d16ea4b960afae9ec6d52f22d2
     Pseudo is Ultrasoft + core correction, Zval =  6.0
     Generated by new atomic code, or converted to UPF format
     Using radial grid of  737 points,  5 beta functions with:
                l(1) =   0
                l(2) =   0
                l(3) =   1
                l(4) =   1
                l(5) =   2
     Q(r) pseudized with  8 coefficients,  rinner =    0.900   0.900   0.900
                                                       0.900   0.900

     PseudoPot. # 2 for Rh read from file:
     /home/camp/zhonxu/pseudo/rh_pbe_v1.uspp.F.UPF
     MD5 check sum: 37b626987ad0dd8ec6bf4cc9ef289918
     Pseudo is Ultrasoft + core correction, Zval = 15.0
     Generated by new atomic code, or converted to UPF format
     Using radial grid of  969 points,  7 beta functions with:
                l(1) =   0
                l(2) =   0
                l(3) =   1
                l(4) =   1
                l(5) =   2
                l(6) =   2
                l(7) =   2
     Q(r) pseudized with  6 coefficients,  rinner =    1.050   1.050   1.050
                                                       1.050   1.050

     PseudoPot. # 3 for H  read from file:
     /home/camp/zhonxu/pseudo/h_pbe_v1.uspp.F.UPF
     MD5 check sum: 3408e3ff4ec8b0a4e358431e7e038a48
     Pseudo is Ultrasoft, Zval =  1.0
     Generated by new atomic code, or converted to UPF format
     Using radial grid of  615 points,  2 beta functions with:
                l(1) =   0
                l(2) =   0
     Q(r) pseudized with  8 coefficients,  rinner =    0.700

     atomic species   valence    mass     pseudopotential
        O0             6.00    15.99940     O ( 1.00)
        Rh1           15.00   102.90550     Rh( 1.00)
        H2             1.00     1.00794     H ( 1.00)

     Simplified LDA+U calculation (l_max = 2) with parameters (eV):
     atomic species    L          U    alpha       J0     beta
        Rh1            2     1.5000   0.0000   0.0000   0.0000

     No symmetry found

   Cartesian axes

     site n.     atom                  positions (alat units)
         1           O0  tau(   1) = (   0.0000000   0.0000000   1.6064375  )
         2           O0  tau(   2) = (   0.0000000   0.5172566   1.7091588  )
         3           Rh1 tau(   3) = (   0.2500000   0.5172566   1.9262886  )
         4           Rh1 tau(   4) = (   0.0000000   0.0000000   1.9228036  )
         5           O0  tau(   5) = (   0.2500000   0.8379556   1.9220386  )
         6           O0  tau(   6) = (   0.2500000   0.1965575   1.9215286  )
         7           O0  tau(   7) = (   0.0000000   0.5172566   2.1200437  )
         8           O0  tau(   8) = (   0.0000000   0.0000000   2.2432071  )
         9           Rh1 tau(   9) = (   0.2500000   0.0000000   2.4439746  )
        10           Rh1 tau(  10) = (   0.0000000   0.5172566   2.4253174  )
        11           O0  tau(  11) = (   0.2500000   0.7138141   2.4432947  )
        12           O0  tau(  12) = (   0.2500000   0.3206991   2.4432097  )
        13           O0  tau(  13) = (   0.0000000   0.0000000   2.6356898  )
        14           O0  tau(  14) = (   0.5000000   0.0000000   1.6064375  )
        15           O0  tau(  15) = (   0.5000000   0.5172566   1.7079263  )
        16           Rh1 tau(  16) = (   0.7500000   0.5172566   1.9262886  )
        17           Rh1 tau(  17) = (   0.5000000   0.0000000   1.9227611  )
        18           O0  tau(  18) = (   0.7500000   0.8379556   1.9219536  )
        19           O0  tau(  19) = (   0.7500000   0.1965575   1.9216136  )
        20           O0  tau(  20) = (   0.5000000   0.5172566   2.1284161  )
        21           O0  tau(  21) = (   0.5000000   0.0000000   2.2423572  )
        22           Rh1 tau(  22) = (   0.7500000   0.0000000   2.4439321  )
        23           Rh1 tau(  23) = (   0.5000000   0.5172566   2.4652244  )
        24           O0  tau(  24) = (   0.7500000   0.7138141   2.4431672  )
        25           O0  tau(  25) = (   0.7500000   0.3206991   2.4432097  )
        26           O0  tau(  26) = (   0.5000000   0.0000000   2.6354348  )
        27           H2  tau(  27) = (  -0.0000700   0.6590056   1.6354222  )
        28           H2  tau(  28) = (   0.4999300   0.6605366   1.6368247  )
        29           H2  tau(  29) = (   0.1480800   0.0354838   1.5606656  )
        30           H2  tau(  30) = (   0.6481100   0.0354321   1.5605806  )
        31           O0  tau(  31) = (   0.5000800   0.5160462   2.7479734  )

     number of k points=    10  Methfessel-Paxton smearing, width (Ry)=  0.0100
                       cart. coord. in units 2pi/alat
        k(    1) = (   0.0000000   0.0000000   0.0000000), wk =   0.1250000
        k(    2) = (   0.0000000   0.2416596   0.0000000), wk =   0.2500000
        k(    3) = (   0.0000000  -0.4833191   0.0000000), wk =   0.1250000
        k(    4) = (   0.2500000   0.0000000   0.0000000), wk =   0.2500000
        k(    5) = (   0.2500000   0.2416596   0.0000000), wk =   0.2500000
        k(    6) = (   0.2500000  -0.4833191   0.0000000), wk =   0.2500000
        k(    7) = (  -0.5000000   0.0000000   0.0000000), wk =   0.1250000
        k(    8) = (  -0.5000000   0.2416596   0.0000000), wk =   0.2500000
        k(    9) = (  -0.5000000  -0.4833191   0.0000000), wk =   0.1250000
        k(   10) = (  -0.2500000   0.2416596   0.0000000), wk =   0.2500000

     Largest allocated arrays     est. size (Mb)     dimensions
     Largest temporary arrays     est. size (Mb)     dimensions

     Check: negative/imaginary core charge=   -0.000003    0.000000

     Initial potential from superposition of free atoms
     Check: negative starting charge=   -0.645358

     starting charge  233.99915, renormalised to  238.00000

     negative rho (up, down):  0.656E+00 0.000E+00
     Number of +U iterations with fixed ns =  0
     Starting occupations:
 --- enter write_ns ---
 LDA+U parameters:
U( 2)     =  1.50000000
alpha( 2) =  0.00000000
atom    3   Tr[ns(na)] =   7.00000
    eigenvalues:
  0.700  0.700  0.700  0.700  0.700
    eigenvectors:
  1.000  0.000  0.000  0.000  0.000
  0.000  1.000  0.000  0.000  0.000
  0.000  0.000  1.000  0.000  0.000
  0.000  0.000  0.000  1.000  0.000
  0.000  0.000  0.000  0.000  1.000
    occupations:
  0.700  0.000  0.000  0.000  0.000
  0.000  0.700  0.000  0.000  0.000
  0.000  0.000  0.700  0.000  0.000
  0.000  0.000  0.000  0.700  0.000
  0.000  0.000  0.000  0.000  0.700
atom    4   Tr[ns(na)] =   7.00000
    eigenvalues:
  0.700  0.700  0.700  0.700  0.700
    eigenvectors:
  1.000  0.000  0.000  0.000  0.000
  0.000  1.000  0.000  0.000  0.000
  0.000  0.000  1.000  0.000  0.000
  0.000  0.000  0.000  1.000  0.000
  0.000  0.000  0.000  0.000  1.000
    occupations:
  0.700  0.000  0.000  0.000  0.000
  0.000  0.700  0.000  0.000  0.000
  0.000  0.000  0.700  0.000  0.000
  0.000  0.000  0.000  0.700  0.000
  0.000  0.000  0.000  0.000  0.700
atom    9   Tr[ns(na)] =   7.00000
    eigenvalues:
  0.700  0.700  0.700  0.700  0.700
    eigenvectors:
  1.000  0.000  0.000  0.000  0.000
  0.000  1.000  0.000  0.000  0.000
  0.000  0.000  1.000  0.000  0.000
  0.000  0.000  0.000  1.000  0.000
  0.000  0.000  0.000  0.000  1.000
    occupations:
  0.700  0.000  0.000  0.000  0.000
  0.000  0.700  0.000  0.000  0.000
  0.000  0.000  0.700  0.000  0.000
  0.000  0.000  0.000  0.700  0.000
  0.000  0.000  0.000  0.000  0.700
atom   10   Tr[ns(na)] =   7.00000
    eigenvalues:
  0.700  0.700  0.700  0.700  0.700
    eigenvectors:
  1.000  0.000  0.000  0.000  0.000
  0.000  1.000  0.000  0.000  0.000
  0.000  0.000  1.000  0.000  0.000
  0.000  0.000  0.000  1.000  0.000
  0.000  0.000  0.000  0.000  1.000
    occupations:
  0.700  0.000  0.000  0.000  0.000
  0.000  0.700  0.000  0.000  0.000
  0.000  0.000  0.700  0.000  0.000
  0.000  0.000  0.000  0.700  0.000
  0.000  0.000  0.000  0.000  0.700
atom   16   Tr[ns(na)] =   7.00000
    eigenvalues:
  0.700  0.700  0.700  0.700  0.700
    eigenvectors:
  1.000  0.000  0.000  0.000  0.000
  0.000  1.000  0.000  0.000  0.000
  0.000  0.000  1.000  0.000  0.000
  0.000  0.000  0.000  1.000  0.000
  0.000  0.000  0.000  0.000  1.000
    occupations:
  0.700  0.000  0.000  0.000  0.000
  0.000  0.700  0.000  0.000  0.000
  0.000  0.000  0.700  0.000  0.000
  0.000  0.000  0.000  0.700  0.000
  0.000  0.000  0.000  0.000  0.700
atom   17   Tr[ns(na)] =   7.00000
    eigenvalues:
  0.700  0.700  0.700  0.700  0.700
    eigenvectors:
  1.000  0.000  0.000  0.000  0.000
  0.000  1.000  0.000  0.000  0.000
  0.000  0.000  1.000  0.000  0.000
  0.000  0.000  0.000  1.000  0.000
  0.000  0.000  0.000  0.000  1.000
    occupations:
  0.700  0.000  0.000  0.000  0.000
  0.000  0.700  0.000  0.000  0.000
  0.000  0.000  0.700  0.000  0.000
  0.000  0.000  0.000  0.700  0.000
  0.000  0.000  0.000  0.000  0.700
atom   22   Tr[ns(na)] =   7.00000
    eigenvalues:
  0.700  0.700  0.700  0.700  0.700
    eigenvectors:
  1.000  0.000  0.000  0.000  0.000
  0.000  1.000  0.000  0.000  0.000
  0.000  0.000  1.000  0.000  0.000
  0.000  0.000  0.000  1.000  0.000
  0.000  0.000  0.000  0.000  1.000
    occupations:
  0.700  0.000  0.000  0.000  0.000
[...]
  0.000  0.000  0.933  0.067  0.000
  0.014  0.835  0.000  0.000  0.151
  0.000  0.000  0.067  0.933  0.000
    occupations:
  0.924  0.001 -0.000 -0.116 -0.000
  0.001  0.638  0.000  0.001 -0.000
 -0.000  0.000  0.850  0.000 -0.009
 -0.116  0.001  0.000  0.697  0.001
 -0.000 -0.000 -0.009  0.001  0.881
atom   10   Tr[ns(na)] =   7.98571
    eigenvalues:
  0.595  0.602  0.904  0.920  0.973
    eigenvectors:
  0.000  0.990  0.000  0.000  0.010
  0.000  0.000  0.000  1.000  0.000
  0.000  0.000  1.000  0.000  0.000
  0.000  0.010  0.000  0.000  0.990
  1.000  0.000  0.000  0.000  0.000
    occupations:
  0.605  0.000  0.001  0.036 -0.000
  0.000  0.920 -0.000  0.000 -0.000
  0.001 -0.000  0.904  0.000  0.000
  0.036  0.000  0.000  0.969 -0.000
 -0.000 -0.000  0.000 -0.000  0.595
atom   16   Tr[ns(na)] =   7.99639
    eigenvalues:
  0.589  0.611  0.881  0.948  0.970
    eigenvectors:
  0.012  0.190  0.002  0.000  0.795
  0.952  0.048  0.000  0.000  0.000
  0.000  0.000  0.981  0.016  0.002
  0.036  0.762  0.000  0.000  0.202
  0.000  0.000  0.016  0.983  0.001
    occupations:
  0.897  0.007  0.003 -0.144  0.001
  0.007  0.590  0.001  0.002 -0.006
  0.003  0.001  0.882 -0.004 -0.008
 -0.144  0.002 -0.004  0.682  0.000
  0.001 -0.006 -0.008  0.000  0.947
atom   17   Tr[ns(na)] =   7.98548
    eigenvalues:
  0.604  0.651  0.858  0.906  0.974
    eigenvectors:
  0.001  0.992  0.000  0.000  0.007
  0.000  0.000  0.058  0.941  0.000
  0.000  0.000  0.941  0.058  0.000
  0.000  0.007  0.000  0.000  0.993
  0.999  0.001  0.000  0.000  0.000
    occupations:
  0.653 -0.004 -0.001  0.027  0.001
 -0.004  0.903  0.011  0.001 -0.001
 -0.001  0.011  0.861 -0.000  0.001
  0.027  0.001 -0.000  0.972  0.000
  0.001 -0.001  0.001  0.000  0.604
atom   22   Tr[ns(na)] =   7.97888
    eigenvalues:
  0.638  0.648  0.847  0.883  0.973
    eigenvectors:
  0.000  0.151  0.000  0.000  0.848
  0.999  0.001  0.000  0.000  0.000
  0.000  0.000  0.938  0.062  0.000
  0.001  0.847  0.000  0.000  0.152
  0.000  0.000  0.062  0.938  0.000
    occupations:
  0.924 -0.000  0.000 -0.117 -0.000
 -0.000  0.638  0.000 -0.000 -0.000
  0.000  0.000  0.850 -0.000  0.009
 -0.117 -0.000 -0.000  0.697  0.000
 -0.000 -0.000  0.009  0.000  0.881
atom   23   Tr[ns(na)] =   7.96358
    eigenvalues:
  0.636  0.697  0.815  0.856  0.978
    eigenvectors:
  0.000  0.994  0.000  0.000  0.006
  0.000  0.000  0.000  1.000  0.000
  0.000  0.000  1.000  0.000  0.000
  0.000  0.006  0.000  0.000  0.994
  1.000  0.000  0.000  0.000  0.000
    occupations:
  0.699  0.000 -0.000  0.022 -0.000
  0.000  0.856 -0.000  0.000 -0.000
 -0.000 -0.000  0.815  0.001  0.000
  0.022  0.000  0.001  0.976  0.000
 -0.000 -0.000  0.000  0.000  0.636
N of occupied +U levels =  63.8735741
 --- exit write_ns ---

     Threshold (ethr) on eigenvalues was too large:
     Diagonalizing with lowered threshold

     Davidson diagonalization with overlap
     ethr =  4.22E-09,  avg # of iterations =  4.0

[...]

     total energy              =   -1979.69246421 Ry
     Harris-Foulkes estimate   =   -1979.69246422 Ry
     estimated scf accuracy    <       0.00000003 Ry

     iteration # 17     ecut=    40.00 Ry     beta=0.70
     Davidson diagonalization with overlap
     ethr =  1.33E-11,  avg # of iterations =  1.0

     negative rho (up, down):  0.693E+00 0.000E+00

     End of self-consistent calculation
 --- enter write_ns ---
 LDA+U parameters:
U( 2)     =  1.50000000
alpha( 2) =  0.00000000
atom    3   Tr[ns(na)] =   7.99721
    eigenvalues:
  0.589  0.611  0.881  0.949  0.970
    eigenvectors:
  0.013  0.190  0.002  0.000  0.795
  0.949  0.051  0.000  0.000  0.000
  0.000  0.000  0.976  0.022  0.002
  0.038  0.760  0.000  0.000  0.202
  0.000  0.000  0.022  0.977  0.001
    occupations:
  0.896 -0.007  0.003 -0.144 -0.002
 -0.007  0.590 -0.001 -0.002 -0.006
  0.003 -0.001  0.882 -0.004  0.010
 -0.144 -0.002 -0.004  0.683 -0.000
 -0.002 -0.006  0.010 -0.000  0.947
atom    4   Tr[ns(na)] =   7.98758
    eigenvalues:
  0.603  0.650  0.858  0.909  0.973
    eigenvectors:
  0.000  0.992  0.000  0.000  0.007
  0.000  0.000  0.046  0.954  0.000
  0.000  0.000  0.954  0.046  0.000
  0.000  0.007  0.000  0.000  0.993
  1.000  0.000  0.000  0.000  0.000
    occupations:
  0.653 -0.004 -0.001  0.027  0.001
 -0.004  0.907  0.011  0.001 -0.000
 -0.001  0.011  0.861 -0.001  0.001
  0.027  0.001 -0.001  0.971  0.000
  0.001 -0.000  0.001  0.000  0.603
atom    9   Tr[ns(na)] =   7.97895
    eigenvalues:
  0.638  0.648  0.847  0.883  0.973
    eigenvectors:
  0.003  0.149  0.000  0.000  0.848
  0.984  0.016  0.000  0.000  0.000
  0.000  0.000  0.933  0.067  0.000
  0.014  0.835  0.000  0.000  0.151
  0.000  0.000  0.067  0.933  0.000
    occupations:
  0.924  0.001 -0.000 -0.116 -0.000
  0.001  0.638  0.000  0.001 -0.000
 -0.000  0.000  0.850  0.000 -0.009
 -0.116  0.001  0.000  0.697  0.001
 -0.000 -0.000 -0.009  0.001  0.881
atom   10   Tr[ns(na)] =   7.98460
    eigenvalues:
  0.595  0.602  0.904  0.920  0.973
    eigenvectors:
  0.000  0.990  0.000  0.000  0.010
  0.000  0.000  0.000  1.000  0.000
  0.000  0.000  1.000  0.000  0.000
  0.000  0.010  0.000  0.000  0.990
  1.000  0.000  0.000  0.000  0.000
    occupations:
  0.605  0.000  0.001  0.036 -0.000
  0.000  0.920 -0.000  0.000 -0.000
  0.001 -0.000  0.904  0.000  0.000
  0.036  0.000  0.000  0.969 -0.000
 -0.000 -0.000  0.000 -0.000  0.595
atom   16   Tr[ns(na)] =   7.99712
    eigenvalues:
  0.589  0.611  0.881  0.948  0.970
    eigenvectors:
  0.012  0.190  0.002  0.000  0.795
  0.952  0.047  0.000  0.000  0.000
  0.000  0.000  0.981  0.016  0.002
  0.036  0.762  0.000  0.000  0.202
  0.000  0.000  0.016  0.983  0.001
    occupations:
  0.897  0.006  0.003 -0.144  0.001
  0.006  0.590  0.001  0.002 -0.006
  0.003  0.001  0.882 -0.004 -0.008
 -0.144  0.002 -0.004  0.683  0.000
  0.001 -0.006 -0.008  0.000  0.947
atom   17   Tr[ns(na)] =   7.98517
    eigenvalues:
  0.604  0.651  0.858  0.906  0.974
    eigenvectors:
  0.001  0.992  0.000  0.000  0.007
  0.000  0.000  0.058  0.941  0.000
  0.000  0.000  0.942  0.058  0.000
  0.000  0.007  0.000  0.000  0.993
  0.999  0.001  0.000  0.000  0.000
    occupations:
  0.653 -0.004 -0.001  0.027  0.001
 -0.004  0.903  0.011  0.001 -0.001
 -0.001  0.011  0.861 -0.000  0.001
  0.027  0.001 -0.000  0.972  0.000
  0.001 -0.001  0.001  0.000  0.604
atom   22   Tr[ns(na)] =   7.97890
    eigenvalues:
  0.638  0.648  0.847  0.883  0.973
    eigenvectors:
  0.000  0.151  0.000  0.000  0.848
  0.999  0.001  0.000  0.000  0.000
  0.000  0.000  0.938  0.062  0.000
  0.001  0.847  0.000  0.000  0.152
  0.000  0.000  0.062  0.938  0.000
    occupations:
  0.924 -0.000  0.000 -0.116 -0.000
 -0.000  0.638  0.000 -0.000 -0.000
  0.000  0.000  0.850 -0.000  0.009
 -0.116 -0.000 -0.000  0.697  0.000
 -0.000 -0.000  0.009  0.000  0.881
atom   23   Tr[ns(na)] =   7.96387
    eigenvalues:
  0.636  0.697  0.815  0.856  0.978
    eigenvectors:
  0.000  0.993  0.000  0.000  0.006
  0.000  0.000  0.000  1.000  0.000
  0.000  0.000  1.000  0.000  0.000
  0.000  0.006  0.000  0.000  0.994
  1.000  0.000  0.000  0.000  0.000
    occupations:
  0.699  0.000 -0.000  0.022 -0.000
  0.000  0.856 -0.000  0.000 -0.000
 -0.000 -0.000  0.815  0.001  0.000
  0.022  0.000  0.001  0.976  0.000
 -0.000 -0.000  0.000  0.000  0.636
N of occupied +U levels =  63.8733985
 --- exit write_ns ---

[...]

          k = 0.2500-0.4833 0.0000 ( 30510 PWs)   bands (ev):

[...]

          k =-0.2500 0.2417 0.0000 ( 30481 PWs)   bands (ev):

   -50.5135 -50.1827 -50.0853 -49.4761 -49.4709 -49.4416 -49.4160 -49.3919
   -49.3756 -49.3557 -49.3548 -49.3436 -49.2749 -49.2664 -49.2541 -49.1444
   -49.1398 -49.0885 -49.0723 -49.0375 -49.0369 -49.0256 -49.0238 -49.0117
   -21.6247 -21.3289 -21.1951 -21.0584 -20.8788 -20.6677 -20.6000 -20.5108
   -20.4062 -20.3664 -20.2427 -20.2351 -20.1690 -20.0737 -20.0610 -19.9817
   -19.3265 -19.2231 -19.1164  -9.8593  -9.7936  -9.6360  -9.4060  -9.0821
    -9.0430  -9.0188  -8.9126  -8.8885  -8.8459  -8.7052  -8.6635  -8.5778
    -8.4073  -8.2854  -8.2254  -8.0967  -8.0417  -7.7646  -7.6877  -7.5340
    -7.4936  -7.3281  -7.1911  -7.1107  -6.9454  -6.7913  -6.6647  -6.5966
    -6.5255  -6.4844  -6.3630  -6.3206  -6.2550  -6.1977  -6.1439  -6.0343
    -5.8961  -5.8708  -5.7690  -5.5646  -5.5161  -5.3971  -5.2370  -5.1649
    -5.1207  -4.9188  -4.8412  -4.7502  -4.6971  -4.6028  -4.4793  -4.2871
    -4.1801  -4.0002  -3.9043  -3.8132  -3.7203  -3.7064  -3.5809  -3.5249
    -3.4491  -3.4021  -3.3063  -3.2842  -3.2526  -3.1759  -3.1328  -3.0382
    -2.9361  -2.6112  -2.4920  -2.4128  -2.2755  -2.1454  -2.0109  -1.9356
    -1.8854  -1.7593  -1.6963  -1.5821  -1.1083  -0.7626  -0.5752  -0.1455
     0.1202   0.3061   0.5498   0.7429   1.0107   1.1654   1.2125   1.3425
     1.4270   1.6297   1.6560   2.0221   3.4815   4.4560   4.6089   5.0763
     5.2928   5.3407   5.4906   6.0803   6.3648   6.4083   6.4589   6.5686
     6.6991   6.8174   6.9604   7.1654   7.3097   7.4735   7.5854   7.7172
     7.8351   7.9782   8.0625   8.1397   8.2606   8.3534   8.4344   8.5323
     8.7619   8.7980   8.8786   8.9956   9.2186   9.3779   9.4592   9.5425
     9.6220   9.7310   9.7832   9.8296   9.9196  10.1065  10.1825  10.2225
    10.3282  10.4235  10.4727  10.5969  10.7129  10.7618  10.8367  10.9096
    10.9643  11.0838  11.1097  11.1781  11.3232  11.4427  11.5071  11.5480
    11.5925  11.7065  11.7401  11.7735  11.8718  12.0055  12.0633  12.1640
    12.2151  12.2425  12.3624  12.4293  12.5052  12.6317  12.6839  12.7567
    12.7970  12.8455  12.9350  12.9965  13.0635  13.1001  13.1501  13.2362
    13.2805  13.3988  13.4881  13.5422  13.6991  13.7547  13.7992  13.8386
    13.9183  14.0750  14.1311  14.1785  14.2348  14.3492  14.3871  14.4827
    14.5737  14.5831  14.7112  14.8045  14.9801  15.1060  15.2419  15.2868
    15.3584  15.4254  15.4966  15.5227  15.5617  15.6293  15.7204  15.7587
    15.8718  15.9462  16.0142  16.0381  16.1015  16.1463  16.2400  16.3018
    16.3709  16.4162  16.4611  16.4788  16.5467  16.6108  16.6612  16.7263
    16.7963  16.8778  16.9992  17.0442  17.1219  17.2115  17.2656  17.3355
    17.3805  17.4797  17.5527  17.5935  17.6284  17.7527  17.8263  17.8502
    17.9072  18.0195  18.0956  18.1452  18.1684  18.2919  18.3121  18.3781
    18.4649  18.5714  18.6603  18.7144  18.7528  18.8348  18.8916  18.9751
    19.0086  19.0507  19.0819  19.1841  19.2266  19.2657  19.3350  19.4652
    19.5280  19.5842  19.6354  19.7171  19.7717  19.8784  20.0171  20.0582
    20.1825  20.2236  20.2665  20.3231  20.4920  20.5481  20.6253  20.6765
    20.6963  20.7718  20.8359  20.8899  20.9305  21.0096  21.0907  21.1981
    21.2596  21.3029  21.3501  21.3792  21.4304  21.5193  21.6741  21.7331
    21.7845  21.8510  21.8882  21.9219  21.9420  22.0181  22.0814  22.1680
    22.1985  22.2992  22.4038  22.4637  22.5073

     the Fermi energy is    -2.0342 ev

!    total energy              =   -1979.69246421 Ry
     Harris-Foulkes estimate   =   -1979.69246421 Ry
     estimated scf accuracy    <          7.9E-09 Ry

     The total energy is the sum of the following terms:

     one-electron contribution =  -23265.36513754 Ry
     hartree contribution      =   11678.28788371 Ry
     xc contribution           =    -371.96982326 Ry
     ewald contribution        =    9978.74127259 Ry
     Hubbard energy            =       0.61356898 Ry
     smearing contrib. (-TS)   =      -0.00022869 Ry

     convergence has been achieved in  17 iterations

     Forces acting on atoms (Ry/au):

     negative rho (up, down):  0.693E+00 0.000E+00
     atom    1 type  1   force =    -0.00750161   -0.01327109   -0.00023333
     atom    2 type  1   force =     0.00009804    0.00465110    0.00059278
     atom    3 type  2   force =     0.03999758    0.00670473    0.00012253
     atom    4 type  2   force =     0.00881778    0.00951317   -0.00003404
     atom    5 type  1   force =    -0.00193446   -0.03077633    0.00017540
     atom    6 type  1   force =     0.00199993    0.02752837    0.00015215
     atom    7 type  1   force =    -0.00023916   -0.00138950   -0.00000225
     atom    8 type  1   force =    -0.00307325   -0.00107126    0.00031749
     atom    9 type  2   force =     0.00337538    0.00032222   -0.00006635
     atom   10 type  2   force =    -0.00001731   -0.00128143    0.00025462
     atom   11 type  1   force =    -0.00348973    0.00903366   -0.00029291
     atom   12 type  1   force =    -0.00400819   -0.00962693   -0.00032440
     atom   13 type  1   force =    -0.00084084    0.00014810   -0.00017108
     atom   14 type  1   force =    -0.00698019   -0.01325663   -0.00019568
     atom   15 type  1   force =     0.00015115    0.00464499    0.00040073
     atom   16 type  2   force =    -0.04048383    0.00569964    0.00010143
     atom   17 type  2   force =     0.00861030    0.00973408    0.00013165
     atom   18 type  1   force =    -0.00081521   -0.03057878    0.00016537
     atom   19 type  1   force =     0.00282847    0.02783357    0.00015479
     atom   20 type  1   force =    -0.00014626   -0.00451406   -0.00095164
     atom   21 type  1   force =    -0.00300467   -0.00069689    0.00003589
     atom   22 type  2   force =    -0.00060728    0.00051101   -0.00010187
     atom   23 type  2   force =    -0.00012462    0.00076678   -0.00012402
     atom   24 type  1   force =     0.00324152    0.00908859   -0.00029596
     atom   25 type  1   force =     0.00470639   -0.00972758   -0.00032136
     atom   26 type  1   force =    -0.00080391   -0.00005068   -0.00039028
     atom   27 type  3   force =    -0.00000968   -0.00011587    0.00034380
     atom   28 type  3   force =    -0.00000849   -0.00000551    0.00030788
     atom   29 type  3   force =     0.00015329    0.00012837    0.00006712
     atom   30 type  3   force =     0.00011449    0.00013149   -0.00000892
     atom   31 type  1   force =    -0.00000563   -0.00007730    0.00019047

     Total force =     0.001662     Total SCF correction =     0.000180
     SCF correction compared to forces is large: reduce conv_thr to get better values

     bfgs converged in   6 scf cycles and   5 bfgs steps
     (criteria: energy < 0.10E-03, force < 0.10E-02)

     End of BFGS Geometry Optimization

     Final energy   =   -1979.6924642075 Ry
Begin final coordinates

ATOMIC_POSITIONS (crystal)
O0       0.000000000   0.000000000   0.378099166    0   0   1
O0       0.000000000   0.500000000   0.402180932    0   0   1
Rh1      0.250000000   0.500000000   0.453267548    0   0   1
Rh1      0.000000000   0.000000000   0.452435843    0   0   1
O0       0.250000000   0.810000000   0.452312227    0   0   1
O0       0.250000000   0.190000000   0.452159327    0   0   1
O0       0.000000000   0.500000000   0.499088801    0   0   1
O0       0.000000000   0.000000000   0.527729790    0   0   1
Rh1      0.250000000   0.000000000   0.574927467    0   0   1
Rh1      0.000000000   0.500000000   0.570662282    0   0   1
O0       0.250000000   0.690000000   0.574885166    0   0   1
O0       0.250000000   0.310000000   0.574853233    0   0   1
O0       0.000000000   0.000000000   0.620083919    0   0   1
O0       0.500000000   0.000000000   0.378050543    0   0   1
O0       0.500000000   0.500000000   0.402023158    0   0   1
Rh1      0.750000000   0.500000000   0.453271154    0   0   1
Rh1      0.500000000   0.000000000   0.452361778    0   0   1
O0       0.750000000   0.810000000   0.452292249    0   0   1
O0       0.750000000   0.190000000   0.452176487    0   0   1
O0       0.500000000   0.500000000   0.501096056    0   0   1
O0       0.500000000   0.000000000   0.527588979    0   0   1
Rh1      0.750000000   0.000000000   0.574923621    0   0   1
Rh1      0.500000000   0.500000000   0.579748712    0   0   1
O0       0.750000000   0.690000000   0.574854225    0   0   1
O0       0.750000000   0.310000000   0.574860050    0   0   1
O0       0.500000000   0.000000000   0.620084953    0   0   1
H2      -0.000087668   0.636985537   0.384850826
H2       0.499903944   0.638223363   0.385228940
H2       0.147926035   0.034369215   0.367235232
H2       0.648004620   0.034339842   0.367206449
O0       0.500071887   0.498766259   0.646280888
End final coordinates

     General routines

     Parallel routines
     Hubbard U routines

   This run was terminated on:  11:52:13  30Apr2014

   JOB DONE.
Running PBS batch system epilogue script
Job id: 340538.audhumbla.fysik.dtu.dk
Username: zhonxu
Groupname: campgst
Jobname: RhO2/Eads-2-layers/O-U-1.5
Sessionid: 21193
Queuename: verylong
Accounting:
This job has allocated the following 16 nodes:
a088 a088 a088 a088 a088 a088 a088 a088 a084 a084 a084 a084 a084 a084 a084 a084
Finished epilogue job 340538.audhumbla.fysik.dtu.dk for zhonxu