     Program PWSCF v.5.0.2 (svn rev. 9656) starts on  6May2014 at 10:29:26

     Current dimensions of program PWSCF are:
     Max number of different atomic species (ntypx) = 10
     Max number of k-points (npk) =  40000
     Max angular momentum in pseudopotentials (lmaxx) =  3
     Reading input from pwscf.in
Warning: card &CELL ignored
Warning: card / ignored

     Subspace diagonalization in iterative solution of the eigenvalue problem:
     a serial algorithm will be used

     Found symmetry operation: I + ( -0.5000  0.0000  0.0000)
     This is a supercell, fractional translations are disabled

     bravais-lattice index     =            0
     lattice parameter (alat)  =      12.2076  a.u.
     unit-cell volume          =    7496.5096 (a.u.)^3
     number of atoms/cell      =           30
     number of atomic types    =            3
     number of electrons       =       240.00
     number of Kohn-Sham states=          360
     kinetic-energy cutoff     =      40.0000  Ry
     charge density cutoff     =     500.0000  Ry
     convergence threshold     =      1.0E-06
     mixing beta               =       0.7000
     number of iterations used =            8  plain     mixing
     Exchange-correlation      = SLA  PW   PBE  PBE ( 1 4 3 4 0)
     EXX-fraction              =        0.00
     nstep                     =           50

     celldm(1)=  12.207631  celldm(2)=   0.000000  celldm(3)=   0.000000
     celldm(4)=   0.000000  celldm(5)=   0.000000  celldm(6)=   0.000000

     crystal axes: (cart. coord. in units of alat)
               a(1) = (   1.000000   0.000000   0.000000 )
               a(2) = (   0.000000   1.004836   0.000000 )
               a(3) = (   0.000000   0.000000   4.100811 )

     reciprocal axes: (cart. coord. in units 2 pi/alat)
               b(1) = (  1.000000  0.000000  0.000000 )
               b(2) = (  0.000000  0.995187  0.000000 )
               b(3) = (  0.000000  0.000000  0.243854 )

     PseudoPot. # 1 for O  read from file:
     /home/camp/zhonxu/pseudo/o_pbe_v1.01.uspp.F.UPF
     MD5 check sum: 2bcb18d16ea4b960afae9ec6d52f22d2
     Pseudo is Ultrasoft + core correction, Zval =  6.0
     Generated by new atomic code, or converted to UPF format
     Using radial grid of  737 points,  5 beta functions with:
                l(1) =   0
                l(2) =   0
                l(3) =   1
                l(4) =   1
                l(5) =   2
     Q(r) pseudized with  8 coefficients,  rinner =    0.900   0.900   0.900
                                                       0.900   0.900

     PseudoPot. # 2 for Pt read from file:
     /home/camp/zhonxu/pseudo/pt_pbe_v1.uspp.F.UPF
     MD5 check sum: 4c71d6ad5ef119f1eb26a4d0b7884226
     Pseudo is Ultrasoft + core correction, Zval = 16.0
     Generated by new atomic code, or converted to UPF format
     Using radial grid of  985 points,  6 beta functions with:
                l(1) =   0
                l(2) =   0
                l(3) =   1
                l(4) =   1
                l(5) =   2
                l(6) =   2
     Q(r) pseudized with  8 coefficients,  rinner =    1.300   1.300   1.300
                                                       1.300   1.300

     PseudoPot. # 3 for H  read from file:
     /home/camp/zhonxu/pseudo/h_pbe_v1.uspp.F.UPF
     MD5 check sum: 3408e3ff4ec8b0a4e358431e7e038a48
     Pseudo is Ultrasoft, Zval =  1.0
     Generated by new atomic code, or converted to UPF format
     Using radial grid of  615 points,  2 beta functions with:
                l(1) =   0
                l(2) =   0
     Q(r) pseudized with  8 coefficients,  rinner =    0.700

     atomic species   valence    mass     pseudopotential
        O0             6.00    15.99940     O ( 1.00)
        Pt1           16.00   195.08000     Pt( 1.00)
        H2             1.00     1.00794     H ( 1.00)

     Simplified LDA+U calculation (l_max = 2) with parameters (eV):
     atomic species    L          U    alpha       J0     beta
        Pt1            2     7.0000   0.0000   0.0000   0.0000

     No symmetry found

   Cartesian axes

     site n.     atom                  positions (alat units)
         1           O0  tau(   1) = (   0.0000000   0.0000000   1.5457188  )
         2           O0  tau(   2) = (   0.0000000   0.5024180   1.6369208  )
         3           Pt1 tau(   3) = (   0.2500000   0.5024180   1.8413872  )
         4           Pt1 tau(   4) = (   0.0000000   0.0000000   1.8534436  )
         5           O0  tau(   5) = (   0.2500000   0.8139171   1.8157162  )
         6           O0  tau(   6) = (   0.2500000   0.1909188   1.8824364  )
         7           O0  tau(   7) = (   0.0000000   0.5024180   2.0315829  )
         8           O0  tau(   8) = (   0.0000000   0.0000000   2.1708464  )
         9           Pt1 tau(   9) = (   0.2500000   0.0000000   2.3625593  )
        10           Pt1 tau(  10) = (   0.0000000   0.5024180   2.3549318  )
        11           O0  tau(  11) = (   0.2500000   0.6933368   2.3911010  )
        12           O0  tau(  12) = (   0.2500000   0.3114991   2.3934384  )
        13           O0  tau(  13) = (   0.0000000   0.0000000   2.5491052  )
        14           O0  tau(  14) = (   0.5000000   0.0000000   1.5457188  )
        15           O0  tau(  15) = (   0.5000000   0.5024180   1.6369208  )
        16           Pt1 tau(  16) = (   0.7500000   0.5024180   1.8413872  )
        17           Pt1 tau(  17) = (   0.5000000   0.0000000   1.8534436  )
        18           O0  tau(  18) = (   0.7500000   0.8139171   1.8157162  )
        19           O0  tau(  19) = (   0.7500000   0.1909188   1.8824364  )
        20           O0  tau(  20) = (   0.5000000   0.5024180   2.0315829  )
        21           O0  tau(  21) = (   0.5000000   0.0000000   2.1708464  )
        22           Pt1 tau(  22) = (   0.7500000   0.0000000   2.3625593  )
        23           Pt1 tau(  23) = (   0.5000000   0.5024180   2.3549318  )
        24           O0  tau(  24) = (   0.7500000   0.6933368   2.3911010  )
        25           O0  tau(  25) = (   0.7500000   0.3114991   2.3934384  )
        26           O0  tau(  26) = (   0.5000000   0.0000000   2.5491052  )
        27           H2  tau(  27) = (  -0.0000500   0.6431553   1.5728661  )
        28           H2  tau(  28) = (   0.4999500   0.6431553   1.5728661  )
        29           H2  tau(  29) = (   0.1440700   0.0315318   1.5048747  )
        30           H2  tau(  30) = (   0.6440700   0.0315318   1.5048747  )

     number of k points=    10  Methfessel-Paxton smearing, width (Ry)=  0.0100
                       cart. coord. in units 2pi/alat
        k(    1) = (   0.0000000   0.0000000   0.0000000), wk =   0.1250000
        k(    2) = (   0.0000000   0.2487968   0.0000000), wk =   0.2500000
        k(    3) = (   0.0000000  -0.4975937   0.0000000), wk =   0.1250000
        k(    4) = (   0.2500000   0.0000000   0.0000000), wk =   0.2500000
        k(    5) = (   0.2500000   0.2487968   0.0000000), wk =   0.2500000
        k(    6) = (   0.2500000  -0.4975937   0.0000000), wk =   0.2500000
        k(    7) = (  -0.5000000   0.0000000   0.0000000), wk =   0.1250000
        k(    8) = (  -0.5000000   0.2487968   0.0000000), wk =   0.2500000
        k(    9) = (  -0.5000000  -0.4975937   0.0000000), wk =   0.1250000
        k(   10) = (  -0.2500000   0.2487968   0.0000000), wk =   0.2500000

     Largest allocated arrays     est. size (Mb)     dimensions
     Largest temporary arrays     est. size (Mb)     dimensions

     Check: negative/imaginary core charge=   -0.000003    0.000000

     Initial potential from superposition of free atoms
     Check: negative starting charge=   -1.537272

     starting charge  235.99985, renormalised to  240.00000

     negative rho (up, down):  0.156E+01 0.000E+00
     Number of +U iterations with fixed ns =  0
     Starting occupations:
 --- enter write_ns ---
 LDA+U parameters:
U( 2)     =  7.00000000
alpha( 2) =  0.00000000
atom    3   Tr[ns(na)] =   8.00000
    eigenvalues:
  0.800  0.800  0.800  0.800  0.800
    eigenvectors:
  1.000  0.000  0.000  0.000  0.000
  0.000  1.000  0.000  0.000  0.000
  0.000  0.000  1.000  0.000  0.000
  0.000  0.000  0.000  1.000  0.000
  0.000  0.000  0.000  0.000  1.000
    occupations:
  0.800  0.000  0.000  0.000  0.000
  0.000  0.800  0.000  0.000  0.000
  0.000  0.000  0.800  0.000  0.000
  0.000  0.000  0.000  0.800  0.000
  0.000  0.000  0.000  0.000  0.800
atom    4   Tr[ns(na)] =   8.00000
    eigenvalues:
  0.800  0.800  0.800  0.800  0.800
    eigenvectors:
  1.000  0.000  0.000  0.000  0.000
  0.000  1.000  0.000  0.000  0.000
  0.000  0.000  1.000  0.000  0.000
  0.000  0.000  0.000  1.000  0.000
  0.000  0.000  0.000  0.000  1.000
    occupations:
  0.800  0.000  0.000  0.000  0.000
  0.000  0.800  0.000  0.000  0.000
  0.000  0.000  0.800  0.000  0.000
  0.000  0.000  0.000  0.800  0.000
  0.000  0.000  0.000  0.000  0.800
atom    9   Tr[ns(na)] =   8.00000
    eigenvalues:
  0.800  0.800  0.800  0.800  0.800
    eigenvectors:
  1.000  0.000  0.000  0.000  0.000
  0.000  1.000  0.000  0.000  0.000
  0.000  0.000  1.000  0.000  0.000
  0.000  0.000  0.000  1.000  0.000
  0.000  0.000  0.000  0.000  1.000
    occupations:
  0.800  0.000  0.000  0.000  0.000
  0.000  0.800  0.000  0.000  0.000
  0.000  0.000  0.800  0.000  0.000
  0.000  0.000  0.000  0.800  0.000
  0.000  0.000  0.000  0.000  0.800
atom   10   Tr[ns(na)] =   8.00000
    eigenvalues:
  0.800  0.800  0.800  0.800  0.800
    eigenvectors:
  1.000  0.000  0.000  0.000  0.000
  0.000  1.000  0.000  0.000  0.000
  0.000  0.000  1.000  0.000  0.000
  0.000  0.000  0.000  1.000  0.000
  0.000  0.000  0.000  0.000  1.000
    occupations:
  0.800  0.000  0.000  0.000  0.000
  0.000  0.800  0.000  0.000  0.000
  0.000  0.000  0.800  0.000  0.000
  0.000  0.000  0.000  0.800  0.000
  0.000  0.000  0.000  0.000  0.800
atom   16   Tr[ns(na)] =   8.00000
    eigenvalues:
  0.800  0.800  0.800  0.800  0.800
    eigenvectors:
  1.000  0.000  0.000  0.000  0.000
  0.000  1.000  0.000  0.000  0.000
  0.000  0.000  1.000  0.000  0.000
  0.000  0.000  0.000  1.000  0.000
  0.000  0.000  0.000  0.000  1.000
    occupations:
  0.800  0.000  0.000  0.000  0.000
  0.000  0.800  0.000  0.000  0.000
  0.000  0.000  0.800  0.000  0.000
  0.000  0.000  0.000  0.800  0.000
  0.000  0.000  0.000  0.000  0.800
atom   17   Tr[ns(na)] =   8.00000
    eigenvalues:
  0.800  0.800  0.800  0.800  0.800
    eigenvectors:
  1.000  0.000  0.000  0.000  0.000
  0.000  1.000  0.000  0.000  0.000
  0.000  0.000  1.000  0.000  0.000
  0.000  0.000  0.000  1.000  0.000
  0.000  0.000  0.000  0.000  1.000
    occupations:
  0.800  0.000  0.000  0.000  0.000
  0.000  0.800  0.000  0.000  0.000
  0.000  0.000  0.800  0.000  0.000
  0.000  0.000  0.000  0.800  0.000
  0.000  0.000  0.000  0.000  0.800
atom   22   Tr[ns(na)] =   8.00000
    eigenvalues:
  0.800  0.800  0.800  0.800  0.800
    eigenvectors:
  1.000  0.000  0.000  0.000  0.000
  0.000  1.000  0.000  0.000  0.000
  0.000  0.000  1.000  0.000  0.000
  0.000  0.000  0.000  1.000  0.000
  0.000  0.000  0.000  0.000  1.000
    occupations:
[...]
atom    9   Tr[ns(na)] =   8.78343
    eigenvalues:
  0.729  0.735  0.967  0.972  0.989
    eigenvectors:
  0.001  0.140  0.000  0.000  0.859
  0.996  0.004  0.000  0.000  0.000
  0.000  0.000  0.000  1.000  0.000
  0.003  0.856  0.000  0.000  0.141
  0.000  0.000  1.000  0.000  0.000
    occupations:
  0.953  0.000 -0.000 -0.088  0.000
  0.000  0.729  0.000  0.000 -0.000
 -0.000  0.000  0.972 -0.001 -0.000
 -0.088  0.000 -0.001  0.771  0.000
  0.000 -0.000 -0.000  0.000  0.967
atom   10   Tr[ns(na)] =   8.85938
    eigenvalues:
  0.667  0.807  0.977  0.989  0.990
    eigenvectors:
  0.000  0.975  0.000  0.025  0.000
  0.000  0.000  1.000  0.000  0.000
  0.000  0.000  0.000  0.002  0.998
  0.000  0.025  0.000  0.973  0.002
  1.000  0.000  0.000  0.000  0.000
    occupations:
  0.812  0.000  0.001  0.028  0.000
  0.000  0.976 -0.000  0.000 -0.001
  0.001 -0.000  0.990 -0.000 -0.000
  0.028  0.000 -0.000  0.984 -0.000
  0.000 -0.001 -0.000 -0.000  0.667
atom   16   Tr[ns(na)] =   8.81525
    eigenvalues:
  0.713  0.725  0.987  0.990  0.992
    eigenvectors:
  0.173  0.000  0.796  0.000  0.031
  0.000  1.000  0.000  0.000  0.000
  0.004  0.000  0.049  0.000  0.946
  0.823  0.000  0.154  0.000  0.023
  0.000  0.000  0.000  1.000  0.000
    occupations:
  0.940 -0.000  0.007 -0.103  0.000
 -0.000  0.725  0.000  0.000 -0.001
  0.007  0.000  0.991  0.017 -0.000
 -0.103  0.000  0.017  0.762  0.000
  0.000 -0.001 -0.000  0.000  0.990
atom   17   Tr[ns(na)] =   8.79299
    eigenvalues:
  0.704  0.728  0.986  0.989  0.990
    eigenvectors:
  0.000  0.985  0.012  0.002  0.002
  0.012  0.000  0.023  0.925  0.039
  0.000  0.005  0.692  0.000  0.303
  0.000  0.010  0.273  0.061  0.656
  0.988  0.000  0.000  0.011  0.000
    occupations:
  0.732 -0.004 -0.018  0.026 -0.001
 -0.004  0.985  0.000  0.000  0.031
 -0.018  0.000  0.986  0.003 -0.000
  0.026  0.000  0.003  0.986  0.000
 -0.001  0.031 -0.000  0.000  0.707
atom   22   Tr[ns(na)] =   8.78343
    eigenvalues:
  0.729  0.735  0.967  0.972  0.989
    eigenvectors:
  0.001  0.140  0.000  0.000  0.859
  0.996  0.004  0.000  0.000  0.000
  0.000  0.000  0.000  1.000  0.000
  0.003  0.856  0.000  0.000  0.141
  0.000  0.000  1.000  0.000  0.000
    occupations:
  0.953  0.000 -0.000 -0.088  0.000
  0.000  0.729  0.000  0.000 -0.000
 -0.000  0.000  0.972 -0.001 -0.000
 -0.088  0.000 -0.001  0.771  0.000
  0.000 -0.000 -0.000  0.000  0.967
atom   23   Tr[ns(na)] =   8.85950
    eigenvalues:
  0.667  0.807  0.977  0.989  0.990
    eigenvectors:
  0.000  0.975  0.000  0.025  0.000
  0.000  0.000  1.000  0.000  0.000
  0.000  0.000  0.000  0.002  0.998
  0.000  0.025  0.000  0.973  0.002
  1.000  0.000  0.000  0.000  0.000
    occupations:
  0.812  0.000  0.001  0.028  0.000
  0.000  0.977 -0.000  0.000 -0.001
  0.001 -0.000  0.990 -0.000 -0.000
  0.028  0.000 -0.000  0.984 -0.000
  0.000 -0.001 -0.000 -0.000  0.667
N of occupied +U levels =  70.5022650
 --- exit write_ns ---

     Threshold (ethr) on eigenvalues was too large:
     Diagonalizing with lowered threshold

     Davidson diagonalization with overlap
     ethr =  9.25E-09,  avg # of iterations =  2.0

[...]

     total energy              =   -2246.88809528 Ry
     Harris-Foulkes estimate   =   -2246.88809529 Ry
     estimated scf accuracy    <       0.00000003 Ry

     iteration # 12     ecut=    40.00 Ry     beta=0.70
     Davidson diagonalization with overlap
     ethr =  8.52E-12,  avg # of iterations =  1.0

     negative rho (up, down):  0.158E+01 0.000E+00

     End of self-consistent calculation
 --- enter write_ns ---
 LDA+U parameters:
U( 2)     =  7.00000000
alpha( 2) =  0.00000000
atom    3   Tr[ns(na)] =   8.81460
    eigenvalues:
  0.713  0.725  0.987  0.990  0.992
    eigenvectors:
  0.173  0.000  0.797  0.000  0.031
  0.000  1.000  0.000  0.000  0.000
  0.004  0.000  0.049  0.000  0.947
  0.823  0.000  0.154  0.000  0.023
  0.000  0.000  0.000  1.000  0.000
    occupations:
  0.940 -0.000  0.007 -0.103  0.000
 -0.000  0.725  0.000  0.000 -0.001
  0.007  0.000  0.991  0.017 -0.000
 -0.103  0.000  0.017  0.762  0.000
  0.000 -0.001 -0.000  0.000  0.990
atom    4   Tr[ns(na)] =   8.79261
    eigenvalues:
  0.704  0.728  0.986  0.989  0.990
    eigenvectors:
  0.000  0.985  0.012  0.002  0.001
  0.012  0.000  0.023  0.925  0.039
  0.000  0.005  0.690  0.000  0.305
  0.000  0.010  0.275  0.062  0.654
  0.988  0.000  0.000  0.012  0.000
    occupations:
  0.732 -0.004 -0.018  0.026 -0.001
 -0.004  0.985  0.000  0.000  0.031
 -0.018  0.000  0.986  0.003 -0.000
  0.026  0.000  0.003  0.986  0.000
 -0.001  0.031 -0.000  0.000  0.707
atom    9   Tr[ns(na)] =   8.78357
    eigenvalues:
  0.729  0.735  0.967  0.972  0.989
    eigenvectors:
  0.001  0.140  0.000  0.000  0.859
  0.996  0.004  0.000  0.000  0.000
  0.000  0.000  0.000  1.000  0.000
  0.003  0.856  0.000  0.000  0.141
  0.000  0.000  1.000  0.000  0.000
    occupations:
  0.953  0.000 -0.000 -0.088  0.000
  0.000  0.729  0.000  0.000 -0.000
 -0.000  0.000  0.972 -0.001 -0.000
 -0.088  0.000 -0.001  0.771  0.000
  0.000 -0.000 -0.000  0.000  0.967
atom   10   Tr[ns(na)] =   8.85998
    eigenvalues:
  0.667  0.807  0.976  0.989  0.990
    eigenvectors:
  0.000  0.975  0.000  0.025  0.000
  0.000  0.000  1.000  0.000  0.000
  0.000  0.000  0.000  0.002  0.998
  0.000  0.025  0.000  0.973  0.002
  1.000  0.000  0.000  0.000  0.000
    occupations:
  0.812  0.000  0.001  0.028  0.000
  0.000  0.976 -0.000  0.000 -0.001
  0.001 -0.000  0.990 -0.000 -0.000
  0.028  0.000 -0.000  0.984 -0.000
  0.000 -0.001 -0.000 -0.000  0.667
atom   16   Tr[ns(na)] =   8.81460
    eigenvalues:
  0.713  0.725  0.987  0.990  0.992
    eigenvectors:
  0.173  0.000  0.797  0.000  0.031
  0.000  1.000  0.000  0.000  0.000
  0.004  0.000  0.049  0.000  0.947
  0.823  0.000  0.154  0.000  0.023
  0.000  0.000  0.000  1.000  0.000
    occupations:
  0.940 -0.000  0.007 -0.103  0.000
 -0.000  0.725  0.000  0.000 -0.001
  0.007  0.000  0.991  0.017 -0.000
 -0.103  0.000  0.017  0.762  0.000
  0.000 -0.001 -0.000  0.000  0.990
atom   17   Tr[ns(na)] =   8.79261
    eigenvalues:
  0.704  0.728  0.986  0.989  0.990
    eigenvectors:
  0.000  0.985  0.012  0.002  0.001
  0.012  0.000  0.023  0.925  0.039
  0.000  0.005  0.690  0.000  0.305
  0.000  0.010  0.275  0.062  0.654
  0.988  0.000  0.000  0.012  0.000
    occupations:
  0.732 -0.004 -0.018  0.026 -0.001
 -0.004  0.985  0.000  0.000  0.031
 -0.018  0.000  0.986  0.003 -0.000
  0.026  0.000  0.003  0.986  0.000
 -0.001  0.031 -0.000  0.000  0.707
atom   22   Tr[ns(na)] =   8.78357
    eigenvalues:
  0.729  0.735  0.967  0.972  0.989
    eigenvectors:
  0.001  0.140  0.000  0.000  0.859
  0.996  0.004  0.000  0.000  0.000
  0.000  0.000  0.000  1.000  0.000
  0.003  0.856  0.000  0.000  0.141
  0.000  0.000  1.000  0.000  0.000
    occupations:
  0.953  0.000 -0.000 -0.088  0.000
  0.000  0.729  0.000  0.000 -0.000
 -0.000  0.000  0.972 -0.001 -0.000
 -0.088  0.000 -0.001  0.771  0.000
  0.000 -0.000 -0.000  0.000  0.967
atom   23   Tr[ns(na)] =   8.85992
    eigenvalues:
  0.667  0.807  0.976  0.989  0.990
    eigenvectors:
  0.000  0.975  0.000  0.025  0.000
  0.000  0.000  1.000  0.000  0.000
  0.000  0.000  0.000  0.002  0.998
  0.000  0.025  0.000  0.973  0.002
  1.000  0.000  0.000  0.000  0.000
    occupations:
  0.812  0.000  0.001  0.028  0.000
  0.000  0.976 -0.000  0.000 -0.001
  0.001 -0.000  0.990 -0.000 -0.000
  0.028  0.000 -0.000  0.984 -0.000
  0.000 -0.001 -0.000 -0.000  0.667
N of occupied +U levels =  70.5014636
 --- exit write_ns ---

[...]

          k = 0.2500-0.4976 0.0000 ( 32026 PWs)   bands (ev):

[...]

          k =-0.2500 0.2488 0.0000 ( 32025 PWs)   bands (ev):

   -55.0474 -55.0460 -55.0181 -55.0073 -55.0048 -54.9783 -54.9064 -54.9029
   -54.8987 -54.8959 -54.7996 -54.7956 -54.7200 -54.7150 -54.6854 -54.6820
   -54.6466 -54.6415 -54.3817 -54.3409 -54.0433 -54.0382 -53.7405 -53.7377
   -22.2193 -22.0743 -21.3724 -21.2696 -21.0155 -20.8790 -20.8185 -20.6851
   -20.6444 -20.6399 -20.4683 -20.3655 -20.3530 -20.1776 -20.1191 -20.0914
   -19.3851 -19.1420 -11.4230 -11.3073 -11.2397 -11.0186 -10.7595 -10.6476
   -10.5946 -10.1852 -10.0675  -9.9968  -9.8369  -9.7023  -9.5625  -9.4551
    -9.3821  -9.3551  -9.1520  -9.0913  -9.0355  -8.8064  -8.6340  -8.5230
    -8.4859  -8.3242  -8.2783  -8.1840  -8.0094  -7.9364  -7.8416  -7.7928
    -7.7732  -7.6844  -7.4538  -7.4100  -7.3039  -7.2705  -7.2299  -7.0539
    -6.9660  -6.7998  -6.7243  -6.4525  -6.3797  -6.1385  -5.9024  -5.7696
    -5.7413  -5.6633  -5.5034  -5.3747  -5.2164  -5.1759  -4.9528  -4.8418
    -4.6313  -4.6287  -4.5099  -4.4705  -4.2366  -4.1848  -4.0441  -3.9033
    -3.7731  -3.7389  -3.6935  -3.6322  -3.3196  -3.3043  -3.0197  -2.9128
    -2.8801  -2.8040  -2.6757  -2.6316  -2.5962  -2.5014  -2.1192  -2.0353
    -1.9621  -1.6024  -1.2370  -0.7478  -0.5004  -0.4373  -0.2634   0.1927
     0.4319   0.6156   0.7487   0.9257   1.1409   1.1642   1.2972   1.5207
     3.0662   3.7025   4.5286   4.9604   5.0422   5.0627   5.1590   5.5509
     5.7096   5.9303   6.0541   6.2032   6.3762   6.4759   6.5716   6.6347
     6.7545   6.8033   7.0158   7.0814   7.2501   7.3956   7.4347   7.5034
     7.6250   7.7325   7.8028   7.9873   8.1261   8.1740   8.2568   8.3315
     8.3819   8.5126   8.5268   8.6395   8.7694   8.8772   9.0262   9.1212
     9.3070   9.3300   9.4461   9.5725   9.6226   9.7786   9.9024   9.9372
    10.0820  10.1232  10.1980  10.2182  10.4119  10.5159  10.5247  10.6299
    10.6509  10.8262  10.8452  10.9782  11.1458  11.2408  11.3403  11.4000
    11.4214  11.5644  11.6645  11.7110  11.7908  11.8104  11.9137  11.9282
    12.0069  12.1613  12.2167  12.2368  12.3148  12.3788  12.4415  12.5227
    12.5867  12.6202  12.7253  12.8094  12.8962  12.9350  13.0542  13.1108
    13.1750  13.2569  13.4097  13.5183  13.6316  13.6462  13.7089  13.8280
    13.8315  13.8996  14.0271  14.0594  14.1254  14.3143  14.3690  14.4457
    14.4692  14.6290  14.6829  14.7501  14.8467  14.9118  15.0848  15.1540
    15.2214  15.2413  15.3459  15.3552  15.4383  15.5096  15.5722  15.6229
    15.6252  15.6713  15.7656  15.8160  15.8757  15.9452  16.0270  16.0354
    16.1784  16.1786  16.2409  16.3442  16.3981  16.4980  16.6096  16.7176
    16.7737  16.8640  16.8943  17.0245  17.0629  17.1235  17.1283  17.1749
    17.2356  17.2455  17.3242  17.3460  17.3754  17.4048  17.4422  17.4434
    17.4525  17.4775  17.4796  17.4840  17.5238  17.6304  17.7047  17.7840
    17.7929  17.8877  18.0470  18.0806  18.1160  18.1921  18.2031  18.3125
    18.3310  18.3844  18.4240  18.4303  18.5370  18.6152  18.7134  18.7182
    18.7517  18.9004  18.9400  19.0080  19.0353  19.1113  19.1589  19.2988
    19.3461  19.4048  19.4088  19.5745  19.6254  19.7892  19.8372  19.8459
    19.9013  19.9475  19.9913  20.0592  20.0894  20.1082  20.2548  20.2741
    20.3125  20.3398  20.5169  20.5288  20.6748  20.6923  20.7740  20.8041
    20.8184  20.9274  20.9310  20.9992  21.0504  21.2140  21.2464  21.2584
    21.3590  21.4411  21.4423  21.5307  21.5843  21.6252  21.6617  21.7770

     the Fermi energy is    -1.9537 ev

!    total energy              =   -2246.88809528 Ry
     Harris-Foulkes estimate   =   -2246.88809529 Ry
     estimated scf accuracy    <          7.3E-09 Ry

     The total energy is the sum of the following terms:

     one-electron contribution =  -22783.52369352 Ry
     hartree contribution      =   11433.83982884 Ry
     xc contribution           =    -565.20898299 Ry
     ewald contribution        =    9666.19486291 Ry
     Hubbard energy            =       1.81091826 Ry
     smearing contrib. (-TS)   =      -0.00102878 Ry

     convergence has been achieved in  12 iterations

     Forces acting on atoms (Ry/au):

     negative rho (up, down):  0.158E+01 0.000E+00
     atom    1 type  1   force =    -0.00737313   -0.00397903   -0.00035013
     atom    2 type  1   force =     0.00007809    0.00449747    0.00059653
     atom    3 type  2   force =    -0.00047007    0.00199305   -0.00028324
     atom    4 type  2   force =     0.00964774    0.00149650    0.00016980
     atom    5 type  1   force =     0.00118637   -0.00135418   -0.00001165
     atom    6 type  1   force =     0.00018957    0.00076615    0.00014857
     atom    7 type  1   force =     0.00001799    0.00453232   -0.00004882
     atom    8 type  1   force =    -0.00392004   -0.00794938    0.00071667
     atom    9 type  2   force =     0.00173554    0.00080180   -0.00046759
     atom   10 type  2   force =    -0.00002752   -0.00135838    0.00079836
     atom   11 type  1   force =    -0.00000301   -0.00556676   -0.00052297
     atom   12 type  1   force =     0.00008296    0.00626406   -0.00041478
     atom   13 type  1   force =    -0.00105681   -0.00017221    0.00003622
     atom   14 type  1   force =    -0.00737581   -0.00397978   -0.00035071
     atom   15 type  1   force =     0.00007824    0.00449452    0.00059643
     atom   16 type  2   force =    -0.00047543    0.00199316   -0.00028336
     atom   17 type  2   force =     0.00964961    0.00149673    0.00016556
     atom   18 type  1   force =     0.00118998   -0.00135406   -0.00001099
     atom   19 type  1   force =     0.00019270    0.00076596    0.00014872
     atom   20 type  1   force =     0.00001863    0.00453272   -0.00002753
     atom   21 type  1   force =    -0.00391925   -0.00794912    0.00069314
     atom   22 type  2   force =     0.00177470    0.00080160   -0.00046808
     atom   23 type  2   force =    -0.00002509   -0.00135862    0.00079365
     atom   24 type  1   force =    -0.00001861   -0.00556738   -0.00052397
     atom   25 type  1   force =     0.00006770    0.00626476   -0.00041582
     atom   26 type  1   force =    -0.00105704   -0.00017239    0.00006748
     atom   27 type  3   force =     0.00001717   -0.00026039    0.00027420
     atom   28 type  3   force =     0.00001720   -0.00025911    0.00027404
     atom   29 type  3   force =    -0.00011113    0.00028996   -0.00065073
     atom   30 type  3   force =    -0.00011124    0.00029005   -0.00064899

     Total force =     0.002478     Total SCF correction =     0.000174

     bfgs converged in   9 scf cycles and   8 bfgs steps
     (criteria: energy < 0.10E-03, force < 0.10E-02)

     End of BFGS Geometry Optimization

     Final energy   =   -2246.8880952833 Ry
Begin final coordinates

ATOMIC_POSITIONS (crystal)
O0       0.000000000   0.000000000   0.376752802    0   0   1
O0       0.000000000   0.500000000   0.399363665    0   0   1
Pt1      0.250000000   0.500000000   0.448858391    0   0   1
Pt1      0.000000000   0.000000000   0.451836846    0   0   1
O0       0.250000000   0.810000000   0.441491324    0   0   1
O0       0.250000000   0.190000000   0.459853117    0   0   1
O0       0.000000000   0.500000000   0.495242438    0   0   1
O0       0.000000000   0.000000000   0.529333021    0   0   1
Pt1      0.250000000   0.000000000   0.575778816    0   0   1
Pt1      0.000000000   0.500000000   0.573843767    0   0   1
O0       0.250000000   0.690000000   0.583552271    0   0   1
O0       0.250000000   0.310000000   0.583919418    0   0   1
O0       0.000000000   0.000000000   0.621395308    0   0   1
O0       0.500000000   0.000000000   0.376752652    0   0   1
O0       0.500000000   0.500000000   0.399363934    0   0   1
Pt1      0.750000000   0.500000000   0.448858388    0   0   1
Pt1      0.500000000   0.000000000   0.451836794    0   0   1
O0       0.750000000   0.810000000   0.441491213    0   0   1
O0       0.750000000   0.190000000   0.459853076    0   0   1
O0       0.500000000   0.500000000   0.495242627    0   0   1
O0       0.500000000   0.000000000   0.529333486    0   0   1
Pt1      0.750000000   0.000000000   0.575778860    0   0   1
Pt1      0.500000000   0.500000000   0.573843656    0   0   1
O0       0.750000000   0.690000000   0.583552472    0   0   1
O0       0.750000000   0.310000000   0.583919603    0   0   1
O0       0.500000000   0.000000000   0.621394859    0   0   1
H2      -0.000035338   0.641402024   0.384441455
H2       0.499964649   0.641401300   0.384441440
H2       0.144356001   0.032464601   0.367267359
H2       0.644355772   0.032464335   0.367266943
End final coordinates

     General routines

     Parallel routines
     Hubbard U routines

   This run was terminated on:  18:32:33   6May2014

   JOB DONE.
Running PBS batch system epilogue script
Job id: 340805.audhumbla.fysik.dtu.dk
Username: zhonxu
Groupname: campgst
Jobname: PtO2/Eads-2-layers/bare-U-7.0
Sessionid: 5794
Queuename: verylong
Accounting:
This job has allocated the following 16 nodes:
a092 a092 a092 a092 a092 a092 a092 a092 a090 a090 a090 a090 a090 a090 a090 a090
Finished epilogue job 340805.audhumbla.fysik.dtu.dk for zhonxu