     Program PWSCF v.5.0.2 (svn rev. 9656) starts on  9May2014 at 11:42:55

     Current dimensions of program PWSCF are:
     Max number of different atomic species (ntypx) = 10
     Max number of k-points (npk) =  40000
     Max angular momentum in pseudopotentials (lmaxx) =  3
     Reading input from pwscf.in
Warning: card &CELL ignored
Warning: card / ignored

     Subspace diagonalization in iterative solution of the eigenvalue problem:
     a serial algorithm will be used

     Found symmetry operation: I + ( -0.5000  0.0000  0.0000)
     This is a supercell, fractional translations are disabled

     bravais-lattice index     =            0
     lattice parameter (alat)  =      10.7336  a.u.
     unit-cell volume          =    6184.1966 (a.u.)^3
     number of atoms/cell      =           30
     number of atomic types    =            3
     number of electrons       =       232.00 (up: 128.00, down: 104.00)
     number of Kohn-Sham states=          336
     kinetic-energy cutoff     =      40.0000  Ry
     charge density cutoff     =     500.0000  Ry
     convergence threshold     =      1.0E-06
     mixing beta               =       0.7000
     number of iterations used =            8  plain     mixing
     Exchange-correlation      = SLA  PW   PBE  PBE ( 1 4 3 4 0)
     EXX-fraction              =        0.00
     nstep                     =           50

     celldm(1)=  10.733644  celldm(2)=   0.000000  celldm(3)=   0.000000
     celldm(4)=   0.000000  celldm(5)=   0.000000  celldm(6)=   0.000000

     crystal axes: (cart. coord. in units of alat)
               a(1) = (   1.000000   0.000000   0.000000 )
               a(2) = (   0.000000   1.085558   0.000000 )
               a(3) = (   0.000000   0.000000   4.606685 )

     reciprocal axes: (cart. coord. in units 2 pi/alat)
               b(1) = (  1.000000  0.000000  0.000000 )
               b(2) = (  0.000000  0.921185  0.000000 )
               b(3) = (  0.000000  0.000000  0.217076 )

     PseudoPot. # 1 for O  read from file:
     /home/camp/zhonxu/pseudo/o_pbe_v1.01.uspp.F.UPF
     MD5 check sum: 2bcb18d16ea4b960afae9ec6d52f22d2
     Pseudo is Ultrasoft + core correction, Zval =  6.0
     Generated by new atomic code, or converted to UPF format
     Using radial grid of  737 points,  5 beta functions with:
                l(1) =   0
                l(2) =   0
                l(3) =   1
                l(4) =   1
                l(5) =   2
     Q(r) pseudized with  8 coefficients,  rinner =    0.900   0.900   0.900
                                                       0.900   0.900

     PseudoPot. # 2 for Mn read from file:
     /home/camp/zhonxu/pseudo/mn_pbe_v1.uspp.F.UPF
     MD5 check sum: 5fd7c7b5c956fd19902447332617373a
     Pseudo is Ultrasoft + core correction, Zval = 15.0
     Generated by new atomic code, or converted to UPF format
     Using radial grid of  859 points,  6 beta functions with:
                l(1) =   0
                l(2) =   0
                l(3) =   1
                l(4) =   1
                l(5) =   2
                l(6) =   2
     Q(r) pseudized with  6 coefficients,  rinner =    1.150   1.150   1.150
                                                       1.150   1.150

     PseudoPot. # 3 for H  read from file:
     /home/camp/zhonxu/pseudo/h_pbe_v1.uspp.F.UPF
     MD5 check sum: 3408e3ff4ec8b0a4e358431e7e038a48
     Pseudo is Ultrasoft, Zval =  1.0
     Generated by new atomic code, or converted to UPF format
     Using radial grid of  615 points,  2 beta functions with:
                l(1) =   0
                l(2) =   0
     Q(r) pseudized with  8 coefficients,  rinner =    0.700

     atomic species   valence    mass     pseudopotential
        O0             6.00    15.99940     O ( 1.00)
        Mn1           15.00    54.93800     Mn( 1.00)
        H2             1.00     1.00794     H ( 1.00)

     Starting magnetic structure
     atomic species   magnetization
        O0           0.000
        Mn1          0.600
        H2           0.000

     Simplified LDA+U calculation (l_max = 2) with parameters (eV):
     atomic species    L          U    alpha       J0     beta
        Mn1            2     3.5000   0.0000   0.0000   0.0000

     No symmetry found

   Cartesian axes

     site n.     atom                  positions (alat units)
         1           O0  tau(   1) = (   0.0000000   0.0000000   1.7440910  )
         2           O0  tau(   2) = (   0.0000000   0.5427791   1.8348887  )
         3           Mn1 tau(   3) = (   0.2500000   0.5427791   2.0695072  )
         4           Mn1 tau(   4) = (   0.0000000   0.0000000   2.0719487  )
         5           O0  tau(   5) = (   0.2500000   0.8684466   2.0695533  )
         6           O0  tau(   6) = (   0.2500000   0.2171117   2.0770161  )
         7           O0  tau(   7) = (   0.0000000   0.5427791   2.2881405  )
         8           O0  tau(   8) = (   0.0000000   0.0000000   2.4167130  )
         9           Mn1 tau(   9) = (   0.2500000   0.0000000   2.6452046  )
        10           Mn1 tau(  10) = (   0.0000000   0.5427791   2.6189465  )
        11           O0  tau(  11) = (   0.2500000   0.7598908   2.6694358  )
        12           O0  tau(  12) = (   0.2500000   0.3256675   2.6696661  )
        13           O0  tau(  13) = (   0.0000000   0.0000000   2.8462864  )
        14           O0  tau(  14) = (   0.5000000   0.0000000   1.7440910  )
        15           O0  tau(  15) = (   0.5000000   0.5427791   1.8348887  )
        16           Mn1 tau(  16) = (   0.7500000   0.5427791   2.0695072  )
        17           Mn1 tau(  17) = (   0.5000000   0.0000000   2.0719487  )
        18           O0  tau(  18) = (   0.7500000   0.8684466   2.0695533  )
        19           O0  tau(  19) = (   0.7500000   0.2171117   2.0770161  )
        20           O0  tau(  20) = (   0.5000000   0.5427791   2.2881405  )
        21           O0  tau(  21) = (   0.5000000   0.0000000   2.4167130  )
        22           Mn1 tau(  22) = (   0.7500000   0.0000000   2.6452046  )
        23           Mn1 tau(  23) = (   0.5000000   0.5427791   2.6189465  )
        24           O0  tau(  24) = (   0.7500000   0.7598908   2.6694358  )
        25           O0  tau(  25) = (   0.7500000   0.3256675   2.6696661  )
        26           O0  tau(  26) = (   0.5000000   0.0000000   2.8462864  )
        27           H2  tau(  27) = (  -0.0000900   0.7018026   1.7591088  )
        28           H2  tau(  28) = (   0.4999100   0.7018026   1.7591088  )
        29           H2  tau(  29) = (   0.1616900   0.0388738   1.6898703  )
        30           H2  tau(  30) = (   0.6616900   0.0388738   1.6898703  )

     number of k points=    20  Methfessel-Paxton smearing, width (Ry)=  0.0100
                       cart. coord. in units 2pi/alat
        k(    1) = (   0.0000000   0.0000000   0.0000000), wk =   0.0625000
        k(    2) = (   0.0000000   0.2302962   0.0000000), wk =   0.1250000
        k(    3) = (   0.0000000  -0.4605925   0.0000000), wk =   0.0625000
        k(    4) = (   0.2500000   0.0000000   0.0000000), wk =   0.1250000
        k(    5) = (   0.2500000   0.2302962   0.0000000), wk =   0.1250000
        k(    6) = (   0.2500000  -0.4605925   0.0000000), wk =   0.1250000
        k(    7) = (  -0.5000000   0.0000000   0.0000000), wk =   0.0625000
        k(    8) = (  -0.5000000   0.2302962   0.0000000), wk =   0.1250000
        k(    9) = (  -0.5000000  -0.4605925   0.0000000), wk =   0.0625000
        k(   10) = (  -0.2500000   0.2302962   0.0000000), wk =   0.1250000
        k(   11) = (   0.0000000   0.0000000   0.0000000), wk =   0.0625000
        k(   12) = (   0.0000000   0.2302962   0.0000000), wk =   0.1250000
        k(   13) = (   0.0000000  -0.4605925   0.0000000), wk =   0.0625000
        k(   14) = (   0.2500000   0.0000000   0.0000000), wk =   0.1250000
        k(   15) = (   0.2500000   0.2302962   0.0000000), wk =   0.1250000
        k(   16) = (   0.2500000  -0.4605925   0.0000000), wk =   0.1250000
        k(   17) = (  -0.5000000   0.0000000   0.0000000), wk =   0.0625000
        k(   18) = (  -0.5000000   0.2302962   0.0000000), wk =   0.1250000
        k(   19) = (  -0.5000000  -0.4605925   0.0000000), wk =   0.0625000
        k(   20) = (  -0.2500000   0.2302962   0.0000000), wk =   0.1250000

     Largest allocated arrays     est. size (Mb)     dimensions
     Largest temporary arrays     est. size (Mb)     dimensions

     Check: negative/imaginary core charge=   -0.000022    0.000000

     Initial potential from superposition of free atoms
     Check: negative starting charge=(component1):   -0.000776
     Check: negative starting charge=(component2):   -0.000381

     starting charge  223.99987, renormalised to  232.00000

     negative rho (up, down):  0.804E-03 0.395E-03
     Number of +U iterations with fixed ns =  0
     Starting occupations:
 --- enter write_ns ---
 LDA+U parameters:
U( 2)     =  3.50000000
alpha( 2) =  0.00000000
atom    3   Tr[ns(na)] (up, down, total) =   5.00000  0.00000  5.00000
   spin  1
    eigenvalues:
  1.000  1.000  1.000  1.000  1.000
    eigenvectors:
  1.000  0.000  0.000  0.000  0.000
  0.000  1.000  0.000  0.000  0.000
  0.000  0.000  1.000  0.000  0.000
  0.000  0.000  0.000  1.000  0.000
  0.000  0.000  0.000  0.000  1.000
    occupations:
  1.000  0.000  0.000  0.000  0.000
  0.000  1.000  0.000  0.000  0.000
  0.000  0.000  1.000  0.000  0.000
  0.000  0.000  0.000  1.000  0.000
  0.000  0.000  0.000  0.000  1.000
   spin  2
    eigenvalues:
  0.000  0.000  0.000  0.000  0.000
    eigenvectors:
  1.000  0.000  0.000  0.000  0.000
  0.000  1.000  0.000  0.000  0.000
  0.000  0.000  1.000  0.000  0.000
  0.000  0.000  0.000  1.000  0.000
  0.000  0.000  0.000  0.000  1.000
    occupations:
  0.000  0.000  0.000  0.000  0.000
  0.000  0.000  0.000  0.000  0.000
  0.000  0.000  0.000  0.000  0.000
  0.000  0.000  0.000  0.000  0.000
  0.000  0.000  0.000  0.000  0.000
atomic mag. moment =     5.000000
atom    4   Tr[ns(na)] (up, down, total) =   5.00000  0.00000  5.00000
   spin  1
    eigenvalues:
  1.000  1.000  1.000  1.000  1.000
    eigenvectors:
  1.000  0.000  0.000  0.000  0.000
  0.000  1.000  0.000  0.000  0.000
  0.000  0.000  1.000  0.000  0.000
  0.000  0.000  0.000  1.000  0.000
  0.000  0.000  0.000  0.000  1.000
    occupations:
  1.000  0.000  0.000  0.000  0.000
  0.000  1.000  0.000  0.000  0.000
  0.000  0.000  1.000  0.000  0.000
  0.000  0.000  0.000  1.000  0.000
  0.000  0.000  0.000  0.000  1.000
   spin  2
    eigenvalues:
  0.000  0.000  0.000  0.000  0.000
    eigenvectors:
  1.000  0.000  0.000  0.000  0.000
  0.000  1.000  0.000  0.000  0.000
  0.000  0.000  1.000  0.000  0.000
  0.000  0.000  0.000  1.000  0.000
  0.000  0.000  0.000  0.000  1.000
    occupations:
  0.000  0.000  0.000  0.000  0.000
  0.000  0.000  0.000  0.000  0.000
  0.000  0.000  0.000  0.000  0.000
  0.000  0.000  0.000  0.000  0.000
  0.000  0.000  0.000  0.000  0.000
atomic mag. moment =     5.000000
atom    9   Tr[ns(na)] (up, down, total) =   5.00000  0.00000  5.00000
   spin  1
    eigenvalues:
  1.000  1.000  1.000  1.000  1.000
    eigenvectors:
[...]
  0.220  0.000  0.000  0.000  0.779
  0.000  0.998  0.000  0.002  0.000
    occupations:
  0.161 -0.000 -0.002  0.115 -0.000
 -0.000  0.363  0.000 -0.000  0.011
 -0.002  0.000  0.154  0.004 -0.000
  0.115 -0.000  0.004  0.315 -0.000
 -0.000  0.011 -0.000 -0.000  0.131
atomic mag. moment =     3.181955
atom    4   Tr[ns(na)] (up, down, total) =   4.27674  1.15107  5.42781
   spin  1
    eigenvalues:
  0.610  0.665  0.995  1.004  1.004
    eigenvectors:
  0.000  0.998  0.000  0.000  0.001
  0.000  0.001  0.000  0.259  0.740
  0.000  0.000  0.000  0.741  0.259
  0.000  0.000  0.999  0.000  0.000
  1.000  0.000  0.000  0.000  0.000
    occupations:
  0.665 -0.011 -0.005  0.007 -0.001
 -0.011  1.004 -0.000  0.000  0.000
 -0.005 -0.000  1.004  0.000  0.000
  0.007  0.000  0.000  0.995  0.000
 -0.001  0.000  0.000  0.000  0.610
   spin  2
    eigenvalues:
  0.100  0.134  0.155  0.375  0.386
    eigenvectors:
  0.003  0.004  0.000  0.993  0.000
  0.001  0.880  0.115  0.003  0.000
  0.001  0.114  0.884  0.001  0.000
  0.995  0.002  0.000  0.003  0.000
  0.000  0.000  0.000  0.000  1.000
    occupations:
  0.374  0.014  0.006 -0.014  0.000
  0.014  0.137 -0.006  0.000 -0.003
  0.006 -0.006  0.153  0.001  0.000
 -0.014  0.000  0.001  0.101 -0.000
  0.000 -0.003  0.000 -0.000  0.386
atomic mag. moment =     3.125665
atom    9   Tr[ns(na)] (up, down, total) =   4.26045  1.20505  5.46550
   spin  1
    eigenvalues:
  0.659  0.662  0.964  0.977  0.998
    eigenvectors:
  0.210  0.004  0.000  0.000  0.786
  0.020  0.980  0.000  0.000  0.000
  0.000  0.000  0.000  1.000  0.000
  0.770  0.016  0.000  0.000  0.214
  0.000  0.000  1.000  0.000  0.000
    occupations:
  0.925  0.000 -0.000 -0.139  0.000
  0.000  0.662  0.000  0.000  0.000
 -0.000  0.000  0.977  0.000 -0.000
 -0.139  0.000  0.000  0.732  0.000
  0.000  0.000 -0.000  0.000  0.964
   spin  2
    eigenvalues:
  0.126  0.143  0.143  0.385  0.408
    eigenvectors:
  0.818  0.000  0.000  0.182  0.000
  0.000  0.000  0.000  0.000  1.000
  0.000  0.910  0.090  0.000  0.000
  0.182  0.000  0.000  0.818  0.000
  0.000  0.090  0.910  0.000  0.000
    occupations:
  0.173 -0.000  0.000  0.100 -0.000
 -0.000  0.408 -0.000 -0.000 -0.000
  0.000 -0.000  0.143 -0.000 -0.000
  0.100 -0.000 -0.000  0.338 -0.000
 -0.000 -0.000 -0.000 -0.000  0.143
atomic mag. moment =     3.055391
atom   10   Tr[ns(na)] (up, down, total) =   4.53558  0.81159  5.34717
   spin  1
    eigenvalues:
  0.639  0.906  0.994  0.997  0.999
    eigenvectors:
  0.000  0.975  0.000  0.025  0.000
  0.000  0.000  1.000  0.000  0.000
  0.000  0.000  0.000  0.000  1.000
  0.000  0.025  0.000  0.974  0.000
  1.000  0.000  0.000  0.000  0.000
    occupations:
  0.909 -0.000  0.000  0.014  0.000
 -0.000  0.994  0.000  0.000 -0.000
  0.000  0.000  0.999 -0.000 -0.000
  0.014  0.000 -0.000  0.995 -0.000
  0.000 -0.000 -0.000 -0.000  0.639
   spin  2
    eigenvalues:
  0.085  0.101  0.107  0.178  0.340
    eigenvectors:
  0.028  0.000  0.000  0.972  0.000
  0.000  0.000  1.000  0.000  0.000
  0.000  1.000  0.000  0.000  0.000
  0.972  0.000  0.000  0.028  0.000
  0.000  0.000  0.000  0.000  1.000
    occupations:
  0.176 -0.000 -0.000 -0.015  0.000
 -0.000  0.107 -0.000 -0.000  0.000
 -0.000 -0.000  0.101 -0.000  0.000
 -0.015 -0.000 -0.000  0.088 -0.000
  0.000  0.000  0.000 -0.000  0.340
atomic mag. moment =     3.723990
atom   16   Tr[ns(na)] (up, down, total) =   4.30670  1.12474  5.43144
   spin  1
    eigenvalues:
  0.639  0.669  0.997  0.997  1.005
    eigenvectors:
  0.247  0.000  0.734  0.000  0.019
  0.000  0.999  0.000  0.001  0.000
  0.000  0.000  0.022  0.000  0.978
  0.753  0.000  0.244  0.000  0.003
  0.000  0.001  0.000  0.999  0.000
    occupations:
  0.909  0.000 -0.004 -0.154  0.000
  0.000  0.670 -0.000  0.000 -0.008
 -0.004 -0.000  1.004 -0.005  0.000
 -0.154  0.000 -0.005  0.727  0.000
  0.000 -0.008  0.000  0.000  0.997
   spin  2
    eigenvalues:
  0.100  0.131  0.154  0.364  0.376
    eigenvectors:
  0.776  0.000  0.004  0.000  0.220
  0.000  0.002  0.000  0.998  0.000
  0.004  0.000  0.996  0.000  0.000
  0.220  0.000  0.000  0.000  0.779
  0.000  0.998  0.000  0.002  0.000
    occupations:
  0.161 -0.000 -0.002  0.115 -0.000
 -0.000  0.363  0.000 -0.000  0.011
 -0.002  0.000  0.154  0.004 -0.000
  0.115 -0.000  0.004  0.315 -0.000
 -0.000  0.011 -0.000 -0.000  0.131
atomic mag. moment =     3.181955
atom   17   Tr[ns(na)] (up, down, total) =   4.27674  1.15107  5.42781
   spin  1
    eigenvalues:
  0.610  0.665  0.995  1.004  1.004
    eigenvectors:
  0.000  0.998  0.000  0.000  0.001
  0.000  0.001  0.000  0.259  0.740
  0.000  0.000  0.000  0.741  0.259
  0.000  0.000  0.999  0.000  0.000
  1.000  0.000  0.000  0.000  0.000
    occupations:
  0.665 -0.011 -0.005  0.007 -0.001
 -0.011  1.004 -0.000  0.000  0.000
 -0.005 -0.000  1.004  0.000  0.000
  0.007  0.000  0.000  0.995  0.000
 -0.001  0.000  0.000  0.000  0.610
   spin  2
    eigenvalues:
  0.100  0.134  0.155  0.375  0.386
    eigenvectors:
  0.003  0.004  0.000  0.993  0.000
  0.001  0.880  0.115  0.003  0.000
  0.001  0.114  0.884  0.001  0.000
  0.995  0.002  0.000  0.003  0.000
  0.000  0.000  0.000  0.000  1.000
    occupations:
  0.374  0.014  0.006 -0.014  0.000
  0.014  0.137 -0.006  0.000 -0.003
  0.006 -0.006  0.153  0.001  0.000
 -0.014  0.000  0.001  0.101 -0.000
  0.000 -0.003  0.000 -0.000  0.386
atomic mag. moment =     3.125665
atom   22   Tr[ns(na)] (up, down, total) =   4.26044  1.20505  5.46550
   spin  1
    eigenvalues:
  0.659  0.662  0.964  0.977  0.998
    eigenvectors:
  0.210  0.004  0.000  0.000  0.786
  0.020  0.980  0.000  0.000  0.000
  0.000  0.000  0.000  1.000  0.000
  0.770  0.016  0.000  0.000  0.214
  0.000  0.000  1.000  0.000  0.000
    occupations:
  0.925  0.000 -0.000 -0.139  0.000
  0.000  0.662  0.000  0.000  0.000
 -0.000  0.000  0.977  0.000 -0.000
 -0.139  0.000  0.000  0.732  0.000
  0.000  0.000 -0.000  0.000  0.964
   spin  2
    eigenvalues:
  0.126  0.143  0.143  0.385  0.408
    eigenvectors:
  0.818  0.000  0.000  0.182  0.000
  0.000  0.000  0.000  0.000  1.000
  0.000  0.901  0.099  0.000  0.000
  0.182  0.000  0.000  0.818  0.000
  0.000  0.099  0.901  0.000  0.000
    occupations:
  0.173 -0.000  0.000  0.100 -0.000
 -0.000  0.408 -0.000 -0.000 -0.000
  0.000 -0.000  0.143 -0.000 -0.000
  0.100 -0.000 -0.000  0.338 -0.000
 -0.000 -0.000 -0.000 -0.000  0.143
atomic mag. moment =     3.055390
atom   23   Tr[ns(na)] (up, down, total) =   4.53558  0.81159  5.34717
   spin  1
    eigenvalues:
  0.639  0.906  0.994  0.997  0.999
    eigenvectors:
  0.000  0.975  0.000  0.025  0.000
  0.000  0.000  1.000  0.000  0.000
  0.000  0.000  0.000  0.000  1.000
  0.000  0.025  0.000  0.974  0.000
  1.000  0.000  0.000  0.000  0.000
    occupations:
  0.909 -0.000  0.000  0.014  0.000
 -0.000  0.994  0.000  0.000 -0.000
  0.000  0.000  0.999 -0.000 -0.000
  0.014  0.000 -0.000  0.995 -0.000
  0.000 -0.000 -0.000 -0.000  0.639
   spin  2
    eigenvalues:
  0.085  0.101  0.107  0.178  0.340
    eigenvectors:
  0.028  0.000  0.000  0.972  0.000
  0.000  0.000  1.000  0.000  0.000
  0.000  1.000  0.000  0.000  0.000
  0.972  0.000  0.000  0.028  0.000
  0.000  0.000  0.000  0.000  1.000
    occupations:
  0.176 -0.000 -0.000 -0.015  0.000
 -0.000  0.107 -0.000 -0.000  0.000
 -0.000 -0.000  0.101 -0.000  0.000
 -0.015 -0.000 -0.000  0.088 -0.000
  0.000  0.000  0.000 -0.000  0.340
atomic mag. moment =     3.723995
N of occupied +U levels =  43.3438476
 --- exit write_ns ---

 ------ SPIN UP ------------

[...]

 ------ SPIN DOWN ----------

[...]

          k = 0.2500-0.4606 0.0000 ( 26462 PWs)   bands (ev):

[...]

          k =-0.2500 0.2303 0.0000 ( 26396 PWs)   bands (ev):

   -80.6129 -80.6050 -80.5003 -80.4919 -80.4714 -80.4633 -79.6037 -79.5954
   -49.4960 -49.4748 -49.4472 -49.4355 -49.3991 -49.3689 -49.3641 -49.3271
   -49.3210 -49.3146 -49.3094 -49.3068 -49.3053 -49.2626 -49.1360 -49.1175
   -49.1096 -49.1027 -48.7495 -48.6458 -48.5369 -48.5191 -48.0398 -48.0312
   -21.8361 -21.4098 -21.1262 -20.9130 -20.4600 -20.4215 -20.3319 -20.2769
   -20.1081 -20.0788 -19.9677 -19.9051 -19.8602 -19.8171 -19.7049 -19.6913
   -19.5378 -19.4498  -9.2514  -9.0164  -8.5570  -8.4721  -8.3179  -8.0790
    -7.8336  -7.7295  -7.5930  -7.5680  -7.3892  -7.3619  -7.1902  -7.1847
    -7.0010  -6.9718  -6.8849  -6.8751  -6.7034  -6.5998  -6.4853  -6.4831
    -6.3510  -6.2517  -6.2116  -5.8981  -5.8537  -5.7818  -5.6734  -5.5334
    -5.4864  -5.4504  -5.2795  -5.2218  -5.1368  -5.0867  -4.9878  -4.8234
    -4.7738  -4.6528  -4.5782  -4.5277  -4.3773  -4.2460  -4.0672  -4.0527
    -3.9997  -3.8570  -3.7761  -3.6641  -3.5431  -3.3050  -3.2625  -2.9039
    -0.0151   0.0077   0.0352   0.1251   0.1705   0.2781   0.2897   0.3575
     0.3722   0.3911   0.5114   0.5135   0.6284   0.7203   0.7653   0.8488
     0.9235   0.9298   1.0213   1.1051   1.1995   1.2089   1.2798   1.2979
     1.3730   1.4343   1.5035   1.5642   1.7733   1.9039   1.9510   1.9901
     2.0705   2.1662   2.3296   2.3583   2.4782   2.6479   2.7473   2.8402
     3.6499   4.1769   4.3511   4.8264   5.3071   5.5884   5.6963   6.0563
     6.2195   6.4114   6.4377   6.5594   6.6007   6.8663   6.9078   7.2555
     7.3487   7.6152   7.7120   7.8651   8.1339   8.2947   8.4209   8.5070
     8.5515   8.6090   8.7595   8.8511   9.1045   9.1933   9.3094   9.4639
     9.5451   9.6742   9.9171   9.9690  10.0576  10.0949  10.1738  10.3471
    10.4496  10.6222  10.6572  10.7031  10.8457  11.0480  11.0553  11.1079
    11.2639  11.3484  11.4497  11.5094  11.5860  11.6812  11.7106  11.7934
    11.8953  12.0090  12.1947  12.2245  12.2771  12.3392  12.4448  12.4918
    12.6521  12.8136  12.8300  12.8728  12.9214  12.9987  13.0994  13.1411
    13.2337  13.3071  13.3546  13.4533  13.5500  13.5957  13.6412  13.7053
    13.8228  13.8721  13.9233  13.9846  14.1009  14.1681  14.2460  14.2856
    14.3294  14.3936  14.4467  14.6464  14.6771  14.6874  14.7469  14.8729
    14.9988  15.0078  15.1121  15.1938  15.3335  15.4379  15.5175  15.6345
    15.6408  15.8115  15.8482  15.9570  15.9923  16.1299  16.2087  16.2712
    16.3629  16.4671  16.5388  16.5415  16.6030  16.7524  16.8192  16.9224
    17.0115  17.0595  17.1478  17.1572  17.2148  17.3254  17.3426  17.4742
    17.4911  17.6028  17.6558  17.7185  17.8990  17.9117  17.9447  18.1104
    18.1925  18.2040  18.2173  18.3359  18.3523  18.4324  18.5110  18.5914
    18.6748  18.7697  18.8166  18.8285  18.9691  19.0815  19.1750  19.2037
    19.2898  19.3135  19.4225  19.4847  19.6243  19.6645  19.7972  19.8539
    19.8987  20.0038  20.0470  20.1031  20.1101  20.1897  20.2904  20.3001
    20.3293  20.4394  20.4619  20.6021  20.6104  20.7695  20.9286  20.9367
    21.0914  21.1204  21.2347  21.2397  21.3353  21.3586  21.4623  21.5253
    21.5671  21.6531  21.7330  21.8061  21.8987  21.9222  22.0481  22.1180

     the spin up/dw Fermi energies are    -2.3386   -2.7047 ev

!    total energy              =   -2287.55143683 Ry
     Harris-Foulkes estimate   =   -2287.55143684 Ry
     estimated scf accuracy    <          9.6E-09 Ry

     The total energy is the sum of the following terms:

     one-electron contribution =  -25576.87277054 Ry
     hartree contribution      =   12803.94325936 Ry
     xc contribution           =    -341.57903413 Ry
     ewald contribution        =   10825.71690687 Ry
     Hubbard energy            =       1.24062671 Ry
     smearing contrib. (-TS)   =      -0.00042511 Ry

     total magnetization       =    24.00 Bohr mag/cell
     absolute magnetization    =    30.40 Bohr mag/cell

     convergence has been achieved in  14 iterations

     Forces acting on atoms (Ry/au):

     negative rho (up, down):  0.202E-02 0.139E-02
     atom    1 type  1   force =    -0.00613785   -0.01584954   -0.00099610
     atom    2 type  1   force =     0.00032326    0.01170767    0.00004197
     atom    3 type  2   force =    -0.00060664   -0.00193186    0.00046975
     atom    4 type  2   force =     0.00709091    0.01138518   -0.00062292
     atom    5 type  1   force =     0.00216520    0.01464285   -0.00000062
     atom    6 type  1   force =    -0.00227385   -0.01900393    0.00032335
     atom    7 type  1   force =     0.00001211    0.00106653    0.00093991
     atom    8 type  1   force =    -0.00130944   -0.00212098    0.00067839
     atom    9 type  2   force =     0.00071977    0.00047343    0.00055769
     atom   10 type  2   force =    -0.00004248   -0.00060646    0.00034033
     atom   11 type  1   force =     0.00004623   -0.03974844   -0.00032448
     atom   12 type  1   force =     0.00002191    0.03980303   -0.00032355
     atom   13 type  1   force =    -0.00039257   -0.00017504   -0.00073447
     atom   14 type  1   force =    -0.00613866   -0.01584974   -0.00099611
     atom   15 type  1   force =     0.00032324    0.01170755    0.00004122
     atom   16 type  2   force =    -0.00060855   -0.00193184    0.00046958
     atom   17 type  2   force =     0.00709135    0.01138526   -0.00062731
     atom   18 type  1   force =     0.00216537    0.01464275   -0.00000055
     atom   19 type  1   force =    -0.00227350   -0.01900391    0.00032335
     atom   20 type  1   force =     0.00001201    0.00106651    0.00094150
     atom   21 type  1   force =    -0.00130946   -0.00212100    0.00067929
     atom   22 type  2   force =     0.00071583    0.00047344    0.00055719
     atom   23 type  2   force =    -0.00004265   -0.00060646    0.00033938
     atom   24 type  1   force =     0.00004506   -0.03974854   -0.00032442
     atom   25 type  1   force =     0.00002072    0.03980314   -0.00032347
     atom   26 type  1   force =    -0.00039275   -0.00017506   -0.00074536
     atom   27 type  3   force =    -0.00000732   -0.00016175   -0.00045819
     atom   28 type  3   force =    -0.00000732   -0.00016120   -0.00045812
     atom   29 type  3   force =     0.00039532    0.00051915    0.00011591
     atom   30 type  3   force =     0.00039477    0.00051926    0.00011685

     Total force =     0.003135     Total SCF correction =     0.000373
     SCF correction compared to forces is large: reduce conv_thr to get better values

     bfgs converged in  13 scf cycles and  12 bfgs steps
     (criteria: energy < 0.10E-03, force < 0.10E-02)

     End of BFGS Geometry Optimization

     Final energy   =   -2287.5514368316 Ry
Begin final coordinates

ATOMIC_POSITIONS (crystal)
O0       0.000000000   0.000000000   0.376430179    0   0   1
O0       0.000000000   0.500000000   0.395768524    0   0   1
Mn1      0.250000000   0.500000000   0.447744066    0   0   1
Mn1      0.000000000   0.000000000   0.448235831    0   0   1
O0       0.250000000   0.800000000   0.448072405    0   0   1
O0       0.250000000   0.200000000   0.450113137    0   0   1
O0       0.000000000   0.500000000   0.495209936    0   0   1
O0       0.000000000   0.000000000   0.525642266    0   0   1
Mn1      0.250000000   0.000000000   0.574522821    0   0   1
Mn1      0.000000000   0.500000000   0.571201285    0   0   1
O0       0.250000000   0.700000000   0.582970165    0   0   1
O0       0.250000000   0.300000000   0.583025149    0   0   1
O0       0.000000000   0.000000000   0.621330633    0   0   1
O0       0.500000000   0.000000000   0.376430614    0   0   1
O0       0.500000000   0.500000000   0.395768619    0   0   1
Mn1      0.750000000   0.500000000   0.447744065    0   0   1
Mn1      0.500000000   0.000000000   0.448236458    0   0   1
O0       0.750000000   0.800000000   0.448072417    0   0   1
O0       0.750000000   0.200000000   0.450113163    0   0   1
O0       0.500000000   0.500000000   0.495209837    0   0   1
O0       0.500000000   0.000000000   0.525642417    0   0   1
Mn1      0.750000000   0.000000000   0.574522864    0   0   1
Mn1      0.500000000   0.500000000   0.571201449    0   0   1
O0       0.750000000   0.700000000   0.582970156    0   0   1
O0       0.750000000   0.300000000   0.583025137    0   0   1
O0       0.500000000   0.000000000   0.621331397    0   0   1
H2       0.000274228   0.647785729   0.380073978
H2       0.500274214   0.647785728   0.380074073
H2       0.161817165   0.038409996   0.365268432
H2       0.661816624   0.038410016   0.365268527
End final coordinates

     General routines

     Parallel routines
     Hubbard U routines

   This run was terminated on:   4:44: 2  10May2014

   JOB DONE.
Running PBS batch system epilogue script
Job id: 340900.audhumbla.fysik.dtu.dk
Username: zhonxu
Groupname: campgst
Jobname: MnO2/Eads-2-layers/bare-U-3.5
Sessionid: 27188
Queuename: verylong
Accounting:
This job has allocated the following 16 nodes:
b114 b114 b114 b114 b114 b114 b114 b114 b104 b104 b104 b104 b104 b104 b104 b104
Finished epilogue job 340900.audhumbla.fysik.dtu.dk for zhonxu