     Program PWSCF v.5.0.2 (svn rev. 9656) starts on 24Jan2014 at 15:48: 0

     Current dimensions of program PWSCF are:
     Max number of different atomic species (ntypx) = 10
     Max number of k-points (npk) =  40000
     Max angular momentum in pseudopotentials (lmaxx) =  3
     Reading input from MoO2-v-0.90.in

     Subspace diagonalization in iterative solution of the eigenvalue problem:
     a serial algorithm will be used

     bravais-lattice index     =            0
     lattice parameter (alat)  =       8.5383  a.u.
     unit-cell volume          =     401.1426 (a.u.)^3
     number of atoms/cell      =            6
     number of atomic types    =            2
     number of electrons       =        52.00
     number of Kohn-Sham states=           78
     kinetic-energy cutoff     =      40.0000  Ry
     charge density cutoff     =     500.0000  Ry
     convergence threshold     =      1.0E-06
     mixing beta               =       0.3000
     number of iterations used =            8  plain     mixing
     Exchange-correlation      = SLA  PW   PBE  PBE ( 1 4 3 4 0)
     EXX-fraction              =        0.00
     nstep                     =           50

     celldm(1)=   8.538294  celldm(2)=   0.000000  celldm(3)=   0.000000
     celldm(4)=   0.000000  celldm(5)=   0.000000  celldm(6)=   0.000000

     crystal axes: (cart. coord. in units of alat)
               a(1) = (   1.000000   0.000000   0.000000 )
               a(2) = (   0.000000   1.000000   0.000000 )
               a(3) = (   0.000000   0.000000   0.644444 )

     reciprocal axes: (cart. coord. in units 2 pi/alat)
               b(1) = (  1.000000  0.000000  0.000000 )
               b(2) = (  0.000000  1.000000  0.000000 )
               b(3) = (  0.000000  0.000000  1.551724 )

     PseudoPot. # 1 for Mo read from file:
     /home/camp/zhonxu/pseudo/mo_pbe_v1.uspp.F.UPF
     MD5 check sum: 30c4dcd161f5d35cd49bb5239c51a633
     Pseudo is Ultrasoft + core correction, Zval = 14.0
     Generated by new atomic code, or converted to UPF format
     Using radial grid of  889 points,  6 beta functions with:
                l(1) =   0
                l(2) =   0
                l(3) =   1
                l(4) =   1
                l(5) =   2
                l(6) =   2
     Q(r) pseudized with  6 coefficients,  rinner =    1.000   1.000   1.000
                                                       1.000   1.000

     PseudoPot. # 2 for O  read from file:
     /home/camp/zhonxu/pseudo/o_pbe_v1.01.uspp.F.UPF
     MD5 check sum: 2bcb18d16ea4b960afae9ec6d52f22d2
     Pseudo is Ultrasoft + core correction, Zval =  6.0
     Generated by new atomic code, or converted to UPF format
     Using radial grid of  737 points,  5 beta functions with:
                l(1) =   0
                l(2) =   0
                l(3) =   1
                l(4) =   1
                l(5) =   2
     Q(r) pseudized with  8 coefficients,  rinner =    0.900   0.900   0.900
                                                       0.900   0.900

     atomic species   valence    mass     pseudopotential
        Mo0           14.00    95.94000     Mo( 1.00)
        O1             6.00    15.99940     O ( 1.00)

     Starting magnetic structure
     atomic species   magnetization
        Mo0          0.000
        O1           0.000

     16 Sym. Ops., with inversion, found ( 8 have fractional translation)

   Cartesian axes

     site n.     atom                  positions (alat units)
         1           Mo0 tau(   1) = (   0.0000000   0.0000000   0.0000000  )
         2           Mo0 tau(   2) = (   0.5000000   0.5000000   0.3222222  )
         3           O1  tau(   3) = (   0.3050000   0.3050000   0.0000000  )
         4           O1  tau(   4) = (  -0.3050000  -0.3050000   0.0000000  )
         5           O1  tau(   5) = (   0.8050000   0.1950000   0.3222222  )
         6           O1  tau(   6) = (   0.1950000   0.8050000   0.3222222  )

     number of k points=    36  Methfessel-Paxton smearing, width (Ry)=  0.0100
                       cart. coord. in units 2pi/alat
        k(    1) = (   0.0000000   0.0000000   0.0000000), wk =   0.0080000
        k(    2) = (   0.0000000   0.0000000   0.3103448), wk =   0.0160000
        k(    3) = (   0.0000000   0.0000000   0.6206897), wk =   0.0160000
        k(    4) = (   0.0000000   0.2000000   0.0000000), wk =   0.0320000
        k(    5) = (   0.0000000   0.2000000   0.3103448), wk =   0.0640000
        k(    6) = (   0.0000000   0.2000000   0.6206897), wk =   0.0640000
        k(    7) = (   0.0000000   0.4000000   0.0000000), wk =   0.0320000
        k(    8) = (   0.0000000   0.4000000   0.3103448), wk =   0.0640000
        k(    9) = (   0.0000000   0.4000000   0.6206897), wk =   0.0640000
        k(   10) = (   0.2000000   0.2000000   0.0000000), wk =   0.0320000
        k(   11) = (   0.2000000   0.2000000   0.3103448), wk =   0.0640000
        k(   12) = (   0.2000000   0.2000000   0.6206897), wk =   0.0640000
        k(   13) = (   0.2000000   0.4000000   0.0000000), wk =   0.0640000
        k(   14) = (   0.2000000   0.4000000   0.3103448), wk =   0.1280000
        k(   15) = (   0.2000000   0.4000000   0.6206897), wk =   0.1280000
        k(   16) = (   0.4000000   0.4000000   0.0000000), wk =   0.0320000
        k(   17) = (   0.4000000   0.4000000   0.3103448), wk =   0.0640000
        k(   18) = (   0.4000000   0.4000000   0.6206897), wk =   0.0640000
        k(   19) = (   0.0000000   0.0000000   0.0000000), wk =   0.0080000
        k(   20) = (   0.0000000   0.0000000   0.3103448), wk =   0.0160000
        k(   21) = (   0.0000000   0.0000000   0.6206897), wk =   0.0160000
        k(   22) = (   0.0000000   0.2000000   0.0000000), wk =   0.0320000
        k(   23) = (   0.0000000   0.2000000   0.3103448), wk =   0.0640000
        k(   24) = (   0.0000000   0.2000000   0.6206897), wk =   0.0640000
        k(   25) = (   0.0000000   0.4000000   0.0000000), wk =   0.0320000
        k(   26) = (   0.0000000   0.4000000   0.3103448), wk =   0.0640000
        k(   27) = (   0.0000000   0.4000000   0.6206897), wk =   0.0640000
        k(   28) = (   0.2000000   0.2000000   0.0000000), wk =   0.0320000
        k(   29) = (   0.2000000   0.2000000   0.3103448), wk =   0.0640000
        k(   30) = (   0.2000000   0.2000000   0.6206897), wk =   0.0640000
        k(   31) = (   0.2000000   0.4000000   0.0000000), wk =   0.0640000
        k(   32) = (   0.2000000   0.4000000   0.3103448), wk =   0.1280000
        k(   33) = (   0.2000000   0.4000000   0.6206897), wk =   0.1280000
        k(   34) = (   0.4000000   0.4000000   0.0000000), wk =   0.0320000
        k(   35) = (   0.4000000   0.4000000   0.3103448), wk =   0.0640000
        k(   36) = (   0.4000000   0.4000000   0.6206897), wk =   0.0640000

     Largest allocated arrays     est. size (Mb)     dimensions
     Largest temporary arrays     est. size (Mb)     dimensions

     Check: negative/imaginary core charge=   -0.000008    0.000000

     Initial potential from superposition of free atoms

     starting charge   51.99787, renormalised to   52.00000
     Starting wfc are   42 randomized atomic wfcs

     Self-consistent Calculation

     iteration #  1     ecut=    40.00 Ry     beta=0.30
     Davidson diagonalization with overlap
     ethr =  1.00E-02,  avg # of iterations =  5.2

     total energy              =    -407.38673851 Ry
     Harris-Foulkes estimate   =    -408.05556970 Ry
     estimated scf accuracy    <       1.56034734 Ry

     total magnetization       =    -0.00 Bohr mag/cell
     absolute magnetization    =     0.00 Bohr mag/cell

[...]

     End of self-consistent calculation

 ------ SPIN UP ------------

          k = 0.0000 0.0000 0.0000 (  1715 PWs)   bands (ev):

   -46.4339 -46.4053 -20.7993 -20.7993 -20.5740 -20.5019 -20.4901 -20.4901
    -5.7918  -4.9946  -3.3603  -3.3603   5.8674   6.1541   6.9142   7.8099
     7.8099  10.2684  10.2684  10.8714  11.8454  11.9553  11.9553  12.5966
    14.7707  15.2016  15.6677  15.7843  15.7843  19.2921  19.3482  20.9649
    22.4659  22.4659  24.0546  24.7167  24.7167  28.2639  30.5262  31.2626
    31.5024  32.0409  33.1652  33.1652  35.7438  35.9595  36.5233  36.5233
    37.3473  37.3473  38.5612  42.6054  42.6054  42.9897  43.2897  43.8963
    45.6685  46.5204  46.5204  47.0205  47.2432  47.2432  47.5698  47.7077
    49.2804  49.5364  49.5364  49.7761  51.6515  53.6345  54.2706  54.2706
    54.9765  55.2394  55.4687  55.4687  56.3999  56.5715

[...]

 ------ SPIN DOWN ----------

[...]

     the Fermi energy is    16.1023 ev

!    total energy              =    -407.67046741 Ry
     Harris-Foulkes estimate   =    -407.67045564 Ry
     estimated scf accuracy    <       0.00000100 Ry

     The total energy is the sum of the following terms:

     one-electron contribution =     -94.26026293 Ry
     hartree contribution      =      80.48660698 Ry
     xc contribution           =     -68.11939326 Ry
     ewald contribution        =    -325.77675580 Ry
     smearing contrib. (-TS)   =      -0.00066239 Ry

[...]

     convergence has been achieved in   7 iterations

     Forces acting on atoms (Ry/au):

     atom    1 type  1   force =     0.00000000    0.00000000    0.00000000
     atom    2 type  1   force =     0.00000000    0.00000000    0.00000000
     atom    3 type  2   force =    -0.07025000   -0.07025000    0.00000000
     atom    4 type  2   force =     0.07025000    0.07025000   -0.00000000
     atom    5 type  2   force =    -0.07025000    0.07025000    0.00000000
     atom    6 type  2   force =     0.07025000   -0.07025000    0.00000000

     Total force =     0.198697     Total SCF correction =     0.000426

     entering subroutine stress ...

          total   stress  (Ry/bohr**3)                   (kbar)     P=  481.60
   0.00326537   0.00000000   0.00000000        480.35      0.00      0.00
   0.00000000   0.00326537   0.00000000          0.00    480.35      0.00
   0.00000000   0.00000000   0.00329077          0.00      0.00    484.09

     Volume is kept fixed: isostatic pressure set to zero

     BFGS Geometry Optimization

     number of scf cycles    =   1
     number of bfgs steps    =   0

     enthalpy new            =    -407.6704674078 Ry

     new trust radius        =       0.0993485005 bohr
     new conv_thr            =       0.0000010000 Ry

     new unit-cell volume =    401.14260 a.u.^3 (    59.44320 Ang^3 )

CELL_PARAMETERS (alat=  8.53829393)
   0.999788428   0.000000000   0.000000000
   0.000000000   0.999788428   0.000000000
   0.000000000   0.000000000   0.644717223

ATOMIC_POSITIONS (crystal)
Mo0      0.000000000   0.000000000   0.000000000    0   0   0
Mo0      0.500000000   0.500000000   0.500000000    0   0   0
O1       0.296772361   0.296772361   0.000000000    1   1   0
O1      -0.296772361  -0.296772361   0.000000000    1   1   0
O1       0.796772361   0.203227639   0.500000000    1   1   0
O1       0.203227639   0.796772361   0.500000000    1   1   0

     NEW-OLD atomic charge density approx. for the potential
     NEW k-points:
        k(    1) = (   0.0000000   0.0000000   0.0000000), wk =   0.0080000
[...]
        k(   14) = (   0.1889629   0.3779258   0.3476573), wk =   0.1280000
        k(   15) = (   0.1889629   0.3779258   0.6953147), wk =   0.1280000
        k(   16) = (   0.3779258   0.3779258   0.0000000), wk =   0.0320000
        k(   17) = (   0.3779258   0.3779258   0.3476573), wk =   0.0640000
        k(   18) = (   0.3779258   0.3779258   0.6953147), wk =   0.0640000
        k(   19) = (   0.0000000   0.0000000   0.0000000), wk =   0.0080000
        k(   20) = (   0.0000000   0.0000000   0.3476573), wk =   0.0160000
        k(   21) = (   0.0000000   0.0000000   0.6953147), wk =   0.0160000
        k(   22) = (   0.0000000   0.1889629   0.0000000), wk =   0.0320000
        k(   23) = (   0.0000000   0.1889629   0.3476573), wk =   0.0640000
        k(   24) = (   0.0000000   0.1889629   0.6953147), wk =   0.0640000
        k(   25) = (   0.0000000   0.3779258   0.0000000), wk =   0.0320000
        k(   26) = (   0.0000000   0.3779258   0.3476573), wk =   0.0640000
        k(   27) = (   0.0000000   0.3779258   0.6953147), wk =   0.0640000
        k(   28) = (   0.1889629   0.1889629   0.0000000), wk =   0.0320000
        k(   29) = (   0.1889629   0.1889629   0.3476573), wk =   0.0640000
        k(   30) = (   0.1889629   0.1889629   0.6953147), wk =   0.0640000
        k(   31) = (   0.1889629   0.3779258   0.0000000), wk =   0.0640000
        k(   32) = (   0.1889629   0.3779258   0.3476573), wk =   0.1280000
        k(   33) = (   0.1889629   0.3779258   0.6953147), wk =   0.1280000
        k(   34) = (   0.3779258   0.3779258   0.0000000), wk =   0.0320000
        k(   35) = (   0.3779258   0.3779258   0.3476573), wk =   0.0640000
        k(   36) = (   0.3779258   0.3779258   0.6953147), wk =   0.0640000

[...]

     Threshold (ethr) on eigenvalues was too large:
     Diagonalizing with lowered threshold

     Davidson diagonalization with overlap
     ethr =  1.16E-10,  avg # of iterations =  2.1

[...]

     Volume is kept fixed: isostatic pressure set to zero
Begin final coordinates
     new unit-cell volume =    401.14260 a.u.^3 (    59.44320 Ang^3 )

[...]

ATOMIC_POSITIONS (crystal)
Mo0      0.000000000   0.000000000   0.000000000    0   0   0
Mo0      0.500000000   0.500000000   0.500000000    0   0   0
O1       0.279342345   0.279342345   0.000000000    1   1   0
O1      -0.279342345  -0.279342345   0.000000000    1   1   0
O1       0.779342345   0.220657655   0.500000000    1   1   0
O1       0.220657655   0.779342345   0.500000000    1   1   0
End final coordinates

     lsda relaxation :  a final configuration with zero
                        absolute magnetization has been found

     the program is checking if it is really the minimum energy structure
     by performing a new scf iteration without any "electronic" history

[...]

     starting charge   51.99787, renormalised to   52.00000
     Starting wfc are   42 randomized atomic wfcs
     NEW-OLD atomic charge density approx. for the potential
     NEW k-points:
        k(    1) = (   0.0000000   0.0000000   0.0000000), wk =   0.0080000
        k(    2) = (   0.0000000   0.0000000   0.3476573), wk =   0.0160000
        k(    3) = (   0.0000000   0.0000000   0.6953147), wk =   0.0160000
        k(    4) = (   0.0000000   0.1889629   0.0000000), wk =   0.0320000
        k(    5) = (   0.0000000   0.1889629   0.3476573), wk =   0.0640000
        k(    6) = (   0.0000000   0.1889629   0.6953147), wk =   0.0640000
        k(    7) = (   0.0000000   0.3779258   0.0000000), wk =   0.0320000
        k(    8) = (   0.0000000   0.3779258   0.3476573), wk =   0.0640000
        k(    9) = (   0.0000000   0.3779258   0.6953147), wk =   0.0640000
        k(   10) = (   0.1889629   0.1889629   0.0000000), wk =   0.0320000
        k(   11) = (   0.1889629   0.1889629   0.3476573), wk =   0.0640000
        k(   12) = (   0.1889629   0.1889629   0.6953147), wk =   0.0640000
        k(   13) = (   0.1889629   0.3779258   0.0000000), wk =   0.0640000
        k(   14) = (   0.1889629   0.3779258   0.3476573), wk =   0.1280000
        k(   15) = (   0.1889629   0.3779258   0.6953147), wk =   0.1280000
        k(   16) = (   0.3779258   0.3779258   0.0000000), wk =   0.0320000
        k(   17) = (   0.3779258   0.3779258   0.3476573), wk =   0.0640000
        k(   18) = (   0.3779258   0.3779258   0.6953147), wk =   0.0640000
        k(   19) = (   0.0000000   0.0000000   0.0000000), wk =   0.0080000
        k(   20) = (   0.0000000   0.0000000   0.3476573), wk =   0.0160000
        k(   21) = (   0.0000000   0.0000000   0.6953147), wk =   0.0160000
        k(   22) = (   0.0000000   0.1889629   0.0000000), wk =   0.0320000
        k(   23) = (   0.0000000   0.1889629   0.3476573), wk =   0.0640000
        k(   24) = (   0.0000000   0.1889629   0.6953147), wk =   0.0640000
        k(   25) = (   0.0000000   0.3779258   0.0000000), wk =   0.0320000
        k(   26) = (   0.0000000   0.3779258   0.3476573), wk =   0.0640000
        k(   27) = (   0.0000000   0.3779258   0.6953147), wk =   0.0640000
        k(   28) = (   0.1889629   0.1889629   0.0000000), wk =   0.0320000
        k(   29) = (   0.1889629   0.1889629   0.3476573), wk =   0.0640000
        k(   30) = (   0.1889629   0.1889629   0.6953147), wk =   0.0640000
        k(   31) = (   0.1889629   0.3779258   0.0000000), wk =   0.0640000
        k(   32) = (   0.1889629   0.3779258   0.3476573), wk =   0.1280000
        k(   33) = (   0.1889629   0.3779258   0.6953147), wk =   0.1280000
        k(   34) = (   0.3779258   0.3779258   0.0000000), wk =   0.0320000
        k(   35) = (   0.3779258   0.3779258   0.3476573), wk =   0.0640000
        k(   36) = (   0.3779258   0.3779258   0.6953147), wk =   0.0640000

[...]

     Volume is kept fixed: isostatic pressure set to zero

     bfgs converged in   8 scf cycles and   7 bfgs steps
     (criteria: energy < 0.10E-03, force < 0.10E-02, cell < 0.50E+00)

     End of BFGS Geometry Optimization

     Final enthalpy =    -407.7717376279 Ry
Begin final coordinates
     new unit-cell volume =    401.14260 a.u.^3 (    59.44320 Ang^3 )

CELL_PARAMETERS (alat=  8.53829393)
   1.058408820   0.000000000   0.000000000
   0.000000000   1.058408820   0.000000000
   0.000000000   0.000000000   0.575279083

ATOMIC_POSITIONS (crystal)
Mo0      0.000000000   0.000000000   0.000000000    0   0   0
Mo0      0.500000000   0.500000000   0.500000000    0   0   0
O1       0.279342345   0.279342345   0.000000000    1   1   0
O1      -0.279342345  -0.279342345   0.000000000    1   1   0
O1       0.779342345   0.220657655   0.500000000    1   1   0
O1       0.220657655   0.779342345   0.500000000    1   1   0
End final coordinates

     A final scf calculation at the relaxed structure.
     The G-vectors are recalculated for the final unit cell
     Results may differ from those at the preceding step.

     bravais-lattice index     =            0
     lattice parameter (alat)  =       8.5383  a.u.
     unit-cell volume          =     401.1426 (a.u.)^3
     number of atoms/cell      =            6
     number of atomic types    =            2
     number of electrons       =        52.00
     number of Kohn-Sham states=           78
     kinetic-energy cutoff     =      40.0000  Ry
     charge density cutoff     =     500.0000  Ry
     convergence threshold     =      1.0E-08
     mixing beta               =       0.3000
     number of iterations used =            8  plain     mixing
     Exchange-correlation      = SLA  PW   PBE  PBE ( 1 4 3 4 0)
     EXX-fraction              =        0.00

     celldm(1)=   8.538294  celldm(2)=   0.000000  celldm(3)=   0.000000
     celldm(4)=   0.000000  celldm(5)=   0.000000  celldm(6)=   0.000000

     crystal axes: (cart. coord. in units of alat)
               a(1) = (   1.058409   0.000000   0.000000 )
               a(2) = (   0.000000   1.058409   0.000000 )
               a(3) = (   0.000000   0.000000   0.575279 )

     reciprocal axes: (cart. coord. in units 2 pi/alat)
               b(1) = (  0.944814  0.000000  0.000000 )
               b(2) = (  0.000000  0.944814  0.000000 )
               b(3) = (  0.000000  0.000000  1.738287 )

     PseudoPot. # 1 for Mo read from file:
     /home/camp/zhonxu/pseudo/mo_pbe_v1.uspp.F.UPF
     MD5 check sum: 30c4dcd161f5d35cd49bb5239c51a633
     Pseudo is Ultrasoft + core correction, Zval = 14.0
     Generated by new atomic code, or converted to UPF format
     Using radial grid of  889 points,  6 beta functions with:
                l(1) =   0
                l(2) =   0
                l(3) =   1
                l(4) =   1
                l(5) =   2
                l(6) =   2
     Q(r) pseudized with  6 coefficients,  rinner =    1.000   1.000   1.000
                                                       1.000   1.000

     PseudoPot. # 2 for O  read from file:
     /home/camp/zhonxu/pseudo/o_pbe_v1.01.uspp.F.UPF
     MD5 check sum: 2bcb18d16ea4b960afae9ec6d52f22d2
     Pseudo is Ultrasoft + core correction, Zval =  6.0
     Generated by new atomic code, or converted to UPF format
     Using radial grid of  737 points,  5 beta functions with:
                l(1) =   0
                l(2) =   0
                l(3) =   1
                l(4) =   1
                l(5) =   2
     Q(r) pseudized with  8 coefficients,  rinner =    0.900   0.900   0.900
                                                       0.900   0.900

     atomic species   valence    mass     pseudopotential
        Mo0           14.00    95.94000     Mo( 1.00)
        O1             6.00    15.99940     O ( 1.00)

     Starting magnetic structure
     atomic species   magnetization
        Mo0          0.000
        O1           0.000

     16 Sym. Ops., with inversion, found ( 8 have fractional translation)

   Cartesian axes

     site n.     atom                  positions (alat units)
         1           Mo0 tau(   1) = (   0.0000000   0.0000000   0.0000000  )
         2           Mo0 tau(   2) = (   0.5292044   0.5292044   0.2876395  )
         3           O1  tau(   3) = (   0.2956584   0.2956584   0.0000000  )
         4           O1  tau(   4) = (  -0.2956584  -0.2956584   0.0000000  )
         5           O1  tau(   5) = (   0.8248628   0.2335460   0.2876395  )
         6           O1  tau(   6) = (   0.2335460   0.8248628   0.2876395  )

     number of k points=    36  Methfessel-Paxton smearing, width (Ry)=  0.0100
                       cart. coord. in units 2pi/alat
        k(    1) = (   0.0000000   0.0000000   0.0000000), wk =   0.0080000
        k(    2) = (   0.0000000   0.0000000   0.3476573), wk =   0.0160000
        k(    3) = (   0.0000000   0.0000000   0.6953147), wk =   0.0160000
        k(    4) = (   0.0000000   0.1889629   0.0000000), wk =   0.0320000
        k(    5) = (   0.0000000   0.1889629   0.3476573), wk =   0.0640000
        k(    6) = (   0.0000000   0.1889629   0.6953147), wk =   0.0640000
        k(    7) = (   0.0000000   0.3779258   0.0000000), wk =   0.0320000
        k(    8) = (   0.0000000   0.3779258   0.3476573), wk =   0.0640000
        k(    9) = (   0.0000000   0.3779258   0.6953147), wk =   0.0640000
        k(   10) = (   0.1889629   0.1889629   0.0000000), wk =   0.0320000
        k(   11) = (   0.1889629   0.1889629   0.3476573), wk =   0.0640000
        k(   12) = (   0.1889629   0.1889629   0.6953147), wk =   0.0640000
        k(   13) = (   0.1889629   0.3779258   0.0000000), wk =   0.0640000
        k(   14) = (   0.1889629   0.3779258   0.3476573), wk =   0.1280000
        k(   15) = (   0.1889629   0.3779258   0.6953147), wk =   0.1280000
        k(   16) = (   0.3779258   0.3779258   0.0000000), wk =   0.0320000
        k(   17) = (   0.3779258   0.3779258   0.3476573), wk =   0.0640000
        k(   18) = (   0.3779258   0.3779258   0.6953147), wk =   0.0640000
        k(   19) = (   0.0000000   0.0000000   0.0000000), wk =   0.0080000
        k(   20) = (   0.0000000   0.0000000   0.3476573), wk =   0.0160000
        k(   21) = (   0.0000000   0.0000000   0.6953147), wk =   0.0160000
        k(   22) = (   0.0000000   0.1889629   0.0000000), wk =   0.0320000
        k(   23) = (   0.0000000   0.1889629   0.3476573), wk =   0.0640000
        k(   24) = (   0.0000000   0.1889629   0.6953147), wk =   0.0640000
        k(   25) = (   0.0000000   0.3779258   0.0000000), wk =   0.0320000
        k(   26) = (   0.0000000   0.3779258   0.3476573), wk =   0.0640000
        k(   27) = (   0.0000000   0.3779258   0.6953147), wk =   0.0640000
        k(   28) = (   0.1889629   0.1889629   0.0000000), wk =   0.0320000
        k(   29) = (   0.1889629   0.1889629   0.3476573), wk =   0.0640000
        k(   30) = (   0.1889629   0.1889629   0.6953147), wk =   0.0640000
        k(   31) = (   0.1889629   0.3779258   0.0000000), wk =   0.0640000
        k(   32) = (   0.1889629   0.3779258   0.3476573), wk =   0.1280000
        k(   33) = (   0.1889629   0.3779258   0.6953147), wk =   0.1280000
        k(   34) = (   0.3779258   0.3779258   0.0000000), wk =   0.0320000
        k(   35) = (   0.3779258   0.3779258   0.3476573), wk =   0.0640000
        k(   36) = (   0.3779258   0.3779258   0.6953147), wk =   0.0640000

     Largest allocated arrays     est. size (Mb)     dimensions
     Largest temporary arrays     est. size (Mb)     dimensions

     Check: negative/imaginary core charge=   -0.000008    0.000000

     Initial potential from superposition of free atoms

     starting charge   51.99787, renormalised to   52.00000
     Starting wfc are   42 randomized atomic wfcs

     Self-consistent Calculation

[...]

     total energy              =    -407.77202685 Ry
     Harris-Foulkes estimate   =    -407.77202396 Ry
     estimated scf accuracy    <       0.00000014 Ry

[...]

     iteration #  9     ecut=    40.00 Ry     beta=0.30
     Davidson diagonalization with overlap
     ethr =  2.71E-10,  avg # of iterations =  1.5

     negative rho (up, down):  0.786E-05 0.786E-05

     End of self-consistent calculation

 ------ SPIN UP ------------

[...]

 ------ SPIN DOWN ----------

[...]

          k = 0.3779 0.3779 0.6953 (  1719 PWs)   bands (ev):

   -46.7356 -46.7351 -21.7105 -21.7070 -21.2324 -21.2264 -20.8085 -20.8073
    -4.5634  -4.2593  -4.0278  -3.6791   6.9577   7.3287   7.5942   7.9304
     8.3127   8.6466   8.9169   9.8690  10.4873  10.7239  11.7734  11.9060
    15.0053  15.2301  16.2136  16.6233  18.2772  18.3910  20.2695  21.2757
    21.7055  22.4662  25.0180  25.2276  26.7497  26.8113  29.6645  29.7550
    31.9461  32.2384  32.8997  33.0220  34.3615  34.7019  35.6810  36.1758
    39.4804  39.6829  39.9664  40.4984  42.1107  42.8733  43.7206  44.1690
    45.4846  45.8093  46.2462  46.8435  47.3524  47.8548  48.3616  48.7154
    49.2497  49.5819  49.8858  50.6112  51.1945  51.3039  51.9016  51.9916
    53.4817  54.5880  57.1805  57.5689  57.9052  58.2944

     the Fermi energy is    15.2556 ev

!    total energy              =    -407.77202962 Ry
     Harris-Foulkes estimate   =    -407.77202687 Ry
     estimated scf accuracy    <          4.7E-09 Ry

     The total energy is the sum of the following terms:

     one-electron contribution =     -97.81580560 Ry
     hartree contribution      =      81.87283492 Ry
     xc contribution           =     -68.03793138 Ry
     ewald contribution        =    -323.79102849 Ry
     smearing contrib. (-TS)   =      -0.00009907 Ry

     total magnetization       =     0.00 Bohr mag/cell
     absolute magnetization    =     0.00 Bohr mag/cell

     convergence has been achieved in   9 iterations

     Forces acting on atoms (Ry/au):

     negative rho (up, down):  0.786E-05 0.786E-05
     atom    1 type  1   force =     0.00000000    0.00000000   -0.00000000
     atom    2 type  1   force =     0.00000000    0.00000000    0.00000000
     atom    3 type  2   force =    -0.00001871   -0.00001871    0.00000000
     atom    4 type  2   force =     0.00001871    0.00001871    0.00000000
     atom    5 type  2   force =    -0.00001871    0.00001871    0.00000000
     atom    6 type  2   force =     0.00001871   -0.00001871    0.00000000

     Total force =     0.000053     Total SCF correction =     0.000120
     SCF correction compared to forces is large: reduce conv_thr to get better values

     entering subroutine stress ...

     negative rho (up, down):  0.786E-05 0.786E-05
          total   stress  (Ry/bohr**3)                   (kbar)     P=  382.54
   0.00260687   0.00000000   0.00000000        383.48      0.00      0.00
   0.00000000   0.00260687   0.00000000          0.00    383.48      0.00
   0.00000000   0.00000000   0.00258768          0.00      0.00    380.66

     General routines

     Parallel routines

   This run was terminated on:  16:16:20  24Jan2014

   JOB DONE.