     Program PWSCF v.5.0.2 (svn rev. 9656) starts on  9May2014 at  0: 9:47

     Current dimensions of program PWSCF are:
     Max number of different atomic species (ntypx) = 10
     Max number of k-points (npk) =  40000
     Max angular momentum in pseudopotentials (lmaxx) =  3
     Reading input from pwscf.in
Warning: card &CELL ignored
Warning: card / ignored

     Subspace diagonalization in iterative solution of the eigenvalue problem:
     a serial algorithm will be used

     bravais-lattice index     =            0
     lattice parameter (alat)  =      11.1872  a.u.
     unit-cell volume          =    7531.8600 (a.u.)^3
     number of atoms/cell      =           30
     number of atomic types    =            3
     number of electrons       =       216.00
     number of Kohn-Sham states=          324
     kinetic-energy cutoff     =      40.0000  Ry
     charge density cutoff     =     500.0000  Ry
     convergence threshold     =      1.0E-06
     mixing beta               =       0.7000
     number of iterations used =            8  plain     mixing
     Exchange-correlation      = SLA  PW   PBE  PBE ( 1 4 3 4 0)
     EXX-fraction              =        0.00
     nstep                     =           50

     celldm(1)=  11.187179  celldm(2)=   0.000000  celldm(3)=   0.000000
     celldm(4)=   0.000000  celldm(5)=   0.000000  celldm(6)=   0.000000

     crystal axes: (cart. coord. in units of alat)
               a(1) = (   1.000000   0.000000   0.000000 )
               a(2) = (   0.000000   1.180104   0.000000 )
               a(3) = (   0.000000   0.000000   4.558482 )

     reciprocal axes: (cart. coord. in units 2 pi/alat)
               b(1) = (  1.000000  0.000000  0.000000 )
               b(2) = (  0.000000  0.847383  0.000000 )
               b(3) = (  0.000000  0.000000  0.219371 )

     PseudoPot. # 1 for O  read from file:
     /home/camp/zhonxu/pseudo/o_pbe_v1.01.uspp.F.UPF
     MD5 check sum: 2bcb18d16ea4b960afae9ec6d52f22d2
     Pseudo is Ultrasoft + core correction, Zval =  6.0
     Generated by new atomic code, or converted to UPF format
     Using radial grid of  737 points,  5 beta functions with:
                l(1) =   0
                l(2) =   0
                l(3) =   1
                l(4) =   1
                l(5) =   2
     Q(r) pseudized with  8 coefficients,  rinner =    0.900   0.900   0.900
                                                       0.900   0.900

     PseudoPot. # 2 for Nb read from file:
     /home/camp/zhonxu/pseudo/nb_pbe_v1.uspp.F.UPF
     MD5 check sum: 573aab8a2fa660278ed4a62cd769473f
     Pseudo is Ultrasoft + core correction, Zval = 13.0
     Generated by new atomic code, or converted to UPF format
     Using radial grid of  887 points,  6 beta functions with:
                l(1) =   0
                l(2) =   0
                l(3) =   1
                l(4) =   1
                l(5) =   2
                l(6) =   2
     Q(r) pseudized with  6 coefficients,  rinner =    1.000   1.000   1.000
                                                       1.000   1.000

     PseudoPot. # 3 for H  read from file:
     /home/camp/zhonxu/pseudo/h_pbe_v1.uspp.F.UPF
     MD5 check sum: 3408e3ff4ec8b0a4e358431e7e038a48
     Pseudo is Ultrasoft, Zval =  1.0
     Generated by new atomic code, or converted to UPF format
     Using radial grid of  615 points,  2 beta functions with:
                l(1) =   0
                l(2) =   0
     Q(r) pseudized with  8 coefficients,  rinner =    0.700

     atomic species   valence    mass     pseudopotential
        O0             6.00    15.99940     O ( 1.00)
        Nb1           13.00    92.90640     Nb( 1.00)
        H2             1.00     1.00794     H ( 1.00)

     Simplified LDA+U calculation (l_max = 2) with parameters (eV):
     atomic species    L          U    alpha       J0     beta
        Nb1            2     4.5000   0.0000   0.0000   0.0000

     No symmetry found

   Cartesian axes

     site n.     atom                  positions (alat units)
         1           O0  tau(   1) = (   0.0000000   0.0000000   1.7080633  )
         2           O0  tau(   2) = (   0.0000000   0.5900519   1.7583889  )
         3           Nb1 tau(   3) = (   0.2500000   0.5900519   2.0066439  )
         4           Nb1 tau(   4) = (   0.0000000   0.0000000   2.0401487  )
         5           O0  tau(   5) = (   0.2500000   0.9322821   2.0429294  )
         6           O0  tau(   6) = (   0.2500000   0.2478218   2.0431118  )
         7           O0  tau(   7) = (   0.0000000   0.5900519   2.2709903  )
         8           O0  tau(   8) = (   0.0000000   0.0000000   2.3999042  )
         9           Nb1 tau(   9) = (   0.2500000   0.0000000   2.6489340  )
        10           Nb1 tau(  10) = (   0.0000000   0.5900519   2.5868019  )
        11           O0  tau(  11) = (   0.2500000   0.8378738   2.6444667  )
        12           O0  tau(  12) = (   0.2500000   0.3422301   2.6445123  )
        13           O0  tau(  13) = (   0.0000000   0.0000000   2.8518777  )
        14           O0  tau(  14) = (   0.5000000   0.0000000   1.7080633  )
        15           O0  tau(  15) = (   0.5000000   0.5900519   1.7583889  )
        16           Nb1 tau(  16) = (   0.7500000   0.5900519   2.0066439  )
        17           Nb1 tau(  17) = (   0.5000000   0.0000000   2.0401487  )
        18           O0  tau(  18) = (   0.7500000   0.9322821   2.0429294  )
        19           O0  tau(  19) = (   0.7500000   0.2478218   2.0431118  )
        20           O0  tau(  20) = (   0.5000000   0.5900519   2.2709903  )
        21           O0  tau(  21) = (   0.5000000   0.0000000   2.3999497  )
        22           Nb1 tau(  22) = (   0.7500000   0.0000000   2.6489340  )
        23           Nb1 tau(  23) = (   0.5000000   0.5900519   2.5867563  )
        24           O0  tau(  24) = (   0.7500000   0.8378738   2.6444667  )
        25           O0  tau(  25) = (   0.7500000   0.3422301   2.6445123  )
        26           O0  tau(  26) = (   0.5000000   0.0000000   2.8518777  )
        27           H2  tau(  27) = (  -0.0004200   0.5934860   1.5928705  )
        28           H2  tau(  28) = (   0.4995800   0.5932146   1.5928249  )
        29           H2  tau(  29) = (   0.1513000  -0.0014397   1.6372701  )
        30           H2  tau(  30) = (   0.6512900  -0.0014397   1.6372701  )

     number of k points=    10  Methfessel-Paxton smearing, width (Ry)=  0.0100
                       cart. coord. in units 2pi/alat
        k(    1) = (   0.0000000   0.0000000   0.0000000), wk =   0.1250000
        k(    2) = (   0.0000000   0.2118458   0.0000000), wk =   0.2500000
        k(    3) = (   0.0000000  -0.4236915   0.0000000), wk =   0.1250000
        k(    4) = (   0.2500000   0.0000000   0.0000000), wk =   0.2500000
        k(    5) = (   0.2500000   0.2118458   0.0000000), wk =   0.2500000
        k(    6) = (   0.2500000  -0.4236915   0.0000000), wk =   0.2500000
        k(    7) = (  -0.5000000   0.0000000   0.0000000), wk =   0.1250000
        k(    8) = (  -0.5000000   0.2118458   0.0000000), wk =   0.2500000
        k(    9) = (  -0.5000000  -0.4236915   0.0000000), wk =   0.1250000
        k(   10) = (  -0.2500000   0.2118458   0.0000000), wk =   0.2500000

     Largest allocated arrays     est. size (Mb)     dimensions
     Largest temporary arrays     est. size (Mb)     dimensions

     Check: negative/imaginary core charge=   -0.000003    0.000000

     Initial potential from superposition of free atoms
     Check: negative starting charge=   -0.003843

     starting charge  215.97807, renormalised to  216.00000

     negative rho (up, down):  0.384E-02 0.000E+00
     Number of +U iterations with fixed ns =  0
     Starting occupations:
 --- enter write_ns ---
 LDA+U parameters:
U( 2)     =  4.50000000
alpha( 2) =  0.00000000
atom    3   Tr[ns(na)] =   3.00000
    eigenvalues:
  0.300  0.300  0.300  0.300  0.300
    eigenvectors:
  1.000  0.000  0.000  0.000  0.000
  0.000  1.000  0.000  0.000  0.000
  0.000  0.000  1.000  0.000  0.000
  0.000  0.000  0.000  1.000  0.000
  0.000  0.000  0.000  0.000  1.000
    occupations:
  0.300  0.000  0.000  0.000  0.000
  0.000  0.300  0.000  0.000  0.000
  0.000  0.000  0.300  0.000  0.000
  0.000  0.000  0.000  0.300  0.000
  0.000  0.000  0.000  0.000  0.300
atom    4   Tr[ns(na)] =   3.00000
    eigenvalues:
  0.300  0.300  0.300  0.300  0.300
    eigenvectors:
  1.000  0.000  0.000  0.000  0.000
  0.000  1.000  0.000  0.000  0.000
  0.000  0.000  1.000  0.000  0.000
  0.000  0.000  0.000  1.000  0.000
  0.000  0.000  0.000  0.000  1.000
    occupations:
  0.300  0.000  0.000  0.000  0.000
  0.000  0.300  0.000  0.000  0.000
  0.000  0.000  0.300  0.000  0.000
  0.000  0.000  0.000  0.300  0.000
  0.000  0.000  0.000  0.000  0.300
atom    9   Tr[ns(na)] =   3.00000
    eigenvalues:
  0.300  0.300  0.300  0.300  0.300
    eigenvectors:
  1.000  0.000  0.000  0.000  0.000
  0.000  1.000  0.000  0.000  0.000
  0.000  0.000  1.000  0.000  0.000
  0.000  0.000  0.000  1.000  0.000
  0.000  0.000  0.000  0.000  1.000
    occupations:
  0.300  0.000  0.000  0.000  0.000
  0.000  0.300  0.000  0.000  0.000
  0.000  0.000  0.300  0.000  0.000
  0.000  0.000  0.000  0.300  0.000
  0.000  0.000  0.000  0.000  0.300
atom   10   Tr[ns(na)] =   3.00000
    eigenvalues:
  0.300  0.300  0.300  0.300  0.300
    eigenvectors:
  1.000  0.000  0.000  0.000  0.000
  0.000  1.000  0.000  0.000  0.000
  0.000  0.000  1.000  0.000  0.000
  0.000  0.000  0.000  1.000  0.000
  0.000  0.000  0.000  0.000  1.000
    occupations:
  0.300  0.000  0.000  0.000  0.000
  0.000  0.300  0.000  0.000  0.000
  0.000  0.000  0.300  0.000  0.000
  0.000  0.000  0.000  0.300  0.000
  0.000  0.000  0.000  0.000  0.300
atom   16   Tr[ns(na)] =   3.00000
    eigenvalues:
  0.300  0.300  0.300  0.300  0.300
    eigenvectors:
  1.000  0.000  0.000  0.000  0.000
  0.000  1.000  0.000  0.000  0.000
  0.000  0.000  1.000  0.000  0.000
  0.000  0.000  0.000  1.000  0.000
  0.000  0.000  0.000  0.000  1.000
    occupations:
  0.300  0.000  0.000  0.000  0.000
  0.000  0.300  0.000  0.000  0.000
  0.000  0.000  0.300  0.000  0.000
  0.000  0.000  0.000  0.300  0.000
  0.000  0.000  0.000  0.000  0.300
atom   17   Tr[ns(na)] =   3.00000
    eigenvalues:
  0.300  0.300  0.300  0.300  0.300
    eigenvectors:
  1.000  0.000  0.000  0.000  0.000
  0.000  1.000  0.000  0.000  0.000
  0.000  0.000  1.000  0.000  0.000
  0.000  0.000  0.000  1.000  0.000
  0.000  0.000  0.000  0.000  1.000
    occupations:
  0.300  0.000  0.000  0.000  0.000
  0.000  0.300  0.000  0.000  0.000
  0.000  0.000  0.300  0.000  0.000
  0.000  0.000  0.000  0.300  0.000
  0.000  0.000  0.000  0.000  0.300
atom   22   Tr[ns(na)] =   3.00000
    eigenvalues:
  0.300  0.300  0.300  0.300  0.300
    eigenvectors:
  1.000  0.000  0.000  0.000  0.000
  0.000  1.000  0.000  0.000  0.000
  0.000  0.000  1.000  0.000  0.000
  0.000  0.000  0.000  1.000  0.000
  0.000  0.000  0.000  0.000  1.000
    occupations:
  0.300  0.000  0.000  0.000  0.000
  0.000  0.300  0.000  0.000  0.000
  0.000  0.000  0.300  0.000  0.000
  0.000  0.000  0.000  0.300  0.000
[...]
  0.000  0.001  0.000  0.000  0.999
  0.000  0.000  1.000  0.000  0.000
    occupations:
  0.585  0.012 -0.000 -0.001  0.000
  0.012  0.389  0.000 -0.011  0.000
 -0.000  0.000  0.383  0.000  0.001
 -0.001 -0.011  0.000  0.697  0.000
  0.000  0.000  0.001  0.000  0.551
atom    9   Tr[ns(na)] =   5.27778
    eigenvalues:
  0.446  0.461  0.500  0.615  0.617
    eigenvectors:
  0.885  0.000  0.000  0.115  0.000
  0.000  0.000  0.000  0.000  1.000
  0.000  0.000  1.000  0.000  0.000
  0.115  0.000  0.000  0.884  0.000
  0.000  1.000  0.000  0.000  0.000
    occupations:
  0.466 -0.000 -0.000  0.054  0.000
 -0.000  0.617  0.000 -0.000  0.000
 -0.000  0.000  0.500  0.000  0.000
  0.054 -0.000  0.000  0.596 -0.000
  0.000  0.000  0.000 -0.000  0.461
atom   10   Tr[ns(na)] =   5.10874
    eigenvalues:
  0.344  0.481  0.484  0.511  0.734
    eigenvectors:
  0.000  0.000  0.996  0.000  0.004
  0.000  1.000  0.000  0.000  0.000
  1.000  0.000  0.000  0.000  0.000
  0.000  0.000  0.004  0.000  0.996
  0.000  0.000  0.000  1.000  0.000
    occupations:
  0.485  0.000 -0.000 -0.016 -0.000
  0.000  0.481 -0.000 -0.000  0.000
 -0.000 -0.000  0.344 -0.000  0.000
 -0.016 -0.000 -0.000  0.733 -0.000
 -0.000  0.000  0.000 -0.000  0.511
atom   16   Tr[ns(na)] =   5.14652
    eigenvalues:
  0.342  0.381  0.509  0.581  0.760
    eigenvectors:
  0.000  0.000  0.000  0.370  0.630
  0.000  0.000  1.000  0.000  0.000
  0.012  0.988  0.000  0.000  0.000
  0.000  0.000  0.000  0.630  0.370
  0.988  0.012  0.000  0.000  0.000
    occupations:
  0.694  0.000  0.001 -0.087  0.000
  0.000  0.509  0.000  0.000  0.000
  0.001  0.000  0.380 -0.000 -0.004
 -0.087  0.000 -0.000  0.647 -0.000
  0.000  0.000 -0.004 -0.000  0.343
atom   17   Tr[ns(na)] =   5.21012
    eigenvalues:
  0.383  0.388  0.551  0.585  0.698
    eigenvectors:
  0.000  0.003  0.000  0.996  0.000
  0.001  0.994  0.000  0.003  0.001
  0.998  0.001  0.000  0.000  0.000
  0.000  0.001  0.000  0.000  0.999
  0.000  0.000  1.000  0.000  0.000
    occupations:
  0.585  0.012 -0.000 -0.001  0.000
  0.012  0.389  0.000 -0.011  0.000
 -0.000  0.000  0.383  0.000  0.001
 -0.001 -0.011  0.000  0.698  0.000
  0.000  0.000  0.001  0.000  0.551
atom   22   Tr[ns(na)] =   5.27778
    eigenvalues:
  0.446  0.461  0.500  0.615  0.617
    eigenvectors:
  0.885  0.000  0.000  0.115  0.000
  0.000  0.000  0.000  0.000  1.000
  0.000  0.000  1.000  0.000  0.000
  0.115  0.000  0.000  0.884  0.000
  0.000  1.000  0.000  0.000  0.000
    occupations:
  0.466 -0.000 -0.000  0.054  0.000
 -0.000  0.617  0.000 -0.000  0.000
 -0.000  0.000  0.500  0.000  0.000
  0.054 -0.000  0.000  0.596 -0.000
  0.000  0.000  0.000 -0.000  0.461
atom   23   Tr[ns(na)] =   5.10802
    eigenvalues:
  0.344  0.481  0.484  0.511  0.734
    eigenvectors:
  0.000  0.000  0.996  0.000  0.004
  0.000  1.000  0.000  0.000  0.000
  1.000  0.000  0.000  0.000  0.000
  0.000  0.000  0.004  0.000  0.996
  0.000  0.000  0.000  1.000  0.000
    occupations:
  0.485  0.000 -0.000 -0.016 -0.000
  0.000  0.481 -0.000 -0.000  0.000
 -0.000 -0.000  0.344 -0.000  0.000
 -0.016 -0.000 -0.000  0.733 -0.000
 -0.000  0.000  0.000 -0.000  0.511
N of occupied +U levels =  41.4854949
 --- exit write_ns ---

     Threshold (ethr) on eigenvalues was too large:
     Diagonalizing with lowered threshold

     Davidson diagonalization with overlap
     ethr =  4.98E-08,  avg # of iterations =  1.3

[...]

     total energy              =   -1527.03508474 Ry
     Harris-Foulkes estimate   =   -1527.03508474 Ry
     estimated scf accuracy    <       0.00000002 Ry

     iteration # 12     ecut=    40.00 Ry     beta=0.70
     Davidson diagonalization with overlap
     ethr =  9.54E-12,  avg # of iterations =  1.0

     negative rho (up, down):  0.363E-02 0.000E+00

     End of self-consistent calculation
 --- enter write_ns ---
 LDA+U parameters:
U( 2)     =  4.50000000
alpha( 2) =  0.00000000
atom    3   Tr[ns(na)] =   5.14848
    eigenvalues:
  0.342  0.381  0.509  0.581  0.760
    eigenvectors:
  0.000  0.000  0.000  0.371  0.629
  0.000  0.000  1.000  0.000  0.000
  0.011  0.989  0.000  0.000  0.000
  0.000  0.000  0.000  0.629  0.371
  0.989  0.011  0.000  0.000  0.000
    occupations:
  0.694  0.000  0.001 -0.087 -0.000
  0.000  0.509 -0.000  0.000  0.000
  0.001 -0.000  0.381 -0.000 -0.004
 -0.087  0.000 -0.000  0.647  0.000
 -0.000  0.000 -0.004  0.000  0.343
atom    4   Tr[ns(na)] =   5.21229
    eigenvalues:
  0.383  0.389  0.551  0.585  0.698
    eigenvectors:
  0.000  0.003  0.000  0.996  0.000
  0.001  0.994  0.000  0.003  0.001
  0.999  0.001  0.000  0.000  0.000
  0.000  0.001  0.000  0.000  0.999
  0.000  0.000  1.000  0.000  0.000
    occupations:
  0.585  0.012 -0.000 -0.001  0.000
  0.012  0.390  0.000 -0.011  0.000
 -0.000  0.000  0.383  0.000  0.001
 -0.001 -0.011  0.000  0.698  0.000
  0.000  0.000  0.001  0.000  0.551
atom    9   Tr[ns(na)] =   5.27709
    eigenvalues:
  0.447  0.461  0.499  0.615  0.617
    eigenvectors:
  0.885  0.000  0.000  0.115  0.000
  0.000  0.000  0.000  0.000  1.000
  0.000  0.000  1.000  0.000  0.000
  0.115  0.000  0.000  0.884  0.000
  0.000  1.000  0.000  0.000  0.000
    occupations:
  0.466 -0.000 -0.000  0.054  0.000
 -0.000  0.617  0.000 -0.000  0.000
 -0.000  0.000  0.499  0.000  0.000
  0.054 -0.000  0.000  0.596 -0.000
  0.000  0.000  0.000 -0.000  0.461
atom   10   Tr[ns(na)] =   5.10666
    eigenvalues:
  0.344  0.480  0.484  0.511  0.734
    eigenvectors:
  0.000  0.000  0.996  0.000  0.004
  0.000  1.000  0.000  0.000  0.000
  1.000  0.000  0.000  0.000  0.000
  0.000  0.000  0.004  0.000  0.996
  0.000  0.000  0.000  1.000  0.000
    occupations:
  0.485  0.000 -0.000 -0.016 -0.000
  0.000  0.480 -0.000 -0.000  0.000
 -0.000 -0.000  0.344 -0.000  0.000
 -0.016 -0.000 -0.000  0.733 -0.000
 -0.000  0.000  0.000 -0.000  0.511
atom   16   Tr[ns(na)] =   5.14848
    eigenvalues:
  0.342  0.381  0.509  0.581  0.760
    eigenvectors:
  0.000  0.000  0.000  0.371  0.629
  0.000  0.000  1.000  0.000  0.000
  0.012  0.988  0.000  0.000  0.000
  0.000  0.000  0.000  0.629  0.371
  0.988  0.012  0.000  0.000  0.000
    occupations:
  0.694  0.000  0.001 -0.087  0.000
  0.000  0.509  0.000  0.000  0.000
  0.001  0.000  0.381 -0.000 -0.004
 -0.087  0.000 -0.000  0.647 -0.000
  0.000  0.000 -0.004 -0.000  0.343
atom   17   Tr[ns(na)] =   5.21226
    eigenvalues:
  0.383  0.389  0.551  0.585  0.698
    eigenvectors:
  0.000  0.003  0.000  0.996  0.000
  0.001  0.994  0.000  0.003  0.001
  0.999  0.001  0.000  0.000  0.000
  0.000  0.001  0.000  0.000  0.999
  0.000  0.000  1.000  0.000  0.000
    occupations:
  0.585  0.012 -0.000 -0.001  0.000
  0.012  0.390  0.000 -0.011  0.000
 -0.000  0.000  0.383 -0.000  0.001
 -0.001 -0.011 -0.000  0.698  0.000
  0.000  0.000  0.001  0.000  0.551
atom   22   Tr[ns(na)] =   5.27709
    eigenvalues:
  0.447  0.461  0.499  0.615  0.617
    eigenvectors:
  0.885  0.000  0.000  0.115  0.000
  0.000  0.000  0.000  0.000  1.000
  0.000  0.000  1.000  0.000  0.000
  0.115  0.000  0.000  0.884  0.000
  0.000  1.000  0.000  0.000  0.000
    occupations:
  0.466 -0.000 -0.000  0.054  0.000
 -0.000  0.617  0.000 -0.000  0.000
 -0.000  0.000  0.499  0.000  0.000
  0.054 -0.000  0.000  0.596 -0.000
  0.000  0.000  0.000 -0.000  0.461
atom   23   Tr[ns(na)] =   5.10668
    eigenvalues:
  0.344  0.480  0.484  0.511  0.734
    eigenvectors:
  0.000  0.000  0.996  0.000  0.004
  0.000  1.000  0.000  0.000  0.000
  1.000  0.000  0.000  0.000  0.000
  0.000  0.000  0.004  0.000  0.996
  0.000  0.000  0.000  1.000  0.000
    occupations:
  0.485  0.000 -0.000 -0.016 -0.000
  0.000  0.480 -0.000 -0.000  0.000
 -0.000 -0.000  0.344 -0.000  0.000
 -0.016 -0.000 -0.000  0.733 -0.000
 -0.000  0.000  0.000 -0.000  0.511
N of occupied +U levels =  41.4890429
 --- exit write_ns ---

[...]

          k = 0.2500-0.4237 0.0000 ( 32188 PWs)   bands (ev):

[...]

          k =-0.2500 0.2118 0.0000 ( 32165 PWs)   bands (ev):

   -56.2525 -56.1856 -55.9248 -55.8682 -55.7757 -55.7173 -55.4799 -55.4233
   -33.0624 -32.4592 -32.3673 -32.3294 -32.3247 -32.3120 -32.2720 -32.2664
   -32.2518 -32.1618 -32.1476 -32.1415 -32.1135 -32.0561 -31.8320 -31.7374
   -31.7103 -31.6737 -31.6320 -31.5911 -31.5596 -31.4771 -31.3497 -31.0641
   -20.4664 -20.3340 -19.3099 -19.1022 -18.9424 -18.8457 -18.8413 -18.7884
   -18.7783 -18.6103 -18.6052 -18.5670 -18.1184 -18.0240 -17.9676 -17.9397
   -17.8843 -17.7719  -9.0507  -8.6565  -7.4620  -7.0923  -6.9334  -6.6938
    -6.4943  -6.4255  -6.3870  -6.2488  -6.2189  -6.1547  -6.1278  -5.8976
    -5.8807  -5.8169  -5.6994  -5.5133  -5.4970  -5.3080  -5.0354  -5.0193
    -4.9764  -4.9086  -4.7917  -4.5645  -4.4009  -4.3496  -4.2833  -4.2485
    -4.2119  -4.1482  -3.9647  -3.9377  -3.9071  -3.8490  -3.8114  -3.7953
    -3.5480  -3.5098  -3.4804  -3.4035  -3.3617  -3.2891  -3.1617  -3.1227
    -3.0018  -2.9715  -2.8355  -2.7285  -2.6350  -2.5420  -2.4677  -2.1755
    -1.0324  -0.0150   0.0874   1.0635   1.2345   1.5056   1.6997   1.7528
     1.8003   1.9298   2.0080   2.1784   2.2688   2.4180   2.4996   2.5143
     2.5437   2.6592   2.7438   2.8850   2.9381   2.9537   3.0599   3.1398
     3.2970   3.3534   3.7128   4.2285   4.4463   4.5550   4.6765   4.7622
     4.9049   5.0034   5.0200   5.1616   5.2796   5.3899   5.3925   5.6107
     5.7423   5.8583   5.8835   5.9870   6.1969   6.2844   6.4047   6.4910
     6.5164   6.5323   6.6171   6.7876   6.9232   6.9624   7.1792   7.2465
     7.3119   7.5237   7.7227   7.7983   7.9282   7.9519   8.1452   8.1659
     8.2377   8.3236   8.4426   8.6437   8.7137   8.8560   9.0041   9.0822
     9.0955   9.2352   9.3289   9.4332   9.5544   9.5953   9.6577   9.7760
     9.8485   9.9863   9.9971  10.1812  10.2068  10.4081  10.4329  10.6215
    10.6864  10.7669  10.9488  10.9636  11.0199  11.0763  11.1639  11.2062
    11.2778  11.4020  11.4562  11.4653  11.5419  11.5717  11.7581  11.8868
    11.9201  12.0661  12.0936  12.1719  12.2379  12.2902  12.4447  12.4886
    12.6460  12.6737  12.7286  12.7744  12.8683  12.8781  12.9488  12.9634
    13.0352  13.0925  13.1738  13.2707  13.3126  13.4299  13.4906  13.5113
    13.6085  13.7099  13.7731  13.8978  13.9435  13.9504  13.9898  14.0823
    14.1169  14.2828  14.3369  14.4025  14.4851  14.6080  14.6123  14.8603
    14.8971  14.9121  15.0310  15.1444  15.2063  15.2652  15.2692  15.3814
    15.4022  15.4081  15.5225  15.5254  15.5951  15.7319  15.7749  15.8190
    15.8270  15.9067  16.0374  16.0401  16.0715  16.2717  16.2738  16.3978
    16.4620  16.5938  16.6189  16.6532  16.7392  16.7413  16.7870  16.8848
    16.9652  17.0120  17.0486  17.2404  17.2887  17.2919  17.4037  17.4450
    17.4970  17.5678  17.6339  17.7001  17.7442  17.8531  17.8721  18.0017
    18.0414  18.0560  18.1115  18.2649  18.3370  18.4454  18.5073  18.6056
    18.6401  18.7330  18.7331  18.8057  18.8797  18.9249  18.9375  19.0495
    19.1635  19.2027  19.2845  19.3070  19.3662  19.3835  19.4050  19.5259
    19.5480  19.6059  19.6496  19.7209

     the Fermi energy is     1.0308 ev

!    total energy              =   -1527.03508473 Ry
     Harris-Foulkes estimate   =   -1527.03508474 Ry
     estimated scf accuracy    <          9.4E-09 Ry

     The total energy is the sum of the following terms:

     one-electron contribution =  -18259.87297655 Ry
     hartree contribution      =    9156.64985822 Ry
     xc contribution           =    -279.72700002 Ry
     ewald contribution        =    7852.80672056 Ry
     Hubbard energy            =       3.10893610 Ry
     smearing contrib. (-TS)   =      -0.00062304 Ry

     convergence has been achieved in  12 iterations

     Forces acting on atoms (Ry/au):

     negative rho (up, down):  0.363E-02 0.000E+00
     atom    1 type  1   force =     0.00070713   -0.00036772    0.00052633
     atom    2 type  1   force =    -0.00040901    0.00049532    0.00051701
     atom    3 type  2   force =     0.00077102   -0.00029257    0.00040796
     atom    4 type  2   force =    -0.00370005    0.00016581   -0.00072206
     atom    5 type  1   force =     0.00044992   -0.03120439   -0.00032445
     atom    6 type  1   force =     0.00053121    0.03113794   -0.00028765
     atom    7 type  1   force =    -0.00007707    0.00005551   -0.00051193
     atom    8 type  1   force =     0.00139172    0.00000300    0.00099643
     atom    9 type  2   force =    -0.00010893    0.00000149    0.00055908
     atom   10 type  2   force =     0.00008350   -0.00000788   -0.00004023
     atom   11 type  1   force =    -0.00001345   -0.03468755   -0.00028244
     atom   12 type  1   force =    -0.00001181    0.03468377   -0.00027838
     atom   13 type  1   force =     0.00027128    0.00000109    0.00013385
     atom   14 type  1   force =     0.00071602   -0.00035510    0.00051634
     atom   15 type  1   force =    -0.00041240    0.00048146   -0.00065097
     atom   16 type  2   force =     0.00086582   -0.00029475    0.00040790
     atom   17 type  2   force =    -0.00369901    0.00016364   -0.00071291
     atom   18 type  1   force =     0.00045630   -0.03120356   -0.00032503
     atom   19 type  1   force =     0.00052028    0.03113849   -0.00028751
     atom   20 type  1   force =    -0.00007717    0.00004512   -0.00054335
     atom   21 type  1   force =     0.00139143    0.00000228    0.00096199
     atom   22 type  2   force =    -0.00011668    0.00000157    0.00055909
     atom   23 type  2   force =     0.00008355   -0.00000974   -0.00003543
     atom   24 type  1   force =    -0.00000970   -0.03468747   -0.00028247
     atom   25 type  1   force =    -0.00000981    0.03468384   -0.00027841
     atom   26 type  1   force =     0.00027125    0.00000109    0.00013205
     atom   27 type  3   force =    -0.00000785   -0.00020035   -0.00051419
     atom   28 type  3   force =    -0.00000490   -0.00021953    0.00052706
     atom   29 type  3   force =     0.00007716    0.00023587   -0.00008697
     atom   30 type  3   force =     0.00007026    0.00023328   -0.00008072

     Total force =     0.002682     Total SCF correction =     0.000289
     SCF correction compared to forces is large: reduce conv_thr to get better values

     bfgs converged in  10 scf cycles and   9 bfgs steps
     (criteria: energy < 0.10E-03, force < 0.10E-02)

     End of BFGS Geometry Optimization

     Final energy   =   -1527.0350847336 Ry
Begin final coordinates

ATOMIC_POSITIONS (crystal)
O0       0.000000000   0.000000000   0.374540476    0   0   1
O0       0.000000000   0.500000000   0.384961158    0   0   1
Nb1      0.250000000   0.500000000   0.440077320    0   0   1
Nb1      0.000000000   0.000000000   0.447490498    0   0   1
O0       0.250000000   0.790000000   0.447623438    0   0   1
O0       0.250000000   0.210000000   0.447607227    0   0   1
O0       0.000000000   0.500000000   0.497217975    0   0   1
O0       0.000000000   0.000000000   0.526641198    0   0   1
Nb1      0.250000000   0.000000000   0.581203632    0   0   1
Nb1      0.000000000   0.500000000   0.567197796    0   0   1
O0       0.250000000   0.710000000   0.582004585    0   0   1
O0       0.250000000   0.290000000   0.582004373    0   0   1
O0       0.000000000   0.000000000   0.625527038    0   0   1
O0       0.500000000   0.000000000   0.374541003    0   0   1
O0       0.500000000   0.500000000   0.384972727    0   0   1
Nb1      0.750000000   0.500000000   0.440077328    0   0   1
Nb1      0.500000000   0.000000000   0.447490488    0   0   1
O0       0.750000000   0.790000000   0.447623271    0   0   1
O0       0.750000000   0.210000000   0.447607419    0   0   1
O0       0.500000000   0.500000000   0.497219212    0   0   1
O0       0.500000000   0.000000000   0.526643426    0   0   1
Nb1      0.750000000   0.000000000   0.581203632    0   0   1
Nb1      0.500000000   0.500000000   0.567198655    0   0   1
O0       0.750000000   0.710000000   0.582004573    0   0   1
O0       0.750000000   0.290000000   0.582004387    0   0   1
O0       0.500000000   0.000000000   0.625527265    0   0   1
H2      -0.000459076   0.502441968   0.348738650
H2       0.499540891   0.502206128   0.348729295
H2       0.151890188  -0.000562447   0.359406125
H2       0.651889462  -0.000570043   0.359405828
End final coordinates

     General routines

     Parallel routines
     Hubbard U routines

   This run was terminated on:   7:52:29   9May2014

   JOB DONE.
Running PBS batch system epilogue script
Job id: 340851.audhumbla.fysik.dtu.dk
Username: zhonxu
Groupname: campgst
Jobname: NbO2/Eads-2-layers/bare-U-4.5
Sessionid: 13378
Queuename: verylong
Accounting:
This job has allocated the following 16 nodes:
b115 b115 b115 b115 b115 b115 b115 b115 b102 b102 b102 b102 b102 b102 b102 b102
Finished epilogue job 340851.audhumbla.fysik.dtu.dk for zhonxu