     Program PWSCF v.5.0.2 (svn rev. 9656) starts on 25Mar2014 at  8:39:56

     Current dimensions of program PWSCF are:
     Max number of different atomic species (ntypx) = 10
     Max number of k-points (npk) =  40000
     Max angular momentum in pseudopotentials (lmaxx) =  3
     Reading input from pwscf.in
Warning: card &CELL ignored
Warning: card / ignored

     Subspace diagonalization in iterative solution of the eigenvalue problem:
     a serial algorithm will be used

     bravais-lattice index     =            0
     lattice parameter (alat)  =      10.1289  a.u.
     unit-cell volume          =    6836.7721 (a.u.)^3
     number of atoms/cell      =           32
     number of atomic types    =            3
     number of electrons       =       239.00
     number of Kohn-Sham states=          358
     kinetic-energy cutoff     =      40.0000  Ry
     charge density cutoff     =     500.0000  Ry
     convergence threshold     =      1.0E-06
     mixing beta               =       0.3000
     number of iterations used =            8  plain     mixing
     Exchange-correlation      = SLA  PW   PBE  PBE ( 1 4 3 4 0)
     EXX-fraction              =        0.00
     nstep                     =           50

     celldm(1)=  10.128932  celldm(2)=   0.000000  celldm(3)=   0.000000
     celldm(4)=   0.000000  celldm(5)=   0.000000  celldm(6)=   0.000000

     crystal axes: (cart. coord. in units of alat)
               a(1) = (   1.000000   0.000000   0.000000 )
               a(2) = (   0.000000   1.306037   0.000000 )
               a(3) = (   0.000000   0.000000   5.037380 )

     reciprocal axes: (cart. coord. in units 2 pi/alat)
               b(1) = (  1.000000  0.000000  0.000000 )
               b(2) = (  0.000000  0.765675  0.000000 )
               b(3) = (  0.000000  0.000000  0.198516 )

     PseudoPot. # 1 for O  read from file:
     /home/camp/zhonxu/pseudo/o_pbe_v1.01.uspp.F.UPF
     MD5 check sum: 2bcb18d16ea4b960afae9ec6d52f22d2
     Pseudo is Ultrasoft + core correction, Zval =  6.0
     Generated by new atomic code, or converted to UPF format
     Using radial grid of  737 points,  5 beta functions with:
                l(1) =   0
                l(2) =   0
                l(3) =   1
                l(4) =   1
                l(5) =   2
     Q(r) pseudized with  8 coefficients,  rinner =    0.900   0.900   0.900
                                                       0.900   0.900

     PseudoPot. # 2 for Re read from file:
     /home/camp/zhonxu/pseudo/re_pbe_v1.uspp.F.UPF
     MD5 check sum: 6f5a5dcaf9c96c20d0ffdde0de57afc6
     Pseudo is Ultrasoft + core correction, Zval = 15.0
     Generated by new atomic code, or converted to UPF format
     Using radial grid of  981 points,  8 beta functions with:
                l(1) =   0
                l(2) =   0
                l(3) =   1
                l(4) =   1
                l(5) =   2
                l(6) =   2
                l(7) =   3
                l(8) =   3
     Q(r) pseudized with  8 coefficients,  rinner =    1.000   1.000   1.000
                                                       1.000   1.000   1.000
                                                       1.000

     PseudoPot. # 3 for H  read from file:
     /home/camp/zhonxu/pseudo/h_pbe_v1.uspp.F.UPF
     MD5 check sum: 3408e3ff4ec8b0a4e358431e7e038a48
     Pseudo is Ultrasoft, Zval =  1.0
     Generated by new atomic code, or converted to UPF format
     Using radial grid of  615 points,  2 beta functions with:
                l(1) =   0
                l(2) =   0
     Q(r) pseudized with  8 coefficients,  rinner =    0.700

     atomic species   valence    mass     pseudopotential
        O0             6.00    15.99940     O ( 1.00)
        Re1           15.00   186.20700     Re( 1.00)
        H2             1.00     1.00794     H ( 1.00)

     Starting magnetic structure
     atomic species   magnetization
        O0           0.000
        Re1          0.000
        H2           0.000

     No symmetry found

   Cartesian axes

     site n.     atom                  positions (alat units)
         1           O0  tau(   1) = (   0.0000000   0.0000000   1.8688176  )
         2           O0  tau(   2) = (   0.0000000   0.6530184   1.9243296  )
         3           Re1 tau(   3) = (   0.2500000   0.6530184   2.2228951  )
         4           Re1 tau(   4) = (   0.0000000   0.0000000   2.2352367  )
         5           O0  tau(   5) = (   0.2500000   1.0187087   2.2249100  )
         6           O0  tau(   6) = (   0.2500000   0.2873281   2.2250611  )
         7           O0  tau(   7) = (   0.0000000   0.6530184   2.5071041  )
         8           O0  tau(   8) = (   0.0000000   0.0000000   2.5966183  )
         9           Re1 tau(   9) = (   0.2500000   0.0000000   2.8989619  )
        10           Re1 tau(  10) = (   0.0000000   0.6530184   2.8608793  )
        11           O0  tau(  11) = (   0.2500000   0.9403465   2.8908013  )
        12           O0  tau(  12) = (   0.2500000   0.3656903   2.8907005  )
        13           O0  tau(  13) = (   0.0000000   0.0000000   3.1620138  )
        14           O0  tau(  14) = (   0.5000000   0.0000000   1.8688176  )
        15           O0  tau(  15) = (   0.5000000   0.6530184   1.9243296  )
        16           Re1 tau(  16) = (   0.7500000   0.6530184   2.2228951  )
        17           Re1 tau(  17) = (   0.5000000   0.0000000   2.2352367  )
        18           O0  tau(  18) = (   0.7500000   1.0187087   2.2249604  )
        19           O0  tau(  19) = (   0.7500000   0.2873281   2.2250611  )
        20           O0  tau(  20) = (   0.5000000   0.6530184   2.5071041  )
        21           O0  tau(  21) = (   0.5000000   0.0000000   2.5966183  )
        22           Re1 tau(  22) = (   0.7500000   0.0000000   2.8989619  )
        23           Re1 tau(  23) = (   0.5000000   0.6530184   2.8609296  )
        24           O0  tau(  24) = (   0.7500000   0.9403465   2.8908013  )
        25           O0  tau(  25) = (   0.7500000   0.3656903   2.8907005  )
        26           O0  tau(  26) = (   0.5000000   0.0000000   3.1620138  )
        27           H2  tau(  27) = (  -0.0003800   0.8172395   1.8403061  )
        28           H2  tau(  28) = (   0.4996200   0.8172395   1.8403061  )
        29           H2  tau(  29) = (   0.1698700   0.0284977   1.7974380  )
        30           H2  tau(  30) = (   0.6698800   0.0284977   1.7974380  )
        31           O0  tau(  31) = (   0.5082800   0.6524176   3.2210016  )
        32           H2  tau(  32) = (   0.3590200   0.6528486   3.3257791  )

     number of k points=    20  Methfessel-Paxton smearing, width (Ry)=  0.0100
                       cart. coord. in units 2pi/alat
        k(    1) = (   0.0000000   0.0000000   0.0000000), wk =   0.0625000
        k(    2) = (   0.0000000   0.1914188   0.0000000), wk =   0.1250000
        k(    3) = (   0.0000000  -0.3828376   0.0000000), wk =   0.0625000
        k(    4) = (   0.2500000   0.0000000   0.0000000), wk =   0.1250000
        k(    5) = (   0.2500000   0.1914188   0.0000000), wk =   0.1250000
        k(    6) = (   0.2500000  -0.3828376   0.0000000), wk =   0.1250000
        k(    7) = (  -0.5000000   0.0000000   0.0000000), wk =   0.0625000
        k(    8) = (  -0.5000000   0.1914188   0.0000000), wk =   0.1250000
        k(    9) = (  -0.5000000  -0.3828376   0.0000000), wk =   0.0625000
        k(   10) = (  -0.2500000   0.1914188   0.0000000), wk =   0.1250000
        k(   11) = (   0.0000000   0.0000000   0.0000000), wk =   0.0625000
        k(   12) = (   0.0000000   0.1914188   0.0000000), wk =   0.1250000
        k(   13) = (   0.0000000  -0.3828376   0.0000000), wk =   0.0625000
        k(   14) = (   0.2500000   0.0000000   0.0000000), wk =   0.1250000
        k(   15) = (   0.2500000   0.1914188   0.0000000), wk =   0.1250000
        k(   16) = (   0.2500000  -0.3828376   0.0000000), wk =   0.1250000
        k(   17) = (  -0.5000000   0.0000000   0.0000000), wk =   0.0625000
        k(   18) = (  -0.5000000   0.1914188   0.0000000), wk =   0.1250000
        k(   19) = (  -0.5000000  -0.3828376   0.0000000), wk =   0.0625000
        k(   20) = (  -0.2500000   0.1914188   0.0000000), wk =   0.1250000

     Largest allocated arrays     est. size (Mb)     dimensions
     Largest temporary arrays     est. size (Mb)     dimensions

     Check: negative/imaginary core charge=   -0.000003    0.000000

     Initial potential from superposition of free atoms
     Check: negative starting charge=(component1):   -0.118498
     Check: negative starting charge=(component2):   -0.118498

     starting charge  234.99957, renormalised to  239.00000

     negative rho (up, down):  0.121E+00 0.121E+00
     Starting wfc are  185 randomized atomic wfcs

     Self-consistent Calculation

     iteration #  1     ecut=    40.00 Ry     beta=0.30
     Davidson diagonalization with overlap
     ethr =  1.00E-02,  avg # of iterations =  6.2

     negative rho (up, down):  0.130E+00 0.130E+00

     total energy              =   -2173.41287536 Ry
     Harris-Foulkes estimate   =   -2178.19087398 Ry
     estimated scf accuracy    <      10.29474472 Ry

     total magnetization       =    -0.00 Bohr mag/cell
     absolute magnetization    =     0.00 Bohr mag/cell

[...]

     End of self-consistent calculation

 ------ SPIN UP ------------

          k = 0.0000 0.0000 0.0000 ( 29221 PWs)   bands (ev):

   -81.5178 -81.4564 -81.4417 -81.2727 -81.2164 -81.0610 -81.0511 -80.9954
   -43.7285 -43.5348 -43.4985 -43.4211 -43.4102 -43.3808 -43.3750 -43.3180
   -43.2996 -43.2751 -43.2468 -43.1662 -43.1015 -43.0562 -43.0157 -42.9548
   -42.9404 -42.9355 -42.9111 -42.8598 -42.8511 -42.6447 -42.5783 -42.4234
   -21.1110 -20.5844 -20.4735 -20.4498 -20.1665 -19.8302 -19.7887 -19.5458
   -19.4812 -19.4468 -19.3691 -19.2994 -19.2450 -19.2254 -19.1608 -19.0549
   -18.7434 -18.2383 -17.9021  -9.5144  -9.3846  -9.2366  -8.7345  -8.6834
    -8.2701  -8.1774  -8.0460  -7.9344  -7.7653  -7.6675  -7.5697  -7.4388
    -7.3294  -7.2736  -7.1664  -6.9999  -6.9248  -6.9149  -6.7950  -6.5334
    -6.4378  -6.1724  -6.0374  -5.6518  -5.5851  -5.5040  -5.4455  -5.3458
    -5.2370  -5.0846  -5.0538  -4.9391  -4.8149  -4.7936  -4.7192  -4.4666
    -4.4415  -4.3916  -4.1882  -4.1366  -4.0361  -3.9628  -3.6927  -3.6573
    -3.4386  -3.4299  -3.3358  -3.2778  -3.2563  -3.1566  -3.1338  -3.0737
    -2.9626  -2.8417  -2.7778  -2.6683  -2.5210  -2.4587  -2.2260  -1.0518
    -0.7132  -0.5691  -0.1682  -0.1541   0.0557   0.3660   0.5313   0.5440
     0.6785   0.7591   0.9828   1.1048   1.2485   1.3205   1.4392   1.8956
     2.6575   3.0369   3.0859   3.1736   3.3671   3.4424   3.5147   3.6345
     4.0452   4.1169   4.2146   4.5399   4.5553   4.5771   4.7609   4.8200
     4.8782   4.9404   4.9959   5.0840   5.2805   5.3996   5.4749   6.0123
     6.2202   6.3404   6.6385   6.9438   7.4218   7.6067   7.6903   7.8883
     7.9261   8.0633   8.1402   8.2053   8.2961   8.3836   8.5823   8.6879
     8.7819   8.8750   8.9519   9.0053   9.1035   9.1535   9.2544   9.3118
     9.5111   9.6303   9.7475   9.7752   9.8288   9.9167  10.0578  10.1352
[...]
     atom   20 type  1   force =    -0.00048089   -0.00059954   -0.01656066
     atom   21 type  1   force =     0.00287685   -0.00152634    0.00025728
     atom   22 type  2   force =    -0.00512812    0.00179480    0.01223662
     atom   23 type  2   force =    -0.00608902   -0.00023445    0.09585599
     atom   24 type  1   force =     0.01095842   -0.02036915   -0.01480596
     atom   25 type  1   force =     0.01096189    0.01958073   -0.01478273
     atom   26 type  1   force =    -0.00106858   -0.00025241   -0.01231666
     atom   27 type  3   force =     0.00004080   -0.00184551    0.00004600
     atom   28 type  3   force =     0.00001178   -0.00202393   -0.00140162
     atom   29 type  3   force =    -0.00027026    0.00028122    0.00034777
     atom   30 type  3   force =     0.00035283    0.00025160    0.00023313
     atom   31 type  1   force =     0.01552050   -0.00000381    0.01143734
     atom   32 type  3   force =    -0.00362585   -0.00001001    0.00256721

     Total force =     0.019785     Total SCF correction =     0.000161

     BFGS Geometry Optimization

     number of scf cycles    =   1
     number of bfgs steps    =   0

     energy   new            =   -2176.5433993767 Ry

     new trust radius        =       0.0192794890 bohr
     new conv_thr            =       0.0000010000 Ry

ATOMIC_POSITIONS (crystal)
O0       0.000000000   0.000000000   0.370990000    0   0   0
O0       0.000000000   0.500000000   0.382010000    0   0   0
Re1      0.250000000   0.500000000   0.441280000    0   0   0
Re1      0.000000000   0.000000000   0.443730000    0   0   0
O0       0.250000000   0.780000000   0.441680000    0   0   0
O0       0.250000000   0.220000000   0.441710000    0   0   0
O0       0.000000000   0.500000000   0.497700000    0   0   0
O0       0.000000000   0.000000000   0.515470000    0   0   0
Re1      0.250000000   0.000000000   0.575490000    0   0   0
Re1      0.000000000   0.500000000   0.567930000    0   0   0
O0       0.250000000   0.720000000   0.573870000    0   0   0
O0       0.250000000   0.280000000   0.573850000    0   0   0
O0       0.000000000   0.000000000   0.627710000    0   0   0
O0       0.500000000   0.000000000   0.370990000    0   0   0
O0       0.500000000   0.500000000   0.382010000    0   0   0
Re1      0.750000000   0.500000000   0.441280000    0   0   0
Re1      0.500000000   0.000000000   0.443730000    0   0   0
O0       0.750000000   0.780000000   0.441690000    0   0   0
O0       0.750000000   0.220000000   0.441710000    0   0   0
O0       0.500000000   0.500000000   0.497700000    0   0   0
O0       0.500000000   0.000000000   0.515470000    0   0   0
Re1      0.750000000   0.000000000   0.575490000    0   0   0
Re1      0.500000000   0.500000000   0.567940000    0   0   0
O0       0.750000000   0.720000000   0.573870000    0   0   0
O0       0.750000000   0.280000000   0.573850000    0   0   0
O0       0.500000000   0.000000000   0.627710000    0   0   0
H2      -0.000380000   0.625740000   0.365330000    0   0   0
H2       0.499620000   0.625740000   0.365330000    0   0   0
H2       0.169870000   0.021820000   0.356820000    0   0   0
H2       0.669880000   0.021820000   0.356820000    0   0   0
O0       0.509812294   0.499539712   0.639644159
H2       0.358662031   0.499869243   0.660270314

     Check: negative starting charge=(component1):   -0.236996
     NEW-OLD atomic charge density approx. for the potential

     Check: negative/imaginary core charge=   -0.000003    0.000000
     Check: negative starting charge=(component1):   -0.236997

[...]

     energy   old            =   -2176.5433993767 Ry
     energy   new            =   -2176.5436921628 Ry

     CASE: energy  _new < energy  _old

[...]

     Threshold (ethr) on eigenvalues was too large:
     Diagonalizing with lowered threshold

     Davidson diagonalization with overlap
     ethr =  5.09E-08,  avg # of iterations =  1.0

[...]

     number of scf cycles    =  14
     number of bfgs steps    =  13

     energy   old            =   -2176.5447481226 Ry
     energy   new            =   -2176.5447890855 Ry

     CASE: energy  _new < energy  _old

     new trust radius        =       0.0091387768 bohr
     new conv_thr            =       0.0000000100 Ry

ATOMIC_POSITIONS (crystal)
O0       0.000000000   0.000000000   0.370990000    0   0   0
O0       0.000000000   0.500000000   0.382010000    0   0   0
Re1      0.250000000   0.500000000   0.441280000    0   0   0
Re1      0.000000000   0.000000000   0.443730000    0   0   0
O0       0.250000000   0.780000000   0.441680000    0   0   0
O0       0.250000000   0.220000000   0.441710000    0   0   0
O0       0.000000000   0.500000000   0.497700000    0   0   0
O0       0.000000000   0.000000000   0.515470000    0   0   0
Re1      0.250000000   0.000000000   0.575490000    0   0   0
Re1      0.000000000   0.500000000   0.567930000    0   0   0
O0       0.250000000   0.720000000   0.573870000    0   0   0
O0       0.250000000   0.280000000   0.573850000    0   0   0
O0       0.000000000   0.000000000   0.627710000    0   0   0
O0       0.500000000   0.000000000   0.370990000    0   0   0
O0       0.500000000   0.500000000   0.382010000    0   0   0
Re1      0.750000000   0.500000000   0.441280000    0   0   0
Re1      0.500000000   0.000000000   0.443730000    0   0   0
O0       0.750000000   0.780000000   0.441690000    0   0   0
O0       0.750000000   0.220000000   0.441710000    0   0   0
O0       0.500000000   0.500000000   0.497700000    0   0   0
O0       0.500000000   0.000000000   0.515470000    0   0   0
Re1      0.750000000   0.000000000   0.575490000    0   0   0
Re1      0.500000000   0.500000000   0.567940000    0   0   0
O0       0.750000000   0.720000000   0.573870000    0   0   0
O0       0.750000000   0.280000000   0.573850000    0   0   0
O0       0.500000000   0.000000000   0.627710000    0   0   0
H2      -0.000380000   0.625740000   0.365330000    0   0   0
H2       0.499620000   0.625740000   0.365330000    0   0   0
H2       0.169870000   0.021820000   0.356820000    0   0   0
H2       0.669880000   0.021820000   0.356820000    0   0   0
O0       0.527800455   0.499664770   0.639938131
H2       0.382329545   0.499570852   0.661922944

     Check: negative starting charge=(component1):   -0.237002
     NEW-OLD atomic charge density approx. for the potential

     Check: negative/imaginary core charge=   -0.000003    0.000000
     Check: negative starting charge=(component1):   -0.237004

[...]

     Self-consistent Calculation

[...]

     Threshold (ethr) on eigenvalues was too large:
     Diagonalizing with lowered threshold

     Davidson diagonalization with overlap
     ethr =  6.11E-09,  avg # of iterations =  1.0

[...]

     total energy              =   -2176.54480227 Ry
     Harris-Foulkes estimate   =   -2176.54480248 Ry
     estimated scf accuracy    <       0.00000001 Ry

[...]

     iteration # 18     ecut=    40.00 Ry     beta=0.30
     Davidson diagonalization with overlap
     ethr =  5.48E-12,  avg # of iterations =  2.0

     negative rho (up, down):  0.123E+00 0.123E+00

     End of self-consistent calculation

 ------ SPIN UP ------------

[...]

 ------ SPIN DOWN ----------

[...]

          k = 0.2500-0.3828 0.0000 ( 29202 PWs)   bands (ev):

[...]

          k =-0.2500 0.1914 0.0000 ( 29229 PWs)   bands (ev):

   -81.5163 -81.4692 -81.4241 -81.2729 -81.2324 -81.0746 -81.0489 -81.0096
   -43.6134 -43.4197 -43.4056 -43.4034 -43.3846 -43.3581 -43.3352 -43.3343
   -43.3018 -43.2453 -43.1855 -43.1848 -43.0881 -43.0504 -43.0209 -42.9994
   -42.9838 -42.9561 -42.9370 -42.9305 -42.8698 -42.7885 -42.7064 -42.5629
   -20.9177 -20.4543 -20.3921 -20.2322 -20.1120 -19.9868 -19.7603 -19.7234
   -19.6994 -19.4450 -19.4393 -19.3984 -19.2895 -19.1319 -19.0955 -18.9212
   -18.8425 -18.2427 -18.0252  -9.0383  -8.7314  -8.6941  -8.6409  -8.4267
    -8.3227  -8.2985  -8.0908  -8.0348  -7.9119  -7.7824  -7.6295  -7.4021
    -7.3444  -7.2712  -6.9702  -6.8799  -6.7410  -6.6700  -6.5117  -6.4255
    -6.3795  -6.0888  -5.9502  -5.8160  -5.7180  -5.5965  -5.5679  -5.5109
    -5.4410  -5.1318  -5.0444  -5.0086  -4.8766  -4.8089  -4.7168  -4.6649
    -4.6099  -4.5341  -4.4254  -4.3435  -4.2279  -4.0152  -3.9496  -3.8766
    -3.7175  -3.6105  -3.5622  -3.3742  -3.3224  -3.1900  -3.0801  -2.9391
    -2.7766  -2.6856  -2.5956  -2.1849  -2.0705  -1.9467  -1.8968  -1.0070
    -0.9016  -0.7864  -0.6959  -0.1392   0.0161   0.4873   0.5516   0.6103
     0.8027   0.8167   0.9697   1.1381   1.2856   1.3431   1.4668   1.6472
     1.6769   1.8778   1.9890   2.0778   2.3506   3.5963   3.6185   3.6390
     3.7327   3.8979   3.9664   4.2038   4.3944   4.5377   4.6526   4.8113
     4.9373   5.1858   5.3559   5.5695   5.7756   5.8853   6.1011   6.2316
     6.3775   6.4713   6.6573   6.9215   7.0581   7.1090   7.3434   7.5855
     7.6985   7.7710   7.9494   8.1443   8.2415   8.3007   8.4870   8.5525
     8.6137   8.7152   8.9629   9.0301   9.1111   9.3937   9.4678   9.5729
     9.6352   9.6888   9.8251   9.8954   9.9107   9.9911  10.0723  10.1594
    10.2441  10.3029  10.3627  10.4208  10.5118  10.7254  10.7576  10.8869
    10.9747  11.0986  11.1525  11.2739  11.4815  11.5562  11.6843  11.7685
    11.8146  11.9325  12.0513  12.2358  12.3279  12.4448  12.5714  12.6351
    12.6564  12.7323  12.8310  12.8833  12.9699  13.0092  13.1147  13.2535
    13.2813  13.4580  13.5210  13.6112  13.6939  13.7752  13.8427  13.8634
    13.9171  13.9666  14.0048  14.0920  14.1909  14.2354  14.3118  14.4337
    14.4954  14.5528  14.5666  14.6234  14.7193  14.7670  14.8435  14.8834
    14.9604  15.0025  15.0537  15.1063  15.1466  15.2113  15.3150  15.4833
    15.4941  15.5901  15.6869  15.7226  15.8555  15.9378  16.0962  16.1367
    16.2083  16.2620  16.3417  16.4889  16.5157  16.5789  16.6418  16.6772
    16.7679  16.8878  16.9393  16.9672  17.1231  17.2088  17.2487  17.2797
    17.3642  17.4737  17.6331  17.6715  17.7414  17.7986  17.8446  17.9420
    17.9888  18.0785  18.1369  18.1545  18.2721  18.3047  18.4156  18.4451
    18.5292  18.6064  18.6519  18.7300  18.7545  18.8976  18.9422  19.0363
    19.0748  19.2411  19.3017  19.3225  19.5018  19.5476  19.6236  19.6805
    19.7776  19.8534  19.9796  20.0264  20.1113  20.1686  20.2529  20.3190
    20.4538  20.5237  20.5851  20.6122  20.7021  20.7402  20.7759  20.8345
    20.9034  20.9673  21.0116  21.1522  21.1961  21.2313  21.2859  21.3060
    21.3904  21.4343  21.5135  21.5757  21.6541  21.7105  21.7592  21.8539
    21.9311  22.0036  22.0737  22.0945  22.2102  22.2281  22.2950  22.3804
    22.4297  22.4680  22.4861  22.5602  22.6394  22.6675  22.7027  22.7566
    22.7696  22.8488  22.9033  22.9417  23.0122  23.0532

     the Fermi energy is     0.5647 ev

!    total energy              =   -2176.54480242 Ry
     Harris-Foulkes estimate   =   -2176.54480242 Ry
     estimated scf accuracy    <          3.8E-09 Ry

     The total energy is the sum of the following terms:

     one-electron contribution =  -24265.41366042 Ry
     hartree contribution      =   12149.44763743 Ry
     xc contribution           =    -594.98761063 Ry
     ewald contribution        =   10534.41076614 Ry
     smearing contrib. (-TS)   =      -0.00193494 Ry

     total magnetization       =     0.01 Bohr mag/cell
     absolute magnetization    =     0.01 Bohr mag/cell

     convergence has been achieved in  18 iterations

     Forces acting on atoms (Ry/au):

     negative rho (up, down):  0.123E+00 0.123E+00
     atom    1 type  1   force =    -0.00435259   -0.00753394   -0.00092911
     atom    2 type  1   force =     0.00004633    0.00921295   -0.00362945
     atom    3 type  2   force =     0.01371759   -0.00590752   -0.00217034
     atom    4 type  2   force =     0.00172511    0.00880286   -0.00155738
     atom    5 type  1   force =     0.00220170    0.01618854    0.00150824
     atom    6 type  1   force =     0.00008267   -0.01767001    0.00092979
     atom    7 type  1   force =     0.00301542    0.00031349   -0.00014625
     atom    8 type  1   force =     0.00245044   -0.00194439    0.00392538
     atom    9 type  2   force =     0.00177380    0.00128440    0.01121556
     atom   10 type  2   force =    -0.00971118   -0.00043572   -0.03157055
     atom   11 type  1   force =    -0.00820942   -0.02017706   -0.01203891
     atom   12 type  1   force =    -0.00844499    0.01980031   -0.01194052
     atom   13 type  1   force =     0.00051838    0.00013656   -0.00520255
     atom   14 type  1   force =    -0.00417144   -0.00753705    0.00031704
     atom   15 type  1   force =     0.00027771    0.00961388   -0.00197180
     atom   16 type  2   force =    -0.01419232   -0.00625058   -0.00171137
     atom   17 type  2   force =     0.00168387    0.00855379   -0.00175973
     atom   18 type  1   force =     0.00186031    0.01655179    0.00132322
     atom   19 type  1   force =     0.00009989   -0.01787719    0.00110031
     atom   20 type  1   force =    -0.00200015   -0.00062533   -0.01688071
     atom   21 type  1   force =     0.00269763   -0.00153472    0.00011718
     atom   22 type  2   force =    -0.00558053    0.00170486    0.01267795
     atom   23 type  2   force =    -0.00149721   -0.00024434    0.10651824
     atom   24 type  1   force =     0.01309336   -0.01956287   -0.01780131
     atom   25 type  1   force =     0.01302502    0.01885072   -0.01787469
     atom   26 type  1   force =    -0.00043854   -0.00023953   -0.01236752
     atom   27 type  3   force =     0.00001755   -0.00188280    0.00002856
     atom   28 type  3   force =     0.00000598   -0.00203824   -0.00139655
     atom   29 type  3   force =    -0.00027420    0.00026720    0.00034113
     atom   30 type  3   force =     0.00033213    0.00024724    0.00023271
     atom   31 type  1   force =     0.00047496    0.00001112    0.00079353
     atom   32 type  3   force =    -0.00022727   -0.00007841   -0.00008010

     Total force =     0.000959     Total SCF correction =     0.000044

     bfgs converged in  15 scf cycles and  14 bfgs steps
     (criteria: energy < 0.10E-03, force < 0.10E-02)

     End of BFGS Geometry Optimization

     Final energy   =   -2176.5448024181 Ry
Begin final coordinates

ATOMIC_POSITIONS (crystal)
O0       0.000000000   0.000000000   0.370990000    0   0   0
O0       0.000000000   0.500000000   0.382010000    0   0   0
Re1      0.250000000   0.500000000   0.441280000    0   0   0
Re1      0.000000000   0.000000000   0.443730000    0   0   0
O0       0.250000000   0.780000000   0.441680000    0   0   0
O0       0.250000000   0.220000000   0.441710000    0   0   0
O0       0.000000000   0.500000000   0.497700000    0   0   0
O0       0.000000000   0.000000000   0.515470000    0   0   0
Re1      0.250000000   0.000000000   0.575490000    0   0   0
Re1      0.000000000   0.500000000   0.567930000    0   0   0
O0       0.250000000   0.720000000   0.573870000    0   0   0
O0       0.250000000   0.280000000   0.573850000    0   0   0
O0       0.000000000   0.000000000   0.627710000    0   0   0
O0       0.500000000   0.000000000   0.370990000    0   0   0
O0       0.500000000   0.500000000   0.382010000    0   0   0
Re1      0.750000000   0.500000000   0.441280000    0   0   0
Re1      0.500000000   0.000000000   0.443730000    0   0   0
O0       0.750000000   0.780000000   0.441690000    0   0   0
O0       0.750000000   0.220000000   0.441710000    0   0   0
O0       0.500000000   0.500000000   0.497700000    0   0   0
O0       0.500000000   0.000000000   0.515470000    0   0   0
Re1      0.750000000   0.000000000   0.575490000    0   0   0
Re1      0.500000000   0.500000000   0.567940000    0   0   0
O0       0.750000000   0.720000000   0.573870000    0   0   0
O0       0.750000000   0.280000000   0.573850000    0   0   0
O0       0.500000000   0.000000000   0.627710000    0   0   0
H2      -0.000380000   0.625740000   0.365330000    0   0   0
H2       0.499620000   0.625740000   0.365330000    0   0   0
H2       0.169870000   0.021820000   0.356820000    0   0   0
H2       0.669880000   0.021820000   0.356820000    0   0   0
O0       0.527800455   0.499664770   0.639938131
H2       0.382329545   0.499570852   0.661922944
End final coordinates

     General routines

     Parallel routines

   This run was terminated on:  11:32:12  26Mar2014

   JOB DONE.
Running PBS batch system epilogue script
Job id: 312963.audhumbla.fysik.dtu.dk
Username: zhonxu
Groupname: campgst
Jobname: ReO2/Eads-2-layers/OH
Sessionid: 27912
Queuename: verylong
Accounting:
This job has allocated the following 16 nodes:
c062 c062 c062 c062 c062 c062 c062 c062 c035 c035 c035 c035 c035 c035 c035 c035
Finished epilogue job 312963.audhumbla.fysik.dtu.dk for zhonxu