     Program PWSCF v.5.0.2 (svn rev. 9656) starts on 24Jan2014 at 15:16:27

     Current dimensions of program PWSCF are:
     Max number of different atomic species (ntypx) = 10
     Max number of k-points (npk) =  40000
     Max angular momentum in pseudopotentials (lmaxx) =  3
     Reading input from PtO2-v-0.95.in

     Subspace diagonalization in iterative solution of the eigenvalue problem:
     a serial algorithm will be used

     bravais-lattice index     =            0
     lattice parameter (alat)  =       8.7809  a.u.
     unit-cell volume          =     436.3207 (a.u.)^3
     number of atoms/cell      =            6
     number of atomic types    =            2
     number of electrons       =        56.00
     number of Kohn-Sham states=           84
     kinetic-energy cutoff     =      40.0000  Ry
     charge density cutoff     =     500.0000  Ry
     convergence threshold     =      1.0E-06
     mixing beta               =       0.3000
     number of iterations used =            8  plain     mixing
     Exchange-correlation      = SLA  PW   PBE  PBE ( 1 4 3 4 0)
     EXX-fraction              =        0.00
     nstep                     =           50

     celldm(1)=   8.780922  celldm(2)=   0.000000  celldm(3)=   0.000000
     celldm(4)=   0.000000  celldm(5)=   0.000000  celldm(6)=   0.000000

     crystal axes: (cart. coord. in units of alat)
               a(1) = (   1.000000   0.000000   0.000000 )
               a(2) = (   0.000000   1.000000   0.000000 )
               a(3) = (   0.000000   0.000000   0.644444 )

     reciprocal axes: (cart. coord. in units 2 pi/alat)
               b(1) = (  1.000000  0.000000  0.000000 )
               b(2) = (  0.000000  1.000000  0.000000 )
               b(3) = (  0.000000  0.000000  1.551724 )

     PseudoPot. # 1 for Pt read from file:
     /home/camp/zhonxu/pseudo/pt_pbe_v1.uspp.F.UPF
     MD5 check sum: 4c71d6ad5ef119f1eb26a4d0b7884226
     Pseudo is Ultrasoft + core correction, Zval = 16.0
     Generated by new atomic code, or converted to UPF format
     Using radial grid of  985 points,  6 beta functions with:
                l(1) =   0
                l(2) =   0
                l(3) =   1
                l(4) =   1
                l(5) =   2
                l(6) =   2
     Q(r) pseudized with  8 coefficients,  rinner =    1.300   1.300   1.300
                                                       1.300   1.300

     PseudoPot. # 2 for O  read from file:
     /home/camp/zhonxu/pseudo/o_pbe_v1.01.uspp.F.UPF
     MD5 check sum: 2bcb18d16ea4b960afae9ec6d52f22d2
     Pseudo is Ultrasoft + core correction, Zval =  6.0
     Generated by new atomic code, or converted to UPF format
     Using radial grid of  737 points,  5 beta functions with:
                l(1) =   0
                l(2) =   0
                l(3) =   1
                l(4) =   1
                l(5) =   2
     Q(r) pseudized with  8 coefficients,  rinner =    0.900   0.900   0.900
                                                       0.900   0.900

     atomic species   valence    mass     pseudopotential
        Pt0           16.00   195.08000     Pt( 1.00)
        O1             6.00    15.99940     O ( 1.00)

     Starting magnetic structure
     atomic species   magnetization
        Pt0          0.600
        O1           0.000

      8 Sym. Ops., with inversion, found
          (note:  8 additional sym.ops. were found but ignored
           their fractional translations are incommensurate with FFT grid)

   Cartesian axes

     site n.     atom                  positions (alat units)
         1           Pt0 tau(   1) = (   0.0000000   0.0000000   0.0000000  )
         2           Pt0 tau(   2) = (   0.5000000   0.5000000   0.3222222  )
         3           O1  tau(   3) = (   0.3050000   0.3050000   0.0000000  )
         4           O1  tau(   4) = (  -0.3050000  -0.3050000   0.0000000  )
         5           O1  tau(   5) = (   0.8050000   0.1950000   0.3222222  )
         6           O1  tau(   6) = (   0.1950000   0.8050000   0.3222222  )

     number of k points=    54  Methfessel-Paxton smearing, width (Ry)=  0.0100
                       cart. coord. in units 2pi/alat
        k(    1) = (   0.0000000   0.0000000   0.0000000), wk =   0.0080000
        k(    2) = (   0.0000000   0.0000000   0.3103448), wk =   0.0160000
        k(    3) = (   0.0000000   0.0000000   0.6206897), wk =   0.0160000
        k(    4) = (   0.0000000   0.2000000   0.0000000), wk =   0.0320000
        k(    5) = (   0.0000000   0.2000000   0.3103448), wk =   0.0640000
        k(    6) = (   0.0000000   0.2000000   0.6206897), wk =   0.0640000
        k(    7) = (   0.0000000   0.4000000   0.0000000), wk =   0.0320000
        k(    8) = (   0.0000000   0.4000000   0.3103448), wk =   0.0640000
        k(    9) = (   0.0000000   0.4000000   0.6206897), wk =   0.0640000
        k(   10) = (   0.2000000   0.2000000   0.0000000), wk =   0.0160000
        k(   11) = (   0.2000000   0.2000000   0.3103448), wk =   0.0320000
        k(   12) = (   0.2000000   0.2000000   0.6206897), wk =   0.0320000
        k(   13) = (   0.2000000   0.4000000   0.0000000), wk =   0.0320000
        k(   14) = (   0.2000000   0.4000000   0.3103448), wk =   0.0640000
        k(   15) = (   0.2000000   0.4000000   0.6206897), wk =   0.0640000
        k(   16) = (   0.4000000   0.4000000   0.0000000), wk =   0.0160000
        k(   17) = (   0.4000000   0.4000000   0.3103448), wk =   0.0320000
        k(   18) = (   0.4000000   0.4000000   0.6206897), wk =   0.0320000
        k(   19) = (  -0.2000000   0.2000000   0.0000000), wk =   0.0160000
        k(   20) = (  -0.2000000   0.2000000  -0.3103448), wk =   0.0320000
        k(   21) = (  -0.2000000   0.2000000  -0.6206897), wk =   0.0320000
        k(   22) = (  -0.2000000   0.4000000   0.0000000), wk =   0.0320000
        k(   23) = (  -0.2000000   0.4000000  -0.3103448), wk =   0.0640000
        k(   24) = (  -0.2000000   0.4000000  -0.6206897), wk =   0.0640000
        k(   25) = (  -0.4000000   0.4000000   0.0000000), wk =   0.0160000
        k(   26) = (  -0.4000000   0.4000000  -0.3103448), wk =   0.0320000
        k(   27) = (  -0.4000000   0.4000000  -0.6206897), wk =   0.0320000
        k(   28) = (   0.0000000   0.0000000   0.0000000), wk =   0.0080000
        k(   29) = (   0.0000000   0.0000000   0.3103448), wk =   0.0160000
        k(   30) = (   0.0000000   0.0000000   0.6206897), wk =   0.0160000
        k(   31) = (   0.0000000   0.2000000   0.0000000), wk =   0.0320000
        k(   32) = (   0.0000000   0.2000000   0.3103448), wk =   0.0640000
        k(   33) = (   0.0000000   0.2000000   0.6206897), wk =   0.0640000
        k(   34) = (   0.0000000   0.4000000   0.0000000), wk =   0.0320000
        k(   35) = (   0.0000000   0.4000000   0.3103448), wk =   0.0640000
        k(   36) = (   0.0000000   0.4000000   0.6206897), wk =   0.0640000
        k(   37) = (   0.2000000   0.2000000   0.0000000), wk =   0.0160000
        k(   38) = (   0.2000000   0.2000000   0.3103448), wk =   0.0320000
        k(   39) = (   0.2000000   0.2000000   0.6206897), wk =   0.0320000
        k(   40) = (   0.2000000   0.4000000   0.0000000), wk =   0.0320000
        k(   41) = (   0.2000000   0.4000000   0.3103448), wk =   0.0640000
        k(   42) = (   0.2000000   0.4000000   0.6206897), wk =   0.0640000
        k(   43) = (   0.4000000   0.4000000   0.0000000), wk =   0.0160000
        k(   44) = (   0.4000000   0.4000000   0.3103448), wk =   0.0320000
        k(   45) = (   0.4000000   0.4000000   0.6206897), wk =   0.0320000
        k(   46) = (  -0.2000000   0.2000000   0.0000000), wk =   0.0160000
        k(   47) = (  -0.2000000   0.2000000  -0.3103448), wk =   0.0320000
        k(   48) = (  -0.2000000   0.2000000  -0.6206897), wk =   0.0320000
        k(   49) = (  -0.2000000   0.4000000   0.0000000), wk =   0.0320000
        k(   50) = (  -0.2000000   0.4000000  -0.3103448), wk =   0.0640000
        k(   51) = (  -0.2000000   0.4000000  -0.6206897), wk =   0.0640000
        k(   52) = (  -0.4000000   0.4000000   0.0000000), wk =   0.0160000
        k(   53) = (  -0.4000000   0.4000000  -0.3103448), wk =   0.0320000
        k(   54) = (  -0.4000000   0.4000000  -0.6206897), wk =   0.0320000

     Largest allocated arrays     est. size (Mb)     dimensions
     Largest temporary arrays     est. size (Mb)     dimensions

     Check: negative/imaginary core charge=   -0.000005    0.000000

     Initial potential from superposition of free atoms
     Check: negative starting charge=(component1):   -0.306421
     Check: negative starting charge=(component2):   -0.076054

     starting charge   54.99997, renormalised to   56.00000

     negative rho (up, down):  0.312E+00 0.774E-01
     Starting wfc are   40 randomized atomic wfcs

     Self-consistent Calculation

     iteration #  1     ecut=    40.00 Ry     beta=0.30
     Davidson diagonalization with overlap
     ethr =  1.00E-02,  avg # of iterations =  6.2

     negative rho (up, down):  0.277E+00 0.109E+00

     total energy              =    -542.71279773 Ry
     Harris-Foulkes estimate   =    -544.91936207 Ry
     estimated scf accuracy    <       6.61551779 Ry

     total magnetization       =     6.88 Bohr mag/cell
     absolute magnetization    =     6.91 Bohr mag/cell

[...]

     End of self-consistent calculation

 ------ SPIN UP ------------

          k = 0.0000 0.0000 0.0000 (  1875 PWs)   bands (ev):

   -40.9819 -40.9741 -40.8832 -40.8830 -40.8094 -40.8092  -7.2283  -6.0231
    -5.0584  -5.0584   3.6873   3.8732   5.5029   5.5029   5.8755   8.7155
     8.7155   9.1384   9.5835   9.9952  10.0478  10.2195  10.2196  10.4430
    11.0945  11.0945  12.1616  12.9673  14.1297  16.8831  16.8831  17.5558
    18.3699  22.5678  22.5678  24.9915  26.0359  26.7110  28.8549  29.7034
    29.7034  30.8380  30.8441  31.3547  31.3746  33.7066  34.4688  34.4688
    35.8048  35.8049  37.4017  39.4286  39.5862  39.7238  39.7238  41.2169
    41.5785  42.1655  42.5165  44.0357  44.2250  44.2250  44.4684  44.4684
    45.3021  45.3022  45.6937  47.8356  49.1925  50.9448  50.9448  50.9599
    52.1272  52.1680  52.1680  53.2848  53.3591  53.3591  53.5599  53.8075
    54.6267  54.6407  54.8316  59.5021

[...]

          k =-0.2000 0.2000 0.0000 (  1865 PWs)   bands (ev):

[...]

 ------ SPIN DOWN ----------

[...]

     the Fermi energy is    13.7522 ev

!    total energy              =    -544.90595575 Ry
     Harris-Foulkes estimate   =    -544.90595477 Ry
     estimated scf accuracy    <       0.00000015 Ry

     The total energy is the sum of the following terms:

     one-electron contribution =    -132.52052269 Ry
     hartree contribution      =     104.99797477 Ry
     xc contribution           =    -137.50818660 Ry
     ewald contribution        =    -379.87532203 Ry
     smearing contrib. (-TS)   =       0.00010081 Ry

[...]

     convergence has been achieved in  12 iterations

     Forces acting on atoms (Ry/au):

     negative rho (up, down):  0.197E+00 0.197E+00
     atom    1 type  1   force =     0.00000000    0.00000000    0.00000000
[...]
        k(   14) = (   0.2063962   0.4127924   0.2914078), wk =   0.0640000
        k(   15) = (   0.2063962   0.4127924   0.5828156), wk =   0.0640000
        k(   16) = (   0.4127923   0.4127923   0.0000000), wk =   0.0160000
        k(   17) = (   0.4127923   0.4127923   0.2914078), wk =   0.0320000
        k(   18) = (   0.4127923   0.4127923   0.5828156), wk =   0.0320000
        k(   19) = (  -0.2063962   0.2063962   0.0000000), wk =   0.0160000
        k(   20) = (  -0.2063962   0.2063962  -0.2914078), wk =   0.0320000
        k(   21) = (  -0.2063962   0.2063962  -0.5828156), wk =   0.0320000
        k(   22) = (  -0.2063962   0.4127924   0.0000000), wk =   0.0320000
        k(   23) = (  -0.2063962   0.4127924  -0.2914078), wk =   0.0640000
        k(   24) = (  -0.2063962   0.4127924  -0.5828156), wk =   0.0640000
        k(   25) = (  -0.4127924   0.4127924   0.0000000), wk =   0.0160000
        k(   26) = (  -0.4127924   0.4127924  -0.2914078), wk =   0.0320000
        k(   27) = (  -0.4127924   0.4127924  -0.5828156), wk =   0.0320000
        k(   28) = (   0.0000000   0.0000000   0.0000000), wk =   0.0080000
        k(   29) = (   0.0000000   0.0000000   0.2914078), wk =   0.0160000
        k(   30) = (   0.0000000   0.0000000   0.5828156), wk =   0.0160000
        k(   31) = (  -0.0000000   0.2063962   0.0000000), wk =   0.0320000
        k(   32) = (  -0.0000000   0.2063962   0.2914078), wk =   0.0640000
        k(   33) = (  -0.0000000   0.2063962   0.5828156), wk =   0.0640000
        k(   34) = (  -0.0000000   0.4127924   0.0000000), wk =   0.0320000
        k(   35) = (  -0.0000000   0.4127924   0.2914078), wk =   0.0640000
        k(   36) = (  -0.0000000   0.4127924   0.5828156), wk =   0.0640000
        k(   37) = (   0.2063962   0.2063962   0.0000000), wk =   0.0160000
        k(   38) = (   0.2063962   0.2063962   0.2914078), wk =   0.0320000
        k(   39) = (   0.2063962   0.2063962   0.5828156), wk =   0.0320000
        k(   40) = (   0.2063962   0.4127924   0.0000000), wk =   0.0320000
        k(   41) = (   0.2063962   0.4127924   0.2914078), wk =   0.0640000
        k(   42) = (   0.2063962   0.4127924   0.5828156), wk =   0.0640000
        k(   43) = (   0.4127923   0.4127923   0.0000000), wk =   0.0160000
        k(   44) = (   0.4127923   0.4127923   0.2914078), wk =   0.0320000
        k(   45) = (   0.4127923   0.4127923   0.5828156), wk =   0.0320000
        k(   46) = (  -0.2063962   0.2063962   0.0000000), wk =   0.0160000
        k(   47) = (  -0.2063962   0.2063962  -0.2914078), wk =   0.0320000
        k(   48) = (  -0.2063962   0.2063962  -0.5828156), wk =   0.0320000
        k(   49) = (  -0.2063962   0.4127924   0.0000000), wk =   0.0320000
        k(   50) = (  -0.2063962   0.4127924  -0.2914078), wk =   0.0640000
        k(   51) = (  -0.2063962   0.4127924  -0.5828156), wk =   0.0640000
        k(   52) = (  -0.4127924   0.4127924   0.0000000), wk =   0.0160000
        k(   53) = (  -0.4127924   0.4127924  -0.2914078), wk =   0.0320000
        k(   54) = (  -0.4127924   0.4127924  -0.5828156), wk =   0.0320000

     Check: negative/imaginary core charge=   -0.000005    0.000000
     Check: negative starting charge=(component1):   -0.381513

[...]

     Threshold (ethr) on eigenvalues was too large:
     Diagonalizing with lowered threshold

     Davidson diagonalization with overlap
     ethr =  3.05E-09,  avg # of iterations =  2.0

[...]

     Total force =     0.000055     Total SCF correction =     0.000140
     SCF correction compared to forces is large: reduce conv_thr to get better values

[...]

     Volume is kept fixed: isostatic pressure set to zero

     bfgs converged in   6 scf cycles and   5 bfgs steps
     (criteria: energy < 0.10E-03, force < 0.10E-02, cell < 0.50E+00)

     End of BFGS Geometry Optimization

     Final enthalpy =    -544.9288884668 Ry
Begin final coordinates
     new unit-cell volume =    436.32066 a.u.^3 (    64.65605 Ang^3 )

CELL_PARAMETERS (alat=  8.78092155)
   0.969010163   0.000000055   0.000000000
   0.000000055   0.969010163   0.000000000
   0.000000000   0.000000000   0.686323423

ATOMIC_POSITIONS (crystal)
Pt0      0.000000000   0.000000000   0.000000000    0   0   0
Pt0      0.500000000   0.500000000   0.500000000    0   0   0
O1       0.309158902   0.309158902   0.000000000    1   1   0
O1      -0.309158902  -0.309158902   0.000000000    1   1   0
O1       0.809159047   0.190840953   0.500000000    1   1   0
O1       0.190840953   0.809159047   0.500000000    1   1   0
End final coordinates

     A final scf calculation at the relaxed structure.
     The G-vectors are recalculated for the final unit cell
     Results may differ from those at the preceding step.

     bravais-lattice index     =            0
     lattice parameter (alat)  =       8.7809  a.u.
     unit-cell volume          =     436.3207 (a.u.)^3
     number of atoms/cell      =            6
     number of atomic types    =            2
     number of electrons       =        56.00
     number of Kohn-Sham states=           84
     kinetic-energy cutoff     =      40.0000  Ry
     charge density cutoff     =     500.0000  Ry
     convergence threshold     =      1.0E-08
     mixing beta               =       0.3000
     number of iterations used =            8  plain     mixing
     Exchange-correlation      = SLA  PW   PBE  PBE ( 1 4 3 4 0)
     EXX-fraction              =        0.00

     celldm(1)=   8.780922  celldm(2)=   0.000000  celldm(3)=   0.000000
     celldm(4)=   0.000000  celldm(5)=   0.000000  celldm(6)=   0.000000

     crystal axes: (cart. coord. in units of alat)
               a(1) = (   0.969010   0.000000   0.000000 )
               a(2) = (   0.000000   0.969010   0.000000 )
               a(3) = (   0.000000   0.000000   0.686323 )

     reciprocal axes: (cart. coord. in units 2 pi/alat)
               b(1) = (  1.031981 -0.000000  0.000000 )
               b(2) = ( -0.000000  1.031981  0.000000 )
               b(3) = (  0.000000  0.000000  1.457039 )

     PseudoPot. # 1 for Pt read from file:
     /home/camp/zhonxu/pseudo/pt_pbe_v1.uspp.F.UPF
     MD5 check sum: 4c71d6ad5ef119f1eb26a4d0b7884226
     Pseudo is Ultrasoft + core correction, Zval = 16.0
     Generated by new atomic code, or converted to UPF format
     Using radial grid of  985 points,  6 beta functions with:
                l(1) =   0
                l(2) =   0
                l(3) =   1
                l(4) =   1
                l(5) =   2
                l(6) =   2
     Q(r) pseudized with  8 coefficients,  rinner =    1.300   1.300   1.300
                                                       1.300   1.300

     PseudoPot. # 2 for O  read from file:
     /home/camp/zhonxu/pseudo/o_pbe_v1.01.uspp.F.UPF
     MD5 check sum: 2bcb18d16ea4b960afae9ec6d52f22d2
     Pseudo is Ultrasoft + core correction, Zval =  6.0
     Generated by new atomic code, or converted to UPF format
     Using radial grid of  737 points,  5 beta functions with:
                l(1) =   0
                l(2) =   0
                l(3) =   1
                l(4) =   1
                l(5) =   2
     Q(r) pseudized with  8 coefficients,  rinner =    0.900   0.900   0.900
                                                       0.900   0.900

     atomic species   valence    mass     pseudopotential
        Pt0           16.00   195.08000     Pt( 1.00)
        O1             6.00    15.99940     O ( 1.00)

     Starting magnetic structure
     atomic species   magnetization
        Pt0          0.600
        O1           0.000

      8 Sym. Ops., with inversion, found
          (note:  8 additional sym.ops. were found but ignored
           their fractional translations are incommensurate with FFT grid)

   Cartesian axes

     site n.     atom                  positions (alat units)
         1           Pt0 tau(   1) = (   0.0000000   0.0000000   0.0000000  )
         2           Pt0 tau(   2) = (   0.4845051   0.4845051   0.3431617  )
         3           O1  tau(   3) = (   0.2995781   0.2995781   0.0000000  )
         4           O1  tau(   4) = (  -0.2995781  -0.2995781   0.0000000  )
         5           O1  tau(   5) = (   0.7840834   0.1849269   0.3431617  )
         6           O1  tau(   6) = (   0.1849269   0.7840834   0.3431617  )

     number of k points=    54  Methfessel-Paxton smearing, width (Ry)=  0.0100
                       cart. coord. in units 2pi/alat
        k(    1) = (   0.0000000   0.0000000   0.0000000), wk =   0.0080000
        k(    2) = (   0.0000000   0.0000000   0.2914078), wk =   0.0160000
        k(    3) = (   0.0000000   0.0000000   0.5828156), wk =   0.0160000
        k(    4) = (  -0.0000000   0.2063962   0.0000000), wk =   0.0320000
        k(    5) = (  -0.0000000   0.2063962   0.2914078), wk =   0.0640000
        k(    6) = (  -0.0000000   0.2063962   0.5828156), wk =   0.0640000
        k(    7) = (  -0.0000000   0.4127924   0.0000000), wk =   0.0320000
        k(    8) = (  -0.0000000   0.4127924   0.2914078), wk =   0.0640000
        k(    9) = (  -0.0000000   0.4127924   0.5828156), wk =   0.0640000
        k(   10) = (   0.2063962   0.2063962   0.0000000), wk =   0.0160000
        k(   11) = (   0.2063962   0.2063962   0.2914078), wk =   0.0320000
        k(   12) = (   0.2063962   0.2063962   0.5828156), wk =   0.0320000
        k(   13) = (   0.2063962   0.4127924   0.0000000), wk =   0.0320000
        k(   14) = (   0.2063962   0.4127924   0.2914078), wk =   0.0640000
        k(   15) = (   0.2063962   0.4127924   0.5828156), wk =   0.0640000
        k(   16) = (   0.4127923   0.4127923   0.0000000), wk =   0.0160000
        k(   17) = (   0.4127923   0.4127923   0.2914078), wk =   0.0320000
        k(   18) = (   0.4127923   0.4127923   0.5828156), wk =   0.0320000
        k(   19) = (  -0.2063962   0.2063962   0.0000000), wk =   0.0160000
        k(   20) = (  -0.2063962   0.2063962  -0.2914078), wk =   0.0320000
        k(   21) = (  -0.2063962   0.2063962  -0.5828156), wk =   0.0320000
        k(   22) = (  -0.2063962   0.4127924   0.0000000), wk =   0.0320000
        k(   23) = (  -0.2063962   0.4127924  -0.2914078), wk =   0.0640000
        k(   24) = (  -0.2063962   0.4127924  -0.5828156), wk =   0.0640000
        k(   25) = (  -0.4127924   0.4127924   0.0000000), wk =   0.0160000
        k(   26) = (  -0.4127924   0.4127924  -0.2914078), wk =   0.0320000
        k(   27) = (  -0.4127924   0.4127924  -0.5828156), wk =   0.0320000
        k(   28) = (   0.0000000   0.0000000   0.0000000), wk =   0.0080000
        k(   29) = (   0.0000000   0.0000000   0.2914078), wk =   0.0160000
        k(   30) = (   0.0000000   0.0000000   0.5828156), wk =   0.0160000
        k(   31) = (  -0.0000000   0.2063962   0.0000000), wk =   0.0320000
        k(   32) = (  -0.0000000   0.2063962   0.2914078), wk =   0.0640000
        k(   33) = (  -0.0000000   0.2063962   0.5828156), wk =   0.0640000
        k(   34) = (  -0.0000000   0.4127924   0.0000000), wk =   0.0320000
        k(   35) = (  -0.0000000   0.4127924   0.2914078), wk =   0.0640000
        k(   36) = (  -0.0000000   0.4127924   0.5828156), wk =   0.0640000
        k(   37) = (   0.2063962   0.2063962   0.0000000), wk =   0.0160000
        k(   38) = (   0.2063962   0.2063962   0.2914078), wk =   0.0320000
        k(   39) = (   0.2063962   0.2063962   0.5828156), wk =   0.0320000
        k(   40) = (   0.2063962   0.4127924   0.0000000), wk =   0.0320000
        k(   41) = (   0.2063962   0.4127924   0.2914078), wk =   0.0640000
        k(   42) = (   0.2063962   0.4127924   0.5828156), wk =   0.0640000
        k(   43) = (   0.4127923   0.4127923   0.0000000), wk =   0.0160000
        k(   44) = (   0.4127923   0.4127923   0.2914078), wk =   0.0320000
        k(   45) = (   0.4127923   0.4127923   0.5828156), wk =   0.0320000
        k(   46) = (  -0.2063962   0.2063962   0.0000000), wk =   0.0160000
        k(   47) = (  -0.2063962   0.2063962  -0.2914078), wk =   0.0320000
        k(   48) = (  -0.2063962   0.2063962  -0.5828156), wk =   0.0320000
        k(   49) = (  -0.2063962   0.4127924   0.0000000), wk =   0.0320000
        k(   50) = (  -0.2063962   0.4127924  -0.2914078), wk =   0.0640000
        k(   51) = (  -0.2063962   0.4127924  -0.5828156), wk =   0.0640000
        k(   52) = (  -0.4127924   0.4127924   0.0000000), wk =   0.0160000
        k(   53) = (  -0.4127924   0.4127924  -0.2914078), wk =   0.0320000
        k(   54) = (  -0.4127924   0.4127924  -0.5828156), wk =   0.0320000

     Largest allocated arrays     est. size (Mb)     dimensions
     Largest temporary arrays     est. size (Mb)     dimensions

     Check: negative/imaginary core charge=   -0.000005    0.000000

     Initial potential from superposition of free atoms
     Check: negative starting charge=(component1):   -0.305670
     Check: negative starting charge=(component2):   -0.075849

     starting charge   54.99997, renormalised to   56.00000

     negative rho (up, down):  0.311E+00 0.772E-01
     Starting wfc are   40 randomized atomic wfcs

     Self-consistent Calculation

[...]

     total energy              =    -544.92961556 Ry
     Harris-Foulkes estimate   =    -544.92961556 Ry
     estimated scf accuracy    <       0.00000002 Ry

[...]

     iteration # 17     ecut=    40.00 Ry     beta=0.30
     Davidson diagonalization with overlap
     ethr =  3.65E-11,  avg # of iterations =  2.0

     negative rho (up, down):  0.196E+00 0.196E+00

     End of self-consistent calculation

 ------ SPIN UP ------------

[...]

 ------ SPIN DOWN ----------

[...]

          k = 0.4128 0.4128 0.5828 (  1860 PWs)   bands (ev):

[...]

          k =-0.4128 0.4128-0.5828 (  1860 PWs)   bands (ev):

   -41.0072 -41.0070 -40.7858 -40.7857 -40.6698 -40.6698  -5.7966  -5.7475
    -5.4651  -5.4628   5.2139   5.2604   5.7430   5.8783   6.3330   6.7406
     7.9720   8.0732   8.9157   9.1183  10.0901  10.5657  10.5689  10.7172
    11.5992  12.3849  12.4509  13.0803  14.3064  14.9206  15.9189  16.4953
    22.6581  23.0515  23.5786  23.6396  25.2367  25.6926  26.8304  27.4161
    30.4014  30.4543  31.4094  31.4215  32.4844  33.0172  33.9680  34.9587
    35.3975  35.7017  35.8314  37.1941  39.4524  39.8840  40.5122  40.6256
    41.6573  42.3157  43.8458  44.9849  45.1526  45.4045  45.9543  46.3617
    46.9984  47.0966  48.0792  48.4641  48.9655  49.8454  50.0234  50.4715
    51.0058  51.4875  51.7234  52.5198  53.1746  53.8044  53.9862  54.2999
    55.8795  56.0046  56.7004  57.2071

     the Fermi energy is    13.6365 ev

!    total energy              =    -544.92961566 Ry
     Harris-Foulkes estimate   =    -544.92961563 Ry
     estimated scf accuracy    <          7.0E-09 Ry

     The total energy is the sum of the following terms:

     one-electron contribution =    -126.27890488 Ry
     hartree contribution      =     101.95616440 Ry
     xc contribution           =    -137.40986206 Ry
     ewald contribution        =    -383.19687092 Ry
     smearing contrib. (-TS)   =      -0.00014220 Ry

     total magnetization       =     0.00 Bohr mag/cell
     absolute magnetization    =     0.00 Bohr mag/cell

     convergence has been achieved in  17 iterations

     Forces acting on atoms (Ry/au):

     negative rho (up, down):  0.196E+00 0.196E+00
     atom    1 type  1   force =     0.00000000    0.00000000    0.00000000
     atom    2 type  1   force =     0.00000000    0.00000000    0.00000000
     atom    3 type  2   force =    -0.00000795   -0.00000795   -0.00000000
     atom    4 type  2   force =     0.00000795    0.00000795   -0.00000000
     atom    5 type  2   force =    -0.00000911    0.00000911   -0.00000000
     atom    6 type  2   force =     0.00000911   -0.00000911   -0.00000000

     Total force =     0.000024     Total SCF correction =     0.000010
     SCF correction compared to forces is large: reduce conv_thr to get better values

     entering subroutine stress ...

     negative rho (up, down):  0.196E+00 0.196E+00
          total   stress  (Ry/bohr**3)                   (kbar)     P=   93.84
   0.00062253  -0.00000002   0.00000000         91.58     -0.00      0.00
  -0.00000002   0.00062253   0.00000000         -0.00     91.58      0.00
   0.00000000   0.00000000   0.00066868          0.00      0.00     98.37

     General routines

     Parallel routines

   This run was terminated on:  15:57:21  24Jan2014

   JOB DONE.
Running PBS batch system epilogue script
Job id: 251904.audhumbla.fysik.dtu.dk
Username: zhonxu
Groupname: campgst
Jobname: PtO2/fine-EOS/ferro/PtO2-v-0.95
Sessionid: 2684
Queuename: verylong
Accounting:
This job has allocated the following 4 nodes:
q006 q006 q006 q006
Finished epilogue job 251904.audhumbla.fysik.dtu.dk for zhonxu