     Program PWSCF v.5.0.2 (svn rev. 9656) starts on 27Apr2014 at  0: 7:45

     Current dimensions of program PWSCF are:
     Max number of different atomic species (ntypx) = 10
     Max number of k-points (npk) =  40000
     Max angular momentum in pseudopotentials (lmaxx) =  3
     Reading input from pwscf.in
Warning: card &CELL ignored
Warning: card / ignored

     Subspace diagonalization in iterative solution of the eigenvalue problem:
     a serial algorithm will be used

     bravais-lattice index     =            0
     lattice parameter (alat)  =      10.7336  a.u.
     unit-cell volume          =    8441.1435 (a.u.)^3
     number of atoms/cell      =           50
     number of atomic types    =            3
     number of electrons       =       439.00 (up: 243.00, down: 196.00)
     number of Kohn-Sham states=          634
     kinetic-energy cutoff     =      40.0000  Ry
     charge density cutoff     =     500.0000  Ry
     convergence threshold     =      1.0E-06
     mixing beta               =       0.3000
     number of iterations used =            8  plain     mixing
     Exchange-correlation      = SLA  PW   PBE  PBE ( 1 4 3 4 0)
     EXX-fraction              =        0.00
     nstep                     =           50

     celldm(1)=  10.733644  celldm(2)=   0.000000  celldm(3)=   0.000000
     celldm(4)=   0.000000  celldm(5)=   0.000000  celldm(6)=   0.000000

     crystal axes: (cart. coord. in units of alat)
               a(1) = (   1.000000   0.000000   0.000000 )
               a(2) = (   0.000000   1.085558   0.000000 )
               a(3) = (   0.000000   0.000000   6.287913 )

     reciprocal axes: (cart. coord. in units 2 pi/alat)
               b(1) = (  1.000000  0.000000  0.000000 )
               b(2) = (  0.000000  0.921185  0.000000 )
               b(3) = (  0.000000  0.000000  0.159035 )

     PseudoPot. # 1 for O  read from file:
     /home/camp/zhonxu/pseudo/o_pbe_v1.01.uspp.F.UPF
     MD5 check sum: 2bcb18d16ea4b960afae9ec6d52f22d2
     Pseudo is Ultrasoft + core correction, Zval =  6.0
     Generated by new atomic code, or converted to UPF format
     Using radial grid of  737 points,  5 beta functions with:
                l(1) =   0
                l(2) =   0
                l(3) =   1
                l(4) =   1
                l(5) =   2
     Q(r) pseudized with  8 coefficients,  rinner =    0.900   0.900   0.900
                                                       0.900   0.900

     PseudoPot. # 2 for Mn read from file:
     /home/camp/zhonxu/pseudo/mn_pbe_v1.uspp.F.UPF
     MD5 check sum: 5fd7c7b5c956fd19902447332617373a
     Pseudo is Ultrasoft + core correction, Zval = 15.0
     Generated by new atomic code, or converted to UPF format
     Using radial grid of  859 points,  6 beta functions with:
                l(1) =   0
                l(2) =   0
                l(3) =   1
                l(4) =   1
                l(5) =   2
                l(6) =   2
     Q(r) pseudized with  6 coefficients,  rinner =    1.150   1.150   1.150
                                                       1.150   1.150

     PseudoPot. # 3 for H  read from file:
     /home/camp/zhonxu/pseudo/h_pbe_v1.uspp.F.UPF
     MD5 check sum: 3408e3ff4ec8b0a4e358431e7e038a48
     Pseudo is Ultrasoft, Zval =  1.0
     Generated by new atomic code, or converted to UPF format
     Using radial grid of  615 points,  2 beta functions with:
                l(1) =   0
                l(2) =   0
     Q(r) pseudized with  8 coefficients,  rinner =    0.700

     atomic species   valence    mass     pseudopotential
        O0             6.00    15.99940     O ( 1.00)
        Mn1           15.00    54.93800     Mn( 1.00)
        H2             1.00     1.00794     H ( 1.00)

     Starting magnetic structure
     atomic species   magnetization
        O0           0.000
        Mn1          0.600
        H2           0.000

      2 Sym. Ops. (no inversion) found

   Cartesian axes

     site n.     atom                  positions (alat units)
         1           O0  tau(   1) = (   0.0000000   0.5427791   2.1126758  )
         2           Mn1 tau(   2) = (   0.2500000   0.5427791   2.3297975  )
         3           Mn1 tau(   3) = (   0.0000000   0.0000000   2.3297975  )
         4           O0  tau(   4) = (   0.2500000   0.8684466   2.3297975  )
         5           O0  tau(   5) = (   0.2500000   0.2171117   2.3297975  )
         6           O0  tau(   6) = (   0.0000000   0.5427791   2.5469191  )
         7           O0  tau(   7) = (   0.0000000   0.0000000   2.6554485  )
         8           Mn1 tau(   8) = (   0.2500000   0.0000000   2.8725701  )
         9           Mn1 tau(   9) = (   0.0000000   0.5427791   2.8725701  )
        10           O0  tau(  10) = (   0.2500000   0.7598908   2.8725701  )
        11           O0  tau(  11) = (   0.2500000   0.3256675   2.8725701  )
        12           O0  tau(  12) = (   0.0000000   0.0000000   3.0896918  )
        13           O0  tau(  13) = (   0.0000100   0.5427791   3.2136894  )
        14           Mn1 tau(  14) = (   0.2556200   0.5427791   3.4288618  )
        15           Mn1 tau(  15) = (   0.0002500   0.0000000   3.4372247  )
        16           O0  tau(  16) = (   0.2505400   0.8730168   3.4292390  )
        17           O0  tau(  17) = (   0.2505400   0.2125415   3.4292390  )
        18           O0  tau(  18) = (   0.0009700   0.5427791   3.6446001  )
        19           O0  tau(  19) = (   0.0015300   0.0000000   3.7696666  )
        20           Mn1 tau(  20) = (   0.2502500   0.0000000   4.0011247  )
        21           Mn1 tau(  21) = (  -0.0012700   0.5427791   3.9574866  )
        22           O0  tau(  22) = (   0.2416900   0.7512389   4.0151468  )
        23           O0  tau(  23) = (   0.2416900   0.3343194   4.0151468  )
        24           O0  tau(  24) = (   0.0001400   0.0000000   4.2017091  )
        25           O0  tau(  25) = (   0.5000000   0.5427791   2.1126758  )
        26           Mn1 tau(  26) = (   0.7500000   0.5427791   2.3297975  )
        27           Mn1 tau(  27) = (   0.5000000   0.0000000   2.3297975  )
        28           O0  tau(  28) = (   0.7500000   0.8684466   2.3297975  )
        29           O0  tau(  29) = (   0.7500000   0.2171117   2.3297975  )
        30           O0  tau(  30) = (   0.5000000   0.5427791   2.5469191  )
        31           O0  tau(  31) = (   0.5000000   0.0000000   2.6554485  )
        32           Mn1 tau(  32) = (   0.7500000   0.0000000   2.8725701  )
        33           Mn1 tau(  33) = (   0.5000000   0.5427791   2.8725701  )
        34           O0  tau(  34) = (   0.7500000   0.7598908   2.8725701  )
        35           O0  tau(  35) = (   0.7500000   0.3256675   2.8725701  )
        36           O0  tau(  36) = (   0.5000000   0.0000000   3.0896918  )
        37           O0  tau(  37) = (   0.5004600   0.5427791   3.2124947  )
        38           Mn1 tau(  38) = (   0.7450100   0.5427791   3.4293648  )
        39           Mn1 tau(  39) = (   0.5001000   0.0000000   3.4392368  )
        40           O0  tau(  40) = (   0.7499100   0.8729951   3.4303709  )
        41           O0  tau(  41) = (   0.7499100   0.2125632   3.4303709  )
        42           O0  tau(  42) = (   0.4996200   0.5427791   3.6503221  )
        43           O0  tau(  43) = (   0.5000500   0.0000000   3.7706098  )
        44           Mn1 tau(  44) = (   0.7521100   0.0000000   4.0011876  )
        45           Mn1 tau(  45) = (   0.4994800   0.5427791   4.0233211  )
        46           O0  tau(  46) = (   0.7571300   0.7522810   4.0074755  )
        47           O0  tau(  47) = (   0.7571300   0.3332773   4.0074755  )
        48           O0  tau(  48) = (   0.5010500   0.0000000   4.1991311  )
        49           O0  tau(  49) = (   0.5121600   0.5427791   4.3400432  )
        50           H2  tau(  50) = (   0.3531800   0.5427791   4.4088330  )

     number of k points=    18  Methfessel-Paxton smearing, width (Ry)=  0.0100
                       cart. coord. in units 2pi/alat
        k(    1) = (   0.0000000   0.0000000   0.0000000), wk =   0.0625000
        k(    2) = (   0.0000000   0.2302962   0.0000000), wk =   0.1250000
        k(    3) = (   0.0000000  -0.4605925   0.0000000), wk =   0.0625000
        k(    4) = (   0.2500000   0.0000000   0.0000000), wk =   0.1250000
        k(    5) = (   0.2500000   0.2302962   0.0000000), wk =   0.2500000
        k(    6) = (   0.2500000  -0.4605925   0.0000000), wk =   0.1250000
        k(    7) = (  -0.5000000   0.0000000   0.0000000), wk =   0.0625000
        k(    8) = (  -0.5000000   0.2302962   0.0000000), wk =   0.1250000
        k(    9) = (  -0.5000000  -0.4605925   0.0000000), wk =   0.0625000
        k(   10) = (   0.0000000   0.0000000   0.0000000), wk =   0.0625000
        k(   11) = (   0.0000000   0.2302962   0.0000000), wk =   0.1250000
        k(   12) = (   0.0000000  -0.4605925   0.0000000), wk =   0.0625000
        k(   13) = (   0.2500000   0.0000000   0.0000000), wk =   0.1250000
        k(   14) = (   0.2500000   0.2302962   0.0000000), wk =   0.2500000
        k(   15) = (   0.2500000  -0.4605925   0.0000000), wk =   0.1250000
        k(   16) = (  -0.5000000   0.0000000   0.0000000), wk =   0.0625000
        k(   17) = (  -0.5000000   0.2302962   0.0000000), wk =   0.1250000
        k(   18) = (  -0.5000000  -0.4605925   0.0000000), wk =   0.0625000

     Largest allocated arrays     est. size (Mb)     dimensions
     Largest temporary arrays     est. size (Mb)     dimensions

     Check: negative/imaginary core charge=   -0.000028    0.000000

     Initial potential from superposition of free atoms
     Check: negative starting charge=(component1):   -0.000979
     Check: negative starting charge=(component2):   -0.000306

     starting charge  422.99981, renormalised to  439.00000

     negative rho (up, down):  0.102E-02 0.317E-03
     Starting wfc are  341 randomized atomic wfcs

     Self-consistent Calculation

     iteration #  1     ecut=    40.00 Ry     beta=0.30
     Davidson diagonalization with overlap
     ethr =  1.00E-02,  avg # of iterations =  5.5

     negative rho (up, down):  0.988E-03 0.683E-03

     total energy              =   -4410.26810928 Ry
     Harris-Foulkes estimate   =   -4468.76179584 Ry
     estimated scf accuracy    <     139.66387978 Ry

     total magnetization       =    47.00 Bohr mag/cell
     absolute magnetization    =    60.83 Bohr mag/cell

[...]

     End of self-consistent calculation

 ------ SPIN UP ------------

          k = 0.0000 0.0000 0.0000 ( 36065 PWs)   bands (ev):

   -82.5367 -82.5269 -82.5253 -82.4997 -82.4893 -82.4787 -82.4768 -82.4572
   -82.4299 -82.4249 -82.4196 -82.3273 -82.1559 -82.1454 -82.1449 -82.1348
   -51.3726 -51.3533 -51.3267 -51.3155 -51.2644 -51.2501 -51.2380 -51.2308
   -51.2140 -51.1913 -51.1897 -51.1853 -51.1843 -51.1738 -51.1635 -51.1622
   -51.1577 -51.1424 -51.1317 -51.1261 -51.1210 -51.1094 -51.1061 -51.0971
   -51.0891 -51.0820 -51.0817 -51.0676 -51.0627 -51.0587 -51.0423 -51.0351
   -51.0332 -51.0116 -50.9643 -50.9224 -50.8841 -50.8734 -50.8654 -50.8624
[...]
Mn1      0.000000000   0.500000000   0.456840000    0   0   0
O0       0.250000000   0.700000000   0.456840000    0   0   0
O0       0.250000000   0.300000000   0.456840000    0   0   0
O0       0.000000000   0.000000000   0.491370000    0   0   0
O0       0.000024134   0.500000000   0.511044724
Mn1      0.255642143   0.500000000   0.545351703
Mn1      0.000267593   0.000000000   0.546614937
O0       0.250597976   0.804229997   0.545366380
O0       0.250597976   0.195770003   0.545366380
O0       0.000853900   0.500000000   0.579619399
O0       0.001388471   0.000000000   0.599546538
Mn1      0.250132027   0.000000000   0.636311366
Mn1     -0.001255881   0.500000000   0.629414804
O0       0.242001204   0.692071594   0.638579054
O0       0.242001204   0.307928406   0.638579054
O0      -0.000084109   0.000000000   0.668192017
O0       0.500000000   0.500000000   0.335990000    0   0   0
Mn1      0.750000000   0.500000000   0.370520000    0   0   0
Mn1      0.500000000   0.000000000   0.370520000    0   0   0
O0       0.750000000   0.800000000   0.370520000    0   0   0
O0       0.750000000   0.200000000   0.370520000    0   0   0
O0       0.500000000   0.500000000   0.405050000    0   0   0
O0       0.500000000   0.000000000   0.422310000    0   0   0
Mn1      0.750000000   0.000000000   0.456840000    0   0   0
Mn1      0.500000000   0.500000000   0.456840000    0   0   0
O0       0.750000000   0.700000000   0.456840000    0   0   0
O0       0.750000000   0.300000000   0.456840000    0   0   0
O0       0.500000000   0.000000000   0.491370000    0   0   0
O0       0.500427380   0.500000000   0.510933822
Mn1      0.744926866   0.500000000   0.545408974
Mn1      0.500127665   0.000000000   0.547019516
O0       0.749880446   0.804211949   0.545538346
O0       0.749880446   0.195788051   0.545538346
O0       0.499558271   0.500000000   0.580566774
O0       0.499990520   0.000000000   0.599662271
Mn1      0.751832066   0.000000000   0.636353615
Mn1      0.499509516   0.500000000   0.639904869
O0       0.756870073   0.693044719   0.637338080
O0       0.756870073   0.306955281   0.637338080
O0       0.500888622   0.000000000   0.667844650
O0       0.512470415   0.500000000   0.690196453
H2       0.353621188   0.500000000   0.701190154

     Check: negative starting charge=(component1):   -0.001248
     NEW-OLD atomic charge density approx. for the potential

     Check: negative/imaginary core charge=   -0.000028    0.000000
     Check: negative starting charge=(component1):   -0.001248

[...]

     Self-consistent Calculation

[...]

     Threshold (ethr) on eigenvalues was too large:
     Diagonalizing with lowered threshold

     Davidson diagonalization with overlap
     ethr =  1.85E-08,  avg # of iterations =  1.4

[...]

     total energy              =   -4472.78102879 Ry
     Harris-Foulkes estimate   =   -4472.78102880 Ry
     estimated scf accuracy    <       0.00000002 Ry

[...]

     iteration # 11     ecut=    40.00 Ry     beta=0.30
     Davidson diagonalization with overlap
     ethr =  4.04E-12,  avg # of iterations =  1.0

     negative rho (up, down):  0.318E-02 0.168E-02

     End of self-consistent calculation

 ------ SPIN UP ------------

[...]

 ------ SPIN DOWN ----------

[...]

          k = 0.2500-0.4606 0.0000 ( 36102 PWs)   bands (ev):

[...]

          k =-0.5000-0.4606 0.0000 ( 36040 PWs)   bands (ev):

   -79.2089 -79.1870 -79.1811 -79.1788 -79.1753 -79.1608 -79.1501 -79.1363
   -79.0998 -79.0770 -79.0769 -79.0623 -79.0615 -78.9981 -78.8570 -78.8486
   -48.0934 -48.0911 -48.0817 -48.0794 -48.0681 -48.0574 -48.0508 -48.0468
   -48.0206 -47.9881 -47.9745 -47.9675 -47.9599 -47.9471 -47.9470 -47.9467
   -47.9359 -47.9330 -47.9301 -47.9292 -47.9284 -47.9109 -47.9102 -47.9098
   -47.9078 -47.8940 -47.8895 -47.8887 -47.8863 -47.8763 -47.8705 -47.8621
   -47.8346 -47.8337 -47.8328 -47.8065 -47.8011 -47.7975 -47.7204 -47.7180
   -47.7008 -47.7006 -47.6847 -47.6796 -47.6722 -47.6698 -47.4343 -47.4233
   -19.4199 -19.3599 -19.3562 -19.2962 -19.1960 -19.1187 -19.0836 -19.0735
   -18.9721 -18.9077 -18.8381 -18.8264 -18.7848 -18.7165 -18.7161 -18.6840
   -18.5077 -18.4488 -18.3839 -18.3835 -18.2986 -18.2955 -18.2941 -18.0991
   -18.0677 -18.0579 -18.0479 -18.0379 -17.9513 -17.6032 -17.5033 -17.1478
   -17.1376  -6.9446  -6.8203  -6.8032  -6.7614  -6.5406  -6.4772  -6.4275
    -6.3991  -6.3727  -6.3422  -6.3196  -6.3174  -6.3153  -6.2989  -6.2498
    -6.2114  -6.1952  -6.1870  -6.1315  -6.1242  -6.1169  -6.0763  -6.0168
    -6.0067  -5.9946  -5.9731  -5.9582  -5.8671  -5.7980  -5.5456  -5.5426
    -5.4859  -5.4714  -5.4655  -5.4602  -5.4231  -5.3774  -5.2987  -5.2796
    -5.2291  -5.1002  -4.9547  -4.8749  -4.8136  -4.7913  -4.6805  -4.6127
    -4.6082  -4.5678  -4.5658  -4.5489  -4.5311  -4.4081  -4.4055  -4.3844
    -4.3839  -4.2661  -4.1236  -4.0990  -4.0216  -4.0061  -3.9681  -3.9087
    -3.9000  -3.8452  -3.8369  -3.8133  -3.7733  -3.7467  -3.5044  -3.4027
    -3.3894  -3.2981  -3.0995  -3.0875  -3.0718  -3.0511  -2.7157  -2.6103
    -2.5433  -2.3676  -2.3629  -2.3446  -2.2465  -2.2276  -2.1924  -2.1123
    -2.0159  -1.9910  -1.9720  -1.8139  -1.7848  -1.7772  -1.7041  -1.5931
    -1.5878  -1.5872  -1.5671  -1.3637   0.2735   0.2792   0.3307   0.3309
     0.4124   0.4149   0.4868   0.5659   0.5715   0.5978   0.6079   0.6234
     0.6609   0.7096   0.7378   0.8036   0.9297   0.9473   0.9540   1.0090
     1.0496   1.0559   1.0613   1.0651   1.1639   1.2208   1.2298   1.2459
     1.2651   1.2744   1.3176   1.3183   1.3452   1.3699   1.4257   1.4292
     1.4391   1.4775   1.4859   1.4894   1.4980   1.5811   1.5846   1.6791
     1.6945   1.7155   1.7272   1.7614   2.1453   2.1495   2.2622   2.2847
     2.2934   2.3114   2.4060   2.4076   2.4259   2.4426   2.4474   2.6308
     2.6942   2.7143   2.7377   3.0179   3.2477   3.3531   3.3747   3.4576
     3.6180   3.6507   3.6634   3.7616   4.0149   4.0648   4.1308   4.1432
     4.2249   4.2635   4.2848   4.2898   6.2842   6.4330   6.4343   7.4321
     7.4439   7.4649   7.5015   7.5164   7.6011   7.6575   7.6698   7.7777
     7.9234   7.9904   7.9978   8.1533   8.3786   8.4588   8.4615   8.6419
     8.9527   9.0338   9.0461   9.2113   9.6292   9.6629   9.7395   9.8369
    10.2809  10.3562  10.4667  10.4743  10.5241  10.6043  10.6248  10.6434
    11.1451  11.1975  11.2117  11.2399  11.3161  11.3302  11.4173  11.4379
    11.9921  12.0909  12.0942  12.1457  12.2516  12.2973  12.3792  12.4345
    12.7955  13.0470  13.0730  13.0815  13.3105  13.4445  13.4548  13.4918
    13.4945  13.8945  13.9036  13.9611  14.0468  14.3750  14.4063  14.4359
    14.4437  14.4573  14.4744  14.5449  14.6022  14.6413  14.6747  14.7206
    14.7436  14.7836  14.9385  14.9516  15.0098  15.0639  15.0841  15.1006
    15.1594  15.1993  15.2058  15.2310  15.2342  15.2487  15.2647  15.2908
    15.3040  15.3371  15.4350  15.4487  15.4498  15.4687  15.5604  15.5896
    15.5900  15.6100  15.6538  15.6811  15.6836  15.7616  15.7720  15.9088
    15.9241  16.0170  16.0363  16.0408  16.1101  16.1309  16.1939  16.3154
    16.3216  16.3583  16.3934  16.4171  16.4222  16.4568  16.4845  16.5503
    16.5925  16.6062  16.7162  16.7390  16.7397  16.7506  16.8077  16.8159
    16.8344  16.8505  16.8563  16.8677  16.9217  16.9550  16.9769  17.0253
    17.0319  17.0490  17.0555  17.1030  17.1768  17.1974  17.2281  17.2814
    17.3366  17.3416  17.3578  17.4721  17.5209  17.5814  17.5976  17.6141
    17.6269  17.6811  17.7036  17.7144  17.7217  17.7691  17.7869  17.8175
    17.9621  17.9711  18.0194  18.1163  18.1644  18.1779  18.1844  18.1965
    18.3261  18.3351  18.3526  18.3549  18.4249  18.4418  18.5562  18.5835
    18.5867  18.5910  18.6381  18.7263  18.8821  18.9046  18.9385  18.9571
    19.0614  19.0630  19.0899  19.0976  19.1501  19.1609  19.1970  19.3097
    19.3268  19.4400  19.4655  19.5315  19.6431  19.7628  19.7753  19.8536
[...]
    22.4200  22.4524  22.6563  22.7863  23.1170  23.1276  23.1528  23.1809
    23.2780  23.3206  23.3754  23.3897  23.4938  23.5271  23.5821  23.6672
    23.8650  23.8701  23.9461  23.9590  24.1583  24.2047  24.2658  24.3336
    24.4527  24.4593  24.5835  24.6001  24.6539  24.6573  24.7155  24.7393
    24.8023  24.8093  24.8149  24.8509  24.8618  24.8767  24.9139  24.9559
    25.0311  25.0414  25.1126  25.1176  25.1960  25.2176  25.2957  25.3845
    25.4514  25.4628  25.4841  25.5086  25.5616  25.6063  25.6172  25.6322
    25.6671  25.6835  25.6922  25.8743  25.8943  25.9255  26.0048  26.0443
    26.0666  26.0806  26.1080  26.1667  26.2273  26.2306  26.2973  26.3099
    26.3610  26.3833  26.3852  26.4021  26.4168  26.4776  26.4928  26.5433
    26.6239  26.6294  26.6614  26.6868  26.7437  26.7556  26.7715  26.8305
    26.8552  26.8737  26.8828  26.9057  26.9815  27.0307  27.1486  27.1725
    27.2510  27.2559  27.3165  27.3606  27.4479  27.4758  27.5580  27.5895
    27.6742  27.7075  27.7258  27.7942  27.8258  27.8828  27.8856  27.9312
    27.9495  27.9828

     the spin up/dw Fermi energies are    -0.3752   -0.8360 ev

!    total energy              =   -4472.78102874 Ry
     Harris-Foulkes estimate   =   -4472.78102879 Ry
     estimated scf accuracy    <          3.7E-09 Ry

     The total energy is the sum of the following terms:

     one-electron contribution =  -92733.16511830 Ry
     hartree contribution      =   46414.11000321 Ry
     xc contribution           =    -655.86089665 Ry
     ewald contribution        =   42502.13554903 Ry
     smearing contrib. (-TS)   =      -0.00056603 Ry

     total magnetization       =    47.00 Bohr mag/cell
     absolute magnetization    =    48.78 Bohr mag/cell

     convergence has been achieved in  11 iterations

     Forces acting on atoms (Ry/au):

     negative rho (up, down):  0.318E-02 0.168E-02
     atom    1 type  1   force =    -0.00000505    0.00000000    0.05004118
     atom    2 type  2   force =    -0.00102182    0.00000000   -0.08452612
     atom    3 type  2   force =    -0.00001616    0.00000000    0.05027068
     atom    4 type  1   force =    -0.00009752    0.05129178   -0.04361810
     atom    5 type  1   force =    -0.00009752   -0.05129178   -0.04361810
     atom    6 type  1   force =     0.00002180    0.00000000    0.00781783
     atom    7 type  1   force =     0.00005636    0.00000000    0.00632819
     atom    8 type  2   force =     0.00174756    0.00000000    0.03327800
     atom    9 type  2   force =    -0.00013608    0.00000000    0.01750158
     atom   10 type  1   force =     0.00102166   -0.03213297    0.00380351
     atom   11 type  1   force =     0.00102166    0.03213297    0.00380351
     atom   12 type  1   force =    -0.00021920    0.00000000    0.00487134
     atom   13 type  1   force =    -0.00003194    0.00000000    0.00051311
     atom   14 type  2   force =    -0.00023255    0.00000000   -0.00004783
     atom   15 type  2   force =     0.00001592    0.00000000    0.00011110
     atom   16 type  1   force =    -0.00005189   -0.00002769    0.00002353
     atom   17 type  1   force =    -0.00005189    0.00002769    0.00002353
     atom   18 type  1   force =    -0.00001292    0.00000000    0.00045525
     atom   19 type  1   force =    -0.00016259    0.00000000   -0.00028230
     atom   20 type  2   force =    -0.00040277    0.00000000    0.00007039
     atom   21 type  2   force =     0.00009882    0.00000000    0.00029248
     atom   22 type  1   force =    -0.00030900   -0.00008748    0.00025141
     atom   23 type  1   force =    -0.00030900    0.00008748    0.00025141
     atom   24 type  1   force =    -0.00020124    0.00000000    0.00029084
     atom   25 type  1   force =    -0.00000766    0.00000000    0.05056432
     atom   26 type  2   force =     0.00103530    0.00000000   -0.08452605
     atom   27 type  2   force =    -0.00001609    0.00000000    0.04981105
     atom   28 type  1   force =     0.00009525    0.05129204   -0.04361888
     atom   29 type  1   force =     0.00009525   -0.05129204   -0.04361888
     atom   30 type  1   force =    -0.00005535    0.00000000    0.01077191
     atom   31 type  1   force =    -0.00002708    0.00000000    0.00655373
     atom   32 type  2   force =    -0.00181998    0.00000000    0.03332164
     atom   33 type  2   force =     0.00029989    0.00000000    0.00052711
     atom   34 type  1   force =    -0.00094617   -0.03210012    0.00367613
     atom   35 type  1   force =    -0.00094617    0.03210012    0.00367613
     atom   36 type  1   force =     0.00052272    0.00000000    0.00340414
     atom   37 type  1   force =    -0.00009468    0.00000000    0.00003332
     atom   38 type  2   force =     0.00009106    0.00000000   -0.00013534
     atom   39 type  2   force =     0.00000267    0.00000000   -0.00003279
     atom   40 type  1   force =     0.00001942   -0.00004142   -0.00007879
     atom   41 type  1   force =     0.00001942    0.00004142   -0.00007879
     atom   42 type  1   force =    -0.00003172    0.00000000    0.00012835
     atom   43 type  1   force =    -0.00023131    0.00000000    0.00028705
     atom   44 type  2   force =    -0.00015093    0.00000000    0.00015191
     atom   45 type  2   force =     0.00014643    0.00000000   -0.00032351
     atom   46 type  1   force =     0.00010542   -0.00011648    0.00001824
     atom   47 type  1   force =     0.00010542    0.00011648    0.00001824
     atom   48 type  1   force =    -0.00029516    0.00000000    0.00019619
     atom   49 type  1   force =     0.00081859    0.00000000    0.00086472
     atom   50 type  3   force =     0.00064080    0.00000000    0.00050244

     Total force =     0.002003     Total SCF correction =     0.000195

     bfgs converged in   4 scf cycles and   3 bfgs steps
     (criteria: energy < 0.10E-03, force < 0.10E-02)

     End of BFGS Geometry Optimization

     Final energy   =   -4472.7810287392 Ry
Begin final coordinates

ATOMIC_POSITIONS (crystal)
O0       0.000000000   0.500000000   0.335990000    0   0   0
Mn1      0.250000000   0.500000000   0.370520000    0   0   0
Mn1      0.000000000   0.000000000   0.370520000    0   0   0
O0       0.250000000   0.800000000   0.370520000    0   0   0
O0       0.250000000   0.200000000   0.370520000    0   0   0
O0       0.000000000   0.500000000   0.405050000    0   0   0
O0       0.000000000   0.000000000   0.422310000    0   0   0
Mn1      0.250000000   0.000000000   0.456840000    0   0   0
Mn1      0.000000000   0.500000000   0.456840000    0   0   0
O0       0.250000000   0.700000000   0.456840000    0   0   0
O0       0.250000000   0.300000000   0.456840000    0   0   0
O0       0.000000000   0.000000000   0.491370000    0   0   0
O0       0.000024134   0.500000000   0.511044724
Mn1      0.255642143   0.500000000   0.545351703
Mn1      0.000267593   0.000000000   0.546614937
O0       0.250597976   0.804229997   0.545366380
O0       0.250597976   0.195770003   0.545366380
O0       0.000853900   0.500000000   0.579619399
O0       0.001388471   0.000000000   0.599546538
Mn1      0.250132027   0.000000000   0.636311366
Mn1     -0.001255881   0.500000000   0.629414804
O0       0.242001204   0.692071594   0.638579054
O0       0.242001204   0.307928406   0.638579054
O0      -0.000084109   0.000000000   0.668192017
O0       0.500000000   0.500000000   0.335990000    0   0   0
Mn1      0.750000000   0.500000000   0.370520000    0   0   0
Mn1      0.500000000   0.000000000   0.370520000    0   0   0
O0       0.750000000   0.800000000   0.370520000    0   0   0
O0       0.750000000   0.200000000   0.370520000    0   0   0
O0       0.500000000   0.500000000   0.405050000    0   0   0
O0       0.500000000   0.000000000   0.422310000    0   0   0
Mn1      0.750000000   0.000000000   0.456840000    0   0   0
Mn1      0.500000000   0.500000000   0.456840000    0   0   0
O0       0.750000000   0.700000000   0.456840000    0   0   0
O0       0.750000000   0.300000000   0.456840000    0   0   0
O0       0.500000000   0.000000000   0.491370000    0   0   0
O0       0.500427380   0.500000000   0.510933822
Mn1      0.744926866   0.500000000   0.545408974
Mn1      0.500127665   0.000000000   0.547019516
O0       0.749880446   0.804211949   0.545538346
O0       0.749880446   0.195788051   0.545538346
O0       0.499558271   0.500000000   0.580566774
O0       0.499990520   0.000000000   0.599662271
Mn1      0.751832066   0.000000000   0.636353615
Mn1      0.499509516   0.500000000   0.639904869
O0       0.756870073   0.693044719   0.637338080
O0       0.756870073   0.306955281   0.637338080
O0       0.500888622   0.000000000   0.667844650
O0       0.512470415   0.500000000   0.690196453
H2       0.353621188   0.500000000   0.701190154
End final coordinates

     General routines

     Parallel routines

   This run was terminated on:  10: 5:33  27Apr2014

   JOB DONE.