     Program PWSCF v.5.0.2 (svn rev. 9656) starts on 14Aug2014 at 15:31:18

     Current dimensions of program PWSCF are:
     Max number of different atomic species (ntypx) = 10
     Max number of k-points (npk) =  40000
     Max angular momentum in pseudopotentials (lmaxx) =  3
     Reading input from pwscf.in
Warning: card &CELL ignored
Warning: card / ignored

     Subspace diagonalization in iterative solution of the eigenvalue problem:
     a serial algorithm will be used

     bravais-lattice index     =            0
     lattice parameter (alat)  =      11.7919  a.u.
     unit-cell volume          =    7123.6633 (a.u.)^3
     number of atoms/cell      =           33
     number of atomic types    =            3
     number of electrons       =       253.00
     number of Kohn-Sham states=          379
     kinetic-energy cutoff     =      40.0000  Ry
     charge density cutoff     =     500.0000  Ry
     convergence threshold     =      1.0E-06
     mixing beta               =       0.7000
     number of iterations used =            8  plain     mixing
     Exchange-correlation      = SLA  PW   PBE  PBE ( 1 4 3 4 0)
     EXX-fraction              =        0.00
     nstep                     =           50

     celldm(1)=  11.791891  celldm(2)=   0.000000  celldm(3)=   0.000000
     celldm(4)=   0.000000  celldm(5)=   0.000000  celldm(6)=   0.000000

     crystal axes: (cart. coord. in units of alat)
               a(1) = (   1.000000   0.000000   0.000000 )
               a(2) = (   0.000000   1.026665   0.000000 )
               a(3) = (   0.000000   0.000000   4.231793 )

     reciprocal axes: (cart. coord. in units 2 pi/alat)
               b(1) = (  1.000000  0.000000  0.000000 )
               b(2) = (  0.000000  0.974028  0.000000 )
               b(3) = (  0.000000  0.000000  0.236306 )

     PseudoPot. # 1 for O  read from file:
     /home-research/zhongnanxu/gbrv_espresso_pseudo_v1.01/o_pbe_v1.01.uspp.F.UPF
     MD5 check sum: 2bcb18d16ea4b960afae9ec6d52f22d2
     Pseudo is Ultrasoft + core correction, Zval =  6.0
     Generated by new atomic code, or converted to UPF format
     Using radial grid of  737 points,  5 beta functions with:
                l(1) =   0
                l(2) =   0
                l(3) =   1
                l(4) =   1
                l(5) =   2
     Q(r) pseudized with  8 coefficients,  rinner =    0.900   0.900   0.900
                                                       0.900   0.900

     PseudoPot. # 2 for Ru read from file:
     /home-research/zhongnanxu/gbrv_espresso_pseudo_v1.01/ru_pbe_v1.uspp.F.UPF
     MD5 check sum: df00be1c11b23341d9806d8f1dfa10cf
     Pseudo is Ultrasoft + core correction, Zval = 16.0
     Generated by new atomic code, or converted to UPF format
     Using radial grid of  967 points,  6 beta functions with:
                l(1) =   0
                l(2) =   0
                l(3) =   1
                l(4) =   1
                l(5) =   2
                l(6) =   2
     Q(r) pseudized with  8 coefficients,  rinner =    1.300   1.300   1.300
                                                       1.300   1.300

     PseudoPot. # 3 for H  read from file:
     /home-research/zhongnanxu/gbrv_espresso_pseudo_v1.01/h_pbe_v1.uspp.F.UPF
     MD5 check sum: 3408e3ff4ec8b0a4e358431e7e038a48
     Pseudo is Ultrasoft, Zval =  1.0
     Generated by new atomic code, or converted to UPF format
     Using radial grid of  615 points,  2 beta functions with:
                l(1) =   0
                l(2) =   0
     Q(r) pseudized with  8 coefficients,  rinner =    0.700

     atomic species   valence    mass     pseudopotential
        O0             6.00    15.99940     O ( 1.00)
        Ru1           16.00   101.07000     Ru( 1.00)
        H2             1.00     1.00794     H ( 1.00)

     Simplified LDA+U calculation (l_max = 2) with parameters (eV):
     atomic species    L          U    alpha       J0     beta
        Ru1            2     6.0000   0.0000   0.0000   0.0000

     No symmetry found

   Cartesian axes

     site n.     atom                  positions (alat units)
         1           O0  tau(   1) = (   0.0000000   0.0000000   1.6077004  )
         2           O0  tau(   2) = (   0.0000000   0.5133323   1.7128605  )
         3           Ru1 tau(   3) = (   0.2500000   0.5133323   1.9197951  )
         4           Ru1 tau(   4) = (   0.0000000   0.0000000   1.9178485  )
         5           O0  tau(   5) = (   0.2500000   0.8315984   1.9166213  )
         6           O0  tau(   6) = (   0.2500000   0.1950663   1.9158596  )
         7           O0  tau(   7) = (   0.0000000   0.5133323   2.1184778  )
         8           O0  tau(   8) = (   0.0000000   0.0000000   2.2257961  )
         9           Ru1 tau(   9) = (   0.2500000   0.0000000   2.4568097  )
        10           Ru1 tau(  10) = (   0.0000000   0.5133323   2.4096675  )
        11           O0  tau(  11) = (   0.2500000   0.7083986   2.4415752  )
        12           O0  tau(  12) = (   0.2500000   0.3182660   2.4519008  )
        13           O0  tau(  13) = (   0.0000000   0.0000000   2.6141054  )
        14           O0  tau(  14) = (   0.5000000   0.0000000   1.6041034  )
        15           O0  tau(  15) = (   0.5000000   0.5133323   1.7010961  )
        16           Ru1 tau(  16) = (   0.7500000   0.5133323   1.9194566  )
        17           Ru1 tau(  17) = (   0.5000000   0.0000000   1.9142092  )
        18           O0  tau(  18) = (   0.7500000   0.8315984   1.9165367  )
        19           O0  tau(  19) = (   0.7500000   0.1950663   1.9164097  )
        20           O0  tau(  20) = (   0.5000000   0.5133323   2.1190703  )
        21           O0  tau(  21) = (   0.5000000   0.0000000   2.2222414  )
        22           Ru1 tau(  22) = (   0.7500000   0.0000000   2.4236324  )
        23           Ru1 tau(  23) = (   0.5000000   0.5133323   2.4492771  )
        24           O0  tau(  24) = (   0.7500000   0.7083986   2.4254098  )
        25           O0  tau(  25) = (   0.7500000   0.3182660   2.4340426  )
        26           O0  tau(  26) = (   0.5000000   0.0000000   2.6066998  )
        27           H2  tau(  27) = (  -0.0000900   0.6178571   1.5949627  )
        28           H2  tau(  28) = (   0.4996500   0.6483901   1.6187877  )
        29           H2  tau(  29) = (   0.1474000   0.0245886   1.5550569  )
        30           H2  tau(  30) = (   0.6470000   0.0268883   1.5515869  )
        31           O0  tau(  31) = (   0.5000700   0.5434033   2.7507923  )
        32           O0  tau(  32) = (   0.4999900   0.3470127   2.8743183  )
        33           H2  tau(  33) = (   0.4999600   0.4091053   3.0198497  )

     number of k points=    10  Methfessel-Paxton smearing, width (Ry)=  0.0100
                       cart. coord. in units 2pi/alat
        k(    1) = (   0.0000000   0.0000000   0.0000000), wk =   0.1250000
        k(    2) = (   0.0000000   0.2435070   0.0000000), wk =   0.2500000
        k(    3) = (   0.0000000  -0.4870139   0.0000000), wk =   0.1250000
        k(    4) = (   0.2500000   0.0000000   0.0000000), wk =   0.2500000
        k(    5) = (   0.2500000   0.2435070   0.0000000), wk =   0.2500000
        k(    6) = (   0.2500000  -0.4870139   0.0000000), wk =   0.2500000
        k(    7) = (  -0.5000000   0.0000000   0.0000000), wk =   0.1250000
        k(    8) = (  -0.5000000   0.2435070   0.0000000), wk =   0.2500000
        k(    9) = (  -0.5000000  -0.4870139   0.0000000), wk =   0.1250000
        k(   10) = (  -0.2500000   0.2435070   0.0000000), wk =   0.2500000

     Largest allocated arrays     est. size (Mb)     dimensions
     Largest temporary arrays     est. size (Mb)     dimensions

     Check: negative/imaginary core charge=   -0.000003    0.000000

     Initial potential from superposition of free atoms
     Check: negative starting charge=   -0.520929

     starting charge  244.99980, renormalised to  253.00000

     negative rho (up, down):  0.538E+00 0.000E+00
     Number of +U iterations with fixed ns =  0
     Starting occupations:
 --- enter write_ns ---
 LDA+U parameters:
U( 2)     =  6.00000000
alpha( 2) =  0.00000000
atom    3   Tr[ns(na)] =   6.00000
    eigenvalues:
  0.600  0.600  0.600  0.600  0.600
    eigenvectors:
  1.000  0.000  0.000  0.000  0.000
  0.000  1.000  0.000  0.000  0.000
  0.000  0.000  1.000  0.000  0.000
  0.000  0.000  0.000  1.000  0.000
  0.000  0.000  0.000  0.000  1.000
    occupations:
  0.600  0.000  0.000  0.000  0.000
  0.000  0.600  0.000  0.000  0.000
  0.000  0.000  0.600  0.000  0.000
  0.000  0.000  0.000  0.600  0.000
  0.000  0.000  0.000  0.000  0.600
atom    4   Tr[ns(na)] =   6.00000
    eigenvalues:
  0.600  0.600  0.600  0.600  0.600
    eigenvectors:
  1.000  0.000  0.000  0.000  0.000
  0.000  1.000  0.000  0.000  0.000
  0.000  0.000  1.000  0.000  0.000
  0.000  0.000  0.000  1.000  0.000
  0.000  0.000  0.000  0.000  1.000
    occupations:
  0.600  0.000  0.000  0.000  0.000
  0.000  0.600  0.000  0.000  0.000
  0.000  0.000  0.600  0.000  0.000
  0.000  0.000  0.000  0.600  0.000
  0.000  0.000  0.000  0.000  0.600
atom    9   Tr[ns(na)] =   6.00000
    eigenvalues:
  0.600  0.600  0.600  0.600  0.600
    eigenvectors:
  1.000  0.000  0.000  0.000  0.000
  0.000  1.000  0.000  0.000  0.000
  0.000  0.000  1.000  0.000  0.000
  0.000  0.000  0.000  1.000  0.000
  0.000  0.000  0.000  0.000  1.000
    occupations:
  0.600  0.000  0.000  0.000  0.000
  0.000  0.600  0.000  0.000  0.000
  0.000  0.000  0.600  0.000  0.000
  0.000  0.000  0.000  0.600  0.000
  0.000  0.000  0.000  0.000  0.600
atom   10   Tr[ns(na)] =   6.00000
    eigenvalues:
  0.600  0.600  0.600  0.600  0.600
    eigenvectors:
  1.000  0.000  0.000  0.000  0.000
  0.000  1.000  0.000  0.000  0.000
  0.000  0.000  1.000  0.000  0.000
  0.000  0.000  0.000  1.000  0.000
  0.000  0.000  0.000  0.000  1.000
    occupations:
  0.600  0.000  0.000  0.000  0.000
  0.000  0.600  0.000  0.000  0.000
  0.000  0.000  0.600  0.000  0.000
  0.000  0.000  0.000  0.600  0.000
  0.000  0.000  0.000  0.000  0.600
atom   16   Tr[ns(na)] =   6.00000
    eigenvalues:
  0.600  0.600  0.600  0.600  0.600
    eigenvectors:
  1.000  0.000  0.000  0.000  0.000
  0.000  1.000  0.000  0.000  0.000
  0.000  0.000  1.000  0.000  0.000
  0.000  0.000  0.000  1.000  0.000
  0.000  0.000  0.000  0.000  1.000
    occupations:
  0.600  0.000  0.000  0.000  0.000
  0.000  0.600  0.000  0.000  0.000
  0.000  0.000  0.600  0.000  0.000
  0.000  0.000  0.000  0.600  0.000
  0.000  0.000  0.000  0.000  0.600
atom   17   Tr[ns(na)] =   6.00000
    eigenvalues:
  0.600  0.600  0.600  0.600  0.600
    eigenvectors:
  1.000  0.000  0.000  0.000  0.000
  0.000  1.000  0.000  0.000  0.000
  0.000  0.000  1.000  0.000  0.000
  0.000  0.000  0.000  1.000  0.000
  0.000  0.000  0.000  0.000  1.000
    occupations:
  0.600  0.000  0.000  0.000  0.000
  0.000  0.600  0.000  0.000  0.000
  0.000  0.000  0.600  0.000  0.000
  0.000  0.000  0.000  0.600  0.000
  0.000  0.000  0.000  0.000  0.600
atom   22   Tr[ns(na)] =   6.00000
    eigenvalues:
  0.600  0.600  0.600  0.600  0.600
    eigenvectors:
[...]
 -0.028  0.002 -0.005  0.627 -0.003
  0.008 -0.001 -0.003 -0.003  0.866
atom   10   Tr[ns(na)] =   7.27327
    eigenvalues:
  0.523  0.533  0.701  0.897  0.982
    eigenvectors:
  0.974  0.009  0.000  0.000  0.017
  0.000  0.000  0.001  0.994  0.005
  0.000  0.000  0.999  0.001  0.000
  0.017  0.000  0.000  0.005  0.978
  0.009  0.990  0.000  0.001  0.000
    occupations:
  0.531 -0.001  0.001  0.059 -0.001
 -0.001  0.897 -0.004  0.006 -0.008
  0.001 -0.004  0.701 -0.001  0.004
  0.059  0.006 -0.001  0.974  0.000
 -0.001 -0.008  0.004  0.000  0.533
atom   16   Tr[ns(na)] =   7.24294
    eigenvalues:
  0.504  0.555  0.653  0.926  0.984
    eigenvectors:
  0.005  0.168  0.005  0.000  0.822
  0.981  0.018  0.000  0.000  0.000
  0.000  0.005  0.938  0.046  0.011
  0.013  0.809  0.012  0.000  0.166
  0.000  0.000  0.045  0.954  0.001
    occupations:
  0.908  0.012  0.034 -0.160  0.008
  0.012  0.505  0.004  0.002 -0.006
  0.034  0.004  0.668 -0.008 -0.056
 -0.160  0.002 -0.008  0.627 -0.002
  0.008 -0.006 -0.056 -0.002  0.913
atom   17   Tr[ns(na)] =   7.25206
    eigenvalues:
  0.549  0.606  0.622  0.864  0.986
    eigenvectors:
  0.002  0.982  0.000  0.000  0.016
  0.000  0.000  0.018  0.981  0.000
  0.000  0.000  0.981  0.018  0.000
  0.000  0.015  0.000  0.000  0.984
  0.998  0.002  0.000  0.000  0.000
    occupations:
  0.612 -0.004  0.000  0.047  0.003
 -0.004  0.859  0.033  0.001 -0.001
  0.000  0.033  0.626  0.002  0.000
  0.047  0.001  0.002  0.980  0.000
  0.003 -0.001  0.000  0.000  0.549
atom   22   Tr[ns(na)] =   7.29784
    eigenvalues:
  0.541  0.567  0.701  0.879  0.960
    eigenvectors:
  0.003  0.159  0.000  0.001  0.837
  0.989  0.010  0.000  0.000  0.000
  0.000  0.001  0.993  0.006  0.000
  0.007  0.830  0.001  0.000  0.162
  0.000  0.000  0.006  0.993  0.001
    occupations:
  0.896  0.008 -0.002 -0.145  0.002
  0.008  0.541  0.002  0.000  0.000
 -0.002  0.002  0.702 -0.003 -0.014
 -0.145  0.000 -0.003  0.631 -0.001
  0.002  0.000 -0.014 -0.001  0.878
atom   23   Tr[ns(na)] =   7.29759
    eigenvalues:
  0.535  0.573  0.667  0.905  0.969
    eigenvectors:
  0.000  0.997  0.001  0.001  0.001
  0.002  0.001  0.995  0.001  0.001
  0.001  0.001  0.001  0.997  0.001
  0.000  0.001  0.001  0.001  0.997
  0.997  0.000  0.002  0.001  0.000
    occupations:
  0.574 -0.003  0.009  0.014 -0.001
 -0.003  0.667 -0.006 -0.010 -0.006
  0.009 -0.006  0.904 -0.002 -0.010
  0.014 -0.010 -0.002  0.968  0.000
 -0.001 -0.006 -0.010  0.000  0.535
N of occupied +U levels =  58.0782708
 --- exit write_ns ---

     Threshold (ethr) on eigenvalues was too large:
     Diagonalizing with lowered threshold

     Davidson diagonalization with overlap
     ethr =  3.68E-08,  avg # of iterations =  2.0

[...]

     total energy              =   -2193.60461401 Ry
     Harris-Foulkes estimate   =   -2193.60461401 Ry
     estimated scf accuracy    <       0.00000001 Ry

     iteration # 19     ecut=    40.00 Ry     beta=0.70
     Davidson diagonalization with overlap
     ethr =  4.76E-12,  avg # of iterations =  1.0

     negative rho (up, down):  0.572E+00 0.000E+00

     End of self-consistent calculation
 --- enter write_ns ---
 LDA+U parameters:
U( 2)     =  6.00000000
alpha( 2) =  0.00000000
atom    3   Tr[ns(na)] =   7.23807
    eigenvalues:
  0.504  0.557  0.649  0.926  0.984
    eigenvectors:
  0.008  0.170  0.005  0.000  0.818
  0.969  0.029  0.001  0.000  0.000
  0.000  0.006  0.880  0.103  0.011
  0.022  0.795  0.013  0.000  0.170
  0.000  0.001  0.102  0.897  0.001
    occupations:
  0.906 -0.013  0.033 -0.161 -0.012
 -0.013  0.506 -0.007 -0.004 -0.005
  0.033 -0.007  0.680 -0.009  0.083
 -0.161 -0.004 -0.009  0.630  0.002
 -0.012 -0.005  0.083  0.002  0.897
atom    4   Tr[ns(na)] =   7.25365
    eigenvalues:
  0.549  0.604  0.611  0.877  0.985
    eigenvectors:
  0.002  0.979  0.002  0.000  0.017
  0.000  0.000  0.014  0.986  0.000
  0.000  0.002  0.984  0.014  0.000
  0.000  0.017  0.000  0.000  0.983
  0.998  0.002  0.000  0.000  0.000
    occupations:
  0.610 -0.001  0.000  0.050  0.002
 -0.001  0.873  0.032 -0.001 -0.001
  0.000  0.032  0.615  0.001  0.001
  0.050 -0.001  0.001  0.979  0.000
  0.002 -0.001  0.001  0.000  0.550
atom    9   Tr[ns(na)] =   7.22038
    eigenvalues:
  0.587  0.597  0.647  0.867  0.913
    eigenvectors:
  0.675  0.002  0.322  0.001  0.000
  0.000  0.997  0.002  0.000  0.000
  0.000  0.000  0.000  0.005  0.994
  0.324  0.001  0.674  0.000  0.000
  0.000  0.000  0.001  0.993  0.005
    occupations:
  0.606 -0.001 -0.003 -0.028  0.008
 -0.001  0.598  0.002  0.002 -0.001
 -0.003  0.002  0.912 -0.005 -0.003
 -0.028  0.002 -0.005  0.627 -0.003
  0.008 -0.001 -0.003 -0.003  0.867
atom   10   Tr[ns(na)] =   7.27371
    eigenvalues:
  0.523  0.533  0.701  0.897  0.982
    eigenvectors:
  0.974  0.009  0.000  0.000  0.017
  0.000  0.000  0.001  0.994  0.005
  0.000  0.000  0.999  0.001  0.000
  0.017  0.000  0.000  0.005  0.978
  0.009  0.990  0.000  0.001  0.000
    occupations:
  0.531 -0.001  0.001  0.059 -0.001
 -0.001  0.897 -0.004  0.006 -0.008
  0.001 -0.004  0.701 -0.001  0.004
  0.059  0.006 -0.001  0.974  0.000
 -0.001 -0.008  0.004  0.000  0.533
atom   16   Tr[ns(na)] =   7.23956
    eigenvalues:
  0.504  0.555  0.652  0.926  0.984
    eigenvectors:
  0.005  0.168  0.005  0.000  0.822
  0.981  0.018  0.000  0.000  0.000
  0.000  0.005  0.938  0.046  0.011
  0.013  0.809  0.012  0.000  0.166
  0.000  0.000  0.045  0.954  0.001
    occupations:
  0.908  0.012  0.034 -0.160  0.008
  0.012  0.505  0.004  0.002 -0.006
  0.034  0.004  0.667 -0.008 -0.056
 -0.160  0.002 -0.008  0.626 -0.002
  0.008 -0.006 -0.056 -0.002  0.913
atom   17   Tr[ns(na)] =   7.25373
    eigenvalues:
  0.549  0.606  0.622  0.864  0.986
    eigenvectors:
  0.002  0.982  0.000  0.000  0.016
  0.000  0.000  0.018  0.981  0.000
  0.000  0.000  0.981  0.018  0.000
  0.000  0.015  0.000  0.000  0.984
  0.998  0.002  0.000  0.000  0.000
    occupations:
  0.612 -0.004  0.000  0.047  0.003
 -0.004  0.859  0.033  0.001 -0.001
  0.000  0.033  0.627  0.002  0.000
  0.047  0.001  0.002  0.980  0.000
  0.003 -0.001  0.000  0.000  0.549
atom   22   Tr[ns(na)] =   7.30140
    eigenvalues:
  0.541  0.568  0.702  0.880  0.960
    eigenvectors:
  0.003  0.159  0.000  0.001  0.837
  0.989  0.010  0.000  0.000  0.000
  0.000  0.001  0.993  0.006  0.000
  0.007  0.830  0.001  0.000  0.162
  0.000  0.000  0.006  0.993  0.001
    occupations:
  0.896  0.008 -0.002 -0.145  0.002
  0.008  0.541  0.002  0.000  0.000
 -0.002  0.002  0.703 -0.003 -0.014
 -0.145  0.000 -0.003  0.631 -0.001
  0.002  0.000 -0.014 -0.001  0.879
atom   23   Tr[ns(na)] =   7.29563
    eigenvalues:
  0.535  0.573  0.666  0.905  0.969
    eigenvectors:
  0.000  0.997  0.001  0.001  0.001
  0.002  0.001  0.995  0.001  0.001
  0.001  0.001  0.001  0.997  0.001
  0.000  0.001  0.001  0.001  0.997
  0.997  0.000  0.002  0.001  0.000
    occupations:
  0.574 -0.003  0.009  0.014 -0.001
 -0.003  0.667 -0.006 -0.010 -0.006
  0.009 -0.006  0.904 -0.002 -0.010
  0.014 -0.010 -0.002  0.968  0.000
 -0.001 -0.006 -0.010  0.000  0.535
N of occupied +U levels =  58.0761345
 --- exit write_ns ---

[...]

          k = 0.2500-0.4870 0.0000 ( 30468 PWs)   bands (ev):

[...]

          k =-0.2500 0.2435 0.0000 ( 30434 PWs)   bands (ev):

   -73.8363 -73.1813 -73.1663 -72.9758 -72.9524 -72.8990 -72.8421 -72.8212
   -44.1840 -43.9583 -43.5077 -43.4902 -43.4263 -43.3924 -43.2357 -43.1683
   -43.1658 -43.1526 -43.1301 -43.0796 -43.0590 -42.9739 -42.9327 -42.9268
   -42.8756 -42.8602 -42.8542 -42.8442 -42.7947 -42.5957 -42.4927 -42.4142
   -23.4149 -20.2707 -19.9113 -19.7937 -19.6238 -19.4926 -19.3999 -19.3536
   -19.2842 -19.1040 -19.0731 -18.9106 -18.8345 -18.7516 -18.7322 -18.6667
   -18.5628 -18.5251 -18.4881 -17.1485  -9.0392  -8.7898  -8.5683  -8.5462
    -8.3454  -8.3022  -8.1706  -8.0503  -7.7927  -7.4142  -7.4043  -7.2523
    -7.2334  -7.1501  -7.0764  -7.0394  -6.9616  -6.9099  -6.7805  -6.7029
    -6.4351  -6.3012  -6.0836  -6.0022  -5.8940  -5.7822  -5.6651  -5.5672
    -5.5078  -5.3588  -5.2971  -5.1960  -5.0927  -4.9712  -4.9460  -4.8793
    -4.7485  -4.6753  -4.6241  -4.5100  -4.4396  -4.3531  -4.3279  -4.1708
    -4.0737  -3.8301  -3.7310  -3.6393  -3.5835  -3.5417  -3.4292  -3.3423
    -3.1986  -3.1435  -3.0474  -2.7872  -2.6567  -2.5013  -2.4708  -2.3389
    -2.2150  -2.1376  -2.0919  -1.9632  -1.9022  -1.8263  -1.7697  -1.7237
    -1.5854  -1.5421  -1.4191  -1.2459  -1.1425  -0.8180  -0.7542  -0.4111
    -0.3185  -0.1403  -0.0056   0.1174   0.2323   0.3509   0.6109   1.6999
     2.0401   2.4029   2.5016   2.5667   3.1032   3.2620   3.4017   3.5676
     3.8123   3.8620   3.9930   4.0937   4.1755   4.2310   4.2978   4.3547
     4.4778   4.6073   4.8506   5.1673   5.5924   5.7586   5.9970   6.0743
     6.1448   6.4568   6.4946   6.6556   6.9222   7.0318   7.1285   7.4436
     7.5900   7.6866   7.8992   8.0904   8.1581   8.3356   8.4034   8.5502
     8.6764   8.8141   8.9598   9.0797   9.1006   9.3113   9.4260   9.4461
     9.6213   9.6938   9.8013   9.8717  10.0369  10.0709  10.1889  10.2870
    10.3208  10.4080  10.4897  10.6339  10.6876  10.7420  10.8734  10.9713
    11.0372  11.1898  11.2545  11.3577  11.4308  11.5723  11.6449  11.7422
    11.8135  11.8961  11.9457  12.0348  12.1107  12.1786  12.2107  12.2762
    12.3781  12.4744  12.5095  12.6289  12.7663  12.7875  12.8506  12.9206
    12.9980  13.0143  13.1663  13.2866  13.3382  13.4026  13.4610  13.5248
    13.5995  13.7256  13.8315  13.8704  13.9483  13.9820  14.0935  14.1988
    14.2821  14.3601  14.4650  14.5292  14.6138  14.6941  14.7790  14.8600
    14.9488  15.0084  15.0936  15.2118  15.2342  15.3290  15.3556  15.4329
    15.5059  15.5449  15.6052  15.6980  15.7431  15.8111  15.8716  15.9186
    15.9948  16.0263  16.0902  16.1274  16.1971  16.2308  16.2526  16.3417
    16.3838  16.4641  16.5511  16.6255  16.7143  16.7528  16.8020  16.9189
    16.9670  17.0186  17.0731  17.2006  17.2519  17.3151  17.3824  17.4663
    17.5013  17.5777  17.6322  17.7113  17.7703  17.8145  17.8576  17.9096
    17.9713  18.0539  18.0805  18.1321  18.2275  18.2798  18.3400  18.4140
    18.4584  18.5340  18.6150  18.7313  18.7862  18.8586  18.9030  18.9955
    19.0342  19.1376  19.2387  19.2660  19.3306  19.4051  19.5244  19.6253
    19.6697  19.7658  19.8176  19.8804  19.9357  19.9829  20.0599  20.1755
    20.2604  20.3322  20.4428  20.5000  20.5716  20.6104  20.6680  20.7498
    20.8767  20.9474  20.9724  21.0804  21.0942  21.1476  21.2143  21.2702
    21.2931  21.3520  21.4498  21.5134  21.5477  21.5860  21.6277  21.6918
    21.8011  21.8394  21.9146  21.9291  21.9520  22.0614  22.1114  22.1712
    22.2502  22.3428  22.3912  22.4210  22.4796  22.5477  22.6645  22.7235
    22.7943  22.8241  22.9022  22.9260  22.9892  23.0811  23.1010  23.1577
    23.1899  23.2677  23.3347

     the Fermi energy is    -0.7198 ev

!    total energy              =   -2193.60461401 Ry
     Harris-Foulkes estimate   =   -2193.60461402 Ry
     estimated scf accuracy    <          8.3E-09 Ry

     The total energy is the sum of the following terms:

     one-electron contribution =  -25588.47277080 Ry
     hartree contribution      =   12826.85021266 Ry
     xc contribution           =    -345.77304109 Ry
     ewald contribution        =   10910.82661014 Ry
     Hubbard energy            =       2.96396684 Ry
     smearing contrib. (-TS)   =       0.00040825 Ry

     convergence has been achieved in  19 iterations

     Forces acting on atoms (Ry/au):

     negative rho (up, down):  0.572E+00 0.000E+00
     atom    1 type  1   force =    -0.00647480   -0.00570642   -0.00050322
     atom    2 type  1   force =     0.00287014    0.00287390    0.00040698
     atom    3 type  2   force =     0.05318660    0.00404422    0.00022378
     atom    4 type  2   force =     0.00940567    0.00403560   -0.00052043
     atom    5 type  1   force =    -0.00319257   -0.04476314   -0.00036328
     atom    6 type  1   force =     0.00512704    0.04413712   -0.00021640
     atom    7 type  1   force =    -0.00335738   -0.00719018   -0.00021616
     atom    8 type  1   force =     0.03041462    0.00117204   -0.00031032
     atom    9 type  2   force =    -0.02032351    0.00068684    0.00024522
     atom   10 type  2   force =     0.01440379    0.00234706   -0.00047746
     atom   11 type  1   force =    -0.01572455    0.00804961   -0.00017402
     atom   12 type  1   force =    -0.00410860   -0.00272007   -0.00042698
     atom   13 type  1   force =     0.03735826   -0.00294077    0.00036510
     atom   14 type  1   force =    -0.00440544   -0.00822457   -0.00007527
     atom   15 type  1   force =     0.00104739    0.00217597    0.00082472
     atom   16 type  2   force =    -0.04760453    0.00496859    0.00014436
     atom   17 type  2   force =     0.00192924    0.00544012   -0.00013109
     atom   18 type  1   force =    -0.00268338   -0.04531014   -0.00033323
     atom   19 type  1   force =     0.00359064    0.04562563   -0.00036515
     atom   20 type  1   force =    -0.00818433   -0.00348148    0.00020275
     atom   21 type  1   force =    -0.03142780    0.00082280   -0.00012272
     atom   22 type  2   force =    -0.00429150   -0.00105179   -0.00021131
     atom   23 type  2   force =    -0.00708634   -0.00124845    0.00013297
     atom   24 type  1   force =     0.00957206    0.03395210   -0.00031754
     atom   25 type  1   force =     0.00626236   -0.03049946   -0.00026153
     atom   26 type  1   force =    -0.02396309   -0.00682478    0.00029572
     atom   27 type  3   force =    -0.00005537   -0.00085523   -0.00029708
     atom   28 type  3   force =    -0.00001368   -0.00015799    0.00059657
     atom   29 type  3   force =     0.00045002   -0.00009348    0.00049633
     atom   30 type  3   force =     0.00003928   -0.00010635    0.00015158
     atom   31 type  1   force =     0.00521828    0.00014482    0.00027822
     atom   32 type  1   force =     0.00339116    0.00043968    0.00047579
     atom   33 type  3   force =    -0.00136968    0.00025819    0.00048311

     Total force =     0.002357     Total SCF correction =     0.000314
     SCF correction compared to forces is large: reduce conv_thr to get better values

     bfgs converged in   3 scf cycles and   2 bfgs steps
     (criteria: energy < 0.10E-03, force < 0.10E-02)

     End of BFGS Geometry Optimization

     Final energy   =   -2193.6046140073 Ry
Begin final coordinates

ATOMIC_POSITIONS (crystal)
O0       0.000000000   0.000000000   0.379874140    0   0   1
O0       0.000000000   0.500000000   0.404789018    0   0   1
Ru1      0.250000000   0.500000000   0.453678863    0   0   1
Ru1      0.000000000   0.000000000   0.453168191    0   0   1
O0       0.250000000   0.810000000   0.452885424    0   0   1
O0       0.250000000   0.190000000   0.452716039    0   0   1
O0       0.000000000   0.500000000   0.500582507    0   0   1
O0       0.000000000   0.000000000   0.525939387    0   0   1
Ru1      0.250000000   0.000000000   0.580596883    0   0   1
Ru1      0.000000000   0.500000000   0.569390895    0   0   1
O0       0.250000000   0.690000000   0.576935477    0   0   1
O0       0.250000000   0.310000000   0.579356060    0   0   1
O0       0.000000000   0.000000000   0.617766231    0   0   1
O0       0.500000000   0.000000000   0.379065565    0   0   1
O0       0.500000000   0.500000000   0.402039342    0   0   1
Ru1      0.750000000   0.500000000   0.453591523    0   0   1
Ru1      0.500000000   0.000000000   0.452333613    0   0   1
O0       0.750000000   0.810000000   0.452867276    0   0   1
O0       0.750000000   0.190000000   0.452832920    0   0   1
O0       0.500000000   0.500000000   0.500761614    0   0   1
O0       0.500000000   0.000000000   0.525112115    0   0   1
Ru1      0.750000000   0.000000000   0.572700134    0   0   1
Ru1      0.500000000   0.500000000   0.578796172    0   0   1
O0       0.750000000   0.690000000   0.573115441    0   0   1
O0       0.750000000   0.310000000   0.575160258    0   0   1
O0       0.500000000   0.000000000   0.616011323    0   0   1
H2      -0.000106725   0.601607307   0.376887360
H2       0.499646411   0.631466687   0.382570640
H2       0.147515591   0.023931756   0.367506270
H2       0.647018495   0.026166500   0.366660134
O0       0.500070000   0.529368258   0.650044451    0   1   1
O0       0.499990000   0.338069241   0.679247065    0   1   1
H2       0.499960000   0.398519556   0.713637673    0   1   1
End final coordinates

     General routines

     Parallel routines
     Hubbard U routines

   This run was terminated on:  21: 8:19  14Aug2014

   JOB DONE.
mv: inter-device move failed: `/scratch/1089128.gilgamesh.cheme.cmu.edu/pwscf.save' to `./pwscf.save'; unable to remove target: Is a directory