     Program PWSCF v.5.0.2 (svn rev. 9656) starts on  5Jun2014 at 21:31:50

     Current dimensions of program PWSCF are:
     Max number of different atomic species (ntypx) = 10
     Max number of k-points (npk) =  40000
     Max angular momentum in pseudopotentials (lmaxx) =  3
     Reading input from pwscf.in
Warning: card &CELL ignored
Warning: card / ignored

     Subspace diagonalization in iterative solution of the eigenvalue problem:
     a serial algorithm will be used

     bravais-lattice index     =            0
     lattice parameter (alat)  =      11.7541  a.u.
     unit-cell volume          =    7139.8207 (a.u.)^3
     number of atoms/cell      =           33
     number of atomic types    =            3
     number of electrons       =       245.00
     number of Kohn-Sham states=          367
     kinetic-energy cutoff     =      40.0000  Ry
     charge density cutoff     =     500.0000  Ry
     convergence threshold     =      1.0E-06
     mixing beta               =       0.3000
     number of iterations used =            8  plain     mixing
     Exchange-correlation      = SLA  PW   PBE  PBE ( 1 4 3 4 0)
     EXX-fraction              =        0.00
     nstep                     =           50

     celldm(1)=  11.754097  celldm(2)=   0.000000  celldm(3)=   0.000000
     celldm(4)=   0.000000  celldm(5)=   0.000000  celldm(6)=   0.000000

     crystal axes: (cart. coord. in units of alat)
               a(1) = (   1.000000   0.000000   0.000000 )
               a(2) = (   0.000000   1.034513   0.000000 )
               a(3) = (   0.000000   0.000000   4.249947 )

     reciprocal axes: (cart. coord. in units 2 pi/alat)
               b(1) = (  1.000000  0.000000  0.000000 )
               b(2) = (  0.000000  0.966638  0.000000 )
               b(3) = (  0.000000  0.000000  0.235297 )

     PseudoPot. # 1 for O  read from file:
     /home/camp/zhonxu/pseudo/o_pbe_v1.01.uspp.F.UPF
     MD5 check sum: 2bcb18d16ea4b960afae9ec6d52f22d2
     Pseudo is Ultrasoft + core correction, Zval =  6.0
     Generated by new atomic code, or converted to UPF format
     Using radial grid of  737 points,  5 beta functions with:
                l(1) =   0
                l(2) =   0
                l(3) =   1
                l(4) =   1
                l(5) =   2
     Q(r) pseudized with  8 coefficients,  rinner =    0.900   0.900   0.900
                                                       0.900   0.900

     PseudoPot. # 2 for Rh read from file:
     /home/camp/zhonxu/pseudo/rh_pbe_v1.uspp.F.UPF
     MD5 check sum: 37b626987ad0dd8ec6bf4cc9ef289918
     Pseudo is Ultrasoft + core correction, Zval = 15.0
     Generated by new atomic code, or converted to UPF format
     Using radial grid of  969 points,  7 beta functions with:
                l(1) =   0
                l(2) =   0
                l(3) =   1
                l(4) =   1
                l(5) =   2
                l(6) =   2
                l(7) =   2
     Q(r) pseudized with  6 coefficients,  rinner =    1.050   1.050   1.050
                                                       1.050   1.050

     PseudoPot. # 3 for H  read from file:
     /home/camp/zhonxu/pseudo/h_pbe_v1.uspp.F.UPF
     MD5 check sum: 3408e3ff4ec8b0a4e358431e7e038a48
     Pseudo is Ultrasoft, Zval =  1.0
     Generated by new atomic code, or converted to UPF format
     Using radial grid of  615 points,  2 beta functions with:
                l(1) =   0
                l(2) =   0
     Q(r) pseudized with  8 coefficients,  rinner =    0.700

     atomic species   valence    mass     pseudopotential
        O0             6.00    15.99940     O ( 1.00)
        Rh1           15.00   102.90550     Rh( 1.00)
        H2             1.00     1.00794     H ( 1.00)

     Simplified LDA+U calculation (l_max = 2) with parameters (eV):
     atomic species    L          U    alpha       J0     beta
        Rh1            2     3.0000   0.0000   0.0000   0.0000

     No symmetry found

   Cartesian axes

     site n.     atom                  positions (alat units)
         1           O0  tau(   1) = (   0.0000000   0.0000000   1.6055876  )
         2           O0  tau(   2) = (   0.0000000   0.5172566   1.7058013  )
         3           Rh1 tau(   3) = (   0.2500000   0.5172566   1.9245886  )
         4           Rh1 tau(   4) = (   0.0000000   0.0000000   1.9225486  )
         5           O0  tau(   5) = (   0.2500000   0.8379556   1.9216561  )
         6           O0  tau(   6) = (   0.2500000   0.1965575   1.9210611  )
         7           O0  tau(   7) = (   0.0000000   0.5172566   2.1183012  )
         8           O0  tau(   8) = (   0.0000000   0.0000000   2.2433346  )
         9           Rh1 tau(   9) = (   0.2500000   0.0000000   2.4442296  )
        10           Rh1 tau(  10) = (   0.0000000   0.5172566   2.4248924  )
        11           O0  tau(  11) = (   0.2500000   0.7138141   2.4423597  )
        12           O0  tau(  12) = (   0.2500000   0.3206991   2.4526445  )
        13           O0  tau(  13) = (   0.0000000   0.0000000   2.6373472  )
        14           O0  tau(  14) = (   0.5000000   0.0000000   1.6058426  )
        15           O0  tau(  15) = (   0.5000000   0.5172566   1.7065663  )
        16           Rh1 tau(  16) = (   0.7500000   0.5172566   1.9245461  )
        17           Rh1 tau(  17) = (   0.5000000   0.0000000   1.9225486  )
        18           O0  tau(  18) = (   0.7500000   0.8379556   1.9215286  )
        19           O0  tau(  19) = (   0.7500000   0.1965575   1.9212311  )
        20           O0  tau(  20) = (   0.5000000   0.5172566   2.1254411  )
        21           O0  tau(  21) = (   0.5000000   0.0000000   2.2428246  )
        22           Rh1 tau(  22) = (   0.7500000   0.0000000   2.4442296  )
        23           Rh1 tau(  23) = (   0.5000000   0.5172566   2.4566820  )
        24           O0  tau(  24) = (   0.7500000   0.7138141   2.4423172  )
        25           O0  tau(  25) = (   0.7500000   0.3206991   2.4526445  )
        26           O0  tau(  26) = (   0.5000000   0.0000000   2.6350523  )
        27           H2  tau(  27) = (   0.0000500   0.6607849   1.6355072  )
        28           H2  tau(  28) = (   0.4999200   0.6608884   1.6361872  )
        29           H2  tau(  29) = (   0.1477700   0.0372011   1.5603681  )
        30           H2  tau(  30) = (   0.6484400   0.0346148   1.5604531  )
        31           O0  tau(  31) = (   0.4997300   0.5556577   2.7651007  )
        32           O0  tau(  32) = (   0.5003300   0.3573415   2.8834192  )
        33           H2  tau(  33) = (   0.4999300   0.4160398   3.0312324  )

     number of k points=    10  Methfessel-Paxton smearing, width (Ry)=  0.0100
                       cart. coord. in units 2pi/alat
        k(    1) = (   0.0000000   0.0000000   0.0000000), wk =   0.1250000
        k(    2) = (   0.0000000   0.2416596   0.0000000), wk =   0.2500000
        k(    3) = (   0.0000000  -0.4833191   0.0000000), wk =   0.1250000
        k(    4) = (   0.2500000   0.0000000   0.0000000), wk =   0.2500000
        k(    5) = (   0.2500000   0.2416596   0.0000000), wk =   0.2500000
        k(    6) = (   0.2500000  -0.4833191   0.0000000), wk =   0.2500000
        k(    7) = (  -0.5000000   0.0000000   0.0000000), wk =   0.1250000
        k(    8) = (  -0.5000000   0.2416596   0.0000000), wk =   0.2500000
        k(    9) = (  -0.5000000  -0.4833191   0.0000000), wk =   0.1250000
        k(   10) = (  -0.2500000   0.2416596   0.0000000), wk =   0.2500000

     Largest allocated arrays     est. size (Mb)     dimensions
     Largest temporary arrays     est. size (Mb)     dimensions

     Check: negative/imaginary core charge=   -0.000003    0.000000

     Initial potential from superposition of free atoms
     Check: negative starting charge=   -0.646062

     starting charge  240.99914, renormalised to  245.00000

     negative rho (up, down):  0.657E+00 0.000E+00
     Number of +U iterations with fixed ns =  0
     Starting occupations:
 --- enter write_ns ---
 LDA+U parameters:
U( 2)     =  3.00000000
alpha( 2) =  0.00000000
atom    3   Tr[ns(na)] =   7.00000
    eigenvalues:
  0.700  0.700  0.700  0.700  0.700
    eigenvectors:
  1.000  0.000  0.000  0.000  0.000
  0.000  1.000  0.000  0.000  0.000
  0.000  0.000  1.000  0.000  0.000
  0.000  0.000  0.000  1.000  0.000
  0.000  0.000  0.000  0.000  1.000
    occupations:
  0.700  0.000  0.000  0.000  0.000
  0.000  0.700  0.000  0.000  0.000
  0.000  0.000  0.700  0.000  0.000
  0.000  0.000  0.000  0.700  0.000
  0.000  0.000  0.000  0.000  0.700
atom    4   Tr[ns(na)] =   7.00000
    eigenvalues:
  0.700  0.700  0.700  0.700  0.700
    eigenvectors:
  1.000  0.000  0.000  0.000  0.000
  0.000  1.000  0.000  0.000  0.000
  0.000  0.000  1.000  0.000  0.000
  0.000  0.000  0.000  1.000  0.000
  0.000  0.000  0.000  0.000  1.000
    occupations:
  0.700  0.000  0.000  0.000  0.000
  0.000  0.700  0.000  0.000  0.000
  0.000  0.000  0.700  0.000  0.000
  0.000  0.000  0.000  0.700  0.000
  0.000  0.000  0.000  0.000  0.700
atom    9   Tr[ns(na)] =   7.00000
    eigenvalues:
  0.700  0.700  0.700  0.700  0.700
    eigenvectors:
  1.000  0.000  0.000  0.000  0.000
  0.000  1.000  0.000  0.000  0.000
  0.000  0.000  1.000  0.000  0.000
  0.000  0.000  0.000  1.000  0.000
  0.000  0.000  0.000  0.000  1.000
    occupations:
  0.700  0.000  0.000  0.000  0.000
  0.000  0.700  0.000  0.000  0.000
  0.000  0.000  0.700  0.000  0.000
  0.000  0.000  0.000  0.700  0.000
  0.000  0.000  0.000  0.000  0.700
atom   10   Tr[ns(na)] =   7.00000
    eigenvalues:
  0.700  0.700  0.700  0.700  0.700
    eigenvectors:
  1.000  0.000  0.000  0.000  0.000
  0.000  1.000  0.000  0.000  0.000
  0.000  0.000  1.000  0.000  0.000
  0.000  0.000  0.000  1.000  0.000
  0.000  0.000  0.000  0.000  1.000
    occupations:
  0.700  0.000  0.000  0.000  0.000
  0.000  0.700  0.000  0.000  0.000
  0.000  0.000  0.700  0.000  0.000
  0.000  0.000  0.000  0.700  0.000
  0.000  0.000  0.000  0.000  0.700
atom   16   Tr[ns(na)] =   7.00000
    eigenvalues:
  0.700  0.700  0.700  0.700  0.700
    eigenvectors:
  1.000  0.000  0.000  0.000  0.000
  0.000  1.000  0.000  0.000  0.000
  0.000  0.000  1.000  0.000  0.000
  0.000  0.000  0.000  1.000  0.000
  0.000  0.000  0.000  0.000  1.000
    occupations:
  0.700  0.000  0.000  0.000  0.000
  0.000  0.700  0.000  0.000  0.000
  0.000  0.000  0.700  0.000  0.000
  0.000  0.000  0.000  0.700  0.000
  0.000  0.000  0.000  0.000  0.700
atom   17   Tr[ns(na)] =   7.00000
    eigenvalues:
  0.700  0.700  0.700  0.700  0.700
    eigenvectors:
  1.000  0.000  0.000  0.000  0.000
  0.000  1.000  0.000  0.000  0.000
  0.000  0.000  1.000  0.000  0.000
  0.000  0.000  0.000  1.000  0.000
  0.000  0.000  0.000  0.000  1.000
    occupations:
  0.700  0.000  0.000  0.000  0.000
  0.000  0.700  0.000  0.000  0.000
  0.000  0.000  0.700  0.000  0.000
  0.000  0.000  0.000  0.700  0.000
  0.000  0.000  0.000  0.000  0.700
atom   22   Tr[ns(na)] =   7.00000
    eigenvalues:
  0.700  0.700  0.700  0.700  0.700
    eigenvectors:
  1.000  0.000  0.000  0.000  0.000
  0.000  1.000  0.000  0.000  0.000
[...]
  0.034  0.000  0.000  0.973  0.000
 -0.000 -0.009 -0.000  0.000  0.595
atom   16   Tr[ns(na)] =   8.02828
    eigenvalues:
  0.586  0.607  0.891  0.956  0.973
    eigenvectors:
  0.015  0.186  0.003  0.000  0.796
  0.932  0.067  0.000  0.000  0.000
  0.000  0.000  0.990  0.007  0.003
  0.052  0.747  0.000  0.000  0.201
  0.000  0.000  0.007  0.992  0.001
    occupations:
  0.899  0.006  0.003 -0.147  0.001
  0.006  0.588 -0.000  0.003 -0.006
  0.003 -0.000  0.892 -0.005 -0.005
 -0.147  0.003 -0.005  0.680 -0.000
  0.001 -0.006 -0.005 -0.000  0.956
atom   17   Tr[ns(na)] =   8.02450
    eigenvalues:
  0.601  0.650  0.867  0.918  0.977
    eigenvectors:
  0.001  0.992  0.000  0.000  0.008
  0.000  0.000  0.049  0.951  0.000
  0.000  0.000  0.951  0.049  0.000
  0.000  0.008  0.000  0.000  0.992
  0.999  0.001  0.000  0.000  0.000
    occupations:
  0.652 -0.004 -0.001  0.028  0.001
 -0.004  0.915  0.011  0.001 -0.001
 -0.001  0.011  0.870 -0.001  0.001
  0.028  0.001 -0.001  0.974  0.000
  0.001 -0.001  0.001  0.000  0.601
atom   22   Tr[ns(na)] =   8.01962
    eigenvalues:
  0.638  0.648  0.854  0.892  0.978
    eigenvectors:
  0.000  0.151  0.001  0.000  0.848
  0.999  0.001  0.000  0.000  0.000
  0.000  0.000  0.985  0.015  0.000
  0.001  0.847  0.000  0.000  0.151
  0.000  0.000  0.015  0.985  0.000
    occupations:
  0.928  0.002  0.000 -0.118  0.000
  0.002  0.638  0.001 -0.001 -0.000
  0.000  0.001  0.854 -0.005  0.005
 -0.118 -0.001 -0.005  0.698  0.000
  0.000 -0.000  0.005  0.000  0.892
atom   23   Tr[ns(na)] =   8.03563
    eigenvalues:
  0.601  0.635  0.860  0.949  0.974
    eigenvectors:
  0.000  0.994  0.000  0.003  0.003
  0.001  0.000  0.999  0.000  0.000
  0.000  0.003  0.000  0.996  0.001
  0.000  0.003  0.000  0.001  0.997
  0.999  0.000  0.001  0.000  0.000
    occupations:
  0.636 -0.000  0.017  0.018 -0.000
 -0.000  0.859 -0.001 -0.000 -0.009
  0.017 -0.001  0.948 -0.002  0.000
  0.018 -0.000 -0.002  0.973  0.000
 -0.000 -0.009  0.000  0.000  0.601
N of occupied +U levels =  64.2031450
 --- exit write_ns ---

     Threshold (ethr) on eigenvalues was too large:
     Diagonalizing with lowered threshold

     Davidson diagonalization with overlap
     ethr =  3.82E-08,  avg # of iterations =  1.5

[...]

     total energy              =   -2012.44374316 Ry
     Harris-Foulkes estimate   =   -2012.44374316 Ry
     estimated scf accuracy    <       0.00000002 Ry

     iteration # 15     ecut=    40.00 Ry     beta=0.30
     Davidson diagonalization with overlap
     ethr =  7.49E-12,  avg # of iterations =  1.0

     negative rho (up, down):  0.692E+00 0.000E+00

     End of self-consistent calculation
 --- enter write_ns ---
 LDA+U parameters:
U( 2)     =  3.00000000
alpha( 2) =  0.00000000
atom    3   Tr[ns(na)] =   8.02751
    eigenvalues:
  0.586  0.607  0.891  0.956  0.973
    eigenvectors:
  0.016  0.185  0.003  0.000  0.796
  0.928  0.071  0.000  0.000  0.000
  0.000  0.000  0.986  0.012  0.003
  0.055  0.743  0.000  0.000  0.201
  0.000  0.000  0.011  0.988  0.001
    occupations:
  0.899 -0.006  0.002 -0.147 -0.001
 -0.006  0.588 -0.001 -0.003 -0.006
  0.002 -0.001  0.892 -0.005  0.007
 -0.147 -0.003 -0.005  0.680 -0.000
 -0.001 -0.006  0.007 -0.000  0.956
atom    4   Tr[ns(na)] =   8.02551
    eigenvalues:
  0.600  0.649  0.871  0.917  0.976
    eigenvectors:
  0.001  0.992  0.000  0.000  0.007
  0.000  0.000  0.078  0.921  0.000
  0.000  0.000  0.921  0.078  0.000
  0.000  0.007  0.000  0.000  0.993
  0.999  0.001  0.000  0.000  0.000
    occupations:
  0.651 -0.004 -0.002  0.028  0.001
 -0.004  0.913  0.012  0.001 -0.001
 -0.002  0.012  0.874 -0.001  0.001
  0.028  0.001 -0.001  0.974  0.000
  0.001 -0.001  0.001  0.000  0.600
atom    9   Tr[ns(na)] =   8.01923
    eigenvalues:
  0.638  0.648  0.854  0.892  0.978
    eigenvectors:
  0.002  0.149  0.000  0.000  0.848
  0.986  0.014  0.000  0.000  0.000
  0.000  0.000  0.983  0.017  0.000
  0.012  0.836  0.000  0.000  0.151
  0.000  0.000  0.017  0.983  0.000
    occupations:
  0.928 -0.001  0.000 -0.118 -0.001
 -0.001  0.638  0.000  0.002 -0.000
  0.000  0.000  0.855 -0.005 -0.005
 -0.118  0.002 -0.005  0.698  0.001
 -0.001 -0.000 -0.005  0.001  0.892
atom   10   Tr[ns(na)] =   8.02133
    eigenvalues:
  0.595  0.599  0.915  0.925  0.976
    eigenvectors:
  0.000  0.991  0.000  0.000  0.008
  0.001  0.000  0.001  0.999  0.000
  0.000  0.001  0.999  0.001  0.000
  0.000  0.008  0.000  0.000  0.991
  0.999  0.000  0.000  0.001  0.000
    occupations:
  0.603  0.000  0.007  0.034 -0.000
  0.000  0.925 -0.000  0.000 -0.009
  0.007 -0.000  0.915  0.000 -0.000
  0.034  0.000  0.000  0.973  0.000
 -0.000 -0.009 -0.000  0.000  0.595
atom   16   Tr[ns(na)] =   8.02745
    eigenvalues:
  0.586  0.607  0.891  0.956  0.973
    eigenvectors:
  0.016  0.186  0.003  0.000  0.795
  0.932  0.067  0.000  0.000  0.000
  0.000  0.000  0.990  0.007  0.003
  0.052  0.747  0.000  0.000  0.201
  0.000  0.000  0.007  0.992  0.001
    occupations:
  0.899  0.006  0.003 -0.147  0.001
  0.006  0.588 -0.000  0.003 -0.006
  0.003 -0.000  0.892 -0.005 -0.005
 -0.147  0.003 -0.005  0.680 -0.000
  0.001 -0.006 -0.005 -0.000  0.956
atom   17   Tr[ns(na)] =   8.02409
    eigenvalues:
  0.601  0.650  0.867  0.917  0.977
    eigenvectors:
  0.001  0.992  0.000  0.000  0.008
  0.000  0.000  0.049  0.951  0.000
  0.000  0.000  0.951  0.049  0.000
  0.000  0.008  0.000  0.000  0.992
  0.999  0.001  0.000  0.000  0.000
    occupations:
  0.652 -0.004 -0.001  0.028  0.001
 -0.004  0.915  0.011  0.001 -0.001
 -0.001  0.011  0.870 -0.001  0.001
  0.028  0.001 -0.001  0.974  0.000
  0.001 -0.001  0.001  0.000  0.601
atom   22   Tr[ns(na)] =   8.01933
    eigenvalues:
  0.638  0.648  0.854  0.892  0.978
    eigenvectors:
  0.000  0.151  0.001  0.000  0.848
  0.999  0.001  0.000  0.000  0.000
  0.000  0.000  0.984  0.015  0.000
  0.001  0.848  0.000  0.000  0.151
  0.000  0.000  0.015  0.985  0.000
    occupations:
  0.928  0.002  0.000 -0.118 -0.000
  0.002  0.638  0.001 -0.001 -0.000
  0.000  0.001  0.854 -0.005  0.005
 -0.118 -0.001 -0.005  0.698  0.000
 -0.000 -0.000  0.005  0.000  0.892
atom   23   Tr[ns(na)] =   8.03680
    eigenvalues:
  0.601  0.635  0.860  0.949  0.974
    eigenvectors:
  0.000  0.994  0.000  0.003  0.003
  0.001  0.000  0.999  0.000  0.000
  0.000  0.003  0.000  0.996  0.001
  0.000  0.003  0.000  0.001  0.997
  0.999  0.000  0.001  0.000  0.000
    occupations:
  0.636 -0.000  0.017  0.018 -0.000
 -0.000  0.860 -0.001 -0.000 -0.009
  0.017 -0.001  0.948 -0.002  0.000
  0.018 -0.000 -0.002  0.973  0.000
 -0.000 -0.009  0.000  0.000  0.601
N of occupied +U levels =  64.2012652
 --- exit write_ns ---

[...]

          k = 0.2500-0.4833 0.0000 ( 30510 PWs)   bands (ev):

[...]

          k =-0.2500 0.2417 0.0000 ( 30481 PWs)   bands (ev):

   -48.5343 -48.4400 -48.4337 -48.4136 -48.3987 -48.3706 -48.3552 -48.3464
   -48.3292 -48.3111 -48.3097 -48.2366 -48.2291 -48.2088 -48.0929 -48.0883
   -48.0598 -48.0499 -48.0346 -48.0174 -48.0045 -47.9906 -47.9882 -47.9613
   -24.2237 -20.7752 -20.4797 -20.3366 -20.2469 -20.0265 -19.8327 -19.7919
   -19.7133 -19.6120 -19.4928 -19.4755 -19.4488 -19.3118 -19.2308 -19.2120
   -19.0983 -18.4650 -18.3080 -17.5486  -9.2939  -9.1670  -9.0851  -8.9741
    -8.7326  -8.4369  -8.3870  -8.2521  -8.1592  -8.0912  -8.0226  -7.9868
    -7.9507  -7.8831  -7.8447  -7.6505  -7.5110  -7.4043  -7.3481  -7.1447
    -6.8643  -6.8341  -6.7540  -6.6380  -6.5062  -6.4801  -6.3129  -6.2052
    -6.0637  -5.9467  -5.8319  -5.7769  -5.7255  -5.6137  -5.5828  -5.5363
    -5.4693  -5.4062  -5.3177  -5.2049  -5.1364  -5.0856  -4.9413  -4.7744
    -4.6842  -4.5089  -4.3941  -4.3151  -4.2113  -4.1404  -4.0063  -3.9439
    -3.8512  -3.7611  -3.5511  -3.5158  -3.3614  -3.2914  -3.2520  -3.1190
    -3.0328  -2.9252  -2.8527  -2.7699  -2.7352  -2.6922  -2.6269  -2.5770
    -2.4833  -2.4347  -2.3885  -2.2660  -2.0121  -1.8017  -1.6120  -1.5936
    -1.4807  -1.4379  -1.2852  -1.1716  -1.0436  -0.9634  -0.8846  -0.2728
     0.2752   0.3450   0.5613   0.9532   1.1539   1.4640   1.6074   1.8479
     1.9659   2.1390   2.1875   2.3266   2.4136   2.4956   2.7862   3.3264
     3.8973   4.1611   4.4942   5.0225   5.2505   5.5464   5.9120   5.9885
     5.9967   6.2409   6.3651   6.5253   6.6152   6.9090   6.9465   7.2313
     7.4152   7.5299   7.7122   7.8365   7.8825   8.2061   8.2366   8.3081
     8.3959   8.4819   8.6833   8.7900   8.8974   9.0063   9.1272   9.2028
     9.3070   9.3882   9.4907   9.6282   9.7903   9.8549   9.9293   9.9803
    10.0751  10.1897  10.2987  10.3470  10.4588  10.5389  10.6139  10.6968
    10.7731  10.9042  11.0115  11.1220  11.1714  11.2588  11.3011  11.3726
    11.4933  11.5537  11.6805  11.7301  11.7682  11.8017  11.8751  11.9580
    11.9946  12.1626  12.2292  12.3239  12.3815  12.4791  12.5457  12.5672
    12.6350  12.7191  12.7981  12.9030  12.9437  13.0056  13.0779  13.1734
    13.2755  13.3845  13.4361  13.5649  13.6347  13.6773  13.7948  13.8560
    13.9159  13.9925  14.0494  14.1349  14.2319  14.3318  14.3844  14.4164
    14.5091  14.5338  14.5947  14.7110  14.7670  14.8128  14.9784  15.0125
    15.0873  15.1678  15.2598  15.3223  15.4473  15.5118  15.5507  15.6177
    15.7015  15.7547  15.8018  15.8436  15.9392  15.9861  16.0463  16.0597
    16.1401  16.1812  16.3404  16.3819  16.4319  16.4747  16.5356  16.6083
    16.6221  16.7116  16.7724  16.8568  16.9164  17.0376  17.0798  17.1716
    17.2311  17.2412  17.2924  17.3931  17.4505  17.4997  17.5627  17.6112
    17.7130  17.7282  17.7790  17.8913  17.9455  17.9853  18.0883  18.1153
    18.2109  18.2345  18.3473  18.4055  18.5168  18.6203  18.6560  18.7008
    18.8640  18.9202  18.9806  19.0151  19.0559  19.1743  19.2472  19.2925
    19.3517  19.4275  19.4834  19.5717  19.6222  19.6861  19.7613  19.8987
    19.9434  19.9940  20.1095  20.1759  20.2176  20.3298  20.3747  20.4811
    20.5867  20.6622  20.7204  20.7335  20.7762  20.8569  20.9266  20.9977
    21.0866  21.1210  21.1611  21.2139  21.2628  21.3579  21.4154  21.4667
    21.5277  21.5811  21.6693  21.6888  21.7545  21.8181  21.8342  21.9435
    22.0464  22.0799  22.1169  22.1936  22.2919  22.3451  22.4218  22.4459
    22.5254  22.5991  22.6604  22.7096  22.8024  22.8589  22.9194

     the Fermi energy is    -1.3418 ev

!    total energy              =   -2012.44374316 Ry
     Harris-Foulkes estimate   =   -2012.44374316 Ry
     estimated scf accuracy    <          3.4E-09 Ry

     The total energy is the sum of the following terms:

     one-electron contribution =  -23730.16193378 Ry
     hartree contribution      =   11921.15751276 Ry
     xc contribution           =    -379.95757566 Ry
     ewald contribution        =   10175.33427628 Ry
     Hubbard energy            =       1.18486399 Ry
     smearing contrib. (-TS)   =      -0.00088674 Ry

     convergence has been achieved in  15 iterations

     Forces acting on atoms (Ry/au):

     negative rho (up, down):  0.692E+00 0.000E+00
     atom    1 type  1   force =    -0.00713299   -0.01273453    0.00002733
     atom    2 type  1   force =     0.00017882    0.00468000   -0.00032723
     atom    3 type  2   force =     0.03093959    0.00445499   -0.00011018
     atom    4 type  2   force =     0.00808330    0.00826475    0.00001459
     atom    5 type  1   force =    -0.00303499   -0.03231555    0.00004554
     atom    6 type  1   force =     0.00196761    0.03040318    0.00014496
     atom    7 type  1   force =    -0.00027261   -0.00411643    0.00022419
     atom    8 type  1   force =    -0.00278232    0.00109264   -0.00017433
     atom    9 type  2   force =     0.00484889    0.00094547   -0.00006488
     atom   10 type  2   force =    -0.00016483    0.00014615   -0.00031282
     atom   11 type  1   force =    -0.01102257    0.01865472    0.00008786
     atom   12 type  1   force =    -0.00470707   -0.01287334    0.00015261
     atom   13 type  1   force =    -0.00069817   -0.00289003   -0.00007193
     atom   14 type  1   force =    -0.00586656   -0.01252939    0.00036272
     atom   15 type  1   force =     0.00009408    0.00466729   -0.00023982
     atom   16 type  2   force =    -0.03107257    0.00456006   -0.00008307
     atom   17 type  2   force =     0.00780496    0.00903241   -0.00013309
     atom   18 type  1   force =    -0.00077133   -0.03300755    0.00004051
     atom   19 type  1   force =     0.00412240    0.02988287    0.00014799
     atom   20 type  1   force =    -0.00015403   -0.00568331    0.00022285
     atom   21 type  1   force =    -0.00295925    0.00120806   -0.00028854
     atom   22 type  2   force =    -0.00224987    0.00097083   -0.00009766
     atom   23 type  2   force =    -0.00045123    0.00183774   -0.00010732
     atom   24 type  1   force =     0.01062962    0.01845837    0.00008806
     atom   25 type  1   force =     0.00576327   -0.01301658    0.00021060
     atom   26 type  1   force =    -0.00094704   -0.01051854    0.00036751
     atom   27 type  3   force =     0.00000575    0.00022563    0.00019832
     atom   28 type  3   force =     0.00000693    0.00017099    0.00026389
     atom   29 type  3   force =    -0.00003403    0.00002066    0.00012542
     atom   30 type  3   force =    -0.00024083   -0.00000986    0.00002868
     atom   31 type  1   force =    -0.00017000   -0.00010752    0.00010505
     atom   32 type  1   force =     0.00030705    0.00018660   -0.00030294
     atom   33 type  3   force =    -0.00001995   -0.00006078   -0.00054487

     Total force =     0.001334     Total SCF correction =     0.000141
     SCF correction compared to forces is large: reduce conv_thr to get better values

     entering subroutine stress ...

     negative rho (up, down):  0.692E+00 0.000E+00
          total   stress  (Ry/bohr**3)                   (kbar)     P=  -16.76
  -0.00011471   0.00000468   0.00000414        -16.87      0.69      0.61
   0.00000468  -0.00014253   0.00000431          0.69    -20.97      0.63
   0.00000414   0.00000431  -0.00008460          0.61      0.63    -12.44

     bfgs converged in   9 scf cycles and   8 bfgs steps
     (criteria: energy < 0.10E-03, force < 0.10E-02)

     End of BFGS Geometry Optimization

     Final energy   =   -2012.4437431589 Ry
Begin final coordinates

ATOMIC_POSITIONS (crystal)
O0       0.000000000   0.000000000   0.378000330    0   0   1
O0       0.000000000   0.500000000   0.401747941    0   0   1
Rh1      0.250000000   0.500000000   0.452987112    0   0   1
Rh1      0.000000000   0.000000000   0.452419196    0   0   1
O0       0.250000000   0.810000000   0.452312723    0   0   1
O0       0.250000000   0.190000000   0.452065618    0   0   1
O0       0.000000000   0.500000000   0.499011733    0   0   1
O0       0.000000000   0.000000000   0.527817074    0   0   1
Rh1      0.250000000   0.000000000   0.574908233    0   0   1
Rh1      0.000000000   0.500000000   0.570673990    0   0   1
O0       0.250000000   0.690000000   0.574329271    0   0   1
O0       0.250000000   0.310000000   0.576701968    0   0   1
O0       0.000000000   0.000000000   0.620425220    0   0   1
O0       0.500000000   0.000000000   0.377918003    0   0   1
O0       0.500000000   0.500000000   0.401897546    0   0   1
Rh1      0.750000000   0.500000000   0.452978222    0   0   1
Rh1      0.500000000   0.000000000   0.452263315    0   0   1
O0       0.750000000   0.810000000   0.452278312    0   0   1
O0       0.750000000   0.190000000   0.452098917    0   0   1
O0       0.500000000   0.500000000   0.500299278    0   0   1
O0       0.500000000   0.000000000   0.527665732    0   0   1
Rh1      0.750000000   0.000000000   0.574904542    0   0   1
Rh1      0.500000000   0.500000000   0.577783770    0   0   1
O0       0.750000000   0.690000000   0.574326758    0   0   1
O0       0.750000000   0.310000000   0.576701025    0   0   1
O0       0.500000000   0.000000000   0.619949010    0   0   1
H2      -0.000057829   0.637978234   0.384963763
H2       0.499827465   0.638234911   0.385175740
H2       0.147745897   0.036055257   0.367333198
H2       0.648558560   0.033645274   0.367324095
O0       0.499390771   0.536405844   0.650483480
O0       0.500774843   0.346069169   0.678160951
H2       0.499922064   0.402201211   0.713023933
End final coordinates

     General routines

     Parallel routines
     Hubbard U routines

   This run was terminated on:  11: 8:52   6Jun2014

   JOB DONE.
Running PBS batch system epilogue script
Job id: 381421.audhumbla.fysik.dtu.dk
Username: zhonxu
Groupname: campgst
Jobname: RhO2/Eads-2-layers/OOH-U-3.0
Sessionid: 15403
Queuename: verylong
Accounting:
This job has allocated the following 16 nodes:
a117 a117 a117 a117 a117 a117 a117 a117 a048 a048 a048 a048 a048 a048 a048 a048
Finished epilogue job 381421.audhumbla.fysik.dtu.dk for zhonxu