     Program PWSCF v.5.0.2 (svn rev. 9656) starts on 28Apr2014 at 10: 6:39

     Current dimensions of program PWSCF are:
     Max number of different atomic species (ntypx) = 10
     Max number of k-points (npk) =  40000
     Max angular momentum in pseudopotentials (lmaxx) =  3
     Reading input from pwscf.in
Warning: card &CELL ignored
Warning: card / ignored

     Subspace diagonalization in iterative solution of the eigenvalue problem:
     a serial algorithm will be used

     bravais-lattice index     =            0
     lattice parameter (alat)  =      11.2250  a.u.
     unit-cell volume          =    7005.5484 (a.u.)^3
     number of atoms/cell      =           31
     number of atomic types    =            3
     number of electrons       =       214.00
     number of Kohn-Sham states=          309
     kinetic-energy cutoff     =      40.0000  Ry
     charge density cutoff     =     500.0000  Ry
     convergence threshold     =      1.0E-06
     mixing beta               =       0.7000
     number of iterations used =            8  plain     mixing
     Exchange-correlation      = SLA  PW   PBE  PBE ( 1 4 3 4 0)
     EXX-fraction              =        0.00
     nstep                     =           50

     celldm(1)=  11.224973  celldm(2)=   0.000000  celldm(3)=   0.000000
     celldm(4)=   0.000000  celldm(5)=   0.000000  celldm(6)=   0.000000

     crystal axes: (cart. coord. in units of alat)
               a(1) = (   1.000000   0.000000   0.000000 )
               a(2) = (   0.000000   1.107086   0.000000 )
               a(3) = (   0.000000   0.000000   4.474090 )

     reciprocal axes: (cart. coord. in units 2 pi/alat)
               b(1) = (  1.000000  0.000000  0.000000 )
               b(2) = (  0.000000  0.903272  0.000000 )
               b(3) = (  0.000000  0.000000  0.223509 )

     PseudoPot. # 1 for O  read from file:
     /home/camp/zhonxu/pseudo/o_pbe_v1.01.uspp.F.UPF
     MD5 check sum: 2bcb18d16ea4b960afae9ec6d52f22d2
     Pseudo is Ultrasoft + core correction, Zval =  6.0
     Generated by new atomic code, or converted to UPF format
     Using radial grid of  737 points,  5 beta functions with:
                l(1) =   0
                l(2) =   0
                l(3) =   1
                l(4) =   1
                l(5) =   2
     Q(r) pseudized with  8 coefficients,  rinner =    0.900   0.900   0.900
                                                       0.900   0.900

     PseudoPot. # 2 for Ti read from file:
     /home/camp/zhonxu/pseudo/ti_pbe_v1.uspp.F.UPF
     MD5 check sum: bcc8f6961b3b91f0cac3ca967d22d0fb
     Pseudo is Ultrasoft + core correction, Zval = 12.0
     Generated by new atomic code, or converted to UPF format
     Using radial grid of  851 points,  6 beta functions with:
                l(1) =   0
                l(2) =   0
                l(3) =   1
                l(4) =   1
                l(5) =   2
                l(6) =   2
     Q(r) pseudized with  6 coefficients,  rinner =    1.000   1.000   1.000
                                                       1.000   1.000

     PseudoPot. # 3 for H  read from file:
     /home/camp/zhonxu/pseudo/h_pbe_v1.uspp.F.UPF
     MD5 check sum: 3408e3ff4ec8b0a4e358431e7e038a48
     Pseudo is Ultrasoft, Zval =  1.0
     Generated by new atomic code, or converted to UPF format
     Using radial grid of  615 points,  2 beta functions with:
                l(1) =   0
                l(2) =   0
     Q(r) pseudized with  8 coefficients,  rinner =    0.700

     atomic species   valence    mass     pseudopotential
        O0             6.00    15.99940     O ( 1.00)
        Ti1           12.00    47.88000     Ti( 1.00)
        H2             1.00     1.00794     H ( 1.00)

     Simplified LDA+U calculation (l_max = 2) with parameters (eV):
     atomic species    L          U    alpha       J0     beta
        Ti1            2     2.5000   0.0000   0.0000   0.0000

     No symmetry found

   Cartesian axes

     site n.     atom                  positions (alat units)
         1           O0  tau(   1) = (   0.0000000   0.0000000   1.6912507  )
         2           O0  tau(   2) = (   0.0000000   0.5535432   1.7801061  )
         3           Ti1 tau(   3) = (   0.2500000   0.5535432   2.0136983  )
         4           Ti1 tau(   4) = (   0.0000000   0.0000000   2.0256889  )
         5           O0  tau(   5) = (   0.2500000   0.8967400   2.0101638  )
         6           O0  tau(   6) = (   0.2500000   0.2103464   2.0140115  )
         7           O0  tau(   7) = (   0.0000000   0.5535432   2.2264413  )
         8           O0  tau(   8) = (   0.0000000   0.0000000   2.3510894  )
         9           Ti1 tau(   9) = (   0.2500000   0.0000000   2.5997146  )
        10           Ti1 tau(  10) = (   0.0000000   0.5535432   2.5433858  )
        11           O0  tau(  11) = (   0.2500000   0.7638896   2.5969406  )
        12           O0  tau(  12) = (   0.2500000   0.3431968   2.5970301  )
        13           O0  tau(  13) = (   0.0000000   0.0000000   2.7842260  )
        14           O0  tau(  14) = (   0.5000000   0.0000000   1.6905348  )
        15           O0  tau(  15) = (   0.5000000   0.5535432   1.7767953  )
        16           Ti1 tau(  16) = (   0.7500000   0.5535432   2.0136983  )
        17           Ti1 tau(  17) = (   0.5000000   0.0000000   2.0204542  )
        18           O0  tau(  18) = (   0.7500000   0.8967400   2.0103875  )
        19           O0  tau(  19) = (   0.7500000   0.2103464   2.0134299  )
        20           O0  tau(  20) = (   0.5000000   0.5535432   2.2001336  )
        21           O0  tau(  21) = (   0.5000000   0.0000000   2.3501946  )
        22           Ti1 tau(  22) = (   0.7500000   0.0000000   2.5996698  )
        23           Ti1 tau(  23) = (   0.5000000   0.5535432   2.6765794  )
        24           O0  tau(  24) = (   0.7500000   0.7638896   2.5974328  )
        25           O0  tau(  25) = (   0.7500000   0.3431968   2.5965380  )
        26           O0  tau(  26) = (   0.5000000   0.0000000   2.7806915  )
        27           H2  tau(  27) = (  -0.0007400   0.6861389   1.6797970  )
        28           H2  tau(  28) = (   0.4994200   0.6816995   1.6713410  )
        29           H2  tau(  29) = (   0.1486600   0.0377184   1.6265106  )
        30           H2  tau(  30) = (   0.6489300   0.0363456   1.6257052  )
        31           O0  tau(  31) = (   0.4999900   0.5533882   2.9590287  )

     number of k points=    10  Methfessel-Paxton smearing, width (Ry)=  0.0100
                       cart. coord. in units 2pi/alat
        k(    1) = (   0.0000000   0.0000000   0.0000000), wk =   0.1250000
        k(    2) = (   0.0000000   0.2258180   0.0000000), wk =   0.2500000
        k(    3) = (   0.0000000  -0.4516359   0.0000000), wk =   0.1250000
        k(    4) = (   0.2500000   0.0000000   0.0000000), wk =   0.2500000
        k(    5) = (   0.2500000   0.2258180   0.0000000), wk =   0.2500000
        k(    6) = (   0.2500000  -0.4516359   0.0000000), wk =   0.2500000
        k(    7) = (  -0.5000000   0.0000000   0.0000000), wk =   0.1250000
        k(    8) = (  -0.5000000   0.2258180   0.0000000), wk =   0.2500000
        k(    9) = (  -0.5000000  -0.4516359   0.0000000), wk =   0.1250000
        k(   10) = (  -0.2500000   0.2258180   0.0000000), wk =   0.2500000

     Largest allocated arrays     est. size (Mb)     dimensions
     Largest temporary arrays     est. size (Mb)     dimensions

     Check: negative/imaginary core charge=   -0.000006    0.000000

     Initial potential from superposition of free atoms
     Check: negative starting charge=   -0.102438

     starting charge  205.99958, renormalised to  214.00000

     negative rho (up, down):  0.106E+00 0.000E+00
     Number of +U iterations with fixed ns =  0
     Starting occupations:
 --- enter write_ns ---
 LDA+U parameters:
U( 2)     =  2.50000000
alpha( 2) =  0.00000000
atom    3   Tr[ns(na)] =   2.00000
    eigenvalues:
  0.200  0.200  0.200  0.200  0.200
    eigenvectors:
  1.000  0.000  0.000  0.000  0.000
  0.000  1.000  0.000  0.000  0.000
  0.000  0.000  1.000  0.000  0.000
  0.000  0.000  0.000  1.000  0.000
  0.000  0.000  0.000  0.000  1.000
    occupations:
  0.200  0.000  0.000  0.000  0.000
  0.000  0.200  0.000  0.000  0.000
  0.000  0.000  0.200  0.000  0.000
  0.000  0.000  0.000  0.200  0.000
  0.000  0.000  0.000  0.000  0.200
atom    4   Tr[ns(na)] =   2.00000
    eigenvalues:
  0.200  0.200  0.200  0.200  0.200
    eigenvectors:
  1.000  0.000  0.000  0.000  0.000
  0.000  1.000  0.000  0.000  0.000
  0.000  0.000  1.000  0.000  0.000
  0.000  0.000  0.000  1.000  0.000
  0.000  0.000  0.000  0.000  1.000
    occupations:
  0.200  0.000  0.000  0.000  0.000
  0.000  0.200  0.000  0.000  0.000
  0.000  0.000  0.200  0.000  0.000
  0.000  0.000  0.000  0.200  0.000
  0.000  0.000  0.000  0.000  0.200
atom    9   Tr[ns(na)] =   2.00000
    eigenvalues:
  0.200  0.200  0.200  0.200  0.200
    eigenvectors:
  1.000  0.000  0.000  0.000  0.000
  0.000  1.000  0.000  0.000  0.000
  0.000  0.000  1.000  0.000  0.000
  0.000  0.000  0.000  1.000  0.000
  0.000  0.000  0.000  0.000  1.000
    occupations:
  0.200  0.000  0.000  0.000  0.000
  0.000  0.200  0.000  0.000  0.000
  0.000  0.000  0.200  0.000  0.000
  0.000  0.000  0.000  0.200  0.000
  0.000  0.000  0.000  0.000  0.200
atom   10   Tr[ns(na)] =   2.00000
    eigenvalues:
  0.200  0.200  0.200  0.200  0.200
    eigenvectors:
  1.000  0.000  0.000  0.000  0.000
  0.000  1.000  0.000  0.000  0.000
  0.000  0.000  1.000  0.000  0.000
  0.000  0.000  0.000  1.000  0.000
  0.000  0.000  0.000  0.000  1.000
    occupations:
  0.200  0.000  0.000  0.000  0.000
  0.000  0.200  0.000  0.000  0.000
  0.000  0.000  0.200  0.000  0.000
  0.000  0.000  0.000  0.200  0.000
  0.000  0.000  0.000  0.000  0.200
atom   16   Tr[ns(na)] =   2.00000
    eigenvalues:
  0.200  0.200  0.200  0.200  0.200
    eigenvectors:
  1.000  0.000  0.000  0.000  0.000
  0.000  1.000  0.000  0.000  0.000
  0.000  0.000  1.000  0.000  0.000
  0.000  0.000  0.000  1.000  0.000
  0.000  0.000  0.000  0.000  1.000
    occupations:
  0.200  0.000  0.000  0.000  0.000
  0.000  0.200  0.000  0.000  0.000
  0.000  0.000  0.200  0.000  0.000
  0.000  0.000  0.000  0.200  0.000
  0.000  0.000  0.000  0.000  0.200
atom   17   Tr[ns(na)] =   2.00000
    eigenvalues:
  0.200  0.200  0.200  0.200  0.200
    eigenvectors:
  1.000  0.000  0.000  0.000  0.000
  0.000  1.000  0.000  0.000  0.000
  0.000  0.000  1.000  0.000  0.000
  0.000  0.000  0.000  1.000  0.000
  0.000  0.000  0.000  0.000  1.000
    occupations:
  0.200  0.000  0.000  0.000  0.000
  0.000  0.200  0.000  0.000  0.000
  0.000  0.000  0.200  0.000  0.000
  0.000  0.000  0.000  0.200  0.000
  0.000  0.000  0.000  0.000  0.200
atom   22   Tr[ns(na)] =   2.00000
    eigenvalues:
  0.200  0.200  0.200  0.200  0.200
    eigenvectors:
  1.000  0.000  0.000  0.000  0.000
  0.000  1.000  0.000  0.000  0.000
  0.000  0.000  1.000  0.000  0.000
  0.000  0.000  0.000  1.000  0.000
  0.000  0.000  0.000  0.000  1.000
    occupations:
  0.200  0.000  0.000  0.000  0.000
  0.000  0.200  0.000  0.000  0.000
[...]
  0.006  0.003  0.000  0.001  0.990
  0.001  0.868  0.129  0.000  0.003
  0.000  0.128  0.871  0.000  0.000
  0.992  0.002  0.000  0.000  0.006
  0.000  0.000  0.000  0.999  0.001
    occupations:
  0.426  0.011  0.004 -0.020 -0.000
  0.011  0.203 -0.005  0.000 -0.002
  0.004 -0.005  0.214  0.000 -0.000
 -0.020  0.000  0.000  0.168 -0.000
 -0.000 -0.002 -0.000 -0.000  0.422
atom    9   Tr[ns(na)] =   2.84855
    eigenvalues:
  0.169  0.210  0.228  0.386  0.431
    eigenvectors:
  0.000  0.000  0.912  0.088  0.000
  0.000  0.000  0.000  0.006  0.994
  0.996  0.004  0.000  0.000  0.000
  0.000  0.000  0.088  0.906  0.006
  0.004  0.996  0.000  0.000  0.000
    occupations:
  0.242  0.002 -0.000  0.045  0.000
  0.002  0.431  0.000 -0.004 -0.000
 -0.000  0.000  0.170 -0.000 -0.003
  0.045 -0.004 -0.000  0.373 -0.000
  0.000 -0.000 -0.003 -0.000  0.210
atom   10   Tr[ns(na)] =   2.76668
    eigenvalues:
  0.171  0.219  0.233  0.325  0.435
    eigenvectors:
  0.018  0.000  0.000  0.982  0.000
  0.000  0.000  1.000  0.000  0.000
  0.000  1.000  0.000  0.000  0.000
  0.982  0.000  0.000  0.018  0.000
  0.000  0.000  0.000  0.000  1.000
    occupations:
  0.323 -0.000 -0.000 -0.020 -0.000
 -0.000  0.233 -0.000 -0.000 -0.000
 -0.000 -0.000  0.219 -0.000  0.000
 -0.020 -0.000 -0.000  0.174  0.000
 -0.000 -0.000  0.000  0.000  0.435
atom   16   Tr[ns(na)] =   2.78302
    eigenvalues:
  0.171  0.191  0.210  0.387  0.432
    eigenvectors:
  0.026  0.721  0.074  0.169  0.010
  0.003  0.005  0.004  0.185  0.803
  0.627  0.001  0.371  0.001  0.000
  0.009  0.149  0.012  0.645  0.185
  0.335  0.123  0.539  0.001  0.002
    occupations:
  0.228 -0.013 -0.004  0.075 -0.003
 -0.013  0.421 -0.003  0.025  0.012
 -0.004 -0.003  0.186  0.007  0.018
  0.075  0.025  0.007  0.362  0.001
 -0.003  0.012  0.018  0.001  0.195
atom   17   Tr[ns(na)] =   2.85951
    eigenvalues:
  0.166  0.200  0.216  0.419  0.429
    eigenvectors:
  0.006  0.003  0.000  0.000  0.991
  0.001  0.880  0.117  0.000  0.003
  0.000  0.116  0.883  0.000  0.000
  0.992  0.002  0.000  0.000  0.006
  0.000  0.000  0.000  1.000  0.000
    occupations:
  0.427  0.012  0.004 -0.020 -0.000
  0.012  0.202 -0.005  0.000 -0.002
  0.004 -0.005  0.214  0.000 -0.000
 -0.020  0.000  0.000  0.167 -0.000
 -0.000 -0.002 -0.000 -0.000  0.419
atom   22   Tr[ns(na)] =   2.84847
    eigenvalues:
  0.169  0.210  0.228  0.386  0.431
    eigenvectors:
  0.000  0.000  0.912  0.088  0.000
  0.000  0.000  0.000  0.006  0.994
  0.996  0.004  0.000  0.000  0.000
  0.000  0.000  0.088  0.906  0.006
  0.004  0.996  0.000  0.000  0.000
    occupations:
  0.242 -0.002  0.000  0.045  0.000
 -0.002  0.431  0.000  0.004 -0.000
  0.000  0.000  0.170 -0.000  0.003
  0.045  0.004 -0.000  0.373 -0.000
  0.000 -0.000  0.003 -0.000  0.209
atom   23   Tr[ns(na)] =   2.97924
    eigenvalues:
  0.113  0.294  0.307  0.337  0.438
    eigenvectors:
  0.003  0.000  0.000  0.000  0.997
  0.000  0.000  1.000  0.000  0.000
  0.000  1.000  0.000  0.000  0.000
  0.997  0.000  0.000  0.000  0.003
  0.000  0.000  0.000  1.000  0.000
    occupations:
  0.437 -0.000  0.000 -0.019 -0.000
 -0.000  0.307  0.000 -0.000  0.000
  0.000  0.000  0.294 -0.000 -0.000
 -0.019 -0.000 -0.000  0.114 -0.000
 -0.000  0.000 -0.000 -0.000  0.337
N of occupied +U levels =  22.7327437
 --- exit write_ns ---

     Threshold (ethr) on eigenvalues was too large:
     Diagonalizing with lowered threshold

     Davidson diagonalization with overlap
     ethr =  2.13E-08,  avg # of iterations =  1.7

[...]

     total energy              =   -1565.50594753 Ry
     Harris-Foulkes estimate   =   -1565.50594754 Ry
     estimated scf accuracy    <       0.00000003 Ry

     iteration # 11     ecut=    40.00 Ry     beta=0.70
     Davidson diagonalization with overlap
     ethr =  1.44E-11,  avg # of iterations =  1.0

     negative rho (up, down):  0.104E+00 0.000E+00

     End of self-consistent calculation
 --- enter write_ns ---
 LDA+U parameters:
U( 2)     =  2.50000000
alpha( 2) =  0.00000000
atom    3   Tr[ns(na)] =   2.78342
    eigenvalues:
  0.171  0.191  0.210  0.387  0.432
    eigenvectors:
  0.027  0.722  0.072  0.169  0.010
  0.003  0.005  0.004  0.185  0.803
  0.627  0.001  0.372  0.001  0.000
  0.009  0.150  0.012  0.645  0.185
  0.335  0.122  0.541  0.000  0.002
    occupations:
  0.228  0.013 -0.004  0.075  0.002
  0.013  0.421  0.003 -0.025  0.012
 -0.004  0.003  0.186  0.007 -0.018
  0.075 -0.025  0.007  0.362 -0.002
  0.002  0.012 -0.018 -0.002  0.195
atom    4   Tr[ns(na)] =   2.86381
    eigenvalues:
  0.166  0.201  0.215  0.422  0.428
    eigenvectors:
  0.006  0.003  0.000  0.001  0.990
  0.001  0.868  0.129  0.000  0.003
  0.000  0.128  0.871  0.000  0.000
  0.992  0.002  0.000  0.000  0.006
  0.000  0.000  0.000  0.999  0.001
    occupations:
  0.426  0.012  0.004 -0.020 -0.000
  0.012  0.203 -0.005  0.000 -0.002
  0.004 -0.005  0.214  0.000 -0.000
 -0.020  0.000  0.000  0.168 -0.000
 -0.000 -0.002 -0.000 -0.000  0.422
atom    9   Tr[ns(na)] =   2.84857
    eigenvalues:
  0.169  0.210  0.228  0.386  0.431
    eigenvectors:
  0.000  0.000  0.912  0.088  0.000
  0.000  0.000  0.000  0.006  0.994
  0.996  0.004  0.000  0.000  0.000
  0.000  0.000  0.088  0.906  0.006
  0.004  0.996  0.000  0.000  0.000
    occupations:
  0.242  0.002 -0.000  0.045  0.000
  0.002  0.431  0.000 -0.004 -0.000
 -0.000  0.000  0.170 -0.000 -0.003
  0.045 -0.004 -0.000  0.373 -0.000
  0.000 -0.000 -0.003 -0.000  0.210
atom   10   Tr[ns(na)] =   2.76596
    eigenvalues:
  0.171  0.219  0.233  0.325  0.434
    eigenvectors:
  0.018  0.000  0.000  0.982  0.000
  0.000  0.000  1.000  0.000  0.000
  0.000  1.000  0.000  0.000  0.000
  0.982  0.000  0.000  0.018  0.000
  0.000  0.000  0.000  0.000  1.000
    occupations:
  0.323 -0.000 -0.000 -0.020 -0.000
 -0.000  0.233 -0.000 -0.000 -0.000
 -0.000 -0.000  0.219 -0.000  0.000
 -0.020 -0.000 -0.000  0.174  0.000
 -0.000 -0.000  0.000  0.000  0.434
atom   16   Tr[ns(na)] =   2.78341
    eigenvalues:
  0.171  0.191  0.210  0.387  0.432
    eigenvectors:
  0.026  0.721  0.074  0.169  0.010
  0.003  0.005  0.004  0.185  0.803
  0.627  0.001  0.371  0.001  0.000
  0.009  0.149  0.012  0.645  0.185
  0.335  0.123  0.539  0.001  0.002
    occupations:
  0.228 -0.013 -0.004  0.075 -0.003
 -0.013  0.421 -0.003  0.025  0.012
 -0.004 -0.003  0.186  0.007  0.018
  0.075  0.025  0.007  0.362  0.001
 -0.003  0.012  0.018  0.001  0.195
atom   17   Tr[ns(na)] =   2.85901
    eigenvalues:
  0.166  0.200  0.216  0.419  0.429
    eigenvectors:
  0.006  0.003  0.000  0.000  0.991
  0.001  0.880  0.117  0.000  0.003
  0.000  0.116  0.883  0.000  0.000
  0.992  0.002  0.000  0.000  0.006
  0.000  0.000  0.000  1.000  0.000
    occupations:
  0.427  0.012  0.004 -0.020 -0.000
  0.012  0.202 -0.005  0.000 -0.002
  0.004 -0.005  0.214  0.000 -0.000
 -0.020  0.000  0.000  0.167 -0.000
 -0.000 -0.002 -0.000 -0.000  0.419
atom   22   Tr[ns(na)] =   2.84848
    eigenvalues:
  0.169  0.210  0.228  0.386  0.431
    eigenvectors:
  0.000  0.000  0.912  0.088  0.000
  0.000  0.000  0.000  0.006  0.994
  0.996  0.004  0.000  0.000  0.000
  0.000  0.000  0.088  0.906  0.006
  0.004  0.996  0.000  0.000  0.000
    occupations:
  0.242 -0.002  0.000  0.045  0.000
 -0.002  0.431  0.000  0.004 -0.000
  0.000  0.000  0.170 -0.000  0.003
  0.045  0.004 -0.000  0.373 -0.000
  0.000 -0.000  0.003 -0.000  0.209
atom   23   Tr[ns(na)] =   2.98016
    eigenvalues:
  0.113  0.294  0.307  0.337  0.438
    eigenvectors:
  0.003  0.000  0.000  0.000  0.997
  0.000  0.000  1.000  0.000  0.000
  0.000  1.000  0.000  0.000  0.000
  0.997  0.000  0.000  0.000  0.003
  0.000  0.000  0.000  1.000  0.000
    occupations:
  0.437 -0.000  0.000 -0.019 -0.000
 -0.000  0.307  0.000 -0.000  0.000
  0.000  0.000  0.294 -0.000 -0.000
 -0.019 -0.000 -0.000  0.114 -0.000
 -0.000  0.000 -0.000 -0.000  0.337
N of occupied +U levels =  22.7328115
 --- exit write_ns ---

[...]

          k = 0.2500-0.4516 0.0000 ( 29882 PWs)   bands (ev):

[...]

          k =-0.2500 0.2258 0.0000 ( 29912 PWs)   bands (ev):

   -61.0933 -61.0666 -60.8004 -60.2699 -60.2417 -59.8117 -59.7837 -59.1036
   -37.5360 -37.3235 -37.2763 -37.2596 -37.2372 -37.2087 -37.1295 -36.9900
   -36.9607 -36.7966 -36.5735 -36.5015 -36.4850 -36.3766 -36.3540 -36.2196
   -36.0837 -36.0604 -36.0533 -35.9816 -35.8963 -35.4521 -35.4421 -35.4230
   -21.9921 -21.7357 -21.0165 -20.8001 -20.3141 -20.2693 -20.2490 -20.1887
   -19.9707 -19.8937 -19.7900 -19.7657 -19.6447 -19.5705 -19.3293 -19.1882
   -18.8882 -18.7611 -17.9735  -9.7674  -9.5013  -8.5048  -8.2741  -7.9930
    -7.7441  -7.6326  -7.6170  -7.5560  -7.4092  -7.3460  -7.2169  -7.1300
    -7.0147  -6.9859  -6.9006  -6.8183  -6.7792  -6.6079  -6.5403  -6.4507
    -6.2884  -6.2035  -6.0476  -5.9137  -5.7910  -5.7404  -5.6559  -5.5398
    -5.4994  -5.4404  -5.4103  -5.3331  -5.2502  -5.1858  -5.1056  -5.0220
    -4.9476  -4.8941  -4.8358  -4.7114  -4.6463  -4.4605  -4.3892  -4.2108
    -4.1904  -4.1428  -4.1170  -3.9985  -3.9527  -3.8530  -3.6808  -3.6531
    -3.5954  -3.5439  -3.4741  -3.3338  -0.9366  -0.8742  -0.7852  -0.6679
    -0.3804  -0.2973  -0.2022  -0.1863  -0.1046   0.0408   0.1620   0.2714
     0.3199   0.3577   0.5981   0.6217   0.6527   0.8017   0.8928   1.0000
     1.1070   1.2005   1.2683   1.3837   1.6373   1.7139   1.8160   1.9938
     2.0466   2.1351   2.3836   2.6552   2.7743   2.9144   2.9675   3.0403
     3.1527   3.3009   3.4531   3.5697   3.6714   4.0781   4.4611   4.6013
     4.6891   4.8867   5.2269   5.8210   5.9172   6.0134   6.0877   6.3324
     6.3907   6.5826   6.7568   6.9195   7.0270   7.2248   7.2948   7.4206
     7.5815   7.6659   7.7437   7.8887   7.9206   8.0378   8.1902   8.3557
     8.5055   8.6651   8.7039   8.7500   9.0108   9.1582   9.1902   9.3009
     9.3392   9.4625   9.5570   9.5877   9.7086   9.8037   9.8890   9.9889
    10.0532  10.2918  10.3379  10.4464  10.5401  10.6550  10.7363  10.8145
    10.9255  10.9581  11.0429  11.1058  11.1389  11.2583  11.3377  11.3789
    11.4431  11.4891  11.5849  11.6947  11.7518  11.8495  11.9119  12.0051
    12.0298  12.0706  12.1398  12.2489  12.3814  12.4143  12.4775  12.5010
    12.6077  12.7103  12.7864  12.8685  12.9034  12.9711  13.0312  13.1527
    13.2671  13.3043  13.3721  13.4337  13.5457  13.5945  13.6706  13.6865
    13.7689  13.8392  13.9332  14.0379  14.0767  14.1526  14.2344  14.2893
    14.4170  14.4785  14.5365  14.5791  14.6917  14.7385  14.8485  14.9530
    15.0573  15.1526  15.2129  15.2698  15.3480  15.4183  15.4704  15.5603
    15.5941  15.6472  15.7755  15.8110  15.8303  15.9582  15.9876  16.0590
    16.1390  16.2081  16.2813  16.3470  16.5049  16.5715  16.6640  16.6970
    16.7842  16.8503  16.8852  16.9233  16.9700  17.0459  17.1075  17.2113
    17.2496  17.2858  17.3853  17.4618  17.5681  17.5996  17.6538  17.6939
    17.7614  17.8256  17.9232  18.0411  18.1096  18.1905  18.2242  18.2985
    18.3797  18.4973  18.6051  18.6323  18.6613

     the Fermi energy is    -3.4172 ev

!    total energy              =   -1565.50594753 Ry
     Harris-Foulkes estimate   =   -1565.50594753 Ry
     estimated scf accuracy    <          7.7E-09 Ry

     The total energy is the sum of the following terms:

     one-electron contribution =  -18424.77296473 Ry
     hartree contribution      =    9226.76360578 Ry
     xc contribution           =    -276.59696359 Ry
     ewald contribution        =    7907.68881021 Ry
     Hubbard energy            =       1.41111639 Ry
     smearing contrib. (-TS)   =       0.00044842 Ry

     convergence has been achieved in  11 iterations

     Forces acting on atoms (Ry/au):

     negative rho (up, down):  0.104E+00 0.000E+00
     atom    1 type  1   force =    -0.00137858   -0.01107883   -0.00013630
     atom    2 type  1   force =     0.00014313    0.01550748    0.00048885
     atom    3 type  2   force =     0.05827360   -0.00881193   -0.00015441
     atom    4 type  2   force =    -0.00176019    0.00590252   -0.00025255
     atom    5 type  1   force =    -0.00307139   -0.06726457    0.00023835
     atom    6 type  1   force =    -0.00557356    0.06814550    0.00036102
     atom    7 type  1   force =    -0.00000850    0.00056825   -0.00006320
     atom    8 type  1   force =     0.00139432   -0.00137605   -0.00029134
     atom    9 type  2   force =     0.00987576    0.00028835   -0.00061529
     atom   10 type  2   force =     0.00002424    0.00006688    0.00022492
     atom   11 type  1   force =    -0.03207283   -0.00325636    0.00008401
     atom   12 type  1   force =    -0.03234093    0.00359108    0.00013577
     atom   13 type  1   force =     0.00010476    0.00010434   -0.00004486
     atom   14 type  1   force =    -0.00207597   -0.01063921   -0.00036374
     atom   15 type  1   force =     0.00003005    0.01215065    0.00062511
     atom   16 type  2   force =    -0.05795168   -0.00855850   -0.00015257
     atom   17 type  2   force =    -0.00183986    0.00534760   -0.00053066
     atom   18 type  1   force =     0.00725561   -0.06709917    0.00031127
     atom   19 type  1   force =     0.00533629    0.06836797    0.00023139
     atom   20 type  1   force =    -0.00018552   -0.00027647   -0.00018382
     atom   21 type  1   force =     0.00148953   -0.00110641   -0.00057964
     atom   22 type  2   force =    -0.01022350   -0.00000275   -0.00061570
     atom   23 type  2   force =     0.00002744   -0.00017754    0.00009499
     atom   24 type  1   force =     0.03243385   -0.00317946    0.00013649
     atom   25 type  1   force =     0.03189043    0.00347633    0.00007908
     atom   26 type  1   force =     0.00017987   -0.00014867    0.00036155
     atom   27 type  3   force =    -0.00004022   -0.00050610   -0.00002936
     atom   28 type  3   force =     0.00001271   -0.00041139    0.00029073
     atom   29 type  3   force =    -0.00002979    0.00012279   -0.00002011
     atom   30 type  3   force =     0.00007978    0.00025072    0.00009011
     atom   31 type  1   force =     0.00000118    0.00000294    0.00027989

     Total force =     0.001912     Total SCF correction =     0.000122

     bfgs converged in  15 scf cycles and  14 bfgs steps
     (criteria: energy < 0.10E-03, force < 0.10E-02)

     End of BFGS Geometry Optimization

     Final energy   =   -1565.5059475258 Ry
Begin final coordinates

ATOMIC_POSITIONS (crystal)
O0       0.000000000   0.000000000   0.377006645    0   0   1
O0       0.000000000   0.500000000   0.396853179    0   0   1
Ti1      0.250000000   0.500000000   0.449402264    0   0   1
Ti1      0.000000000   0.000000000   0.451541165    0   0   1
O0       0.250000000   0.810000000   0.448762425    0   0   1
O0       0.250000000   0.190000000   0.449584235    0   0   1
O0       0.000000000   0.500000000   0.497406976    0   0   1
O0       0.000000000   0.000000000   0.525706889    0   0   1
Ti1      0.250000000   0.000000000   0.580769854    0   0   1
Ti1      0.000000000   0.500000000   0.568842126    0   0   1
O0       0.250000000   0.690000000   0.581374193    0   0   1
O0       0.250000000   0.310000000   0.581326265    0   0   1
O0       0.000000000   0.000000000   0.623156577    0   0   1
O0       0.500000000   0.000000000   0.377041030    0   0   1
O0       0.500000000   0.500000000   0.396027429    0   0   1
Ti1      0.750000000   0.500000000   0.449398044    0   0   1
Ti1      0.500000000   0.000000000   0.451393163    0   0   1
O0       0.750000000   0.810000000   0.448743624    0   0   1
O0       0.750000000   0.190000000   0.449576135    0   0   1
O0       0.500000000   0.500000000   0.491596909    0   0   1
O0       0.500000000   0.000000000   0.525491925    0   0   1
Ti1      0.750000000   0.000000000   0.580761260    0   0   1
Ti1      0.500000000   0.500000000   0.600599480    0   0   1
O0       0.750000000   0.690000000   0.581396395    0   0   1
O0       0.750000000   0.310000000   0.581298026    0   0   1
O0       0.500000000   0.000000000   0.621865807    0   0   1
H2      -0.000466050   0.623282095   0.375553066
H2       0.499453302   0.620564606   0.373871866
H2       0.149354457   0.034569584   0.362972104
H2       0.648998296   0.034043255   0.362785358
O0       0.500043441   0.499904669   0.663935586
End final coordinates

     General routines

     Parallel routines
     Hubbard U routines

   This run was terminated on:  22:13:55  28Apr2014

   JOB DONE.
Running PBS batch system epilogue script
Job id: 340506.audhumbla.fysik.dtu.dk
Username: zhonxu
Groupname: campgst
Jobname: TiO2/Eads-2-layers/O-U-2.5
Sessionid: 29084
Queuename: verylong
Accounting:
This job has allocated the following 16 nodes:
b123 b123 b123 b123 b123 b123 b123 b123 b017 b017 b017 b017 b017 b017 b017 b017
Finished epilogue job 340506.audhumbla.fysik.dtu.dk for zhonxu