     Program PWSCF v.5.0.2 (svn rev. 9656) starts on 24Jan2014 at 11: 5:22

     Current dimensions of program PWSCF are:
     Max number of different atomic species (ntypx) = 10
     Max number of k-points (npk) =  40000
     Max angular momentum in pseudopotentials (lmaxx) =  3
     Reading input from MoO2-v-1.00.in

     Subspace diagonalization in iterative solution of the eigenvalue problem:
     a serial algorithm will be used

     bravais-lattice index     =            0
     lattice parameter (alat)  =       8.8435  a.u.
     unit-cell volume          =     445.7140 (a.u.)^3
     number of atoms/cell      =            6
     number of atomic types    =            2
     number of electrons       =        52.00
     number of Kohn-Sham states=           78
     kinetic-energy cutoff     =      40.0000  Ry
     charge density cutoff     =     500.0000  Ry
     convergence threshold     =      1.0E-06
     mixing beta               =       0.3000
     number of iterations used =            8  plain     mixing
     Exchange-correlation      = SLA  PW   PBE  PBE ( 1 4 3 4 0)
     EXX-fraction              =        0.00
     nstep                     =           50

     celldm(1)=   8.843488  celldm(2)=   0.000000  celldm(3)=   0.000000
     celldm(4)=   0.000000  celldm(5)=   0.000000  celldm(6)=   0.000000

     crystal axes: (cart. coord. in units of alat)
               a(1) = (   1.000000   0.000000   0.000000 )
               a(2) = (   0.000000   1.000000   0.000000 )
               a(3) = (   0.000000   0.000000   0.644444 )

     reciprocal axes: (cart. coord. in units 2 pi/alat)
               b(1) = (  1.000000  0.000000  0.000000 )
               b(2) = (  0.000000  1.000000  0.000000 )
               b(3) = (  0.000000  0.000000  1.551724 )

     PseudoPot. # 1 for Mo read from file:
     /home/camp/zhonxu/pseudo/mo_pbe_v1.uspp.F.UPF
     MD5 check sum: 30c4dcd161f5d35cd49bb5239c51a633
     Pseudo is Ultrasoft + core correction, Zval = 14.0
     Generated by new atomic code, or converted to UPF format
     Using radial grid of  889 points,  6 beta functions with:
                l(1) =   0
                l(2) =   0
                l(3) =   1
                l(4) =   1
                l(5) =   2
                l(6) =   2
     Q(r) pseudized with  6 coefficients,  rinner =    1.000   1.000   1.000
                                                       1.000   1.000

     PseudoPot. # 2 for O  read from file:
     /home/camp/zhonxu/pseudo/o_pbe_v1.01.uspp.F.UPF
     MD5 check sum: 2bcb18d16ea4b960afae9ec6d52f22d2
     Pseudo is Ultrasoft + core correction, Zval =  6.0
     Generated by new atomic code, or converted to UPF format
     Using radial grid of  737 points,  5 beta functions with:
                l(1) =   0
                l(2) =   0
                l(3) =   1
                l(4) =   1
                l(5) =   2
     Q(r) pseudized with  8 coefficients,  rinner =    0.900   0.900   0.900
                                                       0.900   0.900

     atomic species   valence    mass     pseudopotential
        Mo0           14.00    95.94000     Mo( 1.00)
        O1             6.00    15.99940     O ( 1.00)

     Starting magnetic structure
     atomic species   magnetization
        Mo0          0.600
        O1           0.000

      8 Sym. Ops., with inversion, found
          (note:  8 additional sym.ops. were found but ignored
           their fractional translations are incommensurate with FFT grid)

   Cartesian axes

     site n.     atom                  positions (alat units)
         1           Mo0 tau(   1) = (   0.0000000   0.0000000   0.0000000  )
         2           Mo0 tau(   2) = (   0.5000000   0.5000000   0.3222222  )
         3           O1  tau(   3) = (   0.3050000   0.3050000   0.0000000  )
         4           O1  tau(   4) = (  -0.3050000  -0.3050000   0.0000000  )
         5           O1  tau(   5) = (   0.8050000   0.1950000   0.3222222  )
         6           O1  tau(   6) = (   0.1950000   0.8050000   0.3222222  )

     number of k points=    54  Methfessel-Paxton smearing, width (Ry)=  0.0100
                       cart. coord. in units 2pi/alat
        k(    1) = (   0.0000000   0.0000000   0.0000000), wk =   0.0080000
        k(    2) = (   0.0000000   0.0000000   0.3103448), wk =   0.0160000
        k(    3) = (   0.0000000   0.0000000   0.6206897), wk =   0.0160000
        k(    4) = (   0.0000000   0.2000000   0.0000000), wk =   0.0320000
        k(    5) = (   0.0000000   0.2000000   0.3103448), wk =   0.0640000
        k(    6) = (   0.0000000   0.2000000   0.6206897), wk =   0.0640000
        k(    7) = (   0.0000000   0.4000000   0.0000000), wk =   0.0320000
        k(    8) = (   0.0000000   0.4000000   0.3103448), wk =   0.0640000
        k(    9) = (   0.0000000   0.4000000   0.6206897), wk =   0.0640000
        k(   10) = (   0.2000000   0.2000000   0.0000000), wk =   0.0160000
        k(   11) = (   0.2000000   0.2000000   0.3103448), wk =   0.0320000
        k(   12) = (   0.2000000   0.2000000   0.6206897), wk =   0.0320000
        k(   13) = (   0.2000000   0.4000000   0.0000000), wk =   0.0320000
        k(   14) = (   0.2000000   0.4000000   0.3103448), wk =   0.0640000
        k(   15) = (   0.2000000   0.4000000   0.6206897), wk =   0.0640000
        k(   16) = (   0.4000000   0.4000000   0.0000000), wk =   0.0160000
        k(   17) = (   0.4000000   0.4000000   0.3103448), wk =   0.0320000
        k(   18) = (   0.4000000   0.4000000   0.6206897), wk =   0.0320000
        k(   19) = (  -0.2000000   0.2000000   0.0000000), wk =   0.0160000
        k(   20) = (  -0.2000000   0.2000000  -0.3103448), wk =   0.0320000
        k(   21) = (  -0.2000000   0.2000000  -0.6206897), wk =   0.0320000
        k(   22) = (  -0.2000000   0.4000000   0.0000000), wk =   0.0320000
        k(   23) = (  -0.2000000   0.4000000  -0.3103448), wk =   0.0640000
        k(   24) = (  -0.2000000   0.4000000  -0.6206897), wk =   0.0640000
        k(   25) = (  -0.4000000   0.4000000   0.0000000), wk =   0.0160000
        k(   26) = (  -0.4000000   0.4000000  -0.3103448), wk =   0.0320000
        k(   27) = (  -0.4000000   0.4000000  -0.6206897), wk =   0.0320000
        k(   28) = (   0.0000000   0.0000000   0.0000000), wk =   0.0080000
        k(   29) = (   0.0000000   0.0000000   0.3103448), wk =   0.0160000
        k(   30) = (   0.0000000   0.0000000   0.6206897), wk =   0.0160000
        k(   31) = (   0.0000000   0.2000000   0.0000000), wk =   0.0320000
        k(   32) = (   0.0000000   0.2000000   0.3103448), wk =   0.0640000
        k(   33) = (   0.0000000   0.2000000   0.6206897), wk =   0.0640000
        k(   34) = (   0.0000000   0.4000000   0.0000000), wk =   0.0320000
        k(   35) = (   0.0000000   0.4000000   0.3103448), wk =   0.0640000
        k(   36) = (   0.0000000   0.4000000   0.6206897), wk =   0.0640000
        k(   37) = (   0.2000000   0.2000000   0.0000000), wk =   0.0160000
        k(   38) = (   0.2000000   0.2000000   0.3103448), wk =   0.0320000
        k(   39) = (   0.2000000   0.2000000   0.6206897), wk =   0.0320000
        k(   40) = (   0.2000000   0.4000000   0.0000000), wk =   0.0320000
        k(   41) = (   0.2000000   0.4000000   0.3103448), wk =   0.0640000
        k(   42) = (   0.2000000   0.4000000   0.6206897), wk =   0.0640000
        k(   43) = (   0.4000000   0.4000000   0.0000000), wk =   0.0160000
        k(   44) = (   0.4000000   0.4000000   0.3103448), wk =   0.0320000
        k(   45) = (   0.4000000   0.4000000   0.6206897), wk =   0.0320000
        k(   46) = (  -0.2000000   0.2000000   0.0000000), wk =   0.0160000
        k(   47) = (  -0.2000000   0.2000000  -0.3103448), wk =   0.0320000
        k(   48) = (  -0.2000000   0.2000000  -0.6206897), wk =   0.0320000
        k(   49) = (  -0.2000000   0.4000000   0.0000000), wk =   0.0320000
        k(   50) = (  -0.2000000   0.4000000  -0.3103448), wk =   0.0640000
        k(   51) = (  -0.2000000   0.4000000  -0.6206897), wk =   0.0640000
        k(   52) = (  -0.4000000   0.4000000   0.0000000), wk =   0.0160000
        k(   53) = (  -0.4000000   0.4000000  -0.3103448), wk =   0.0320000
        k(   54) = (  -0.4000000   0.4000000  -0.6206897), wk =   0.0320000

     Largest allocated arrays     est. size (Mb)     dimensions
     Largest temporary arrays     est. size (Mb)     dimensions

     Check: negative/imaginary core charge=   -0.000007    0.000000

     Initial potential from superposition of free atoms

     starting charge   51.99787, renormalised to   52.00000
     Starting wfc are   42 randomized atomic wfcs

     Self-consistent Calculation

     iteration #  1     ecut=    40.00 Ry     beta=0.30
     Davidson diagonalization with overlap
     ethr =  1.00E-02,  avg # of iterations =  5.3

     negative rho (up, down):  0.000E+00 0.173E-03

     total energy              =    -406.90234197 Ry
     Harris-Foulkes estimate   =    -407.11016973 Ry
     estimated scf accuracy    <       2.48200394 Ry

     total magnetization       =     4.00 Bohr mag/cell
     absolute magnetization    =     4.98 Bohr mag/cell

[...]

     End of self-consistent calculation

 ------ SPIN UP ------------

          k = 0.0000 0.0000 0.0000 (  1899 PWs)   bands (ev):

   -48.9013 -48.8855 -23.0955 -23.0955 -23.0504 -23.0064 -22.9087 -22.9086
    -7.1572  -6.3892  -5.2192  -5.2188   4.6596   4.7461   5.7779   6.3853
     6.3855   8.5636   8.5637   9.0649  10.0282  10.1983  10.1983  10.7916
    12.3763  12.7818  13.1228  13.1229  13.2502  16.2496  16.3783  18.2220
    19.2115  19.2117  20.6077  22.1544  22.1545  25.5883  27.4624  27.9165
    28.4499  29.1654  29.8575  29.8576  32.2681  32.6321  33.3737  33.3738
    34.3162  34.3162  35.6820  38.9766  38.9767  39.1512  39.9245  40.0197
    41.8076  42.7429  42.7430  42.9746  43.2133  43.2202  43.3459  43.3459
    44.2670  45.1646  45.1647  46.1179  47.3614  49.5389  49.5390  49.6474
    50.0490  50.7669  50.7670  50.9630  51.6662  52.1207

[...]

          k =-0.2000 0.2000 0.0000 (  1915 PWs)   bands (ev):

[...]

 ------ SPIN DOWN ----------

[...]

     the Fermi energy is    13.8568 ev

!    total energy              =    -407.75974983 Ry
     Harris-Foulkes estimate   =    -407.75974824 Ry
     estimated scf accuracy    <       0.00000079 Ry

     The total energy is the sum of the following terms:

     one-electron contribution =    -110.46638773 Ry
     hartree contribution      =      84.82648387 Ry
     xc contribution           =     -67.58622149 Ry
     ewald contribution        =    -314.53399948 Ry
     smearing contrib. (-TS)   =       0.00037499 Ry

[...]

     convergence has been achieved in  19 iterations

     Forces acting on atoms (Ry/au):

     negative rho (up, down):  0.000E+00 0.197E-03
     atom    1 type  1   force =     0.00000000    0.00000000    0.00000000
     atom    2 type  1   force =     0.00000000    0.00000000    0.00000000
     atom    3 type  2   force =    -0.03755046   -0.03755046    0.00000000
     atom    4 type  2   force =     0.03755046    0.03755046    0.00000000
[...]
        k(   13) = (   0.1897370   0.3794741   0.0000000), wk =   0.0320000
        k(   14) = (   0.1897370   0.3794741   0.3448261), wk =   0.0640000
        k(   15) = (   0.1897370   0.3794741   0.6896523), wk =   0.0640000
        k(   16) = (   0.3794740   0.3794740   0.0000000), wk =   0.0160000
        k(   17) = (   0.3794740   0.3794740   0.3448261), wk =   0.0320000
        k(   18) = (   0.3794740   0.3794740   0.6896523), wk =   0.0320000
        k(   19) = (  -0.1897371   0.1897371   0.0000000), wk =   0.0160000
        k(   20) = (  -0.1897371   0.1897371  -0.3448261), wk =   0.0320000
        k(   21) = (  -0.1897371   0.1897371  -0.6896523), wk =   0.0320000
        k(   22) = (  -0.1897372   0.3794742   0.0000000), wk =   0.0320000
        k(   23) = (  -0.1897372   0.3794742  -0.3448261), wk =   0.0640000
        k(   24) = (  -0.1897372   0.3794742  -0.6896523), wk =   0.0640000
        k(   25) = (  -0.3794742   0.3794742   0.0000000), wk =   0.0160000
        k(   26) = (  -0.3794742   0.3794742  -0.3448261), wk =   0.0320000
        k(   27) = (  -0.3794742   0.3794742  -0.6896523), wk =   0.0320000
        k(   28) = (   0.0000000   0.0000000   0.0000000), wk =   0.0080000
        k(   29) = (   0.0000000   0.0000000   0.3448261), wk =   0.0160000
        k(   30) = (   0.0000000   0.0000000   0.6896523), wk =   0.0160000
        k(   31) = (  -0.0000000   0.1897371   0.0000000), wk =   0.0320000
        k(   32) = (  -0.0000000   0.1897371   0.3448261), wk =   0.0640000
        k(   33) = (  -0.0000000   0.1897371   0.6896523), wk =   0.0640000
        k(   34) = (  -0.0000001   0.3794741   0.0000000), wk =   0.0320000
        k(   35) = (  -0.0000001   0.3794741   0.3448261), wk =   0.0640000
        k(   36) = (  -0.0000001   0.3794741   0.6896523), wk =   0.0640000
        k(   37) = (   0.1897370   0.1897370   0.0000000), wk =   0.0160000
        k(   38) = (   0.1897370   0.1897370   0.3448261), wk =   0.0320000
        k(   39) = (   0.1897370   0.1897370   0.6896523), wk =   0.0320000
        k(   40) = (   0.1897370   0.3794741   0.0000000), wk =   0.0320000
        k(   41) = (   0.1897370   0.3794741   0.3448261), wk =   0.0640000
        k(   42) = (   0.1897370   0.3794741   0.6896523), wk =   0.0640000
        k(   43) = (   0.3794740   0.3794740   0.0000000), wk =   0.0160000
        k(   44) = (   0.3794740   0.3794740   0.3448261), wk =   0.0320000
        k(   45) = (   0.3794740   0.3794740   0.6896523), wk =   0.0320000
        k(   46) = (  -0.1897371   0.1897371   0.0000000), wk =   0.0160000
        k(   47) = (  -0.1897371   0.1897371  -0.3448261), wk =   0.0320000
        k(   48) = (  -0.1897371   0.1897371  -0.6896523), wk =   0.0320000
        k(   49) = (  -0.1897372   0.3794742   0.0000000), wk =   0.0320000
        k(   50) = (  -0.1897372   0.3794742  -0.3448261), wk =   0.0640000
        k(   51) = (  -0.1897372   0.3794742  -0.6896523), wk =   0.0640000
        k(   52) = (  -0.3794742   0.3794742   0.0000000), wk =   0.0160000
        k(   53) = (  -0.3794742   0.3794742  -0.3448261), wk =   0.0320000
        k(   54) = (  -0.3794742   0.3794742  -0.6896523), wk =   0.0320000

[...]

     Threshold (ethr) on eigenvalues was too large:
     Diagonalizing with lowered threshold

     Davidson diagonalization with overlap
     ethr =  3.08E-10,  avg # of iterations =  2.0

[...]

     negative rho (up, down):  0.859E-06 0.859E-06
     atom    1 type  1   force =     0.00000000    0.00000000    0.00000000
     atom    2 type  1   force =     0.00000000    0.00000000    0.00000000
     atom    3 type  2   force =    -0.00001848   -0.00001848    0.00000000
     atom    4 type  2   force =     0.00001848    0.00001848    0.00000000
     atom    5 type  2   force =    -0.00001303    0.00001303   -0.00000000
     atom    6 type  2   force =     0.00001303   -0.00001303    0.00000000

[...]

     negative rho (up, down):  0.859E-06 0.859E-06
          total   stress  (Ry/bohr**3)                   (kbar)     P=   15.27
   0.00010382   0.00000000   0.00000000         15.27      0.00      0.00
   0.00000000   0.00010382   0.00000000          0.00     15.27      0.00
   0.00000000   0.00000000   0.00010387          0.00      0.00     15.28

     Volume is kept fixed: isostatic pressure set to zero

     bfgs converged in  10 scf cycles and   9 bfgs steps
     (criteria: energy < 0.10E-03, force < 0.10E-02, cell < 0.50E+00)

     End of BFGS Geometry Optimization

     Final enthalpy =    -407.8320724170 Ry
Begin final coordinates
     new unit-cell volume =    445.71400 a.u.^3 (    66.04800 Ang^3 )

CELL_PARAMETERS (alat=  8.84348815)
   1.054090335   0.000000261   0.000000000
   0.000000261   1.054090335   0.000000000
   0.000000000   0.000000000   0.580002441

ATOMIC_POSITIONS (crystal)
Mo0      0.000000000   0.000000000   0.000000000    0   0   0
Mo0      0.500000000   0.500000000   0.500000000    0   0   0
O1       0.281023381   0.281023381   0.000000000    1   1   0
O1      -0.281023381  -0.281023381   0.000000000    1   1   0
O1       0.781023696   0.218976304   0.500000000    1   1   0
O1       0.218976304   0.781023696   0.500000000    1   1   0
End final coordinates

     A final scf calculation at the relaxed structure.
     The G-vectors are recalculated for the final unit cell
     Results may differ from those at the preceding step.

     bravais-lattice index     =            0
     lattice parameter (alat)  =       8.8435  a.u.
     unit-cell volume          =     445.7140 (a.u.)^3
     number of atoms/cell      =            6
     number of atomic types    =            2
     number of electrons       =        52.00
     number of Kohn-Sham states=           78
     kinetic-energy cutoff     =      40.0000  Ry
     charge density cutoff     =     500.0000  Ry
     convergence threshold     =      1.0E-08
     mixing beta               =       0.3000
     number of iterations used =            8  plain     mixing
     Exchange-correlation      = SLA  PW   PBE  PBE ( 1 4 3 4 0)
     EXX-fraction              =        0.00

     celldm(1)=   8.843488  celldm(2)=   0.000000  celldm(3)=   0.000000
     celldm(4)=   0.000000  celldm(5)=   0.000000  celldm(6)=   0.000000

     crystal axes: (cart. coord. in units of alat)
               a(1) = (   1.054090   0.000000   0.000000 )
               a(2) = (   0.000000   1.054090   0.000000 )
               a(3) = (   0.000000   0.000000   0.580002 )

     reciprocal axes: (cart. coord. in units 2 pi/alat)
               b(1) = (  0.948685 -0.000000  0.000000 )
               b(2) = ( -0.000000  0.948685  0.000000 )
               b(3) = (  0.000000  0.000000  1.724131 )

     PseudoPot. # 1 for Mo read from file:
     /home/camp/zhonxu/pseudo/mo_pbe_v1.uspp.F.UPF
     MD5 check sum: 30c4dcd161f5d35cd49bb5239c51a633
     Pseudo is Ultrasoft + core correction, Zval = 14.0
     Generated by new atomic code, or converted to UPF format
     Using radial grid of  889 points,  6 beta functions with:
                l(1) =   0
                l(2) =   0
                l(3) =   1
                l(4) =   1
                l(5) =   2
                l(6) =   2
     Q(r) pseudized with  6 coefficients,  rinner =    1.000   1.000   1.000
                                                       1.000   1.000

     PseudoPot. # 2 for O  read from file:
     /home/camp/zhonxu/pseudo/o_pbe_v1.01.uspp.F.UPF
     MD5 check sum: 2bcb18d16ea4b960afae9ec6d52f22d2
     Pseudo is Ultrasoft + core correction, Zval =  6.0
     Generated by new atomic code, or converted to UPF format
     Using radial grid of  737 points,  5 beta functions with:
                l(1) =   0
                l(2) =   0
                l(3) =   1
                l(4) =   1
                l(5) =   2
     Q(r) pseudized with  8 coefficients,  rinner =    0.900   0.900   0.900
                                                       0.900   0.900

     atomic species   valence    mass     pseudopotential
        Mo0           14.00    95.94000     Mo( 1.00)
        O1             6.00    15.99940     O ( 1.00)

     Starting magnetic structure
     atomic species   magnetization
        Mo0          0.600
        O1           0.000

      8 Sym. Ops., with inversion, found
          (note:  8 additional sym.ops. were found but ignored
           their fractional translations are incommensurate with FFT grid)

   Cartesian axes

     site n.     atom                  positions (alat units)
         1           Mo0 tau(   1) = (   0.0000000   0.0000000   0.0000000  )
         2           Mo0 tau(   2) = (   0.5270453   0.5270453   0.2900012  )
         3           O1  tau(   3) = (   0.2962241   0.2962241   0.0000000  )
         4           O1  tau(   4) = (  -0.2962241  -0.2962241   0.0000000  )
         5           O1  tau(   5) = (   0.8232696   0.2308210   0.2900012  )
         6           O1  tau(   6) = (   0.2308210   0.8232696   0.2900012  )

     number of k points=    54  Methfessel-Paxton smearing, width (Ry)=  0.0100
                       cart. coord. in units 2pi/alat
        k(    1) = (   0.0000000   0.0000000   0.0000000), wk =   0.0080000
        k(    2) = (   0.0000000   0.0000000   0.3448261), wk =   0.0160000
        k(    3) = (   0.0000000   0.0000000   0.6896523), wk =   0.0160000
        k(    4) = (  -0.0000000   0.1897371   0.0000000), wk =   0.0320000
        k(    5) = (  -0.0000000   0.1897371   0.3448261), wk =   0.0640000
        k(    6) = (  -0.0000000   0.1897371   0.6896523), wk =   0.0640000
        k(    7) = (  -0.0000001   0.3794741   0.0000000), wk =   0.0320000
        k(    8) = (  -0.0000001   0.3794741   0.3448261), wk =   0.0640000
        k(    9) = (  -0.0000001   0.3794741   0.6896523), wk =   0.0640000
        k(   10) = (   0.1897370   0.1897370   0.0000000), wk =   0.0160000
        k(   11) = (   0.1897370   0.1897370   0.3448261), wk =   0.0320000
        k(   12) = (   0.1897370   0.1897370   0.6896523), wk =   0.0320000
        k(   13) = (   0.1897370   0.3794741   0.0000000), wk =   0.0320000
        k(   14) = (   0.1897370   0.3794741   0.3448261), wk =   0.0640000
        k(   15) = (   0.1897370   0.3794741   0.6896523), wk =   0.0640000
        k(   16) = (   0.3794740   0.3794740   0.0000000), wk =   0.0160000
        k(   17) = (   0.3794740   0.3794740   0.3448261), wk =   0.0320000
        k(   18) = (   0.3794740   0.3794740   0.6896523), wk =   0.0320000
        k(   19) = (  -0.1897371   0.1897371   0.0000000), wk =   0.0160000
        k(   20) = (  -0.1897371   0.1897371  -0.3448261), wk =   0.0320000
        k(   21) = (  -0.1897371   0.1897371  -0.6896523), wk =   0.0320000
        k(   22) = (  -0.1897372   0.3794742   0.0000000), wk =   0.0320000
        k(   23) = (  -0.1897372   0.3794742  -0.3448261), wk =   0.0640000
        k(   24) = (  -0.1897372   0.3794742  -0.6896523), wk =   0.0640000
        k(   25) = (  -0.3794742   0.3794742   0.0000000), wk =   0.0160000
        k(   26) = (  -0.3794742   0.3794742  -0.3448261), wk =   0.0320000
        k(   27) = (  -0.3794742   0.3794742  -0.6896523), wk =   0.0320000
        k(   28) = (   0.0000000   0.0000000   0.0000000), wk =   0.0080000
        k(   29) = (   0.0000000   0.0000000   0.3448261), wk =   0.0160000
        k(   30) = (   0.0000000   0.0000000   0.6896523), wk =   0.0160000
        k(   31) = (  -0.0000000   0.1897371   0.0000000), wk =   0.0320000
        k(   32) = (  -0.0000000   0.1897371   0.3448261), wk =   0.0640000
        k(   33) = (  -0.0000000   0.1897371   0.6896523), wk =   0.0640000
        k(   34) = (  -0.0000001   0.3794741   0.0000000), wk =   0.0320000
        k(   35) = (  -0.0000001   0.3794741   0.3448261), wk =   0.0640000
        k(   36) = (  -0.0000001   0.3794741   0.6896523), wk =   0.0640000
        k(   37) = (   0.1897370   0.1897370   0.0000000), wk =   0.0160000
        k(   38) = (   0.1897370   0.1897370   0.3448261), wk =   0.0320000
        k(   39) = (   0.1897370   0.1897370   0.6896523), wk =   0.0320000
        k(   40) = (   0.1897370   0.3794741   0.0000000), wk =   0.0320000
        k(   41) = (   0.1897370   0.3794741   0.3448261), wk =   0.0640000
        k(   42) = (   0.1897370   0.3794741   0.6896523), wk =   0.0640000
        k(   43) = (   0.3794740   0.3794740   0.0000000), wk =   0.0160000
        k(   44) = (   0.3794740   0.3794740   0.3448261), wk =   0.0320000
        k(   45) = (   0.3794740   0.3794740   0.6896523), wk =   0.0320000
        k(   46) = (  -0.1897371   0.1897371   0.0000000), wk =   0.0160000
        k(   47) = (  -0.1897371   0.1897371  -0.3448261), wk =   0.0320000
        k(   48) = (  -0.1897371   0.1897371  -0.6896523), wk =   0.0320000
        k(   49) = (  -0.1897372   0.3794742   0.0000000), wk =   0.0320000
        k(   50) = (  -0.1897372   0.3794742  -0.3448261), wk =   0.0640000
        k(   51) = (  -0.1897372   0.3794742  -0.6896523), wk =   0.0640000
        k(   52) = (  -0.3794742   0.3794742   0.0000000), wk =   0.0160000
        k(   53) = (  -0.3794742   0.3794742  -0.3448261), wk =   0.0320000
        k(   54) = (  -0.3794742   0.3794742  -0.6896523), wk =   0.0320000

     Largest allocated arrays     est. size (Mb)     dimensions
     Largest temporary arrays     est. size (Mb)     dimensions

     Check: negative/imaginary core charge=   -0.000007    0.000000

     Initial potential from superposition of free atoms

     starting charge   51.99787, renormalised to   52.00000
     Starting wfc are   42 randomized atomic wfcs

     Self-consistent Calculation

[...]

     negative rho (up, down):  0.131E-05 0.000E+00

[...]

     total energy              =    -407.83232164 Ry
     Harris-Foulkes estimate   =    -407.83232148 Ry
     estimated scf accuracy    <       0.00000003 Ry

[...]

     iteration # 16     ecut=    40.00 Ry     beta=0.30
     Davidson diagonalization with overlap
     ethr =  5.87E-11,  avg # of iterations =  2.0

     End of self-consistent calculation

 ------ SPIN UP ------------

[...]

 ------ SPIN DOWN ----------

[...]

          k = 0.3795 0.3795 0.6897 (  1902 PWs)   bands (ev):

[...]

          k =-0.3795 0.3795-0.6897 (  1902 PWs)   bands (ev):

   -48.9759 -48.9755 -23.5835 -23.5808 -23.3078 -23.3039 -22.9507 -22.9501
    -6.0829  -5.8547  -5.6918  -5.4385   5.6876   6.0518   6.1833   6.4895
     6.6934   7.1620   7.3118   8.0571   8.9507   9.1425  10.0113  10.1506
    12.9203  13.1642  13.9461  14.3152  15.5809  15.6717  17.3341  18.2474
    18.5853  19.3260  22.6989  23.0286  23.6756  23.7972  26.8651  26.9201
    29.1894  29.2648  29.4181  29.6530  30.9360  31.3696  32.3496  32.8772
    35.7713  36.0758  36.5175  36.8857  38.5798  39.1491  40.3660  40.7131
    41.6835  42.0053  42.6505  43.4185  43.5749  44.0932  44.2946  45.0769
    45.5080  45.5685  45.6895  46.4947  46.8822  47.0704  47.6637  47.7329
    49.2053  50.3166  52.9897  53.0595  53.5379  53.7794

     the Fermi energy is    13.1939 ev

!    total energy              =    -407.83232179 Ry
     Harris-Foulkes estimate   =    -407.83232168 Ry
     estimated scf accuracy    <          9.6E-09 Ry

     The total energy is the sum of the following terms:

     one-electron contribution =    -113.50353536 Ry
     hartree contribution      =      85.92677416 Ry
     xc contribution           =     -67.46515927 Ry
     ewald contribution        =    -312.79033825 Ry
     smearing contrib. (-TS)   =      -0.00006307 Ry

     total magnetization       =     0.00 Bohr mag/cell
     absolute magnetization    =     0.00 Bohr mag/cell

     convergence has been achieved in  16 iterations

     Forces acting on atoms (Ry/au):

     atom    1 type  1   force =     0.00000000    0.00000000    0.00000000
     atom    2 type  1   force =     0.00000000    0.00000000    0.00000000
     atom    3 type  2   force =    -0.00005513   -0.00005513   -0.00000000
     atom    4 type  2   force =     0.00005513    0.00005513    0.00000000
     atom    5 type  2   force =    -0.00005807    0.00005807   -0.00000000
     atom    6 type  2   force =     0.00005807   -0.00005807    0.00000000

     Total force =     0.000160     Total SCF correction =     0.000053
     SCF correction compared to forces is large: reduce conv_thr to get better values

     entering subroutine stress ...

          total   stress  (Ry/bohr**3)                   (kbar)     P=   12.62
   0.00008971  -0.00000005   0.00000000         13.20     -0.01      0.00
  -0.00000005   0.00008971   0.00000000         -0.01     13.20      0.00
   0.00000000   0.00000000   0.00007793          0.00      0.00     11.46

     General routines

     Parallel routines

   This run was terminated on:  12: 8:35  24Jan2014

   JOB DONE.