     Program PWSCF v.5.0.2 (svn rev. 9656) starts on  1May2014 at  6:22:28

     Current dimensions of program PWSCF are:
     Max number of different atomic species (ntypx) = 10
     Max number of k-points (npk) =  40000
     Max angular momentum in pseudopotentials (lmaxx) =  3
     Reading input from pwscf.in
Warning: card &CELL ignored
Warning: card / ignored

     Subspace diagonalization in iterative solution of the eigenvalue problem:
     a serial algorithm will be used

     bravais-lattice index     =            0
     lattice parameter (alat)  =      12.2076  a.u.
     unit-cell volume          =    7496.5096 (a.u.)^3
     number of atoms/cell      =           33
     number of atomic types    =            3
     number of electrons       =       253.00
     number of Kohn-Sham states=          379
     kinetic-energy cutoff     =      40.0000  Ry
     charge density cutoff     =     500.0000  Ry
     convergence threshold     =      1.0E-06
     mixing beta               =       0.3000
     number of iterations used =            8  plain     mixing
     Exchange-correlation      = SLA  PW   PBE  PBE ( 1 4 3 4 0)
     EXX-fraction              =        0.00
     nstep                     =           50

     celldm(1)=  12.207631  celldm(2)=   0.000000  celldm(3)=   0.000000
     celldm(4)=   0.000000  celldm(5)=   0.000000  celldm(6)=   0.000000

     crystal axes: (cart. coord. in units of alat)
               a(1) = (   1.000000   0.000000   0.000000 )
               a(2) = (   0.000000   1.004836   0.000000 )
               a(3) = (   0.000000   0.000000   4.100811 )

     reciprocal axes: (cart. coord. in units 2 pi/alat)
               b(1) = (  1.000000  0.000000  0.000000 )
               b(2) = (  0.000000  0.995187  0.000000 )
               b(3) = (  0.000000  0.000000  0.243854 )

     PseudoPot. # 1 for O  read from file:
     /home/camp/zhonxu/pseudo/o_pbe_v1.01.uspp.F.UPF
     MD5 check sum: 2bcb18d16ea4b960afae9ec6d52f22d2
     Pseudo is Ultrasoft + core correction, Zval =  6.0
     Generated by new atomic code, or converted to UPF format
     Using radial grid of  737 points,  5 beta functions with:
                l(1) =   0
                l(2) =   0
                l(3) =   1
                l(4) =   1
                l(5) =   2
     Q(r) pseudized with  8 coefficients,  rinner =    0.900   0.900   0.900
                                                       0.900   0.900

     PseudoPot. # 2 for Pt read from file:
     /home/camp/zhonxu/pseudo/pt_pbe_v1.uspp.F.UPF
     MD5 check sum: 4c71d6ad5ef119f1eb26a4d0b7884226
     Pseudo is Ultrasoft + core correction, Zval = 16.0
     Generated by new atomic code, or converted to UPF format
     Using radial grid of  985 points,  6 beta functions with:
                l(1) =   0
                l(2) =   0
                l(3) =   1
                l(4) =   1
                l(5) =   2
                l(6) =   2
     Q(r) pseudized with  8 coefficients,  rinner =    1.300   1.300   1.300
                                                       1.300   1.300

     PseudoPot. # 3 for H  read from file:
     /home/camp/zhonxu/pseudo/h_pbe_v1.uspp.F.UPF
     MD5 check sum: 3408e3ff4ec8b0a4e358431e7e038a48
     Pseudo is Ultrasoft, Zval =  1.0
     Generated by new atomic code, or converted to UPF format
     Using radial grid of  615 points,  2 beta functions with:
                l(1) =   0
                l(2) =   0
     Q(r) pseudized with  8 coefficients,  rinner =    0.700

     atomic species   valence    mass     pseudopotential
        O0             6.00    15.99940     O ( 1.00)
        Pt1           16.00   195.08000     Pt( 1.00)
        H2             1.00     1.00794     H ( 1.00)

     No symmetry found

   Cartesian axes

     site n.     atom                  positions (alat units)
         1           O0  tau(   1) = (   0.0000000   0.0000000   1.5457188  )
         2           O0  tau(   2) = (   0.0000000   0.5024180   1.6369208  )
         3           Pt1 tau(   3) = (   0.2500000   0.5024180   1.8413872  )
         4           Pt1 tau(   4) = (   0.0000000   0.0000000   1.8534436  )
         5           O0  tau(   5) = (   0.2500000   0.8139171   1.8157162  )
         6           O0  tau(   6) = (   0.2500000   0.1909188   1.8824364  )
         7           O0  tau(   7) = (   0.0000000   0.5024180   2.0315829  )
         8           O0  tau(   8) = (   0.0000000   0.0000000   2.1708464  )
         9           Pt1 tau(   9) = (   0.2500000   0.0000000   2.3625593  )
        10           Pt1 tau(  10) = (   0.0000000   0.5024180   2.3549318  )
        11           O0  tau(  11) = (   0.2500000   0.6933368   2.3911010  )
        12           O0  tau(  12) = (   0.2500000   0.3114991   2.3934384  )
        13           O0  tau(  13) = (   0.0000000   0.0000000   2.5491052  )
        14           O0  tau(  14) = (   0.5000000   0.0000000   1.5457188  )
        15           O0  tau(  15) = (   0.5000000   0.5024180   1.6369208  )
        16           Pt1 tau(  16) = (   0.7500000   0.5024180   1.8413872  )
        17           Pt1 tau(  17) = (   0.5000000   0.0000000   1.8534436  )
        18           O0  tau(  18) = (   0.7500000   0.8139171   1.8157162  )
        19           O0  tau(  19) = (   0.7500000   0.1909188   1.8824364  )
        20           O0  tau(  20) = (   0.5000000   0.5024180   2.0315829  )
        21           O0  tau(  21) = (   0.5000000   0.0000000   2.1708464  )
        22           Pt1 tau(  22) = (   0.7500000   0.0000000   2.3625593  )
        23           Pt1 tau(  23) = (   0.5000000   0.5024180   2.3549318  )
        24           O0  tau(  24) = (   0.7500000   0.6933368   2.3911010  )
        25           O0  tau(  25) = (   0.7500000   0.3114991   2.3934384  )
        26           O0  tau(  26) = (   0.5000000   0.0000000   2.5491052  )
        27           H2  tau(  27) = (  -0.0000500   0.6431553   1.5728661  )
        28           H2  tau(  28) = (   0.4999500   0.6431553   1.5728661  )
        29           H2  tau(  29) = (   0.1440700   0.0315318   1.5048747  )
        30           H2  tau(  30) = (   0.6440700   0.0315318   1.5048747  )
        31           O0  tau(  31) = (   0.5000000   0.5024180   2.6645021  )
        32           O0  tau(  32) = (   0.5000000   0.3220801   2.7707131  )
        33           H2  tau(  33) = (   0.5000000   0.3679106   2.9173171  )

     number of k points=    10  Methfessel-Paxton smearing, width (Ry)=  0.0100
                       cart. coord. in units 2pi/alat
        k(    1) = (   0.0000000   0.0000000   0.0000000), wk =   0.1250000
        k(    2) = (   0.0000000   0.2487968   0.0000000), wk =   0.2500000
        k(    3) = (   0.0000000  -0.4975937   0.0000000), wk =   0.1250000
        k(    4) = (   0.2500000   0.0000000   0.0000000), wk =   0.2500000
        k(    5) = (   0.2500000   0.2487968   0.0000000), wk =   0.2500000
        k(    6) = (   0.2500000  -0.4975937   0.0000000), wk =   0.2500000
        k(    7) = (  -0.5000000   0.0000000   0.0000000), wk =   0.1250000
        k(    8) = (  -0.5000000   0.2487968   0.0000000), wk =   0.2500000
        k(    9) = (  -0.5000000  -0.4975937   0.0000000), wk =   0.1250000
        k(   10) = (  -0.2500000   0.2487968   0.0000000), wk =   0.2500000

     Largest allocated arrays     est. size (Mb)     dimensions
     Largest temporary arrays     est. size (Mb)     dimensions

     Check: negative/imaginary core charge=   -0.000003    0.000000

     Initial potential from superposition of free atoms
     Check: negative starting charge=   -1.536965

     starting charge  248.99983, renormalised to  253.00000

     negative rho (up, down):  0.156E+01 0.000E+00
     Starting wfc are  181 randomized atomic wfcs

     Self-consistent Calculation

     iteration #  1     ecut=    40.00 Ry     beta=0.30
     Davidson diagonalization with overlap
     ethr =  1.00E-02,  avg # of iterations =  5.4

     negative rho (up, down):  0.154E+01 0.000E+00

     total energy              =   -2309.17231534 Ry
     Harris-Foulkes estimate   =   -2320.00418331 Ry
     estimated scf accuracy    <      23.46788682 Ry

[...]

     End of self-consistent calculation

          k = 0.0000 0.0000 0.0000 ( 32157 PWs)   bands (ev):

   -55.2165 -55.1508 -55.1006 -55.0961 -55.0780 -55.0481 -55.0427 -55.0269
   -55.0231 -54.9887 -54.9064 -54.9011 -54.8822 -54.8132 -54.8040 -54.7676
   -54.7603 -54.7537 -54.7461 -54.7358 -54.7250 -54.3330 -54.0903 -53.8025
   -24.8084 -21.3867 -20.9984 -20.5544 -20.3909 -19.7703 -19.6918 -19.6549
   -19.5467 -19.5341 -19.5023 -19.4197 -19.3802 -19.3690 -19.1393 -19.0905
   -18.9909 -18.2190 -18.0740 -16.9615  -9.7693  -9.6153  -9.5198  -9.2489
    -8.7578  -8.4706  -8.4226  -8.3485  -8.3152  -8.2448  -8.1689  -8.1583
    -8.1050  -8.0567  -8.0254  -7.9755  -7.7768  -7.5540  -7.5180  -7.4091
    -7.0672  -6.9051  -6.8812  -6.7447  -6.7192  -6.6890  -6.3239  -6.2875
    -5.9176  -5.8954  -5.5953  -5.4066  -5.3288  -5.2564  -5.1643  -5.0552
    -5.0137  -4.9725  -4.8837  -4.8387  -4.7299  -4.6140  -4.5706  -4.4491
    -4.3325  -4.3128  -4.3053  -4.1191  -4.0688  -4.0291  -4.0160  -3.9904
    -3.9806  -3.9251  -3.8615  -3.8051  -3.7835  -3.6109  -3.5822  -3.5389
    -3.3525  -3.2952  -3.2003  -3.0549  -3.0184  -2.9485  -2.7483  -2.6839
    -2.4458  -2.2384  -2.2156  -2.0953  -2.0305  -1.8565  -1.6724  -1.5479
    -1.3331  -1.3143  -1.2707  -1.1606  -0.9921  -0.8187  -0.5765  -0.5665
    -0.3865   0.2385   0.2487   0.3001   0.5013   0.5318   0.8774   1.3203
     1.3306   1.5693   2.0721   2.0768   2.1059   2.4648   2.6231   2.9732
     3.5668   4.0220   4.3477   4.7181   5.2472   5.7334   5.8126   6.2922
     6.4240   6.4462   6.9152   7.0053   7.0926   7.1056   7.3563   7.3633
     7.4146   7.5194   7.5488   7.5627   7.7164   7.8102   7.8554   7.9118
     7.9161   8.0074   8.1172   8.1292   8.1694   8.2407   8.3701   8.3851
     8.4664   8.5841   8.6918   8.8067   8.9099   9.0238   9.1172   9.1649
     9.3505   9.5714   9.6154   9.8350   9.8481   9.8949  10.0542  10.2040
    10.2460  10.3589  10.3928  10.4381  10.5370  10.7413  10.7904  10.8549
    10.9149  10.9518  11.0522  11.0729  11.1440  11.1553  11.2650  11.3132
    11.4079  11.4357  11.4903  11.5039  11.6002  11.6911  11.7067  11.7537
    11.8841  11.9297  12.0558  12.1047  12.2485  12.2939  12.3239  12.3707
    12.4308  12.5451  12.6160  12.6254  12.6983  12.7251  13.0472  13.0721
    13.1431  13.2972  13.3568  13.4532  13.5459  13.6862  13.7757  13.8522
    13.8973  13.9238  13.9455  14.1219  14.2604  14.3688  14.3919  14.5201
    14.5433  14.8598  14.8720  14.9850  15.1000  15.1320  15.1781  15.2281
    15.3047  15.3428  15.4474  15.5277  15.6311  15.6832  15.7621  15.8957
    15.9314  16.0077  16.0744  16.2321  16.3605  16.3919  16.5870  16.6460
    16.7543  16.7967  16.8468  16.9525  17.0014  17.0175  17.0332  17.0650
    17.0782  17.1151  17.2147  17.2434  17.2530  17.3005  17.3023  17.3416
    17.4075  17.4659  17.5853  17.6149  17.6978  17.7959  17.8233  17.9308
    18.0051  18.1205  18.1835  18.2223  18.2958  18.3880  18.4012  18.4513
[...]
     atom   25 type  1   force =     0.01199754   -0.00050711   -0.01689131
     atom   26 type  1   force =    -0.00110609   -0.01400357   -0.01229325
     atom   27 type  3   force =     0.00003181    0.00136935    0.00147137
     atom   28 type  3   force =     0.00001387   -0.00065618    0.00053551
     atom   29 type  3   force =    -0.00052743    0.00035167    0.00032274
     atom   30 type  3   force =    -0.00070430    0.00050764    0.00034318
     atom   31 type  1   force =     0.00004767    0.12331629   -0.01413886
     atom   32 type  1   force =    -0.00001131   -0.08511335    0.02527506
     atom   33 type  3   force =    -0.00000426    0.01069133   -0.00872520

     Total force =     0.030247     Total SCF correction =     0.000405

     BFGS Geometry Optimization

     number of scf cycles    =   1
     number of bfgs steps    =   0

     energy   new            =   -2314.1801713407 Ry

     new trust radius        =       0.0252750608 bohr
     new conv_thr            =       0.0000010000 Ry

ATOMIC_POSITIONS (crystal)
O0       0.000000000   0.000000000   0.376930000    0   0   0
O0       0.000000000   0.500000000   0.399170000    0   0   0
Pt1      0.250000000   0.500000000   0.449030000    0   0   0
Pt1      0.000000000   0.000000000   0.451970000    0   0   0
O0       0.250000000   0.810000000   0.442770000    0   0   0
O0       0.250000000   0.190000000   0.459040000    0   0   0
O0       0.000000000   0.500000000   0.495410000    0   0   0
O0       0.000000000   0.000000000   0.529370000    0   0   0
Pt1      0.250000000   0.000000000   0.576120000    0   0   0
Pt1      0.000000000   0.500000000   0.574260000    0   0   0
O0       0.250000000   0.690000000   0.583080000    0   0   0
O0       0.250000000   0.310000000   0.583650000    0   0   0
O0       0.000000000   0.000000000   0.621610000    0   0   0
O0       0.500000000   0.000000000   0.376930000    0   0   0
O0       0.500000000   0.500000000   0.399170000    0   0   0
Pt1      0.750000000   0.500000000   0.449030000    0   0   0
Pt1      0.500000000   0.000000000   0.451970000    0   0   0
O0       0.750000000   0.810000000   0.442770000    0   0   0
O0       0.750000000   0.190000000   0.459040000    0   0   0
O0       0.500000000   0.500000000   0.495410000    0   0   0
O0       0.500000000   0.000000000   0.529370000    0   0   0
Pt1      0.750000000   0.000000000   0.576120000    0   0   0
Pt1      0.500000000   0.500000000   0.574260000    0   0   0
O0       0.750000000   0.690000000   0.583080000    0   0   0
O0       0.750000000   0.310000000   0.583650000    0   0   0
O0       0.500000000   0.000000000   0.621610000    0   0   0
H2      -0.000050000   0.640060000   0.383550000    0   0   0
H2       0.499950000   0.640060000   0.383550000    0   0   0
H2       0.144070000   0.031380000   0.366970000    0   0   0
H2       0.644070000   0.031380000   0.366970000    0   0   0
O0       0.500003905   0.500000000   0.649467568    1   0   1
O0       0.499999074   0.320530000   0.676154883    1   0   1
H2       0.499999651   0.366140000   0.711225709    1   0   1

     Check: negative starting charge=   -1.536965
     NEW-OLD atomic charge density approx. for the potential

     Check: negative/imaginary core charge=   -0.000003    0.000000
     Check: negative starting charge=   -1.536962

[...]

     energy   old            =   -2314.1801713407 Ry
     energy   new            =   -2314.1803658882 Ry

     CASE: energy  _new < energy  _old

[...]

     Threshold (ethr) on eigenvalues was too large:
     Diagonalizing with lowered threshold

     Davidson diagonalization with overlap
     ethr =  1.99E-08,  avg # of iterations =  1.0

[...]

     number of scf cycles    =   8
     number of bfgs steps    =   7

     energy   old            =   -2314.1806501857 Ry
     energy   new            =   -2314.1806629826 Ry

     CASE: energy  _new < energy  _old

     new trust radius        =       0.0028590800 bohr
     new conv_thr            =       0.0000000100 Ry

ATOMIC_POSITIONS (crystal)
O0       0.000000000   0.000000000   0.376930000    0   0   0
O0       0.000000000   0.500000000   0.399170000    0   0   0
Pt1      0.250000000   0.500000000   0.449030000    0   0   0
Pt1      0.000000000   0.000000000   0.451970000    0   0   0
O0       0.250000000   0.810000000   0.442770000    0   0   0
O0       0.250000000   0.190000000   0.459040000    0   0   0
O0       0.000000000   0.500000000   0.495410000    0   0   0
O0       0.000000000   0.000000000   0.529370000    0   0   0
Pt1      0.250000000   0.000000000   0.576120000    0   0   0
Pt1      0.000000000   0.500000000   0.574260000    0   0   0
O0       0.250000000   0.690000000   0.583080000    0   0   0
O0       0.250000000   0.310000000   0.583650000    0   0   0
O0       0.000000000   0.000000000   0.621610000    0   0   0
O0       0.500000000   0.000000000   0.376930000    0   0   0
O0       0.500000000   0.500000000   0.399170000    0   0   0
Pt1      0.750000000   0.500000000   0.449030000    0   0   0
Pt1      0.500000000   0.000000000   0.451970000    0   0   0
O0       0.750000000   0.810000000   0.442770000    0   0   0
O0       0.750000000   0.190000000   0.459040000    0   0   0
O0       0.500000000   0.500000000   0.495410000    0   0   0
O0       0.500000000   0.000000000   0.529370000    0   0   0
Pt1      0.750000000   0.000000000   0.576120000    0   0   0
Pt1      0.500000000   0.500000000   0.574260000    0   0   0
O0       0.750000000   0.690000000   0.583080000    0   0   0
O0       0.750000000   0.310000000   0.583650000    0   0   0
O0       0.500000000   0.000000000   0.621610000    0   0   0
H2      -0.000050000   0.640060000   0.383550000    0   0   0
H2       0.499950000   0.640060000   0.383550000    0   0   0
H2       0.144070000   0.031380000   0.366970000    0   0   0
H2       0.644070000   0.031380000   0.366970000    0   0   0
O0       0.500113576   0.500000000   0.649812902    1   0   1
O0       0.499938991   0.320530000   0.676793841    1   0   1
H2       0.499993661   0.366140000   0.712299975    1   0   1

     Check: negative starting charge=   -1.536959
     NEW-OLD atomic charge density approx. for the potential

     Check: negative/imaginary core charge=   -0.000003    0.000000
     Check: negative starting charge=   -1.536960

[...]

     Self-consistent Calculation

[...]

     Threshold (ethr) on eigenvalues was too large:
     Diagonalizing with lowered threshold

     Davidson diagonalization with overlap
     ethr =  3.33E-09,  avg # of iterations =  1.0

[...]

     total energy              =   -2314.18066560 Ry
     Harris-Foulkes estimate   =   -2314.18066560 Ry
     estimated scf accuracy    <       0.00000001 Ry

     iteration # 10     ecut=    40.00 Ry     beta=0.30
     Davidson diagonalization with overlap
     ethr =  5.14E-12,  avg # of iterations =  1.0

     negative rho (up, down):  0.158E+01 0.000E+00

     End of self-consistent calculation

[...]

          k = 0.2500-0.4976 0.0000 ( 32026 PWs)   bands (ev):

[...]

          k =-0.2500 0.2488 0.0000 ( 32025 PWs)   bands (ev):

   -55.2296 -55.1618 -55.1231 -55.1123 -55.0900 -55.0750 -55.0540 -55.0459
   -55.0433 -55.0156 -54.9245 -54.9209 -54.8966 -54.8316 -54.8236 -54.7854
   -54.7802 -54.7719 -54.7668 -54.7545 -54.7445 -54.3545 -54.1111 -53.8245
   -24.5248 -21.3331 -21.0341 -20.4078 -20.2090 -19.9119 -19.7456 -19.7111
   -19.5968 -19.5761 -19.4951 -19.4169 -19.3992 -19.3865 -19.2519 -19.1830
   -19.1570 -18.2577 -18.1373 -17.0093  -9.4806  -9.2739  -9.1087  -9.0244
    -8.9470  -8.5196  -8.4622  -8.3807  -8.2695  -8.2379  -8.1579  -8.0420
    -7.9706  -7.9366  -7.8511  -7.7301  -7.6691  -7.5951  -7.3738  -7.2258
    -7.1218  -7.0027  -6.9004  -6.8064  -6.7375  -6.5340  -6.2611  -6.1421
    -6.0349  -6.0079  -5.9203  -5.8370  -5.8011  -5.6867  -5.5993  -5.5799
    -5.4652  -5.4288  -5.2917  -5.1779  -5.1399  -4.9443  -4.8537  -4.7398
    -4.6629  -4.6046  -4.4438  -4.3666  -4.2749  -4.1733  -4.0837  -3.8842
    -3.8465  -3.6634  -3.5931  -3.5022  -3.3610  -3.3046  -3.2089  -3.1379
    -3.0198  -2.9604  -2.9011  -2.8619  -2.8070  -2.6842  -2.6484  -2.6004
    -2.5496  -2.3791  -2.2886  -2.2198  -1.9019  -1.7184  -1.6659  -1.5065
    -1.4245  -1.3655  -1.2989  -1.2101  -0.9571  -0.8486  -0.8256  -0.6607
    -0.2927  -0.0607   0.0056   0.4777   0.6150   0.9384   1.0754   1.3767
     1.4467   1.6196   1.6620   1.9787   2.0390   2.1476   2.4109   3.7031
     3.9322   4.4649   4.7057   5.1508   5.2440   5.6842   5.7068   5.7888
     6.0807   6.1680   6.3290   6.4618   6.5395   6.6780   6.7338   6.8785
     7.0497   7.1286   7.3028   7.4535   7.5388   7.6361   7.8308   7.8852
     7.9310   8.0382   8.2317   8.2498   8.4200   8.5096   8.5513   8.7125
     8.7677   8.7965   8.8576   8.9441   9.0734   9.1806   9.3531   9.4523
     9.5323   9.5791   9.6193   9.7349   9.9156  10.0146  10.0587  10.1108
    10.2194  10.2949  10.4454  10.4706  10.6358  10.6816  10.7064  10.7614
    10.8439  10.9688  11.1271  11.2028  11.2968  11.3822  11.4850  11.5388
    11.6722  11.7836  11.8054  11.8869  11.9461  12.0285  12.1021  12.1346
    12.2599  12.3174  12.3898  12.4406  12.5951  12.6288  12.7045  12.7797
    12.8118  12.8842  12.9673  13.0046  13.0799  13.2064  13.2707  13.3383
    13.4780  13.5392  13.6604  13.7228  13.7981  13.8190  13.8953  14.0045
    14.1072  14.1621  14.2283  14.3054  14.4445  14.5210  14.6206  14.6441
    14.7202  14.8107  14.9161  14.9738  15.0573  15.1184  15.1639  15.2432
    15.3295  15.3352  15.4143  15.4455  15.4907  15.6026  15.6137  15.6604
    15.7529  15.7940  15.8185  15.8754  16.0123  16.0269  16.1407  16.2059
    16.2214  16.3278  16.3368  16.4156  16.5373  16.5868  16.6382  16.7906
    16.8113  16.9244  16.9583  17.0039  17.0272  17.0508  17.0660  17.0889
    17.1787  17.1955  17.2195  17.2348  17.2405  17.2569  17.2948  17.3494
    17.4022  17.4349  17.4860  17.5328  17.5961  17.6845  17.7525  17.8600
    17.9080  17.9400  17.9854  18.0891  18.1357  18.2454  18.2864  18.3446
    18.3941  18.4479  18.4814  18.5946  18.6344  18.7496  18.7762  18.8405
    18.9223  18.9668  19.0836  19.1253  19.1875  19.2684  19.3366  19.3921
    19.4746  19.5644  19.6277  19.6861  19.7542  19.8148  19.9404  20.0065
    20.0836  20.1148  20.1580  20.2646  20.2970  20.3721  20.4126  20.4273
    20.5061  20.5661  20.6547  20.6776  20.7473  20.7629  20.8564  20.8970
    20.9417  20.9821  21.0444  21.0911  21.1093  21.2025  21.3043  21.3859
    21.4241  21.4553  21.5641  21.5958  21.6516  21.7061  21.8140  21.8375
    21.9461  21.9820  22.0733  22.1311  22.1918  22.2437  22.3085  22.3952
    22.4526  22.5026  22.5353

     the Fermi energy is    -0.7804 ev

!    total energy              =   -2314.18066560 Ry
     Harris-Foulkes estimate   =   -2314.18066560 Ry
     estimated scf accuracy    <          3.9E-09 Ry

     The total energy is the sum of the following terms:

     one-electron contribution =  -23911.90046655 Ry
     hartree contribution      =   12005.73968695 Ry
     xc contribution           =    -579.98269099 Ry
     ewald contribution        =   10171.96307211 Ry
     smearing contrib. (-TS)   =      -0.00026711 Ry

     convergence has been achieved in  10 iterations

     Forces acting on atoms (Ry/au):

     negative rho (up, down):  0.158E+01 0.000E+00
     atom    1 type  1   force =    -0.00730439   -0.00523967   -0.00138186
     atom    2 type  1   force =     0.00010604    0.00155450    0.00714959
     atom    3 type  2   force =    -0.00589748    0.00542400    0.00545638
     atom    4 type  2   force =     0.01053617    0.00192849    0.00339899
     atom    5 type  1   force =     0.00074450   -0.00254630   -0.00056655
     atom    6 type  1   force =     0.00013111    0.00032966   -0.00060198
     atom    7 type  1   force =     0.00005698    0.00454083    0.00227117
     atom    8 type  1   force =    -0.00397510   -0.00646440    0.00069107
     atom    9 type  2   force =     0.00376201   -0.00128467   -0.00522991
     atom   10 type  2   force =    -0.00003932   -0.00080909    0.00188181
     atom   11 type  1   force =    -0.01239625    0.00278894   -0.01377565
     atom   12 type  1   force =    -0.01198633   -0.00061092   -0.01719788
     atom   13 type  1   force =    -0.00111493    0.00018969    0.00088104
     atom   14 type  1   force =    -0.00730551   -0.00499826   -0.00093036
     atom   15 type  1   force =     0.00009116    0.00593947   -0.00775821
     atom   16 type  2   force =     0.00494355    0.00540816    0.00552085
     atom   17 type  2   force =     0.01044757    0.00258742    0.00064804
     atom   18 type  1   force =     0.00126997   -0.00255607   -0.00055259
     atom   19 type  1   force =    -0.00020782    0.00038309   -0.00065988
     atom   20 type  1   force =     0.00006314    0.00483665    0.03029991
     atom   21 type  1   force =    -0.00393455   -0.00670826   -0.00090610
     atom   22 type  2   force =    -0.00021282   -0.00130187   -0.00526417
     atom   23 type  2   force =    -0.00002634   -0.04464465    0.03704245
     atom   24 type  1   force =     0.01240139    0.00284214   -0.01378304
     atom   25 type  1   force =     0.01214560   -0.00063029   -0.01721224
     atom   26 type  1   force =    -0.00109304   -0.01307805   -0.01218233
     atom   27 type  3   force =     0.00003063    0.00135874    0.00148932
     atom   28 type  3   force =     0.00001273   -0.00064904    0.00053932
     atom   29 type  3   force =    -0.00053927    0.00034805    0.00032428
     atom   30 type  3   force =    -0.00071199    0.00050312    0.00034486
     atom   31 type  1   force =     0.00012966    0.10946647    0.00049169
     atom   32 type  1   force =    -0.00013833   -0.07863143    0.00006158
     atom   33 type  3   force =     0.00001125    0.01972355   -0.00048958

     Total force =     0.000722     Total SCF correction =     0.000067

     bfgs converged in   9 scf cycles and   8 bfgs steps
     (criteria: energy < 0.10E-03, force < 0.10E-02)

     End of BFGS Geometry Optimization

     Final energy   =   -2314.1806655980 Ry
Begin final coordinates

ATOMIC_POSITIONS (crystal)
O0       0.000000000   0.000000000   0.376930000    0   0   0
O0       0.000000000   0.500000000   0.399170000    0   0   0
Pt1      0.250000000   0.500000000   0.449030000    0   0   0
Pt1      0.000000000   0.000000000   0.451970000    0   0   0
O0       0.250000000   0.810000000   0.442770000    0   0   0
O0       0.250000000   0.190000000   0.459040000    0   0   0
O0       0.000000000   0.500000000   0.495410000    0   0   0
O0       0.000000000   0.000000000   0.529370000    0   0   0
Pt1      0.250000000   0.000000000   0.576120000    0   0   0
Pt1      0.000000000   0.500000000   0.574260000    0   0   0
O0       0.250000000   0.690000000   0.583080000    0   0   0
O0       0.250000000   0.310000000   0.583650000    0   0   0
O0       0.000000000   0.000000000   0.621610000    0   0   0
O0       0.500000000   0.000000000   0.376930000    0   0   0
O0       0.500000000   0.500000000   0.399170000    0   0   0
Pt1      0.750000000   0.500000000   0.449030000    0   0   0
Pt1      0.500000000   0.000000000   0.451970000    0   0   0
O0       0.750000000   0.810000000   0.442770000    0   0   0
O0       0.750000000   0.190000000   0.459040000    0   0   0
O0       0.500000000   0.500000000   0.495410000    0   0   0
O0       0.500000000   0.000000000   0.529370000    0   0   0
Pt1      0.750000000   0.000000000   0.576120000    0   0   0
Pt1      0.500000000   0.500000000   0.574260000    0   0   0
O0       0.750000000   0.690000000   0.583080000    0   0   0
O0       0.750000000   0.310000000   0.583650000    0   0   0
O0       0.500000000   0.000000000   0.621610000    0   0   0
H2      -0.000050000   0.640060000   0.383550000    0   0   0
H2       0.499950000   0.640060000   0.383550000    0   0   0
H2       0.144070000   0.031380000   0.366970000    0   0   0
H2       0.644070000   0.031380000   0.366970000    0   0   0
O0       0.500113576   0.500000000   0.649812902    1   0   1
O0       0.499938991   0.320530000   0.676793841    1   0   1
H2       0.499993661   0.366140000   0.712299975    1   0   1
End final coordinates

     General routines

     Parallel routines

   This run was terminated on:  13:12:47   1May2014

   JOB DONE.
Running PBS batch system epilogue script
Job id: 344753.audhumbla.fysik.dtu.dk
Username: zhonxu
Groupname: campgst
Jobname: PtO2/Eads-2-layers/OOH
Sessionid: 24456
Queuename: verylong
Accounting:
This job has allocated the following 16 nodes:
a011 a011 a011 a011 a011 a011 a011 a011 a003 a003 a003 a003 a003 a003 a003 a003
Finished epilogue job 344753.audhumbla.fysik.dtu.dk for zhonxu