     Program PWSCF v.5.0.2 (svn rev. 9656) starts on 29Apr2014 at  7:38:24

     Current dimensions of program PWSCF are:
     Max number of different atomic species (ntypx) = 10
     Max number of k-points (npk) =  40000
     Max angular momentum in pseudopotentials (lmaxx) =  3
     Reading input from pwscf.in
Warning: card &CELL ignored
Warning: card / ignored

     Subspace diagonalization in iterative solution of the eigenvalue problem:
     a serial algorithm will be used

     bravais-lattice index     =            0
     lattice parameter (alat)  =      12.0187  a.u.
     unit-cell volume          =    7280.5819 (a.u.)^3
     number of atoms/cell      =           32
     number of atomic types    =            3
     number of electrons       =       239.00
     number of Kohn-Sham states=          358
     kinetic-energy cutoff     =      40.0000  Ry
     charge density cutoff     =     500.0000  Ry
     convergence threshold     =      1.0E-06
     mixing beta               =       0.7000
     number of iterations used =            8  plain     mixing
     Exchange-correlation      = SLA  PW   PBE  PBE ( 1 4 3 4 0)
     EXX-fraction              =        0.00
     nstep                     =           50

     celldm(1)=  12.018658  celldm(2)=   0.000000  celldm(3)=   0.000000
     celldm(4)=   0.000000  celldm(5)=   0.000000  celldm(6)=   0.000000

     crystal axes: (cart. coord. in units of alat)
               a(1) = (   1.000000   0.000000   0.000000 )
               a(2) = (   0.000000   1.009517   0.000000 )
               a(3) = (   0.000000   0.000000   4.154171 )

     reciprocal axes: (cart. coord. in units 2 pi/alat)
               b(1) = (  1.000000  0.000000  0.000000 )
               b(2) = (  0.000000  0.990572  0.000000 )
               b(3) = (  0.000000  0.000000  0.240722 )

     PseudoPot. # 1 for O  read from file:
     /home/camp/zhonxu/pseudo/o_pbe_v1.01.uspp.F.UPF
     MD5 check sum: 2bcb18d16ea4b960afae9ec6d52f22d2
     Pseudo is Ultrasoft + core correction, Zval =  6.0
     Generated by new atomic code, or converted to UPF format
     Using radial grid of  737 points,  5 beta functions with:
                l(1) =   0
                l(2) =   0
                l(3) =   1
                l(4) =   1
                l(5) =   2
     Q(r) pseudized with  8 coefficients,  rinner =    0.900   0.900   0.900
                                                       0.900   0.900

     PseudoPot. # 2 for Ir read from file:
     /home/camp/zhonxu/pseudo/ir_pbe_v1.uspp.F.UPF
     MD5 check sum: abf987a9674477536ede83817f8f8b70
     Pseudo is Ultrasoft + core correction, Zval = 15.0
     Generated by new atomic code, or converted to UPF format
     Using radial grid of  983 points,  7 beta functions with:
                l(1) =   0
                l(2) =   0
                l(3) =   1
                l(4) =   1
                l(5) =   1
                l(6) =   2
                l(7) =   2
     Q(r) pseudized with  8 coefficients,  rinner =    1.350   1.350   1.350
                                                       1.350   1.350

     PseudoPot. # 3 for H  read from file:
     /home/camp/zhonxu/pseudo/h_pbe_v1.uspp.F.UPF
     MD5 check sum: 3408e3ff4ec8b0a4e358431e7e038a48
     Pseudo is Ultrasoft, Zval =  1.0
     Generated by new atomic code, or converted to UPF format
     Using radial grid of  615 points,  2 beta functions with:
                l(1) =   0
                l(2) =   0
     Q(r) pseudized with  8 coefficients,  rinner =    0.700

     atomic species   valence    mass     pseudopotential
        O0             6.00    15.99940     O ( 1.00)
        Ir1           15.00   192.22000     Ir( 1.00)
        H2             1.00     1.00794     H ( 1.00)

     Simplified LDA+U calculation (l_max = 2) with parameters (eV):
     atomic species    L          U    alpha       J0     beta
        Ir1            2     8.0000   0.0000   0.0000   0.0000

     No symmetry found

   Cartesian axes

     site n.     atom                  positions (alat units)
         1           O0  tau(   1) = (   0.0000000   0.0000000   1.5715230  )
         2           O0  tau(   2) = (   0.0000000   0.5047586   1.6723863  )
         3           Ir1 tau(   3) = (   0.2500000   0.5047586   1.8804272  )
         4           Ir1 tau(   4) = (   0.0000000   0.0000000   1.8823796  )
         5           O0  tau(   5) = (   0.2500000   0.8177090   1.8809672  )
         6           O0  tau(   6) = (   0.2500000   0.1918083   1.8797625  )
         7           O0  tau(   7) = (   0.0000000   0.5047586   2.0697743  )
         8           O0  tau(   8) = (   0.0000000   0.0000000   2.1967673  )
         9           Ir1 tau(   9) = (   0.2500000   0.0000000   2.3926365  )
        10           Ir1 tau(  10) = (   0.0000000   0.5047586   2.3747736  )
        11           O0  tau(  11) = (   0.2500000   0.6965669   2.3923873  )
        12           O0  tau(  12) = (   0.2500000   0.3129503   2.3927196  )
        13           O0  tau(  13) = (   0.0000000   0.0000000   2.5779541  )
        14           O0  tau(  14) = (   0.5000000   0.0000000   1.5704845  )
        15           O0  tau(  15) = (   0.5000000   0.5047586   1.6698107  )
        16           Ir1 tau(  16) = (   0.7500000   0.5047586   1.8805103  )
        17           Ir1 tau(  17) = (   0.5000000   0.0000000   1.8817565  )
        18           O0  tau(  18) = (   0.7500000   0.8177090   1.8810503  )
        19           O0  tau(  19) = (   0.7500000   0.1918083   1.8797625  )
        20           O0  tau(  20) = (   0.5000000   0.5047586   2.0748424  )
        21           O0  tau(  21) = (   0.5000000   0.0000000   2.1964350  )
        22           Ir1 tau(  22) = (   0.7500000   0.0000000   2.3925119  )
        23           Ir1 tau(  23) = (   0.5000000   0.5047586   2.3910995  )
        24           O0  tau(  24) = (   0.7500000   0.6965669   2.3896040  )
        25           O0  tau(  25) = (   0.7500000   0.3129503   2.3900194  )
        26           O0  tau(  26) = (   0.5000000   0.0000000   2.5760847  )
        27           H2  tau(  27) = (  -0.0000400   0.6399431   1.5942048  )
        28           H2  tau(  28) = (   0.5000100   0.6429817   1.5968219  )
        29           H2  tau(  29) = (   0.1437000   0.0339904   1.5235839  )
        30           H2  tau(  30) = (   0.6431700   0.0357369   1.5224622  )
        31           O0  tau(  31) = (   0.5156900   0.5047586   2.6944786  )
        32           H2  tau(  32) = (   0.3744100   0.5050918   2.7575805  )

     number of k points=    10  Methfessel-Paxton smearing, width (Ry)=  0.0100
                       cart. coord. in units 2pi/alat
        k(    1) = (   0.0000000   0.0000000   0.0000000), wk =   0.1250000
        k(    2) = (   0.0000000   0.2476431   0.0000000), wk =   0.2500000
        k(    3) = (   0.0000000  -0.4952862   0.0000000), wk =   0.1250000
        k(    4) = (   0.2500000   0.0000000   0.0000000), wk =   0.2500000
        k(    5) = (   0.2500000   0.2476431   0.0000000), wk =   0.2500000
        k(    6) = (   0.2500000  -0.4952862   0.0000000), wk =   0.2500000
        k(    7) = (  -0.5000000   0.0000000   0.0000000), wk =   0.1250000
        k(    8) = (  -0.5000000   0.2476431   0.0000000), wk =   0.2500000
        k(    9) = (  -0.5000000  -0.4952862   0.0000000), wk =   0.1250000
        k(   10) = (  -0.2500000   0.2476431   0.0000000), wk =   0.2500000

     Largest allocated arrays     est. size (Mb)     dimensions
     Largest temporary arrays     est. size (Mb)     dimensions

     Check: negative/imaginary core charge=   -0.000003    0.000000

     Initial potential from superposition of free atoms
     Check: negative starting charge=   -3.334647

     starting charge  234.99967, renormalised to  239.00000

     negative rho (up, down):  0.339E+01 0.000E+00
     Number of +U iterations with fixed ns =  0
     Starting occupations:
 --- enter write_ns ---
 LDA+U parameters:
U( 2)     =  8.00000000
alpha( 2) =  0.00000000
atom    3   Tr[ns(na)] =   7.00000
    eigenvalues:
  0.700  0.700  0.700  0.700  0.700
    eigenvectors:
  1.000  0.000  0.000  0.000  0.000
  0.000  1.000  0.000  0.000  0.000
  0.000  0.000  1.000  0.000  0.000
  0.000  0.000  0.000  1.000  0.000
  0.000  0.000  0.000  0.000  1.000
    occupations:
  0.700  0.000  0.000  0.000  0.000
  0.000  0.700  0.000  0.000  0.000
  0.000  0.000  0.700  0.000  0.000
  0.000  0.000  0.000  0.700  0.000
  0.000  0.000  0.000  0.000  0.700
atom    4   Tr[ns(na)] =   7.00000
    eigenvalues:
  0.700  0.700  0.700  0.700  0.700
    eigenvectors:
  1.000  0.000  0.000  0.000  0.000
  0.000  1.000  0.000  0.000  0.000
  0.000  0.000  1.000  0.000  0.000
  0.000  0.000  0.000  1.000  0.000
  0.000  0.000  0.000  0.000  1.000
    occupations:
  0.700  0.000  0.000  0.000  0.000
  0.000  0.700  0.000  0.000  0.000
  0.000  0.000  0.700  0.000  0.000
  0.000  0.000  0.000  0.700  0.000
  0.000  0.000  0.000  0.000  0.700
atom    9   Tr[ns(na)] =   7.00000
    eigenvalues:
  0.700  0.700  0.700  0.700  0.700
    eigenvectors:
  1.000  0.000  0.000  0.000  0.000
  0.000  1.000  0.000  0.000  0.000
  0.000  0.000  1.000  0.000  0.000
  0.000  0.000  0.000  1.000  0.000
  0.000  0.000  0.000  0.000  1.000
    occupations:
  0.700  0.000  0.000  0.000  0.000
  0.000  0.700  0.000  0.000  0.000
  0.000  0.000  0.700  0.000  0.000
  0.000  0.000  0.000  0.700  0.000
  0.000  0.000  0.000  0.000  0.700
atom   10   Tr[ns(na)] =   7.00000
    eigenvalues:
  0.700  0.700  0.700  0.700  0.700
    eigenvectors:
  1.000  0.000  0.000  0.000  0.000
  0.000  1.000  0.000  0.000  0.000
  0.000  0.000  1.000  0.000  0.000
  0.000  0.000  0.000  1.000  0.000
  0.000  0.000  0.000  0.000  1.000
    occupations:
  0.700  0.000  0.000  0.000  0.000
  0.000  0.700  0.000  0.000  0.000
  0.000  0.000  0.700  0.000  0.000
  0.000  0.000  0.000  0.700  0.000
  0.000  0.000  0.000  0.000  0.700
atom   16   Tr[ns(na)] =   7.00000
    eigenvalues:
  0.700  0.700  0.700  0.700  0.700
    eigenvectors:
  1.000  0.000  0.000  0.000  0.000
  0.000  1.000  0.000  0.000  0.000
  0.000  0.000  1.000  0.000  0.000
  0.000  0.000  0.000  1.000  0.000
  0.000  0.000  0.000  0.000  1.000
    occupations:
  0.700  0.000  0.000  0.000  0.000
  0.000  0.700  0.000  0.000  0.000
  0.000  0.000  0.700  0.000  0.000
  0.000  0.000  0.000  0.700  0.000
  0.000  0.000  0.000  0.000  0.700
atom   17   Tr[ns(na)] =   7.00000
    eigenvalues:
  0.700  0.700  0.700  0.700  0.700
    eigenvectors:
  1.000  0.000  0.000  0.000  0.000
  0.000  1.000  0.000  0.000  0.000
  0.000  0.000  1.000  0.000  0.000
  0.000  0.000  0.000  1.000  0.000
  0.000  0.000  0.000  0.000  1.000
    occupations:
  0.700  0.000  0.000  0.000  0.000
  0.000  0.700  0.000  0.000  0.000
  0.000  0.000  0.700  0.000  0.000
  0.000  0.000  0.000  0.700  0.000
  0.000  0.000  0.000  0.000  0.700
atom   22   Tr[ns(na)] =   7.00000
    eigenvalues:
  0.700  0.700  0.700  0.700  0.700
    eigenvectors:
  1.000  0.000  0.000  0.000  0.000
  0.000  1.000  0.000  0.000  0.000
  0.000  0.000  1.000  0.000  0.000
  0.000  0.000  0.000  1.000  0.000
[...]
  0.943  0.000  0.000 -0.110 -0.000
  0.000  0.656  0.001  0.000 -0.000
  0.000  0.001  0.891 -0.000 -0.001
 -0.110  0.000 -0.000  0.715  0.001
 -0.000 -0.000 -0.001  0.001  0.924
atom   10   Tr[ns(na)] =   8.19781
    eigenvalues:
  0.580  0.615  0.952  0.964  0.988
    eigenvectors:
  0.990  0.000  0.000  0.000  0.010
  0.000  0.000  1.000  0.000  0.000
  0.000  0.000  0.000  1.000  0.000
  0.010  0.000  0.000  0.000  0.990
  0.000  1.000  0.000  0.000  0.000
    occupations:
  0.584 -0.004  0.001  0.040 -0.000
 -0.004  0.952 -0.000  0.000 -0.000
  0.001 -0.000  0.964 -0.000  0.001
  0.040  0.000 -0.000  0.984 -0.000
 -0.000 -0.000  0.001 -0.000  0.615
atom   16   Tr[ns(na)] =   8.25494
    eigenvalues:
  0.606  0.635  0.925  0.975  0.987
    eigenvectors:
  0.001  0.181  0.003  0.001  0.813
  0.996  0.004  0.000  0.000  0.000
  0.000  0.000  0.978  0.019  0.003
  0.002  0.815  0.000  0.000  0.182
  0.000  0.000  0.019  0.980  0.001
    occupations:
  0.922  0.005  0.002 -0.136  0.001
  0.005  0.606  0.000 -0.000 -0.004
  0.002  0.000  0.926 -0.004 -0.007
 -0.136 -0.000 -0.004  0.699  0.000
  0.001 -0.004 -0.007  0.000  0.974
atom   17   Tr[ns(na)] =   8.25930
    eigenvalues:
  0.620  0.674  0.906  0.943  0.988
    eigenvectors:
  0.001  0.989  0.000  0.000  0.011
  0.000  0.000  0.120  0.880  0.000
  0.000  0.000  0.880  0.120  0.000
  0.000  0.011  0.000  0.000  0.989
  0.999  0.001  0.000  0.000  0.000
    occupations:
  0.677 -0.003 -0.001  0.032  0.001
 -0.003  0.938  0.012  0.000 -0.002
 -0.001  0.012  0.910 -0.000  0.000
  0.032  0.000 -0.000  0.984  0.000
  0.001 -0.002  0.000  0.000  0.620
atom   22   Tr[ns(na)] =   8.25233
    eigenvalues:
  0.657  0.672  0.885  0.926  0.987
    eigenvectors:
  0.000  0.139  0.000  0.000  0.861
  1.000  0.000  0.000  0.000  0.000
  0.000  0.000  0.999  0.001  0.000
  0.000  0.861  0.000  0.000  0.139
  0.000  0.000  0.001  0.999  0.000
    occupations:
  0.943  0.001 -0.000 -0.109 -0.000
  0.001  0.657  0.001 -0.000 -0.000
 -0.000  0.001  0.886 -0.000  0.001
 -0.109 -0.000 -0.000  0.715  0.001
 -0.000 -0.000  0.001  0.001  0.926
atom   23   Tr[ns(na)] =   8.24431
    eigenvalues:
  0.627  0.681  0.878  0.948  0.988
    eigenvectors:
  0.000  0.988  0.000  0.000  0.011
  0.000  0.000  0.000  0.999  0.000
  0.000  0.000  1.000  0.000  0.000
  0.000  0.011  0.000  0.000  0.989
  1.000  0.000  0.000  0.000  0.000
    occupations:
  0.685  0.006 -0.000  0.032 -0.000
  0.006  0.948 -0.001 -0.000 -0.000
 -0.000 -0.001  0.878  0.000 -0.001
  0.032 -0.000  0.000  0.984 -0.000
 -0.000 -0.000 -0.001 -0.000  0.627
N of occupied +U levels =  65.9787420
 --- exit write_ns ---

     Threshold (ethr) on eigenvalues was too large:
     Diagonalizing with lowered threshold

     Davidson diagonalization with overlap
     ethr =  5.83E-09,  avg # of iterations =  2.0

[...]

     total energy              =   -2104.41669783 Ry
     Harris-Foulkes estimate   =   -2104.41669784 Ry
     estimated scf accuracy    <       0.00000006 Ry

     iteration # 12     ecut=    40.00 Ry     beta=0.70
     Davidson diagonalization with overlap
     ethr =  7.40E-12,  avg # of iterations =  1.0

     negative rho (up, down):  0.314E+01 0.000E+00

     End of self-consistent calculation
 --- enter write_ns ---
 LDA+U parameters:
U( 2)     =  8.00000000
alpha( 2) =  0.00000000
atom    3   Tr[ns(na)] =   8.25468
    eigenvalues:
  0.605  0.635  0.925  0.975  0.987
    eigenvectors:
  0.001  0.181  0.003  0.000  0.814
  0.997  0.003  0.000  0.000  0.000
  0.000  0.000  0.974  0.023  0.003
  0.002  0.816  0.000  0.000  0.182
  0.000  0.000  0.023  0.976  0.001
    occupations:
  0.922 -0.005  0.002 -0.136 -0.001
 -0.005  0.605 -0.001  0.001 -0.004
  0.002 -0.001  0.927 -0.003  0.007
 -0.136  0.001 -0.003  0.699 -0.001
 -0.001 -0.004  0.007 -0.001  0.974
atom    4   Tr[ns(na)] =   8.25794
    eigenvalues:
  0.622  0.675  0.899  0.946  0.988
    eigenvectors:
  0.000  0.988  0.000  0.000  0.011
  0.000  0.000  0.053  0.947  0.000
  0.000  0.000  0.947  0.053  0.000
  0.000  0.011  0.000  0.000  0.989
  0.999  0.000  0.000  0.000  0.000
    occupations:
  0.678 -0.003 -0.000  0.033  0.001
 -0.003  0.943  0.011  0.000 -0.002
 -0.000  0.011  0.901 -0.000  0.001
  0.033  0.000 -0.000  0.984  0.000
  0.001 -0.002  0.001  0.000  0.622
atom    9   Tr[ns(na)] =   8.25684
    eigenvalues:
  0.656  0.670  0.891  0.924  0.987
    eigenvectors:
  0.000  0.139  0.000  0.000  0.860
  0.999  0.001  0.000  0.000  0.000
  0.000  0.000  0.999  0.001  0.000
  0.001  0.859  0.000  0.000  0.140
  0.000  0.000  0.001  0.999  0.000
    occupations:
  0.943  0.000  0.000 -0.110 -0.000
  0.000  0.656  0.001  0.000 -0.000
  0.000  0.001  0.891 -0.000 -0.001
 -0.110  0.000 -0.000  0.715  0.001
 -0.000 -0.000 -0.001  0.001  0.924
atom   10   Tr[ns(na)] =   8.19806
    eigenvalues:
  0.580  0.615  0.952  0.964  0.988
    eigenvectors:
  0.990  0.000  0.000  0.000  0.010
  0.000  0.000  1.000  0.000  0.000
  0.000  0.000  0.000  1.000  0.000
  0.010  0.000  0.000  0.000  0.990
  0.000  1.000  0.000  0.000  0.000
    occupations:
  0.584 -0.004  0.001  0.040 -0.000
 -0.004  0.952 -0.000  0.000 -0.000
  0.001 -0.000  0.964 -0.000  0.001
  0.040  0.000 -0.000  0.984 -0.000
 -0.000 -0.000  0.001 -0.000  0.615
atom   16   Tr[ns(na)] =   8.25478
    eigenvalues:
  0.606  0.635  0.925  0.975  0.987
    eigenvectors:
  0.001  0.181  0.003  0.001  0.813
  0.996  0.004  0.000  0.000  0.000
  0.000  0.000  0.978  0.019  0.003
  0.002  0.815  0.000  0.000  0.182
  0.000  0.000  0.019  0.980  0.002
    occupations:
  0.922  0.005  0.002 -0.136  0.001
  0.005  0.606  0.000 -0.000 -0.004
  0.002  0.000  0.926 -0.004 -0.007
 -0.136 -0.000 -0.004  0.699  0.000
  0.001 -0.004 -0.007  0.000  0.974
atom   17   Tr[ns(na)] =   8.25899
    eigenvalues:
  0.620  0.674  0.905  0.943  0.988
    eigenvectors:
  0.001  0.989  0.000  0.000  0.011
  0.000  0.000  0.119  0.881  0.000
  0.000  0.000  0.881  0.119  0.000
  0.000  0.011  0.000  0.000  0.989
  0.999  0.001  0.000  0.000  0.000
    occupations:
  0.677 -0.003 -0.001  0.032  0.001
 -0.003  0.938  0.012  0.000 -0.002
 -0.001  0.012  0.910 -0.000  0.000
  0.032  0.000 -0.000  0.984  0.000
  0.001 -0.002  0.000  0.000  0.620
atom   22   Tr[ns(na)] =   8.25230
    eigenvalues:
  0.657  0.672  0.885  0.926  0.987
    eigenvectors:
  0.000  0.139  0.000  0.000  0.861
  1.000  0.000  0.000  0.000  0.000
  0.000  0.000  0.999  0.001  0.000
  0.000  0.861  0.000  0.000  0.139
  0.000  0.000  0.001  0.999  0.000
    occupations:
  0.943  0.001 -0.000 -0.109 -0.000
  0.001  0.657  0.001 -0.000 -0.000
 -0.000  0.001  0.886 -0.000  0.001
 -0.109 -0.000 -0.000  0.715  0.001
 -0.000 -0.000  0.001  0.001  0.926
atom   23   Tr[ns(na)] =   8.24470
    eigenvalues:
  0.627  0.681  0.878  0.948  0.988
    eigenvectors:
  0.000  0.988  0.000  0.000  0.011
  0.000  0.000  0.000  0.999  0.000
  0.000  0.000  1.000  0.000  0.000
  0.000  0.011  0.000  0.000  0.989
  1.000  0.000  0.000  0.000  0.000
    occupations:
  0.685  0.006 -0.000  0.032 -0.000
  0.006  0.948 -0.001 -0.000 -0.000
 -0.000 -0.001  0.878  0.000 -0.001
  0.032 -0.000  0.000  0.984 -0.000
 -0.000 -0.000 -0.001 -0.000  0.627
N of occupied +U levels =  65.9782955
 --- exit write_ns ---

[...]

          k = 0.2500-0.4953 0.0000 ( 31088 PWs)   bands (ev):

[...]

          k =-0.2500 0.2476 0.0000 ( 31099 PWs)   bands (ev):

   -50.2332 -50.2063 -50.0990 -50.0803 -50.0762 -50.0756 -50.0635 -50.0589
   -50.0030 -50.0001 -49.9824 -49.9295 -49.9229 -49.8511 -49.7900 -49.7782
   -49.7388 -49.7337 -49.7077 -49.6806 -49.6510 -49.6188 -49.6140 -49.6016
   -21.4108 -21.2546 -21.1593 -21.0189 -20.7927 -20.7404 -20.7170 -20.6016
   -20.4546 -20.3820 -20.2115 -20.1591 -20.0235 -20.0024 -19.9390 -19.8950
   -19.7104 -19.0191 -18.8580 -11.1752 -10.9608 -10.7415 -10.6717 -10.4943
   -10.3623 -10.2693 -10.0682  -9.8548  -9.1808  -9.1391  -9.0143  -8.9609
    -8.9082  -8.7596  -8.5247  -8.4409  -8.4112  -8.2252  -8.0215  -7.8876
    -7.7657  -7.6236  -7.5707  -7.4419  -7.3706  -7.3012  -7.1394  -6.9789
    -6.9688  -6.7801  -6.7092  -6.6381  -6.5801  -6.4326  -6.3426  -6.2897
    -6.2757  -6.1478  -6.1063  -5.9906  -5.7295  -5.4785  -5.2935  -5.1445
    -4.9936  -4.8763  -4.7730  -4.6434  -4.5767  -4.4424  -4.2023  -4.1504
    -4.0391  -3.9865  -3.8861  -3.7856  -3.6406  -3.5274  -3.4826  -3.4295
    -3.3310  -3.2049  -3.1727  -3.1316  -3.0886  -2.9777  -2.8574  -2.7819
    -2.6933  -2.5631  -2.1719  -1.9451  -1.8007  -1.5800  -1.3659  -1.3431
    -1.2902  -1.0477  -0.9022  -0.6689   0.0723   1.0466   1.1301   1.4393
     1.6866   1.8850   2.2806   2.5080   2.8139   2.8419   2.9790   3.0760
     3.2606   3.3869   3.4710   3.7699   3.8921   4.3123   4.7908   5.2094
     5.4827   5.6458   5.7125   5.9757   6.2691   6.5181   6.6044   6.6324
     6.7021   6.8972   7.0837   7.1737   7.3796   7.4882   7.6226   7.7327
     7.9311   8.0274   8.1298   8.1769   8.2720   8.4458   8.5308   8.6025
     8.8244   8.9158   8.9339   8.9910   9.1250   9.2316   9.3862   9.4355
     9.5968   9.6312   9.7310   9.7957   9.8027   9.8579   9.8799   9.9333
     9.9750   9.9885  10.0118  10.1077  10.1336  10.1415  10.1527  10.1733
    10.2285  10.3411  10.3574  10.4627  10.5428  10.6383  10.6718  10.7982
    10.8375  10.9671  11.0023  11.1728  11.2106  11.2784  11.4176  11.5195
    11.5546  11.6559  11.7331  11.7991  11.8422  11.9528  12.1332  12.1998
    12.2657  12.3507  12.3916  12.4968  12.5546  12.6212  12.6782  12.7400
    12.7934  12.8845  12.9491  13.0221  13.0489  13.2029  13.2686  13.2919
    13.3554  13.4311  13.5985  13.6971  13.8030  13.8450  13.9476  13.9571
    14.0291  14.1012  14.1926  14.2564  14.3435  14.4201  14.5023  14.5367
    14.7182  14.7817  14.8104  14.9727  15.1099  15.1980  15.2822  15.3543
    15.4435  15.5034  15.5208  15.6118  15.6870  15.7552  15.7829  15.8719
    15.9025  15.9278  16.0121  16.0421  16.1643  16.2026  16.2549  16.3153
    16.3840  16.4022  16.4755  16.5459  16.6058  16.7074  16.7243  16.7800
    16.8163  16.8834  17.0758  17.1347  17.1678  17.2927  17.3535  17.4331
    17.4574  17.5271  17.5664  17.6052  17.6653  17.7140  17.7435  17.8329
    17.9053  17.9274  17.9892  18.1055  18.2134  18.2364  18.3108  18.3890
    18.4631  18.6226  18.6578  18.7222  18.7948  18.8554  18.8881  18.9896
    19.0324  19.0906  19.1710  19.2324  19.3184  19.3373  19.4145  19.5740
    19.6240  19.6640  19.7420  19.7987  19.8510  20.0029  20.0673  20.1213
    20.1620  20.2549  20.4042  20.4439  20.5369  20.6352  20.6747  20.7114
    20.7859  20.8012  20.9413  20.9571  20.9728  21.0433  21.0973  21.1932
    21.2121  21.3026  21.3295  21.3639  21.4260  21.4699  21.5428  21.6387
    21.7185  21.7439  21.8280  21.8573  21.8806  21.9824

     the Fermi energy is    -1.3582 ev

!    total energy              =   -2104.41669783 Ry
     Harris-Foulkes estimate   =   -2104.41669784 Ry
     estimated scf accuracy    <          9.9E-09 Ry

     The total energy is the sum of the following terms:

     one-electron contribution =  -22820.41917598 Ry
     hartree contribution      =   11457.20367219 Ry
     xc contribution           =    -577.29698923 Ry
     ewald contribution        =    9833.26324567 Ry
     Hubbard energy            =       2.83335897 Ry
     smearing contrib. (-TS)   =      -0.00080945 Ry

     convergence has been achieved in  12 iterations

     Forces acting on atoms (Ry/au):

     negative rho (up, down):  0.314E+01 0.000E+00
     atom    1 type  1   force =    -0.00655066   -0.01160842    0.00016958
     atom    2 type  1   force =     0.00019530    0.00177280   -0.00046538
     atom    3 type  2   force =     0.02910490    0.00880945    0.00018512
     atom    4 type  2   force =     0.00849643    0.00746840    0.00003807
     atom    5 type  1   force =    -0.00560356   -0.01288546   -0.00031397
     atom    6 type  1   force =     0.00725504    0.01039257   -0.00016653
     atom    7 type  1   force =     0.00173514   -0.00252402   -0.00020066
     atom    8 type  1   force =    -0.00247785   -0.00063792   -0.00016675
     atom    9 type  2   force =     0.00651767    0.00019385    0.00013487
     atom   10 type  2   force =    -0.00780575   -0.00114388   -0.00009117
     atom   11 type  1   force =     0.00094823    0.01803853    0.00007898
     atom   12 type  1   force =     0.00135680   -0.01799630    0.00003113
     atom   13 type  1   force =    -0.00134423   -0.00016550    0.00000329
     atom   14 type  1   force =    -0.00773353   -0.01300289    0.00001053
     atom   15 type  1   force =     0.00027472    0.00257650   -0.00039935
     atom   16 type  2   force =    -0.02974659    0.00740915    0.00017520
     atom   17 type  2   force =     0.00877591    0.00795931    0.00003671
     atom   18 type  1   force =    -0.00496034   -0.01217146   -0.00029488
     atom   19 type  1   force =     0.00660886    0.01174810   -0.00017023
     atom   20 type  1   force =    -0.00173580   -0.00584576    0.00082658
     atom   21 type  1   force =    -0.00377788   -0.00059887   -0.00003609
     atom   22 type  2   force =    -0.00403540    0.00065224    0.00007018
     atom   23 type  2   force =     0.00326245    0.00005317    0.00026452
     atom   24 type  1   force =     0.00022216    0.02194238   -0.00017913
     atom   25 type  1   force =     0.00137481   -0.02209133   -0.00019020
     atom   26 type  1   force =    -0.00060294   -0.00024432    0.00028072
     atom   27 type  3   force =     0.00000258    0.00046799    0.00024433
     atom   28 type  3   force =     0.00003538    0.00066318    0.00065877
     atom   29 type  3   force =    -0.00008760    0.00010043    0.00025437
     atom   30 type  3   force =    -0.00021441    0.00071581    0.00015210
     atom   31 type  1   force =     0.00032322   -0.00009868   -0.00040322
     atom   32 type  3   force =     0.00018692    0.00005096   -0.00053748

     Total force =     0.002036     Total SCF correction =     0.000479
     SCF correction compared to forces is large: reduce conv_thr to get better values

     bfgs converged in  10 scf cycles and   9 bfgs steps
     (criteria: energy < 0.10E-03, force < 0.10E-02)

     End of BFGS Geometry Optimization

     Final energy   =   -2104.4166978302 Ry
Begin final coordinates

ATOMIC_POSITIONS (crystal)
O0       0.000000000   0.000000000   0.378831251    0   0   1
O0       0.000000000   0.500000000   0.403580822    0   0   1
Ir1      0.250000000   0.500000000   0.453069515    0   0   1
Ir1      0.000000000   0.000000000   0.453234427    0   0   1
O0       0.250000000   0.810000000   0.453202861    0   0   1
O0       0.250000000   0.190000000   0.452728406    0   0   1
O0       0.000000000   0.500000000   0.499308619    0   0   1
O0       0.000000000   0.000000000   0.528458898    0   0   1
Ir1      0.250000000   0.000000000   0.575177515    0   0   1
Ir1      0.000000000   0.500000000   0.571958735    0   0   1
O0       0.250000000   0.690000000   0.575108069    0   0   1
O0       0.250000000   0.310000000   0.575157619    0   0   1
O0       0.000000000   0.000000000   0.619814903    0   0   1
O0       0.500000000   0.000000000   0.378485013    0   0   1
O0       0.500000000   0.500000000   0.402755120    0   0   1
Ir1      0.750000000   0.500000000   0.453072615    0   0   1
Ir1      0.500000000   0.000000000   0.453004870    0   0   1
O0       0.750000000   0.810000000   0.453223848    0   0   1
O0       0.750000000   0.190000000   0.452701910    0   0   1
O0       0.500000000   0.500000000   0.500065652    0   0   1
O0       0.500000000   0.000000000   0.528466560    0   0   1
Ir1      0.750000000   0.000000000   0.575124576    0   0   1
Ir1      0.500000000   0.500000000   0.574737677    0   0   1
O0       0.750000000   0.690000000   0.574466026    0   0   1
O0       0.750000000   0.310000000   0.574560447    0   0   1
O0       0.500000000   0.000000000   0.619525812    0   0   1
H2      -0.000259450   0.632055901   0.384249800
H2       0.499837466   0.636014747   0.385081036
H2       0.143656737   0.034136440   0.367279931
H2       0.642721058   0.037179428   0.366927929
O0       0.516297074   0.499640210   0.647614145
H2       0.375897357   0.500409365   0.663305391
End final coordinates

     General routines

     Parallel routines
     Hubbard U routines

   This run was terminated on:  19:47:14  29Apr2014

   JOB DONE.
Running PBS batch system epilogue script
Job id: 340432.audhumbla.fysik.dtu.dk
Username: zhonxu
Groupname: campgst
Jobname: IrO2/Eads-2-layers/OH-U-8.0
Sessionid: 25729
Queuename: verylong
Accounting:
This job has allocated the following 16 nodes:
b040 b040 b040 b040 b040 b040 b040 b040 b035 b035 b035 b035 b035 b035 b035 b035
Finished epilogue job 340432.audhumbla.fysik.dtu.dk for zhonxu