     Program PWSCF v.5.0.2 (svn rev. 9656) starts on 14Feb2014 at 18:45:15

     Current dimensions of program PWSCF are:
     Max number of different atomic species (ntypx) = 10
     Max number of k-points (npk) =  40000
     Max angular momentum in pseudopotentials (lmaxx) =  3
     Reading input from alpha_0/alpha_0.in
Warning: card &IONS ignored
Warning: card / ignored
Warning: card &CELL ignored
Warning: card / ignored

     Subspace diagonalization in iterative solution of the eigenvalue problem:
     a serial algorithm will be used

     bravais-lattice index     =            0
     lattice parameter (alat)  =      16.5540  a.u.
     unit-cell volume          =    3003.5358 (a.u.)^3
     number of atoms/cell      =           48
     number of atomic types    =            3
     number of electrons       =       416.00
     number of Kohn-Sham states=          600
     kinetic-energy cutoff     =      40.0000  Ry
     charge density cutoff     =     500.0000  Ry
     convergence threshold     =      1.0E-06
     mixing beta               =       0.7000
     number of iterations used =            8  plain     mixing
     Exchange-correlation      = SLA  PW   PBE  PBE ( 1 4 3 4 0)
     EXX-fraction              =        0.00

     celldm(1)=  16.554001  celldm(2)=   0.000000  celldm(3)=   0.000000
     celldm(4)=   0.000000  celldm(5)=   0.000000  celldm(6)=   0.000000

     crystal axes: (cart. coord. in units of alat)
               a(1) = (   1.000000   0.000000   0.000000 )
               a(2) = (   0.000000   1.000000   0.000000 )
               a(3) = (   0.000000   0.000000   0.662100 )

     reciprocal axes: (cart. coord. in units 2 pi/alat)
               b(1) = (  1.000000  0.000000  0.000000 )
               b(2) = (  0.000000  1.000000  0.000000 )
               b(3) = (  0.000000  0.000000  1.510345 )

     PseudoPot. # 1 for Cr read from file:
     /home/camp/zhonxu/pseudo/cr_pbe_v1.uspp.F.UPF
     MD5 check sum: 68b6f918d1762dccfb11451fe85b0e0e
     Pseudo is Ultrasoft + core correction, Zval = 14.0
     Generated by new atomic code, or converted to UPF format
     Using radial grid of  857 points,  6 beta functions with:
                l(1) =   0
                l(2) =   0
                l(3) =   1
                l(4) =   1
                l(5) =   2
                l(6) =   2
     Q(r) pseudized with  6 coefficients,  rinner =    1.000   1.000   1.000
                                                       1.000   1.000

     PseudoPot. # 2 for Cr read from file:
     /home/camp/zhonxu/pseudo/cr_pbe_v1.uspp.F.UPF
     MD5 check sum: 68b6f918d1762dccfb11451fe85b0e0e
     Pseudo is Ultrasoft + core correction, Zval = 14.0
     Generated by new atomic code, or converted to UPF format
     Using radial grid of  857 points,  6 beta functions with:
                l(1) =   0
                l(2) =   0
                l(3) =   1
                l(4) =   1
                l(5) =   2
                l(6) =   2
     Q(r) pseudized with  6 coefficients,  rinner =    1.000   1.000   1.000
                                                       1.000   1.000

     PseudoPot. # 3 for O  read from file:
     /home/camp/zhonxu/pseudo/o_pbe_v1.01.uspp.F.UPF
     MD5 check sum: 2bcb18d16ea4b960afae9ec6d52f22d2
     Pseudo is Ultrasoft + core correction, Zval =  6.0
     Generated by new atomic code, or converted to UPF format
     Using radial grid of  737 points,  5 beta functions with:
                l(1) =   0
                l(2) =   0
                l(3) =   1
                l(4) =   1
                l(5) =   2
     Q(r) pseudized with  8 coefficients,  rinner =    0.900   0.900   0.900
                                                       0.900   0.900

     atomic species   valence    mass     pseudopotential
        Cr0           14.00    51.99600     Cr( 1.00)
        Cr1           14.00    51.99600     Cr( 1.00)
        O2             6.00    15.99940     O ( 1.00)

     Starting magnetic structure
     atomic species   magnetization
        Cr0          0.600
        Cr1          0.600
        O2           0.000

     Simplified LDA+U calculation (l_max = 2) with parameters (eV):
     atomic species    L          U    alpha       J0     beta
        Cr0            2     0.0000   0.0000   0.0000   0.0000
        Cr1            2     0.0000   0.0000   0.0000   0.0000
        O2             1     0.0000   0.0000   0.0000   0.0000

      8 Sym. Ops., with inversion, found

   Cartesian axes

     site n.     atom                  positions (alat units)
         1           Cr0 tau(   1) = (   0.0000000   0.0000000   0.0000000  )
         2           Cr1 tau(   2) = (   0.2500000   0.2500000   0.1655251  )
         3           Cr1 tau(   3) = (   0.0000000   0.0000000   0.3310502  )
         4           Cr1 tau(   4) = (   0.2500000   0.2500000   0.4965753  )
         5           Cr1 tau(   5) = (   0.0000000   0.5000000   0.0000000  )
         6           Cr1 tau(   6) = (   0.2500000   0.7500000   0.1655251  )
         7           Cr1 tau(   7) = (   0.0000000   0.5000000   0.3310502  )
         8           Cr1 tau(   8) = (   0.2500000   0.7500000   0.4965753  )
         9           Cr1 tau(   9) = (   0.5000000   0.0000000   0.0000000  )
        10           Cr1 tau(  10) = (   0.7500000   0.2500000   0.1655251  )
        11           Cr1 tau(  11) = (   0.5000000   0.0000000   0.3310502  )
        12           Cr1 tau(  12) = (   0.7500000   0.2500000   0.4965753  )
        13           Cr1 tau(  13) = (   0.5000000   0.5000000   0.0000000  )
        14           Cr1 tau(  14) = (   0.7500000   0.7500000   0.1655251  )
        15           Cr1 tau(  15) = (   0.5000000   0.5000000   0.3310502  )
        16           Cr1 tau(  16) = (   0.7500000   0.7500000   0.4965753  )
        17           O2  tau(  17) = (   0.1500000   0.1500000   0.0000000  )
        18           O2  tau(  18) = (  -0.1500000  -0.1500000   0.0000000  )
        19           O2  tau(  19) = (   0.4000000   0.1000000   0.1655251  )
        20           O2  tau(  20) = (   0.1000000   0.4000000   0.1655251  )
        21           O2  tau(  21) = (   0.1500000   0.1500000   0.3310502  )
        22           O2  tau(  22) = (  -0.1500000  -0.1500000   0.3310502  )
        23           O2  tau(  23) = (   0.4000000   0.1000000   0.4965753  )
        24           O2  tau(  24) = (   0.1000000   0.4000000   0.4965753  )
        25           O2  tau(  25) = (   0.1500000   0.6500000   0.0000000  )
        26           O2  tau(  26) = (  -0.1500000   0.3500000   0.0000000  )
        27           O2  tau(  27) = (   0.4000000   0.6000000   0.1655251  )
        28           O2  tau(  28) = (   0.1000000   0.9000000   0.1655251  )
        29           O2  tau(  29) = (   0.1500000   0.6500000   0.3310502  )
        30           O2  tau(  30) = (  -0.1500000   0.3500000   0.3310502  )
        31           O2  tau(  31) = (   0.4000000   0.6000000   0.4965753  )
        32           O2  tau(  32) = (   0.1000000   0.9000000   0.4965753  )
        33           O2  tau(  33) = (   0.6500000   0.1500000   0.0000000  )
        34           O2  tau(  34) = (   0.3500000  -0.1500000   0.0000000  )
        35           O2  tau(  35) = (   0.9000000   0.1000000   0.1655251  )
        36           O2  tau(  36) = (   0.6000000   0.4000000   0.1655251  )
        37           O2  tau(  37) = (   0.6500000   0.1500000   0.3310502  )
        38           O2  tau(  38) = (   0.3500000  -0.1500000   0.3310502  )
        39           O2  tau(  39) = (   0.9000000   0.1000000   0.4965753  )
        40           O2  tau(  40) = (   0.6000000   0.4000000   0.4965753  )
        41           O2  tau(  41) = (   0.6500000   0.6500000   0.0000000  )
        42           O2  tau(  42) = (   0.3500000   0.3500000   0.0000000  )
        43           O2  tau(  43) = (   0.9000000   0.6000000   0.1655251  )
        44           O2  tau(  44) = (   0.6000000   0.9000000   0.1655251  )
        45           O2  tau(  45) = (   0.6500000   0.6500000   0.3310502  )
        46           O2  tau(  46) = (   0.3500000   0.3500000   0.3310502  )
        47           O2  tau(  47) = (   0.9000000   0.6000000   0.4965753  )
        48           O2  tau(  48) = (   0.6000000   0.9000000   0.4965753  )

     number of k points=    42  Methfessel-Paxton smearing, width (Ry)=  0.0100
                       cart. coord. in units 2pi/alat
        k(    1) = (   0.0000000   0.0000000   0.0000000), wk =   0.0156250
        k(    2) = (   0.0000000   0.0000000   0.3775862), wk =   0.0312500
        k(    3) = (   0.0000000   0.0000000  -0.7551724), wk =   0.0156250
        k(    4) = (   0.0000000   0.2500000   0.0000000), wk =   0.0625000
        k(    5) = (   0.0000000   0.2500000   0.3775862), wk =   0.1250000
        k(    6) = (   0.0000000   0.2500000  -0.7551724), wk =   0.0625000
        k(    7) = (   0.0000000  -0.5000000   0.0000000), wk =   0.0312500
        k(    8) = (   0.0000000  -0.5000000   0.3775862), wk =   0.0625000
        k(    9) = (   0.0000000  -0.5000000  -0.7551724), wk =   0.0312500
        k(   10) = (   0.2500000   0.2500000   0.0000000), wk =   0.0312500
        k(   11) = (   0.2500000   0.2500000   0.3775862), wk =   0.0625000
        k(   12) = (   0.2500000   0.2500000  -0.7551724), wk =   0.0312500
        k(   13) = (   0.2500000  -0.5000000   0.0000000), wk =   0.0625000
        k(   14) = (   0.2500000  -0.5000000   0.3775862), wk =   0.1250000
        k(   15) = (   0.2500000  -0.5000000  -0.7551724), wk =   0.0625000
        k(   16) = (  -0.5000000  -0.5000000   0.0000000), wk =   0.0156250
        k(   17) = (  -0.5000000  -0.5000000   0.3775862), wk =   0.0312500
        k(   18) = (  -0.5000000  -0.5000000  -0.7551724), wk =   0.0156250
        k(   19) = (  -0.2500000   0.2500000   0.0000000), wk =   0.0312500
        k(   20) = (  -0.2500000   0.2500000  -0.3775862), wk =   0.0625000
        k(   21) = (  -0.2500000   0.2500000   0.7551724), wk =   0.0312500
        k(   22) = (   0.0000000   0.0000000   0.0000000), wk =   0.0156250
        k(   23) = (   0.0000000   0.0000000   0.3775862), wk =   0.0312500
        k(   24) = (   0.0000000   0.0000000  -0.7551724), wk =   0.0156250
        k(   25) = (   0.0000000   0.2500000   0.0000000), wk =   0.0625000
        k(   26) = (   0.0000000   0.2500000   0.3775862), wk =   0.1250000
        k(   27) = (   0.0000000   0.2500000  -0.7551724), wk =   0.0625000
        k(   28) = (   0.0000000  -0.5000000   0.0000000), wk =   0.0312500
        k(   29) = (   0.0000000  -0.5000000   0.3775862), wk =   0.0625000
        k(   30) = (   0.0000000  -0.5000000  -0.7551724), wk =   0.0312500
        k(   31) = (   0.2500000   0.2500000   0.0000000), wk =   0.0312500
        k(   32) = (   0.2500000   0.2500000   0.3775862), wk =   0.0625000
        k(   33) = (   0.2500000   0.2500000  -0.7551724), wk =   0.0312500
        k(   34) = (   0.2500000  -0.5000000   0.0000000), wk =   0.0625000
        k(   35) = (   0.2500000  -0.5000000   0.3775862), wk =   0.1250000
        k(   36) = (   0.2500000  -0.5000000  -0.7551724), wk =   0.0625000
[...]
  0.854  0.873  0.888
    eigenvectors:
  0.000  0.000  1.000
  0.500  0.500  0.000
  0.500  0.500  0.000
    occupations:
  0.888 -0.000 -0.000
 -0.000  0.863  0.010
 -0.000  0.010  0.863
   spin  2
    eigenvalues:
  0.888  0.899  0.909
    eigenvectors:
  0.000  1.000  0.000
  0.500  0.000  0.500
  0.500  0.000  0.500
    occupations:
  0.899 -0.000 -0.000
 -0.000  0.899 -0.011
 -0.000 -0.011  0.899
atomic mag. moment =    -0.081673
atom   42   Tr[ns(na)] (up, down, total) =   2.61440  2.69607  5.31047
   spin  1
    eigenvalues:
  0.854  0.873  0.888
    eigenvectors:
  0.000  0.000  1.000
  0.500  0.500  0.000
  0.500  0.500  0.000
    occupations:
  0.888 -0.000 -0.000
 -0.000  0.863  0.010
 -0.000  0.010  0.863
   spin  2
    eigenvalues:
  0.888  0.899  0.909
    eigenvectors:
  0.000  1.000  0.000
  0.500  0.000  0.500
  0.500  0.000  0.500
    occupations:
  0.899 -0.000 -0.000
 -0.000  0.899 -0.011
 -0.000 -0.011  0.899
atomic mag. moment =    -0.081673
atom   43   Tr[ns(na)] (up, down, total) =   2.61440  2.69607  5.31047
   spin  1
    eigenvalues:
  0.854  0.873  0.888
    eigenvectors:
  0.000  0.000  1.000
  0.500  0.500  0.000
  0.500  0.500  0.000
    occupations:
  0.888  0.000 -0.000
  0.000  0.863 -0.010
 -0.000 -0.010  0.863
   spin  2
    eigenvalues:
  0.888  0.899  0.909
    eigenvectors:
  0.000  1.000  0.000
  0.500  0.000  0.500
  0.500  0.000  0.500
    occupations:
  0.899 -0.000  0.000
 -0.000  0.899  0.011
  0.000  0.011  0.899
atomic mag. moment =    -0.081670
atom   44   Tr[ns(na)] (up, down, total) =   2.61440  2.69607  5.31047
   spin  1
    eigenvalues:
  0.854  0.873  0.888
    eigenvectors:
  0.000  0.000  1.000
  0.500  0.500  0.000
  0.500  0.500  0.000
    occupations:
  0.888 -0.000  0.000
 -0.000  0.863 -0.010
  0.000 -0.010  0.863
   spin  2
    eigenvalues:
  0.888  0.899  0.909
    eigenvectors:
  0.000  1.000  0.000
  0.500  0.000  0.500
  0.500  0.000  0.500
    occupations:
  0.899  0.000 -0.000
  0.000  0.899  0.011
 -0.000  0.011  0.899
atomic mag. moment =    -0.081670
atom   45   Tr[ns(na)] (up, down, total) =   2.61441  2.69608  5.31049
   spin  1
    eigenvalues:
  0.854  0.873  0.888
    eigenvectors:
  0.000  0.000  1.000
  0.500  0.500  0.000
  0.500  0.500  0.000
    occupations:
  0.888 -0.000 -0.000
 -0.000  0.863  0.010
 -0.000  0.010  0.863
   spin  2
    eigenvalues:
  0.888  0.899  0.909
    eigenvectors:
  0.000  1.000  0.000
  0.500  0.000  0.500
  0.500  0.000  0.500
    occupations:
  0.899 -0.000 -0.000
 -0.000  0.899 -0.011
 -0.000 -0.011  0.899
atomic mag. moment =    -0.081674
atom   46   Tr[ns(na)] (up, down, total) =   2.61441  2.69608  5.31049
   spin  1
    eigenvalues:
  0.854  0.873  0.888
    eigenvectors:
  0.000  0.000  1.000
  0.500  0.500  0.000
  0.500  0.500  0.000
    occupations:
  0.888 -0.000 -0.000
 -0.000  0.863  0.010
 -0.000  0.010  0.863
   spin  2
    eigenvalues:
  0.888  0.899  0.909
    eigenvectors:
  0.000  1.000  0.000
  0.500  0.000  0.500
  0.500  0.000  0.500
    occupations:
  0.899 -0.000 -0.000
 -0.000  0.899 -0.011
 -0.000 -0.011  0.899
atomic mag. moment =    -0.081674
atom   47   Tr[ns(na)] (up, down, total) =   2.61440  2.69607  5.31047
   spin  1
    eigenvalues:
  0.854  0.873  0.888
    eigenvectors:
  0.000  0.000  1.000
  0.500  0.500  0.000
  0.500  0.500  0.000
    occupations:
  0.888 -0.000  0.000
 -0.000  0.863 -0.010
  0.000 -0.010  0.863
   spin  2
    eigenvalues:
  0.888  0.899  0.909
    eigenvectors:
  0.000  1.000  0.000
  0.500  0.000  0.500
  0.500  0.000  0.500
    occupations:
  0.899  0.000 -0.000
  0.000  0.899  0.011
 -0.000  0.011  0.899
atomic mag. moment =    -0.081670
atom   48   Tr[ns(na)] (up, down, total) =   2.61440  2.69607  5.31047
   spin  1
    eigenvalues:
  0.854  0.873  0.888
    eigenvectors:
  0.000  0.000  1.000
  0.500  0.500  0.000
  0.500  0.500  0.000
    occupations:
  0.888  0.000 -0.000
  0.000  0.863 -0.010
 -0.000 -0.010  0.863
   spin  2
    eigenvalues:
  0.888  0.899  0.909
    eigenvectors:
  0.000  1.000  0.000
  0.500  0.000  0.500
  0.500  0.000  0.500
    occupations:
  0.899 -0.000  0.000
 -0.000  0.899  0.011
  0.000  0.011  0.899
atomic mag. moment =    -0.081670
N of occupied +U levels = 245.6985469
 --- exit write_ns ---

 ------ SPIN UP ------------

          k = 0.0000 0.0000 0.0000 ( 12779 PWs)   bands (ev):

   -62.3014 -62.2984 -62.2984 -62.2982 -62.2982 -62.2982 -62.2982 -62.2952
   -62.2838 -62.2838 -62.2838 -62.2836 -62.2836 -62.2836 -62.2836 -62.2835
   -33.6936 -33.6935 -33.6905 -33.6904 -33.6862 -33.6862 -33.6861 -33.6861
   -33.6841 -33.6839 -33.6839 -33.6839 -33.6713 -33.6712 -33.6705 -33.6704
   -33.6589 -33.6588 -33.6587 -33.6586 -33.6444 -33.6443 -33.6443 -33.6443
   -33.5781 -33.5779 -33.5779 -33.5779 -33.5705 -33.5705 -33.5690 -33.5690
   -33.5479 -33.5478 -33.5473 -33.5472 -33.5466 -33.5464 -33.5464 -33.5464
   -33.4955 -33.4864 -33.4863 -33.4862 -33.4861 -33.4861 -33.4861 -33.4769
    -8.7530  -7.8410  -7.8410  -7.8410  -7.8410  -7.7566  -7.7566  -7.1537
    -7.1536  -7.1304  -7.1304  -7.1304  -7.1304  -6.9667  -6.9667  -6.9576
    -6.8963  -6.8963  -6.7571  -6.7571  -6.7571  -6.7571  -6.7485  -6.7485
    -6.7244  -6.7244  -6.6483  -6.6483  -6.6483  -6.6483  -6.5074  -6.5074
     3.3898   3.7482   3.7482   4.0518   4.2937   4.2937   4.2937   4.2937
     4.4841   4.4966   4.4967   4.4967   4.4967   4.5617   4.5617   4.5626
     4.5627   4.7780   4.7780   5.3675   5.3675   5.3676   5.3676   5.6788
     5.6788   5.6973   5.6973   5.7698   5.7698   5.8503   5.8503   5.8812
     5.8813   5.8813   5.8813   5.9368   5.9369   6.1468   6.1468   6.1468
     6.1468   6.2441   6.2441   6.2441   6.2441   6.5075   6.5075   6.5075
     6.5075   6.8884   6.8885   6.9386   6.9386   7.1204   7.1204   7.1308
     7.1308   7.2411   7.2411   7.3405   7.3405   7.3405   7.3405   7.3713
     7.3713   7.5735   7.5735   7.5735   7.5735   7.6387   7.8250   7.8250
     7.8250   7.8250   8.3195   8.3196   8.4903   8.4903   8.6008   8.6009
     8.9662   8.9663   9.2347   9.2347   9.2347   9.2347   9.5092   9.5498
     9.5498   9.5741   9.5742   9.5742   9.5742   9.6116   9.7139   9.7139
     9.8108   9.8109   9.8109   9.8109   9.9411   9.9411   9.9970  10.0484
    10.1069  10.1070  10.1334  10.1335  10.4312  10.4313  10.4314  10.4314
    10.5278  10.6003  10.6004  10.6048  10.6049  10.6053  10.6055  10.6055
    10.6055  11.0194  11.0195  11.0195  11.0195  11.0890  11.0891  11.2513
    11.2514  11.3293  11.3293  11.6118  11.6119  11.6119  11.6119  12.0180
    12.0180  12.2015  12.2016  12.2353  12.2353  12.2354  12.2354  12.5245
    12.5370  12.9539  12.9540  12.9540  12.9540  13.8998  13.8999  14.1725
    14.1726  14.1822  14.1823  14.1859  14.1860  14.5225  14.5226  14.6355
    14.6356  14.6356  14.6356  14.7599  14.7600  14.7600  14.7600  14.9766
    14.9767  15.0002  15.0003  15.6991  15.6991  15.6991  15.6991  16.2108
    18.9354  21.2891  21.2891  21.2891  21.2891  22.0830  22.0830  22.5276
    22.5276  22.6438  22.6438  23.5141  23.5141  23.5141  23.5141  23.5689
    23.5689  23.8561  23.8561  23.8874  23.8874  23.8874  23.8874  24.6671
    24.6671  25.1220  25.2198  25.2198  25.2198  25.2198  25.8263  25.8263
    26.1071  26.1071  26.1211  26.1560  26.1560  26.5551  26.5551  26.6381
    26.7829  26.7829  26.7829  26.7829  27.3014  27.3014  27.3014  27.3014
    27.6195  27.6195  27.7845  27.7845  27.7845  27.7846  28.1087  28.1088
    28.3926  28.3926  28.3926  28.3926  28.4848  28.4848  28.4906  28.4906
    28.4906  28.4906  28.7654  28.7654  28.9458  28.9458  28.9458  28.9458
    29.1730  29.4444  29.4444  29.5441  29.5442  30.2620  30.2620  30.3646
    30.4270  30.5560  30.5560  30.6645  30.6645  30.6645  30.6645  30.6707
    30.6707  32.5093  32.5094  32.5094  32.5094  32.8450  32.8450  32.8450
    32.8450  32.8662  32.8663  32.9202  32.9202  33.1087  33.1087  33.1968
    33.1968  34.1401  34.1401  34.1401  34.1401  34.4209  34.9414  34.9415
    34.9415  34.9415  35.2675  35.2675  35.4243  35.4244  35.7313  36.0646
    36.0646  36.8096  36.8097  36.8422  36.8422  37.0144  37.0144  37.3496
    37.3496  37.3496  37.3497  37.5318  37.8277  37.8277  37.8598  37.8598
    37.8598  37.8598  37.8793  38.3437  38.3438  38.9140  38.9141  38.9141
    38.9141  38.9634  38.9634  38.9634  38.9634  39.0793  39.0793  39.1365
    39.1365  39.1688  39.1689  39.1689  39.1689  39.5250  39.5250  39.5250
    39.5250  39.6340  39.6340  39.8573  40.2607  40.2607  40.5324  40.5324
    40.5324  40.5324  41.2132  41.4803  41.4803  41.8832  41.8832  42.2784
    42.3118  42.3118  42.3821  42.3821  42.3824  42.3824  42.9651  42.9652
    42.9652  42.9652  43.6797  43.6797  43.6797  43.6797  43.9664  43.9664
    44.4327  44.4327  44.5220  44.5220  44.6041  44.6041  44.6388  44.7213
    44.7213  44.7213  44.7213  45.1093  45.1093  45.1675  45.1675  45.1675
    45.1675  45.5980  45.5980  45.7631  45.7632  45.7632  45.7632  46.4810
    46.4820  46.4820  46.8880  46.8880  47.1922  47.1922  47.2025  47.2025
    47.2025  47.2025  47.4226  47.4226  47.6376  47.6376  47.6376  47.6376
    48.0739  48.0739  48.2401  48.2401  48.2401  48.2401  48.4363  48.4363
    48.6053  48.7938  48.7938  49.2333  49.2333  49.2878  49.2878  49.2878
    49.2878  49.5509  49.5509  49.5509  49.5509  49.6636  49.7600  49.7600
    49.7742  49.7742  50.2933  50.2933  50.2933  50.2933  50.3556  50.3556
    50.3723  50.3723  51.0373  51.0373  51.0373  51.0373  51.2526  51.2526
    51.5508  51.6539  51.6539  51.6539  51.6539  51.6901  51.6901  51.8931
    51.8931  51.9890  51.9891  52.3183  52.3183  52.6538  52.6538  52.6538
    52.6538  52.7357  52.7357  52.7357  52.7357  52.9911  53.0067  53.0067
    53.1240  53.1240  53.1240  53.1240  53.6624  53.6624  53.6637  53.6738
    53.6738  53.6738  53.6738  53.7764  53.7764  53.7764  53.7764  54.0098
    54.0099  54.3254  54.3255  54.3941  54.3941  54.4007  54.4007  54.5094
    54.5094  54.7095  54.7095  54.7095  54.7095  55.0365  55.2327  55.2328

[...]

          k =-0.5000-0.5000 0.0000 ( 12832 PWs)   bands (ev):

[...]

 ------ SPIN DOWN ----------

[...]

          k = 0.2500-0.5000-0.7552 ( 12816 PWs)   bands (ev):

[...]

          k =-0.2500 0.2500 0.7552 ( 12844 PWs)   bands (ev):

   -59.9763 -59.9762 -59.9751 -59.9751 -59.9750 -59.9749 -59.9745 -59.9744
   -59.9738 -59.9737 -59.9733 -59.9733 -59.9733 -59.9731 -59.9720 -59.9719
   -31.6412 -31.6411 -31.6404 -31.6404 -31.6402 -31.6400 -31.6399 -31.6399
   -31.6399 -31.6399 -31.6395 -31.6395 -31.6395 -31.6394 -31.6394 -31.6391
   -31.2727 -31.2727 -31.2727 -31.2727 -31.2719 -31.2717 -31.2717 -31.2717
   -31.2717 -31.2715 -31.2714 -31.2712 -31.2704 -31.2704 -31.2702 -31.2702
   -31.1180 -31.1178 -31.1135 -31.1135 -31.1135 -31.1133 -31.1124 -31.1123
   -31.1102 -31.1101 -31.1081 -31.1081 -31.1081 -31.1079 -31.1050 -31.1048
    -8.1100  -8.1100  -7.7560  -7.7560  -7.7560  -7.7560  -7.5562  -7.5561
    -7.3169  -7.3169  -7.2211  -7.2211  -7.2211  -7.2211  -6.8845  -6.8845
    -6.8510  -6.8510  -6.8451  -6.8451  -6.8275  -6.8275  -6.8275  -6.8275
    -6.7947  -6.7947  -6.7725  -6.7725  -6.7725  -6.7725  -6.7194  -6.7193
     4.5966   4.5967   4.6287   4.6288   4.9374   4.9374   4.9374   4.9374
     4.9416   4.9416   5.1408   5.1408   5.1676   5.1676   5.2527   5.2527
     5.3364   5.3364   5.3364   5.3365   5.3515   5.3515   5.4180   5.4180
     5.4181   5.4181   5.7397   5.7397   5.7397   5.7397   5.8108   5.8108
     6.1361   6.1361   6.1831   6.1831   6.1831   6.1831   6.3525   6.3525
     6.6910   6.6910   6.6911   6.6911   6.8134   6.8134   6.8406   6.8406
     6.8406   6.8406   7.1371   7.1371   7.2324   7.2324   7.4249   7.4249
     7.4249   7.4249   7.5469   7.5469   7.7029   7.7029   7.7029   7.7029
     7.7138   7.7138   7.8318   7.8318   8.0432   8.0432   8.1137   8.1137
     8.3246   8.3246   8.4833   8.4833   8.4833   8.4833   8.5842   8.5842
     8.7379   8.7379   8.9115   8.9115   9.0725   9.0725   9.0725   9.0725
     9.1020   9.1020   9.4569   9.4569   9.4569   9.4570   9.5986   9.5986
    12.0855  12.0855  12.2756  12.2756  12.2756  12.2757  12.5324  12.5325
    12.7522  12.7522  12.7522  12.7523  12.7770  12.7770  12.8291  12.8291
    13.0561  13.0561  13.1125  13.1126  13.1618  13.1619  13.1682  13.1683
    13.1683  13.1685  13.2002  13.2003  13.2292  13.2292  13.2430  13.2431
    13.3605  13.3605  13.3605  13.3605  13.4155  13.4156  13.5411  13.5411
    13.5411  13.5411  13.6375  13.6375  13.6375  13.6376  13.8393  13.8394
    14.6305  14.6305  14.6305  14.6306  14.8269  14.8269  15.0486  15.0486
    15.0486  15.0488  15.0553  15.0554  15.2475  15.2475  15.5153  15.5153
    15.5180  15.5180  15.7217  15.7218  15.8711  15.8711  15.8712  15.8712
    16.1439  16.1439  16.5368  16.5368  16.5368  16.5369  16.6395  16.6396
    21.0915  21.0915  22.0491  22.0491  22.0491  22.0491  22.5979  22.5979
    23.3297  23.3297  23.4338  23.4339  23.4339  23.4339  24.4401  24.4401
    24.5852  24.5853  25.0630  25.0630  25.3392  25.3392  25.3392  25.3392
    25.7508  25.7508  25.9347  25.9347  26.2298  26.2298  26.2298  26.2298
    26.3119  26.3119  26.4032  26.4032  26.4966  26.4966  26.5596  26.5596
    26.5596  26.5596  26.9423  26.9423  26.9423  26.9423  27.7326  27.7326
    28.1016  28.1016  28.1016  28.1017  28.1542  28.1542  28.4363  28.4363
    28.8115  28.8115  28.9167  28.9167  28.9167  28.9168  29.0394  29.0394
    29.0394  29.0394  29.1122  29.1122  29.2416  29.2416  29.4894  29.4894
    29.7764  29.7764  30.1044  30.1044  30.1044  30.1044  30.3567  30.3567
    30.3995  30.3995  30.8076  30.8076  30.8076  30.8076  31.2197  31.2197
    31.7832  31.7832  31.7832  31.7832  31.8791  31.8792  32.8151  32.8151
    33.1734  33.1734  33.1734  33.1734  33.6754  33.6754  33.7686  33.7687
    34.8980  34.8980  35.4692  35.4692  35.4692  35.4692  35.7784  35.7785
    35.8092  35.8092  35.8842  35.8842  36.7573  36.7573  36.8594  36.8594
    36.8594  36.8594  37.1742  37.1742  37.2386  37.2386  37.4473  37.4473
    37.4473  37.4473  38.0258  38.0258  38.0258  38.0258  38.2564  38.2564
    38.2598  38.2598  38.2598  38.2598  38.5489  38.5489  38.6589  38.6590
    39.3966  39.3966  39.4349  39.4349  39.4349  39.4349  39.8897  39.8897
    39.8898  39.8898  40.0342  40.0342  40.4564  40.4564  40.6575  40.6575
    40.6630  40.6630  40.6630  40.6630  40.9556  40.9556  41.0468  41.0468
    41.0477  41.0477  41.8609  41.8609  41.8609  41.8609  42.1875  42.1875
    42.4958  42.4958  42.4958  42.4959  42.6606  42.6606  43.3524  43.3525
    43.8544  43.8544  43.8544  43.8544  44.0312  44.0312  44.1220  44.1220
    44.5330  44.5330  44.6255  44.6255  44.9626  44.9626  44.9626  44.9626
    45.1613  45.1613  45.6018  45.6018  45.6018  45.6018  46.0461  46.0461
    46.8418  46.8418  46.8684  46.8684  46.8684  46.8684  47.1468  47.1468
    47.4022  47.4022  47.5257  47.5257  48.0505  48.0505  48.3382  48.3382
    48.3382  48.3382  48.3602  48.3602  48.3602  48.3602  48.4019  48.4019
    48.5567  48.5567  48.8738  48.8739  48.8739  48.8739  48.9917  48.9917
    49.4327  49.4327  49.7032  49.7032  49.9455  49.9455  49.9455  49.9455
    50.0428  50.0428  50.2017  50.2017  50.2017  50.2017  50.5721  50.5721
    50.7303  50.7303  50.8823  50.8823  50.8823  50.8823  50.8906  50.8906
    51.2139  51.2139  51.2139  51.2139  51.3171  51.3171  51.3591  51.3591
    51.4419  51.4419  51.6981  51.6981  51.6981  51.6982  51.9037  51.9037
    51.9037  51.9038  52.0170  52.0171  52.0274  52.0274  52.1467  52.1468
    52.5433  52.5433  52.6111  52.6111  52.6111  52.6111  52.6255  52.6255
    52.6358  52.6358  52.7745  52.7745  52.8135  52.8135  52.9539  52.9539
    52.9539  52.9539  53.4931  53.4931  53.4931  53.4931  53.6932  53.6932
    54.0848  54.0848  54.4130  54.4130  54.4130  54.4130  54.5569  54.5569
    54.5569  54.5569  54.8100  54.8100  54.9909  54.9909  55.0083  55.0084

     the Fermi energy is    11.2587 ev

!    total energy              =   -3849.33262501 Ry
     Harris-Foulkes estimate   =   -3849.33262515 Ry
     estimated scf accuracy    <       0.00000017 Ry

     The total energy is the sum of the following terms:

     one-electron contribution =   -1589.09004308 Ry
     hartree contribution      =    1012.66447544 Ry
     xc contribution           =    -596.48620946 Ry
     ewald contribution        =   -2676.42062880 Ry
     Hubbard energy            =       0.00000000 Ry
     smearing contrib. (-TS)   =      -0.00021912 Ry

     total magnetization       =    32.00 Bohr mag/cell
     absolute magnetization    =    36.72 Bohr mag/cell

     convergence has been achieved in   5 iterations

     Writing output data file pwscf.save

     General routines

     Parallel routines
     Hubbard U routines

   This run was terminated on:  21:10: 1  14Feb2014

   JOB DONE.