     Program PWSCF v.5.0.2 (svn rev. 9656) starts on 15Feb2014 at  1:18: 7

     Current dimensions of program PWSCF are:
     Max number of different atomic species (ntypx) = 10
     Max number of k-points (npk) =  40000
     Max angular momentum in pseudopotentials (lmaxx) =  3
     Reading input from alpha_0.15/alpha_0.15.in
Warning: card &IONS ignored
Warning: card / ignored
Warning: card &CELL ignored
Warning: card / ignored

     Subspace diagonalization in iterative solution of the eigenvalue problem:
     a serial algorithm will be used

     bravais-lattice index     =            0
     lattice parameter (alat)  =      16.5540  a.u.
     unit-cell volume          =    3003.5358 (a.u.)^3
     number of atoms/cell      =           48
     number of atomic types    =            3
     number of electrons       =       416.00
     number of Kohn-Sham states=          600
     kinetic-energy cutoff     =      40.0000  Ry
     charge density cutoff     =     500.0000  Ry
     convergence threshold     =      1.0E-06
     mixing beta               =       0.7000
     number of iterations used =            8  plain     mixing
     Exchange-correlation      = SLA  PW   PBE  PBE ( 1 4 3 4 0)
     EXX-fraction              =        0.00

     celldm(1)=  16.554001  celldm(2)=   0.000000  celldm(3)=   0.000000
     celldm(4)=   0.000000  celldm(5)=   0.000000  celldm(6)=   0.000000

     crystal axes: (cart. coord. in units of alat)
               a(1) = (   1.000000   0.000000   0.000000 )
               a(2) = (   0.000000   1.000000   0.000000 )
               a(3) = (   0.000000   0.000000   0.662100 )

     reciprocal axes: (cart. coord. in units 2 pi/alat)
               b(1) = (  1.000000  0.000000  0.000000 )
               b(2) = (  0.000000  1.000000  0.000000 )
               b(3) = (  0.000000  0.000000  1.510345 )

     PseudoPot. # 1 for Cr read from file:
     /home/camp/zhonxu/pseudo/cr_pbe_v1.uspp.F.UPF
     MD5 check sum: 68b6f918d1762dccfb11451fe85b0e0e
     Pseudo is Ultrasoft + core correction, Zval = 14.0
     Generated by new atomic code, or converted to UPF format
     Using radial grid of  857 points,  6 beta functions with:
                l(1) =   0
                l(2) =   0
                l(3) =   1
                l(4) =   1
                l(5) =   2
                l(6) =   2
     Q(r) pseudized with  6 coefficients,  rinner =    1.000   1.000   1.000
                                                       1.000   1.000

     PseudoPot. # 2 for Cr read from file:
     /home/camp/zhonxu/pseudo/cr_pbe_v1.uspp.F.UPF
     MD5 check sum: 68b6f918d1762dccfb11451fe85b0e0e
     Pseudo is Ultrasoft + core correction, Zval = 14.0
     Generated by new atomic code, or converted to UPF format
     Using radial grid of  857 points,  6 beta functions with:
                l(1) =   0
                l(2) =   0
                l(3) =   1
                l(4) =   1
                l(5) =   2
                l(6) =   2
     Q(r) pseudized with  6 coefficients,  rinner =    1.000   1.000   1.000
                                                       1.000   1.000

     PseudoPot. # 3 for O  read from file:
     /home/camp/zhonxu/pseudo/o_pbe_v1.01.uspp.F.UPF
     MD5 check sum: 2bcb18d16ea4b960afae9ec6d52f22d2
     Pseudo is Ultrasoft + core correction, Zval =  6.0
     Generated by new atomic code, or converted to UPF format
     Using radial grid of  737 points,  5 beta functions with:
                l(1) =   0
                l(2) =   0
                l(3) =   1
                l(4) =   1
                l(5) =   2
     Q(r) pseudized with  8 coefficients,  rinner =    0.900   0.900   0.900
                                                       0.900   0.900

     atomic species   valence    mass     pseudopotential
        Cr0           14.00    51.99600     Cr( 1.00)
        Cr1           14.00    51.99600     Cr( 1.00)
        O2             6.00    15.99940     O ( 1.00)

     Starting magnetic structure
     atomic species   magnetization
        Cr0          0.600
        Cr1          0.600
        O2           0.000

     Simplified LDA+U calculation (l_max = 2) with parameters (eV):
     atomic species    L          U    alpha       J0     beta
        Cr0            2     0.0000   0.1500   0.0000   0.0000
        Cr1            2     0.0000   0.0000   0.0000   0.0000
        O2             1     0.0000   0.0000   0.0000   0.0000

      8 Sym. Ops., with inversion, found

   Cartesian axes

     site n.     atom                  positions (alat units)
         1           Cr0 tau(   1) = (   0.0000000   0.0000000   0.0000000  )
         2           Cr1 tau(   2) = (   0.2500000   0.2500000   0.1655251  )
         3           Cr1 tau(   3) = (   0.0000000   0.0000000   0.3310502  )
         4           Cr1 tau(   4) = (   0.2500000   0.2500000   0.4965753  )
         5           Cr1 tau(   5) = (   0.0000000   0.5000000   0.0000000  )
         6           Cr1 tau(   6) = (   0.2500000   0.7500000   0.1655251  )
         7           Cr1 tau(   7) = (   0.0000000   0.5000000   0.3310502  )
         8           Cr1 tau(   8) = (   0.2500000   0.7500000   0.4965753  )
         9           Cr1 tau(   9) = (   0.5000000   0.0000000   0.0000000  )
        10           Cr1 tau(  10) = (   0.7500000   0.2500000   0.1655251  )
        11           Cr1 tau(  11) = (   0.5000000   0.0000000   0.3310502  )
        12           Cr1 tau(  12) = (   0.7500000   0.2500000   0.4965753  )
        13           Cr1 tau(  13) = (   0.5000000   0.5000000   0.0000000  )
        14           Cr1 tau(  14) = (   0.7500000   0.7500000   0.1655251  )
        15           Cr1 tau(  15) = (   0.5000000   0.5000000   0.3310502  )
        16           Cr1 tau(  16) = (   0.7500000   0.7500000   0.4965753  )
        17           O2  tau(  17) = (   0.1500000   0.1500000   0.0000000  )
        18           O2  tau(  18) = (  -0.1500000  -0.1500000   0.0000000  )
        19           O2  tau(  19) = (   0.4000000   0.1000000   0.1655251  )
        20           O2  tau(  20) = (   0.1000000   0.4000000   0.1655251  )
        21           O2  tau(  21) = (   0.1500000   0.1500000   0.3310502  )
        22           O2  tau(  22) = (  -0.1500000  -0.1500000   0.3310502  )
        23           O2  tau(  23) = (   0.4000000   0.1000000   0.4965753  )
        24           O2  tau(  24) = (   0.1000000   0.4000000   0.4965753  )
        25           O2  tau(  25) = (   0.1500000   0.6500000   0.0000000  )
        26           O2  tau(  26) = (  -0.1500000   0.3500000   0.0000000  )
        27           O2  tau(  27) = (   0.4000000   0.6000000   0.1655251  )
        28           O2  tau(  28) = (   0.1000000   0.9000000   0.1655251  )
        29           O2  tau(  29) = (   0.1500000   0.6500000   0.3310502  )
        30           O2  tau(  30) = (  -0.1500000   0.3500000   0.3310502  )
        31           O2  tau(  31) = (   0.4000000   0.6000000   0.4965753  )
        32           O2  tau(  32) = (   0.1000000   0.9000000   0.4965753  )
        33           O2  tau(  33) = (   0.6500000   0.1500000   0.0000000  )
        34           O2  tau(  34) = (   0.3500000  -0.1500000   0.0000000  )
        35           O2  tau(  35) = (   0.9000000   0.1000000   0.1655251  )
        36           O2  tau(  36) = (   0.6000000   0.4000000   0.1655251  )
        37           O2  tau(  37) = (   0.6500000   0.1500000   0.3310502  )
        38           O2  tau(  38) = (   0.3500000  -0.1500000   0.3310502  )
        39           O2  tau(  39) = (   0.9000000   0.1000000   0.4965753  )
        40           O2  tau(  40) = (   0.6000000   0.4000000   0.4965753  )
        41           O2  tau(  41) = (   0.6500000   0.6500000   0.0000000  )
        42           O2  tau(  42) = (   0.3500000   0.3500000   0.0000000  )
        43           O2  tau(  43) = (   0.9000000   0.6000000   0.1655251  )
        44           O2  tau(  44) = (   0.6000000   0.9000000   0.1655251  )
        45           O2  tau(  45) = (   0.6500000   0.6500000   0.3310502  )
        46           O2  tau(  46) = (   0.3500000   0.3500000   0.3310502  )
        47           O2  tau(  47) = (   0.9000000   0.6000000   0.4965753  )
        48           O2  tau(  48) = (   0.6000000   0.9000000   0.4965753  )

     number of k points=    42  Methfessel-Paxton smearing, width (Ry)=  0.0100
                       cart. coord. in units 2pi/alat
        k(    1) = (   0.0000000   0.0000000   0.0000000), wk =   0.0156250
        k(    2) = (   0.0000000   0.0000000   0.3775862), wk =   0.0312500
        k(    3) = (   0.0000000   0.0000000  -0.7551724), wk =   0.0156250
        k(    4) = (   0.0000000   0.2500000   0.0000000), wk =   0.0625000
        k(    5) = (   0.0000000   0.2500000   0.3775862), wk =   0.1250000
        k(    6) = (   0.0000000   0.2500000  -0.7551724), wk =   0.0625000
        k(    7) = (   0.0000000  -0.5000000   0.0000000), wk =   0.0312500
        k(    8) = (   0.0000000  -0.5000000   0.3775862), wk =   0.0625000
        k(    9) = (   0.0000000  -0.5000000  -0.7551724), wk =   0.0312500
        k(   10) = (   0.2500000   0.2500000   0.0000000), wk =   0.0312500
        k(   11) = (   0.2500000   0.2500000   0.3775862), wk =   0.0625000
        k(   12) = (   0.2500000   0.2500000  -0.7551724), wk =   0.0312500
        k(   13) = (   0.2500000  -0.5000000   0.0000000), wk =   0.0625000
        k(   14) = (   0.2500000  -0.5000000   0.3775862), wk =   0.1250000
        k(   15) = (   0.2500000  -0.5000000  -0.7551724), wk =   0.0625000
        k(   16) = (  -0.5000000  -0.5000000   0.0000000), wk =   0.0156250
        k(   17) = (  -0.5000000  -0.5000000   0.3775862), wk =   0.0312500
        k(   18) = (  -0.5000000  -0.5000000  -0.7551724), wk =   0.0156250
        k(   19) = (  -0.2500000   0.2500000   0.0000000), wk =   0.0312500
        k(   20) = (  -0.2500000   0.2500000  -0.3775862), wk =   0.0625000
        k(   21) = (  -0.2500000   0.2500000   0.7551724), wk =   0.0312500
        k(   22) = (   0.0000000   0.0000000   0.0000000), wk =   0.0156250
        k(   23) = (   0.0000000   0.0000000   0.3775862), wk =   0.0312500
        k(   24) = (   0.0000000   0.0000000  -0.7551724), wk =   0.0156250
        k(   25) = (   0.0000000   0.2500000   0.0000000), wk =   0.0625000
        k(   26) = (   0.0000000   0.2500000   0.3775862), wk =   0.1250000
        k(   27) = (   0.0000000   0.2500000  -0.7551724), wk =   0.0625000
        k(   28) = (   0.0000000  -0.5000000   0.0000000), wk =   0.0312500
        k(   29) = (   0.0000000  -0.5000000   0.3775862), wk =   0.0625000
        k(   30) = (   0.0000000  -0.5000000  -0.7551724), wk =   0.0312500
        k(   31) = (   0.2500000   0.2500000   0.0000000), wk =   0.0312500
        k(   32) = (   0.2500000   0.2500000   0.3775862), wk =   0.0625000
        k(   33) = (   0.2500000   0.2500000  -0.7551724), wk =   0.0312500
        k(   34) = (   0.2500000  -0.5000000   0.0000000), wk =   0.0625000
        k(   35) = (   0.2500000  -0.5000000   0.3775862), wk =   0.1250000
        k(   36) = (   0.2500000  -0.5000000  -0.7551724), wk =   0.0625000
[...]
  0.854  0.873  0.888
    eigenvectors:
  0.000  0.000  1.000
  0.500  0.500  0.000
  0.500  0.500  0.000
    occupations:
  0.888 -0.000 -0.000
 -0.000  0.863  0.010
 -0.000  0.010  0.863
   spin  2
    eigenvalues:
  0.888  0.899  0.909
    eigenvectors:
  0.000  1.000  0.000
  0.500  0.000  0.500
  0.500  0.000  0.500
    occupations:
  0.899 -0.000 -0.000
 -0.000  0.899 -0.011
 -0.000 -0.011  0.899
atomic mag. moment =    -0.081726
atom   42   Tr[ns(na)] (up, down, total) =   2.61436  2.69608  5.31044
   spin  1
    eigenvalues:
  0.854  0.873  0.888
    eigenvectors:
  0.000  0.000  1.000
  0.500  0.500  0.000
  0.500  0.500  0.000
    occupations:
  0.888 -0.000 -0.000
 -0.000  0.863  0.010
 -0.000  0.010  0.863
   spin  2
    eigenvalues:
  0.888  0.899  0.909
    eigenvectors:
  0.000  1.000  0.000
  0.500  0.000  0.500
  0.500  0.000  0.500
    occupations:
  0.899 -0.000 -0.000
 -0.000  0.899 -0.011
 -0.000 -0.011  0.899
atomic mag. moment =    -0.081726
atom   43   Tr[ns(na)] (up, down, total) =   2.61437  2.69609  5.31046
   spin  1
    eigenvalues:
  0.854  0.873  0.888
    eigenvectors:
  0.000  0.000  1.000
  0.500  0.500  0.000
  0.500  0.500  0.000
    occupations:
  0.888 -0.000 -0.000
 -0.000  0.863 -0.010
 -0.000 -0.010  0.863
   spin  2
    eigenvalues:
  0.888  0.899  0.909
    eigenvectors:
  0.000  1.000  0.000
  0.500  0.000  0.500
  0.500  0.000  0.500
    occupations:
  0.899  0.000  0.000
  0.000  0.899  0.011
  0.000  0.011  0.899
atomic mag. moment =    -0.081714
atom   44   Tr[ns(na)] (up, down, total) =   2.61437  2.69609  5.31046
   spin  1
    eigenvalues:
  0.854  0.873  0.888
    eigenvectors:
  0.000  0.000  1.000
  0.500  0.500  0.000
  0.500  0.500  0.000
    occupations:
  0.888 -0.000 -0.000
 -0.000  0.863 -0.010
 -0.000 -0.010  0.863
   spin  2
    eigenvalues:
  0.888  0.899  0.909
    eigenvectors:
  0.000  1.000  0.000
  0.500  0.000  0.500
  0.500  0.000  0.500
    occupations:
  0.899  0.000  0.000
  0.000  0.899  0.011
  0.000  0.011  0.899
atomic mag. moment =    -0.081714
atom   45   Tr[ns(na)] (up, down, total) =   2.61432  2.69614  5.31046
   spin  1
    eigenvalues:
  0.854  0.873  0.888
    eigenvectors:
  0.000  0.000  1.000
  0.500  0.500  0.000
  0.500  0.500  0.000
    occupations:
  0.888 -0.000 -0.000
 -0.000  0.863  0.010
 -0.000  0.010  0.863
   spin  2
    eigenvalues:
  0.888  0.899  0.909
    eigenvectors:
  0.000  1.000  0.000
  0.500  0.000  0.500
  0.500  0.000  0.500
    occupations:
  0.899 -0.000 -0.000
 -0.000  0.899 -0.011
 -0.000 -0.011  0.899
atomic mag. moment =    -0.081821
atom   46   Tr[ns(na)] (up, down, total) =   2.61432  2.69614  5.31046
   spin  1
    eigenvalues:
  0.854  0.873  0.888
    eigenvectors:
  0.000  0.000  1.000
  0.500  0.500  0.000
  0.500  0.500  0.000
    occupations:
  0.888 -0.000 -0.000
 -0.000  0.863  0.010
 -0.000  0.010  0.863
   spin  2
    eigenvalues:
  0.888  0.899  0.909
    eigenvectors:
  0.000  1.000  0.000
  0.500  0.000  0.500
  0.500  0.000  0.500
    occupations:
  0.899 -0.000 -0.000
 -0.000  0.899 -0.011
 -0.000 -0.011  0.899
atomic mag. moment =    -0.081821
atom   47   Tr[ns(na)] (up, down, total) =   2.61437  2.69609  5.31046
   spin  1
    eigenvalues:
  0.854  0.873  0.888
    eigenvectors:
  0.000  0.000  1.000
  0.500  0.500  0.000
  0.500  0.500  0.000
    occupations:
  0.888  0.000  0.000
  0.000  0.863 -0.010
  0.000 -0.010  0.863
   spin  2
    eigenvalues:
  0.888  0.899  0.909
    eigenvectors:
  0.000  1.000  0.000
  0.500  0.000  0.500
  0.500  0.000  0.500
    occupations:
  0.899 -0.000 -0.000
 -0.000  0.899  0.011
 -0.000  0.011  0.899
atomic mag. moment =    -0.081714
atom   48   Tr[ns(na)] (up, down, total) =   2.61437  2.69609  5.31046
   spin  1
    eigenvalues:
  0.854  0.873  0.888
    eigenvectors:
  0.000  0.000  1.000
  0.500  0.500  0.000
  0.500  0.500  0.000
    occupations:
  0.888  0.000  0.000
  0.000  0.863 -0.010
  0.000 -0.010  0.863
   spin  2
    eigenvalues:
  0.888  0.899  0.909
    eigenvectors:
  0.000  1.000  0.000
  0.500  0.000  0.500
  0.500  0.000  0.500
    occupations:
  0.899 -0.000 -0.000
 -0.000  0.899  0.011
 -0.000  0.011  0.899
atomic mag. moment =    -0.081714
N of occupied +U levels = 245.6926197
 --- exit write_ns ---

 ------ SPIN UP ------------

          k = 0.0000 0.0000 0.0000 ( 12779 PWs)   bands (ev):

   -62.4367 -62.2989 -62.2963 -62.2962 -62.2961 -62.2960 -62.2959 -62.2935
   -62.2879 -62.2817 -62.2817 -62.2816 -62.2815 -62.2815 -62.2812 -62.2812
   -33.8206 -33.7536 -33.7149 -33.6904 -33.6894 -33.6870 -33.6844 -33.6838
   -33.6828 -33.6819 -33.6818 -33.6815 -33.6773 -33.6768 -33.6728 -33.6690
   -33.6687 -33.6682 -33.6568 -33.6566 -33.6563 -33.6471 -33.6447 -33.6421
   -33.6419 -33.5760 -33.5758 -33.5756 -33.5721 -33.5689 -33.5675 -33.5673
   -33.5564 -33.5458 -33.5455 -33.5451 -33.5449 -33.5449 -33.5445 -33.5443
   -33.5292 -33.4918 -33.4842 -33.4841 -33.4840 -33.4840 -33.4838 -33.4758
    -8.7515  -7.8404  -7.8391  -7.8391  -7.8387  -7.7551  -7.7528  -7.1521
    -7.1509  -7.1283  -7.1280  -7.1268  -7.1239  -6.9651  -6.9639  -6.9536
    -6.8944  -6.8917  -6.7565  -6.7554  -6.7550  -6.7547  -6.7466  -6.7440
    -6.7227  -6.7227  -6.6469  -6.6461  -6.6461  -6.6427  -6.5056  -6.5056
     3.3924   3.7504   3.7530   4.0564   4.2958   4.2959   4.2964   4.3004
     4.4884   4.4970   4.4987   4.4996   4.5030   4.5630   4.5638   4.5639
     4.5669   4.7795   4.7829   5.3697   5.3699   5.3727   5.3727   5.6815
     5.6840   5.6989   5.7030   5.7726   5.7751   5.8513   5.8520   5.8834
     5.8835   5.8837   5.8904   5.9388   5.9416   6.1471   6.1474   6.1478
     6.1490   6.2457   6.2463   6.2486   6.2488   6.5092   6.5096   6.5104
     6.5126   6.8895   6.8925   6.9397   6.9427   7.1218   7.1223   7.1329
     7.1357   7.2421   7.2429   7.3411   7.3418   7.3418   7.3427   7.3736
     7.3768   7.5755   7.5758   7.5771   7.5788   7.6402   7.8257   7.8273
     7.8274   7.8307   8.3218   8.3241   8.4916   8.4931   8.6020   8.6030
     8.9678   8.9681   9.2367   9.2368   9.2369   9.2370   9.5111   9.5514
     9.5525   9.5760   9.5764   9.5765   9.5769   9.6152   9.7162   9.7185
     9.8130   9.8131   9.8152   9.8166   9.9431   9.9433  10.0005  10.0514
    10.1094  10.1111  10.1359  10.1378  10.4330  10.4333  10.4335  10.4356
    10.5303  10.6026  10.6032  10.6070  10.6071  10.6075  10.6077  10.6079
    10.6116  11.0207  11.0216  11.0219  11.0229  11.0912  11.0919  11.2533
    11.2536  11.3315  11.3316  11.6136  11.6138  11.6141  11.6141  12.0196
    12.0201  12.2032  12.2038  12.2366  12.2370  12.2374  12.2376  12.5262
    12.5382  12.9552  12.9552  12.9560  12.9560  13.8999  13.9017  14.1727
    14.1745  14.1831  14.1843  14.1863  14.1874  14.5224  14.5246  14.6340
    14.6376  14.6377  14.6378  14.7575  14.7620  14.7621  14.7623  14.9768
    14.9784  15.0007  15.0020  15.6975  15.6995  15.7012  15.7012  16.2112
    18.9361  21.2885  21.2891  21.2910  21.2913  22.0823  22.0837  22.5282
    22.5292  22.6439  22.6452  23.5138  23.5144  23.5153  23.5161  23.5697
    23.5701  23.8544  23.8577  23.8852  23.8871  23.8874  23.8895  24.6663
    24.6667  25.1208  25.2196  25.2199  25.2212  25.2219  25.8262  25.8269
    26.1079  26.1087  26.1225  26.1560  26.1564  26.5548  26.5568  26.6378
    26.7822  26.7830  26.7835  26.7844  27.3010  27.3011  27.3028  27.3030
    27.6185  27.6214  27.7831  27.7838  27.7842  27.7863  28.1063  28.1099
    28.3863  28.3907  28.3947  28.3948  28.4823  28.4866  28.4880  28.4891
    28.4919  28.4926  28.7644  28.7654  28.9437  28.9447  28.9467  28.9473
    29.1734  29.4423  29.4445  29.5433  29.5446  30.2598  30.2631  30.3653
    30.4257  30.5551  30.5569  30.6592  30.6626  30.6652  30.6661  30.6706
    30.6708  32.5088  32.5090  32.5108  32.5110  32.8339  32.8461  32.8464
    32.8472  32.8649  32.8680  32.9183  32.9218  33.1073  33.1084  33.1964
    33.1982  34.1376  34.1385  34.1390  34.1420  34.4216  34.9389  34.9416
    34.9420  34.9421  35.2663  35.2683  35.4212  35.4263  35.7304  36.0642
    36.0649  36.8068  36.8109  36.8402  36.8437  37.0148  37.0149  37.3464
    37.3493  37.3503  37.3512  37.5305  37.8269  37.8284  37.8583  37.8596
    37.8607  37.8616  37.8799  38.3426  38.3456  38.9099  38.9146  38.9148
    38.9154  38.9611  38.9617  38.9634  38.9648  39.0786  39.0794  39.1356
    39.1372  39.1649  39.1687  39.1699  39.1706  39.5225  39.5253  39.5256
    39.5268  39.6335  39.6340  39.8564  40.2597  40.2609  40.5318  40.5319
    40.5320  40.5334  41.2120  41.4807  41.4811  41.8816  41.8844  42.2774
    42.3109  42.3123  42.3806  42.3809  42.3818  42.3819  42.9616  42.9656
    42.9664  42.9668  43.6753  43.6800  43.6808  43.6816  43.9661  43.9666
    44.4323  44.4339  44.5214  44.5222  44.6036  44.6042  44.6395  44.7205
    44.7210  44.7215  44.7228  45.1073  45.1111  45.1656  45.1677  45.1688
    45.1694  45.5975  45.5979  45.7577  45.7629  45.7644  45.7647  46.4807
    46.4812  46.4825  46.8876  46.8878  47.1911  47.1918  47.1991  47.2018
    47.2040  47.2043  47.4207  47.4235  47.6361  47.6361  47.6376  47.6391
    48.0725  48.0753  48.2352  48.2372  48.2413  48.2418  48.4345  48.4378
    48.6052  48.7936  48.7949  49.2325  49.2336  49.2869  49.2887  49.2888
    49.2891  49.5497  49.5504  49.5512  49.5520  49.6634  49.7574  49.7615
    49.7738  49.7745  50.2900  50.2923  50.2937  50.2952  50.3547  50.3567
    50.3703  50.3717  51.0344  51.0374  51.0379  51.0390  51.2527  51.2536
    51.5504  51.6517  51.6533  51.6549  51.6552  51.6885  51.6908  51.8933
    51.8938  51.9878  51.9899  52.3171  52.3195  52.6497  52.6537  52.6548
    52.6550  52.7320  52.7353  52.7366  52.7375  52.9914  53.0070  53.0072
    53.1208  53.1235  53.1238  53.1257  53.6619  53.6625  53.6633  53.6717
    53.6748  53.6749  53.6755  53.7757  53.7760  53.7771  53.7772  54.0066
    54.0113  54.3231  54.3266  54.3920  54.3950  54.4008  54.4020  54.5078
    54.5091  54.7047  54.7094  54.7112  54.7115  55.0372  55.2312  55.2348

[...]

          k =-0.5000-0.5000 0.0000 ( 12832 PWs)   bands (ev):

[...]

 ------ SPIN DOWN ----------

[...]

          k = 0.2500-0.5000-0.7552 ( 12816 PWs)   bands (ev):

[...]

          k =-0.2500 0.2500 0.7552 ( 12844 PWs)   bands (ev):

   -60.1121 -59.9740 -59.9739 -59.9728 -59.9727 -59.9727 -59.9727 -59.9721
   -59.9719 -59.9715 -59.9714 -59.9709 -59.9709 -59.9709 -59.9701 -59.9696
   -31.7744 -31.6388 -31.6388 -31.6386 -31.6383 -31.6380 -31.6380 -31.6379
   -31.6377 -31.6374 -31.6374 -31.6373 -31.6371 -31.6371 -31.6371 -31.6369
   -31.4037 -31.2715 -31.2707 -31.2707 -31.2704 -31.2698 -31.2694 -31.2694
   -31.2693 -31.2693 -31.2691 -31.2684 -31.2684 -31.2683 -31.2682 -31.2680
   -31.2396 -31.1156 -31.1149 -31.1112 -31.1111 -31.1111 -31.1108 -31.1100
   -31.1088 -31.1079 -31.1072 -31.1058 -31.1057 -31.1057 -31.1034 -31.1026
    -8.1090  -8.1081  -7.7559  -7.7545  -7.7542  -7.7537  -7.5540  -7.5538
    -7.3153  -7.3146  -7.2199  -7.2196  -7.2189  -7.2185  -6.8829  -6.8806
    -6.8489  -6.8474  -6.8441  -6.8429  -6.8257  -6.8255  -6.8252  -6.8225
    -6.7932  -6.7909  -6.7705  -6.7703  -6.7700  -6.7678  -6.7182  -6.7172
     4.5989   4.5991   4.6310   4.6316   4.9373   4.9396   4.9397   4.9404
     4.9433   4.9450   5.1425   5.1452   5.1691   5.1725   5.2541   5.2569
     5.3379   5.3388   5.3401   5.3417   5.3546   5.3548   5.4176   5.4197
     5.4206   5.4228   5.7417   5.7418   5.7419   5.7460   5.8135   5.8147
     6.1390   6.1395   6.1837   6.1852   6.1856   6.1884   6.3538   6.3553
     6.6919   6.6930   6.6930   6.6934   6.8160   6.8165   6.8427   6.8439
     6.8445   6.8452   7.1388   7.1394   7.2343   7.2344   7.4265   7.4269
     7.4269   7.4271   7.5491   7.5505   7.7028   7.7050   7.7051   7.7064
     7.7148   7.7160   7.8334   7.8336   8.0439   8.0453   8.1148   8.1160
     8.3274   8.3280   8.4848   8.4855   8.4863   8.4867   8.5860   8.5883
     8.7395   8.7408   8.9134   8.9139   9.0744   9.0745   9.0749   9.0752
     9.1038   9.1042   9.4587   9.4590   9.4592   9.4593   9.6006   9.6009
    12.0889  12.0901  12.2779  12.2781  12.2787  12.2830  12.5351  12.5378
    12.7546  12.7547  12.7550  12.7599  12.7793  12.7796  12.8314  12.8317
    13.0584  13.0585  13.1150  13.1161  13.1640  13.1655  13.1704  13.1705
    13.1706  13.1836  13.2028  13.2051  13.2322  13.2343  13.2453  13.2495
    13.3624  13.3626  13.3632  13.3632  13.4177  13.4190  13.5432  13.5434
    13.5440  13.5448  13.6398  13.6398  13.6406  13.6410  13.8418  13.8418
    14.6320  14.6324  14.6326  14.6326  14.8287  14.8288  15.0489  15.0507
    15.0509  15.0510  15.0567  15.0576  15.2488  15.2490  15.5170  15.5174
    15.5198  15.5200  15.7219  15.7239  15.8711  15.8721  15.8733  15.8733
    16.1452  16.1456  16.5350  16.5385  16.5390  16.5390  16.6401  16.6413
    21.0914  21.0932  22.0481  22.0502  22.0507  22.0513  22.5984  22.5993
    23.3296  23.3319  23.4326  23.4352  23.4354  23.4358  24.4403  24.4413
    24.5831  24.5872  25.0613  25.0641  25.3382  25.3392  25.3401  25.3410
    25.7505  25.7525  25.9332  25.9363  26.2273  26.2305  26.2306  26.2311
    26.3113  26.3133  26.4023  26.4050  26.4967  26.4970  26.5567  26.5594
    26.5610  26.5614  26.9405  26.9423  26.9429  26.9443  27.7317  27.7341
    28.0982  28.1020  28.1031  28.1036  28.1547  28.1550  28.4356  28.4364
    28.8098  28.8120  28.9110  28.9168  28.9180  28.9184  29.0375  29.0395
    29.0403  29.0407  29.1119  29.1127  29.2395  29.2425  29.4885  29.4908
    29.7748  29.7763  30.1011  30.1046  30.1052  30.1059  30.3564  30.3579
    30.3957  30.4014  30.8026  30.8062  30.8069  30.8093  31.2200  31.2204
    31.7783  31.7842  31.7848  31.7849  31.8747  31.8803  32.8133  32.8159
    33.1717  33.1719  33.1729  33.1753  33.6722  33.6769  33.7662  33.7686
    34.8970  34.8986  35.4672  35.4677  35.4688  35.4710  35.7761  35.7784
    35.8080  35.8104  35.8836  35.8848  36.7570  36.7570  36.8592  36.8598
    36.8599  36.8600  37.1729  37.1753  37.2379  37.2391  37.4442  37.4481
    37.4486  37.4487  38.0254  38.0263  38.0263  38.0266  38.2537  38.2566
    38.2572  38.2587  38.2603  38.2611  38.5474  38.5495  38.6593  38.6598
    39.3952  39.3974  39.4343  39.4344  39.4350  39.4362  39.8865  39.8882
    39.8900  39.8908  40.0342  40.0346  40.4571  40.4573  40.6565  40.6576
    40.6607  40.6608  40.6625  40.6641  40.9551  40.9551  41.0456  41.0457
    41.0480  41.0482  41.8611  41.8613  41.8619  41.8624  42.1878  42.1887
    42.4950  42.4954  42.4961  42.4964  42.6608  42.6621  43.3517  43.3522
    43.8536  43.8538  43.8539  43.8555  44.0312  44.0315  44.1213  44.1234
    44.5330  44.5333  44.6246  44.6256  44.9608  44.9618  44.9634  44.9634
    45.1618  45.1621  45.6003  45.6018  45.6020  45.6024  46.0454  46.0475
    46.8397  46.8426  46.8658  46.8684  46.8690  46.8695  47.1442  47.1476
    47.4013  47.4015  47.5244  47.5254  48.0500  48.0516  48.3356  48.3374
    48.3390  48.3393  48.3584  48.3598  48.3602  48.3621  48.4018  48.4021
    48.5553  48.5574  48.8715  48.8722  48.8748  48.8754  48.9908  48.9911
    49.4316  49.4330  49.7021  49.7031  49.9448  49.9463  49.9466  49.9466
    50.0427  50.0428  50.1992  50.2007  50.2023  50.2037  50.5716  50.5718
    50.7286  50.7306  50.8803  50.8806  50.8834  50.8838  50.8898  50.8911
    51.2134  51.2137  51.2140  51.2141  51.3172  51.3174  51.3570  51.3582
    51.4423  51.4435  51.6926  51.6978  51.6994  51.6997  51.9014  51.9043
    51.9046  51.9046  52.0156  52.0177  52.0257  52.0286  52.1469  52.1473
    52.5430  52.5445  52.6095  52.6108  52.6108  52.6110  52.6248  52.6258
    52.6352  52.6359  52.7749  52.7751  52.8130  52.8139  52.9508  52.9524
    52.9544  52.9554  53.4920  53.4937  53.4939  53.4941  53.6906  53.6948
    54.0847  54.0860  54.4111  54.4131  54.4142  54.4143  54.5545  54.5570
    54.5578  54.5582  54.8076  54.8111  54.9899  54.9915  55.0069  55.0093

     the Fermi energy is    11.2609 ev

!    total energy              =   -3849.28052622 Ry
     Harris-Foulkes estimate   =   -3849.28052660 Ry
     estimated scf accuracy    <       0.00000042 Ry

     The total energy is the sum of the following terms:

     one-electron contribution =   -1589.03654734 Ry
     hartree contribution      =    1012.60829043 Ry
     xc contribution           =    -596.48341606 Ry
     ewald contribution        =   -2676.42062880 Ry
     Hubbard energy            =       0.05199266 Ry
     smearing contrib. (-TS)   =      -0.00021711 Ry

     total magnetization       =    32.00 Bohr mag/cell
     absolute magnetization    =    36.73 Bohr mag/cell

     convergence has been achieved in  13 iterations

     Writing output data file pwscf.save

     General routines

     Parallel routines
     Hubbard U routines

   This run was terminated on:   6:26:19  15Feb2014

   JOB DONE.