     Program PWSCF v.5.0.2 (svn rev. 9656) starts on 14Feb2014 at 21:12:29

     Current dimensions of program PWSCF are:
     Max number of different atomic species (ntypx) = 10
     Max number of k-points (npk) =  40000
     Max angular momentum in pseudopotentials (lmaxx) =  3
     Reading input from alpha_0.07/alpha_0.07.in
Warning: card &IONS ignored
Warning: card / ignored
Warning: card &CELL ignored
Warning: card / ignored

     Subspace diagonalization in iterative solution of the eigenvalue problem:
     a serial algorithm will be used

     bravais-lattice index     =            0
     lattice parameter (alat)  =      16.5540  a.u.
     unit-cell volume          =    3003.5358 (a.u.)^3
     number of atoms/cell      =           48
     number of atomic types    =            3
     number of electrons       =       416.00
     number of Kohn-Sham states=          600
     kinetic-energy cutoff     =      40.0000  Ry
     charge density cutoff     =     500.0000  Ry
     convergence threshold     =      1.0E-06
     mixing beta               =       0.7000
     number of iterations used =            8  plain     mixing
     Exchange-correlation      = SLA  PW   PBE  PBE ( 1 4 3 4 0)
     EXX-fraction              =        0.00

     celldm(1)=  16.554001  celldm(2)=   0.000000  celldm(3)=   0.000000
     celldm(4)=   0.000000  celldm(5)=   0.000000  celldm(6)=   0.000000

     crystal axes: (cart. coord. in units of alat)
               a(1) = (   1.000000   0.000000   0.000000 )
               a(2) = (   0.000000   1.000000   0.000000 )
               a(3) = (   0.000000   0.000000   0.662100 )

     reciprocal axes: (cart. coord. in units 2 pi/alat)
               b(1) = (  1.000000  0.000000  0.000000 )
               b(2) = (  0.000000  1.000000  0.000000 )
               b(3) = (  0.000000  0.000000  1.510345 )

     PseudoPot. # 1 for Cr read from file:
     /home/camp/zhonxu/pseudo/cr_pbe_v1.uspp.F.UPF
     MD5 check sum: 68b6f918d1762dccfb11451fe85b0e0e
     Pseudo is Ultrasoft + core correction, Zval = 14.0
     Generated by new atomic code, or converted to UPF format
     Using radial grid of  857 points,  6 beta functions with:
                l(1) =   0
                l(2) =   0
                l(3) =   1
                l(4) =   1
                l(5) =   2
                l(6) =   2
     Q(r) pseudized with  6 coefficients,  rinner =    1.000   1.000   1.000
                                                       1.000   1.000

     PseudoPot. # 2 for Cr read from file:
     /home/camp/zhonxu/pseudo/cr_pbe_v1.uspp.F.UPF
     MD5 check sum: 68b6f918d1762dccfb11451fe85b0e0e
     Pseudo is Ultrasoft + core correction, Zval = 14.0
     Generated by new atomic code, or converted to UPF format
     Using radial grid of  857 points,  6 beta functions with:
                l(1) =   0
                l(2) =   0
                l(3) =   1
                l(4) =   1
                l(5) =   2
                l(6) =   2
     Q(r) pseudized with  6 coefficients,  rinner =    1.000   1.000   1.000
                                                       1.000   1.000

     PseudoPot. # 3 for O  read from file:
     /home/camp/zhonxu/pseudo/o_pbe_v1.01.uspp.F.UPF
     MD5 check sum: 2bcb18d16ea4b960afae9ec6d52f22d2
     Pseudo is Ultrasoft + core correction, Zval =  6.0
     Generated by new atomic code, or converted to UPF format
     Using radial grid of  737 points,  5 beta functions with:
                l(1) =   0
                l(2) =   0
                l(3) =   1
                l(4) =   1
                l(5) =   2
     Q(r) pseudized with  8 coefficients,  rinner =    0.900   0.900   0.900
                                                       0.900   0.900

     atomic species   valence    mass     pseudopotential
        Cr0           14.00    51.99600     Cr( 1.00)
        Cr1           14.00    51.99600     Cr( 1.00)
        O2             6.00    15.99940     O ( 1.00)

     Starting magnetic structure
     atomic species   magnetization
        Cr0          0.600
        Cr1          0.600
        O2           0.000

     Simplified LDA+U calculation (l_max = 2) with parameters (eV):
     atomic species    L          U    alpha       J0     beta
        Cr0            2     0.0000   0.0700   0.0000   0.0000
        Cr1            2     0.0000   0.0000   0.0000   0.0000
        O2             1     0.0000   0.0000   0.0000   0.0000

      8 Sym. Ops., with inversion, found

   Cartesian axes

     site n.     atom                  positions (alat units)
         1           Cr0 tau(   1) = (   0.0000000   0.0000000   0.0000000  )
         2           Cr1 tau(   2) = (   0.2500000   0.2500000   0.1655251  )
         3           Cr1 tau(   3) = (   0.0000000   0.0000000   0.3310502  )
         4           Cr1 tau(   4) = (   0.2500000   0.2500000   0.4965753  )
         5           Cr1 tau(   5) = (   0.0000000   0.5000000   0.0000000  )
         6           Cr1 tau(   6) = (   0.2500000   0.7500000   0.1655251  )
         7           Cr1 tau(   7) = (   0.0000000   0.5000000   0.3310502  )
         8           Cr1 tau(   8) = (   0.2500000   0.7500000   0.4965753  )
         9           Cr1 tau(   9) = (   0.5000000   0.0000000   0.0000000  )
        10           Cr1 tau(  10) = (   0.7500000   0.2500000   0.1655251  )
        11           Cr1 tau(  11) = (   0.5000000   0.0000000   0.3310502  )
        12           Cr1 tau(  12) = (   0.7500000   0.2500000   0.4965753  )
        13           Cr1 tau(  13) = (   0.5000000   0.5000000   0.0000000  )
        14           Cr1 tau(  14) = (   0.7500000   0.7500000   0.1655251  )
        15           Cr1 tau(  15) = (   0.5000000   0.5000000   0.3310502  )
        16           Cr1 tau(  16) = (   0.7500000   0.7500000   0.4965753  )
        17           O2  tau(  17) = (   0.1500000   0.1500000   0.0000000  )
        18           O2  tau(  18) = (  -0.1500000  -0.1500000   0.0000000  )
        19           O2  tau(  19) = (   0.4000000   0.1000000   0.1655251  )
        20           O2  tau(  20) = (   0.1000000   0.4000000   0.1655251  )
        21           O2  tau(  21) = (   0.1500000   0.1500000   0.3310502  )
        22           O2  tau(  22) = (  -0.1500000  -0.1500000   0.3310502  )
        23           O2  tau(  23) = (   0.4000000   0.1000000   0.4965753  )
        24           O2  tau(  24) = (   0.1000000   0.4000000   0.4965753  )
        25           O2  tau(  25) = (   0.1500000   0.6500000   0.0000000  )
        26           O2  tau(  26) = (  -0.1500000   0.3500000   0.0000000  )
        27           O2  tau(  27) = (   0.4000000   0.6000000   0.1655251  )
        28           O2  tau(  28) = (   0.1000000   0.9000000   0.1655251  )
        29           O2  tau(  29) = (   0.1500000   0.6500000   0.3310502  )
        30           O2  tau(  30) = (  -0.1500000   0.3500000   0.3310502  )
        31           O2  tau(  31) = (   0.4000000   0.6000000   0.4965753  )
        32           O2  tau(  32) = (   0.1000000   0.9000000   0.4965753  )
        33           O2  tau(  33) = (   0.6500000   0.1500000   0.0000000  )
        34           O2  tau(  34) = (   0.3500000  -0.1500000   0.0000000  )
        35           O2  tau(  35) = (   0.9000000   0.1000000   0.1655251  )
        36           O2  tau(  36) = (   0.6000000   0.4000000   0.1655251  )
        37           O2  tau(  37) = (   0.6500000   0.1500000   0.3310502  )
        38           O2  tau(  38) = (   0.3500000  -0.1500000   0.3310502  )
        39           O2  tau(  39) = (   0.9000000   0.1000000   0.4965753  )
        40           O2  tau(  40) = (   0.6000000   0.4000000   0.4965753  )
        41           O2  tau(  41) = (   0.6500000   0.6500000   0.0000000  )
        42           O2  tau(  42) = (   0.3500000   0.3500000   0.0000000  )
        43           O2  tau(  43) = (   0.9000000   0.6000000   0.1655251  )
        44           O2  tau(  44) = (   0.6000000   0.9000000   0.1655251  )
        45           O2  tau(  45) = (   0.6500000   0.6500000   0.3310502  )
        46           O2  tau(  46) = (   0.3500000   0.3500000   0.3310502  )
        47           O2  tau(  47) = (   0.9000000   0.6000000   0.4965753  )
        48           O2  tau(  48) = (   0.6000000   0.9000000   0.4965753  )

     number of k points=    42  Methfessel-Paxton smearing, width (Ry)=  0.0100
                       cart. coord. in units 2pi/alat
        k(    1) = (   0.0000000   0.0000000   0.0000000), wk =   0.0156250
        k(    2) = (   0.0000000   0.0000000   0.3775862), wk =   0.0312500
        k(    3) = (   0.0000000   0.0000000  -0.7551724), wk =   0.0156250
        k(    4) = (   0.0000000   0.2500000   0.0000000), wk =   0.0625000
        k(    5) = (   0.0000000   0.2500000   0.3775862), wk =   0.1250000
        k(    6) = (   0.0000000   0.2500000  -0.7551724), wk =   0.0625000
        k(    7) = (   0.0000000  -0.5000000   0.0000000), wk =   0.0312500
        k(    8) = (   0.0000000  -0.5000000   0.3775862), wk =   0.0625000
        k(    9) = (   0.0000000  -0.5000000  -0.7551724), wk =   0.0312500
        k(   10) = (   0.2500000   0.2500000   0.0000000), wk =   0.0312500
        k(   11) = (   0.2500000   0.2500000   0.3775862), wk =   0.0625000
        k(   12) = (   0.2500000   0.2500000  -0.7551724), wk =   0.0312500
        k(   13) = (   0.2500000  -0.5000000   0.0000000), wk =   0.0625000
        k(   14) = (   0.2500000  -0.5000000   0.3775862), wk =   0.1250000
        k(   15) = (   0.2500000  -0.5000000  -0.7551724), wk =   0.0625000
        k(   16) = (  -0.5000000  -0.5000000   0.0000000), wk =   0.0156250
        k(   17) = (  -0.5000000  -0.5000000   0.3775862), wk =   0.0312500
        k(   18) = (  -0.5000000  -0.5000000  -0.7551724), wk =   0.0156250
        k(   19) = (  -0.2500000   0.2500000   0.0000000), wk =   0.0312500
        k(   20) = (  -0.2500000   0.2500000  -0.3775862), wk =   0.0625000
        k(   21) = (  -0.2500000   0.2500000   0.7551724), wk =   0.0312500
        k(   22) = (   0.0000000   0.0000000   0.0000000), wk =   0.0156250
        k(   23) = (   0.0000000   0.0000000   0.3775862), wk =   0.0312500
        k(   24) = (   0.0000000   0.0000000  -0.7551724), wk =   0.0156250
        k(   25) = (   0.0000000   0.2500000   0.0000000), wk =   0.0625000
        k(   26) = (   0.0000000   0.2500000   0.3775862), wk =   0.1250000
        k(   27) = (   0.0000000   0.2500000  -0.7551724), wk =   0.0625000
        k(   28) = (   0.0000000  -0.5000000   0.0000000), wk =   0.0312500
        k(   29) = (   0.0000000  -0.5000000   0.3775862), wk =   0.0625000
        k(   30) = (   0.0000000  -0.5000000  -0.7551724), wk =   0.0312500
        k(   31) = (   0.2500000   0.2500000   0.0000000), wk =   0.0312500
        k(   32) = (   0.2500000   0.2500000   0.3775862), wk =   0.0625000
        k(   33) = (   0.2500000   0.2500000  -0.7551724), wk =   0.0312500
        k(   34) = (   0.2500000  -0.5000000   0.0000000), wk =   0.0625000
        k(   35) = (   0.2500000  -0.5000000   0.3775862), wk =   0.1250000
        k(   36) = (   0.2500000  -0.5000000  -0.7551724), wk =   0.0625000
[...]
  0.854  0.873  0.888
    eigenvectors:
  0.000  0.000  1.000
  0.500  0.500  0.000
  0.500  0.500  0.000
    occupations:
  0.888 -0.000 -0.000
 -0.000  0.863  0.010
 -0.000  0.010  0.863
   spin  2
    eigenvalues:
  0.888  0.899  0.909
    eigenvectors:
  0.000  1.000  0.000
  0.500  0.000  0.500
  0.500  0.000  0.500
    occupations:
  0.899 -0.000 -0.000
 -0.000  0.899 -0.011
 -0.000 -0.011  0.899
atomic mag. moment =    -0.081681
atom   42   Tr[ns(na)] (up, down, total) =   2.61442  2.69610  5.31052
   spin  1
    eigenvalues:
  0.854  0.873  0.888
    eigenvectors:
  0.000  0.000  1.000
  0.500  0.500  0.000
  0.500  0.500  0.000
    occupations:
  0.888 -0.000 -0.000
 -0.000  0.863  0.010
 -0.000  0.010  0.863
   spin  2
    eigenvalues:
  0.888  0.899  0.909
    eigenvectors:
  0.000  1.000  0.000
  0.500  0.000  0.500
  0.500  0.000  0.500
    occupations:
  0.899 -0.000 -0.000
 -0.000  0.899 -0.011
 -0.000 -0.011  0.899
atomic mag. moment =    -0.081681
atom   43   Tr[ns(na)] (up, down, total) =   2.61438  2.69607  5.31045
   spin  1
    eigenvalues:
  0.854  0.873  0.888
    eigenvectors:
  0.000  0.000  1.000
  0.500  0.500  0.000
  0.500  0.500  0.000
    occupations:
  0.888 -0.000 -0.000
 -0.000  0.863 -0.010
 -0.000 -0.010  0.863
   spin  2
    eigenvalues:
  0.888  0.899  0.909
    eigenvectors:
  0.000  1.000  0.000
  0.500  0.000  0.500
  0.500  0.000  0.500
    occupations:
  0.899  0.000  0.000
  0.000  0.899  0.011
  0.000  0.011  0.899
atomic mag. moment =    -0.081694
atom   44   Tr[ns(na)] (up, down, total) =   2.61438  2.69607  5.31045
   spin  1
    eigenvalues:
  0.854  0.873  0.888
    eigenvectors:
  0.000  0.000  1.000
  0.500  0.500  0.000
  0.500  0.500  0.000
    occupations:
  0.888 -0.000 -0.000
 -0.000  0.863 -0.010
 -0.000 -0.010  0.863
   spin  2
    eigenvalues:
  0.888  0.899  0.909
    eigenvectors:
  0.000  1.000  0.000
  0.500  0.000  0.500
  0.500  0.000  0.500
    occupations:
  0.899  0.000  0.000
  0.000  0.899  0.011
  0.000  0.011  0.899
atomic mag. moment =    -0.081694
atom   45   Tr[ns(na)] (up, down, total) =   2.61431  2.69607  5.31038
   spin  1
    eigenvalues:
  0.854  0.873  0.888
    eigenvectors:
  0.000  0.000  1.000
  0.500  0.500  0.000
  0.500  0.500  0.000
    occupations:
  0.888 -0.000 -0.000
 -0.000  0.863  0.010
 -0.000  0.010  0.863
   spin  2
    eigenvalues:
  0.888  0.899  0.909
    eigenvectors:
  0.000  1.000  0.000
  0.500  0.000  0.500
  0.500  0.000  0.500
    occupations:
  0.899 -0.000 -0.000
 -0.000  0.899 -0.011
 -0.000 -0.011  0.899
atomic mag. moment =    -0.081766
atom   46   Tr[ns(na)] (up, down, total) =   2.61431  2.69607  5.31038
   spin  1
    eigenvalues:
  0.854  0.873  0.888
    eigenvectors:
  0.000  0.000  1.000
  0.500  0.500  0.000
  0.500  0.500  0.000
    occupations:
  0.888 -0.000 -0.000
 -0.000  0.863  0.010
 -0.000  0.010  0.863
   spin  2
    eigenvalues:
  0.888  0.899  0.909
    eigenvectors:
  0.000  1.000  0.000
  0.500  0.000  0.500
  0.500  0.000  0.500
    occupations:
  0.899 -0.000 -0.000
 -0.000  0.899 -0.011
 -0.000 -0.011  0.899
atomic mag. moment =    -0.081766
atom   47   Tr[ns(na)] (up, down, total) =   2.61438  2.69607  5.31045
   spin  1
    eigenvalues:
  0.854  0.873  0.888
    eigenvectors:
  0.000  0.000  1.000
  0.500  0.500  0.000
  0.500  0.500  0.000
    occupations:
  0.888  0.000  0.000
  0.000  0.863 -0.010
  0.000 -0.010  0.863
   spin  2
    eigenvalues:
  0.888  0.899  0.909
    eigenvectors:
  0.000  1.000  0.000
  0.500  0.000  0.500
  0.500  0.000  0.500
    occupations:
  0.899 -0.000 -0.000
 -0.000  0.899  0.011
 -0.000  0.011  0.899
atomic mag. moment =    -0.081694
atom   48   Tr[ns(na)] (up, down, total) =   2.61438  2.69607  5.31045
   spin  1
    eigenvalues:
  0.854  0.873  0.888
    eigenvectors:
  0.000  0.000  1.000
  0.500  0.500  0.000
  0.500  0.500  0.000
    occupations:
  0.888  0.000  0.000
  0.000  0.863 -0.010
  0.000 -0.010  0.863
   spin  2
    eigenvalues:
  0.888  0.899  0.909
    eigenvectors:
  0.000  1.000  0.000
  0.500  0.000  0.500
  0.500  0.000  0.500
    occupations:
  0.899 -0.000 -0.000
 -0.000  0.899  0.011
 -0.000  0.011  0.899
atomic mag. moment =    -0.081694
N of occupied +U levels = 245.6958576
 --- exit write_ns ---

 ------ SPIN UP ------------

          k = 0.0000 0.0000 0.0000 ( 12779 PWs)   bands (ev):

   -62.3599 -62.3000 -62.2974 -62.2974 -62.2972 -62.2972 -62.2971 -62.2947
   -62.2891 -62.2828 -62.2828 -62.2828 -62.2826 -62.2826 -62.2825 -62.2825
   -33.7469 -33.7037 -33.6939 -33.6916 -33.6900 -33.6882 -33.6852 -33.6852
   -33.6841 -33.6831 -33.6829 -33.6828 -33.6738 -33.6738 -33.6701 -33.6700
   -33.6694 -33.6578 -33.6578 -33.6575 -33.6474 -33.6456 -33.6438 -33.6434
   -33.6263 -33.5771 -33.5770 -33.5768 -33.5730 -33.5699 -33.5688 -33.5682
   -33.5568 -33.5468 -33.5468 -33.5462 -33.5460 -33.5457 -33.5456 -33.5453
   -33.5130 -33.4927 -33.4853 -33.4853 -33.4852 -33.4851 -33.4851 -33.4769
    -8.7523  -7.8407  -7.8401  -7.8400  -7.8399  -7.7559  -7.7548  -7.1529
    -7.1524  -7.1294  -7.1293  -7.1288  -7.1274  -6.9660  -6.9653  -6.9558
    -6.8954  -6.8941  -6.7568  -6.7564  -6.7560  -6.7559  -6.7476  -6.7464
    -6.7236  -6.7236  -6.6476  -6.6473  -6.6472  -6.6458  -6.5066  -6.5065
     3.3910   3.7492   3.7505   4.0539   4.2947   4.2947   4.2949   4.2968
     4.4861   4.4968   4.4977   4.4980   4.4996   4.5623   4.5632   4.5632
     4.5641   4.7787   4.7803   5.3686   5.3686   5.3698   5.3700   5.6801
     5.6813   5.6981   5.6999   5.7711   5.7723   5.8507   5.8511   5.8823
     5.8824   5.8824   5.8854   5.9378   5.9390   6.1469   6.1471   6.1472
     6.1479   6.2449   6.2452   6.2462   6.2462   6.5083   6.5085   6.5088
     6.5099   6.8890   6.8903   6.9391   6.9405   7.1211   7.1213   7.1318
     7.1331   7.2416   7.2420   7.3408   7.3411   7.3411   7.3416   7.3724
     7.3738   7.5744   7.5746   7.5752   7.5759   7.6395   7.8254   7.8261
     7.8261   7.8276   8.3206   8.3216   8.4909   8.4916   8.6014   8.6019
     8.9670   8.9671   9.2356   9.2357   9.2357   9.2358   9.5101   9.5506
     9.5511   9.5750   9.5752   9.5753   9.5754   9.6133   9.7150   9.7160
     9.8118   9.8119   9.8129   9.8134   9.9421   9.9422   9.9986  10.0498
    10.1081  10.1088  10.1346  10.1353  10.4320  10.4323  10.4324  10.4333
    10.5290  10.6015  10.6017  10.6059  10.6059  10.6064  10.6065  10.6066
    10.6079  11.0202  11.0204  11.0206  11.0210  11.0901  11.0903  11.2523
    11.2523  11.3303  11.3304  11.6126  11.6128  11.6129  11.6129  12.0187
    12.0190  12.2023  12.2027  12.2359  12.2360  12.2364  12.2364  12.5252
    12.5375  12.9544  12.9545  12.9548  12.9550  13.8998  13.9007  14.1726
    14.1735  14.1825  14.1832  14.1860  14.1867  14.5224  14.5235  14.6347
    14.6365  14.6366  14.6367  14.7587  14.7609  14.7610  14.7611  14.9767
    14.9775  15.0003  15.0011  15.6982  15.6993  15.7000  15.7001  16.2110
    18.9358  21.2888  21.2891  21.2900  21.2902  22.0827  22.0833  22.5279
    22.5284  22.6438  22.6444  23.5140  23.5142  23.5147  23.5150  23.5693
    23.5695  23.8554  23.8569  23.8863  23.8873  23.8874  23.8884  24.6667
    24.6669  25.1215  25.2197  25.2199  25.2205  25.2208  25.8262  25.8266
    26.1075  26.1079  26.1218  26.1560  26.1562  26.5550  26.5559  26.6380
    26.7826  26.7829  26.7832  26.7836  27.3012  27.3013  27.3021  27.3021
    27.6190  27.6204  27.7838  27.7842  27.7844  27.7854  28.1076  28.1093
    28.3896  28.3916  28.3936  28.3936  28.4838  28.4857  28.4894  28.4898
    28.4911  28.4916  28.7649  28.7654  28.9448  28.9453  28.9463  28.9465
    29.1732  29.4434  29.4444  29.5437  29.5443  30.2609  30.2625  30.3649
    30.4264  30.5556  30.5564  30.6625  30.6635  30.6649  30.6653  30.6702
    30.6708  32.5091  32.5092  32.5100  32.5101  32.8402  32.8455  32.8458
    32.8460  32.8651  32.8671  32.9193  32.9210  33.1080  33.1085  33.1966
    33.1974  34.1390  34.1393  34.1396  34.1410  34.4212  34.9402  34.9415
    34.9417  34.9418  35.2669  35.2679  35.4228  35.4253  35.7308  36.0644
    36.0648  36.8083  36.8102  36.8412  36.8429  37.0146  37.0147  37.3481
    37.3495  37.3499  37.3504  37.5311  37.8273  37.8280  37.8590  37.8597
    37.8602  37.8606  37.8796  38.3432  38.3446  38.9121  38.9143  38.9144
    38.9147  38.9623  38.9626  38.9634  38.9640  39.0789  39.0793  39.1361
    39.1368  39.1670  39.1687  39.1694  39.1697  39.5238  39.5251  39.5253
    39.5258  39.6338  39.6340  39.8569  40.2602  40.2608  40.5321  40.5322
    40.5322  40.5329  41.2127  41.4805  41.4807  41.8825  41.8838  42.2779
    42.3114  42.3121  42.3816  42.3816  42.3820  42.3822  42.9635  42.9653
    42.9657  42.9660  43.6776  43.6798  43.6803  43.6806  43.9663  43.9665
    44.4325  44.4333  44.5217  44.5221  44.6039  44.6042  44.6391  44.7209
    44.7212  44.7213  44.7220  45.1083  45.1102  45.1666  45.1676  45.1681
    45.1684  45.5978  45.5980  45.7606  45.7630  45.7637  45.7639  46.4809
    46.4816  46.4823  46.8878  46.8879  47.1917  47.1920  47.2009  47.2021
    47.2032  47.2034  47.4217  47.4230  47.6369  47.6369  47.6376  47.6383
    48.0733  48.0746  48.2378  48.2388  48.2406  48.2409  48.4354  48.4370
    48.6052  48.7937  48.7943  49.2329  49.2334  49.2874  49.2882  49.2883
    49.2884  49.5503  49.5507  49.5511  49.5515  49.6635  49.7588  49.7607
    49.7740  49.7744  50.2917  50.2929  50.2934  50.2942  50.3552  50.3561
    50.3713  50.3720  51.0359  51.0374  51.0376  51.0381  51.2526  51.2531
    51.5506  51.6529  51.6536  51.6544  51.6545  51.6893  51.6904  51.8932
    51.8934  51.9884  51.9895  52.3177  52.3188  52.6519  52.6537  52.6543
    52.6544  52.7340  52.7355  52.7362  52.7365  52.9912  53.0069  53.0070
    53.1225  53.1238  53.1239  53.1248  53.6622  53.6628  53.6632  53.6728
    53.6743  53.6743  53.6746  53.7760  53.7762  53.7767  53.7768  54.0083
    54.0105  54.3244  54.3260  54.3931  54.3945  54.4007  54.4013  54.5086
    54.5093  54.7072  54.7095  54.7103  54.7105  55.0368  55.2320  55.2337

[...]

          k =-0.5000-0.5000 0.0000 ( 12832 PWs)   bands (ev):

[...]

 ------ SPIN DOWN ----------

[...]

          k = 0.2500-0.5000-0.7552 ( 12816 PWs)   bands (ev):

[...]

          k =-0.2500 0.2500 0.7552 ( 12844 PWs)   bands (ev):

   -60.0394 -59.9752 -59.9751 -59.9741 -59.9740 -59.9738 -59.9738 -59.9734
   -59.9730 -59.9726 -59.9725 -59.9723 -59.9722 -59.9720 -59.9712 -59.9709
   -31.7036 -31.6401 -31.6399 -31.6394 -31.6393 -31.6391 -31.6390 -31.6388
   -31.6388 -31.6388 -31.6387 -31.6385 -31.6384 -31.6383 -31.6382 -31.6382
   -31.3339 -31.2719 -31.2718 -31.2716 -31.2716 -31.2709 -31.2707 -31.2707
   -31.2706 -31.2706 -31.2703 -31.2703 -31.2695 -31.2694 -31.2691 -31.2691
   -31.1724 -31.1168 -31.1160 -31.1125 -31.1124 -31.1123 -31.1118 -31.1113
   -31.1100 -31.1091 -31.1081 -31.1071 -31.1070 -31.1069 -31.1045 -31.1039
    -8.1096  -8.1090  -7.7560  -7.7552  -7.7552  -7.7549  -7.5552  -7.5550
    -7.3161  -7.3158  -7.2206  -7.2205  -7.2200  -7.2198  -6.8837  -6.8827
    -6.8500  -6.8493  -6.8447  -6.8439  -6.8267  -6.8265  -6.8263  -6.8253
    -6.7940  -6.7929  -6.7716  -6.7714  -6.7714  -6.7703  -6.7190  -6.7182
     4.5977   4.5978   4.6299   4.6300   4.9375   4.9384   4.9385   4.9389
     4.9423   4.9431   5.1416   5.1429   5.1683   5.1699   5.2533   5.2547
     5.3371   5.3376   5.3381   5.3389   5.3529   5.3530   5.4177   5.4188
     5.4193   5.4202   5.7407   5.7407   5.7408   5.7425   5.8120   5.8126
     6.1375   6.1377   6.1833   6.1841   6.1843   6.1855   6.3531   6.3538
     6.6914   6.6919   6.6920   6.6922   6.8146   6.8148   6.8416   6.8421
     6.8424   6.8428   7.1378   7.1383   7.2332   7.2334   7.4256   7.4258
     7.4259   7.4260   7.5480   7.5485   7.7030   7.7039   7.7039   7.7045
     7.7141   7.7149   7.8326   7.8327   8.0435   8.0442   8.1142   8.1149
     8.3260   8.3261   8.4841   8.4844   8.4847   8.4849   8.5850   8.5861
     8.7386   8.7393   8.9124   8.9125   9.0734   9.0735   9.0737   9.0738
     9.1028   9.1030   9.4577   9.4579   9.4581   9.4581   9.5996   9.5997
    12.0871  12.0877  12.2767  12.2768  12.2771  12.2790  12.5337  12.5349
    12.7533  12.7534  12.7535  12.7556  12.7781  12.7782  12.8302  12.8303
    13.0572  13.0572  13.1137  13.1143  13.1628  13.1640  13.1693  13.1693
    13.1693  13.1747  13.2014  13.2023  13.2305  13.2314  13.2441  13.2457
    13.3614  13.3616  13.3617  13.3618  13.4166  13.4171  13.5422  13.5422
    13.5423  13.5427  13.6386  13.6386  13.6389  13.6390  13.8404  13.8405
    14.6310  14.6313  14.6316  14.6316  14.8277  14.8277  15.0486  15.0496
    15.0496  15.0497  15.0559  15.0564  15.2480  15.2481  15.5161  15.5163
    15.5188  15.5190  15.7217  15.7228  15.8711  15.8716  15.8721  15.8721
    16.1445  16.1447  16.5358  16.5376  16.5378  16.5378  16.6397  16.6404
    21.0914  21.0923  22.0486  22.0496  22.0499  22.0502  22.5981  22.5986
    23.3296  23.3308  23.4332  23.4345  23.4345  23.4348  24.4402  24.4407
    24.5842  24.5862  25.0622  25.0636  25.3387  25.3392  25.3396  25.3401
    25.7507  25.7516  25.9340  25.9355  26.2287  26.2301  26.2302  26.2304
    26.3116  26.3126  26.4028  26.4041  26.4967  26.4968  26.5582  26.5595
    26.5603  26.5604  26.9415  26.9423  26.9426  26.9433  27.7322  27.7333
    28.1000  28.1018  28.1024  28.1026  28.1544  28.1546  28.4360  28.4363
    28.8107  28.8118  28.9140  28.9167  28.9173  28.9176  29.0385  29.0394
    29.0398  29.0400  29.1121  29.1125  29.2406  29.2420  29.4889  29.4901
    29.7756  29.7764  30.1028  30.1045  30.1048  30.1051  30.3566  30.3573
    30.3977  30.4004  30.8052  30.8069  30.8073  30.8084  31.2198  31.2200
    31.7809  31.7837  31.7839  31.7840  31.8770  31.8797  32.8142  32.8155
    33.1726  33.1727  33.1732  33.1743  33.6739  33.6761  33.7675  33.7686
    34.8975  34.8983  35.4682  35.4685  35.4690  35.4700  35.7773  35.7784
    35.8086  35.8098  35.8840  35.8844  36.7572  36.7572  36.8593  36.8596
    36.8596  36.8597  37.1736  37.1747  37.2383  37.2388  37.4458  37.4477
    37.4479  37.4480  38.0256  38.0260  38.0260  38.0262  38.2551  38.2565
    38.2586  38.2593  38.2600  38.2604  38.5482  38.5492  38.6591  38.6594
    39.3960  39.3970  39.4346  39.4347  39.4350  39.4355  39.8882  39.8890
    39.8899  39.8903  40.0342  40.0344  40.4567  40.4569  40.6570  40.6576
    40.6619  40.6620  40.6627  40.6635  40.9553  40.9553  41.0463  41.0463
    41.0478  41.0479  41.8610  41.8610  41.8614  41.8616  42.1877  42.1881
    42.4955  42.4956  42.4959  42.4961  42.6607  42.6613  43.3521  43.3523
    43.8540  43.8542  43.8542  43.8550  44.0312  44.0313  44.1216  44.1227
    44.5330  44.5331  44.6251  44.6256  44.9618  44.9622  44.9630  44.9630
    45.1615  45.1617  45.6011  45.6018  45.6019  45.6021  46.0457  46.0468
    46.8408  46.8422  46.8672  46.8684  46.8687  46.8689  47.1455  47.1472
    47.4018  47.4019  47.5250  47.5256  48.0503  48.0510  48.3370  48.3378
    48.3386  48.3387  48.3594  48.3600  48.3601  48.3611  48.4018  48.4020
    48.5560  48.5570  48.8728  48.8731  48.8743  48.8746  48.9912  48.9914
    49.4322  49.4328  49.7027  49.7032  49.9452  49.9459  49.9460  49.9460
    50.0427  50.0428  50.2005  50.2012  50.2020  50.2026  50.5719  50.5720
    50.7295  50.7304  50.8813  50.8816  50.8828  50.8830  50.8902  50.8908
    51.2137  51.2138  51.2140  51.2140  51.3171  51.3172  51.3581  51.3587
    51.4421  51.4427  51.6955  51.6980  51.6987  51.6989  51.9027  51.9040
    51.9041  51.9042  52.0163  52.0174  52.0266  52.0280  52.1468  52.1470
    52.5431  52.5439  52.6103  52.6110  52.6110  52.6110  52.6252  52.6256
    52.6355  52.6359  52.7746  52.7748  52.8133  52.8137  52.9524  52.9532
    52.9541  52.9546  53.4926  53.4934  53.4935  53.4936  53.6919  53.6940
    54.0847  54.0854  54.4121  54.4131  54.4136  54.4137  54.5558  54.5570
    54.5573  54.5575  54.8089  54.8106  54.9904  54.9912  55.0076  55.0088

     the Fermi energy is    11.2597 ev

!    total energy              =   -3849.30828579 Ry
     Harris-Foulkes estimate   =   -3849.30828604 Ry
     estimated scf accuracy    <       0.00000029 Ry

     The total energy is the sum of the following terms:

     one-electron contribution =   -1589.06712759 Ry
     hartree contribution      =    1012.64040597 Ry
     xc contribution           =    -596.48503470 Ry
     ewald contribution        =   -2676.42062880 Ry
     Hubbard energy            =       0.02431756 Ry
     smearing contrib. (-TS)   =      -0.00021823 Ry

     total magnetization       =    32.00 Bohr mag/cell
     absolute magnetization    =    36.72 Bohr mag/cell

     convergence has been achieved in  10 iterations

     Writing output data file pwscf.save

     General routines

     Parallel routines
     Hubbard U routines

   This run was terminated on:   1:15:49  15Feb2014

   JOB DONE.