     Program PWSCF v.5.0.2 (svn rev. 9656) starts on 12May2014 at  8:38:29

     Current dimensions of program PWSCF are:
     Max number of different atomic species (ntypx) = 10
     Max number of k-points (npk) =  40000
     Max angular momentum in pseudopotentials (lmaxx) =  3
     Reading input from pwscf.in
Warning: card &CELL ignored
Warning: card / ignored

     Subspace diagonalization in iterative solution of the eigenvalue problem:
     a serial algorithm will be used

     bravais-lattice index     =            0
     lattice parameter (alat)  =      10.7336  a.u.
     unit-cell volume          =    8441.1435 (a.u.)^3
     number of atoms/cell      =           51
     number of atomic types    =            3
     number of electrons       =       445.00
     number of Kohn-Sham states=          643
     kinetic-energy cutoff     =      40.0000  Ry
     charge density cutoff     =     500.0000  Ry
     convergence threshold     =      1.0E-06
     mixing beta               =       0.3000
     number of iterations used =            8  plain     mixing
     Exchange-correlation      = SLA  PW   PBE  PBE ( 1 4 3 4 0)
     EXX-fraction              =        0.00
     nstep                     =           50

     celldm(1)=  10.733644  celldm(2)=   0.000000  celldm(3)=   0.000000
     celldm(4)=   0.000000  celldm(5)=   0.000000  celldm(6)=   0.000000

     crystal axes: (cart. coord. in units of alat)
               a(1) = (   1.000000   0.000000   0.000000 )
               a(2) = (   0.000000   1.085558   0.000000 )
               a(3) = (   0.000000   0.000000   6.287913 )

     reciprocal axes: (cart. coord. in units 2 pi/alat)
               b(1) = (  1.000000  0.000000  0.000000 )
               b(2) = (  0.000000  0.921185  0.000000 )
               b(3) = (  0.000000  0.000000  0.159035 )

     PseudoPot. # 1 for O  read from file:
     /home/camp/zhonxu/pseudo/o_pbe_v1.01.uspp.F.UPF
     MD5 check sum: 2bcb18d16ea4b960afae9ec6d52f22d2
     Pseudo is Ultrasoft + core correction, Zval =  6.0
     Generated by new atomic code, or converted to UPF format
     Using radial grid of  737 points,  5 beta functions with:
                l(1) =   0
                l(2) =   0
                l(3) =   1
                l(4) =   1
                l(5) =   2
     Q(r) pseudized with  8 coefficients,  rinner =    0.900   0.900   0.900
                                                       0.900   0.900

     PseudoPot. # 2 for Mn read from file:
     /home/camp/zhonxu/pseudo/mn_pbe_v1.uspp.F.UPF
     MD5 check sum: 5fd7c7b5c956fd19902447332617373a
     Pseudo is Ultrasoft + core correction, Zval = 15.0
     Generated by new atomic code, or converted to UPF format
     Using radial grid of  859 points,  6 beta functions with:
                l(1) =   0
                l(2) =   0
                l(3) =   1
                l(4) =   1
                l(5) =   2
                l(6) =   2
     Q(r) pseudized with  6 coefficients,  rinner =    1.150   1.150   1.150
                                                       1.150   1.150

     PseudoPot. # 3 for H  read from file:
     /home/camp/zhonxu/pseudo/h_pbe_v1.uspp.F.UPF
     MD5 check sum: 3408e3ff4ec8b0a4e358431e7e038a48
     Pseudo is Ultrasoft, Zval =  1.0
     Generated by new atomic code, or converted to UPF format
     Using radial grid of  615 points,  2 beta functions with:
                l(1) =   0
                l(2) =   0
     Q(r) pseudized with  8 coefficients,  rinner =    0.700

     atomic species   valence    mass     pseudopotential
        O0             6.00    15.99940     O ( 1.00)
        Mn1           15.00    54.93800     Mn( 1.00)
        H2             1.00     1.00794     H ( 1.00)

     Starting magnetic structure
     atomic species   magnetization
        O0           0.000
        Mn1          0.600
        H2           0.000

      2 Sym. Ops. (no inversion) found

   Cartesian axes

     site n.     atom                  positions (alat units)
         1           O0  tau(   1) = (   0.0000000   0.5427791   2.1126758  )
         2           Mn1 tau(   2) = (   0.2500000   0.5427791   2.3297975  )
         3           Mn1 tau(   3) = (   0.0000000   0.0000000   2.3297975  )
         4           O0  tau(   4) = (   0.2500000   0.8684466   2.3297975  )
         5           O0  tau(   5) = (   0.2500000   0.2171117   2.3297975  )
         6           O0  tau(   6) = (   0.0000000   0.5427791   2.5469191  )
         7           O0  tau(   7) = (   0.0000000   0.0000000   2.6554485  )
         8           Mn1 tau(   8) = (   0.2500000   0.0000000   2.8725701  )
         9           Mn1 tau(   9) = (   0.0000000   0.5427791   2.8725701  )
        10           O0  tau(  10) = (   0.2500000   0.7598908   2.8725701  )
        11           O0  tau(  11) = (   0.2500000   0.3256675   2.8725701  )
        12           O0  tau(  12) = (   0.0000000   0.0000000   3.0896918  )
        13           O0  tau(  13) = (   0.0000000   0.5427791   3.2135008  )
        14           Mn1 tau(  14) = (   0.2500000   0.5427791   3.4260951  )
        15           Mn1 tau(  15) = (   0.0000000   0.0000000   3.4385452  )
        16           O0  tau(  16) = (   0.2500000   0.8725500   3.4318171  )
        17           O0  tau(  17) = (   0.2500000   0.2130082   3.4318171  )
        18           O0  tau(  18) = (   0.0000000   0.5427791   3.6504478  )
        19           O0  tau(  19) = (   0.0000000   0.0000000   3.7729364  )
        20           Mn1 tau(  20) = (   0.2500000   0.0000000   4.0049603  )
        21           Mn1 tau(  21) = (   0.0000000   0.5427791   3.9730178  )
        22           O0  tau(  22) = (   0.2500000   0.7495129   4.0272824  )
        23           O0  tau(  23) = (   0.2500000   0.3360454   4.0272824  )
        24           O0  tau(  24) = (   0.0000000   0.0000000   4.2046645  )
        25           O0  tau(  25) = (   0.5000000   0.5427791   2.1126758  )
        26           Mn1 tau(  26) = (   0.7500000   0.5427791   2.3297975  )
        27           Mn1 tau(  27) = (   0.5000000   0.0000000   2.3297975  )
        28           O0  tau(  28) = (   0.7500000   0.8684466   2.3297975  )
        29           O0  tau(  29) = (   0.7500000   0.2171117   2.3297975  )
        30           O0  tau(  30) = (   0.5000000   0.5427791   2.5469191  )
        31           O0  tau(  31) = (   0.5000000   0.0000000   2.6554485  )
        32           Mn1 tau(  32) = (   0.7500000   0.0000000   2.8725701  )
        33           Mn1 tau(  33) = (   0.5000000   0.5427791   2.8725701  )
        34           O0  tau(  34) = (   0.7500000   0.7598908   2.8725701  )
        35           O0  tau(  35) = (   0.7500000   0.3256675   2.8725701  )
        36           O0  tau(  36) = (   0.5000000   0.0000000   3.0896918  )
        37           O0  tau(  37) = (   0.5000000   0.5427791   3.2135008  )
        38           Mn1 tau(  38) = (   0.7500000   0.5427791   3.4260951  )
        39           Mn1 tau(  39) = (   0.5000000   0.0000000   3.4385452  )
        40           O0  tau(  40) = (   0.7500000   0.8725500   3.4318171  )
        41           O0  tau(  41) = (   0.7500000   0.2130082   3.4318171  )
        42           O0  tau(  42) = (   0.5000000   0.5427791   3.6504478  )
        43           O0  tau(  43) = (   0.5000000   0.0000000   3.7729364  )
        44           Mn1 tau(  44) = (   0.7500000   0.0000000   4.0049603  )
        45           Mn1 tau(  45) = (   0.5000000   0.5427791   3.9730178  )
        46           O0  tau(  46) = (   0.7500000   0.7495129   4.0272824  )
        47           O0  tau(  47) = (   0.7500000   0.3360454   4.0272824  )
        48           O0  tau(  48) = (   0.5000000   0.0000000   4.2046645  )
        49           O0  tau(  49) = (   0.5000000   0.5427791   4.3251409  )
        50           O0  tau(  50) = (   0.5000000   0.3376738   4.4459317  )
        51           H2  tau(  51) = (   0.5000000   0.3898023   4.6126243  )

     number of k points=    18  Methfessel-Paxton smearing, width (Ry)=  0.0100
                       cart. coord. in units 2pi/alat
        k(    1) = (   0.0000000   0.0000000   0.0000000), wk =   0.0625000
        k(    2) = (   0.0000000   0.2302962   0.0000000), wk =   0.1250000
        k(    3) = (   0.0000000  -0.4605925   0.0000000), wk =   0.0625000
        k(    4) = (   0.2500000   0.0000000   0.0000000), wk =   0.1250000
        k(    5) = (   0.2500000   0.2302962   0.0000000), wk =   0.2500000
        k(    6) = (   0.2500000  -0.4605925   0.0000000), wk =   0.1250000
        k(    7) = (  -0.5000000   0.0000000   0.0000000), wk =   0.0625000
        k(    8) = (  -0.5000000   0.2302962   0.0000000), wk =   0.1250000
        k(    9) = (  -0.5000000  -0.4605925   0.0000000), wk =   0.0625000
        k(   10) = (   0.0000000   0.0000000   0.0000000), wk =   0.0625000
        k(   11) = (   0.0000000   0.2302962   0.0000000), wk =   0.1250000
        k(   12) = (   0.0000000  -0.4605925   0.0000000), wk =   0.0625000
        k(   13) = (   0.2500000   0.0000000   0.0000000), wk =   0.1250000
        k(   14) = (   0.2500000   0.2302962   0.0000000), wk =   0.2500000
        k(   15) = (   0.2500000  -0.4605925   0.0000000), wk =   0.1250000
        k(   16) = (  -0.5000000   0.0000000   0.0000000), wk =   0.0625000
        k(   17) = (  -0.5000000   0.2302962   0.0000000), wk =   0.1250000
        k(   18) = (  -0.5000000  -0.4605925   0.0000000), wk =   0.0625000

     Largest allocated arrays     est. size (Mb)     dimensions
     Largest temporary arrays     est. size (Mb)     dimensions

     Check: negative/imaginary core charge=   -0.000029    0.000000

     Initial potential from superposition of free atoms
     Check: negative starting charge=(component1):   -0.000910
     Check: negative starting charge=(component2):   -0.000289

     starting charge  428.99981, renormalised to  445.00000

     negative rho (up, down):  0.944E-03 0.300E-03
     Starting wfc are  345 randomized atomic wfcs

     Self-consistent Calculation

     iteration #  1     ecut=    40.00 Ry     beta=0.30
     Davidson diagonalization with overlap
     ethr =  1.00E-02,  avg # of iterations =  5.8

     negative rho (up, down):  0.768E-03 0.538E-03

     total energy              =   -4249.97165565 Ry
     Harris-Foulkes estimate   =   -4507.72041297 Ry
     estimated scf accuracy    <     528.46800338 Ry

     total magnetization       =    63.95 Bohr mag/cell
     absolute magnetization    =    67.94 Bohr mag/cell

[...]

     End of self-consistent calculation

 ------ SPIN UP ------------

          k = 0.0000 0.0000 0.0000 ( 36065 PWs)   bands (ev):

   -81.8971 -81.8869 -81.8755 -81.8029 -81.8008 -81.7919 -81.7918 -81.7894
   -81.7802 -81.7594 -81.7045 -81.6943 -81.3978 -81.3968 -81.3876 -81.3864
   -50.7293 -50.6768 -50.6442 -50.6362 -50.6277 -50.6089 -50.5564 -50.5399
   -50.5361 -50.5195 -50.5152 -50.5087 -50.5052 -50.5050 -50.5041 -50.4879
   -50.4842 -50.4708 -50.4702 -50.4609 -50.4492 -50.4409 -50.4403 -50.4288
   -50.4239 -50.4194 -50.4179 -50.4117 -50.3815 -50.3710 -50.3580 -50.3453
[...]
O0       0.250000000   0.309560000   0.640480000    0   0   0
O0       0.000000000   0.000000000   0.668690000    0   0   0
O0       0.500000000   0.500000000   0.335990000    0   0   0
Mn1      0.750000000   0.500000000   0.370520000    0   0   0
Mn1      0.500000000   0.000000000   0.370520000    0   0   0
O0       0.750000000   0.800000000   0.370520000    0   0   0
O0       0.750000000   0.200000000   0.370520000    0   0   0
O0       0.500000000   0.500000000   0.405050000    0   0   0
O0       0.500000000   0.000000000   0.422310000    0   0   0
Mn1      0.750000000   0.000000000   0.456840000    0   0   0
Mn1      0.500000000   0.500000000   0.456840000    0   0   0
O0       0.750000000   0.700000000   0.456840000    0   0   0
O0       0.750000000   0.300000000   0.456840000    0   0   0
O0       0.500000000   0.000000000   0.491370000    0   0   0
O0       0.500000000   0.500000000   0.511060000    0   0   0
Mn1      0.750000000   0.500000000   0.544870000    0   0   0
Mn1      0.500000000   0.000000000   0.546850000    0   0   0
O0       0.750000000   0.803780000   0.545780000    0   0   0
O0       0.750000000   0.196220000   0.545780000    0   0   0
O0       0.500000000   0.500000000   0.580550000    0   0   0
O0       0.500000000   0.000000000   0.600030000    0   0   0
Mn1      0.750000000   0.000000000   0.636930000    0   0   0
Mn1      0.500000000   0.500000000   0.631850000    0   0   0
O0       0.750000000   0.690440000   0.640480000    0   0   0
O0       0.750000000   0.309560000   0.640480000    0   0   0
O0       0.500000000   0.000000000   0.668690000    0   0   0
O0       0.500000000   0.500000000   0.701448329    1   0   1
O0       0.500000000   0.311060000   0.720616170    1   0   1
H2       0.500000000   0.359080000   0.747212943    1   0   1

     Check: negative starting charge=(component1):   -0.001125
     NEW-OLD atomic charge density approx. for the potential

     Check: negative/imaginary core charge=   -0.000029    0.000000
     Check: negative starting charge=(component1):   -0.001123

[...]

     Self-consistent Calculation

[...]

     Threshold (ethr) on eigenvalues was too large:
     Diagonalizing with lowered threshold

     Davidson diagonalization with overlap
     ethr =  5.98E-08,  avg # of iterations =  1.0

[...]

     total energy              =   -4504.76583839 Ry
     Harris-Foulkes estimate   =   -4504.76583840 Ry
     estimated scf accuracy    <       0.00000002 Ry

[...]

     iteration # 19     ecut=    40.00 Ry     beta=0.30
     Davidson diagonalization with overlap
     ethr =  4.83E-12,  avg # of iterations =  1.0

     negative rho (up, down):  0.299E-02 0.161E-02

     End of self-consistent calculation

 ------ SPIN UP ------------

[...]

 ------ SPIN DOWN ----------

[...]

          k = 0.2500-0.4606 0.0000 ( 36102 PWs)   bands (ev):

[...]

          k =-0.5000-0.4606 0.0000 ( 36040 PWs)   bands (ev):

   -78.3771 -78.3737 -78.3643 -78.3639 -78.3491 -78.3491 -78.2413 -78.2377
   -78.2377 -78.2376 -78.2376 -78.1631 -78.1631 -78.0642 -78.0239 -78.0178
   -47.2777 -47.2770 -47.2672 -47.2646 -47.2225 -47.2170 -47.2169 -47.1602
   -47.1597 -47.1589 -47.1566 -47.1080 -47.1080 -47.1050 -47.1050 -47.1049
   -47.1048 -47.1006 -47.0998 -47.0998 -47.0994 -47.0746 -47.0727 -47.0724
   -47.0543 -47.0497 -47.0444 -47.0406 -47.0093 -47.0093 -46.9973 -46.9966
   -46.9763 -46.9762 -46.9687 -46.9482 -46.9479 -46.9225 -46.8659 -46.8659
   -46.8488 -46.8433 -46.8372 -46.7687 -46.7684 -46.7045 -46.5987 -46.5905
   -24.4305 -18.5637 -18.5633 -18.5438 -18.5429 -18.3770 -18.3745 -18.2829
   -18.2816 -18.1926 -18.1904 -18.0203 -18.0201 -17.9701 -17.9693 -17.9315
   -17.9301 -17.6426 -17.6408 -17.5726 -17.5713 -17.4930 -17.4862 -17.4729
   -17.4717 -17.2860 -17.2843 -17.2266 -17.2154 -16.7023 -16.6807 -16.3124
   -16.3121 -16.2484  -8.4024  -6.5405  -6.2285  -6.1082  -6.1055  -5.9962
    -5.9953  -5.6644  -5.6629  -5.6205  -5.6204  -5.5318  -5.5313  -5.5303
    -5.5297  -5.5151  -5.5138  -5.4140  -5.4103  -5.3552  -5.3448  -5.3047
    -5.3035  -5.2525  -5.2511  -5.2314  -5.2281  -5.2094  -5.2091  -4.9570
    -4.9406  -4.7227  -4.7226  -4.7184  -4.6980  -4.6687  -4.6662  -4.6626
    -4.6621  -4.5164  -4.4800  -4.4676  -4.4646  -4.1925  -4.1903  -3.9919
    -3.9775  -3.8332  -3.8305  -3.7938  -3.7935  -3.7645  -3.7477  -3.7467
    -3.7073  -3.5836  -3.5821  -3.5786  -3.5753  -3.3286  -3.3244  -3.2607
    -3.2604  -3.1609  -3.1558  -3.1362  -3.1033  -3.0254  -3.0213  -2.9898
    -2.9897  -2.7210  -2.7193  -2.5849  -2.5782  -2.2978  -2.2938  -2.2431
    -2.2305  -1.8212  -1.7784  -1.6635  -1.5611  -1.5509  -1.4898  -1.4793
    -1.4389  -1.3849  -1.3488  -1.3099  -1.2937  -1.1440  -1.1240  -0.9946
    -0.9927  -0.9647  -0.8993  -0.8041  -0.7932  -0.7523  -0.7510   1.0373
     1.0801   1.0886   1.1001   1.2004   1.2148   1.2196   1.2286   1.3251
     1.3518   1.4214   1.4219   1.4719   1.4746   1.4821   1.4844   1.7281
     1.7386   1.7755   1.7760   1.8365   1.8430   1.8805   1.8886   2.0133
     2.0344   2.0781   2.0803   2.0910   2.0925   2.1333   2.1625   2.2016
     2.2124   2.2175   2.2463   2.2878   2.2889   2.3048   2.3091   2.3393
     2.3449   2.4094   2.4107   2.5052   2.5072   2.5473   2.5481   2.9732
     2.9756   3.0848   3.0939   3.1042   3.1053   3.1861   3.2118   3.2381
     3.2420   3.3879   3.4335   3.5055   3.5063   3.5283   3.5433   4.0957
     4.1018   4.1911   4.1939   4.4023   4.4077   4.4774   4.4791   4.8270
     4.8287   4.8677   4.8705   4.9034   5.0369   5.0387   5.1093   5.1112
     5.7989   6.3060   6.6572   6.7265   6.9838   7.0578   7.1317   7.1319
     7.2332   7.2973   7.5492   7.5511   7.7108   7.7817   7.9434   7.9964
     8.2206   8.3145   8.3664   8.5214   8.8297   8.8862   8.9544   9.2178
     9.5039   9.5560   9.6820  10.0119  10.2595  10.3396  10.3758  10.4287
    10.8802  10.9554  10.9814  11.0124  11.2109  11.2925  11.3717  11.3752
    11.7151  11.7516  11.8310  11.8327  12.0408  12.2304  12.2309  12.2884
    12.6828  12.7356  12.7694  12.7878  12.9144  13.1807  13.2036  13.2395
    13.4814  13.6230  13.6277  13.8766  13.8868  13.9966  14.0492  14.2001
    14.2072  14.2645  14.3381  14.4581  14.5805  14.6960  14.8007  14.8506
    14.8739  14.9495  14.9628  15.0017  15.0160  15.0266  15.0456  15.1059
    15.2614  15.2643  15.2897  15.2941  15.3612  15.3939  15.4023  15.4157
    15.4178  15.4262  15.4696  15.4775  15.4904  15.6072  15.6487  15.6644
    15.7009  15.7011  15.7337  15.7798  15.8463  15.8621  15.9268  15.9358
    15.9540  15.9633  15.9730  16.0067  16.0153  16.0364  16.0652  16.0914
    16.1633  16.2068  16.2101  16.2910  16.2947  16.3319  16.3686  16.3735
    16.4051  16.4156  16.4428  16.5263  16.5934  16.6462  16.7034  16.7053
    16.7794  16.8123  16.8379  16.8691  16.8831  16.9256  16.9864  17.0111
    17.0445  17.0459  17.1259  17.1693  17.2189  17.2269  17.2542  17.2760
    17.3141  17.3184  17.3602  17.3726  17.4052  17.4764  17.5260  17.5507
    17.5846  17.6103  17.7245  17.7386  17.7969  17.8584  17.9025  17.9397
    17.9924  18.0183  18.0505  18.1063  18.1199  18.1622  18.1839  18.2811
    18.2889  18.3128  18.3917  18.4168  18.4936  18.5583  18.5950  18.6162
    18.6583  18.6598  18.6905  18.7458  18.8753  18.9282  18.9320  18.9485
    19.0251  19.0515  19.1345  19.1483  19.2296  19.2509  19.3109  19.4973
    19.5624  19.5994  19.6415  19.6460  19.6598  19.6900  19.7244  19.7559
[...]
    22.8371  22.9090  23.0412  23.1665  23.2506  23.2806  23.3084  23.4550
    23.4778  23.5492  23.6446  23.7635  23.9138  23.9388  23.9921  24.0520
    24.0625  24.0688  24.1228  24.2220  24.2466  24.3153  24.3444  24.3538
    24.4142  24.4789  24.4806  24.5641  24.6477  24.6851  24.6881  24.7900
    24.8205  24.8258  24.9047  24.9961  25.0915  25.1334  25.1698  25.2356
    25.2438  25.2457  25.2882  25.3255  25.3721  25.4133  25.4153  25.4545
    25.5701  25.6298  25.7270  25.7457  25.8482  25.8792  25.9157  25.9287
    25.9564  26.1086  26.1342  26.1403  26.2196  26.2216  26.2335  26.2621
    26.2816  26.2853  26.4556  26.4991  26.5515  26.6420  26.6603  26.6967
    26.7224  26.7365  26.7852  26.8990  26.9163  26.9299  27.0177  27.0229
    27.0454  27.0494  27.0826  27.1302  27.1547  27.1760  27.1825  27.1992
    27.3792  27.3927  27.4182  27.4267  27.4500  27.4679  27.4806  27.5233
    27.5757  27.5982  27.6863  27.7182  27.7314  27.7625  27.7957  27.8768
    27.9248  27.9265  28.1151  28.1184  28.1496  28.2281  28.3286  28.3413
    28.4009  28.4593  28.4918

     the Fermi energy is     0.4511 ev

!    total energy              =   -4504.76583839 Ry
     Harris-Foulkes estimate   =   -4504.76583839 Ry
     estimated scf accuracy    <          8.7E-09 Ry

     The total energy is the sum of the following terms:

     one-electron contribution =  -92715.05076038 Ry
     hartree contribution      =   46419.67105761 Ry
     xc contribution           =    -662.98223401 Ry
     ewald contribution        =   42453.59626530 Ry
     smearing contrib. (-TS)   =      -0.00016692 Ry

     total magnetization       =    47.01 Bohr mag/cell
     absolute magnetization    =    50.66 Bohr mag/cell

     convergence has been achieved in  19 iterations

     Forces acting on atoms (Ry/au):

     negative rho (up, down):  0.299E-02 0.161E-02
     atom    1 type  1   force =     0.00000000   -0.00000333    0.04905450
     atom    2 type  2   force =     0.00022201    0.00000530   -0.08416184
     atom    3 type  2   force =     0.00000000    0.00002031    0.04921522
     atom    4 type  1   force =     0.00007649    0.05114377   -0.04360399
     atom    5 type  1   force =     0.00008339   -0.05114498   -0.04360230
     atom    6 type  1   force =     0.00000000   -0.00000889    0.01082209
     atom    7 type  1   force =     0.00000000   -0.00000609    0.00781867
     atom    8 type  2   force =    -0.00017468    0.00000231    0.03110504
     atom    9 type  2   force =     0.00000000   -0.00001336   -0.00012067
     atom   10 type  1   force =    -0.00008274   -0.03258602    0.00527253
     atom   11 type  1   force =    -0.00007362    0.03259779    0.00526388
     atom   12 type  1   force =     0.00000000    0.00001855    0.00870941
     atom   13 type  1   force =     0.00000000   -0.00003997    0.00048668
     atom   14 type  2   force =    -0.00179101    0.00018440    0.00024917
     atom   15 type  2   force =     0.00000000   -0.00001705   -0.00000756
     atom   16 type  1   force =    -0.00007566   -0.00023310    0.00055217
     atom   17 type  1   force =    -0.00005605    0.00018774    0.00053725
     atom   18 type  1   force =     0.00000000    0.00006121   -0.00046098
     atom   19 type  1   force =     0.00000000   -0.00035972    0.00050636
     atom   20 type  2   force =     0.00146270    0.00028574   -0.00559268
     atom   21 type  2   force =     0.00000000   -0.00119446   -0.00071275
     atom   22 type  1   force =    -0.00306316    0.00226467   -0.00475398
     atom   23 type  1   force =    -0.00666781   -0.00358399   -0.00861947
     atom   24 type  1   force =     0.00000000    0.00061011    0.00735907
     atom   25 type  1   force =     0.00000000    0.00000124    0.04898390
     atom   26 type  2   force =    -0.00022201    0.00000530   -0.08416184
     atom   27 type  2   force =     0.00000000    0.00000216    0.04972106
     atom   28 type  1   force =    -0.00007649    0.05114377   -0.04360399
     atom   29 type  1   force =    -0.00008339   -0.05114498   -0.04360230
     atom   30 type  1   force =     0.00000000   -0.00000115    0.01026068
     atom   31 type  1   force =     0.00000000   -0.00002671    0.00740186
     atom   32 type  2   force =     0.00017468    0.00000231    0.03110504
     atom   33 type  2   force =     0.00000000   -0.00001498    0.00101463
     atom   34 type  1   force =     0.00008274   -0.03258602    0.00527253
     atom   35 type  1   force =     0.00007362    0.03259779    0.00526388
     atom   36 type  1   force =     0.00000000   -0.00000300    0.00874815
     atom   37 type  1   force =     0.00000000   -0.00000300   -0.00136427
     atom   38 type  2   force =     0.00179101    0.00018440    0.00024917
     atom   39 type  2   force =     0.00000000    0.00005814   -0.00017809
     atom   40 type  1   force =     0.00007566   -0.00023310    0.00055217
     atom   41 type  1   force =     0.00005605    0.00018774    0.00053725
     atom   42 type  1   force =     0.00000000    0.00017606    0.00689499
     atom   43 type  1   force =     0.00000000    0.00002030    0.00023526
     atom   44 type  2   force =    -0.00146270    0.00028574   -0.00559268
     atom   45 type  2   force =     0.00000000   -0.00606195    0.03282108
     atom   46 type  1   force =     0.00306316    0.00226467   -0.00475398
     atom   47 type  1   force =     0.00666781   -0.00358399   -0.00861947
     atom   48 type  1   force =     0.00000000   -0.00649259   -0.00244467
     atom   49 type  1   force =     0.00000000    0.00879434    0.00063710
     atom   50 type  1   force =     0.00000000    0.00525235   -0.00020264
     atom   51 type  3   force =     0.00000000    0.00098422   -0.00049063

     Total force =     0.000829     Total SCF correction =     0.000044

     bfgs converged in  12 scf cycles and  11 bfgs steps
     (criteria: energy < 0.10E-03, force < 0.10E-02)

     End of BFGS Geometry Optimization

     Final energy   =   -4504.7658383941 Ry
Begin final coordinates

ATOMIC_POSITIONS (crystal)
O0       0.000000000   0.500000000   0.335990000    0   0   0
Mn1      0.250000000   0.500000000   0.370520000    0   0   0
Mn1      0.000000000   0.000000000   0.370520000    0   0   0
O0       0.250000000   0.800000000   0.370520000    0   0   0
O0       0.250000000   0.200000000   0.370520000    0   0   0
O0       0.000000000   0.500000000   0.405050000    0   0   0
O0       0.000000000   0.000000000   0.422310000    0   0   0
Mn1      0.250000000   0.000000000   0.456840000    0   0   0
Mn1      0.000000000   0.500000000   0.456840000    0   0   0
O0       0.250000000   0.700000000   0.456840000    0   0   0
O0       0.250000000   0.300000000   0.456840000    0   0   0
O0       0.000000000   0.000000000   0.491370000    0   0   0
O0       0.000000000   0.500000000   0.511060000    0   0   0
Mn1      0.250000000   0.500000000   0.544870000    0   0   0
Mn1      0.000000000   0.000000000   0.546850000    0   0   0
O0       0.250000000   0.803780000   0.545780000    0   0   0
O0       0.250000000   0.196220000   0.545780000    0   0   0
O0       0.000000000   0.500000000   0.580550000    0   0   0
O0       0.000000000   0.000000000   0.600030000    0   0   0
Mn1      0.250000000   0.000000000   0.636930000    0   0   0
Mn1      0.000000000   0.500000000   0.631850000    0   0   0
O0       0.250000000   0.690440000   0.640480000    0   0   0
O0       0.250000000   0.309560000   0.640480000    0   0   0
O0       0.000000000   0.000000000   0.668690000    0   0   0
O0       0.500000000   0.500000000   0.335990000    0   0   0
Mn1      0.750000000   0.500000000   0.370520000    0   0   0
Mn1      0.500000000   0.000000000   0.370520000    0   0   0
O0       0.750000000   0.800000000   0.370520000    0   0   0
O0       0.750000000   0.200000000   0.370520000    0   0   0
O0       0.500000000   0.500000000   0.405050000    0   0   0
O0       0.500000000   0.000000000   0.422310000    0   0   0
Mn1      0.750000000   0.000000000   0.456840000    0   0   0
Mn1      0.500000000   0.500000000   0.456840000    0   0   0
O0       0.750000000   0.700000000   0.456840000    0   0   0
O0       0.750000000   0.300000000   0.456840000    0   0   0
O0       0.500000000   0.000000000   0.491370000    0   0   0
O0       0.500000000   0.500000000   0.511060000    0   0   0
Mn1      0.750000000   0.500000000   0.544870000    0   0   0
Mn1      0.500000000   0.000000000   0.546850000    0   0   0
O0       0.750000000   0.803780000   0.545780000    0   0   0
O0       0.750000000   0.196220000   0.545780000    0   0   0
O0       0.500000000   0.500000000   0.580550000    0   0   0
O0       0.500000000   0.000000000   0.600030000    0   0   0
Mn1      0.750000000   0.000000000   0.636930000    0   0   0
Mn1      0.500000000   0.500000000   0.631850000    0   0   0
O0       0.750000000   0.690440000   0.640480000    0   0   0
O0       0.750000000   0.309560000   0.640480000    0   0   0
O0       0.500000000   0.000000000   0.668690000    0   0   0
O0       0.500000000   0.500000000   0.701448329    1   0   1
O0       0.500000000   0.311060000   0.720616170    1   0   1
H2       0.500000000   0.359080000   0.747212943    1   0   1
End final coordinates

     General routines

     Parallel routines

   This run was terminated on:  20:13:52  13May2014

   JOB DONE.