     Program PWSCF v.5.0.2 (svn rev. 9656) starts on 10May2014 at  8:31:32

     Current dimensions of program PWSCF are:
     Max number of different atomic species (ntypx) = 10
     Max number of k-points (npk) =  40000
     Max angular momentum in pseudopotentials (lmaxx) =  3
     Reading input from pwscf.in
Warning: card &CELL ignored
Warning: card / ignored

     Subspace diagonalization in iterative solution of the eigenvalue problem:
     a serial algorithm will be used

     bravais-lattice index     =            0
     lattice parameter (alat)  =      11.1872  a.u.
     unit-cell volume          =    7531.8600 (a.u.)^3
     number of atoms/cell      =           32
     number of atomic types    =            3
     number of electrons       =       223.00
     number of Kohn-Sham states=          334
     kinetic-energy cutoff     =      40.0000  Ry
     charge density cutoff     =     500.0000  Ry
     convergence threshold     =      1.0E-06
     mixing beta               =       0.7000
     number of iterations used =            8  plain     mixing
     Exchange-correlation      = SLA  PW   PBE  PBE ( 1 4 3 4 0)
     EXX-fraction              =        0.00
     nstep                     =           50

     celldm(1)=  11.187179  celldm(2)=   0.000000  celldm(3)=   0.000000
     celldm(4)=   0.000000  celldm(5)=   0.000000  celldm(6)=   0.000000

     crystal axes: (cart. coord. in units of alat)
               a(1) = (   1.000000   0.000000   0.000000 )
               a(2) = (   0.000000   1.180104   0.000000 )
               a(3) = (   0.000000   0.000000   4.558482 )

     reciprocal axes: (cart. coord. in units 2 pi/alat)
               b(1) = (  1.000000  0.000000  0.000000 )
               b(2) = (  0.000000  0.847383  0.000000 )
               b(3) = (  0.000000  0.000000  0.219371 )

     PseudoPot. # 1 for O  read from file:
     /home/camp/zhonxu/pseudo/o_pbe_v1.01.uspp.F.UPF
     MD5 check sum: 2bcb18d16ea4b960afae9ec6d52f22d2
     Pseudo is Ultrasoft + core correction, Zval =  6.0
     Generated by new atomic code, or converted to UPF format
     Using radial grid of  737 points,  5 beta functions with:
                l(1) =   0
                l(2) =   0
                l(3) =   1
                l(4) =   1
                l(5) =   2
     Q(r) pseudized with  8 coefficients,  rinner =    0.900   0.900   0.900
                                                       0.900   0.900

     PseudoPot. # 2 for Nb read from file:
     /home/camp/zhonxu/pseudo/nb_pbe_v1.uspp.F.UPF
     MD5 check sum: 573aab8a2fa660278ed4a62cd769473f
     Pseudo is Ultrasoft + core correction, Zval = 13.0
     Generated by new atomic code, or converted to UPF format
     Using radial grid of  887 points,  6 beta functions with:
                l(1) =   0
                l(2) =   0
                l(3) =   1
                l(4) =   1
                l(5) =   2
                l(6) =   2
     Q(r) pseudized with  6 coefficients,  rinner =    1.000   1.000   1.000
                                                       1.000   1.000

     PseudoPot. # 3 for H  read from file:
     /home/camp/zhonxu/pseudo/h_pbe_v1.uspp.F.UPF
     MD5 check sum: 3408e3ff4ec8b0a4e358431e7e038a48
     Pseudo is Ultrasoft, Zval =  1.0
     Generated by new atomic code, or converted to UPF format
     Using radial grid of  615 points,  2 beta functions with:
                l(1) =   0
                l(2) =   0
     Q(r) pseudized with  8 coefficients,  rinner =    0.700

     atomic species   valence    mass     pseudopotential
        O0             6.00    15.99940     O ( 1.00)
        Nb1           13.00    92.90640     Nb( 1.00)
        H2             1.00     1.00794     H ( 1.00)

     Simplified LDA+U calculation (l_max = 2) with parameters (eV):
     atomic species    L          U    alpha       J0     beta
        Nb1            2     0.0000   0.0000   0.0000   0.0000

     No symmetry found

   Cartesian axes

     site n.     atom                  positions (alat units)
         1           O0  tau(   1) = (   0.0000000   0.0000000   1.6962568  )
         2           O0  tau(   2) = (   0.0000000   0.5900519   1.7738878  )
         3           Nb1 tau(   3) = (   0.2500000   0.5900519   2.0270203  )
         4           Nb1 tau(   4) = (   0.0000000   0.0000000   2.0275217  )
         5           O0  tau(   5) = (   0.2500000   0.9322821   2.0383253  )
         6           O0  tau(   6) = (   0.2500000   0.2478218   2.0383253  )
         7           O0  tau(   7) = (   0.0000000   0.5900519   2.2801984  )
         8           O0  tau(   8) = (   0.0000000   0.0000000   2.3861375  )
         9           Nb1 tau(   9) = (   0.2500000   0.0000000   2.6321588  )
        10           Nb1 tau(  10) = (   0.0000000   0.5900519   2.5957821  )
        11           O0  tau(  11) = (   0.2500000   0.8378738   2.6252299  )
        12           O0  tau(  12) = (   0.2500000   0.3422301   2.6252299  )
        13           O0  tau(  13) = (   0.0000000   0.0000000   2.8359230  )
        14           O0  tau(  14) = (   0.5000000   0.0000000   1.6977155  )
        15           O0  tau(  15) = (   0.5000000   0.5900519   1.7812725  )
        16           Nb1 tau(  16) = (   0.7500000   0.5900519   2.0271571  )
        17           Nb1 tau(  17) = (   0.5000000   0.0000000   2.0300745  )
        18           O0  tau(  18) = (   0.7500000   0.9322821   2.0383253  )
        19           O0  tau(  19) = (   0.7500000   0.2478218   2.0383709  )
        20           O0  tau(  20) = (   0.5000000   0.5900519   2.2745003  )
        21           O0  tau(  21) = (   0.5000000   0.0000000   2.3862287  )
        22           Nb1 tau(  22) = (   0.7500000   0.0000000   2.6327514  )
        23           Nb1 tau(  23) = (   0.5000000   0.5900519   2.6327970  )
        24           O0  tau(  24) = (   0.7500000   0.8378738   2.6254579  )
        25           O0  tau(  25) = (   0.7500000   0.3422301   2.6255034  )
        26           O0  tau(  26) = (   0.5000000   0.0000000   2.8354216  )
        27           H2  tau(  27) = (  -0.0004800   0.5922115   1.6084605  )
        28           H2  tau(  28) = (   0.4995300   0.5922233   1.6161643  )
        29           H2  tau(  29) = (   0.1505800   0.0006019   1.6239593  )
        30           H2  tau(  30) = (   0.6505400   0.0006019   1.6254180  )
        31           O0  tau(  31) = (   0.5024200   0.5900519   2.9584550  )
        32           H2  tau(  32) = (   0.3976800   0.5901109   3.0854543  )

     number of k points=    10  Methfessel-Paxton smearing, width (Ry)=  0.0100
                       cart. coord. in units 2pi/alat
        k(    1) = (   0.0000000   0.0000000   0.0000000), wk =   0.1250000
        k(    2) = (   0.0000000   0.2118458   0.0000000), wk =   0.2500000
        k(    3) = (   0.0000000  -0.4236915   0.0000000), wk =   0.1250000
        k(    4) = (   0.2500000   0.0000000   0.0000000), wk =   0.2500000
        k(    5) = (   0.2500000   0.2118458   0.0000000), wk =   0.2500000
        k(    6) = (   0.2500000  -0.4236915   0.0000000), wk =   0.2500000
        k(    7) = (  -0.5000000   0.0000000   0.0000000), wk =   0.1250000
        k(    8) = (  -0.5000000   0.2118458   0.0000000), wk =   0.2500000
        k(    9) = (  -0.5000000  -0.4236915   0.0000000), wk =   0.1250000
        k(   10) = (  -0.2500000   0.2118458   0.0000000), wk =   0.2500000

     Largest allocated arrays     est. size (Mb)     dimensions
     Largest temporary arrays     est. size (Mb)     dimensions

     Check: negative/imaginary core charge=   -0.000003    0.000000

     Initial potential from superposition of free atoms
     Check: negative starting charge=   -0.003641

     starting charge  222.97806, renormalised to  223.00000

     negative rho (up, down):  0.364E-02 0.000E+00
     Number of +U iterations with fixed ns =  0
     Starting occupations:
 --- enter write_ns ---
 LDA+U parameters:
U( 2)     =  0.00000000
alpha( 2) =  0.00000000
atom    3   Tr[ns(na)] =   3.00000
    eigenvalues:
  0.300  0.300  0.300  0.300  0.300
    eigenvectors:
  1.000  0.000  0.000  0.000  0.000
  0.000  1.000  0.000  0.000  0.000
  0.000  0.000  1.000  0.000  0.000
  0.000  0.000  0.000  1.000  0.000
  0.000  0.000  0.000  0.000  1.000
    occupations:
  0.300  0.000  0.000  0.000  0.000
  0.000  0.300  0.000  0.000  0.000
  0.000  0.000  0.300  0.000  0.000
  0.000  0.000  0.000  0.300  0.000
  0.000  0.000  0.000  0.000  0.300
atom    4   Tr[ns(na)] =   3.00000
    eigenvalues:
  0.300  0.300  0.300  0.300  0.300
    eigenvectors:
  1.000  0.000  0.000  0.000  0.000
  0.000  1.000  0.000  0.000  0.000
  0.000  0.000  1.000  0.000  0.000
  0.000  0.000  0.000  1.000  0.000
  0.000  0.000  0.000  0.000  1.000
    occupations:
  0.300  0.000  0.000  0.000  0.000
  0.000  0.300  0.000  0.000  0.000
  0.000  0.000  0.300  0.000  0.000
  0.000  0.000  0.000  0.300  0.000
  0.000  0.000  0.000  0.000  0.300
atom    9   Tr[ns(na)] =   3.00000
    eigenvalues:
  0.300  0.300  0.300  0.300  0.300
    eigenvectors:
  1.000  0.000  0.000  0.000  0.000
  0.000  1.000  0.000  0.000  0.000
  0.000  0.000  1.000  0.000  0.000
  0.000  0.000  0.000  1.000  0.000
  0.000  0.000  0.000  0.000  1.000
    occupations:
  0.300  0.000  0.000  0.000  0.000
  0.000  0.300  0.000  0.000  0.000
  0.000  0.000  0.300  0.000  0.000
  0.000  0.000  0.000  0.300  0.000
  0.000  0.000  0.000  0.000  0.300
atom   10   Tr[ns(na)] =   3.00000
    eigenvalues:
  0.300  0.300  0.300  0.300  0.300
    eigenvectors:
  1.000  0.000  0.000  0.000  0.000
  0.000  1.000  0.000  0.000  0.000
  0.000  0.000  1.000  0.000  0.000
  0.000  0.000  0.000  1.000  0.000
  0.000  0.000  0.000  0.000  1.000
    occupations:
  0.300  0.000  0.000  0.000  0.000
  0.000  0.300  0.000  0.000  0.000
  0.000  0.000  0.300  0.000  0.000
  0.000  0.000  0.000  0.300  0.000
  0.000  0.000  0.000  0.000  0.300
atom   16   Tr[ns(na)] =   3.00000
    eigenvalues:
  0.300  0.300  0.300  0.300  0.300
    eigenvectors:
  1.000  0.000  0.000  0.000  0.000
  0.000  1.000  0.000  0.000  0.000
  0.000  0.000  1.000  0.000  0.000
  0.000  0.000  0.000  1.000  0.000
  0.000  0.000  0.000  0.000  1.000
    occupations:
  0.300  0.000  0.000  0.000  0.000
  0.000  0.300  0.000  0.000  0.000
  0.000  0.000  0.300  0.000  0.000
  0.000  0.000  0.000  0.300  0.000
  0.000  0.000  0.000  0.000  0.300
atom   17   Tr[ns(na)] =   3.00000
    eigenvalues:
  0.300  0.300  0.300  0.300  0.300
    eigenvectors:
  1.000  0.000  0.000  0.000  0.000
  0.000  1.000  0.000  0.000  0.000
  0.000  0.000  1.000  0.000  0.000
  0.000  0.000  0.000  1.000  0.000
  0.000  0.000  0.000  0.000  1.000
    occupations:
  0.300  0.000  0.000  0.000  0.000
  0.000  0.300  0.000  0.000  0.000
  0.000  0.000  0.300  0.000  0.000
  0.000  0.000  0.000  0.300  0.000
  0.000  0.000  0.000  0.000  0.300
atom   22   Tr[ns(na)] =   3.00000
    eigenvalues:
  0.300  0.300  0.300  0.300  0.300
    eigenvectors:
  1.000  0.000  0.000  0.000  0.000
  0.000  1.000  0.000  0.000  0.000
  0.000  0.000  1.000  0.000  0.000
  0.000  0.000  0.000  1.000  0.000
  0.000  0.000  0.000  0.000  1.000
[...]

     iteration #  2     ecut=    40.00 Ry     beta=0.70
     Davidson diagonalization with overlap
     ethr =  6.16E-03,  avg # of iterations =  2.0

[...]

     total energy              =   -1563.71989438 Ry
     Harris-Foulkes estimate   =   -1563.71989459 Ry
     estimated scf accuracy    <       0.00000142 Ry

     iteration # 25     ecut=    40.00 Ry     beta=0.70
     Davidson diagonalization with overlap
     ethr =  6.36E-10,  avg # of iterations =  1.0

     negative rho (up, down):  0.344E-02 0.000E+00

     End of self-consistent calculation
 --- enter write_ns ---
 LDA+U parameters:
U( 2)     =  0.00000000
alpha( 2) =  0.00000000
atom    3   Tr[ns(na)] =   5.23967
    eigenvalues:
  0.429  0.455  0.524  0.570  0.641
    eigenvectors:
  0.000  0.000  0.007  0.482  0.511
  0.000  0.000  0.990  0.010  0.000
  0.003  0.997  0.000  0.000  0.000
  0.000  0.000  0.003  0.508  0.488
  0.997  0.003  0.000  0.000  0.000
    occupations:
  0.606 -0.005  0.000 -0.036 -0.000
 -0.005  0.525 -0.000 -0.002  0.000
  0.000 -0.000  0.455 -0.000  0.001
 -0.036 -0.002 -0.000  0.605  0.000
 -0.000  0.000  0.001  0.000  0.430
atom    4   Tr[ns(na)] =   5.24627
    eigenvalues:
  0.425  0.459  0.546  0.575  0.619
    eigenvectors:
  0.000  0.005  0.000  0.995  0.000
  0.000  0.994  0.000  0.005  0.001
  1.000  0.000  0.000  0.000  0.000
  0.000  0.001  0.000  0.000  0.999
  0.000  0.000  1.000  0.000  0.000
    occupations:
  0.574  0.008  0.000  0.001  0.000
  0.008  0.460 -0.000 -0.004 -0.000
  0.000 -0.000  0.425  0.000  0.001
  0.001 -0.004  0.000  0.619  0.000
  0.000 -0.000  0.001  0.000  0.546
atom    9   Tr[ns(na)] =   5.28750
    eigenvalues:
  0.462  0.472  0.506  0.599  0.604
    eigenvectors:
  0.876  0.000  0.000  0.123  0.001
  0.000  0.000  0.000  0.005  0.995
  0.000  0.027  0.973  0.000  0.000
  0.124  0.000  0.000  0.871  0.005
  0.000  0.973  0.027  0.000  0.000
    occupations:
  0.479 -0.000 -0.000  0.045 -0.000
 -0.000  0.604 -0.000 -0.000  0.000
 -0.000 -0.000  0.505  0.000  0.005
  0.045 -0.000  0.000  0.582 -0.000
 -0.000  0.000  0.005 -0.000  0.473
atom   10   Tr[ns(na)] =   5.13359
    eigenvalues:
  0.423  0.482  0.509  0.543  0.610
    eigenvectors:
  0.000  0.004  0.992  0.000  0.004
  0.000  0.996  0.004  0.000  0.000
  1.000  0.000  0.000  0.000  0.000
  0.000  0.000  0.004  0.000  0.996
  0.000  0.000  0.000  1.000  0.000
    occupations:
  0.509 -0.002  0.000  0.006  0.000
 -0.002  0.482  0.000 -0.001 -0.000
  0.000  0.000  0.423 -0.000  0.000
  0.006 -0.001 -0.000  0.610  0.000
  0.000 -0.000  0.000  0.000  0.543
atom   16   Tr[ns(na)] =   5.24124
    eigenvalues:
  0.428  0.458  0.524  0.570  0.641
    eigenvectors:
  0.000  0.000  0.005  0.482  0.513
  0.000  0.000  0.991  0.009  0.000
  0.070  0.930  0.000  0.000  0.000
  0.000  0.000  0.004  0.509  0.487
  0.930  0.070  0.000  0.000  0.000
    occupations:
  0.606  0.004  0.000 -0.036  0.000
  0.004  0.524  0.000  0.002  0.000
  0.000  0.000  0.456 -0.000 -0.008
 -0.036  0.002 -0.000  0.604 -0.000
  0.000  0.000 -0.008 -0.000  0.430
atom   17   Tr[ns(na)] =   5.24182
    eigenvalues:
  0.422  0.468  0.547  0.575  0.609
    eigenvectors:
  0.000  0.005  0.000  0.995  0.000
  0.000  0.994  0.000  0.005  0.001
  1.000  0.000  0.000  0.000  0.000
  0.000  0.001  0.000  0.000  0.999
  0.000  0.000  1.000  0.000  0.000
    occupations:
  0.575  0.008  0.000  0.001  0.000
  0.008  0.469 -0.000 -0.004 -0.000
  0.000 -0.000  0.422  0.000  0.001
  0.001 -0.004  0.000  0.609  0.000
  0.000 -0.000  0.001  0.000  0.547
atom   22   Tr[ns(na)] =   5.28562
    eigenvalues:
  0.462  0.472  0.505  0.599  0.604
    eigenvectors:
  0.877  0.000  0.000  0.122  0.000
  0.000  0.000  0.000  0.003  0.997
  0.000  0.042  0.958  0.000  0.000
  0.123  0.000  0.000  0.875  0.003
  0.000  0.958  0.042  0.000  0.000
    occupations:
  0.479  0.000 -0.000  0.045 -0.000
  0.000  0.604  0.000  0.000  0.000
 -0.000  0.000  0.504  0.000 -0.006
  0.045  0.000  0.000  0.582  0.000
 -0.000  0.000 -0.006  0.000  0.474
atom   23   Tr[ns(na)] =   5.26545
    eigenvalues:
  0.436  0.469  0.547  0.575  0.605
    eigenvectors:
  0.000  0.012  0.000  0.977  0.011
  0.000  0.987  0.000  0.013  0.000
  1.000  0.000  0.000  0.000  0.000
  0.000  0.001  0.000  0.010  0.989
  0.000  0.000  1.000  0.000  0.000
    occupations:
  0.574  0.012 -0.000  0.003  0.000
  0.012  0.471  0.000 -0.004  0.000
 -0.000  0.000  0.436 -0.000 -0.000
  0.003 -0.004 -0.000  0.605 -0.000
  0.000  0.000 -0.000 -0.000  0.547
N of occupied +U levels =  41.9411499
 --- exit write_ns ---

          k = 0.0000 0.0000 0.0000 ( 32167 PWs)   bands (ev):

   -56.1277 -56.0378 -55.7415 -55.7367 -55.7175 -55.6594 -55.6587 -55.6372
   -33.0615 -32.3488 -32.3325 -32.2551 -32.2538 -32.2498 -32.2110 -32.1333
   -32.1008 -32.0626 -32.0228 -32.0210 -32.0029 -31.9680 -31.9313 -31.7778
   -31.7475 -31.7437 -31.5876 -31.5830 -31.5721 -31.4663 -31.4189 -31.4004
   -20.5060 -20.1526 -19.3302 -19.1582 -19.0177 -18.9636 -18.9005 -18.7992
   -18.7209 -18.5910 -18.4078 -18.3750 -18.1018 -18.0712 -17.9507 -17.7519
   -17.7172 -17.5878 -17.4157  -8.9635  -8.4748  -7.6854  -7.4294  -7.2351
    -7.2247  -6.8194  -6.4654  -6.2408  -6.1791  -6.1472  -6.0788  -6.0175
    -5.8447  -5.7987  -5.7753  -5.6801  -5.5222  -5.3894  -5.2771  -5.1488
    -5.1182  -5.0752  -5.0373  -5.0076  -4.9189  -4.8751  -4.8311  -4.4238
    -4.2235  -4.0962  -4.0109  -3.9175  -3.8145  -3.7785  -3.7197  -3.6222
    -3.4984  -3.4215  -3.3393  -3.2830  -3.2112  -3.1961  -3.1626  -2.9740
    -2.9614  -2.9313  -2.8014  -2.7918  -2.7706  -2.6848  -2.6160  -2.5439
    -2.5155  -2.4443  -2.2777  -1.8961  -0.3755  -0.1450  -0.0809   1.2353
     1.5577   1.5938   1.5957   1.6667   1.7478   1.8187   1.8946   1.8982
     1.9530   2.2495   2.4480   2.4534   2.6084   2.7091   2.8823   2.9244
     3.0076   3.4315   3.6736   3.6930   3.7650   3.8594   4.0385   4.1002
     4.4529   4.5455   4.8727   4.9908   5.1258   5.2731   5.5619   5.5745
     5.8386   5.9297   6.0642   6.1506   6.1905   6.2865   6.3296   6.3317
     6.4103   6.4492   6.7508   6.8611   6.9132   6.9646   7.0575   7.1150
     7.3221   7.3519   7.3958   7.4487   7.6312   7.6370   7.9539   8.0343
     8.1216   8.1807   8.2682   8.3202   8.4167   8.6123   8.7138   8.7507
     8.9040   8.9296   8.9578   9.0122   9.0320   9.2930   9.3336   9.4480
     9.4703   9.5579   9.7386   9.9001   9.9493  10.0148  10.0209  10.1233
    10.2197  10.2459  10.2685  10.3147  10.4322  10.6270  10.7367  10.8859
    10.9853  11.0741  11.1018  11.2029  11.2132  11.2760  11.3327  11.3548
    11.3843  11.4551  11.4831  11.5943  11.5979  11.7110  11.7775  11.8067
    11.8659  11.9257  12.0820  12.1757  12.2959  12.3421  12.3716  12.3957
    12.4844  12.4918  12.5630  12.7463  12.7644  12.8558  12.9316  13.0981
    13.1084  13.2048  13.2511  13.3914  13.5127  13.6539  13.6697  13.8111
    13.8907  13.9095  13.9928  14.0366  14.1164  14.1788  14.2251  14.3257
    14.4820  14.5693  14.6202  14.7198  14.7238  14.8361  14.9621  15.0825
    15.1840  15.3186  15.3337  15.4086  15.4991  15.6177  15.6715  15.8003
    15.8200  15.8599  15.9151  15.9611  16.0195  16.1454  16.1479  16.1914
    16.1971  16.2585  16.2715  16.5407  16.5801  16.6283  16.6866  16.8111
    16.8459  16.8790  16.9389  17.2521  17.2808  17.3252  17.3991  17.4130
    17.4762  17.4889  17.5121  17.5836  17.6502  17.8063  17.9362  18.0518
    18.2388  18.2402  18.3905  18.4304  18.5194  18.6179  18.7072  18.7407
    18.7572  18.8241  18.9780  19.0202  19.0888  19.1380  19.1528  19.1982
    19.2817  19.3274  19.3311  19.3607  19.4773  19.4985  19.6639  19.7113
    19.8177  19.8623  19.8783  19.9380  20.0804  20.1152  20.1507  20.2387
    20.2771  20.3255  20.3504  20.3714  20.3886  20.4424

[...]

          k = 0.2500-0.4237 0.0000 ( 32188 PWs)   bands (ev):

[...]

          k =-0.5000 0.0000 0.0000 ( 32166 PWs)   bands (ev):

[...]

          k =-0.2500 0.2118 0.0000 ( 32165 PWs)   bands (ev):

   -56.1146 -56.0510 -55.7307 -55.7255 -55.7072 -55.6711 -55.6689 -55.6482
   -32.9233 -32.3096 -32.2718 -32.2200 -32.2037 -32.1777 -32.1695 -32.1587
   -32.0990 -32.0841 -32.0604 -32.0228 -31.9896 -31.9611 -31.9399 -31.7514
   -31.7480 -31.7391 -31.6289 -31.6144 -31.5999 -31.5808 -31.5448 -31.5322
   -20.4625 -20.1357 -19.2295 -19.1113 -18.9334 -18.8989 -18.7637 -18.6868
   -18.5981 -18.5881 -18.5265 -18.4728 -18.0244 -17.9730 -17.9558 -17.8927
   -17.8870 -17.7441 -17.6123  -8.8881  -8.4859  -7.4726  -7.4254  -6.8625
    -6.6714  -6.5945  -6.5021  -6.4155  -6.2770  -6.1754  -6.0548  -6.0365
    -5.9307  -5.8433  -5.7281  -5.7019  -5.5255  -5.4928  -5.4671  -5.4059
    -5.0767  -5.0347  -4.9431  -4.8242  -4.6348  -4.5254  -4.4650  -4.2966
    -4.2267  -4.1792  -4.0966  -4.0039  -3.9014  -3.8490  -3.8405  -3.8120
    -3.7764  -3.6509  -3.6249  -3.4842  -3.4555  -3.3896  -3.2323  -3.1669
    -3.1013  -3.0321  -2.9459  -2.9108  -2.7618  -2.7197  -2.6745  -2.5509
    -2.4625  -2.4486  -2.3373  -2.0252   0.0762   0.6758   0.6964   0.9430
     1.0466   1.3124   1.6736   1.7650   1.8170   1.9957   2.0785   2.1465
     2.2938   2.3727   2.4480   2.6079   2.7060   2.7430   2.7802   2.8682
     2.9533   3.0417   3.0720   3.0990   3.2812   3.6906   4.2373   4.3262
     4.5977   4.7316   4.9817   5.1537   5.2438   5.2887   5.4020   5.4603
     5.4949   5.7157   5.7861   5.8397   5.8550   5.9676   6.0668   6.1605
     6.4436   6.4656   6.4993   6.6751   6.7101   6.8513   6.8762   7.0265
     7.1556   7.2627   7.3367   7.3761   7.5143   7.6519   7.8584   7.9576
     8.0113   8.0625   8.2120   8.2986   8.4096   8.5240   8.6171   8.7207
     8.8316   8.9180   8.9945   9.1586   9.1964   9.2990   9.3468   9.4944
     9.5740   9.6542   9.8044   9.8256  10.0002  10.0534  10.0901  10.2265
    10.3300  10.3962  10.5216  10.7129  10.7902  10.8984  10.9573  11.0352
    11.0794  11.1438  11.2261  11.3081  11.3648  11.5153  11.5407  11.5684
    11.6028  11.7120  11.8545  11.8780  12.0018  12.0754  12.1889  12.2666
    12.4103  12.4575  12.5196  12.5601  12.6406  12.6768  12.7770  12.8380
    12.8959  12.9420  12.9943  13.0417  13.1148  13.2053  13.2776  13.3841
    13.4501  13.5084  13.5724  13.6139  13.6844  13.7783  13.8354  13.9263
    13.9625  14.0291  14.0544  14.1434  14.2534  14.2842  14.3435  14.4349
    14.5599  14.7154  14.7460  14.7863  14.8621  14.9018  15.0160  15.0858
    15.1886  15.2444  15.2915  15.3854  15.4105  15.4366  15.5286  15.6120
    15.6558  15.7638  15.8224  15.8868  15.9098  15.9493  16.0579  16.1224
    16.1875  16.2393  16.2790  16.3566  16.4759  16.5869  16.6269  16.6663
    16.7488  16.7986  16.8590  16.9654  17.0272  17.0582  17.1375  17.1765
    17.2555  17.2936  17.3179  17.4100  17.4663  17.5328  17.6257  17.7146
    17.7838  17.8584  17.9412  17.9976  18.0539  18.1282  18.1484  18.2178
    18.3248  18.4032  18.4913  18.5405  18.5845  18.6430  18.7463  18.8164
    18.8617  18.9757  19.0008  19.0942  19.1045  19.1855  19.2322  19.2845
    19.3271  19.3897  19.4474  19.5535  19.5993  19.6637  19.6943  19.7525
    19.7990  19.8656  19.9118  19.9880  20.0322  20.0633

     the Fermi energy is     1.0357 ev

!    total energy              =   -1563.71989411 Ry
     Harris-Foulkes estimate   =   -1563.71989455 Ry
     estimated scf accuracy    <       0.00000046 Ry

     The total energy is the sum of the following terms:

     one-electron contribution =  -19071.44331752 Ry
     hartree contribution      =    9565.52877234 Ry
     xc contribution           =    -287.63701213 Ry
     ewald contribution        =    8229.83313476 Ry
     Hubbard energy            =       0.00000000 Ry
     smearing contrib. (-TS)   =      -0.00147156 Ry

     convergence has been achieved in  25 iterations

     Forces acting on atoms (Ry/au):

     negative rho (up, down):  0.344E-02 0.000E+00
     atom    1 type  1   force =     0.00132293   -0.00003812   -0.00010502
     atom    2 type  1   force =    -0.00120040    0.00024354   -0.00070060
     atom    3 type  2   force =    -0.03488699   -0.00025349    0.00024773
     atom    4 type  2   force =    -0.00457579    0.00006537    0.00007819
     atom    5 type  1   force =    -0.00360674   -0.01590176    0.00006694
     atom    6 type  1   force =    -0.00361928    0.01585739    0.00006819
     atom    7 type  1   force =    -0.00109349    0.00007194    0.00042473
     atom    8 type  1   force =     0.00162128    0.00000443   -0.00056411
     atom    9 type  2   force =     0.00106272    0.00002553    0.00026635
     atom   10 type  2   force =    -0.00123187   -0.00000642    0.00043271
     atom   11 type  1   force =    -0.01580471   -0.01774133    0.00025526
     atom   12 type  1   force =    -0.01579782    0.01772226    0.00024655
     atom   13 type  1   force =     0.00172755   -0.00001066    0.00008248
     atom   14 type  1   force =     0.00053800   -0.00003779    0.00024394
     atom   15 type  1   force =    -0.00106229    0.00013582   -0.00083767
     atom   16 type  2   force =     0.03854328   -0.00024437    0.00037315
     atom   17 type  2   force =    -0.00374299    0.00007487    0.00014214
     atom   18 type  1   force =     0.00487526   -0.01559694    0.00008123
     atom   19 type  1   force =     0.00469773    0.01554945    0.00003279
     atom   20 type  1   force =    -0.00399839    0.00009450    0.00051668
     atom   21 type  1   force =     0.00162571    0.00000286   -0.00005182
     atom   22 type  2   force =    -0.00220142    0.00001658   -0.00003884
     atom   23 type  2   force =     0.00459959   -0.00000113    0.00013007
     atom   24 type  1   force =     0.01563113   -0.01830683   -0.00053322
     atom   25 type  1   force =     0.01562755    0.01829847   -0.00057538
     atom   26 type  1   force =    -0.00041605   -0.00000961   -0.00002876
     atom   27 type  3   force =    -0.00000168   -0.00001033   -0.00055523
     atom   28 type  3   force =    -0.00000954    0.00001406   -0.00005987
     atom   29 type  3   force =     0.00009214   -0.00000917    0.00007296
     atom   30 type  3   force =    -0.00002448   -0.00001615    0.00005638
     atom   31 type  1   force =     0.00049049    0.00000404   -0.00030830
     atom   32 type  3   force =     0.00081855    0.00000298    0.00054037

     Total force =     0.002220     Total SCF correction =     0.003328
     SCF correction compared to forces is large: reduce conv_thr to get better values

     BFGS Geometry Optimization

     bfgs converged in   1 scf cycles and   0 bfgs steps
     (criteria: energy < 0.10E-03, force < 0.10E-02)

     End of BFGS Geometry Optimization

     Final energy   =   -1563.7198941053 Ry
Begin final coordinates

ATOMIC_POSITIONS (crystal)
O0       0.000000000   0.000000000   0.372110000    0   0   1
O0       0.000000000   0.500000000   0.389140000    0   0   1
Nb1      0.250000000   0.500000000   0.444670000    0   0   1
Nb1      0.000000000   0.000000000   0.444780000    0   0   1
O0       0.250000000   0.790000000   0.447150000    0   0   1
O0       0.250000000   0.210000000   0.447150000    0   0   1
O0       0.000000000   0.500000000   0.500210000    0   0   1
O0       0.000000000   0.000000000   0.523450000    0   0   1
Nb1      0.250000000   0.000000000   0.577420000    0   0   1
Nb1      0.000000000   0.500000000   0.569440000    0   0   1
O0       0.250000000   0.710000000   0.575900000    0   0   1
O0       0.250000000   0.290000000   0.575900000    0   0   1
O0       0.000000000   0.000000000   0.622120000    0   0   1
O0       0.500000000   0.000000000   0.372430000    0   0   1
O0       0.500000000   0.500000000   0.390760000    0   0   1
Nb1      0.750000000   0.500000000   0.444700000    0   0   1
Nb1      0.500000000   0.000000000   0.445340000    0   0   1
O0       0.750000000   0.790000000   0.447150000    0   0   1
O0       0.750000000   0.210000000   0.447160000    0   0   1
O0       0.500000000   0.500000000   0.498960000    0   0   1
O0       0.500000000   0.000000000   0.523470000    0   0   1
Nb1      0.750000000   0.000000000   0.577550000    0   0   1
Nb1      0.500000000   0.500000000   0.577560000    0   0   1
O0       0.750000000   0.710000000   0.575950000    0   0   1
O0       0.750000000   0.290000000   0.575960000    0   0   1
O0       0.500000000   0.000000000   0.622010000    0   0   1
H2      -0.000480000   0.501830000   0.352850000
H2       0.499530000   0.501840000   0.354540000
H2       0.150580000   0.000510000   0.356250000
H2       0.650540000   0.000510000   0.356570000
O0       0.502420000   0.500000000   0.649000000
H2       0.397680000   0.500050000   0.676860000
End final coordinates

     General routines

     Parallel routines
     Hubbard U routines

   This run was terminated on:   9:54:22  10May2014

   JOB DONE.