     Program PWSCF v.5.0.2 (svn rev. 9656) starts on 29Apr2014 at  1: 1:15

     Current dimensions of program PWSCF are:
     Max number of different atomic species (ntypx) = 10
     Max number of k-points (npk) =  40000
     Max angular momentum in pseudopotentials (lmaxx) =  3
     Reading input from pwscf.in
Warning: card &CELL ignored
Warning: card / ignored

     Subspace diagonalization in iterative solution of the eigenvalue problem:
     a serial algorithm will be used

     bravais-lattice index     =            0
     lattice parameter (alat)  =      10.3179  a.u.
     unit-cell volume          =    6964.3238 (a.u.)^3
     number of atoms/cell      =           32
     number of atomic types    =            3
     number of electrons       =       231.00
     number of Kohn-Sham states=          346
     kinetic-energy cutoff     =      40.0000  Ry
     charge density cutoff     =     500.0000  Ry
     convergence threshold     =      1.0E-06
     mixing beta               =       0.7000
     number of iterations used =            8  plain     mixing
     Exchange-correlation      = SLA  PW   PBE  PBE ( 1 4 3 4 0)
     EXX-fraction              =        0.00
     nstep                     =           50

     celldm(1)=  10.317905  celldm(2)=   0.000000  celldm(3)=   0.000000
     celldm(4)=   0.000000  celldm(5)=   0.000000  celldm(6)=   0.000000

     crystal axes: (cart. coord. in units of alat)
               a(1) = (   1.000000   0.000000   0.000000 )
               a(2) = (   0.000000   1.282117   0.000000 )
               a(3) = (   0.000000   0.000000   4.945120 )

     reciprocal axes: (cart. coord. in units 2 pi/alat)
               b(1) = (  1.000000  0.000000  0.000000 )
               b(2) = (  0.000000  0.779960  0.000000 )
               b(3) = (  0.000000  0.000000  0.202220 )

     PseudoPot. # 1 for O  read from file:
     /home/camp/zhonxu/pseudo/o_pbe_v1.01.uspp.F.UPF
     MD5 check sum: 2bcb18d16ea4b960afae9ec6d52f22d2
     Pseudo is Ultrasoft + core correction, Zval =  6.0
     Generated by new atomic code, or converted to UPF format
     Using radial grid of  737 points,  5 beta functions with:
                l(1) =   0
                l(2) =   0
                l(3) =   1
                l(4) =   1
                l(5) =   2
     Q(r) pseudized with  8 coefficients,  rinner =    0.900   0.900   0.900
                                                       0.900   0.900

     PseudoPot. # 2 for Mo read from file:
     /home/camp/zhonxu/pseudo/mo_pbe_v1.uspp.F.UPF
     MD5 check sum: 30c4dcd161f5d35cd49bb5239c51a633
     Pseudo is Ultrasoft + core correction, Zval = 14.0
     Generated by new atomic code, or converted to UPF format
     Using radial grid of  889 points,  6 beta functions with:
                l(1) =   0
                l(2) =   0
                l(3) =   1
                l(4) =   1
                l(5) =   2
                l(6) =   2
     Q(r) pseudized with  6 coefficients,  rinner =    1.000   1.000   1.000
                                                       1.000   1.000

     PseudoPot. # 3 for H  read from file:
     /home/camp/zhonxu/pseudo/h_pbe_v1.uspp.F.UPF
     MD5 check sum: 3408e3ff4ec8b0a4e358431e7e038a48
     Pseudo is Ultrasoft, Zval =  1.0
     Generated by new atomic code, or converted to UPF format
     Using radial grid of  615 points,  2 beta functions with:
                l(1) =   0
                l(2) =   0
     Q(r) pseudized with  8 coefficients,  rinner =    0.700

     atomic species   valence    mass     pseudopotential
        O0             6.00    15.99940     O ( 1.00)
        Mo1           14.00    95.94000     Mo( 1.00)
        H2             1.00     1.00794     H ( 1.00)

     Simplified LDA+U calculation (l_max = 2) with parameters (eV):
     atomic species    L          U    alpha       J0     beta
        Mo1            2     5.0000   0.0000   0.0000   0.0000

     No symmetry found

   Cartesian axes

     site n.     atom                  positions (alat units)
         1           O0  tau(   1) = (   0.0000000   0.0000000   1.8362221  )
         2           O0  tau(   2) = (   0.0000000   0.6410583   1.8932888  )
         3           Mo1 tau(   3) = (   0.2500000   0.6410583   2.1787211  )
         4           Mo1 tau(   4) = (   0.0000000   0.0000000   2.1942488  )
         5           O0  tau(   5) = (   0.2500000   1.0000510   2.1917762  )
         6           O0  tau(   6) = (   0.2500000   0.2820657   2.1916279  )
         7           O0  tau(   7) = (   0.0000000   0.6410583   2.4619282  )
         8           O0  tau(   8) = (   0.0000000   0.0000000   2.5552920  )
         9           Mo1 tau(   9) = (   0.2500000   0.0000000   2.8451750  )
        10           Mo1 tau(  10) = (   0.0000000   0.6410583   2.7951798  )
        11           O0  tau(  11) = (   0.2500000   0.9231240   2.8229220  )
        12           O0  tau(  12) = (   0.2500000   0.3589927   2.8238121  )
        13           O0  tau(  13) = (   0.0000000   0.0000000   3.0959420  )
        14           O0  tau(  14) = (   0.5000000   0.0000000   1.8365188  )
        15           O0  tau(  15) = (   0.5000000   0.6410583   1.8939316  )
        16           Mo1 tau(  16) = (   0.7500000   0.6410583   2.1784244  )
        17           Mo1 tau(  17) = (   0.5000000   0.0000000   2.1964741  )
        18           O0  tau(  18) = (   0.7500000   1.0000510   2.1920730  )
        19           O0  tau(  19) = (   0.7500000   0.2820657   2.1913806  )
        20           O0  tau(  20) = (   0.5000000   0.6410583   2.4641535  )
        21           O0  tau(  21) = (   0.5000000   0.0000000   2.5544514  )
        22           Mo1 tau(  22) = (   0.7500000   0.0000000   2.8455212  )
        23           Mo1 tau(  23) = (   0.5000000   0.6410583   2.8262846  )
        24           O0  tau(  24) = (   0.7500000   0.9231240   2.8210923  )
        25           O0  tau(  25) = (   0.7500000   0.3589927   2.8208450  )
        26           O0  tau(  26) = (   0.5000000   0.0000000   3.0950519  )
        27           H2  tau(  27) = (  -0.0007600   0.7828861   1.7821225  )
        28           H2  tau(  28) = (   0.4995000   0.7914763   1.7941391  )
        29           H2  tau(  29) = (   0.1669200   0.0220268   1.7647651  )
        30           H2  tau(  30) = (   0.6653100   0.0245269   1.7632816  )
        31           O0  tau(  31) = (   0.5147600   0.6413532   3.1767948  )
        32           H2  tau(  32) = (   0.3891500   0.6353401   3.3044778  )

     number of k points=    10  Methfessel-Paxton smearing, width (Ry)=  0.0100
                       cart. coord. in units 2pi/alat
        k(    1) = (   0.0000000   0.0000000   0.0000000), wk =   0.1250000
        k(    2) = (   0.0000000   0.1949901   0.0000000), wk =   0.2500000
        k(    3) = (   0.0000000  -0.3899801   0.0000000), wk =   0.1250000
        k(    4) = (   0.2500000   0.0000000   0.0000000), wk =   0.2500000
        k(    5) = (   0.2500000   0.1949901   0.0000000), wk =   0.2500000
        k(    6) = (   0.2500000  -0.3899801   0.0000000), wk =   0.2500000
        k(    7) = (  -0.5000000   0.0000000   0.0000000), wk =   0.1250000
        k(    8) = (  -0.5000000   0.1949901   0.0000000), wk =   0.2500000
        k(    9) = (  -0.5000000  -0.3899801   0.0000000), wk =   0.1250000
        k(   10) = (  -0.2500000   0.1949901   0.0000000), wk =   0.2500000

     Largest allocated arrays     est. size (Mb)     dimensions
     Largest temporary arrays     est. size (Mb)     dimensions

     Check: negative/imaginary core charge=   -0.000003    0.000000

     Initial potential from superposition of free atoms
     Check: negative starting charge=   -0.002345

     starting charge  230.99142, renormalised to  231.00000

     negative rho (up, down):  0.235E-02 0.000E+00
     Number of +U iterations with fixed ns =  0
     Starting occupations:
 --- enter write_ns ---
 LDA+U parameters:
U( 2)     =  5.00000000
alpha( 2) =  0.00000000
atom    3   Tr[ns(na)] =   5.00000
    eigenvalues:
  0.500  0.500  0.500  0.500  0.500
    eigenvectors:
  1.000  0.000  0.000  0.000  0.000
  0.000  1.000  0.000  0.000  0.000
  0.000  0.000  1.000  0.000  0.000
  0.000  0.000  0.000  1.000  0.000
  0.000  0.000  0.000  0.000  1.000
    occupations:
  0.500  0.000  0.000  0.000  0.000
  0.000  0.500  0.000  0.000  0.000
  0.000  0.000  0.500  0.000  0.000
  0.000  0.000  0.000  0.500  0.000
  0.000  0.000  0.000  0.000  0.500
atom    4   Tr[ns(na)] =   5.00000
    eigenvalues:
  0.500  0.500  0.500  0.500  0.500
    eigenvectors:
  1.000  0.000  0.000  0.000  0.000
  0.000  1.000  0.000  0.000  0.000
  0.000  0.000  1.000  0.000  0.000
  0.000  0.000  0.000  1.000  0.000
  0.000  0.000  0.000  0.000  1.000
    occupations:
  0.500  0.000  0.000  0.000  0.000
  0.000  0.500  0.000  0.000  0.000
  0.000  0.000  0.500  0.000  0.000
  0.000  0.000  0.000  0.500  0.000
  0.000  0.000  0.000  0.000  0.500
atom    9   Tr[ns(na)] =   5.00000
    eigenvalues:
  0.500  0.500  0.500  0.500  0.500
    eigenvectors:
  1.000  0.000  0.000  0.000  0.000
  0.000  1.000  0.000  0.000  0.000
  0.000  0.000  1.000  0.000  0.000
  0.000  0.000  0.000  1.000  0.000
  0.000  0.000  0.000  0.000  1.000
    occupations:
  0.500  0.000  0.000  0.000  0.000
  0.000  0.500  0.000  0.000  0.000
  0.000  0.000  0.500  0.000  0.000
  0.000  0.000  0.000  0.500  0.000
  0.000  0.000  0.000  0.000  0.500
atom   10   Tr[ns(na)] =   5.00000
    eigenvalues:
  0.500  0.500  0.500  0.500  0.500
    eigenvectors:
  1.000  0.000  0.000  0.000  0.000
  0.000  1.000  0.000  0.000  0.000
  0.000  0.000  1.000  0.000  0.000
  0.000  0.000  0.000  1.000  0.000
  0.000  0.000  0.000  0.000  1.000
    occupations:
  0.500  0.000  0.000  0.000  0.000
  0.000  0.500  0.000  0.000  0.000
  0.000  0.000  0.500  0.000  0.000
  0.000  0.000  0.000  0.500  0.000
  0.000  0.000  0.000  0.000  0.500
atom   16   Tr[ns(na)] =   5.00000
    eigenvalues:
  0.500  0.500  0.500  0.500  0.500
    eigenvectors:
  1.000  0.000  0.000  0.000  0.000
  0.000  1.000  0.000  0.000  0.000
  0.000  0.000  1.000  0.000  0.000
  0.000  0.000  0.000  1.000  0.000
  0.000  0.000  0.000  0.000  1.000
    occupations:
  0.500  0.000  0.000  0.000  0.000
  0.000  0.500  0.000  0.000  0.000
  0.000  0.000  0.500  0.000  0.000
  0.000  0.000  0.000  0.500  0.000
  0.000  0.000  0.000  0.000  0.500
atom   17   Tr[ns(na)] =   5.00000
    eigenvalues:
  0.500  0.500  0.500  0.500  0.500
    eigenvectors:
  1.000  0.000  0.000  0.000  0.000
  0.000  1.000  0.000  0.000  0.000
  0.000  0.000  1.000  0.000  0.000
  0.000  0.000  0.000  1.000  0.000
  0.000  0.000  0.000  0.000  1.000
    occupations:
  0.500  0.000  0.000  0.000  0.000
  0.000  0.500  0.000  0.000  0.000
  0.000  0.000  0.500  0.000  0.000
  0.000  0.000  0.000  0.500  0.000
  0.000  0.000  0.000  0.000  0.500
atom   22   Tr[ns(na)] =   5.00000
    eigenvalues:
  0.500  0.500  0.500  0.500  0.500
    eigenvectors:
  1.000  0.000  0.000  0.000  0.000
  0.000  1.000  0.000  0.000  0.000
  0.000  0.000  1.000  0.000  0.000
  0.000  0.000  0.000  1.000  0.000
  0.000  0.000  0.000  0.000  1.000
[...]
  0.000  0.000  0.000  0.000  0.999
  0.000  1.000  0.000  0.000  0.000
    occupations:
  0.584  0.005  0.001  0.002  0.000
  0.005  0.658  0.003 -0.002 -0.000
  0.001  0.003  0.383  0.001  0.000
  0.002 -0.002  0.001  0.764 -0.000
  0.000 -0.000  0.000 -0.000  0.521
atom    9   Tr[ns(na)] =   5.83664
    eigenvalues:
  0.464  0.509  0.601  0.605  0.739
    eigenvectors:
  0.000  0.000  0.191  0.021  0.788
  0.000  0.000  0.102  0.898  0.000
  0.083  0.917  0.000  0.000  0.000
  0.000  0.000  0.707  0.081  0.212
  0.917  0.083  0.000  0.000  0.000
    occupations:
  0.710 -0.001  0.000 -0.056 -0.000
 -0.001  0.605 -0.001 -0.001 -0.000
  0.000 -0.001  0.506 -0.000  0.013
 -0.056 -0.001 -0.000  0.630 -0.000
 -0.000 -0.000  0.013 -0.000  0.468
atom   10   Tr[ns(na)] =   5.77147
    eigenvalues:
  0.383  0.469  0.510  0.717  0.806
    eigenvectors:
  0.002  0.993  0.000  0.005  0.000
  0.000  0.000  0.000  0.000  1.000
  0.998  0.002  0.000  0.000  0.000
  0.000  0.005  0.000  0.995  0.000
  0.000  0.000  1.000  0.000  0.000
    occupations:
  0.470 -0.002 -0.004  0.018 -0.000
 -0.002  0.806 -0.001 -0.000 -0.000
 -0.004 -0.001  0.384 -0.000 -0.000
  0.018 -0.000 -0.000  0.716 -0.000
 -0.000 -0.000 -0.000 -0.000  0.510
atom   16   Tr[ns(na)] =   5.82248
    eigenvalues:
  0.425  0.505  0.570  0.636  0.776
    eigenvectors:
  0.011  0.002  0.307  0.001  0.679
  0.000  0.992  0.005  0.003  0.000
  0.988  0.000  0.001  0.000  0.010
  0.001  0.003  0.686  0.000  0.311
  0.000  0.003  0.001  0.997  0.000
    occupations:
  0.708 -0.006  0.032 -0.094 -0.001
 -0.006  0.505  0.000 -0.002 -0.007
  0.032  0.000  0.429 -0.015  0.001
 -0.094 -0.002 -0.015  0.634  0.002
 -0.001 -0.007  0.001  0.002  0.636
atom   17   Tr[ns(na)] =   5.82645
    eigenvalues:
  0.395  0.521  0.588  0.642  0.768
    eigenvectors:
  0.000  0.000  0.992  0.008  0.000
  0.000  0.000  0.008  0.992  0.000
  1.000  0.000  0.000  0.000  0.000
  0.000  0.000  0.000  0.000  1.000
  0.000  1.000  0.000  0.000  0.000
    occupations:
  0.588  0.005  0.002  0.001  0.000
  0.005  0.642  0.003 -0.002 -0.001
  0.002  0.003  0.395 -0.003  0.001
  0.001 -0.002 -0.003  0.768  0.000
  0.000 -0.001  0.001  0.000  0.521
atom   22   Tr[ns(na)] =   5.83402
    eigenvalues:
  0.458  0.510  0.600  0.603  0.746
    eigenvectors:
  0.000  0.000  0.151  0.067  0.782
  0.000  0.000  0.312  0.688  0.000
  0.084  0.916  0.000  0.000  0.000
  0.000  0.000  0.537  0.245  0.218
  0.916  0.084  0.000  0.000  0.000
    occupations:
  0.714  0.001  0.000 -0.060 -0.004
  0.001  0.602  0.000  0.001 -0.000
  0.000  0.000  0.506 -0.000 -0.014
 -0.060  0.001 -0.000  0.633  0.002
 -0.004 -0.000 -0.014  0.002  0.462
atom   23   Tr[ns(na)] =   5.85694
    eigenvalues:
  0.489  0.494  0.528  0.603  0.815
    eigenvectors:
  0.015  0.000  0.000  0.974  0.010
  0.967  0.018  0.000  0.015  0.000
  0.018  0.982  0.000  0.000  0.000
  0.000  0.000  0.000  0.010  0.990
  0.000  0.000  0.999  0.000  0.000
    occupations:
  0.603  0.014  0.000 -0.021  0.000
  0.014  0.490 -0.001 -0.002  0.001
  0.000 -0.001  0.494 -0.000 -0.001
 -0.021 -0.002 -0.000  0.813  0.000
  0.000  0.001 -0.001  0.000  0.528
N of occupied +U levels =  46.5930508
 --- exit write_ns ---

     Threshold (ethr) on eigenvalues was too large:
     Diagonalizing with lowered threshold

     Davidson diagonalization with overlap
     ethr =  4.44E-09,  avg # of iterations =  3.0

[...]

     total energy              =   -1730.25486940 Ry
     Harris-Foulkes estimate   =   -1730.25486940 Ry
     estimated scf accuracy    <       0.00000002 Ry

     iteration # 11     ecut=    40.00 Ry     beta=0.70
     Davidson diagonalization with overlap
     ethr =  8.20E-12,  avg # of iterations =  1.0

     negative rho (up, down):  0.340E-02 0.000E+00

     End of self-consistent calculation
 --- enter write_ns ---
 LDA+U parameters:
U( 2)     =  5.00000000
alpha( 2) =  0.00000000
atom    3   Tr[ns(na)] =   5.82432
    eigenvalues:
  0.425  0.506  0.570  0.640  0.771
    eigenvectors:
  0.011  0.002  0.304  0.001  0.681
  0.000  0.992  0.005  0.003  0.000
  0.989  0.000  0.002  0.000  0.010
  0.000  0.003  0.688  0.000  0.308
  0.000  0.002  0.001  0.996  0.001
    occupations:
  0.705  0.005  0.031 -0.092  0.002
  0.005  0.507 -0.000  0.002 -0.007
  0.031 -0.000  0.429 -0.014 -0.001
 -0.092  0.002 -0.014  0.632 -0.003
  0.002 -0.007 -0.001 -0.003  0.639
atom    4   Tr[ns(na)] =   5.82088
    eigenvalues:
  0.383  0.521  0.584  0.658  0.764
    eigenvectors:
  0.000  0.000  0.995  0.004  0.000
  0.000  0.000  0.004  0.995  0.000
  1.000  0.000  0.000  0.000  0.000
  0.000  0.000  0.000  0.000  0.999
  0.000  1.000  0.000  0.000  0.000
    occupations:
  0.584  0.005  0.001  0.002  0.000
  0.005  0.658  0.003 -0.002 -0.000
  0.001  0.003  0.383  0.001  0.000
  0.002 -0.002  0.001  0.764 -0.000
  0.000 -0.000  0.000 -0.000  0.521
atom    9   Tr[ns(na)] =   5.83642
    eigenvalues:
  0.464  0.509  0.601  0.605  0.739
    eigenvectors:
  0.000  0.000  0.191  0.021  0.788
  0.000  0.000  0.103  0.897  0.000
  0.084  0.916  0.000  0.000  0.000
  0.000  0.000  0.707  0.082  0.212
  0.916  0.084  0.000  0.000  0.000
    occupations:
  0.710 -0.001  0.000 -0.056 -0.000
 -0.001  0.604 -0.001 -0.001 -0.000
  0.000 -0.001  0.506 -0.000  0.013
 -0.056 -0.001 -0.000  0.630 -0.000
 -0.000 -0.000  0.013 -0.000  0.468
atom   10   Tr[ns(na)] =   5.77156
    eigenvalues:
  0.384  0.469  0.510  0.717  0.806
    eigenvectors:
  0.002  0.993  0.000  0.005  0.000
  0.000  0.000  0.000  0.000  1.000
  0.998  0.002  0.000  0.000  0.000
  0.000  0.005  0.000  0.995  0.000
  0.000  0.000  1.000  0.000  0.000
    occupations:
  0.470 -0.002 -0.004  0.018 -0.000
 -0.002  0.806 -0.001 -0.000 -0.000
 -0.004 -0.001  0.384 -0.000 -0.000
  0.018 -0.000 -0.000  0.716 -0.000
 -0.000 -0.000 -0.000 -0.000  0.510
atom   16   Tr[ns(na)] =   5.82230
    eigenvalues:
  0.425  0.504  0.570  0.636  0.776
    eigenvectors:
  0.011  0.003  0.307  0.001  0.679
  0.000  0.992  0.005  0.003  0.000
  0.988  0.000  0.001  0.000  0.010
  0.001  0.003  0.686  0.000  0.311
  0.000  0.003  0.001  0.997  0.000
    occupations:
  0.708 -0.006  0.032 -0.094 -0.001
 -0.006  0.505  0.000 -0.002 -0.007
  0.032  0.000  0.429 -0.015  0.001
 -0.094 -0.002 -0.015  0.634  0.002
 -0.001 -0.007  0.001  0.002  0.635
atom   17   Tr[ns(na)] =   5.82649
    eigenvalues:
  0.395  0.521  0.588  0.642  0.768
    eigenvectors:
  0.000  0.000  0.992  0.008  0.000
  0.000  0.000  0.008  0.992  0.000
  1.000  0.000  0.000  0.000  0.000
  0.000  0.000  0.000  0.000  1.000
  0.000  1.000  0.000  0.000  0.000
    occupations:
  0.588  0.005  0.002  0.001  0.000
  0.005  0.641  0.003 -0.002 -0.001
  0.002  0.003  0.395 -0.003  0.001
  0.001 -0.002 -0.003  0.768  0.000
  0.000 -0.001  0.001  0.000  0.521
atom   22   Tr[ns(na)] =   5.83387
    eigenvalues:
  0.458  0.510  0.600  0.603  0.746
    eigenvectors:
  0.000  0.000  0.151  0.067  0.782
  0.000  0.000  0.312  0.688  0.000
  0.084  0.916  0.000  0.000  0.000
  0.000  0.000  0.537  0.245  0.218
  0.916  0.084  0.000  0.000  0.000
    occupations:
  0.714  0.001  0.000 -0.060 -0.004
  0.001  0.602  0.000  0.001 -0.000
  0.000  0.000  0.506 -0.000 -0.015
 -0.060  0.001 -0.000  0.633  0.002
 -0.004 -0.000 -0.015  0.002  0.462
atom   23   Tr[ns(na)] =   5.85656
    eigenvalues:
  0.489  0.494  0.528  0.603  0.815
    eigenvectors:
  0.015  0.000  0.000  0.974  0.010
  0.966  0.019  0.000  0.015  0.000
  0.019  0.981  0.000  0.000  0.000
  0.000  0.000  0.000  0.010  0.990
  0.000  0.000  0.999  0.000  0.000
    occupations:
  0.603  0.014  0.000 -0.021  0.000
  0.014  0.490 -0.001 -0.002  0.001
  0.000 -0.001  0.494 -0.000 -0.001
 -0.021 -0.002 -0.000  0.813  0.000
  0.000  0.001 -0.001  0.000  0.528
N of occupied +U levels =  46.5924013
 --- exit write_ns ---

[...]

          k = 0.2500-0.3900 0.0000 ( 29726 PWs)   bands (ev):

[...]

          k =-0.2500 0.1950 0.0000 ( 29746 PWs)   bands (ev):

   -62.3248 -62.3082 -62.2173 -61.8681 -61.8415 -61.7850 -61.7605 -61.6350
   -36.8706 -36.8461 -36.7461 -36.6679 -36.4446 -36.2366 -36.2180 -36.2122
   -36.1541 -36.1474 -36.1122 -36.1029 -36.0880 -36.0808 -36.0512 -36.0311
   -35.9751 -35.9733 -35.9317 -35.9111 -35.8703 -35.3866 -35.3617 -35.3402
   -20.3948 -20.1037 -19.7698 -19.6420 -19.5062 -19.3461 -19.2529 -19.1881
   -19.1649 -19.0853 -18.9005 -18.7704 -18.7338 -18.7147 -18.5770 -18.5036
   -18.3608 -18.0927 -17.9230  -8.6095  -8.3302  -8.2027  -8.1244  -7.7837
    -7.6271  -7.5379  -7.4011  -7.3692  -7.2494  -7.1162  -6.9845  -6.7863
    -6.7118  -6.4937  -6.3715  -6.2779  -6.2130  -6.0855  -5.9080  -5.8005
    -5.7244  -5.6226  -5.4695  -5.3777  -5.1604  -5.0780  -4.9850  -4.8154
    -4.7545  -4.6115  -4.5268  -4.3981  -4.3485  -4.2661  -4.2126  -4.1757
    -4.1464  -4.0973  -3.9895  -3.9133  -3.7452  -3.6357  -3.5669  -3.4905
    -3.4336  -3.3220  -3.2530  -3.1499  -3.1307  -2.9797  -2.9587  -2.7969
    -2.6978  -2.6206  -2.5569  -2.2769  -1.9002  -1.7481  -1.6326  -0.6328
    -0.5768  -0.4308  -0.2513   0.4529   0.5848   0.7797   0.8862   1.0109
     1.1510   1.2789   1.4034   1.5332   1.6186   1.7300   1.8095   1.8286
     1.9119   2.0339   2.1625   2.4965   2.7554   3.5353   3.6834   3.7973
     3.9738   4.1256   4.1913   4.3366   4.5697   4.6175   4.7028   4.8701
     4.9144   5.0203   5.0937   5.3456   5.7128   5.9115   5.9674   6.0875
     6.2335   6.3223   6.4274   6.4993   6.5873   6.8266   7.1169   7.1652
     7.2588   7.3671   7.6209   7.6972   8.0079   8.1277   8.3116   8.3786
     8.5297   8.6423   8.7617   8.8858   8.9643   9.0903   9.1511   9.2978
     9.4373   9.4923   9.5840   9.6519   9.7276   9.8358   9.8624   9.9801
    10.1206  10.3565  10.3940  10.4735  10.5360  10.7175  10.7722  10.8686
    10.9452  11.0476  11.1673  11.2287  11.4001  11.5333  11.6632  11.6803
    11.8190  11.8876  11.9284  12.0518  12.0857  12.2073  12.2900  12.3523
    12.4147  12.4563  12.5121  12.6591  12.7680  12.8704  12.9934  13.0555
    13.1080  13.2045  13.2708  13.3543  13.3819  13.4798  13.5217  13.5722
    13.6690  13.7668  13.8412  13.9092  13.9657  14.0301  14.0480  14.1248
    14.2038  14.2376  14.2844  14.3654  14.3922  14.4997  14.5434  14.6386
    14.7114  14.7719  14.8596  14.9482  15.0196  15.1339  15.1600  15.2772
    15.3636  15.4501  15.5396  15.5975  15.6285  15.7514  15.8064  15.9718
    15.9951  16.0411  16.1105  16.1468  16.2386  16.3392  16.4146  16.4511
    16.4910  16.5243  16.5833  16.6697  16.7929  16.8355  16.8635  16.9848
    17.0758  17.1271  17.2113  17.2666  17.2843  17.3569  17.4294  17.4940
    17.5286  17.6070  17.7040  17.8273  17.9168  17.9895  18.0665  18.1182
    18.2151  18.2749  18.3328  18.3469  18.4379  18.5747  18.6092  18.7379
    18.7848  18.8703  18.9693  19.0087  19.0532  19.1414  19.2557  19.2904
    19.3815  19.4481  19.5486  19.6131  19.8083  19.8254  19.9468  19.9798
    20.0196  20.1147  20.1325  20.1733  20.2437  20.2728  20.3495  20.3628
    20.4025  20.4886  20.5265  20.6099  20.6475  20.7524  20.7944  20.8410
    20.9039  21.0293  21.0474  21.1461  21.2466  21.2899  21.3496  21.3893
    21.4499  21.4966  21.5322  21.6025  21.6405  21.7094  21.7443  21.7916
    21.8251  21.8870

     the Fermi energy is     0.1614 ev

!    total energy              =   -1730.25486940 Ry
     Harris-Foulkes estimate   =   -1730.25486940 Ry
     estimated scf accuracy    <          5.2E-09 Ry

     The total energy is the sum of the following terms:

     one-electron contribution =  -22254.15742799 Ry
     hartree contribution      =   11153.40968080 Ry
     xc contribution           =    -294.59927390 Ry
     ewald contribution        =    9661.73413803 Ry
     Hubbard energy            =       3.35748116 Ry
     smearing contrib. (-TS)   =       0.00053250 Ry

     convergence has been achieved in  11 iterations

     Forces acting on atoms (Ry/au):

     negative rho (up, down):  0.340E-02 0.000E+00
     atom    1 type  1   force =    -0.00141659   -0.00508584    0.00075582
     atom    2 type  1   force =    -0.00010512    0.00584737    0.00002721
     atom    3 type  2   force =     0.02245136   -0.00583411   -0.00000369
     atom    4 type  2   force =     0.00132932    0.00387371    0.00032946
     atom    5 type  1   force =     0.00084492   -0.01801067   -0.00031995
     atom    6 type  1   force =    -0.00037845    0.01590031   -0.00036517
     atom    7 type  1   force =    -0.00078858    0.00284364    0.00054998
     atom    8 type  1   force =     0.00353063   -0.00022423   -0.00025777
     atom    9 type  2   force =    -0.00239194   -0.00023976   -0.00046354
     atom   10 type  2   force =    -0.00456776    0.00105925    0.00019171
     atom   11 type  1   force =    -0.01560922   -0.00194561    0.00008671
     atom   12 type  1   force =    -0.01516718    0.00081069    0.00026624
     atom   13 type  1   force =     0.00146730    0.00040050   -0.00023540
     atom   14 type  1   force =    -0.00098901   -0.00498705    0.00047626
     atom   15 type  1   force =    -0.00070271    0.00940884    0.00009085
     atom   16 type  2   force =    -0.01754504   -0.00718172    0.00001473
     atom   17 type  2   force =    -0.00263966    0.00420577    0.00034935
     atom   18 type  1   force =     0.00191827   -0.01863109   -0.00028523
     atom   19 type  1   force =    -0.00001410    0.01650728   -0.00023850
     atom   20 type  1   force =    -0.00882714   -0.00046125   -0.00027262
     atom   21 type  1   force =     0.00366936    0.00140275    0.00015820
     atom   22 type  2   force =    -0.00224895   -0.00007342    0.00002255
     atom   23 type  2   force =     0.01050819    0.00258273   -0.00038277
     atom   24 type  1   force =     0.01423992   -0.00228069   -0.00003883
     atom   25 type  1   force =     0.01467004    0.00081186   -0.00012294
     atom   26 type  1   force =    -0.00151116    0.00012769   -0.00055664
     atom   27 type  3   force =     0.00003651    0.00043356    0.00086779
     atom   28 type  3   force =    -0.00002018   -0.00014266    0.00002718
     atom   29 type  3   force =    -0.00045653   -0.00013113    0.00003689
     atom   30 type  3   force =    -0.00043431   -0.00017386   -0.00031731
     atom   31 type  1   force =     0.00078395    0.00006842   -0.00042667
     atom   32 type  3   force =     0.00036387   -0.00088127    0.00003611

     Total force =     0.002442     Total SCF correction =     0.000186

     bfgs converged in  14 scf cycles and  13 bfgs steps
     (criteria: energy < 0.10E-03, force < 0.10E-02)

     End of BFGS Geometry Optimization

     Final energy   =   -1730.2548693996 Ry
Begin final coordinates

ATOMIC_POSITIONS (crystal)
O0       0.000000000   0.000000000   0.370897796    0   0   1
O0       0.000000000   0.500000000   0.383376673    0   0   1
Mo1      0.250000000   0.500000000   0.441172187    0   0   1
Mo1      0.000000000   0.000000000   0.442867711    0   0   1
O0       0.250000000   0.780000000   0.443325421    0   0   1
O0       0.250000000   0.220000000   0.443253183    0   0   1
O0       0.000000000   0.500000000   0.497554673    0   0   1
O0       0.000000000   0.000000000   0.516618493    0   0   1
Mo1      0.250000000   0.000000000   0.574800390    0   0   1
Mo1      0.000000000   0.500000000   0.566582718    0   0   1
O0       0.250000000   0.720000000   0.571162073    0   0   1
O0       0.250000000   0.280000000   0.571311582    0   0   1
O0       0.000000000   0.000000000   0.625190606    0   0   1
O0       0.500000000   0.000000000   0.371144280    0   0   1
O0       0.500000000   0.500000000   0.382779265    0   0   1
Mo1      0.750000000   0.500000000   0.440925932    0   0   1
Mo1      0.500000000   0.000000000   0.443136122    0   0   1
O0       0.750000000   0.780000000   0.443341892    0   0   1
O0       0.750000000   0.220000000   0.443166611    0   0   1
O0       0.500000000   0.500000000   0.500493666    0   0   1
O0       0.500000000   0.000000000   0.516168335    0   0   1
Mo1      0.750000000   0.000000000   0.574409178    0   0   1
Mo1      0.500000000   0.500000000   0.571095850    0   0   1
O0       0.750000000   0.720000000   0.571317559    0   0   1
O0       0.750000000   0.280000000   0.571302033    0   0   1
O0       0.500000000   0.000000000   0.625096972    0   0   1
H2      -0.000900167   0.612279490   0.361465762
H2       0.499554573   0.612906526   0.361108770
H2       0.166409434   0.018262463   0.356242638
H2       0.665825028   0.018997195   0.356325065
O0       0.501221172   0.500486510   0.641418951
H2       0.394292815   0.492652339   0.670297612
End final coordinates

     General routines

     Parallel routines
     Hubbard U routines

   This run was terminated on:  13:30:58  29Apr2014

   JOB DONE.