     Program PWSCF v.5.0.2 (svn rev. 9656) starts on  9May2014 at 11:43:44

     Current dimensions of program PWSCF are:
     Max number of different atomic species (ntypx) = 10
     Max number of k-points (npk) =  40000
     Max angular momentum in pseudopotentials (lmaxx) =  3
     Reading input from pwscf.in
Warning: card &CELL ignored
Warning: card / ignored

     Subspace diagonalization in iterative solution of the eigenvalue problem:
     a serial algorithm will be used

     Found symmetry operation: I + ( -0.5000  0.0000  0.0000)
     This is a supercell, fractional translations are disabled

     bravais-lattice index     =            0
     lattice parameter (alat)  =      10.7336  a.u.
     unit-cell volume          =    6184.1966 (a.u.)^3
     number of atoms/cell      =           30
     number of atomic types    =            3
     number of electrons       =       232.00 (up: 128.00, down: 104.00)
     number of Kohn-Sham states=          336
     kinetic-energy cutoff     =      40.0000  Ry
     charge density cutoff     =     500.0000  Ry
     convergence threshold     =      1.0E-06
     mixing beta               =       0.7000
     number of iterations used =            8  plain     mixing
     Exchange-correlation      = SLA  PW   PBE  PBE ( 1 4 3 4 0)
     EXX-fraction              =        0.00
     nstep                     =           50

     celldm(1)=  10.733644  celldm(2)=   0.000000  celldm(3)=   0.000000
     celldm(4)=   0.000000  celldm(5)=   0.000000  celldm(6)=   0.000000

     crystal axes: (cart. coord. in units of alat)
               a(1) = (   1.000000   0.000000   0.000000 )
               a(2) = (   0.000000   1.085558   0.000000 )
               a(3) = (   0.000000   0.000000   4.606685 )

     reciprocal axes: (cart. coord. in units 2 pi/alat)
               b(1) = (  1.000000  0.000000  0.000000 )
               b(2) = (  0.000000  0.921185  0.000000 )
               b(3) = (  0.000000  0.000000  0.217076 )

     PseudoPot. # 1 for O  read from file:
     /home/camp/zhonxu/pseudo/o_pbe_v1.01.uspp.F.UPF
     MD5 check sum: 2bcb18d16ea4b960afae9ec6d52f22d2
     Pseudo is Ultrasoft + core correction, Zval =  6.0
     Generated by new atomic code, or converted to UPF format
     Using radial grid of  737 points,  5 beta functions with:
                l(1) =   0
                l(2) =   0
                l(3) =   1
                l(4) =   1
                l(5) =   2
     Q(r) pseudized with  8 coefficients,  rinner =    0.900   0.900   0.900
                                                       0.900   0.900

     PseudoPot. # 2 for Mn read from file:
     /home/camp/zhonxu/pseudo/mn_pbe_v1.uspp.F.UPF
     MD5 check sum: 5fd7c7b5c956fd19902447332617373a
     Pseudo is Ultrasoft + core correction, Zval = 15.0
     Generated by new atomic code, or converted to UPF format
     Using radial grid of  859 points,  6 beta functions with:
                l(1) =   0
                l(2) =   0
                l(3) =   1
                l(4) =   1
                l(5) =   2
                l(6) =   2
     Q(r) pseudized with  6 coefficients,  rinner =    1.150   1.150   1.150
                                                       1.150   1.150

     PseudoPot. # 3 for H  read from file:
     /home/camp/zhonxu/pseudo/h_pbe_v1.uspp.F.UPF
     MD5 check sum: 3408e3ff4ec8b0a4e358431e7e038a48
     Pseudo is Ultrasoft, Zval =  1.0
     Generated by new atomic code, or converted to UPF format
     Using radial grid of  615 points,  2 beta functions with:
                l(1) =   0
                l(2) =   0
     Q(r) pseudized with  8 coefficients,  rinner =    0.700

     atomic species   valence    mass     pseudopotential
        O0             6.00    15.99940     O ( 1.00)
        Mn1           15.00    54.93800     Mn( 1.00)
        H2             1.00     1.00794     H ( 1.00)

     Starting magnetic structure
     atomic species   magnetization
        O0           0.000
        Mn1          0.600
        H2           0.000

     Simplified LDA+U calculation (l_max = 2) with parameters (eV):
     atomic species    L          U    alpha       J0     beta
        Mn1            2     4.0000   0.0000   0.0000   0.0000

     No symmetry found

   Cartesian axes

     site n.     atom                  positions (alat units)
         1           O0  tau(   1) = (   0.0000000   0.0000000   1.7440910  )
         2           O0  tau(   2) = (   0.0000000   0.5427791   1.8348887  )
         3           Mn1 tau(   3) = (   0.2500000   0.5427791   2.0695072  )
         4           Mn1 tau(   4) = (   0.0000000   0.0000000   2.0719487  )
         5           O0  tau(   5) = (   0.2500000   0.8684466   2.0695533  )
         6           O0  tau(   6) = (   0.2500000   0.2171117   2.0770161  )
         7           O0  tau(   7) = (   0.0000000   0.5427791   2.2881405  )
         8           O0  tau(   8) = (   0.0000000   0.0000000   2.4167130  )
         9           Mn1 tau(   9) = (   0.2500000   0.0000000   2.6452046  )
        10           Mn1 tau(  10) = (   0.0000000   0.5427791   2.6189465  )
        11           O0  tau(  11) = (   0.2500000   0.7598908   2.6694358  )
        12           O0  tau(  12) = (   0.2500000   0.3256675   2.6696661  )
        13           O0  tau(  13) = (   0.0000000   0.0000000   2.8462864  )
        14           O0  tau(  14) = (   0.5000000   0.0000000   1.7440910  )
        15           O0  tau(  15) = (   0.5000000   0.5427791   1.8348887  )
        16           Mn1 tau(  16) = (   0.7500000   0.5427791   2.0695072  )
        17           Mn1 tau(  17) = (   0.5000000   0.0000000   2.0719487  )
        18           O0  tau(  18) = (   0.7500000   0.8684466   2.0695533  )
        19           O0  tau(  19) = (   0.7500000   0.2171117   2.0770161  )
        20           O0  tau(  20) = (   0.5000000   0.5427791   2.2881405  )
        21           O0  tau(  21) = (   0.5000000   0.0000000   2.4167130  )
        22           Mn1 tau(  22) = (   0.7500000   0.0000000   2.6452046  )
        23           Mn1 tau(  23) = (   0.5000000   0.5427791   2.6189465  )
        24           O0  tau(  24) = (   0.7500000   0.7598908   2.6694358  )
        25           O0  tau(  25) = (   0.7500000   0.3256675   2.6696661  )
        26           O0  tau(  26) = (   0.5000000   0.0000000   2.8462864  )
        27           H2  tau(  27) = (  -0.0000900   0.7018026   1.7591088  )
        28           H2  tau(  28) = (   0.4999100   0.7018026   1.7591088  )
        29           H2  tau(  29) = (   0.1616900   0.0388738   1.6898703  )
        30           H2  tau(  30) = (   0.6616900   0.0388738   1.6898703  )

     number of k points=    20  Methfessel-Paxton smearing, width (Ry)=  0.0100
                       cart. coord. in units 2pi/alat
        k(    1) = (   0.0000000   0.0000000   0.0000000), wk =   0.0625000
        k(    2) = (   0.0000000   0.2302962   0.0000000), wk =   0.1250000
        k(    3) = (   0.0000000  -0.4605925   0.0000000), wk =   0.0625000
        k(    4) = (   0.2500000   0.0000000   0.0000000), wk =   0.1250000
        k(    5) = (   0.2500000   0.2302962   0.0000000), wk =   0.1250000
        k(    6) = (   0.2500000  -0.4605925   0.0000000), wk =   0.1250000
        k(    7) = (  -0.5000000   0.0000000   0.0000000), wk =   0.0625000
        k(    8) = (  -0.5000000   0.2302962   0.0000000), wk =   0.1250000
        k(    9) = (  -0.5000000  -0.4605925   0.0000000), wk =   0.0625000
        k(   10) = (  -0.2500000   0.2302962   0.0000000), wk =   0.1250000
        k(   11) = (   0.0000000   0.0000000   0.0000000), wk =   0.0625000
        k(   12) = (   0.0000000   0.2302962   0.0000000), wk =   0.1250000
        k(   13) = (   0.0000000  -0.4605925   0.0000000), wk =   0.0625000
        k(   14) = (   0.2500000   0.0000000   0.0000000), wk =   0.1250000
        k(   15) = (   0.2500000   0.2302962   0.0000000), wk =   0.1250000
        k(   16) = (   0.2500000  -0.4605925   0.0000000), wk =   0.1250000
        k(   17) = (  -0.5000000   0.0000000   0.0000000), wk =   0.0625000
        k(   18) = (  -0.5000000   0.2302962   0.0000000), wk =   0.1250000
        k(   19) = (  -0.5000000  -0.4605925   0.0000000), wk =   0.0625000
        k(   20) = (  -0.2500000   0.2302962   0.0000000), wk =   0.1250000

     Largest allocated arrays     est. size (Mb)     dimensions
     Largest temporary arrays     est. size (Mb)     dimensions

     Check: negative/imaginary core charge=   -0.000022    0.000000

     Initial potential from superposition of free atoms
     Check: negative starting charge=(component1):   -0.000776
     Check: negative starting charge=(component2):   -0.000381

     starting charge  223.99987, renormalised to  232.00000

     negative rho (up, down):  0.804E-03 0.395E-03
     Number of +U iterations with fixed ns =  0
     Starting occupations:
 --- enter write_ns ---
 LDA+U parameters:
U( 2)     =  4.00000000
alpha( 2) =  0.00000000
atom    3   Tr[ns(na)] (up, down, total) =   5.00000  0.00000  5.00000
   spin  1
    eigenvalues:
  1.000  1.000  1.000  1.000  1.000
    eigenvectors:
  1.000  0.000  0.000  0.000  0.000
  0.000  1.000  0.000  0.000  0.000
  0.000  0.000  1.000  0.000  0.000
  0.000  0.000  0.000  1.000  0.000
  0.000  0.000  0.000  0.000  1.000
    occupations:
  1.000  0.000  0.000  0.000  0.000
  0.000  1.000  0.000  0.000  0.000
  0.000  0.000  1.000  0.000  0.000
  0.000  0.000  0.000  1.000  0.000
  0.000  0.000  0.000  0.000  1.000
   spin  2
    eigenvalues:
  0.000  0.000  0.000  0.000  0.000
    eigenvectors:
  1.000  0.000  0.000  0.000  0.000
  0.000  1.000  0.000  0.000  0.000
  0.000  0.000  1.000  0.000  0.000
  0.000  0.000  0.000  1.000  0.000
  0.000  0.000  0.000  0.000  1.000
    occupations:
  0.000  0.000  0.000  0.000  0.000
  0.000  0.000  0.000  0.000  0.000
  0.000  0.000  0.000  0.000  0.000
  0.000  0.000  0.000  0.000  0.000
  0.000  0.000  0.000  0.000  0.000
atomic mag. moment =     5.000000
atom    4   Tr[ns(na)] (up, down, total) =   5.00000  0.00000  5.00000
   spin  1
    eigenvalues:
  1.000  1.000  1.000  1.000  1.000
    eigenvectors:
  1.000  0.000  0.000  0.000  0.000
  0.000  1.000  0.000  0.000  0.000
  0.000  0.000  1.000  0.000  0.000
  0.000  0.000  0.000  1.000  0.000
  0.000  0.000  0.000  0.000  1.000
    occupations:
  1.000  0.000  0.000  0.000  0.000
  0.000  1.000  0.000  0.000  0.000
  0.000  0.000  1.000  0.000  0.000
  0.000  0.000  0.000  1.000  0.000
  0.000  0.000  0.000  0.000  1.000
   spin  2
    eigenvalues:
  0.000  0.000  0.000  0.000  0.000
    eigenvectors:
  1.000  0.000  0.000  0.000  0.000
  0.000  1.000  0.000  0.000  0.000
  0.000  0.000  1.000  0.000  0.000
  0.000  0.000  0.000  1.000  0.000
  0.000  0.000  0.000  0.000  1.000
    occupations:
  0.000  0.000  0.000  0.000  0.000
  0.000  0.000  0.000  0.000  0.000
  0.000  0.000  0.000  0.000  0.000
  0.000  0.000  0.000  0.000  0.000
  0.000  0.000  0.000  0.000  0.000
atomic mag. moment =     5.000000
atom    9   Tr[ns(na)] (up, down, total) =   5.00000  0.00000  5.00000
   spin  1
    eigenvalues:
  1.000  1.000  1.000  1.000  1.000
    eigenvectors:
[...]
  0.220  0.000  0.001  0.000  0.780
  0.000  0.998  0.000  0.002  0.000
    occupations:
  0.155 -0.000 -0.002  0.114 -0.000
 -0.000  0.355  0.000 -0.000  0.010
 -0.002  0.000  0.141  0.003 -0.000
  0.114 -0.000  0.003  0.309 -0.000
 -0.000  0.010 -0.000 -0.000  0.123
atomic mag. moment =     3.248789
atom    4   Tr[ns(na)] (up, down, total) =   4.30835  1.10292  5.41128
   spin  1
    eigenvalues:
  0.624  0.681  0.995  1.004  1.004
    eigenvectors:
  0.000  0.998  0.001  0.001  0.000
  0.000  0.001  0.000  0.998  0.001
  0.000  0.000  0.000  0.001  0.999
  0.000  0.001  0.999  0.000  0.000
  1.000  0.000  0.000  0.000  0.000
    occupations:
  0.681 -0.011 -0.005  0.007 -0.001
 -0.011  1.004 -0.000  0.000  0.000
 -0.005 -0.000  1.004  0.000  0.000
  0.007  0.000  0.000  0.995  0.000
 -0.001  0.000  0.000  0.000  0.624
   spin  2
    eigenvalues:
  0.095  0.125  0.142  0.363  0.379
    eigenvectors:
  0.003  0.003  0.000  0.993  0.000
  0.001  0.849  0.146  0.003  0.000
  0.001  0.145  0.854  0.001  0.000
  0.995  0.002  0.000  0.003  0.000
  0.000  0.000  0.000  0.000  1.000
    occupations:
  0.361  0.013  0.006 -0.015  0.000
  0.013  0.128 -0.006  0.000 -0.004
  0.006 -0.006  0.139  0.001  0.000
 -0.015  0.000  0.001  0.096 -0.000
  0.000 -0.004  0.000 -0.000  0.379
atomic mag. moment =     3.205431
atom    9   Tr[ns(na)] (up, down, total) =   4.29453  1.15222  5.44675
   spin  1
    eigenvalues:
  0.671  0.674  0.969  0.982  0.998
    eigenvectors:
  0.214  0.003  0.000  0.000  0.783
  0.013  0.987  0.000  0.000  0.000
  0.000  0.000  0.000  1.000  0.000
  0.773  0.010  0.000  0.000  0.217
  0.000  0.000  1.000  0.000  0.000
    occupations:
  0.927  0.000  0.000 -0.135  0.000
  0.000  0.674  0.000  0.000  0.000
  0.000  0.000  0.982  0.000 -0.000
 -0.135  0.000  0.000  0.742  0.000
  0.000  0.000 -0.000  0.000  0.969
   spin  2
    eigenvalues:
  0.115  0.132  0.133  0.376  0.396
    eigenvectors:
  0.816  0.000  0.000  0.184  0.000
  0.000  0.000  0.000  0.000  1.000
  0.000  0.000  1.000  0.000  0.000
  0.184  0.000  0.000  0.816  0.000
  0.000  1.000  0.000  0.000  0.000
    occupations:
  0.163 -0.000  0.000  0.101 -0.000
 -0.000  0.396 -0.000 -0.000 -0.000
  0.000 -0.000  0.133 -0.000 -0.000
  0.101 -0.000 -0.000  0.328 -0.000
 -0.000 -0.000 -0.000 -0.000  0.132
atomic mag. moment =     3.142303
atom   10   Tr[ns(na)] (up, down, total) =   4.56376  0.76860  5.33236
   spin  1
    eigenvalues:
  0.649  0.923  0.996  0.998  0.999
    eigenvectors:
  0.000  0.968  0.000  0.032  0.000
  0.000  0.000  1.000  0.000  0.000
  0.000  0.000  0.000  0.000  1.000
  0.000  0.032  0.000  0.967  0.000
  1.000  0.000  0.000  0.000  0.000
    occupations:
  0.925 -0.000  0.000  0.013  0.000
 -0.000  0.996  0.000  0.000 -0.000
  0.000  0.000  0.999 -0.000 -0.000
  0.013  0.000 -0.000  0.995 -0.000
  0.000 -0.000 -0.000 -0.000  0.649
   spin  2
    eigenvalues:
  0.080  0.092  0.099  0.166  0.331
    eigenvectors:
  0.031  0.000  0.000  0.969  0.000
  0.000  0.000  1.000  0.000  0.000
  0.000  1.000  0.000  0.000  0.000
  0.969  0.000  0.000  0.031  0.000
  0.000  0.000  0.000  0.000  1.000
    occupations:
  0.164  0.000 -0.000 -0.015  0.000
  0.000  0.099 -0.000 -0.000  0.000
 -0.000 -0.000  0.092 -0.000  0.000
 -0.015 -0.000 -0.000  0.083 -0.000
  0.000  0.000  0.000 -0.000  0.331
atomic mag. moment =     3.795162
atom   16   Tr[ns(na)] (up, down, total) =   4.33287  1.08408  5.41695
   spin  1
    eigenvalues:
  0.651  0.683  0.998  0.998  1.004
    eigenvectors:
  0.246  0.000  0.630  0.097  0.028
  0.000  0.999  0.000  0.001  0.000
  0.000  0.000  0.028  0.005  0.966
  0.754  0.000  0.208  0.032  0.006
  0.000  0.001  0.134  0.865  0.000
    occupations:
  0.913  0.000 -0.004 -0.149  0.000
  0.000  0.683 -0.000  0.000 -0.008
 -0.004 -0.000  1.004 -0.004  0.000
 -0.149  0.000 -0.004  0.736  0.000
  0.000 -0.008  0.000  0.000  0.997
   spin  2
    eigenvalues:
  0.094  0.122  0.142  0.356  0.370
    eigenvectors:
  0.776  0.000  0.004  0.000  0.220
  0.000  0.002  0.000  0.998  0.000
  0.004  0.000  0.995  0.000  0.000
  0.220  0.000  0.001  0.000  0.780
  0.000  0.998  0.000  0.002  0.000
    occupations:
  0.155 -0.000 -0.002  0.114 -0.000
 -0.000  0.355  0.000 -0.000  0.010
 -0.002  0.000  0.141  0.003 -0.000
  0.114 -0.000  0.003  0.309 -0.000
 -0.000  0.010 -0.000 -0.000  0.123
atomic mag. moment =     3.248789
atom   17   Tr[ns(na)] (up, down, total) =   4.30835  1.10292  5.41127
   spin  1
    eigenvalues:
  0.624  0.681  0.995  1.004  1.004
    eigenvectors:
  0.000  0.998  0.001  0.001  0.000
  0.000  0.001  0.000  0.998  0.001
  0.000  0.000  0.000  0.001  0.999
  0.000  0.001  0.999  0.000  0.000
  1.000  0.000  0.000  0.000  0.000
    occupations:
  0.681 -0.011 -0.005  0.007 -0.001
 -0.011  1.004 -0.000  0.000  0.000
 -0.005 -0.000  1.004  0.000  0.000
  0.007  0.000  0.000  0.995  0.000
 -0.001  0.000  0.000  0.000  0.624
   spin  2
    eigenvalues:
  0.095  0.125  0.142  0.363  0.379
    eigenvectors:
  0.003  0.003  0.000  0.993  0.000
  0.001  0.849  0.146  0.003  0.000
  0.001  0.145  0.854  0.001  0.000
  0.995  0.002  0.000  0.003  0.000
  0.000  0.000  0.000  0.000  1.000
    occupations:
  0.361  0.013  0.006 -0.015  0.000
  0.013  0.128 -0.006  0.000 -0.004
  0.006 -0.006  0.139  0.001  0.000
 -0.015  0.000  0.001  0.096 -0.000
  0.000 -0.004  0.000 -0.000  0.379
atomic mag. moment =     3.205433
atom   22   Tr[ns(na)] (up, down, total) =   4.29453  1.15222  5.44675
   spin  1
    eigenvalues:
  0.671  0.674  0.969  0.982  0.998
    eigenvectors:
  0.214  0.003  0.000  0.000  0.783
  0.013  0.987  0.000  0.000  0.000
  0.000  0.000  0.000  1.000  0.000
  0.773  0.010  0.000  0.000  0.217
  0.000  0.000  1.000  0.000  0.000
    occupations:
  0.927  0.000  0.000 -0.135  0.000
  0.000  0.674  0.000  0.000  0.000
  0.000  0.000  0.982  0.000 -0.000
 -0.135  0.000  0.000  0.742  0.000
  0.000  0.000 -0.000  0.000  0.969
   spin  2
    eigenvalues:
  0.115  0.132  0.133  0.376  0.396
    eigenvectors:
  0.816  0.000  0.000  0.184  0.000
  0.000  0.000  0.000  0.000  1.000
  0.000  0.000  1.000  0.000  0.000
  0.184  0.000  0.000  0.816  0.000
  0.000  1.000  0.000  0.000  0.000
    occupations:
  0.163 -0.000  0.000  0.101 -0.000
 -0.000  0.396 -0.000 -0.000 -0.000
  0.000 -0.000  0.133 -0.000 -0.000
  0.101 -0.000 -0.000  0.328 -0.000
 -0.000 -0.000 -0.000 -0.000  0.132
atomic mag. moment =     3.142303
atom   23   Tr[ns(na)] (up, down, total) =   4.56376  0.76860  5.33236
   spin  1
    eigenvalues:
  0.649  0.923  0.996  0.998  0.999
    eigenvectors:
  0.000  0.968  0.000  0.032  0.000
  0.000  0.000  1.000  0.000  0.000
  0.000  0.000  0.000  0.000  1.000
  0.000  0.032  0.000  0.967  0.000
  1.000  0.000  0.000  0.000  0.000
    occupations:
  0.925 -0.000  0.000  0.013  0.000
 -0.000  0.996  0.000  0.000 -0.000
  0.000  0.000  0.999 -0.000 -0.000
  0.013  0.000 -0.000  0.995 -0.000
  0.000 -0.000 -0.000 -0.000  0.649
   spin  2
    eigenvalues:
  0.080  0.092  0.099  0.166  0.331
    eigenvectors:
  0.031  0.000  0.000  0.969  0.000
  0.000  0.000  1.000  0.000  0.000
  0.000  1.000  0.000  0.000  0.000
  0.969  0.000  0.000  0.031  0.000
  0.000  0.000  0.000  0.000  1.000
    occupations:
  0.164  0.000 -0.000 -0.015  0.000
  0.000  0.099 -0.000 -0.000  0.000
 -0.000 -0.000  0.092 -0.000  0.000
 -0.015 -0.000 -0.000  0.083 -0.000
  0.000  0.000  0.000 -0.000  0.331
atomic mag. moment =     3.795156
N of occupied +U levels =  43.2146741
 --- exit write_ns ---

 ------ SPIN UP ------------

[...]

 ------ SPIN DOWN ----------

[...]

          k = 0.2500-0.4606 0.0000 ( 26462 PWs)   bands (ev):

[...]

          k =-0.2500 0.2303 0.0000 ( 26396 PWs)   bands (ev):

   -80.5315 -80.5236 -80.4453 -80.4369 -80.4214 -80.4132 -79.5090 -79.5007
   -49.4218 -49.4123 -49.3737 -49.3624 -49.3182 -49.3155 -49.3136 -49.2695
   -49.2599 -49.2526 -49.2520 -49.2427 -49.2264 -49.2145 -49.0964 -49.0781
   -49.0566 -49.0495 -48.6601 -48.5558 -48.4575 -48.4395 -47.9344 -47.9258
   -21.7879 -21.3549 -21.1291 -20.9174 -20.4546 -20.4065 -20.3416 -20.2853
   -20.0971 -20.0768 -19.9738 -19.8933 -19.8170 -19.7870 -19.7555 -19.7111
   -19.5537 -19.5112  -9.1846  -8.9551  -8.5134  -8.4418  -8.2816  -8.0485
    -7.8089  -7.6961  -7.5549  -7.5083  -7.3244  -7.2910  -7.1440  -7.1288
    -6.9581  -6.9461  -6.8404  -6.8030  -6.6836  -6.5269  -6.4594  -6.4409
    -6.3015  -6.1836  -6.1801  -5.8719  -5.8193  -5.7592  -5.6600  -5.5158
    -5.4619  -5.4173  -5.2534  -5.1944  -5.1255  -5.0588  -4.9813  -4.7928
    -4.7790  -4.6532  -4.5565  -4.5205  -4.3909  -4.2473  -4.1361  -4.0804
    -3.9826  -3.8620  -3.7406  -3.6778  -3.5771  -3.2990  -3.2680  -2.9162
     0.2363   0.2525   0.2694   0.3593   0.4055   0.5213   0.5248   0.5860
     0.5937   0.6079   0.7081   0.7451   0.8575   0.9429   1.0046   1.0464
     1.1319   1.1366   1.2305   1.3000   1.3687   1.4174   1.4945   1.5160
     1.5258   1.5720   1.7076   1.7442   1.9564   2.0620   2.0724   2.1605
     2.1840   2.2479   2.3904   2.4939   2.6048   2.7374   2.8226   2.9335
     3.6692   4.1703   4.3534   4.8314   5.3170   5.5997   5.7215   6.0573
     6.2172   6.4024   6.4330   6.5653   6.5825   6.8597   6.9176   7.2620
     7.3430   7.6052   7.7157   7.8698   8.1402   8.2884   8.4198   8.4771
     8.5268   8.5804   8.7621   8.8535   9.1093   9.1999   9.3088   9.4606
     9.5434   9.6610   9.9067   9.9721  10.0564  10.0816  10.1616  10.3441
    10.4432  10.6190  10.6499  10.6967  10.8470  11.0413  11.0436  11.1058
    11.2528  11.3409  11.4244  11.5105  11.5770  11.6726  11.7122  11.7678
    11.8962  11.9998  12.1899  12.2183  12.2542  12.3303  12.4414  12.4808
    12.6353  12.8047  12.8242  12.8599  12.9222  12.9980  13.1107  13.1310
    13.2202  13.2903  13.3509  13.4494  13.5394  13.5842  13.6251  13.6762
    13.8028  13.8695  13.9013  13.9172  14.0839  14.1546  14.2305  14.2807
    14.3284  14.3639  14.4235  14.6326  14.6547  14.6842  14.7312  14.8494
    14.9898  15.0094  15.1085  15.1858  15.3143  15.4366  15.5075  15.6305
    15.6465  15.8082  15.8438  15.9531  15.9940  16.1300  16.2046  16.2750
    16.3580  16.4661  16.5363  16.5368  16.6061  16.7572  16.8123  16.9106
    17.0106  17.0563  17.1455  17.1484  17.2074  17.3175  17.3384  17.4724
    17.4952  17.5967  17.6624  17.7195  17.9016  17.9119  17.9505  18.1091
    18.1964  18.1973  18.2274  18.3321  18.3415  18.4337  18.5096  18.5922
    18.6719  18.7729  18.8139  18.8248  18.9675  19.0791  19.1640  19.2002
    19.2900  19.3081  19.4074  19.4847  19.6191  19.6754  19.7953  19.8623
    19.8966  20.0055  20.0480  20.1010  20.1061  20.1739  20.2873  20.2941
    20.3346  20.4344  20.4481  20.5896  20.6079  20.7662  20.9248  20.9304
    21.0971  21.1125  21.2148  21.2407  21.3165  21.3555  21.4574  21.5270
    21.5737  21.6611  21.7283  21.8067  21.9021  21.9164  22.0563  22.1194

     the spin up/dw Fermi energies are    -2.3775   -0.4168 ev

!    total energy              =   -2287.37728309 Ry
     Harris-Foulkes estimate   =   -2287.37728310 Ry
     estimated scf accuracy    <          5.3E-09 Ry

     The total energy is the sum of the following terms:

     one-electron contribution =  -25491.44074305 Ry
     hartree contribution      =   12761.45154227 Ry
     xc contribution           =    -341.64716964 Ry
     ewald contribution        =   10782.88922365 Ry
     Hubbard energy            =       1.37023229 Ry
     smearing contrib. (-TS)   =      -0.00036862 Ry

     total magnetization       =    24.00 Bohr mag/cell
     absolute magnetization    =    31.37 Bohr mag/cell

     convergence has been achieved in  14 iterations

     Forces acting on atoms (Ry/au):

     negative rho (up, down):  0.198E-02 0.139E-02
     atom    1 type  1   force =    -0.00576608   -0.01525863   -0.00058648
     atom    2 type  1   force =     0.00033826    0.01059298    0.00012123
     atom    3 type  2   force =    -0.00064436   -0.00109941    0.00040950
     atom    4 type  2   force =     0.00713751    0.01117288   -0.00001396
     atom    5 type  1   force =     0.00198926    0.01568730   -0.00010031
     atom    6 type  1   force =    -0.00218007   -0.02031378    0.00020317
     atom    7 type  1   force =     0.00001890    0.00129895    0.00059255
     atom    8 type  1   force =    -0.00136256   -0.00224966    0.00057374
     atom    9 type  2   force =     0.00073506    0.00045113   -0.00081793
     atom   10 type  2   force =    -0.00004305   -0.00064622   -0.00043452
     atom   11 type  1   force =     0.00005215   -0.03455058    0.00013594
     atom   12 type  1   force =     0.00001854    0.03467977    0.00014629
     atom   13 type  1   force =    -0.00040641   -0.00017144   -0.00020258
     atom   14 type  1   force =    -0.00576446   -0.01525824   -0.00058327
     atom   15 type  1   force =     0.00033832    0.01059433    0.00012223
     atom   16 type  2   force =    -0.00064848   -0.00109937    0.00040934
     atom   17 type  2   force =     0.00713650    0.01117292   -0.00000919
     atom   18 type  1   force =     0.00198645    0.01568724   -0.00010043
     atom   19 type  1   force =    -0.00218298   -0.02031371    0.00020311
     atom   20 type  1   force =     0.00001880    0.00129893    0.00059275
     atom   21 type  1   force =    -0.00136260   -0.00224963    0.00057636
     atom   22 type  2   force =     0.00072377    0.00045107   -0.00081799
     atom   23 type  2   force =    -0.00004300   -0.00064625   -0.00043448
     atom   24 type  1   force =     0.00004838   -0.03455056    0.00013594
     atom   25 type  1   force =     0.00001482    0.03467975    0.00014630
     atom   26 type  1   force =    -0.00040637   -0.00017142   -0.00019904
     atom   27 type  3   force =    -0.00000188   -0.00008148   -0.00008916
     atom   28 type  3   force =    -0.00000182   -0.00008180   -0.00008953
     atom   29 type  3   force =     0.00012966    0.00048782    0.00005566
     atom   30 type  3   force =     0.00012777    0.00048709    0.00005477

     Total force =     0.002222     Total SCF correction =     0.000389
     SCF correction compared to forces is large: reduce conv_thr to get better values

     bfgs converged in  15 scf cycles and  14 bfgs steps
     (criteria: energy < 0.10E-03, force < 0.10E-02)

     End of BFGS Geometry Optimization

     Final energy   =   -2287.3772830950 Ry
Begin final coordinates

ATOMIC_POSITIONS (crystal)
O0       0.000000000   0.000000000   0.375866966    0   0   1
O0       0.000000000   0.500000000   0.395296505    0   0   1
Mn1      0.250000000   0.500000000   0.447515515    0   0   1
Mn1      0.000000000   0.000000000   0.447954731    0   0   1
O0       0.250000000   0.800000000   0.447700142    0   0   1
O0       0.250000000   0.200000000   0.450003477    0   0   1
O0       0.000000000   0.500000000   0.495128632    0   0   1
O0       0.000000000   0.000000000   0.525799836    0   0   1
Mn1      0.250000000   0.000000000   0.574690854    0   0   1
Mn1      0.000000000   0.500000000   0.571835921    0   0   1
O0       0.250000000   0.700000000   0.583667947    0   0   1
O0       0.250000000   0.300000000   0.583734427    0   0   1
O0       0.000000000   0.000000000   0.621991430    0   0   1
O0       0.500000000   0.000000000   0.375866968    0   0   1
O0       0.500000000   0.500000000   0.395296470    0   0   1
Mn1      0.750000000   0.500000000   0.447515518    0   0   1
Mn1      0.500000000   0.000000000   0.447954969    0   0   1
O0       0.750000000   0.800000000   0.447700209    0   0   1
O0       0.750000000   0.200000000   0.450003476    0   0   1
O0       0.500000000   0.500000000   0.495128589    0   0   1
O0       0.500000000   0.000000000   0.525799756    0   0   1
Mn1      0.750000000   0.000000000   0.574690854    0   0   1
Mn1      0.500000000   0.500000000   0.571835418    0   0   1
O0       0.750000000   0.700000000   0.583667948    0   0   1
O0       0.750000000   0.300000000   0.583734429    0   0   1
O0       0.500000000   0.000000000   0.621991048    0   0   1
H2       0.000313405   0.647602335   0.379548062
H2       0.500313406   0.647602849   0.379548260
H2       0.161855473   0.039297030   0.364875637
H2       0.661855879   0.039297949   0.364876008
End final coordinates

     General routines

     Parallel routines
     Hubbard U routines

   This run was terminated on:   9:28:40  10May2014

   JOB DONE.
Running PBS batch system epilogue script
Job id: 340901.audhumbla.fysik.dtu.dk
Username: zhonxu
Groupname: campgst
Jobname: MnO2/Eads-2-layers/bare-U-4.0
Sessionid: 31783
Queuename: verylong
Accounting:
This job has allocated the following 16 nodes:
a123 a123 a123 a123 a123 a123 a123 a123 a012 a012 a012 a012 a012 a012 a012 a012
Finished epilogue job 340901.audhumbla.fysik.dtu.dk for zhonxu