     Program PWSCF v.5.0.2 (svn rev. 9656) starts on  9Aug2014 at  8:14:34

     Current dimensions of program PWSCF are:
     Max number of different atomic species (ntypx) = 10
     Max number of k-points (npk) =  40000
     Max angular momentum in pseudopotentials (lmaxx) =  3
     Reading input from pwscf.in
Warning: card &CELL ignored
Warning: card / ignored

     Subspace diagonalization in iterative solution of the eigenvalue problem:
     a serial algorithm will be used

     bravais-lattice index     =            0
     lattice parameter (alat)  =      10.9604  a.u.
     unit-cell volume          =    6350.6732 (a.u.)^3
     number of atoms/cell      =           33
     number of atomic types    =            3
     number of electrons       =       237.00 (up: 126.00, down: 111.00)
     number of Kohn-Sham states=          343
     kinetic-energy cutoff     =      40.0000  Ry
     charge density cutoff     =     500.0000  Ry
     convergence threshold     =      1.0E-06
     mixing beta               =       0.7000
     number of iterations used =            8  plain     mixing
     Exchange-correlation      = SLA  PW   PBE  PBE ( 1 4 3 4 0)
     EXX-fraction              =        0.00
     nstep                     =           50

     celldm(1)=  10.960412  celldm(2)=   0.000000  celldm(3)=   0.000000
     celldm(4)=   0.000000  celldm(5)=   0.000000  celldm(6)=   0.000000

     crystal axes: (cart. coord. in units of alat)
               a(1) = (   1.000000   0.000000   0.000000 )
               a(2) = (   0.000000   1.067975   0.000000 )
               a(3) = (   0.000000   0.000000   4.516251 )

     reciprocal axes: (cart. coord. in units 2 pi/alat)
               b(1) = (  1.000000  0.000000  0.000000 )
               b(2) = (  0.000000  0.936351  0.000000 )
               b(3) = (  0.000000  0.000000  0.221423 )

     PseudoPot. # 1 for O  read from file:
     /home-research/zhongnanxu/gbrv_espresso_pseudo_v1.01/o_pbe_v1.01.uspp.F.UPF
     MD5 check sum: 2bcb18d16ea4b960afae9ec6d52f22d2
     Pseudo is Ultrasoft + core correction, Zval =  6.0
     Generated by new atomic code, or converted to UPF format
     Using radial grid of  737 points,  5 beta functions with:
                l(1) =   0
                l(2) =   0
                l(3) =   1
                l(4) =   1
                l(5) =   2
     Q(r) pseudized with  8 coefficients,  rinner =    0.900   0.900   0.900
                                                       0.900   0.900

     PseudoPot. # 2 for Cr read from file:
     /home-research/zhongnanxu/gbrv_espresso_pseudo_v1.01/cr_pbe_v1.uspp.F.UPF
     MD5 check sum: 68b6f918d1762dccfb11451fe85b0e0e
     Pseudo is Ultrasoft + core correction, Zval = 14.0
     Generated by new atomic code, or converted to UPF format
     Using radial grid of  857 points,  6 beta functions with:
                l(1) =   0
                l(2) =   0
                l(3) =   1
                l(4) =   1
                l(5) =   2
                l(6) =   2
     Q(r) pseudized with  6 coefficients,  rinner =    1.000   1.000   1.000
                                                       1.000   1.000

     PseudoPot. # 3 for H  read from file:
     /home-research/zhongnanxu/gbrv_espresso_pseudo_v1.01/h_pbe_v1.uspp.F.UPF
     MD5 check sum: 3408e3ff4ec8b0a4e358431e7e038a48
     Pseudo is Ultrasoft, Zval =  1.0
     Generated by new atomic code, or converted to UPF format
     Using radial grid of  615 points,  2 beta functions with:
                l(1) =   0
                l(2) =   0
     Q(r) pseudized with  8 coefficients,  rinner =    0.700

     atomic species   valence    mass     pseudopotential
        O0             6.00    15.99940     O ( 1.00)
        Cr1           14.00    51.99600     Cr( 1.00)
        H2             1.00     1.00794     H ( 1.00)

     Starting magnetic structure
     atomic species   magnetization
        O0           0.000
        Cr1          0.600
        H2           0.000

     Simplified LDA+U calculation (l_max = 2) with parameters (eV):
     atomic species    L          U    alpha       J0     beta
        Cr1            2     2.0000   0.0000   0.0000   0.0000

     No symmetry found

   Cartesian axes

     site n.     atom                  positions (alat units)
         1           O0  tau(   1) = (   0.0000000   0.0000000   1.7057880  )
         2           O0  tau(   2) = (   0.0000000   0.5339875   1.8101134  )
         3           Cr1 tau(   3) = (   0.2500000   0.5339875   2.0412099  )
         4           Cr1 tau(   4) = (   0.0000000   0.0000000   2.0263515  )
         5           O0  tau(   5) = (   0.2500000   0.8543801   2.0311839  )
         6           O0  tau(   6) = (   0.2500000   0.2135950   2.0319065  )
         7           O0  tau(   7) = (   0.0000000   0.5339875   2.2504478  )
         8           O0  tau(   8) = (   0.0000000   0.0000000   2.3617283  )
         9           Cr1 tau(   9) = (   0.2500000   0.0000000   2.5571464  )
        10           Cr1 tau(  10) = (   0.0000000   0.5339875   2.5545270  )
        11           O0  tau(  11) = (   0.2500000   0.7475825   2.5883086  )
        12           O0  tau(  12) = (   0.2500000   0.3203925   2.5986508  )
        13           O0  tau(  13) = (   0.0000000   0.0000000   2.7891463  )
        14           O0  tau(  14) = (   0.5000000   0.0000000   1.7052460  )
        15           O0  tau(  15) = (   0.5000000   0.5339875   1.8091650  )
        16           Cr1 tau(  16) = (   0.7500000   0.5339875   2.0419325  )
        17           Cr1 tau(  17) = (   0.5000000   0.0000000   2.0263063  )
        18           O0  tau(  18) = (   0.7500000   0.8543801   2.0310484  )
        19           O0  tau(  19) = (   0.7500000   0.2135950   2.0321774  )
        20           O0  tau(  20) = (   0.5000000   0.5339875   2.2541963  )
        21           O0  tau(  21) = (   0.5000000   0.0000000   2.3617283  )
        22           Cr1 tau(  22) = (   0.7500000   0.0000000   2.6331549  )
        23           Cr1 tau(  23) = (   0.5000000   0.5339875   2.6097156  )
        24           O0  tau(  24) = (   0.7500000   0.7475825   2.5944507  )
        25           O0  tau(  25) = (   0.7500000   0.3203925   2.6044767  )
        26           O0  tau(  26) = (   0.5000000   0.0000000   2.7840880  )
        27           H2  tau(  27) = (  -0.0006600   0.6808768   1.7228142  )
        28           H2  tau(  28) = (   0.4998000   0.6828846   1.7250724  )
        29           H2  tau(  29) = (   0.1568300   0.0328936   1.6463090  )
        30           H2  tau(  30) = (   0.6565800   0.0331499   1.6456315  )
        31           O0  tau(  31) = (   0.4998600   0.5715162   2.9254467  )
        32           O0  tau(  32) = (   0.5002200   0.3713883   3.0709603  )
        33           H2  tau(  33) = (   0.4998900   0.4494573   3.2222096  )

     number of k points=    20  Methfessel-Paxton smearing, width (Ry)=  0.0100
                       cart. coord. in units 2pi/alat
        k(    1) = (   0.0000000   0.0000000   0.0000000), wk =   0.0625000
        k(    2) = (   0.0000000   0.2340879   0.0000000), wk =   0.1250000
        k(    3) = (   0.0000000  -0.4681757   0.0000000), wk =   0.0625000
        k(    4) = (   0.2500000   0.0000000   0.0000000), wk =   0.1250000
        k(    5) = (   0.2500000   0.2340879   0.0000000), wk =   0.1250000
        k(    6) = (   0.2500000  -0.4681757   0.0000000), wk =   0.1250000
        k(    7) = (  -0.5000000   0.0000000   0.0000000), wk =   0.0625000
        k(    8) = (  -0.5000000   0.2340879   0.0000000), wk =   0.1250000
        k(    9) = (  -0.5000000  -0.4681757   0.0000000), wk =   0.0625000
        k(   10) = (  -0.2500000   0.2340879   0.0000000), wk =   0.1250000
        k(   11) = (   0.0000000   0.0000000   0.0000000), wk =   0.0625000
        k(   12) = (   0.0000000   0.2340879   0.0000000), wk =   0.1250000
        k(   13) = (   0.0000000  -0.4681757   0.0000000), wk =   0.0625000
        k(   14) = (   0.2500000   0.0000000   0.0000000), wk =   0.1250000
        k(   15) = (   0.2500000   0.2340879   0.0000000), wk =   0.1250000
        k(   16) = (   0.2500000  -0.4681757   0.0000000), wk =   0.1250000
        k(   17) = (  -0.5000000   0.0000000   0.0000000), wk =   0.0625000
        k(   18) = (  -0.5000000   0.2340879   0.0000000), wk =   0.1250000
        k(   19) = (  -0.5000000  -0.4681757   0.0000000), wk =   0.0625000
        k(   20) = (  -0.2500000   0.2340879   0.0000000), wk =   0.1250000

     Largest allocated arrays     est. size (Mb)     dimensions
     Largest temporary arrays     est. size (Mb)     dimensions

     Check: negative/imaginary core charge=   -0.000012    0.000000

     Initial potential from superposition of free atoms
     Check: negative starting charge=(component1):   -0.001299
     Check: negative starting charge=(component2):   -0.000449

     starting charge  228.99983, renormalised to  237.00000

     negative rho (up, down):  0.134E-02 0.465E-03
     Number of +U iterations with fixed ns =  0
     Starting occupations:
 --- enter write_ns ---
 LDA+U parameters:
U( 2)     =  2.00000000
alpha( 2) =  0.00000000
atom    3   Tr[ns(na)] (up, down, total) =   5.00000  0.00000  5.00000
   spin  1
    eigenvalues:
  1.000  1.000  1.000  1.000  1.000
    eigenvectors:
  1.000  0.000  0.000  0.000  0.000
  0.000  1.000  0.000  0.000  0.000
  0.000  0.000  1.000  0.000  0.000
  0.000  0.000  0.000  1.000  0.000
  0.000  0.000  0.000  0.000  1.000
    occupations:
  1.000  0.000  0.000  0.000  0.000
  0.000  1.000  0.000  0.000  0.000
  0.000  0.000  1.000  0.000  0.000
  0.000  0.000  0.000  1.000  0.000
  0.000  0.000  0.000  0.000  1.000
   spin  2
    eigenvalues:
  0.000  0.000  0.000  0.000  0.000
    eigenvectors:
  1.000  0.000  0.000  0.000  0.000
  0.000  1.000  0.000  0.000  0.000
  0.000  0.000  1.000  0.000  0.000
  0.000  0.000  0.000  1.000  0.000
  0.000  0.000  0.000  0.000  1.000
    occupations:
  0.000  0.000  0.000  0.000  0.000
  0.000  0.000  0.000  0.000  0.000
  0.000  0.000  0.000  0.000  0.000
  0.000  0.000  0.000  0.000  0.000
  0.000  0.000  0.000  0.000  0.000
atomic mag. moment =     5.000000
atom    4   Tr[ns(na)] (up, down, total) =   5.00000  0.00000  5.00000
   spin  1
    eigenvalues:
  1.000  1.000  1.000  1.000  1.000
    eigenvectors:
  1.000  0.000  0.000  0.000  0.000
  0.000  1.000  0.000  0.000  0.000
  0.000  0.000  1.000  0.000  0.000
  0.000  0.000  0.000  1.000  0.000
  0.000  0.000  0.000  0.000  1.000
    occupations:
  1.000  0.000  0.000  0.000  0.000
  0.000  1.000  0.000  0.000  0.000
  0.000  0.000  1.000  0.000  0.000
  0.000  0.000  0.000  1.000  0.000
  0.000  0.000  0.000  0.000  1.000
   spin  2
    eigenvalues:
  0.000  0.000  0.000  0.000  0.000
    eigenvectors:
  1.000  0.000  0.000  0.000  0.000
  0.000  1.000  0.000  0.000  0.000
  0.000  0.000  1.000  0.000  0.000
  0.000  0.000  0.000  1.000  0.000
  0.000  0.000  0.000  0.000  1.000
    occupations:
  0.000  0.000  0.000  0.000  0.000
  0.000  0.000  0.000  0.000  0.000
  0.000  0.000  0.000  0.000  0.000
  0.000  0.000  0.000  0.000  0.000
  0.000  0.000  0.000  0.000  0.000
[...]
  0.168 -0.002 -0.004  0.113  0.000
 -0.002  0.354  0.000 -0.005  0.011
 -0.004  0.000  0.159  0.007 -0.005
  0.113 -0.005  0.007  0.317  0.000
  0.000  0.011 -0.005  0.000  0.131
atomic mag. moment =     2.402671
atom    4   Tr[ns(na)] (up, down, total) =   3.45216  1.21588  4.66804
   spin  1
    eigenvalues:
  0.485  0.529  0.575  0.879  0.983
    eigenvectors:
  0.002  0.992  0.000  0.001  0.005
  0.000  0.001  0.015  0.984  0.000
  0.000  0.000  0.985  0.015  0.000
  0.000  0.005  0.000  0.000  0.995
  0.998  0.002  0.000  0.000  0.000
    occupations:
  0.531 -0.011 -0.001  0.032  0.002
 -0.011  0.875  0.037  0.002  0.000
 -0.001  0.037  0.580  0.002 -0.001
  0.032  0.002  0.002  0.981  0.000
  0.002  0.000 -0.001  0.000  0.485
   spin  2
    eigenvalues:
  0.112  0.143  0.187  0.376  0.398
    eigenvectors:
  0.002  0.003  0.000  0.002  0.992
  0.002  0.957  0.039  0.000  0.003
  0.000  0.038  0.961  0.000  0.000
  0.995  0.002  0.000  0.000  0.002
  0.000  0.000  0.000  0.998  0.002
    occupations:
  0.396  0.014  0.003 -0.013  0.001
  0.014  0.146 -0.008  0.001  0.000
  0.003 -0.008  0.185  0.000  0.000
 -0.013  0.001  0.000  0.113  0.000
  0.001  0.000  0.000  0.000  0.376
atomic mag. moment =     2.236280
atom    9   Tr[ns(na)] (up, down, total) =   3.47741  1.23079  4.70820
   spin  1
    eigenvalues:
  0.499  0.510  0.631  0.857  0.980
    eigenvectors:
  0.006  0.167  0.000  0.000  0.827
  0.968  0.032  0.000  0.000  0.000
  0.000  0.000  0.993  0.007  0.000
  0.026  0.801  0.000  0.000  0.172
  0.000  0.000  0.007  0.993  0.000
    occupations:
  0.899  0.001 -0.001 -0.178  0.000
  0.001  0.499  0.002  0.001  0.000
 -0.001  0.002  0.633 -0.003 -0.018
 -0.178  0.001 -0.003  0.591  0.003
  0.000  0.000 -0.018  0.003  0.856
   spin  2
    eigenvalues:
  0.128  0.158  0.175  0.385  0.386
    eigenvectors:
  0.814  0.000  0.000  0.000  0.186
  0.000  0.000  0.000  0.999  0.001
  0.000  0.017  0.983  0.000  0.000
  0.186  0.000  0.000  0.001  0.813
  0.000  0.983  0.017  0.000  0.000
    occupations:
  0.176  0.001  0.001  0.101  0.000
  0.001  0.385  0.000  0.000  0.000
  0.001  0.000  0.175  0.003  0.002
  0.101  0.000  0.003  0.338  0.000
  0.000  0.000  0.002  0.000  0.158
atomic mag. moment =     2.246614
atom   10   Tr[ns(na)] (up, down, total) =   3.57809  1.07523  4.65331
   spin  1
    eigenvalues:
  0.475  0.497  0.733  0.891  0.982
    eigenvectors:
  0.000  0.996  0.000  0.000  0.004
  0.000  0.000  0.000  0.971  0.028
  0.001  0.000  0.999  0.000  0.000
  0.000  0.004  0.000  0.028  0.968
  0.999  0.000  0.001  0.000  0.000
    occupations:
  0.499 -0.007  0.001  0.029  0.000
 -0.007  0.893 -0.001 -0.015 -0.008
  0.001 -0.001  0.733  0.002  0.006
  0.029 -0.015  0.002  0.977  0.000
  0.000 -0.008  0.006  0.000  0.476
   spin  2
    eigenvalues:
  0.103  0.152  0.162  0.301  0.358
    eigenvectors:
  0.006  0.000  0.000  0.994  0.000
  0.001  0.997  0.002  0.000  0.000
  0.000  0.002  0.998  0.000  0.000
  0.993  0.001  0.000  0.006  0.000
  0.000  0.000  0.000  0.000  0.999
    occupations:
  0.300  0.000 -0.001 -0.015  0.000
  0.000  0.152  0.000  0.002  0.004
 -0.001  0.000  0.162 -0.001  0.003
 -0.015  0.002 -0.001  0.104  0.000
  0.000  0.004  0.003  0.000  0.357
atomic mag. moment =     2.502860
atom   16   Tr[ns(na)] (up, down, total) =   3.52830  1.13182  4.66012
   spin  1
    eigenvalues:
  0.461  0.507  0.667  0.914  0.979
    eigenvectors:
  0.005  0.216  0.002  0.000  0.777
  0.983  0.017  0.000  0.000  0.000
  0.000  0.000  0.982  0.015  0.003
  0.012  0.767  0.001  0.000  0.220
  0.000  0.000  0.015  0.985  0.000
    occupations:
  0.874  0.008  0.015 -0.196  0.003
  0.008  0.462  0.002  0.002 -0.008
  0.015  0.002  0.672 -0.007 -0.030
 -0.196  0.002 -0.007  0.610  0.000
  0.003 -0.008 -0.030  0.000  0.910
   spin  2
    eigenvalues:
  0.107  0.130  0.161  0.354  0.380
    eigenvectors:
  0.760  0.001  0.015  0.011  0.214
  0.000  0.002  0.000  0.951  0.046
  0.017  0.027  0.955  0.000  0.000
  0.223  0.000  0.002  0.036  0.740
  0.000  0.969  0.028  0.002  0.000
    occupations:
  0.168  0.002 -0.004  0.113  0.000
  0.002  0.355  0.000  0.005  0.011
 -0.004  0.000  0.159  0.007  0.005
  0.113  0.005  0.007  0.317  0.000
  0.000  0.011  0.005  0.000  0.132
atomic mag. moment =     2.396483
atom   17   Tr[ns(na)] (up, down, total) =   3.46574  1.20062  4.66636
   spin  1
    eigenvalues:
  0.482  0.528  0.609  0.863  0.984
    eigenvectors:
  0.001  0.993  0.001  0.001  0.004
  0.000  0.001  0.013  0.986  0.000
  0.000  0.001  0.987  0.012  0.000
  0.000  0.004  0.000  0.000  0.996
  0.998  0.001  0.000  0.000  0.000
    occupations:
  0.530 -0.012 -0.003  0.029  0.002
 -0.012  0.859  0.028  0.001  0.000
 -0.003  0.028  0.612  0.001  0.003
  0.029  0.001  0.001  0.982  0.000
  0.002  0.000  0.003  0.000  0.482
   spin  2
    eigenvalues:
  0.111  0.141  0.182  0.372  0.395
    eigenvectors:
  0.003  0.004  0.000  0.001  0.992
  0.002  0.951  0.043  0.000  0.004
  0.000  0.042  0.957  0.000  0.000
  0.995  0.003  0.000  0.000  0.002
  0.000  0.000  0.000  0.999  0.001
    occupations:
  0.393  0.016  0.003 -0.014  0.001
  0.016  0.144 -0.008  0.001  0.000
  0.003 -0.008  0.180  0.000  0.000
 -0.014  0.001  0.000  0.111  0.000
  0.001  0.000  0.000  0.000  0.372
atomic mag. moment =     2.265123
atom   22   Tr[ns(na)] (up, down, total) =   3.06933  1.75974  4.82907
   spin  1
    eigenvalues:
  0.518  0.545  0.559  0.669  0.779
    eigenvectors:
  0.998  0.000  0.001  0.000  0.000
  0.000  1.000  0.000  0.000  0.000
  0.000  0.000  0.000  0.015  0.984
  0.001  0.000  0.998  0.000  0.000
  0.000  0.000  0.000  0.985  0.015
    occupations:
  0.518  0.000  0.005 -0.002  0.000
  0.000  0.545  0.001  0.000  0.000
  0.005  0.001  0.777 -0.002  0.014
 -0.002  0.000 -0.002  0.559  0.000
  0.000  0.000  0.014  0.000  0.670
   spin  2
    eigenvalues:
  0.230  0.290  0.316  0.460  0.464
    eigenvectors:
  0.000  0.000  0.985  0.013  0.001
  0.000  0.000  0.000  0.020  0.980
  0.996  0.003  0.000  0.000  0.000
  0.000  0.000  0.014  0.967  0.019
  0.003  0.996  0.000  0.000  0.000
    occupations:
  0.318 -0.002  0.000  0.017 -0.001
 -0.002  0.464  0.000  0.000  0.001
  0.000  0.000  0.230  0.003 -0.003
  0.017  0.000  0.003  0.458  0.001
 -0.001  0.001 -0.003  0.001  0.290
atomic mag. moment =     1.309583
atom   23   Tr[ns(na)] (up, down, total) =   3.56919  1.07934  4.64853
   spin  1
    eigenvalues:
  0.473  0.490  0.734  0.904  0.969
    eigenvectors:
  0.000  0.997  0.001  0.001  0.000
  0.000  0.001  0.992  0.000  0.006
  0.000  0.001  0.000  0.998  0.000
  0.000  0.000  0.006  0.000  0.994
  0.999  0.000  0.000  0.000  0.000
    occupations:
  0.490  0.008  0.015 -0.001  0.000
  0.008  0.735  0.002  0.019 -0.006
  0.015  0.002  0.903 -0.001 -0.003
 -0.001  0.019 -0.001  0.968 -0.001
  0.000 -0.006 -0.003 -0.001  0.473
   spin  2
    eigenvalues:
  0.106  0.111  0.156  0.342  0.365
    eigenvectors:
  0.004  0.001  0.000  0.995  0.000
  0.002  0.000  0.997  0.000  0.000
  0.009  0.989  0.000  0.001  0.000
  0.985  0.009  0.002  0.004  0.000
  0.000  0.000  0.000  0.000  0.999
    occupations:
  0.341  0.001 -0.006 -0.015  0.000
  0.001  0.156  0.000 -0.002  0.003
 -0.006  0.000  0.112  0.001 -0.005
 -0.015 -0.002  0.001  0.107  0.000
  0.000  0.003 -0.005  0.000  0.364
atomic mag. moment =     2.489842
N of occupied +U levels =  37.4940169
 --- exit write_ns ---

 ------ SPIN UP ------------

[...]

 ------ SPIN DOWN ----------

[...]

          k = 0.2500-0.4682 0.0000 ( 27150 PWs)   bands (ev):

[...]

          k =-0.2500 0.2341 0.0000 ( 27132 PWs)   bands (ev):

   -73.5706 -72.0540 -71.9869 -71.9822 -71.9303 -71.8228 -71.8025 -71.7622
   -45.2362 -44.8827 -44.6258 -43.6717 -43.6508 -43.5992 -43.5675 -43.4950
   -43.4270 -43.4073 -43.3722 -43.3183 -43.2911 -43.2506 -43.2429 -43.2315
   -43.2176 -43.1390 -43.1063 -43.0750 -43.0017 -42.9567 -42.8652 -42.8231
   -24.5195 -20.5663 -20.1495 -20.0232 -19.9023 -19.7886 -19.5034 -19.4337
   -19.3749 -19.2999 -19.1721 -19.1078 -18.9787 -18.9720 -18.9495 -18.8820
   -18.7346 -18.6891 -18.6410 -17.6035  -9.3045  -8.0806  -7.8515  -7.7768
    -7.5395  -7.4411  -7.2771  -6.9873  -6.9169  -6.8507  -6.7964  -6.7702
    -6.6690  -6.5560  -6.4516  -6.3896  -6.2541  -6.2177  -6.1229  -6.0667
    -5.9012  -5.7822  -5.7468  -5.6565  -5.5858  -5.3149  -5.2526  -5.1351
    -5.0325  -4.9476  -4.7837  -4.7133  -4.6849  -4.6213  -4.6003  -4.5083
    -4.4094  -4.3603  -4.2505  -4.2106  -4.0735  -3.9411  -3.7728  -3.7150
    -3.6254  -3.5568  -3.4718  -3.4073  -3.3608  -3.3013  -3.2436  -3.1160
    -2.9738  -2.9432  -2.8334  -2.6785  -2.5540  -2.3394  -2.1679   0.3577
     0.3835   0.4584   0.9229   0.9828   1.0921   1.1538   1.2327   1.2914
     1.3371   1.4399   1.4964   1.5700   1.6175   1.6803   1.7610   1.8222
     1.8954   1.9376   1.9435   2.0009   2.1488   2.1882   2.2368   2.2687
     2.3569   2.6098   2.7591   2.8737   3.0953   3.1507   3.3509   3.3665
     3.4786   3.5201   3.6948   3.7397   3.8086   4.0249   4.1040   4.1639
     4.2605   4.3743   4.4909   4.8772   5.2632   5.5115   5.7573   6.0887
     6.2244   6.3054   6.3814   6.5315   6.8066   6.9239   7.1499   7.4620
     7.5699   7.7084   7.9066   8.0998   8.3059   8.3656   8.4825   8.6379
     8.7403   8.9271   9.1179   9.2527   9.4357   9.5014   9.5691   9.7784
     9.9050   9.9760  10.0704  10.1249  10.1634  10.3904  10.4599  10.4889
    10.5994  10.6966  10.8001  10.9328  11.0621  11.1340  11.2621  11.3351
    11.4092  11.5327  11.6407  11.7701  11.8352  11.9230  12.0518  12.0992
    12.1478  12.3163  12.3767  12.4040  12.4778  12.5780  12.6982  12.7152
    12.8472  12.8753  13.0233  13.0867  13.1883  13.2799  13.3381  13.4388
    13.4987  13.5476  13.6208  13.6990  13.7931  13.8496  13.9469  14.0277
    14.1472  14.1956  14.2404  14.3008  14.3665  14.4560  14.4875  14.5724
    14.7638  14.8398  14.8843  14.9686  15.0919  15.1874  15.2403  15.2789
    15.4166  15.4524  15.5811  15.6393  15.7106  15.7880  15.8560  15.9396
    15.9836  16.0401  16.0660  16.1575  16.1964  16.2460  16.3000  16.3735
    16.4755  16.5339  16.6069  16.7157  16.7774  16.8277  16.9208  16.9967
    17.0428  17.1375  17.1875  17.2576  17.3162  17.3573  17.4639  17.4872
    17.5327  17.5744  17.7346  17.7689  17.8265  17.8774  17.9515  18.0090
    18.0544  18.1706  18.2244  18.3003  18.4094  18.4785  18.5187  18.5755
    18.6073  18.6931  18.7798  18.8686  18.9136  19.0019  19.0239  19.0945
    19.1624  19.2906  19.3726  19.4102  19.4383  19.5105  19.5615  19.6764
    19.7111  19.8031  19.8593  19.9314  20.0118  20.1474  20.1962  20.2981
    20.3363  20.4038  20.5122  20.5842  20.6891  20.8369  20.8769  20.9552
    21.0474  21.1021  21.1745  21.2233  21.2943  21.3673  21.4222  21.5201
    21.6036  21.6988  21.7987  21.8528  21.9311  21.9782  22.0383

     the spin up/dw Fermi energies are    -1.0893   -2.0575 ev

!    total energy              =   -2058.05188560 Ry
     Harris-Foulkes estimate   =   -2058.05188560 Ry
     estimated scf accuracy    <          9.7E-09 Ry

     The total energy is the sum of the following terms:

     one-electron contribution =  -24533.44099091 Ry
     hartree contribution      =   12293.16401847 Ry
     xc contribution           =    -329.84799835 Ry
     ewald contribution        =   10511.05559681 Ry
     Hubbard energy            =       1.01784016 Ry
     smearing contrib. (-TS)   =      -0.00035179 Ry

     total magnetization       =    15.00 Bohr mag/cell
     absolute magnetization    =    21.34 Bohr mag/cell

     convergence has been achieved in  15 iterations

     Forces acting on atoms (Ry/au):

     negative rho (up, down):  0.475E-02 0.172E-02
     atom    1 type  1   force =    -0.00349863   -0.01170650    0.00012171
     atom    2 type  1   force =    -0.00022796    0.00677244   -0.00033156
     atom    3 type  2   force =     0.04084760   -0.00287770    0.00059752
     atom    4 type  2   force =    -0.00057586    0.00803358   -0.00016428
     atom    5 type  1   force =    -0.00138503    0.00760751    0.00010284
     atom    6 type  1   force =    -0.00143935   -0.00530422    0.00010736
     atom    7 type  1   force =     0.00051382   -0.00439162   -0.00010839
     atom    8 type  1   force =    -0.01693416    0.00218108   -0.00003790
     atom    9 type  2   force =     0.00654125   -0.00171435    0.00012922
     atom   10 type  2   force =     0.00419011    0.00236610   -0.00017285
     atom   11 type  1   force =    -0.02919830   -0.02585774   -0.00039716
     atom   12 type  1   force =    -0.02175284    0.03254282    0.00009036
     atom   13 type  1   force =    -0.04575910   -0.00289171    0.00019217
     atom   14 type  1   force =    -0.00582425   -0.01224057    0.00024858
     atom   15 type  1   force =     0.00016021    0.00690648   -0.00048254
     atom   16 type  2   force =    -0.04300192   -0.00170402    0.00043705
     atom   17 type  2   force =     0.00657809    0.00799012   -0.00016400
     atom   18 type  1   force =     0.00396538    0.00631964    0.00012763
     atom   19 type  1   force =     0.00340605   -0.00551769    0.00021239
     atom   20 type  1   force =     0.00190153   -0.00403495    0.00067218
     atom   21 type  1   force =     0.01142224    0.00324205   -0.00015700
     atom   22 type  2   force =     0.01539527   -0.00423345    0.00026271
     atom   23 type  2   force =    -0.00522466   -0.00490139   -0.00025158
     atom   24 type  1   force =     0.02575222   -0.01712512   -0.00047868
     atom   25 type  1   force =     0.01820286    0.02896700    0.00015116
     atom   26 type  1   force =     0.03729216   -0.00795203    0.00028646
     atom   27 type  3   force =    -0.00003005   -0.00001161   -0.00067278
     atom   28 type  3   force =    -0.00000212    0.00009912   -0.00069386
     atom   29 type  3   force =     0.00008674   -0.00025664    0.00020101
     atom   30 type  3   force =     0.00000962   -0.00019057    0.00010911
     atom   31 type  1   force =    -0.00134364   -0.00024930   -0.00044413
     atom   32 type  1   force =    -0.00023518   -0.00009609    0.00066635
     atom   33 type  3   force =     0.00016788    0.00022938   -0.00015912

     Total force =     0.002051     Total SCF correction =     0.000289
     SCF correction compared to forces is large: reduce conv_thr to get better values

     bfgs converged in  11 scf cycles and  10 bfgs steps
     (criteria: energy < 0.10E-03, force < 0.10E-02)

     End of BFGS Geometry Optimization

     Final energy   =   -2058.0518855983 Ry
Begin final coordinates

ATOMIC_POSITIONS (crystal)
O0       0.000000000   0.000000000   0.377458765    0   0   1
O0       0.000000000   0.500000000   0.399712382    0   0   1
Cr1      0.250000000   0.500000000   0.451248606    0   0   1
Cr1      0.000000000   0.000000000   0.448894019    0   0   1
O0       0.250000000   0.800000000   0.449502060    0   0   1
O0       0.250000000   0.200000000   0.449642217    0   0   1
O0       0.000000000   0.500000000   0.498260232    0   0   1
O0       0.000000000   0.000000000   0.523083836    0   0   1
Cr1      0.250000000   0.000000000   0.567715051    0   0   1
Cr1      0.000000000   0.500000000   0.565993197    0   0   1
O0       0.250000000   0.700000000   0.573362931    0   0   1
O0       0.250000000   0.300000000   0.575381377    0   0   1
O0       0.000000000   0.000000000   0.618028732    0   0   1
O0       0.500000000   0.000000000   0.377186585    0   0   1
O0       0.500000000   0.500000000   0.399735299    0   0   1
Cr1      0.750000000   0.500000000   0.451245900    0   0   1
Cr1      0.500000000   0.000000000   0.448766403    0   0   1
O0       0.750000000   0.800000000   0.449527430    0   0   1
O0       0.750000000   0.200000000   0.449664673    0   0   1
O0       0.500000000   0.500000000   0.499513087    0   0   1
O0       0.500000000   0.000000000   0.523065637    0   0   1
Cr1      0.750000000   0.000000000   0.582827393    0   0   1
Cr1      0.500000000   0.500000000   0.576701656    0   0   1
O0       0.750000000   0.700000000   0.575224063    0   0   1
O0       0.750000000   0.300000000   0.577106772    0   0   1
O0       0.500000000   0.000000000   0.617150400    0   0   1
H2      -0.000530665   0.638557006   0.380860966
H2       0.499626493   0.640085263   0.381470649
H2       0.157871382   0.029743448   0.364688840
H2       0.657495425   0.030246785   0.364400310
O0       0.499860000   0.539412380   0.649254402    0   1   1
O0       0.500220000   0.351323802   0.679913871    0   1   1
H2       0.499890000   0.418013272   0.714192254    0   1   1
End final coordinates

     General routines

     Parallel routines
     Hubbard U routines

   This run was terminated on:  12:46:10  10Aug2014

   JOB DONE.