     Program PWSCF v.5.0.2 (svn rev. 9656) starts on 30Apr2014 at 21:34:16

     Current dimensions of program PWSCF are:
     Max number of different atomic species (ntypx) = 10
     Max number of k-points (npk) =  40000
     Max angular momentum in pseudopotentials (lmaxx) =  3
     Reading input from pwscf.in
Warning: card &CELL ignored
Warning: card / ignored

     Subspace diagonalization in iterative solution of the eigenvalue problem:
     a serial algorithm will be used

     bravais-lattice index     =            0
     lattice parameter (alat)  =      11.1872  a.u.
     unit-cell volume          =    7531.8600 (a.u.)^3
     number of atoms/cell      =           31
     number of atomic types    =            3
     number of electrons       =       222.00
     number of Kohn-Sham states=          333
     kinetic-energy cutoff     =      40.0000  Ry
     charge density cutoff     =     500.0000  Ry
     convergence threshold     =      1.0E-06
     mixing beta               =       0.7000
     number of iterations used =            8  plain     mixing
     Exchange-correlation      = SLA  PW   PBE  PBE ( 1 4 3 4 0)
     EXX-fraction              =        0.00
     nstep                     =           50

     celldm(1)=  11.187179  celldm(2)=   0.000000  celldm(3)=   0.000000
     celldm(4)=   0.000000  celldm(5)=   0.000000  celldm(6)=   0.000000

     crystal axes: (cart. coord. in units of alat)
               a(1) = (   1.000000   0.000000   0.000000 )
               a(2) = (   0.000000   1.180104   0.000000 )
               a(3) = (   0.000000   0.000000   4.558482 )

     reciprocal axes: (cart. coord. in units 2 pi/alat)
               b(1) = (  1.000000  0.000000  0.000000 )
               b(2) = (  0.000000  0.847383  0.000000 )
               b(3) = (  0.000000  0.000000  0.219371 )

     PseudoPot. # 1 for O  read from file:
     /home/camp/zhonxu/pseudo/o_pbe_v1.01.uspp.F.UPF
     MD5 check sum: 2bcb18d16ea4b960afae9ec6d52f22d2
     Pseudo is Ultrasoft + core correction, Zval =  6.0
     Generated by new atomic code, or converted to UPF format
     Using radial grid of  737 points,  5 beta functions with:
                l(1) =   0
                l(2) =   0
                l(3) =   1
                l(4) =   1
                l(5) =   2
     Q(r) pseudized with  8 coefficients,  rinner =    0.900   0.900   0.900
                                                       0.900   0.900

     PseudoPot. # 2 for Nb read from file:
     /home/camp/zhonxu/pseudo/nb_pbe_v1.uspp.F.UPF
     MD5 check sum: 573aab8a2fa660278ed4a62cd769473f
     Pseudo is Ultrasoft + core correction, Zval = 13.0
     Generated by new atomic code, or converted to UPF format
     Using radial grid of  887 points,  6 beta functions with:
                l(1) =   0
                l(2) =   0
                l(3) =   1
                l(4) =   1
                l(5) =   2
                l(6) =   2
     Q(r) pseudized with  6 coefficients,  rinner =    1.000   1.000   1.000
                                                       1.000   1.000

     PseudoPot. # 3 for H  read from file:
     /home/camp/zhonxu/pseudo/h_pbe_v1.uspp.F.UPF
     MD5 check sum: 3408e3ff4ec8b0a4e358431e7e038a48
     Pseudo is Ultrasoft, Zval =  1.0
     Generated by new atomic code, or converted to UPF format
     Using radial grid of  615 points,  2 beta functions with:
                l(1) =   0
                l(2) =   0
     Q(r) pseudized with  8 coefficients,  rinner =    0.700

     atomic species   valence    mass     pseudopotential
        O0             6.00    15.99940     O ( 1.00)
        Nb1           13.00    92.90640     Nb( 1.00)
        H2             1.00     1.00794     H ( 1.00)

     Simplified LDA+U calculation (l_max = 2) with parameters (eV):
     atomic species    L          U    alpha       J0     beta
        Nb1            2     4.5000   0.0000   0.0000   0.0000

     No symmetry found

   Cartesian axes

     site n.     atom                  positions (alat units)
         1           O0  tau(   1) = (   0.0000000   0.0000000   1.6934306  )
         2           O0  tau(   2) = (   0.0000000   0.5900519   1.7719732  )
         3           Nb1 tau(   3) = (   0.2500000   0.5900519   2.0266100  )
         4           Nb1 tau(   4) = (   0.0000000   0.0000000   2.0234647  )
         5           O0  tau(   5) = (   0.2500000   0.9322821   2.0339492  )
         6           O0  tau(   6) = (   0.2500000   0.2478218   2.0339492  )
         7           O0  tau(   7) = (   0.0000000   0.5900519   2.2822497  )
         8           O0  tau(   8) = (   0.0000000   0.0000000   2.3837671  )
         9           Nb1 tau(   9) = (   0.2500000   0.0000000   2.6303810  )
        10           Nb1 tau(  10) = (   0.0000000   0.5900519   2.5986084  )
        11           O0  tau(  11) = (   0.2500000   0.8378738   2.6271901  )
        12           O0  tau(  12) = (   0.2500000   0.3422301   2.6272357  )
        13           O0  tau(  13) = (   0.0000000   0.0000000   2.8322306  )
        14           O0  tau(  14) = (   0.5000000   0.0000000   1.6959377  )
        15           O0  tau(  15) = (   0.5000000   0.5900519   1.7815005  )
        16           Nb1 tau(  16) = (   0.7500000   0.5900519   2.0269291  )
        17           Nb1 tau(  17) = (   0.5000000   0.0000000   2.0281143  )
        18           O0  tau(  18) = (   0.7500000   0.9322821   2.0339492  )
        19           O0  tau(  19) = (   0.7500000   0.2478218   2.0339492  )
        20           O0  tau(  20) = (   0.5000000   0.5900519   2.2572692  )
        21           O0  tau(  21) = (   0.5000000   0.0000000   2.3822628  )
        22           Nb1 tau(  22) = (   0.7500000   0.0000000   2.6309736  )
        23           Nb1 tau(  23) = (   0.5000000   0.5900519   2.6831227  )
        24           O0  tau(  24) = (   0.7500000   0.8378738   2.6265975  )
        25           O0  tau(  25) = (   0.7500000   0.3422301   2.6265975  )
        26           O0  tau(  26) = (   0.5000000   0.0000000   2.8320027  )
        27           H2  tau(  27) = (  -0.0004900   0.5918693   1.6065459  )
        28           H2  tau(  28) = (   0.4994900   0.5917631   1.6163466  )
        29           H2  tau(  29) = (   0.1504600   0.0004366   1.6207228  )
        30           H2  tau(  30) = (   0.6496400   0.0004366   1.6219536  )
        31           O0  tau(  31) = (   0.5000300   0.5900519   2.9731333  )

     number of k points=    10  Methfessel-Paxton smearing, width (Ry)=  0.0100
                       cart. coord. in units 2pi/alat
        k(    1) = (   0.0000000   0.0000000   0.0000000), wk =   0.1250000
        k(    2) = (   0.0000000   0.2118458   0.0000000), wk =   0.2500000
        k(    3) = (   0.0000000  -0.4236915   0.0000000), wk =   0.1250000
        k(    4) = (   0.2500000   0.0000000   0.0000000), wk =   0.2500000
        k(    5) = (   0.2500000   0.2118458   0.0000000), wk =   0.2500000
        k(    6) = (   0.2500000  -0.4236915   0.0000000), wk =   0.2500000
        k(    7) = (  -0.5000000   0.0000000   0.0000000), wk =   0.1250000
        k(    8) = (  -0.5000000   0.2118458   0.0000000), wk =   0.2500000
        k(    9) = (  -0.5000000  -0.4236915   0.0000000), wk =   0.1250000
        k(   10) = (  -0.2500000   0.2118458   0.0000000), wk =   0.2500000

     Largest allocated arrays     est. size (Mb)     dimensions
     Largest temporary arrays     est. size (Mb)     dimensions

     Check: negative/imaginary core charge=   -0.000003    0.000000

     Initial potential from superposition of free atoms
     Check: negative starting charge=   -0.003810

     starting charge  221.97807, renormalised to  222.00000

     negative rho (up, down):  0.381E-02 0.000E+00
     Number of +U iterations with fixed ns =  0
     Starting occupations:
 --- enter write_ns ---
 LDA+U parameters:
U( 2)     =  4.50000000
alpha( 2) =  0.00000000
atom    3   Tr[ns(na)] =   3.00000
    eigenvalues:
  0.300  0.300  0.300  0.300  0.300
    eigenvectors:
  1.000  0.000  0.000  0.000  0.000
  0.000  1.000  0.000  0.000  0.000
  0.000  0.000  1.000  0.000  0.000
  0.000  0.000  0.000  1.000  0.000
  0.000  0.000  0.000  0.000  1.000
    occupations:
  0.300  0.000  0.000  0.000  0.000
  0.000  0.300  0.000  0.000  0.000
  0.000  0.000  0.300  0.000  0.000
  0.000  0.000  0.000  0.300  0.000
  0.000  0.000  0.000  0.000  0.300
atom    4   Tr[ns(na)] =   3.00000
    eigenvalues:
  0.300  0.300  0.300  0.300  0.300
    eigenvectors:
  1.000  0.000  0.000  0.000  0.000
  0.000  1.000  0.000  0.000  0.000
  0.000  0.000  1.000  0.000  0.000
  0.000  0.000  0.000  1.000  0.000
  0.000  0.000  0.000  0.000  1.000
    occupations:
  0.300  0.000  0.000  0.000  0.000
  0.000  0.300  0.000  0.000  0.000
  0.000  0.000  0.300  0.000  0.000
  0.000  0.000  0.000  0.300  0.000
  0.000  0.000  0.000  0.000  0.300
atom    9   Tr[ns(na)] =   3.00000
    eigenvalues:
  0.300  0.300  0.300  0.300  0.300
    eigenvectors:
  1.000  0.000  0.000  0.000  0.000
  0.000  1.000  0.000  0.000  0.000
  0.000  0.000  1.000  0.000  0.000
  0.000  0.000  0.000  1.000  0.000
  0.000  0.000  0.000  0.000  1.000
    occupations:
  0.300  0.000  0.000  0.000  0.000
  0.000  0.300  0.000  0.000  0.000
  0.000  0.000  0.300  0.000  0.000
  0.000  0.000  0.000  0.300  0.000
  0.000  0.000  0.000  0.000  0.300
atom   10   Tr[ns(na)] =   3.00000
    eigenvalues:
  0.300  0.300  0.300  0.300  0.300
    eigenvectors:
  1.000  0.000  0.000  0.000  0.000
  0.000  1.000  0.000  0.000  0.000
  0.000  0.000  1.000  0.000  0.000
  0.000  0.000  0.000  1.000  0.000
  0.000  0.000  0.000  0.000  1.000
    occupations:
  0.300  0.000  0.000  0.000  0.000
  0.000  0.300  0.000  0.000  0.000
  0.000  0.000  0.300  0.000  0.000
  0.000  0.000  0.000  0.300  0.000
  0.000  0.000  0.000  0.000  0.300
atom   16   Tr[ns(na)] =   3.00000
    eigenvalues:
  0.300  0.300  0.300  0.300  0.300
    eigenvectors:
  1.000  0.000  0.000  0.000  0.000
  0.000  1.000  0.000  0.000  0.000
  0.000  0.000  1.000  0.000  0.000
  0.000  0.000  0.000  1.000  0.000
  0.000  0.000  0.000  0.000  1.000
    occupations:
  0.300  0.000  0.000  0.000  0.000
  0.000  0.300  0.000  0.000  0.000
  0.000  0.000  0.300  0.000  0.000
  0.000  0.000  0.000  0.300  0.000
  0.000  0.000  0.000  0.000  0.300
atom   17   Tr[ns(na)] =   3.00000
    eigenvalues:
  0.300  0.300  0.300  0.300  0.300
    eigenvectors:
  1.000  0.000  0.000  0.000  0.000
  0.000  1.000  0.000  0.000  0.000
  0.000  0.000  1.000  0.000  0.000
  0.000  0.000  0.000  1.000  0.000
  0.000  0.000  0.000  0.000  1.000
    occupations:
  0.300  0.000  0.000  0.000  0.000
  0.000  0.300  0.000  0.000  0.000
  0.000  0.000  0.300  0.000  0.000
  0.000  0.000  0.000  0.300  0.000
  0.000  0.000  0.000  0.000  0.300
atom   22   Tr[ns(na)] =   3.00000
    eigenvalues:
  0.300  0.300  0.300  0.300  0.300
    eigenvectors:
  1.000  0.000  0.000  0.000  0.000
  0.000  1.000  0.000  0.000  0.000
  0.000  0.000  1.000  0.000  0.000
  0.000  0.000  0.000  1.000  0.000
  0.000  0.000  0.000  0.000  1.000
    occupations:
  0.300  0.000  0.000  0.000  0.000
  0.000  0.300  0.000  0.000  0.000
[...]
 -0.000  0.000 -0.022  0.000  0.376
atom    4   Tr[ns(na)] =   5.21290
    eigenvalues:
  0.384  0.401  0.555  0.588  0.680
    eigenvectors:
  0.000  0.004  0.000  0.996  0.000
  0.000  0.995  0.000  0.004  0.001
  1.000  0.000  0.000  0.000  0.000
  0.000  0.001  0.000  0.000  0.999
  0.000  0.000  1.000  0.000  0.000
    occupations:
  0.587  0.012  0.000  0.001 -0.000
  0.012  0.402 -0.000 -0.009  0.000
  0.000 -0.000  0.384  0.000  0.001
  0.001 -0.009  0.000  0.679  0.000
 -0.000  0.000  0.001  0.000  0.555
atom    9   Tr[ns(na)] =   5.25107
    eigenvalues:
  0.443  0.458  0.478  0.623  0.624
    eigenvectors:
  0.000  0.870  0.000  0.120  0.010
  0.000  0.000  0.000  0.075  0.925
  0.924  0.000  0.076  0.000  0.000
  0.000  0.130  0.000  0.806  0.065
  0.076  0.000  0.924  0.000  0.000
    occupations:
  0.479 -0.000 -0.000  0.055 -0.000
 -0.000  0.624 -0.000 -0.000  0.000
 -0.000 -0.000  0.446  0.000  0.009
  0.055 -0.000  0.000  0.601 -0.000
 -0.000  0.000  0.009 -0.000  0.475
atom   10   Tr[ns(na)] =   5.05282
    eigenvalues:
  0.338  0.395  0.512  0.548  0.734
    eigenvectors:
  0.000  0.000  0.995  0.000  0.005
  0.000  0.999  0.000  0.000  0.001
  1.000  0.000  0.000  0.000  0.000
  0.000  0.001  0.005  0.000  0.995
  0.000  0.000  0.000  1.000  0.000
    occupations:
  0.513  0.000  0.000  0.015  0.000
  0.000  0.395  0.000  0.008  0.000
  0.000  0.000  0.338 -0.000 -0.001
  0.015  0.008 -0.000  0.732 -0.000
  0.000  0.000 -0.001 -0.000  0.548
atom   16   Tr[ns(na)] =   5.20364
    eigenvalues:
  0.364  0.407  0.538  0.595  0.697
    eigenvectors:
  0.000  0.000  0.032  0.378  0.590
  0.000  0.000  0.945  0.053  0.002
  0.281  0.719  0.000  0.000  0.000
  0.000  0.000  0.022  0.569  0.408
  0.719  0.281  0.000  0.000  0.000
    occupations:
  0.654  0.013  0.000 -0.052  0.000
  0.013  0.542  0.000  0.005  0.000
  0.000  0.000  0.395 -0.000  0.019
 -0.052  0.005 -0.000  0.636 -0.000
  0.000  0.000  0.019 -0.000  0.376
atom   17   Tr[ns(na)] =   5.20793
    eigenvalues:
  0.383  0.403  0.553  0.588  0.677
    eigenvectors:
  0.000  0.004  0.000  0.996  0.000
  0.000  0.995  0.000  0.004  0.001
  1.000  0.000  0.000  0.000  0.000
  0.000  0.001  0.000  0.000  0.999
  0.000  0.000  1.000  0.000  0.000
    occupations:
  0.587  0.012  0.000  0.000 -0.000
  0.012  0.404 -0.000 -0.009  0.000
  0.000 -0.000  0.383  0.000  0.001
  0.000 -0.009  0.000  0.677  0.000
 -0.000  0.000  0.001  0.000  0.553
atom   22   Tr[ns(na)] =   5.25375
    eigenvalues:
  0.443  0.459  0.478  0.623  0.624
    eigenvectors:
  0.000  0.873  0.000  0.113  0.014
  0.000  0.000  0.000  0.105  0.895
  0.936  0.000  0.064  0.000  0.000
  0.000  0.127  0.000  0.781  0.092
  0.064  0.000  0.936  0.000  0.000
    occupations:
  0.480  0.000  0.000  0.055 -0.000
  0.000  0.624  0.000  0.000  0.000
  0.000  0.000  0.445  0.000 -0.008
  0.055  0.000  0.000  0.602  0.000
 -0.000  0.000 -0.008  0.000  0.475
atom   23   Tr[ns(na)] =   5.36260
    eigenvalues:
  0.489  0.524  0.525  0.528  0.616
    eigenvectors:
  0.000  0.000  0.000  0.000  1.000
  0.000  0.918  0.000  0.082  0.000
  1.000  0.000  0.000  0.000  0.000
  0.000  0.082  0.000  0.918  0.000
  0.000  0.000  1.000  0.000  0.000
    occupations:
  0.616 -0.000 -0.000  0.001 -0.000
 -0.000  0.524  0.000 -0.001 -0.000
 -0.000  0.000  0.489  0.000  0.001
  0.001 -0.001  0.000  0.528 -0.000
 -0.000 -0.000  0.001 -0.000  0.525
N of occupied +U levels =  41.7474575
 --- exit write_ns ---

     Threshold (ethr) on eigenvalues was too large:
     Diagonalizing with lowered threshold

     Davidson diagonalization with overlap
     ethr =  2.95E-09,  avg # of iterations =  3.0

[...]

     total energy              =   -1559.34470378 Ry
     Harris-Foulkes estimate   =   -1559.34470378 Ry
     estimated scf accuracy    <       0.00000002 Ry

     iteration # 12     ecut=    40.00 Ry     beta=0.70
     Davidson diagonalization with overlap
     ethr =  7.65E-12,  avg # of iterations =  2.0

     negative rho (up, down):  0.352E-02 0.000E+00

     End of self-consistent calculation
 --- enter write_ns ---
 LDA+U parameters:
U( 2)     =  4.50000000
alpha( 2) =  0.00000000
atom    3   Tr[ns(na)] =   5.20286
    eigenvalues:
  0.361  0.409  0.538  0.595  0.698
    eigenvectors:
  0.000  0.000  0.032  0.378  0.590
  0.000  0.000  0.946  0.052  0.002
  0.316  0.684  0.000  0.000  0.000
  0.000  0.000  0.022  0.570  0.408
  0.684  0.316  0.000  0.000  0.000
    occupations:
  0.654 -0.013  0.000 -0.052 -0.000
 -0.013  0.542 -0.000 -0.005  0.000
  0.000 -0.000  0.394 -0.000 -0.022
 -0.052 -0.005 -0.000  0.636  0.000
 -0.000  0.000 -0.022  0.000  0.376
atom    4   Tr[ns(na)] =   5.21364
    eigenvalues:
  0.384  0.401  0.555  0.588  0.680
    eigenvectors:
  0.000  0.004  0.000  0.996  0.000
  0.000  0.995  0.000  0.004  0.001
  1.000  0.000  0.000  0.000  0.000
  0.000  0.001  0.000  0.000  0.999
  0.000  0.000  1.000  0.000  0.000
    occupations:
  0.587  0.012  0.000  0.001 -0.000
  0.012  0.402 -0.000 -0.009  0.000
  0.000 -0.000  0.384  0.000  0.001
  0.001 -0.009  0.000  0.680  0.000
 -0.000  0.000  0.001  0.000  0.555
atom    9   Tr[ns(na)] =   5.25107
    eigenvalues:
  0.443  0.458  0.478  0.623  0.624
    eigenvectors:
  0.000  0.870  0.000  0.120  0.009
  0.000  0.000  0.000  0.071  0.929
  0.925  0.000  0.075  0.000  0.000
  0.000  0.130  0.000  0.809  0.062
  0.075  0.000  0.925  0.000  0.000
    occupations:
  0.479 -0.000 -0.000  0.055 -0.000
 -0.000  0.624 -0.000 -0.000  0.000
 -0.000 -0.000  0.445  0.000  0.009
  0.055 -0.000  0.000  0.601 -0.000
 -0.000  0.000  0.009 -0.000  0.475
atom   10   Tr[ns(na)] =   5.05329
    eigenvalues:
  0.338  0.395  0.512  0.548  0.734
    eigenvectors:
  0.000  0.000  0.995  0.000  0.005
  0.000  0.999  0.000  0.000  0.001
  1.000  0.000  0.000  0.000  0.000
  0.000  0.001  0.005  0.000  0.994
  0.000  0.000  0.000  1.000  0.000
    occupations:
  0.513  0.000  0.000  0.015  0.000
  0.000  0.395  0.000  0.010  0.000
  0.000  0.000  0.338 -0.000 -0.001
  0.015  0.010 -0.000  0.733 -0.000
  0.000  0.000 -0.001 -0.000  0.548
atom   16   Tr[ns(na)] =   5.20332
    eigenvalues:
  0.364  0.407  0.538  0.595  0.697
    eigenvectors:
  0.000  0.000  0.032  0.378  0.590
  0.000  0.000  0.946  0.053  0.002
  0.280  0.720  0.000  0.000  0.000
  0.000  0.000  0.022  0.569  0.408
  0.720  0.280  0.000  0.000  0.000
    occupations:
  0.654  0.013  0.000 -0.052  0.000
  0.013  0.542  0.000  0.005  0.000
  0.000  0.000  0.395 -0.000  0.019
 -0.052  0.005 -0.000  0.635 -0.000
  0.000  0.000  0.019 -0.000  0.376
atom   17   Tr[ns(na)] =   5.20771
    eigenvalues:
  0.383  0.403  0.553  0.588  0.677
    eigenvectors:
  0.000  0.004  0.000  0.996  0.000
  0.000  0.995  0.000  0.004  0.001
  1.000  0.000  0.000  0.000  0.000
  0.000  0.001  0.000  0.000  0.999
  0.000  0.000  1.000  0.000  0.000
    occupations:
  0.587  0.012  0.000  0.000 -0.000
  0.012  0.404 -0.000 -0.009  0.000
  0.000 -0.000  0.383  0.000  0.001
  0.000 -0.009  0.000  0.677  0.000
 -0.000  0.000  0.001  0.000  0.553
atom   22   Tr[ns(na)] =   5.25317
    eigenvalues:
  0.443  0.459  0.477  0.623  0.624
    eigenvectors:
  0.000  0.873  0.000  0.113  0.014
  0.000  0.000  0.000  0.109  0.891
  0.938  0.000  0.062  0.000  0.000
  0.000  0.127  0.000  0.778  0.095
  0.062  0.000  0.938  0.000  0.000
    occupations:
  0.480  0.000  0.000  0.055 -0.000
  0.000  0.624  0.000  0.000  0.000
  0.000  0.000  0.445  0.000 -0.008
  0.055  0.000  0.000  0.602  0.000
 -0.000  0.000 -0.008  0.000  0.475
atom   23   Tr[ns(na)] =   5.36220
    eigenvalues:
  0.489  0.523  0.525  0.528  0.616
    eigenvectors:
  0.000  0.000  0.000  0.000  1.000
  0.000  0.900  0.000  0.100  0.000
  1.000  0.000  0.000  0.000  0.000
  0.000  0.100  0.000  0.900  0.000
  0.000  0.000  1.000  0.000  0.000
    occupations:
  0.616 -0.000 -0.000  0.001 -0.000
 -0.000  0.524  0.000 -0.001 -0.000
 -0.000  0.000  0.489  0.000  0.001
  0.001 -0.001  0.000  0.528 -0.000
 -0.000 -0.000  0.001 -0.000  0.525
N of occupied +U levels =  41.7472684
 --- exit write_ns ---

[...]

          k = 0.2500-0.4237 0.0000 ( 32188 PWs)   bands (ev):

[...]

          k =-0.2500 0.2118 0.0000 ( 32165 PWs)   bands (ev):

   -56.9133 -56.8452 -56.3727 -56.3204 -56.3137 -56.2617 -56.2118 -55.5541
   -33.6635 -33.1328 -32.9944 -32.9505 -32.9394 -32.9325 -32.9080 -32.7799
   -32.7785 -32.7650 -32.6952 -32.6502 -32.6456 -32.3614 -32.3295 -32.2845
   -32.2391 -32.1431 -32.1310 -32.1199 -32.1038 -32.0557 -31.6559 -31.5961
   -20.9933 -20.5575 -19.8651 -19.6651 -19.4278 -19.3648 -19.3467 -19.3350
   -19.3079 -19.1992 -19.1153 -18.5770 -18.4815 -18.4445 -18.4141 -18.3334
   -18.2613 -18.2295 -16.8668  -9.5224  -8.8999  -8.0239  -7.6218  -7.4662
    -7.2504  -7.0533  -6.9862  -6.8639  -6.7248  -6.7043  -6.6423  -6.4167
    -6.3827  -6.3481  -6.1332  -6.0630  -6.0125  -5.9261  -5.8175  -5.5693
    -5.4771  -5.3081  -5.2568  -5.0182  -4.9649  -4.8834  -4.7521  -4.6845
    -4.6369  -4.6124  -4.4755  -4.4524  -4.4035  -4.3548  -4.3128  -4.2743
    -4.1072  -4.0550  -3.9794  -3.9342  -3.8865  -3.7528  -3.6713  -3.6408
    -3.5133  -3.4229  -3.3658  -3.2792  -3.2516  -3.1505  -3.0329  -2.9812
    -2.9527  -2.7372  -2.6688  -2.4137  -0.6878  -0.3441   0.0185   0.7374
     0.7661   1.1087   1.2629   1.3258   1.4835   1.6530   1.7303   1.7898
     1.8881   1.9852   2.0474   2.1031   2.1925   2.3228   2.3811   2.4285
     2.6235   2.6558   2.7860   2.9945   3.2730   3.6597   4.0614   4.1405
     4.3483   4.5311   4.5926   4.6502   4.8908   4.9236   4.9734   5.0743
     5.2189   5.2531   5.4449   5.5696   5.6166   5.7212   5.9672   6.0168
     6.1452   6.2106   6.5055   6.5511   6.5719   6.6115   6.7885   6.8612
     6.8870   7.0877   7.1988   7.2854   7.4464   7.5023   7.8084   7.9183
     8.0166   8.0374   8.1360   8.1855   8.2436   8.5332   8.6085   8.7025
     8.8205   8.8979   9.0108   9.0849   9.1810   9.2749   9.2891   9.4826
     9.5432   9.5988   9.7523   9.8627   9.8975  10.0169  10.0770  10.1571
    10.2608  10.3841  10.5797  10.7225  10.7598  10.9147  10.9675  11.0060
    11.1245  11.1528  11.2217  11.2775  11.4040  11.4466  11.5146  11.5488
    11.6539  11.7604  11.8969  11.9082  12.0020  12.1099  12.1354  12.2038
    12.2631  12.3480  12.3976  12.4766  12.6020  12.6631  12.6939  12.7383
    12.7764  12.8633  12.9577  12.9846  13.0421  13.1011  13.2405  13.2882
    13.3642  13.3974  13.5177  13.6370  13.7105  13.7562  13.7894  13.8641
    13.9295  13.9545  14.0112  14.1311  14.1586  14.2888  14.3694  14.4058
    14.4634  14.5985  14.6676  14.7812  14.9105  14.9278  15.0449  15.1065
    15.2158  15.2582  15.2940  15.3330  15.3914  15.4537  15.5265  15.5792
    15.6546  15.6957  15.8011  15.8573  15.9105  15.9958  16.0422  16.0814
    16.2016  16.2743  16.3702  16.4003  16.4703  16.4970  16.5805  16.6745
    16.7291  16.7743  16.8609  16.9528  17.0318  17.1150  17.1522  17.2232
    17.2876  17.3499  17.3704  17.4286  17.4807  17.5798  17.6272  17.7147
    17.7597  17.8689  17.9696  17.9825  18.0926  18.1469  18.2113  18.3775
    18.3841  18.4312  18.4728  18.5449  18.6185  18.6675  18.7024  18.7890
    18.8633  18.9164  18.9750  19.0836  19.1508  19.1778  19.2383  19.3434
    19.3626  19.4031  19.4912  19.5185  19.5817  19.6412  19.6637  19.6856
    19.7660  19.8836  19.9084  20.0014  20.0719

     the Fermi energy is     0.5392 ev

!    total energy              =   -1559.34470378 Ry
     Harris-Foulkes estimate   =   -1559.34470379 Ry
     estimated scf accuracy    <          5.1E-09 Ry

     The total energy is the sum of the following terms:

     one-electron contribution =  -18852.18817223 Ry
     hartree contribution      =    9451.83492541 Ry
     xc contribution           =    -286.90946074 Ry
     ewald contribution        =    8124.76496566 Ry
     Hubbard energy            =       3.15290028 Ry
     smearing contrib. (-TS)   =       0.00013783 Ry

     convergence has been achieved in  12 iterations

     Forces acting on atoms (Ry/au):

     negative rho (up, down):  0.352E-02 0.000E+00
     atom    1 type  1   force =     0.00118109   -0.00005844    0.00032889
     atom    2 type  1   force =    -0.00025166    0.00022347    0.00017291
     atom    3 type  2   force =    -0.05615974   -0.00015821   -0.00059981
     atom    4 type  2   force =    -0.00336970    0.00002400   -0.00038839
     atom    5 type  1   force =    -0.00435933   -0.01029401   -0.00000527
     atom    6 type  1   force =    -0.00440586    0.01030950   -0.00000613
     atom    7 type  1   force =    -0.00046079    0.00002032    0.00056595
     atom    8 type  1   force =     0.00203510    0.00000624    0.00006577
     atom    9 type  2   force =     0.00176473    0.00000079   -0.00030281
     atom   10 type  2   force =    -0.00090481   -0.00000472   -0.00028041
     atom   11 type  1   force =    -0.01161088   -0.00268216    0.00038794
     atom   12 type  1   force =    -0.01161014    0.00268575    0.00038680
     atom   13 type  1   force =     0.00062674   -0.00000130    0.00003075
     atom   14 type  1   force =     0.00101099   -0.00006225   -0.00018148
     atom   15 type  1   force =    -0.00016253    0.00005328    0.00070481
     atom   16 type  2   force =     0.05682879   -0.00015455   -0.00066015
     atom   17 type  2   force =    -0.00406586    0.00003261    0.00014519
     atom   18 type  1   force =     0.00521070   -0.01006611   -0.00004125
     atom   19 type  1   force =     0.00515361    0.01008035   -0.00004075
     atom   20 type  1   force =    -0.00008319    0.00005838    0.00028425
     atom   21 type  1   force =     0.00096461    0.00000307    0.00087886
     atom   22 type  2   force =    -0.00146754    0.00000111    0.00055618
     atom   23 type  2   force =     0.00245152   -0.00000258   -0.00076265
     atom   24 type  1   force =     0.01099182   -0.00222895   -0.00067087
     atom   25 type  1   force =     0.01099056    0.00222912   -0.00067007
     atom   26 type  1   force =    -0.00047433    0.00000014    0.00001874
     atom   27 type  3   force =     0.00001208   -0.00004721    0.00040117
     atom   28 type  3   force =     0.00000077    0.00001587   -0.00036085
     atom   29 type  3   force =    -0.00004801    0.00000990   -0.00008156
     atom   30 type  3   force =     0.00015937    0.00000793   -0.00018407
     atom   31 type  1   force =     0.00005187   -0.00000134    0.00030829

     Total force =     0.002353     Total SCF correction =     0.000174

     bfgs converged in  10 scf cycles and   9 bfgs steps
     (criteria: energy < 0.10E-03, force < 0.10E-02)

     End of BFGS Geometry Optimization

     Final energy   =   -1559.3447037828 Ry
Begin final coordinates

ATOMIC_POSITIONS (crystal)
O0       0.000000000   0.000000000   0.371393114    0   0   1
O0       0.000000000   0.500000000   0.388240982    0   0   1
Nb1      0.250000000   0.500000000   0.444712177    0   0   1
Nb1      0.000000000   0.000000000   0.443947631    0   0   1
O0       0.250000000   0.790000000   0.446244764    0   0   1
O0       0.250000000   0.210000000   0.446243639    0   0   1
O0       0.000000000   0.500000000   0.501056074    0   0   1
O0       0.000000000   0.000000000   0.523158002    0   0   1
Nb1      0.250000000   0.000000000   0.576830889    0   0   1
Nb1      0.000000000   0.500000000   0.570447623    0   0   1
O0       0.250000000   0.710000000   0.577330930    0   0   1
O0       0.250000000   0.290000000   0.577332083    0   0   1
O0       0.000000000   0.000000000   0.621135583    0   0   1
O0       0.500000000   0.000000000   0.371664723    0   0   1
O0       0.500000000   0.500000000   0.390749590    0   0   1
Nb1      0.750000000   0.500000000   0.444743470    0   0   1
Nb1      0.500000000   0.000000000   0.444352567    0   0   1
O0       0.750000000   0.790000000   0.446221008    0   0   1
O0       0.750000000   0.210000000   0.446220836    0   0   1
O0       0.500000000   0.500000000   0.495232025    0   0   1
O0       0.500000000   0.000000000   0.523211962    0   0   1
Nb1      0.750000000   0.000000000   0.577127076    0   0   1
Nb1      0.500000000   0.500000000   0.587037308    0   0   1
O0       0.750000000   0.710000000   0.576956963    0   0   1
O0       0.750000000   0.290000000   0.576957384    0   0   1
O0       0.500000000   0.000000000   0.621055632    0   0   1
H2      -0.000463868   0.501478458   0.352005534
H2       0.499499637   0.501464625   0.354589819
H2       0.150600014   0.000391680   0.355646530
H2       0.650455468   0.000389857   0.355861538
O0       0.500061496   0.500003479   0.650582543
End final coordinates

     General routines

     Parallel routines
     Hubbard U routines

   This run was terminated on:   5:28: 5   1May2014

   JOB DONE.