     Program PWSCF v.5.0.2 (svn rev. 9656) starts on  1Jun2014 at  7:29:40

     Current dimensions of program PWSCF are:
     Max number of different atomic species (ntypx) = 10
     Max number of k-points (npk) =  40000
     Max angular momentum in pseudopotentials (lmaxx) =  3
     Reading input from pwscf.in
Warning: card &CELL ignored
Warning: card / ignored

     Subspace diagonalization in iterative solution of the eigenvalue problem:
     a serial algorithm will be used

     bravais-lattice index     =            0
     lattice parameter (alat)  =      11.1872  a.u.
     unit-cell volume          =    7531.8600 (a.u.)^3
     number of atoms/cell      =           33
     number of atomic types    =            3
     number of electrons       =       229.00
     number of Kohn-Sham states=          343
     kinetic-energy cutoff     =      40.0000  Ry
     charge density cutoff     =     500.0000  Ry
     convergence threshold     =      1.0E-06
     mixing beta               =       0.7000
     number of iterations used =            8  plain     mixing
     Exchange-correlation      = SLA  PW   PBE  PBE ( 1 4 3 4 0)
     EXX-fraction              =        0.00
     nstep                     =           50

     celldm(1)=  11.187179  celldm(2)=   0.000000  celldm(3)=   0.000000
     celldm(4)=   0.000000  celldm(5)=   0.000000  celldm(6)=   0.000000

     crystal axes: (cart. coord. in units of alat)
               a(1) = (   1.000000   0.000000   0.000000 )
               a(2) = (   0.000000   1.180104   0.000000 )
               a(3) = (   0.000000   0.000000   4.558482 )

     reciprocal axes: (cart. coord. in units 2 pi/alat)
               b(1) = (  1.000000  0.000000  0.000000 )
               b(2) = (  0.000000  0.847383  0.000000 )
               b(3) = (  0.000000  0.000000  0.219371 )

     PseudoPot. # 1 for O  read from file:
     /home/camp/zhonxu/pseudo/o_pbe_v1.01.uspp.F.UPF
     MD5 check sum: 2bcb18d16ea4b960afae9ec6d52f22d2
     Pseudo is Ultrasoft + core correction, Zval =  6.0
     Generated by new atomic code, or converted to UPF format
     Using radial grid of  737 points,  5 beta functions with:
                l(1) =   0
                l(2) =   0
                l(3) =   1
                l(4) =   1
                l(5) =   2
     Q(r) pseudized with  8 coefficients,  rinner =    0.900   0.900   0.900
                                                       0.900   0.900

     PseudoPot. # 2 for Nb read from file:
     /home/camp/zhonxu/pseudo/nb_pbe_v1.uspp.F.UPF
     MD5 check sum: 573aab8a2fa660278ed4a62cd769473f
     Pseudo is Ultrasoft + core correction, Zval = 13.0
     Generated by new atomic code, or converted to UPF format
     Using radial grid of  887 points,  6 beta functions with:
                l(1) =   0
                l(2) =   0
                l(3) =   1
                l(4) =   1
                l(5) =   2
                l(6) =   2
     Q(r) pseudized with  6 coefficients,  rinner =    1.000   1.000   1.000
                                                       1.000   1.000

     PseudoPot. # 3 for H  read from file:
     /home/camp/zhonxu/pseudo/h_pbe_v1.uspp.F.UPF
     MD5 check sum: 3408e3ff4ec8b0a4e358431e7e038a48
     Pseudo is Ultrasoft, Zval =  1.0
     Generated by new atomic code, or converted to UPF format
     Using radial grid of  615 points,  2 beta functions with:
                l(1) =   0
                l(2) =   0
     Q(r) pseudized with  8 coefficients,  rinner =    0.700

     atomic species   valence    mass     pseudopotential
        O0             6.00    15.99940     O ( 1.00)
        Nb1           13.00    92.90640     Nb( 1.00)
        H2             1.00     1.00794     H ( 1.00)

     Simplified LDA+U calculation (l_max = 2) with parameters (eV):
     atomic species    L          U    alpha       J0     beta
        Nb1            2     4.5000   0.0000   0.0000   0.0000

     No symmetry found

   Cartesian axes

     site n.     atom                  positions (alat units)
         1           O0  tau(   1) = (   0.0000000   0.0000000   1.6962113  )
         2           O0  tau(   2) = (   0.0000000   0.5900519   1.7723835  )
         3           Nb1 tau(   3) = (   0.2500000   0.5900519   2.0257895  )
         4           Nb1 tau(   4) = (   0.0000000   0.0000000   2.0274306  )
         5           O0  tau(   5) = (   0.2500000   0.9322821   2.0383253  )
         6           O0  tau(   6) = (   0.2500000   0.2478218   2.0381886  )
         7           O0  tau(   7) = (   0.0000000   0.5900519   2.2790132  )
         8           O0  tau(   8) = (   0.0000000   0.0000000   2.3853170  )
         9           Nb1 tau(   9) = (   0.2500000   0.0000000   2.6318397  )
        10           Nb1 tau(  10) = (   0.0000000   0.5900519   2.5956910  )
        11           O0  tau(  11) = (   0.2500000   0.8378738   2.6232242  )
        12           O0  tau(  12) = (   0.2500000   0.3422301   2.6255034  )
        13           O0  tau(  13) = (   0.0000000   0.0000000   2.8344187  )
        14           O0  tau(  14) = (   0.5000000   0.0000000   1.6974420  )
        15           O0  tau(  15) = (   0.5000000   0.5900519   1.7789021  )
        16           Nb1 tau(  16) = (   0.7500000   0.5900519   2.0259719  )
        17           Nb1 tau(  17) = (   0.5000000   0.0000000   2.0298010  )
        18           O0  tau(  18) = (   0.7500000   0.9322821   2.0382798  )
        19           O0  tau(  19) = (   0.7500000   0.2478218   2.0381886  )
        20           O0  tau(  20) = (   0.5000000   0.5900519   2.2737254  )
        21           O0  tau(  21) = (   0.5000000   0.0000000   2.3845421  )
        22           Nb1 tau(  22) = (   0.7500000   0.0000000   2.6318397  )
        23           Nb1 tau(  23) = (   0.5000000   0.5900519   2.6269166  )
        24           O0  tau(  24) = (   0.7500000   0.8378738   2.6231786  )
        25           O0  tau(  25) = (   0.7500000   0.3422301   2.6254579  )
        26           O0  tau(  26) = (   0.5000000   0.0000000   2.8332335  )
        27           H2  tau(  27) = (  -0.0005200   0.5958463   1.6070929  )
        28           H2  tau(  28) = (   0.4994400   0.5914445   1.6138395  )
        29           H2  tau(  29) = (   0.1507700   0.0008261   1.6243240  )
        30           H2  tau(  30) = (   0.6503900   0.0006019   1.6249166  )
        31           O0  tau(  31) = (   0.5000000   0.6010623   2.9587285  )
        32           O0  tau(  32) = (   0.5000000   0.4103103   3.1155403  )
        33           H2  tau(  33) = (   0.5000000   0.4955964   3.2584031  )

     number of k points=    10  Methfessel-Paxton smearing, width (Ry)=  0.0100
                       cart. coord. in units 2pi/alat
        k(    1) = (   0.0000000   0.0000000   0.0000000), wk =   0.1250000
        k(    2) = (   0.0000000   0.2118458   0.0000000), wk =   0.2500000
        k(    3) = (   0.0000000  -0.4236915   0.0000000), wk =   0.1250000
        k(    4) = (   0.2500000   0.0000000   0.0000000), wk =   0.2500000
        k(    5) = (   0.2500000   0.2118458   0.0000000), wk =   0.2500000
        k(    6) = (   0.2500000  -0.4236915   0.0000000), wk =   0.2500000
        k(    7) = (  -0.5000000   0.0000000   0.0000000), wk =   0.1250000
        k(    8) = (  -0.5000000   0.2118458   0.0000000), wk =   0.2500000
        k(    9) = (  -0.5000000  -0.4236915   0.0000000), wk =   0.1250000
        k(   10) = (  -0.2500000   0.2118458   0.0000000), wk =   0.2500000

     Largest allocated arrays     est. size (Mb)     dimensions
     Largest temporary arrays     est. size (Mb)     dimensions

     Check: negative/imaginary core charge=   -0.000003    0.000000

     Initial potential from superposition of free atoms
     Check: negative starting charge=   -0.003307

     starting charge  228.97806, renormalised to  229.00000

     negative rho (up, down):  0.331E-02 0.000E+00
     Number of +U iterations with fixed ns =  0
     Starting occupations:
 --- enter write_ns ---
 LDA+U parameters:
U( 2)     =  4.50000000
alpha( 2) =  0.00000000
atom    3   Tr[ns(na)] =   3.00000
    eigenvalues:
  0.300  0.300  0.300  0.300  0.300
    eigenvectors:
  1.000  0.000  0.000  0.000  0.000
  0.000  1.000  0.000  0.000  0.000
  0.000  0.000  1.000  0.000  0.000
  0.000  0.000  0.000  1.000  0.000
  0.000  0.000  0.000  0.000  1.000
    occupations:
  0.300  0.000  0.000  0.000  0.000
  0.000  0.300  0.000  0.000  0.000
  0.000  0.000  0.300  0.000  0.000
  0.000  0.000  0.000  0.300  0.000
  0.000  0.000  0.000  0.000  0.300
atom    4   Tr[ns(na)] =   3.00000
    eigenvalues:
  0.300  0.300  0.300  0.300  0.300
    eigenvectors:
  1.000  0.000  0.000  0.000  0.000
  0.000  1.000  0.000  0.000  0.000
  0.000  0.000  1.000  0.000  0.000
  0.000  0.000  0.000  1.000  0.000
  0.000  0.000  0.000  0.000  1.000
    occupations:
  0.300  0.000  0.000  0.000  0.000
  0.000  0.300  0.000  0.000  0.000
  0.000  0.000  0.300  0.000  0.000
  0.000  0.000  0.000  0.300  0.000
  0.000  0.000  0.000  0.000  0.300
atom    9   Tr[ns(na)] =   3.00000
    eigenvalues:
  0.300  0.300  0.300  0.300  0.300
    eigenvectors:
  1.000  0.000  0.000  0.000  0.000
  0.000  1.000  0.000  0.000  0.000
  0.000  0.000  1.000  0.000  0.000
  0.000  0.000  0.000  1.000  0.000
  0.000  0.000  0.000  0.000  1.000
    occupations:
  0.300  0.000  0.000  0.000  0.000
  0.000  0.300  0.000  0.000  0.000
  0.000  0.000  0.300  0.000  0.000
  0.000  0.000  0.000  0.300  0.000
  0.000  0.000  0.000  0.000  0.300
atom   10   Tr[ns(na)] =   3.00000
    eigenvalues:
  0.300  0.300  0.300  0.300  0.300
    eigenvectors:
  1.000  0.000  0.000  0.000  0.000
  0.000  1.000  0.000  0.000  0.000
  0.000  0.000  1.000  0.000  0.000
  0.000  0.000  0.000  1.000  0.000
  0.000  0.000  0.000  0.000  1.000
    occupations:
  0.300  0.000  0.000  0.000  0.000
  0.000  0.300  0.000  0.000  0.000
  0.000  0.000  0.300  0.000  0.000
  0.000  0.000  0.000  0.300  0.000
  0.000  0.000  0.000  0.000  0.300
atom   16   Tr[ns(na)] =   3.00000
    eigenvalues:
  0.300  0.300  0.300  0.300  0.300
    eigenvectors:
  1.000  0.000  0.000  0.000  0.000
  0.000  1.000  0.000  0.000  0.000
  0.000  0.000  1.000  0.000  0.000
  0.000  0.000  0.000  1.000  0.000
  0.000  0.000  0.000  0.000  1.000
    occupations:
  0.300  0.000  0.000  0.000  0.000
  0.000  0.300  0.000  0.000  0.000
  0.000  0.000  0.300  0.000  0.000
  0.000  0.000  0.000  0.300  0.000
  0.000  0.000  0.000  0.000  0.300
atom   17   Tr[ns(na)] =   3.00000
    eigenvalues:
  0.300  0.300  0.300  0.300  0.300
    eigenvectors:
  1.000  0.000  0.000  0.000  0.000
  0.000  1.000  0.000  0.000  0.000
  0.000  0.000  1.000  0.000  0.000
  0.000  0.000  0.000  1.000  0.000
  0.000  0.000  0.000  0.000  1.000
    occupations:
  0.300  0.000  0.000  0.000  0.000
  0.000  0.300  0.000  0.000  0.000
  0.000  0.000  0.300  0.000  0.000
  0.000  0.000  0.000  0.300  0.000
  0.000  0.000  0.000  0.000  0.300
atom   22   Tr[ns(na)] =   3.00000
    eigenvalues:
  0.300  0.300  0.300  0.300  0.300
    eigenvectors:
  1.000  0.000  0.000  0.000  0.000
  0.000  1.000  0.000  0.000  0.000
  0.000  0.000  1.000  0.000  0.000
[...]
  0.000  0.000  0.001  0.000  0.999
  0.000  0.000  0.000  1.000  0.000
    occupations:
  0.507  0.000  0.001  0.006  0.000
  0.000  0.430  0.000 -0.001  0.001
  0.001  0.000  0.342 -0.001  0.000
  0.006 -0.001 -0.001  0.728 -0.000
  0.000  0.001  0.000 -0.000  0.540
atom   16   Tr[ns(na)] =   5.15452
    eigenvalues:
  0.346  0.370  0.513  0.586  0.762
    eigenvectors:
  0.000  0.000  0.001  0.363  0.635
  0.000  0.000  0.998  0.001  0.000
  0.005  0.995  0.000  0.000  0.000
  0.000  0.000  0.000  0.635  0.364
  0.995  0.005  0.000  0.000  0.000
    occupations:
  0.698  0.005  0.002 -0.085  0.004
  0.005  0.513  0.001 -0.001  0.001
  0.002  0.001  0.370 -0.001  0.002
 -0.085 -0.001 -0.001  0.650 -0.002
  0.004  0.001  0.002 -0.002  0.346
atom   17   Tr[ns(na)] =   5.20796
    eigenvalues:
  0.384  0.389  0.552  0.588  0.691
    eigenvectors:
  0.000  0.004  0.000  0.996  0.000
  0.001  0.994  0.000  0.004  0.001
  0.999  0.001  0.000  0.000  0.000
  0.000  0.001  0.000  0.000  0.999
  0.000  0.000  1.000  0.000  0.000
    occupations:
  0.587  0.012  0.000 -0.001 -0.000
  0.012  0.390 -0.000 -0.010  0.000
  0.000 -0.000  0.384 -0.000  0.001
 -0.001 -0.010 -0.000  0.691  0.000
 -0.000  0.000  0.001  0.000  0.552
atom   22   Tr[ns(na)] =   5.27580
    eigenvalues:
  0.452  0.463  0.482  0.619  0.622
    eigenvectors:
  0.879  0.001  0.000  0.116  0.004
  0.000  0.000  0.000  0.034  0.966
  0.000  0.184  0.816  0.000  0.000
  0.120  0.000  0.000  0.850  0.030
  0.001  0.815  0.184  0.000  0.000
    occupations:
  0.472 -0.000 -0.000  0.054 -0.000
 -0.000  0.622 -0.000  0.001  0.000
 -0.000 -0.000  0.479  0.000 -0.007
  0.054  0.001  0.000  0.599  0.000
 -0.000  0.000 -0.007  0.000  0.467
atom   23   Tr[ns(na)] =   5.22941
    eigenvalues:
  0.347  0.500  0.556  0.595  0.616
    eigenvectors:
  0.003  0.000  0.000  0.780  0.217
  0.000  0.993  0.007  0.000  0.000
  0.997  0.000  0.000  0.002  0.001
  0.000  0.000  0.000  0.218  0.782
  0.000  0.007  0.993  0.000  0.000
    occupations:
  0.599  0.000  0.014  0.008  0.000
  0.000  0.501  0.000 -0.000 -0.005
  0.014  0.000  0.348  0.003 -0.000
  0.008 -0.000  0.003  0.612 -0.000
  0.000 -0.005 -0.000 -0.000  0.556
N of occupied +U levels =  41.6030620
 --- exit write_ns ---

     Threshold (ethr) on eigenvalues was too large:
     Diagonalizing with lowered threshold

     Davidson diagonalization with overlap
     ethr =  3.99E-09,  avg # of iterations =  3.0

[...]

     total energy              =   -1592.53263539 Ry
     Harris-Foulkes estimate   =   -1592.53263539 Ry
     estimated scf accuracy    <       0.00000002 Ry

     iteration # 12     ecut=    40.00 Ry     beta=0.70
     Davidson diagonalization with overlap
     ethr =  7.97E-12,  avg # of iterations =  1.0

     negative rho (up, down):  0.340E-02 0.000E+00

     End of self-consistent calculation
 --- enter write_ns ---
 LDA+U parameters:
U( 2)     =  4.50000000
alpha( 2) =  0.00000000
atom    3   Tr[ns(na)] =   5.15459
    eigenvalues:
  0.345  0.372  0.513  0.586  0.762
    eigenvectors:
  0.000  0.000  0.001  0.363  0.635
  0.000  0.000  0.998  0.001  0.000
  0.058  0.942  0.000  0.000  0.000
  0.000  0.000  0.000  0.635  0.364
  0.942  0.058  0.000  0.000  0.000
    occupations:
  0.698 -0.005  0.002 -0.085 -0.004
 -0.005  0.513 -0.001  0.001  0.001
  0.002 -0.001  0.370 -0.001 -0.006
 -0.085  0.001 -0.001  0.650  0.002
 -0.004  0.001 -0.006  0.002  0.346
atom    4   Tr[ns(na)] =   5.21150
    eigenvalues:
  0.384  0.389  0.553  0.588  0.692
    eigenvectors:
  0.000  0.004  0.000  0.996  0.000
  0.007  0.989  0.000  0.004  0.001
  0.993  0.007  0.000  0.000  0.000
  0.000  0.001  0.000  0.000  0.999
  0.000  0.000  1.000  0.000  0.000
    occupations:
  0.587  0.012  0.000 -0.000 -0.000
  0.012  0.390 -0.000 -0.009  0.000
  0.000 -0.000  0.384 -0.000  0.001
 -0.000 -0.009 -0.000  0.692  0.000
 -0.000  0.000  0.001  0.000  0.553
atom    9   Tr[ns(na)] =   5.27593
    eigenvalues:
  0.452  0.463  0.482  0.619  0.622
    eigenvectors:
  0.879  0.001  0.000  0.114  0.005
  0.000  0.000  0.000  0.047  0.953
  0.000  0.185  0.815  0.000  0.000
  0.120  0.000  0.000  0.838  0.042
  0.001  0.814  0.185  0.000  0.000
    occupations:
  0.472 -0.000 -0.000  0.054  0.000
 -0.000  0.622  0.000 -0.001  0.000
 -0.000  0.000  0.479  0.000  0.007
  0.054 -0.001  0.000  0.599 -0.000
  0.000  0.000  0.007 -0.000  0.467
atom   10   Tr[ns(na)] =   5.09407
    eigenvalues:
  0.342  0.430  0.507  0.540  0.728
    eigenvectors:
  0.000  0.000  0.999  0.000  0.001
  0.000  1.000  0.000  0.000  0.000
  1.000  0.000  0.000  0.000  0.000
  0.000  0.000  0.001  0.000  0.999
  0.000  0.000  0.000  1.000  0.000
    occupations:
  0.507  0.000  0.001  0.006  0.000
  0.000  0.430  0.000 -0.001  0.001
  0.001  0.000  0.342 -0.001  0.000
  0.006 -0.001 -0.001  0.728 -0.000
  0.000  0.001  0.000 -0.000  0.540
atom   16   Tr[ns(na)] =   5.15479
    eigenvalues:
  0.346  0.371  0.513  0.586  0.762
    eigenvectors:
  0.000  0.000  0.001  0.363  0.635
  0.000  0.000  0.998  0.001  0.000
  0.005  0.995  0.000  0.000  0.000
  0.000  0.000  0.000  0.635  0.364
  0.995  0.005  0.000  0.000  0.000
    occupations:
  0.698  0.005  0.002 -0.085  0.004
  0.005  0.513  0.001 -0.001  0.001
  0.002  0.001  0.370 -0.001  0.002
 -0.085 -0.001 -0.001  0.650 -0.002
  0.004  0.001  0.002 -0.002  0.346
atom   17   Tr[ns(na)] =   5.20830
    eigenvalues:
  0.384  0.389  0.552  0.588  0.692
    eigenvectors:
  0.000  0.004  0.000  0.996  0.000
  0.001  0.994  0.000  0.004  0.001
  0.999  0.001  0.000  0.000  0.000
  0.000  0.001  0.000  0.000  0.999
  0.000  0.000  1.000  0.000  0.000
    occupations:
  0.587  0.012  0.000 -0.001 -0.000
  0.012  0.390 -0.000 -0.010  0.000
  0.000 -0.000  0.384 -0.000  0.001
 -0.001 -0.010 -0.000  0.691  0.000
 -0.000  0.000  0.001  0.000  0.552
atom   22   Tr[ns(na)] =   5.27588
    eigenvalues:
  0.452  0.463  0.482  0.619  0.622
    eigenvectors:
  0.879  0.001  0.000  0.116  0.004
  0.000  0.000  0.000  0.034  0.965
  0.000  0.185  0.815  0.000  0.000
  0.120  0.000  0.000  0.850  0.031
  0.001  0.814  0.185  0.000  0.000
    occupations:
  0.472 -0.000 -0.000  0.054 -0.000
 -0.000  0.622 -0.000  0.001  0.000
 -0.000 -0.000  0.479  0.000 -0.007
  0.054  0.001  0.000  0.599  0.000
 -0.000  0.000 -0.007  0.000  0.467
atom   23   Tr[ns(na)] =   5.22817
    eigenvalues:
  0.347  0.500  0.556  0.595  0.616
    eigenvectors:
  0.003  0.000  0.000  0.772  0.225
  0.000  0.993  0.007  0.000  0.000
  0.997  0.000  0.000  0.002  0.001
  0.000  0.000  0.000  0.227  0.773
  0.000  0.007  0.993  0.000  0.000
    occupations:
  0.599  0.000  0.014  0.008  0.000
  0.000  0.500  0.000 -0.000 -0.005
  0.014  0.000  0.348  0.003 -0.000
  0.008 -0.000  0.003  0.611 -0.000
  0.000 -0.005 -0.000 -0.000  0.556
N of occupied +U levels =  41.6032327
 --- exit write_ns ---

[...]

          k = 0.2500-0.4237 0.0000 ( 32188 PWs)   bands (ev):

[...]

          k =-0.2500 0.2118 0.0000 ( 32165 PWs)   bands (ev):

   -56.1335 -56.0661 -55.6443 -55.6381 -55.5996 -55.5874 -55.5792 -55.5074
   -32.9281 -32.3482 -32.2426 -32.2215 -32.1799 -32.1671 -32.1394 -32.1175
   -32.0987 -32.0319 -31.9851 -31.9804 -31.9478 -31.9001 -31.8809 -31.6401
   -31.5943 -31.5415 -31.4518 -31.4326 -31.4243 -31.3813 -31.3464 -31.2957
   -22.4404 -20.1191 -19.9613 -19.2066 -18.9994 -18.7737 -18.7110 -18.6937
   -18.6703 -18.6574 -18.6158 -18.5950 -17.9260 -17.8764 -17.8454 -17.8163
   -17.7856 -17.7725 -17.5992 -16.0648  -8.7043  -8.3001  -7.7522  -7.3577
    -6.9671  -6.8422  -6.6800  -6.4640  -6.3227  -6.2994  -6.1836  -6.0898
    -6.0488  -6.0261  -5.8033  -5.7363  -5.6940  -5.4841  -5.4225  -5.3761
    -5.3364  -5.1884  -4.9783  -4.9014  -4.7722  -4.6060  -4.4143  -4.3783
    -4.3245  -4.1950  -4.0831  -4.0422  -3.9968  -3.9582  -3.8344  -3.7928
    -3.7360  -3.7125  -3.6727  -3.5973  -3.4741  -3.3774  -3.3137  -3.2888
    -3.2111  -3.0679  -3.0219  -2.9281  -2.8660  -2.8222  -2.7457  -2.5936
    -2.5316  -2.4913  -2.3716  -2.3405  -2.0256  -1.8699  -0.7749  -0.6138
     0.2849   0.3617   1.2752   1.4445   1.7436   1.8664   1.9932   2.0617
     2.2025   2.2716   2.4573   2.4796   2.4962   2.6369   2.6720   2.7805
     2.8188   2.9264   3.0025   3.0577   3.1352   3.2063   3.2568   3.5157
     3.8184   4.1971   4.3667   4.4430   4.7149   4.8129   4.9994   5.1721
     5.2133   5.2560   5.3966   5.4992   5.5653   5.6921   5.8312   5.8650
     5.9405   6.0323   6.0801   6.1798   6.4200   6.5081   6.5630   6.7077
     6.7858   6.8058   6.8821   7.0452   7.1406   7.3250   7.3817   7.4623
     7.5992   7.7830   7.8904   8.0100   8.0735   8.1467   8.3156   8.3414
     8.5183   8.5957   8.7284   8.8001   8.9532   8.9674   9.0616   9.2479
     9.3138   9.4155   9.4719   9.5630   9.6717   9.7926   9.8741   9.9464
    10.0564  10.1342  10.2148  10.3245  10.4117  10.4483  10.6082  10.7830
    10.8561  10.9885  11.0278  11.1112  11.1669  11.2183  11.3128  11.3884
    11.4735  11.5899  11.6120  11.6547  11.6931  11.8651  11.9047  12.0084
    12.1243  12.1831  12.2290  12.3237  12.4550  12.5457  12.6044  12.7149
    12.7514  12.7873  12.8639  12.9142  12.9461  13.0019  13.0582  13.1734
    13.2155  13.3052  13.3486  13.4225  13.5158  13.5930  13.6353  13.7106
    13.7694  13.8628  13.9154  14.0042  14.0500  14.0836  14.1358  14.2401
    14.3081  14.3974  14.4280  14.4779  14.6511  14.7434  14.8226  14.8794
    14.9547  15.0937  15.1640  15.2426  15.3032  15.3114  15.4076  15.4514
    15.4932  15.5544  15.5848  15.7009  15.7652  15.8094  15.8698  15.8959
    15.9862  16.0463  16.1240  16.1978  16.2867  16.3651  16.3870  16.4415
    16.5561  16.6766  16.7042  16.7491  16.7804  16.8774  16.9204  17.0323
    17.0656  17.1152  17.1820  17.2389  17.3167  17.3780  17.4774  17.4941
    17.5676  17.6255  17.6940  17.8298  17.8746  17.9291  17.9700  18.0680
    18.1214  18.2219  18.2983  18.3506  18.4116  18.5482  18.5822  18.6350
    18.6562  18.7443  18.8182  18.8756  18.9662  19.0087  19.0804  19.0938
    19.2015  19.2776  19.3057  19.3690  19.4353  19.4628  19.5201  19.6035
    19.6805  19.7492  19.7768  19.8163  19.8803  19.9163  19.9788  20.0326
    20.0651  20.1348  20.1719  20.2368  20.2907  20.3597  20.4180

     the Fermi energy is     1.1965 ev

!    total energy              =   -1592.53263539 Ry
     Harris-Foulkes estimate   =   -1592.53263539 Ry
     estimated scf accuracy    <          7.2E-09 Ry

     The total energy is the sum of the following terms:

     one-electron contribution =  -19336.66257748 Ry
     hartree contribution      =    9701.55228298 Ry
     xc contribution           =    -294.70042664 Ry
     ewald contribution        =    8334.16278963 Ry
     Hubbard energy            =       3.11626514 Ry
     smearing contrib. (-TS)   =      -0.00096902 Ry

     convergence has been achieved in  12 iterations

     Forces acting on atoms (Ry/au):

     negative rho (up, down):  0.340E-02 0.000E+00
     atom    1 type  1   force =     0.00154180   -0.00027677    0.00040109
     atom    2 type  1   force =    -0.00024515    0.00042348   -0.00013051
     atom    3 type  2   force =     0.02714338   -0.00000580   -0.00020398
     atom    4 type  2   force =    -0.00367726    0.00011462    0.00032393
     atom    5 type  1   force =    -0.00218087   -0.01851497    0.00007151
     atom    6 type  1   force =    -0.00193933    0.01829880    0.00007471
     atom    7 type  1   force =    -0.00015203    0.00030198    0.00031609
     atom    8 type  1   force =     0.00145332    0.00073577   -0.00014056
     atom    9 type  2   force =     0.00071411    0.00007607    0.00013076
     atom   10 type  2   force =     0.00000826   -0.00024916    0.00012539
     atom   11 type  1   force =    -0.00740926   -0.00385982   -0.00028728
     atom   12 type  1   force =    -0.00576373    0.00687835   -0.00026044
     atom   13 type  1   force =     0.00032291   -0.00112871    0.00020084
     atom   14 type  1   force =     0.00128630   -0.00000653    0.00045821
     atom   15 type  1   force =    -0.00024247    0.00012170   -0.00049886
     atom   16 type  2   force =    -0.02608682   -0.00006057   -0.00021924
     atom   17 type  2   force =    -0.00416927    0.00008492    0.00032396
     atom   18 type  1   force =     0.00303768   -0.01838954    0.00006038
     atom   19 type  1   force =     0.00260380    0.01821745    0.00007111
     atom   20 type  1   force =    -0.00008406   -0.00523924   -0.00007594
     atom   21 type  1   force =     0.00151000    0.00049178   -0.00003979
     atom   22 type  2   force =    -0.00103300    0.00006652    0.00012435
     atom   23 type  2   force =     0.00002906    0.00357897    0.00005049
     atom   24 type  1   force =     0.00746864   -0.00387653   -0.00029016
     atom   25 type  1   force =     0.00581415    0.00690668   -0.00025566
     atom   26 type  1   force =     0.00033061   -0.00419256    0.00031847
     atom   27 type  3   force =     0.00000512    0.00007579    0.00018296
     atom   28 type  3   force =     0.00000228   -0.00032623   -0.00042446
     atom   29 type  3   force =    -0.00012892    0.00001849    0.00020783
     atom   30 type  3   force =    -0.00014429   -0.00001253    0.00024229
     atom   31 type  1   force =    -0.00001411    0.00001933    0.00025260
     atom   32 type  1   force =     0.00000228   -0.00035458   -0.00045481
     atom   33 type  3   force =    -0.00000312    0.00008281   -0.00065528

     Total force =     0.001695     Total SCF correction =     0.000244
     SCF correction compared to forces is large: reduce conv_thr to get better values

     entering subroutine stress ...

     negative rho (up, down):  0.340E-02 0.000E+00
          total   stress  (Ry/bohr**3)                   (kbar)     P=   -2.96
  -0.00002020  -0.00000005   0.00000101         -2.97     -0.01      0.15
  -0.00000005  -0.00000624   0.00000063         -0.01     -0.92      0.09
   0.00000101   0.00000063  -0.00003392          0.15      0.09     -4.99

     bfgs converged in  15 scf cycles and  14 bfgs steps
     (criteria: energy < 0.10E-03, force < 0.10E-02)

     End of BFGS Geometry Optimization

     Final energy   =   -1592.5326353857 Ry
Begin final coordinates

ATOMIC_POSITIONS (crystal)
O0       0.000000000   0.000000000   0.372081552    0   0   1
O0       0.000000000   0.500000000   0.387794317    0   0   1
Nb1      0.250000000   0.500000000   0.443250117    0   0   1
Nb1      0.000000000   0.000000000   0.444812142    0   0   1
O0       0.250000000   0.790000000   0.446917148    0   0   1
O0       0.250000000   0.210000000   0.446870151    0   0   1
O0       0.000000000   0.500000000   0.499758013    0   0   1
O0       0.000000000   0.000000000   0.523765663    0   0   1
Nb1      0.250000000   0.000000000   0.577663975    0   0   1
Nb1      0.000000000   0.500000000   0.568816425    0   0   1
O0       0.250000000   0.710000000   0.577111329    0   0   1
O0       0.250000000   0.290000000   0.577494269    0   0   1
O0       0.000000000   0.000000000   0.621980539    0   0   1
O0       0.500000000   0.000000000   0.372235528    0   0   1
O0       0.500000000   0.500000000   0.388218061    0   0   1
Nb1      0.750000000   0.500000000   0.443254525    0   0   1
Nb1      0.500000000   0.000000000   0.445030893    0   0   1
O0       0.750000000   0.790000000   0.446893468    0   0   1
O0       0.750000000   0.210000000   0.446862829    0   0   1
O0       0.500000000   0.500000000   0.500588952    0   0   1
O0       0.500000000   0.000000000   0.523819429    0   0   1
Nb1      0.750000000   0.000000000   0.577656238    0   0   1
Nb1      0.500000000   0.500000000   0.575598029    0   0   1
O0       0.750000000   0.710000000   0.577127840    0   0   1
O0       0.750000000   0.290000000   0.577513333    0   0   1
O0       0.500000000   0.000000000   0.621692778    0   0   1
H2      -0.000466648   0.505221361   0.351599644
H2       0.499548760   0.499945762   0.351991892
H2       0.151038445   0.000889198   0.356539130
H2       0.650827696   0.000593227   0.356607179
O0       0.499947032   0.508289253   0.649409424
O0       0.499995690   0.347851927   0.683377213
H2       0.499990893   0.418792165   0.714927973
End final coordinates

     General routines

     Parallel routines
     Hubbard U routines

   This run was terminated on:  23:17:17   1Jun2014

   JOB DONE.
Running PBS batch system epilogue script
Job id: 373367.audhumbla.fysik.dtu.dk
Username: zhonxu
Groupname: campgst
Jobname: NbO2/Eads-2-layers/OOH-U-4.5
Sessionid: 1544
Queuename: verylong
Accounting:
This job has allocated the following 16 nodes:
b061 b061 b061 b061 b061 b061 b061 b061 b036 b036 b036 b036 b036 b036 b036 b036
Finished epilogue job 373367.audhumbla.fysik.dtu.dk for zhonxu