     Program PWSCF v.5.0.2 (svn rev. 9656) starts on 16Apr2014 at 10:48:45

     Current dimensions of program PWSCF are:
     Max number of different atomic species (ntypx) = 10
     Max number of k-points (npk) =  40000
     Max angular momentum in pseudopotentials (lmaxx) =  3
     Reading input from pwscf.in
Warning: card &CELL ignored
Warning: card / ignored

     Subspace diagonalization in iterative solution of the eigenvalue problem:
     a serial algorithm will be used

     bravais-lattice index     =            0
     lattice parameter (alat)  =      12.0187  a.u.
     unit-cell volume          =    9939.8055 (a.u.)^3
     number of atoms/cell      =           50
     number of atomic types    =            3
     number of electrons       =       439.00
     number of Kohn-Sham states=          658
     kinetic-energy cutoff     =      40.0000  Ry
     charge density cutoff     =     500.0000  Ry
     convergence threshold     =      1.0E-06
     mixing beta               =       0.3000
     number of iterations used =            8  plain     mixing
     Exchange-correlation      = SLA  PW   PBE  PBE ( 1 4 3 4 0)
     EXX-fraction              =        0.00
     nstep                     =           50

     celldm(1)=  12.018658  celldm(2)=   0.000000  celldm(3)=   0.000000
     celldm(4)=   0.000000  celldm(5)=   0.000000  celldm(6)=   0.000000

     crystal axes: (cart. coord. in units of alat)
               a(1) = (   1.000000   0.000000   0.000000 )
               a(2) = (   0.000000   1.009517   0.000000 )
               a(3) = (   0.000000   0.000000   5.671477 )

     reciprocal axes: (cart. coord. in units 2 pi/alat)
               b(1) = (  1.000000  0.000000  0.000000 )
               b(2) = (  0.000000  0.990572  0.000000 )
               b(3) = (  0.000000  0.000000  0.176321 )

     PseudoPot. # 1 for O  read from file:
     /home/camp/zhonxu/pseudo/o_pbe_v1.01.uspp.F.UPF
     MD5 check sum: 2bcb18d16ea4b960afae9ec6d52f22d2
     Pseudo is Ultrasoft + core correction, Zval =  6.0
     Generated by new atomic code, or converted to UPF format
     Using radial grid of  737 points,  5 beta functions with:
                l(1) =   0
                l(2) =   0
                l(3) =   1
                l(4) =   1
                l(5) =   2
     Q(r) pseudized with  8 coefficients,  rinner =    0.900   0.900   0.900
                                                       0.900   0.900

     PseudoPot. # 2 for Ir read from file:
     /home/camp/zhonxu/pseudo/ir_pbe_v1.uspp.F.UPF
     MD5 check sum: abf987a9674477536ede83817f8f8b70
     Pseudo is Ultrasoft + core correction, Zval = 15.0
     Generated by new atomic code, or converted to UPF format
     Using radial grid of  983 points,  7 beta functions with:
                l(1) =   0
                l(2) =   0
                l(3) =   1
                l(4) =   1
                l(5) =   1
                l(6) =   2
                l(7) =   2
     Q(r) pseudized with  8 coefficients,  rinner =    1.350   1.350   1.350
                                                       1.350   1.350

     PseudoPot. # 3 for H  read from file:
     /home/camp/zhonxu/pseudo/h_pbe_v1.uspp.F.UPF
     MD5 check sum: 3408e3ff4ec8b0a4e358431e7e038a48
     Pseudo is Ultrasoft, Zval =  1.0
     Generated by new atomic code, or converted to UPF format
     Using radial grid of  615 points,  2 beta functions with:
                l(1) =   0
                l(2) =   0
     Q(r) pseudized with  8 coefficients,  rinner =    0.700

     atomic species   valence    mass     pseudopotential
        O0             6.00    15.99940     O ( 1.00)
        Ir1           15.00   192.22000     Ir( 1.00)
        H2             1.00     1.00794     H ( 1.00)

      2 Sym. Ops. (no inversion) found

   Cartesian axes

     site n.     atom                  positions (alat units)
         1           O0  tau(   1) = (   0.0000000   0.5047586   1.8867871  )
         2           Ir1 tau(   2) = (   0.2500000   0.5047586   2.0785964  )
         3           Ir1 tau(   3) = (   0.0000000   0.0000000   2.0785964  )
         4           O0  tau(   4) = (   0.2500000   0.8177090   2.0785964  )
         5           O0  tau(   5) = (   0.2500000   0.1918083   2.0785964  )
         6           O0  tau(   6) = (   0.0000000   0.5047586   2.2704058  )
         7           O0  tau(   7) = (   0.0000000   0.0000000   2.3915485  )
         8           Ir1 tau(   8) = (   0.2500000   0.0000000   2.5833579  )
         9           Ir1 tau(   9) = (   0.0000000   0.5047586   2.5833579  )
        10           O0  tau(  10) = (   0.2500000   0.6965669   2.5833579  )
        11           O0  tau(  11) = (   0.2500000   0.3129503   2.5833579  )
        12           O0  tau(  12) = (   0.0000000   0.0000000   2.7751673  )
        13           O0  tau(  13) = (   0.0000000   0.5047586   2.8930773  )
        14           Ir1 tau(  14) = (   0.2500000   0.5047586   3.0864747  )
        15           Ir1 tau(  15) = (   0.0000000   0.0000000   3.0901611  )
        16           O0  tau(  16) = (   0.2500000   0.8161846   3.0894805  )
        17           O0  tau(  17) = (   0.2500000   0.1933326   3.0894805  )
        18           O0  tau(  18) = (   0.0000000   0.5047586   3.2780572  )
        19           O0  tau(  19) = (   0.0000000   0.0000000   3.4018655  )
        20           Ir1 tau(  20) = (   0.2500000   0.0000000   3.5996299  )
        21           Ir1 tau(  21) = (   0.0000000   0.5047586   3.5839199  )
        22           O0  tau(  22) = (   0.2500000   0.6968899   3.6045641  )
        23           O0  tau(  23) = (   0.2500000   0.3126273   3.6045641  )
        24           O0  tau(  24) = (   0.0000000   0.0000000   3.7852574  )
        25           O0  tau(  25) = (   0.5000000   0.5047586   1.8867871  )
        26           Ir1 tau(  26) = (   0.7500000   0.5047586   2.0785964  )
        27           Ir1 tau(  27) = (   0.5000000   0.0000000   2.0785964  )
        28           O0  tau(  28) = (   0.7500000   0.8177090   2.0785964  )
        29           O0  tau(  29) = (   0.7500000   0.1918083   2.0785964  )
        30           O0  tau(  30) = (   0.5000000   0.5047586   2.2704058  )
        31           O0  tau(  31) = (   0.5000000   0.0000000   2.3915485  )
        32           Ir1 tau(  32) = (   0.7500000   0.0000000   2.5833579  )
        33           Ir1 tau(  33) = (   0.5000000   0.5047586   2.5833579  )
        34           O0  tau(  34) = (   0.7500000   0.6965669   2.5833579  )
        35           O0  tau(  35) = (   0.7500000   0.3129503   2.5833579  )
        36           O0  tau(  36) = (   0.5000000   0.0000000   2.7751673  )
        37           O0  tau(  37) = (   0.5000000   0.5047586   2.8930773  )
        38           Ir1 tau(  38) = (   0.7500000   0.5047586   3.0864747  )
        39           Ir1 tau(  39) = (   0.5000000   0.0000000   3.0901611  )
        40           O0  tau(  40) = (   0.7500000   0.8161846   3.0894805  )
        41           O0  tau(  41) = (   0.7500000   0.1933326   3.0894805  )
        42           O0  tau(  42) = (   0.5000000   0.5047586   3.2780572  )
        43           O0  tau(  43) = (   0.5000000   0.0000000   3.4018655  )
        44           Ir1 tau(  44) = (   0.7500000   0.0000000   3.5996299  )
        45           Ir1 tau(  45) = (   0.5000000   0.5047586   3.5839199  )
        46           O0  tau(  46) = (   0.7500000   0.6968899   3.6045641  )
        47           O0  tau(  47) = (   0.7500000   0.3126273   3.6045641  )
        48           O0  tau(  48) = (   0.5000000   0.0000000   3.7852574  )
        49           O0  tau(  49) = (   0.5149100   0.5047586   3.8886484  )
        50           H2  tau(  50) = (   0.3734900   0.5047586   3.9513182  )

     number of k points=     9  Methfessel-Paxton smearing, width (Ry)=  0.0100
                       cart. coord. in units 2pi/alat
        k(    1) = (   0.0000000   0.0000000   0.0000000), wk =   0.1250000
        k(    2) = (   0.0000000   0.2476431   0.0000000), wk =   0.2500000
        k(    3) = (   0.0000000  -0.4952862   0.0000000), wk =   0.1250000
        k(    4) = (   0.2500000   0.0000000   0.0000000), wk =   0.2500000
        k(    5) = (   0.2500000   0.2476431   0.0000000), wk =   0.5000000
        k(    6) = (   0.2500000  -0.4952862   0.0000000), wk =   0.2500000
        k(    7) = (  -0.5000000   0.0000000   0.0000000), wk =   0.1250000
        k(    8) = (  -0.5000000   0.2476431   0.0000000), wk =   0.2500000
        k(    9) = (  -0.5000000  -0.4952862   0.0000000), wk =   0.1250000

     Largest allocated arrays     est. size (Mb)     dimensions
     Largest temporary arrays     est. size (Mb)     dimensions

     Check: negative/imaginary core charge=   -0.000003    0.000000

     Initial potential from superposition of free atoms
     Check: negative starting charge=   -6.666965

     starting charge  430.99944, renormalised to  439.00000

     negative rho (up, down):  0.679E+01 0.000E+00
     Starting wfc are  325 randomized atomic wfcs

     Self-consistent Calculation

     iteration #  1     ecut=    40.00 Ry     beta=0.30
     Davidson diagonalization with overlap
     ethr =  1.00E-02,  avg # of iterations =  7.4

     negative rho (up, down):  0.637E+01 0.000E+00

     total energy              =   -3967.63770959 Ry
     Harris-Foulkes estimate   =   -4053.66613792 Ry
     estimated scf accuracy    <     173.46909071 Ry

[...]

     End of self-consistent calculation

          k = 0.0000 0.0000 0.0000 ( 42445 PWs)   bands (ev):

   -49.5285 -49.5002 -49.4930 -49.4819 -49.4818 -49.4761 -49.4755 -49.4738
   -49.4625 -49.4551 -49.4545 -49.4475 -49.4450 -49.4338 -49.4325 -49.4240
   -49.4232 -49.4140 -49.3970 -49.3901 -49.3760 -49.3533 -49.3241 -49.3083
   -49.3000 -49.2850 -49.2715 -49.2684 -49.2532 -49.2271 -49.2080 -49.1954
   -49.1950 -49.1761 -49.1729 -49.1716 -49.1441 -49.1214 -49.0787 -49.0692
   -49.0684 -49.0096 -48.9869 -48.9843 -48.9698 -48.8134 -48.8123 -48.7952
   -20.0238 -19.7684 -19.5056 -19.4350 -19.3530 -19.0936 -18.9465 -18.8027
   -18.6980 -18.6963 -18.6469 -18.6361 -18.5949 -18.5704 -18.5510 -18.5457
   -18.5060 -18.4631 -18.4236 -18.3735 -18.2868 -18.2295 -18.1675 -18.1392
   -18.0088 -17.9563 -17.9009 -17.8785 -17.8700 -16.8387 -16.7857 -16.6789
   -16.6399  -8.5946  -8.5638  -8.4857  -8.4444  -8.2880  -8.1536  -7.4057
    -7.3448  -7.0858  -7.0246  -7.0060  -6.9924  -6.9804  -6.9784  -6.9680
    -6.9385  -6.9155  -6.8638  -6.8512  -6.8208  -6.7845  -6.7705  -6.7515
    -6.6781  -6.6505  -6.6136  -6.5483  -6.4486  -6.4244  -6.3313  -6.2944
    -6.2622  -6.2433  -6.2160  -6.0680  -6.0497  -6.0400  -5.8991  -5.6869
    -5.4979  -5.3082  -5.2659  -4.7932  -4.7324  -4.7159  -4.6676  -4.6179
    -4.6048  -4.5849  -4.5760  -4.5066  -4.4616  -4.2767  -4.2739  -4.1714
    -4.1349  -4.1076  -4.0802  -4.0312  -3.9311  -3.9153  -3.7052  -3.6737
    -3.5912  -3.5757  -3.5085  -3.4908  -3.4304  -3.4031  -3.3832  -3.3723
    -3.3620  -3.3201  -3.1851  -3.1534  -3.1513  -3.1107  -3.0088  -2.9502
    -2.9058  -2.6484  -2.5900  -2.5116  -2.4708  -2.4572  -2.3985  -2.3715
[...]
O0       0.250000000   0.190000000   0.366500000    0   0   0
O0       0.000000000   0.500000000   0.400320000    0   0   0
O0       0.000000000   0.000000000   0.421680000    0   0   0
Ir1      0.250000000   0.000000000   0.455500000    0   0   0
Ir1      0.000000000   0.500000000   0.455500000    0   0   0
O0       0.250000000   0.690000000   0.455500000    0   0   0
O0       0.250000000   0.310000000   0.455500000    0   0   0
O0       0.000000000   0.000000000   0.489320000    0   0   0
O0       0.000160429   0.500000000   0.510458879
Ir1      0.252179063   0.500000000   0.544340150
Ir1      0.000090501   0.000000000   0.544707315
O0       0.250374596   0.808534669   0.544540423
O0       0.250374596   0.191465331   0.544540423
O0       0.000392842   0.500000000   0.577759190
O0       0.000363674   0.000000000   0.599575412
Ir1      0.250228899   0.000000000   0.634292033
Ir1     -0.001129581   0.500000000   0.631395473
O0       0.248099817   0.691001576   0.634572085
O0       0.248099817   0.308998424   0.634572085
O0       0.000103956   0.000000000   0.667055901
O0       0.500000000   0.500000000   0.332680000    0   0   0
Ir1      0.750000000   0.500000000   0.366500000    0   0   0
Ir1      0.500000000   0.000000000   0.366500000    0   0   0
O0       0.750000000   0.810000000   0.366500000    0   0   0
O0       0.750000000   0.190000000   0.366500000    0   0   0
O0       0.500000000   0.500000000   0.400320000    0   0   0
O0       0.500000000   0.000000000   0.421680000    0   0   0
Ir1      0.750000000   0.000000000   0.455500000    0   0   0
Ir1      0.500000000   0.500000000   0.455500000    0   0   0
O0       0.750000000   0.690000000   0.455500000    0   0   0
O0       0.750000000   0.310000000   0.455500000    0   0   0
O0       0.500000000   0.000000000   0.489320000    0   0   0
O0       0.500122599   0.500000000   0.510102610
Ir1      0.748125191   0.500000000   0.544345284
Ir1      0.500071980   0.000000000   0.544669876
O0       0.749818292   0.808520400   0.544560111
O0       0.749818292   0.191479600   0.544560111
O0       0.500044380   0.500000000   0.578689277
O0       0.499919515   0.000000000   0.599455350
Ir1      0.750022660   0.000000000   0.634230859
Ir1      0.499652028   0.500000000   0.634434228
O0       0.751267387   0.691583530   0.634027538
O0       0.751267387   0.308416470   0.634027538
O0       0.500174197   0.000000000   0.666709337
O0       0.514735276   0.500000000   0.687915624
H2       0.373268034   0.500000000   0.698988937

     Check: negative starting charge=   -6.669426
     NEW-OLD atomic charge density approx. for the potential

     Check: negative/imaginary core charge=   -0.000003    0.000000
     Check: negative starting charge=   -6.669579

[...]

     Self-consistent Calculation

[...]

     Threshold (ethr) on eigenvalues was too large:
     Diagonalizing with lowered threshold

     Davidson diagonalization with overlap
     ethr =  3.68E-09,  avg # of iterations =  2.0

[...]

     total energy              =   -4043.10567399 Ry
     Harris-Foulkes estimate   =   -4043.10567399 Ry
     estimated scf accuracy    <       0.00000004 Ry

     iteration # 16     ecut=    40.00 Ry     beta=0.30
     Davidson diagonalization with overlap
     ethr =  1.00E-11,  avg # of iterations =  1.0

     negative rho (up, down):  0.625E+01 0.000E+00

     End of self-consistent calculation

[...]

          k = 0.2500-0.4953 0.0000 ( 42460 PWs)   bands (ev):

[...]

          k =-0.5000-0.4953 0.0000 ( 42596 PWs)   bands (ev):

   -49.4853 -49.4663 -49.4482 -49.4387 -49.4372 -49.4166 -49.4157 -49.4140
   -49.4139 -49.4132 -49.4108 -49.4060 -49.4058 -49.4011 -49.3986 -49.3947
   -49.3881 -49.3853 -49.3764 -49.3738 -49.3683 -49.3296 -49.2679 -49.2615
   -49.2554 -49.2547 -49.2280 -49.2276 -49.2247 -49.1941 -49.1931 -49.1838
   -49.1834 -49.1723 -49.1665 -49.1580 -49.1512 -49.0857 -49.0824 -49.0408
   -49.0336 -49.0126 -48.9901 -48.9414 -48.9410 -48.8586 -48.7716 -48.7631
   -19.2770 -19.1784 -19.1782 -19.1549 -18.9180 -18.8806 -18.8767 -18.8763
   -18.6874 -18.6721 -18.6691 -18.6620 -18.6034 -18.6015 -18.5967 -18.5954
   -18.5288 -18.4755 -18.4729 -18.4694 -18.3976 -18.3857 -18.3833 -18.3744
   -18.2336 -18.2020 -18.1838 -18.1771 -17.9725 -16.9303 -16.8597 -16.7087
   -16.7003  -7.6092  -7.5862  -7.5404  -7.5337  -7.0081  -6.8990  -6.8989
    -6.8944  -6.8778  -6.8656  -6.8523  -6.8417  -6.8238  -6.7702  -6.7459
    -6.7414  -6.5211  -6.5136  -6.4969  -6.4828  -6.4502  -6.4441  -6.4292
    -6.4181  -6.3668  -6.3415  -6.3413  -6.3370  -6.2773  -6.2643  -6.2641
    -6.2641  -6.2063  -6.0868  -6.0826  -6.0798  -6.0729  -6.0377  -5.9498
    -5.9481  -5.6089  -5.3587  -5.3023  -5.2974  -5.2949  -5.0280  -5.0197
    -4.9953  -4.9547  -4.8075  -4.7779  -4.7773  -4.7466  -4.7008  -4.6507
    -4.6317  -4.6072  -4.5727  -4.5671  -4.5625  -4.3884  -4.3763  -4.3607
    -4.2967  -4.2193  -4.1287  -4.1285  -4.1057  -4.0903  -4.0635  -4.0444
    -3.9927  -3.8571  -3.6775  -3.6162  -3.5715  -3.5507  -2.9388  -2.9265
    -2.8696  -2.8619  -2.6579  -2.6486  -2.6428  -2.6275  -2.5421  -2.3639
    -2.3466  -2.3458  -2.3424  -2.1830  -2.1716  -2.1623  -2.0892  -2.0216
    -1.8897  -1.8467  -1.7436  -1.4126  -1.1211  -1.0999  -1.0683  -1.0280
    -0.7855  -0.7806  -0.7271  -0.6811  -0.6758  -0.6245  -0.6086  -0.4676
    -0.4134  -0.4032  -0.3691  -0.3509  -0.1894  -0.0290  -0.0266  -0.0176
     0.0054   0.0860   0.0880   0.0906   0.3408   0.3813   0.4070   0.4241
     0.4723   0.5090   0.5338   0.5824   0.5852   0.5902   0.6414   0.7563
     0.7891   0.8023   0.8213   0.8664   0.8847   0.9452   0.9513   0.9757
     0.9920   1.0098   1.0806   1.1525   1.6649   1.6720   1.9380   2.7918
     2.8274   2.8563   2.8639   2.8714   3.0107   3.0609   3.0643   3.2524
     3.2605   3.2775   3.2795   3.8507   4.0546   4.0611   4.0720   4.3036
     4.3900   4.4351   4.4387   4.7370   4.9184   4.9517   4.9561   5.0914
     5.2384   5.2588   5.2757   5.3026   6.5731   6.6705   6.6714   7.5752
     8.0505   8.0522   8.0768   8.2475   8.2616   8.2967   8.3071   8.3362
     8.4569   8.5078   8.5190   8.5328   8.5393   8.5646   8.5928   8.6329
     8.9284   8.9520   9.0244   9.0625   9.1381   9.1707   9.1736   9.1739
     9.6060   9.6128   9.6493   9.7344   9.8497   9.8800   9.9260   9.9395
    10.3759  10.4105  10.4137  10.4869  10.4876  10.4913  10.4925  10.5018
    10.5155  10.5171  10.5261  10.5433  10.5519  10.5959  10.6130  10.6618
    10.6625  10.6673  10.6944  10.7266  10.7409  10.7692  10.8117  10.8186
    11.1902  11.2014  11.2379  11.3444  11.4946  11.5333  11.5608  11.5644
    11.8294  11.8378  11.8414  11.8501  11.9138  11.9922  11.9948  12.0772
    12.1035  12.1816  12.2341  12.2720  12.5446  12.5659  12.6060  12.6554
    12.8372  12.8701  12.9045  12.9239  13.2457  13.3258  13.4079  13.4592
    13.5524  13.7162  13.7336  13.7728  13.9246  13.9515  13.9672  14.1305
    14.1361  14.1528  14.1879  14.3324  14.3529  14.4256  14.5330  14.5441
    14.5878  14.6396  14.6507  14.6554  14.6814  14.7058  14.8736  15.0171
    15.0824  15.1032  15.1725  15.2373  15.2539  15.2667  15.3028  15.3849
    15.3919  15.4193  15.4746  15.4797  15.5755  15.5778  15.5800  15.6067
    15.6321  15.6806  15.6863  15.7060  15.7668  15.7720  15.8165  15.8232
    15.8447  15.8811  15.8886  15.9127  15.9288  15.9389  15.9506  15.9673
    15.9860  16.0397  16.0544  16.0720  16.0911  16.1102  16.1249  16.1726
    16.3057  16.3187  16.3489  16.3559  16.4595  16.4903  16.5243  16.5646
    16.6133  16.6197  16.6504  16.6952  16.7425  16.8116  16.8694  16.8756
    16.8773  16.9122  16.9505  16.9533  17.1635  17.1874  17.2541  17.2748
    17.3302  17.4255  17.4569  17.4667  17.4698  17.5546  17.5613  17.5889
    17.6075  17.7814  17.8391  17.8554  17.8743  17.9043  17.9195  17.9352
    17.9805  18.0185  18.0360  18.0404  18.0637  18.0790  18.1031  18.1715
    18.4296  18.4772  18.4944  18.5374  18.6048  18.6543  18.6585  18.7110
    18.7301  18.8599  18.9166  18.9384  18.9695  19.0772  19.0821  19.1041
[...]
    22.9967  23.0055  23.0460  23.0605  23.0700  23.1377  23.1398  23.1764
    23.2880  23.2959  23.3044  23.3296  23.3328  23.3345  23.3940  23.4147
    23.4313  23.4387  23.4873  23.5074  23.5618  23.5758  23.6034  23.6123
    23.8424  23.8445  23.9056  23.9093  23.9696  24.0416  24.0482  24.0675
    24.1004  24.1050  24.1158  24.1534  24.2392  24.2449  24.2532  24.2818
    24.2956  24.3184  24.3418  24.3494  24.3889  24.3975  24.4051  24.4896
    24.5498  24.6513  24.7130  24.8012  24.8193  24.8600  24.8707  24.8792
    25.0178  25.0548  25.0684  25.1769  25.2621  25.2994  25.3059  25.4198
    25.4797  25.4853  25.5484  25.5578  25.6069  25.6485  25.6610  25.7113
    25.7388  25.7637  25.7740  25.8035  25.8568  25.8917  25.9039  25.9554
    26.0220  26.0918  26.1276  26.1676  26.2766  26.3150  26.3319  26.3407
    26.4546  26.4728  26.5109  26.5906  26.6490  26.6572  26.6752  26.6794
    26.7434  26.8421  26.8584  26.8880  26.9317  26.9993  27.0458  27.0821
    27.0859  27.0972  27.1222  27.1935  27.2520  27.2810  27.3531  27.3887
    27.4479  27.4815

     the Fermi energy is     0.9679 ev

!    total energy              =   -4043.10567399 Ry
     Harris-Foulkes estimate   =   -4043.10567399 Ry
     estimated scf accuracy    <          4.5E-09 Ry

     The total energy is the sum of the following terms:

     one-electron contribution =  -78687.22388969 Ry
     hartree contribution      =   39443.46482150 Ry
     xc contribution           =   -1112.18190391 Ry
     ewald contribution        =   36312.83530455 Ry
     smearing contrib. (-TS)   =      -0.00000644 Ry

     convergence has been achieved in  16 iterations

     Forces acting on atoms (Ry/au):

     negative rho (up, down):  0.625E+01 0.000E+00
     atom    1 type  1   force =    -0.00001591    0.00000000    0.02523427
     atom    2 type  2   force =    -0.00021361    0.00000000   -0.03720094
     atom    3 type  2   force =     0.00001043    0.00000000    0.06779342
     atom    4 type  1   force =     0.00003018   -0.01262761   -0.02624613
     atom    5 type  1   force =     0.00003018    0.01262761   -0.02624613
     atom    6 type  1   force =    -0.00009787    0.00000000    0.01826576
     atom    7 type  1   force =     0.00001938    0.00000000   -0.01600894
     atom    8 type  2   force =     0.00008189    0.00000000   -0.01192600
     atom    9 type  2   force =     0.00026710    0.00000000   -0.01357666
     atom   10 type  1   force =    -0.00026436    0.01152047   -0.00200317
     atom   11 type  1   force =    -0.00026436   -0.01152047   -0.00200317
     atom   12 type  1   force =    -0.00000294    0.00000000    0.02577140
     atom   13 type  1   force =    -0.00001864    0.00000000    0.00012750
     atom   14 type  2   force =     0.00001144    0.00000000    0.00036620
     atom   15 type  2   force =     0.00003115    0.00000000   -0.00007603
     atom   16 type  1   force =    -0.00003237    0.00002494   -0.00008287
     atom   17 type  1   force =    -0.00003237   -0.00002494   -0.00008287
     atom   18 type  1   force =    -0.00010157    0.00000000   -0.00052463
     atom   19 type  1   force =    -0.00032760    0.00000000    0.00000436
     atom   20 type  2   force =    -0.00004817    0.00000000    0.00009498
     atom   21 type  2   force =    -0.00001266    0.00000000   -0.00054835
     atom   22 type  1   force =     0.00049314   -0.00009361    0.00004018
     atom   23 type  1   force =     0.00049314    0.00009361    0.00004018
     atom   24 type  1   force =    -0.00017739    0.00000000    0.00011582
     atom   25 type  1   force =     0.00000007    0.00000000    0.02571449
     atom   26 type  2   force =     0.00024001    0.00000000   -0.03712379
     atom   27 type  2   force =    -0.00001585    0.00000000    0.06768026
     atom   28 type  1   force =    -0.00002814   -0.01263656   -0.02624246
     atom   29 type  1   force =    -0.00002814    0.01263656   -0.02624246
     atom   30 type  1   force =    -0.00003597    0.00000000    0.02058666
     atom   31 type  1   force =     0.00000401    0.00000000   -0.01776383
     atom   32 type  2   force =    -0.00019786    0.00000000   -0.01194577
     atom   33 type  2   force =     0.00013577    0.00000000   -0.01839967
     atom   34 type  1   force =     0.00030800    0.01149770   -0.00196774
     atom   35 type  1   force =     0.00030800   -0.01149770   -0.00196774
     atom   36 type  1   force =     0.00017614    0.00000000    0.02380084
     atom   37 type  1   force =     0.00004832    0.00000000    0.00099653
     atom   38 type  2   force =    -0.00013526    0.00000000    0.00047254
     atom   39 type  2   force =     0.00005522    0.00000000   -0.00012547
     atom   40 type  1   force =     0.00012052    0.00001822   -0.00009758
     atom   41 type  1   force =     0.00012052   -0.00001822   -0.00009758
     atom   42 type  1   force =    -0.00026079    0.00000000    0.00067862
     atom   43 type  1   force =    -0.00020626    0.00000000   -0.00013181
     atom   44 type  2   force =    -0.00048547    0.00000000    0.00024650
     atom   45 type  2   force =     0.00004054    0.00000000    0.00045836
     atom   46 type  1   force =    -0.00057748   -0.00011614    0.00009906
     atom   47 type  1   force =    -0.00057748    0.00011614    0.00009906
     atom   48 type  1   force =    -0.00041710    0.00000000    0.00034834
     atom   49 type  1   force =     0.00061723    0.00000000   -0.00071719
     atom   50 type  3   force =     0.00093328    0.00000000    0.00031364

     Total force =     0.002590     Total SCF correction =     0.000181

     bfgs converged in  14 scf cycles and  13 bfgs steps
     (criteria: energy < 0.10E-03, force < 0.10E-02)

     End of BFGS Geometry Optimization

     Final energy   =   -4043.1056739912 Ry
Begin final coordinates

ATOMIC_POSITIONS (crystal)
O0       0.000000000   0.500000000   0.332680000    0   0   0
Ir1      0.250000000   0.500000000   0.366500000    0   0   0
Ir1      0.000000000   0.000000000   0.366500000    0   0   0
O0       0.250000000   0.810000000   0.366500000    0   0   0
O0       0.250000000   0.190000000   0.366500000    0   0   0
O0       0.000000000   0.500000000   0.400320000    0   0   0
O0       0.000000000   0.000000000   0.421680000    0   0   0
Ir1      0.250000000   0.000000000   0.455500000    0   0   0
Ir1      0.000000000   0.500000000   0.455500000    0   0   0
O0       0.250000000   0.690000000   0.455500000    0   0   0
O0       0.250000000   0.310000000   0.455500000    0   0   0
O0       0.000000000   0.000000000   0.489320000    0   0   0
O0       0.000160429   0.500000000   0.510458879
Ir1      0.252179063   0.500000000   0.544340150
Ir1      0.000090501   0.000000000   0.544707315
O0       0.250374596   0.808534669   0.544540423
O0       0.250374596   0.191465331   0.544540423
O0       0.000392842   0.500000000   0.577759190
O0       0.000363674   0.000000000   0.599575412
Ir1      0.250228899   0.000000000   0.634292033
Ir1     -0.001129581   0.500000000   0.631395473
O0       0.248099817   0.691001576   0.634572085
O0       0.248099817   0.308998424   0.634572085
O0       0.000103956   0.000000000   0.667055901
O0       0.500000000   0.500000000   0.332680000    0   0   0
Ir1      0.750000000   0.500000000   0.366500000    0   0   0
Ir1      0.500000000   0.000000000   0.366500000    0   0   0
O0       0.750000000   0.810000000   0.366500000    0   0   0
O0       0.750000000   0.190000000   0.366500000    0   0   0
O0       0.500000000   0.500000000   0.400320000    0   0   0
O0       0.500000000   0.000000000   0.421680000    0   0   0
Ir1      0.750000000   0.000000000   0.455500000    0   0   0
Ir1      0.500000000   0.500000000   0.455500000    0   0   0
O0       0.750000000   0.690000000   0.455500000    0   0   0
O0       0.750000000   0.310000000   0.455500000    0   0   0
O0       0.500000000   0.000000000   0.489320000    0   0   0
O0       0.500122599   0.500000000   0.510102610
Ir1      0.748125191   0.500000000   0.544345284
Ir1      0.500071980   0.000000000   0.544669876
O0       0.749818292   0.808520400   0.544560111
O0       0.749818292   0.191479600   0.544560111
O0       0.500044380   0.500000000   0.578689277
O0       0.499919515   0.000000000   0.599455350
Ir1      0.750022660   0.000000000   0.634230859
Ir1      0.499652028   0.500000000   0.634434228
O0       0.751267387   0.691583530   0.634027538
O0       0.751267387   0.308416470   0.634027538
O0       0.500174197   0.000000000   0.666709337
O0       0.514735276   0.500000000   0.687915624
H2       0.373268034   0.500000000   0.698988937
End final coordinates

     General routines

     Parallel routines

   This run was terminated on:   9:53:54  17Apr2014

   JOB DONE.