     Program PWSCF v.5.0.2 (svn rev. 9656) starts on 28Apr2014 at  2:23:30

     Current dimensions of program PWSCF are:
     Max number of different atomic species (ntypx) = 10
     Max number of k-points (npk) =  40000
     Max angular momentum in pseudopotentials (lmaxx) =  3
     Reading input from pwscf.in
Warning: card &CELL ignored
Warning: card / ignored

     Subspace diagonalization in iterative solution of the eigenvalue problem:
     a serial algorithm will be used

     bravais-lattice index     =            0
     lattice parameter (alat)  =      12.2076  a.u.
     unit-cell volume          =    7496.5096 (a.u.)^3
     number of atoms/cell      =           31
     number of atomic types    =            3
     number of electrons       =       246.00
     number of Kohn-Sham states=          369
     kinetic-energy cutoff     =      40.0000  Ry
     charge density cutoff     =     500.0000  Ry
     convergence threshold     =      1.0E-06
     mixing beta               =       0.7000
     number of iterations used =            8  plain     mixing
     Exchange-correlation      = SLA  PW   PBE  PBE ( 1 4 3 4 0)
     EXX-fraction              =        0.00
     nstep                     =           50

     celldm(1)=  12.207631  celldm(2)=   0.000000  celldm(3)=   0.000000
     celldm(4)=   0.000000  celldm(5)=   0.000000  celldm(6)=   0.000000

     crystal axes: (cart. coord. in units of alat)
               a(1) = (   1.000000   0.000000   0.000000 )
               a(2) = (   0.000000   1.004836   0.000000 )
               a(3) = (   0.000000   0.000000   4.100811 )

     reciprocal axes: (cart. coord. in units 2 pi/alat)
               b(1) = (  1.000000  0.000000  0.000000 )
               b(2) = (  0.000000  0.995187  0.000000 )
               b(3) = (  0.000000  0.000000  0.243854 )

     PseudoPot. # 1 for O  read from file:
     /home/camp/zhonxu/pseudo/o_pbe_v1.01.uspp.F.UPF
     MD5 check sum: 2bcb18d16ea4b960afae9ec6d52f22d2
     Pseudo is Ultrasoft + core correction, Zval =  6.0
     Generated by new atomic code, or converted to UPF format
     Using radial grid of  737 points,  5 beta functions with:
                l(1) =   0
                l(2) =   0
                l(3) =   1
                l(4) =   1
                l(5) =   2
     Q(r) pseudized with  8 coefficients,  rinner =    0.900   0.900   0.900
                                                       0.900   0.900

     PseudoPot. # 2 for Pt read from file:
     /home/camp/zhonxu/pseudo/pt_pbe_v1.uspp.F.UPF
     MD5 check sum: 4c71d6ad5ef119f1eb26a4d0b7884226
     Pseudo is Ultrasoft + core correction, Zval = 16.0
     Generated by new atomic code, or converted to UPF format
     Using radial grid of  985 points,  6 beta functions with:
                l(1) =   0
                l(2) =   0
                l(3) =   1
                l(4) =   1
                l(5) =   2
                l(6) =   2
     Q(r) pseudized with  8 coefficients,  rinner =    1.300   1.300   1.300
                                                       1.300   1.300

     PseudoPot. # 3 for H  read from file:
     /home/camp/zhonxu/pseudo/h_pbe_v1.uspp.F.UPF
     MD5 check sum: 3408e3ff4ec8b0a4e358431e7e038a48
     Pseudo is Ultrasoft, Zval =  1.0
     Generated by new atomic code, or converted to UPF format
     Using radial grid of  615 points,  2 beta functions with:
                l(1) =   0
                l(2) =   0
     Q(r) pseudized with  8 coefficients,  rinner =    0.700

     atomic species   valence    mass     pseudopotential
        O0             6.00    15.99940     O ( 1.00)
        Pt1           16.00   195.08000     Pt( 1.00)
        H2             1.00     1.00794     H ( 1.00)

     Simplified LDA+U calculation (l_max = 2) with parameters (eV):
     atomic species    L          U    alpha       J0     beta
        Pt1            2     3.5000   0.0000   0.0000   0.0000

     No symmetry found

   Cartesian axes

     site n.     atom                  positions (alat units)
         1           O0  tau(   1) = (   0.0000000   0.0000000   1.5489174  )
         2           O0  tau(   2) = (   0.0000000   0.5024180   1.6470088  )
         3           Pt1 tau(   3) = (   0.2500000   0.5024180   1.8504500  )
         4           Pt1 tau(   4) = (   0.0000000   0.0000000   1.8564782  )
         5           O0  tau(   5) = (   0.2500000   0.8139171   1.8182587  )
         6           O0  tau(   6) = (   0.2500000   0.1909188   1.8867012  )
         7           O0  tau(   7) = (   0.0000000   0.5024180   2.0373240  )
         8           O0  tau(   8) = (   0.0000000   0.0000000   2.1721997  )
         9           Pt1 tau(   9) = (   0.2500000   0.0000000   2.3623543  )
        10           Pt1 tau(  10) = (   0.0000000   0.5024180   2.3594017  )
        11           O0  tau(  11) = (   0.2500000   0.6933368   2.3215512  )
        12           O0  tau(  12) = (   0.2500000   0.3114991   2.4021322  )
        13           O0  tau(  13) = (   0.0000000   0.0000000   2.5481621  )
        14           O0  tau(  14) = (   0.5000000   0.0000000   1.5492455  )
        15           O0  tau(  15) = (   0.5000000   0.5024180   1.6439332  )
        16           Pt1 tau(  16) = (   0.7500000   0.5024180   1.8504910  )
        17           Pt1 tau(  17) = (   0.5000000   0.0000000   1.8565192  )
        18           O0  tau(  18) = (   0.7500000   0.8139171   1.8184227  )
        19           O0  tau(  19) = (   0.7500000   0.1909188   1.8866602  )
        20           O0  tau(  20) = (   0.5000000   0.5024180   2.0431061  )
        21           O0  tau(  21) = (   0.5000000   0.0000000   2.1716256  )
        22           Pt1 tau(  22) = (   0.7500000   0.0000000   2.3623953  )
        23           Pt1 tau(  23) = (   0.5000000   0.5024180   2.3697358  )
        24           O0  tau(  24) = (   0.7500000   0.6933368   2.3215102  )
        25           O0  tau(  25) = (   0.7500000   0.3114991   2.4021732  )
        26           O0  tau(  26) = (   0.5000000   0.0000000   2.5480390  )
        27           H2  tau(  27) = (   0.0001100   0.6425926   1.5814778  )
        28           H2  tau(  28) = (   0.5001800   0.6431151   1.5801656  )
        29           H2  tau(  29) = (   0.1426600   0.0364956   1.5073762  )
        30           H2  tau(  30) = (   0.6419200   0.0388771   1.5073762  )
        31           O0  tau(  31) = (   0.5000900   0.5753691   2.6428088  )

     number of k points=    10  Methfessel-Paxton smearing, width (Ry)=  0.0100
                       cart. coord. in units 2pi/alat
        k(    1) = (   0.0000000   0.0000000   0.0000000), wk =   0.1250000
        k(    2) = (   0.0000000   0.2487968   0.0000000), wk =   0.2500000
        k(    3) = (   0.0000000  -0.4975937   0.0000000), wk =   0.1250000
        k(    4) = (   0.2500000   0.0000000   0.0000000), wk =   0.2500000
        k(    5) = (   0.2500000   0.2487968   0.0000000), wk =   0.2500000
        k(    6) = (   0.2500000  -0.4975937   0.0000000), wk =   0.2500000
        k(    7) = (  -0.5000000   0.0000000   0.0000000), wk =   0.1250000
        k(    8) = (  -0.5000000   0.2487968   0.0000000), wk =   0.2500000
        k(    9) = (  -0.5000000  -0.4975937   0.0000000), wk =   0.1250000
        k(   10) = (  -0.2500000   0.2487968   0.0000000), wk =   0.2500000

     Largest allocated arrays     est. size (Mb)     dimensions
     Largest temporary arrays     est. size (Mb)     dimensions

     Check: negative/imaginary core charge=   -0.000003    0.000000

     Initial potential from superposition of free atoms
     Check: negative starting charge=   -1.533958

     starting charge  241.99985, renormalised to  246.00000

     negative rho (up, down):  0.156E+01 0.000E+00
     Number of +U iterations with fixed ns =  0
     Starting occupations:
 --- enter write_ns ---
 LDA+U parameters:
U( 2)     =  3.50000000
alpha( 2) =  0.00000000
atom    3   Tr[ns(na)] =   8.00000
    eigenvalues:
  0.800  0.800  0.800  0.800  0.800
    eigenvectors:
  1.000  0.000  0.000  0.000  0.000
  0.000  1.000  0.000  0.000  0.000
  0.000  0.000  1.000  0.000  0.000
  0.000  0.000  0.000  1.000  0.000
  0.000  0.000  0.000  0.000  1.000
    occupations:
  0.800  0.000  0.000  0.000  0.000
  0.000  0.800  0.000  0.000  0.000
  0.000  0.000  0.800  0.000  0.000
  0.000  0.000  0.000  0.800  0.000
  0.000  0.000  0.000  0.000  0.800
atom    4   Tr[ns(na)] =   8.00000
    eigenvalues:
  0.800  0.800  0.800  0.800  0.800
    eigenvectors:
  1.000  0.000  0.000  0.000  0.000
  0.000  1.000  0.000  0.000  0.000
  0.000  0.000  1.000  0.000  0.000
  0.000  0.000  0.000  1.000  0.000
  0.000  0.000  0.000  0.000  1.000
    occupations:
  0.800  0.000  0.000  0.000  0.000
  0.000  0.800  0.000  0.000  0.000
  0.000  0.000  0.800  0.000  0.000
  0.000  0.000  0.000  0.800  0.000
  0.000  0.000  0.000  0.000  0.800
atom    9   Tr[ns(na)] =   8.00000
    eigenvalues:
  0.800  0.800  0.800  0.800  0.800
    eigenvectors:
  1.000  0.000  0.000  0.000  0.000
  0.000  1.000  0.000  0.000  0.000
  0.000  0.000  1.000  0.000  0.000
  0.000  0.000  0.000  1.000  0.000
  0.000  0.000  0.000  0.000  1.000
    occupations:
  0.800  0.000  0.000  0.000  0.000
  0.000  0.800  0.000  0.000  0.000
  0.000  0.000  0.800  0.000  0.000
  0.000  0.000  0.000  0.800  0.000
  0.000  0.000  0.000  0.000  0.800
atom   10   Tr[ns(na)] =   8.00000
    eigenvalues:
  0.800  0.800  0.800  0.800  0.800
    eigenvectors:
  1.000  0.000  0.000  0.000  0.000
  0.000  1.000  0.000  0.000  0.000
  0.000  0.000  1.000  0.000  0.000
  0.000  0.000  0.000  1.000  0.000
  0.000  0.000  0.000  0.000  1.000
    occupations:
  0.800  0.000  0.000  0.000  0.000
  0.000  0.800  0.000  0.000  0.000
  0.000  0.000  0.800  0.000  0.000
  0.000  0.000  0.000  0.800  0.000
  0.000  0.000  0.000  0.000  0.800
atom   16   Tr[ns(na)] =   8.00000
    eigenvalues:
  0.800  0.800  0.800  0.800  0.800
    eigenvectors:
  1.000  0.000  0.000  0.000  0.000
  0.000  1.000  0.000  0.000  0.000
  0.000  0.000  1.000  0.000  0.000
  0.000  0.000  0.000  1.000  0.000
  0.000  0.000  0.000  0.000  1.000
    occupations:
  0.800  0.000  0.000  0.000  0.000
  0.000  0.800  0.000  0.000  0.000
  0.000  0.000  0.800  0.000  0.000
  0.000  0.000  0.000  0.800  0.000
  0.000  0.000  0.000  0.000  0.800
atom   17   Tr[ns(na)] =   8.00000
    eigenvalues:
  0.800  0.800  0.800  0.800  0.800
    eigenvectors:
  1.000  0.000  0.000  0.000  0.000
  0.000  1.000  0.000  0.000  0.000
  0.000  0.000  1.000  0.000  0.000
  0.000  0.000  0.000  1.000  0.000
  0.000  0.000  0.000  0.000  1.000
    occupations:
  0.800  0.000  0.000  0.000  0.000
  0.000  0.800  0.000  0.000  0.000
  0.000  0.000  0.800  0.000  0.000
  0.000  0.000  0.000  0.800  0.000
  0.000  0.000  0.000  0.000  0.800
atom   22   Tr[ns(na)] =   8.00000
    eigenvalues:
  0.800  0.800  0.800  0.800  0.800
    eigenvectors:
  1.000  0.000  0.000  0.000  0.000
  0.000  1.000  0.000  0.000  0.000
  0.000  0.000  1.000  0.000  0.000
  0.000  0.000  0.000  1.000  0.000
  0.000  0.000  0.000  0.000  1.000
    occupations:
  0.800  0.000  0.000  0.000  0.000
  0.000  0.800  0.000  0.000  0.000
[...]
  0.021  0.832  0.000  0.006  0.140
  0.000  0.000  0.991  0.007  0.002
    occupations:
  0.950  0.001 -0.009 -0.090  0.001
  0.001  0.712  0.001  0.001 -0.004
 -0.009  0.001  0.965 -0.026  0.001
 -0.090  0.001 -0.026  0.761 -0.000
  0.001 -0.004  0.001 -0.000  0.957
atom   10   Tr[ns(na)] =   8.75617
    eigenvalues:
  0.668  0.756  0.980  0.985  0.989
    eigenvectors:
  0.000  0.980  0.000  0.012  0.008
  0.015  0.000  0.985  0.000  0.000
  0.000  0.001  0.000  0.220  0.780
  0.000  0.019  0.000  0.768  0.213
  0.985  0.000  0.015  0.000  0.000
    occupations:
  0.761  0.000 -0.006  0.032  0.000
  0.000  0.976  0.000 -0.000 -0.038
 -0.006  0.000  0.988 -0.001 -0.000
  0.032 -0.000 -0.001  0.981 -0.000
  0.000 -0.038 -0.000 -0.000  0.672
atom   16   Tr[ns(na)] =   8.71944
    eigenvalues:
  0.694  0.705  0.985  0.986  0.989
    eigenvectors:
  0.038  0.135  0.598  0.225  0.004
  0.786  0.214  0.000  0.000  0.000
  0.001  0.004  0.003  0.077  0.915
  0.175  0.647  0.129  0.039  0.011
  0.000  0.000  0.271  0.659  0.070
    occupations:
  0.937 -0.003  0.008 -0.107  0.000
 -0.003  0.696 -0.002 -0.004 -0.004
  0.008 -0.002  0.988  0.018 -0.001
 -0.107 -0.004  0.018  0.753 -0.000
  0.000 -0.004 -0.001 -0.000  0.986
atom   17   Tr[ns(na)] =   8.70952
    eigenvalues:
  0.691  0.712  0.981  0.985  0.986
    eigenvectors:
  0.000  0.985  0.007  0.002  0.005
  0.011  0.000  0.040  0.925  0.024
  0.000  0.005  0.911  0.025  0.059
  0.000  0.009  0.042  0.037  0.912
  0.989  0.000  0.000  0.010  0.000
    occupations:
  0.716 -0.005 -0.019  0.026 -0.001
 -0.005  0.982  0.001  0.000  0.031
 -0.019  0.001  0.980  0.003  0.000
  0.026  0.000  0.003  0.984  0.000
 -0.001  0.031  0.000  0.000  0.694
atom   22   Tr[ns(na)] =   8.69053
    eigenvalues:
  0.712  0.722  0.957  0.968  0.986
    eigenvectors:
  0.001  0.134  0.001  0.011  0.854
  0.993  0.006  0.000  0.000  0.000
  0.000  0.013  0.009  0.974  0.004
  0.006  0.847  0.000  0.006  0.141
  0.000  0.000  0.989  0.009  0.001
    occupations:
  0.950 -0.000 -0.009 -0.089 -0.001
 -0.000  0.712 -0.001 -0.001 -0.004
 -0.009 -0.001  0.965 -0.026 -0.001
 -0.089 -0.001 -0.026  0.761  0.000
 -0.001 -0.004 -0.001  0.000  0.957
atom   23   Tr[ns(na)] =   8.67200
    eigenvalues:
  0.717  0.741  0.927  0.963  0.988
    eigenvectors:
  0.000  0.886  0.108  0.000  0.006
  0.019  0.000  0.000  0.981  0.000
  0.000  0.099  0.878  0.000  0.023
  0.000  0.016  0.014  0.000  0.970
  0.981  0.000  0.000  0.019  0.000
    occupations:
  0.763  0.000  0.054  0.027 -0.000
  0.000  0.958 -0.000  0.000 -0.033
  0.054 -0.000  0.910 -0.016 -0.000
  0.027  0.000 -0.016  0.983 -0.000
 -0.000 -0.033 -0.000 -0.000  0.722
N of occupied +U levels =  69.6677997
 --- exit write_ns ---

     Threshold (ethr) on eigenvalues was too large:
     Diagonalizing with lowered threshold

     Davidson diagonalization with overlap
     ethr =  7.01E-09,  avg # of iterations =  2.0

[...]

     total energy              =   -2279.84327086 Ry
     Harris-Foulkes estimate   =   -2279.84327086 Ry
     estimated scf accuracy    <       0.00000003 Ry

     iteration # 15     ecut=    40.00 Ry     beta=0.70
     Davidson diagonalization with overlap
     ethr =  6.66E-12,  avg # of iterations =  1.0

     negative rho (up, down):  0.158E+01 0.000E+00

     End of self-consistent calculation
 --- enter write_ns ---
 LDA+U parameters:
U( 2)     =  3.50000000
alpha( 2) =  0.00000000
atom    3   Tr[ns(na)] =   8.71942
    eigenvalues:
  0.694  0.705  0.985  0.986  0.989
    eigenvectors:
  0.038  0.135  0.594  0.230  0.004
  0.784  0.215  0.000  0.000  0.000
  0.001  0.004  0.004  0.078  0.914
  0.176  0.646  0.128  0.040  0.010
  0.000  0.000  0.274  0.653  0.072
    occupations:
  0.936  0.003  0.008 -0.107 -0.000
  0.003  0.696  0.002  0.004 -0.004
  0.008  0.002  0.988  0.018  0.001
 -0.107  0.004  0.018  0.753  0.001
 -0.000 -0.004  0.001  0.001  0.986
atom    4   Tr[ns(na)] =   8.71022
    eigenvalues:
  0.689  0.711  0.983  0.985  0.986
    eigenvectors:
  0.000  0.986  0.008  0.004  0.002
  0.011  0.000  0.130  0.817  0.042
  0.000  0.005  0.711  0.051  0.233
  0.000  0.009  0.150  0.119  0.722
  0.989  0.000  0.001  0.009  0.000
    occupations:
  0.715 -0.005 -0.019  0.026 -0.001
 -0.005  0.982  0.000  0.000  0.031
 -0.019  0.000  0.983  0.003  0.000
  0.026  0.000  0.003  0.983  0.000
 -0.001  0.031  0.000  0.000  0.692
atom    9   Tr[ns(na)] =   8.69037
    eigenvalues:
  0.711  0.723  0.957  0.968  0.986
    eigenvectors:
  0.004  0.131  0.001  0.010  0.854
  0.974  0.025  0.000  0.000  0.000
  0.000  0.012  0.006  0.978  0.004
  0.021  0.831  0.000  0.006  0.140
  0.000  0.000  0.993  0.006  0.001
    occupations:
  0.950  0.001 -0.009 -0.089  0.001
  0.001  0.712  0.001  0.001 -0.004
 -0.009  0.001  0.965 -0.026  0.001
 -0.089  0.001 -0.026  0.761 -0.000
  0.001 -0.004  0.001 -0.000  0.957
atom   10   Tr[ns(na)] =   8.75701
    eigenvalues:
  0.668  0.757  0.980  0.985  0.989
    eigenvectors:
  0.000  0.980  0.000  0.012  0.008
  0.015  0.000  0.985  0.000  0.000
  0.000  0.001  0.000  0.220  0.779
  0.000  0.019  0.000  0.767  0.213
  0.985  0.000  0.015  0.000  0.000
    occupations:
  0.761  0.000 -0.006  0.032  0.000
  0.000  0.976  0.000 -0.000 -0.038
 -0.006  0.000  0.988 -0.001 -0.000
  0.032 -0.000 -0.001  0.981 -0.000
  0.000 -0.038 -0.000 -0.000  0.672
atom   16   Tr[ns(na)] =   8.71943
    eigenvalues:
  0.694  0.705  0.985  0.986  0.989
    eigenvectors:
  0.038  0.135  0.597  0.226  0.004
  0.787  0.213  0.000  0.000  0.000
  0.001  0.004  0.003  0.077  0.915
  0.175  0.647  0.128  0.039  0.011
  0.000  0.000  0.272  0.658  0.070
    occupations:
  0.937 -0.003  0.008 -0.107  0.000
 -0.003  0.696 -0.002 -0.004 -0.004
  0.008 -0.002  0.988  0.018 -0.001
 -0.107 -0.004  0.018  0.753 -0.000
  0.000 -0.004 -0.001 -0.000  0.986
atom   17   Tr[ns(na)] =   8.70940
    eigenvalues:
  0.691  0.712  0.980  0.985  0.986
    eigenvectors:
  0.000  0.985  0.007  0.002  0.005
  0.011  0.000  0.039  0.926  0.023
  0.000  0.005  0.913  0.024  0.058
  0.000  0.009  0.041  0.037  0.913
  0.989  0.000  0.000  0.010  0.000
    occupations:
  0.716 -0.005 -0.019  0.026 -0.001
 -0.005  0.982  0.001  0.000  0.031
 -0.019  0.001  0.980  0.003  0.000
  0.026  0.000  0.003  0.984  0.000
 -0.001  0.031  0.000  0.000  0.694
atom   22   Tr[ns(na)] =   8.69038
    eigenvalues:
  0.712  0.722  0.957  0.968  0.986
    eigenvectors:
  0.001  0.134  0.001  0.011  0.854
  0.993  0.007  0.000  0.000  0.000
  0.000  0.013  0.008  0.975  0.004
  0.006  0.847  0.000  0.006  0.141
  0.000  0.000  0.991  0.008  0.001
    occupations:
  0.950 -0.000 -0.009 -0.089 -0.001
 -0.000  0.712 -0.001 -0.001 -0.004
 -0.009 -0.001  0.965 -0.026 -0.001
 -0.089 -0.001 -0.026  0.761  0.000
 -0.001 -0.004 -0.001  0.000  0.957
atom   23   Tr[ns(na)] =   8.67204
    eigenvalues:
  0.717  0.741  0.927  0.963  0.988
    eigenvectors:
  0.000  0.885  0.108  0.000  0.006
  0.019  0.000  0.000  0.981  0.000
  0.000  0.099  0.878  0.000  0.023
  0.000  0.016  0.014  0.000  0.971
  0.981  0.000  0.000  0.019  0.000
    occupations:
  0.763  0.000  0.054  0.027 -0.000
  0.000  0.958 -0.000  0.000 -0.034
  0.054 -0.000  0.910 -0.016 -0.000
  0.027  0.000 -0.016  0.983 -0.000
 -0.000 -0.034 -0.000 -0.000  0.722
N of occupied +U levels =  69.6682692
 --- exit write_ns ---

[...]

          k = 0.2500-0.4976 0.0000 ( 32026 PWs)   bands (ev):

[...]

          k =-0.2500 0.2488 0.0000 ( 32025 PWs)   bands (ev):

   -55.9221 -55.8595 -55.7384 -55.6147 -55.6077 -55.5764 -55.5673 -55.5018
   -55.4554 -55.4446 -55.4428 -55.4419 -55.4385 -55.3024 -55.2619 -55.2568
   -55.2526 -55.1903 -55.1614 -55.1561 -55.1491 -54.9082 -54.6685 -54.3491
   -22.2136 -21.9586 -21.3314 -21.1984 -20.8752 -20.7827 -20.7741 -20.6247
   -20.5614 -20.5071 -20.4097 -20.3354 -20.3262 -20.1566 -20.0872 -20.0750
   -19.4485 -19.1786 -19.0058 -10.7697 -10.5505 -10.4418 -10.3708  -9.9376
    -9.8706  -9.7850  -9.5910  -9.5240  -9.4782  -9.4070  -9.3669  -9.1870
    -9.0719  -9.0449  -8.9199  -8.8958  -8.7118  -8.3635  -8.3116  -8.1525
    -8.1325  -8.0502  -7.8951  -7.8151  -7.6400  -7.5518  -7.3890  -7.3393
    -7.2852  -7.1938  -7.1085  -6.9752  -6.9289  -6.9137  -6.8119  -6.7662
    -6.6653  -6.5637  -6.5018  -6.3045  -6.1800  -6.1028  -5.9157  -5.7999
    -5.6380  -5.5229  -5.4608  -5.3415  -5.2806  -5.2068  -5.0158  -4.9309
    -4.8322  -4.7246  -4.5584  -4.4770  -4.3323  -4.2091  -4.1134  -4.0707
    -3.9556  -3.9218  -3.8382  -3.7331  -3.6323  -3.5960  -3.3307  -3.2876
    -3.1841  -2.9476  -2.8212  -2.6803  -2.6481  -2.5507  -2.5016  -2.3871
    -2.1900  -2.0648  -1.9441  -1.8434  -1.6950  -1.2234  -1.0979  -0.7702
    -0.4192  -0.2671   0.0339   0.3201   0.5537   0.6949   0.7274   0.8649
     1.0692   1.2580   1.3271   1.6893   3.0659   3.8278   4.5932   5.0136
     5.0408   5.1143   5.3112   5.6486   6.0771   6.1523   6.1793   6.3196
     6.4371   6.5262   6.6746   6.8489   6.9372   6.9876   7.1019   7.2171
     7.3578   7.4775   7.5546   7.5795   7.6843   7.8643   7.9276   8.0271
     8.1564   8.2516   8.2990   8.4451   8.5486   8.6423   8.6642   8.7712
     8.8584   9.0005   9.1310   9.2848   9.3458   9.4673   9.5315   9.5951
     9.6957   9.8724  10.0188  10.1055  10.1892  10.2506  10.3153  10.3854
    10.5235  10.5803  10.6522  10.7660  10.7966  10.9567  11.0478  11.0802
    11.1694  11.1999  11.3684  11.4554  11.4822  11.7096  11.7375  11.7780
    11.8632  11.9445  11.9928  12.0718  12.1367  12.2372  12.2633  12.3268
    12.4097  12.4503  12.5193  12.5721  12.6370  12.7368  12.8145  12.9114
    12.9519  13.0318  13.1687  13.1958  13.2290  13.4363  13.5111  13.5547
    13.6324  13.6916  13.7665  13.8591  13.9198  13.9632  14.0402  14.1209
    14.1819  14.3092  14.4125  14.5099  14.5527  14.6317  14.7562  14.8388
    14.8740  14.9411  15.1112  15.2150  15.2521  15.3288  15.4118  15.4515
    15.5290  15.5829  15.6398  15.6726  15.7585  15.7728  15.8220  15.8894
    15.9983  16.0539  16.0821  16.1554  16.1747  16.2430  16.3166  16.3652
    16.4438  16.5063  16.5775  16.7161  16.7349  16.7433  16.7802  16.7943
    16.8093  16.8415  16.8764  16.8920  16.9272  16.9369  17.0328  17.1082
    17.1481  17.2047  17.2116  17.2590  17.2941  17.3664  17.4645  17.5031
    17.5418  17.5852  17.6071  17.6617  17.7376  17.7844  17.9016  17.9536
    18.0382  18.0823  18.1348  18.2351  18.2626  18.3804  18.4826  18.5159
    18.5907  18.6208  18.6847  18.7200  18.8215  18.8566  18.8969  19.0200
    19.0443  19.1605  19.1809  19.2076  19.3125  19.3608  19.4391  19.4641
    19.6388  19.7677  19.8178  19.8785  19.9448  19.9610  19.9827  20.0677
    20.1180  20.2204  20.2407  20.3036  20.3682  20.3873  20.4933  20.5788
    20.6456  20.6971  20.7527  20.8446  20.9235  20.9653  21.0183  21.0607
    21.0742  21.2288  21.2665  21.3747  21.4076  21.4642  21.5104  21.5549
    21.6056  21.6563  21.7282  21.7834  21.8272  21.8908  21.9967  22.0919
    22.1338

     the Fermi energy is    -1.8942 ev

!    total energy              =   -2279.84327086 Ry
     Harris-Foulkes estimate   =   -2279.84327086 Ry
     estimated scf accuracy    <          1.3E-09 Ry

     The total energy is the sum of the following terms:

     one-electron contribution =  -23663.43187306 Ry
     hartree contribution      =   11873.11780148 Ry
     xc contribution           =    -572.06431457 Ry
     ewald contribution        =   10081.55977375 Ry
     Hubbard energy            =       0.97559052 Ry
     smearing contrib. (-TS)   =      -0.00024897 Ry

     convergence has been achieved in  15 iterations

     Forces acting on atoms (Ry/au):

     negative rho (up, down):  0.158E+01 0.000E+00
     atom    1 type  1   force =    -0.00864741   -0.00418435   -0.00040207
     atom    2 type  1   force =     0.00014378    0.00416560    0.00033448
     atom    3 type  2   force =     0.01591300    0.00565322   -0.00000797
     atom    4 type  2   force =     0.01063468    0.00474231   -0.00020783
     atom    5 type  1   force =     0.00121178   -0.00370744    0.00029197
     atom    6 type  1   force =    -0.00018882   -0.00288543   -0.00016284
     atom    7 type  1   force =     0.00007527    0.00064452   -0.00047274
     atom    8 type  1   force =    -0.00416740    0.00253374   -0.00010186
     atom    9 type  2   force =     0.00458308   -0.00473380    0.00022241
     atom   10 type  2   force =    -0.00001129   -0.02000015   -0.00081996
     atom   11 type  1   force =    -0.00292631    0.00201927    0.00004621
     atom   12 type  1   force =    -0.00915716    0.01470403    0.00015271
     atom   13 type  1   force =    -0.00110614   -0.00851548    0.00010794
     atom   14 type  1   force =    -0.00861009   -0.00299922   -0.00054726
     atom   15 type  1   force =     0.00016743    0.00196306    0.00039275
     atom   16 type  2   force =    -0.01669313    0.00552898   -0.00000678
     atom   17 type  2   force =     0.01050462    0.00494582   -0.00024686
     atom   18 type  1   force =     0.00125245   -0.00363766    0.00029103
     atom   19 type  1   force =     0.00022833   -0.00279822   -0.00015958
     atom   20 type  1   force =     0.00007709   -0.00445464   -0.00005855
     atom   21 type  1   force =    -0.00404069    0.00239260    0.00006953
     atom   22 type  2   force =    -0.00086223   -0.00461831    0.00022315
     atom   23 type  2   force =    -0.00018587    0.01477461    0.00045566
     atom   24 type  1   force =     0.00304106    0.00207464    0.00004275
     atom   25 type  1   force =     0.00928592    0.01465915    0.00015800
     atom   26 type  1   force =    -0.00107170   -0.01790934    0.00046376
     atom   27 type  3   force =    -0.00000951   -0.00026980   -0.00005284
     atom   28 type  3   force =    -0.00002044   -0.00028969   -0.00009158
     atom   29 type  3   force =     0.00024568   -0.00017815    0.00015102
     atom   30 type  3   force =     0.00033923   -0.00036635    0.00012837
     atom   31 type  1   force =    -0.00000521    0.00074648   -0.00019302

     Total force =     0.001923     Total SCF correction =     0.000187

     bfgs converged in  14 scf cycles and  13 bfgs steps
     (criteria: energy < 0.10E-03, force < 0.10E-02)

     End of BFGS Geometry Optimization

     Final energy   =   -2279.8432708614 Ry
Begin final coordinates

ATOMIC_POSITIONS (crystal)
O0       0.000000000   0.000000000   0.377709904    0   0   1
O0       0.000000000   0.500000000   0.401778545    0   0   1
Pt1      0.250000000   0.500000000   0.451256123    0   0   1
Pt1      0.000000000   0.000000000   0.452749646    0   0   1
O0       0.250000000   0.810000000   0.442741534    0   0   1
O0       0.250000000   0.190000000   0.460924866    0   0   1
O0       0.000000000   0.500000000   0.496807165    0   0   1
O0       0.000000000   0.000000000   0.529861669    0   0   1
Pt1      0.250000000   0.000000000   0.576014255    0   0   1
Pt1      0.000000000   0.500000000   0.574919617    0   0   1
O0       0.250000000   0.690000000   0.564982670    0   0   1
O0       0.250000000   0.310000000   0.586267306    0   0   1
O0       0.000000000   0.000000000   0.621422743    0   0   1
O0       0.500000000   0.000000000   0.377807464    0   0   1
O0       0.500000000   0.500000000   0.401117740    0   0   1
Pt1      0.750000000   0.500000000   0.451258592    0   0   1
Pt1      0.500000000   0.000000000   0.452764896    0   0   1
O0       0.750000000   0.810000000   0.442770297    0   0   1
O0       0.750000000   0.190000000   0.460925341    0   0   1
O0       0.500000000   0.500000000   0.498126617    0   0   1
O0       0.500000000   0.000000000   0.529711028    0   0   1
Pt1      0.750000000   0.000000000   0.576016673    0   0   1
Pt1      0.500000000   0.500000000   0.577261434    0   0   1
O0       0.750000000   0.690000000   0.564966231    0   0   1
O0       0.750000000   0.310000000   0.586270249    0   0   1
O0       0.500000000   0.000000000   0.621459811    0   0   1
H2       0.000099414   0.640403890   0.386266120
H2       0.500089608   0.640962172   0.386012718
H2       0.143177141   0.034996109   0.367749023
H2       0.642856306   0.036105986   0.367793643
O0       0.500120576   0.577501377   0.643956083
End final coordinates

     General routines

     Parallel routines
     Hubbard U routines

   This run was terminated on:  15:20:44  28Apr2014

   JOB DONE.
Running PBS batch system epilogue script
Job id: 340474.audhumbla.fysik.dtu.dk
Username: zhonxu
Groupname: campgst
Jobname: PtO2/Eads-2-layers/O-U-3.5
Sessionid: 18205
Queuename: verylong
Accounting:
This job has allocated the following 16 nodes:
c009 c009 c009 c009 c009 c009 c009 c009 c007 c007 c007 c007 c007 c007 c007 c007
Finished epilogue job 340474.audhumbla.fysik.dtu.dk for zhonxu