     Program PWSCF v.5.0.2 (svn rev. 9656) starts on  6May2014 at  7:16: 5

     Current dimensions of program PWSCF are:
     Max number of different atomic species (ntypx) = 10
     Max number of k-points (npk) =  40000
     Max angular momentum in pseudopotentials (lmaxx) =  3
     Reading input from pwscf.in
Warning: card &CELL ignored
Warning: card / ignored

     Subspace diagonalization in iterative solution of the eigenvalue problem:
     a serial algorithm will be used

     Found symmetry operation: I + ( -0.5000  0.0000  0.0000)
     This is a supercell, fractional translations are disabled

     bravais-lattice index     =            0
     lattice parameter (alat)  =      12.2076  a.u.
     unit-cell volume          =    7496.5096 (a.u.)^3
     number of atoms/cell      =           30
     number of atomic types    =            3
     number of electrons       =       240.00
     number of Kohn-Sham states=          360
     kinetic-energy cutoff     =      40.0000  Ry
     charge density cutoff     =     500.0000  Ry
     convergence threshold     =      1.0E-06
     mixing beta               =       0.7000
     number of iterations used =            8  plain     mixing
     Exchange-correlation      = SLA  PW   PBE  PBE ( 1 4 3 4 0)
     EXX-fraction              =        0.00
     nstep                     =           50

     celldm(1)=  12.207631  celldm(2)=   0.000000  celldm(3)=   0.000000
     celldm(4)=   0.000000  celldm(5)=   0.000000  celldm(6)=   0.000000

     crystal axes: (cart. coord. in units of alat)
               a(1) = (   1.000000   0.000000   0.000000 )
               a(2) = (   0.000000   1.004836   0.000000 )
               a(3) = (   0.000000   0.000000   4.100811 )

     reciprocal axes: (cart. coord. in units 2 pi/alat)
               b(1) = (  1.000000  0.000000  0.000000 )
               b(2) = (  0.000000  0.995187  0.000000 )
               b(3) = (  0.000000  0.000000  0.243854 )

     PseudoPot. # 1 for O  read from file:
     /home/camp/zhonxu/pseudo/o_pbe_v1.01.uspp.F.UPF
     MD5 check sum: 2bcb18d16ea4b960afae9ec6d52f22d2
     Pseudo is Ultrasoft + core correction, Zval =  6.0
     Generated by new atomic code, or converted to UPF format
     Using radial grid of  737 points,  5 beta functions with:
                l(1) =   0
                l(2) =   0
                l(3) =   1
                l(4) =   1
                l(5) =   2
     Q(r) pseudized with  8 coefficients,  rinner =    0.900   0.900   0.900
                                                       0.900   0.900

     PseudoPot. # 2 for Pt read from file:
     /home/camp/zhonxu/pseudo/pt_pbe_v1.uspp.F.UPF
     MD5 check sum: 4c71d6ad5ef119f1eb26a4d0b7884226
     Pseudo is Ultrasoft + core correction, Zval = 16.0
     Generated by new atomic code, or converted to UPF format
     Using radial grid of  985 points,  6 beta functions with:
                l(1) =   0
                l(2) =   0
                l(3) =   1
                l(4) =   1
                l(5) =   2
                l(6) =   2
     Q(r) pseudized with  8 coefficients,  rinner =    1.300   1.300   1.300
                                                       1.300   1.300

     PseudoPot. # 3 for H  read from file:
     /home/camp/zhonxu/pseudo/h_pbe_v1.uspp.F.UPF
     MD5 check sum: 3408e3ff4ec8b0a4e358431e7e038a48
     Pseudo is Ultrasoft, Zval =  1.0
     Generated by new atomic code, or converted to UPF format
     Using radial grid of  615 points,  2 beta functions with:
                l(1) =   0
                l(2) =   0
     Q(r) pseudized with  8 coefficients,  rinner =    0.700

     atomic species   valence    mass     pseudopotential
        O0             6.00    15.99940     O ( 1.00)
        Pt1           16.00   195.08000     Pt( 1.00)
        H2             1.00     1.00794     H ( 1.00)

     Simplified LDA+U calculation (l_max = 2) with parameters (eV):
     atomic species    L          U    alpha       J0     beta
        Pt1            2     2.5000   0.0000   0.0000   0.0000

     No symmetry found

   Cartesian axes

     site n.     atom                  positions (alat units)
         1           O0  tau(   1) = (   0.0000000   0.0000000   1.5457188  )
         2           O0  tau(   2) = (   0.0000000   0.5024180   1.6369208  )
         3           Pt1 tau(   3) = (   0.2500000   0.5024180   1.8413872  )
         4           Pt1 tau(   4) = (   0.0000000   0.0000000   1.8534436  )
         5           O0  tau(   5) = (   0.2500000   0.8139171   1.8157162  )
         6           O0  tau(   6) = (   0.2500000   0.1909188   1.8824364  )
         7           O0  tau(   7) = (   0.0000000   0.5024180   2.0315829  )
         8           O0  tau(   8) = (   0.0000000   0.0000000   2.1708464  )
         9           Pt1 tau(   9) = (   0.2500000   0.0000000   2.3625593  )
        10           Pt1 tau(  10) = (   0.0000000   0.5024180   2.3549318  )
        11           O0  tau(  11) = (   0.2500000   0.6933368   2.3911010  )
        12           O0  tau(  12) = (   0.2500000   0.3114991   2.3934384  )
        13           O0  tau(  13) = (   0.0000000   0.0000000   2.5491052  )
        14           O0  tau(  14) = (   0.5000000   0.0000000   1.5457188  )
        15           O0  tau(  15) = (   0.5000000   0.5024180   1.6369208  )
        16           Pt1 tau(  16) = (   0.7500000   0.5024180   1.8413872  )
        17           Pt1 tau(  17) = (   0.5000000   0.0000000   1.8534436  )
        18           O0  tau(  18) = (   0.7500000   0.8139171   1.8157162  )
        19           O0  tau(  19) = (   0.7500000   0.1909188   1.8824364  )
        20           O0  tau(  20) = (   0.5000000   0.5024180   2.0315829  )
        21           O0  tau(  21) = (   0.5000000   0.0000000   2.1708464  )
        22           Pt1 tau(  22) = (   0.7500000   0.0000000   2.3625593  )
        23           Pt1 tau(  23) = (   0.5000000   0.5024180   2.3549318  )
        24           O0  tau(  24) = (   0.7500000   0.6933368   2.3911010  )
        25           O0  tau(  25) = (   0.7500000   0.3114991   2.3934384  )
        26           O0  tau(  26) = (   0.5000000   0.0000000   2.5491052  )
        27           H2  tau(  27) = (  -0.0000500   0.6431553   1.5728661  )
        28           H2  tau(  28) = (   0.4999500   0.6431553   1.5728661  )
        29           H2  tau(  29) = (   0.1440700   0.0315318   1.5048747  )
        30           H2  tau(  30) = (   0.6440700   0.0315318   1.5048747  )

     number of k points=    10  Methfessel-Paxton smearing, width (Ry)=  0.0100
                       cart. coord. in units 2pi/alat
        k(    1) = (   0.0000000   0.0000000   0.0000000), wk =   0.1250000
        k(    2) = (   0.0000000   0.2487968   0.0000000), wk =   0.2500000
        k(    3) = (   0.0000000  -0.4975937   0.0000000), wk =   0.1250000
        k(    4) = (   0.2500000   0.0000000   0.0000000), wk =   0.2500000
        k(    5) = (   0.2500000   0.2487968   0.0000000), wk =   0.2500000
        k(    6) = (   0.2500000  -0.4975937   0.0000000), wk =   0.2500000
        k(    7) = (  -0.5000000   0.0000000   0.0000000), wk =   0.1250000
        k(    8) = (  -0.5000000   0.2487968   0.0000000), wk =   0.2500000
        k(    9) = (  -0.5000000  -0.4975937   0.0000000), wk =   0.1250000
        k(   10) = (  -0.2500000   0.2487968   0.0000000), wk =   0.2500000

     Largest allocated arrays     est. size (Mb)     dimensions
     Largest temporary arrays     est. size (Mb)     dimensions

     Check: negative/imaginary core charge=   -0.000003    0.000000

     Initial potential from superposition of free atoms
     Check: negative starting charge=   -1.537272

     starting charge  235.99985, renormalised to  240.00000

     negative rho (up, down):  0.156E+01 0.000E+00
     Number of +U iterations with fixed ns =  0
     Starting occupations:
 --- enter write_ns ---
 LDA+U parameters:
U( 2)     =  2.50000000
alpha( 2) =  0.00000000
atom    3   Tr[ns(na)] =   8.00000
    eigenvalues:
  0.800  0.800  0.800  0.800  0.800
    eigenvectors:
  1.000  0.000  0.000  0.000  0.000
  0.000  1.000  0.000  0.000  0.000
  0.000  0.000  1.000  0.000  0.000
  0.000  0.000  0.000  1.000  0.000
  0.000  0.000  0.000  0.000  1.000
    occupations:
  0.800  0.000  0.000  0.000  0.000
  0.000  0.800  0.000  0.000  0.000
  0.000  0.000  0.800  0.000  0.000
  0.000  0.000  0.000  0.800  0.000
  0.000  0.000  0.000  0.000  0.800
atom    4   Tr[ns(na)] =   8.00000
    eigenvalues:
  0.800  0.800  0.800  0.800  0.800
    eigenvectors:
  1.000  0.000  0.000  0.000  0.000
  0.000  1.000  0.000  0.000  0.000
  0.000  0.000  1.000  0.000  0.000
  0.000  0.000  0.000  1.000  0.000
  0.000  0.000  0.000  0.000  1.000
    occupations:
  0.800  0.000  0.000  0.000  0.000
  0.000  0.800  0.000  0.000  0.000
  0.000  0.000  0.800  0.000  0.000
  0.000  0.000  0.000  0.800  0.000
  0.000  0.000  0.000  0.000  0.800
atom    9   Tr[ns(na)] =   8.00000
    eigenvalues:
  0.800  0.800  0.800  0.800  0.800
    eigenvectors:
  1.000  0.000  0.000  0.000  0.000
  0.000  1.000  0.000  0.000  0.000
  0.000  0.000  1.000  0.000  0.000
  0.000  0.000  0.000  1.000  0.000
  0.000  0.000  0.000  0.000  1.000
    occupations:
  0.800  0.000  0.000  0.000  0.000
  0.000  0.800  0.000  0.000  0.000
  0.000  0.000  0.800  0.000  0.000
  0.000  0.000  0.000  0.800  0.000
  0.000  0.000  0.000  0.000  0.800
atom   10   Tr[ns(na)] =   8.00000
    eigenvalues:
  0.800  0.800  0.800  0.800  0.800
    eigenvectors:
  1.000  0.000  0.000  0.000  0.000
  0.000  1.000  0.000  0.000  0.000
  0.000  0.000  1.000  0.000  0.000
  0.000  0.000  0.000  1.000  0.000
  0.000  0.000  0.000  0.000  1.000
    occupations:
  0.800  0.000  0.000  0.000  0.000
  0.000  0.800  0.000  0.000  0.000
  0.000  0.000  0.800  0.000  0.000
  0.000  0.000  0.000  0.800  0.000
  0.000  0.000  0.000  0.000  0.800
atom   16   Tr[ns(na)] =   8.00000
    eigenvalues:
  0.800  0.800  0.800  0.800  0.800
    eigenvectors:
  1.000  0.000  0.000  0.000  0.000
  0.000  1.000  0.000  0.000  0.000
  0.000  0.000  1.000  0.000  0.000
  0.000  0.000  0.000  1.000  0.000
  0.000  0.000  0.000  0.000  1.000
    occupations:
  0.800  0.000  0.000  0.000  0.000
  0.000  0.800  0.000  0.000  0.000
  0.000  0.000  0.800  0.000  0.000
  0.000  0.000  0.000  0.800  0.000
  0.000  0.000  0.000  0.000  0.800
atom   17   Tr[ns(na)] =   8.00000
    eigenvalues:
  0.800  0.800  0.800  0.800  0.800
    eigenvectors:
  1.000  0.000  0.000  0.000  0.000
  0.000  1.000  0.000  0.000  0.000
  0.000  0.000  1.000  0.000  0.000
  0.000  0.000  0.000  1.000  0.000
  0.000  0.000  0.000  0.000  1.000
    occupations:
  0.800  0.000  0.000  0.000  0.000
  0.000  0.800  0.000  0.000  0.000
  0.000  0.000  0.800  0.000  0.000
  0.000  0.000  0.000  0.800  0.000
  0.000  0.000  0.000  0.000  0.800
atom   22   Tr[ns(na)] =   8.00000
    eigenvalues:
  0.800  0.800  0.800  0.800  0.800
    eigenvectors:
  1.000  0.000  0.000  0.000  0.000
  0.000  1.000  0.000  0.000  0.000
  0.000  0.000  1.000  0.000  0.000
  0.000  0.000  0.000  1.000  0.000
  0.000  0.000  0.000  0.000  1.000
    occupations:
[...]
    eigenvectors:
  0.000  0.143  0.000  0.000  0.856
  0.997  0.003  0.000  0.000  0.000
  0.000  0.000  0.000  1.000  0.000
  0.003  0.853  0.000  0.000  0.144
  0.000  0.000  1.000  0.000  0.000
    occupations:
  0.947  0.000 -0.000 -0.094  0.000
  0.000  0.711  0.000  0.000 -0.000
 -0.000  0.000  0.959 -0.001 -0.000
 -0.094  0.000 -0.001  0.757  0.000
  0.000 -0.000 -0.000  0.000  0.956
atom   10   Tr[ns(na)] =   8.73602
    eigenvalues:
  0.658  0.776  0.965  0.984  0.985
    eigenvectors:
  0.000  0.982  0.000  0.000  0.018
  0.000  0.000  1.000  0.000  0.000
  0.000  0.000  0.000  0.997  0.003
  0.000  0.018  0.000  0.003  0.979
  1.000  0.000  0.000  0.000  0.000
    occupations:
  0.779  0.000  0.001  0.028  0.000
  0.000  0.965 -0.000  0.000 -0.001
  0.001 -0.000  0.984 -0.000 -0.000
  0.028  0.000 -0.000  0.981 -0.000
  0.000 -0.001 -0.000 -0.000  0.658
atom   16   Tr[ns(na)] =   8.71058
    eigenvalues:
  0.695  0.704  0.982  0.986  0.989
    eigenvectors:
  0.178  0.000  0.771  0.000  0.050
  0.000  1.000  0.000  0.000  0.000
  0.003  0.000  0.074  0.000  0.923
  0.818  0.000  0.155  0.000  0.027
  0.000  0.000  0.000  1.000  0.000
    occupations:
  0.931 -0.000  0.005 -0.110  0.000
 -0.000  0.704  0.000  0.000 -0.001
  0.005  0.000  0.987  0.016 -0.000
 -0.110  0.000  0.016  0.747  0.000
  0.000 -0.001 -0.000  0.000  0.986
atom   17   Tr[ns(na)] =   8.68668
    eigenvalues:
  0.686  0.708  0.980  0.984  0.986
    eigenvectors:
  0.000  0.986  0.009  0.002  0.003
  0.009  0.000  0.033  0.941  0.017
  0.000  0.004  0.796  0.011  0.188
  0.000  0.009  0.162  0.037  0.792
  0.991  0.000  0.000  0.009  0.000
    occupations:
  0.711 -0.005 -0.017  0.026 -0.001
 -0.005  0.981  0.000  0.000  0.029
 -0.017  0.000  0.980  0.004  0.000
  0.026  0.000  0.004  0.982  0.000
 -0.001  0.029  0.000  0.000  0.689
atom   22   Tr[ns(na)] =   8.66067
    eigenvalues:
  0.711  0.719  0.956  0.959  0.985
    eigenvectors:
  0.000  0.143  0.000  0.000  0.856
  0.997  0.003  0.000  0.000  0.000
  0.000  0.000  0.000  1.000  0.000
  0.003  0.853  0.000  0.000  0.144
  0.000  0.000  1.000  0.000  0.000
    occupations:
  0.947  0.000 -0.000 -0.094  0.000
  0.000  0.711  0.000  0.000 -0.000
 -0.000  0.000  0.959 -0.001 -0.000
 -0.094  0.000 -0.001  0.757  0.000
  0.000 -0.000 -0.000  0.000  0.956
atom   23   Tr[ns(na)] =   8.73616
    eigenvalues:
  0.658  0.776  0.965  0.984  0.985
    eigenvectors:
  0.000  0.982  0.000  0.000  0.018
  0.000  0.000  1.000  0.000  0.000
  0.000  0.000  0.000  0.997  0.003
  0.000  0.018  0.000  0.003  0.979
  1.000  0.000  0.000  0.000  0.000
    occupations:
  0.779  0.000  0.001  0.028  0.000
  0.000  0.965 -0.000  0.000 -0.001
  0.001 -0.000  0.984 -0.000 -0.000
  0.028  0.000 -0.000  0.981 -0.000
  0.000 -0.001 -0.000 -0.000  0.658
N of occupied +U levels =  69.5880295
 --- exit write_ns ---

     Threshold (ethr) on eigenvalues was too large:
     Diagonalizing with lowered threshold

     Davidson diagonalization with overlap
     ethr =  3.68E-09,  avg # of iterations =  2.2

[...]

     total energy              =   -2248.09832677 Ry
     Harris-Foulkes estimate   =   -2248.09832678 Ry
     estimated scf accuracy    <       0.00000004 Ry

     iteration # 12     ecut=    40.00 Ry     beta=0.70
     Davidson diagonalization with overlap
     ethr =  6.75E-12,  avg # of iterations =  1.0

     negative rho (up, down):  0.158E+01 0.000E+00

     End of self-consistent calculation
 --- enter write_ns ---
 LDA+U parameters:
U( 2)     =  2.50000000
alpha( 2) =  0.00000000
atom    3   Tr[ns(na)] =   8.71019
    eigenvalues:
  0.695  0.704  0.982  0.986  0.989
    eigenvectors:
  0.178  0.000  0.772  0.000  0.050
  0.000  1.000  0.000  0.000  0.000
  0.003  0.000  0.074  0.000  0.923
  0.818  0.000  0.155  0.000  0.027
  0.000  0.000  0.000  1.000  0.000
    occupations:
  0.931 -0.000  0.005 -0.110  0.000
 -0.000  0.704  0.000  0.000 -0.001
  0.005  0.000  0.987  0.016 -0.000
 -0.110  0.000  0.016  0.747  0.000
  0.000 -0.001 -0.000  0.000  0.986
atom    4   Tr[ns(na)] =   8.68633
    eigenvalues:
  0.686  0.708  0.980  0.984  0.986
    eigenvectors:
  0.000  0.986  0.009  0.002  0.003
  0.009  0.000  0.033  0.941  0.017
  0.000  0.004  0.796  0.011  0.188
  0.000  0.009  0.162  0.037  0.791
  0.991  0.000  0.000  0.009  0.000
    occupations:
  0.711 -0.005 -0.017  0.026 -0.001
 -0.005  0.981  0.000  0.000  0.029
 -0.017  0.000  0.980  0.004  0.000
  0.026  0.000  0.004  0.982  0.000
 -0.001  0.029  0.000  0.000  0.689
atom    9   Tr[ns(na)] =   8.66090
    eigenvalues:
  0.711  0.719  0.956  0.959  0.985
    eigenvectors:
  0.000  0.143  0.000  0.000  0.856
  0.997  0.003  0.000  0.000  0.000
  0.000  0.000  0.000  1.000  0.000
  0.003  0.853  0.000  0.000  0.144
  0.000  0.000  1.000  0.000  0.000
    occupations:
  0.947  0.000 -0.000 -0.094  0.000
  0.000  0.711  0.000  0.000 -0.000
 -0.000  0.000  0.959 -0.001 -0.000
 -0.094  0.000 -0.001  0.757  0.000
  0.000 -0.000 -0.000  0.000  0.956
atom   10   Tr[ns(na)] =   8.73633
    eigenvalues:
  0.658  0.776  0.965  0.984  0.985
    eigenvectors:
  0.000  0.982  0.000  0.000  0.018
  0.000  0.000  1.000  0.000  0.000
  0.000  0.000  0.000  0.997  0.003
  0.000  0.018  0.000  0.003  0.979
  1.000  0.000  0.000  0.000  0.000
    occupations:
  0.779  0.000  0.001  0.028  0.000
  0.000  0.965 -0.000  0.000 -0.001
  0.001 -0.000  0.984 -0.000 -0.000
  0.028  0.000 -0.000  0.981 -0.000
  0.000 -0.001 -0.000 -0.000  0.658
atom   16   Tr[ns(na)] =   8.71019
    eigenvalues:
  0.695  0.704  0.982  0.986  0.989
    eigenvectors:
  0.178  0.000  0.772  0.000  0.050
  0.000  1.000  0.000  0.000  0.000
  0.003  0.000  0.074  0.000  0.923
  0.818  0.000  0.155  0.000  0.027
  0.000  0.000  0.000  1.000  0.000
    occupations:
  0.931 -0.000  0.005 -0.110  0.000
 -0.000  0.704  0.000  0.000 -0.001
  0.005  0.000  0.987  0.016 -0.000
 -0.110  0.000  0.016  0.747  0.000
  0.000 -0.001 -0.000  0.000  0.986
atom   17   Tr[ns(na)] =   8.68632
    eigenvalues:
  0.686  0.708  0.980  0.984  0.986
    eigenvectors:
  0.000  0.986  0.009  0.002  0.003
  0.009  0.000  0.033  0.941  0.017
  0.000  0.004  0.796  0.011  0.188
  0.000  0.009  0.162  0.037  0.791
  0.991  0.000  0.000  0.009  0.000
    occupations:
  0.711 -0.005 -0.017  0.026 -0.001
 -0.005  0.981  0.000  0.000  0.029
 -0.017  0.000  0.980  0.004  0.000
  0.026  0.000  0.004  0.982  0.000
 -0.001  0.029  0.000  0.000  0.689
atom   22   Tr[ns(na)] =   8.66090
    eigenvalues:
  0.711  0.719  0.956  0.959  0.985
    eigenvectors:
  0.000  0.143  0.000  0.000  0.856
  0.997  0.003  0.000  0.000  0.000
  0.000  0.000  0.000  1.000  0.000
  0.003  0.853  0.000  0.000  0.144
  0.000  0.000  1.000  0.000  0.000
    occupations:
  0.947  0.000 -0.000 -0.094  0.000
  0.000  0.711  0.000  0.000 -0.000
 -0.000  0.000  0.959 -0.001 -0.000
 -0.094  0.000 -0.001  0.757  0.000
  0.000 -0.000 -0.000  0.000  0.956
atom   23   Tr[ns(na)] =   8.73639
    eigenvalues:
  0.658  0.776  0.965  0.984  0.985
    eigenvectors:
  0.000  0.982  0.000  0.000  0.018
  0.000  0.000  1.000  0.000  0.000
  0.000  0.000  0.000  0.997  0.003
  0.000  0.018  0.000  0.003  0.979
  1.000  0.000  0.000  0.000  0.000
    occupations:
  0.779  0.000  0.001  0.028  0.000
  0.000  0.965 -0.000  0.000 -0.001
  0.001 -0.000  0.984 -0.000 -0.000
  0.028  0.000 -0.000  0.981 -0.000
  0.000 -0.001 -0.000 -0.000  0.658
N of occupied +U levels =  69.5875491
 --- exit write_ns ---

[...]

          k = 0.2500-0.4976 0.0000 ( 32026 PWs)   bands (ev):

[...]

          k =-0.2500 0.2488 0.0000 ( 32025 PWs)   bands (ev):

   -55.5751 -55.5356 -55.4888 -55.4690 -55.4559 -55.4534 -55.4501 -55.4302
   -55.3383 -55.3349 -55.2445 -55.2405 -55.1867 -55.1814 -55.1658 -55.1609
   -55.1481 -55.1453 -54.9562 -54.9168 -54.6083 -54.6032 -54.3792 -54.3766
   -22.0497 -21.8370 -21.1582 -21.0308 -20.6950 -20.5818 -20.5281 -20.4206
   -20.4030 -20.3582 -20.2191 -20.2116 -20.1622 -20.0174 -19.9576 -19.9098
   -19.0721 -18.9043 -10.4431 -10.2176 -10.0845 -10.0290  -9.5388  -9.4899
    -9.3113  -9.2416  -9.1716  -9.1620  -9.1032  -8.9214  -8.8318  -8.7411
    -8.6884  -8.5857  -8.5773  -8.4056  -8.0180  -8.0036  -7.9244  -7.8141
    -7.6599  -7.4159  -7.3824  -7.2765  -7.1192  -7.0036  -6.9902  -6.9268
    -6.8183  -6.8004  -6.6063  -6.5707  -6.4985  -6.3815  -6.2940  -6.2738
    -6.0875  -5.9180  -5.8730  -5.7144  -5.6775  -5.4856  -5.4467  -5.2967
    -5.1416  -5.0802  -5.0134  -4.8564  -4.7081  -4.6153  -4.6098  -4.4125
    -4.2687  -4.2482  -4.0921  -4.0431  -3.8685  -3.8179  -3.8018  -3.6256
    -3.5257  -3.5199  -3.4768  -3.2708  -3.1352  -3.0793  -2.7590  -2.6085
    -2.5689  -2.5115  -2.3544  -2.3216  -2.2764  -2.1755  -1.8193  -1.7253
    -1.6899  -1.3381  -1.0379  -0.6648  -0.3084  -0.2511  -0.0745   0.3194
     0.5621   0.7335   0.8916   0.9738   1.2461   1.2710   1.4187   1.6275
     3.0722   3.6715   4.5646   4.9787   5.0585   5.1047   5.2077   5.4461
     5.6943   5.9483   6.0516   6.2328   6.4122   6.4927   6.5917   6.6384
     6.7633   6.8251   7.0234   7.0764   7.2662   7.3977   7.4239   7.5163
     7.5897   7.7375   7.8181   7.9715   8.0847   8.1605   8.2575   8.3042
     8.3476   8.4613   8.5449   8.6453   8.7652   8.8642   9.0295   9.1214
     9.3033   9.3430   9.4451   9.5554   9.6567   9.7576   9.8870   9.9563
    10.0986  10.1508  10.2130  10.2136  10.4259  10.5102  10.5313  10.6393
    10.6651  10.8250  10.8323  10.9771  11.1447  11.2497  11.3493  11.3850
    11.4168  11.5386  11.6473  11.7423  11.7895  11.8206  11.8775  11.9360
    11.9829  12.1557  12.1943  12.2101  12.3280  12.3391  12.4325  12.5170
    12.5740  12.6166  12.7251  12.7900  12.8858  12.8871  13.0285  13.0853
    13.1506  13.2412  13.4122  13.4994  13.6024  13.6306  13.7039  13.8054
    13.8257  13.8872  14.0137  14.0272  14.1226  14.2701  14.3586  14.3995
    14.4683  14.6046  14.6764  14.7207  14.8258  14.9265  15.0176  15.1544
    15.2132  15.2205  15.3448  15.3582  15.4470  15.5168  15.5559  15.6298
    15.6298  15.6744  15.7550  15.8178  15.8547  15.9347  16.0182  16.0402
    16.1663  16.1736  16.2256  16.3076  16.3914  16.4919  16.6059  16.6721
    16.7027  16.7488  16.7855  16.8606  16.8716  16.8909  16.9084  16.9103
    16.9424  17.0470  17.0770  17.1316  17.1424  17.1745  17.2442  17.2476
    17.3361  17.3880  17.4423  17.4608  17.4903  17.6064  17.6298  17.6636
    17.7038  17.7630  17.7925  17.8960  18.0318  18.0812  18.1116  18.1885
    18.2030  18.3477  18.3812  18.3892  18.5267  18.5766  18.6890  18.7004
    18.7246  18.8910  18.9308  19.0155  19.0216  19.1028  19.1449  19.2704
    19.3220  19.3837  19.4052  19.5558  19.6052  19.7592  19.8100  19.8338
    19.9020  19.9454  19.9764  20.0379  20.0604  20.0796  20.2464  20.2710
    20.3234  20.3340  20.5044  20.5074  20.6331  20.6951  20.7616  20.8004
    20.8047  20.9358  20.9465  21.0049  21.0334  21.2131  21.2488  21.2619
    21.3538  21.4358  21.4401  21.5290  21.5791  21.6232  21.6503  21.7646

     the Fermi energy is    -1.6655 ev

!    total energy              =   -2248.09832677 Ry
     Harris-Foulkes estimate   =   -2248.09832678 Ry
     estimated scf accuracy    <          8.5E-09 Ry

     The total energy is the sum of the following terms:

     one-electron contribution =  -22795.25802426 Ry
     hartree contribution      =   11438.02407086 Ry
     xc contribution           =    -565.12218351 Ry
     ewald contribution        =    9673.55987656 Ry
     Hubbard energy            =       0.69882808 Ry
     smearing contrib. (-TS)   =      -0.00089450 Ry

     convergence has been achieved in  12 iterations

     Forces acting on atoms (Ry/au):

     negative rho (up, down):  0.158E+01 0.000E+00
     atom    1 type  1   force =    -0.00778545   -0.00455792   -0.00015587
     atom    2 type  1   force =     0.00011231    0.00438537   -0.00032036
     atom    3 type  2   force =    -0.00047505    0.00218748    0.00001974
     atom    4 type  2   force =     0.01029742    0.00224278    0.00002006
     atom    5 type  1   force =     0.00109855   -0.00236635    0.00010556
     atom    6 type  1   force =     0.00005403    0.00069433   -0.00006784
     atom    7 type  1   force =     0.00003853    0.00473476    0.00081857
     atom    8 type  1   force =    -0.00395511   -0.00773838    0.00042157
     atom    9 type  2   force =     0.00177416    0.00098492   -0.00017472
     atom   10 type  2   force =    -0.00003364   -0.00189263   -0.00004387
     atom   11 type  1   force =    -0.00002150   -0.00671583   -0.00010571
     atom   12 type  1   force =     0.00006151    0.00781175   -0.00004780
     atom   13 type  1   force =    -0.00109780   -0.00030053   -0.00010604
     atom   14 type  1   force =    -0.00778545   -0.00455773   -0.00015223
     atom   15 type  1   force =     0.00011232    0.00438388   -0.00032404
     atom   16 type  2   force =    -0.00046799    0.00218745    0.00001977
     atom   17 type  2   force =     0.01029860    0.00224295    0.00002203
     atom   18 type  1   force =     0.00109955   -0.00236634    0.00010565
     atom   19 type  1   force =     0.00005595    0.00069426   -0.00006781
     atom   20 type  1   force =     0.00003848    0.00473463    0.00079758
     atom   21 type  1   force =    -0.00395528   -0.00773804    0.00040792
     atom   22 type  2   force =     0.00179147    0.00098503   -0.00017487
     atom   23 type  2   force =    -0.00003369   -0.00189272   -0.00003870
     atom   24 type  1   force =     0.00000673   -0.00671582   -0.00010571
     atom   25 type  1   force =     0.00008822    0.00781181   -0.00004776
     atom   26 type  1   force =    -0.00109796   -0.00030078   -0.00011667
     atom   27 type  3   force =     0.00001202    0.00028699    0.00003884
     atom   28 type  3   force =     0.00001198    0.00028972    0.00003755
     atom   29 type  3   force =    -0.00012164    0.00024247   -0.00038335
     atom   30 type  3   force =    -0.00012129    0.00024250   -0.00038148

     Total force =     0.001632     Total SCF correction =     0.000187
     SCF correction compared to forces is large: reduce conv_thr to get better values

     bfgs converged in   9 scf cycles and   8 bfgs steps
     (criteria: energy < 0.10E-03, force < 0.10E-02)

     End of BFGS Geometry Optimization

     Final energy   =   -2248.0983267702 Ry
Begin final coordinates

ATOMIC_POSITIONS (crystal)
O0       0.000000000   0.000000000   0.376839125    0   0   1
O0       0.000000000   0.500000000   0.399541760    0   0   1
Pt1      0.250000000   0.500000000   0.449094793    0   0   1
Pt1      0.000000000   0.000000000   0.451881378    0   0   1
O0       0.250000000   0.810000000   0.442113422    0   0   1
O0       0.250000000   0.190000000   0.459425613    0   0   1
O0       0.000000000   0.500000000   0.495502337    0   0   1
O0       0.000000000   0.000000000   0.529311678    0   0   1
Pt1      0.250000000   0.000000000   0.575901217    0   0   1
Pt1      0.000000000   0.500000000   0.573786294    0   0   1
O0       0.250000000   0.690000000   0.583216336    0   0   1
O0       0.250000000   0.310000000   0.583743815    0   0   1
O0       0.000000000   0.000000000   0.621412371    0   0   1
O0       0.500000000   0.000000000   0.376839075    0   0   1
O0       0.500000000   0.500000000   0.399542082    0   0   1
Pt1      0.750000000   0.500000000   0.449094793    0   0   1
Pt1      0.500000000   0.000000000   0.451881449    0   0   1
O0       0.750000000   0.810000000   0.442113415    0   0   1
O0       0.750000000   0.190000000   0.459425621    0   0   1
O0       0.500000000   0.500000000   0.495502259    0   0   1
O0       0.500000000   0.000000000   0.529312474    0   0   1
Pt1      0.750000000   0.000000000   0.575901220    0   0   1
Pt1      0.500000000   0.500000000   0.573786405    0   0   1
O0       0.750000000   0.690000000   0.583216339    0   0   1
O0       0.750000000   0.310000000   0.583743815    0   0   1
O0       0.500000000   0.000000000   0.621414724    0   0   1
H2      -0.000018430   0.640448300   0.384125265
H2       0.499981595   0.640447740   0.384125426
H2       0.143995364   0.032376927   0.367032931
H2       0.643995052   0.032376959   0.367032569
End final coordinates

     General routines

     Parallel routines
     Hubbard U routines

   This run was terminated on:  14:44:49   6May2014

   JOB DONE.
Running PBS batch system epilogue script
Job id: 340796.audhumbla.fysik.dtu.dk
Username: zhonxu
Groupname: campgst
Jobname: PtO2/Eads-2-layers/bare-U-2.5
Sessionid: 850
Queuename: verylong
Accounting:
This job has allocated the following 16 nodes:
a054 a054 a054 a054 a054 a054 a054 a054 a047 a047 a047 a047 a047 a047 a047 a047
Finished epilogue job 340796.audhumbla.fysik.dtu.dk for zhonxu