     Program PWSCF v.5.0.2 (svn rev. 9656) starts on 24Jan2014 at 15:47:26

     Current dimensions of program PWSCF are:
     Max number of different atomic species (ntypx) = 10
     Max number of k-points (npk) =  40000
     Max angular momentum in pseudopotentials (lmaxx) =  3
     Reading input from CrO2-v-1.10.in

     Subspace diagonalization in iterative solution of the eigenvalue problem:
     a serial algorithm will be used

     bravais-lattice index     =            0
     lattice parameter (alat)  =       8.7328  a.u.
     unit-cell volume          =     429.1853 (a.u.)^3
     number of atoms/cell      =            6
     number of atomic types    =            2
     number of electrons       =        52.00
     number of Kohn-Sham states=           75
     kinetic-energy cutoff     =      40.0000  Ry
     charge density cutoff     =     500.0000  Ry
     convergence threshold     =      1.0E-06
     mixing beta               =       0.3000
     number of iterations used =            8  plain     mixing
     Exchange-correlation      = SLA  PW   PBE  PBE ( 1 4 3 4 0)
     EXX-fraction              =        0.00
     nstep                     =           50

     celldm(1)=   8.732792  celldm(2)=   0.000000  celldm(3)=   0.000000
     celldm(4)=   0.000000  celldm(5)=   0.000000  celldm(6)=   0.000000

     crystal axes: (cart. coord. in units of alat)
               a(1) = (   1.000000   0.000000   0.000000 )
               a(2) = (   0.000000   1.000000   0.000000 )
               a(3) = (   0.000000   0.000000   0.644444 )

     reciprocal axes: (cart. coord. in units 2 pi/alat)
               b(1) = (  1.000000  0.000000  0.000000 )
               b(2) = (  0.000000  1.000000  0.000000 )
               b(3) = (  0.000000  0.000000  1.551724 )

     PseudoPot. # 1 for Cr read from file:
     /home/camp/zhonxu/pseudo/cr_pbe_v1.uspp.F.UPF
     MD5 check sum: 68b6f918d1762dccfb11451fe85b0e0e
     Pseudo is Ultrasoft + core correction, Zval = 14.0
     Generated by new atomic code, or converted to UPF format
     Using radial grid of  857 points,  6 beta functions with:
                l(1) =   0
                l(2) =   0
                l(3) =   1
                l(4) =   1
                l(5) =   2
                l(6) =   2
     Q(r) pseudized with  6 coefficients,  rinner =    1.000   1.000   1.000
                                                       1.000   1.000

     PseudoPot. # 2 for O  read from file:
     /home/camp/zhonxu/pseudo/o_pbe_v1.01.uspp.F.UPF
     MD5 check sum: 2bcb18d16ea4b960afae9ec6d52f22d2
     Pseudo is Ultrasoft + core correction, Zval =  6.0
     Generated by new atomic code, or converted to UPF format
     Using radial grid of  737 points,  5 beta functions with:
                l(1) =   0
                l(2) =   0
                l(3) =   1
                l(4) =   1
                l(5) =   2
     Q(r) pseudized with  8 coefficients,  rinner =    0.900   0.900   0.900
                                                       0.900   0.900

     atomic species   valence    mass     pseudopotential
        Cr0           14.00    51.99600     Cr( 1.00)
        O1             6.00    15.99940     O ( 1.00)

     Starting magnetic structure
     atomic species   magnetization
        Cr0          0.600
        O1           0.000

      8 Sym. Ops., with inversion, found
          (note:  8 additional sym.ops. were found but ignored
           their fractional translations are incommensurate with FFT grid)

   Cartesian axes

     site n.     atom                  positions (alat units)
         1           Cr0 tau(   1) = (   0.0000000   0.0000000   0.0000000  )
         2           Cr0 tau(   2) = (   0.5000000   0.5000000   0.3222222  )
         3           O1  tau(   3) = (   0.3050000   0.3050000   0.0000000  )
         4           O1  tau(   4) = (  -0.3050000  -0.3050000   0.0000000  )
         5           O1  tau(   5) = (   0.8050000   0.1950000   0.3222222  )
         6           O1  tau(   6) = (   0.1950000   0.8050000   0.3222222  )

     number of k points=    54  Methfessel-Paxton smearing, width (Ry)=  0.0100
                       cart. coord. in units 2pi/alat
        k(    1) = (   0.0000000   0.0000000   0.0000000), wk =   0.0080000
        k(    2) = (   0.0000000   0.0000000   0.3103448), wk =   0.0160000
        k(    3) = (   0.0000000   0.0000000   0.6206897), wk =   0.0160000
        k(    4) = (   0.0000000   0.2000000   0.0000000), wk =   0.0320000
        k(    5) = (   0.0000000   0.2000000   0.3103448), wk =   0.0640000
        k(    6) = (   0.0000000   0.2000000   0.6206897), wk =   0.0640000
        k(    7) = (   0.0000000   0.4000000   0.0000000), wk =   0.0320000
        k(    8) = (   0.0000000   0.4000000   0.3103448), wk =   0.0640000
        k(    9) = (   0.0000000   0.4000000   0.6206897), wk =   0.0640000
        k(   10) = (   0.2000000   0.2000000   0.0000000), wk =   0.0160000
        k(   11) = (   0.2000000   0.2000000   0.3103448), wk =   0.0320000
        k(   12) = (   0.2000000   0.2000000   0.6206897), wk =   0.0320000
        k(   13) = (   0.2000000   0.4000000   0.0000000), wk =   0.0320000
        k(   14) = (   0.2000000   0.4000000   0.3103448), wk =   0.0640000
        k(   15) = (   0.2000000   0.4000000   0.6206897), wk =   0.0640000
        k(   16) = (   0.4000000   0.4000000   0.0000000), wk =   0.0160000
        k(   17) = (   0.4000000   0.4000000   0.3103448), wk =   0.0320000
        k(   18) = (   0.4000000   0.4000000   0.6206897), wk =   0.0320000
        k(   19) = (  -0.2000000   0.2000000   0.0000000), wk =   0.0160000
        k(   20) = (  -0.2000000   0.2000000  -0.3103448), wk =   0.0320000
        k(   21) = (  -0.2000000   0.2000000  -0.6206897), wk =   0.0320000
        k(   22) = (  -0.2000000   0.4000000   0.0000000), wk =   0.0320000
        k(   23) = (  -0.2000000   0.4000000  -0.3103448), wk =   0.0640000
        k(   24) = (  -0.2000000   0.4000000  -0.6206897), wk =   0.0640000
        k(   25) = (  -0.4000000   0.4000000   0.0000000), wk =   0.0160000
        k(   26) = (  -0.4000000   0.4000000  -0.3103448), wk =   0.0320000
        k(   27) = (  -0.4000000   0.4000000  -0.6206897), wk =   0.0320000
        k(   28) = (   0.0000000   0.0000000   0.0000000), wk =   0.0080000
        k(   29) = (   0.0000000   0.0000000   0.3103448), wk =   0.0160000
        k(   30) = (   0.0000000   0.0000000   0.6206897), wk =   0.0160000
        k(   31) = (   0.0000000   0.2000000   0.0000000), wk =   0.0320000
        k(   32) = (   0.0000000   0.2000000   0.3103448), wk =   0.0640000
        k(   33) = (   0.0000000   0.2000000   0.6206897), wk =   0.0640000
        k(   34) = (   0.0000000   0.4000000   0.0000000), wk =   0.0320000
        k(   35) = (   0.0000000   0.4000000   0.3103448), wk =   0.0640000
        k(   36) = (   0.0000000   0.4000000   0.6206897), wk =   0.0640000
        k(   37) = (   0.2000000   0.2000000   0.0000000), wk =   0.0160000
        k(   38) = (   0.2000000   0.2000000   0.3103448), wk =   0.0320000
        k(   39) = (   0.2000000   0.2000000   0.6206897), wk =   0.0320000
        k(   40) = (   0.2000000   0.4000000   0.0000000), wk =   0.0320000
        k(   41) = (   0.2000000   0.4000000   0.3103448), wk =   0.0640000
        k(   42) = (   0.2000000   0.4000000   0.6206897), wk =   0.0640000
        k(   43) = (   0.4000000   0.4000000   0.0000000), wk =   0.0160000
        k(   44) = (   0.4000000   0.4000000   0.3103448), wk =   0.0320000
        k(   45) = (   0.4000000   0.4000000   0.6206897), wk =   0.0320000
        k(   46) = (  -0.2000000   0.2000000   0.0000000), wk =   0.0160000
        k(   47) = (  -0.2000000   0.2000000  -0.3103448), wk =   0.0320000
        k(   48) = (  -0.2000000   0.2000000  -0.6206897), wk =   0.0320000
        k(   49) = (  -0.2000000   0.4000000   0.0000000), wk =   0.0320000
        k(   50) = (  -0.2000000   0.4000000  -0.3103448), wk =   0.0640000
        k(   51) = (  -0.2000000   0.4000000  -0.6206897), wk =   0.0640000
        k(   52) = (  -0.4000000   0.4000000   0.0000000), wk =   0.0160000
        k(   53) = (  -0.4000000   0.4000000  -0.3103448), wk =   0.0320000
        k(   54) = (  -0.4000000   0.4000000  -0.6206897), wk =   0.0320000

     Largest allocated arrays     est. size (Mb)     dimensions
     Largest temporary arrays     est. size (Mb)     dimensions

     Check: negative/imaginary core charge=   -0.000031    0.000000

     Initial potential from superposition of free atoms

     starting charge   49.99997, renormalised to   52.00000
     Starting wfc are   36 randomized atomic wfcs

     Self-consistent Calculation

     iteration #  1     ecut=    40.00 Ry     beta=0.30
     Davidson diagonalization with overlap
     ethr =  1.00E-02,  avg # of iterations =  5.1

     total energy              =    -480.16065630 Ry
     Harris-Foulkes estimate   =    -480.21779657 Ry
     estimated scf accuracy    <       3.03674824 Ry

     total magnetization       =     4.00 Bohr mag/cell
     absolute magnetization    =     6.10 Bohr mag/cell

[...]

     End of self-consistent calculation

 ------ SPIN UP ------------

          k = 0.0000 0.0000 0.0000 (  1859 PWs)   bands (ev):

   -64.6246 -64.6219 -35.9663 -35.9663 -35.8609 -35.8608 -35.7926 -35.7841
   -10.0534  -8.6268  -8.3039  -8.3037   2.0206   2.7067   3.3581   4.1553
     4.1554   5.4463   5.4464   5.9855   7.4227   7.4653   7.5477   7.8216
     7.8216   7.8290   7.8951   7.8951   8.6049   9.5495   9.8527  12.2825
    12.2826  12.8433  15.6225  19.3686  19.3686  22.2525  22.6771  23.4047
    24.9509  26.2112  26.2113  27.1799  28.1134  30.6605  31.9208  32.1199
    32.1200  33.1514  33.1514  33.4738  33.8079  33.8079  34.3769  35.5893
    36.8369  37.4490  39.9368  40.2662  40.2662  40.3960  40.3960  42.1854
    43.5360  44.2314  44.2314  45.5593  46.8848  47.0405  47.0405  47.0708
    47.8433  49.0056  49.5208

[...]

          k =-0.2000 0.2000 0.0000 (  1827 PWs)   bands (ev):

[...]

 ------ SPIN DOWN ----------

[...]

     the Fermi energy is     8.8731 ev

!    total energy              =    -481.14839005 Ry
     Harris-Foulkes estimate   =    -481.14838773 Ry
     estimated scf accuracy    <       0.00000079 Ry

     The total energy is the sum of the following terms:

     one-electron contribution =    -223.63743002 Ry
     hartree contribution      =     135.09333821 Ry
     xc contribution           =     -74.08330396 Ry
     ewald contribution        =    -318.52100319 Ry
     smearing contrib. (-TS)   =       0.00000891 Ry

[...]

     convergence has been achieved in  13 iterations

     Forces acting on atoms (Ry/au):

     atom    1 type  1   force =     0.00000000    0.00000000    0.00000000
     atom    2 type  1   force =     0.00000000    0.00000000    0.00000000
     atom    3 type  2   force =     0.00597311    0.00597311   -0.00000000
     atom    4 type  2   force =    -0.00597311   -0.00597311    0.00000000
     atom    5 type  2   force =     0.00596518   -0.00596518    0.00000000
     atom    6 type  2   force =    -0.00596518    0.00596518    0.00000000

[...]
     NEW k-points:
        k(    1) = (   0.0000000   0.0000000   0.0000000), wk =   0.0080000
        k(    2) = (   0.0000000   0.0000000   0.3109030), wk =   0.0160000
        k(    3) = (   0.0000000   0.0000000   0.6218060), wk =   0.0160000
        k(    4) = (  -0.0000001   0.1998204   0.0000000), wk =   0.0320000
        k(    5) = (  -0.0000001   0.1998204   0.3109030), wk =   0.0640000
        k(    6) = (  -0.0000001   0.1998204   0.6218060), wk =   0.0640000
        k(    7) = (  -0.0000003   0.3996408   0.0000000), wk =   0.0320000
        k(    8) = (  -0.0000003   0.3996408   0.3109030), wk =   0.0640000
        k(    9) = (  -0.0000003   0.3996408   0.6218060), wk =   0.0640000
        k(   10) = (   0.1998202   0.1998202   0.0000000), wk =   0.0160000
        k(   11) = (   0.1998202   0.1998202   0.3109030), wk =   0.0320000
        k(   12) = (   0.1998202   0.1998202   0.6218060), wk =   0.0320000
        k(   13) = (   0.1998201   0.3996406   0.0000000), wk =   0.0320000
        k(   14) = (   0.1998201   0.3996406   0.3109030), wk =   0.0640000
        k(   15) = (   0.1998201   0.3996406   0.6218060), wk =   0.0640000
        k(   16) = (   0.3996405   0.3996405   0.0000000), wk =   0.0160000
        k(   17) = (   0.3996405   0.3996405   0.3109030), wk =   0.0320000
        k(   18) = (   0.3996405   0.3996405   0.6218060), wk =   0.0320000
        k(   19) = (  -0.1998205   0.1998205   0.0000000), wk =   0.0160000
        k(   20) = (  -0.1998205   0.1998205  -0.3109030), wk =   0.0320000
        k(   21) = (  -0.1998205   0.1998205  -0.6218060), wk =   0.0320000
        k(   22) = (  -0.1998207   0.3996409   0.0000000), wk =   0.0320000
        k(   23) = (  -0.1998207   0.3996409  -0.3109030), wk =   0.0640000
        k(   24) = (  -0.1998207   0.3996409  -0.6218060), wk =   0.0640000
        k(   25) = (  -0.3996410   0.3996410   0.0000000), wk =   0.0160000
        k(   26) = (  -0.3996410   0.3996410  -0.3109030), wk =   0.0320000
        k(   27) = (  -0.3996410   0.3996410  -0.6218060), wk =   0.0320000
        k(   28) = (   0.0000000   0.0000000   0.0000000), wk =   0.0080000
        k(   29) = (   0.0000000   0.0000000   0.3109030), wk =   0.0160000
        k(   30) = (   0.0000000   0.0000000   0.6218060), wk =   0.0160000
        k(   31) = (  -0.0000001   0.1998204   0.0000000), wk =   0.0320000
        k(   32) = (  -0.0000001   0.1998204   0.3109030), wk =   0.0640000
        k(   33) = (  -0.0000001   0.1998204   0.6218060), wk =   0.0640000
        k(   34) = (  -0.0000003   0.3996408   0.0000000), wk =   0.0320000
        k(   35) = (  -0.0000003   0.3996408   0.3109030), wk =   0.0640000
        k(   36) = (  -0.0000003   0.3996408   0.6218060), wk =   0.0640000
        k(   37) = (   0.1998202   0.1998202   0.0000000), wk =   0.0160000
        k(   38) = (   0.1998202   0.1998202   0.3109030), wk =   0.0320000
        k(   39) = (   0.1998202   0.1998202   0.6218060), wk =   0.0320000
        k(   40) = (   0.1998201   0.3996406   0.0000000), wk =   0.0320000
        k(   41) = (   0.1998201   0.3996406   0.3109030), wk =   0.0640000
        k(   42) = (   0.1998201   0.3996406   0.6218060), wk =   0.0640000
        k(   43) = (   0.3996405   0.3996405   0.0000000), wk =   0.0160000
        k(   44) = (   0.3996405   0.3996405   0.3109030), wk =   0.0320000
        k(   45) = (   0.3996405   0.3996405   0.6218060), wk =   0.0320000
        k(   46) = (  -0.1998205   0.1998205   0.0000000), wk =   0.0160000
        k(   47) = (  -0.1998205   0.1998205  -0.3109030), wk =   0.0320000
        k(   48) = (  -0.1998205   0.1998205  -0.6218060), wk =   0.0320000
        k(   49) = (  -0.1998207   0.3996409   0.0000000), wk =   0.0320000
        k(   50) = (  -0.1998207   0.3996409  -0.3109030), wk =   0.0640000
        k(   51) = (  -0.1998207   0.3996409  -0.6218060), wk =   0.0640000
        k(   52) = (  -0.3996410   0.3996410   0.0000000), wk =   0.0160000
        k(   53) = (  -0.3996410   0.3996410  -0.3109030), wk =   0.0320000
        k(   54) = (  -0.3996410   0.3996410  -0.6218060), wk =   0.0320000

[...]

     Threshold (ethr) on eigenvalues was too large:
     Diagonalizing with lowered threshold

     Davidson diagonalization with overlap
     ethr =  9.36E-10,  avg # of iterations =  2.0

[...]

     Volume is kept fixed: isostatic pressure set to zero

     bfgs converged in   6 scf cycles and   5 bfgs steps
     (criteria: energy < 0.10E-03, force < 0.10E-02, cell < 0.50E+00)

     End of BFGS Geometry Optimization

     Final enthalpy =    -481.1489667051 Ry
Begin final coordinates
     new unit-cell volume =    429.18531 a.u.^3 (    63.59870 Ang^3 )

CELL_PARAMETERS (alat=  8.73279209)
   1.000898892   0.000000677   0.000000000
   0.000000677   1.000898892   0.000000000
   0.000000000   0.000000000   0.643287433

ATOMIC_POSITIONS (crystal)
Cr0      0.000000000   0.000000000   0.000000000    0   0   0
Cr0      0.500000000   0.500000000   0.500000000    0   0   0
O1       0.307691345   0.307691345   0.000000000    1   1   0
O1      -0.307691345  -0.307691345   0.000000000    1   1   0
O1       0.807692474   0.192307526   0.500000000    1   1   0
O1       0.192307526   0.807692474   0.500000000    1   1   0
End final coordinates

     A final scf calculation at the relaxed structure.
     The G-vectors are recalculated for the final unit cell
     Results may differ from those at the preceding step.

     bravais-lattice index     =            0
     lattice parameter (alat)  =       8.7328  a.u.
     unit-cell volume          =     429.1853 (a.u.)^3
     number of atoms/cell      =            6
     number of atomic types    =            2
     number of electrons       =        52.00
     number of Kohn-Sham states=           75
     kinetic-energy cutoff     =      40.0000  Ry
     charge density cutoff     =     500.0000  Ry
     convergence threshold     =      1.0E-08
     mixing beta               =       0.3000
     number of iterations used =            8  plain     mixing
     Exchange-correlation      = SLA  PW   PBE  PBE ( 1 4 3 4 0)
     EXX-fraction              =        0.00

     celldm(1)=   8.732792  celldm(2)=   0.000000  celldm(3)=   0.000000
     celldm(4)=   0.000000  celldm(5)=   0.000000  celldm(6)=   0.000000

     crystal axes: (cart. coord. in units of alat)
               a(1) = (   1.000899   0.000001   0.000000 )
               a(2) = (   0.000001   1.000899   0.000000 )
               a(3) = (   0.000000   0.000000   0.643287 )

     reciprocal axes: (cart. coord. in units 2 pi/alat)
               b(1) = (  0.999102 -0.000001  0.000000 )
               b(2) = ( -0.000001  0.999102  0.000000 )
               b(3) = (  0.000000  0.000000  1.554515 )

     PseudoPot. # 1 for Cr read from file:
     /home/camp/zhonxu/pseudo/cr_pbe_v1.uspp.F.UPF
     MD5 check sum: 68b6f918d1762dccfb11451fe85b0e0e
     Pseudo is Ultrasoft + core correction, Zval = 14.0
     Generated by new atomic code, or converted to UPF format
     Using radial grid of  857 points,  6 beta functions with:
                l(1) =   0
                l(2) =   0
                l(3) =   1
                l(4) =   1
                l(5) =   2
                l(6) =   2
     Q(r) pseudized with  6 coefficients,  rinner =    1.000   1.000   1.000
                                                       1.000   1.000

     PseudoPot. # 2 for O  read from file:
     /home/camp/zhonxu/pseudo/o_pbe_v1.01.uspp.F.UPF
     MD5 check sum: 2bcb18d16ea4b960afae9ec6d52f22d2
     Pseudo is Ultrasoft + core correction, Zval =  6.0
     Generated by new atomic code, or converted to UPF format
     Using radial grid of  737 points,  5 beta functions with:
                l(1) =   0
                l(2) =   0
                l(3) =   1
                l(4) =   1
                l(5) =   2
     Q(r) pseudized with  8 coefficients,  rinner =    0.900   0.900   0.900
                                                       0.900   0.900

     atomic species   valence    mass     pseudopotential
        Cr0           14.00    51.99600     Cr( 1.00)
        O1             6.00    15.99940     O ( 1.00)

     Starting magnetic structure
     atomic species   magnetization
        Cr0          0.600
        O1           0.000

      8 Sym. Ops., with inversion, found
          (note:  8 additional sym.ops. were found but ignored
           their fractional translations are incommensurate with FFT grid)

   Cartesian axes

     site n.     atom                  positions (alat units)
         1           Cr0 tau(   1) = (   0.0000000   0.0000000   0.0000000  )
         2           Cr0 tau(   2) = (   0.5004498   0.5004498   0.3216437  )
         3           O1  tau(   3) = (   0.3079681   0.3079681   0.0000000  )
         4           O1  tau(   4) = (  -0.3079681  -0.3079681   0.0000000  )
         5           O1  tau(   5) = (   0.8084186   0.1924809   0.3216437  )
         6           O1  tau(   6) = (   0.1924809   0.8084186   0.3216437  )

     number of k points=    54  Methfessel-Paxton smearing, width (Ry)=  0.0100
                       cart. coord. in units 2pi/alat
        k(    1) = (   0.0000000   0.0000000   0.0000000), wk =   0.0080000
        k(    2) = (   0.0000000   0.0000000   0.3109030), wk =   0.0160000
        k(    3) = (   0.0000000   0.0000000   0.6218060), wk =   0.0160000
        k(    4) = (  -0.0000001   0.1998204   0.0000000), wk =   0.0320000
        k(    5) = (  -0.0000001   0.1998204   0.3109030), wk =   0.0640000
        k(    6) = (  -0.0000001   0.1998204   0.6218060), wk =   0.0640000
        k(    7) = (  -0.0000003   0.3996408   0.0000000), wk =   0.0320000
        k(    8) = (  -0.0000003   0.3996408   0.3109030), wk =   0.0640000
        k(    9) = (  -0.0000003   0.3996408   0.6218060), wk =   0.0640000
        k(   10) = (   0.1998202   0.1998202   0.0000000), wk =   0.0160000
        k(   11) = (   0.1998202   0.1998202   0.3109030), wk =   0.0320000
        k(   12) = (   0.1998202   0.1998202   0.6218060), wk =   0.0320000
        k(   13) = (   0.1998201   0.3996406   0.0000000), wk =   0.0320000
        k(   14) = (   0.1998201   0.3996406   0.3109030), wk =   0.0640000
        k(   15) = (   0.1998201   0.3996406   0.6218060), wk =   0.0640000
        k(   16) = (   0.3996405   0.3996405   0.0000000), wk =   0.0160000
        k(   17) = (   0.3996405   0.3996405   0.3109030), wk =   0.0320000
        k(   18) = (   0.3996405   0.3996405   0.6218060), wk =   0.0320000
        k(   19) = (  -0.1998205   0.1998205   0.0000000), wk =   0.0160000
        k(   20) = (  -0.1998205   0.1998205  -0.3109030), wk =   0.0320000
        k(   21) = (  -0.1998205   0.1998205  -0.6218060), wk =   0.0320000
        k(   22) = (  -0.1998207   0.3996409   0.0000000), wk =   0.0320000
        k(   23) = (  -0.1998207   0.3996409  -0.3109030), wk =   0.0640000
        k(   24) = (  -0.1998207   0.3996409  -0.6218060), wk =   0.0640000
        k(   25) = (  -0.3996410   0.3996410   0.0000000), wk =   0.0160000
        k(   26) = (  -0.3996410   0.3996410  -0.3109030), wk =   0.0320000
        k(   27) = (  -0.3996410   0.3996410  -0.6218060), wk =   0.0320000
        k(   28) = (   0.0000000   0.0000000   0.0000000), wk =   0.0080000
        k(   29) = (   0.0000000   0.0000000   0.3109030), wk =   0.0160000
        k(   30) = (   0.0000000   0.0000000   0.6218060), wk =   0.0160000
        k(   31) = (  -0.0000001   0.1998204   0.0000000), wk =   0.0320000
        k(   32) = (  -0.0000001   0.1998204   0.3109030), wk =   0.0640000
        k(   33) = (  -0.0000001   0.1998204   0.6218060), wk =   0.0640000
        k(   34) = (  -0.0000003   0.3996408   0.0000000), wk =   0.0320000
        k(   35) = (  -0.0000003   0.3996408   0.3109030), wk =   0.0640000
        k(   36) = (  -0.0000003   0.3996408   0.6218060), wk =   0.0640000
        k(   37) = (   0.1998202   0.1998202   0.0000000), wk =   0.0160000
        k(   38) = (   0.1998202   0.1998202   0.3109030), wk =   0.0320000
        k(   39) = (   0.1998202   0.1998202   0.6218060), wk =   0.0320000
        k(   40) = (   0.1998201   0.3996406   0.0000000), wk =   0.0320000
        k(   41) = (   0.1998201   0.3996406   0.3109030), wk =   0.0640000
        k(   42) = (   0.1998201   0.3996406   0.6218060), wk =   0.0640000
        k(   43) = (   0.3996405   0.3996405   0.0000000), wk =   0.0160000
        k(   44) = (   0.3996405   0.3996405   0.3109030), wk =   0.0320000
        k(   45) = (   0.3996405   0.3996405   0.6218060), wk =   0.0320000
        k(   46) = (  -0.1998205   0.1998205   0.0000000), wk =   0.0160000
        k(   47) = (  -0.1998205   0.1998205  -0.3109030), wk =   0.0320000
        k(   48) = (  -0.1998205   0.1998205  -0.6218060), wk =   0.0320000
        k(   49) = (  -0.1998207   0.3996409   0.0000000), wk =   0.0320000
        k(   50) = (  -0.1998207   0.3996409  -0.3109030), wk =   0.0640000
        k(   51) = (  -0.1998207   0.3996409  -0.6218060), wk =   0.0640000
        k(   52) = (  -0.3996410   0.3996410   0.0000000), wk =   0.0160000
        k(   53) = (  -0.3996410   0.3996410  -0.3109030), wk =   0.0320000
        k(   54) = (  -0.3996410   0.3996410  -0.6218060), wk =   0.0320000

     Largest allocated arrays     est. size (Mb)     dimensions
     Largest temporary arrays     est. size (Mb)     dimensions

     Check: negative/imaginary core charge=   -0.000031    0.000000

     Initial potential from superposition of free atoms

     starting charge   49.99997, renormalised to   52.00000
     Starting wfc are   36 randomized atomic wfcs

     Self-consistent Calculation

[...]

     total energy              =    -481.14896046 Ry
     Harris-Foulkes estimate   =    -481.14895919 Ry
     estimated scf accuracy    <       0.00000047 Ry

[...]

     iteration # 14     ecut=    40.00 Ry     beta=0.30
     Davidson diagonalization with overlap
     ethr =  9.06E-10,  avg # of iterations =  1.0

     End of self-consistent calculation

 ------ SPIN UP ------------

[...]

 ------ SPIN DOWN ----------

[...]

          k = 0.3996 0.3996 0.6218 (  1839 PWs)   bands (ev):

[...]

          k =-0.3996 0.3996-0.6218 (  1839 PWs)   bands (ev):

   -62.1478 -62.1477 -33.7132 -33.7131 -33.3831 -33.3816 -33.3739 -33.3726
    -8.9060  -8.8399  -8.7347  -8.7250   3.2725   3.4241   3.6106   3.6411
     4.6706   4.7917   5.4504   5.5147   6.6208   6.7321   7.0219   7.2234
    10.1486  10.4048  10.8639  11.0590  11.0888  11.1070  12.1124  12.5738
    12.7370  13.1978  19.9985  20.3633  21.7065  22.2273  23.0426  23.3587
    24.3025  24.4947  26.0566  26.2682  27.3943  27.8758  30.2469  31.6865
    32.2279  32.6598  32.8528  33.7198  36.6213  36.7831  37.7150  38.4903
    40.0336  40.4277  41.3290  42.1019  42.2705  42.4398  43.0037  43.7190
    43.8284  44.8056  45.9010  46.5048  46.6433  47.5770  48.2700  49.0173
    49.3265  49.3676  49.4909

     the Fermi energy is     8.8800 ev

!    total energy              =    -481.14896187 Ry
     Harris-Foulkes estimate   =    -481.14896055 Ry
     estimated scf accuracy    <          8.6E-09 Ry

     The total energy is the sum of the following terms:

     one-electron contribution =    -224.68848175 Ry
     hartree contribution      =     135.63252876 Ry
     xc contribution           =     -74.09833229 Ry
     ewald contribution        =    -317.99480439 Ry
     smearing contrib. (-TS)   =       0.00012780 Ry

     total magnetization       =     4.00 Bohr mag/cell
     absolute magnetization    =     5.07 Bohr mag/cell

     convergence has been achieved in  14 iterations

     Forces acting on atoms (Ry/au):

     atom    1 type  1   force =     0.00000000    0.00000000    0.00000000
     atom    2 type  1   force =     0.00000000    0.00000000    0.00000000
     atom    3 type  2   force =    -0.00003815   -0.00003815    0.00000000
     atom    4 type  2   force =     0.00003815    0.00003815    0.00000000
     atom    5 type  2   force =    -0.00004183    0.00004183    0.00000000
     atom    6 type  2   force =     0.00004183   -0.00004183    0.00000000

     Total force =     0.000113     Total SCF correction =     0.000157
     SCF correction compared to forces is large: reduce conv_thr to get better values

     entering subroutine stress ...

          total   stress  (Ry/bohr**3)                   (kbar)     P= -176.11
  -0.00119597   0.00000000   0.00000000       -175.93      0.00      0.00
   0.00000000  -0.00119597   0.00000000          0.00   -175.93      0.00
   0.00000000   0.00000000  -0.00119963          0.00      0.00   -176.47

     General routines

     Parallel routines

   This run was terminated on:  16:18:31  24Jan2014

   JOB DONE.