     Program PWSCF v.5.0.2 (svn rev. 9656) starts on 28Apr2014 at 20:45:35

     Current dimensions of program PWSCF are:
     Max number of different atomic species (ntypx) = 10
     Max number of k-points (npk) =  40000
     Max angular momentum in pseudopotentials (lmaxx) =  3
     Reading input from pwscf.in
Warning: card &CELL ignored
Warning: card / ignored

     Subspace diagonalization in iterative solution of the eigenvalue problem:
     a serial algorithm will be used

     bravais-lattice index     =            0
     lattice parameter (alat)  =      10.3179  a.u.
     unit-cell volume          =    6964.3238 (a.u.)^3
     number of atoms/cell      =           31
     number of atomic types    =            3
     number of electrons       =       230.00
     number of Kohn-Sham states=          345
     kinetic-energy cutoff     =      40.0000  Ry
     charge density cutoff     =     500.0000  Ry
     convergence threshold     =      1.0E-06
     mixing beta               =       0.7000
     number of iterations used =            8  plain     mixing
     Exchange-correlation      = SLA  PW   PBE  PBE ( 1 4 3 4 0)
     EXX-fraction              =        0.00
     nstep                     =           50

     celldm(1)=  10.317905  celldm(2)=   0.000000  celldm(3)=   0.000000
     celldm(4)=   0.000000  celldm(5)=   0.000000  celldm(6)=   0.000000

     crystal axes: (cart. coord. in units of alat)
               a(1) = (   1.000000   0.000000   0.000000 )
               a(2) = (   0.000000   1.282117   0.000000 )
               a(3) = (   0.000000   0.000000   4.945120 )

     reciprocal axes: (cart. coord. in units 2 pi/alat)
               b(1) = (  1.000000  0.000000  0.000000 )
               b(2) = (  0.000000  0.779960  0.000000 )
               b(3) = (  0.000000  0.000000  0.202220 )

     PseudoPot. # 1 for O  read from file:
     /home/camp/zhonxu/pseudo/o_pbe_v1.01.uspp.F.UPF
     MD5 check sum: 2bcb18d16ea4b960afae9ec6d52f22d2
     Pseudo is Ultrasoft + core correction, Zval =  6.0
     Generated by new atomic code, or converted to UPF format
     Using radial grid of  737 points,  5 beta functions with:
                l(1) =   0
                l(2) =   0
                l(3) =   1
                l(4) =   1
                l(5) =   2
     Q(r) pseudized with  8 coefficients,  rinner =    0.900   0.900   0.900
                                                       0.900   0.900

     PseudoPot. # 2 for Mo read from file:
     /home/camp/zhonxu/pseudo/mo_pbe_v1.uspp.F.UPF
     MD5 check sum: 30c4dcd161f5d35cd49bb5239c51a633
     Pseudo is Ultrasoft + core correction, Zval = 14.0
     Generated by new atomic code, or converted to UPF format
     Using radial grid of  889 points,  6 beta functions with:
                l(1) =   0
                l(2) =   0
                l(3) =   1
                l(4) =   1
                l(5) =   2
                l(6) =   2
     Q(r) pseudized with  6 coefficients,  rinner =    1.000   1.000   1.000
                                                       1.000   1.000

     PseudoPot. # 3 for H  read from file:
     /home/camp/zhonxu/pseudo/h_pbe_v1.uspp.F.UPF
     MD5 check sum: 3408e3ff4ec8b0a4e358431e7e038a48
     Pseudo is Ultrasoft, Zval =  1.0
     Generated by new atomic code, or converted to UPF format
     Using radial grid of  615 points,  2 beta functions with:
                l(1) =   0
                l(2) =   0
     Q(r) pseudized with  8 coefficients,  rinner =    0.700

     atomic species   valence    mass     pseudopotential
        O0             6.00    15.99940     O ( 1.00)
        Mo1           14.00    95.94000     Mo( 1.00)
        H2             1.00     1.00794     H ( 1.00)

     Simplified LDA+U calculation (l_max = 2) with parameters (eV):
     atomic species    L          U    alpha       J0     beta
        Mo1            2     8.0000   0.0000   0.0000   0.0000

     No symmetry found

   Cartesian axes

     site n.     atom                  positions (alat units)
         1           O0  tau(   1) = (   0.0000000   0.0000000   1.8298429  )
         2           O0  tau(   2) = (   0.0000000   0.6410583   1.8994207  )
         3           Mo1 tau(   3) = (   0.2500000   0.6410583   2.1871278  )
         4           Mo1 tau(   4) = (   0.0000000   0.0000000   2.1851992  )
         5           O0  tau(   5) = (   0.2500000   1.0000510   2.1890070  )
         6           O0  tau(   6) = (   0.2500000   0.2820657   2.1893531  )
         7           O0  tau(   7) = (   0.0000000   0.6410583   2.4671700  )
         8           O0  tau(   8) = (   0.0000000   0.0000000   2.5523250  )
         9           Mo1 tau(   9) = (   0.2500000   0.0000000   2.8391419  )
        10           Mo1 tau(  10) = (   0.0000000   0.6410583   2.8013612  )
        11           O0  tau(  11) = (   0.2500000   0.9231240   2.8197571  )
        12           O0  tau(  12) = (   0.2500000   0.3589927   2.8195593  )
        13           O0  tau(  13) = (   0.0000000   0.0000000   3.0891672  )
        14           O0  tau(  14) = (   0.5000000   0.0000000   1.8327111  )
        15           O0  tau(  15) = (   0.5000000   0.6410583   1.8997669  )
        16           Mo1 tau(  16) = (   0.7500000   0.6410583   2.1871773  )
        17           Mo1 tau(  17) = (   0.5000000   0.0000000   2.1922708  )
        18           O0  tau(  18) = (   0.7500000   1.0000510   2.1898476  )
        19           O0  tau(  19) = (   0.7500000   0.2820657   2.1889575  )
        20           O0  tau(  20) = (   0.5000000   0.6410583   2.4516918  )
        21           O0  tau(  21) = (   0.5000000   0.0000000   2.5499019  )
        22           Mo1 tau(  22) = (   0.7500000   0.0000000   2.8391419  )
        23           Mo1 tau(  23) = (   0.5000000   0.6410583   2.8716808  )
        24           O0  tau(  24) = (   0.7500000   0.9231240   2.8197571  )
        25           O0  tau(  25) = (   0.7500000   0.3589927   2.8196582  )
        26           O0  tau(  26) = (   0.5000000   0.0000000   3.0881782  )
        27           H2  tau(  27) = (  -0.0006600   0.7686802   1.7727267  )
        28           H2  tau(  28) = (   0.4996400   0.7964252   1.8076887  )
        29           H2  tau(  29) = (   0.1674000   0.0210652   1.7585342  )
        30           H2  tau(  30) = (   0.6637700   0.0258988   1.7570507  )
        31           O0  tau(  31) = (   0.5000200   0.6407506   3.1806520  )

     number of k points=    10  Methfessel-Paxton smearing, width (Ry)=  0.0100
                       cart. coord. in units 2pi/alat
        k(    1) = (   0.0000000   0.0000000   0.0000000), wk =   0.1250000
        k(    2) = (   0.0000000   0.1949901   0.0000000), wk =   0.2500000
        k(    3) = (   0.0000000  -0.3899801   0.0000000), wk =   0.1250000
        k(    4) = (   0.2500000   0.0000000   0.0000000), wk =   0.2500000
        k(    5) = (   0.2500000   0.1949901   0.0000000), wk =   0.2500000
        k(    6) = (   0.2500000  -0.3899801   0.0000000), wk =   0.2500000
        k(    7) = (  -0.5000000   0.0000000   0.0000000), wk =   0.1250000
        k(    8) = (  -0.5000000   0.1949901   0.0000000), wk =   0.2500000
        k(    9) = (  -0.5000000  -0.3899801   0.0000000), wk =   0.1250000
        k(   10) = (  -0.2500000   0.1949901   0.0000000), wk =   0.2500000

     Largest allocated arrays     est. size (Mb)     dimensions
     Largest temporary arrays     est. size (Mb)     dimensions

     Check: negative/imaginary core charge=   -0.000003    0.000000

     Initial potential from superposition of free atoms
     Check: negative starting charge=   -0.002499

     starting charge  229.99143, renormalised to  230.00000

     negative rho (up, down):  0.250E-02 0.000E+00
     Number of +U iterations with fixed ns =  0
     Starting occupations:
 --- enter write_ns ---
 LDA+U parameters:
U( 2)     =  8.00000000
alpha( 2) =  0.00000000
atom    3   Tr[ns(na)] =   5.00000
    eigenvalues:
  0.500  0.500  0.500  0.500  0.500
    eigenvectors:
  1.000  0.000  0.000  0.000  0.000
  0.000  1.000  0.000  0.000  0.000
  0.000  0.000  1.000  0.000  0.000
  0.000  0.000  0.000  1.000  0.000
  0.000  0.000  0.000  0.000  1.000
    occupations:
  0.500  0.000  0.000  0.000  0.000
  0.000  0.500  0.000  0.000  0.000
  0.000  0.000  0.500  0.000  0.000
  0.000  0.000  0.000  0.500  0.000
  0.000  0.000  0.000  0.000  0.500
atom    4   Tr[ns(na)] =   5.00000
    eigenvalues:
  0.500  0.500  0.500  0.500  0.500
    eigenvectors:
  1.000  0.000  0.000  0.000  0.000
  0.000  1.000  0.000  0.000  0.000
  0.000  0.000  1.000  0.000  0.000
  0.000  0.000  0.000  1.000  0.000
  0.000  0.000  0.000  0.000  1.000
    occupations:
  0.500  0.000  0.000  0.000  0.000
  0.000  0.500  0.000  0.000  0.000
  0.000  0.000  0.500  0.000  0.000
  0.000  0.000  0.000  0.500  0.000
  0.000  0.000  0.000  0.000  0.500
atom    9   Tr[ns(na)] =   5.00000
    eigenvalues:
  0.500  0.500  0.500  0.500  0.500
    eigenvectors:
  1.000  0.000  0.000  0.000  0.000
  0.000  1.000  0.000  0.000  0.000
  0.000  0.000  1.000  0.000  0.000
  0.000  0.000  0.000  1.000  0.000
  0.000  0.000  0.000  0.000  1.000
    occupations:
  0.500  0.000  0.000  0.000  0.000
  0.000  0.500  0.000  0.000  0.000
  0.000  0.000  0.500  0.000  0.000
  0.000  0.000  0.000  0.500  0.000
  0.000  0.000  0.000  0.000  0.500
atom   10   Tr[ns(na)] =   5.00000
    eigenvalues:
  0.500  0.500  0.500  0.500  0.500
    eigenvectors:
  1.000  0.000  0.000  0.000  0.000
  0.000  1.000  0.000  0.000  0.000
  0.000  0.000  1.000  0.000  0.000
  0.000  0.000  0.000  1.000  0.000
  0.000  0.000  0.000  0.000  1.000
    occupations:
  0.500  0.000  0.000  0.000  0.000
  0.000  0.500  0.000  0.000  0.000
  0.000  0.000  0.500  0.000  0.000
  0.000  0.000  0.000  0.500  0.000
  0.000  0.000  0.000  0.000  0.500
atom   16   Tr[ns(na)] =   5.00000
    eigenvalues:
  0.500  0.500  0.500  0.500  0.500
    eigenvectors:
  1.000  0.000  0.000  0.000  0.000
  0.000  1.000  0.000  0.000  0.000
  0.000  0.000  1.000  0.000  0.000
  0.000  0.000  0.000  1.000  0.000
  0.000  0.000  0.000  0.000  1.000
    occupations:
  0.500  0.000  0.000  0.000  0.000
  0.000  0.500  0.000  0.000  0.000
  0.000  0.000  0.500  0.000  0.000
  0.000  0.000  0.000  0.500  0.000
  0.000  0.000  0.000  0.000  0.500
atom   17   Tr[ns(na)] =   5.00000
    eigenvalues:
  0.500  0.500  0.500  0.500  0.500
    eigenvectors:
  1.000  0.000  0.000  0.000  0.000
  0.000  1.000  0.000  0.000  0.000
  0.000  0.000  1.000  0.000  0.000
  0.000  0.000  0.000  1.000  0.000
  0.000  0.000  0.000  0.000  1.000
    occupations:
  0.500  0.000  0.000  0.000  0.000
  0.000  0.500  0.000  0.000  0.000
  0.000  0.000  0.500  0.000  0.000
  0.000  0.000  0.000  0.500  0.000
  0.000  0.000  0.000  0.000  0.500
atom   22   Tr[ns(na)] =   5.00000
    eigenvalues:
  0.500  0.500  0.500  0.500  0.500
    eigenvectors:
  1.000  0.000  0.000  0.000  0.000
  0.000  1.000  0.000  0.000  0.000
  0.000  0.000  1.000  0.000  0.000
  0.000  0.000  0.000  1.000  0.000
  0.000  0.000  0.000  0.000  1.000
    occupations:
  0.500  0.000  0.000  0.000  0.000
  0.000  0.500  0.000  0.000  0.000
[...]
  0.001 -0.003  0.000 -0.000  0.498
atom    9   Tr[ns(na)] =   5.87582
    eigenvalues:
  0.484  0.524  0.627  0.641  0.662
    eigenvectors:
  0.000  0.000  0.035  0.251  0.714
  0.000  0.000  0.003  0.730  0.267
  0.999  0.001  0.000  0.000  0.000
  0.000  0.000  0.963  0.019  0.018
  0.001  0.999  0.000  0.000  0.000
    occupations:
  0.655 -0.009  0.000 -0.005 -0.001
 -0.009  0.647 -0.000  0.001  0.000
  0.000 -0.000  0.484 -0.000  0.001
 -0.005  0.001 -0.000  0.628  0.000
 -0.001  0.000  0.001  0.000  0.524
atom   10   Tr[ns(na)] =   5.53071
    eigenvalues:
  0.178  0.369  0.513  0.749  0.957
    eigenvectors:
  0.000  0.953  0.000  0.047  0.000
  0.000  0.000  0.000  0.000  1.000
  1.000  0.000  0.000  0.000  0.000
  0.000  0.047  0.000  0.953  0.000
  0.000  0.000  1.000  0.000  0.000
    occupations:
  0.386  0.002 -0.001  0.080 -0.000
  0.002  0.957 -0.001  0.004 -0.000
 -0.001 -0.001  0.178 -0.000 -0.007
  0.080  0.004 -0.000  0.731  0.000
 -0.000 -0.000 -0.007  0.000  0.513
atom   16   Tr[ns(na)] =   5.78941
    eigenvalues:
  0.424  0.492  0.570  0.605  0.804
    eigenvectors:
  0.014  0.000  0.001  0.280  0.704
  0.000  0.000  0.998  0.002  0.000
  0.984  0.001  0.000  0.001  0.014
  0.001  0.000  0.001  0.717  0.281
  0.001  0.999  0.000  0.000  0.000
    occupations:
  0.742  0.004  0.041 -0.088 -0.004
  0.004  0.570  0.001 -0.000 -0.001
  0.041  0.001  0.430 -0.018 -0.003
 -0.088 -0.000 -0.018  0.661  0.003
 -0.004 -0.001 -0.003  0.003  0.492
atom   17   Tr[ns(na)] =   5.76454
    eigenvalues:
  0.387  0.485  0.526  0.622  0.862
    eigenvectors:
  0.000  0.000  0.000  0.996  0.004
  0.007  0.993  0.000  0.000  0.000
  0.993  0.007  0.000  0.000  0.000
  0.000  0.000  0.000  0.004  0.996
  0.000  0.000  1.000  0.000  0.000
    occupations:
  0.623 -0.001  0.002 -0.015 -0.000
 -0.001  0.484 -0.008 -0.007 -0.000
  0.002 -0.008  0.388 -0.000  0.002
 -0.015 -0.007 -0.000  0.861  0.000
 -0.000 -0.000  0.002  0.000  0.526
atom   22   Tr[ns(na)] =   5.75267
    eigenvalues:
  0.373  0.419  0.586  0.617  0.881
    eigenvectors:
  0.000  0.000  0.034  0.239  0.727
  0.000  0.000  0.892  0.107  0.000
  0.107  0.893  0.000  0.000  0.000
  0.000  0.000  0.074  0.654  0.273
  0.893  0.107  0.000  0.000  0.000
    occupations:
  0.808  0.009 -0.000 -0.119 -0.001
  0.009  0.589 -0.000  0.006 -0.000
 -0.000 -0.000  0.414  0.000  0.014
 -0.119  0.006  0.000  0.687  0.001
 -0.001 -0.000  0.014  0.001  0.378
atom   23   Tr[ns(na)] =   5.92361
    eigenvalues:
  0.488  0.493  0.503  0.640  0.838
    eigenvectors:
  0.000  0.000  0.000  0.991  0.009
  0.000  1.000  0.000  0.000  0.000
  0.984  0.000  0.016  0.000  0.000
  0.000  0.000  0.000  0.009  0.991
  0.016  0.000  0.984  0.000  0.000
    occupations:
  0.642 -0.002 -0.000 -0.019 -0.000
 -0.002  0.493 -0.000  0.001  0.000
 -0.000 -0.000  0.488 -0.000  0.002
 -0.019  0.001 -0.000  0.836 -0.000
 -0.000  0.000  0.002 -0.000  0.503
N of occupied +U levels =  46.1924952
 --- exit write_ns ---

     Threshold (ethr) on eigenvalues was too large:
     Diagonalizing with lowered threshold

     Davidson diagonalization with overlap
     ethr =  1.58E-09,  avg # of iterations =  3.0

[...]

     total energy              =   -1727.09799188 Ry
     Harris-Foulkes estimate   =   -1727.09799189 Ry
     estimated scf accuracy    <       0.00000004 Ry

     iteration #  8     ecut=    40.00 Ry     beta=0.70
     Davidson diagonalization with overlap
     ethr =  1.77E-11,  avg # of iterations =  1.0

     negative rho (up, down):  0.364E-02 0.000E+00

     End of self-consistent calculation
 --- enter write_ns ---
 LDA+U parameters:
U( 2)     =  8.00000000
alpha( 2) =  0.00000000
atom    3   Tr[ns(na)] =   5.78836
    eigenvalues:
  0.444  0.469  0.570  0.606  0.805
    eigenvectors:
  0.012  0.002  0.001  0.290  0.695
  0.000  0.000  0.999  0.001  0.000
  0.831  0.155  0.000  0.002  0.013
  0.001  0.000  0.000  0.707  0.292
  0.157  0.843  0.000  0.000  0.000
    occupations:
  0.742 -0.003  0.038 -0.089  0.002
 -0.003  0.570 -0.000  0.001  0.001
  0.038 -0.000  0.453 -0.016 -0.009
 -0.089  0.001 -0.016  0.664 -0.001
  0.002  0.001 -0.009 -0.001  0.465
atom    4   Tr[ns(na)] =   5.76751
    eigenvalues:
  0.255  0.498  0.547  0.719  0.865
    eigenvectors:
  0.000  0.000  0.980  0.019  0.000
  0.000  0.000  0.000  0.000  1.000
  1.000  0.000  0.000  0.000  0.000
  0.000  0.000  0.019  0.981  0.000
  0.000  1.000  0.000  0.000  0.000
    occupations:
  0.550 -0.000  0.002  0.024  0.001
 -0.000  0.865  0.012 -0.001 -0.003
  0.002  0.012  0.255 -0.001  0.000
  0.024 -0.001 -0.001  0.716 -0.000
  0.001 -0.003  0.000 -0.000  0.498
atom    9   Tr[ns(na)] =   5.87558
    eigenvalues:
  0.484  0.524  0.627  0.641  0.661
    eigenvectors:
  0.000  0.000  0.035  0.250  0.715
  0.000  0.000  0.003  0.731  0.267
  0.999  0.001  0.000  0.000  0.000
  0.000  0.000  0.962  0.019  0.018
  0.001  0.999  0.000  0.000  0.000
    occupations:
  0.655 -0.009  0.000 -0.005 -0.001
 -0.009  0.647 -0.000  0.001  0.000
  0.000 -0.000  0.484 -0.000  0.001
 -0.005  0.001 -0.000  0.628  0.000
 -0.001  0.000  0.001  0.000  0.524
atom   10   Tr[ns(na)] =   5.53071
    eigenvalues:
  0.178  0.369  0.513  0.749  0.957
    eigenvectors:
  0.000  0.953  0.000  0.047  0.000
  0.000  0.000  0.000  0.000  1.000
  1.000  0.000  0.000  0.000  0.000
  0.000  0.047  0.000  0.953  0.000
  0.000  0.000  1.000  0.000  0.000
    occupations:
  0.386  0.002 -0.001  0.080 -0.000
  0.002  0.957 -0.001  0.004 -0.000
 -0.001 -0.001  0.178 -0.000 -0.007
  0.080  0.004 -0.000  0.731  0.000
 -0.000 -0.000 -0.007  0.000  0.513
atom   16   Tr[ns(na)] =   5.78945
    eigenvalues:
  0.424  0.492  0.570  0.605  0.804
    eigenvectors:
  0.014  0.000  0.001  0.280  0.704
  0.000  0.000  0.998  0.002  0.000
  0.984  0.001  0.000  0.001  0.014
  0.001  0.000  0.001  0.717  0.281
  0.001  0.999  0.000  0.000  0.000
    occupations:
  0.742  0.004  0.041 -0.088 -0.004
  0.004  0.570  0.001 -0.000 -0.001
  0.041  0.001  0.429 -0.018 -0.003
 -0.088 -0.000 -0.018  0.661  0.003
 -0.004 -0.001 -0.003  0.003  0.492
atom   17   Tr[ns(na)] =   5.76411
    eigenvalues:
  0.387  0.484  0.526  0.622  0.862
    eigenvectors:
  0.000  0.000  0.000  0.996  0.004
  0.007  0.993  0.000  0.000  0.000
  0.993  0.007  0.000  0.000  0.000
  0.000  0.000  0.000  0.004  0.996
  0.000  0.000  1.000  0.000  0.000
    occupations:
  0.623 -0.001  0.002 -0.015 -0.000
 -0.001  0.484 -0.008 -0.007 -0.000
  0.002 -0.008  0.388 -0.000  0.002
 -0.015 -0.007 -0.000  0.861  0.000
 -0.000 -0.000  0.002  0.000  0.526
atom   22   Tr[ns(na)] =   5.75272
    eigenvalues:
  0.373  0.419  0.586  0.617  0.881
    eigenvectors:
  0.000  0.000  0.034  0.239  0.727
  0.000  0.000  0.893  0.107  0.000
  0.106  0.894  0.000  0.000  0.000
  0.000  0.000  0.074  0.654  0.273
  0.894  0.106  0.000  0.000  0.000
    occupations:
  0.808  0.009 -0.000 -0.119 -0.001
  0.009  0.589 -0.000  0.006 -0.000
 -0.000 -0.000  0.414  0.000  0.014
 -0.119  0.006  0.000  0.687  0.001
 -0.001 -0.000  0.014  0.001  0.378
atom   23   Tr[ns(na)] =   5.92398
    eigenvalues:
  0.488  0.493  0.503  0.640  0.838
    eigenvectors:
  0.000  0.000  0.000  0.991  0.009
  0.000  1.000  0.000  0.000  0.000
  0.984  0.000  0.016  0.000  0.000
  0.000  0.000  0.000  0.009  0.991
  0.016  0.000  0.984  0.000  0.000
    occupations:
  0.642 -0.002 -0.000 -0.019 -0.000
 -0.002  0.493 -0.000  0.001  0.000
 -0.000 -0.000  0.488 -0.000  0.002
 -0.019  0.001 -0.000  0.836 -0.000
 -0.000  0.000  0.002 -0.000  0.503
N of occupied +U levels =  46.1924236
 --- exit write_ns ---

[...]

          k = 0.2500-0.3900 0.0000 ( 29726 PWs)   bands (ev):

[...]

          k =-0.2500 0.1950 0.0000 ( 29746 PWs)   bands (ev):

   -63.0458 -62.7792 -62.6937 -62.6710 -62.5722 -62.2648 -61.8480 -61.5894
   -37.5368 -37.2926 -37.2522 -37.2183 -37.2120 -37.1731 -37.1515 -37.1247
   -37.0069 -36.6841 -36.6676 -36.6216 -36.5299 -36.4941 -36.4012 -36.3831
   -36.3465 -36.3076 -36.1099 -36.1086 -36.1015 -35.6787 -35.3817 -35.3047
   -20.8149 -20.6249 -20.1033 -19.9748 -19.8365 -19.6774 -19.5412 -19.5267
   -19.4453 -19.3840 -19.1128 -19.0901 -18.9873 -18.9647 -18.8734 -18.7766
   -18.7310 -18.4256 -18.3110  -9.3225  -8.8843  -8.7556  -8.4917  -8.3574
    -8.2007  -8.0699  -7.9477  -7.8822  -7.6951  -7.6444  -7.4583  -7.3943
    -6.9497  -6.7844  -6.7139  -6.5591  -6.5055  -6.4321  -6.3252  -6.2826
    -6.1126  -5.9604  -5.8609  -5.6577  -5.4559  -5.3103  -5.2437  -5.2156
    -5.1257  -5.0836  -4.9107  -4.8325  -4.7667  -4.7100  -4.6491  -4.5824
    -4.4811  -4.4223  -4.3140  -4.1947  -4.1664  -4.0378  -3.9741  -3.9168
    -3.8451  -3.7858  -3.7098  -3.6563  -3.5052  -3.4253  -3.3828  -3.1822
    -3.0904  -2.9854  -2.7481  -2.5877  -2.3879  -2.3708  -2.2391  -1.6145
    -1.4214  -1.0225  -0.4125   0.1180   0.3797   0.4439   0.5411   0.6423
     0.7377   0.9801   1.0520   1.0977   1.2291   1.3613   1.5588   1.7318
     1.8690   2.0636   2.1388   2.6768   2.8962   3.1429   3.2827   3.4351
     3.5348   3.7284   3.9076   4.0103   4.0799   4.1615   4.2640   4.4458
     4.6455   4.9677   5.2097   5.2353   5.5071   5.6033   5.7536   5.8369
     5.8711   6.0506   6.2665   6.5243   6.7603   6.8968   7.1032   7.2256
     7.2756   7.5565   7.6415   7.7799   8.0489   8.1100   8.2550   8.4148
     8.5166   8.5705   8.6748   8.8607   9.0164   9.1103   9.1791   9.3409
     9.4775   9.5327   9.6040   9.6600   9.6732   9.7796   9.9116  10.0986
    10.1384  10.2757  10.3223  10.3866  10.5376  10.5790  10.6729  10.7573
    10.9239  11.0018  11.0863  11.2149  11.3791  11.5383  11.6236  11.6841
    11.7894  11.8587  11.9190  12.0073  12.0968  12.2763  12.3181  12.3712
    12.4559  12.4787  12.5571  12.6317  12.7136  12.8433  12.9166  12.9809
    13.0043  13.1566  13.2680  13.2937  13.3393  13.4081  13.4628  13.5632
    13.6153  13.6736  13.7310  13.7932  13.8620  13.9369  14.0762  14.1186
    14.1988  14.2141  14.3233  14.3808  14.4548  14.5397  14.5781  14.6463
    14.6979  14.7437  14.8381  14.9201  14.9846  15.0132  15.1611  15.2376
    15.3219  15.3487  15.4736  15.5461  15.6343  15.7024  15.8197  15.9034
    15.9662  15.9925  16.0486  16.1408  16.1754  16.2519  16.3498  16.4087
    16.4598  16.4907  16.6238  16.6585  16.7694  16.8335  16.8804  16.9838
    17.0302  17.1435  17.1863  17.2737  17.3478  17.3673  17.4690  17.5522
    17.6530  17.7008  17.7243  17.8065  17.8887  17.9603  18.0655  18.1064
    18.1262  18.2344  18.3068  18.3788  18.4532  18.4880  18.5794  18.6441
    18.8057  18.8827  18.9137  18.9803  19.0865  19.1543  19.1782  19.2578
    19.4167  19.4664  19.5937  19.6748  19.7153  19.8362  19.8931  19.9287
    20.0021  20.0254  20.1315  20.2208  20.2608  20.3090  20.3457  20.4530
    20.4719  20.4990  20.5856  20.6251  20.6860  20.7283  20.8272  20.8852
    20.9452  21.0425  21.0700  21.1537  21.1870  21.3011  21.3561  21.4131
    21.5086  21.5615  21.6366  21.6763  21.7379  21.7581  21.8338  21.8582
    21.8809

     the Fermi energy is    -0.4816 ev

!    total energy              =   -1727.09799188 Ry
     Harris-Foulkes estimate   =   -1727.09799188 Ry
     estimated scf accuracy    <          6.0E-09 Ry

     The total energy is the sum of the following terms:

     one-electron contribution =  -21895.19663209 Ry
     hartree contribution      =   10970.66117784 Ry
     xc contribution           =    -293.88824753 Ry
     ewald contribution        =    9486.27376049 Ry
     Hubbard energy            =       5.05166530 Ry
     smearing contrib. (-TS)   =       0.00028411 Ry

     convergence has been achieved in   8 iterations

     Forces acting on atoms (Ry/au):

     negative rho (up, down):  0.364E-02 0.000E+00
     atom    1 type  1   force =    -0.02170664   -0.00839772   -0.00039295
     atom    2 type  1   force =    -0.00017101    0.00851655    0.00023121
     atom    3 type  2   force =     0.02035549   -0.01592891    0.00017980
     atom    4 type  2   force =     0.02354456    0.00391388    0.00013453
     atom    5 type  1   force =    -0.00046560   -0.04856723    0.00009522
     atom    6 type  1   force =    -0.00199500    0.05617764    0.00019435
     atom    7 type  1   force =    -0.00037459    0.00367671    0.00018716
     atom    8 type  1   force =     0.03524015   -0.00007241    0.00012907
     atom    9 type  2   force =    -0.04272211    0.00038092    0.00003572
     atom   10 type  2   force =     0.00209200   -0.00018467    0.00016599
     atom   11 type  1   force =     0.00467364    0.02079004   -0.00030171
     atom   12 type  1   force =     0.00474505   -0.02128620   -0.00030384
     atom   13 type  1   force =     0.02317138   -0.00001035   -0.00011454
     atom   14 type  1   force =     0.02319692   -0.00436827   -0.00039658
     atom   15 type  1   force =    -0.00036813    0.00735928    0.00007948
     atom   16 type  2   force =    -0.02137340   -0.01104862    0.00027449
     atom   17 type  2   force =    -0.03651408    0.00223163   -0.00015538
     atom   18 type  1   force =     0.00323864   -0.04718026    0.00010380
     atom   19 type  1   force =     0.00244303    0.04769642    0.00021627
     atom   20 type  1   force =    -0.00017065    0.00478705   -0.00017996
     atom   21 type  1   force =     0.00695817    0.00082386    0.00068953
     atom   22 type  2   force =     0.01490645    0.00026372    0.00011887
     atom   23 type  2   force =     0.00217927    0.00010523    0.00031327
     atom   24 type  1   force =    -0.00667946    0.01958602   -0.00013188
     atom   25 type  1   force =    -0.00669955   -0.01959219   -0.00012036
     atom   26 type  1   force =    -0.02760837   -0.00022908   -0.00024700
     atom   27 type  3   force =     0.00000200    0.00051828    0.00049347
     atom   28 type  3   force =     0.00000251   -0.00009882   -0.00023331
     atom   29 type  3   force =     0.00032658    0.00018975    0.00007885
     atom   30 type  3   force =    -0.00010132   -0.00005106   -0.00043142
     atom   31 type  1   force =    -0.00012591   -0.00000120   -0.00071215

     Total force =     0.001750     Total SCF correction =     0.000100

     bfgs converged in  33 scf cycles and  31 bfgs steps
     (criteria: energy < 0.10E-03, force < 0.10E-02)

     End of BFGS Geometry Optimization

     Final energy   =   -1727.0979918846 Ry
Begin final coordinates

ATOMIC_POSITIONS (crystal)
O0       0.000000000   0.000000000   0.365967648    0   0   1
O0       0.000000000   0.500000000   0.384908040    0   0   1
Mo1      0.250000000   0.500000000   0.443248762    0   0   1
Mo1      0.000000000   0.000000000   0.439622975    0   0   1
O0       0.250000000   0.780000000   0.441411083    0   0   1
O0       0.250000000   0.220000000   0.441035618    0   0   1
O0       0.000000000   0.500000000   0.496505035    0   0   1
O0       0.000000000   0.000000000   0.517388564    0   0   1
Mo1      0.250000000   0.000000000   0.580307132    0   0   1
Mo1      0.000000000   0.500000000   0.571567457    0   0   1
O0       0.250000000   0.720000000   0.573621895    0   0   1
O0       0.250000000   0.280000000   0.573659793    0   0   1
O0       0.000000000   0.000000000   0.624962339    0   0   1
O0       0.500000000   0.000000000   0.370387322    0   0   1
O0       0.500000000   0.500000000   0.384889905    0   0   1
Mo1      0.750000000   0.500000000   0.443221585    0   0   1
Mo1      0.500000000   0.000000000   0.441257501    0   0   1
O0       0.750000000   0.780000000   0.441227405    0   0   1
O0       0.750000000   0.220000000   0.440878735    0   0   1
O0       0.500000000   0.500000000   0.497215205    0   0   1
O0       0.500000000   0.000000000   0.513505328    0   0   1
Mo1      0.750000000   0.000000000   0.567929883    0   0   1
Mo1      0.500000000   0.500000000   0.582184992    0   0   1
O0       0.750000000   0.720000000   0.572226196    0   0   1
O0       0.750000000   0.280000000   0.572216415    0   0   1
O0       0.500000000   0.000000000   0.624399464    0   0   1
H2      -0.000311580   0.607567931   0.361500719
H2       0.499101202   0.606493229   0.361250511
H2       0.164165071   0.022023878   0.351507211
H2       0.667588818   0.017126931   0.355372234
O0       0.503494555   0.500038099   0.644203048
End final coordinates

     General routines

     Parallel routines
     Hubbard U routines

   This run was terminated on:   4:58:40  30Apr2014

   JOB DONE.
Running PBS batch system epilogue script
Job id: 340381.audhumbla.fysik.dtu.dk
Username: zhonxu
Groupname: campgst
Jobname: MoO2/Eads-2-layers/O-U-8.0
Sessionid: 25701
Queuename: verylong
Accounting:
This job has allocated the following 16 nodes:
a027 a027 a027 a027 a027 a027 a027 a027 a017 a017 a017 a017 a017 a017 a017 a017
Finished epilogue job 340381.audhumbla.fysik.dtu.dk for zhonxu