     Program PWSCF v.5.0.2 (svn rev. 9656) starts on 15Mar2014 at  7:48:40

     Current dimensions of program PWSCF are:
     Max number of different atomic species (ntypx) = 10
     Max number of k-points (npk) =  40000
     Max angular momentum in pseudopotentials (lmaxx) =  3
     Reading input from pwscf.in
Warning: card &CELL ignored
Warning: card / ignored

     Subspace diagonalization in iterative solution of the eigenvalue problem:
     a serial algorithm will be used

     Found symmetry operation: I + ( -0.5000  0.0000  0.0000)
     This is a supercell, fractional translations are disabled

     bravais-lattice index     =            0
     lattice parameter (alat)  =      10.7336  a.u.
     unit-cell volume          =    8441.1435 (a.u.)^3
     number of atoms/cell      =           48
     number of atomic types    =            2
     number of electrons       =       432.00
     number of Kohn-Sham states=          624
     kinetic-energy cutoff     =      40.0000  Ry
     charge density cutoff     =     500.0000  Ry
     convergence threshold     =      1.0E-06
     mixing beta               =       0.3000
     number of iterations used =            8  plain     mixing
     Exchange-correlation      = SLA  PW   PBE  PBE ( 1 4 3 4 0)
     EXX-fraction              =        0.00
     nstep                     =           50

     celldm(1)=  10.733644  celldm(2)=   0.000000  celldm(3)=   0.000000
     celldm(4)=   0.000000  celldm(5)=   0.000000  celldm(6)=   0.000000

     crystal axes: (cart. coord. in units of alat)
               a(1) = (   1.000000   0.000000   0.000000 )
               a(2) = (   0.000000   1.085558   0.000000 )
               a(3) = (   0.000000   0.000000   6.287913 )

     reciprocal axes: (cart. coord. in units 2 pi/alat)
               b(1) = (  1.000000  0.000000  0.000000 )
               b(2) = (  0.000000  0.921185  0.000000 )
               b(3) = (  0.000000  0.000000  0.159035 )

     PseudoPot. # 1 for O  read from file:
     /home/camp/zhonxu/pseudo/o_pbe_v1.01.uspp.F.UPF
     MD5 check sum: 2bcb18d16ea4b960afae9ec6d52f22d2
     Pseudo is Ultrasoft + core correction, Zval =  6.0
     Generated by new atomic code, or converted to UPF format
     Using radial grid of  737 points,  5 beta functions with:
                l(1) =   0
                l(2) =   0
                l(3) =   1
                l(4) =   1
                l(5) =   2
     Q(r) pseudized with  8 coefficients,  rinner =    0.900   0.900   0.900
                                                       0.900   0.900

     PseudoPot. # 2 for Mn read from file:
     /home/camp/zhonxu/pseudo/mn_pbe_v1.uspp.F.UPF
     MD5 check sum: 5fd7c7b5c956fd19902447332617373a
     Pseudo is Ultrasoft + core correction, Zval = 15.0
     Generated by new atomic code, or converted to UPF format
     Using radial grid of  859 points,  6 beta functions with:
                l(1) =   0
                l(2) =   0
                l(3) =   1
                l(4) =   1
                l(5) =   2
                l(6) =   2
     Q(r) pseudized with  6 coefficients,  rinner =    1.150   1.150   1.150
                                                       1.150   1.150

     atomic species   valence    mass     pseudopotential
        O0             6.00    15.99940     O ( 1.00)
        Mn1           15.00    54.93800     Mn( 1.00)

     Starting magnetic structure
     atomic species   magnetization
        O0           0.000
        Mn1          0.600

      4 Sym. Ops. (no inversion) found

   Cartesian axes

     site n.     atom                  positions (alat units)
         1           O0  tau(   1) = (   0.0000000   0.5427791   2.1126758  )
         2           Mn1 tau(   2) = (   0.2500000   0.5427791   2.3297975  )
         3           Mn1 tau(   3) = (   0.0000000   0.0000000   2.3297975  )
         4           O0  tau(   4) = (   0.2500000   0.8684466   2.3297975  )
         5           O0  tau(   5) = (   0.2500000   0.2171117   2.3297975  )
         6           O0  tau(   6) = (   0.0000000   0.5427791   2.5469191  )
         7           O0  tau(   7) = (   0.0000000   0.0000000   2.6554485  )
         8           Mn1 tau(   8) = (   0.2500000   0.0000000   2.8725701  )
         9           Mn1 tau(   9) = (   0.0000000   0.5427791   2.8725701  )
        10           O0  tau(  10) = (   0.2500000   0.7598908   2.8725701  )
        11           O0  tau(  11) = (   0.2500000   0.3256675   2.8725701  )
        12           O0  tau(  12) = (   0.0000000   0.0000000   3.0896918  )
        13           O0  tau(  13) = (   0.0000000   0.5427791   3.2113000  )
        14           Mn1 tau(  14) = (   0.2500000   0.5427791   3.4241458  )
        15           Mn1 tau(  15) = (   0.0000000   0.0000000   3.4377277  )
        16           O0  tau(  16) = (   0.2500000   0.8724415   3.4314398  )
        17           O0  tau(  17) = (   0.2500000   0.2131168   3.4314398  )
        18           O0  tau(  18) = (   0.0000000   0.5427791   3.6481842  )
        19           O0  tau(  19) = (   0.0000000   0.0000000   3.7723705  )
        20           Mn1 tau(  20) = (   0.2500000   0.0000000   4.0046460  )
        21           Mn1 tau(  21) = (   0.0000000   0.5427791   3.9722632  )
        22           O0  tau(  22) = (   0.2500000   0.7497191   4.0275968  )
        23           O0  tau(  23) = (   0.2500000   0.3358392   4.0275968  )
        24           O0  tau(  24) = (   0.0000000   0.0000000   4.2044758  )
        25           O0  tau(  25) = (   0.5000000   0.5427791   2.1126758  )
        26           Mn1 tau(  26) = (   0.7500000   0.5427791   2.3297975  )
        27           Mn1 tau(  27) = (   0.5000000   0.0000000   2.3297975  )
        28           O0  tau(  28) = (   0.7500000   0.8684466   2.3297975  )
        29           O0  tau(  29) = (   0.7500000   0.2171117   2.3297975  )
        30           O0  tau(  30) = (   0.5000000   0.5427791   2.5469191  )
        31           O0  tau(  31) = (   0.5000000   0.0000000   2.6554485  )
        32           Mn1 tau(  32) = (   0.7500000   0.0000000   2.8725701  )
        33           Mn1 tau(  33) = (   0.5000000   0.5427791   2.8725701  )
        34           O0  tau(  34) = (   0.7500000   0.7598908   2.8725701  )
        35           O0  tau(  35) = (   0.7500000   0.3256675   2.8725701  )
        36           O0  tau(  36) = (   0.5000000   0.0000000   3.0896918  )
        37           O0  tau(  37) = (   0.5000000   0.5427791   3.2113000  )
        38           Mn1 tau(  38) = (   0.7500000   0.5427791   3.4241458  )
        39           Mn1 tau(  39) = (   0.5000000   0.0000000   3.4377277  )
        40           O0  tau(  40) = (   0.7500000   0.8724415   3.4314398  )
        41           O0  tau(  41) = (   0.7500000   0.2131168   3.4314398  )
        42           O0  tau(  42) = (   0.5000000   0.5427791   3.6481842  )
        43           O0  tau(  43) = (   0.5000000   0.0000000   3.7723705  )
        44           Mn1 tau(  44) = (   0.7500000   0.0000000   4.0046460  )
        45           Mn1 tau(  45) = (   0.5000000   0.5427791   3.9722632  )
        46           O0  tau(  46) = (   0.7500000   0.7497191   4.0275968  )
        47           O0  tau(  47) = (   0.7500000   0.3358392   4.0275968  )
        48           O0  tau(  48) = (   0.5000000   0.0000000   4.2044758  )

     number of k points=    18  Methfessel-Paxton smearing, width (Ry)=  0.0100
                       cart. coord. in units 2pi/alat
        k(    1) = (   0.0000000   0.0000000   0.0000000), wk =   0.0625000
        k(    2) = (   0.0000000   0.2302962   0.0000000), wk =   0.1250000
        k(    3) = (   0.0000000  -0.4605925   0.0000000), wk =   0.0625000
        k(    4) = (   0.2500000   0.0000000   0.0000000), wk =   0.1250000
        k(    5) = (   0.2500000   0.2302962   0.0000000), wk =   0.2500000
        k(    6) = (   0.2500000  -0.4605925   0.0000000), wk =   0.1250000
        k(    7) = (  -0.5000000   0.0000000   0.0000000), wk =   0.0625000
        k(    8) = (  -0.5000000   0.2302962   0.0000000), wk =   0.1250000
        k(    9) = (  -0.5000000  -0.4605925   0.0000000), wk =   0.0625000
        k(   10) = (   0.0000000   0.0000000   0.0000000), wk =   0.0625000
        k(   11) = (   0.0000000   0.2302962   0.0000000), wk =   0.1250000
        k(   12) = (   0.0000000  -0.4605925   0.0000000), wk =   0.0625000
        k(   13) = (   0.2500000   0.0000000   0.0000000), wk =   0.1250000
        k(   14) = (   0.2500000   0.2302962   0.0000000), wk =   0.2500000
        k(   15) = (   0.2500000  -0.4605925   0.0000000), wk =   0.1250000
        k(   16) = (  -0.5000000   0.0000000   0.0000000), wk =   0.0625000
        k(   17) = (  -0.5000000   0.2302962   0.0000000), wk =   0.1250000
        k(   18) = (  -0.5000000  -0.4605925   0.0000000), wk =   0.0625000

     Largest allocated arrays     est. size (Mb)     dimensions
     Largest temporary arrays     est. size (Mb)     dimensions

     Check: negative/imaginary core charge=   -0.000028    0.000000

     Initial potential from superposition of free atoms
     Check: negative starting charge=(component1):   -0.001032
     Check: negative starting charge=(component2):   -0.000254

     starting charge  415.99982, renormalised to  432.00000

     negative rho (up, down):  0.107E-02 0.264E-03
     Starting wfc are  336 randomized atomic wfcs

     Self-consistent Calculation

     iteration #  1     ecut=    40.00 Ry     beta=0.30
     Davidson diagonalization with overlap
     ethr =  1.00E-02,  avg # of iterations =  5.3

     negative rho (up, down):  0.127E-02 0.697E-03

     total energy              =   -4429.98117439 Ry
     Harris-Foulkes estimate   =   -4434.03401093 Ry
     estimated scf accuracy    <      31.93640730 Ry

     total magnetization       =    48.00 Bohr mag/cell
     absolute magnetization    =    59.31 Bohr mag/cell

[...]

     End of self-consistent calculation

 ------ SPIN UP ------------

          k = 0.0000 0.0000 0.0000 ( 36065 PWs)   bands (ev):

   -82.6788 -82.6686 -82.6126 -82.6092 -82.6062 -82.6024 -82.5989 -82.5958
   -82.5736 -82.5631 -82.5194 -82.5091 -82.2159 -82.2058 -82.1985 -82.1881
   -51.5090 -51.4492 -51.4470 -51.4452 -51.3982 -51.3885 -51.3556 -51.3381
   -51.3260 -51.3246 -51.3228 -51.3179 -51.3007 -51.2801 -51.2729 -51.2723
   -51.2682 -51.2679 -51.2592 -51.2580 -51.2575 -51.2479 -51.2372 -51.2347
   -51.2336 -51.2253 -51.2168 -51.1968 -51.1913 -51.1823 -51.1724 -51.1525
   -51.1509 -51.1429 -51.1314 -51.1242 -50.9551 -50.9551 -50.9443 -50.9363
   -50.9068 -50.8985 -50.8343 -50.8305 -50.8234 -50.8047 -50.8043 -50.7854
   -20.5673 -20.3032 -19.9668 -19.8134 -19.4528 -19.1940 -19.0510 -19.0108
   -18.9644 -18.9527 -18.9393 -18.9087 -18.8465 -18.7824 -18.7630 -18.7464
   -18.6614 -18.6576 -18.6490 -18.6235 -18.6030 -18.5915 -18.5869 -18.4998
   -18.4573 -18.4567 -18.3799 -18.1679 -17.7592 -17.6872 -17.3938 -17.2869
    -8.6172  -8.4957  -8.4432  -8.2685  -8.0464  -7.8951  -7.6094  -7.4727
    -7.3239  -7.3139  -7.3124  -7.2459  -7.2018  -7.1277  -7.1185  -7.0872
    -7.0376  -7.0236  -6.9228  -6.8741  -6.8516  -6.8179  -6.7464  -6.6887
[...]

ATOMIC_POSITIONS (crystal)
O0       0.000000000   0.500000000   0.335990000    0   0   0
Mn1      0.250000000   0.500000000   0.370520000    0   0   0
Mn1      0.000000000   0.000000000   0.370520000    0   0   0
O0       0.250000000   0.800000000   0.370520000    0   0   0
O0       0.250000000   0.200000000   0.370520000    0   0   0
O0       0.000000000   0.500000000   0.405050000    0   0   0
O0       0.000000000   0.000000000   0.422310000    0   0   0
Mn1      0.250000000   0.000000000   0.456840000    0   0   0
Mn1      0.000000000   0.500000000   0.456840000    0   0   0
O0       0.250000000   0.700000000   0.456840000    0   0   0
O0       0.250000000   0.300000000   0.456840000    0   0   0
O0       0.000000000   0.000000000   0.491370000    0   0   0
O0       0.000000000   0.500000000   0.511056128
Mn1      0.250000000   0.500000000   0.544871198
Mn1      0.000000000   0.000000000   0.546848236
O0       0.250000000   0.803776994   0.545784087
O0       0.250000000   0.196223006   0.545784087
O0       0.000000000   0.500000000   0.580549893
O0       0.000000000   0.000000000   0.600030295
Mn1      0.250000002   0.000000000   0.636928545
Mn1      0.000000000   0.500000000   0.631851969
O0       0.250000009   0.690440591   0.640476354
O0       0.250000009   0.309559409   0.640476354
O0       0.000000000   0.000000000   0.668691714
O0       0.500000000   0.500000000   0.335990000    0   0   0
Mn1      0.750000000   0.500000000   0.370520000    0   0   0
Mn1      0.500000000   0.000000000   0.370520000    0   0   0
O0       0.750000000   0.800000000   0.370520000    0   0   0
O0       0.750000000   0.200000000   0.370520000    0   0   0
O0       0.500000000   0.500000000   0.405050000    0   0   0
O0       0.500000000   0.000000000   0.422310000    0   0   0
Mn1      0.750000000   0.000000000   0.456840000    0   0   0
Mn1      0.500000000   0.500000000   0.456840000    0   0   0
O0       0.750000000   0.700000000   0.456840000    0   0   0
O0       0.750000000   0.300000000   0.456840000    0   0   0
O0       0.500000000   0.000000000   0.491370000    0   0   0
O0       0.500000000   0.500000000   0.511056128
Mn1      0.750000000   0.500000000   0.544871198
Mn1      0.500000000   0.000000000   0.546848235
O0       0.750000000   0.803776994   0.545784087
O0       0.750000000   0.196223006   0.545784087
O0       0.500000000   0.500000000   0.580549895
O0       0.500000000   0.000000000   0.600030295
Mn1      0.749999998   0.000000000   0.636928545
Mn1      0.500000000   0.500000000   0.631851969
O0       0.749999991   0.690440591   0.640476354
O0       0.749999991   0.309559409   0.640476354
O0       0.500000000   0.000000000   0.668691714

     Check: negative starting charge=(component1):   -0.001277
     NEW-OLD atomic charge density approx. for the potential

     Check: negative/imaginary core charge=   -0.000028    0.000000
     Check: negative starting charge=(component1):   -0.001278

[...]

     Self-consistent Calculation

[...]

     total energy              =   -4439.43205738 Ry
     Harris-Foulkes estimate   =   -4439.43205738 Ry
     estimated scf accuracy    <       0.00000001 Ry

[...]

     iteration # 18     ecut=    40.00 Ry     beta=0.30
     Davidson diagonalization with overlap
     ethr =  3.20E-12,  avg # of iterations =  1.0

     negative rho (up, down):  0.328E-02 0.170E-02

     End of self-consistent calculation

 ------ SPIN UP ------------

[...]

 ------ SPIN DOWN ----------

[...]

          k = 0.2500-0.4606 0.0000 ( 36102 PWs)   bands (ev):

[...]

          k =-0.5000-0.4606 0.0000 ( 36040 PWs)   bands (ev):

   -79.2741 -79.2741 -79.2563 -79.2563 -79.2300 -79.2300 -79.1384 -79.1384
   -79.1339 -79.1339 -79.0741 -79.0741 -78.9561 -78.9561 -78.9195 -78.9195
   -48.1688 -48.1688 -48.1634 -48.1634 -48.0950 -48.0950 -48.0565 -48.0565
   -48.0525 -48.0525 -48.0102 -48.0102 -48.0069 -48.0069 -48.0046 -48.0046
   -47.9908 -47.9908 -47.9817 -47.9817 -47.9742 -47.9742 -47.9726 -47.9726
   -47.9510 -47.9510 -47.9403 -47.9403 -47.9051 -47.9051 -47.8898 -47.8898
   -47.8724 -47.8724 -47.8649 -47.8649 -47.7643 -47.7643 -47.7439 -47.7439
   -47.7176 -47.7176 -47.6693 -47.6693 -47.5979 -47.5979 -47.4941 -47.4941
   -19.4526 -19.4526 -19.4383 -19.4383 -19.2666 -19.2666 -19.1747 -19.1747
   -19.0775 -19.0775 -18.9125 -18.9125 -18.8625 -18.8625 -18.8180 -18.8180
   -18.5311 -18.5311 -18.4677 -18.4677 -18.3785 -18.3785 -18.3686 -18.3686
   -18.1801 -18.1801 -18.1154 -18.1154 -17.5664 -17.5664 -17.2066 -17.2066
    -6.9987  -6.9987  -6.8914  -6.8914  -6.5562  -6.5562  -6.5122  -6.5122
    -6.4235  -6.4235  -6.4162  -6.4162  -6.4080  -6.4080  -6.3039  -6.3039
    -6.2372  -6.2372  -6.1978  -6.1978  -6.1448  -6.1448  -6.1223  -6.1223
    -6.1040  -6.1040  -5.8324  -5.8324  -5.6163  -5.6163  -5.5929  -5.5929
    -5.5583  -5.5583  -5.5581  -5.5581  -5.4005  -5.4005  -5.3611  -5.3611
    -5.0849  -5.0849  -4.8569  -4.8569  -4.7144  -4.7144  -4.6877  -4.6877
    -4.6534  -4.6534  -4.6409  -4.6409  -4.4729  -4.4729  -4.4695  -4.4695
    -4.2153  -4.2153  -4.1422  -4.1422  -4.0475  -4.0475  -4.0218  -4.0218
    -3.9157  -3.9157  -3.8826  -3.8826  -3.6072  -3.6072  -3.4705  -3.4705
    -3.1863  -3.1863  -3.1157  -3.1157  -2.6496  -2.6496  -2.4445  -2.4445
    -2.3696  -2.3696  -2.2931  -2.2931  -2.2028  -2.2028  -2.0364  -2.0364
    -1.8870  -1.8870  -1.8794  -1.8794  -1.7052  -1.7052  -1.6469  -1.6469
     0.1842   0.1842   0.2095   0.2095   0.3157   0.3157   0.3361   0.3361
     0.4346   0.4346   0.5274   0.5274   0.5838   0.5838   0.5932   0.5932
     0.8499   0.8499   0.8792   0.8792   0.9516   0.9516   0.9932   0.9932
     1.1409   1.1409   1.1874   1.1874   1.2037   1.2037   1.2390   1.2390
     1.3201   1.3201   1.3284   1.3284   1.3962   1.3962   1.4108   1.4108
     1.4683   1.4683   1.5157   1.5157   1.6192   1.6192   1.6517   1.6517
     2.0798   2.0798   2.1982   2.1982   2.2078   2.2078   2.3195   2.3195
     2.3436   2.3436   2.5528   2.5528   2.6158   2.6158   2.6420   2.6420
     3.2105   3.2105   3.3039   3.3039   3.5278   3.5278   3.5850   3.5850
     3.9478   3.9478   3.9826   3.9826   4.1434   4.1434   4.2138   4.2138
     6.3692   6.3692   7.0092   7.0092   7.3903   7.3903   7.4518   7.4518
     7.6067   7.6067   7.6274   7.6274   7.9271   7.9271   7.9677   7.9677
     8.3780   8.3780   8.4393   8.4393   8.9481   8.9481   9.0220   9.0220
     9.6118   9.6118   9.6553   9.6553  10.0997  10.0997  10.1861  10.1861
    10.4456  10.4456  10.4736  10.4736  11.0162  11.0162  11.0464  11.0464
    11.2249  11.2249  11.3005  11.3005  11.9506  11.9506  11.9663  11.9663
    12.2098  12.2098  12.2275  12.2275  12.9757  12.9757  12.9990  12.9990
    13.2867  13.2867  13.3091  13.3091  13.8475  13.8475  13.8719  13.8719
    14.2776  14.2776  14.2968  14.2968  14.3368  14.3368  14.4505  14.4505
    14.4850  14.4850  14.6255  14.6255  14.6439  14.6439  14.7261  14.7261
    14.8570  14.8570  14.9769  14.9769  15.0247  15.0247  15.0501  15.0501
    15.1322  15.1322  15.1729  15.1729  15.2278  15.2278  15.2941  15.2941
    15.3875  15.3875  15.4014  15.4014  15.5136  15.5136  15.5493  15.5493
    15.6251  15.6251  15.6626  15.6626  15.9421  15.9421  15.9501  15.9501
    16.0351  16.0351  16.1427  16.1427  16.1797  16.1797  16.2632  16.2632
    16.4023  16.4023  16.4383  16.4383  16.4945  16.4945  16.5773  16.5773
    16.6761  16.6761  16.7441  16.7441  16.7642  16.7642  16.7952  16.7952
    16.9223  16.9223  16.9386  16.9386  17.0171  17.0171  17.0499  17.0499
    17.1557  17.1557  17.1835  17.1835  17.3195  17.3195  17.3579  17.3579
    17.5035  17.5035  17.5166  17.5166  17.5810  17.5810  17.5880  17.5880
    17.6988  17.6988  17.7339  17.7339  17.9414  17.9414  18.1010  18.1010
    18.1097  18.1097  18.1977  18.1977  18.2964  18.2964  18.3237  18.3237
    18.4410  18.4410  18.4659  18.4659  18.5605  18.5605  18.7142  18.7142
    18.8264  18.8264  18.8857  18.8857  19.0210  19.0210  19.0476  19.0476
    19.1582  19.1582  19.1589  19.1589  19.4564  19.4564  19.5549  19.5549
    19.6626  19.6626  19.7952  19.7952  19.8585  19.8585  19.9002  19.9002
[...]
    21.7904  21.7904  21.8538  21.8538  22.0127  22.0127  22.1228  22.1228
    22.2851  22.2851  22.3901  22.3901  22.4805  22.4805  22.5091  22.5091
    23.2066  23.2066  23.2281  23.2281  23.3456  23.3456  23.3607  23.3607
    23.5054  23.5054  23.6388  23.6388  23.8649  23.8649  23.9169  23.9169
    24.2304  24.2304  24.2947  24.2947  24.4503  24.4503  24.5187  24.5187
    24.5722  24.5722  24.6553  24.6553  24.7794  24.7794  24.8112  24.8112
    24.8599  24.8599  24.9278  24.9278  24.9635  24.9635  25.0185  25.0185
    25.0690  25.0690  25.1475  25.1475  25.3470  25.3470  25.4044  25.4044
    25.4699  25.4699  25.6359  25.6359  25.6446  25.6446  25.6888  25.6888
    25.8188  25.8188  25.9406  25.9406  25.9657  25.9657  26.0537  26.0537
    26.0752  26.0752  26.1685  26.1685  26.2394  26.2394  26.3134  26.3134
    26.4055  26.4055  26.4321  26.4321  26.4766  26.4766  26.5974  26.5974
    26.6079  26.6079  26.6564  26.6564  26.7589  26.7589  26.7900  26.7900
    26.9584  26.9584  27.1284  27.1284  27.2369  27.2369  27.2437  27.2437
    27.3725  27.3725  27.5825  27.5825  27.7295  27.7295  27.7601  27.7601

     the Fermi energy is    -0.4444 ev

!    total energy              =   -4439.43205738 Ry
     Harris-Foulkes estimate   =   -4439.43205738 Ry
     estimated scf accuracy    <          3.3E-09 Ry

     The total energy is the sum of the following terms:

     one-electron contribution =  -91675.15117726 Ry
     hartree contribution      =   45880.73047879 Ry
     xc contribution           =    -648.17465678 Ry
     ewald contribution        =   42003.16385276 Ry
     smearing contrib. (-TS)   =      -0.00055489 Ry

     total magnetization       =    48.01 Bohr mag/cell
     absolute magnetization    =    49.73 Bohr mag/cell

     convergence has been achieved in  18 iterations

     Forces acting on atoms (Ry/au):

     negative rho (up, down):  0.328E-02 0.170E-02
     atom    1 type  1   force =     0.00000000    0.00000000    0.05036466
     atom    2 type  2   force =    -0.00000000    0.00000000   -0.08519588
     atom    3 type  2   force =     0.00000000    0.00000000    0.04892954
     atom    4 type  1   force =    -0.00000000    0.05114753   -0.04334115
     atom    5 type  1   force =    -0.00000000   -0.05114753   -0.04334115
     atom    6 type  1   force =     0.00000000    0.00000000    0.01070313
     atom    7 type  1   force =     0.00000000    0.00000000    0.00737340
     atom    8 type  2   force =    -0.00000000    0.00000000    0.03112875
     atom    9 type  2   force =     0.00000000    0.00000000    0.00083514
     atom   10 type  1   force =     0.00000000   -0.03261896    0.00517306
     atom   11 type  1   force =     0.00000000    0.03261896    0.00517306
     atom   12 type  1   force =     0.00000000    0.00000000    0.00848569
     atom   13 type  1   force =     0.00000000    0.00000000   -0.00063690
     atom   14 type  2   force =    -0.00000001    0.00000000   -0.00018342
     atom   15 type  2   force =     0.00000000    0.00000000    0.00008052
     atom   16 type  1   force =     0.00000000   -0.00003623    0.00054321
     atom   17 type  1   force =     0.00000000    0.00003623    0.00054321
     atom   18 type  1   force =     0.00000000    0.00000000   -0.00000824
     atom   19 type  1   force =     0.00000000    0.00000000    0.00007656
     atom   20 type  2   force =    -0.00000001    0.00000000    0.00036240
     atom   21 type  2   force =     0.00000000    0.00000000    0.00079134
     atom   22 type  1   force =    -0.00000003    0.00022065    0.00087952
     atom   23 type  1   force =    -0.00000003   -0.00022065    0.00087952
     atom   24 type  1   force =     0.00000000    0.00000000    0.00038404
     atom   25 type  1   force =     0.00000000    0.00000000    0.05036466
     atom   26 type  2   force =     0.00000000    0.00000000   -0.08519588
     atom   27 type  2   force =     0.00000000    0.00000000    0.04892954
     atom   28 type  1   force =     0.00000000    0.05114753   -0.04334115
     atom   29 type  1   force =     0.00000000   -0.05114753   -0.04334115
     atom   30 type  1   force =     0.00000000    0.00000000    0.01070313
     atom   31 type  1   force =     0.00000000    0.00000000    0.00737340
     atom   32 type  2   force =     0.00000000    0.00000000    0.03112875
     atom   33 type  2   force =     0.00000000    0.00000000    0.00083514
     atom   34 type  1   force =    -0.00000000   -0.03261896    0.00517306
     atom   35 type  1   force =    -0.00000000    0.03261896    0.00517306
     atom   36 type  1   force =     0.00000000    0.00000000    0.00848569
     atom   37 type  1   force =     0.00000000    0.00000000   -0.00063689
     atom   38 type  2   force =     0.00000001    0.00000000   -0.00018342
     atom   39 type  2   force =     0.00000000    0.00000000    0.00008053
     atom   40 type  1   force =    -0.00000000   -0.00003623    0.00054321
     atom   41 type  1   force =    -0.00000000    0.00003623    0.00054321
     atom   42 type  1   force =     0.00000000    0.00000000   -0.00000828
     atom   43 type  1   force =     0.00000000    0.00000000    0.00007654
     atom   44 type  2   force =     0.00000001    0.00000000    0.00036240
     atom   45 type  2   force =     0.00000000    0.00000000    0.00079133
     atom   46 type  1   force =     0.00000003    0.00022065    0.00087952
     atom   47 type  1   force =     0.00000003   -0.00022065    0.00087952
     atom   48 type  1   force =     0.00000000    0.00000000    0.00038407

     Total force =     0.002681     Total SCF correction =     0.000138

     bfgs converged in   6 scf cycles and   5 bfgs steps
     (criteria: energy < 0.10E-03, force < 0.10E-02)

     End of BFGS Geometry Optimization

     Final energy   =   -4439.4320573847 Ry
Begin final coordinates

ATOMIC_POSITIONS (crystal)
O0       0.000000000   0.500000000   0.335990000    0   0   0
Mn1      0.250000000   0.500000000   0.370520000    0   0   0
Mn1      0.000000000   0.000000000   0.370520000    0   0   0
O0       0.250000000   0.800000000   0.370520000    0   0   0
O0       0.250000000   0.200000000   0.370520000    0   0   0
O0       0.000000000   0.500000000   0.405050000    0   0   0
O0       0.000000000   0.000000000   0.422310000    0   0   0
Mn1      0.250000000   0.000000000   0.456840000    0   0   0
Mn1      0.000000000   0.500000000   0.456840000    0   0   0
O0       0.250000000   0.700000000   0.456840000    0   0   0
O0       0.250000000   0.300000000   0.456840000    0   0   0
O0       0.000000000   0.000000000   0.491370000    0   0   0
O0       0.000000000   0.500000000   0.511056128
Mn1      0.250000000   0.500000000   0.544871198
Mn1      0.000000000   0.000000000   0.546848236
O0       0.250000000   0.803776994   0.545784087
O0       0.250000000   0.196223006   0.545784087
O0       0.000000000   0.500000000   0.580549893
O0       0.000000000   0.000000000   0.600030295
Mn1      0.250000002   0.000000000   0.636928545
Mn1      0.000000000   0.500000000   0.631851969
O0       0.250000009   0.690440591   0.640476354
O0       0.250000009   0.309559409   0.640476354
O0       0.000000000   0.000000000   0.668691714
O0       0.500000000   0.500000000   0.335990000    0   0   0
Mn1      0.750000000   0.500000000   0.370520000    0   0   0
Mn1      0.500000000   0.000000000   0.370520000    0   0   0
O0       0.750000000   0.800000000   0.370520000    0   0   0
O0       0.750000000   0.200000000   0.370520000    0   0   0
O0       0.500000000   0.500000000   0.405050000    0   0   0
O0       0.500000000   0.000000000   0.422310000    0   0   0
Mn1      0.750000000   0.000000000   0.456840000    0   0   0
Mn1      0.500000000   0.500000000   0.456840000    0   0   0
O0       0.750000000   0.700000000   0.456840000    0   0   0
O0       0.750000000   0.300000000   0.456840000    0   0   0
O0       0.500000000   0.000000000   0.491370000    0   0   0
O0       0.500000000   0.500000000   0.511056128
Mn1      0.750000000   0.500000000   0.544871198
Mn1      0.500000000   0.000000000   0.546848235
O0       0.750000000   0.803776994   0.545784087
O0       0.750000000   0.196223006   0.545784087
O0       0.500000000   0.500000000   0.580549895
O0       0.500000000   0.000000000   0.600030295
Mn1      0.749999998   0.000000000   0.636928545
Mn1      0.500000000   0.500000000   0.631851969
O0       0.749999991   0.690440591   0.640476354
O0       0.749999991   0.309559409   0.640476354
O0       0.500000000   0.000000000   0.668691714
End final coordinates

     General routines

     Parallel routines

   This run was terminated on:  10: 8:57  16Mar2014

   JOB DONE.