     Program PWSCF v.5.0.2 (svn rev. 9656) starts on 27Feb2014 at 16:58: 3

     Current dimensions of program PWSCF are:
     Max number of different atomic species (ntypx) = 10
     Max number of k-points (npk) =  40000
     Max angular momentum in pseudopotentials (lmaxx) =  3
     Reading input from bare.in
Warning: card &CELL ignored
Warning: card / ignored

     Subspace diagonalization in iterative solution of the eigenvalue problem:
     a serial algorithm will be used

     Found symmetry operation: I + ( -0.5000  0.0000  0.0000)
     This is a supercell, fractional translations are disabled

     bravais-lattice index     =            0
     lattice parameter (alat)  =      10.3179  a.u.
     unit-cell volume          =    6964.3238 (a.u.)^3
     number of atoms/cell      =           30
     number of atomic types    =            3
     number of electrons       =       224.00
     number of Kohn-Sham states=          336
     kinetic-energy cutoff     =      40.0000  Ry
     charge density cutoff     =     500.0000  Ry
     convergence threshold     =      1.0E-06
     mixing beta               =       0.3000
     number of iterations used =            8  plain     mixing
     Exchange-correlation      = SLA  PW   PBE  PBE ( 1 4 3 4 0)
     EXX-fraction              =        0.00
     nstep                     =           50

     celldm(1)=  10.317905  celldm(2)=   0.000000  celldm(3)=   0.000000
     celldm(4)=   0.000000  celldm(5)=   0.000000  celldm(6)=   0.000000

     crystal axes: (cart. coord. in units of alat)
               a(1) = (   1.000000   0.000000   0.000000 )
               a(2) = (   0.000000   1.282117   0.000000 )
               a(3) = (   0.000000   0.000000   4.945120 )

     reciprocal axes: (cart. coord. in units 2 pi/alat)
               b(1) = (  1.000000  0.000000  0.000000 )
               b(2) = (  0.000000  0.779960  0.000000 )
               b(3) = (  0.000000  0.000000  0.202220 )

     PseudoPot. # 1 for O  read from file:
     /home/camp/zhonxu/pseudo/o_pbe_v1.01.uspp.F.UPF
     MD5 check sum: 2bcb18d16ea4b960afae9ec6d52f22d2
     Pseudo is Ultrasoft + core correction, Zval =  6.0
     Generated by new atomic code, or converted to UPF format
     Using radial grid of  737 points,  5 beta functions with:
                l(1) =   0
                l(2) =   0
                l(3) =   1
                l(4) =   1
                l(5) =   2
     Q(r) pseudized with  8 coefficients,  rinner =    0.900   0.900   0.900
                                                       0.900   0.900

     PseudoPot. # 2 for Mo read from file:
     /home/camp/zhonxu/pseudo/mo_pbe_v1.uspp.F.UPF
     MD5 check sum: 30c4dcd161f5d35cd49bb5239c51a633
     Pseudo is Ultrasoft + core correction, Zval = 14.0
     Generated by new atomic code, or converted to UPF format
     Using radial grid of  889 points,  6 beta functions with:
                l(1) =   0
                l(2) =   0
                l(3) =   1
                l(4) =   1
                l(5) =   2
                l(6) =   2
     Q(r) pseudized with  6 coefficients,  rinner =    1.000   1.000   1.000
                                                       1.000   1.000

     PseudoPot. # 3 for H  read from file:
     /home/camp/zhonxu/pseudo/h_pbe_v1.uspp.F.UPF
     MD5 check sum: 3408e3ff4ec8b0a4e358431e7e038a48
     Pseudo is Ultrasoft, Zval =  1.0
     Generated by new atomic code, or converted to UPF format
     Using radial grid of  615 points,  2 beta functions with:
                l(1) =   0
                l(2) =   0
     Q(r) pseudized with  8 coefficients,  rinner =    0.700

     atomic species   valence    mass     pseudopotential
        O0             6.00    15.99940     O ( 1.00)
        Mo1           14.00    95.94000     Mo( 1.00)
        H2             1.00     1.00794     H ( 1.00)

     No symmetry found

   Cartesian axes

     site n.     atom                  positions (alat units)
         1           O0  tau(   1) = (   0.0000000   0.0000000   1.8465574  )
         2           O0  tau(   2) = (   0.0000000   0.6410583   1.8808271  )
         3           Mo1 tau(   3) = (   0.2500000   0.6410583   2.1650231  )
         4           Mo1 tau(   4) = (   0.0000000   0.0000000   2.2064633  )
         5           O0  tau(   5) = (   0.2500000   1.0000510   2.1927158  )
         6           O0  tau(   6) = (   0.2500000   0.2820657   2.1921224  )
         7           O0  tau(   7) = (   0.0000000   0.6410583   2.4520379  )
         8           O0  tau(   8) = (   0.0000000   0.0000000   2.5658746  )
         9           Mo1 tau(   9) = (   0.2500000   0.0000000   2.8596642  )
        10           Mo1 tau(  10) = (   0.0000000   0.6410583   2.7884050  )
        11           O0  tau(  11) = (   0.2500000   0.9231240   2.8369661  )
        12           O0  tau(  12) = (   0.2500000   0.3589927   2.8372628  )
        13           O0  tau(  13) = (   0.0000000   0.0000000   3.1104807  )
        14           O0  tau(  14) = (   0.5000000   0.0000000   1.8465574  )
        15           O0  tau(  15) = (   0.5000000   0.6410583   1.8808271  )
        16           Mo1 tau(  16) = (   0.7500000   0.6410583   2.1650231  )
        17           Mo1 tau(  17) = (   0.5000000   0.0000000   2.2064633  )
        18           O0  tau(  18) = (   0.7500000   1.0000510   2.1927158  )
        19           O0  tau(  19) = (   0.7500000   0.2820657   2.1921224  )
        20           O0  tau(  20) = (   0.5000000   0.6410583   2.4520379  )
        21           O0  tau(  21) = (   0.5000000   0.0000000   2.5658746  )
        22           Mo1 tau(  22) = (   0.7500000   0.0000000   2.8596642  )
        23           Mo1 tau(  23) = (   0.5000000   0.6410583   2.7884050  )
        24           O0  tau(  24) = (   0.7500000   0.9231240   2.8369661  )
        25           O0  tau(  25) = (   0.7500000   0.3589927   2.8372628  )
        26           O0  tau(  26) = (   0.5000000   0.0000000   3.1104807  )
        27           H2  tau(  27) = (  -0.0004900   0.7868222   1.7746059  )
        28           H2  tau(  28) = (   0.4995100   0.7868222   1.7746059  )
        29           H2  tau(  29) = (   0.1657500   0.0265270   1.7749026  )
        30           H2  tau(  30) = (   0.6657500   0.0265270   1.7749026  )

     number of k points=    10  Methfessel-Paxton smearing, width (Ry)=  0.0100
                       cart. coord. in units 2pi/alat
        k(    1) = (   0.0000000   0.0000000   0.0000000), wk =   0.1250000
        k(    2) = (   0.0000000   0.1949901   0.0000000), wk =   0.2500000
        k(    3) = (   0.0000000  -0.3899801   0.0000000), wk =   0.1250000
        k(    4) = (   0.2500000   0.0000000   0.0000000), wk =   0.2500000
        k(    5) = (   0.2500000   0.1949901   0.0000000), wk =   0.2500000
        k(    6) = (   0.2500000  -0.3899801   0.0000000), wk =   0.2500000
        k(    7) = (  -0.5000000   0.0000000   0.0000000), wk =   0.1250000
        k(    8) = (  -0.5000000   0.1949901   0.0000000), wk =   0.2500000
        k(    9) = (  -0.5000000  -0.3899801   0.0000000), wk =   0.1250000
        k(   10) = (  -0.2500000   0.1949901   0.0000000), wk =   0.2500000

     Largest allocated arrays     est. size (Mb)     dimensions
     Largest temporary arrays     est. size (Mb)     dimensions

     Check: negative/imaginary core charge=   -0.000003    0.000000

     Initial potential from superposition of free atoms
     Check: negative starting charge=   -0.002478

     starting charge  223.99143, renormalised to  224.00000

     negative rho (up, down):  0.248E-02 0.000E+00
     Starting wfc are  180 randomized atomic wfcs

     Self-consistent Calculation

     iteration #  1     ecut=    40.00 Ry     beta=0.30
     Davidson diagonalization with overlap
     ethr =  1.00E-02,  avg # of iterations =  6.4

     negative rho (up, down):  0.254E-02 0.000E+00

     total energy              =   -1698.53664212 Ry
     Harris-Foulkes estimate   =   -1702.10326835 Ry
     estimated scf accuracy    <       8.23790755 Ry

[...]

     total energy              =   -1700.22910703 Ry
     Harris-Foulkes estimate   =   -1700.22910720 Ry
     estimated scf accuracy    <       0.00000212 Ry

     iteration # 18     ecut=    40.00 Ry     beta=0.30
     Davidson diagonalization with overlap
     ethr =  9.45E-10,  avg # of iterations =  1.0

     negative rho (up, down):  0.351E-02 0.000E+00

     End of self-consistent calculation

          k = 0.0000 0.0000 0.0000 ( 29769 PWs)   bands (ev):

   -62.4165 -62.3438 -62.3023 -62.2949 -62.2286 -62.2008 -62.1860 -62.0844
   -37.1172 -36.8246 -36.8203 -36.7777 -36.7605 -36.7473 -36.6729 -36.6330
   -36.5365 -36.5319 -36.4229 -36.4175 -36.3839 -36.3798 -36.3608 -36.3549
   -36.2437 -36.2296 -36.1698 -36.1569 -36.0261 -35.7899 -35.7482 -35.6791
   -20.8608 -20.5164 -20.0750 -19.8884 -19.7567 -19.4959 -19.4746 -19.1385
   -19.0315 -19.0198 -19.0078 -18.9980 -18.8331 -18.7989 -18.6303 -18.6203
   -18.0172 -17.7845  -8.9187  -8.6424  -8.3115  -8.2924  -8.1779  -7.6948
    -7.3957  -7.3078  -7.2444  -7.0138  -7.0026  -6.9350  -6.8471  -6.8461
    -6.5766  -6.4530  -6.3059  -6.2690  -6.2249  -6.0930  -6.0836  -5.8504
    -5.8027  -5.3231  -5.2887  -5.1267  -5.1039  -4.9874  -4.9043  -4.8729
    -4.7586  -4.6588  -4.6079  -4.5463  -4.4853  -4.3778  -4.1884  -4.1137
    -3.9713  -3.9094  -3.8591  -3.6398  -3.6227  -3.4080  -3.2523  -3.2212
    -3.1897  -3.0945  -3.0470  -3.0057  -2.8130  -2.7207  -2.5405  -2.5009
    -2.3997  -2.3578  -2.1126  -0.5284  -0.3970  -0.2570   0.0759   0.1752
     0.2136   0.5894   0.6377   0.7482   0.8262   1.0351   1.0861   1.3042
     1.3748   1.5104   1.6818   1.9844   2.0484   2.6616   2.9327   3.0513
     3.0978   3.1056   3.1994   3.5306   3.9019   3.9148   4.2324   4.2691
     4.3117   4.4857   4.5433   4.5610   4.6668   4.7137   4.7248   4.9295
     5.1116   5.2115   5.2205   5.3741   5.8840   6.2214   6.2250   6.4779
     6.9490   7.1801   7.2383   7.3906   7.4885   7.5914   7.7446   7.8830
     7.9162   8.0062   8.2256   8.2986   8.4970   8.6444   8.7067   8.7771
     8.7996   9.0430   9.1045   9.2277   9.2807   9.3983   9.5123   9.6071
     9.6806   9.7432   9.7617   9.8272   9.9214   9.9341  10.0476  10.1675
    10.3189  10.4069  10.4764  10.5070  10.6946  10.7851  10.9178  10.9658
    11.1396  11.2544  11.5223  11.5271  11.5650  11.6709  11.7300  11.7942
    11.7948  11.9086  12.0119  12.2758  12.2963  12.3804  12.4724  12.4845
    12.5513  12.5803  12.6026  12.6636  12.6774  12.7645  12.8308  12.8706
    12.9640  13.0010  13.0194  13.3169  13.3233  13.3353  13.3822  13.4991
    13.5587  13.5805  13.5861  13.7692  13.8262  13.8387  13.8999  14.0034
    14.0272  14.1681  14.3137  14.3319  14.3973  14.5462  14.6219  14.8318
    14.8373  14.9064  14.9411  15.0372  15.0755  15.1842  15.3177  15.4351
    15.4522  15.5695  15.6542  15.6723  15.6882  15.8456  15.8680  15.9312
    16.0436  16.0986  16.1264  16.1924  16.1982  16.3152  16.4275  16.5714
    16.5994  16.6516  16.6944  16.7503  16.7558  16.8114  16.8184  17.0385
    17.0653  17.1450  17.1525  17.2652  17.5845  17.6241  17.7351  17.7663
    17.8752  17.9906  18.0150  18.1012  18.1487  18.2941  18.3452  18.4638
    18.4935  18.5047  18.5902  18.6530  18.7262  18.8638  18.8669  18.8998
    19.1093  19.1157  19.3241  19.3594  19.4223  19.4659  19.5682  19.6039
    19.6559  19.6698  19.7087  19.9018  19.9586  20.0906  20.1911  20.3224
    20.3482  20.3881  20.4233  20.4560  20.6734  20.6775  20.7504  20.7739
    20.8505  20.9526  21.0157  21.2249  21.2621  21.4463  21.4944  21.5549
    21.5614  21.5820  21.5914  21.6429  21.6622  21.7473  21.7494  21.7714

[...]

          k = 0.2500-0.3900 0.0000 ( 29726 PWs)   bands (ev):

[...]

          k =-0.5000 0.0000 0.0000 ( 29752 PWs)   bands (ev):

[...]

          k =-0.2500 0.1950 0.0000 ( 29746 PWs)   bands (ev):

   -62.3989 -62.3271 -62.3129 -62.2855 -62.2456 -62.2032 -62.1839 -62.1016
   -36.9675 -36.8041 -36.7336 -36.7286 -36.6844 -36.6732 -36.6107 -36.5662
   -36.5165 -36.4880 -36.4341 -36.4062 -36.3771 -36.3756 -36.3535 -36.3374
   -36.2720 -36.2562 -36.1994 -36.1907 -36.1899 -35.9492 -35.9071 -35.8398
   -20.7637 -20.5214 -19.9075 -19.6845 -19.6423 -19.6012 -19.4151 -19.3384
   -19.2631 -19.0679 -19.0415 -18.8636 -18.8230 -18.7913 -18.6345 -18.5928
   -18.0729 -17.9246  -8.7437  -8.6315  -7.9832  -7.7116  -7.6182  -7.5912
    -7.5158  -7.3206  -7.3195  -7.2288  -7.1352  -7.0347  -6.9069  -6.8410
    -6.6153  -6.2633  -6.2046  -6.0967  -6.0657  -5.9321  -5.8301  -5.8181
    -5.6634  -5.5571  -5.4048  -5.3332  -5.2494  -5.2326  -5.0182  -4.8775
    -4.7220  -4.6146  -4.5955  -4.4748  -4.3789  -4.3106  -4.3095  -4.1752
    -4.1708  -4.0977  -4.0609  -3.8636  -3.7948  -3.6830  -3.4893  -3.3510
    -3.3166  -3.2485  -3.1864  -3.0495  -2.9888  -2.7520  -2.6485  -2.4552
    -1.6086  -1.4472  -1.3174  -0.6455  -0.5262  -0.2877  -0.2738   0.1101
     0.2000   0.5693   0.7800   0.8225   1.0009   1.0385   1.1797   1.3991
     1.4411   1.4668   1.6162   1.6864   1.9477   1.9606   2.0094   2.1261
     2.3868   2.4529   3.3364   3.4713   3.6786   3.6935   3.8874   4.0212
     4.3195   4.3456   4.5670   4.6076   4.7225   4.8638   4.9593   5.1906
     5.5444   5.6696   5.7654   5.9024   5.9275   6.0833   6.2934   6.4194
     6.5677   6.6698   6.9613   6.9961   7.1159   7.2825   7.5209   7.6119
     7.9339   7.9403   8.1781   8.2790   8.2920   8.4768   8.6452   8.6464
     8.9134   8.9906   9.0670   9.2864   9.4004   9.4281   9.5094   9.5406
     9.5747   9.6080   9.8380   9.9736  10.0315  10.1792  10.2196  10.2777
    10.4785  10.4819  10.6116  10.7124  10.7327  10.9199  11.0518  11.0782
    11.0853  11.2407  11.5223  11.6018  11.6094  11.7384  11.7996  11.9211
    11.9510  12.0831  12.2644  12.3166  12.3391  12.3718  12.4540  12.5796
    12.6844  12.7338  12.8388  12.8924  12.9633  13.0499  13.1096  13.1891
    13.3199  13.4189  13.4328  13.4914  13.5142  13.6247  13.6674  13.7196
    13.8501  13.8804  13.9626  13.9960  14.1231  14.1570  14.2534  14.3455
    14.3926  14.4500  14.5084  14.5728  14.6104  14.7327  14.8384  14.8464
    14.9467  15.0350  15.0468  15.2033  15.2883  15.3844  15.4946  15.5338
    15.6367  15.6570  15.7465  15.8104  15.8830  15.9456  16.0311  16.0920
    16.1827  16.2652  16.2890  16.3320  16.3701  16.4448  16.5818  16.6847
    16.7097  16.7698  16.7750  16.8867  17.0111  17.0865  17.1730  17.1873
    17.2174  17.3092  17.3422  17.3998  17.4999  17.6815  17.6945  17.7877
    17.8968  17.9142  18.0836  18.0997  18.1809  18.2178  18.3179  18.3440
    18.4162  18.4335  18.5204  18.5468  18.6086  18.7780  18.8639  18.9895
    19.0616  19.1134  19.1397  19.2457  19.2904  19.4974  19.5537  19.5999
    19.6938  19.7651  19.7913  19.8977  19.9675  20.0444  20.1281  20.1402
    20.2052  20.2609  20.3271  20.3618  20.4100  20.4239  20.4940  20.5173
    20.6473  20.6943  20.7319  20.8132  20.9258  20.9695  21.0208  21.0568
    21.1085  21.1904  21.2048  21.2927  21.4290  21.4774  21.5560  21.6440

     the Fermi energy is     0.1215 ev

!    total energy              =   -1700.22910701 Ry
     Harris-Foulkes estimate   =   -1700.22910720 Ry
     estimated scf accuracy    <       0.00000031 Ry

     The total energy is the sum of the following terms:

     one-electron contribution =  -21422.62720656 Ry
     hartree contribution      =   10732.63063880 Ry
     xc contribution           =    -286.60227212 Ry
     ewald contribution        =    9276.37126585 Ry
     smearing contrib. (-TS)   =      -0.00153297 Ry

     convergence has been achieved in  18 iterations

     Forces acting on atoms (Ry/au):

     negative rho (up, down):  0.351E-02 0.000E+00
     atom    1 type  1   force =    -0.00289743   -0.00554034   -0.00091157
     atom    2 type  1   force =    -0.00006017    0.00997517    0.00060474
     atom    3 type  2   force =    -0.00031906   -0.00552966    0.00036720
     atom    4 type  2   force =    -0.00064322    0.00353735   -0.00052188
     atom    5 type  1   force =     0.00172163    0.00466092    0.00003026
     atom    6 type  1   force =    -0.00004671   -0.00741603    0.00005921
     atom    7 type  1   force =     0.00024872    0.00055880   -0.00000335
     atom    8 type  1   force =     0.00307090    0.00063653    0.00029638
     atom    9 type  2   force =    -0.00198822   -0.00038320    0.00070623
     atom   10 type  2   force =     0.00002008    0.00080736   -0.00004604
     atom   11 type  1   force =    -0.00023404   -0.05218729   -0.00059540
     atom   12 type  1   force =     0.00030020    0.05143599   -0.00061729
     atom   13 type  1   force =     0.00000283    0.00016723    0.00041328
     atom   14 type  1   force =    -0.00289349   -0.00554087   -0.00089992
     atom   15 type  1   force =    -0.00005304    0.00997167    0.00058786
     atom   16 type  2   force =    -0.00032027   -0.00553029    0.00036804
     atom   17 type  2   force =    -0.00064541    0.00353760   -0.00052245
     atom   18 type  1   force =     0.00171979    0.00465518    0.00003062
     atom   19 type  1   force =    -0.00005034   -0.00741127    0.00005895
     atom   20 type  1   force =     0.00025463    0.00055844   -0.00000644
     atom   21 type  1   force =     0.00306691    0.00063750    0.00028865
     atom   22 type  2   force =    -0.00197971   -0.00038323    0.00070789
     atom   23 type  2   force =     0.00001933    0.00080704   -0.00003707
     atom   24 type  1   force =    -0.00021445   -0.05218985   -0.00059624
     atom   25 type  1   force =     0.00032080    0.05143811   -0.00061839
     atom   26 type  1   force =    -0.00000355    0.00016638    0.00043568
     atom   27 type  3   force =    -0.00000002   -0.00052543   -0.00014531
     atom   28 type  3   force =    -0.00000002   -0.00052477   -0.00014671
     atom   29 type  3   force =     0.00080224   -0.00019454    0.00035712
     atom   30 type  3   force =     0.00080109   -0.00019451    0.00035595

     Total force =     0.002897     Total SCF correction =     0.002320
     SCF correction compared to forces is large: reduce conv_thr to get better values

     BFGS Geometry Optimization

     bfgs converged in   1 scf cycles and   0 bfgs steps
     (criteria: energy < 0.10E-03, force < 0.10E-02)

     End of BFGS Geometry Optimization

     Final energy   =   -1700.2291070098 Ry
Begin final coordinates

ATOMIC_POSITIONS (crystal)
O0       0.000000000   0.000000000   0.373410000    0   0   1
O0       0.000000000   0.500000000   0.380340000    0   0   1
Mo1      0.250000000   0.500000000   0.437810000    0   0   1
Mo1      0.000000000   0.000000000   0.446190000    0   0   1
O0       0.250000000   0.780000000   0.443410000    0   0   1
O0       0.250000000   0.220000000   0.443290000    0   0   1
O0       0.000000000   0.500000000   0.495850000    0   0   1
O0       0.000000000   0.000000000   0.518870000    0   0   1
Mo1      0.250000000   0.000000000   0.578280000    0   0   1
Mo1      0.000000000   0.500000000   0.563870000    0   0   1
O0       0.250000000   0.720000000   0.573690000    0   0   1
O0       0.250000000   0.280000000   0.573750000    0   0   1
O0       0.000000000   0.000000000   0.629000000    0   0   1
O0       0.500000000   0.000000000   0.373410000    0   0   1
O0       0.500000000   0.500000000   0.380340000    0   0   1
Mo1      0.750000000   0.500000000   0.437810000    0   0   1
Mo1      0.500000000   0.000000000   0.446190000    0   0   1
O0       0.750000000   0.780000000   0.443410000    0   0   1
O0       0.750000000   0.220000000   0.443290000    0   0   1
O0       0.500000000   0.500000000   0.495850000    0   0   1
O0       0.500000000   0.000000000   0.518870000    0   0   1
Mo1      0.750000000   0.000000000   0.578280000    0   0   1
Mo1      0.500000000   0.500000000   0.563870000    0   0   1
O0       0.750000000   0.720000000   0.573690000    0   0   1
O0       0.750000000   0.280000000   0.573750000    0   0   1
O0       0.500000000   0.000000000   0.629000000    0   0   1
H2      -0.000490000   0.613690000   0.358860000
H2       0.499510000   0.613690000   0.358860000
H2       0.165750000   0.020690000   0.358920000
H2       0.665750000   0.020690000   0.358920000
End final coordinates

     General routines

     Parallel routines

   This run was terminated on:  18: 1:35  27Feb2014

   JOB DONE.
Running PBS batch system epilogue script
Job id: 278705.audhumbla.fysik.dtu.dk
Username: zhonxu
Groupname: campgst
Jobname: MoO2/bare
Sessionid: 15651
Queuename: verylong
Accounting:
This job has allocated the following 16 nodes:
a059 a059 a059 a059 a059 a059 a059 a059 a056 a056 a056 a056 a056 a056 a056 a056
Finished epilogue job 278705.audhumbla.fysik.dtu.dk for zhonxu