     Program PWSCF v.5.0.2 (svn rev. 9656) starts on  8Aug2014 at 13:24:40

     Current dimensions of program PWSCF are:
     Max number of different atomic species (ntypx) = 10
     Max number of k-points (npk) =  40000
     Max angular momentum in pseudopotentials (lmaxx) =  3
     Reading input from pwscf.in
Warning: card &CELL ignored
Warning: card / ignored

     Subspace diagonalization in iterative solution of the eigenvalue problem:
     a serial algorithm will be used

     bravais-lattice index     =            0
     lattice parameter (alat)  =      11.2250  a.u.
     unit-cell volume          =    7005.5484 (a.u.)^3
     number of atoms/cell      =           33
     number of atomic types    =            3
     number of electrons       =       221.00
     number of Kohn-Sham states=          319
     kinetic-energy cutoff     =      40.0000  Ry
     charge density cutoff     =     500.0000  Ry
     convergence threshold     =      1.0E-06
     mixing beta               =       0.7000
     number of iterations used =            8  plain     mixing
     Exchange-correlation      = SLA  PW   PBE  PBE ( 1 4 3 4 0)
     EXX-fraction              =        0.00
     nstep                     =           50

     celldm(1)=  11.224973  celldm(2)=   0.000000  celldm(3)=   0.000000
     celldm(4)=   0.000000  celldm(5)=   0.000000  celldm(6)=   0.000000

     crystal axes: (cart. coord. in units of alat)
               a(1) = (   1.000000   0.000000   0.000000 )
               a(2) = (   0.000000   1.107086   0.000000 )
               a(3) = (   0.000000   0.000000   4.474090 )

     reciprocal axes: (cart. coord. in units 2 pi/alat)
               b(1) = (  1.000000  0.000000  0.000000 )
               b(2) = (  0.000000  0.903272  0.000000 )
               b(3) = (  0.000000  0.000000  0.223509 )

     PseudoPot. # 1 for O  read from file:
     /home-research/zhongnanxu/gbrv_espresso_pseudo_v1.01/o_pbe_v1.01.uspp.F.UPF
     MD5 check sum: 2bcb18d16ea4b960afae9ec6d52f22d2
     Pseudo is Ultrasoft + core correction, Zval =  6.0
     Generated by new atomic code, or converted to UPF format
     Using radial grid of  737 points,  5 beta functions with:
                l(1) =   0
                l(2) =   0
                l(3) =   1
                l(4) =   1
                l(5) =   2
     Q(r) pseudized with  8 coefficients,  rinner =    0.900   0.900   0.900
                                                       0.900   0.900

     PseudoPot. # 2 for Ti read from file:
     /home-research/zhongnanxu/gbrv_espresso_pseudo_v1.01/ti_pbe_v1.uspp.F.UPF
     MD5 check sum: bcc8f6961b3b91f0cac3ca967d22d0fb
     Pseudo is Ultrasoft + core correction, Zval = 12.0
     Generated by new atomic code, or converted to UPF format
     Using radial grid of  851 points,  6 beta functions with:
                l(1) =   0
                l(2) =   0
                l(3) =   1
                l(4) =   1
                l(5) =   2
                l(6) =   2
     Q(r) pseudized with  6 coefficients,  rinner =    1.000   1.000   1.000
                                                       1.000   1.000

     PseudoPot. # 3 for H  read from file:
     /home-research/zhongnanxu/gbrv_espresso_pseudo_v1.01/h_pbe_v1.uspp.F.UPF
     MD5 check sum: 3408e3ff4ec8b0a4e358431e7e038a48
     Pseudo is Ultrasoft, Zval =  1.0
     Generated by new atomic code, or converted to UPF format
     Using radial grid of  615 points,  2 beta functions with:
                l(1) =   0
                l(2) =   0
     Q(r) pseudized with  8 coefficients,  rinner =    0.700

     atomic species   valence    mass     pseudopotential
        O0             6.00    15.99940     O ( 1.00)
        Ti1           12.00    47.88000     Ti( 1.00)
        H2             1.00     1.00794     H ( 1.00)

     Simplified LDA+U calculation (l_max = 2) with parameters (eV):
     atomic species    L          U    alpha       J0     beta
        Ti1            2     2.5000   0.0000   0.0000   0.0000

     No symmetry found

   Cartesian axes

     site n.     atom                  positions (alat units)
         1           O0  tau(   1) = (   0.0000000   0.0000000   1.6912954  )
         2           O0  tau(   2) = (   0.0000000   0.5535432   1.7865040  )
         3           Ti1 tau(   3) = (   0.2500000   0.5535432   2.0182619  )
         4           Ti1 tau(   4) = (   0.0000000   0.0000000   2.0215280  )
         5           O0  tau(   5) = (   0.2500000   0.8967400   2.0132062  )
         6           O0  tau(   6) = (   0.2500000   0.2103464   2.0173223  )
         7           O0  tau(   7) = (   0.0000000   0.5535432   2.2297074  )
         8           O0  tau(   8) = (   0.0000000   0.0000000   2.3520737  )
         9           Ti1 tau(   9) = (   0.2500000   0.0000000   2.5974328  )
        10           Ti1 tau(  10) = (   0.0000000   0.5535432   2.5411040  )
        11           O0  tau(  11) = (   0.2500000   0.7638896   2.5876345  )
        12           O0  tau(  12) = (   0.2500000   0.3431968   2.5923323  )
        13           O0  tau(  13) = (   0.0000000   0.0000000   2.7826601  )
        14           O0  tau(  14) = (   0.5000000   0.0000000   1.6946510  )
        15           O0  tau(  15) = (   0.5000000   0.5535432   1.7849381  )
        16           Ti1 tau(  16) = (   0.7500000   0.5535432   2.0183066  )
        17           Ti1 tau(  17) = (   0.5000000   0.0000000   2.0277470  )
        18           O0  tau(  18) = (   0.7500000   0.8967400   2.0129377  )
        19           O0  tau(  19) = (   0.7500000   0.2103464   2.0175013  )
        20           O0  tau(  20) = (   0.5000000   0.5535432   2.2179405  )
        21           O0  tau(  21) = (   0.5000000   0.0000000   2.3528791  )
        22           Ti1 tau(  22) = (   0.7500000   0.0000000   2.5974328  )
        23           Ti1 tau(  23) = (   0.5000000   0.5535432   2.6181478  )
        24           O0  tau(  24) = (   0.7500000   0.7638896   2.5875898  )
        25           O0  tau(  25) = (   0.7500000   0.3431968   2.5922429  )
        26           O0  tau(  26) = (   0.5000000   0.0000000   2.7811837  )
        27           H2  tau(  27) = (  -0.0004600   0.6930693   1.6949194  )
        28           H2  tau(  28) = (   0.4997200   0.6918293   1.6916086  )
        29           H2  tau(  29) = (   0.1490000   0.0365781   1.6268238  )
        30           H2  tau(  30) = (   0.6482800   0.0381834   1.6297319  )
        31           O0  tau(  31) = (   0.5003100   0.5833902   2.9430115  )
        32           O0  tau(  32) = (   0.4991200   0.3876242   3.0783974  )
        33           H2  tau(  33) = (   0.5003600   0.4575034   3.2295322  )

     number of k points=    10  Methfessel-Paxton smearing, width (Ry)=  0.0100
                       cart. coord. in units 2pi/alat
        k(    1) = (   0.0000000   0.0000000   0.0000000), wk =   0.1250000
        k(    2) = (   0.0000000   0.2258180   0.0000000), wk =   0.2500000
        k(    3) = (   0.0000000  -0.4516359   0.0000000), wk =   0.1250000
        k(    4) = (   0.2500000   0.0000000   0.0000000), wk =   0.2500000
        k(    5) = (   0.2500000   0.2258180   0.0000000), wk =   0.2500000
        k(    6) = (   0.2500000  -0.4516359   0.0000000), wk =   0.2500000
        k(    7) = (  -0.5000000   0.0000000   0.0000000), wk =   0.1250000
        k(    8) = (  -0.5000000   0.2258180   0.0000000), wk =   0.2500000
        k(    9) = (  -0.5000000  -0.4516359   0.0000000), wk =   0.1250000
        k(   10) = (  -0.2500000   0.2258180   0.0000000), wk =   0.2500000

     Largest allocated arrays     est. size (Mb)     dimensions
     Largest temporary arrays     est. size (Mb)     dimensions

     Check: negative/imaginary core charge=   -0.000006    0.000000

     Initial potential from superposition of free atoms
     Check: negative starting charge=   -0.102033

     starting charge  212.99957, renormalised to  221.00000

     negative rho (up, down):  0.106E+00 0.000E+00
     Number of +U iterations with fixed ns =  0
     Starting occupations:
 --- enter write_ns ---
 LDA+U parameters:
U( 2)     =  2.50000000
alpha( 2) =  0.00000000
atom    3   Tr[ns(na)] =   2.00000
    eigenvalues:
  0.200  0.200  0.200  0.200  0.200
    eigenvectors:
  1.000  0.000  0.000  0.000  0.000
  0.000  1.000  0.000  0.000  0.000
  0.000  0.000  1.000  0.000  0.000
  0.000  0.000  0.000  1.000  0.000
  0.000  0.000  0.000  0.000  1.000
    occupations:
  0.200  0.000  0.000  0.000  0.000
  0.000  0.200  0.000  0.000  0.000
  0.000  0.000  0.200  0.000  0.000
  0.000  0.000  0.000  0.200  0.000
  0.000  0.000  0.000  0.000  0.200
atom    4   Tr[ns(na)] =   2.00000
    eigenvalues:
  0.200  0.200  0.200  0.200  0.200
    eigenvectors:
  1.000  0.000  0.000  0.000  0.000
  0.000  1.000  0.000  0.000  0.000
  0.000  0.000  1.000  0.000  0.000
  0.000  0.000  0.000  1.000  0.000
  0.000  0.000  0.000  0.000  1.000
    occupations:
  0.200  0.000  0.000  0.000  0.000
  0.000  0.200  0.000  0.000  0.000
  0.000  0.000  0.200  0.000  0.000
  0.000  0.000  0.000  0.200  0.000
  0.000  0.000  0.000  0.000  0.200
atom    9   Tr[ns(na)] =   2.00000
    eigenvalues:
  0.200  0.200  0.200  0.200  0.200
    eigenvectors:
  1.000  0.000  0.000  0.000  0.000
  0.000  1.000  0.000  0.000  0.000
  0.000  0.000  1.000  0.000  0.000
  0.000  0.000  0.000  1.000  0.000
  0.000  0.000  0.000  0.000  1.000
    occupations:
  0.200  0.000  0.000  0.000  0.000
  0.000  0.200  0.000  0.000  0.000
  0.000  0.000  0.200  0.000  0.000
  0.000  0.000  0.000  0.200  0.000
  0.000  0.000  0.000  0.000  0.200
atom   10   Tr[ns(na)] =   2.00000
    eigenvalues:
  0.200  0.200  0.200  0.200  0.200
    eigenvectors:
  1.000  0.000  0.000  0.000  0.000
  0.000  1.000  0.000  0.000  0.000
  0.000  0.000  1.000  0.000  0.000
  0.000  0.000  0.000  1.000  0.000
  0.000  0.000  0.000  0.000  1.000
    occupations:
  0.200  0.000  0.000  0.000  0.000
  0.000  0.200  0.000  0.000  0.000
  0.000  0.000  0.200  0.000  0.000
  0.000  0.000  0.000  0.200  0.000
  0.000  0.000  0.000  0.000  0.200
atom   16   Tr[ns(na)] =   2.00000
    eigenvalues:
  0.200  0.200  0.200  0.200  0.200
    eigenvectors:
  1.000  0.000  0.000  0.000  0.000
  0.000  1.000  0.000  0.000  0.000
  0.000  0.000  1.000  0.000  0.000
  0.000  0.000  0.000  1.000  0.000
  0.000  0.000  0.000  0.000  1.000
    occupations:
  0.200  0.000  0.000  0.000  0.000
  0.000  0.200  0.000  0.000  0.000
  0.000  0.000  0.200  0.000  0.000
  0.000  0.000  0.000  0.200  0.000
  0.000  0.000  0.000  0.000  0.200
atom   17   Tr[ns(na)] =   2.00000
    eigenvalues:
  0.200  0.200  0.200  0.200  0.200
    eigenvectors:
  1.000  0.000  0.000  0.000  0.000
  0.000  1.000  0.000  0.000  0.000
  0.000  0.000  1.000  0.000  0.000
  0.000  0.000  0.000  1.000  0.000
  0.000  0.000  0.000  0.000  1.000
    occupations:
  0.200  0.000  0.000  0.000  0.000
  0.000  0.200  0.000  0.000  0.000
  0.000  0.000  0.200  0.000  0.000
  0.000  0.000  0.000  0.200  0.000
  0.000  0.000  0.000  0.000  0.200
atom   22   Tr[ns(na)] =   2.00000
    eigenvalues:
  0.200  0.200  0.200  0.200  0.200
    eigenvectors:
[...]
  0.006  0.003  0.000  0.000  0.990
  0.001  0.918  0.077  0.000  0.003
  0.001  0.076  0.923  0.000  0.000
  0.992  0.002  0.000  0.000  0.006
  0.000  0.000  0.000  1.000  0.000
    occupations:
  0.429  0.013  0.004 -0.020  0.000
  0.013  0.201 -0.006  0.000 -0.002
  0.004 -0.006  0.218  0.001  0.000
 -0.020  0.000  0.001  0.167  0.000
  0.000 -0.002  0.000  0.000  0.419
atom    9   Tr[ns(na)] =   2.85966
    eigenvalues:
  0.172  0.214  0.230  0.376  0.438
    eigenvectors:
  0.000  0.000  0.916  0.084  0.000
  0.000  0.000  0.000  0.000  1.000
  1.000  0.000  0.000  0.000  0.000
  0.000  0.000  0.084  0.916  0.000
  0.000  0.999  0.001  0.000  0.000
    occupations:
  0.243  0.000  0.001  0.040  0.000
  0.000  0.438  0.000 -0.001  0.000
  0.001  0.000  0.172  0.002 -0.001
  0.040 -0.001  0.002  0.364  0.000
  0.000  0.000 -0.001  0.000  0.214
atom   10   Tr[ns(na)] =   2.80233
    eigenvalues:
  0.176  0.218  0.232  0.337  0.439
    eigenvectors:
  0.017  0.000  0.000  0.983  0.000
  0.000  0.000  1.000  0.000  0.000
  0.001  0.999  0.000  0.000  0.000
  0.982  0.001  0.000  0.017  0.000
  0.000  0.000  0.000  0.000  1.000
    occupations:
  0.334  0.000 -0.001 -0.021  0.000
  0.000  0.232  0.000  0.000  0.003
 -0.001  0.000  0.217 -0.001  0.000
 -0.021  0.000 -0.001  0.179  0.000
  0.000  0.003  0.000  0.000  0.438
atom   16   Tr[ns(na)] =   2.75786
    eigenvalues:
  0.170  0.184  0.205  0.398  0.422
    eigenvectors:
  0.737  0.034  0.037  0.173  0.018
  0.001  0.002  0.001  0.130  0.867
  0.077  0.206  0.716  0.000  0.000
  0.180  0.006  0.006  0.696  0.112
  0.005  0.752  0.240  0.000  0.002
    occupations:
  0.216 -0.002 -0.005  0.090 -0.001
 -0.002  0.418 -0.001  0.010  0.012
 -0.005 -0.001  0.198  0.007  0.009
  0.090  0.010  0.007  0.357  0.000
 -0.001  0.012  0.009  0.000  0.190
atom   17   Tr[ns(na)] =   2.86734
    eigenvalues:
  0.164  0.201  0.220  0.416  0.433
    eigenvectors:
  0.006  0.003  0.000  0.000  0.991
  0.001  0.928  0.069  0.000  0.003
  0.000  0.068  0.931  0.000  0.000
  0.993  0.001  0.000  0.000  0.006
  0.000  0.000  0.000  1.000  0.000
    occupations:
  0.431  0.012  0.004 -0.020  0.000
  0.012  0.203 -0.005  0.000 -0.002
  0.004 -0.005  0.219  0.001  0.000
 -0.020  0.000  0.001  0.165  0.000
  0.000 -0.002  0.000  0.000  0.416
atom   22   Tr[ns(na)] =   2.85970
    eigenvalues:
  0.172  0.214  0.230  0.376  0.438
    eigenvectors:
  0.000  0.000  0.916  0.084  0.000
  0.000  0.000  0.000  0.000  1.000
  1.000  0.000  0.000  0.000  0.000
  0.000  0.000  0.084  0.916  0.000
  0.000  1.000  0.000  0.000  0.000
    occupations:
  0.243 -0.001  0.001  0.040  0.000
 -0.001  0.438  0.000  0.001  0.000
  0.001  0.000  0.172  0.002  0.001
  0.040  0.001  0.002  0.364  0.000
  0.000  0.000  0.001  0.000  0.214
atom   23   Tr[ns(na)] =   2.78234
    eigenvalues:
  0.168  0.179  0.228  0.370  0.445
    eigenvectors:
  0.000  0.008  0.000  0.992  0.000
  0.000  0.000  1.000  0.000  0.000
  0.993  0.007  0.000  0.000  0.000
  0.007  0.985  0.000  0.008  0.000
  0.000  0.000  0.000  0.000  1.000
    occupations:
  0.369  0.000 -0.003 -0.017  0.000
  0.000  0.228  0.000  0.000  0.001
 -0.003  0.000  0.169  0.001  0.000
 -0.017  0.000  0.001  0.180  0.000
  0.000  0.001  0.000  0.000  0.445
N of occupied +U levels =  22.5543673
 --- exit write_ns ---

     Threshold (ethr) on eigenvalues was too large:
     Diagonalizing with lowered threshold

     Davidson diagonalization with overlap
     ethr =  2.26E-08,  avg # of iterations =  2.0

[...]

     total energy              =   -1598.89913212 Ry
     Harris-Foulkes estimate   =   -1598.89913213 Ry
     estimated scf accuracy    <       0.00000003 Ry

     iteration # 10     ecut=    40.00 Ry     beta=0.70
     Davidson diagonalization with overlap
     ethr =  1.39E-11,  avg # of iterations =  1.2

     negative rho (up, down):  0.104E+00 0.000E+00

     End of self-consistent calculation
 --- enter write_ns ---
 LDA+U parameters:
U( 2)     =  2.50000000
alpha( 2) =  0.00000000
atom    3   Tr[ns(na)] =   2.75838
    eigenvalues:
  0.170  0.184  0.205  0.398  0.422
    eigenvectors:
  0.732  0.039  0.037  0.173  0.019
  0.001  0.002  0.001  0.131  0.866
  0.081  0.209  0.709  0.000  0.000
  0.178  0.007  0.006  0.696  0.113
  0.007  0.743  0.247  0.000  0.002
    occupations:
  0.216  0.002 -0.005  0.090  0.001
  0.002  0.418  0.001 -0.010  0.012
 -0.005  0.001  0.198  0.007 -0.009
  0.090 -0.010  0.007  0.357 -0.001
  0.001  0.012 -0.009 -0.001  0.190
atom    4   Tr[ns(na)] =   2.86714
    eigenvalues:
  0.165  0.198  0.220  0.419  0.431
    eigenvectors:
  0.006  0.003  0.000  0.000  0.990
  0.001  0.918  0.077  0.000  0.003
  0.001  0.076  0.923  0.000  0.000
  0.992  0.002  0.000  0.000  0.006
  0.000  0.000  0.000  1.000  0.000
    occupations:
  0.429  0.013  0.004 -0.020  0.000
  0.013  0.201 -0.006  0.000 -0.002
  0.004 -0.006  0.218  0.001  0.000
 -0.020  0.000  0.001  0.167  0.000
  0.000 -0.002  0.000  0.000  0.419
atom    9   Tr[ns(na)] =   2.85992
    eigenvalues:
  0.172  0.214  0.230  0.376  0.438
    eigenvectors:
  0.000  0.000  0.915  0.084  0.000
  0.000  0.000  0.000  0.000  1.000
  1.000  0.000  0.000  0.000  0.000
  0.000  0.000  0.084  0.916  0.000
  0.000  0.999  0.001  0.000  0.000
    occupations:
  0.243  0.000  0.001  0.040  0.000
  0.000  0.438  0.000 -0.001  0.000
  0.001  0.000  0.172  0.002 -0.001
  0.040 -0.001  0.002  0.364  0.000
  0.000  0.000 -0.001  0.000  0.214
atom   10   Tr[ns(na)] =   2.80201
    eigenvalues:
  0.176  0.217  0.232  0.337  0.438
    eigenvectors:
  0.017  0.000  0.000  0.983  0.000
  0.000  0.000  1.000  0.000  0.000
  0.001  0.999  0.000  0.000  0.000
  0.982  0.001  0.000  0.017  0.000
  0.000  0.000  0.000  0.000  1.000
    occupations:
  0.334  0.000 -0.001 -0.021  0.000
  0.000  0.232  0.000  0.000  0.003
 -0.001  0.000  0.217 -0.001  0.000
 -0.021  0.000 -0.001  0.179  0.000
  0.000  0.003  0.000  0.000  0.438
atom   16   Tr[ns(na)] =   2.75864
    eigenvalues:
  0.170  0.184  0.205  0.398  0.422
    eigenvectors:
  0.737  0.034  0.037  0.173  0.019
  0.001  0.002  0.001  0.130  0.866
  0.077  0.208  0.715  0.000  0.000
  0.180  0.006  0.006  0.696  0.113
  0.005  0.750  0.242  0.000  0.002
    occupations:
  0.216 -0.002 -0.005  0.090 -0.001
 -0.002  0.418 -0.001  0.010  0.012
 -0.005 -0.001  0.198  0.007  0.009
  0.090  0.010  0.007  0.357  0.000
 -0.001  0.012  0.009  0.000  0.190
atom   17   Tr[ns(na)] =   2.86680
    eigenvalues:
  0.164  0.201  0.220  0.416  0.433
    eigenvectors:
  0.006  0.003  0.000  0.000  0.991
  0.001  0.928  0.069  0.000  0.003
  0.000  0.068  0.931  0.000  0.000
  0.993  0.001  0.000  0.000  0.006
  0.000  0.000  0.000  1.000  0.000
    occupations:
  0.431  0.012  0.004 -0.020  0.000
  0.012  0.203 -0.005  0.000 -0.002
  0.004 -0.005  0.219  0.001  0.000
 -0.020  0.000  0.001  0.165  0.000
  0.000 -0.002  0.000  0.000  0.416
atom   22   Tr[ns(na)] =   2.85995
    eigenvalues:
  0.172  0.214  0.230  0.376  0.438
    eigenvectors:
  0.000  0.000  0.916  0.084  0.000
  0.000  0.000  0.000  0.000  1.000
  1.000  0.000  0.000  0.000  0.000
  0.000  0.000  0.084  0.916  0.000
  0.000  1.000  0.000  0.000  0.000
    occupations:
  0.243 -0.001  0.001  0.040  0.000
 -0.001  0.438  0.000  0.001  0.000
  0.001  0.000  0.172  0.002  0.001
  0.040  0.001  0.002  0.364  0.000
  0.000  0.000  0.001  0.000  0.214
atom   23   Tr[ns(na)] =   2.78100
    eigenvalues:
  0.168  0.179  0.228  0.370  0.445
    eigenvectors:
  0.000  0.008  0.000  0.992  0.000
  0.000  0.000  1.000  0.000  0.000
  0.993  0.007  0.000  0.000  0.000
  0.007  0.985  0.000  0.008  0.000
  0.000  0.000  0.000  0.000  1.000
    occupations:
  0.368  0.000 -0.003 -0.017  0.000
  0.000  0.228  0.000  0.000  0.001
 -0.003  0.000  0.168  0.001  0.000
 -0.017  0.000  0.001  0.180  0.000
  0.000  0.001  0.000  0.000  0.445
N of occupied +U levels =  22.5538300
 --- exit write_ns ---

[...]

          k = 0.2500-0.4516 0.0000 ( 29882 PWs)   bands (ev):

[...]

          k =-0.2500 0.2258 0.0000 ( 29912 PWs)   bands (ev):

   -60.2711 -60.2449 -60.0000 -59.8011 -59.0487 -59.0160 -58.6755 -58.6477
   -36.7329 -36.5000 -36.4726 -36.3951 -36.3811 -36.3587 -36.3502 -36.2954
   -36.1631 -36.0338 -36.0048 -35.9693 -35.5880 -35.3609 -35.2856 -35.2745
   -35.1413 -35.1144 -35.0564 -34.9924 -34.9700 -34.8996 -34.8293 -34.7378
   -24.8511 -21.1769 -20.9543 -20.2002 -19.6576 -19.5797 -19.2267 -19.1459
   -19.0359 -19.0056 -18.9232 -18.9019 -18.8287 -18.6922 -18.6442 -18.2026
   -17.8747 -17.6917 -17.5785 -17.5350  -9.5749  -8.9009  -8.6330  -7.9287
    -7.2908  -7.2475  -7.0981  -7.0808  -7.0176  -6.6923  -6.6400  -6.4659
    -6.4395  -6.3845  -6.3529  -6.2870  -6.2120  -6.1517  -6.1026  -5.8768
    -5.8161  -5.6970  -5.5537  -5.5275  -5.4032  -5.1132  -4.9741  -4.8862
    -4.8616  -4.8012  -4.6730  -4.6584  -4.5622  -4.5104  -4.4265  -4.3397
    -4.2704  -4.2348  -4.2153  -4.1061  -4.0780  -3.9012  -3.8520  -3.7779
    -3.6795  -3.5540  -3.3557  -3.2155  -3.0435  -2.9240  -2.9009  -2.7933
    -2.6977  -2.6535  -2.6025  -2.4050  -2.2938  -2.1813  -2.1394  -0.1931
    -0.0648   0.0399   0.1801   0.3204   0.4728   0.4983   0.5684   0.7028
     0.7618   0.8827   0.9631   1.0921   1.2805   1.4296   1.4797   1.5169
     1.5912   1.8012   1.8929   1.9441   2.0443   2.1209   2.1454   2.3075
     2.4068   2.4811   2.6255   2.7052   2.7456   2.8159   3.0727   3.5044
     3.6178   3.6946   3.7686   3.9545   4.0644   4.0810   4.1851   4.2670
     4.4612   4.6256   4.7732   4.8424   5.1529   5.2104   5.5337   5.6526
     5.6782   5.9436   6.0473   6.2200   6.4082   6.5796   6.6836   7.0220
     7.1077   7.2831   7.4949   7.5620   7.7178   7.9218   7.9972   8.1092
     8.2050   8.3332   8.4835   8.5432   8.6765   8.7973   8.8951   8.9963
     9.1160   9.2079   9.2507   9.3636   9.4906   9.6572   9.7216   9.7658
     9.8500  10.0009  10.1671  10.2726  10.3273  10.3973  10.4650  10.5384
    10.6489  10.7996  10.8954  10.9632  11.0051  11.1246  11.2014  11.3040
    11.3773  11.4409  11.5122  11.5976  11.6378  11.7482  11.8016  11.9122
    12.0073  12.1233  12.1734  12.2428  12.2783  12.3189  12.4207  12.4863
    12.5365  12.6153  12.7030  12.7714  12.8090  12.9722  12.9930  13.0669
    13.1182  13.2551  13.2776  13.3455  13.4677  13.5776  13.6545  13.7902
    13.8401  13.9373  13.9812  14.0708  14.1196  14.2226  14.2848  14.3147
    14.3516  14.4342  14.5306  14.6032  14.6452  14.7058  14.8007  14.8814
    14.9248  15.0645  15.0903  15.1785  15.2216  15.3358  15.3725  15.4085
    15.4989  15.5599  15.6441  15.6905  15.6991  15.7988  15.8636  15.9432
    15.9940  16.1283  16.1642  16.1882  16.2589  16.3288  16.4293  16.4899
    16.5167  16.5701  16.6498  16.7164  16.7847  16.8195  16.8831  16.9598
    17.0641  17.1340  17.1885  17.2514  17.3235  17.3362  17.4349  17.4701
    17.5634  17.6067  17.6771  17.8222  17.9034  17.9788  18.0434  18.0859
    18.1702  18.2114  18.3103  18.3712  18.4245  18.5012  18.5736  18.6218
    18.6640  18.7457  18.8017  18.8748  18.9600  19.0843  19.1137

     the Fermi energy is    -2.1235 ev

!    total energy              =   -1598.89913212 Ry
     Harris-Foulkes estimate   =   -1598.89913212 Ry
     estimated scf accuracy    <          3.2E-09 Ry

     The total energy is the sum of the following terms:

     one-electron contribution =  -19206.18410184 Ry
     hartree contribution      =    9626.41965289 Ry
     xc contribution           =    -284.58766209 Ry
     ewald contribution        =    8264.05196745 Ry
     Hubbard energy            =       1.40264868 Ry
     smearing contrib. (-TS)   =      -0.00163722 Ry

     convergence has been achieved in  10 iterations

     Forces acting on atoms (Ry/au):

     negative rho (up, down):  0.104E+00 0.000E+00
     atom    1 type  1   force =    -0.00084599   -0.01354274   -0.00023321
     atom    2 type  1   force =     0.00005677    0.01774516   -0.00001625
     atom    3 type  2   force =     0.05018581   -0.01108532   -0.00021126
     atom    4 type  2   force =    -0.00257246    0.00799032   -0.00020021
     atom    5 type  1   force =    -0.00100025   -0.08583979    0.00011359
     atom    6 type  1   force =    -0.00506112    0.08589873    0.00014896
     atom    7 type  1   force =     0.00010341   -0.00085999   -0.00016493
     atom    8 type  1   force =     0.00194434   -0.00047478    0.00021562
     atom    9 type  2   force =    -0.00025144   -0.00013295   -0.00007770
     atom   10 type  2   force =    -0.00004055    0.00029287    0.00046081
     atom   11 type  1   force =    -0.02155960   -0.01622239    0.00028394
     atom   12 type  1   force =    -0.01753276    0.02130951   -0.00003558
     atom   13 type  1   force =     0.00031492   -0.00232606    0.00031851
     atom   14 type  1   force =    -0.00268949   -0.01351668   -0.00018849
     atom   15 type  1   force =     0.00007699    0.01752024   -0.00005916
     atom   16 type  2   force =    -0.04997762   -0.01183611   -0.00020958
     atom   17 type  2   force =    -0.00277895    0.00735787   -0.00028712
     atom   18 type  1   force =     0.00673283   -0.08579661    0.00008508
     atom   19 type  1   force =     0.00402256    0.08642246    0.00019464
     atom   20 type  1   force =    -0.00011219   -0.00019175   -0.00067794
     atom   21 type  1   force =     0.00195932    0.00013446    0.00024734
     atom   22 type  2   force =    -0.00071624   -0.00006559   -0.00008315
     atom   23 type  2   force =    -0.00002564   -0.00307198    0.00017381
     atom   24 type  1   force =     0.02175844   -0.01616288    0.00028780
     atom   25 type  1   force =     0.01742889    0.02118867   -0.00003821
     atom   26 type  1   force =     0.00034692   -0.00500335    0.00032510
     atom   27 type  3   force =     0.00000780    0.00003626    0.00020364
     atom   28 type  3   force =    -0.00000503   -0.00014197   -0.00007258
     atom   29 type  3   force =     0.00014592    0.00014334    0.00027217
     atom   30 type  3   force =     0.00008925    0.00007349    0.00017257
     atom   31 type  1   force =     0.00011945   -0.00027498   -0.00054065
     atom   32 type  1   force =    -0.00014062    0.00003286   -0.00019204
     atom   33 type  3   force =     0.00001634    0.00039969   -0.00021549

     Total force =     0.001565     Total SCF correction =     0.000075

     bfgs converged in  24 scf cycles and  23 bfgs steps
     (criteria: energy < 0.10E-03, force < 0.10E-02)

     End of BFGS Geometry Optimization

     Final energy   =   -1598.8991321208 Ry
Begin final coordinates

ATOMIC_POSITIONS (crystal)
O0       0.000000000   0.000000000   0.377483605    0   0   1
O0       0.000000000   0.500000000   0.399218839    0   0   1
Ti1      0.250000000   0.500000000   0.451182548    0   0   1
Ti1      0.000000000   0.000000000   0.451166813    0   0   1
O0       0.250000000   0.810000000   0.449924932    0   0   1
O0       0.250000000   0.190000000   0.450902251    0   0   1
O0       0.000000000   0.500000000   0.498501016    0   0   1
O0       0.000000000   0.000000000   0.526100512    0   0   1
Ti1      0.250000000   0.000000000   0.580781483    0   0   1
Ti1      0.000000000   0.500000000   0.568885761    0   0   1
O0       0.250000000   0.690000000   0.578361491    0   0   1
O0       0.250000000   0.310000000   0.579858930    0   0   1
O0       0.000000000   0.000000000   0.622816935    0   0   1
O0       0.500000000   0.000000000   0.378307148    0   0   1
O0       0.500000000   0.500000000   0.399118160    0   0   1
Ti1      0.750000000   0.500000000   0.451191490    0   0   1
Ti1      0.500000000   0.000000000   0.453052764    0   0   1
O0       0.750000000   0.810000000   0.449868522    0   0   1
O0       0.750000000   0.190000000   0.450981300    0   0   1
O0       0.500000000   0.500000000   0.497334349    0   0   1
O0       0.500000000   0.000000000   0.526323553    0   0   1
Ti1      0.750000000   0.000000000   0.580786470    0   0   1
Ti1      0.500000000   0.500000000   0.582148173    0   0   1
O0       0.750000000   0.690000000   0.578350413    0   0   1
O0       0.750000000   0.310000000   0.579848176    0   0   1
O0       0.500000000   0.000000000   0.622419932    0   0   1
H2      -0.000449196   0.627566331   0.379268435
H2       0.499635238   0.628464412   0.379498429
H2       0.150811182   0.029784580   0.363586578
H2       0.650002684   0.031293117   0.364236770
O0       0.500310000   0.534944537   0.657163113    0   1   1
O0       0.499120000   0.356301653   0.686275794    0   1   1
H2       0.500360000   0.415316397   0.720525314    0   1   1
End final coordinates

     General routines

     Parallel routines
     Hubbard U routines

   This run was terminated on:  11: 6: 6   9Aug2014

   JOB DONE.