     Program PWSCF v.5.0.2 (svn rev. 9656) starts on 25Mar2014 at  6:39:32

     Current dimensions of program PWSCF are:
     Max number of different atomic species (ntypx) = 10
     Max number of k-points (npk) =  40000
     Max angular momentum in pseudopotentials (lmaxx) =  3
     Reading input from pwscf.in
Warning: card &CELL ignored
Warning: card / ignored

     Subspace diagonalization in iterative solution of the eigenvalue problem:
     a serial algorithm will be used

     bravais-lattice index     =            0
     lattice parameter (alat)  =      11.1872  a.u.
     unit-cell volume          =    7531.8600 (a.u.)^3
     number of atoms/cell      =           32
     number of atomic types    =            3
     number of electrons       =       223.00
     number of Kohn-Sham states=          334
     kinetic-energy cutoff     =      40.0000  Ry
     charge density cutoff     =     500.0000  Ry
     convergence threshold     =      1.0E-06
     mixing beta               =       0.7000
     number of iterations used =            8  plain     mixing
     Exchange-correlation      = SLA  PW   PBE  PBE ( 1 4 3 4 0)
     EXX-fraction              =        0.00
     nstep                     =           50

     celldm(1)=  11.187179  celldm(2)=   0.000000  celldm(3)=   0.000000
     celldm(4)=   0.000000  celldm(5)=   0.000000  celldm(6)=   0.000000

     crystal axes: (cart. coord. in units of alat)
               a(1) = (   1.000000   0.000000   0.000000 )
               a(2) = (   0.000000   1.180104   0.000000 )
               a(3) = (   0.000000   0.000000   4.558482 )

     reciprocal axes: (cart. coord. in units 2 pi/alat)
               b(1) = (  1.000000  0.000000  0.000000 )
               b(2) = (  0.000000  0.847383  0.000000 )
               b(3) = (  0.000000  0.000000  0.219371 )

     PseudoPot. # 1 for O  read from file:
     /home/camp/zhonxu/pseudo/o_pbe_v1.01.uspp.F.UPF
     MD5 check sum: 2bcb18d16ea4b960afae9ec6d52f22d2
     Pseudo is Ultrasoft + core correction, Zval =  6.0
     Generated by new atomic code, or converted to UPF format
     Using radial grid of  737 points,  5 beta functions with:
                l(1) =   0
                l(2) =   0
                l(3) =   1
                l(4) =   1
                l(5) =   2
     Q(r) pseudized with  8 coefficients,  rinner =    0.900   0.900   0.900
                                                       0.900   0.900

     PseudoPot. # 2 for Nb read from file:
     /home/camp/zhonxu/pseudo/nb_pbe_v1.uspp.F.UPF
     MD5 check sum: 573aab8a2fa660278ed4a62cd769473f
     Pseudo is Ultrasoft + core correction, Zval = 13.0
     Generated by new atomic code, or converted to UPF format
     Using radial grid of  887 points,  6 beta functions with:
                l(1) =   0
                l(2) =   0
                l(3) =   1
                l(4) =   1
                l(5) =   2
                l(6) =   2
     Q(r) pseudized with  6 coefficients,  rinner =    1.000   1.000   1.000
                                                       1.000   1.000

     PseudoPot. # 3 for H  read from file:
     /home/camp/zhonxu/pseudo/h_pbe_v1.uspp.F.UPF
     MD5 check sum: 3408e3ff4ec8b0a4e358431e7e038a48
     Pseudo is Ultrasoft, Zval =  1.0
     Generated by new atomic code, or converted to UPF format
     Using radial grid of  615 points,  2 beta functions with:
                l(1) =   0
                l(2) =   0
     Q(r) pseudized with  8 coefficients,  rinner =    0.700

     atomic species   valence    mass     pseudopotential
        O0             6.00    15.99940     O ( 1.00)
        Nb1           13.00    92.90640     Nb( 1.00)
        H2             1.00     1.00794     H ( 1.00)

     Starting magnetic structure
     atomic species   magnetization
        O0           0.000
        Nb1          0.000
        H2           0.000

     No symmetry found

   Cartesian axes

     site n.     atom                  positions (alat units)
         1           O0  tau(   1) = (   0.0000000   0.0000000   1.7080633  )
         2           O0  tau(   2) = (   0.0000000   0.5900519   1.7583889  )
         3           Nb1 tau(   3) = (   0.2500000   0.5900519   2.0066439  )
         4           Nb1 tau(   4) = (   0.0000000   0.0000000   2.0401487  )
         5           O0  tau(   5) = (   0.2500000   0.9322821   2.0429294  )
         6           O0  tau(   6) = (   0.2500000   0.2478218   2.0431118  )
         7           O0  tau(   7) = (   0.0000000   0.5900519   2.2709903  )
         8           O0  tau(   8) = (   0.0000000   0.0000000   2.3999042  )
         9           Nb1 tau(   9) = (   0.2500000   0.0000000   2.6489340  )
        10           Nb1 tau(  10) = (   0.0000000   0.5900519   2.5868019  )
        11           O0  tau(  11) = (   0.2500000   0.8378738   2.6444667  )
        12           O0  tau(  12) = (   0.2500000   0.3422301   2.6445123  )
        13           O0  tau(  13) = (   0.0000000   0.0000000   2.8518777  )
        14           O0  tau(  14) = (   0.5000000   0.0000000   1.7080633  )
        15           O0  tau(  15) = (   0.5000000   0.5900519   1.7583889  )
        16           Nb1 tau(  16) = (   0.7500000   0.5900519   2.0066439  )
        17           Nb1 tau(  17) = (   0.5000000   0.0000000   2.0401487  )
        18           O0  tau(  18) = (   0.7500000   0.9322821   2.0429294  )
        19           O0  tau(  19) = (   0.7500000   0.2478218   2.0431118  )
        20           O0  tau(  20) = (   0.5000000   0.5900519   2.2709903  )
        21           O0  tau(  21) = (   0.5000000   0.0000000   2.3999497  )
        22           Nb1 tau(  22) = (   0.7500000   0.0000000   2.6489340  )
        23           Nb1 tau(  23) = (   0.5000000   0.5900519   2.5867563  )
        24           O0  tau(  24) = (   0.7500000   0.8378738   2.6444667  )
        25           O0  tau(  25) = (   0.7500000   0.3422301   2.6445123  )
        26           O0  tau(  26) = (   0.5000000   0.0000000   2.8518777  )
        27           H2  tau(  27) = (  -0.0004200   0.5934860   1.5928705  )
        28           H2  tau(  28) = (   0.4995800   0.5932146   1.5928249  )
        29           H2  tau(  29) = (   0.1513000  -0.0014397   1.6372701  )
        30           H2  tau(  30) = (   0.6512900  -0.0014397   1.6372701  )
        31           O0  tau(  31) = (   0.5037600   0.5900637   2.9231268  )
        32           H2  tau(  32) = (   0.3972800   0.5900991   3.0484850  )

     number of k points=    20  Methfessel-Paxton smearing, width (Ry)=  0.0100
                       cart. coord. in units 2pi/alat
        k(    1) = (   0.0000000   0.0000000   0.0000000), wk =   0.0625000
        k(    2) = (   0.0000000   0.2118458   0.0000000), wk =   0.1250000
        k(    3) = (   0.0000000  -0.4236915   0.0000000), wk =   0.0625000
        k(    4) = (   0.2500000   0.0000000   0.0000000), wk =   0.1250000
        k(    5) = (   0.2500000   0.2118458   0.0000000), wk =   0.1250000
        k(    6) = (   0.2500000  -0.4236915   0.0000000), wk =   0.1250000
        k(    7) = (  -0.5000000   0.0000000   0.0000000), wk =   0.0625000
        k(    8) = (  -0.5000000   0.2118458   0.0000000), wk =   0.1250000
        k(    9) = (  -0.5000000  -0.4236915   0.0000000), wk =   0.0625000
        k(   10) = (  -0.2500000   0.2118458   0.0000000), wk =   0.1250000
        k(   11) = (   0.0000000   0.0000000   0.0000000), wk =   0.0625000
        k(   12) = (   0.0000000   0.2118458   0.0000000), wk =   0.1250000
        k(   13) = (   0.0000000  -0.4236915   0.0000000), wk =   0.0625000
        k(   14) = (   0.2500000   0.0000000   0.0000000), wk =   0.1250000
        k(   15) = (   0.2500000   0.2118458   0.0000000), wk =   0.1250000
        k(   16) = (   0.2500000  -0.4236915   0.0000000), wk =   0.1250000
        k(   17) = (  -0.5000000   0.0000000   0.0000000), wk =   0.0625000
        k(   18) = (  -0.5000000   0.2118458   0.0000000), wk =   0.1250000
        k(   19) = (  -0.5000000  -0.4236915   0.0000000), wk =   0.0625000
        k(   20) = (  -0.2500000   0.2118458   0.0000000), wk =   0.1250000

     Largest allocated arrays     est. size (Mb)     dimensions
     Largest temporary arrays     est. size (Mb)     dimensions

     Check: negative/imaginary core charge=   -0.000003    0.000000

     Initial potential from superposition of free atoms
     Check: negative starting charge=(component1):   -0.001819
     Check: negative starting charge=(component2):   -0.001819

     starting charge  222.97806, renormalised to  223.00000

     negative rho (up, down):  0.182E-02 0.182E-02
     Starting wfc are  185 randomized atomic wfcs

     Self-consistent Calculation

     iteration #  1     ecut=    40.00 Ry     beta=0.70
     Davidson diagonalization with overlap
     ethr =  1.00E-02,  avg # of iterations =  6.0

     negative rho (up, down):  0.169E-02 0.169E-02

     total energy              =   -1556.46961618 Ry
     Harris-Foulkes estimate   =   -1567.41613984 Ry
     estimated scf accuracy    <      13.90809904 Ry

     total magnetization       =    -0.00 Bohr mag/cell
     absolute magnetization    =     0.01 Bohr mag/cell

[...]

     total energy              =   -1563.66448949 Ry
     Harris-Foulkes estimate   =   -1563.66449043 Ry
     estimated scf accuracy    <       0.00000740 Ry

[...]

     iteration # 23     ecut=    40.00 Ry     beta=0.70
     Davidson diagonalization with overlap
     ethr =  1.37E-09,  avg # of iterations =  1.0

     negative rho (up, down):  0.173E-02 0.173E-02

     End of self-consistent calculation

 ------ SPIN UP ------------

          k = 0.0000 0.0000 0.0000 ( 32167 PWs)   bands (ev):

   -56.4581 -56.3693 -55.9417 -55.9370 -55.8822 -55.8584 -55.8041 -55.6940
   -33.3410 -32.6562 -32.5535 -32.4748 -32.4746 -32.4520 -32.3994 -32.3936
   -32.3372 -32.3179 -32.2744 -32.2156 -32.1416 -32.1322 -32.1314 -31.9607
   -31.9174 -31.9162 -31.8168 -31.7312 -31.6461 -31.6220 -31.5815 -31.5083
   -20.7412 -20.5687 -19.5137 -19.2246 -19.1228 -19.0692 -18.9186 -18.8054
   -18.7635 -18.7013 -18.6601 -18.3127 -18.3062 -18.1578 -17.9932 -17.9099
   -17.8014 -17.7893 -17.6084  -9.1914  -8.8579  -7.8767  -7.4201  -7.2446
    -6.9519  -6.9057  -6.6781  -6.3629  -6.3238  -6.3165  -6.2544  -6.1845
    -6.0588  -6.0275  -5.8354  -5.7821  -5.7536  -5.5649  -5.3839  -5.3580
    -5.2927  -5.2625  -5.2415  -5.2099  -4.9517  -4.9476  -4.8156  -4.6866
    -4.4343  -4.2748  -4.2558  -4.2111  -3.9601  -3.9008  -3.8633  -3.8082
    -3.7838  -3.6146  -3.4844  -3.4685  -3.4606  -3.4034  -3.2728  -3.2233
    -3.1444  -3.0272  -2.9802  -2.9449  -2.9433  -2.8505  -2.7812  -2.6757
    -2.6725  -2.2610  -1.5691  -1.2628  -0.8053  -0.3818  -0.2600   1.0950
     1.3248   1.3553   1.4049   1.4275   1.4482   1.6222   1.6857   1.6893
     1.7294   2.2207   2.3342   2.3487   2.4743   2.6607   2.7423   2.9415
     3.0601   3.1233   3.5048   3.5465   3.5612   3.7654   3.8540   4.1686
     4.2829   4.5066   4.6499   4.7310   4.9793   5.1292   5.1838   5.3098
     5.5533   5.6271   5.6901   5.7298   5.9082   6.0307   6.0494   6.1554
     6.1913   6.2077   6.4969   6.6503   6.8463   7.0087   7.0181   7.0251
     7.1106   7.3874   7.3926   7.5089   7.7514   7.8164   7.8595   8.0549
     8.1661   8.2121   8.2419   8.4665   8.5075   8.5856   8.6495   8.6748
     8.7955   8.8363   8.8705   8.9402   9.0664   9.2761   9.3768   9.4110
     9.4563   9.5443   9.5948   9.6796   9.7179   9.7970   9.9600  10.0199
    10.0561  10.1791  10.3249  10.4008  10.5303  10.7146  10.9021  10.9700
    10.9852  11.1644  11.1945  11.2162  11.2624  11.2698  11.2983  11.3508
    11.3569  11.4819  11.5410  11.6601  11.6727  11.7098  11.7825  11.8620
    11.9664  11.9797  12.1762  12.2394  12.3192  12.3357  12.3800  12.4304
    12.4660  12.4999  12.5621  12.7102  12.8621  12.9269  13.0105  13.1160
    13.1319  13.2695  13.3688  13.4254  13.4919  13.6075  13.6461  13.7812
    13.8461  13.9100  13.9701  14.0153  14.1174  14.1660  14.2696  14.2967
    14.3064  14.4033  14.4981  14.7659  14.9173  14.9219  14.9704  15.0747
    15.1920  15.2232  15.3214  15.3404  15.3864  15.5076  15.5238  15.6035
    15.6932  15.8026  15.8222  15.9318  16.1096  16.1309  16.1621  16.2065
    16.2161  16.2999  16.3029  16.6100  16.6267  16.6652  16.7230  16.8958
    16.8992  16.9408  17.1027  17.1463  17.2627  17.3343  17.3934  17.3990
    17.4900  17.5481  17.6227  17.6706  17.8268  17.9661  18.0177  18.0491
    18.1396  18.2367  18.2926  18.3082  18.3852  18.4511  18.4755  18.5905
    18.6972  18.8268  18.8891  18.9248  18.9490  19.0329  19.0713  19.2132
    19.2554  19.2607  19.2744  19.3266  19.4173  19.5846  19.6159  19.6471
    19.7846  19.8691  19.9249  19.9404  20.0656  20.1712  20.1881  20.2372
    20.2702  20.2867  20.4117  20.4447  20.4639  20.5514

[...]

          k =-0.5000 0.0000 0.0000 ( 32166 PWs)   bands (ev):

[...]

 ------ SPIN DOWN ----------

[...]

          k = 0.2500-0.4237 0.0000 ( 32188 PWs)   bands (ev):

[...]

          k =-0.2500 0.2118 0.0000 ( 32165 PWs)   bands (ev):

   -56.4452 -56.3825 -55.9388 -55.9255 -55.8715 -55.8700 -55.8152 -55.6971
   -33.2046 -32.6323 -32.5324 -32.4775 -32.4679 -32.4542 -32.4335 -32.3696
   -32.3038 -32.2297 -32.2154 -32.2034 -32.1517 -32.1311 -32.1302 -31.9692
   -31.9128 -31.8932 -31.8438 -31.7587 -31.7513 -31.7090 -31.6635 -31.6319
   -20.6951 -20.5664 -19.4108 -19.1077 -19.0580 -18.8798 -18.8655 -18.8259
   -18.7646 -18.6479 -18.5814 -18.5579 -18.2394 -18.1434 -18.0357 -17.9570
   -17.9454 -17.8648 -17.7994  -9.0972  -8.8735  -7.6596  -7.0185  -6.9499
    -6.8250  -6.6283  -6.5820  -6.5319  -6.4320  -6.3260  -6.2333  -6.2059
    -6.0696  -6.0434  -5.8977  -5.8726  -5.7213  -5.6625  -5.5711  -5.4580
    -5.2582  -5.1914  -5.0816  -5.0034  -4.8390  -4.7806  -4.6637  -4.4971
    -4.4365  -4.3924  -4.3469  -4.2584  -4.0984  -4.0362  -4.0058  -3.9558
    -3.9260  -3.8957  -3.6953  -3.6700  -3.6514  -3.6181  -3.4838  -3.3268
    -3.2516  -3.2217  -3.1113  -3.0300  -2.9544  -2.8341  -2.7608  -2.6396
    -2.6178  -2.3259  -1.6269  -1.2827  -0.3238   0.3643   0.4244   0.7796
     0.9150   1.1012   1.4374   1.5228   1.5723   1.7028   1.9079   2.0385
     2.1344   2.2174   2.3345   2.4164   2.4585   2.5570   2.5894   2.7154
     2.8187   2.8271   2.9252   3.0233   3.2846   3.5296   4.1484   4.2451
     4.5424   4.7351   4.8409   4.8721   4.9585   4.9887   5.0739   5.1668
     5.3640   5.3884   5.5373   5.6405   5.7907   5.8690   6.0009   6.1109
     6.2753   6.3889   6.5135   6.5485   6.6099   6.6368   6.8370   6.9149
     6.9827   7.1767   7.2393   7.3201   7.4232   7.5623   7.8406   7.9626
     8.0306   8.0583   8.1968   8.2245   8.2817   8.4230   8.5904   8.6894
     8.7953   8.9218   9.0397   9.1009   9.2267   9.2941   9.3652   9.4325
     9.5231   9.6210   9.7549   9.8149   9.8806  10.0579  10.1004  10.2506
    10.3012  10.4340  10.6443  10.6787  10.7357  10.9122  10.9870  11.0352
    11.0766  11.1455  11.2195  11.2754  11.3446  11.4682  11.5179  11.5784
    11.6442  11.7456  11.8928  11.9552  11.9854  12.0795  12.1369  12.2401
    12.3431  12.4126  12.4756  12.5875  12.6046  12.6756  12.7264  12.8312
    12.8381  12.9102  12.9797  13.0435  13.0773  13.1190  13.2046  13.3604
    13.4162  13.4532  13.5771  13.6291  13.7135  13.7529  13.8377  13.9099
    13.9738  14.0524  14.1360  14.1719  14.2520  14.2995  14.3618  14.5031
    14.5451  14.6802  14.7182  14.7857  14.8821  14.9771  15.0406  15.1353
    15.1808  15.2654  15.3485  15.3837  15.4432  15.4852  15.5359  15.6216
    15.6786  15.7324  15.7772  15.8243  15.8695  15.9556  16.0149  16.1456
    16.1900  16.2335  16.3421  16.4243  16.4694  16.5619  16.6403  16.6685
    16.7630  16.7830  16.8435  16.9120  16.9671  17.0793  17.1250  17.1963
    17.3159  17.3608  17.4134  17.4504  17.5032  17.5707  17.6830  17.7044
    17.7866  17.8338  17.9517  18.0316  18.0626  18.1359  18.2013  18.2882
    18.3482  18.4582  18.4937  18.5761  18.6806  18.7486  18.7911  18.8362
    18.9167  18.9569  19.0309  19.0872  19.1322  19.2225  19.2953  19.3116
    19.3587  19.3835  19.4641  19.4986  19.5728  19.6231  19.7108  19.7383
    19.8068  19.8510  19.9243  19.9812  20.0519  20.0954

     the Fermi energy is     0.8291 ev

!    total energy              =   -1563.66448914 Ry
     Harris-Foulkes estimate   =   -1563.66449003 Ry
     estimated scf accuracy    <       0.00000093 Ry

     The total energy is the sum of the following terms:

     one-electron contribution =  -18994.39552119 Ry
     hartree contribution      =    9525.67792491 Ry
     xc contribution           =    -287.52458674 Ry
     ewald contribution        =    8192.57872692 Ry
     smearing contrib. (-TS)   =      -0.00103303 Ry

     total magnetization       =     0.00 Bohr mag/cell
     absolute magnetization    =     0.00 Bohr mag/cell

     convergence has been achieved in  23 iterations

     Forces acting on atoms (Ry/au):

     negative rho (up, down):  0.173E-02 0.173E-02
     atom    1 type  1   force =     0.00027438   -0.00054260    0.00044961
     atom    2 type  1   force =    -0.00195015    0.00063642   -0.00378587
     atom    3 type  2   force =    -0.02985523   -0.00053145    0.00638518
     atom    4 type  2   force =    -0.00448422    0.00046392    0.00209903
     atom    5 type  1   force =     0.00042581   -0.02699709   -0.00276973
     atom    6 type  1   force =     0.00073022    0.02670216   -0.00300187
     atom    7 type  1   force =     0.00012152    0.00016973    0.01068396
     atom    8 type  1   force =     0.00157600   -0.00006554   -0.00388004
     atom    9 type  2   force =     0.00407144    0.00002755    0.00828091
     atom   10 type  2   force =    -0.00200059   -0.00002211    0.01117699
     atom   11 type  1   force =    -0.03217665   -0.01936721   -0.03304620
     atom   12 type  1   force =    -0.03216048    0.01937654   -0.03311441
     atom   13 type  1   force =     0.00105415   -0.00002183   -0.00576516
     atom   14 type  1   force =    -0.00004894   -0.00053682   -0.00055940
     atom   15 type  1   force =    -0.00092815    0.00048676    0.00473758
     atom   16 type  2   force =     0.03610320   -0.00049368    0.00606475
     atom   17 type  2   force =    -0.00304266    0.00046332    0.00435969
     atom   18 type  1   force =     0.00043132   -0.02728206   -0.00274057
     atom   19 type  1   force =     0.00058070    0.02696205   -0.00296696
     atom   20 type  1   force =    -0.00971571    0.00022028   -0.07319059
     atom   21 type  1   force =     0.00178289   -0.00007330   -0.00305177
     atom   22 type  2   force =    -0.00546259    0.00002291    0.00976206
     atom   23 type  2   force =     0.01212216   -0.00005365    0.18100131
     atom   24 type  1   force =     0.03087849   -0.02119534   -0.03438693
     atom   25 type  1   force =     0.03087582    0.02122377   -0.03444655
     atom   26 type  1   force =     0.00011708   -0.00002062   -0.00865256
     atom   27 type  3   force =    -0.00008818   -0.00020889   -0.00165541
     atom   28 type  3   force =    -0.00001713   -0.00020517    0.00225402
     atom   29 type  3   force =     0.00005318    0.00042333   -0.00026566
     atom   30 type  3   force =     0.00012737    0.00042171   -0.00022481
     atom   31 type  1   force =     0.00066469    0.00000963    0.00082912
     atom   32 type  3   force =    -0.00005971    0.00000727   -0.00057973

     Total force =     0.001212     Total SCF correction =     0.000244
     SCF correction compared to forces is large: reduce conv_thr to get better values

     BFGS Geometry Optimization

     bfgs converged in   1 scf cycles and   0 bfgs steps
     (criteria: energy < 0.10E-03, force < 0.10E-02)

     End of BFGS Geometry Optimization

     Final energy   =   -1563.6644891430 Ry
Begin final coordinates

ATOMIC_POSITIONS (crystal)
O0       0.000000000   0.000000000   0.374700000    0   0   0
O0       0.000000000   0.500000000   0.385740000    0   0   0
Nb1      0.250000000   0.500000000   0.440200000    0   0   0
Nb1      0.000000000   0.000000000   0.447550000    0   0   0
O0       0.250000000   0.790000000   0.448160000    0   0   0
O0       0.250000000   0.210000000   0.448200000    0   0   0
O0       0.000000000   0.500000000   0.498190000    0   0   0
O0       0.000000000   0.000000000   0.526470000    0   0   0
Nb1      0.250000000   0.000000000   0.581100000    0   0   0
Nb1      0.000000000   0.500000000   0.567470000    0   0   0
O0       0.250000000   0.710000000   0.580120000    0   0   0
O0       0.250000000   0.290000000   0.580130000    0   0   0
O0       0.000000000   0.000000000   0.625620000    0   0   0
O0       0.500000000   0.000000000   0.374700000    0   0   0
O0       0.500000000   0.500000000   0.385740000    0   0   0
Nb1      0.750000000   0.500000000   0.440200000    0   0   0
Nb1      0.500000000   0.000000000   0.447550000    0   0   0
O0       0.750000000   0.790000000   0.448160000    0   0   0
O0       0.750000000   0.210000000   0.448200000    0   0   0
O0       0.500000000   0.500000000   0.498190000    0   0   0
O0       0.500000000   0.000000000   0.526480000    0   0   0
Nb1      0.750000000   0.000000000   0.581100000    0   0   0
Nb1      0.500000000   0.500000000   0.567460000    0   0   0
O0       0.750000000   0.710000000   0.580120000    0   0   0
O0       0.750000000   0.290000000   0.580130000    0   0   0
O0       0.500000000   0.000000000   0.625620000    0   0   0
H2      -0.000420000   0.502910000   0.349430000    0   0   0
H2       0.499580000   0.502680000   0.349420000    0   0   0
H2       0.151300000  -0.001220000   0.359170000    0   0   0
H2       0.651290000  -0.001220000   0.359170000    0   0   0
O0       0.503760000   0.500010000   0.641250000
H2       0.397280000   0.500040000   0.668750000
End final coordinates

     General routines

     Parallel routines

   This run was terminated on:   9:36: 8  25Mar2014

   JOB DONE.
Running PBS batch system epilogue script
Job id: 312961.audhumbla.fysik.dtu.dk
Username: zhonxu
Groupname: campgst
Jobname: NbO2/Eads-2-layers/OH
Sessionid: 26611
Queuename: verylong
Accounting:
This job has allocated the following 16 nodes:
a035 a035 a035 a035 a035 a035 a035 a035 a008 a008 a008 a008 a008 a008 a008 a008
Finished epilogue job 312961.audhumbla.fysik.dtu.dk for zhonxu