     Program PWSCF v.5.0.2 (svn rev. 9656) starts on  9Aug2014 at  9:25: 1

     Current dimensions of program PWSCF are:
     Max number of different atomic species (ntypx) = 10
     Max number of k-points (npk) =  40000
     Max angular momentum in pseudopotentials (lmaxx) =  3
     Reading input from pwscf.in
Warning: card &CELL ignored
Warning: card / ignored

     Subspace diagonalization in iterative solution of the eigenvalue problem:
     a serial algorithm will be used

     bravais-lattice index     =            0
     lattice parameter (alat)  =      10.9604  a.u.
     unit-cell volume          =    6350.6732 (a.u.)^3
     number of atoms/cell      =           33
     number of atomic types    =            3
     number of electrons       =       237.00 (up: 126.00, down: 111.00)
     number of Kohn-Sham states=          343
     kinetic-energy cutoff     =      40.0000  Ry
     charge density cutoff     =     500.0000  Ry
     convergence threshold     =      1.0E-06
     mixing beta               =       0.7000
     number of iterations used =            8  plain     mixing
     Exchange-correlation      = SLA  PW   PBE  PBE ( 1 4 3 4 0)
     EXX-fraction              =        0.00
     nstep                     =           50

     celldm(1)=  10.960412  celldm(2)=   0.000000  celldm(3)=   0.000000
     celldm(4)=   0.000000  celldm(5)=   0.000000  celldm(6)=   0.000000

     crystal axes: (cart. coord. in units of alat)
               a(1) = (   1.000000   0.000000   0.000000 )
               a(2) = (   0.000000   1.067975   0.000000 )
               a(3) = (   0.000000   0.000000   4.516251 )

     reciprocal axes: (cart. coord. in units 2 pi/alat)
               b(1) = (  1.000000  0.000000  0.000000 )
               b(2) = (  0.000000  0.936351  0.000000 )
               b(3) = (  0.000000  0.000000  0.221423 )

     PseudoPot. # 1 for O  read from file:
     /home-research/zhongnanxu/gbrv_espresso_pseudo_v1.01/o_pbe_v1.01.uspp.F.UPF
     MD5 check sum: 2bcb18d16ea4b960afae9ec6d52f22d2
     Pseudo is Ultrasoft + core correction, Zval =  6.0
     Generated by new atomic code, or converted to UPF format
     Using radial grid of  737 points,  5 beta functions with:
                l(1) =   0
                l(2) =   0
                l(3) =   1
                l(4) =   1
                l(5) =   2
     Q(r) pseudized with  8 coefficients,  rinner =    0.900   0.900   0.900
                                                       0.900   0.900

     PseudoPot. # 2 for Cr read from file:
     /home-research/zhongnanxu/gbrv_espresso_pseudo_v1.01/cr_pbe_v1.uspp.F.UPF
     MD5 check sum: 68b6f918d1762dccfb11451fe85b0e0e
     Pseudo is Ultrasoft + core correction, Zval = 14.0
     Generated by new atomic code, or converted to UPF format
     Using radial grid of  857 points,  6 beta functions with:
                l(1) =   0
                l(2) =   0
                l(3) =   1
                l(4) =   1
                l(5) =   2
                l(6) =   2
     Q(r) pseudized with  6 coefficients,  rinner =    1.000   1.000   1.000
                                                       1.000   1.000

     PseudoPot. # 3 for H  read from file:
     /home-research/zhongnanxu/gbrv_espresso_pseudo_v1.01/h_pbe_v1.uspp.F.UPF
     MD5 check sum: 3408e3ff4ec8b0a4e358431e7e038a48
     Pseudo is Ultrasoft, Zval =  1.0
     Generated by new atomic code, or converted to UPF format
     Using radial grid of  615 points,  2 beta functions with:
                l(1) =   0
                l(2) =   0
     Q(r) pseudized with  8 coefficients,  rinner =    0.700

     atomic species   valence    mass     pseudopotential
        O0             6.00    15.99940     O ( 1.00)
        Cr1           14.00    51.99600     Cr( 1.00)
        H2             1.00     1.00794     H ( 1.00)

     Starting magnetic structure
     atomic species   magnetization
        O0           0.000
        Cr1          0.600
        H2           0.000

     Simplified LDA+U calculation (l_max = 2) with parameters (eV):
     atomic species    L          U    alpha       J0     beta
        Cr1            2     3.0000   0.0000   0.0000   0.0000

     No symmetry found

   Cartesian axes

     site n.     atom                  positions (alat units)
         1           O0  tau(   1) = (   0.0000000   0.0000000   1.7057880  )
         2           O0  tau(   2) = (   0.0000000   0.5339875   1.8101134  )
         3           Cr1 tau(   3) = (   0.2500000   0.5339875   2.0412099  )
         4           Cr1 tau(   4) = (   0.0000000   0.0000000   2.0263515  )
         5           O0  tau(   5) = (   0.2500000   0.8543801   2.0311839  )
         6           O0  tau(   6) = (   0.2500000   0.2135950   2.0319065  )
         7           O0  tau(   7) = (   0.0000000   0.5339875   2.2504478  )
         8           O0  tau(   8) = (   0.0000000   0.0000000   2.3617283  )
         9           Cr1 tau(   9) = (   0.2500000   0.0000000   2.5571464  )
        10           Cr1 tau(  10) = (   0.0000000   0.5339875   2.5545270  )
        11           O0  tau(  11) = (   0.2500000   0.7475825   2.5883086  )
        12           O0  tau(  12) = (   0.2500000   0.3203925   2.5986508  )
        13           O0  tau(  13) = (   0.0000000   0.0000000   2.7891463  )
        14           O0  tau(  14) = (   0.5000000   0.0000000   1.7052460  )
        15           O0  tau(  15) = (   0.5000000   0.5339875   1.8091650  )
        16           Cr1 tau(  16) = (   0.7500000   0.5339875   2.0419325  )
        17           Cr1 tau(  17) = (   0.5000000   0.0000000   2.0263063  )
        18           O0  tau(  18) = (   0.7500000   0.8543801   2.0310484  )
        19           O0  tau(  19) = (   0.7500000   0.2135950   2.0321774  )
        20           O0  tau(  20) = (   0.5000000   0.5339875   2.2541963  )
        21           O0  tau(  21) = (   0.5000000   0.0000000   2.3617283  )
        22           Cr1 tau(  22) = (   0.7500000   0.0000000   2.6331549  )
        23           Cr1 tau(  23) = (   0.5000000   0.5339875   2.6097156  )
        24           O0  tau(  24) = (   0.7500000   0.7475825   2.5944507  )
        25           O0  tau(  25) = (   0.7500000   0.3203925   2.6044767  )
        26           O0  tau(  26) = (   0.5000000   0.0000000   2.7840880  )
        27           H2  tau(  27) = (  -0.0006600   0.6808768   1.7228142  )
        28           H2  tau(  28) = (   0.4998000   0.6828846   1.7250724  )
        29           H2  tau(  29) = (   0.1568300   0.0328936   1.6463090  )
        30           H2  tau(  30) = (   0.6565800   0.0331499   1.6456315  )
        31           O0  tau(  31) = (   0.4998600   0.5715162   2.9254467  )
        32           O0  tau(  32) = (   0.5002200   0.3713883   3.0709603  )
        33           H2  tau(  33) = (   0.4998900   0.4494573   3.2222096  )

     number of k points=    20  Methfessel-Paxton smearing, width (Ry)=  0.0100
                       cart. coord. in units 2pi/alat
        k(    1) = (   0.0000000   0.0000000   0.0000000), wk =   0.0625000
        k(    2) = (   0.0000000   0.2340879   0.0000000), wk =   0.1250000
        k(    3) = (   0.0000000  -0.4681757   0.0000000), wk =   0.0625000
        k(    4) = (   0.2500000   0.0000000   0.0000000), wk =   0.1250000
        k(    5) = (   0.2500000   0.2340879   0.0000000), wk =   0.1250000
        k(    6) = (   0.2500000  -0.4681757   0.0000000), wk =   0.1250000
        k(    7) = (  -0.5000000   0.0000000   0.0000000), wk =   0.0625000
        k(    8) = (  -0.5000000   0.2340879   0.0000000), wk =   0.1250000
        k(    9) = (  -0.5000000  -0.4681757   0.0000000), wk =   0.0625000
        k(   10) = (  -0.2500000   0.2340879   0.0000000), wk =   0.1250000
        k(   11) = (   0.0000000   0.0000000   0.0000000), wk =   0.0625000
        k(   12) = (   0.0000000   0.2340879   0.0000000), wk =   0.1250000
        k(   13) = (   0.0000000  -0.4681757   0.0000000), wk =   0.0625000
        k(   14) = (   0.2500000   0.0000000   0.0000000), wk =   0.1250000
        k(   15) = (   0.2500000   0.2340879   0.0000000), wk =   0.1250000
        k(   16) = (   0.2500000  -0.4681757   0.0000000), wk =   0.1250000
        k(   17) = (  -0.5000000   0.0000000   0.0000000), wk =   0.0625000
        k(   18) = (  -0.5000000   0.2340879   0.0000000), wk =   0.1250000
        k(   19) = (  -0.5000000  -0.4681757   0.0000000), wk =   0.0625000
        k(   20) = (  -0.2500000   0.2340879   0.0000000), wk =   0.1250000

     Largest allocated arrays     est. size (Mb)     dimensions
     Largest temporary arrays     est. size (Mb)     dimensions

     Check: negative/imaginary core charge=   -0.000012    0.000000

     Initial potential from superposition of free atoms
     Check: negative starting charge=(component1):   -0.001299
     Check: negative starting charge=(component2):   -0.000449

     starting charge  228.99983, renormalised to  237.00000

     negative rho (up, down):  0.134E-02 0.465E-03
     Number of +U iterations with fixed ns =  0
     Starting occupations:
 --- enter write_ns ---
 LDA+U parameters:
U( 2)     =  3.00000000
alpha( 2) =  0.00000000
atom    3   Tr[ns(na)] (up, down, total) =   5.00000  0.00000  5.00000
   spin  1
    eigenvalues:
  1.000  1.000  1.000  1.000  1.000
    eigenvectors:
  1.000  0.000  0.000  0.000  0.000
  0.000  1.000  0.000  0.000  0.000
  0.000  0.000  1.000  0.000  0.000
  0.000  0.000  0.000  1.000  0.000
  0.000  0.000  0.000  0.000  1.000
    occupations:
  1.000  0.000  0.000  0.000  0.000
  0.000  1.000  0.000  0.000  0.000
  0.000  0.000  1.000  0.000  0.000
  0.000  0.000  0.000  1.000  0.000
  0.000  0.000  0.000  0.000  1.000
   spin  2
    eigenvalues:
  0.000  0.000  0.000  0.000  0.000
    eigenvectors:
  1.000  0.000  0.000  0.000  0.000
  0.000  1.000  0.000  0.000  0.000
  0.000  0.000  1.000  0.000  0.000
  0.000  0.000  0.000  1.000  0.000
  0.000  0.000  0.000  0.000  1.000
    occupations:
  0.000  0.000  0.000  0.000  0.000
  0.000  0.000  0.000  0.000  0.000
  0.000  0.000  0.000  0.000  0.000
  0.000  0.000  0.000  0.000  0.000
  0.000  0.000  0.000  0.000  0.000
atomic mag. moment =     5.000000
atom    4   Tr[ns(na)] (up, down, total) =   5.00000  0.00000  5.00000
   spin  1
    eigenvalues:
  1.000  1.000  1.000  1.000  1.000
    eigenvectors:
  1.000  0.000  0.000  0.000  0.000
  0.000  1.000  0.000  0.000  0.000
  0.000  0.000  1.000  0.000  0.000
  0.000  0.000  0.000  1.000  0.000
  0.000  0.000  0.000  0.000  1.000
    occupations:
  1.000  0.000  0.000  0.000  0.000
  0.000  1.000  0.000  0.000  0.000
  0.000  0.000  1.000  0.000  0.000
  0.000  0.000  0.000  1.000  0.000
  0.000  0.000  0.000  0.000  1.000
   spin  2
    eigenvalues:
  0.000  0.000  0.000  0.000  0.000
    eigenvectors:
  1.000  0.000  0.000  0.000  0.000
  0.000  1.000  0.000  0.000  0.000
  0.000  0.000  1.000  0.000  0.000
  0.000  0.000  0.000  1.000  0.000
  0.000  0.000  0.000  0.000  1.000
    occupations:
  0.000  0.000  0.000  0.000  0.000
  0.000  0.000  0.000  0.000  0.000
  0.000  0.000  0.000  0.000  0.000
  0.000  0.000  0.000  0.000  0.000
  0.000  0.000  0.000  0.000  0.000
[...]
  0.158 -0.002 -0.003  0.114  0.000
 -0.002  0.342  0.000 -0.003  0.010
 -0.003  0.000  0.139  0.007 -0.003
  0.114 -0.003  0.007  0.307  0.000
  0.000  0.010 -0.003  0.000  0.117
atomic mag. moment =     2.509333
atom    4   Tr[ns(na)] (up, down, total) =   3.50363  1.14103  4.64466
   spin  1
    eigenvalues:
  0.488  0.533  0.593  0.903  0.987
    eigenvectors:
  0.003  0.991  0.000  0.001  0.005
  0.000  0.001  0.014  0.985  0.000
  0.000  0.000  0.986  0.014  0.000
  0.000  0.005  0.000  0.000  0.994
  0.997  0.003  0.000  0.000  0.000
    occupations:
  0.536 -0.012 -0.001  0.033  0.002
 -0.012  0.899  0.036  0.002  0.000
 -0.001  0.036  0.597  0.001 -0.001
  0.033  0.002  0.001  0.984  0.000
  0.002  0.000 -0.001  0.000  0.488
   spin  2
    eigenvalues:
  0.102  0.126  0.160  0.367  0.386
    eigenvectors:
  0.003  0.002  0.000  0.003  0.992
  0.002  0.952  0.043  0.000  0.002
  0.000  0.043  0.957  0.000  0.000
  0.995  0.003  0.000  0.000  0.003
  0.000  0.000  0.000  0.996  0.004
    occupations:
  0.385  0.013  0.003 -0.014  0.001
  0.013  0.128 -0.007  0.001  0.000
  0.003 -0.007  0.159  0.000  0.000
 -0.014  0.001  0.000  0.103  0.000
  0.001  0.000  0.000  0.000  0.367
atomic mag. moment =     2.362595
atom    9   Tr[ns(na)] (up, down, total) =   3.53189  1.15271  4.68459
   spin  1
    eigenvalues:
  0.502  0.514  0.647  0.885  0.984
    eigenvectors:
  0.006  0.172  0.000  0.000  0.822
  0.965  0.034  0.000  0.000  0.000
  0.000  0.000  0.994  0.006  0.000
  0.028  0.794  0.000  0.000  0.178
  0.000  0.000  0.006  0.994  0.000
    occupations:
  0.900  0.001 -0.001 -0.180  0.000
  0.001  0.503  0.002  0.002  0.000
 -0.001  0.002  0.648 -0.002 -0.018
 -0.180  0.002 -0.002  0.597  0.002
  0.000  0.000 -0.018  0.002  0.883
   spin  2
    eigenvalues:
  0.113  0.139  0.152  0.371  0.378
    eigenvectors:
  0.809  0.000  0.000  0.000  0.191
  0.000  0.000  0.000  1.000  0.000
  0.000  0.018  0.982  0.000  0.000
  0.191  0.000  0.000  0.000  0.809
  0.000  0.982  0.018  0.000  0.000
    occupations:
  0.163  0.001  0.001  0.104  0.000
  0.001  0.371  0.000  0.000  0.000
  0.001  0.000  0.152  0.003  0.002
  0.104  0.000  0.003  0.327  0.000
  0.000  0.000  0.002  0.000  0.139
atomic mag. moment =     2.379179
atom   10   Tr[ns(na)] (up, down, total) =   3.63185  0.99619  4.62804
   spin  1
    eigenvalues:
  0.477  0.496  0.775  0.900  0.985
    eigenvectors:
  0.000  0.996  0.000  0.000  0.003
  0.000  0.001  0.000  0.975  0.024
  0.001  0.000  0.999  0.000  0.000
  0.000  0.003  0.000  0.025  0.972
  0.999  0.000  0.001  0.000  0.000
    occupations:
  0.497 -0.011  0.001  0.027  0.000
 -0.011  0.901 -0.001 -0.013 -0.007
  0.001 -0.001  0.774  0.003  0.007
  0.027 -0.013  0.003  0.981  0.000
  0.000 -0.007  0.007  0.000  0.478
   spin  2
    eigenvalues:
  0.093  0.135  0.139  0.284  0.346
    eigenvectors:
  0.007  0.000  0.000  0.993  0.000
  0.001  0.994  0.005  0.000  0.000
  0.000  0.005  0.995  0.000  0.000
  0.992  0.001  0.000  0.007  0.000
  0.000  0.000  0.000  0.000  0.999
    occupations:
  0.282  0.000 -0.001 -0.016  0.000
  0.000  0.135  0.000  0.001  0.004
 -0.001  0.000  0.139 -0.001  0.004
 -0.016  0.001 -0.001  0.094  0.000
  0.000  0.004  0.004  0.000  0.346
atomic mag. moment =     2.635664
atom   16   Tr[ns(na)] (up, down, total) =   3.56965  1.06540  4.63505
   spin  1
    eigenvalues:
  0.463  0.507  0.679  0.937  0.984
    eigenvectors:
  0.004  0.217  0.002  0.000  0.777
  0.985  0.015  0.000  0.000  0.000
  0.000  0.000  0.989  0.008  0.003
  0.011  0.768  0.001  0.000  0.220
  0.000  0.000  0.008  0.992  0.000
    occupations:
  0.878  0.005  0.016 -0.198  0.002
  0.005  0.464  0.002  0.003 -0.010
  0.016  0.002  0.682 -0.007 -0.023
 -0.198  0.003 -0.007  0.612  0.000
  0.002 -0.010 -0.023  0.000  0.935
   spin  2
    eigenvalues:
  0.095  0.116  0.141  0.343  0.371
    eigenvectors:
  0.756  0.001  0.018  0.004  0.221
  0.000  0.002  0.000  0.977  0.021
  0.021  0.018  0.961  0.000  0.000
  0.224  0.000  0.002  0.017  0.757
  0.000  0.980  0.018  0.002  0.000
    occupations:
  0.158  0.002 -0.003  0.115  0.000
  0.002  0.343  0.000  0.003  0.010
 -0.003  0.000  0.139  0.007  0.003
  0.115  0.003  0.007  0.308  0.000
  0.000  0.010  0.003  0.000  0.117
atomic mag. moment =     2.504247
atom   17   Tr[ns(na)] (up, down, total) =   3.52196  1.12201  4.64397
   spin  1
    eigenvalues:
  0.483  0.531  0.630  0.892  0.987
    eigenvectors:
  0.002  0.992  0.000  0.001  0.005
  0.000  0.001  0.012  0.987  0.000
  0.000  0.000  0.988  0.012  0.000
  0.000  0.004  0.000  0.000  0.995
  0.998  0.002  0.000  0.000  0.000
    occupations:
  0.533 -0.013 -0.003  0.030  0.002
 -0.013  0.888  0.028  0.000  0.000
 -0.003  0.028  0.633  0.001  0.002
  0.030  0.000  0.001  0.984  0.000
  0.002  0.000  0.002  0.000  0.483
   spin  2
    eigenvalues:
  0.100  0.124  0.154  0.362  0.381
    eigenvectors:
  0.003  0.003  0.000  0.002  0.992
  0.003  0.944  0.050  0.000  0.003
  0.000  0.049  0.950  0.000  0.000
  0.993  0.004  0.000  0.000  0.003
  0.000  0.000  0.000  0.998  0.002
    occupations:
  0.380  0.014  0.003 -0.015  0.001
  0.014  0.126 -0.006  0.001  0.000
  0.003 -0.006  0.153  0.000  0.000
 -0.015  0.001  0.000  0.101  0.000
  0.001  0.000  0.000  0.000  0.362
atomic mag. moment =     2.399944
atom   22   Tr[ns(na)] (up, down, total) =   3.19974  1.59603  4.79576
   spin  1
    eigenvalues:
  0.535  0.557  0.570  0.727  0.811
    eigenvectors:
  0.937  0.000  0.063  0.000  0.000
  0.000  0.999  0.001  0.000  0.000
  0.000  0.000  0.000  0.011  0.989
  0.063  0.001  0.936  0.000  0.000
  0.000  0.000  0.000  0.989  0.011
    occupations:
  0.537  0.000  0.004 -0.009  0.000
  0.000  0.557  0.001  0.000  0.000
  0.004  0.001  0.810 -0.001  0.009
 -0.009  0.000 -0.001  0.568  0.000
  0.000  0.000  0.009  0.000  0.728
   spin  2
    eigenvalues:
  0.192  0.241  0.271  0.444  0.448
    eigenvectors:
  0.000  0.000  0.966  0.032  0.002
  0.000  0.000  0.000  0.037  0.963
  0.997  0.003  0.000  0.000  0.000
  0.000  0.000  0.034  0.931  0.035
  0.003  0.997  0.000  0.000  0.000
    occupations:
  0.277 -0.002  0.000  0.031  0.000
 -0.002  0.447  0.000  0.000  0.001
  0.000  0.000  0.193  0.002 -0.002
  0.031  0.000  0.002  0.438  0.000
  0.000  0.001 -0.002  0.000  0.240
atomic mag. moment =     1.603711
atom   23   Tr[ns(na)] (up, down, total) =   3.64293  0.97968  4.62261
   spin  1
    eigenvalues:
  0.471  0.477  0.809  0.912  0.974
    eigenvectors:
  0.001  0.997  0.000  0.002  0.000
  0.000  0.000  0.991  0.000  0.008
  0.000  0.002  0.000  0.998  0.000
  0.000  0.000  0.008  0.000  0.992
  0.999  0.001  0.000  0.000  0.000
    occupations:
  0.478  0.007  0.019  0.005  0.000
  0.007  0.810  0.002  0.014 -0.007
  0.019  0.002  0.911  0.000 -0.002
  0.005  0.014  0.000  0.973 -0.001
  0.000 -0.007 -0.002 -0.001  0.471
   spin  2
    eigenvalues:
  0.095  0.096  0.123  0.315  0.351
    eigenvectors:
  0.005  0.002  0.000  0.993  0.000
  0.004  0.000  0.996  0.000  0.000
  0.010  0.988  0.000  0.001  0.000
  0.982  0.009  0.004  0.005  0.000
  0.000  0.000  0.000  0.000  0.999
    occupations:
  0.314  0.002 -0.008 -0.016  0.000
  0.002  0.123  0.000 -0.002  0.003
 -0.008  0.000  0.096  0.001 -0.005
 -0.016 -0.002  0.001  0.096  0.000
  0.000  0.003 -0.005  0.000  0.351
atomic mag. moment =     2.663247
N of occupied +U levels =  37.2900553
 --- exit write_ns ---

 ------ SPIN UP ------------

[...]

 ------ SPIN DOWN ----------

[...]

          k = 0.2500-0.4682 0.0000 ( 27150 PWs)   bands (ev):

[...]

          k =-0.2500 0.2341 0.0000 ( 27132 PWs)   bands (ev):

   -73.2825 -71.9418 -71.8515 -71.8406 -71.7557 -71.6958 -71.6765 -71.4768
   -44.9273 -44.6375 -44.3241 -43.5249 -43.5180 -43.4018 -43.4001 -43.3980
   -43.2976 -43.2771 -43.2521 -43.1858 -43.1426 -43.1132 -43.0560 -43.0315
   -43.0207 -42.9593 -42.9534 -42.8765 -42.8741 -42.8143 -42.6819 -42.6556
   -24.9040 -20.4755 -20.0892 -19.9217 -19.8354 -19.6649 -19.4551 -19.3839
   -19.3431 -19.2579 -19.1342 -19.0569 -18.9498 -18.9463 -18.9204 -18.8437
   -18.7057 -18.6398 -18.6194 -17.7511  -9.5206  -7.9644  -7.9066  -7.7266
    -7.4419  -7.3093  -7.1628  -6.9884  -6.8618  -6.7697  -6.6982  -6.6494
    -6.5506  -6.4275  -6.3094  -6.2887  -6.1471  -6.1082  -5.9986  -5.9621
    -5.8020  -5.6699  -5.6388  -5.5586  -5.4602  -5.2085  -5.1615  -5.0322
    -4.9209  -4.8614  -4.6919  -4.6305  -4.6107  -4.5405  -4.5057  -4.4091
    -4.3416  -4.2865  -4.1953  -4.1381  -4.0133  -3.8851  -3.6856  -3.6296
    -3.5799  -3.5109  -3.4043  -3.3605  -3.2996  -3.2558  -3.1967  -3.0726
    -2.9516  -2.9041  -2.8133  -2.6504  -2.5376  -2.3988  -2.3186   0.7535
     0.9064   0.9473   1.3795   1.4759   1.5592   1.6168   1.6797   1.7395
     1.7768   1.8749   1.9514   2.0321   2.0759   2.1081   2.1806   2.2427
     2.3191   2.3632   2.3894   2.4523   2.5431   2.6104   2.6495   2.6927
     2.7705   2.8890   3.0707   3.0985   3.1647   3.3267   3.5366   3.5705
     3.6740   3.6932   3.8852   3.9235   4.0026   4.0977   4.1968   4.3169
     4.4254   4.4304   4.6367   4.8721   5.1955   5.4969   5.7118   6.0965
     6.2074   6.3159   6.4175   6.5300   6.8032   6.9178   7.1493   7.4272
     7.5658   7.7163   7.9055   8.1159   8.2779   8.3613   8.4773   8.6446
     8.7066   8.9340   9.0872   9.2588   9.4139   9.4929   9.5734   9.7778
     9.8993   9.9779  10.0794  10.1201  10.1665  10.3907  10.4432  10.4863
    10.5841  10.6958  10.7803  10.9295  11.0583  11.1183  11.2525  11.3351
    11.4209  11.5302  11.6279  11.7713  11.8408  11.9245  12.0504  12.0909
    12.1348  12.2955  12.3737  12.4122  12.4775  12.5847  12.6912  12.7052
    12.8364  12.8763  13.0267  13.0922  13.1857  13.2711  13.3310  13.4450
    13.5029  13.5486  13.6299  13.6956  13.7961  13.8576  13.9480  14.0374
    14.1498  14.2070  14.2472  14.3031  14.3834  14.4575  14.4978  14.5714
    14.7665  14.8462  14.8876  14.9646  15.0918  15.2069  15.2410  15.2794
    15.3938  15.4671  15.5658  15.6369  15.7193  15.7966  15.8432  15.9316
    15.9925  16.0500  16.0869  16.1579  16.1894  16.2459  16.2873  16.3700
    16.4854  16.5452  16.6060  16.6990  16.7750  16.8205  16.9251  16.9882
    17.0317  17.1433  17.1893  17.2700  17.3099  17.3492  17.4645  17.4868
    17.5263  17.5647  17.7368  17.7635  17.8353  17.8683  17.9510  18.0114
    18.0470  18.1677  18.2180  18.3036  18.4154  18.4841  18.5157  18.5694
    18.6153  18.6955  18.7858  18.8735  18.9074  19.0094  19.0311  19.1062
    19.1683  19.2855  19.3667  19.4011  19.4398  19.5031  19.5598  19.6796
    19.7166  19.8053  19.8655  19.9260  20.0230  20.1501  20.1926  20.3016
    20.3404  20.4033  20.5074  20.5877  20.6873  20.8419  20.8841  20.9625
    21.0580  21.0900  21.1792  21.2196  21.3038  21.3796  21.4319  21.5322
    21.6105  21.7130  21.7805  21.8590  21.9328  21.9870  22.0405

     the spin up/dw Fermi energies are    -1.1618   -2.1618 ev

!    total energy              =   -2057.55493354 Ry
     Harris-Foulkes estimate   =   -2057.55493354 Ry
     estimated scf accuracy    <          5.6E-09 Ry

     The total energy is the sum of the following terms:

     one-electron contribution =  -24465.19936676 Ry
     hartree contribution      =   12259.73417686 Ry
     xc contribution           =    -329.97439188 Ry
     ewald contribution        =   10476.42979179 Ry
     Hubbard energy            =       1.45501507 Ry
     smearing contrib. (-TS)   =      -0.00015862 Ry

     total magnetization       =    15.00 Bohr mag/cell
     absolute magnetization    =    23.52 Bohr mag/cell

     convergence has been achieved in  16 iterations

     Forces acting on atoms (Ry/au):

     negative rho (up, down):  0.492E-02 0.173E-02
     atom    1 type  1   force =    -0.00378852   -0.01148679   -0.00006471
     atom    2 type  1   force =    -0.00012835    0.00665428   -0.00003361
     atom    3 type  2   force =     0.03467273   -0.00199132   -0.00030852
     atom    4 type  2   force =     0.00099380    0.00750816    0.00009761
     atom    5 type  1   force =    -0.00183402    0.00602978    0.00005218
     atom    6 type  1   force =    -0.00080477   -0.00398053    0.00004430
     atom    7 type  1   force =     0.00080183   -0.00402391    0.00018633
     atom    8 type  1   force =    -0.01962056    0.00185817    0.00065169
     atom    9 type  2   force =     0.00502572   -0.00142701   -0.00003849
     atom   10 type  2   force =     0.00168474    0.00170797    0.00044574
     atom   11 type  1   force =    -0.02925133   -0.02374916   -0.00048165
     atom   12 type  1   force =    -0.02235146    0.03052221   -0.00008823
     atom   13 type  1   force =    -0.03986688   -0.00237750   -0.00013171
     atom   14 type  1   force =    -0.00632601   -0.01216995   -0.00003768
     atom   15 type  1   force =     0.00017312    0.00728347    0.00023839
     atom   16 type  2   force =    -0.03658463   -0.00090288   -0.00039085
     atom   17 type  2   force =     0.00691512    0.00766227    0.00007359
     atom   18 type  1   force =     0.00302612    0.00462155    0.00009539
     atom   19 type  1   force =     0.00343736   -0.00391493    0.00011798
     atom   20 type  1   force =     0.00182127   -0.00410221   -0.00008330
     atom   21 type  1   force =     0.01396233    0.00276211    0.00079220
     atom   22 type  2   force =     0.01392219   -0.00364907   -0.00034591
     atom   23 type  2   force =    -0.00492863   -0.00557490   -0.00006012
     atom   24 type  1   force =     0.02735149   -0.01650006   -0.00023993
     atom   25 type  1   force =     0.02038507    0.02761220    0.00031349
     atom   26 type  1   force =     0.03274275   -0.00731381   -0.00017376
     atom   27 type  3   force =    -0.00004283   -0.00046460   -0.00063275
     atom   28 type  3   force =     0.00000372   -0.00059182   -0.00054290
     atom   29 type  3   force =     0.00016395   -0.00022644    0.00028460
     atom   30 type  3   force =     0.00007340   -0.00012746    0.00022264
     atom   31 type  1   force =    -0.00196152   -0.00093492   -0.00089626
     atom   32 type  1   force =     0.00031705    0.00063781    0.00014205
     atom   33 type  3   force =     0.00001575    0.00064930    0.00079221

     Total force =     0.002619     Total SCF correction =     0.000294
     SCF correction compared to forces is large: reduce conv_thr to get better values

     bfgs converged in  13 scf cycles and  12 bfgs steps
     (criteria: energy < 0.10E-03, force < 0.10E-02)

     End of BFGS Geometry Optimization

     Final energy   =   -2057.5549335375 Ry
Begin final coordinates

ATOMIC_POSITIONS (crystal)
O0       0.000000000   0.000000000   0.377175247    0   0   1
O0       0.000000000   0.500000000   0.398881071    0   0   1
Cr1      0.250000000   0.500000000   0.450690931    0   0   1
Cr1      0.000000000   0.000000000   0.449012033    0   0   1
O0       0.250000000   0.800000000   0.449354455    0   0   1
O0       0.250000000   0.200000000   0.449471511    0   0   1
O0       0.000000000   0.500000000   0.497989513    0   0   1
O0       0.000000000   0.000000000   0.523312242    0   0   1
Cr1      0.250000000   0.000000000   0.568814713    0   0   1
Cr1      0.000000000   0.500000000   0.566264951    0   0   1
O0       0.250000000   0.700000000   0.573667424    0   0   1
O0       0.250000000   0.300000000   0.575474127    0   0   1
O0       0.000000000   0.000000000   0.618778836    0   0   1
O0       0.500000000   0.000000000   0.376866584    0   0   1
O0       0.500000000   0.500000000   0.398915827    0   0   1
Cr1      0.750000000   0.500000000   0.450646414    0   0   1
Cr1      0.500000000   0.000000000   0.448863555    0   0   1
O0       0.750000000   0.800000000   0.449394132    0   0   1
O0       0.750000000   0.200000000   0.449476187    0   0   1
O0       0.500000000   0.500000000   0.499470626    0   0   1
O0       0.500000000   0.000000000   0.523327026    0   0   1
Cr1      0.750000000   0.000000000   0.582758866    0   0   1
Cr1      0.500000000   0.500000000   0.575780684    0   0   1
O0       0.750000000   0.700000000   0.575713597    0   0   1
O0       0.750000000   0.300000000   0.577292839    0   0   1
O0       0.500000000   0.000000000   0.617988514    0   0   1
H2      -0.000483784   0.639038354   0.380237966
H2       0.499567773   0.640433907   0.380802898
H2       0.158207598   0.029284400   0.364527285
H2       0.657725775   0.029978503   0.364178761
O0       0.499860000   0.542002480   0.650476432    0   1   1
O0       0.500220000   0.353790921   0.680251343    0   1   1
H2       0.499890000   0.416909665   0.714923411    0   1   1
End final coordinates

     General routines

     Parallel routines
     Hubbard U routines

   This run was terminated on:  22: 5:18  10Aug2014

   JOB DONE.