     Program PWSCF v.5.0.2 (svn rev. 9656) starts on 27Feb2014 at 19:50:39

     Current dimensions of program PWSCF are:
     Max number of different atomic species (ntypx) = 10
     Max number of k-points (npk) =  40000
     Max angular momentum in pseudopotentials (lmaxx) =  3
     Reading input from bare.in
Warning: card &CELL ignored
Warning: card / ignored

     Subspace diagonalization in iterative solution of the eigenvalue problem:
     a serial algorithm will be used

     bravais-lattice index     =            0
     lattice parameter (alat)  =      10.1289  a.u.
     unit-cell volume          =    6836.7721 (a.u.)^3
     number of atoms/cell      =           30
     number of atomic types    =            3
     number of electrons       =       232.00
     number of Kohn-Sham states=          348
     kinetic-energy cutoff     =      40.0000  Ry
     charge density cutoff     =     500.0000  Ry
     convergence threshold     =      1.0E-06
     mixing beta               =       0.3000
     number of iterations used =            8  plain     mixing
     Exchange-correlation      = SLA  PW   PBE  PBE ( 1 4 3 4 0)
     EXX-fraction              =        0.00
     nstep                     =           50

     celldm(1)=  10.128932  celldm(2)=   0.000000  celldm(3)=   0.000000
     celldm(4)=   0.000000  celldm(5)=   0.000000  celldm(6)=   0.000000

     crystal axes: (cart. coord. in units of alat)
               a(1) = (   1.000000   0.000000   0.000000 )
               a(2) = (   0.000000   1.306037   0.000000 )
               a(3) = (   0.000000   0.000000   5.037380 )

     reciprocal axes: (cart. coord. in units 2 pi/alat)
               b(1) = (  1.000000  0.000000  0.000000 )
               b(2) = (  0.000000  0.765675  0.000000 )
               b(3) = (  0.000000  0.000000  0.198516 )

     PseudoPot. # 1 for O  read from file:
     /home/camp/zhonxu/pseudo/o_pbe_v1.01.uspp.F.UPF
     MD5 check sum: 2bcb18d16ea4b960afae9ec6d52f22d2
     Pseudo is Ultrasoft + core correction, Zval =  6.0
     Generated by new atomic code, or converted to UPF format
     Using radial grid of  737 points,  5 beta functions with:
                l(1) =   0
                l(2) =   0
                l(3) =   1
                l(4) =   1
                l(5) =   2
     Q(r) pseudized with  8 coefficients,  rinner =    0.900   0.900   0.900
                                                       0.900   0.900

     PseudoPot. # 2 for Re read from file:
     /home/camp/zhonxu/pseudo/re_pbe_v1.uspp.F.UPF
     MD5 check sum: 6f5a5dcaf9c96c20d0ffdde0de57afc6
     Pseudo is Ultrasoft + core correction, Zval = 15.0
     Generated by new atomic code, or converted to UPF format
     Using radial grid of  981 points,  8 beta functions with:
                l(1) =   0
                l(2) =   0
                l(3) =   1
                l(4) =   1
                l(5) =   2
                l(6) =   2
                l(7) =   3
                l(8) =   3
     Q(r) pseudized with  8 coefficients,  rinner =    1.000   1.000   1.000
                                                       1.000   1.000   1.000
                                                       1.000

     PseudoPot. # 3 for H  read from file:
     /home/camp/zhonxu/pseudo/h_pbe_v1.uspp.F.UPF
     MD5 check sum: 3408e3ff4ec8b0a4e358431e7e038a48
     Pseudo is Ultrasoft, Zval =  1.0
     Generated by new atomic code, or converted to UPF format
     Using radial grid of  615 points,  2 beta functions with:
                l(1) =   0
                l(2) =   0
     Q(r) pseudized with  8 coefficients,  rinner =    0.700

     atomic species   valence    mass     pseudopotential
        O0             6.00    15.99940     O ( 1.00)
        Re1           15.00   186.20700     Re( 1.00)
        H2             1.00     1.00794     H ( 1.00)

     No symmetry found

   Cartesian axes

     site n.     atom                  positions (alat units)
         1           O0  tau(   1) = (   0.0000000   0.0000000   1.8688176  )
         2           O0  tau(   2) = (   0.0000000   0.6530184   1.9243296  )
         3           Re1 tau(   3) = (   0.2500000   0.6530184   2.2228951  )
         4           Re1 tau(   4) = (   0.0000000   0.0000000   2.2352367  )
         5           O0  tau(   5) = (   0.2500000   1.0187087   2.2249100  )
         6           O0  tau(   6) = (   0.2500000   0.2873281   2.2250611  )
         7           O0  tau(   7) = (   0.0000000   0.6530184   2.5071041  )
         8           O0  tau(   8) = (   0.0000000   0.0000000   2.5966183  )
         9           Re1 tau(   9) = (   0.2500000   0.0000000   2.8989619  )
        10           Re1 tau(  10) = (   0.0000000   0.6530184   2.8608793  )
        11           O0  tau(  11) = (   0.2500000   0.9403465   2.8908013  )
        12           O0  tau(  12) = (   0.2500000   0.3656903   2.8907005  )
        13           O0  tau(  13) = (   0.0000000   0.0000000   3.1620138  )
        14           O0  tau(  14) = (   0.5000000   0.0000000   1.8688176  )
        15           O0  tau(  15) = (   0.5000000   0.6530184   1.9243296  )
        16           Re1 tau(  16) = (   0.7500000   0.6530184   2.2228951  )
        17           Re1 tau(  17) = (   0.5000000   0.0000000   2.2352367  )
        18           O0  tau(  18) = (   0.7500000   1.0187087   2.2249604  )
        19           O0  tau(  19) = (   0.7500000   0.2873281   2.2250611  )
        20           O0  tau(  20) = (   0.5000000   0.6530184   2.5071041  )
        21           O0  tau(  21) = (   0.5000000   0.0000000   2.5966183  )
        22           Re1 tau(  22) = (   0.7500000   0.0000000   2.8989619  )
        23           Re1 tau(  23) = (   0.5000000   0.6530184   2.8609296  )
        24           O0  tau(  24) = (   0.7500000   0.9403465   2.8908013  )
        25           O0  tau(  25) = (   0.7500000   0.3656903   2.8907005  )
        26           O0  tau(  26) = (   0.5000000   0.0000000   3.1620138  )
        27           H2  tau(  27) = (  -0.0003800   0.8172395   1.8403061  )
        28           H2  tau(  28) = (   0.4996200   0.8172395   1.8403061  )
        29           H2  tau(  29) = (   0.1698700   0.0284977   1.7974380  )
        30           H2  tau(  30) = (   0.6698800   0.0284977   1.7974380  )

     number of k points=    10  Methfessel-Paxton smearing, width (Ry)=  0.0100
                       cart. coord. in units 2pi/alat
        k(    1) = (   0.0000000   0.0000000   0.0000000), wk =   0.1250000
        k(    2) = (   0.0000000   0.1914188   0.0000000), wk =   0.2500000
        k(    3) = (   0.0000000  -0.3828376   0.0000000), wk =   0.1250000
        k(    4) = (   0.2500000   0.0000000   0.0000000), wk =   0.2500000
        k(    5) = (   0.2500000   0.1914188   0.0000000), wk =   0.2500000
        k(    6) = (   0.2500000  -0.3828376   0.0000000), wk =   0.2500000
        k(    7) = (  -0.5000000   0.0000000   0.0000000), wk =   0.1250000
        k(    8) = (  -0.5000000   0.1914188   0.0000000), wk =   0.2500000
        k(    9) = (  -0.5000000  -0.3828376   0.0000000), wk =   0.1250000
        k(   10) = (  -0.2500000   0.1914188   0.0000000), wk =   0.2500000

     Largest allocated arrays     est. size (Mb)     dimensions
     Largest temporary arrays     est. size (Mb)     dimensions

     Check: negative/imaginary core charge=   -0.000003    0.000000

     Initial potential from superposition of free atoms
     Check: negative starting charge=   -0.237311

     starting charge  227.99958, renormalised to  232.00000

     negative rho (up, down):  0.241E+00 0.000E+00
     Starting wfc are  180 randomized atomic wfcs

     Self-consistent Calculation

     iteration #  1     ecut=    40.00 Ry     beta=0.30
     Davidson diagonalization with overlap
     ethr =  1.00E-02,  avg # of iterations =  6.5

     negative rho (up, down):  0.258E+00 0.000E+00

     total energy              =   -2137.24960207 Ry
     Harris-Foulkes estimate   =   -2144.81565717 Ry
     estimated scf accuracy    <      15.76389386 Ry

[...]

     total energy              =   -2143.05082232 Ry
     Harris-Foulkes estimate   =   -2143.05082233 Ry
     estimated scf accuracy    <       0.00000106 Ry

     iteration # 18     ecut=    40.00 Ry     beta=0.30
     Davidson diagonalization with overlap
     ethr =  4.56E-10,  avg # of iterations =  1.0

     negative rho (up, down):  0.243E+00 0.000E+00

     End of self-consistent calculation

          k = 0.0000 0.0000 0.0000 ( 29221 PWs)   bands (ev):

   -81.4959 -81.4408 -81.2396 -81.1835 -81.0787 -81.0232 -80.9911 -80.9353
   -43.7076 -43.5184 -43.3998 -43.3921 -43.3339 -43.3047 -43.2618 -43.2559
   -43.2236 -43.1317 -43.1051 -43.0647 -42.9661 -42.9585 -42.9304 -42.9171
   -42.9051 -42.8832 -42.8458 -42.8393 -42.7680 -42.6280 -42.4597 -42.3833
   -21.1279 -20.5935 -20.5024 -20.4479 -20.1521 -19.7968 -19.7827 -19.5180
   -19.4748 -19.4740 -19.3612 -19.2912 -19.2603 -19.2133 -19.1777 -18.7391
   -18.2287 -17.8923  -9.4959  -9.3706  -9.2229  -8.7050  -8.6680  -8.2008
    -8.1713  -7.9286  -7.8845  -7.7385  -7.5652  -7.5426  -7.3068  -7.3056
    -7.2058  -7.1492  -6.9730  -6.8906  -6.7825  -6.7140  -6.4473  -6.1808
    -6.1235  -5.6239  -5.5594  -5.5205  -5.4129  -5.3400  -5.2698  -5.0784
    -5.0423  -4.9329  -4.7550  -4.7507  -4.7096  -4.6773  -4.4555  -4.4189
    -4.1614  -4.1073  -4.0666  -4.0430  -3.6528  -3.5249  -3.4471  -3.4166
    -3.2586  -3.2585  -3.2035  -3.1337  -3.0854  -3.0476  -2.9535  -2.7602
    -2.7416  -2.5926  -2.4132  -1.0495  -0.8307  -0.6334  -0.2201  -0.1998
    -0.0673   0.3645   0.5291   0.5922   0.6800   0.6936   1.0246   1.1239
     1.1649   1.1836   1.2738   1.7976   1.9136   2.6879   3.0635   3.2075
     3.3039   3.3072   3.4359   3.5297   3.7005   4.0478   4.2030   4.4824
     4.5960   4.6770   4.6889   4.7658   4.7950   4.9202   4.9484   5.0309
     5.1002   5.3048   5.3936   5.6120   6.0770   6.3346   6.5001   6.7425
     7.3494   7.5419   7.5474   7.6617   7.8170   7.9474   8.0432   8.1191
     8.1922   8.3177   8.4035   8.4842   8.4861   8.6860   8.8024   8.8569
     8.9440   9.0122   9.1382   9.2003   9.3338   9.5775   9.6143   9.7233
     9.7245   9.8202  10.0231  10.0231  10.1405  10.1737  10.1878  10.4247
    10.5099  10.6020  10.6630  10.7216  10.9580  10.9963  11.1598  11.2955
    11.3658  11.4039  11.4136  11.6862  11.8678  11.8822  12.0106  12.0454
    12.0635  12.1966  12.2676  12.2862  12.5704  12.7198  12.8201  12.8414
    12.9594  12.9604  12.9884  13.0366  13.0705  13.1778  13.1877  13.2048
    13.2196  13.3256  13.3514  13.4275  13.4537  13.5358  13.6165  13.8002
    13.8569  13.8647  13.9494  13.9842  14.0221  14.0334  14.0370  14.2352
    14.2530  14.2938  14.3135  14.5193  14.5319  14.8280  14.8314  14.9465
    14.9507  14.9967  15.0624  15.1386  15.2030  15.4178  15.4220  15.4878
    15.5509  15.6179  15.7150  15.8725  15.9136  15.9363  16.0252  16.0943
    16.2708  16.3602  16.4992  16.5345  16.6002  16.7582  16.7791  16.8557
    16.8620  16.9901  17.0091  17.1264  17.1727  17.2091  17.2174  17.3877
    17.4382  17.4829  17.5870  17.6375  17.8676  18.0024  18.0392  18.1197
    18.2598  18.3019  18.3184  18.4295  18.5412  18.5647  18.6368  18.8171
    18.8451  18.9555  19.0028  19.0175  19.0237  19.2319  19.2578  19.2731
    19.3725  19.4197  19.5082  19.6538  19.6605  19.8076  19.8500  20.0270
    20.0523  20.0869  20.1161  20.1406  20.3936  20.4588  20.5255  20.5593
    20.6803  20.7261  20.8711  20.8976  20.9568  20.9912  21.0397  21.0675
    21.2271  21.4587  21.5020  21.5299  21.6519  21.7153  21.7625  21.8506
    21.9327  22.0260  22.0422  22.0457  22.1671  22.1821  22.1954  22.2259
    22.2960  22.3585  22.3879  22.4480  22.4773  22.5139  22.5513  22.5829
    22.6428  22.6879  22.7186  22.7678

[...]

          k = 0.2500-0.3828 0.0000 ( 29202 PWs)   bands (ev):

[...]

          k =-0.5000 0.0000 0.0000 ( 29180 PWs)   bands (ev):

[...]

          k =-0.2500 0.1914 0.0000 ( 29229 PWs)   bands (ev):

   -81.4878 -81.4489 -81.2314 -81.1917 -81.0706 -81.0313 -80.9829 -80.9435
   -43.5867 -43.3950 -43.3799 -43.3774 -43.3171 -43.2776 -43.2113 -43.2083
   -43.1563 -43.1278 -43.0844 -43.0440 -42.9805 -42.9734 -42.9539 -42.9387
   -42.9188 -42.8948 -42.8877 -42.8582 -42.7887 -42.7643 -42.5938 -42.5182
   -20.9428 -20.5041 -20.3845 -20.1945 -20.0991 -19.9713 -19.7543 -19.7217
   -19.6911 -19.4483 -19.4269 -19.3698 -19.2968 -19.1232 -19.0911 -18.8331
   -18.2295 -18.0135  -9.0268  -8.7230  -8.6640  -8.6244  -8.3976  -8.3000
    -8.2632  -8.0339  -7.9050  -7.8357  -7.7186  -7.6115  -7.3762  -7.3003
    -7.2158  -6.9250  -6.7597  -6.6644  -6.5220  -6.4084  -6.4061  -6.0926
    -5.9318  -5.8963  -5.7239  -5.5970  -5.5539  -5.5220  -5.4786  -5.1192
    -5.0664  -5.0019  -4.8644  -4.8613  -4.7043  -4.6366  -4.6051  -4.5389
    -4.4202  -4.3401  -4.2505  -4.0341  -3.9660  -3.9019  -3.6999  -3.5720
    -3.5502  -3.3539  -3.2942  -3.1143  -3.0503  -2.8278  -2.7249  -2.5760
    -2.1166  -2.0007  -1.8322  -1.1318  -0.9326  -0.7770  -0.7348  -0.1929
    -0.0088   0.4602   0.4723   0.5797   0.8174   0.8317   0.9410   1.1554
     1.2399   1.2843   1.3357   1.5187   1.6846   1.6946   1.9237   2.0202
     2.2306   2.3789   3.5989   3.6361   3.7559   3.8490   3.9873   4.1290
     4.4127   4.5048   4.6155   4.6692   4.8374   4.8888   5.2357   5.4111
     5.7352   5.7849   6.0150   6.1124   6.2308   6.3799   6.5812   6.7293
     6.8900   6.9877   7.2119   7.2411   7.4511   7.7063   7.7603   8.0479
     8.1149   8.2746   8.3444   8.4566   8.5361   8.6238   8.7272   8.8863
     9.0725   9.3407   9.3899   9.3981   9.5892   9.6488   9.7074   9.7311
     9.7989   9.9193   9.9388  10.1076  10.1492  10.2383  10.3077  10.3509
    10.3639  10.6110  10.7051  10.8128  10.9170  11.0014  11.0316  11.1424
    11.3770  11.4201  11.4447  11.6408  11.7700  11.8481  11.9672  12.1105
    12.2830  12.3296  12.4872  12.5150  12.6048  12.6416  12.6655  12.7779
    12.8662  12.9739  12.9754  13.1835  13.2254  13.3417  13.4691  13.5350
    13.6101  13.6567  13.7761  13.8009  13.8713  13.8718  13.9631  14.0263
    14.0559  14.1908  14.2237  14.3003  14.4502  14.4812  14.5382  14.5537
    14.6503  14.7691  14.7840  14.8519  14.8747  14.9338  14.9862  14.9998
    15.1038  15.1963  15.2605  15.3986  15.4840  15.5515  15.6215  15.7327
    15.8415  15.9407  16.0673  16.0879  16.1578  16.2167  16.2677  16.4028
    16.5328  16.5422  16.5892  16.6666  16.7574  16.8059  16.8551  16.9927
    17.1179  17.1333  17.1889  17.2770  17.3637  17.4334  17.5546  17.6698
    17.6842  17.7089  17.7268  17.8772  17.9537  18.0145  18.0505  18.1916
    18.2167  18.2589  18.2979  18.3563  18.4530  18.5127  18.6143  18.6557
    18.7576  18.8529  18.8797  18.9757  19.0326  19.0590  19.1182  19.2815
    19.4166  19.4873  19.5596  19.6328  19.7367  19.8476  19.9347  19.9845
    20.0125  20.0684  20.1961  20.2058  20.4094  20.4415  20.5554  20.5622
    20.5821  20.6984  20.7318  20.7950  20.8291  20.9172  20.9562  21.0723
    21.1479  21.1790  21.2778  21.3083  21.3496  21.4571  21.4813  21.4976
    21.5908  21.6275  21.7502  21.8222  21.9115  21.9170  22.0749  22.0887
    22.1476  22.2451  22.2592  22.3575  22.3756  22.4021  22.4418  22.5141
    22.5381  22.6343  22.6399  22.6910

     the Fermi energy is     0.5721 ev

!    total energy              =   -2143.05082230 Ry
     Harris-Foulkes estimate   =   -2143.05082240 Ry
     estimated scf accuracy    <       0.00000025 Ry

     The total energy is the sum of the following terms:

     one-electron contribution =  -23474.20159549 Ry
     hartree contribution      =   11751.30763028 Ry
     xc contribution           =    -587.09952205 Ry
     ewald contribution        =   10166.94488344 Ry
     smearing contrib. (-TS)   =      -0.00221849 Ry

     convergence has been achieved in  18 iterations

     Forces acting on atoms (Ry/au):

     negative rho (up, down):  0.243E+00 0.000E+00
     atom    1 type  1   force =    -0.00435865   -0.00750776   -0.00070600
     atom    2 type  1   force =     0.00002820    0.00777759    0.00019498
     atom    3 type  2   force =    -0.00005942   -0.00540526   -0.00032026
     atom    4 type  2   force =     0.00169797    0.00896968   -0.00013000
     atom    5 type  1   force =     0.00193099    0.01679520    0.00011291
     atom    6 type  1   force =     0.00017892   -0.01878439    0.00014133
     atom    7 type  1   force =    -0.00019139   -0.00009458   -0.00069750
     atom    8 type  1   force =     0.00280236   -0.00118646    0.00003595
     atom    9 type  2   force =    -0.00159822    0.00087566    0.00023704
     atom   10 type  2   force =    -0.00001969   -0.00001299    0.00088582
     atom   11 type  1   force =     0.00005662   -0.02027956    0.00017496
     atom   12 type  1   force =    -0.00009190    0.01881314    0.00017443
     atom   13 type  1   force =    -0.00048454    0.00051605   -0.00052179
     atom   14 type  1   force =    -0.00427459   -0.00749731   -0.00074598
     atom   15 type  1   force =     0.00002059    0.00776576    0.00020302
     atom   16 type  2   force =    -0.00007305   -0.00540129   -0.00030880
     atom   17 type  2   force =     0.00173016    0.00897045   -0.00014034
     atom   18 type  1   force =     0.00195617    0.01679823    0.00004951
     atom   19 type  1   force =     0.00020094   -0.01879277    0.00013611
     atom   20 type  1   force =    -0.00022505   -0.00009351   -0.00053676
     atom   21 type  1   force =     0.00274274   -0.00118814    0.00003771
     atom   22 type  2   force =    -0.00155547    0.00087120    0.00019389
     atom   23 type  2   force =     0.00000115   -0.00001418    0.00059463
     atom   24 type  1   force =     0.00006047   -0.02031204    0.00018055
     atom   25 type  1   force =    -0.00008828    0.01884699    0.00017866
     atom   26 type  1   force =    -0.00054589    0.00051843   -0.00051138
     atom   27 type  3   force =     0.00002163   -0.00063575    0.00003019
     atom   28 type  3   force =     0.00001918   -0.00063473    0.00003041
     atom   29 type  3   force =     0.00009212    0.00016619    0.00049791
     atom   30 type  3   force =     0.00002593    0.00015614    0.00052879

     Total force =     0.002343     Total SCF correction =     0.000680
     SCF correction compared to forces is large: reduce conv_thr to get better values

     BFGS Geometry Optimization

     bfgs converged in   1 scf cycles and   0 bfgs steps
     (criteria: energy < 0.10E-03, force < 0.10E-02)

     End of BFGS Geometry Optimization

     Final energy   =   -2143.0508223034 Ry
Begin final coordinates

ATOMIC_POSITIONS (crystal)
O0       0.000000000   0.000000000   0.370990000    0   0   1
O0       0.000000000   0.500000000   0.382010000    0   0   1
Re1      0.250000000   0.500000000   0.441280000    0   0   1
Re1      0.000000000   0.000000000   0.443730000    0   0   1
O0       0.250000000   0.780000000   0.441680000    0   0   1
O0       0.250000000   0.220000000   0.441710000    0   0   1
O0       0.000000000   0.500000000   0.497700000    0   0   1
O0       0.000000000   0.000000000   0.515470000    0   0   1
Re1      0.250000000   0.000000000   0.575490000    0   0   1
Re1      0.000000000   0.500000000   0.567930000    0   0   1
O0       0.250000000   0.720000000   0.573870000    0   0   1
O0       0.250000000   0.280000000   0.573850000    0   0   1
O0       0.000000000   0.000000000   0.627710000    0   0   1
O0       0.500000000   0.000000000   0.370990000    0   0   1
O0       0.500000000   0.500000000   0.382010000    0   0   1
Re1      0.750000000   0.500000000   0.441280000    0   0   1
Re1      0.500000000   0.000000000   0.443730000    0   0   1
O0       0.750000000   0.780000000   0.441690000    0   0   1
O0       0.750000000   0.220000000   0.441710000    0   0   1
O0       0.500000000   0.500000000   0.497700000    0   0   1
O0       0.500000000   0.000000000   0.515470000    0   0   1
Re1      0.750000000   0.000000000   0.575490000    0   0   1
Re1      0.500000000   0.500000000   0.567940000    0   0   1
O0       0.750000000   0.720000000   0.573870000    0   0   1
O0       0.750000000   0.280000000   0.573850000    0   0   1
O0       0.500000000   0.000000000   0.627710000    0   0   1
H2      -0.000380000   0.625740000   0.365330000
H2       0.499620000   0.625740000   0.365330000
H2       0.169870000   0.021820000   0.356820000
H2       0.669880000   0.021820000   0.356820000
End final coordinates

     General routines

     Parallel routines

   This run was terminated on:  21:12:39  27Feb2014

   JOB DONE.
Running PBS batch system epilogue script
Job id: 278712.audhumbla.fysik.dtu.dk
Username: zhonxu
Groupname: campgst
Jobname: ReO2/bare
Sessionid: 26128
Queuename: verylong
Accounting:
This job has allocated the following 16 nodes:
c010 c010 c010 c010 c010 c010 c010 c010 c005 c005 c005 c005 c005 c005 c005 c005
Finished epilogue job 278712.audhumbla.fysik.dtu.dk for zhonxu