     Program PWSCF v.5.0.2 (svn rev. 9656) starts on 28Mar2014 at  6: 2:51

     Current dimensions of program PWSCF are:
     Max number of different atomic species (ntypx) = 10
     Max number of k-points (npk) =  40000
     Max angular momentum in pseudopotentials (lmaxx) =  3
     Reading input from pwscf.in
Warning: card &CELL ignored
Warning: card / ignored

     Subspace diagonalization in iterative solution of the eigenvalue problem:
     a serial algorithm will be used

     bravais-lattice index     =            0
     lattice parameter (alat)  =      12.0187  a.u.
     unit-cell volume          =    9939.8055 (a.u.)^3
     number of atoms/cell      =           50
     number of atomic types    =            3
     number of electrons       =       439.00
     number of Kohn-Sham states=          658
     kinetic-energy cutoff     =      40.0000  Ry
     charge density cutoff     =     500.0000  Ry
     convergence threshold     =      1.0E-06
     mixing beta               =       0.3000
     number of iterations used =            8  plain     mixing
     Exchange-correlation      = SLA  PW   PBE  PBE ( 1 4 3 4 0)
     EXX-fraction              =        0.00
     nstep                     =           50

     celldm(1)=  12.018658  celldm(2)=   0.000000  celldm(3)=   0.000000
     celldm(4)=   0.000000  celldm(5)=   0.000000  celldm(6)=   0.000000

     crystal axes: (cart. coord. in units of alat)
               a(1) = (   1.000000   0.000000   0.000000 )
               a(2) = (   0.000000   1.009517   0.000000 )
               a(3) = (   0.000000   0.000000   5.671477 )

     reciprocal axes: (cart. coord. in units 2 pi/alat)
               b(1) = (  1.000000  0.000000  0.000000 )
               b(2) = (  0.000000  0.990572  0.000000 )
               b(3) = (  0.000000  0.000000  0.176321 )

     PseudoPot. # 1 for O  read from file:
     /home/camp/zhonxu/pseudo/o_pbe_v1.01.uspp.F.UPF
     MD5 check sum: 2bcb18d16ea4b960afae9ec6d52f22d2
     Pseudo is Ultrasoft + core correction, Zval =  6.0
     Generated by new atomic code, or converted to UPF format
     Using radial grid of  737 points,  5 beta functions with:
                l(1) =   0
                l(2) =   0
                l(3) =   1
                l(4) =   1
                l(5) =   2
     Q(r) pseudized with  8 coefficients,  rinner =    0.900   0.900   0.900
                                                       0.900   0.900

     PseudoPot. # 2 for Ir read from file:
     /home/camp/zhonxu/pseudo/ir_pbe_v1.uspp.F.UPF
     MD5 check sum: abf987a9674477536ede83817f8f8b70
     Pseudo is Ultrasoft + core correction, Zval = 15.0
     Generated by new atomic code, or converted to UPF format
     Using radial grid of  983 points,  7 beta functions with:
                l(1) =   0
                l(2) =   0
                l(3) =   1
                l(4) =   1
                l(5) =   1
                l(6) =   2
                l(7) =   2
     Q(r) pseudized with  8 coefficients,  rinner =    1.350   1.350   1.350
                                                       1.350   1.350

     PseudoPot. # 3 for H  read from file:
     /home/camp/zhonxu/pseudo/h_pbe_v1.uspp.F.UPF
     MD5 check sum: 3408e3ff4ec8b0a4e358431e7e038a48
     Pseudo is Ultrasoft, Zval =  1.0
     Generated by new atomic code, or converted to UPF format
     Using radial grid of  615 points,  2 beta functions with:
                l(1) =   0
                l(2) =   0
     Q(r) pseudized with  8 coefficients,  rinner =    0.700

     atomic species   valence    mass     pseudopotential
        O0             6.00    15.99940     O ( 1.00)
        Ir1           15.00   192.22000     Ir( 1.00)
        H2             1.00     1.00794     H ( 1.00)

      2 Sym. Ops. (no inversion) found

   Cartesian axes

     site n.     atom                  positions (alat units)
         1           O0  tau(   1) = (   0.0000000   0.5047586   1.8867871  )
         2           Ir1 tau(   2) = (   0.2500000   0.5047586   2.0785964  )
         3           Ir1 tau(   3) = (   0.0000000   0.0000000   2.0785964  )
         4           O0  tau(   4) = (   0.2500000   0.8177090   2.0785964  )
         5           O0  tau(   5) = (   0.2500000   0.1918083   2.0785964  )
         6           O0  tau(   6) = (   0.0000000   0.5047586   2.2704058  )
         7           O0  tau(   7) = (   0.0000000   0.0000000   2.3915485  )
         8           Ir1 tau(   8) = (   0.2500000   0.0000000   2.5833579  )
         9           Ir1 tau(   9) = (   0.0000000   0.5047586   2.5833579  )
        10           O0  tau(  10) = (   0.2500000   0.6965669   2.5833579  )
        11           O0  tau(  11) = (   0.2500000   0.3129503   2.5833579  )
        12           O0  tau(  12) = (   0.0000000   0.0000000   2.7751673  )
        13           O0  tau(  13) = (   0.0000000   0.5047586   2.8930773  )
        14           Ir1 tau(  14) = (   0.2500000   0.5047586   3.0864747  )
        15           Ir1 tau(  15) = (   0.0000000   0.0000000   3.0901611  )
        16           O0  tau(  16) = (   0.2500000   0.8161846   3.0894805  )
        17           O0  tau(  17) = (   0.2500000   0.1933326   3.0894805  )
        18           O0  tau(  18) = (   0.0000000   0.5047586   3.2780572  )
        19           O0  tau(  19) = (   0.0000000   0.0000000   3.4018655  )
        20           Ir1 tau(  20) = (   0.2500000   0.0000000   3.5996299  )
        21           Ir1 tau(  21) = (   0.0000000   0.5047586   3.5839199  )
        22           O0  tau(  22) = (   0.2500000   0.6968899   3.6045641  )
        23           O0  tau(  23) = (   0.2500000   0.3126273   3.6045641  )
        24           O0  tau(  24) = (   0.0000000   0.0000000   3.7852574  )
        25           O0  tau(  25) = (   0.5000000   0.5047586   1.8867871  )
        26           Ir1 tau(  26) = (   0.7500000   0.5047586   2.0785964  )
        27           Ir1 tau(  27) = (   0.5000000   0.0000000   2.0785964  )
        28           O0  tau(  28) = (   0.7500000   0.8177090   2.0785964  )
        29           O0  tau(  29) = (   0.7500000   0.1918083   2.0785964  )
        30           O0  tau(  30) = (   0.5000000   0.5047586   2.2704058  )
        31           O0  tau(  31) = (   0.5000000   0.0000000   2.3915485  )
        32           Ir1 tau(  32) = (   0.7500000   0.0000000   2.5833579  )
        33           Ir1 tau(  33) = (   0.5000000   0.5047586   2.5833579  )
        34           O0  tau(  34) = (   0.7500000   0.6965669   2.5833579  )
        35           O0  tau(  35) = (   0.7500000   0.3129503   2.5833579  )
        36           O0  tau(  36) = (   0.5000000   0.0000000   2.7751673  )
        37           O0  tau(  37) = (   0.5000000   0.5047586   2.8930773  )
        38           Ir1 tau(  38) = (   0.7500000   0.5047586   3.0864747  )
        39           Ir1 tau(  39) = (   0.5000000   0.0000000   3.0901611  )
        40           O0  tau(  40) = (   0.7500000   0.8161846   3.0894805  )
        41           O0  tau(  41) = (   0.7500000   0.1933326   3.0894805  )
        42           O0  tau(  42) = (   0.5000000   0.5047586   3.2780572  )
        43           O0  tau(  43) = (   0.5000000   0.0000000   3.4018655  )
        44           Ir1 tau(  44) = (   0.7500000   0.0000000   3.5996299  )
        45           Ir1 tau(  45) = (   0.5000000   0.5047586   3.5839199  )
        46           O0  tau(  46) = (   0.7500000   0.6968899   3.6045641  )
        47           O0  tau(  47) = (   0.7500000   0.3126273   3.6045641  )
        48           O0  tau(  48) = (   0.5000000   0.0000000   3.7852574  )
        49           O0  tau(  49) = (   0.5000000   0.5047586   3.7915527  )
        50           H2  tau(  50) = (   0.3663500   0.5047586   3.8465660  )

     number of k points=     9  Methfessel-Paxton smearing, width (Ry)=  0.0100
                       cart. coord. in units 2pi/alat
        k(    1) = (   0.0000000   0.0000000   0.0000000), wk =   0.1250000
        k(    2) = (   0.0000000   0.2476431   0.0000000), wk =   0.2500000
        k(    3) = (   0.0000000  -0.4952862   0.0000000), wk =   0.1250000
        k(    4) = (   0.2500000   0.0000000   0.0000000), wk =   0.2500000
        k(    5) = (   0.2500000   0.2476431   0.0000000), wk =   0.5000000
        k(    6) = (   0.2500000  -0.4952862   0.0000000), wk =   0.2500000
        k(    7) = (  -0.5000000   0.0000000   0.0000000), wk =   0.1250000
        k(    8) = (  -0.5000000   0.2476431   0.0000000), wk =   0.2500000
        k(    9) = (  -0.5000000  -0.4952862   0.0000000), wk =   0.1250000

     Largest allocated arrays     est. size (Mb)     dimensions
     Largest temporary arrays     est. size (Mb)     dimensions

     Check: negative/imaginary core charge=   -0.000003    0.000000

     Initial potential from superposition of free atoms
     Check: negative starting charge=   -6.663915

     starting charge  430.99944, renormalised to  439.00000

     negative rho (up, down):  0.679E+01 0.000E+00
     Starting wfc are  325 randomized atomic wfcs

     Self-consistent Calculation

     iteration #  1     ecut=    40.00 Ry     beta=0.30
     Davidson diagonalization with overlap
     ethr =  1.00E-02,  avg # of iterations =  8.1

     negative rho (up, down):  0.638E+01 0.000E+00

     total energy              =   -3967.54481663 Ry
     Harris-Foulkes estimate   =   -4052.63933952 Ry
     estimated scf accuracy    <     171.57555500 Ry

[...]

     End of self-consistent calculation

          k = 0.0000 0.0000 0.0000 ( 42445 PWs)   bands (ev):

   -54.1161 -50.9699 -50.5642 -49.1982 -49.1701 -49.1594 -49.1422 -49.1346
   -49.1344 -49.1273 -49.1244 -49.1224 -49.1138 -49.1014 -49.0960 -49.0949
   -49.0845 -49.0841 -49.0733 -49.0667 -49.0478 -49.0319 -48.9838 -48.9797
   -48.9646 -48.9512 -48.9505 -48.9144 -48.8963 -48.8718 -48.8632 -48.8608
   -48.8536 -48.8506 -48.8464 -48.8368 -48.7673 -48.7671 -48.7606 -48.7587
   -48.7008 -48.6626 -48.6481 -48.6200 -48.5529 -48.5019 -48.4869 -48.4399
   -23.6603 -19.6919 -19.4876 -19.3279 -19.1585 -19.0226 -18.7740 -18.5494
   -18.4963 -18.4752 -18.3757 -18.3522 -18.3352 -18.3218 -18.3122 -18.2942
   -18.2803 -18.2266 -18.1882 -18.1393 -18.1106 -17.9319 -17.8756 -17.8604
   -17.8207 -17.8006 -17.6857 -17.6315 -17.5863 -16.6024 -16.5175 -16.3570
   -16.3172 -13.1329 -10.7807  -9.8570  -8.3959  -8.2607  -8.2385  -8.1728
    -7.8482  -7.6933  -7.0386  -7.0263  -7.0148  -6.7065  -6.6883  -6.6799
    -6.6703  -6.6687  -6.6673  -6.6590  -6.5878  -6.5775  -6.5426  -6.5100
    -6.5034  -6.4920  -6.4388  -6.3555  -6.2974  -6.1953  -6.1583  -6.1340
    -6.0940  -5.9983  -5.9420  -5.9198  -5.9156  -5.8203  -5.7402  -5.6381
    -5.5434  -5.2636  -5.2099  -4.8964  -4.8344  -4.5938  -4.4835  -4.3833
    -4.3548  -4.2967  -4.2645  -4.2527  -4.1696  -4.1169  -3.9658  -3.9410
    -3.9391  -3.8017  -3.7764  -3.7671  -3.6855  -3.6595  -3.6574  -3.5796
    -3.4780  -3.3282  -3.3155  -3.2904  -3.2791  -3.1793  -3.1147  -3.0914
    -3.0628  -3.0088  -2.9928  -2.9628  -2.9305  -2.8607  -2.8146  -2.7702
    -2.6588  -2.6279  -2.4855  -2.3289  -2.2954  -2.2199  -2.1632  -2.1157
[...]
O0       0.250000000   0.309680000   0.635560000    0   0   0
O0       0.000000000   0.000000000   0.667420000    0   0   0
O0       0.500000000   0.500000000   0.332680000    0   0   0
Ir1      0.750000000   0.500000000   0.366500000    0   0   0
Ir1      0.500000000   0.000000000   0.366500000    0   0   0
O0       0.750000000   0.810000000   0.366500000    0   0   0
O0       0.750000000   0.190000000   0.366500000    0   0   0
O0       0.500000000   0.500000000   0.400320000    0   0   0
O0       0.500000000   0.000000000   0.421680000    0   0   0
Ir1      0.750000000   0.000000000   0.455500000    0   0   0
Ir1      0.500000000   0.500000000   0.455500000    0   0   0
O0       0.750000000   0.690000000   0.455500000    0   0   0
O0       0.750000000   0.310000000   0.455500000    0   0   0
O0       0.500000000   0.000000000   0.489320000    0   0   0
O0       0.500000000   0.500000000   0.510110000    0   0   0
Ir1      0.750000000   0.500000000   0.544210000    0   0   0
Ir1      0.500000000   0.000000000   0.544860000    0   0   0
O0       0.750000000   0.808490000   0.544740000    0   0   0
O0       0.750000000   0.191510000   0.544740000    0   0   0
O0       0.500000000   0.500000000   0.577990000    0   0   0
O0       0.500000000   0.000000000   0.599820000    0   0   0
Ir1      0.750000000   0.000000000   0.634690000    0   0   0
Ir1      0.500000000   0.500000000   0.631920000    0   0   0
O0       0.750000000   0.690320000   0.635560000    0   0   0
O0       0.750000000   0.309680000   0.635560000    0   0   0
O0       0.500000000   0.000000000   0.667420000    0   0   0
O0       0.514905761   0.500000000   0.685646274
H2       0.373486179   0.500000000   0.696703789

     Check: negative starting charge=   -6.666965
     NEW-OLD atomic charge density approx. for the potential

     Check: negative/imaginary core charge=   -0.000003    0.000000
     Check: negative starting charge=   -6.666965

[...]

     Self-consistent Calculation

[...]

     Threshold (ethr) on eigenvalues was too large:
     Diagonalizing with lowered threshold

     Davidson diagonalization with overlap
     ethr =  5.84E-09,  avg # of iterations =  1.0

[...]

     total energy              =   -4043.09308682 Ry
     Harris-Foulkes estimate   =   -4043.09308682 Ry
     estimated scf accuracy    <       0.00000001 Ry

     iteration # 17     ecut=    40.00 Ry     beta=0.30
     Davidson diagonalization with overlap
     ethr =  2.53E-12,  avg # of iterations =  1.0

     negative rho (up, down):  0.625E+01 0.000E+00

     End of self-consistent calculation

[...]

          k = 0.2500-0.4953 0.0000 ( 42460 PWs)   bands (ev):

[...]

          k =-0.5000-0.4953 0.0000 ( 42596 PWs)   bands (ev):

   -49.5283 -49.4790 -49.4789 -49.4771 -49.4751 -49.4640 -49.4514 -49.4510
   -49.4505 -49.4497 -49.4495 -49.4462 -49.4407 -49.4379 -49.4343 -49.4314
   -49.4240 -49.4217 -49.4122 -49.4043 -49.4036 -49.4023 -49.3263 -49.2927
   -49.2926 -49.2622 -49.2613 -49.2605 -49.2553 -49.2269 -49.2220 -49.2217
   -49.1980 -49.1931 -49.1796 -49.1445 -49.1309 -49.1228 -49.1193 -49.0781
   -49.0709 -49.0069 -48.9895 -48.9772 -48.9769 -48.8141 -48.8086 -48.8004
   -19.2961 -19.2890 -19.2091 -19.2042 -18.9707 -18.9581 -18.9014 -18.8975
   -18.7214 -18.7003 -18.6978 -18.6666 -18.6371 -18.6297 -18.6099 -18.5739
   -18.5585 -18.5417 -18.5123 -18.5054 -18.4735 -18.4649 -18.4153 -18.4041
   -18.2660 -18.2564 -18.1871 -18.1764 -17.8649 -16.9054 -16.8975 -16.7473
   -16.7355  -7.7156  -7.6723  -7.5483  -7.5479  -7.0911  -7.0003  -6.9237
    -6.9194  -6.9126  -6.9096  -6.8860  -6.8784  -6.7947  -6.7821  -6.7811
    -6.7254  -6.5800  -6.5406  -6.5061  -6.5050  -6.4869  -6.4862  -6.4549
    -6.4541  -6.4046  -6.3770  -6.3769  -6.3591  -6.3244  -6.3190  -6.3103
    -6.2941  -6.2643  -6.1147  -6.1146  -6.1116  -6.0579  -6.0311  -5.9801
    -5.9769  -5.6191  -5.3919  -5.3302  -5.3160  -5.3017  -5.0564  -5.0425
    -5.0318  -4.9692  -4.8604  -4.8388  -4.8143  -4.7726  -4.7504  -4.6902
    -4.6789  -4.6381  -4.6027  -4.5929  -4.5818  -4.4348  -4.3961  -4.3805
    -4.3274  -4.3111  -4.1622  -4.1450  -4.1305  -4.1228  -4.1008  -4.0702
    -4.0465  -3.8740  -3.6752  -3.6087  -3.6004  -3.5892  -2.9677  -2.9459
    -2.9141  -2.8987  -2.7188  -2.6852  -2.6644  -2.6612  -2.4398  -2.3905
    -2.3880  -2.3792  -2.3454  -2.2186  -2.2061  -2.1466  -2.1018  -2.0506
    -1.9099  -1.8753  -1.7072  -1.3253  -1.1497  -1.1251  -1.1060  -1.0465
    -0.8128  -0.8102  -0.8048  -0.7136  -0.7092  -0.7076  -0.6909  -0.4601
    -0.4481  -0.4256  -0.4229  -0.3889  -0.1986  -0.0703  -0.0679  -0.0609
    -0.0286  -0.0006   0.0513   0.0534   0.3383   0.3436   0.3711   0.3842
     0.4660   0.4975   0.5137   0.5460   0.5491   0.5534   0.6305   0.7201
     0.7346   0.7674   0.7926   0.8480   0.8505   0.9119   0.9190   0.9471
     0.9532   0.9850   1.0489   1.1079   1.6279   1.6353   1.9504   2.7895
     2.7960   2.8198   2.8306   2.8467   3.0229   3.0247   3.0281   3.1880
     3.2290   3.2304   3.2710   3.8540   4.0223   4.0286   4.0482   4.2822
     4.3565   4.3763   4.4075   4.7503   4.8834   4.8984   4.9316   5.0930
     5.2031   5.2270   5.2363   5.2386   6.6366   6.6372   6.6551   7.6651
     8.0245   8.0263   8.1081   8.2522   8.2540   8.2960   8.3019   8.3333
     8.4335   8.4759   8.4927   8.5165   8.5340   8.5508   8.6038   8.6438
     8.9308   8.9589   9.0339   9.0415   9.1072   9.1273   9.1293   9.1830
     9.5938   9.6079   9.6349   9.7152   9.8355   9.8618   9.9290   9.9383
    10.3394  10.3705  10.4057  10.4497  10.4498  10.4544  10.4550  10.4554
    10.4711  10.4888  10.4970  10.4988  10.5165  10.5948  10.6093  10.6247
    10.6251  10.6620  10.6735  10.7601  10.7714  10.7745  10.7767  10.7907
    11.1570  11.1671  11.2332  11.3440  11.4858  11.5408  11.5588  11.6396
    11.7967  11.8046  11.8096  11.8202  11.8831  11.9477  11.9650  12.0539
    12.1341  12.1687  12.1997  12.2240  12.4945  12.5168  12.5991  12.7386
    12.8173  12.8621  12.8975  12.9059  13.2716  13.2949  13.3834  13.4625
    13.5644  13.6955  13.7062  13.7354  13.8829  13.9260  13.9411  14.1226
    14.1332  14.1532  14.1555  14.3223  14.3329  14.4230  14.4851  14.5228
    14.5796  14.6189  14.6386  14.6650  14.6724  14.6868  14.8758  15.0221
    15.0567  15.1050  15.1078  15.1873  15.2012  15.2438  15.2622  15.3721
    15.3858  15.3953  15.5115  15.5325  15.5762  15.5848  15.5956  15.6344
    15.6801  15.6850  15.6874  15.7092  15.7745  15.7835  15.8159  15.8159
    15.8596  15.8943  15.8947  15.9289  15.9455  15.9472  15.9504  15.9766
    16.0071  16.0345  16.0581  16.0903  16.1049  16.1210  16.1498  16.2011
    16.2902  16.3337  16.3470  16.3795  16.4652  16.5130  16.5229  16.5688
    16.6308  16.6435  16.6739  16.7447  16.7937  16.8124  16.8507  16.8603
    16.8750  16.8887  16.9396  16.9631  17.1775  17.1889  17.2442  17.2681
    17.3368  17.4392  17.4566  17.5011  17.5056  17.5614  17.5660  17.5894
    17.6258  17.7893  17.8584  17.8594  17.8706  17.8936  17.9068  17.9216
    17.9622  17.9907  18.0227  18.0285  18.0356  18.0702  18.1150  18.1818
    18.4139  18.4889  18.5005  18.5350  18.6201  18.6754  18.6772  18.7271
    18.7559  18.8597  18.9184  18.9280  18.9457  19.0660  19.0926  19.1000
[...]
    22.9938  23.0228  23.0518  23.0664  23.0729  23.1268  23.1375  23.1406
    23.2657  23.2867  23.3036  23.3121  23.3239  23.3285  23.3756  23.4134
    23.4266  23.4386  23.4887  23.5013  23.5781  23.5948  23.5970  23.6241
    23.8192  23.8710  23.8862  23.8986  23.9459  24.0218  24.0355  24.0604
    24.0838  24.0961  24.1156  24.1429  24.1781  24.1907  24.2408  24.2452
    24.2688  24.3153  24.3453  24.3676  24.3768  24.3950  24.3976  24.5252
    24.5499  24.6343  24.7042  24.7736  24.8381  24.8447  24.8628  24.9020
    24.9974  25.0441  25.0583  25.1673  25.2106  25.2938  25.3223  25.3902
    25.4379  25.5101  25.5394  25.5898  25.6074  25.6321  25.6548  25.6993
    25.7336  25.7637  25.7669  25.8009  25.8363  25.8515  25.8855  25.9146
    26.0063  26.0659  26.1084  26.1185  26.2202  26.3123  26.3322  26.3813
    26.4212  26.4293  26.4781  26.5827  26.6268  26.6427  26.6640  26.6696
    26.7466  26.8075  26.8400  26.8501  26.9050  26.9707  27.0241  27.0664
    27.0674  27.0868  27.1407  27.2137  27.2506  27.2659  27.3346  27.3845
    27.4458  27.4901

     the Fermi energy is     0.9320 ev

!    total energy              =   -4043.09308682 Ry
     Harris-Foulkes estimate   =   -4043.09308682 Ry
     estimated scf accuracy    <          4.1E-09 Ry

     The total energy is the sum of the following terms:

     one-electron contribution =  -78675.85527521 Ry
     hartree contribution      =   39437.30339678 Ry
     xc contribution           =   -1112.18419662 Ry
     ewald contribution        =   36307.64303390 Ry
     smearing contrib. (-TS)   =      -0.00004568 Ry

     convergence has been achieved in  17 iterations

     Forces acting on atoms (Ry/au):

     negative rho (up, down):  0.625E+01 0.000E+00
     atom    1 type  1   force =    -0.00000840    0.00000000    0.02530007
     atom    2 type  2   force =    -0.00000300    0.00000000   -0.03722825
     atom    3 type  2   force =    -0.00000529    0.00000000    0.06785099
     atom    4 type  1   force =     0.00003445   -0.01256847   -0.02625487
     atom    5 type  1   force =     0.00003445    0.01256847   -0.02625487
     atom    6 type  1   force =    -0.00003975    0.00000000    0.01799210
     atom    7 type  1   force =    -0.00000343    0.00000000   -0.01602458
     atom    8 type  2   force =     0.00027168    0.00000000   -0.01164869
     atom    9 type  2   force =     0.00012362    0.00000000   -0.02133146
     atom   10 type  1   force =    -0.00012223    0.01163606   -0.00201614
     atom   11 type  1   force =    -0.00012223   -0.01163606   -0.00201614
     atom   12 type  1   force =     0.00002480    0.00000000    0.02849682
     atom   13 type  1   force =     0.00051705    0.00000000    0.01329823
     atom   14 type  2   force =     0.01837812    0.00000000   -0.00465969
     atom   15 type  2   force =    -0.00010950    0.00000000   -0.00007452
     atom   16 type  1   force =    -0.00083848    0.00067698   -0.00092007
     atom   17 type  1   force =    -0.00083848   -0.00067698   -0.00092007
     atom   18 type  1   force =     0.00114816    0.00000000    0.00126329
     atom   19 type  1   force =    -0.00003846    0.00000000    0.00149998
     atom   20 type  2   force =     0.00866308    0.00000000    0.00514623
     atom   21 type  2   force =    -0.00961640    0.00000000    0.00668401
     atom   22 type  1   force =    -0.01040273    0.00499266   -0.01927386
     atom   23 type  1   force =    -0.01040273   -0.00499266   -0.01927386
     atom   24 type  1   force =     0.00070471    0.00000000    0.00019875
     atom   25 type  1   force =     0.00000799    0.00000000    0.02595813
     atom   26 type  2   force =    -0.00000098    0.00000000   -0.03720841
     atom   27 type  2   force =    -0.00000293    0.00000000    0.06788575
     atom   28 type  1   force =    -0.00002722   -0.01257353   -0.02625392
     atom   29 type  1   force =    -0.00002722    0.01257353   -0.02625392
     atom   30 type  1   force =     0.00001354    0.00000000    0.02008577
     atom   31 type  1   force =     0.00000966    0.00000000   -0.01796216
     atom   32 type  2   force =    -0.00033188    0.00000000   -0.01163115
     atom   33 type  2   force =    -0.00003334    0.00000000   -0.01766112
     atom   34 type  1   force =     0.00012995    0.01161731   -0.00199365
     atom   35 type  1   force =     0.00012995   -0.01161731   -0.00199365
     atom   36 type  1   force =     0.00002106    0.00000000    0.02649006
     atom   37 type  1   force =     0.00015300    0.00000000   -0.00184664
     atom   38 type  2   force =    -0.01936917    0.00000000   -0.00433281
     atom   39 type  2   force =     0.00011090    0.00000000   -0.00068094
     atom   40 type  1   force =     0.00080736    0.00060918   -0.00086498
     atom   41 type  1   force =     0.00080736   -0.00060918   -0.00086498
     atom   42 type  1   force =     0.00032050    0.00000000   -0.01566726
     atom   43 type  1   force =    -0.00009558    0.00000000   -0.00026296
     atom   44 type  2   force =    -0.00899111    0.00000000    0.00789157
     atom   45 type  2   force =     0.00246025    0.00000000    0.09446744
     atom   46 type  1   force =     0.01360919    0.00768365   -0.02471957
     atom   47 type  1   force =     0.01360919   -0.00768365   -0.02471957
     atom   48 type  1   force =    -0.00055780    0.00000000   -0.00758409
     atom   49 type  1   force =    -0.00025548    0.00000000   -0.00012479
     atom   50 type  3   force =     0.00015378    0.00000000    0.00001447

     Total force =     0.000324     Total SCF correction =     0.000027

     bfgs converged in  19 scf cycles and  18 bfgs steps
     (criteria: energy < 0.10E-03, force < 0.10E-02)

     End of BFGS Geometry Optimization

     Final energy   =   -4043.0930868176 Ry
Begin final coordinates

ATOMIC_POSITIONS (crystal)
O0       0.000000000   0.500000000   0.332680000    0   0   0
Ir1      0.250000000   0.500000000   0.366500000    0   0   0
Ir1      0.000000000   0.000000000   0.366500000    0   0   0
O0       0.250000000   0.810000000   0.366500000    0   0   0
O0       0.250000000   0.190000000   0.366500000    0   0   0
O0       0.000000000   0.500000000   0.400320000    0   0   0
O0       0.000000000   0.000000000   0.421680000    0   0   0
Ir1      0.250000000   0.000000000   0.455500000    0   0   0
Ir1      0.000000000   0.500000000   0.455500000    0   0   0
O0       0.250000000   0.690000000   0.455500000    0   0   0
O0       0.250000000   0.310000000   0.455500000    0   0   0
O0       0.000000000   0.000000000   0.489320000    0   0   0
O0       0.000000000   0.500000000   0.510110000    0   0   0
Ir1      0.250000000   0.500000000   0.544210000    0   0   0
Ir1      0.000000000   0.000000000   0.544860000    0   0   0
O0       0.250000000   0.808490000   0.544740000    0   0   0
O0       0.250000000   0.191510000   0.544740000    0   0   0
O0       0.000000000   0.500000000   0.577990000    0   0   0
O0       0.000000000   0.000000000   0.599820000    0   0   0
Ir1      0.250000000   0.000000000   0.634690000    0   0   0
Ir1      0.000000000   0.500000000   0.631920000    0   0   0
O0       0.250000000   0.690320000   0.635560000    0   0   0
O0       0.250000000   0.309680000   0.635560000    0   0   0
O0       0.000000000   0.000000000   0.667420000    0   0   0
O0       0.500000000   0.500000000   0.332680000    0   0   0
Ir1      0.750000000   0.500000000   0.366500000    0   0   0
Ir1      0.500000000   0.000000000   0.366500000    0   0   0
O0       0.750000000   0.810000000   0.366500000    0   0   0
O0       0.750000000   0.190000000   0.366500000    0   0   0
O0       0.500000000   0.500000000   0.400320000    0   0   0
O0       0.500000000   0.000000000   0.421680000    0   0   0
Ir1      0.750000000   0.000000000   0.455500000    0   0   0
Ir1      0.500000000   0.500000000   0.455500000    0   0   0
O0       0.750000000   0.690000000   0.455500000    0   0   0
O0       0.750000000   0.310000000   0.455500000    0   0   0
O0       0.500000000   0.000000000   0.489320000    0   0   0
O0       0.500000000   0.500000000   0.510110000    0   0   0
Ir1      0.750000000   0.500000000   0.544210000    0   0   0
Ir1      0.500000000   0.000000000   0.544860000    0   0   0
O0       0.750000000   0.808490000   0.544740000    0   0   0
O0       0.750000000   0.191510000   0.544740000    0   0   0
O0       0.500000000   0.500000000   0.577990000    0   0   0
O0       0.500000000   0.000000000   0.599820000    0   0   0
Ir1      0.750000000   0.000000000   0.634690000    0   0   0
Ir1      0.500000000   0.500000000   0.631920000    0   0   0
O0       0.750000000   0.690320000   0.635560000    0   0   0
O0       0.750000000   0.309680000   0.635560000    0   0   0
O0       0.500000000   0.000000000   0.667420000    0   0   0
O0       0.514905761   0.500000000   0.685646274
H2       0.373486179   0.500000000   0.696703789
End final coordinates

     General routines

     Parallel routines

   This run was terminated on:  15:44:15  29Mar2014

   JOB DONE.
Running PBS batch system epilogue script
Job id: 314581.audhumbla.fysik.dtu.dk
Username: zhonxu
Groupname: campgst
Jobname: IrO2/Eads-4-layers/OH
Sessionid: 60057
Queuename: verylong
Accounting:
This job has allocated the following 32 nodes:
g048 g048 g048 g048 g048 g048 g048 g048 g048 g048 g048 g048 g048 g048 g048 g048 g045 g045 g045 g045 g045 g045 g045 g045 g045 g045 g045 g045 g045 g045 g045 g045
Finished epilogue job 314581.audhumbla.fysik.dtu.dk for zhonxu