     Program PWSCF v.5.0.2 (svn rev. 9656) starts on 24Mar2014 at 15:57:29

     Current dimensions of program PWSCF are:
     Max number of different atomic species (ntypx) = 10
     Max number of k-points (npk) =  40000
     Max angular momentum in pseudopotentials (lmaxx) =  3
     Reading input from pwscf.in
Warning: card &CELL ignored
Warning: card / ignored

     Subspace diagonalization in iterative solution of the eigenvalue problem:
     a serial algorithm will be used

     bravais-lattice index     =            0
     lattice parameter (alat)  =      12.0187  a.u.
     unit-cell volume          =    7280.5819 (a.u.)^3
     number of atoms/cell      =           31
     number of atomic types    =            3
     number of electrons       =       238.00
     number of Kohn-Sham states=          357
     kinetic-energy cutoff     =      40.0000  Ry
     charge density cutoff     =     500.0000  Ry
     convergence threshold     =      1.0E-06
     mixing beta               =       0.3000
     number of iterations used =            8  plain     mixing
     Exchange-correlation      = SLA  PW   PBE  PBE ( 1 4 3 4 0)
     EXX-fraction              =        0.00
     nstep                     =           50

     celldm(1)=  12.018658  celldm(2)=   0.000000  celldm(3)=   0.000000
     celldm(4)=   0.000000  celldm(5)=   0.000000  celldm(6)=   0.000000

     crystal axes: (cart. coord. in units of alat)
               a(1) = (   1.000000   0.000000   0.000000 )
               a(2) = (   0.000000   1.009517   0.000000 )
               a(3) = (   0.000000   0.000000   4.154171 )

     reciprocal axes: (cart. coord. in units 2 pi/alat)
               b(1) = (  1.000000  0.000000  0.000000 )
               b(2) = (  0.000000  0.990572  0.000000 )
               b(3) = (  0.000000  0.000000  0.240722 )

     PseudoPot. # 1 for O  read from file:
     /home/camp/zhonxu/pseudo/o_pbe_v1.01.uspp.F.UPF
     MD5 check sum: 2bcb18d16ea4b960afae9ec6d52f22d2
     Pseudo is Ultrasoft + core correction, Zval =  6.0
     Generated by new atomic code, or converted to UPF format
     Using radial grid of  737 points,  5 beta functions with:
                l(1) =   0
                l(2) =   0
                l(3) =   1
                l(4) =   1
                l(5) =   2
     Q(r) pseudized with  8 coefficients,  rinner =    0.900   0.900   0.900
                                                       0.900   0.900

     PseudoPot. # 2 for Ir read from file:
     /home/camp/zhonxu/pseudo/ir_pbe_v1.uspp.F.UPF
     MD5 check sum: abf987a9674477536ede83817f8f8b70
     Pseudo is Ultrasoft + core correction, Zval = 15.0
     Generated by new atomic code, or converted to UPF format
     Using radial grid of  983 points,  7 beta functions with:
                l(1) =   0
                l(2) =   0
                l(3) =   1
                l(4) =   1
                l(5) =   1
                l(6) =   2
                l(7) =   2
     Q(r) pseudized with  8 coefficients,  rinner =    1.350   1.350   1.350
                                                       1.350   1.350

     PseudoPot. # 3 for H  read from file:
     /home/camp/zhonxu/pseudo/h_pbe_v1.uspp.F.UPF
     MD5 check sum: 3408e3ff4ec8b0a4e358431e7e038a48
     Pseudo is Ultrasoft, Zval =  1.0
     Generated by new atomic code, or converted to UPF format
     Using radial grid of  615 points,  2 beta functions with:
                l(1) =   0
                l(2) =   0
     Q(r) pseudized with  8 coefficients,  rinner =    0.700

     atomic species   valence    mass     pseudopotential
        O0             6.00    15.99940     O ( 1.00)
        Ir1           15.00   192.22000     Ir( 1.00)
        H2             1.00     1.00794     H ( 1.00)

     Starting magnetic structure
     atomic species   magnetization
        O0           0.000
        Ir1          0.000
        H2           0.000

     No symmetry found

   Cartesian axes

     site n.     atom                  positions (alat units)
         1           O0  tau(   1) = (   0.0000000   0.0000000   1.5730185  )
         2           O0  tau(   2) = (   0.0000000   0.5047586   1.6673182  )
         3           Ir1 tau(   3) = (   0.2500000   0.5047586   1.8780178  )
         4           Ir1 tau(   4) = (   0.0000000   0.0000000   1.8842906  )
         5           O0  tau(   5) = (   0.2500000   0.8177090   1.8825458  )
         6           O0  tau(   6) = (   0.2500000   0.1918083   1.8810503  )
         7           O0  tau(   7) = (   0.0000000   0.5047586   2.0695666  )
         8           O0  tau(   8) = (   0.0000000   0.0000000   2.1991352  )
         9           Ir1 tau(   9) = (   0.2500000   0.0000000   2.3955860  )
        10           Ir1 tau(  10) = (   0.0000000   0.5047586   2.3764768  )
        11           O0  tau(  11) = (   0.2500000   0.6965669   2.3975800  )
        12           O0  tau(  12) = (   0.2500000   0.3129503   2.3977461  )
        13           O0  tau(  13) = (   0.0000000   0.0000000   2.5806958  )
        14           O0  tau(  14) = (   0.5000000   0.0000000   1.5730185  )
        15           O0  tau(  15) = (   0.5000000   0.5047586   1.6673182  )
        16           Ir1 tau(  16) = (   0.7500000   0.5047586   1.8780178  )
        17           Ir1 tau(  17) = (   0.5000000   0.0000000   1.8842906  )
        18           O0  tau(  18) = (   0.7500000   0.8177090   1.8825458  )
        19           O0  tau(  19) = (   0.7500000   0.1918083   1.8810503  )
        20           O0  tau(  20) = (   0.5000000   0.5047586   2.0695666  )
        21           O0  tau(  21) = (   0.5000000   0.0000000   2.1991352  )
        22           Ir1 tau(  22) = (   0.7500000   0.0000000   2.3955860  )
        23           Ir1 tau(  23) = (   0.5000000   0.5047586   2.3764768  )
        24           O0  tau(  24) = (   0.7500000   0.6965669   2.3975800  )
        25           O0  tau(  25) = (   0.7500000   0.3129503   2.3977461  )
        26           O0  tau(  26) = (   0.5000000   0.0000000   2.5807374  )
        27           H2  tau(  27) = (  -0.0000500   0.6423962   1.5933324  )
        28           H2  tau(  28) = (   0.4999500   0.6423962   1.5933324  )
        29           H2  tau(  29) = (   0.1436500   0.0338188   1.5249132  )
        30           H2  tau(  30) = (   0.6436500   0.0338188   1.5249132  )
        31           O0  tau(  31) = (   0.4999800   0.5041327   2.6573403  )

     number of k points=    20  Methfessel-Paxton smearing, width (Ry)=  0.0100
                       cart. coord. in units 2pi/alat
        k(    1) = (   0.0000000   0.0000000   0.0000000), wk =   0.0625000
        k(    2) = (   0.0000000   0.2476431   0.0000000), wk =   0.1250000
        k(    3) = (   0.0000000  -0.4952862   0.0000000), wk =   0.0625000
        k(    4) = (   0.2500000   0.0000000   0.0000000), wk =   0.1250000
        k(    5) = (   0.2500000   0.2476431   0.0000000), wk =   0.1250000
        k(    6) = (   0.2500000  -0.4952862   0.0000000), wk =   0.1250000
        k(    7) = (  -0.5000000   0.0000000   0.0000000), wk =   0.0625000
        k(    8) = (  -0.5000000   0.2476431   0.0000000), wk =   0.1250000
        k(    9) = (  -0.5000000  -0.4952862   0.0000000), wk =   0.0625000
        k(   10) = (  -0.2500000   0.2476431   0.0000000), wk =   0.1250000
        k(   11) = (   0.0000000   0.0000000   0.0000000), wk =   0.0625000
        k(   12) = (   0.0000000   0.2476431   0.0000000), wk =   0.1250000
        k(   13) = (   0.0000000  -0.4952862   0.0000000), wk =   0.0625000
        k(   14) = (   0.2500000   0.0000000   0.0000000), wk =   0.1250000
        k(   15) = (   0.2500000   0.2476431   0.0000000), wk =   0.1250000
        k(   16) = (   0.2500000  -0.4952862   0.0000000), wk =   0.1250000
        k(   17) = (  -0.5000000   0.0000000   0.0000000), wk =   0.0625000
        k(   18) = (  -0.5000000   0.2476431   0.0000000), wk =   0.1250000
        k(   19) = (  -0.5000000  -0.4952862   0.0000000), wk =   0.0625000
        k(   20) = (  -0.2500000   0.2476431   0.0000000), wk =   0.1250000

     Largest allocated arrays     est. size (Mb)     dimensions
     Largest temporary arrays     est. size (Mb)     dimensions

     Check: negative/imaginary core charge=   -0.000003    0.000000

     Initial potential from superposition of free atoms
     Check: negative starting charge=(component1):   -1.667106
     Check: negative starting charge=(component2):   -1.667106

     starting charge  233.99968, renormalised to  238.00000

     negative rho (up, down):  0.170E+01 0.170E+01
     Starting wfc are  176 randomized atomic wfcs

     Self-consistent Calculation

     iteration #  1     ecut=    40.00 Ry     beta=0.30
     Davidson diagonalization with overlap
     ethr =  1.00E-02,  avg # of iterations =  9.2

     negative rho (up, down):  0.159E+01 0.159E+01

     total energy              =   -2097.74088498 Ry
     Harris-Foulkes estimate   =   -2111.51049932 Ry
     estimated scf accuracy    <      29.13522585 Ry

     total magnetization       =     0.00 Bohr mag/cell
     absolute magnetization    =     0.01 Bohr mag/cell

[...]

     total energy              =   -2106.13464947 Ry
     Harris-Foulkes estimate   =   -2106.13464970 Ry
     estimated scf accuracy    <       0.00000138 Ry

[...]

     iteration # 22     ecut=    40.00 Ry     beta=0.30
     Davidson diagonalization with overlap
     ethr =  5.81E-10,  avg # of iterations =  1.0

     negative rho (up, down):  0.156E+01 0.156E+01

     End of self-consistent calculation

 ------ SPIN UP ------------

          k = 0.0000 0.0000 0.0000 ( 31045 PWs)   bands (ev):

   -52.4581 -52.1175 -52.1047 -51.5736 -51.5673 -51.4756 -51.4200 -51.4138
   -51.4030 -51.3738 -51.3091 -51.2604 -51.2295 -51.2094 -51.2038 -51.1990
   -51.1844 -51.1709 -51.1030 -51.0710 -51.0623 -51.0563 -51.0461 -50.8412
   -22.0302 -21.5658 -21.4174 -21.3920 -20.9466 -20.7529 -20.7208 -20.6259
   -20.5818 -20.5355 -20.4395 -20.2868 -20.0587 -20.0203 -19.9273 -19.7988
   -18.9365 -18.8376 -18.6248 -10.5659 -10.5573 -10.1689  -9.2741  -9.1009
    -9.0117  -8.9998  -8.9942  -8.9657  -8.9528  -8.9179  -8.8766  -8.6754
    -8.5934  -8.5235  -8.2939  -8.2912  -8.2246  -8.1168  -7.9926  -7.6649
    -7.4364  -7.3016  -7.2102  -6.7875  -6.7314  -6.6907  -6.3449  -6.1227
    -6.0419  -5.9414  -5.8962  -5.8367  -5.8037  -5.6675  -5.6066  -5.5029
    -5.4107  -5.3615  -5.2047  -5.1075  -5.0682  -4.8988  -4.8409  -4.8311
    -4.7325  -4.5280  -4.3507  -4.2928  -4.2358  -4.1938  -3.8347  -3.7770
    -3.7357  -3.7085  -3.6394  -3.4580  -3.4197  -3.3876  -3.2331  -3.1982
    -2.9366  -2.8982  -2.8452  -2.6664  -2.6034  -2.4527  -2.2732  -2.1326
    -1.9644  -1.9199  -1.8143  -1.7650  -1.7536  -1.2942  -1.1734  -0.9453
    -0.8617  -0.7393  -0.6698  -0.4287  -0.1796   0.5531   0.9413   0.9809
     1.0609   1.1122   1.2844   1.7046   2.0015   2.2213   2.6426   2.7432
     2.8394   2.8538   3.0139   3.4074   3.9244   3.9902   4.4457   4.9803
     5.1305   5.7995   6.0056   6.0259   6.1334   6.6642   6.8877   7.0276
     7.3536   7.4163   7.5644   7.6616   7.6761   7.7128   7.8115   7.8726
     7.9246   7.9395   7.9860   8.1390   8.2095   8.3392   8.4360   8.4855
     8.4899   8.4946   8.5125   8.5151   8.5162   8.6626   8.6700   8.6757
     8.6818   8.7135   8.7575   8.7926   8.9492   9.0055   9.1469   9.2116
     9.2877   9.3143   9.3414   9.4906   9.5509   9.8345   9.8494  10.0109
    10.1139  10.2275  10.2870  10.3282  10.4766  10.5590  10.5720  10.6633
    10.8765  10.9949  11.0757  11.1510  11.1533  11.1879  11.2323  11.2372
    11.2909  11.4975  11.5015  11.7229  11.7545  11.7629  11.8511  11.9288
    11.9896  12.0733  12.1525  12.2054  12.2132  12.3418  12.3885  12.4412
    12.5378  12.5574  12.5888  12.6356  12.8141  12.8697  12.9045  12.9614
    13.0004  13.1355  13.1960  13.3460  13.4821  13.6068  13.7458  13.7704
    13.8320  13.8957  13.9187  14.0867  14.1400  14.1834  14.3405  14.4077
    14.5586  14.5634  14.5709  14.6325  14.7456  14.7843  14.9497  15.0582
    15.2377  15.3211  15.3634  15.5065  15.5671  15.7148  15.7522  15.7822
    15.8488  15.9873  16.0335  16.1017  16.1625  16.2042  16.2789  16.4469
    16.4671  16.6762  16.8216  16.8760  17.0777  17.1030  17.2142  17.2510
    17.3134  17.3811  17.4172  17.5043  17.6123  17.6399  17.6824  17.8953
    17.9708  17.9977  18.0981  18.2403  18.3929  18.4149  18.5071  18.6131
    18.6250  18.6537  18.7912  18.8940  18.9509  19.0119  19.0669  19.0887
    19.1197  19.1704  19.2469  19.3056  19.3191  19.4109  19.4611  19.5673
    19.6609  19.6858  19.7451  19.7570  19.7727  19.8178  19.8726  19.9507
    19.9615  19.9811  19.9876  20.1348  20.2063  20.2986  20.3386  20.5132
    20.5436  20.5774  20.6476  20.7296  20.7633  20.8185  20.9186  20.9516
    21.0927  21.1605  21.1910  21.2412  21.2549  21.3798  21.3990  21.5112
    21.5493  21.6338  21.6672  21.7773  21.8147  21.8348  21.8930  21.9342
    22.0033  22.1325  22.1526  22.2115  22.2594

[...]

          k =-0.5000 0.0000 0.0000 ( 31104 PWs)   bands (ev):

[...]

 ------ SPIN DOWN ----------

[...]

          k = 0.2500-0.4953 0.0000 ( 31088 PWs)   bands (ev):

[...]

          k =-0.2500 0.2476 0.0000 ( 31099 PWs)   bands (ev):

   -52.4581 -52.1164 -52.1046 -51.5728 -51.5683 -51.4616 -51.4193 -51.4098
   -51.3935 -51.3875 -51.3240 -51.2563 -51.2304 -51.2101 -51.2068 -51.1860
   -51.1852 -51.1703 -51.1167 -51.0689 -51.0603 -51.0585 -51.0487 -50.8414
   -21.8466 -21.4132 -21.3626 -21.2776 -21.0367 -20.8374 -20.7620 -20.7382
   -20.5596 -20.5107 -20.3902 -20.2656 -20.2421 -20.1460 -19.9963 -19.8295
   -18.9745 -18.8878 -18.6279 -10.0581  -9.9143  -9.8801  -9.5195  -9.2163
    -9.1026  -9.0038  -8.9454  -8.8800  -8.8251  -8.8066  -8.7689  -8.6861
    -8.6278  -8.3212  -8.2513  -8.1690  -7.9636  -7.8317  -7.7351  -7.6362
    -7.4007  -7.3335  -7.1284  -6.8956  -6.7812  -6.6049  -6.5726  -6.4947
    -6.4624  -6.4140  -6.2904  -6.2237  -6.1295  -6.0885  -6.0068  -5.8101
    -5.7247  -5.5576  -5.4600  -5.3116  -5.2194  -5.0743  -5.0119  -4.9165
    -4.8041  -4.6200  -4.5277  -4.4456  -4.3680  -4.1841  -4.0279  -3.8701
    -3.6872  -3.5829  -3.4351  -3.3507  -3.1296  -2.8408  -2.8002  -2.7408
    -2.6989  -2.5913  -2.5651  -2.4811  -2.4309  -2.4100  -2.3176  -2.1878
    -2.0326  -1.8813  -1.7251  -1.4792  -1.4030  -1.2913  -1.1298  -1.0129
    -0.9613  -0.8482  -0.7423  -0.5433  -0.2783   0.4625   0.5643   0.9429
     1.2590   1.3468   1.7298   1.8868   2.2059   2.3506   2.4130   2.6199
     2.7369   2.9204   2.9514   3.4604   3.6986   4.5264   4.8910   5.3031
     5.3586   5.4844   5.6083   6.2233   6.4399   6.4740   6.6508   6.7993
     6.8924   6.9262   7.1529   7.2340   7.3189   7.3643   7.5541   7.7131
     7.8141   7.8335   7.9050   7.9994   8.1323   8.1878   8.3039   8.3901
     8.4858   8.4952   8.5152   8.5158   8.5519   8.6605   8.6741   8.6796
     8.7144   8.7842   8.8924   8.9652   9.0288   9.0618   9.2255   9.3197
     9.3738   9.5965   9.6588   9.7218   9.7828   9.8968   9.9658  10.0824
    10.2061  10.2759  10.3827  10.4819  10.5088  10.6250  10.7106  10.7788
    10.8925  10.9820  11.0318  11.1205  11.1672  11.2927  11.4139  11.5726
    11.6256  11.6511  11.7594  11.8386  11.8940  11.9326  12.0629  12.1598
    12.2340  12.2588  12.3852  12.4054  12.5640  12.6134  12.6907  12.7284
    12.7974  12.8292  12.9003  12.9534  13.0255  13.0661  13.1557  13.2032
    13.2887  13.3688  13.4411  13.5080  13.5889  13.8047  13.8837  13.9587
    13.9893  14.0709  14.1515  14.2060  14.2702  14.4016  14.4767  14.5941
    14.6496  14.7228  14.8121  14.8961  15.0190  15.1185  15.2080  15.2507
    15.3673  15.4156  15.5543  15.6241  15.6678  15.7470  15.8326  15.8589
    15.9289  15.9932  16.0795  16.1448  16.1576  16.2628  16.3133  16.3531
    16.4549  16.4856  16.5418  16.5996  16.6601  16.7250  16.7646  16.8069
    16.8956  17.0025  17.1242  17.2376  17.2704  17.3416  17.3866  17.4893
    17.5099  17.5811  17.6102  17.6874  17.7326  17.8215  17.9081  17.9403
    17.9875  18.0558  18.1139  18.1736  18.2330  18.2665  18.3915  18.4593
    18.5777  18.6261  18.6407  18.7519  18.7922  18.9182  18.9973  19.0386
    19.1015  19.1185  19.1974  19.2485  19.2760  19.3514  19.4429  19.4816
    19.5721  19.6210  19.6892  19.7740  19.8251  19.9257  19.9744  20.0687
    20.1777  20.2712  20.3373  20.3633  20.4339  20.4746  20.5611  20.6395
    20.6589  20.7099  20.7510  20.7969  20.8480  20.9189  21.0405  21.0773
    21.1799  21.2843  21.3729  21.4192  21.5032  21.5421  21.5949  21.6938
    21.7311  21.7885  21.8304  21.8735  21.9192

     the Fermi energy is    -1.1484 ev

!    total energy              =   -2106.13464926 Ry
     Harris-Foulkes estimate   =   -2106.13464965 Ry
     estimated scf accuracy    <       0.00000052 Ry

     The total energy is the sum of the following terms:

     one-electron contribution =  -22667.35731031 Ry
     hartree contribution      =   11373.34369967 Ry
     xc contribution           =    -576.23099474 Ry
     ewald contribution        =    9764.11006746 Ry
     smearing contrib. (-TS)   =      -0.00011134 Ry

     total magnetization       =    -0.00 Bohr mag/cell
     absolute magnetization    =     0.00 Bohr mag/cell

     convergence has been achieved in  22 iterations

     Forces acting on atoms (Ry/au):

     negative rho (up, down):  0.156E+01 0.156E+01
     atom    1 type  1   force =    -0.00784677   -0.01460774    0.00212417
     atom    2 type  1   force =     0.00012566    0.00689450    0.01132731
     atom    3 type  2   force =     0.02114550    0.00659242   -0.00859624
     atom    4 type  2   force =     0.00986430    0.00839637   -0.00354106
     atom    5 type  1   force =    -0.00162356   -0.01596246   -0.00039740
     atom    6 type  1   force =     0.00387835    0.01325497   -0.00040679
     atom    7 type  1   force =    -0.00017433   -0.00182815    0.00338756
     atom    8 type  1   force =    -0.00325468   -0.00062923    0.00081180
     atom    9 type  2   force =     0.01039649    0.00045667    0.00883484
     atom   10 type  2   force =     0.00005138   -0.00102894    0.01494531
     atom   11 type  1   force =    -0.01742897    0.01132092   -0.03567442
     atom   12 type  1   force =    -0.01775867   -0.01160730   -0.03592358
     atom   13 type  1   force =    -0.00089939   -0.00004631   -0.00418171
     atom   14 type  1   force =    -0.00754505   -0.01490496    0.00077429
     atom   15 type  1   force =     0.00007713    0.00659739   -0.00176351
     atom   16 type  2   force =    -0.02153967    0.00563616   -0.00860311
     atom   17 type  2   force =     0.00972545    0.00831939   -0.00303877
     atom   18 type  1   force =    -0.00227009   -0.01546496   -0.00037444
     atom   19 type  1   force =     0.00220285    0.01370999   -0.00030359
     atom   20 type  1   force =    -0.00008719   -0.00540625   -0.01078281
     atom   21 type  1   force =    -0.00330316   -0.00048283   -0.00011548
     atom   22 type  2   force =    -0.00781084    0.00022117    0.00880231
     atom   23 type  2   force =    -0.00006319    0.00045215    0.14376095
     atom   24 type  1   force =     0.01734264    0.01132652   -0.03560762
     atom   25 type  1   force =     0.01805179   -0.01153324   -0.03597187
     atom   26 type  1   force =    -0.00103155   -0.00007873   -0.00888848
     atom   27 type  3   force =    -0.00000890   -0.00038068   -0.00051192
     atom   28 type  3   force =    -0.00003530   -0.00013861    0.00031538
     atom   29 type  3   force =     0.00013706    0.00022581   -0.00025572
     atom   30 type  3   force =    -0.00032034    0.00056913   -0.00022692
     atom   31 type  1   force =     0.00000307    0.00012684    0.00008152

     Total force =     0.000151     Total SCF correction =     0.000345
     SCF correction compared to forces is large: reduce conv_thr to get better values

     BFGS Geometry Optimization

     bfgs converged in   1 scf cycles and   0 bfgs steps
     (criteria: energy < 0.10E-03, force < 0.10E-02)

     End of BFGS Geometry Optimization

     Final energy   =   -2106.1346492629 Ry
Begin final coordinates

ATOMIC_POSITIONS (crystal)
O0       0.000000000   0.000000000   0.378660000    0   0   0
O0       0.000000000   0.500000000   0.401360000    0   0   0
Ir1      0.250000000   0.500000000   0.452080000    0   0   0
Ir1      0.000000000   0.000000000   0.453590000    0   0   0
O0       0.250000000   0.810000000   0.453170000    0   0   0
O0       0.250000000   0.190000000   0.452810000    0   0   0
O0       0.000000000   0.500000000   0.498190000    0   0   0
O0       0.000000000   0.000000000   0.529380000    0   0   0
Ir1      0.250000000   0.000000000   0.576670000    0   0   0
Ir1      0.000000000   0.500000000   0.572070000    0   0   0
O0       0.250000000   0.690000000   0.577150000    0   0   0
O0       0.250000000   0.310000000   0.577190000    0   0   0
O0       0.000000000   0.000000000   0.621230000    0   0   0
O0       0.500000000   0.000000000   0.378660000    0   0   0
O0       0.500000000   0.500000000   0.401360000    0   0   0
Ir1      0.750000000   0.500000000   0.452080000    0   0   0
Ir1      0.500000000   0.000000000   0.453590000    0   0   0
O0       0.750000000   0.810000000   0.453170000    0   0   0
O0       0.750000000   0.190000000   0.452810000    0   0   0
O0       0.500000000   0.500000000   0.498190000    0   0   0
O0       0.500000000   0.000000000   0.529380000    0   0   0
Ir1      0.750000000   0.000000000   0.576670000    0   0   0
Ir1      0.500000000   0.500000000   0.572070000    0   0   0
O0       0.750000000   0.690000000   0.577150000    0   0   0
O0       0.750000000   0.310000000   0.577190000    0   0   0
O0       0.500000000   0.000000000   0.621240000    0   0   0
H2      -0.000050000   0.636340000   0.383550000    0   0   0
H2       0.499950000   0.636340000   0.383550000    0   0   0
H2       0.143650000   0.033500000   0.367080000    0   0   0
H2       0.643650000   0.033500000   0.367080000    0   0   0
O0       0.499980000   0.499380000   0.639680000
End final coordinates

     General routines

     Parallel routines

   This run was terminated on:  18:48:27  24Mar2014

   JOB DONE.