     Program PWSCF v.5.0.2 (svn rev. 9656) starts on  1May2014 at  6: 4: 9

     Current dimensions of program PWSCF are:
     Max number of different atomic species (ntypx) = 10
     Max number of k-points (npk) =  40000
     Max angular momentum in pseudopotentials (lmaxx) =  3
     Reading input from pwscf.in
Warning: card &CELL ignored
Warning: card / ignored

     Subspace diagonalization in iterative solution of the eigenvalue problem:
     a serial algorithm will be used

     bravais-lattice index     =            0
     lattice parameter (alat)  =      10.1289  a.u.
     unit-cell volume          =    6836.7721 (a.u.)^3
     number of atoms/cell      =           31
     number of atomic types    =            3
     number of electrons       =       238.00
     number of Kohn-Sham states=          357
     kinetic-energy cutoff     =      40.0000  Ry
     charge density cutoff     =     500.0000  Ry
     convergence threshold     =      1.0E-06
     mixing beta               =       0.7000
     number of iterations used =            8  plain     mixing
     Exchange-correlation      = SLA  PW   PBE  PBE ( 1 4 3 4 0)
     EXX-fraction              =        0.00
     nstep                     =           50

     celldm(1)=  10.128932  celldm(2)=   0.000000  celldm(3)=   0.000000
     celldm(4)=   0.000000  celldm(5)=   0.000000  celldm(6)=   0.000000

     crystal axes: (cart. coord. in units of alat)
               a(1) = (   1.000000   0.000000   0.000000 )
               a(2) = (   0.000000   1.306037   0.000000 )
               a(3) = (   0.000000   0.000000   5.037380 )

     reciprocal axes: (cart. coord. in units 2 pi/alat)
               b(1) = (  1.000000  0.000000  0.000000 )
               b(2) = (  0.000000  0.765675  0.000000 )
               b(3) = (  0.000000  0.000000  0.198516 )

     PseudoPot. # 1 for O  read from file:
     /home/camp/zhonxu/pseudo/o_pbe_v1.01.uspp.F.UPF
     MD5 check sum: 2bcb18d16ea4b960afae9ec6d52f22d2
     Pseudo is Ultrasoft + core correction, Zval =  6.0
     Generated by new atomic code, or converted to UPF format
     Using radial grid of  737 points,  5 beta functions with:
                l(1) =   0
                l(2) =   0
                l(3) =   1
                l(4) =   1
                l(5) =   2
     Q(r) pseudized with  8 coefficients,  rinner =    0.900   0.900   0.900
                                                       0.900   0.900

     PseudoPot. # 2 for Re read from file:
     /home/camp/zhonxu/pseudo/re_pbe_v1.uspp.F.UPF
     MD5 check sum: 6f5a5dcaf9c96c20d0ffdde0de57afc6
     Pseudo is Ultrasoft + core correction, Zval = 15.0
     Generated by new atomic code, or converted to UPF format
     Using radial grid of  981 points,  8 beta functions with:
                l(1) =   0
                l(2) =   0
                l(3) =   1
                l(4) =   1
                l(5) =   2
                l(6) =   2
                l(7) =   3
                l(8) =   3
     Q(r) pseudized with  8 coefficients,  rinner =    1.000   1.000   1.000
                                                       1.000   1.000   1.000
                                                       1.000

     PseudoPot. # 3 for H  read from file:
     /home/camp/zhonxu/pseudo/h_pbe_v1.uspp.F.UPF
     MD5 check sum: 3408e3ff4ec8b0a4e358431e7e038a48
     Pseudo is Ultrasoft, Zval =  1.0
     Generated by new atomic code, or converted to UPF format
     Using radial grid of  615 points,  2 beta functions with:
                l(1) =   0
                l(2) =   0
     Q(r) pseudized with  8 coefficients,  rinner =    0.700

     atomic species   valence    mass     pseudopotential
        O0             6.00    15.99940     O ( 1.00)
        Re1           15.00   186.20700     Re( 1.00)
        H2             1.00     1.00794     H ( 1.00)

     Simplified LDA+U calculation (l_max = 2) with parameters (eV):
     atomic species    L          U    alpha       J0     beta
        Re1            2     3.0000   0.0000   0.0000   0.0000

     No symmetry found

   Cartesian axes

     site n.     atom                  positions (alat units)
         1           O0  tau(   1) = (   0.0000000   0.0000000   1.8646870  )
         2           O0  tau(   2) = (   0.0000000   0.6530184   1.9287121  )
         3           Re1 tau(   3) = (   0.2500000   0.6530184   2.2295948  )
         4           Re1 tau(   4) = (   0.0000000   0.0000000   2.2312068  )
         5           O0  tau(   5) = (   0.2500000   1.0187087   2.2244063  )
         6           O0  tau(   6) = (   0.2500000   0.2873281   2.2234996  )
         7           O0  tau(   7) = (   0.0000000   0.6530184   2.5067011  )
         8           O0  tau(   8) = (   0.0000000   0.0000000   2.5914802  )
         9           Re1 tau(   9) = (   0.2500000   0.0000000   2.8910532  )
        10           Re1 tau(  10) = (   0.0000000   0.6530184   2.8571012  )
        11           O0  tau(  11) = (   0.2500000   0.9403465   2.8803235  )
        12           O0  tau(  12) = (   0.2500000   0.3656903   2.8804747  )
        13           O0  tau(  13) = (   0.0000000   0.0000000   3.1540044  )
        14           O0  tau(  14) = (   0.5000000   0.0000000   1.8645359  )
        15           O0  tau(  15) = (   0.5000000   0.6530184   1.9300722  )
        16           Re1 tau(  16) = (   0.7500000   0.6530184   2.2295444  )
        17           Re1 tau(  17) = (   0.5000000   0.0000000   2.2295948  )
        18           O0  tau(  18) = (   0.7500000   1.0187087   2.2239529  )
        19           O0  tau(  19) = (   0.7500000   0.2873281   2.2238522  )
        20           O0  tau(  20) = (   0.5000000   0.6530184   2.5186397  )
        21           O0  tau(  21) = (   0.5000000   0.0000000   2.5912283  )
        22           Re1 tau(  22) = (   0.7500000   0.0000000   2.8912547  )
        23           Re1 tau(  23) = (   0.5000000   0.6530184   2.9058631  )
        24           O0  tau(  24) = (   0.7500000   0.9403465   2.8806762  )
        25           O0  tau(  25) = (   0.7500000   0.3656903   2.8804243  )
        26           O0  tau(  26) = (   0.5000000   0.0000000   3.1508309  )
        27           H2  tau(  27) = (  -0.0003300   0.8166387   1.8441345  )
        28           H2  tau(  28) = (   0.4996000   0.8128642   1.8387445  )
        29           H2  tau(  29) = (   0.1687200   0.0311098   1.7921991  )
        30           H2  tau(  30) = (   0.6701100   0.0285761   1.7932066  )
        31           O0  tau(  31) = (   0.4998900   0.6523393   3.2273487  )

     number of k points=    10  Methfessel-Paxton smearing, width (Ry)=  0.0100
                       cart. coord. in units 2pi/alat
        k(    1) = (   0.0000000   0.0000000   0.0000000), wk =   0.1250000
        k(    2) = (   0.0000000   0.1914188   0.0000000), wk =   0.2500000
        k(    3) = (   0.0000000  -0.3828376   0.0000000), wk =   0.1250000
        k(    4) = (   0.2500000   0.0000000   0.0000000), wk =   0.2500000
        k(    5) = (   0.2500000   0.1914188   0.0000000), wk =   0.2500000
        k(    6) = (   0.2500000  -0.3828376   0.0000000), wk =   0.2500000
        k(    7) = (  -0.5000000   0.0000000   0.0000000), wk =   0.1250000
        k(    8) = (  -0.5000000   0.1914188   0.0000000), wk =   0.2500000
        k(    9) = (  -0.5000000  -0.3828376   0.0000000), wk =   0.1250000
        k(   10) = (  -0.2500000   0.1914188   0.0000000), wk =   0.2500000

     Largest allocated arrays     est. size (Mb)     dimensions
     Largest temporary arrays     est. size (Mb)     dimensions

     Check: negative/imaginary core charge=   -0.000003    0.000000

     Initial potential from superposition of free atoms
     Check: negative starting charge=   -0.237495

     starting charge  233.99958, renormalised to  238.00000

     negative rho (up, down):  0.242E+00 0.000E+00
     Number of +U iterations with fixed ns =  0
     Starting occupations:
 --- enter write_ns ---
 LDA+U parameters:
U( 2)     =  3.00000000
alpha( 2) =  0.00000000
atom    3   Tr[ns(na)] =   5.00000
    eigenvalues:
  0.500  0.500  0.500  0.500  0.500
    eigenvectors:
  1.000  0.000  0.000  0.000  0.000
  0.000  1.000  0.000  0.000  0.000
  0.000  0.000  1.000  0.000  0.000
  0.000  0.000  0.000  1.000  0.000
  0.000  0.000  0.000  0.000  1.000
    occupations:
  0.500  0.000  0.000  0.000  0.000
  0.000  0.500  0.000  0.000  0.000
  0.000  0.000  0.500  0.000  0.000
  0.000  0.000  0.000  0.500  0.000
  0.000  0.000  0.000  0.000  0.500
atom    4   Tr[ns(na)] =   5.00000
    eigenvalues:
  0.500  0.500  0.500  0.500  0.500
    eigenvectors:
  1.000  0.000  0.000  0.000  0.000
  0.000  1.000  0.000  0.000  0.000
  0.000  0.000  1.000  0.000  0.000
  0.000  0.000  0.000  1.000  0.000
  0.000  0.000  0.000  0.000  1.000
    occupations:
  0.500  0.000  0.000  0.000  0.000
  0.000  0.500  0.000  0.000  0.000
  0.000  0.000  0.500  0.000  0.000
  0.000  0.000  0.000  0.500  0.000
  0.000  0.000  0.000  0.000  0.500
atom    9   Tr[ns(na)] =   5.00000
    eigenvalues:
  0.500  0.500  0.500  0.500  0.500
    eigenvectors:
  1.000  0.000  0.000  0.000  0.000
  0.000  1.000  0.000  0.000  0.000
  0.000  0.000  1.000  0.000  0.000
  0.000  0.000  0.000  1.000  0.000
  0.000  0.000  0.000  0.000  1.000
    occupations:
  0.500  0.000  0.000  0.000  0.000
  0.000  0.500  0.000  0.000  0.000
  0.000  0.000  0.500  0.000  0.000
  0.000  0.000  0.000  0.500  0.000
  0.000  0.000  0.000  0.000  0.500
atom   10   Tr[ns(na)] =   5.00000
    eigenvalues:
  0.500  0.500  0.500  0.500  0.500
    eigenvectors:
  1.000  0.000  0.000  0.000  0.000
  0.000  1.000  0.000  0.000  0.000
  0.000  0.000  1.000  0.000  0.000
  0.000  0.000  0.000  1.000  0.000
  0.000  0.000  0.000  0.000  1.000
    occupations:
  0.500  0.000  0.000  0.000  0.000
  0.000  0.500  0.000  0.000  0.000
  0.000  0.000  0.500  0.000  0.000
  0.000  0.000  0.000  0.500  0.000
  0.000  0.000  0.000  0.000  0.500
atom   16   Tr[ns(na)] =   5.00000
    eigenvalues:
  0.500  0.500  0.500  0.500  0.500
    eigenvectors:
  1.000  0.000  0.000  0.000  0.000
  0.000  1.000  0.000  0.000  0.000
  0.000  0.000  1.000  0.000  0.000
  0.000  0.000  0.000  1.000  0.000
  0.000  0.000  0.000  0.000  1.000
    occupations:
  0.500  0.000  0.000  0.000  0.000
  0.000  0.500  0.000  0.000  0.000
  0.000  0.000  0.500  0.000  0.000
  0.000  0.000  0.000  0.500  0.000
  0.000  0.000  0.000  0.000  0.500
atom   17   Tr[ns(na)] =   5.00000
    eigenvalues:
  0.500  0.500  0.500  0.500  0.500
    eigenvectors:
  1.000  0.000  0.000  0.000  0.000
  0.000  1.000  0.000  0.000  0.000
  0.000  0.000  1.000  0.000  0.000
  0.000  0.000  0.000  1.000  0.000
  0.000  0.000  0.000  0.000  1.000
    occupations:
  0.500  0.000  0.000  0.000  0.000
  0.000  0.500  0.000  0.000  0.000
  0.000  0.000  0.500  0.000  0.000
  0.000  0.000  0.000  0.500  0.000
  0.000  0.000  0.000  0.000  0.500
atom   22   Tr[ns(na)] =   5.00000
    eigenvalues:
  0.500  0.500  0.500  0.500  0.500
    eigenvectors:
  1.000  0.000  0.000  0.000  0.000
  0.000  1.000  0.000  0.000  0.000
  0.000  0.000  1.000  0.000  0.000
  0.000  0.000  0.000  1.000  0.000
[...]
  0.000  0.001  0.992  0.007  0.000
  0.000  0.013  0.000  0.000  0.986
  1.000  0.000  0.000  0.000  0.000
    occupations:
  0.608  0.003  0.000 -0.020  0.001
  0.003  0.712  0.009 -0.000 -0.002
  0.000  0.009  0.613  0.000 -0.000
 -0.020 -0.000  0.000  0.775 -0.000
  0.001 -0.002 -0.000 -0.000  0.569
atom    9   Tr[ns(na)] =   6.55758
    eigenvalues:
  0.591  0.598  0.606  0.733  0.750
    eigenvectors:
  0.248  0.000  0.000  0.002  0.750
  0.000  0.000  1.000  0.000  0.000
  0.000  0.991  0.000  0.008  0.000
  0.752  0.000  0.000  0.001  0.247
  0.000  0.008  0.000  0.989  0.003
    occupations:
  0.711 -0.000 -0.001 -0.069  0.001
 -0.000  0.606  0.000  0.000  0.000
 -0.001  0.000  0.599  0.000 -0.012
 -0.069  0.000  0.000  0.631 -0.000
  0.001  0.000 -0.012 -0.000  0.732
atom   10   Tr[ns(na)] =   6.53117
    eigenvalues:
  0.477  0.543  0.673  0.719  0.855
    eigenvectors:
  1.000  0.000  0.000  0.000  0.000
  0.000  0.000  0.000  0.000  1.000
  0.000  0.000  1.000  0.000  0.000
  0.000  0.000  0.000  1.000  0.000
  0.000  1.000  0.000  0.000  0.000
    occupations:
  0.477 -0.000 -0.000 -0.004 -0.000
 -0.000  0.855  0.001 -0.000  0.000
 -0.000  0.001  0.673 -0.000  0.000
 -0.004 -0.000 -0.000  0.718 -0.000
 -0.000  0.000  0.000 -0.000  0.543
atom   16   Tr[ns(na)] =   6.57280
    eigenvalues:
  0.539  0.570  0.606  0.768  0.805
    eigenvectors:
  0.000  0.345  0.002  0.651  0.001
  0.997  0.002  0.000  0.000  0.001
  0.000  0.002  0.989  0.008  0.001
  0.002  0.651  0.008  0.339  0.000
  0.001  0.000  0.001  0.001  0.997
    occupations:
  0.699  0.001  0.013 -0.093 -0.001
  0.001  0.539 -0.001 -0.003 -0.008
  0.013 -0.001  0.607 -0.007  0.005
 -0.093 -0.003 -0.007  0.637  0.001
 -0.001 -0.008  0.005  0.001  0.804
atom   17   Tr[ns(na)] =   6.54645
    eigenvalues:
  0.569  0.607  0.608  0.707  0.782
    eigenvectors:
  0.000  0.016  0.970  0.001  0.013
  0.000  0.005  0.001  0.994  0.000
  0.000  0.978  0.016  0.005  0.000
  0.000  0.001  0.012  0.000  0.987
  1.000  0.000  0.000  0.000  0.000
    occupations:
  0.611  0.003  0.000 -0.019  0.001
  0.003  0.707  0.007 -0.000 -0.001
  0.000  0.007  0.607  0.002 -0.000
 -0.019 -0.000  0.002  0.779 -0.000
  0.001 -0.001 -0.000 -0.000  0.569
atom   22   Tr[ns(na)] =   6.55744
    eigenvalues:
  0.591  0.598  0.606  0.733  0.750
    eigenvectors:
  0.248  0.000  0.000  0.025  0.727
  0.000  0.001  0.999  0.000  0.000
  0.000  0.991  0.001  0.008  0.000
  0.752  0.000  0.000  0.008  0.239
  0.000  0.008  0.000  0.958  0.034
    occupations:
  0.710  0.000 -0.000 -0.068  0.003
  0.000  0.606  0.000 -0.000  0.000
 -0.000  0.000  0.599  0.000  0.012
 -0.068 -0.000  0.000  0.630 -0.002
  0.003  0.000  0.012 -0.002  0.733
atom   23   Tr[ns(na)] =   6.56845
    eigenvalues:
  0.581  0.608  0.613  0.657  0.825
    eigenvectors:
  0.000  0.000  0.000  0.981  0.019
  0.000  0.000  0.999  0.000  0.000
  0.000  1.000  0.000  0.000  0.000
  0.000  0.000  0.000  0.019  0.981
  1.000  0.000  0.000  0.000  0.000
    occupations:
  0.660  0.000 -0.000 -0.023 -0.000
  0.000  0.613 -0.000 -0.000  0.000
 -0.000 -0.000  0.608  0.001  0.000
 -0.023 -0.000  0.001  0.822 -0.000
 -0.000  0.000  0.000 -0.000  0.581
N of occupied +U levels =  52.4617218
 --- exit write_ns ---

     Threshold (ethr) on eigenvalues was too large:
     Diagonalizing with lowered threshold

     Davidson diagonalization with overlap
     ethr =  3.48E-09,  avg # of iterations =  2.0

[...]

     total energy              =   -2173.43881549 Ry
     Harris-Foulkes estimate   =   -2173.43881549 Ry
     estimated scf accuracy    <       0.00000002 Ry

     iteration # 12     ecut=    40.00 Ry     beta=0.70
     Davidson diagonalization with overlap
     ethr =  6.62E-12,  avg # of iterations =  1.0

     negative rho (up, down):  0.245E+00 0.000E+00

     End of self-consistent calculation
 --- enter write_ns ---
 LDA+U parameters:
U( 2)     =  3.00000000
alpha( 2) =  0.00000000
atom    3   Tr[ns(na)] =   6.57326
    eigenvalues:
  0.539  0.570  0.606  0.768  0.805
    eigenvectors:
  0.000  0.345  0.003  0.651  0.001
  0.997  0.002  0.000  0.000  0.001
  0.000  0.001  0.989  0.008  0.001
  0.002  0.652  0.007  0.339  0.000
  0.001  0.000  0.001  0.001  0.997
    occupations:
  0.699 -0.001  0.013 -0.093  0.001
 -0.001  0.539  0.001  0.003 -0.008
  0.013  0.001  0.607 -0.008 -0.005
 -0.093  0.003 -0.008  0.637 -0.001
  0.001 -0.008 -0.005 -0.001  0.804
atom    4   Tr[ns(na)] =   6.55473
    eigenvalues:
  0.569  0.606  0.612  0.713  0.777
    eigenvectors:
  0.000  0.985  0.001  0.001  0.014
  0.000  0.001  0.007  0.992  0.000
  0.000  0.001  0.992  0.007  0.000
  0.000  0.013  0.000  0.000  0.986
  1.000  0.000  0.000  0.000  0.000
    occupations:
  0.608  0.003  0.000 -0.020  0.001
  0.003  0.712  0.009 -0.000 -0.002
  0.000  0.009  0.613  0.000 -0.000
 -0.020 -0.000  0.000  0.775 -0.000
  0.001 -0.002 -0.000 -0.000  0.569
atom    9   Tr[ns(na)] =   6.55701
    eigenvalues:
  0.591  0.598  0.606  0.733  0.750
    eigenvectors:
  0.248  0.000  0.000  0.002  0.750
  0.000  0.000  1.000  0.000  0.000
  0.000  0.991  0.000  0.008  0.000
  0.752  0.000  0.000  0.001  0.247
  0.000  0.008  0.000  0.989  0.003
    occupations:
  0.711 -0.000 -0.001 -0.069  0.001
 -0.000  0.606  0.000  0.000  0.000
 -0.001  0.000  0.599  0.000 -0.012
 -0.069  0.000  0.000  0.631 -0.000
  0.001  0.000 -0.012 -0.000  0.732
atom   10   Tr[ns(na)] =   6.53151
    eigenvalues:
  0.477  0.543  0.673  0.719  0.855
    eigenvectors:
  1.000  0.000  0.000  0.000  0.000
  0.000  0.000  0.000  0.000  1.000
  0.000  0.000  1.000  0.000  0.000
  0.000  0.000  0.000  1.000  0.000
  0.000  1.000  0.000  0.000  0.000
    occupations:
  0.477 -0.000 -0.000 -0.004 -0.000
 -0.000  0.855  0.001 -0.000  0.000
 -0.000  0.001  0.673 -0.000  0.000
 -0.004 -0.000 -0.000  0.718 -0.000
 -0.000  0.000  0.000 -0.000  0.543
atom   16   Tr[ns(na)] =   6.57323
    eigenvalues:
  0.539  0.570  0.606  0.768  0.805
    eigenvectors:
  0.000  0.345  0.002  0.652  0.001
  0.997  0.002  0.000  0.000  0.001
  0.000  0.002  0.989  0.008  0.001
  0.002  0.651  0.008  0.339  0.000
  0.001  0.000  0.001  0.001  0.997
    occupations:
  0.699  0.002  0.013 -0.093 -0.001
  0.002  0.539 -0.001 -0.003 -0.008
  0.013 -0.001  0.607 -0.007  0.005
 -0.093 -0.003 -0.007  0.637  0.001
 -0.001 -0.008  0.005  0.001  0.805
atom   17   Tr[ns(na)] =   6.54619
    eigenvalues:
  0.569  0.607  0.608  0.707  0.782
    eigenvectors:
  0.000  0.018  0.969  0.001  0.013
  0.000  0.005  0.001  0.994  0.000
  0.000  0.977  0.018  0.005  0.000
  0.000  0.001  0.012  0.000  0.987
  1.000  0.000  0.000  0.000  0.000
    occupations:
  0.611  0.003  0.000 -0.019  0.001
  0.003  0.706  0.007 -0.000 -0.001
  0.000  0.007  0.607  0.002 -0.000
 -0.019 -0.000  0.002  0.779 -0.000
  0.001 -0.001 -0.000 -0.000  0.569
atom   22   Tr[ns(na)] =   6.55677
    eigenvalues:
  0.591  0.598  0.606  0.733  0.750
    eigenvectors:
  0.248  0.000  0.000  0.026  0.727
  0.000  0.001  0.999  0.000  0.000
  0.000  0.991  0.001  0.008  0.000
  0.752  0.000  0.000  0.008  0.239
  0.000  0.008  0.000  0.958  0.034
    occupations:
  0.710  0.000 -0.000 -0.068  0.003
  0.000  0.606  0.000  0.000  0.000
 -0.000  0.000  0.599  0.000  0.012
 -0.068  0.000  0.000  0.630 -0.002
  0.003  0.000  0.012 -0.002  0.732
atom   23   Tr[ns(na)] =   6.56875
    eigenvalues:
  0.581  0.608  0.613  0.657  0.825
    eigenvectors:
  0.000  0.000  0.000  0.981  0.019
  0.000  0.000  0.999  0.000  0.000
  0.000  1.000  0.000  0.000  0.000
  0.000  0.000  0.000  0.019  0.981
  1.000  0.000  0.000  0.000  0.000
    occupations:
  0.660  0.000 -0.000 -0.023 -0.000
  0.000  0.613 -0.000 -0.000  0.000
 -0.000 -0.000  0.608  0.001  0.000
 -0.023 -0.000  0.001  0.822 -0.000
 -0.000  0.000  0.000 -0.000  0.581
N of occupied +U levels =  52.4614608
 --- exit write_ns ---

[...]

          k = 0.2500-0.3828 0.0000 ( 29202 PWs)   bands (ev):

[...]

          k =-0.2500 0.1914 0.0000 ( 29229 PWs)   bands (ev):

   -82.1039 -81.4535 -81.3695 -81.2093 -81.1691 -80.9015 -80.8627 -80.8151
   -44.3118 -43.9530 -43.8053 -43.5265 -43.3998 -43.3589 -43.3490 -43.2956
   -43.2408 -43.2163 -43.1538 -43.0883 -43.0089 -42.9828 -42.9199 -42.9045
   -42.8857 -42.8247 -42.8157 -42.7547 -42.7471 -42.7073 -42.6027 -42.3200
   -21.0428 -20.6360 -20.5839 -20.4606 -20.3463 -20.1176 -20.0857 -20.0435
   -19.8910 -19.7579 -19.6641 -19.6020 -19.5820 -19.3730 -19.3459 -19.2073
   -18.6318 -18.5997 -18.3802  -9.2560  -9.1220  -9.0134  -8.9263  -8.8334
    -8.7073  -8.5252  -8.4939  -8.2619  -8.1970  -8.1335  -7.8974  -7.8036
    -7.6427  -7.4631  -7.3360  -7.1717  -7.0062  -6.9091  -6.8356  -6.6870
    -6.5265  -6.4383  -6.2947  -6.0811  -6.0333  -5.8893  -5.7778  -5.7163
    -5.5373  -5.4514  -5.3684  -5.2537  -5.2047  -5.0803  -5.0154  -4.9283
    -4.8851  -4.8218  -4.6966  -4.4562  -4.3990  -4.2525  -4.1743  -4.0864
    -4.0385  -3.9390  -3.8771  -3.7393  -3.6561  -3.5877  -3.5398  -3.3756
    -3.2027  -3.0634  -2.9706  -2.8623  -2.5420  -2.4846  -2.1906  -1.3808
    -1.2402  -1.2005  -1.0236  -0.3581  -0.3332   0.1310   0.2384   0.3006
     0.4853   0.5538   0.6459   0.8984   1.0787   1.2137   1.2791   1.2996
     1.3752   1.5918   1.6329   1.9397   2.1876   3.2651   3.4845   3.4874
     3.6756   3.7644   3.9417   4.2103   4.3117   4.4098   4.5180   4.7143
     4.8514   5.2278   5.4660   5.5737   5.7942   5.8778   6.0494   6.1928
     6.2941   6.4349   6.6958   6.8648   7.1079   7.2677   7.3924   7.5853
     7.6096   7.8265   8.0643   8.0995   8.2372   8.3761   8.5321   8.6041
     8.6301   8.7058   8.9227   9.0547   9.1530   9.3826   9.4629   9.5868
     9.6801   9.7777   9.8548   9.9020   9.9456  10.0090  10.0512  10.2032
    10.2635  10.3417  10.4107  10.4493  10.5513  10.6894  10.7908  10.9042
    11.0255  11.0827  11.1942  11.3685  11.4466  11.5465  11.5921  11.7964
    11.8384  11.9346  12.1205  12.2536  12.3650  12.5242  12.5498  12.6077
    12.7019  12.7199  12.8221  12.9031  12.9654  13.0386  13.1251  13.2562
    13.3326  13.4829  13.5467  13.6041  13.7024  13.7413  13.7712  13.8599
    13.8928  13.9490  14.0584  14.1315  14.1899  14.2259  14.2531  14.4288
    14.4851  14.5159  14.5457  14.6594  14.6759  14.8221  14.8408  14.9040
    15.0013  15.0256  15.0782  15.1478  15.1888  15.2423  15.2984  15.4718
    15.5474  15.5779  15.6744  15.7886  15.8899  16.0563  16.0980  16.1527
    16.2199  16.3055  16.3471  16.4440  16.5263  16.5626  16.6234  16.6742
    16.7618  16.8769  16.9511  17.0475  17.1315  17.1863  17.2661  17.3641
    17.4584  17.5056  17.5950  17.7459  17.7615  17.8227  17.8949  17.9526
    18.0121  18.0877  18.1329  18.2044  18.2863  18.3163  18.3671  18.4408
    18.5114  18.6228  18.6554  18.7420  18.8066  18.9019  18.9536  19.0264
    19.0850  19.2085  19.3061  19.4111  19.4955  19.5776  19.6375  19.7091
    19.7749  19.9154  20.0068  20.0662  20.1098  20.2038  20.2399  20.3750
    20.4887  20.5014  20.5682  20.6040  20.6803  20.7142  20.8214  20.8869
    20.9383  21.0321  21.0802  21.1684  21.2020  21.2625  21.3004  21.3734
    21.4406  21.4790  21.5551  21.6227  21.6486  21.7340  21.8244  21.9103
    21.9758  22.0590  22.1022  22.1803  22.2142  22.2418  22.3303  22.4154
    22.4352  22.4874  22.5364  22.5693  22.6482  22.6889  22.7213  22.7862
    22.8093  22.8734  22.9491  22.9975  23.0473

     the Fermi energy is     0.2117 ev

!    total energy              =   -2173.43881549 Ry
     Harris-Foulkes estimate   =   -2173.43881549 Ry
     estimated scf accuracy    <          7.8E-09 Ry

     The total energy is the sum of the following terms:

     one-electron contribution =  -24256.90132151 Ry
     hartree contribution      =   12143.82307812 Ry
     xc contribution           =    -594.29893117 Ry
     ewald contribution        =   10532.02610913 Ry
     Hubbard energy            =       1.91287234 Ry
     smearing contrib. (-TS)   =      -0.00062239 Ry

     convergence has been achieved in  12 iterations

     Forces acting on atoms (Ry/au):

     negative rho (up, down):  0.245E+00 0.000E+00
     atom    1 type  1   force =    -0.00633937   -0.00646663   -0.00016864
     atom    2 type  1   force =     0.00007733    0.00385344   -0.00048600
     atom    3 type  2   force =     0.03341199   -0.00271073   -0.00025142
     atom    4 type  2   force =     0.00192679    0.00709467    0.00008886
     atom    5 type  1   force =     0.00311838    0.00635662    0.00036270
     atom    6 type  1   force =     0.00175674   -0.00658927    0.00044570
     atom    7 type  1   force =    -0.00006349   -0.00008766   -0.00048976
     atom    8 type  1   force =     0.00259728   -0.00118272   -0.00067803
     atom    9 type  2   force =    -0.01498397    0.00176365    0.00013668
     atom   10 type  2   force =    -0.00012335   -0.00141986   -0.00021321
     atom   11 type  1   force =    -0.01362468   -0.01058321   -0.00029509
     atom   12 type  1   force =    -0.01469104    0.01060295   -0.00035987
     atom   13 type  1   force =    -0.00037236   -0.00039224    0.00045005
     atom   14 type  1   force =    -0.00261308   -0.00581639   -0.00013279
     atom   15 type  1   force =    -0.00005263    0.00231382   -0.00027898
     atom   16 type  2   force =    -0.03371227   -0.00245702   -0.00024355
     atom   17 type  2   force =     0.00102914    0.00772592    0.00006083
     atom   18 type  1   force =     0.00026599    0.00618095    0.00039076
     atom   19 type  1   force =    -0.00121850   -0.00663202    0.00042876
     atom   20 type  1   force =    -0.00004551   -0.00175460   -0.00026911
     atom   21 type  1   force =     0.00311987   -0.00180818   -0.00030477
     atom   22 type  2   force =     0.01157593    0.00219123    0.00012420
     atom   23 type  2   force =     0.00013031    0.00032496    0.00021227
     atom   24 type  1   force =     0.01406388   -0.01073996   -0.00030660
     atom   25 type  1   force =     0.01423674    0.01043643   -0.00035600
     atom   26 type  1   force =    -0.00047044   -0.00089779    0.00007887
     atom   27 type  3   force =    -0.00000489    0.00052928    0.00044623
     atom   28 type  3   force =    -0.00000613    0.00031733    0.00024214
     atom   29 type  3   force =     0.00049285   -0.00002835    0.00030090
     atom   30 type  3   force =     0.00052037   -0.00008198    0.00032883
     atom   31 type  1   force =    -0.00000187   -0.00004264    0.00073605

     Total force =     0.002168     Total SCF correction =     0.000215

     bfgs converged in   8 scf cycles and   7 bfgs steps
     (criteria: energy < 0.10E-03, force < 0.10E-02)

     End of BFGS Geometry Optimization

     Final energy   =   -2173.4388154855 Ry
Begin final coordinates

ATOMIC_POSITIONS (crystal)
O0       0.000000000   0.000000000   0.370719014    0   0   1
O0       0.000000000   0.500000000   0.383431813    0   0   1
Re1      0.250000000   0.500000000   0.442803800    0   0   1
Re1      0.000000000   0.000000000   0.443139514    0   0   1
O0       0.250000000   0.780000000   0.441843087    0   0   1
O0       0.250000000   0.220000000   0.441591024    0   0   1
O0       0.000000000   0.500000000   0.497606095    0   0   1
O0       0.000000000   0.000000000   0.514114507    0   0   1
Re1      0.250000000   0.000000000   0.573740901    0   0   1
Re1      0.000000000   0.500000000   0.567226533    0   0   1
O0       0.250000000   0.720000000   0.571258574    0   0   1
O0       0.250000000   0.280000000   0.571306959    0   0   1
O0       0.000000000   0.000000000   0.625850281    0   0   1
O0       0.500000000   0.000000000   0.370700141    0   0   1
O0       0.500000000   0.500000000   0.383606273    0   0   1
Re1      0.750000000   0.500000000   0.442798299    0   0   1
Re1      0.500000000   0.000000000   0.442826004    0   0   1
O0       0.750000000   0.780000000   0.441726952    0   0   1
O0       0.750000000   0.220000000   0.441668188    0   0   1
O0       0.500000000   0.500000000   0.500444957    0   0   1
O0       0.500000000   0.000000000   0.514098369    0   0   1
Re1      0.750000000   0.000000000   0.573773146    0   0   1
Re1      0.500000000   0.500000000   0.576110374    0   0   1
O0       0.750000000   0.720000000   0.571327691    0   0   1
O0       0.750000000   0.280000000   0.571297188    0   0   1
O0       0.500000000   0.000000000   0.625276278    0   0   1
H2      -0.000340115   0.624593383   0.366375739
H2       0.499588112   0.621757026   0.365258252
H2       0.168145634   0.023577195   0.356036701
H2       0.669656253   0.021508391   0.356267314
O0       0.499896079   0.499326661   0.639626030
End final coordinates

     General routines

     Parallel routines
     Hubbard U routines

   This run was terminated on:  16:34:10   1May2014

   JOB DONE.