     Program PWSCF v.5.0.2 (svn rev. 9656) starts on 23Jan2014 at 18:48: 9

     Current dimensions of program PWSCF are:
     Max number of different atomic species (ntypx) = 10
     Max number of k-points (npk) =  40000
     Max angular momentum in pseudopotentials (lmaxx) =  3
     Reading input from RhO2-v-1.0.in

     Subspace diagonalization in iterative solution of the eigenvalue problem:
     a serial algorithm will be used

     bravais-lattice index     =            0
     lattice parameter (alat)  =       8.6590  a.u.
     unit-cell volume          =     418.3967 (a.u.)^3
     number of atoms/cell      =            6
     number of atomic types    =            2
     number of electrons       =        54.00
     number of Kohn-Sham states=           81
     kinetic-energy cutoff     =      40.0000  Ry
     charge density cutoff     =     500.0000  Ry
     convergence threshold     =      1.0E-06
     mixing beta               =       0.7000
     number of iterations used =            8  plain     mixing
     Exchange-correlation      = SLA  PW   PBE  PBE ( 1 4 3 4 0)
     EXX-fraction              =        0.00
     nstep                     =           50

     celldm(1)=   8.658997  celldm(2)=   0.000000  celldm(3)=   0.000000
     celldm(4)=   0.000000  celldm(5)=   0.000000  celldm(6)=   0.000000

     crystal axes: (cart. coord. in units of alat)
               a(1) = (   1.000000   0.000000   0.000000 )
               a(2) = (   0.000000   1.000000   0.000000 )
               a(3) = (   0.000000   0.000000   0.644444 )

     reciprocal axes: (cart. coord. in units 2 pi/alat)
               b(1) = (  1.000000  0.000000  0.000000 )
               b(2) = (  0.000000  1.000000  0.000000 )
               b(3) = (  0.000000  0.000000  1.551724 )

     PseudoPot. # 1 for Rh read from file:
     /home/camp/zhonxu/pseudo/rh_pbe_v1.uspp.F.UPF
     MD5 check sum: 37b626987ad0dd8ec6bf4cc9ef289918
     Pseudo is Ultrasoft + core correction, Zval = 15.0
     Generated by new atomic code, or converted to UPF format
     Using radial grid of  969 points,  7 beta functions with:
                l(1) =   0
                l(2) =   0
                l(3) =   1
                l(4) =   1
                l(5) =   2
                l(6) =   2
                l(7) =   2
     Q(r) pseudized with  6 coefficients,  rinner =    1.050   1.050   1.050
                                                       1.050   1.050

     PseudoPot. # 2 for O  read from file:
     /home/camp/zhonxu/pseudo/o_pbe_v1.01.uspp.F.UPF
     MD5 check sum: 2bcb18d16ea4b960afae9ec6d52f22d2
     Pseudo is Ultrasoft + core correction, Zval =  6.0
     Generated by new atomic code, or converted to UPF format
     Using radial grid of  737 points,  5 beta functions with:
                l(1) =   0
                l(2) =   0
                l(3) =   1
                l(4) =   1
                l(5) =   2
     Q(r) pseudized with  8 coefficients,  rinner =    0.900   0.900   0.900
                                                       0.900   0.900

     atomic species   valence    mass     pseudopotential
        Rh0           15.00   102.90550     Rh( 1.00)
        O1             6.00    15.99940     O ( 1.00)

     Starting magnetic structure
     atomic species   magnetization
        Rh0          0.600
        O1           0.000

     16 Sym. Ops., with inversion, found ( 8 have fractional translation)

   Cartesian axes

     site n.     atom                  positions (alat units)
         1           Rh0 tau(   1) = (   0.0000000   0.0000000   0.0000000  )
         2           Rh0 tau(   2) = (   0.5000000   0.5000000   0.3222222  )
         3           O1  tau(   3) = (   0.3050000   0.3050000   0.0000000  )
         4           O1  tau(   4) = (  -0.3050000  -0.3050000   0.0000000  )
         5           O1  tau(   5) = (   0.8050000   0.1950000   0.3222222  )
         6           O1  tau(   6) = (   0.1950000   0.8050000   0.3222222  )

     number of k points=    36  Methfessel-Paxton smearing, width (Ry)=  0.0100
                       cart. coord. in units 2pi/alat
        k(    1) = (   0.0000000   0.0000000   0.0000000), wk =   0.0080000
        k(    2) = (   0.0000000   0.0000000   0.3103448), wk =   0.0160000
        k(    3) = (   0.0000000   0.0000000   0.6206897), wk =   0.0160000
        k(    4) = (   0.0000000   0.2000000   0.0000000), wk =   0.0320000
        k(    5) = (   0.0000000   0.2000000   0.3103448), wk =   0.0640000
        k(    6) = (   0.0000000   0.2000000   0.6206897), wk =   0.0640000
        k(    7) = (   0.0000000   0.4000000   0.0000000), wk =   0.0320000
        k(    8) = (   0.0000000   0.4000000   0.3103448), wk =   0.0640000
        k(    9) = (   0.0000000   0.4000000   0.6206897), wk =   0.0640000
        k(   10) = (   0.2000000   0.2000000   0.0000000), wk =   0.0320000
        k(   11) = (   0.2000000   0.2000000   0.3103448), wk =   0.0640000
        k(   12) = (   0.2000000   0.2000000   0.6206897), wk =   0.0640000
        k(   13) = (   0.2000000   0.4000000   0.0000000), wk =   0.0640000
        k(   14) = (   0.2000000   0.4000000   0.3103448), wk =   0.1280000
        k(   15) = (   0.2000000   0.4000000   0.6206897), wk =   0.1280000
        k(   16) = (   0.4000000   0.4000000   0.0000000), wk =   0.0320000
        k(   17) = (   0.4000000   0.4000000   0.3103448), wk =   0.0640000
        k(   18) = (   0.4000000   0.4000000   0.6206897), wk =   0.0640000
        k(   19) = (   0.0000000   0.0000000   0.0000000), wk =   0.0080000
        k(   20) = (   0.0000000   0.0000000   0.3103448), wk =   0.0160000
        k(   21) = (   0.0000000   0.0000000   0.6206897), wk =   0.0160000
        k(   22) = (   0.0000000   0.2000000   0.0000000), wk =   0.0320000
        k(   23) = (   0.0000000   0.2000000   0.3103448), wk =   0.0640000
        k(   24) = (   0.0000000   0.2000000   0.6206897), wk =   0.0640000
        k(   25) = (   0.0000000   0.4000000   0.0000000), wk =   0.0320000
        k(   26) = (   0.0000000   0.4000000   0.3103448), wk =   0.0640000
        k(   27) = (   0.0000000   0.4000000   0.6206897), wk =   0.0640000
        k(   28) = (   0.2000000   0.2000000   0.0000000), wk =   0.0320000
        k(   29) = (   0.2000000   0.2000000   0.3103448), wk =   0.0640000
        k(   30) = (   0.2000000   0.2000000   0.6206897), wk =   0.0640000
        k(   31) = (   0.2000000   0.4000000   0.0000000), wk =   0.0640000
        k(   32) = (   0.2000000   0.4000000   0.3103448), wk =   0.1280000
        k(   33) = (   0.2000000   0.4000000   0.6206897), wk =   0.1280000
        k(   34) = (   0.4000000   0.4000000   0.0000000), wk =   0.0320000
        k(   35) = (   0.4000000   0.4000000   0.3103448), wk =   0.0640000
        k(   36) = (   0.4000000   0.4000000   0.6206897), wk =   0.0640000

     Largest allocated arrays     est. size (Mb)     dimensions
     Largest temporary arrays     est. size (Mb)     dimensions

     Check: negative/imaginary core charge=   -0.000004    0.000000

     Initial potential from superposition of free atoms
     Check: negative starting charge=(component1):   -0.129971
     Check: negative starting charge=(component2):   -0.032093

     starting charge   52.99980, renormalised to   54.00000

     negative rho (up, down):  0.132E+00 0.327E-01
     Starting wfc are   40 randomized atomic wfcs

     Self-consistent Calculation

     iteration #  1     ecut=    40.00 Ry     beta=0.70
     Davidson diagonalization with overlap
     ethr =  1.00E-02,  avg # of iterations =  6.9

     negative rho (up, down):  0.968E-01 0.762E-01

     total energy              =    -466.61212999 Ry
     Harris-Foulkes estimate   =    -469.49381113 Ry
     estimated scf accuracy    <       4.78212457 Ry

     total magnetization       =     8.55 Bohr mag/cell
     absolute magnetization    =     8.55 Bohr mag/cell

[...]

     End of self-consistent calculation

 ------ SPIN UP ------------

          k = 0.0000 0.0000 0.0000 (  1819 PWs)   bands (ev):

   -35.5206 -35.5206 -35.3905 -35.3905 -35.3313 -35.3182  -7.8143  -6.6781
    -5.8499  -5.8499   3.6918   3.8232   5.1262   5.2974   5.2974   8.0021
     8.0021   8.5201   9.5735   9.6865   9.8448  10.0910  10.0910  10.2264
    10.2264  10.2813  11.1409  12.5580  13.2575  16.0761  16.0761  17.1907
    18.5852  22.5294  22.5294  25.9071  26.6193  26.8896  28.4080  29.9722
    29.9722  30.6195  31.5323  33.9128  34.9018  34.9018  36.4075  36.4075
    36.9982  38.2823  38.6710  38.6710  39.6123  40.5929  40.6116  41.6207
    41.8239  42.2136  43.7630  43.7877  44.0355  44.0355  44.8393  44.8393
    46.9257  46.9257  47.3785  47.8562  51.0342  52.5664  52.7175  52.7175
    52.8956  52.8956  53.1220  53.9231  53.9231  54.1549  54.2148  54.5109
    54.9368

[...]

 ------ SPIN DOWN ----------

[...]

     the Fermi energy is    12.3760 ev

!    total energy              =    -469.80297742 Ry
     Harris-Foulkes estimate   =    -469.80297690 Ry
     estimated scf accuracy    <       0.00000049 Ry

     The total energy is the sum of the following terms:

     one-electron contribution =    -134.99807828 Ry
     hartree contribution      =     104.74825123 Ry
     xc contribution           =     -87.28136626 Ry
     ewald contribution        =    -352.27128932 Ry
     smearing contrib. (-TS)   =      -0.00049479 Ry

[...]

     convergence has been achieved in  10 iterations

     Forces acting on atoms (Ry/au):

     negative rho (up, down):  0.881E-01 0.882E-01
     atom    1 type  1   force =     0.00000000    0.00000000    0.00000000
     atom    2 type  1   force =     0.00000000    0.00000000    0.00000000
     atom    3 type  2   force =    -0.01522246   -0.01522246   -0.00000000
     atom    4 type  2   force =     0.01522246    0.01522246   -0.00000000
     atom    5 type  2   force =    -0.01522246    0.01522246    0.00000000
     atom    6 type  2   force =     0.01522246   -0.01522246    0.00000000

     Total force =     0.043056     Total SCF correction =     0.000304

     entering subroutine stress ...

     negative rho (up, down):  0.881E-01 0.882E-01
          total   stress  (Ry/bohr**3)                   (kbar)     P=   87.02
   0.00005465   0.00000000   0.00000000          8.04      0.00      0.00
   0.00000000   0.00005465   0.00000000          0.00      8.04      0.00
   0.00000000   0.00000000   0.00166545          0.00      0.00    245.00

     Volume is kept fixed: isostatic pressure set to zero

     BFGS Geometry Optimization

     number of scf cycles    =   1
     number of bfgs steps    =   0

     enthalpy new            =    -469.8029774175 Ry

     new trust radius        =       0.1098286059 bohr
     new conv_thr            =       0.0000010000 Ry

     new unit-cell volume =    418.39674 a.u.^3 (    62.00000 Ang^3 )

CELL_PARAMETERS (alat=  8.65899730)
   0.986752877   0.000000000   0.000000000
   0.000000000   0.986752877   0.000000000
   0.000000000   0.000000000   0.661863881

ATOMIC_POSITIONS (crystal)
Rh0      0.000000000   0.000000000   0.000000000    0   0   0
Rh0      0.500000000   0.500000000   0.500000000    0   0   0
[...]
        k(   30) = (   0.2026850   0.2026850   0.6043539), wk =   0.0640000
        k(   31) = (   0.2026850   0.4053700   0.0000000), wk =   0.0640000
        k(   32) = (   0.2026850   0.4053700   0.3021769), wk =   0.1280000
        k(   33) = (   0.2026850   0.4053700   0.6043539), wk =   0.1280000
        k(   34) = (   0.4053700   0.4053700   0.0000000), wk =   0.0320000
        k(   35) = (   0.4053700   0.4053700   0.3021769), wk =   0.0640000
        k(   36) = (   0.4053700   0.4053700   0.6043539), wk =   0.0640000

     Check: negative/imaginary core charge=   -0.000004    0.000000
     Check: negative starting charge=(component1):   -0.161633

[...]

     enthalpy old            =    -469.8029774175 Ry
     enthalpy new            =    -469.8147113714 Ry

     CASE: enthalpy_new < enthalpy_old

[...]

     Threshold (ethr) on eigenvalues was too large:
     Diagonalizing with lowered threshold

     Davidson diagonalization with overlap
     ethr =  2.93E-08,  avg # of iterations =  1.0

[...]

     number of scf cycles    =   5
     number of bfgs steps    =   4

     enthalpy old            =    -469.8175009151 Ry
     enthalpy new            =    -469.8175833783 Ry

     CASE: enthalpy_new < enthalpy_old

     new trust radius        =       0.0018077890 bohr
     new conv_thr            =       0.0000000100 Ry

     new unit-cell volume =    418.39674 a.u.^3 (    62.00000 Ang^3 )

[...]

ATOMIC_POSITIONS (crystal)
Rh0      0.000000000   0.000000000   0.000000000    0   0   0
Rh0      0.500000000   0.500000000   0.500000000    0   0   0
O1       0.307076339   0.307076339   0.000000000    1   1   0
O1      -0.307076339  -0.307076339   0.000000000    1   1   0
O1       0.807076339   0.192923661   0.500000000    1   1   0
O1       0.192923661   0.807076339   0.500000000    1   1   0

     Check: negative starting charge=(component1):   -0.161182
     NEW-OLD atomic charge density approx. for the potential
     NEW k-points:
        k(    1) = (   0.0000000   0.0000000   0.0000000), wk =   0.0080000
        k(    2) = (   0.0000000   0.0000000   0.2964420), wk =   0.0160000
        k(    3) = (   0.0000000   0.0000000   0.5928840), wk =   0.0160000
        k(    4) = (   0.0000000   0.2046362   0.0000000), wk =   0.0320000
        k(    5) = (   0.0000000   0.2046362   0.2964420), wk =   0.0640000
        k(    6) = (   0.0000000   0.2046362   0.5928840), wk =   0.0640000
        k(    7) = (   0.0000000   0.4092723   0.0000000), wk =   0.0320000
        k(    8) = (   0.0000000   0.4092723   0.2964420), wk =   0.0640000
        k(    9) = (   0.0000000   0.4092723   0.5928840), wk =   0.0640000
        k(   10) = (   0.2046362   0.2046362   0.0000000), wk =   0.0320000
        k(   11) = (   0.2046362   0.2046362   0.2964420), wk =   0.0640000
        k(   12) = (   0.2046362   0.2046362   0.5928840), wk =   0.0640000
        k(   13) = (   0.2046362   0.4092723   0.0000000), wk =   0.0640000
        k(   14) = (   0.2046362   0.4092723   0.2964420), wk =   0.1280000
        k(   15) = (   0.2046362   0.4092723   0.5928840), wk =   0.1280000
        k(   16) = (   0.4092723   0.4092723   0.0000000), wk =   0.0320000
        k(   17) = (   0.4092723   0.4092723   0.2964420), wk =   0.0640000
        k(   18) = (   0.4092723   0.4092723   0.5928840), wk =   0.0640000
        k(   19) = (   0.0000000   0.0000000   0.0000000), wk =   0.0080000
        k(   20) = (   0.0000000   0.0000000   0.2964420), wk =   0.0160000
        k(   21) = (   0.0000000   0.0000000   0.5928840), wk =   0.0160000
        k(   22) = (   0.0000000   0.2046362   0.0000000), wk =   0.0320000
        k(   23) = (   0.0000000   0.2046362   0.2964420), wk =   0.0640000
        k(   24) = (   0.0000000   0.2046362   0.5928840), wk =   0.0640000
        k(   25) = (   0.0000000   0.4092723   0.0000000), wk =   0.0320000
        k(   26) = (   0.0000000   0.4092723   0.2964420), wk =   0.0640000
        k(   27) = (   0.0000000   0.4092723   0.5928840), wk =   0.0640000
        k(   28) = (   0.2046362   0.2046362   0.0000000), wk =   0.0320000
        k(   29) = (   0.2046362   0.2046362   0.2964420), wk =   0.0640000
        k(   30) = (   0.2046362   0.2046362   0.5928840), wk =   0.0640000
        k(   31) = (   0.2046362   0.4092723   0.0000000), wk =   0.0640000
        k(   32) = (   0.2046362   0.4092723   0.2964420), wk =   0.1280000
        k(   33) = (   0.2046362   0.4092723   0.5928840), wk =   0.1280000
        k(   34) = (   0.4092723   0.4092723   0.0000000), wk =   0.0320000
        k(   35) = (   0.4092723   0.4092723   0.2964420), wk =   0.0640000
        k(   36) = (   0.4092723   0.4092723   0.5928840), wk =   0.0640000

     Check: negative/imaginary core charge=   -0.000004    0.000000
     Check: negative starting charge=(component1):   -0.161176

[...]

     Threshold (ethr) on eigenvalues was too large:
     Diagonalizing with lowered threshold

     Davidson diagonalization with overlap
     ethr =  1.56E-09,  avg # of iterations =  1.8

[...]

     Total force =     0.000010     Total SCF correction =     0.000018
     SCF correction compared to forces is large: reduce conv_thr to get better values

[...]

     Volume is kept fixed: isostatic pressure set to zero

     bfgs converged in   6 scf cycles and   5 bfgs steps
     (criteria: energy < 0.10E-03, force < 0.10E-02, cell < 0.50E+00)

     End of BFGS Geometry Optimization

     Final enthalpy =    -469.8175884985 Ry
Begin final coordinates
     new unit-cell volume =    418.39674 a.u.^3 (    62.00000 Ang^3 )

CELL_PARAMETERS (alat=  8.65899730)
   0.977344322   0.000000000   0.000000000
   0.000000000   0.977344322   0.000000000
   0.000000000   0.000000000   0.674668286

ATOMIC_POSITIONS (crystal)
Rh0      0.000000000   0.000000000   0.000000000    0   0   0
Rh0      0.500000000   0.500000000   0.500000000    0   0   0
O1       0.307076339   0.307076339   0.000000000    1   1   0
O1      -0.307076339  -0.307076339   0.000000000    1   1   0
O1       0.807076339   0.192923661   0.500000000    1   1   0
O1       0.192923661   0.807076339   0.500000000    1   1   0
End final coordinates

     A final scf calculation at the relaxed structure.
     The G-vectors are recalculated for the final unit cell
     Results may differ from those at the preceding step.

     bravais-lattice index     =            0
     lattice parameter (alat)  =       8.6590  a.u.
     unit-cell volume          =     418.3967 (a.u.)^3
     number of atoms/cell      =            6
     number of atomic types    =            2
     number of electrons       =        54.00
     number of Kohn-Sham states=           81
     kinetic-energy cutoff     =      40.0000  Ry
     charge density cutoff     =     500.0000  Ry
     convergence threshold     =      1.0E-08
     mixing beta               =       0.7000
     number of iterations used =            8  plain     mixing
     Exchange-correlation      = SLA  PW   PBE  PBE ( 1 4 3 4 0)
     EXX-fraction              =        0.00

     celldm(1)=   8.658997  celldm(2)=   0.000000  celldm(3)=   0.000000
     celldm(4)=   0.000000  celldm(5)=   0.000000  celldm(6)=   0.000000

     crystal axes: (cart. coord. in units of alat)
               a(1) = (   0.977344   0.000000   0.000000 )
               a(2) = (   0.000000   0.977344   0.000000 )
               a(3) = (   0.000000   0.000000   0.674668 )

     reciprocal axes: (cart. coord. in units 2 pi/alat)
               b(1) = (  1.023181  0.000000  0.000000 )
               b(2) = (  0.000000  1.023181  0.000000 )
               b(3) = (  0.000000  0.000000  1.482210 )

     PseudoPot. # 1 for Rh read from file:
     /home/camp/zhonxu/pseudo/rh_pbe_v1.uspp.F.UPF
     MD5 check sum: 37b626987ad0dd8ec6bf4cc9ef289918
     Pseudo is Ultrasoft + core correction, Zval = 15.0
     Generated by new atomic code, or converted to UPF format
     Using radial grid of  969 points,  7 beta functions with:
                l(1) =   0
                l(2) =   0
                l(3) =   1
                l(4) =   1
                l(5) =   2
                l(6) =   2
                l(7) =   2
     Q(r) pseudized with  6 coefficients,  rinner =    1.050   1.050   1.050
                                                       1.050   1.050

     PseudoPot. # 2 for O  read from file:
     /home/camp/zhonxu/pseudo/o_pbe_v1.01.uspp.F.UPF
     MD5 check sum: 2bcb18d16ea4b960afae9ec6d52f22d2
     Pseudo is Ultrasoft + core correction, Zval =  6.0
     Generated by new atomic code, or converted to UPF format
     Using radial grid of  737 points,  5 beta functions with:
                l(1) =   0
                l(2) =   0
                l(3) =   1
                l(4) =   1
                l(5) =   2
     Q(r) pseudized with  8 coefficients,  rinner =    0.900   0.900   0.900
                                                       0.900   0.900

     atomic species   valence    mass     pseudopotential
        Rh0           15.00   102.90550     Rh( 1.00)
        O1             6.00    15.99940     O ( 1.00)

     Starting magnetic structure
     atomic species   magnetization
        Rh0          0.600
        O1           0.000

     16 Sym. Ops., with inversion, found ( 8 have fractional translation)

   Cartesian axes

     site n.     atom                  positions (alat units)
         1           Rh0 tau(   1) = (   0.0000000   0.0000000   0.0000000  )
         2           Rh0 tau(   2) = (   0.4886722   0.4886722   0.3373341  )
         3           O1  tau(   3) = (   0.3001193   0.3001193   0.0000000  )
         4           O1  tau(   4) = (  -0.3001193  -0.3001193   0.0000000  )
         5           O1  tau(   5) = (   0.7887915   0.1885528   0.3373341  )
         6           O1  tau(   6) = (   0.1885528   0.7887915   0.3373341  )

     number of k points=    36  Methfessel-Paxton smearing, width (Ry)=  0.0100
                       cart. coord. in units 2pi/alat
        k(    1) = (   0.0000000   0.0000000   0.0000000), wk =   0.0080000
        k(    2) = (   0.0000000   0.0000000   0.2964420), wk =   0.0160000
        k(    3) = (   0.0000000   0.0000000   0.5928840), wk =   0.0160000
        k(    4) = (   0.0000000   0.2046362   0.0000000), wk =   0.0320000
        k(    5) = (   0.0000000   0.2046362   0.2964420), wk =   0.0640000
        k(    6) = (   0.0000000   0.2046362   0.5928840), wk =   0.0640000
        k(    7) = (   0.0000000   0.4092723   0.0000000), wk =   0.0320000
        k(    8) = (   0.0000000   0.4092723   0.2964420), wk =   0.0640000
        k(    9) = (   0.0000000   0.4092723   0.5928840), wk =   0.0640000
        k(   10) = (   0.2046362   0.2046362   0.0000000), wk =   0.0320000
        k(   11) = (   0.2046362   0.2046362   0.2964420), wk =   0.0640000
        k(   12) = (   0.2046362   0.2046362   0.5928840), wk =   0.0640000
        k(   13) = (   0.2046362   0.4092723   0.0000000), wk =   0.0640000
        k(   14) = (   0.2046362   0.4092723   0.2964420), wk =   0.1280000
        k(   15) = (   0.2046362   0.4092723   0.5928840), wk =   0.1280000
        k(   16) = (   0.4092723   0.4092723   0.0000000), wk =   0.0320000
        k(   17) = (   0.4092723   0.4092723   0.2964420), wk =   0.0640000
        k(   18) = (   0.4092723   0.4092723   0.5928840), wk =   0.0640000
        k(   19) = (   0.0000000   0.0000000   0.0000000), wk =   0.0080000
        k(   20) = (   0.0000000   0.0000000   0.2964420), wk =   0.0160000
        k(   21) = (   0.0000000   0.0000000   0.5928840), wk =   0.0160000
        k(   22) = (   0.0000000   0.2046362   0.0000000), wk =   0.0320000
        k(   23) = (   0.0000000   0.2046362   0.2964420), wk =   0.0640000
        k(   24) = (   0.0000000   0.2046362   0.5928840), wk =   0.0640000
        k(   25) = (   0.0000000   0.4092723   0.0000000), wk =   0.0320000
        k(   26) = (   0.0000000   0.4092723   0.2964420), wk =   0.0640000
        k(   27) = (   0.0000000   0.4092723   0.5928840), wk =   0.0640000
        k(   28) = (   0.2046362   0.2046362   0.0000000), wk =   0.0320000
        k(   29) = (   0.2046362   0.2046362   0.2964420), wk =   0.0640000
        k(   30) = (   0.2046362   0.2046362   0.5928840), wk =   0.0640000
        k(   31) = (   0.2046362   0.4092723   0.0000000), wk =   0.0640000
        k(   32) = (   0.2046362   0.4092723   0.2964420), wk =   0.1280000
        k(   33) = (   0.2046362   0.4092723   0.5928840), wk =   0.1280000
        k(   34) = (   0.4092723   0.4092723   0.0000000), wk =   0.0320000
        k(   35) = (   0.4092723   0.4092723   0.2964420), wk =   0.0640000
        k(   36) = (   0.4092723   0.4092723   0.5928840), wk =   0.0640000

     Largest allocated arrays     est. size (Mb)     dimensions
     Largest temporary arrays     est. size (Mb)     dimensions

     Check: negative/imaginary core charge=   -0.000004    0.000000

     Initial potential from superposition of free atoms
     Check: negative starting charge=(component1):   -0.130052
     Check: negative starting charge=(component2):   -0.032194

     starting charge   52.99980, renormalised to   54.00000

     negative rho (up, down):  0.133E+00 0.328E-01
     Starting wfc are   40 randomized atomic wfcs

     Self-consistent Calculation

[...]

     total energy              =    -469.81798484 Ry
     Harris-Foulkes estimate   =    -469.81798562 Ry
     estimated scf accuracy    <       0.00000003 Ry

[...]

     iteration # 13     ecut=    40.00 Ry     beta=0.70
     Davidson diagonalization with overlap
     ethr =  5.88E-11,  avg # of iterations =  2.1

     negative rho (up, down):  0.872E-01 0.874E-01

     End of self-consistent calculation

 ------ SPIN UP ------------

[...]

 ------ SPIN DOWN ----------

[...]

          k = 0.4093 0.4093 0.5929 (  1780 PWs)   bands (ev):

   -35.4896 -35.4835 -35.4735 -35.4677 -35.2529 -35.2524  -6.4885  -6.4199
    -6.2587  -6.2069   5.0260   5.1376   5.3201   5.3835   6.1163   6.4414
     7.4568   7.5846   8.3820   8.5955   9.5816   9.9250  10.6328  10.7080
    10.9114  11.6180  11.8166  12.3625  13.8938  14.5206  15.1854  15.7646
    22.8285  23.1999  24.4779  25.0934  25.6121  25.9462  26.8935  27.3149
    29.9838  30.1108  31.6778  32.1724  34.1951  35.3203  35.7635  35.9469
    36.3241  37.2987  40.5012  40.5410  40.5601  40.5642  40.6617  41.2410
    42.7002  43.1366  43.9921  44.9041  45.6637  46.1068  46.7784  47.1093
    47.4409  47.8227  49.1488  49.7650  50.4652  50.6445  50.7394  51.7052
    51.7993  52.8577  53.1870  53.5832  53.9207  54.6018  55.0811  55.8348
    57.3286

     the Fermi energy is    12.3720 ev

!    total energy              =    -469.81798596 Ry
     Harris-Foulkes estimate   =    -469.81798595 Ry
     estimated scf accuracy    <          7.2E-09 Ry

     The total energy is the sum of the following terms:

     one-electron contribution =    -130.55925355 Ry
     hartree contribution      =     102.54968098 Ry
     xc contribution           =     -87.21748816 Ry
     ewald contribution        =    -354.59042789 Ry
     smearing contrib. (-TS)   =      -0.00049735 Ry

     total magnetization       =     0.19 Bohr mag/cell
     absolute magnetization    =     0.20 Bohr mag/cell

     convergence has been achieved in  13 iterations

     Forces acting on atoms (Ry/au):

     negative rho (up, down):  0.872E-01 0.874E-01
     atom    1 type  1   force =     0.00000000    0.00000000   -0.00000000
     atom    2 type  1   force =     0.00000000    0.00000000    0.00000000
     atom    3 type  2   force =    -0.00016182   -0.00016182   -0.00000000
     atom    4 type  2   force =     0.00016182    0.00016182   -0.00000000
     atom    5 type  2   force =    -0.00016182    0.00016182   -0.00000000
     atom    6 type  2   force =     0.00016182   -0.00016182   -0.00000000

     Total force =     0.000458     Total SCF correction =     0.000004

     entering subroutine stress ...

     negative rho (up, down):  0.872E-01 0.874E-01
          total   stress  (Ry/bohr**3)                   (kbar)     P=   48.95
   0.00031675   0.00000000   0.00000000         46.60      0.00      0.00
   0.00000000   0.00031675   0.00000000          0.00     46.60      0.00
   0.00000000   0.00000000   0.00036480          0.00      0.00     53.66

     General routines

     Parallel routines

   This run was terminated on:  19:13:46  23Jan2014

   JOB DONE.
Running PBS batch system epilogue script
Job id: 251208.audhumbla.fysik.dtu.dk
Username: zhonxu
Groupname: campgst
Jobname: RhO2/coarse-EOS/RhO2-v-1.0
Sessionid: 22051
Queuename: verylong
Accounting:
This job has allocated the following 4 nodes:
q094 q094 q094 q094
Finished epilogue job 251208.audhumbla.fysik.dtu.dk for zhonxu