     Program PWSCF v.5.0.2 (svn rev. 9656) starts on 10May2014 at  0:33:35

     Current dimensions of program PWSCF are:
     Max number of different atomic species (ntypx) = 10
     Max number of k-points (npk) =  40000
     Max angular momentum in pseudopotentials (lmaxx) =  3
     Reading input from pwscf.in
Warning: card &CELL ignored
Warning: card / ignored

     Subspace diagonalization in iterative solution of the eigenvalue problem:
     a serial algorithm will be used

     bravais-lattice index     =            0
     lattice parameter (alat)  =      10.9604  a.u.
     unit-cell volume          =    6350.6732 (a.u.)^3
     number of atoms/cell      =           30
     number of atomic types    =            3
     number of electrons       =       224.00 (up: 120.00, down: 104.00)
     number of Kohn-Sham states=          324
     kinetic-energy cutoff     =      40.0000  Ry
     charge density cutoff     =     500.0000  Ry
     convergence threshold     =      1.0E-06
     mixing beta               =       0.7000
     number of iterations used =            8  plain     mixing
     Exchange-correlation      = SLA  PW   PBE  PBE ( 1 4 3 4 0)
     EXX-fraction              =        0.00
     nstep                     =           50

     celldm(1)=  10.960412  celldm(2)=   0.000000  celldm(3)=   0.000000
     celldm(4)=   0.000000  celldm(5)=   0.000000  celldm(6)=   0.000000

     crystal axes: (cart. coord. in units of alat)
               a(1) = (   1.000000   0.000000   0.000000 )
               a(2) = (   0.000000   1.067975   0.000000 )
               a(3) = (   0.000000   0.000000   4.516251 )

     reciprocal axes: (cart. coord. in units 2 pi/alat)
               b(1) = (  1.000000  0.000000  0.000000 )
               b(2) = (  0.000000  0.936351  0.000000 )
               b(3) = (  0.000000  0.000000  0.221423 )

     PseudoPot. # 1 for O  read from file:
     /home/camp/zhonxu/pseudo/o_pbe_v1.01.uspp.F.UPF
     MD5 check sum: 2bcb18d16ea4b960afae9ec6d52f22d2
     Pseudo is Ultrasoft + core correction, Zval =  6.0
     Generated by new atomic code, or converted to UPF format
     Using radial grid of  737 points,  5 beta functions with:
                l(1) =   0
                l(2) =   0
                l(3) =   1
                l(4) =   1
                l(5) =   2
     Q(r) pseudized with  8 coefficients,  rinner =    0.900   0.900   0.900
                                                       0.900   0.900

     PseudoPot. # 2 for Cr read from file:
     /home/camp/zhonxu/pseudo/cr_pbe_v1.uspp.F.UPF
     MD5 check sum: 68b6f918d1762dccfb11451fe85b0e0e
     Pseudo is Ultrasoft + core correction, Zval = 14.0
     Generated by new atomic code, or converted to UPF format
     Using radial grid of  857 points,  6 beta functions with:
                l(1) =   0
                l(2) =   0
                l(3) =   1
                l(4) =   1
                l(5) =   2
                l(6) =   2
     Q(r) pseudized with  6 coefficients,  rinner =    1.000   1.000   1.000
                                                       1.000   1.000

     PseudoPot. # 3 for H  read from file:
     /home/camp/zhonxu/pseudo/h_pbe_v1.uspp.F.UPF
     MD5 check sum: 3408e3ff4ec8b0a4e358431e7e038a48
     Pseudo is Ultrasoft, Zval =  1.0
     Generated by new atomic code, or converted to UPF format
     Using radial grid of  615 points,  2 beta functions with:
                l(1) =   0
                l(2) =   0
     Q(r) pseudized with  8 coefficients,  rinner =    0.700

     atomic species   valence    mass     pseudopotential
        O0             6.00    15.99940     O ( 1.00)
        Cr1           14.00    51.99600     Cr( 1.00)
        H2             1.00     1.00794     H ( 1.00)

     Starting magnetic structure
     atomic species   magnetization
        O0           0.000
        Cr1          0.600
        H2           0.000

     Simplified LDA+U calculation (l_max = 2) with parameters (eV):
     atomic species    L          U    alpha       J0     beta
        Cr1            2     1.0000   0.0000   0.0000   0.0000

     No symmetry found

   Cartesian axes

     site n.     atom                  positions (alat units)
         1           O0  tau(   1) = (   0.0000000   0.0000000   1.7181625  )
         2           O0  tau(   2) = (   0.0000000   0.5339875   1.8008551  )
         3           Cr1 tau(   3) = (   0.2500000   0.5339875   2.0300096  )
         4           Cr1 tau(   4) = (   0.0000000   0.0000000   2.0413454  )
         5           O0  tau(   5) = (   0.2500000   0.8543801   2.0369195  )
         6           O0  tau(   6) = (   0.2500000   0.2135950   2.0378227  )
         7           O0  tau(   7) = (   0.0000000   0.5339875   2.2471058  )
         8           O0  tau(   8) = (   0.0000000   0.0000000   2.3700833  )
         9           Cr1 tau(   9) = (   0.2500000   0.0000000   2.6079543  )
        10           Cr1 tau(  10) = (   0.0000000   0.5339875   2.5535334  )
        11           O0  tau(  11) = (   0.2500000   0.7475825   2.5983798  )
        12           O0  tau(  12) = (   0.2500000   0.3203925   2.5982895  )
        13           O0  tau(  13) = (   0.0000000   0.0000000   2.7910882  )
        14           O0  tau(  14) = (   0.5000000   0.0000000   1.7181625  )
        15           O0  tau(  15) = (   0.5000000   0.5339875   1.8008551  )
        16           Cr1 tau(  16) = (   0.7500000   0.5339875   2.0300096  )
        17           Cr1 tau(  17) = (   0.5000000   0.0000000   2.0413454  )
        18           O0  tau(  18) = (   0.7500000   0.8543801   2.0369195  )
        19           O0  tau(  19) = (   0.7500000   0.2135950   2.0378227  )
        20           O0  tau(  20) = (   0.5000000   0.5339875   2.2471058  )
        21           O0  tau(  21) = (   0.5000000   0.0000000   2.3700833  )
        22           Cr1 tau(  22) = (   0.7500000   0.0000000   2.6079543  )
        23           Cr1 tau(  23) = (   0.5000000   0.5339875   2.5535334  )
        24           O0  tau(  24) = (   0.7500000   0.7475825   2.5983798  )
        25           O0  tau(  25) = (   0.7500000   0.3203925   2.5982895  )
        26           O0  tau(  26) = (   0.5000000   0.0000000   2.7910882  )
        27           H2  tau(  27) = (  -0.0006900   0.6851274   1.7196980  )
        28           H2  tau(  28) = (   0.4993100   0.6851274   1.7196980  )
        29           H2  tau(  29) = (   0.1573400   0.0316548   1.6594512  )
        30           H2  tau(  30) = (   0.6573500   0.0316548   1.6594512  )

     number of k points=    20  Methfessel-Paxton smearing, width (Ry)=  0.0100
                       cart. coord. in units 2pi/alat
        k(    1) = (   0.0000000   0.0000000   0.0000000), wk =   0.0625000
        k(    2) = (   0.0000000   0.2340879   0.0000000), wk =   0.1250000
        k(    3) = (   0.0000000  -0.4681757   0.0000000), wk =   0.0625000
        k(    4) = (   0.2500000   0.0000000   0.0000000), wk =   0.1250000
        k(    5) = (   0.2500000   0.2340879   0.0000000), wk =   0.1250000
        k(    6) = (   0.2500000  -0.4681757   0.0000000), wk =   0.1250000
        k(    7) = (  -0.5000000   0.0000000   0.0000000), wk =   0.0625000
        k(    8) = (  -0.5000000   0.2340879   0.0000000), wk =   0.1250000
        k(    9) = (  -0.5000000  -0.4681757   0.0000000), wk =   0.0625000
        k(   10) = (  -0.2500000   0.2340879   0.0000000), wk =   0.1250000
        k(   11) = (   0.0000000   0.0000000   0.0000000), wk =   0.0625000
        k(   12) = (   0.0000000   0.2340879   0.0000000), wk =   0.1250000
        k(   13) = (   0.0000000  -0.4681757   0.0000000), wk =   0.0625000
        k(   14) = (   0.2500000   0.0000000   0.0000000), wk =   0.1250000
        k(   15) = (   0.2500000   0.2340879   0.0000000), wk =   0.1250000
        k(   16) = (   0.2500000  -0.4681757   0.0000000), wk =   0.1250000
        k(   17) = (  -0.5000000   0.0000000   0.0000000), wk =   0.0625000
        k(   18) = (  -0.5000000   0.2340879   0.0000000), wk =   0.1250000
        k(   19) = (  -0.5000000  -0.4681757   0.0000000), wk =   0.0625000
        k(   20) = (  -0.2500000   0.2340879   0.0000000), wk =   0.1250000

     Largest allocated arrays     est. size (Mb)     dimensions
     Largest temporary arrays     est. size (Mb)     dimensions

     Check: negative/imaginary core charge=   -0.000012    0.000000

     Initial potential from superposition of free atoms
     Check: negative starting charge=(component1):   -0.001590
     Check: negative starting charge=(component2):   -0.000511

     starting charge  215.99984, renormalised to  224.00000

     negative rho (up, down):  0.165E-02 0.530E-03
     Number of +U iterations with fixed ns =  0
     Starting occupations:
 --- enter write_ns ---
 LDA+U parameters:
U( 2)     =  1.00000000
alpha( 2) =  0.00000000
atom    3   Tr[ns(na)] (up, down, total) =   5.00000  0.00000  5.00000
   spin  1
    eigenvalues:
  1.000  1.000  1.000  1.000  1.000
    eigenvectors:
  1.000  0.000  0.000  0.000  0.000
  0.000  1.000  0.000  0.000  0.000
  0.000  0.000  1.000  0.000  0.000
  0.000  0.000  0.000  1.000  0.000
  0.000  0.000  0.000  0.000  1.000
    occupations:
  1.000  0.000  0.000  0.000  0.000
  0.000  1.000  0.000  0.000  0.000
  0.000  0.000  1.000  0.000  0.000
  0.000  0.000  0.000  1.000  0.000
  0.000  0.000  0.000  0.000  1.000
   spin  2
    eigenvalues:
  0.000  0.000  0.000  0.000  0.000
    eigenvectors:
  1.000  0.000  0.000  0.000  0.000
  0.000  1.000  0.000  0.000  0.000
  0.000  0.000  1.000  0.000  0.000
  0.000  0.000  0.000  1.000  0.000
  0.000  0.000  0.000  0.000  1.000
    occupations:
  0.000  0.000  0.000  0.000  0.000
  0.000  0.000  0.000  0.000  0.000
  0.000  0.000  0.000  0.000  0.000
  0.000  0.000  0.000  0.000  0.000
  0.000  0.000  0.000  0.000  0.000
atomic mag. moment =     5.000000
atom    4   Tr[ns(na)] (up, down, total) =   5.00000  0.00000  5.00000
   spin  1
    eigenvalues:
  1.000  1.000  1.000  1.000  1.000
    eigenvectors:
  1.000  0.000  0.000  0.000  0.000
  0.000  1.000  0.000  0.000  0.000
  0.000  0.000  1.000  0.000  0.000
  0.000  0.000  0.000  1.000  0.000
  0.000  0.000  0.000  0.000  1.000
    occupations:
  1.000  0.000  0.000  0.000  0.000
  0.000  1.000  0.000  0.000  0.000
  0.000  0.000  1.000  0.000  0.000
  0.000  0.000  0.000  1.000  0.000
  0.000  0.000  0.000  0.000  1.000
   spin  2
    eigenvalues:
  0.000  0.000  0.000  0.000  0.000
    eigenvectors:
  1.000  0.000  0.000  0.000  0.000
  0.000  1.000  0.000  0.000  0.000
  0.000  0.000  1.000  0.000  0.000
  0.000  0.000  0.000  1.000  0.000
  0.000  0.000  0.000  0.000  1.000
    occupations:
  0.000  0.000  0.000  0.000  0.000
  0.000  0.000  0.000  0.000  0.000
  0.000  0.000  0.000  0.000  0.000
  0.000  0.000  0.000  0.000  0.000
  0.000  0.000  0.000  0.000  0.000
atomic mag. moment =     5.000000
atom    9   Tr[ns(na)] (up, down, total) =   5.00000  0.00000  5.00000
   spin  1
    eigenvalues:
  1.000  1.000  1.000  1.000  1.000
    eigenvectors:
  1.000  0.000  0.000  0.000  0.000
  0.000  1.000  0.000  0.000  0.000
  0.000  0.000  1.000  0.000  0.000
[...]
    eigenvectors:
  0.000  0.227  0.003  0.000  0.770
  0.999  0.000  0.000  0.001  0.000
  0.000  0.000  0.996  0.000  0.004
  0.000  0.773  0.001  0.000  0.226
  0.001  0.000  0.000  0.999  0.000
    occupations:
  0.861 -0.000  0.016 -0.196 -0.000
 -0.000  0.456 -0.000 -0.000 -0.011
  0.016 -0.000  0.696 -0.008  0.002
 -0.196 -0.000 -0.008  0.606 -0.000
 -0.000 -0.011  0.002 -0.000  0.909
   spin  2
    eigenvalues:
  0.111  0.138  0.176  0.349  0.379
    eigenvectors:
  0.761  0.000  0.015  0.000  0.224
  0.000  0.003  0.000  0.997  0.000
  0.016  0.000  0.983  0.000  0.001
  0.223  0.000  0.002  0.000  0.775
  0.000  0.997  0.000  0.003  0.000
    occupations:
  0.172 -0.000 -0.005  0.111 -0.000
 -0.000  0.348 -0.000 -0.000  0.011
 -0.005 -0.000  0.175  0.008  0.000
  0.111 -0.000  0.008  0.319 -0.000
 -0.000  0.011  0.000 -0.000  0.139
atomic mag. moment =     2.376099
atom    4   Tr[ns(na)] (up, down, total) =   3.39045  1.30460  4.69505
   spin  1
    eigenvalues:
  0.481  0.527  0.598  0.804  0.980
    eigenvectors:
  0.001  0.995  0.001  0.001  0.003
  0.000  0.001  0.013  0.986  0.000
  0.000  0.001  0.986  0.013  0.000
  0.000  0.003  0.000  0.000  0.997
  0.999  0.001  0.000  0.000  0.000
    occupations:
  0.528 -0.008 -0.003  0.024  0.001
 -0.008  0.802  0.023  0.001  0.000
 -0.003  0.023  0.601  0.002  0.000
  0.024  0.001  0.002  0.978  0.000
  0.001  0.000  0.000  0.000  0.481
   spin  2
    eigenvalues:
  0.123  0.166  0.217  0.383  0.415
    eigenvectors:
  0.002  0.004  0.000  0.000  0.994
  0.001  0.965  0.031  0.000  0.004
  0.000  0.031  0.969  0.000  0.000
  0.997  0.001  0.000  0.000  0.002
  0.000  0.000  0.000  1.000  0.000
    occupations:
  0.414  0.015  0.003 -0.014  0.001
  0.015  0.169 -0.009  0.001 -0.000
  0.003 -0.009  0.216  0.000 -0.000
 -0.014  0.001  0.000  0.124 -0.000
  0.001 -0.000 -0.000 -0.000  0.383
atomic mag. moment =     2.085844
atom    9   Tr[ns(na)] (up, down, total) =   3.31909  1.43973  4.75882
   spin  1
    eigenvalues:
  0.522  0.532  0.683  0.778  0.804
    eigenvectors:
  0.001  0.175  0.001  0.814  0.008
  0.994  0.006  0.000  0.000  0.000
  0.000  0.000  0.998  0.001  0.000
  0.004  0.819  0.000  0.174  0.002
  0.000  0.000  0.000  0.010  0.990
    occupations:
  0.734  0.001 -0.003 -0.094  0.002
  0.001  0.522  0.002  0.000  0.000
 -0.003  0.002  0.683  0.001 -0.000
 -0.094  0.000  0.001  0.576 -0.001
  0.002  0.000 -0.000 -0.001  0.804
   spin  2
    eigenvalues:
  0.199  0.202  0.205  0.413  0.420
    eigenvectors:
  0.844  0.007  0.001  0.148  0.000
  0.000  0.000  0.000  0.001  0.999
  0.008  0.992  0.000  0.000  0.000
  0.147  0.001  0.000  0.850  0.001
  0.001  0.000  0.999  0.000  0.000
    occupations:
  0.231 -0.000  0.000  0.076 -0.000
 -0.000  0.420 -0.000 -0.000  0.000
  0.000 -0.000  0.202 -0.000  0.000
  0.076 -0.000 -0.000  0.382  0.000
 -0.000  0.000  0.000  0.000  0.205
atomic mag. moment =     1.879360
atom   10   Tr[ns(na)] (up, down, total) =   3.54847  1.11810  4.66657
   spin  1
    eigenvalues:
  0.472  0.475  0.761  0.873  0.967
    eigenvectors:
  0.001  0.997  0.000  0.000  0.002
  0.000  0.000  0.000  1.000  0.000
  0.000  0.000  1.000  0.000  0.000
  0.000  0.002  0.000  0.000  0.998
  0.999  0.001  0.000  0.000  0.000
    occupations:
  0.476  0.000  0.002  0.023 -0.000
  0.000  0.873 -0.001 -0.000 -0.001
  0.002 -0.001  0.761 -0.002 -0.000
  0.023 -0.000 -0.002  0.966 -0.000
 -0.000 -0.001 -0.000 -0.000  0.472
   spin  2
    eigenvalues:
  0.111  0.163  0.177  0.305  0.363
    eigenvectors:
  0.006  0.000  0.000  0.994  0.000
  0.000  1.000  0.000  0.000  0.000
  0.000  0.000  1.000  0.000  0.000
  0.994  0.000  0.000  0.006  0.000
  0.000  0.000  0.000  0.000  1.000
    occupations:
  0.304 -0.000 -0.000 -0.015 -0.000
 -0.000  0.163 -0.000 -0.000 -0.000
 -0.000 -0.000  0.177  0.000  0.000
 -0.015 -0.000  0.000  0.112  0.000
 -0.000 -0.000  0.000  0.000  0.363
atomic mag. moment =     2.430375
atom   16   Tr[ns(na)] (up, down, total) =   3.52901  1.15293  4.68193
   spin  1
    eigenvalues:
  0.456  0.500  0.695  0.909  0.969
    eigenvectors:
  0.000  0.227  0.003  0.000  0.770
  0.999  0.000  0.000  0.001  0.000
  0.000  0.000  0.996  0.000  0.004
  0.000  0.773  0.001  0.000  0.226
  0.001  0.000  0.000  0.999  0.000
    occupations:
  0.861 -0.000  0.016 -0.196 -0.000
 -0.000  0.456 -0.000 -0.000 -0.011
  0.016 -0.000  0.696 -0.008  0.002
 -0.196 -0.000 -0.008  0.606 -0.000
 -0.000 -0.011  0.002 -0.000  0.909
   spin  2
    eigenvalues:
  0.111  0.138  0.176  0.349  0.379
    eigenvectors:
  0.761  0.000  0.015  0.000  0.224
  0.000  0.003  0.000  0.997  0.000
  0.016  0.000  0.983  0.000  0.001
  0.223  0.000  0.002  0.000  0.775
  0.000  0.997  0.000  0.003  0.000
    occupations:
  0.172 -0.000 -0.005  0.111 -0.000
 -0.000  0.348 -0.000 -0.000  0.011
 -0.005 -0.000  0.175  0.008  0.000
  0.111 -0.000  0.008  0.319 -0.000
 -0.000  0.011  0.000 -0.000  0.139
atomic mag. moment =     2.376079
atom   17   Tr[ns(na)] (up, down, total) =   3.39044  1.30460  4.69504
   spin  1
    eigenvalues:
  0.481  0.527  0.598  0.804  0.980
    eigenvectors:
  0.001  0.995  0.001  0.001  0.003
  0.000  0.001  0.013  0.986  0.000
  0.000  0.001  0.986  0.013  0.000
  0.000  0.003  0.000  0.000  0.997
  0.999  0.001  0.000  0.000  0.000
    occupations:
  0.528 -0.008 -0.003  0.024  0.001
 -0.008  0.802  0.023  0.001  0.000
 -0.003  0.023  0.601  0.002  0.000
  0.024  0.001  0.002  0.978  0.000
  0.001  0.000  0.000  0.000  0.481
   spin  2
    eigenvalues:
  0.123  0.166  0.217  0.383  0.415
    eigenvectors:
  0.002  0.004  0.000  0.000  0.994
  0.001  0.965  0.031  0.000  0.004
  0.000  0.031  0.969  0.000  0.000
  0.997  0.001  0.000  0.000  0.002
  0.000  0.000  0.000  1.000  0.000
    occupations:
  0.414  0.015  0.003 -0.014  0.001
  0.015  0.169 -0.009  0.001 -0.000
  0.003 -0.009  0.216  0.000 -0.000
 -0.014  0.001  0.000  0.124 -0.000
  0.001 -0.000 -0.000 -0.000  0.383
atomic mag. moment =     2.085845
atom   22   Tr[ns(na)] (up, down, total) =   3.31913  1.43973  4.75886
   spin  1
    eigenvalues:
  0.522  0.532  0.683  0.778  0.804
    eigenvectors:
  0.001  0.175  0.001  0.814  0.008
  0.994  0.006  0.000  0.000  0.000
  0.000  0.000  0.998  0.001  0.000
  0.004  0.819  0.000  0.174  0.002
  0.000  0.000  0.000  0.010  0.990
    occupations:
  0.734  0.001 -0.003 -0.094  0.002
  0.001  0.522  0.002  0.000  0.000
 -0.003  0.002  0.683  0.001 -0.000
 -0.094  0.000  0.001  0.576 -0.001
  0.002  0.000 -0.000 -0.001  0.804
   spin  2
    eigenvalues:
  0.199  0.202  0.205  0.413  0.420
    eigenvectors:
  0.844  0.007  0.001  0.148  0.000
  0.000  0.000  0.000  0.001  0.999
  0.008  0.992  0.000  0.000  0.000
  0.147  0.001  0.000  0.850  0.001
  0.001  0.000  0.999  0.000  0.000
    occupations:
  0.231 -0.000  0.000  0.076 -0.000
 -0.000  0.420 -0.000 -0.000  0.000
  0.000 -0.000  0.202 -0.000  0.000
  0.076 -0.000 -0.000  0.382  0.000
 -0.000  0.000  0.000  0.000  0.205
atomic mag. moment =     1.879407
atom   23   Tr[ns(na)] (up, down, total) =   3.54849  1.11810  4.66658
   spin  1
    eigenvalues:
  0.472  0.475  0.761  0.873  0.967
    eigenvectors:
  0.001  0.997  0.000  0.000  0.002
  0.000  0.000  0.000  1.000  0.000
  0.000  0.000  1.000  0.000  0.000
  0.000  0.002  0.000  0.000  0.998
  0.999  0.001  0.000  0.000  0.000
    occupations:
  0.476  0.000  0.002  0.023 -0.000
  0.000  0.873 -0.001 -0.000 -0.001
  0.002 -0.001  0.761 -0.002 -0.000
  0.023 -0.000 -0.002  0.966 -0.000
 -0.000 -0.001 -0.000 -0.000  0.472
   spin  2
    eigenvalues:
  0.111  0.163  0.177  0.305  0.363
    eigenvectors:
  0.006  0.000  0.000  0.994  0.000
  0.000  1.000  0.000  0.000  0.000
  0.000  0.000  1.000  0.000  0.000
  0.994  0.000  0.000  0.006  0.000
  0.000  0.000  0.000  0.000  1.000
    occupations:
  0.304 -0.000 -0.000 -0.015 -0.000
 -0.000  0.163 -0.000 -0.000 -0.000
 -0.000 -0.000  0.177  0.000  0.000
 -0.015 -0.000  0.000  0.112  0.000
 -0.000 -0.000  0.000  0.000  0.363
atomic mag. moment =     2.430391
N of occupied +U levels =  37.6048321
 --- exit write_ns ---

 ------ SPIN UP ------------

[...]

 ------ SPIN DOWN ----------

[...]

          k = 0.2500-0.4682 0.0000 ( 27150 PWs)   bands (ev):

[...]

          k =-0.2500 0.2341 0.0000 ( 27132 PWs)   bands (ev):

   -73.1583 -73.1465 -72.7873 -72.7762 -72.5067 -72.4954 -72.4731 -72.4622
   -44.5618 -44.5550 -44.5496 -44.5118 -44.4846 -44.4056 -44.3982 -44.3903
   -44.1577 -44.1458 -44.1340 -44.1106 -44.0302 -44.0250 -43.9446 -43.9069
   -43.8836 -43.8127 -43.7973 -43.7950 -43.7715 -43.6672 -43.6564 -43.5335
   -21.3007 -20.8192 -20.7847 -20.4982 -20.3951 -20.3685 -20.0620 -19.9558
   -19.9541 -19.7978 -19.7479 -19.6964 -19.5505 -19.5425 -19.4974 -19.4496
   -19.2768 -19.1572  -8.8632  -8.5856  -8.1702  -8.0944  -8.0111  -7.6916
    -7.5387  -7.5131  -7.5052  -7.4132  -7.3430  -7.2510  -7.0905  -7.0145
    -6.9214  -6.8150  -6.7546  -6.6131  -6.5944  -6.5074  -6.4415  -6.2801
    -6.2302  -5.9698  -5.8787  -5.8520  -5.5712  -5.4504  -5.3888  -5.3489
    -5.3089  -5.2100  -5.1444  -5.0929  -4.9907  -4.9705  -4.8583  -4.6371
    -4.5596  -4.5468  -4.4096  -4.2923  -4.1881  -4.1581  -4.0263  -3.9608
    -3.9045  -3.7466  -3.6660  -3.5586  -3.4016  -3.1579  -3.1566  -2.8512
    -0.3053  -0.1778  -0.0535   0.0301   0.0558   0.1375   0.1980   0.2582
     0.3010   0.3808   0.4077   0.5507   0.5795   0.5974   0.6816   0.7945
     0.8008   0.8552   0.9413   0.9718   1.0761   1.2148   1.2581   1.2935
     1.4660   1.5272   1.8074   2.0399   2.0813   2.3230   2.5052   2.5433
     2.6913   2.8395   2.9216   3.0872   3.0921   3.4380   3.5356   3.5959
     3.8373   3.9394   4.2698   4.7350   5.2597   5.6772   5.7957   5.8856
     5.9567   6.1266   6.3226   6.4384   6.6693   6.8098   6.8411   7.1968
     7.3686   7.5490   7.7252   7.9602   7.9873   8.2170   8.2779   8.4125
     8.6012   8.7104   8.9328   8.9866   9.2236   9.2530   9.2702   9.4207
     9.5258   9.6867   9.7877   9.8478  10.0330  10.0751  10.2594  10.2600
    10.4151  10.4727  10.6162  10.7167  10.7671  10.9545  11.0394  11.0932
    11.1607  11.3421  11.4968  11.5444  11.5877  11.6194  11.7934  11.8301
    11.8837  12.0206  12.0779  12.1565  12.2772  12.3094  12.4074  12.5776
    12.6664  12.6976  12.8105  12.9076  12.9258  12.9917  13.0591  13.0996
    13.1007  13.1936  13.2506  13.3188  13.5494  13.6445  13.7082  13.7917
    13.8497  13.9025  13.9746  14.0134  14.1089  14.2599  14.3466  14.4404
    14.5281  14.5491  14.6103  14.6886  14.7783  14.8543  14.8981  15.0508
    15.1735  15.2739  15.3689  15.4412  15.4863  15.4897  15.5932  15.6189
    15.7728  15.8106  15.9010  15.9238  16.0212  16.0831  16.1604  16.1667
    16.2499  16.2862  16.3956  16.5587  16.6128  16.6532  16.8072  16.8321
    16.8793  16.9478  17.0015  17.1067  17.1952  17.2183  17.3849  17.3913
    17.4394  17.4454  17.5408  17.6274  17.6326  17.7231  17.7553  17.8504
    17.9157  18.0071  18.0464  18.1495  18.2206  18.2849  18.3555  18.3647
    18.4329  18.6236  18.6265  18.7534  18.7896  18.8640  18.9296  19.0569
    19.1019  19.1651  19.2765  19.3401  19.3814  19.4151  19.4897  19.5685
    19.6234  19.6528  19.7406  19.7848  19.8302  19.9460  20.1059  20.1180
    20.2515  20.3386  20.3997  20.4692  20.5123  20.6578  20.7040  20.8217
    20.8494  20.9094  21.0986  21.1066

     the spin up/dw Fermi energies are    -1.5895   -2.7083 ev

!    total energy              =   -1993.17994610 Ry
     Harris-Foulkes estimate   =   -1993.17994611 Ry
     estimated scf accuracy    <          5.2E-09 Ry

     The total energy is the sum of the following terms:

     one-electron contribution =  -23530.76154661 Ry
     hartree contribution      =   11782.14991012 Ry
     xc contribution           =    -315.02030335 Ry
     ewald contribution        =   10069.92757076 Ry
     Hubbard energy            =       0.52346026 Ry
     smearing contrib. (-TS)   =       0.00096272 Ry

     total magnetization       =    16.00 Bohr mag/cell
     absolute magnetization    =    19.99 Bohr mag/cell

     convergence has been achieved in  18 iterations

     Forces acting on atoms (Ry/au):

     negative rho (up, down):  0.508E-02 0.184E-02
     atom    1 type  1   force =    -0.00398118   -0.01412679    0.00034629
     atom    2 type  1   force =    -0.00002312    0.01261467    0.00040327
     atom    3 type  2   force =    -0.00015342   -0.00425949   -0.00054910
     atom    4 type  2   force =     0.00180793    0.00775364    0.00023604
     atom    5 type  1   force =     0.00278879    0.00683334   -0.00025765
     atom    6 type  1   force =    -0.00029613   -0.00660526   -0.00025398
     atom    7 type  1   force =    -0.00010733   -0.00100015   -0.00077918
     atom    8 type  1   force =     0.00022562   -0.00055189    0.00074987
     atom    9 type  2   force =     0.00058917   -0.00025958    0.00041761
     atom   10 type  2   force =     0.00003865   -0.00050790   -0.00081590
     atom   11 type  1   force =    -0.00018850   -0.05535595    0.00072582
     atom   12 type  1   force =     0.00029179    0.05577971    0.00074358
     atom   13 type  1   force =    -0.00071562    0.00022129   -0.00019571
     atom   14 type  1   force =    -0.00397677   -0.01412620    0.00034375
     atom   15 type  1   force =    -0.00001692    0.01261443    0.00040152
     atom   16 type  2   force =    -0.00015624   -0.00425995   -0.00054814
     atom   17 type  2   force =     0.00181130    0.00775368    0.00023761
     atom   18 type  1   force =     0.00278761    0.00682922   -0.00025801
     atom   19 type  1   force =    -0.00029754   -0.00660086   -0.00025475
     atom   20 type  1   force =    -0.00010008   -0.00100007   -0.00078600
     atom   21 type  1   force =     0.00021818   -0.00055187    0.00074510
     atom   22 type  2   force =     0.00059128   -0.00025961    0.00041535
     atom   23 type  2   force =     0.00003684   -0.00050796   -0.00082807
     atom   24 type  1   force =    -0.00018175   -0.05536187    0.00072504
     atom   25 type  1   force =     0.00029844    0.05578564    0.00074278
     atom   26 type  1   force =    -0.00072943    0.00022135   -0.00019455
     atom   27 type  3   force =     0.00004417   -0.00067418   -0.00049004
     atom   28 type  3   force =     0.00004400   -0.00067421   -0.00048985
     atom   29 type  3   force =    -0.00032351    0.00013855   -0.00026670
     atom   30 type  3   force =    -0.00032624    0.00013830   -0.00026600

     Total force =     0.003098     Total SCF correction =     0.000180

     bfgs converged in   6 scf cycles and   5 bfgs steps
     (criteria: energy < 0.10E-03, force < 0.10E-02)

     End of BFGS Geometry Optimization

     Final energy   =   -1993.1799461025 Ry
Begin final coordinates

ATOMIC_POSITIONS (crystal)
O0       0.000000000   0.000000000   0.380209396    0   0   1
O0       0.000000000   0.500000000   0.398435296    0   0   1
Cr1      0.250000000   0.500000000   0.449383907    0   0   1
Cr1      0.000000000   0.000000000   0.451905137    0   0   1
O0       0.250000000   0.800000000   0.450955241    0   0   1
O0       0.250000000   0.200000000   0.451110904    0   0   1
O0       0.000000000   0.500000000   0.497584145    0   0   1
O0       0.000000000   0.000000000   0.524871735    0   0   1
Cr1      0.250000000   0.000000000   0.577679881    0   0   1
Cr1      0.000000000   0.500000000   0.565744106    0   0   1
O0       0.250000000   0.700000000   0.575330342    0   0   1
O0       0.250000000   0.300000000   0.575318791    0   0   1
O0       0.000000000   0.000000000   0.618602861    0   0   1
O0       0.500000000   0.000000000   0.380209598    0   0   1
O0       0.500000000   0.500000000   0.398435510    0   0   1
Cr1      0.750000000   0.500000000   0.449383833    0   0   1
Cr1      0.500000000   0.000000000   0.451905144    0   0   1
O0       0.750000000   0.800000000   0.450955128    0   0   1
O0       0.750000000   0.200000000   0.451110880    0   0   1
O0       0.500000000   0.500000000   0.497584803    0   0   1
O0       0.500000000   0.000000000   0.524872045    0   0   1
Cr1      0.750000000   0.000000000   0.577679610    0   0   1
Cr1      0.500000000   0.500000000   0.565745080    0   0   1
O0       0.750000000   0.700000000   0.575330392    0   0   1
O0       0.750000000   0.300000000   0.575318839    0   0   1
O0       0.500000000   0.000000000   0.618602900    0   0   1
H2      -0.000610949   0.641446651   0.380511763
H2       0.499389085   0.641446231   0.380511803
H2       0.157608950   0.029920765   0.367385323
H2       0.657609758   0.029919312   0.367385605
End final coordinates

     General routines

     Parallel routines
     Hubbard U routines

   This run was terminated on:  10:19:44  10May2014

   JOB DONE.