     Program PWSCF v.5.0.2 (svn rev. 9656) starts on 28Mar2014 at  7:16:29

     Current dimensions of program PWSCF are:
     Max number of different atomic species (ntypx) = 10
     Max number of k-points (npk) =  40000
     Max angular momentum in pseudopotentials (lmaxx) =  3
     Reading input from pwscf.in
Warning: card &CELL ignored
Warning: card / ignored

     Subspace diagonalization in iterative solution of the eigenvalue problem:
     a serial algorithm will be used

     bravais-lattice index     =            0
     lattice parameter (alat)  =      11.1872  a.u.
     unit-cell volume          =   10442.1272 (a.u.)^3
     number of atoms/cell      =           50
     number of atomic types    =            3
     number of electrons       =       407.00
     number of Kohn-Sham states=          610
     kinetic-energy cutoff     =      40.0000  Ry
     charge density cutoff     =     500.0000  Ry
     convergence threshold     =      1.0E-06
     mixing beta               =       0.3000
     number of iterations used =            8  plain     mixing
     Exchange-correlation      = SLA  PW   PBE  PBE ( 1 4 3 4 0)
     EXX-fraction              =        0.00
     nstep                     =           50

     celldm(1)=  11.187179  celldm(2)=   0.000000  celldm(3)=   0.000000
     celldm(4)=   0.000000  celldm(5)=   0.000000  celldm(6)=   0.000000

     crystal axes: (cart. coord. in units of alat)
               a(1) = (   1.000000   0.000000   0.000000 )
               a(2) = (   0.000000   1.180104   0.000000 )
               a(3) = (   0.000000   0.000000   6.319854 )

     reciprocal axes: (cart. coord. in units 2 pi/alat)
               b(1) = (  1.000000  0.000000  0.000000 )
               b(2) = (  0.000000  0.847383  0.000000 )
               b(3) = (  0.000000  0.000000  0.158232 )

     PseudoPot. # 1 for O  read from file:
     /home/camp/zhonxu/pseudo/o_pbe_v1.01.uspp.F.UPF
     MD5 check sum: 2bcb18d16ea4b960afae9ec6d52f22d2
     Pseudo is Ultrasoft + core correction, Zval =  6.0
     Generated by new atomic code, or converted to UPF format
     Using radial grid of  737 points,  5 beta functions with:
                l(1) =   0
                l(2) =   0
                l(3) =   1
                l(4) =   1
                l(5) =   2
     Q(r) pseudized with  8 coefficients,  rinner =    0.900   0.900   0.900
                                                       0.900   0.900

     PseudoPot. # 2 for Nb read from file:
     /home/camp/zhonxu/pseudo/nb_pbe_v1.uspp.F.UPF
     MD5 check sum: 573aab8a2fa660278ed4a62cd769473f
     Pseudo is Ultrasoft + core correction, Zval = 13.0
     Generated by new atomic code, or converted to UPF format
     Using radial grid of  887 points,  6 beta functions with:
                l(1) =   0
                l(2) =   0
                l(3) =   1
                l(4) =   1
                l(5) =   2
                l(6) =   2
     Q(r) pseudized with  6 coefficients,  rinner =    1.000   1.000   1.000
                                                       1.000   1.000

     PseudoPot. # 3 for H  read from file:
     /home/camp/zhonxu/pseudo/h_pbe_v1.uspp.F.UPF
     MD5 check sum: 3408e3ff4ec8b0a4e358431e7e038a48
     Pseudo is Ultrasoft, Zval =  1.0
     Generated by new atomic code, or converted to UPF format
     Using radial grid of  615 points,  2 beta functions with:
                l(1) =   0
                l(2) =   0
     Q(r) pseudized with  8 coefficients,  rinner =    0.700

     atomic species   valence    mass     pseudopotential
        O0             6.00    15.99940     O ( 1.00)
        Nb1           13.00    92.90640     Nb( 1.00)
        H2             1.00     1.00794     H ( 1.00)

      2 Sym. Ops. (no inversion) found

   Cartesian axes

     site n.     atom                  positions (alat units)
         1           O0  tau(   1) = (   0.0000000   0.5900519   2.0270298  )
         2           Nb1 tau(   2) = (   0.2500000   0.5900519   2.2748313  )
         3           Nb1 tau(   3) = (   0.0000000   0.0000000   2.2748313  )
         4           O0  tau(   4) = (   0.2500000   0.9322821   2.2748313  )
         5           O0  tau(   5) = (   0.2500000   0.2478218   2.2748313  )
         6           O0  tau(   6) = (   0.0000000   0.5900519   2.5226959  )
         7           O0  tau(   7) = (   0.0000000   0.0000000   2.6170513  )
         8           Nb1 tau(   8) = (   0.2500000   0.0000000   2.8649160  )
         9           Nb1 tau(   9) = (   0.0000000   0.5900519   2.8649160  )
        10           O0  tau(  10) = (   0.2500000   0.8378738   2.8649160  )
        11           O0  tau(  11) = (   0.2500000   0.3422301   2.8649160  )
        12           O0  tau(  12) = (   0.0000000   0.0000000   3.1127175  )
        13           O0  tau(  13) = (   0.0000000   0.5900519   3.2016378  )
        14           Nb1 tau(  14) = (   0.2500000   0.5900519   3.4436882  )
        15           Nb1 tau(  15) = (   0.0000000   0.0000000   3.4612574  )
        16           O0  tau(  16) = (   0.2500000   0.9310784   3.4611310  )
        17           O0  tau(  17) = (   0.2500000   0.2490255   3.4611310  )
        18           O0  tau(  18) = (   0.0000000   0.5900519   3.6989471  )
        19           O0  tau(  19) = (   0.0000000   0.0000000   3.8174443  )
        20           Nb1 tau(  20) = (   0.2500000   0.0000000   4.0701753  )
        21           Nb1 tau(  21) = (   0.0000000   0.5900519   4.0169621  )
        22           O0  tau(  22) = (   0.2500000   0.8262851   4.0818038  )
        23           O0  tau(  23) = (   0.2500000   0.3538187   4.0818038  )
        24           O0  tau(  24) = (   0.0000000   0.0000000   4.2711466  )
        25           O0  tau(  25) = (   0.5000000   0.5900519   2.0270298  )
        26           Nb1 tau(  26) = (   0.7500000   0.5900519   2.2748313  )
        27           Nb1 tau(  27) = (   0.5000000   0.0000000   2.2748313  )
        28           O0  tau(  28) = (   0.7500000   0.9322821   2.2748313  )
        29           O0  tau(  29) = (   0.7500000   0.2478218   2.2748313  )
        30           O0  tau(  30) = (   0.5000000   0.5900519   2.5226959  )
        31           O0  tau(  31) = (   0.5000000   0.0000000   2.6170513  )
        32           Nb1 tau(  32) = (   0.7500000   0.0000000   2.8649160  )
        33           Nb1 tau(  33) = (   0.5000000   0.5900519   2.8649160  )
        34           O0  tau(  34) = (   0.7500000   0.8378738   2.8649160  )
        35           O0  tau(  35) = (   0.7500000   0.3422301   2.8649160  )
        36           O0  tau(  36) = (   0.5000000   0.0000000   3.1127175  )
        37           O0  tau(  37) = (   0.5000000   0.5900519   3.2016378  )
        38           Nb1 tau(  38) = (   0.7500000   0.5900519   3.4436882  )
        39           Nb1 tau(  39) = (   0.5000000   0.0000000   3.4612574  )
        40           O0  tau(  40) = (   0.7500000   0.9310784   3.4611310  )
        41           O0  tau(  41) = (   0.7500000   0.2490255   3.4611310  )
        42           O0  tau(  42) = (   0.5000000   0.5900519   3.6989471  )
        43           O0  tau(  43) = (   0.5000000   0.0000000   3.8174443  )
        44           Nb1 tau(  44) = (   0.7500000   0.0000000   4.0701753  )
        45           Nb1 tau(  45) = (   0.5000000   0.5900519   4.0169621  )
        46           O0  tau(  46) = (   0.7500000   0.8262851   4.0818038  )
        47           O0  tau(  47) = (   0.7500000   0.3538187   4.0818038  )
        48           O0  tau(  48) = (   0.5000000   0.0000000   4.2711466  )
        49           O0  tau(  49) = (   0.5000000   0.5900519   4.2779088  )
        50           H2  tau(  50) = (   0.3564200   0.5900519   4.3370627  )

     number of k points=     9  Methfessel-Paxton smearing, width (Ry)=  0.0100
                       cart. coord. in units 2pi/alat
        k(    1) = (   0.0000000   0.0000000   0.0000000), wk =   0.1250000
        k(    2) = (   0.0000000   0.2118458   0.0000000), wk =   0.2500000
        k(    3) = (   0.0000000  -0.4236915   0.0000000), wk =   0.1250000
        k(    4) = (   0.2500000   0.0000000   0.0000000), wk =   0.2500000
        k(    5) = (   0.2500000   0.2118458   0.0000000), wk =   0.5000000
        k(    6) = (   0.2500000  -0.4236915   0.0000000), wk =   0.2500000
        k(    7) = (  -0.5000000   0.0000000   0.0000000), wk =   0.1250000
        k(    8) = (  -0.5000000   0.2118458   0.0000000), wk =   0.2500000
        k(    9) = (  -0.5000000  -0.4236915   0.0000000), wk =   0.1250000

     Largest allocated arrays     est. size (Mb)     dimensions
     Largest temporary arrays     est. size (Mb)     dimensions

     Check: negative/imaginary core charge=   -0.000004    0.000000

     Initial potential from superposition of free atoms
     Check: negative starting charge=   -0.005497

     starting charge  406.95621, renormalised to  407.00000

     negative rho (up, down):  0.550E-02 0.000E+00
     Starting wfc are  341 randomized atomic wfcs

     Self-consistent Calculation

     iteration #  1     ecut=    40.00 Ry     beta=0.30
     Davidson diagonalization with overlap
     ethr =  1.00E-02,  avg # of iterations =  6.6

     negative rho (up, down):  0.495E-02 0.000E+00

     total energy              =   -2950.39834831 Ry
     Harris-Foulkes estimate   =   -2961.90469372 Ry
     estimated scf accuracy    <      25.85566560 Ry

[...]

     End of self-consistent calculation

          k = 0.0000 0.0000 0.0000 ( 44615 PWs)   bands (ev):

   -55.3196 -55.2298 -54.7415 -54.7120 -54.6634 -54.6606 -54.6548 -54.6514
   -54.6461 -54.6152 -54.5770 -54.5733 -54.5710 -54.5664 -54.5366 -54.4204
   -32.5825 -32.2601 -31.5205 -31.3512 -31.3310 -31.3112 -31.2712 -31.2497
   -31.2469 -31.2288 -31.2164 -31.2068 -31.1781 -31.1774 -31.1484 -31.0289
   -31.0016 -30.9920 -30.9747 -30.9483 -30.8981 -30.8969 -30.8735 -30.8517
   -30.8386 -30.8374 -30.7969 -30.7495 -30.7455 -30.7080 -30.6982 -30.6481
   -30.6298 -30.6149 -30.5432 -30.5361 -30.5271 -30.5143 -30.4983 -30.4784
   -30.4533 -30.4226 -30.3972 -30.3780 -30.3620 -30.3152 -30.2591 -30.2090
   -19.6764 -18.3150 -18.1374 -18.1104 -18.0092 -17.9578 -17.8543 -17.8246
   -17.7853 -17.6771 -17.6300 -17.5476 -17.4265 -17.4051 -17.3848 -17.3534
   -17.3335 -17.1556 -17.1057 -17.1008 -17.0143 -17.0107 -16.9848 -16.8799
   -16.8610 -16.7531 -16.7496 -16.7433 -16.7249 -16.6546 -16.5871 -15.5230
   -15.3987  -8.4926  -6.3410  -6.2195  -6.2065  -6.1940  -6.0917  -5.9360
    -5.8921  -5.8047  -5.5719  -5.5367  -5.4104  -5.3680  -5.2969  -5.1984
    -5.1434  -5.0676  -5.0471  -5.0331  -5.0185  -4.9042  -4.8180  -4.7869
    -4.7500  -4.6818  -4.5968  -4.5514  -4.4735  -4.4362  -4.4172  -4.3745
    -4.2507  -4.2394  -4.1428  -4.1129  -4.0181  -3.9923  -3.9812  -3.9526
    -3.9431  -3.9369  -3.9178  -3.9173  -3.8909  -3.8628  -3.8370  -3.7999
    -3.7668  -3.7607  -3.5566  -3.4034  -3.2254  -3.2167  -3.1562  -3.1218
    -3.0944  -3.0459  -2.9755  -2.9022  -2.8644  -2.8534  -2.7540  -2.6779
    -2.6025  -2.5676  -2.5152  -2.5125  -2.4186  -2.3928  -2.3223  -2.3030
    -2.2526  -2.2182  -2.2092  -2.1717  -2.1359  -2.1022  -2.0696  -2.0572
[...]
O0       0.250000000   0.299820000   0.645870000    0   0   0
O0       0.000000000   0.000000000   0.675830000    0   0   0
O0       0.500000000   0.500000000   0.320740000    0   0   0
Nb1      0.750000000   0.500000000   0.359950000    0   0   0
Nb1      0.500000000   0.000000000   0.359950000    0   0   0
O0       0.750000000   0.790000000   0.359950000    0   0   0
O0       0.750000000   0.210000000   0.359950000    0   0   0
O0       0.500000000   0.500000000   0.399170000    0   0   0
O0       0.500000000   0.000000000   0.414100000    0   0   0
Nb1      0.750000000   0.000000000   0.453320000    0   0   0
Nb1      0.500000000   0.500000000   0.453320000    0   0   0
O0       0.750000000   0.710000000   0.453320000    0   0   0
O0       0.750000000   0.290000000   0.453320000    0   0   0
O0       0.500000000   0.000000000   0.492530000    0   0   0
O0       0.500000000   0.500000000   0.506600000    0   0   0
Nb1      0.750000000   0.500000000   0.544900000    0   0   0
Nb1      0.500000000   0.000000000   0.547680000    0   0   0
O0       0.750000000   0.788980000   0.547660000    0   0   0
O0       0.750000000   0.211020000   0.547660000    0   0   0
O0       0.500000000   0.500000000   0.585290000    0   0   0
O0       0.500000000   0.000000000   0.604040000    0   0   0
Nb1      0.750000000   0.000000000   0.644030000    0   0   0
Nb1      0.500000000   0.500000000   0.635610000    0   0   0
O0       0.750000000   0.700180000   0.645870000    0   0   0
O0       0.750000000   0.299820000   0.645870000    0   0   0
O0       0.500000000   0.000000000   0.675830000    0   0   0
O0       0.508844402   0.500000000   0.689377687
H2       0.385792641   0.500000000   0.706686181

     Check: negative starting charge=   -0.005347
     NEW-OLD atomic charge density approx. for the potential

     Check: negative/imaginary core charge=   -0.000004    0.000000
     Check: negative starting charge=   -0.005349

[...]

     Self-consistent Calculation

[...]

     Threshold (ethr) on eigenvalues was too large:
     Diagonalizing with lowered threshold

     Davidson diagonalization with overlap
     ethr =  1.35E-08,  avg # of iterations =  1.0

[...]

     total energy              =   -2955.40603302 Ry
     Harris-Foulkes estimate   =   -2955.40603302 Ry
     estimated scf accuracy    <       0.00000006 Ry

     iteration # 15     ecut=    40.00 Ry     beta=0.30
     Davidson diagonalization with overlap
     ethr =  2.70E-12,  avg # of iterations =  1.0

     negative rho (up, down):  0.476E-02 0.000E+00

     End of self-consistent calculation

[...]

          k = 0.2500-0.4237 0.0000 ( 44580 PWs)   bands (ev):

[...]

          k =-0.5000-0.4237 0.0000 ( 44696 PWs)   bands (ev):

   -55.5211 -55.5196 -55.0116 -55.0115 -55.0115 -54.9332 -54.9223 -54.9201
   -54.9195 -54.9195 -54.9156 -54.9107 -54.9060 -54.8853 -54.8839 -54.7397
   -32.0082 -32.0044 -31.6233 -31.6163 -31.5356 -31.5282 -31.4976 -31.3126
   -31.3058 -31.2471 -31.2470 -31.2387 -31.2377 -31.2343 -31.2332 -31.2292
   -31.2241 -31.2154 -31.2146 -31.2063 -31.1876 -31.1636 -31.1504 -31.1209
   -31.1063 -31.1042 -31.0984 -31.0914 -31.0885 -31.0764 -31.0633 -31.0428
   -31.0427 -31.0289 -30.9793 -30.9465 -30.9435 -30.9340 -30.9261 -30.9256
   -30.9245 -30.9234 -30.9031 -30.8946 -30.8868 -30.8722 -30.8700 -30.7719
   -18.2298 -18.0978 -18.0615 -18.0467 -17.8573 -17.8559 -17.8511 -17.8507
   -17.8066 -17.8004 -17.7490 -17.7420 -17.6871 -17.6838 -17.6173 -17.5878
   -17.4754 -17.4712 -17.4675 -17.4295 -17.3860 -17.3859 -17.3517 -17.3483
   -17.3232 -17.3162 -17.3058 -17.2982 -17.2979 -17.2533 -16.6783 -15.8563
   -15.8557  -5.9571  -5.8333  -5.8249  -5.7808  -5.7072  -5.7002  -5.6312
    -5.6277  -5.6255  -5.6254  -5.5859  -5.5851  -5.3720  -5.3716  -5.2920
    -5.2529  -5.2496  -5.1266  -5.0739  -5.0534  -5.0487  -5.0338  -4.9666
    -4.9372  -4.7890  -4.7726  -4.7352  -4.7154  -4.6967  -4.6905  -4.6171
    -4.6160  -4.4518  -4.4158  -4.4008  -4.3567  -4.3079  -4.2869  -4.2804
    -4.2738  -4.2627  -4.2601  -4.2444  -4.2155  -4.2075  -4.0762  -4.0041
    -3.8939  -3.8513  -3.8437  -3.8320  -3.7671  -3.7352  -3.7261  -3.6576
    -3.4777  -3.4402  -3.4208  -3.4182  -3.2903  -3.1856  -3.1811  -3.1241
    -3.1180  -3.1166  -3.1002  -3.0842  -3.0723  -3.0607  -2.9774  -2.9764
    -2.9074  -2.8880  -2.6083  -2.5963  -2.5228  -2.5226  -2.4805  -2.4661
    -2.2457  -2.2227  -2.2087  -2.2076  -2.0869  -2.0651  -2.0371  -2.0214
    -1.9802  -1.8208  -1.8183  -1.8054  -1.7584  -1.7303  -1.1586  -1.1584
    -1.0384  -1.0379  -0.4554  -0.0025   1.5949   1.7174   1.7191   1.7788
     1.8166   1.8464   1.9285   1.9438   2.0056   2.0870   2.1000   2.1067
     2.1311   2.1595   2.1809   2.2197   2.4005   2.4444   2.4453   2.4458
     2.7313   2.7338   2.8065   2.8280   2.8516   2.8940   2.9102   2.9145
     3.0171   3.0371   3.0400   3.0566   3.2128   3.2317   3.3304   3.3433
     3.4256   3.4337   3.5363   3.5954   3.6059   3.6733   3.7688   3.7999
     3.8191   3.8380   3.9102   3.9702   3.9984   4.1056   4.7107   5.4232
     5.4456   5.4668   5.4899   5.5297   5.5320   5.5405   5.5408   5.9019
     5.9282   5.9375   5.9984   6.5181   6.6234   6.7623   6.7670   6.8545
     6.9206   6.9700   6.9824   7.0086   7.0352   7.0501   7.3325   7.4328
     7.4361   7.4403   7.4620   7.6889   7.6962   7.7161   7.8198   7.8284
     7.8341   7.8546   7.8888   7.9064   7.9442   7.9872   8.0544   8.0993
     8.2143   8.2656   8.3192   8.4053   8.5542   8.5727   8.6087   8.7812
     8.9371   8.9469   8.9508   9.0882   9.1129   9.1241   9.1337   9.2799
     9.5825   9.5863   9.5957   9.7023   9.7549   9.7874   9.8198   9.9279
    10.2969  10.3085  10.3473  10.4853  10.5137  10.6045  10.6226  10.7893
    11.2780  11.2782  11.3988  11.5311  11.6486  11.6973  11.7018  11.9941
    12.1205  12.2922  12.3222  12.5195  12.5343  12.6111  12.6860  12.7139
    12.7416  12.8477  12.8494  12.8872  12.9071  12.9638  12.9686  13.1108
    13.1222  13.2284  13.2454  13.3691  13.3934  13.4095  13.5129  13.6017
    13.6779  13.6912  13.7439  13.7622  13.7825  13.7933  13.8838  13.8911
    13.9383  13.9687  14.0246  14.0269  14.0415  14.0694  14.0752  14.0804
    14.0805  14.1982  14.2215  14.2518  14.2789  14.2797  14.2967  14.3103
    14.3335  14.3723  14.4696  14.4709  14.4943  14.5210  14.5284  14.5372
    14.6006  14.6126  14.6710  14.8224  14.8258  14.8421  14.8463  14.9646
    14.9981  15.0314  15.0987  15.2242  15.2348  15.2460  15.2723  15.2964
    15.3175  15.4670  15.4713  15.5099  15.5733  15.6365  15.6531  15.6539
    15.7423  15.8814  15.9338  16.0754  16.1641  16.1646  16.2382  16.2746
    16.3533  16.3712  16.4223  16.4261  16.4477  16.4658  16.4690  16.5008
    16.5040  16.5197  16.5292  16.5680  16.6481  16.6530  16.7028  16.7639
    16.8633  16.8813  16.9016  16.9983  17.0207  17.0235  17.0552  17.1159
    17.1628  17.1754  17.2347  17.2965  17.3577  17.3619  17.4406  17.4619
    17.4840  17.4848  17.5504  17.5795  17.6423  17.6918  17.7816  17.7914
    17.9632  17.9776  17.9889  18.0949  18.2227  18.2280  18.2710  18.2904
    18.3512  18.3644  18.3705  18.5129  18.5265  18.6682  18.6719  18.7683
    18.8076  18.8442  18.9332  18.9435  18.9800  18.9818  19.0497  19.1522
[...]
    19.8728  19.8891  19.9233  20.0015  20.0051  20.1612  20.1864  20.1904
    20.3121  20.3264  20.3722  20.5201  20.6066  20.7577  20.8143  20.8264
    20.8494  20.8702  20.9791  20.9984  21.0097  21.1083  21.1357  21.1692
    21.2273  21.2406  21.2749  21.3587  21.3782  21.4732  21.5061  21.6411
    21.7025  21.7463  21.7688  21.7704  21.8740  21.8791  21.9357  21.9368
    21.9753  22.0789  22.1541  22.1566  22.2075  22.2813  22.3699  22.3931
    22.4036  22.4740  22.4765  22.5190  22.5313  22.5327  22.5582  22.5887
    22.5942  22.6138  22.6140  22.6220  22.6320  22.6358  22.6639  22.6719
    22.7392  22.7394  22.7823  22.7994  22.8111  22.8602  22.9272  22.9346
    22.9523  22.9893  23.0160  23.0428  23.0571  23.0874  23.1247  23.1501
    23.2146  23.2328  23.3001  23.3451  23.3823  23.4059  23.4292  23.5180
    23.5341  23.5681  23.6203  23.6461  23.6746  23.7520  23.7619  23.8127
    23.8952  23.9682  23.9750  24.0106  24.0385  24.0750  24.0904  24.1033
    24.2378  24.2921  24.2952  24.3406  24.3639  24.3857  24.5058  24.5093
    24.5395  24.5596

     the Fermi energy is     1.7339 ev

!    total energy              =   -2955.40603302 Ry
     Harris-Foulkes estimate   =   -2955.40603302 Ry
     estimated scf accuracy    <          4.7E-09 Ry

     The total energy is the sum of the following terms:

     one-electron contribution =  -65232.79434150 Ry
     hartree contribution      =   32674.47236481 Ry
     xc contribution           =    -532.47979634 Ry
     ewald contribution        =   30135.39854334 Ry
     smearing contrib. (-TS)   =      -0.00280332 Ry

     convergence has been achieved in  15 iterations

     Forces acting on atoms (Ry/au):

     negative rho (up, down):  0.476E-02 0.000E+00
     atom    1 type  1   force =     0.00000544    0.00000000    0.14417893
     atom    2 type  2   force =     0.00022787    0.00000000   -0.14937621
     atom    3 type  2   force =    -0.00000062    0.00000000    0.07749120
     atom    4 type  1   force =    -0.00000317    0.01722463   -0.01273251
     atom    5 type  1   force =    -0.00000317   -0.01722463   -0.01273251
     atom    6 type  1   force =     0.00001410    0.00000000   -0.02340418
     atom    7 type  1   force =    -0.00000420    0.00000000   -0.03267884
     atom    8 type  2   force =     0.00025088    0.00000000   -0.00051205
     atom    9 type  2   force =    -0.00004654    0.00000000   -0.01394874
     atom   10 type  1   force =    -0.00004080   -0.00287027   -0.00042725
     atom   11 type  1   force =    -0.00004080    0.00287027   -0.00042725
     atom   12 type  1   force =    -0.00001861    0.00000000    0.02163422
     atom   13 type  1   force =    -0.00070265    0.00000000    0.00195504
     atom   14 type  2   force =     0.00280516    0.00000000    0.00555518
     atom   15 type  2   force =    -0.00010356    0.00000000   -0.00390928
     atom   16 type  1   force =    -0.00112204   -0.00196723   -0.00002006
     atom   17 type  1   force =    -0.00112204    0.00196723   -0.00002006
     atom   18 type  1   force =     0.00066617    0.00000000   -0.00132829
     atom   19 type  1   force =     0.00009821    0.00000000    0.00291499
     atom   20 type  2   force =     0.00606311    0.00000000    0.01015273
     atom   21 type  2   force =    -0.00541078    0.00000000    0.02808727
     atom   22 type  1   force =    -0.03755677    0.02331235   -0.03894280
     atom   23 type  1   force =    -0.03755677   -0.02331235   -0.03894280
     atom   24 type  1   force =     0.00080604    0.00000000   -0.00744099
     atom   25 type  1   force =     0.00000307    0.00000000    0.14423317
     atom   26 type  2   force =    -0.00021655    0.00000000   -0.14936539
     atom   27 type  2   force =    -0.00000821    0.00000000    0.07738373
     atom   28 type  1   force =     0.00001765    0.01722531   -0.01274309
     atom   29 type  1   force =     0.00001765   -0.01722531   -0.01274309
     atom   30 type  1   force =     0.00001533    0.00000000   -0.02400337
     atom   31 type  1   force =     0.00000863    0.00000000   -0.03252575
     atom   32 type  2   force =    -0.00028802    0.00000000   -0.00053582
     atom   33 type  2   force =    -0.00021151    0.00000000   -0.01318748
     atom   34 type  1   force =     0.00007665   -0.00290331   -0.00040925
     atom   35 type  1   force =     0.00007665    0.00290331   -0.00040925
     atom   36 type  1   force =     0.00000709    0.00000000    0.02039761
     atom   37 type  1   force =     0.00036497    0.00000000   -0.00018508
     atom   38 type  2   force =    -0.00132209    0.00000000    0.00592855
     atom   39 type  2   force =     0.00011508    0.00000000    0.00109148
     atom   40 type  1   force =     0.00110483   -0.00204100   -0.00004524
     atom   41 type  1   force =     0.00110483    0.00204100   -0.00004524
     atom   42 type  1   force =    -0.00726677    0.00000000   -0.06863265
     atom   43 type  1   force =    -0.00011751    0.00000000   -0.00227341
     atom   44 type  2   force =    -0.00678286    0.00000000    0.01165576
     atom   45 type  2   force =     0.01182009    0.00000000    0.19752192
     atom   46 type  1   force =     0.03759345    0.02350787   -0.04328802
     atom   47 type  1   force =     0.03759345   -0.02350787   -0.04328802
     atom   48 type  1   force =    -0.00058423    0.00000000   -0.01004195
     atom   49 type  1   force =    -0.00011857    0.00000000    0.00006243
     atom   50 type  3   force =    -0.00020756    0.00000000    0.00032168

     Total force =     0.000406     Total SCF correction =     0.000012

     bfgs converged in  23 scf cycles and  22 bfgs steps
     (criteria: energy < 0.10E-03, force < 0.10E-02)

     End of BFGS Geometry Optimization

     Final energy   =   -2955.4060330180 Ry
Begin final coordinates

ATOMIC_POSITIONS (crystal)
O0       0.000000000   0.500000000   0.320740000    0   0   0
Nb1      0.250000000   0.500000000   0.359950000    0   0   0
Nb1      0.000000000   0.000000000   0.359950000    0   0   0
O0       0.250000000   0.790000000   0.359950000    0   0   0
O0       0.250000000   0.210000000   0.359950000    0   0   0
O0       0.000000000   0.500000000   0.399170000    0   0   0
O0       0.000000000   0.000000000   0.414100000    0   0   0
Nb1      0.250000000   0.000000000   0.453320000    0   0   0
Nb1      0.000000000   0.500000000   0.453320000    0   0   0
O0       0.250000000   0.710000000   0.453320000    0   0   0
O0       0.250000000   0.290000000   0.453320000    0   0   0
O0       0.000000000   0.000000000   0.492530000    0   0   0
O0       0.000000000   0.500000000   0.506600000    0   0   0
Nb1      0.250000000   0.500000000   0.544900000    0   0   0
Nb1      0.000000000   0.000000000   0.547680000    0   0   0
O0       0.250000000   0.788980000   0.547660000    0   0   0
O0       0.250000000   0.211020000   0.547660000    0   0   0
O0       0.000000000   0.500000000   0.585290000    0   0   0
O0       0.000000000   0.000000000   0.604040000    0   0   0
Nb1      0.250000000   0.000000000   0.644030000    0   0   0
Nb1      0.000000000   0.500000000   0.635610000    0   0   0
O0       0.250000000   0.700180000   0.645870000    0   0   0
O0       0.250000000   0.299820000   0.645870000    0   0   0
O0       0.000000000   0.000000000   0.675830000    0   0   0
O0       0.500000000   0.500000000   0.320740000    0   0   0
Nb1      0.750000000   0.500000000   0.359950000    0   0   0
Nb1      0.500000000   0.000000000   0.359950000    0   0   0
O0       0.750000000   0.790000000   0.359950000    0   0   0
O0       0.750000000   0.210000000   0.359950000    0   0   0
O0       0.500000000   0.500000000   0.399170000    0   0   0
O0       0.500000000   0.000000000   0.414100000    0   0   0
Nb1      0.750000000   0.000000000   0.453320000    0   0   0
Nb1      0.500000000   0.500000000   0.453320000    0   0   0
O0       0.750000000   0.710000000   0.453320000    0   0   0
O0       0.750000000   0.290000000   0.453320000    0   0   0
O0       0.500000000   0.000000000   0.492530000    0   0   0
O0       0.500000000   0.500000000   0.506600000    0   0   0
Nb1      0.750000000   0.500000000   0.544900000    0   0   0
Nb1      0.500000000   0.000000000   0.547680000    0   0   0
O0       0.750000000   0.788980000   0.547660000    0   0   0
O0       0.750000000   0.211020000   0.547660000    0   0   0
O0       0.500000000   0.500000000   0.585290000    0   0   0
O0       0.500000000   0.000000000   0.604040000    0   0   0
Nb1      0.750000000   0.000000000   0.644030000    0   0   0
Nb1      0.500000000   0.500000000   0.635610000    0   0   0
O0       0.750000000   0.700180000   0.645870000    0   0   0
O0       0.750000000   0.299820000   0.645870000    0   0   0
O0       0.500000000   0.000000000   0.675830000    0   0   0
O0       0.508844402   0.500000000   0.689377687
H2       0.385792641   0.500000000   0.706686181
End final coordinates

     General routines

     Parallel routines

   This run was terminated on:  11:59:59  29Mar2014

   JOB DONE.
Running PBS batch system epilogue script
Job id: 314591.audhumbla.fysik.dtu.dk
Username: zhonxu
Groupname: campgst
Jobname: NbO2/Eads-4-layers/OH
Sessionid: 5975
Queuename: verylong
Accounting:
This job has allocated the following 32 nodes:
g074 g074 g074 g074 g074 g074 g074 g074 g074 g074 g074 g074 g074 g074 g074 g074 g071 g071 g071 g071 g071 g071 g071 g071 g071 g071 g071 g071 g071 g071 g071 g071
Finished epilogue job 314591.audhumbla.fysik.dtu.dk for zhonxu