     Program PWSCF v.5.0.2 (svn rev. 9656) starts on  9May2014 at 12: 3:18

     Current dimensions of program PWSCF are:
     Max number of different atomic species (ntypx) = 10
     Max number of k-points (npk) =  40000
     Max angular momentum in pseudopotentials (lmaxx) =  3
     Reading input from pwscf.in
Warning: card &CELL ignored
Warning: card / ignored

     Subspace diagonalization in iterative solution of the eigenvalue problem:
     a serial algorithm will be used

     Found symmetry operation: I + ( -0.5000  0.0000  0.0000)
     This is a supercell, fractional translations are disabled

     bravais-lattice index     =            0
     lattice parameter (alat)  =      10.7336  a.u.
     unit-cell volume          =    6184.1966 (a.u.)^3
     number of atoms/cell      =           30
     number of atomic types    =            3
     number of electrons       =       232.00 (up: 128.00, down: 104.00)
     number of Kohn-Sham states=          336
     kinetic-energy cutoff     =      40.0000  Ry
     charge density cutoff     =     500.0000  Ry
     convergence threshold     =      1.0E-06
     mixing beta               =       0.7000
     number of iterations used =            8  plain     mixing
     Exchange-correlation      = SLA  PW   PBE  PBE ( 1 4 3 4 0)
     EXX-fraction              =        0.00
     nstep                     =           50

     celldm(1)=  10.733644  celldm(2)=   0.000000  celldm(3)=   0.000000
     celldm(4)=   0.000000  celldm(5)=   0.000000  celldm(6)=   0.000000

     crystal axes: (cart. coord. in units of alat)
               a(1) = (   1.000000   0.000000   0.000000 )
               a(2) = (   0.000000   1.085558   0.000000 )
               a(3) = (   0.000000   0.000000   4.606685 )

     reciprocal axes: (cart. coord. in units 2 pi/alat)
               b(1) = (  1.000000  0.000000  0.000000 )
               b(2) = (  0.000000  0.921185  0.000000 )
               b(3) = (  0.000000  0.000000  0.217076 )

     PseudoPot. # 1 for O  read from file:
     /home/camp/zhonxu/pseudo/o_pbe_v1.01.uspp.F.UPF
     MD5 check sum: 2bcb18d16ea4b960afae9ec6d52f22d2
     Pseudo is Ultrasoft + core correction, Zval =  6.0
     Generated by new atomic code, or converted to UPF format
     Using radial grid of  737 points,  5 beta functions with:
                l(1) =   0
                l(2) =   0
                l(3) =   1
                l(4) =   1
                l(5) =   2
     Q(r) pseudized with  8 coefficients,  rinner =    0.900   0.900   0.900
                                                       0.900   0.900

     PseudoPot. # 2 for Mn read from file:
     /home/camp/zhonxu/pseudo/mn_pbe_v1.uspp.F.UPF
     MD5 check sum: 5fd7c7b5c956fd19902447332617373a
     Pseudo is Ultrasoft + core correction, Zval = 15.0
     Generated by new atomic code, or converted to UPF format
     Using radial grid of  859 points,  6 beta functions with:
                l(1) =   0
                l(2) =   0
                l(3) =   1
                l(4) =   1
                l(5) =   2
                l(6) =   2
     Q(r) pseudized with  6 coefficients,  rinner =    1.150   1.150   1.150
                                                       1.150   1.150

     PseudoPot. # 3 for H  read from file:
     /home/camp/zhonxu/pseudo/h_pbe_v1.uspp.F.UPF
     MD5 check sum: 3408e3ff4ec8b0a4e358431e7e038a48
     Pseudo is Ultrasoft, Zval =  1.0
     Generated by new atomic code, or converted to UPF format
     Using radial grid of  615 points,  2 beta functions with:
                l(1) =   0
                l(2) =   0
     Q(r) pseudized with  8 coefficients,  rinner =    0.700

     atomic species   valence    mass     pseudopotential
        O0             6.00    15.99940     O ( 1.00)
        Mn1           15.00    54.93800     Mn( 1.00)
        H2             1.00     1.00794     H ( 1.00)

     Starting magnetic structure
     atomic species   magnetization
        O0           0.000
        Mn1          0.600
        H2           0.000

     Simplified LDA+U calculation (l_max = 2) with parameters (eV):
     atomic species    L          U    alpha       J0     beta
        Mn1            2     7.5000   0.0000   0.0000   0.0000

     No symmetry found

   Cartesian axes

     site n.     atom                  positions (alat units)
         1           O0  tau(   1) = (   0.0000000   0.0000000   1.7440910  )
         2           O0  tau(   2) = (   0.0000000   0.5427791   1.8348887  )
         3           Mn1 tau(   3) = (   0.2500000   0.5427791   2.0695072  )
         4           Mn1 tau(   4) = (   0.0000000   0.0000000   2.0719487  )
         5           O0  tau(   5) = (   0.2500000   0.8684466   2.0695533  )
         6           O0  tau(   6) = (   0.2500000   0.2171117   2.0770161  )
         7           O0  tau(   7) = (   0.0000000   0.5427791   2.2881405  )
         8           O0  tau(   8) = (   0.0000000   0.0000000   2.4167130  )
         9           Mn1 tau(   9) = (   0.2500000   0.0000000   2.6452046  )
        10           Mn1 tau(  10) = (   0.0000000   0.5427791   2.6189465  )
        11           O0  tau(  11) = (   0.2500000   0.7598908   2.6694358  )
        12           O0  tau(  12) = (   0.2500000   0.3256675   2.6696661  )
        13           O0  tau(  13) = (   0.0000000   0.0000000   2.8462864  )
        14           O0  tau(  14) = (   0.5000000   0.0000000   1.7440910  )
        15           O0  tau(  15) = (   0.5000000   0.5427791   1.8348887  )
        16           Mn1 tau(  16) = (   0.7500000   0.5427791   2.0695072  )
        17           Mn1 tau(  17) = (   0.5000000   0.0000000   2.0719487  )
        18           O0  tau(  18) = (   0.7500000   0.8684466   2.0695533  )
        19           O0  tau(  19) = (   0.7500000   0.2171117   2.0770161  )
        20           O0  tau(  20) = (   0.5000000   0.5427791   2.2881405  )
        21           O0  tau(  21) = (   0.5000000   0.0000000   2.4167130  )
        22           Mn1 tau(  22) = (   0.7500000   0.0000000   2.6452046  )
        23           Mn1 tau(  23) = (   0.5000000   0.5427791   2.6189465  )
        24           O0  tau(  24) = (   0.7500000   0.7598908   2.6694358  )
        25           O0  tau(  25) = (   0.7500000   0.3256675   2.6696661  )
        26           O0  tau(  26) = (   0.5000000   0.0000000   2.8462864  )
        27           H2  tau(  27) = (  -0.0000900   0.7018026   1.7591088  )
        28           H2  tau(  28) = (   0.4999100   0.7018026   1.7591088  )
        29           H2  tau(  29) = (   0.1616900   0.0388738   1.6898703  )
        30           H2  tau(  30) = (   0.6616900   0.0388738   1.6898703  )

     number of k points=    20  Methfessel-Paxton smearing, width (Ry)=  0.0100
                       cart. coord. in units 2pi/alat
        k(    1) = (   0.0000000   0.0000000   0.0000000), wk =   0.0625000
        k(    2) = (   0.0000000   0.2302962   0.0000000), wk =   0.1250000
        k(    3) = (   0.0000000  -0.4605925   0.0000000), wk =   0.0625000
        k(    4) = (   0.2500000   0.0000000   0.0000000), wk =   0.1250000
        k(    5) = (   0.2500000   0.2302962   0.0000000), wk =   0.1250000
        k(    6) = (   0.2500000  -0.4605925   0.0000000), wk =   0.1250000
        k(    7) = (  -0.5000000   0.0000000   0.0000000), wk =   0.0625000
        k(    8) = (  -0.5000000   0.2302962   0.0000000), wk =   0.1250000
        k(    9) = (  -0.5000000  -0.4605925   0.0000000), wk =   0.0625000
        k(   10) = (  -0.2500000   0.2302962   0.0000000), wk =   0.1250000
        k(   11) = (   0.0000000   0.0000000   0.0000000), wk =   0.0625000
        k(   12) = (   0.0000000   0.2302962   0.0000000), wk =   0.1250000
        k(   13) = (   0.0000000  -0.4605925   0.0000000), wk =   0.0625000
        k(   14) = (   0.2500000   0.0000000   0.0000000), wk =   0.1250000
        k(   15) = (   0.2500000   0.2302962   0.0000000), wk =   0.1250000
        k(   16) = (   0.2500000  -0.4605925   0.0000000), wk =   0.1250000
        k(   17) = (  -0.5000000   0.0000000   0.0000000), wk =   0.0625000
        k(   18) = (  -0.5000000   0.2302962   0.0000000), wk =   0.1250000
        k(   19) = (  -0.5000000  -0.4605925   0.0000000), wk =   0.0625000
        k(   20) = (  -0.2500000   0.2302962   0.0000000), wk =   0.1250000

     Largest allocated arrays     est. size (Mb)     dimensions
     Largest temporary arrays     est. size (Mb)     dimensions

     Check: negative/imaginary core charge=   -0.000022    0.000000

     Initial potential from superposition of free atoms
     Check: negative starting charge=(component1):   -0.000776
     Check: negative starting charge=(component2):   -0.000381

     starting charge  223.99987, renormalised to  232.00000

     negative rho (up, down):  0.804E-03 0.395E-03
     Number of +U iterations with fixed ns =  0
     Starting occupations:
 --- enter write_ns ---
 LDA+U parameters:
U( 2)     =  7.50000000
alpha( 2) =  0.00000000
atom    3   Tr[ns(na)] (up, down, total) =   5.00000  0.00000  5.00000
   spin  1
    eigenvalues:
  1.000  1.000  1.000  1.000  1.000
    eigenvectors:
  1.000  0.000  0.000  0.000  0.000
  0.000  1.000  0.000  0.000  0.000
  0.000  0.000  1.000  0.000  0.000
  0.000  0.000  0.000  1.000  0.000
  0.000  0.000  0.000  0.000  1.000
    occupations:
  1.000  0.000  0.000  0.000  0.000
  0.000  1.000  0.000  0.000  0.000
  0.000  0.000  1.000  0.000  0.000
  0.000  0.000  0.000  1.000  0.000
  0.000  0.000  0.000  0.000  1.000
   spin  2
    eigenvalues:
  0.000  0.000  0.000  0.000  0.000
    eigenvectors:
  1.000  0.000  0.000  0.000  0.000
  0.000  1.000  0.000  0.000  0.000
  0.000  0.000  1.000  0.000  0.000
  0.000  0.000  0.000  1.000  0.000
  0.000  0.000  0.000  0.000  1.000
    occupations:
  0.000  0.000  0.000  0.000  0.000
  0.000  0.000  0.000  0.000  0.000
  0.000  0.000  0.000  0.000  0.000
  0.000  0.000  0.000  0.000  0.000
  0.000  0.000  0.000  0.000  0.000
atomic mag. moment =     5.000000
atom    4   Tr[ns(na)] (up, down, total) =   5.00000  0.00000  5.00000
   spin  1
    eigenvalues:
  1.000  1.000  1.000  1.000  1.000
    eigenvectors:
  1.000  0.000  0.000  0.000  0.000
  0.000  1.000  0.000  0.000  0.000
  0.000  0.000  1.000  0.000  0.000
  0.000  0.000  0.000  1.000  0.000
  0.000  0.000  0.000  0.000  1.000
    occupations:
  1.000  0.000  0.000  0.000  0.000
  0.000  1.000  0.000  0.000  0.000
  0.000  0.000  1.000  0.000  0.000
  0.000  0.000  0.000  1.000  0.000
  0.000  0.000  0.000  0.000  1.000
   spin  2
    eigenvalues:
  0.000  0.000  0.000  0.000  0.000
    eigenvectors:
  1.000  0.000  0.000  0.000  0.000
  0.000  1.000  0.000  0.000  0.000
  0.000  0.000  1.000  0.000  0.000
  0.000  0.000  0.000  1.000  0.000
  0.000  0.000  0.000  0.000  1.000
    occupations:
  0.000  0.000  0.000  0.000  0.000
  0.000  0.000  0.000  0.000  0.000
  0.000  0.000  0.000  0.000  0.000
  0.000  0.000  0.000  0.000  0.000
  0.000  0.000  0.000  0.000  0.000
atomic mag. moment =     5.000000
atom    9   Tr[ns(na)] (up, down, total) =   5.00000  0.00000  5.00000
   spin  1
    eigenvalues:
  1.000  1.000  1.000  1.000  1.000
    eigenvectors:
[...]
  0.750  0.000  0.000  0.149  0.100
  0.000  0.001  0.996  0.003  0.001
    occupations:
  0.942  0.000 -0.001 -0.104  0.000
  0.000  0.791 -0.000  0.000 -0.007
 -0.001 -0.000  1.002 -0.001  0.000
 -0.104  0.000 -0.001  0.822  0.000
  0.000 -0.007  0.000  0.000  0.999
   spin  2
    eigenvalues:
  0.056  0.070  0.078  0.254  0.297
    eigenvectors:
  0.769  0.000  0.002  0.000  0.228
  0.000  0.001  0.000  0.999  0.000
  0.004  0.000  0.996  0.000  0.000
  0.227  0.000  0.002  0.000  0.771
  0.000  0.999  0.000  0.001  0.000
    occupations:
  0.111 -0.000 -0.003  0.101 -0.000
 -0.000  0.254  0.000 -0.000  0.006
 -0.003  0.000  0.078 -0.002 -0.000
  0.101 -0.000 -0.002  0.242 -0.000
 -0.000  0.006 -0.000 -0.000  0.070
atomic mag. moment =     3.801061
atom    4   Tr[ns(na)] (up, down, total) =   4.56345  0.74352  5.30696
   spin  1
    eigenvalues:
  0.748  0.810  0.997  1.004  1.005
    eigenvectors:
  0.000  0.997  0.001  0.001  0.000
  0.000  0.001  0.000  0.311  0.688
  0.000  0.001  0.000  0.688  0.312
  0.000  0.001  0.998  0.000  0.000
  1.000  0.000  0.000  0.000  0.000
    occupations:
  0.811 -0.006 -0.005  0.007 -0.000
 -0.006  1.004 -0.001  0.000  0.003
 -0.005 -0.001  1.004  0.000 -0.000
  0.007  0.000  0.000  0.997 -0.000
 -0.000  0.003 -0.000 -0.000  0.748
   spin  2
    eigenvalues:
  0.064  0.067  0.073  0.236  0.304
    eigenvectors:
  0.009  0.000  0.000  0.991  0.000
  0.020  0.127  0.851  0.001  0.001
  0.096  0.755  0.148  0.001  0.000
  0.875  0.117  0.000  0.008  0.000
  0.000  0.000  0.001  0.000  0.999
    occupations:
  0.234  0.005  0.005 -0.015  0.000
  0.005  0.072 -0.002  0.000 -0.008
  0.005 -0.002  0.068  0.001  0.000
 -0.015  0.000  0.001  0.065 -0.000
  0.000 -0.008  0.000 -0.000  0.304
atomic mag. moment =     3.819933
atom    9   Tr[ns(na)] (up, down, total) =   4.53314  0.79782  5.33095
   spin  1
    eigenvalues:
  0.765  0.781  0.992  0.995  1.001
    eigenvectors:
  0.235  0.000  0.000  0.000  0.764
  0.000  1.000  0.000  0.000  0.000
  0.000  0.000  0.000  1.000  0.000
  0.764  0.000  0.000  0.000  0.235
  0.000  0.000  1.000  0.000  0.000
    occupations:
  0.945  0.000  0.000 -0.100 -0.000
  0.000  0.781  0.000  0.000  0.000
  0.000  0.000  0.995  0.000  0.000
 -0.100  0.000  0.000  0.820  0.000
 -0.000  0.000  0.000  0.000  0.992
   spin  2
    eigenvalues:
  0.065  0.074  0.081  0.285  0.292
    eigenvectors:
  0.803  0.000  0.000  0.000  0.197
  0.000  0.000  0.000  1.000  0.000
  0.000  0.000  1.000  0.000  0.000
  0.197  0.000  0.000  0.000  0.803
  0.000  1.000  0.000  0.000  0.000
    occupations:
  0.110 -0.000  0.000  0.090 -0.000
 -0.000  0.285 -0.000  0.000 -0.000
  0.000 -0.000  0.081  0.000 -0.000
  0.090  0.000  0.000  0.247  0.000
 -0.000 -0.000 -0.000  0.000  0.074
atomic mag. moment =     3.735322
atom   10   Tr[ns(na)] (up, down, total) =   4.72650  0.52666  5.25316
   spin  1
    eigenvalues:
  0.759  0.971  0.998  0.999  1.000
    eigenvectors:
  0.000  0.963  0.000  0.000  0.037
  0.000  0.000  0.000  1.000  0.000
  0.000  0.000  0.999  0.000  0.001
  0.000  0.037  0.001  0.000  0.962
  1.000  0.000  0.000  0.000  0.000
    occupations:
  0.972 -0.000  0.000  0.006  0.000
 -0.000  0.999  0.000  0.000 -0.000
  0.000  0.000  0.998 -0.000  0.000
  0.006  0.000 -0.000  0.999  0.000
  0.000 -0.000  0.000  0.000  0.759
   spin  2
    eigenvalues:
  0.052  0.056  0.063  0.107  0.250
    eigenvectors:
  0.051  0.000  0.000  0.949  0.000
  0.000  0.000  1.000  0.000  0.000
  0.000  1.000  0.000  0.000  0.000
  0.949  0.000  0.000  0.051  0.000
  0.000  0.000  0.000  0.000  1.000
    occupations:
  0.104  0.000 -0.000 -0.012  0.000
  0.000  0.063  0.000 -0.000  0.000
 -0.000  0.000  0.056 -0.000 -0.000
 -0.012 -0.000 -0.000  0.054  0.000
  0.000  0.000 -0.000  0.000  0.250
atomic mag. moment =     4.199843
atom   16   Tr[ns(na)] (up, down, total) =   4.55698  0.75592  5.31289
   spin  1
    eigenvalues:
  0.762  0.791  0.999  1.001  1.003
    eigenvectors:
  0.250  0.000  0.000  0.440  0.310
  0.000  0.999  0.001  0.000  0.000
  0.000  0.000  0.003  0.408  0.589
  0.750  0.000  0.000  0.149  0.100
  0.000  0.001  0.996  0.003  0.001
    occupations:
  0.942  0.000 -0.001 -0.104  0.000
  0.000  0.791 -0.000  0.000 -0.007
 -0.001 -0.000  1.002 -0.001  0.000
 -0.104  0.000 -0.001  0.822  0.000
  0.000 -0.007  0.000  0.000  0.999
   spin  2
    eigenvalues:
  0.056  0.070  0.078  0.254  0.297
    eigenvectors:
  0.769  0.000  0.002  0.000  0.228
  0.000  0.001  0.000  0.999  0.000
  0.004  0.000  0.996  0.000  0.000
  0.227  0.000  0.002  0.000  0.771
  0.000  0.999  0.000  0.001  0.000
    occupations:
  0.111 -0.000 -0.003  0.101 -0.000
 -0.000  0.254  0.000 -0.000  0.006
 -0.003  0.000  0.078 -0.002 -0.000
  0.101 -0.000 -0.002  0.242 -0.000
 -0.000  0.006 -0.000 -0.000  0.070
atomic mag. moment =     3.801061
atom   17   Tr[ns(na)] (up, down, total) =   4.56345  0.74351  5.30696
   spin  1
    eigenvalues:
  0.748  0.810  0.997  1.004  1.005
    eigenvectors:
  0.000  0.997  0.001  0.001  0.000
  0.000  0.001  0.000  0.311  0.688
  0.000  0.001  0.000  0.688  0.311
  0.000  0.001  0.998  0.000  0.000
  1.000  0.000  0.000  0.000  0.000
    occupations:
  0.811 -0.006 -0.005  0.007 -0.000
 -0.006  1.004 -0.001  0.000  0.003
 -0.005 -0.001  1.004  0.000 -0.000
  0.007  0.000  0.000  0.997 -0.000
 -0.000  0.003 -0.000 -0.000  0.748
   spin  2
    eigenvalues:
  0.064  0.067  0.073  0.236  0.304
    eigenvectors:
  0.009  0.000  0.000  0.991  0.000
  0.020  0.127  0.851  0.001  0.001
  0.096  0.755  0.148  0.001  0.000
  0.875  0.117  0.000  0.008  0.000
  0.000  0.000  0.001  0.000  0.999
    occupations:
  0.234  0.005  0.005 -0.015  0.000
  0.005  0.072 -0.002  0.000 -0.008
  0.005 -0.002  0.068  0.001  0.000
 -0.015  0.000  0.001  0.065 -0.000
  0.000 -0.008  0.000 -0.000  0.304
atomic mag. moment =     3.819946
atom   22   Tr[ns(na)] (up, down, total) =   4.53314  0.79782  5.33095
   spin  1
    eigenvalues:
  0.765  0.781  0.992  0.995  1.001
    eigenvectors:
  0.235  0.000  0.000  0.000  0.764
  0.000  1.000  0.000  0.000  0.000
  0.000  0.000  0.000  1.000  0.000
  0.764  0.000  0.000  0.000  0.235
  0.000  0.000  1.000  0.000  0.000
    occupations:
  0.945  0.000  0.000 -0.100 -0.000
  0.000  0.781  0.000  0.000  0.000
  0.000  0.000  0.995  0.000  0.000
 -0.100  0.000  0.000  0.820  0.000
 -0.000  0.000  0.000  0.000  0.992
   spin  2
    eigenvalues:
  0.065  0.074  0.081  0.285  0.292
    eigenvectors:
  0.803  0.000  0.000  0.000  0.197
  0.000  0.000  0.000  1.000  0.000
  0.000  0.000  1.000  0.000  0.000
  0.197  0.000  0.000  0.000  0.803
  0.000  1.000  0.000  0.000  0.000
    occupations:
  0.110 -0.000  0.000  0.090 -0.000
 -0.000  0.285 -0.000  0.000 -0.000
  0.000 -0.000  0.081  0.000 -0.000
  0.090  0.000  0.000  0.247  0.000
 -0.000 -0.000 -0.000  0.000  0.074
atomic mag. moment =     3.735322
atom   23   Tr[ns(na)] (up, down, total) =   4.72649  0.52667  5.25316
   spin  1
    eigenvalues:
  0.759  0.971  0.998  0.999  1.000
    eigenvectors:
  0.000  0.963  0.000  0.000  0.037
  0.000  0.000  0.000  1.000  0.000
  0.000  0.000  0.999  0.000  0.001
  0.000  0.037  0.001  0.000  0.962
  1.000  0.000  0.000  0.000  0.000
    occupations:
  0.972 -0.000  0.000  0.006  0.000
 -0.000  0.999  0.000  0.000 -0.000
  0.000  0.000  0.998 -0.000  0.000
  0.006  0.000 -0.000  0.999  0.000
  0.000 -0.000  0.000  0.000  0.759
   spin  2
    eigenvalues:
  0.052  0.056  0.063  0.107  0.250
    eigenvectors:
  0.051  0.000  0.000  0.949  0.000
  0.000  0.000  1.000  0.000  0.000
  0.000  1.000  0.000  0.000  0.000
  0.949  0.000  0.000  0.051  0.000
  0.000  0.000  0.000  0.000  1.000
    occupations:
  0.104  0.000 -0.000 -0.012  0.000
  0.000  0.063  0.000 -0.000  0.000
 -0.000  0.000  0.056 -0.000 -0.000
 -0.012 -0.000 -0.000  0.054  0.000
  0.000  0.000 -0.000  0.000  0.250
atomic mag. moment =     4.199815
N of occupied +U levels =  42.4079397
 --- exit write_ns ---

 ------ SPIN UP ------------

[...]

 ------ SPIN DOWN ----------

[...]

          k = 0.2500-0.4606 0.0000 ( 26462 PWs)   bands (ev):

[...]

          k =-0.2500 0.2303 0.0000 ( 26396 PWs)   bands (ev):

   -79.8465 -79.8390 -79.8389 -79.8311 -79.7298 -79.7213 -79.0110 -79.0028
   -48.7409 -48.7377 -48.7370 -48.7274 -48.7131 -48.6921 -48.6843 -48.6475
   -48.6391 -48.6234 -48.5879 -48.5729 -48.5704 -48.5694 -48.5574 -48.5530
   -48.3798 -48.3720 -48.1181 -48.0128 -47.9742 -47.9563 -47.5361 -47.5270
   -21.6238 -21.1931 -21.1284 -20.9801 -20.5369 -20.4774 -20.4655 -20.4007
   -20.1937 -20.1525 -20.1103 -20.0237 -19.8727 -19.8196 -19.7430 -19.6842
   -19.6737 -19.5347  -8.8700  -8.6497  -8.2797  -8.2695  -8.0767  -7.9102
    -7.7285  -7.5367  -7.3711  -7.2090  -7.0485  -7.0352  -6.9078  -6.8433
    -6.8381  -6.6055  -6.5716  -6.4747  -6.3603  -6.2793  -6.1305  -6.1165
    -5.9910  -5.9258  -5.7628  -5.7141  -5.7002  -5.6014  -5.5672  -5.4883
    -5.3898  -5.2610  -5.2233  -5.1183  -5.1175  -5.0272  -4.9881  -4.8427
    -4.7423  -4.6026  -4.5101  -4.4900  -4.4574  -4.4051  -4.3250  -4.2267
    -4.0578  -3.9883  -3.8061  -3.7211  -3.6717  -3.4198  -3.3804  -3.1348
     2.0125   2.1048   2.1553   2.1908   2.2801   2.3018   2.3440   2.3787
     2.4333   2.4339   2.5175   2.5294   2.5629   2.5762   2.6019   2.6729
     2.6978   2.8207   2.8956   2.9047   2.9815   3.0445   3.0781   3.1445
     3.2074   3.2394   3.3122   3.3449   3.4297   3.4427   3.4733   3.5080
     3.5800   3.5824   3.7002   3.7235   3.7638   3.7953   3.8100   3.9208
     4.0054   4.2405   4.4630   4.9248   5.3771   5.6279   5.8073   6.1200
     6.2123   6.3069   6.4706   6.4727   6.6432   6.8898   6.9855   7.2983
     7.3288   7.5442   7.7343   7.9124   8.0317   8.0403   8.2042   8.3592
     8.4579   8.5925   8.8393   8.9012   9.1328   9.1738   9.2149   9.3974
     9.4656   9.5566   9.8456   9.8945  10.0793  10.0893  10.1829  10.3006
    10.3951  10.4658  10.5337  10.6980  10.7344  10.8825  10.9730  11.0140
    11.1781  11.2287  11.3039  11.4816  11.4908  11.6078  11.6587  11.7122
    11.7935  11.9025  12.0619  12.1457  12.2016  12.3166  12.4436  12.4552
    12.4792  12.5901  12.7930  12.8009  12.9391  12.9425  12.9961  13.0358
    13.1472  13.1566  13.2584  13.2884  13.3606  13.4145  13.4260  13.5046
    13.6208  13.6896  13.8111  13.8506  13.9900  14.0180  14.0999  14.1673
    14.1758  14.3460  14.3515  14.4886  14.5506  14.5516  14.6872  14.7779
    14.8797  15.0496  15.1155  15.1786  15.2166  15.3886  15.4799  15.5770
    15.6218  15.7742  15.8408  15.8884  16.0356  16.1150  16.1921  16.2627
    16.3078  16.4573  16.4862  16.5284  16.6448  16.7543  16.7688  16.9108
    16.9320  17.0382  17.1071  17.1076  17.2636  17.2734  17.3224  17.5173
    17.5269  17.5759  17.6710  17.7479  17.8686  17.9705  18.0304  18.0986
    18.1498  18.2511  18.3082  18.3104  18.3388  18.5061  18.5683  18.6155
    18.6586  18.7701  18.7927  18.8752  18.9581  19.0911  19.1299  19.2092
    19.2813  19.3137  19.3921  19.4840  19.5866  19.6323  19.7677  19.8131
    19.9519  19.9818  20.0477  20.0495  20.1738  20.1843  20.2840  20.3540
    20.4205  20.4250  20.4764  20.5173  20.6603  20.7604  20.8322  20.9455
    20.9981  21.1081  21.1441  21.2085  21.2570  21.3609  21.3996  21.4063
    21.4965  21.6939  21.6994  21.7134  21.8346  21.9107  21.9766  22.0449

     the spin up/dw Fermi energies are    -2.4954   -0.6340 ev

!    total energy              =   -2286.32619977 Ry
     Harris-Foulkes estimate   =   -2286.32619976 Ry
     estimated scf accuracy    <          2.6E-09 Ry

     The total energy is the sum of the following terms:

     one-electron contribution =  -24830.64199869 Ry
     hartree contribution      =   12432.80466357 Ry
     xc contribution           =    -342.19278146 Ry
     ewald contribution        =   10451.78279279 Ry
     Hubbard energy            =       1.92148369 Ry
     smearing contrib. (-TS)   =      -0.00035967 Ry

     total magnetization       =    24.00 Bohr mag/cell
     absolute magnetization    =    39.03 Bohr mag/cell

     convergence has been achieved in  16 iterations

     Forces acting on atoms (Ry/au):

     negative rho (up, down):  0.148E-02 0.147E-02
     atom    1 type  1   force =    -0.00394854   -0.01286804   -0.00085212
     atom    2 type  1   force =     0.00044888    0.00671364    0.00046168
     atom    3 type  2   force =    -0.00089825    0.00164365   -0.00003125
     atom    4 type  2   force =     0.00583878    0.00840150    0.00067957
     atom    5 type  1   force =     0.00089843    0.00965669   -0.00062032
     atom    6 type  1   force =    -0.00159622   -0.01378186    0.00034803
     atom    7 type  1   force =     0.00006846    0.00214524   -0.00031214
     atom    8 type  1   force =    -0.00134868   -0.00236602   -0.00093731
     atom    9 type  2   force =     0.00075392   -0.00002716    0.00008160
     atom   10 type  2   force =    -0.00005022   -0.00077710   -0.00020557
     atom   11 type  1   force =     0.00003056   -0.01639944    0.00026483
     atom   12 type  1   force =     0.00007391    0.01676621    0.00030072
     atom   13 type  1   force =    -0.00047447   -0.00007652    0.00006516
     atom   14 type  1   force =    -0.00394688   -0.01286794   -0.00084897
     atom   15 type  1   force =     0.00044926    0.00671353    0.00046081
     atom   16 type  2   force =    -0.00090292    0.00164453   -0.00003136
     atom   17 type  2   force =     0.00583792    0.00840176    0.00068236
     atom   18 type  1   force =     0.00089777    0.00965641   -0.00062027
     atom   19 type  1   force =    -0.00159832   -0.01378209    0.00034776
     atom   20 type  1   force =     0.00006823    0.00214517   -0.00031396
     atom   21 type  1   force =    -0.00134878   -0.00236591   -0.00094201
     atom   22 type  2   force =     0.00075034   -0.00002736    0.00008177
     atom   23 type  2   force =    -0.00005033   -0.00077688   -0.00021510
     atom   24 type  1   force =     0.00004020   -0.01639943    0.00026486
     atom   25 type  1   force =     0.00008360    0.01676624    0.00030072
     atom   26 type  1   force =    -0.00047448   -0.00007649    0.00007728
     atom   27 type  3   force =     0.00001721    0.00003089    0.00058152
     atom   28 type  3   force =     0.00001704    0.00003021    0.00058202
     atom   29 type  3   force =     0.00018172    0.00093850    0.00017577
     atom   30 type  3   force =     0.00018188    0.00093809    0.00017391

     Total force =     0.002962     Total SCF correction =     0.000141

     bfgs converged in  18 scf cycles and  17 bfgs steps
     (criteria: energy < 0.10E-03, force < 0.10E-02)

     End of BFGS Geometry Optimization

     Final energy   =   -2286.3261997706 Ry
Begin final coordinates

ATOMIC_POSITIONS (crystal)
O0       0.000000000   0.000000000   0.371592121    0   0   1
O0       0.000000000   0.500000000   0.390569877    0   0   1
Mn1      0.250000000   0.500000000   0.444846944    0   0   1
Mn1      0.000000000   0.000000000   0.447053697    0   0   1
O0       0.250000000   0.800000000   0.445275018    0   0   1
O0       0.250000000   0.200000000   0.449039874    0   0   1
O0       0.000000000   0.500000000   0.494972672    0   0   1
O0       0.000000000   0.000000000   0.527302122    0   0   1
Mn1      0.250000000   0.000000000   0.577226425    0   0   1
Mn1      0.000000000   0.500000000   0.574311501    0   0   1
O0       0.250000000   0.700000000   0.589330373    0   0   1
O0       0.250000000   0.300000000   0.589465865    0   0   1
O0       0.000000000   0.000000000   0.628033811    0   0   1
O0       0.500000000   0.000000000   0.371590969    0   0   1
O0       0.500000000   0.500000000   0.390570099    0   0   1
Mn1      0.750000000   0.500000000   0.444846924    0   0   1
Mn1      0.500000000   0.000000000   0.447052546    0   0   1
O0       0.750000000   0.800000000   0.445275213    0   0   1
O0       0.750000000   0.200000000   0.449039928    0   0   1
O0       0.500000000   0.500000000   0.494973584    0   0   1
O0       0.500000000   0.000000000   0.527302168    0   0   1
Mn1      0.750000000   0.000000000   0.577226419    0   0   1
Mn1      0.500000000   0.500000000   0.574314493    0   0   1
O0       0.750000000   0.700000000   0.589330358    0   0   1
O0       0.750000000   0.300000000   0.589465875    0   0   1
O0       0.500000000   0.000000000   0.628032374    0   0   1
H2       0.000549172   0.648257835   0.375310590
H2       0.500549534   0.648257178   0.375310427
H2       0.161091412   0.045226399   0.361279019
H2       0.661092533   0.045226586   0.361278715
End final coordinates

     General routines

     Parallel routines
     Hubbard U routines

   This run was terminated on:  13:45: 2  10May2014

   JOB DONE.