     Program PWSCF v.5.0.2 (svn rev. 9656) starts on 24Jan2014 at 15:16:17

     Current dimensions of program PWSCF are:
     Max number of different atomic species (ntypx) = 10
     Max number of k-points (npk) =  40000
     Max angular momentum in pseudopotentials (lmaxx) =  3
     Reading input from RuO2-v-1.10.in

     Subspace diagonalization in iterative solution of the eigenvalue problem:
     a serial algorithm will be used

     bravais-lattice index     =            0
     lattice parameter (alat)  =       9.0393  a.u.
     unit-cell volume          =     475.9884 (a.u.)^3
     number of atoms/cell      =            6
     number of atomic types    =            2
     number of electrons       =        56.00
     number of Kohn-Sham states=           81
     kinetic-energy cutoff     =      40.0000  Ry
     charge density cutoff     =     500.0000  Ry
     convergence threshold     =      1.0E-06
     mixing beta               =       0.3000
     number of iterations used =            8  plain     mixing
     Exchange-correlation      = SLA  PW   PBE  PBE ( 1 4 3 4 0)
     EXX-fraction              =        0.00
     nstep                     =           50

     celldm(1)=   9.039345  celldm(2)=   0.000000  celldm(3)=   0.000000
     celldm(4)=   0.000000  celldm(5)=   0.000000  celldm(6)=   0.000000

     crystal axes: (cart. coord. in units of alat)
               a(1) = (   1.000000   0.000000   0.000000 )
               a(2) = (   0.000000   1.000000   0.000000 )
               a(3) = (   0.000000   0.000000   0.644444 )

     reciprocal axes: (cart. coord. in units 2 pi/alat)
               b(1) = (  1.000000  0.000000  0.000000 )
               b(2) = (  0.000000  1.000000  0.000000 )
               b(3) = (  0.000000  0.000000  1.551724 )

     PseudoPot. # 1 for Ru read from file:
     /home/camp/zhonxu/pseudo/ru_pbe_v1.uspp.F.UPF
     MD5 check sum: df00be1c11b23341d9806d8f1dfa10cf
     Pseudo is Ultrasoft + core correction, Zval = 16.0
     Generated by new atomic code, or converted to UPF format
     Using radial grid of  967 points,  6 beta functions with:
                l(1) =   0
                l(2) =   0
                l(3) =   1
                l(4) =   1
                l(5) =   2
                l(6) =   2
     Q(r) pseudized with  8 coefficients,  rinner =    1.300   1.300   1.300
                                                       1.300   1.300

     PseudoPot. # 2 for O  read from file:
     /home/camp/zhonxu/pseudo/o_pbe_v1.01.uspp.F.UPF
     MD5 check sum: 2bcb18d16ea4b960afae9ec6d52f22d2
     Pseudo is Ultrasoft + core correction, Zval =  6.0
     Generated by new atomic code, or converted to UPF format
     Using radial grid of  737 points,  5 beta functions with:
                l(1) =   0
                l(2) =   0
                l(3) =   1
                l(4) =   1
                l(5) =   2
     Q(r) pseudized with  8 coefficients,  rinner =    0.900   0.900   0.900
                                                       0.900   0.900

     atomic species   valence    mass     pseudopotential
        Ru0           16.00   101.07000     Ru( 1.00)
        O1             6.00    15.99940     O ( 1.00)

     Starting magnetic structure
     atomic species   magnetization
        Ru0          0.600
        O1           0.000

      8 Sym. Ops., with inversion, found
          (note:  8 additional sym.ops. were found but ignored
           their fractional translations are incommensurate with FFT grid)

   Cartesian axes

     site n.     atom                  positions (alat units)
         1           Ru0 tau(   1) = (   0.0000000   0.0000000   0.0000000  )
         2           Ru0 tau(   2) = (   0.5000000   0.5000000   0.3222222  )
         3           O1  tau(   3) = (   0.3050000   0.3050000   0.0000000  )
         4           O1  tau(   4) = (  -0.3050000  -0.3050000   0.0000000  )
         5           O1  tau(   5) = (   0.8050000   0.1950000   0.3222222  )
         6           O1  tau(   6) = (   0.1950000   0.8050000   0.3222222  )

     number of k points=    54  Methfessel-Paxton smearing, width (Ry)=  0.0100
                       cart. coord. in units 2pi/alat
        k(    1) = (   0.0000000   0.0000000   0.0000000), wk =   0.0080000
        k(    2) = (   0.0000000   0.0000000   0.3103448), wk =   0.0160000
        k(    3) = (   0.0000000   0.0000000   0.6206897), wk =   0.0160000
        k(    4) = (   0.0000000   0.2000000   0.0000000), wk =   0.0320000
        k(    5) = (   0.0000000   0.2000000   0.3103448), wk =   0.0640000
        k(    6) = (   0.0000000   0.2000000   0.6206897), wk =   0.0640000
        k(    7) = (   0.0000000   0.4000000   0.0000000), wk =   0.0320000
        k(    8) = (   0.0000000   0.4000000   0.3103448), wk =   0.0640000
        k(    9) = (   0.0000000   0.4000000   0.6206897), wk =   0.0640000
        k(   10) = (   0.2000000   0.2000000   0.0000000), wk =   0.0160000
        k(   11) = (   0.2000000   0.2000000   0.3103448), wk =   0.0320000
        k(   12) = (   0.2000000   0.2000000   0.6206897), wk =   0.0320000
        k(   13) = (   0.2000000   0.4000000   0.0000000), wk =   0.0320000
        k(   14) = (   0.2000000   0.4000000   0.3103448), wk =   0.0640000
        k(   15) = (   0.2000000   0.4000000   0.6206897), wk =   0.0640000
        k(   16) = (   0.4000000   0.4000000   0.0000000), wk =   0.0160000
        k(   17) = (   0.4000000   0.4000000   0.3103448), wk =   0.0320000
        k(   18) = (   0.4000000   0.4000000   0.6206897), wk =   0.0320000
        k(   19) = (  -0.2000000   0.2000000   0.0000000), wk =   0.0160000
        k(   20) = (  -0.2000000   0.2000000  -0.3103448), wk =   0.0320000
        k(   21) = (  -0.2000000   0.2000000  -0.6206897), wk =   0.0320000
        k(   22) = (  -0.2000000   0.4000000   0.0000000), wk =   0.0320000
        k(   23) = (  -0.2000000   0.4000000  -0.3103448), wk =   0.0640000
        k(   24) = (  -0.2000000   0.4000000  -0.6206897), wk =   0.0640000
        k(   25) = (  -0.4000000   0.4000000   0.0000000), wk =   0.0160000
        k(   26) = (  -0.4000000   0.4000000  -0.3103448), wk =   0.0320000
        k(   27) = (  -0.4000000   0.4000000  -0.6206897), wk =   0.0320000
        k(   28) = (   0.0000000   0.0000000   0.0000000), wk =   0.0080000
        k(   29) = (   0.0000000   0.0000000   0.3103448), wk =   0.0160000
        k(   30) = (   0.0000000   0.0000000   0.6206897), wk =   0.0160000
        k(   31) = (   0.0000000   0.2000000   0.0000000), wk =   0.0320000
        k(   32) = (   0.0000000   0.2000000   0.3103448), wk =   0.0640000
        k(   33) = (   0.0000000   0.2000000   0.6206897), wk =   0.0640000
        k(   34) = (   0.0000000   0.4000000   0.0000000), wk =   0.0320000
        k(   35) = (   0.0000000   0.4000000   0.3103448), wk =   0.0640000
        k(   36) = (   0.0000000   0.4000000   0.6206897), wk =   0.0640000
        k(   37) = (   0.2000000   0.2000000   0.0000000), wk =   0.0160000
        k(   38) = (   0.2000000   0.2000000   0.3103448), wk =   0.0320000
        k(   39) = (   0.2000000   0.2000000   0.6206897), wk =   0.0320000
        k(   40) = (   0.2000000   0.4000000   0.0000000), wk =   0.0320000
        k(   41) = (   0.2000000   0.4000000   0.3103448), wk =   0.0640000
        k(   42) = (   0.2000000   0.4000000   0.6206897), wk =   0.0640000
        k(   43) = (   0.4000000   0.4000000   0.0000000), wk =   0.0160000
        k(   44) = (   0.4000000   0.4000000   0.3103448), wk =   0.0320000
        k(   45) = (   0.4000000   0.4000000   0.6206897), wk =   0.0320000
        k(   46) = (  -0.2000000   0.2000000   0.0000000), wk =   0.0160000
        k(   47) = (  -0.2000000   0.2000000  -0.3103448), wk =   0.0320000
        k(   48) = (  -0.2000000   0.2000000  -0.6206897), wk =   0.0320000
        k(   49) = (  -0.2000000   0.4000000   0.0000000), wk =   0.0320000
        k(   50) = (  -0.2000000   0.4000000  -0.3103448), wk =   0.0640000
        k(   51) = (  -0.2000000   0.4000000  -0.6206897), wk =   0.0640000
        k(   52) = (  -0.4000000   0.4000000   0.0000000), wk =   0.0160000
        k(   53) = (  -0.4000000   0.4000000  -0.3103448), wk =   0.0320000
        k(   54) = (  -0.4000000   0.4000000  -0.6206897), wk =   0.0320000

     Largest allocated arrays     est. size (Mb)     dimensions
     Largest temporary arrays     est. size (Mb)     dimensions

     Check: negative/imaginary core charge=   -0.000008    0.000000

     Initial potential from superposition of free atoms
     Check: negative starting charge=(component1):   -0.106231
     Check: negative starting charge=(component2):   -0.026351

     starting charge   53.99996, renormalised to   56.00000

     negative rho (up, down):  0.110E+00 0.273E-01
     Starting wfc are   42 randomized atomic wfcs

     Self-consistent Calculation

     iteration #  1     ecut=    40.00 Ry     beta=0.30
     Davidson diagonalization with overlap
     ethr =  1.00E-02,  avg # of iterations =  5.2

     negative rho (up, down):  0.934E-01 0.517E-01

     total energy              =    -514.03577197 Ry
     Harris-Foulkes estimate   =    -515.26952043 Ry
     estimated scf accuracy    <       4.79067656 Ry

     total magnetization       =     8.00 Bohr mag/cell
     absolute magnetization    =     8.13 Bohr mag/cell

[...]

     End of self-consistent calculation

 ------ SPIN UP ------------

          k = 0.0000 0.0000 0.0000 (  2023 PWs)   bands (ev):

   -62.6936 -62.6903 -32.7673 -32.7658 -32.5876 -32.5858 -32.4737 -32.4618
    -8.5428  -7.6540  -7.0454  -7.0449   3.3478   3.3586   4.6021   4.8487
     4.8494   6.8787   6.8787   7.3333   8.4263   8.7183   8.7185   8.9289
     9.1512   9.6461   9.6791   9.6810   9.8512  11.6080  12.2051  14.7429
    14.7438  15.6245  16.2222  20.3445  20.3447  23.4818  24.0762  24.6722
    25.9004  27.0556  27.0559  28.0799  28.8990  30.6412  31.7894  31.7894
    32.8616  32.8618  34.0762  35.4212  35.7402  35.7405  36.6214  38.4160
    38.5589  38.6490  38.9025  39.8176  40.3354  40.3354  41.0045  41.0048
    41.4830  41.4830  42.1290  44.0379  44.9383  46.4930  46.4934  47.0480
    47.7740  47.9238  47.9239  48.4507  48.4832  48.6711  48.6713  48.9739
    49.7402

[...]

          k =-0.2000 0.2000 0.0000 (  2027 PWs)   bands (ev):

[...]

 ------ SPIN DOWN ----------

[...]

     the Fermi energy is    10.8803 ev

!    total energy              =    -515.55702743 Ry
     Harris-Foulkes estimate   =    -515.55702733 Ry
     estimated scf accuracy    <       0.00000029 Ry

     The total energy is the sum of the following terms:

     one-electron contribution =    -192.87440994 Ry
     hartree contribution      =     124.37898727 Ry
     xc contribution           =     -78.04633107 Ry
     ewald contribution        =    -369.01517210 Ry
     smearing contrib. (-TS)   =      -0.00010160 Ry

[...]

     convergence has been achieved in  17 iterations

     Forces acting on atoms (Ry/au):

     negative rho (up, down):  0.709E-01 0.746E-01
     atom    1 type  1   force =     0.00000000    0.00000000    0.00000000
     atom    2 type  1   force =     0.00000000    0.00000000    0.00000000
[...]
        k(   13) = (   0.2029992   0.4059879   0.0000000), wk =   0.0320000
        k(   14) = (   0.2029992   0.4059879   0.3012630), wk =   0.0640000
        k(   15) = (   0.2029992   0.4059879   0.6025260), wk =   0.0640000
        k(   16) = (   0.4059914   0.4059914   0.0000000), wk =   0.0160000
        k(   17) = (   0.4059914   0.4059914   0.3012630), wk =   0.0320000
        k(   18) = (   0.4059914   0.4059914   0.6025260), wk =   0.0320000
        k(   19) = (  -0.2029887   0.2029887   0.0000000), wk =   0.0160000
        k(   20) = (  -0.2029887   0.2029887  -0.3012630), wk =   0.0320000
        k(   21) = (  -0.2029887   0.2029887  -0.6025260), wk =   0.0320000
        k(   22) = (  -0.2029853   0.4059809   0.0000000), wk =   0.0320000
        k(   23) = (  -0.2029853   0.4059809  -0.3012630), wk =   0.0640000
        k(   24) = (  -0.2029853   0.4059809  -0.6025260), wk =   0.0640000
        k(   25) = (  -0.4059775   0.4059775   0.0000000), wk =   0.0160000
        k(   26) = (  -0.4059775   0.4059775  -0.3012630), wk =   0.0320000
        k(   27) = (  -0.4059775   0.4059775  -0.6025260), wk =   0.0320000
        k(   28) = (   0.0000000   0.0000000   0.0000000), wk =   0.0080000
        k(   29) = (   0.0000000   0.0000000   0.3012630), wk =   0.0160000
        k(   30) = (   0.0000000   0.0000000   0.6025260), wk =   0.0160000
        k(   31) = (   0.0000035   0.2029922   0.0000000), wk =   0.0320000
        k(   32) = (   0.0000035   0.2029922   0.3012630), wk =   0.0640000
        k(   33) = (   0.0000035   0.2029922   0.6025260), wk =   0.0640000
        k(   34) = (   0.0000070   0.4059844   0.0000000), wk =   0.0320000
        k(   35) = (   0.0000070   0.4059844   0.3012630), wk =   0.0640000
        k(   36) = (   0.0000070   0.4059844   0.6025260), wk =   0.0640000
        k(   37) = (   0.2029957   0.2029957   0.0000000), wk =   0.0160000
        k(   38) = (   0.2029957   0.2029957   0.3012630), wk =   0.0320000
        k(   39) = (   0.2029957   0.2029957   0.6025260), wk =   0.0320000
        k(   40) = (   0.2029992   0.4059879   0.0000000), wk =   0.0320000
        k(   41) = (   0.2029992   0.4059879   0.3012630), wk =   0.0640000
        k(   42) = (   0.2029992   0.4059879   0.6025260), wk =   0.0640000
        k(   43) = (   0.4059914   0.4059914   0.0000000), wk =   0.0160000
        k(   44) = (   0.4059914   0.4059914   0.3012630), wk =   0.0320000
        k(   45) = (   0.4059914   0.4059914   0.6025260), wk =   0.0320000
        k(   46) = (  -0.2029887   0.2029887   0.0000000), wk =   0.0160000
        k(   47) = (  -0.2029887   0.2029887  -0.3012630), wk =   0.0320000
        k(   48) = (  -0.2029887   0.2029887  -0.6025260), wk =   0.0320000
        k(   49) = (  -0.2029853   0.4059809   0.0000000), wk =   0.0320000
        k(   50) = (  -0.2029853   0.4059809  -0.3012630), wk =   0.0640000
        k(   51) = (  -0.2029853   0.4059809  -0.6025260), wk =   0.0640000
        k(   52) = (  -0.4059775   0.4059775   0.0000000), wk =   0.0160000
        k(   53) = (  -0.4059775   0.4059775  -0.3012630), wk =   0.0320000
        k(   54) = (  -0.4059775   0.4059775  -0.6025260), wk =   0.0320000

     Check: negative/imaginary core charge=   -0.000007    0.000000
     Check: negative starting charge=(component1):   -0.132508

[...]

     Threshold (ethr) on eigenvalues was too large:
     Diagonalizing with lowered threshold

     Davidson diagonalization with overlap
     ethr =  2.60E-08,  avg # of iterations =  1.0

[...]

     Total force =     0.000036     Total SCF correction =     0.000051
     SCF correction compared to forces is large: reduce conv_thr to get better values

[...]

     Volume is kept fixed: isostatic pressure set to zero

     bfgs converged in   8 scf cycles and   7 bfgs steps
     (criteria: energy < 0.10E-03, force < 0.10E-02, cell < 0.50E+00)

     End of BFGS Geometry Optimization

     Final enthalpy =    -515.5619443120 Ry
Begin final coordinates
     new unit-cell volume =    475.98838 a.u.^3 (    70.53420 Ang^3 )

CELL_PARAMETERS (alat=  9.03934487)
   0.985259507  -0.000016874   0.000000000
  -0.000016874   0.985259507   0.000000000
   0.000000000   0.000000000   0.663871793

ATOMIC_POSITIONS (crystal)
Ru0      0.000000000   0.000000000   0.000000000    0   0   0
Ru0      0.500000000   0.500000000   0.500000000    0   0   0
O1       0.307489063   0.307489063   0.000000000    1   1   0
O1      -0.307489063  -0.307489063   0.000000000    1   1   0
O1       0.807487790   0.192512210   0.500000000    1   1   0
O1       0.192512210   0.807487790   0.500000000    1   1   0
End final coordinates

     A final scf calculation at the relaxed structure.
     The G-vectors are recalculated for the final unit cell
     Results may differ from those at the preceding step.

     bravais-lattice index     =            0
     lattice parameter (alat)  =       9.0393  a.u.
     unit-cell volume          =     475.9884 (a.u.)^3
     number of atoms/cell      =            6
     number of atomic types    =            2
     number of electrons       =        56.00
     number of Kohn-Sham states=           81
     kinetic-energy cutoff     =      40.0000  Ry
     charge density cutoff     =     500.0000  Ry
     convergence threshold     =      1.0E-08
     mixing beta               =       0.3000
     number of iterations used =            8  plain     mixing
     Exchange-correlation      = SLA  PW   PBE  PBE ( 1 4 3 4 0)
     EXX-fraction              =        0.00

     celldm(1)=   9.039345  celldm(2)=   0.000000  celldm(3)=   0.000000
     celldm(4)=   0.000000  celldm(5)=   0.000000  celldm(6)=   0.000000

     crystal axes: (cart. coord. in units of alat)
               a(1) = (   0.985260  -0.000017   0.000000 )
               a(2) = (  -0.000017   0.985260   0.000000 )
               a(3) = (   0.000000   0.000000   0.663872 )

     reciprocal axes: (cart. coord. in units 2 pi/alat)
               b(1) = (  1.014961  0.000017 -0.000000 )
               b(2) = (  0.000017  1.014961 -0.000000 )
               b(3) = ( -0.000000 -0.000000  1.506315 )

     PseudoPot. # 1 for Ru read from file:
     /home/camp/zhonxu/pseudo/ru_pbe_v1.uspp.F.UPF
     MD5 check sum: df00be1c11b23341d9806d8f1dfa10cf
     Pseudo is Ultrasoft + core correction, Zval = 16.0
     Generated by new atomic code, or converted to UPF format
     Using radial grid of  967 points,  6 beta functions with:
                l(1) =   0
                l(2) =   0
                l(3) =   1
                l(4) =   1
                l(5) =   2
                l(6) =   2
     Q(r) pseudized with  8 coefficients,  rinner =    1.300   1.300   1.300
                                                       1.300   1.300

     PseudoPot. # 2 for O  read from file:
     /home/camp/zhonxu/pseudo/o_pbe_v1.01.uspp.F.UPF
     MD5 check sum: 2bcb18d16ea4b960afae9ec6d52f22d2
     Pseudo is Ultrasoft + core correction, Zval =  6.0
     Generated by new atomic code, or converted to UPF format
     Using radial grid of  737 points,  5 beta functions with:
                l(1) =   0
                l(2) =   0
                l(3) =   1
                l(4) =   1
                l(5) =   2
     Q(r) pseudized with  8 coefficients,  rinner =    0.900   0.900   0.900
                                                       0.900   0.900

     atomic species   valence    mass     pseudopotential
        Ru0           16.00   101.07000     Ru( 1.00)
        O1             6.00    15.99940     O ( 1.00)

     Starting magnetic structure
     atomic species   magnetization
        Ru0          0.600
        O1           0.000

      8 Sym. Ops., with inversion, found
          (note:  8 additional sym.ops. were found but ignored
           their fractional translations are incommensurate with FFT grid)

   Cartesian axes

     site n.     atom                  positions (alat units)
         1           Ru0 tau(   1) = (   0.0000000   0.0000000   0.0000000  )
         2           Ru0 tau(   2) = (   0.4926213   0.4926213   0.3319359  )
         3           O1  tau(   3) = (   0.3029513   0.3029513   0.0000000  )
         4           O1  tau(   4) = (  -0.3029513  -0.3029513   0.0000000  )
         5           O1  tau(   5) = (   0.7955818   0.1896609   0.3319359  )
         6           O1  tau(   6) = (   0.1896609   0.7955818   0.3319359  )

     number of k points=    54  Methfessel-Paxton smearing, width (Ry)=  0.0100
                       cart. coord. in units 2pi/alat
        k(    1) = (   0.0000000   0.0000000   0.0000000), wk =   0.0080000
        k(    2) = (   0.0000000   0.0000000   0.3012630), wk =   0.0160000
        k(    3) = (   0.0000000   0.0000000   0.6025260), wk =   0.0160000
        k(    4) = (   0.0000035   0.2029922   0.0000000), wk =   0.0320000
        k(    5) = (   0.0000035   0.2029922   0.3012630), wk =   0.0640000
        k(    6) = (   0.0000035   0.2029922   0.6025260), wk =   0.0640000
        k(    7) = (   0.0000070   0.4059844   0.0000000), wk =   0.0320000
        k(    8) = (   0.0000070   0.4059844   0.3012630), wk =   0.0640000
        k(    9) = (   0.0000070   0.4059844   0.6025260), wk =   0.0640000
        k(   10) = (   0.2029957   0.2029957   0.0000000), wk =   0.0160000
        k(   11) = (   0.2029957   0.2029957   0.3012630), wk =   0.0320000
        k(   12) = (   0.2029957   0.2029957   0.6025260), wk =   0.0320000
        k(   13) = (   0.2029992   0.4059879   0.0000000), wk =   0.0320000
        k(   14) = (   0.2029992   0.4059879   0.3012630), wk =   0.0640000
        k(   15) = (   0.2029992   0.4059879   0.6025260), wk =   0.0640000
        k(   16) = (   0.4059914   0.4059914   0.0000000), wk =   0.0160000
        k(   17) = (   0.4059914   0.4059914   0.3012630), wk =   0.0320000
        k(   18) = (   0.4059914   0.4059914   0.6025260), wk =   0.0320000
        k(   19) = (  -0.2029887   0.2029887   0.0000000), wk =   0.0160000
        k(   20) = (  -0.2029887   0.2029887  -0.3012630), wk =   0.0320000
        k(   21) = (  -0.2029887   0.2029887  -0.6025260), wk =   0.0320000
        k(   22) = (  -0.2029853   0.4059809   0.0000000), wk =   0.0320000
        k(   23) = (  -0.2029853   0.4059809  -0.3012630), wk =   0.0640000
        k(   24) = (  -0.2029853   0.4059809  -0.6025260), wk =   0.0640000
        k(   25) = (  -0.4059775   0.4059775   0.0000000), wk =   0.0160000
        k(   26) = (  -0.4059775   0.4059775  -0.3012630), wk =   0.0320000
        k(   27) = (  -0.4059775   0.4059775  -0.6025260), wk =   0.0320000
        k(   28) = (   0.0000000   0.0000000   0.0000000), wk =   0.0080000
        k(   29) = (   0.0000000   0.0000000   0.3012630), wk =   0.0160000
        k(   30) = (   0.0000000   0.0000000   0.6025260), wk =   0.0160000
        k(   31) = (   0.0000035   0.2029922   0.0000000), wk =   0.0320000
        k(   32) = (   0.0000035   0.2029922   0.3012630), wk =   0.0640000
        k(   33) = (   0.0000035   0.2029922   0.6025260), wk =   0.0640000
        k(   34) = (   0.0000070   0.4059844   0.0000000), wk =   0.0320000
        k(   35) = (   0.0000070   0.4059844   0.3012630), wk =   0.0640000
        k(   36) = (   0.0000070   0.4059844   0.6025260), wk =   0.0640000
        k(   37) = (   0.2029957   0.2029957   0.0000000), wk =   0.0160000
        k(   38) = (   0.2029957   0.2029957   0.3012630), wk =   0.0320000
        k(   39) = (   0.2029957   0.2029957   0.6025260), wk =   0.0320000
        k(   40) = (   0.2029992   0.4059879   0.0000000), wk =   0.0320000
        k(   41) = (   0.2029992   0.4059879   0.3012630), wk =   0.0640000
        k(   42) = (   0.2029992   0.4059879   0.6025260), wk =   0.0640000
        k(   43) = (   0.4059914   0.4059914   0.0000000), wk =   0.0160000
        k(   44) = (   0.4059914   0.4059914   0.3012630), wk =   0.0320000
        k(   45) = (   0.4059914   0.4059914   0.6025260), wk =   0.0320000
        k(   46) = (  -0.2029887   0.2029887   0.0000000), wk =   0.0160000
        k(   47) = (  -0.2029887   0.2029887  -0.3012630), wk =   0.0320000
        k(   48) = (  -0.2029887   0.2029887  -0.6025260), wk =   0.0320000
        k(   49) = (  -0.2029853   0.4059809   0.0000000), wk =   0.0320000
        k(   50) = (  -0.2029853   0.4059809  -0.3012630), wk =   0.0640000
        k(   51) = (  -0.2029853   0.4059809  -0.6025260), wk =   0.0640000
        k(   52) = (  -0.4059775   0.4059775   0.0000000), wk =   0.0160000
        k(   53) = (  -0.4059775   0.4059775  -0.3012630), wk =   0.0320000
        k(   54) = (  -0.4059775   0.4059775  -0.6025260), wk =   0.0320000

     Largest allocated arrays     est. size (Mb)     dimensions
     Largest temporary arrays     est. size (Mb)     dimensions

     Check: negative/imaginary core charge=   -0.000008    0.000000

     Initial potential from superposition of free atoms
     Check: negative starting charge=(component1):   -0.103456
     Check: negative starting charge=(component2):   -0.025647

     starting charge   53.99996, renormalised to   56.00000

     negative rho (up, down):  0.107E+00 0.266E-01
     Starting wfc are   42 randomized atomic wfcs

     Self-consistent Calculation

[...]

     total energy              =    -515.56205492 Ry
     Harris-Foulkes estimate   =    -515.56205491 Ry
     estimated scf accuracy    <       0.00000001 Ry

[...]

     iteration # 24     ecut=    40.00 Ry     beta=0.30
     Davidson diagonalization with overlap
     ethr =  2.02E-11,  avg # of iterations =  2.0

     negative rho (up, down):  0.713E-01 0.713E-01

     End of self-consistent calculation

 ------ SPIN UP ------------

[...]

 ------ SPIN DOWN ----------

[...]

          k = 0.4060 0.4060 0.6025 (  2042 PWs)   bands (ev):

[...]

          k =-0.4060 0.4060-0.6025 (  2042 PWs)   bands (ev):

   -62.5890 -62.5836 -32.7369 -32.7312 -32.4993 -32.4936 -32.3850 -32.3786
    -7.5253  -7.4510  -7.3845  -7.3141   4.4956   4.5866   4.7637   4.8078
     5.3454   5.6420   6.5094   6.6038   7.5108   7.6690   8.2385   8.4916
     9.9997  10.3633  10.4267  10.4873  10.9313  11.3165  12.9368  13.5741
    13.8268  14.4398  20.6378  21.0496  22.0228  22.4738  23.2257  23.4048
    24.3092  24.7321  27.5382  27.6157  29.0141  29.5038  31.0362  31.9320
    32.6441  32.7200  33.0011  34.0380  36.5695  36.6411  37.3197  37.8034
    39.0057  39.5037  39.9469  41.0693  41.0779  41.9133  42.0467  42.7117
    42.8643  43.0303  43.3928  44.1770  44.8323  45.2185  45.7233  46.8157
    47.3573  47.4369  47.6585  47.9532  48.4993  49.2725  50.0991  50.6154
    51.6518

     the Fermi energy is    10.8134 ev

!    total energy              =    -515.56205494 Ry
     Harris-Foulkes estimate   =    -515.56205494 Ry
     estimated scf accuracy    <          6.0E-09 Ry

     The total energy is the sum of the following terms:

     one-electron contribution =    -190.05339124 Ry
     hartree contribution      =     122.99845581 Ry
     xc contribution           =     -78.01468638 Ry
     ewald contribution        =    -370.49190904 Ry
     smearing contrib. (-TS)   =      -0.00052410 Ry

     total magnetization       =     0.00 Bohr mag/cell
     absolute magnetization    =     0.02 Bohr mag/cell

     convergence has been achieved in  24 iterations

     Forces acting on atoms (Ry/au):

     negative rho (up, down):  0.713E-01 0.713E-01
     atom    1 type  1   force =     0.00000000    0.00000000    0.00000000
     atom    2 type  1   force =     0.00000000    0.00000000    0.00000000
     atom    3 type  2   force =     0.00009709    0.00009709    0.00000000
     atom    4 type  2   force =    -0.00009709   -0.00009709    0.00000000
     atom    5 type  2   force =     0.00010473   -0.00010473    0.00000000
     atom    6 type  2   force =    -0.00010473    0.00010473    0.00000000

     Total force =     0.000286     Total SCF correction =     0.000022

     entering subroutine stress ...

     negative rho (up, down):  0.713E-01 0.713E-01
          total   stress  (Ry/bohr**3)                   (kbar)     P= -205.31
  -0.00140089   0.00000034   0.00000000       -206.08      0.05      0.00
   0.00000034  -0.00140089   0.00000000          0.05   -206.08      0.00
   0.00000000   0.00000000  -0.00138519          0.00      0.00   -203.77

     General routines

     Parallel routines

   This run was terminated on:  16:37: 4  24Jan2014

   JOB DONE.
Running PBS batch system epilogue script
Job id: 251902.audhumbla.fysik.dtu.dk
Username: zhonxu
Groupname: campgst
Jobname: RuO2/fine-EOS/ferro/RuO2-v-1.10
Sessionid: 12021
Queuename: verylong
Accounting:
This job has allocated the following 4 nodes:
q082 q082 q082 q082
Finished epilogue job 251902.audhumbla.fysik.dtu.dk for zhonxu