     Program PWSCF v.5.0.2 (svn rev. 9656) starts on  1Jun2014 at 15:50: 5

     Current dimensions of program PWSCF are:
     Max number of different atomic species (ntypx) = 10
     Max number of k-points (npk) =  40000
     Max angular momentum in pseudopotentials (lmaxx) =  3
     Reading input from pwscf.in
Warning: card &CELL ignored
Warning: card / ignored

     Subspace diagonalization in iterative solution of the eigenvalue problem:
     a serial algorithm will be used

     bravais-lattice index     =            0
     lattice parameter (alat)  =      10.7336  a.u.
     unit-cell volume          =    6184.1966 (a.u.)^3
     number of atoms/cell      =           33
     number of atomic types    =            3
     number of electrons       =       245.00 (up: 134.00, down: 111.00)
     number of Kohn-Sham states=          355
     kinetic-energy cutoff     =      40.0000  Ry
     charge density cutoff     =     500.0000  Ry
     convergence threshold     =      1.0E-06
     mixing beta               =       0.7000
     number of iterations used =            8  plain     mixing
     Exchange-correlation      = SLA  PW   PBE  PBE ( 1 4 3 4 0)
     EXX-fraction              =        0.00
     nstep                     =           50

     celldm(1)=  10.733644  celldm(2)=   0.000000  celldm(3)=   0.000000
     celldm(4)=   0.000000  celldm(5)=   0.000000  celldm(6)=   0.000000

     crystal axes: (cart. coord. in units of alat)
               a(1) = (   1.000000   0.000000   0.000000 )
               a(2) = (   0.000000   1.085558   0.000000 )
               a(3) = (   0.000000   0.000000   4.606685 )

     reciprocal axes: (cart. coord. in units 2 pi/alat)
               b(1) = (  1.000000  0.000000  0.000000 )
               b(2) = (  0.000000  0.921185  0.000000 )
               b(3) = (  0.000000  0.000000  0.217076 )

     PseudoPot. # 1 for O  read from file:
     /home/camp/zhonxu/pseudo/o_pbe_v1.01.uspp.F.UPF
     MD5 check sum: 2bcb18d16ea4b960afae9ec6d52f22d2
     Pseudo is Ultrasoft + core correction, Zval =  6.0
     Generated by new atomic code, or converted to UPF format
     Using radial grid of  737 points,  5 beta functions with:
                l(1) =   0
                l(2) =   0
                l(3) =   1
                l(4) =   1
                l(5) =   2
     Q(r) pseudized with  8 coefficients,  rinner =    0.900   0.900   0.900
                                                       0.900   0.900

     PseudoPot. # 2 for Mn read from file:
     /home/camp/zhonxu/pseudo/mn_pbe_v1.uspp.F.UPF
     MD5 check sum: 5fd7c7b5c956fd19902447332617373a
     Pseudo is Ultrasoft + core correction, Zval = 15.0
     Generated by new atomic code, or converted to UPF format
     Using radial grid of  859 points,  6 beta functions with:
                l(1) =   0
                l(2) =   0
                l(3) =   1
                l(4) =   1
                l(5) =   2
                l(6) =   2
     Q(r) pseudized with  6 coefficients,  rinner =    1.150   1.150   1.150
                                                       1.150   1.150

     PseudoPot. # 3 for H  read from file:
     /home/camp/zhonxu/pseudo/h_pbe_v1.uspp.F.UPF
     MD5 check sum: 3408e3ff4ec8b0a4e358431e7e038a48
     Pseudo is Ultrasoft, Zval =  1.0
     Generated by new atomic code, or converted to UPF format
     Using radial grid of  615 points,  2 beta functions with:
                l(1) =   0
                l(2) =   0
     Q(r) pseudized with  8 coefficients,  rinner =    0.700

     atomic species   valence    mass     pseudopotential
        O0             6.00    15.99940     O ( 1.00)
        Mn1           15.00    54.93800     Mn( 1.00)
        H2             1.00     1.00794     H ( 1.00)

     Starting magnetic structure
     atomic species   magnetization
        O0           0.000
        Mn1          0.600
        H2           0.000

     Simplified LDA+U calculation (l_max = 2) with parameters (eV):
     atomic species    L          U    alpha       J0     beta
        Mn1            2     1.0000   0.0000   0.0000   0.0000

     No symmetry found

   Cartesian axes

     site n.     atom                  positions (alat units)
         1           O0  tau(   1) = (   0.0000000   0.0000000   1.7457494  )
         2           O0  tau(   2) = (   0.0000000   0.5427791   1.8442864  )
         3           Mn1 tau(   3) = (   0.2500000   0.5427791   2.0803790  )
         4           Mn1 tau(   4) = (   0.0000000   0.0000000   2.0733307  )
         5           O0  tau(   5) = (   0.2500000   0.8684466   2.0718105  )
         6           O0  tau(   6) = (   0.2500000   0.2171117   2.0783981  )
         7           O0  tau(   7) = (   0.0000000   0.5427791   2.2929314  )
         8           O0  tau(   8) = (   0.0000000   0.0000000   2.4163906  )
         9           Mn1 tau(   9) = (   0.2500000   0.0000000   2.6432698  )
        10           Mn1 tau(  10) = (   0.0000000   0.5427791   2.6163668  )
        11           O0  tau(  11) = (   0.2500000   0.7598908   2.6487057  )
        12           O0  tau(  12) = (   0.2500000   0.3256675   2.6647830  )
        13           O0  tau(  13) = (   0.0000000   0.0000000   2.8448584  )
        14           O0  tau(  14) = (   0.5000000   0.0000000   1.7464864  )
        15           O0  tau(  15) = (   0.5000000   0.5427791   1.8448852  )
        16           Mn1 tau(  16) = (   0.7500000   0.5427791   2.0803790  )
        17           Mn1 tau(  17) = (   0.5000000   0.0000000   2.0744363  )
        18           O0  tau(  18) = (   0.7500000   0.8684466   2.0716723  )
        19           O0  tau(  19) = (   0.7500000   0.2171117   2.0786745  )
        20           O0  tau(  20) = (   0.5000000   0.5427791   2.2968932  )
        21           O0  tau(  21) = (   0.5000000   0.0000000   2.4162984  )
        22           Mn1 tau(  22) = (   0.7500000   0.0000000   2.6433159  )
        23           Mn1 tau(  23) = (   0.5000000   0.5427791   2.6660729  )
        24           O0  tau(  24) = (   0.7500000   0.7598908   2.6487057  )
        25           O0  tau(  25) = (   0.7500000   0.3256675   2.6648291  )
        26           O0  tau(  26) = (   0.5000000   0.0000000   2.8426011  )
        27           H2  tau(  27) = (   0.0000600   0.7014769   1.7682761  )
        28           H2  tau(  28) = (   0.5000200   0.7014226   1.7687367  )
        29           H2  tau(  29) = (   0.1615100   0.0393949   1.6915287  )
        30           H2  tau(  30) = (   0.6615300   0.0393515   1.6922658  )
        31           O0  tau(  31) = (   0.4998600   0.5845297   2.9855926  )
        32           O0  tau(  32) = (   0.5002900   0.3746370   3.1260965  )
        33           H2  tau(  33) = (   0.4998600   0.4487589   3.2835069  )

     number of k points=    20  Methfessel-Paxton smearing, width (Ry)=  0.0100
                       cart. coord. in units 2pi/alat
        k(    1) = (   0.0000000   0.0000000   0.0000000), wk =   0.0625000
        k(    2) = (   0.0000000   0.2302962   0.0000000), wk =   0.1250000
        k(    3) = (   0.0000000  -0.4605925   0.0000000), wk =   0.0625000
        k(    4) = (   0.2500000   0.0000000   0.0000000), wk =   0.1250000
        k(    5) = (   0.2500000   0.2302962   0.0000000), wk =   0.1250000
        k(    6) = (   0.2500000  -0.4605925   0.0000000), wk =   0.1250000
        k(    7) = (  -0.5000000   0.0000000   0.0000000), wk =   0.0625000
        k(    8) = (  -0.5000000   0.2302962   0.0000000), wk =   0.1250000
        k(    9) = (  -0.5000000  -0.4605925   0.0000000), wk =   0.0625000
        k(   10) = (  -0.2500000   0.2302962   0.0000000), wk =   0.1250000
        k(   11) = (   0.0000000   0.0000000   0.0000000), wk =   0.0625000
        k(   12) = (   0.0000000   0.2302962   0.0000000), wk =   0.1250000
        k(   13) = (   0.0000000  -0.4605925   0.0000000), wk =   0.0625000
        k(   14) = (   0.2500000   0.0000000   0.0000000), wk =   0.1250000
        k(   15) = (   0.2500000   0.2302962   0.0000000), wk =   0.1250000
        k(   16) = (   0.2500000  -0.4605925   0.0000000), wk =   0.1250000
        k(   17) = (  -0.5000000   0.0000000   0.0000000), wk =   0.0625000
        k(   18) = (  -0.5000000   0.2302962   0.0000000), wk =   0.1250000
        k(   19) = (  -0.5000000  -0.4605925   0.0000000), wk =   0.0625000
        k(   20) = (  -0.2500000   0.2302962   0.0000000), wk =   0.1250000

     Largest allocated arrays     est. size (Mb)     dimensions
     Largest temporary arrays     est. size (Mb)     dimensions

     Check: negative/imaginary core charge=   -0.000022    0.000000

     Initial potential from superposition of free atoms
     Check: negative starting charge=(component1):   -0.000643
     Check: negative starting charge=(component2):   -0.000358

     starting charge  236.99986, renormalised to  245.00000

     negative rho (up, down):  0.665E-03 0.370E-03
     Number of +U iterations with fixed ns =  0
     Starting occupations:
 --- enter write_ns ---
 LDA+U parameters:
U( 2)     =  1.00000000
alpha( 2) =  0.00000000
atom    3   Tr[ns(na)] (up, down, total) =   5.00000  0.00000  5.00000
   spin  1
    eigenvalues:
  1.000  1.000  1.000  1.000  1.000
    eigenvectors:
  1.000  0.000  0.000  0.000  0.000
  0.000  1.000  0.000  0.000  0.000
  0.000  0.000  1.000  0.000  0.000
  0.000  0.000  0.000  1.000  0.000
  0.000  0.000  0.000  0.000  1.000
    occupations:
  1.000  0.000  0.000  0.000  0.000
  0.000  1.000  0.000  0.000  0.000
  0.000  0.000  1.000  0.000  0.000
  0.000  0.000  0.000  1.000  0.000
  0.000  0.000  0.000  0.000  1.000
   spin  2
    eigenvalues:
  0.000  0.000  0.000  0.000  0.000
    eigenvectors:
  1.000  0.000  0.000  0.000  0.000
  0.000  1.000  0.000  0.000  0.000
  0.000  0.000  1.000  0.000  0.000
  0.000  0.000  0.000  1.000  0.000
  0.000  0.000  0.000  0.000  1.000
    occupations:
  0.000  0.000  0.000  0.000  0.000
  0.000  0.000  0.000  0.000  0.000
  0.000  0.000  0.000  0.000  0.000
  0.000  0.000  0.000  0.000  0.000
  0.000  0.000  0.000  0.000  0.000
atomic mag. moment =     5.000000
atom    4   Tr[ns(na)] (up, down, total) =   5.00000  0.00000  5.00000
   spin  1
    eigenvalues:
  1.000  1.000  1.000  1.000  1.000
    eigenvectors:
  1.000  0.000  0.000  0.000  0.000
  0.000  1.000  0.000  0.000  0.000
  0.000  0.000  1.000  0.000  0.000
  0.000  0.000  0.000  1.000  0.000
  0.000  0.000  0.000  0.000  1.000
    occupations:
  1.000  0.000  0.000  0.000  0.000
  0.000  1.000  0.000  0.000  0.000
  0.000  0.000  1.000  0.000  0.000
  0.000  0.000  0.000  1.000  0.000
  0.000  0.000  0.000  0.000  1.000
   spin  2
    eigenvalues:
  0.000  0.000  0.000  0.000  0.000
    eigenvectors:
  1.000  0.000  0.000  0.000  0.000
  0.000  1.000  0.000  0.000  0.000
  0.000  0.000  1.000  0.000  0.000
  0.000  0.000  0.000  1.000  0.000
  0.000  0.000  0.000  0.000  1.000
    occupations:
  0.000  0.000  0.000  0.000  0.000
  0.000  0.000  0.000  0.000  0.000
  0.000  0.000  0.000  0.000  0.000
  0.000  0.000  0.000  0.000  0.000
  0.000  0.000  0.000  0.000  0.000
atomic mag. moment =     5.000000
[...]
  0.000  0.999  0.000  0.000  0.001
  0.000  0.001  0.000  0.007  0.992
  0.000  0.000  0.001  0.991  0.007
  0.000  0.000  0.998  0.001  0.000
  1.000  0.000  0.000  0.000  0.000
    occupations:
  0.602 -0.012 -0.005  0.005 -0.000
 -0.012  1.002  0.000 -0.000  0.001
 -0.005  0.000  0.997  0.000  0.000
  0.005 -0.000  0.000  0.989  0.000
 -0.000  0.001  0.000  0.000  0.557
   spin  2
    eigenvalues:
  0.130  0.186  0.226  0.406  0.416
    eigenvectors:
  0.001  0.005  0.000  0.001  0.993
  0.000  0.947  0.048  0.000  0.005
  0.000  0.047  0.952  0.000  0.001
  0.998  0.001  0.000  0.000  0.001
  0.000  0.000  0.000  0.999  0.001
    occupations:
  0.414  0.016  0.005 -0.010 -0.000
  0.016  0.189 -0.008  0.000 -0.002
  0.005 -0.008  0.224  0.001 -0.000
 -0.010  0.000  0.001  0.131 -0.000
 -0.000 -0.002 -0.000 -0.000  0.406
atomic mag. moment =     2.783360
atom    9   Tr[ns(na)] (up, down, total) =   4.05500  1.52305  5.57805
   spin  1
    eigenvalues:
  0.598  0.604  0.909  0.954  0.990
    eigenvectors:
  0.199  0.000  0.000  0.001  0.799
  0.002  0.998  0.000  0.000  0.000
  0.000  0.000  0.030  0.968  0.001
  0.798  0.002  0.000  0.000  0.200
  0.000  0.000  0.969  0.030  0.000
    occupations:
  0.912 -0.002 -0.001 -0.157 -0.001
 -0.002  0.604  0.000  0.001 -0.000
 -0.001  0.000  0.953 -0.006  0.008
 -0.157  0.001 -0.006  0.677  0.001
 -0.001 -0.000  0.008  0.001  0.910
   spin  2
    eigenvalues:
  0.196  0.222  0.236  0.416  0.453
    eigenvectors:
  0.838  0.000  0.000  0.161  0.000
  0.000  0.000  0.000  0.000  1.000
  0.000  0.998  0.001  0.001  0.000
  0.162  0.000  0.000  0.838  0.000
  0.000  0.001  0.999  0.000  0.000
    occupations:
  0.232  0.001  0.002  0.081  0.000
  0.001  0.453 -0.000 -0.001  0.001
  0.002 -0.000  0.222  0.005 -0.000
  0.081 -0.001  0.005  0.381 -0.001
  0.000  0.001 -0.000 -0.001  0.236
atomic mag. moment =     2.531954
atom   10   Tr[ns(na)] (up, down, total) =   4.31963  1.13222  5.45185
   spin  1
    eigenvalues:
  0.577  0.760  0.991  0.992  1.000
    eigenvectors:
  0.000  0.996  0.000  0.003  0.000
  0.000  0.000  1.000  0.000  0.000
  0.000  0.000  0.000  0.003  0.997
  0.000  0.003  0.000  0.994  0.003
  1.000  0.000  0.000  0.000  0.000
    occupations:
  0.761 -0.000  0.002  0.014 -0.000
 -0.000  0.990 -0.000 -0.000 -0.007
  0.002 -0.000  1.000  0.000 -0.000
  0.014 -0.000  0.000  0.991 -0.000
 -0.000 -0.007 -0.000 -0.000  0.578
   spin  2
    eigenvalues:
  0.125  0.173  0.176  0.265  0.393
    eigenvectors:
  0.010  0.000  0.000  0.990  0.000
  0.000  0.003  0.996  0.000  0.001
  0.002  0.994  0.003  0.001  0.000
  0.988  0.003  0.000  0.010  0.000
  0.000  0.000  0.001  0.000  0.999
    occupations:
  0.264 -0.000 -0.002 -0.014  0.000
 -0.000  0.176 -0.000 -0.000  0.005
 -0.002 -0.000  0.173 -0.002  0.000
 -0.014 -0.000 -0.002  0.126  0.000
  0.000  0.005  0.000  0.000  0.393
atomic mag. moment =     3.187414
atom   16   Tr[ns(na)] (up, down, total) =   4.16589  1.34401  5.50990
   spin  1
    eigenvalues:
  0.581  0.596  0.992  0.992  1.005
    eigenvectors:
  0.099  0.154  0.730  0.010  0.006
  0.629  0.370  0.000  0.001  0.000
  0.000  0.000  0.006  0.000  0.993
  0.272  0.475  0.249  0.004  0.001
  0.000  0.000  0.014  0.985  0.000
    occupations:
  0.890 -0.008 -0.004 -0.175 -0.000
 -0.008  0.587 -0.000 -0.004 -0.011
 -0.004 -0.000  1.005 -0.005 -0.000
 -0.175 -0.004 -0.005  0.692 -0.000
 -0.000 -0.011 -0.000 -0.000  0.992
   spin  2
    eigenvalues:
  0.136  0.183  0.226  0.397  0.403
    eigenvectors:
  0.774  0.000  0.001  0.104  0.121
  0.000  0.003  0.000  0.539  0.458
  0.001  0.007  0.991  0.000  0.000
  0.225  0.000  0.000  0.356  0.419
  0.000  0.990  0.007  0.002  0.001
    occupations:
  0.195  0.001 -0.001  0.110 -0.001
  0.001  0.399 -0.000  0.003  0.012
 -0.001 -0.000  0.226  0.004  0.004
  0.110  0.003  0.004  0.341 -0.000
 -0.001  0.012  0.004 -0.000  0.184
atomic mag. moment =     2.821883
atom   17   Tr[ns(na)] (up, down, total) =   4.14531  1.36516  5.51048
   spin  1
    eigenvalues:
  0.557  0.601  0.989  0.997  1.001
    eigenvectors:
  0.000  0.999  0.000  0.000  0.001
  0.000  0.001  0.000  0.010  0.988
  0.000  0.000  0.001  0.988  0.010
  0.000  0.000  0.998  0.001  0.000
  1.000  0.000  0.000  0.000  0.000
    occupations:
  0.602 -0.012 -0.005  0.004 -0.000
 -0.012  1.001  0.000 -0.000  0.001
 -0.005  0.000  0.997  0.000  0.000
  0.004 -0.000  0.000  0.989  0.000
 -0.000  0.001  0.000  0.000  0.557
   spin  2
    eigenvalues:
  0.131  0.185  0.227  0.405  0.417
    eigenvectors:
  0.001  0.005  0.000  0.000  0.993
  0.000  0.949  0.046  0.000  0.004
  0.000  0.046  0.953  0.000  0.001
  0.998  0.001  0.000  0.000  0.001
  0.000  0.000  0.000  1.000  0.000
    occupations:
  0.416  0.016  0.005 -0.010 -0.000
  0.016  0.188 -0.008  0.000 -0.002
  0.005 -0.008  0.225  0.001 -0.000
 -0.010  0.000  0.001  0.131 -0.000
 -0.000 -0.002 -0.000 -0.000  0.405
atomic mag. moment =     2.780153
atom   22   Tr[ns(na)] (up, down, total) =   4.05457  1.52369  5.57826
   spin  1
    eigenvalues:
  0.598  0.604  0.908  0.954  0.990
    eigenvectors:
  0.192  0.008  0.000  0.002  0.799
  0.043  0.956  0.000  0.000  0.000
  0.000  0.000  0.032  0.966  0.001
  0.765  0.036  0.000  0.000  0.200
  0.000  0.000  0.968  0.032  0.000
    occupations:
  0.912  0.003 -0.001 -0.157  0.001
  0.003  0.603 -0.000 -0.000 -0.000
 -0.001 -0.000  0.953 -0.006 -0.008
 -0.157 -0.000 -0.006  0.676 -0.001
  0.001 -0.000 -0.008 -0.001  0.910
   spin  2
    eigenvalues:
  0.197  0.222  0.236  0.417  0.453
    eigenvectors:
  0.838  0.000  0.000  0.161  0.000
  0.000  0.000  0.000  0.000  1.000
  0.000  0.998  0.001  0.001  0.000
  0.161  0.000  0.000  0.838  0.000
  0.000  0.001  0.999  0.000  0.000
    occupations:
  0.232 -0.001  0.002  0.081 -0.000
 -0.001  0.453  0.000  0.001  0.001
  0.002  0.000  0.222  0.005  0.000
  0.081  0.001  0.005  0.381  0.001
 -0.000  0.001  0.000  0.001  0.236
atomic mag. moment =     2.530874
atom   23   Tr[ns(na)] (up, down, total) =   4.15358  1.34486  5.49843
   spin  1
    eigenvalues:
  0.586  0.604  0.972  0.992  1.000
    eigenvectors:
  0.000  0.997  0.000  0.000  0.003
  0.000  0.000  1.000  0.000  0.000
  0.000  0.003  0.000  0.001  0.996
  0.000  0.000  0.000  0.999  0.001
  1.000  0.000  0.000  0.000  0.000
    occupations:
  0.606 -0.000  0.023  0.000 -0.000
 -0.000  0.971 -0.000 -0.000 -0.008
  0.023 -0.000  0.999 -0.000  0.000
  0.000 -0.000 -0.000  0.992 -0.000
 -0.000 -0.008  0.000 -0.000  0.586
   spin  2
    eigenvalues:
  0.141  0.185  0.220  0.376  0.423
    eigenvectors:
  0.000  0.001  0.000  0.999  0.000
  0.000  0.000  0.999  0.000  0.001
  0.001  0.998  0.000  0.001  0.000
  0.999  0.001  0.000  0.000  0.000
  0.000  0.000  0.001  0.000  0.999
    occupations:
  0.375  0.000 -0.007 -0.003 -0.000
  0.000  0.220  0.000  0.000  0.005
 -0.007  0.000  0.185 -0.001  0.000
 -0.003  0.000 -0.001  0.141 -0.000
 -0.000  0.005  0.000 -0.000  0.422
atomic mag. moment =     2.808719
N of occupied +U levels =  44.1483721
 --- exit write_ns ---

 ------ SPIN UP ------------

[...]

 ------ SPIN DOWN ----------

[...]

          k = 0.2500-0.4606 0.0000 ( 26462 PWs)   bands (ev):

[...]

          k =-0.2500 0.2303 0.0000 ( 26396 PWs)   bands (ev):

   -80.0857 -80.0776 -80.0445 -79.8396 -79.8311 -79.7983 -79.7845 -79.4215
   -48.9975 -48.9160 -48.8999 -48.8633 -48.8524 -48.8058 -48.8035 -48.7900
   -48.7574 -48.7550 -48.7447 -48.7217 -48.7150 -48.6542 -48.6527 -48.6206
   -48.6008 -48.4328 -48.4159 -48.4043 -48.3954 -48.3914 -48.2769 -47.9698
   -24.5854 -21.1871 -20.7648 -20.3431 -20.0969 -19.8424 -19.6137 -19.5065
   -19.4132 -19.3504 -19.2542 -19.1926 -19.1592 -19.0195 -18.9842 -18.8242
   -18.6550 -18.3361 -18.1924 -17.6103  -9.2920  -8.7223  -8.4571  -7.9453
    -7.8918  -7.7781  -7.7646  -7.3889  -7.2458  -7.1507  -7.0677  -7.0206
    -6.9132  -6.8018  -6.6298  -6.5949  -6.4963  -6.4343  -6.3871  -6.2956
    -6.2258  -6.0505  -5.9732  -5.7985  -5.7303  -5.7075  -5.6163  -5.3800
    -5.1539  -5.1062  -5.0160  -4.9000  -4.8393  -4.7937  -4.7485  -4.6364
    -4.5766  -4.4579  -4.3312  -4.2052  -4.0775  -4.0276  -3.9220  -3.8028
    -3.6538  -3.5597  -3.4759  -3.4333  -3.3358  -3.1342  -2.9778  -2.9414
    -2.8909  -2.6448  -2.4962  -2.4339  -2.2629  -2.0658  -1.9620  -0.3344
    -0.2946  -0.1617  -0.1349  -0.0603  -0.0125   0.0420   0.0867   0.1921
     0.2378   0.2926   0.3877   0.4386   0.4927   0.5223   0.6333   0.7440
     0.7511   0.8836   0.9930   1.0845   1.1562   1.2146   1.3354   1.4247
     1.5323   1.6313   1.8183   2.0381   2.0894   2.2120   2.2544   2.5698
     2.6072   2.9186   3.0061   3.0272   3.2528   3.2907   3.4099   3.4788
     3.9330   4.1117   4.3252   4.8511   5.4348   5.5964   5.8518   6.0377
     6.2605   6.3008   6.4148   6.5541   6.8641   6.9625   7.1866   7.5207
     7.6490   7.7959   8.0062   8.1586   8.3728   8.4489   8.5514   8.6930
     8.8765   9.0073   9.2514   9.2954   9.4969   9.6092   9.7661   9.8596
     9.9638  10.0646  10.1209  10.2141  10.2921  10.4605  10.5488  10.6094
    10.7650  10.8708  10.9453  11.0430  11.1106  11.3284  11.3655  11.4738
    11.5874  11.7027  11.7744  11.8478  11.9115  12.0531  12.1456  12.2241
    12.2828  12.3527  12.4857  12.5152  12.6037  12.6215  12.7937  12.8783
    12.9191  13.0215  13.1019  13.2132  13.2720  13.3705  13.4820  13.5355
    13.6150  13.6864  13.7159  13.7799  13.9636  14.0262  14.0757  14.1815
    14.2893  14.3479  14.3998  14.4299  14.4679  14.6114  14.6844  14.8060
    14.8451  14.9274  14.9523  15.0351  15.1633  15.2453  15.3033  15.3277
    15.4516  15.5156  15.5811  15.6603  15.6857  15.7750  15.8520  15.9133
    16.0247  16.0980  16.1875  16.2347  16.2851  16.3631  16.4641  16.5020
    16.5649  16.6223  16.6613  16.7620  16.8756  16.9146  17.0096  17.0554
    17.1724  17.1896  17.3194  17.3503  17.4556  17.5704  17.5846  17.6521
    17.6981  17.7732  17.8757  17.8917  17.9983  18.0319  18.0793  18.1806
    18.2412  18.3401  18.4032  18.4475  18.5585  18.6238  18.6765  18.7422
    18.8155  18.8442  18.9320  18.9825  19.0450  19.1108  19.1819  19.2374
    19.4084  19.4738  19.5643  19.6204  19.6783  19.7151  19.8173  19.8793
    19.9710  20.0413  20.0636  20.2372  20.2590  20.3331  20.4412  20.5095
    20.5800  20.6872  20.7541  20.8514  20.9144  20.9711  21.0467  21.1485
    21.2014  21.2490  21.3095  21.3753  21.4651  21.5291  21.6063  21.7060
    21.8077  21.9034  21.9690  22.0370  22.1086  22.2224  22.2376  22.3287
    22.4056  22.4870  22.5769  22.6472  22.7085  22.7461  22.7983  22.8765
    22.9793  23.0555  23.1270

     the spin up/dw Fermi energies are    -1.2396   -1.8077 ev

!    total energy              =   -2353.86532343 Ry
     Harris-Foulkes estimate   =   -2353.86532343 Ry
     estimated scf accuracy    <          7.7E-10 Ry

     The total energy is the sum of the following terms:

     one-electron contribution =  -27248.47305382 Ry
     hartree contribution      =   13650.20742815 Ry
     xc contribution           =    -356.03801469 Ry
     ewald contribution        =   11600.01195252 Ry
     Hubbard energy            =       0.42728836 Ry
     smearing contrib. (-TS)   =      -0.00092395 Ry

     total magnetization       =    23.00 Bohr mag/cell
     absolute magnetization    =    25.57 Bohr mag/cell

     convergence has been achieved in  16 iterations

     Forces acting on atoms (Ry/au):

     negative rho (up, down):  0.215E-02 0.126E-02
     atom    1 type  1   force =    -0.00529232   -0.01605790   -0.00067016
     atom    2 type  1   force =     0.00026752    0.01231175    0.00019394
     atom    3 type  2   force =     0.02306845   -0.00419038    0.00013285
     atom    4 type  2   force =     0.00505973    0.01177127   -0.00024820
     atom    5 type  1   force =     0.00229788    0.00703412    0.00025288
     atom    6 type  1   force =    -0.00354357   -0.00993844    0.00018972
     atom    7 type  1   force =     0.00002922   -0.00159629   -0.00011796
     atom    8 type  1   force =    -0.00068363    0.00284490    0.00001862
     atom    9 type  2   force =     0.00171395    0.00023885    0.00019491
     atom   10 type  2   force =    -0.00006441   -0.00318902   -0.00010267
     atom   11 type  1   force =    -0.01430386   -0.04712320   -0.00014388
     atom   12 type  1   force =    -0.00974772    0.05697375   -0.00017267
     atom   13 type  1   force =    -0.00028848   -0.00436911   -0.00004786
     atom   14 type  1   force =    -0.00547800   -0.01611679   -0.00046803
     atom   15 type  1   force =     0.00026904    0.01266753    0.00014432
     atom   16 type  2   force =    -0.02387465   -0.00411491    0.00012973
     atom   17 type  2   force =     0.00497479    0.01191391   -0.00025698
     atom   18 type  1   force =     0.00414069    0.00692777    0.00024945
     atom   19 type  1   force =    -0.00170730   -0.00993782    0.00017966
     atom   20 type  1   force =    -0.00002804   -0.00169166    0.00045931
     atom   21 type  1   force =    -0.00065933    0.00253963    0.00009688
     atom   22 type  2   force =    -0.00076235    0.00024017    0.00020472
     atom   23 type  2   force =    -0.00006440   -0.00641959    0.00000731
     atom   24 type  1   force =     0.01448701   -0.04710071   -0.00015112
     atom   25 type  1   force =     0.00979389    0.05708537   -0.00015788
     atom   26 type  1   force =    -0.00026005   -0.01203335   -0.00010370
     atom   27 type  3   force =    -0.00000985   -0.00005138    0.00004206
     atom   28 type  3   force =    -0.00000647   -0.00007978   -0.00006108
     atom   29 type  3   force =     0.00038757    0.00006737    0.00010270
     atom   30 type  3   force =     0.00025503    0.00007778    0.00001942
     atom   31 type  1   force =    -0.00009169    0.00004640   -0.00061429
     atom   32 type  1   force =     0.00019709    0.00053179    0.00040374
     atom   33 type  3   force =    -0.00007574    0.00073798    0.00029426

     Total force =     0.001811     Total SCF correction =     0.000079

     entering subroutine stress ...

     negative rho (up, down):  0.215E-02 0.126E-02
          total   stress  (Ry/bohr**3)                   (kbar)     P=    8.74
   0.00007143  -0.00000442   0.00000497         10.51     -0.65      0.73
  -0.00000442   0.00016530   0.00000460         -0.65     24.32      0.68
   0.00000497   0.00000460  -0.00005849          0.73      0.68     -8.60

     bfgs converged in  12 scf cycles and  11 bfgs steps
     (criteria: energy < 0.10E-03, force < 0.10E-02)

     End of BFGS Geometry Optimization

     Final energy   =   -2353.8653234284 Ry
Begin final coordinates

ATOMIC_POSITIONS (crystal)
O0       0.000000000   0.000000000   0.378518192    0   0   1
O0       0.000000000   0.500000000   0.400053103    0   0   1
Mn1      0.250000000   0.500000000   0.451324255    0   0   1
Mn1      0.000000000   0.000000000   0.449790785    0   0   1
O0       0.250000000   0.800000000   0.449392313    0   0   1
O0       0.250000000   0.200000000   0.450988404    0   0   1
O0       0.000000000   0.500000000   0.497456153    0   0   1
O0       0.000000000   0.000000000   0.524583427    0   0   1
Mn1      0.250000000   0.000000000   0.573705931    0   0   1
Mn1      0.000000000   0.500000000   0.568787026    0   0   1
O0       0.250000000   0.700000000   0.575919888    0   0   1
O0       0.250000000   0.300000000   0.579407077    0   0   1
O0       0.000000000   0.000000000   0.618065757    0   0   1
O0       0.500000000   0.000000000   0.378699263    0   0   1
O0       0.500000000   0.500000000   0.400105229    0   0   1
Mn1      0.750000000   0.500000000   0.451326500    0   0   1
Mn1      0.500000000   0.000000000   0.450047725    0   0   1
O0       0.750000000   0.800000000   0.449396012    0   0   1
O0       0.750000000   0.200000000   0.450997061    0   0   1
O0       0.500000000   0.500000000   0.499089319    0   0   1
O0       0.500000000   0.000000000   0.524503764    0   0   1
Mn1      0.750000000   0.000000000   0.573719961    0   0   1
Mn1      0.500000000   0.500000000   0.576456542    0   0   1
O0       0.750000000   0.700000000   0.575906491    0   0   1
O0       0.750000000   0.300000000   0.579419527    0   0   1
O0       0.500000000   0.000000000   0.617612581    0   0   1
H2       0.000123519   0.647044248   0.383907279
H2       0.500125778   0.647090576   0.383980421
H2       0.161728153   0.036428585   0.366932221
H2       0.661619937   0.036526053   0.367073113
O0       0.499703743   0.542554208   0.648943921
O0       0.500644950   0.350228291   0.678257962
H2       0.499720260   0.414161921   0.712942798
End final coordinates

     General routines

     Parallel routines
     Hubbard U routines

   This run was terminated on:  15:52:35   2Jun2014

   JOB DONE.