     Program PWSCF v.5.0.2 (svn rev. 9656) starts on  6Jun2014 at  3:17: 3

     Current dimensions of program PWSCF are:
     Max number of different atomic species (ntypx) = 10
     Max number of k-points (npk) =  40000
     Max angular momentum in pseudopotentials (lmaxx) =  3
     Reading input from pwscf.in
Warning: card &CELL ignored
Warning: card / ignored

     Subspace diagonalization in iterative solution of the eigenvalue problem:
     a serial algorithm will be used

     bravais-lattice index     =            0
     lattice parameter (alat)  =      10.7336  a.u.
     unit-cell volume          =    6184.1966 (a.u.)^3
     number of atoms/cell      =           33
     number of atomic types    =            3
     number of electrons       =       245.00 (up: 134.00, down: 111.00)
     number of Kohn-Sham states=          355
     kinetic-energy cutoff     =      40.0000  Ry
     charge density cutoff     =     500.0000  Ry
     convergence threshold     =      1.0E-06
     mixing beta               =       0.7000
     number of iterations used =            8  plain     mixing
     Exchange-correlation      = SLA  PW   PBE  PBE ( 1 4 3 4 0)
     EXX-fraction              =        0.00
     nstep                     =           50

     celldm(1)=  10.733644  celldm(2)=   0.000000  celldm(3)=   0.000000
     celldm(4)=   0.000000  celldm(5)=   0.000000  celldm(6)=   0.000000

     crystal axes: (cart. coord. in units of alat)
               a(1) = (   1.000000   0.000000   0.000000 )
               a(2) = (   0.000000   1.085558   0.000000 )
               a(3) = (   0.000000   0.000000   4.606685 )

     reciprocal axes: (cart. coord. in units 2 pi/alat)
               b(1) = (  1.000000  0.000000  0.000000 )
               b(2) = (  0.000000  0.921185  0.000000 )
               b(3) = (  0.000000  0.000000  0.217076 )

     PseudoPot. # 1 for O  read from file:
     /home/camp/zhonxu/pseudo/o_pbe_v1.01.uspp.F.UPF
     MD5 check sum: 2bcb18d16ea4b960afae9ec6d52f22d2
     Pseudo is Ultrasoft + core correction, Zval =  6.0
     Generated by new atomic code, or converted to UPF format
     Using radial grid of  737 points,  5 beta functions with:
                l(1) =   0
                l(2) =   0
                l(3) =   1
                l(4) =   1
                l(5) =   2
     Q(r) pseudized with  8 coefficients,  rinner =    0.900   0.900   0.900
                                                       0.900   0.900

     PseudoPot. # 2 for Mn read from file:
     /home/camp/zhonxu/pseudo/mn_pbe_v1.uspp.F.UPF
     MD5 check sum: 5fd7c7b5c956fd19902447332617373a
     Pseudo is Ultrasoft + core correction, Zval = 15.0
     Generated by new atomic code, or converted to UPF format
     Using radial grid of  859 points,  6 beta functions with:
                l(1) =   0
                l(2) =   0
                l(3) =   1
                l(4) =   1
                l(5) =   2
                l(6) =   2
     Q(r) pseudized with  6 coefficients,  rinner =    1.150   1.150   1.150
                                                       1.150   1.150

     PseudoPot. # 3 for H  read from file:
     /home/camp/zhonxu/pseudo/h_pbe_v1.uspp.F.UPF
     MD5 check sum: 3408e3ff4ec8b0a4e358431e7e038a48
     Pseudo is Ultrasoft, Zval =  1.0
     Generated by new atomic code, or converted to UPF format
     Using radial grid of  615 points,  2 beta functions with:
                l(1) =   0
                l(2) =   0
     Q(r) pseudized with  8 coefficients,  rinner =    0.700

     atomic species   valence    mass     pseudopotential
        O0             6.00    15.99940     O ( 1.00)
        Mn1           15.00    54.93800     Mn( 1.00)
        H2             1.00     1.00794     H ( 1.00)

     Starting magnetic structure
     atomic species   magnetization
        O0           0.000
        Mn1          0.600
        H2           0.000

     Simplified LDA+U calculation (l_max = 2) with parameters (eV):
     atomic species    L          U    alpha       J0     beta
        Mn1            2     7.0000   0.0000   0.0000   0.0000

     No symmetry found

   Cartesian axes

     site n.     atom                  positions (alat units)
         1           O0  tau(   1) = (   0.0000000   0.0000000   1.7038746  )
         2           O0  tau(   2) = (   0.0000000   0.5427791   1.7944881  )
         3           Mn1 tau(   3) = (   0.2500000   0.5427791   2.0426502  )
         4           Mn1 tau(   4) = (   0.0000000   0.0000000   2.0485468  )
         5           O0  tau(   5) = (   0.2500000   0.8684466   2.0368919  )
         6           O0  tau(   6) = (   0.2500000   0.2171117   2.0613994  )
         7           O0  tau(   7) = (   0.0000000   0.5427791   2.2697598  )
         8           O0  tau(   8) = (   0.0000000   0.0000000   2.4137187  )
         9           Mn1 tau(   9) = (   0.2500000   0.0000000   2.6428552  )
        10           Mn1 tau(  10) = (   0.0000000   0.5427791   2.6297722  )
        11           O0  tau(  11) = (   0.2500000   0.7598908   2.6953714  )
        12           O0  tau(  12) = (   0.2500000   0.3256675   2.7001163  )
        13           O0  tau(  13) = (   0.0000000   0.0000000   2.8752164  )
        14           O0  tau(  14) = (   0.5000000   0.0000000   1.7040589  )
        15           O0  tau(  15) = (   0.5000000   0.5427791   1.7932904  )
        16           Mn1 tau(  16) = (   0.7500000   0.5427791   2.0426042  )
        17           Mn1 tau(  17) = (   0.5000000   0.0000000   2.0484546  )
        18           O0  tau(  18) = (   0.7500000   0.8684466   2.0377211  )
        19           O0  tau(  19) = (   0.7500000   0.2171117   2.0612152  )
        20           O0  tau(  20) = (   0.5000000   0.5427791   2.2727541  )
        21           O0  tau(  21) = (   0.5000000   0.0000000   2.4135805  )
        22           Mn1 tau(  22) = (   0.7500000   0.0000000   2.6428092  )
        23           Mn1 tau(  23) = (   0.5000000   0.5427791   2.6425788  )
        24           O0  tau(  24) = (   0.7500000   0.7598908   2.6954175  )
        25           O0  tau(  25) = (   0.7500000   0.3256675   2.7000702  )
        26           O0  tau(  26) = (   0.5000000   0.0000000   2.8745715  )
        27           H2  tau(  27) = (   0.0007200   0.7023562   1.7217485  )
        28           H2  tau(  28) = (   0.5006300   0.7040063   1.7235451  )
        29           H2  tau(  29) = (   0.1600100   0.0543430   1.6586370  )
        30           H2  tau(  30) = (   0.6599900   0.0547990   1.6592358  )
        31           O0  tau(  31) = (   0.4995500   0.5934964   3.1378896  )
        32           O0  tau(  32) = (   0.5014100   0.3841139   3.2485882  )
        33           H2  tau(  33) = (   0.4990700   0.4245944   3.4189895  )

     number of k points=    20  Methfessel-Paxton smearing, width (Ry)=  0.0100
                       cart. coord. in units 2pi/alat
        k(    1) = (   0.0000000   0.0000000   0.0000000), wk =   0.0625000
        k(    2) = (   0.0000000   0.2302962   0.0000000), wk =   0.1250000
        k(    3) = (   0.0000000  -0.4605925   0.0000000), wk =   0.0625000
        k(    4) = (   0.2500000   0.0000000   0.0000000), wk =   0.1250000
        k(    5) = (   0.2500000   0.2302962   0.0000000), wk =   0.1250000
        k(    6) = (   0.2500000  -0.4605925   0.0000000), wk =   0.1250000
        k(    7) = (  -0.5000000   0.0000000   0.0000000), wk =   0.0625000
        k(    8) = (  -0.5000000   0.2302962   0.0000000), wk =   0.1250000
        k(    9) = (  -0.5000000  -0.4605925   0.0000000), wk =   0.0625000
        k(   10) = (  -0.2500000   0.2302962   0.0000000), wk =   0.1250000
        k(   11) = (   0.0000000   0.0000000   0.0000000), wk =   0.0625000
        k(   12) = (   0.0000000   0.2302962   0.0000000), wk =   0.1250000
        k(   13) = (   0.0000000  -0.4605925   0.0000000), wk =   0.0625000
        k(   14) = (   0.2500000   0.0000000   0.0000000), wk =   0.1250000
        k(   15) = (   0.2500000   0.2302962   0.0000000), wk =   0.1250000
        k(   16) = (   0.2500000  -0.4605925   0.0000000), wk =   0.1250000
        k(   17) = (  -0.5000000   0.0000000   0.0000000), wk =   0.0625000
        k(   18) = (  -0.5000000   0.2302962   0.0000000), wk =   0.1250000
        k(   19) = (  -0.5000000  -0.4605925   0.0000000), wk =   0.0625000
        k(   20) = (  -0.2500000   0.2302962   0.0000000), wk =   0.1250000

     Largest allocated arrays     est. size (Mb)     dimensions
     Largest temporary arrays     est. size (Mb)     dimensions

     Check: negative/imaginary core charge=   -0.000023    0.000000

     Initial potential from superposition of free atoms
     Check: negative starting charge=(component1):   -0.000585
     Check: negative starting charge=(component2):   -0.000328

     starting charge  236.99986, renormalised to  245.00000

     negative rho (up, down):  0.605E-03 0.339E-03
     Number of +U iterations with fixed ns =  0
     Starting occupations:
 --- enter write_ns ---
 LDA+U parameters:
U( 2)     =  7.00000000
alpha( 2) =  0.00000000
atom    3   Tr[ns(na)] (up, down, total) =   5.00000  0.00000  5.00000
   spin  1
    eigenvalues:
  1.000  1.000  1.000  1.000  1.000
    eigenvectors:
  1.000  0.000  0.000  0.000  0.000
  0.000  1.000  0.000  0.000  0.000
  0.000  0.000  1.000  0.000  0.000
  0.000  0.000  0.000  1.000  0.000
  0.000  0.000  0.000  0.000  1.000
    occupations:
  1.000  0.000  0.000  0.000  0.000
  0.000  1.000  0.000  0.000  0.000
  0.000  0.000  1.000  0.000  0.000
  0.000  0.000  0.000  1.000  0.000
  0.000  0.000  0.000  0.000  1.000
   spin  2
    eigenvalues:
  0.000  0.000  0.000  0.000  0.000
    eigenvectors:
  1.000  0.000  0.000  0.000  0.000
  0.000  1.000  0.000  0.000  0.000
  0.000  0.000  1.000  0.000  0.000
  0.000  0.000  0.000  1.000  0.000
  0.000  0.000  0.000  0.000  1.000
    occupations:
  0.000  0.000  0.000  0.000  0.000
  0.000  0.000  0.000  0.000  0.000
  0.000  0.000  0.000  0.000  0.000
  0.000  0.000  0.000  0.000  0.000
  0.000  0.000  0.000  0.000  0.000
atomic mag. moment =     5.000000
atom    4   Tr[ns(na)] (up, down, total) =   5.00000  0.00000  5.00000
   spin  1
    eigenvalues:
  1.000  1.000  1.000  1.000  1.000
    eigenvectors:
  1.000  0.000  0.000  0.000  0.000
  0.000  1.000  0.000  0.000  0.000
  0.000  0.000  1.000  0.000  0.000
  0.000  0.000  0.000  1.000  0.000
  0.000  0.000  0.000  0.000  1.000
    occupations:
  1.000  0.000  0.000  0.000  0.000
  0.000  1.000  0.000  0.000  0.000
  0.000  0.000  1.000  0.000  0.000
  0.000  0.000  0.000  1.000  0.000
  0.000  0.000  0.000  0.000  1.000
   spin  2
    eigenvalues:
  0.000  0.000  0.000  0.000  0.000
    eigenvectors:
  1.000  0.000  0.000  0.000  0.000
  0.000  1.000  0.000  0.000  0.000
  0.000  0.000  1.000  0.000  0.000
  0.000  0.000  0.000  1.000  0.000
  0.000  0.000  0.000  0.000  1.000
    occupations:
  0.000  0.000  0.000  0.000  0.000
  0.000  0.000  0.000  0.000  0.000
  0.000  0.000  0.000  0.000  0.000
  0.000  0.000  0.000  0.000  0.000
  0.000  0.000  0.000  0.000  0.000
atomic mag. moment =     5.000000
[...]
  0.067  0.074  0.079  0.258  0.317
    eigenvectors:
  0.008  0.001  0.000  0.991  0.000
  0.010  0.221  0.767  0.001  0.002
  0.042  0.725  0.232  0.001  0.000
  0.941  0.053  0.000  0.007  0.000
  0.000  0.000  0.001  0.000  0.998
    occupations:
  0.257  0.005  0.007 -0.015  0.000
  0.005  0.079 -0.002  0.000 -0.010
  0.007 -0.002  0.075  0.001  0.000
 -0.015  0.000  0.001  0.069 -0.000
  0.000 -0.010  0.000 -0.000  0.316
atomic mag. moment =     3.730714
atom    9   Tr[ns(na)] (up, down, total) =   4.49865  0.84763  5.34628
   spin  1
    eigenvalues:
  0.750  0.763  0.991  0.994  1.001
    eigenvectors:
  0.234  0.000  0.000  0.000  0.766
  0.000  1.000  0.000  0.000  0.000
  0.000  0.000  0.003  0.997  0.000
  0.766  0.000  0.000  0.000  0.234
  0.000  0.000  0.997  0.003  0.000
    occupations:
  0.942 -0.000 -0.000 -0.106 -0.000
 -0.000  0.763  0.000  0.000  0.000
 -0.000  0.000  0.994 -0.001  0.000
 -0.106  0.000 -0.001  0.809  0.000
 -0.000  0.000  0.000  0.000  0.991
   spin  2
    eigenvalues:
  0.070  0.081  0.087  0.304  0.306
    eigenvectors:
  0.805  0.000  0.000  0.019  0.176
  0.000  0.000  0.000  0.905  0.095
  0.000  0.000  1.000  0.000  0.000
  0.195  0.000  0.000  0.076  0.729
  0.000  1.000  0.000  0.000  0.000
    occupations:
  0.116  0.000  0.001  0.093 -0.000
  0.000  0.304 -0.000 -0.001 -0.000
  0.001 -0.000  0.087  0.001 -0.000
  0.093 -0.001  0.001  0.259 -0.000
 -0.000 -0.000 -0.000 -0.000  0.081
atomic mag. moment =     3.651023
atom   10   Tr[ns(na)] (up, down, total) =   4.70310  0.56114  5.26424
   spin  1
    eigenvalues:
  0.741  0.965  0.999  0.999  0.999
    eigenvectors:
  0.000  0.958  0.000  0.001  0.041
  0.000  0.000  0.996  0.004  0.000
  0.000  0.000  0.004  0.976  0.020
  0.000  0.042  0.000  0.019  0.938
  1.000  0.000  0.000  0.000  0.000
    occupations:
  0.967 -0.000  0.000  0.007  0.000
 -0.000  0.999  0.000  0.000 -0.002
  0.000  0.000  0.999 -0.000  0.000
  0.007  0.000 -0.000  0.998 -0.000
  0.000 -0.002  0.000 -0.000  0.741
   spin  2
    eigenvalues:
  0.055  0.061  0.068  0.117  0.261
    eigenvectors:
  0.044  0.000  0.000  0.956  0.000
  0.000  0.000  1.000  0.000  0.000
  0.000  1.000  0.000  0.000  0.000
  0.955  0.000  0.000  0.044  0.000
  0.000  0.000  0.000  0.000  1.000
    occupations:
  0.114  0.000 -0.000 -0.013 -0.000
  0.000  0.068 -0.000 -0.000  0.001
 -0.000 -0.000  0.061 -0.000 -0.000
 -0.013 -0.000 -0.000  0.058  0.000
 -0.000  0.001 -0.000  0.000  0.261
atomic mag. moment =     4.141955
atom   16   Tr[ns(na)] (up, down, total) =   4.52436  0.80387  5.32823
   spin  1
    eigenvalues:
  0.743  0.778  0.999  1.001  1.003
    eigenvectors:
  0.248  0.002  0.000  0.526  0.225
  0.005  0.994  0.001  0.000  0.000
  0.000  0.000  0.001  0.297  0.702
  0.747  0.004  0.000  0.176  0.073
  0.000  0.001  0.998  0.001  0.000
    occupations:
  0.937  0.000 -0.001 -0.112  0.000
  0.000  0.778 -0.000  0.003 -0.007
 -0.001 -0.000  1.002 -0.000  0.000
 -0.112  0.003 -0.000  0.808  0.000
  0.000 -0.007  0.000  0.000  0.999
   spin  2
    eigenvalues:
  0.061  0.076  0.085  0.272  0.310
    eigenvectors:
  0.773  0.000  0.001  0.001  0.225
  0.000  0.001  0.000  0.997  0.002
  0.002  0.002  0.995  0.000  0.000
  0.225  0.000  0.002  0.001  0.773
  0.000  0.997  0.002  0.001  0.000
    occupations:
  0.117  0.000 -0.003  0.104  0.000
  0.000  0.272  0.000 -0.002  0.007
 -0.003  0.000  0.085 -0.003 -0.000
  0.104 -0.002 -0.003  0.253 -0.000
  0.000  0.007 -0.000 -0.000  0.076
atomic mag. moment =     3.720490
atom   17   Tr[ns(na)] (up, down, total) =   4.52533  0.79569  5.32102
   spin  1
    eigenvalues:
  0.729  0.791  0.997  1.003  1.005
    eigenvectors:
  0.000  0.997  0.001  0.002  0.000
  0.000  0.001  0.000  0.771  0.228
  0.000  0.001  0.000  0.227  0.772
  0.000  0.001  0.999  0.000  0.000
  1.000  0.000  0.000  0.000  0.000
    occupations:
  0.792 -0.006 -0.007  0.007 -0.001
 -0.006  1.004 -0.001  0.000  0.004
 -0.007 -0.001  1.004  0.000 -0.000
  0.007  0.000  0.000  0.997 -0.000
 -0.001  0.004 -0.000 -0.000  0.729
   spin  2
    eigenvalues:
  0.067  0.074  0.080  0.259  0.317
    eigenvectors:
  0.008  0.001  0.000  0.991  0.000
  0.010  0.230  0.758  0.001  0.002
  0.041  0.717  0.241  0.001  0.000
  0.941  0.053  0.000  0.007  0.000
  0.000  0.000  0.001  0.000  0.998
    occupations:
  0.257  0.006  0.007 -0.015  0.000
  0.006  0.079 -0.003  0.000 -0.010
  0.007 -0.003  0.075  0.001  0.000
 -0.015  0.000  0.001  0.069 -0.000
  0.000 -0.010  0.000 -0.000  0.316
atomic mag. moment =     3.729638
atom   22   Tr[ns(na)] (up, down, total) =   4.49863  0.84762  5.34625
   spin  1
    eigenvalues:
  0.750  0.763  0.991  0.994  1.001
    eigenvectors:
  0.233  0.001  0.000  0.000  0.766
  0.005  0.995  0.000  0.000  0.000
  0.000  0.000  0.003  0.997  0.000
  0.762  0.004  0.000  0.000  0.234
  0.000  0.000  0.997  0.003  0.000
    occupations:
  0.942  0.001 -0.000 -0.106  0.000
  0.001  0.763  0.000  0.000  0.000
 -0.000  0.000  0.994 -0.001 -0.000
 -0.106  0.000 -0.001  0.809  0.000
  0.000  0.000 -0.000  0.000  0.991
   spin  2
    eigenvalues:
  0.070  0.081  0.087  0.304  0.306
    eigenvectors:
  0.805  0.000  0.000  0.019  0.176
  0.000  0.000  0.000  0.903  0.097
  0.000  0.000  1.000  0.000  0.000
  0.195  0.000  0.000  0.078  0.727
  0.000  1.000  0.000  0.000  0.000
    occupations:
  0.116 -0.000  0.000  0.093  0.000
 -0.000  0.304 -0.000  0.001 -0.000
  0.000 -0.000  0.087  0.001  0.000
  0.093  0.001  0.001  0.259  0.000
  0.000 -0.000  0.000  0.000  0.081
atomic mag. moment =     3.651008
atom   23   Tr[ns(na)] (up, down, total) =   4.68907  0.57402  5.26309
   spin  1
    eigenvalues:
  0.727  0.964  0.999  0.999  1.000
    eigenvectors:
  0.000  0.958  0.003  0.039  0.000
  0.000  0.000  0.000  0.000  1.000
  0.000  0.000  0.934  0.065  0.000
  0.000  0.042  0.062  0.896  0.000
  1.000  0.000  0.000  0.000  0.000
    occupations:
  0.966 -0.000  0.000  0.007 -0.000
 -0.000  1.000  0.000  0.000 -0.002
  0.000  0.000  0.999 -0.000  0.000
  0.007  0.000 -0.000  0.998  0.000
 -0.000 -0.002  0.000  0.000  0.727
   spin  2
    eigenvalues:
  0.056  0.058  0.065  0.117  0.277
    eigenvectors:
  0.001  0.046  0.000  0.953  0.000
  0.000  0.000  1.000  0.000  0.000
  0.987  0.013  0.000  0.000  0.000
  0.012  0.941  0.000  0.047  0.000
  0.000  0.000  0.000  0.000  1.000
    occupations:
  0.114  0.000 -0.000 -0.012  0.000
  0.000  0.065  0.000 -0.000  0.002
 -0.000  0.000  0.056 -0.000  0.000
 -0.012 -0.000 -0.000  0.061 -0.000
  0.000  0.002  0.000 -0.000  0.277
atomic mag. moment =     4.115052
N of occupied +U levels =  42.5181530
 --- exit write_ns ---

 ------ SPIN UP ------------

[...]

 ------ SPIN DOWN ----------

[...]

          k = 0.2500-0.4606 0.0000 ( 26462 PWs)   bands (ev):

[...]

          k =-0.2500 0.2303 0.0000 ( 26396 PWs)   bands (ev):

   -79.0152 -79.0075 -78.9956 -78.9876 -78.9413 -78.9326 -78.1633 -78.1352
   -47.9421 -47.9014 -47.8987 -47.8920 -47.8876 -47.8391 -47.8323 -47.8312
   -47.8066 -47.7935 -47.7913 -47.7739 -47.7358 -47.7261 -47.7197 -47.7086
   -47.5818 -47.5736 -47.2816 -47.1684 -47.1363 -47.0914 -46.6424 -46.6306
   -25.7435 -20.7072 -20.2388 -20.2128 -20.0331 -19.5830 -19.5160 -19.5048
   -19.4359 -19.2327 -19.2058 -19.1385 -19.0635 -18.9157 -18.8571 -18.8056
   -18.7440 -18.7270 -18.6236 -17.4561  -9.6561  -7.9697  -7.7469  -7.6295
    -7.5116  -7.3804  -7.3375  -7.1653  -6.9949  -6.7987  -6.6085  -6.4470
    -6.3094  -6.1412  -6.1269  -5.9990  -5.9490  -5.9289  -5.7115  -5.6709
    -5.5532  -5.4698  -5.3853  -5.2456  -5.2267  -5.1062  -5.0384  -4.8350
    -4.8115  -4.7829  -4.7003  -4.6671  -4.5655  -4.4580  -4.3418  -4.2835
    -4.1938  -4.1649  -4.0919  -4.0366  -3.8857  -3.8068  -3.6619  -3.5737
    -3.5504  -3.5059  -3.4008  -3.3546  -3.2533  -3.0970  -3.0046  -2.8551
    -2.8102  -2.7301  -2.6047  -2.5747  -2.4363  -2.4293  -2.1515   2.6860
     2.7554   2.8012   2.8459   2.9104   2.9358   2.9790   3.0053   3.0398
     3.0992   3.1144   3.1794   3.1849   3.2418   3.2620   3.2820   3.3536
     3.3875   3.5200   3.5412   3.5947   3.6587   3.6971   3.7780   3.8359
     3.8587   3.9260   3.9630   3.9943   4.0320   4.0990   4.1484   4.1865
     4.2064   4.2685   4.2930   4.3930   4.4075   4.4928   4.5083   4.5319
     4.6139   4.6988   4.7505   4.9730   5.3303   5.6396   5.7935   6.1412
     6.2997   6.4054   6.5382   6.6646   6.8426   6.9944   7.1632   7.5119
     7.6741   7.7667   7.8898   8.0610   8.2528   8.3851   8.4792   8.7339
     8.7932   8.9354   9.0062   9.1100   9.2604   9.5032   9.6234   9.6371
     9.7098   9.9143   9.9925  10.0529  10.1571  10.2957  10.3375  10.4159
    10.6227  10.7774  10.8271  10.8861  11.0781  11.1597  11.2203  11.3106
    11.4525  11.5829  11.6618  11.7239  11.7475  11.8062  11.9613  11.9990
    12.0777  12.1696  12.2981  12.3132  12.3923  12.4698  12.5048  12.6247
    12.7316  12.9557  13.0012  13.0680  13.1297  13.1926  13.3274  13.3661
    13.4463  13.4968  13.5736  13.5931  13.7346  13.8582  13.9162  13.9686
    14.0923  14.1477  14.2033  14.3026  14.3629  14.3814  14.4336  14.4836
    14.5375  14.7094  14.7663  14.8185  14.8818  14.9611  15.0399  15.1559
    15.2070  15.3616  15.3839  15.4734  15.5139  15.6376  15.7098  15.8099
    15.8249  15.8992  15.9931  16.0460  16.1542  16.2588  16.3092  16.4100
    16.4921  16.6117  16.6674  16.7235  16.8398  16.9031  17.0157  17.0460
    17.1067  17.1603  17.2562  17.3065  17.4590  17.4831  17.5362  17.5995
    17.6800  17.7305  17.8434  17.9353  17.9572  18.0037  18.1144  18.1220
    18.2309  18.2990  18.3528  18.4107  18.4732  18.5811  18.6873  18.7036
    18.7684  18.8768  18.9583  19.0264  19.0842  19.1370  19.2909  19.3043
    19.3504  19.4827  19.5432  19.6154  19.6395  19.8083  19.8928  19.9703
    20.0467  20.1245  20.1549  20.1873  20.2910  20.3548  20.4572  20.5204
    20.5640  20.5993  20.6942  20.7370  20.7962  20.9383  20.9920  21.1004
    21.1645  21.2971  21.3406  21.4159  21.4843  21.5516  21.6768  21.7466
    21.8230  21.8919  21.9817  21.9886  22.1072  22.1463  22.2180  22.2617
    22.3329  22.3849  22.4275  22.5516  22.6275  22.7187  22.7608  22.8143
    22.8962  22.9778  23.0509

     the spin up/dw Fermi energies are    -1.5370    0.1266 ev

!    total energy              =   -2351.78640232 Ry
     Harris-Foulkes estimate   =   -2351.78640232 Ry
     estimated scf accuracy    <          4.8E-09 Ry

     The total energy is the sum of the following terms:

     one-electron contribution =  -25629.98504740 Ry
     hartree contribution      =   12844.46074003 Ry
     xc contribution           =    -356.91630339 Ry
     ewald contribution        =   10788.76422081 Ry
     Hubbard energy            =       1.89051938 Ry
     smearing contrib. (-TS)   =      -0.00053175 Ry

     total magnetization       =    23.00 Bohr mag/cell
     absolute magnetization    =    38.84 Bohr mag/cell

     convergence has been achieved in  20 iterations

     Forces acting on atoms (Ry/au):

     negative rho (up, down):  0.136E-02 0.128E-02
     atom    1 type  1   force =    -0.00377367   -0.00985837    0.00017815
     atom    2 type  1   force =     0.00045006    0.00462521   -0.00026303
     atom    3 type  2   force =     0.00243472    0.00233784   -0.00008682
     atom    4 type  2   force =     0.00525888    0.00843498   -0.00014827
     atom    5 type  1   force =     0.00153789    0.01059896   -0.00009261
     atom    6 type  1   force =    -0.00134930   -0.01608360   -0.00065128
     atom    7 type  1   force =     0.00012071    0.00355960    0.00003922
     atom    8 type  1   force =    -0.00130327   -0.00270938   -0.00022510
     atom    9 type  2   force =     0.00180461    0.00144456    0.00025596
     atom   10 type  2   force =    -0.00008525   -0.00250482   -0.00028640
     atom   11 type  1   force =    -0.00665295   -0.01338961    0.00040129
     atom   12 type  1   force =    -0.00618663    0.01485517   -0.00019803
     atom   13 type  1   force =    -0.00045782   -0.00065803    0.00040921
     atom   14 type  1   force =    -0.00371063   -0.01002673    0.00014361
     atom   15 type  1   force =     0.00054456    0.00545588    0.00012292
     atom   16 type  2   force =    -0.00387774    0.00240917   -0.00008864
     atom   17 type  2   force =     0.00513205    0.00845420   -0.00029406
     atom   18 type  1   force =     0.00100553    0.01058069   -0.00021770
     atom   19 type  1   force =    -0.00186046   -0.01605015   -0.00065616
     atom   20 type  1   force =     0.00003822    0.00352636    0.00034768
     atom   21 type  1   force =    -0.00140478   -0.00278975   -0.00027095
     atom   22 type  2   force =    -0.00031844    0.00140682    0.00021365
     atom   23 type  2   force =    -0.00002333   -0.00215215    0.00025507
     atom   24 type  1   force =     0.00675543   -0.01328980    0.00039773
     atom   25 type  1   force =     0.00629449    0.01491034   -0.00019616
     atom   26 type  1   force =    -0.00044417   -0.00197678    0.00042142
     atom   27 type  3   force =     0.00003125    0.00056102    0.00099678
     atom   28 type  3   force =     0.00005321    0.00011228    0.00054637
     atom   29 type  3   force =     0.00000341   -0.00055238   -0.00043872
     atom   30 type  3   force =     0.00002303   -0.00061020   -0.00069452
     atom   31 type  1   force =    -0.00004033   -0.00072890   -0.00055972
     atom   32 type  1   force =     0.00000402   -0.00021552    0.00034918
     atom   33 type  3   force =    -0.00000331    0.00032310    0.00028994

     Total force =     0.002568     Total SCF correction =     0.000185

     entering subroutine stress ...

     negative rho (up, down):  0.136E-02 0.128E-02
          total   stress  (Ry/bohr**3)                   (kbar)     P=   39.03
   0.00043404  -0.00000152   0.00000254         63.85     -0.22      0.37
  -0.00000152   0.00040267   0.00000295         -0.22     59.23      0.43
   0.00000254   0.00000295  -0.00004078          0.37      0.43     -6.00

     bfgs converged in   5 scf cycles and   4 bfgs steps
     (criteria: energy < 0.10E-03, force < 0.10E-02)

     End of BFGS Geometry Optimization

     Final energy   =   -2351.7864023179 Ry
Begin final coordinates

ATOMIC_POSITIONS (crystal)
O0       0.000000000   0.000000000   0.369817751    0   0   1
O0       0.000000000   0.500000000   0.389308167    0   0   1
Mn1      0.250000000   0.500000000   0.443386370    0   0   1
Mn1      0.000000000   0.000000000   0.444814141    0   0   1
O0       0.250000000   0.800000000   0.442142498    0   0   1
O0       0.250000000   0.200000000   0.447344920    0   0   1
O0       0.000000000   0.500000000   0.492600458    0   0   1
O0       0.000000000   0.000000000   0.524109750    0   0   1
Mn1      0.250000000   0.000000000   0.573734090    0   0   1
Mn1      0.000000000   0.500000000   0.570936231    0   0   1
O0       0.250000000   0.700000000   0.585154015    0   0   1
O0       0.250000000   0.300000000   0.586058499    0   0   1
O0       0.000000000   0.000000000   0.624058544    0   0   1
O0       0.500000000   0.000000000   0.369847593    0   0   1
O0       0.500000000   0.500000000   0.389476774    0   0   1
Mn1      0.750000000   0.500000000   0.443380684    0   0   1
Mn1      0.500000000   0.000000000   0.444810023    0   0   1
O0       0.750000000   0.800000000   0.442303254    0   0   1
O0       0.750000000   0.200000000   0.447301347    0   0   1
O0       0.500000000   0.500000000   0.493327867    0   0   1
O0       0.500000000   0.000000000   0.524091907    0   0   1
Mn1      0.750000000   0.000000000   0.573735574    0   0   1
Mn1      0.500000000   0.500000000   0.573762352    0   0   1
O0       0.750000000   0.700000000   0.585161750    0   0   1
O0       0.750000000   0.300000000   0.586046780    0   0   1
O0       0.500000000   0.000000000   0.623884420    0   0   1
H2       0.000755791   0.647983873   0.373939605
H2       0.500692741   0.648335320   0.374267566
H2       0.160099008   0.049697207   0.359934382
H2       0.660011631   0.050038947   0.360008793
O0       0.499520827   0.546224087   0.681122077
O0       0.501415712   0.353524445   0.705234962
H2       0.499066913   0.391528410   0.742186856
End final coordinates

     General routines

     Parallel routines
     Hubbard U routines

   This run was terminated on:  12:30:11   6Jun2014

   JOB DONE.
Running PBS batch system epilogue script
Job id: 381440.audhumbla.fysik.dtu.dk
Username: zhonxu
Groupname: campgst
Jobname: MnO2/Eads-2-layers/OOH-U-7.0
Sessionid: 6278
Queuename: verylong
Accounting:
This job has allocated the following 16 nodes:
c013 c013 c013 c013 c013 c013 c013 c013 c003 c003 c003 c003 c003 c003 c003 c003
Finished epilogue job 381440.audhumbla.fysik.dtu.dk for zhonxu