     Program PWSCF v.5.0.2 (svn rev. 9656) starts on  1Jun2014 at 12:55:26

     Current dimensions of program PWSCF are:
     Max number of different atomic species (ntypx) = 10
     Max number of k-points (npk) =  40000
     Max angular momentum in pseudopotentials (lmaxx) =  3
     Reading input from pwscf.in
Warning: card &CELL ignored
Warning: card / ignored

     Subspace diagonalization in iterative solution of the eigenvalue problem:
     a serial algorithm will be used

     bravais-lattice index     =            0
     lattice parameter (alat)  =      10.1289  a.u.
     unit-cell volume          =    6836.7721 (a.u.)^3
     number of atoms/cell      =           33
     number of atomic types    =            3
     number of electrons       =       245.00
     number of Kohn-Sham states=          367
     kinetic-energy cutoff     =      40.0000  Ry
     charge density cutoff     =     500.0000  Ry
     convergence threshold     =      1.0E-06
     mixing beta               =       0.7000
     number of iterations used =            8  plain     mixing
     Exchange-correlation      = SLA  PW   PBE  PBE ( 1 4 3 4 0)
     EXX-fraction              =        0.00
     nstep                     =           50

     celldm(1)=  10.128932  celldm(2)=   0.000000  celldm(3)=   0.000000
     celldm(4)=   0.000000  celldm(5)=   0.000000  celldm(6)=   0.000000

     crystal axes: (cart. coord. in units of alat)
               a(1) = (   1.000000   0.000000   0.000000 )
               a(2) = (   0.000000   1.306037   0.000000 )
               a(3) = (   0.000000   0.000000   5.037380 )

     reciprocal axes: (cart. coord. in units 2 pi/alat)
               b(1) = (  1.000000  0.000000  0.000000 )
               b(2) = (  0.000000  0.765675  0.000000 )
               b(3) = (  0.000000  0.000000  0.198516 )

     PseudoPot. # 1 for O  read from file:
     /home/camp/zhonxu/pseudo/o_pbe_v1.01.uspp.F.UPF
     MD5 check sum: 2bcb18d16ea4b960afae9ec6d52f22d2
     Pseudo is Ultrasoft + core correction, Zval =  6.0
     Generated by new atomic code, or converted to UPF format
     Using radial grid of  737 points,  5 beta functions with:
                l(1) =   0
                l(2) =   0
                l(3) =   1
                l(4) =   1
                l(5) =   2
     Q(r) pseudized with  8 coefficients,  rinner =    0.900   0.900   0.900
                                                       0.900   0.900

     PseudoPot. # 2 for Re read from file:
     /home/camp/zhonxu/pseudo/re_pbe_v1.uspp.F.UPF
     MD5 check sum: 6f5a5dcaf9c96c20d0ffdde0de57afc6
     Pseudo is Ultrasoft + core correction, Zval = 15.0
     Generated by new atomic code, or converted to UPF format
     Using radial grid of  981 points,  8 beta functions with:
                l(1) =   0
                l(2) =   0
                l(3) =   1
                l(4) =   1
                l(5) =   2
                l(6) =   2
                l(7) =   3
                l(8) =   3
     Q(r) pseudized with  8 coefficients,  rinner =    1.000   1.000   1.000
                                                       1.000   1.000   1.000
                                                       1.000

     PseudoPot. # 3 for H  read from file:
     /home/camp/zhonxu/pseudo/h_pbe_v1.uspp.F.UPF
     MD5 check sum: 3408e3ff4ec8b0a4e358431e7e038a48
     Pseudo is Ultrasoft, Zval =  1.0
     Generated by new atomic code, or converted to UPF format
     Using radial grid of  615 points,  2 beta functions with:
                l(1) =   0
                l(2) =   0
     Q(r) pseudized with  8 coefficients,  rinner =    0.700

     atomic species   valence    mass     pseudopotential
        O0             6.00    15.99940     O ( 1.00)
        Re1           15.00   186.20700     Re( 1.00)
        H2             1.00     1.00794     H ( 1.00)

     Simplified LDA+U calculation (l_max = 2) with parameters (eV):
     atomic species    L          U    alpha       J0     beta
        Re1            2     6.0000   0.0000   0.0000   0.0000

     No symmetry found

   Cartesian axes

     site n.     atom                  positions (alat units)
         1           O0  tau(   1) = (   0.0000000   0.0000000   1.8623194  )
         2           O0  tau(   2) = (   0.0000000   0.6530184   1.9253370  )
         3           Re1 tau(   3) = (   0.2500000   0.6530184   2.2271768  )
         4           Re1 tau(   4) = (   0.0000000   0.0000000   2.2287384  )
         5           O0  tau(   5) = (   0.2500000   1.0187087   2.2217869  )
         6           O0  tau(   6) = (   0.2500000   0.2873281   2.2210816  )
         7           O0  tau(   7) = (   0.0000000   0.6530184   2.5071544  )
         8           O0  tau(   8) = (   0.0000000   0.0000000   2.5894652  )
         9           Re1 tau(   9) = (   0.2500000   0.0000000   2.8894412  )
        10           Re1 tau(  10) = (   0.0000000   0.6530184   2.8583102  )
        11           O0  tau(  11) = (   0.2500000   0.9403465   2.8756892  )
        12           O0  tau(  12) = (   0.2500000   0.3656903   2.8872751  )
        13           O0  tau(  13) = (   0.0000000   0.0000000   3.1516368  )
        14           O0  tau(  14) = (   0.5000000   0.0000000   1.8624705  )
        15           O0  tau(  15) = (   0.5000000   0.6530184   1.9269994  )
        16           Re1 tau(  16) = (   0.7500000   0.6530184   2.2271768  )
        17           Re1 tau(  17) = (   0.5000000   0.0000000   2.2274287  )
        18           O0  tau(  18) = (   0.7500000   1.0187087   2.2214342  )
        19           O0  tau(  19) = (   0.7500000   0.2873281   2.2214846  )
        20           O0  tau(  20) = (   0.5000000   0.6530184   2.5086153  )
        21           O0  tau(  21) = (   0.5000000   0.0000000   2.5899690  )
        22           Re1 tau(  22) = (   0.7500000   0.0000000   2.8888367  )
        23           Re1 tau(  23) = (   0.5000000   0.6530184   2.9018835  )
        24           O0  tau(  24) = (   0.7500000   0.9403465   2.8756892  )
        25           O0  tau(  25) = (   0.7500000   0.3656903   2.8872248  )
        26           O0  tau(  26) = (   0.5000000   0.0000000   3.1466498  )
        27           H2  tau(  27) = (  -0.0002100   0.8169913   1.8417165  )
        28           H2  tau(  28) = (   0.4996400   0.8147057   1.8388956  )
        29           H2  tau(  29) = (   0.1678400   0.0328729   1.7887233  )
        30           H2  tau(  30) = (   0.6697500   0.0291246   1.7904864  )
        31           O0  tau(  31) = (   0.4996300   0.6876806   3.2307741  )
        32           O0  tau(  32) = (   0.5002900   0.4188329   3.4291461  )
        33           H2  tau(  33) = (   0.4999500   0.5176477   3.5843478  )

     number of k points=    10  Methfessel-Paxton smearing, width (Ry)=  0.0100
                       cart. coord. in units 2pi/alat
        k(    1) = (   0.0000000   0.0000000   0.0000000), wk =   0.1250000
        k(    2) = (   0.0000000   0.1914188   0.0000000), wk =   0.2500000
        k(    3) = (   0.0000000  -0.3828376   0.0000000), wk =   0.1250000
        k(    4) = (   0.2500000   0.0000000   0.0000000), wk =   0.2500000
        k(    5) = (   0.2500000   0.1914188   0.0000000), wk =   0.2500000
        k(    6) = (   0.2500000  -0.3828376   0.0000000), wk =   0.2500000
        k(    7) = (  -0.5000000   0.0000000   0.0000000), wk =   0.1250000
        k(    8) = (  -0.5000000   0.1914188   0.0000000), wk =   0.2500000
        k(    9) = (  -0.5000000  -0.3828376   0.0000000), wk =   0.1250000
        k(   10) = (  -0.2500000   0.1914188   0.0000000), wk =   0.2500000

     Largest allocated arrays     est. size (Mb)     dimensions
     Largest temporary arrays     est. size (Mb)     dimensions

     Check: negative/imaginary core charge=   -0.000003    0.000000

     Initial potential from superposition of free atoms
     Check: negative starting charge=   -0.236968

     starting charge  240.99957, renormalised to  245.00000

     negative rho (up, down):  0.241E+00 0.000E+00
     Number of +U iterations with fixed ns =  0
     Starting occupations:
 --- enter write_ns ---
 LDA+U parameters:
U( 2)     =  6.00000000
alpha( 2) =  0.00000000
atom    3   Tr[ns(na)] =   5.00000
    eigenvalues:
  0.500  0.500  0.500  0.500  0.500
    eigenvectors:
  1.000  0.000  0.000  0.000  0.000
  0.000  1.000  0.000  0.000  0.000
  0.000  0.000  1.000  0.000  0.000
  0.000  0.000  0.000  1.000  0.000
  0.000  0.000  0.000  0.000  1.000
    occupations:
  0.500  0.000  0.000  0.000  0.000
  0.000  0.500  0.000  0.000  0.000
  0.000  0.000  0.500  0.000  0.000
  0.000  0.000  0.000  0.500  0.000
  0.000  0.000  0.000  0.000  0.500
atom    4   Tr[ns(na)] =   5.00000
    eigenvalues:
  0.500  0.500  0.500  0.500  0.500
    eigenvectors:
  1.000  0.000  0.000  0.000  0.000
  0.000  1.000  0.000  0.000  0.000
  0.000  0.000  1.000  0.000  0.000
  0.000  0.000  0.000  1.000  0.000
  0.000  0.000  0.000  0.000  1.000
    occupations:
  0.500  0.000  0.000  0.000  0.000
  0.000  0.500  0.000  0.000  0.000
  0.000  0.000  0.500  0.000  0.000
  0.000  0.000  0.000  0.500  0.000
  0.000  0.000  0.000  0.000  0.500
atom    9   Tr[ns(na)] =   5.00000
    eigenvalues:
  0.500  0.500  0.500  0.500  0.500
    eigenvectors:
  1.000  0.000  0.000  0.000  0.000
  0.000  1.000  0.000  0.000  0.000
  0.000  0.000  1.000  0.000  0.000
  0.000  0.000  0.000  1.000  0.000
  0.000  0.000  0.000  0.000  1.000
    occupations:
  0.500  0.000  0.000  0.000  0.000
  0.000  0.500  0.000  0.000  0.000
  0.000  0.000  0.500  0.000  0.000
  0.000  0.000  0.000  0.500  0.000
  0.000  0.000  0.000  0.000  0.500
atom   10   Tr[ns(na)] =   5.00000
    eigenvalues:
  0.500  0.500  0.500  0.500  0.500
    eigenvectors:
  1.000  0.000  0.000  0.000  0.000
  0.000  1.000  0.000  0.000  0.000
  0.000  0.000  1.000  0.000  0.000
  0.000  0.000  0.000  1.000  0.000
  0.000  0.000  0.000  0.000  1.000
    occupations:
  0.500  0.000  0.000  0.000  0.000
  0.000  0.500  0.000  0.000  0.000
  0.000  0.000  0.500  0.000  0.000
  0.000  0.000  0.000  0.500  0.000
  0.000  0.000  0.000  0.000  0.500
atom   16   Tr[ns(na)] =   5.00000
    eigenvalues:
  0.500  0.500  0.500  0.500  0.500
    eigenvectors:
  1.000  0.000  0.000  0.000  0.000
  0.000  1.000  0.000  0.000  0.000
  0.000  0.000  1.000  0.000  0.000
  0.000  0.000  0.000  1.000  0.000
  0.000  0.000  0.000  0.000  1.000
    occupations:
  0.500  0.000  0.000  0.000  0.000
  0.000  0.500  0.000  0.000  0.000
  0.000  0.000  0.500  0.000  0.000
  0.000  0.000  0.000  0.500  0.000
  0.000  0.000  0.000  0.000  0.500
atom   17   Tr[ns(na)] =   5.00000
    eigenvalues:
  0.500  0.500  0.500  0.500  0.500
    eigenvectors:
  1.000  0.000  0.000  0.000  0.000
  0.000  1.000  0.000  0.000  0.000
  0.000  0.000  1.000  0.000  0.000
  0.000  0.000  0.000  1.000  0.000
  0.000  0.000  0.000  0.000  1.000
    occupations:
  0.500  0.000  0.000  0.000  0.000
  0.000  0.500  0.000  0.000  0.000
  0.000  0.000  0.500  0.000  0.000
  0.000  0.000  0.000  0.500  0.000
  0.000  0.000  0.000  0.000  0.500
atom   22   Tr[ns(na)] =   5.00000
    eigenvalues:
  0.500  0.500  0.500  0.500  0.500
[...]
  0.002  0.913  0.003  0.001 -0.003
 -0.004  0.003  0.592  0.008 -0.003
  0.001  0.001  0.008  0.769 -0.000
  0.000 -0.003 -0.003 -0.000  0.544
atom   16   Tr[ns(na)] =   6.59151
    eigenvalues:
  0.508  0.541  0.574  0.784  0.888
    eigenvectors:
  0.008  0.010  0.276  0.706  0.000
  0.000  0.978  0.020  0.001  0.001
  0.968  0.000  0.002  0.006  0.023
  0.000  0.011  0.702  0.287  0.000
  0.023  0.001  0.000  0.000  0.976
    occupations:
  0.722  0.008  0.019 -0.095  0.003
  0.008  0.542  0.002  0.001 -0.009
  0.019  0.002  0.519 -0.009 -0.057
 -0.095  0.001 -0.009  0.634 -0.001
  0.003 -0.009 -0.057 -0.001  0.879
atom   17   Tr[ns(na)] =   6.60589
    eigenvalues:
  0.571  0.572  0.610  0.757  0.792
    eigenvectors:
  0.000  0.000  0.993  0.000  0.006
  0.002  0.005  0.000  0.992  0.001
  0.416  0.577  0.000  0.007  0.000
  0.000  0.000  0.006  0.001  0.993
  0.582  0.418  0.001  0.000  0.000
    occupations:
  0.611  0.002  0.000 -0.014  0.001
  0.002  0.756  0.015 -0.001 -0.001
  0.000  0.015  0.573  0.000 -0.001
 -0.014 -0.001  0.000  0.791 -0.000
  0.001 -0.001 -0.001 -0.000  0.571
atom   22   Tr[ns(na)] =   6.63355
    eigenvalues:
  0.551  0.587  0.590  0.787  0.801
    eigenvectors:
  0.000  0.094  0.154  0.148  0.604
  0.001  0.634  0.365  0.000  0.000
  0.964  0.001  0.001  0.028  0.007
  0.000  0.271  0.481  0.046  0.202
  0.035  0.000  0.000  0.778  0.187
    occupations:
  0.747 -0.002  0.001 -0.091  0.004
 -0.002  0.588  0.001 -0.000 -0.000
  0.001  0.001  0.560 -0.001  0.044
 -0.091 -0.000 -0.001  0.641 -0.004
  0.004 -0.000  0.044 -0.004  0.782
atom   23   Tr[ns(na)] =   6.62579
    eigenvalues:
  0.504  0.550  0.586  0.791  0.882
    eigenvectors:
  0.000  0.000  0.968  0.030  0.001
  0.987  0.011  0.000  0.000  0.002
  0.002  0.000  0.000  0.008  0.989
  0.000  0.000  0.031  0.961  0.008
  0.011  0.989  0.000  0.000  0.000
    occupations:
  0.592  0.001 -0.006 -0.036 -0.001
  0.001  0.505 -0.017 -0.005 -0.005
 -0.006 -0.017  0.881  0.007 -0.001
 -0.036 -0.005  0.007  0.785  0.000
 -0.001 -0.005 -0.001  0.000  0.550
N of occupied +U levels =  52.8062575
 --- exit write_ns ---

     Threshold (ethr) on eigenvalues was too large:
     Diagonalizing with lowered threshold

     Davidson diagonalization with overlap
     ethr =  2.95E-08,  avg # of iterations =  1.2

[...]

     total energy              =   -2204.77059563 Ry
     Harris-Foulkes estimate   =   -2204.77059564 Ry
     estimated scf accuracy    <       0.00000002 Ry

     iteration # 17     ecut=    40.00 Ry     beta=0.70
     Davidson diagonalization with overlap
     ethr =  7.34E-12,  avg # of iterations =  1.0

     negative rho (up, down):  0.238E+00 0.000E+00

     End of self-consistent calculation
 --- enter write_ns ---
 LDA+U parameters:
U( 2)     =  6.00000000
alpha( 2) =  0.00000000
atom    3   Tr[ns(na)] =   6.58064
    eigenvalues:
  0.494  0.543  0.576  0.789  0.888
    eigenvectors:
  0.007  0.013  0.274  0.706  0.000
  0.000  0.969  0.030  0.001  0.001
  0.951  0.000  0.001  0.005  0.042
  0.000  0.018  0.694  0.288  0.000
  0.042  0.000  0.000  0.000  0.958
    occupations:
  0.725 -0.008  0.020 -0.096 -0.004
 -0.008  0.544 -0.002 -0.001 -0.008
  0.020 -0.002  0.513 -0.009  0.079
 -0.096 -0.001 -0.009  0.637  0.002
 -0.004 -0.008  0.079  0.002  0.872
atom    4   Tr[ns(na)] =   6.60610
    eigenvalues:
  0.574  0.579  0.617  0.734  0.800
    eigenvectors:
  0.001  0.000  0.991  0.001  0.007
  0.000  0.009  0.001  0.989  0.001
  0.090  0.901  0.000  0.009  0.000
  0.000  0.000  0.007  0.001  0.992
  0.909  0.090  0.001  0.000  0.000
    occupations:
  0.618  0.004  0.001 -0.015  0.001
  0.004  0.732  0.015 -0.002 -0.002
  0.001  0.015  0.580  0.000 -0.001
 -0.015 -0.002  0.000  0.798 -0.000
  0.001 -0.002 -0.001 -0.000  0.575
atom    9   Tr[ns(na)] =   6.59689
    eigenvalues:
  0.592  0.600  0.623  0.715  0.769
    eigenvectors:
  0.001  0.188  0.000  0.789  0.022
  0.000  0.001  0.998  0.001  0.000
  0.961  0.005  0.000  0.001  0.033
  0.004  0.806  0.001  0.182  0.007
  0.034  0.000  0.000  0.028  0.938
    occupations:
  0.695  0.003 -0.002 -0.046  0.007
  0.003  0.623 -0.001 -0.001  0.000
 -0.002 -0.001  0.598  0.001 -0.032
 -0.046 -0.001  0.001  0.622 -0.006
  0.007  0.000 -0.032 -0.006  0.761
atom   10   Tr[ns(na)] =   6.57006
    eigenvalues:
  0.467  0.543  0.592  0.769  0.913
    eigenvectors:
  0.999  0.000  0.001  0.000  0.000
  0.000  0.000  0.000  0.000  1.000
  0.001  0.005  0.992  0.002  0.000
  0.000  0.000  0.002  0.998  0.000
  0.000  0.995  0.005  0.000  0.000
    occupations:
  0.467  0.002 -0.004  0.001  0.000
  0.002  0.913  0.003  0.001 -0.003
 -0.004  0.003  0.592  0.008 -0.003
  0.001  0.001  0.008  0.769 -0.000
  0.000 -0.003 -0.003 -0.000  0.544
atom   16   Tr[ns(na)] =   6.59086
    eigenvalues:
  0.508  0.541  0.574  0.784  0.888
    eigenvectors:
  0.008  0.010  0.276  0.706  0.000
  0.000  0.978  0.020  0.001  0.001
  0.968  0.000  0.002  0.006  0.023
  0.000  0.011  0.702  0.287  0.000
  0.023  0.001  0.000  0.000  0.976
    occupations:
  0.722  0.008  0.019 -0.095  0.003
  0.008  0.542  0.002  0.001 -0.009
  0.019  0.002  0.519 -0.009 -0.057
 -0.095  0.001 -0.009  0.634 -0.001
  0.003 -0.009 -0.057 -0.001  0.879
atom   17   Tr[ns(na)] =   6.60607
    eigenvalues:
  0.571  0.572  0.610  0.757  0.793
    eigenvectors:
  0.000  0.000  0.993  0.000  0.006
  0.003  0.004  0.000  0.992  0.001
  0.485  0.509  0.000  0.007  0.000
  0.000  0.000  0.006  0.001  0.993
  0.512  0.487  0.001  0.000  0.000
    occupations:
  0.611  0.002  0.000 -0.014  0.001
  0.002  0.756  0.015 -0.001 -0.001
  0.000  0.015  0.573  0.000 -0.001
 -0.014 -0.001  0.000  0.791 -0.000
  0.001 -0.001 -0.001 -0.000  0.571
atom   22   Tr[ns(na)] =   6.63004
    eigenvalues:
  0.550  0.587  0.590  0.787  0.801
    eigenvectors:
  0.000  0.087  0.161  0.143  0.608
  0.001  0.663  0.336  0.000  0.000
  0.964  0.001  0.001  0.028  0.007
  0.000  0.250  0.502  0.044  0.204
  0.035  0.000  0.000  0.784  0.181
    occupations:
  0.746 -0.002  0.001 -0.091  0.004
 -0.002  0.588  0.001 -0.000 -0.000
  0.001  0.001  0.559 -0.001  0.044
 -0.091 -0.000 -0.001  0.641 -0.004
  0.004 -0.000  0.044 -0.004  0.781
atom   23   Tr[ns(na)] =   6.62622
    eigenvalues:
  0.504  0.550  0.586  0.791  0.882
    eigenvectors:
  0.000  0.000  0.968  0.030  0.001
  0.987  0.011  0.000  0.000  0.002
  0.002  0.000  0.000  0.009  0.989
  0.000  0.000  0.031  0.961  0.008
  0.011  0.989  0.000  0.000  0.000
    occupations:
  0.592  0.001 -0.006 -0.036 -0.001
  0.001  0.506 -0.018 -0.005 -0.005
 -0.006 -0.018  0.881  0.007 -0.001
 -0.036 -0.005  0.007  0.785  0.000
 -0.001 -0.005 -0.001  0.000  0.550
N of occupied +U levels =  52.8068762
 --- exit write_ns ---

[...]

          k = 0.2500-0.3828 0.0000 ( 29202 PWs)   bands (ev):

[...]

          k =-0.2500 0.1914 0.0000 ( 29229 PWs)   bands (ev):

   -80.6610 -80.5720 -80.5262 -80.1671 -80.1182 -80.0977 -80.0597 -80.0125
   -42.6909 -42.6746 -42.6154 -42.5868 -42.5403 -42.4999 -42.4797 -42.4478
   -42.4194 -42.4185 -42.2772 -42.1647 -42.1267 -42.1199 -42.0795 -42.0596
   -42.0580 -42.0280 -42.0227 -41.9965 -41.7233 -41.5976 -41.5604 -41.4210
   -21.3310 -20.5063 -20.1240 -20.0247 -19.8096 -19.7344 -19.6000 -19.5261
   -19.4750 -19.3702 -19.2751 -19.0628 -18.9530 -18.8904 -18.8606 -18.7564
   -18.6354 -18.1714 -17.9857 -16.7812  -8.8787  -8.7998  -8.6540  -8.6229
    -8.5367  -8.2136  -8.1304  -8.0646  -7.8469  -7.7365  -7.6806  -7.6428
    -7.5553  -7.3377  -6.9994  -6.9343  -6.8145  -6.5727  -6.5347  -6.3634
    -6.3145  -6.1649  -6.1066  -5.9096  -5.7277  -5.6137  -5.5363  -5.4532
    -5.3103  -5.1976  -5.1182  -5.0082  -4.7991  -4.7548  -4.7182  -4.5924
    -4.5254  -4.4735  -4.4042  -4.3159  -4.2980  -4.2348  -4.0408  -3.8629
    -3.7043  -3.6150  -3.5556  -3.5192  -3.4614  -3.2751  -3.1652  -3.0767
    -3.0124  -2.9134  -2.7991  -2.6183  -2.5417  -2.4474  -2.1426  -1.9684
    -1.8424  -1.5083  -1.2174  -0.9649  -0.8416  -0.7137  -0.1343   0.0237
     0.1716   0.3114   0.6857   0.9058   1.1197   1.1468   1.4233   1.5110
     1.5982   1.7083   1.8425   1.9566   2.0221   2.1451   2.4764   2.7816
     3.3822   3.9679   4.0502   4.2414   4.3139   4.5058   4.6480   4.8005
     4.9211   4.9426   5.0858   5.1839   5.3173   5.3506   5.4546   5.8693
     6.0711   6.1662   6.3199   6.6013   6.6554   6.7393   6.8452   6.9558
     7.0665   7.3180   7.4714   7.5466   7.6960   7.8107   8.0195   8.1225
     8.3831   8.5242   8.6620   8.7246   8.8473   8.9530   9.0838   9.1690
     9.2709   9.4380   9.5216   9.6282   9.7960   9.8206   9.9020  10.0089
    10.0834  10.1418  10.2135  10.3433  10.4184  10.5393  10.6441  10.7221
    10.7725  10.8574  10.9915  11.0644  11.1935  11.2417  11.4713  11.5346
    11.5720  11.7084  11.8141  11.8528  12.0554  12.1422  12.2705  12.3640
    12.5107  12.6013  12.6308  12.6855  12.7470  12.8381  12.9047  13.0051
    13.0742  13.1848  13.2417  13.3264  13.4105  13.6063  13.6443  13.7156
    13.7721  13.8909  13.9255  13.9991  14.0741  14.1184  14.1971  14.3111
    14.3758  14.4041  14.4576  14.4978  14.5600  14.6196  14.6819  14.7736
    14.8269  14.8622  14.9754  15.0006  15.0682  15.1088  15.2125  15.2614
    15.3037  15.4261  15.4626  15.4747  15.6289  15.7097  15.8538  15.9111
    16.0317  16.0991  16.1745  16.2945  16.3667  16.3843  16.4424  16.5155
    16.5774  16.7423  16.7949  16.8850  16.9332  16.9886  17.0797  17.1944
    17.2723  17.3440  17.3663  17.4012  17.5303  17.5715  17.6279  17.6871
    17.7831  17.8272  17.8927  18.0188  18.0627  18.1500  18.2691  18.3662
    18.4160  18.4801  18.5143  18.5821  18.7014  18.7423  18.7713  18.8550
    18.8841  18.9821  19.0897  19.1783  19.2241  19.3172  19.3844  19.4737
    19.5246  19.6402  19.7127  19.7911  19.8386  19.9527  20.0380  20.1412
    20.2453  20.3428  20.4040  20.4968  20.5535  20.6032  20.6334  20.6997
    20.7624  20.8447  20.8926  20.9217  20.9902  21.0430  21.1304  21.1614
    21.2315  21.3033  21.3640  21.4334  21.5197  21.5946  21.6372  21.7515
    21.7804  21.8674  21.9041  21.9684  22.0098  22.0634  22.1074  22.2228
    22.2504  22.3084  22.3534  22.4111  22.4540  22.5291  22.5657  22.6217
    22.6731  22.7202  22.7627  22.8283  22.8675  22.9022  23.0396  23.0808
    23.1157  23.1391  23.2018  23.2782  23.3124  23.3769  23.4214

     the Fermi energy is     0.5763 ev

!    total energy              =   -2204.77059563 Ry
     Harris-Foulkes estimate   =   -2204.77059564 Ry
     estimated scf accuracy    <          7.3E-09 Ry

     The total energy is the sum of the following terms:

     one-electron contribution =  -24725.23943162 Ry
     hartree contribution      =   12387.20681407 Ry
     xc contribution           =    -602.19805046 Ry
     ewald contribution        =   10731.78354984 Ry
     Hubbard energy            =       3.67668140 Ry
     smearing contrib. (-TS)   =      -0.00015887 Ry

     convergence has been achieved in  17 iterations

     Forces acting on atoms (Ry/au):

     negative rho (up, down):  0.238E+00 0.000E+00
     atom    1 type  1   force =    -0.00281944   -0.00526420    0.00000205
     atom    2 type  1   force =     0.00125748    0.00263780   -0.00058665
     atom    3 type  2   force =     0.03361289   -0.00081158   -0.00053171
     atom    4 type  2   force =    -0.00470105    0.00536948    0.00022446
     atom    5 type  1   force =     0.00100568    0.00418441    0.00037579
     atom    6 type  1   force =     0.00116947   -0.00522533    0.00039944
     atom    7 type  1   force =    -0.00171628   -0.00414256   -0.00070992
     atom    8 type  1   force =     0.01415671    0.00188264   -0.00070864
     atom    9 type  2   force =    -0.02877255   -0.00598207   -0.00009892
     atom   10 type  2   force =    -0.00513976    0.00176160   -0.00055633
     atom   11 type  1   force =    -0.02115424    0.01201814    0.00065399
     atom   12 type  1   force =    -0.01298364    0.00252362   -0.00015610
     atom   13 type  1   force =     0.00870702   -0.00435163    0.00009107
     atom   14 type  1   force =    -0.00552285   -0.00558077    0.00013422
     atom   15 type  1   force =     0.00027349    0.00452237   -0.00025814
     atom   16 type  2   force =    -0.02892588   -0.00141880   -0.00020982
     atom   17 type  2   force =     0.00822231    0.00645499   -0.00012240
     atom   18 type  1   force =     0.00009119    0.00486492    0.00038162
     atom   19 type  1   force =    -0.00004036   -0.00525772    0.00054201
     atom   20 type  1   force =    -0.00526414    0.00042882    0.00031548
     atom   21 type  1   force =    -0.00620584    0.00187377   -0.00080690
     atom   22 type  2   force =     0.02048847    0.00151349    0.00021149
     atom   23 type  2   force =     0.00592800   -0.00784369    0.00096962
     atom   24 type  1   force =     0.01963191   -0.00048720    0.00003452
     atom   25 type  1   force =     0.01590638    0.00451808   -0.00077819
     atom   26 type  1   force =    -0.00913411   -0.01025077    0.00006698
     atom   27 type  3   force =     0.00008587    0.00030063   -0.00054095
     atom   28 type  3   force =    -0.00002527   -0.00007245   -0.00028454
     atom   29 type  3   force =     0.00074159   -0.00008922    0.00038544
     atom   30 type  3   force =     0.00050388   -0.00000101    0.00051822
     atom   31 type  1   force =    -0.00030575    0.00094654    0.00048651
     atom   32 type  1   force =     0.00095078    0.00026622    0.00030685
     atom   33 type  3   force =    -0.00002198    0.00071147    0.00024945

     Total force =     0.003204     Total SCF correction =     0.000154

     entering subroutine stress ...

     negative rho (up, down):  0.238E+00 0.000E+00
          total   stress  (Ry/bohr**3)                   (kbar)     P=  -11.08
  -0.00008000  -0.00000072  -0.00000203        -11.77     -0.11     -0.30
  -0.00000072  -0.00010179  -0.00000656         -0.11    -14.97     -0.97
  -0.00000203  -0.00000656  -0.00004413         -0.30     -0.97     -6.49

     bfgs converged in  18 scf cycles and  17 bfgs steps
     (criteria: energy < 0.10E-03, force < 0.10E-02)

     End of BFGS Geometry Optimization

     Final energy   =   -2204.7705956335 Ry
Begin final coordinates

ATOMIC_POSITIONS (crystal)
O0       0.000000000   0.000000000   0.371493789    0   0   1
O0       0.000000000   0.500000000   0.383439039    0   0   1
Re1      0.250000000   0.500000000   0.442237930    0   0   1
Re1      0.000000000   0.000000000   0.443439160    0   0   1
O0       0.250000000   0.780000000   0.441435518    0   0   1
O0       0.250000000   0.220000000   0.441254679    0   0   1
O0       0.000000000   0.500000000   0.497952072    0   0   1
O0       0.000000000   0.000000000   0.513618166    0   0   1
Re1      0.250000000   0.000000000   0.576130990    0   0   1
Re1      0.000000000   0.500000000   0.567615309    0   0   1
O0       0.250000000   0.720000000   0.571612306    0   0   1
O0       0.250000000   0.280000000   0.573470611    0   0   1
O0       0.000000000   0.000000000   0.626033245    0   0   1
O0       0.500000000   0.000000000   0.370941691    0   0   1
O0       0.500000000   0.500000000   0.382450931    0   0   1
Re1      0.750000000   0.500000000   0.442022228    0   0   1
Re1      0.500000000   0.000000000   0.442886234    0   0   1
O0       0.750000000   0.780000000   0.441507806    0   0   1
O0       0.750000000   0.220000000   0.441514598    0   0   1
O0       0.500000000   0.500000000   0.497350076    0   0   1
O0       0.500000000   0.000000000   0.514035294    0   0   1
Re1      0.750000000   0.000000000   0.572006526    0   0   1
Re1      0.500000000   0.500000000   0.574260623    0   0   1
O0       0.750000000   0.720000000   0.570756038    0   0   1
O0       0.750000000   0.280000000   0.572604094    0   0   1
O0       0.500000000   0.000000000   0.625457219    0   0   1
H2       0.000177301   0.620404524   0.364589138
H2       0.499496878   0.625759454   0.366009625
H2       0.168455807   0.022824169   0.356668652
H2       0.669295173   0.022055152   0.356462563
O0       0.496958974   0.524453225   0.642112582
O0       0.503616955   0.341129044   0.674365651
H2       0.499762053   0.404533295   0.706995616
End final coordinates

     General routines

     Parallel routines
     Hubbard U routines

   This run was terminated on:  22: 2:12   2Jun2014

   JOB DONE.
Running PBS batch system epilogue script
Job id: 373387.audhumbla.fysik.dtu.dk
Username: zhonxu
Groupname: campgst
Jobname: ReO2/Eads-2-layers/OOH-U-6.0
Sessionid: 22189
Queuename: verylong
Accounting:
This job has allocated the following 16 nodes:
c041 c041 c041 c041 c041 c041 c041 c041 c002 c002 c002 c002 c002 c002 c002 c002
Finished epilogue job 373387.audhumbla.fysik.dtu.dk for zhonxu