     Program PWSCF v.5.0.2 (svn rev. 9656) starts on 29Apr2014 at  3:24:22

     Current dimensions of program PWSCF are:
     Max number of different atomic species (ntypx) = 10
     Max number of k-points (npk) =  40000
     Max angular momentum in pseudopotentials (lmaxx) =  3
     Reading input from pwscf.in
Warning: card &CELL ignored
Warning: card / ignored

     Subspace diagonalization in iterative solution of the eigenvalue problem:
     a serial algorithm will be used

     bravais-lattice index     =            0
     lattice parameter (alat)  =      12.0187  a.u.
     unit-cell volume          =    7280.5819 (a.u.)^3
     number of atoms/cell      =           31
     number of atomic types    =            3
     number of electrons       =       238.00
     number of Kohn-Sham states=          357
     kinetic-energy cutoff     =      40.0000  Ry
     charge density cutoff     =     500.0000  Ry
     convergence threshold     =      1.0E-06
     mixing beta               =       0.7000
     number of iterations used =            8  plain     mixing
     Exchange-correlation      = SLA  PW   PBE  PBE ( 1 4 3 4 0)
     EXX-fraction              =        0.00
     nstep                     =           50

     celldm(1)=  12.018658  celldm(2)=   0.000000  celldm(3)=   0.000000
     celldm(4)=   0.000000  celldm(5)=   0.000000  celldm(6)=   0.000000

     crystal axes: (cart. coord. in units of alat)
               a(1) = (   1.000000   0.000000   0.000000 )
               a(2) = (   0.000000   1.009517   0.000000 )
               a(3) = (   0.000000   0.000000   4.154171 )

     reciprocal axes: (cart. coord. in units 2 pi/alat)
               b(1) = (  1.000000  0.000000  0.000000 )
               b(2) = (  0.000000  0.990572  0.000000 )
               b(3) = (  0.000000  0.000000  0.240722 )

     PseudoPot. # 1 for O  read from file:
     /home/camp/zhonxu/pseudo/o_pbe_v1.01.uspp.F.UPF
     MD5 check sum: 2bcb18d16ea4b960afae9ec6d52f22d2
     Pseudo is Ultrasoft + core correction, Zval =  6.0
     Generated by new atomic code, or converted to UPF format
     Using radial grid of  737 points,  5 beta functions with:
                l(1) =   0
                l(2) =   0
                l(3) =   1
                l(4) =   1
                l(5) =   2
     Q(r) pseudized with  8 coefficients,  rinner =    0.900   0.900   0.900
                                                       0.900   0.900

     PseudoPot. # 2 for Ir read from file:
     /home/camp/zhonxu/pseudo/ir_pbe_v1.uspp.F.UPF
     MD5 check sum: abf987a9674477536ede83817f8f8b70
     Pseudo is Ultrasoft + core correction, Zval = 15.0
     Generated by new atomic code, or converted to UPF format
     Using radial grid of  983 points,  7 beta functions with:
                l(1) =   0
                l(2) =   0
                l(3) =   1
                l(4) =   1
                l(5) =   1
                l(6) =   2
                l(7) =   2
     Q(r) pseudized with  8 coefficients,  rinner =    1.350   1.350   1.350
                                                       1.350   1.350

     PseudoPot. # 3 for H  read from file:
     /home/camp/zhonxu/pseudo/h_pbe_v1.uspp.F.UPF
     MD5 check sum: 3408e3ff4ec8b0a4e358431e7e038a48
     Pseudo is Ultrasoft, Zval =  1.0
     Generated by new atomic code, or converted to UPF format
     Using radial grid of  615 points,  2 beta functions with:
                l(1) =   0
                l(2) =   0
     Q(r) pseudized with  8 coefficients,  rinner =    0.700

     atomic species   valence    mass     pseudopotential
        O0             6.00    15.99940     O ( 1.00)
        Ir1           15.00   192.22000     Ir( 1.00)
        H2             1.00     1.00794     H ( 1.00)

     Simplified LDA+U calculation (l_max = 2) with parameters (eV):
     atomic species    L          U    alpha       J0     beta
        Ir1            2     3.5000   0.0000   0.0000   0.0000

     No symmetry found

   Cartesian axes

     site n.     atom                  positions (alat units)
         1           O0  tau(   1) = (   0.0000000   0.0000000   1.5706091  )
         2           O0  tau(   2) = (   0.0000000   0.5047586   1.6747957  )
         3           Ir1 tau(   3) = (   0.2500000   0.5047586   1.8830443  )
         4           Ir1 tau(   4) = (   0.0000000   0.0000000   1.8812580  )
         5           O0  tau(   5) = (   0.2500000   0.8177090   1.8812996  )
         6           O0  tau(   6) = (   0.2500000   0.1918083   1.8799287  )
         7           O0  tau(   7) = (   0.0000000   0.5047586   2.0722253  )
         8           O0  tau(   8) = (   0.0000000   0.0000000   2.1948149  )
         9           Ir1 tau(   9) = (   0.2500000   0.0000000   2.3898532  )
        10           Ir1 tau(  10) = (   0.0000000   0.5047586   2.3761029  )
        11           O0  tau(  11) = (   0.2500000   0.6965669   2.3876930  )
        12           O0  tau(  12) = (   0.2500000   0.3129503   2.3878177  )
        13           O0  tau(  13) = (   0.0000000   0.0000000   2.5742569  )
        14           O0  tau(  14) = (   0.5000000   0.0000000   1.5702768  )
        15           O0  tau(  15) = (   0.5000000   0.5047586   1.6724694  )
        16           Ir1 tau(  16) = (   0.7500000   0.5047586   1.8830859  )
        17           Ir1 tau(  17) = (   0.5000000   0.0000000   1.8811334  )
        18           O0  tau(  18) = (   0.7500000   0.8177090   1.8813411  )
        19           O0  tau(  19) = (   0.7500000   0.1918083   1.8799702  )
        20           O0  tau(  20) = (   0.5000000   0.5047586   2.0802013  )
        21           O0  tau(  21) = (   0.5000000   0.0000000   2.1944825  )
        22           Ir1 tau(  22) = (   0.7500000   0.0000000   2.3898532  )
        23           Ir1 tau(  23) = (   0.5000000   0.5047586   2.4038943  )
        24           O0  tau(  24) = (   0.7500000   0.6965669   2.3876515  )
        25           O0  tau(  25) = (   0.7500000   0.3129503   2.3878177  )
        26           O0  tau(  26) = (   0.5000000   0.0000000   2.5734260  )
        27           H2  tau(  27) = (  -0.0000700   0.6394282   1.5957418  )
        28           H2  tau(  28) = (   0.4999700   0.6419823   1.5977358  )
        29           H2  tau(  29) = (   0.1436200   0.0342933   1.5227115  )
        30           H2  tau(  30) = (   0.6432900   0.0353230   1.5222545  )
        31           O0  tau(  31) = (   0.5000100   0.5042640   2.6822238  )

     number of k points=    10  Methfessel-Paxton smearing, width (Ry)=  0.0100
                       cart. coord. in units 2pi/alat
        k(    1) = (   0.0000000   0.0000000   0.0000000), wk =   0.1250000
        k(    2) = (   0.0000000   0.2476431   0.0000000), wk =   0.2500000
        k(    3) = (   0.0000000  -0.4952862   0.0000000), wk =   0.1250000
        k(    4) = (   0.2500000   0.0000000   0.0000000), wk =   0.2500000
        k(    5) = (   0.2500000   0.2476431   0.0000000), wk =   0.2500000
        k(    6) = (   0.2500000  -0.4952862   0.0000000), wk =   0.2500000
        k(    7) = (  -0.5000000   0.0000000   0.0000000), wk =   0.1250000
        k(    8) = (  -0.5000000   0.2476431   0.0000000), wk =   0.2500000
        k(    9) = (  -0.5000000  -0.4952862   0.0000000), wk =   0.1250000
        k(   10) = (  -0.2500000   0.2476431   0.0000000), wk =   0.2500000

     Largest allocated arrays     est. size (Mb)     dimensions
     Largest temporary arrays     est. size (Mb)     dimensions

     Check: negative/imaginary core charge=   -0.000003    0.000000

     Initial potential from superposition of free atoms
     Check: negative starting charge=   -3.336659

     starting charge  233.99968, renormalised to  238.00000

     negative rho (up, down):  0.339E+01 0.000E+00
     Number of +U iterations with fixed ns =  0
     Starting occupations:
 --- enter write_ns ---
 LDA+U parameters:
U( 2)     =  3.50000000
alpha( 2) =  0.00000000
atom    3   Tr[ns(na)] =   7.00000
    eigenvalues:
  0.700  0.700  0.700  0.700  0.700
    eigenvectors:
  1.000  0.000  0.000  0.000  0.000
  0.000  1.000  0.000  0.000  0.000
  0.000  0.000  1.000  0.000  0.000
  0.000  0.000  0.000  1.000  0.000
  0.000  0.000  0.000  0.000  1.000
    occupations:
  0.700  0.000  0.000  0.000  0.000
  0.000  0.700  0.000  0.000  0.000
  0.000  0.000  0.700  0.000  0.000
  0.000  0.000  0.000  0.700  0.000
  0.000  0.000  0.000  0.000  0.700
atom    4   Tr[ns(na)] =   7.00000
    eigenvalues:
  0.700  0.700  0.700  0.700  0.700
    eigenvectors:
  1.000  0.000  0.000  0.000  0.000
  0.000  1.000  0.000  0.000  0.000
  0.000  0.000  1.000  0.000  0.000
  0.000  0.000  0.000  1.000  0.000
  0.000  0.000  0.000  0.000  1.000
    occupations:
  0.700  0.000  0.000  0.000  0.000
  0.000  0.700  0.000  0.000  0.000
  0.000  0.000  0.700  0.000  0.000
  0.000  0.000  0.000  0.700  0.000
  0.000  0.000  0.000  0.000  0.700
atom    9   Tr[ns(na)] =   7.00000
    eigenvalues:
  0.700  0.700  0.700  0.700  0.700
    eigenvectors:
  1.000  0.000  0.000  0.000  0.000
  0.000  1.000  0.000  0.000  0.000
  0.000  0.000  1.000  0.000  0.000
  0.000  0.000  0.000  1.000  0.000
  0.000  0.000  0.000  0.000  1.000
    occupations:
  0.700  0.000  0.000  0.000  0.000
  0.000  0.700  0.000  0.000  0.000
  0.000  0.000  0.700  0.000  0.000
  0.000  0.000  0.000  0.700  0.000
  0.000  0.000  0.000  0.000  0.700
atom   10   Tr[ns(na)] =   7.00000
    eigenvalues:
  0.700  0.700  0.700  0.700  0.700
    eigenvectors:
  1.000  0.000  0.000  0.000  0.000
  0.000  1.000  0.000  0.000  0.000
  0.000  0.000  1.000  0.000  0.000
  0.000  0.000  0.000  1.000  0.000
  0.000  0.000  0.000  0.000  1.000
    occupations:
  0.700  0.000  0.000  0.000  0.000
  0.000  0.700  0.000  0.000  0.000
  0.000  0.000  0.700  0.000  0.000
  0.000  0.000  0.000  0.700  0.000
  0.000  0.000  0.000  0.000  0.700
atom   16   Tr[ns(na)] =   7.00000
    eigenvalues:
  0.700  0.700  0.700  0.700  0.700
    eigenvectors:
  1.000  0.000  0.000  0.000  0.000
  0.000  1.000  0.000  0.000  0.000
  0.000  0.000  1.000  0.000  0.000
  0.000  0.000  0.000  1.000  0.000
  0.000  0.000  0.000  0.000  1.000
    occupations:
  0.700  0.000  0.000  0.000  0.000
  0.000  0.700  0.000  0.000  0.000
  0.000  0.000  0.700  0.000  0.000
  0.000  0.000  0.000  0.700  0.000
  0.000  0.000  0.000  0.000  0.700
atom   17   Tr[ns(na)] =   7.00000
    eigenvalues:
  0.700  0.700  0.700  0.700  0.700
    eigenvectors:
  1.000  0.000  0.000  0.000  0.000
  0.000  1.000  0.000  0.000  0.000
  0.000  0.000  1.000  0.000  0.000
  0.000  0.000  0.000  1.000  0.000
  0.000  0.000  0.000  0.000  1.000
    occupations:
  0.700  0.000  0.000  0.000  0.000
  0.000  0.700  0.000  0.000  0.000
  0.000  0.000  0.700  0.000  0.000
  0.000  0.000  0.000  0.700  0.000
  0.000  0.000  0.000  0.000  0.700
atom   22   Tr[ns(na)] =   7.00000
    eigenvalues:
  0.700  0.700  0.700  0.700  0.700
    eigenvectors:
  1.000  0.000  0.000  0.000  0.000
  0.000  1.000  0.000  0.000  0.000
  0.000  0.000  1.000  0.000  0.000
  0.000  0.000  0.000  1.000  0.000
  0.000  0.000  0.000  0.000  1.000
    occupations:
  0.700  0.000  0.000  0.000  0.000
[...]
  1.000  0.000  0.000  0.000  0.000
    occupations:
  0.671 -0.003 -0.001  0.032  0.001
 -0.003  0.924  0.012  0.000 -0.002
 -0.001  0.012  0.871 -0.000  0.000
  0.032  0.000 -0.000  0.980  0.000
  0.001 -0.002  0.000  0.000  0.619
atom    9   Tr[ns(na)] =   8.11600
    eigenvalues:
  0.652  0.666  0.859  0.900  0.981
    eigenvectors:
  0.000  0.139  0.000  0.000  0.860
  0.999  0.001  0.000  0.000  0.000
  0.000  0.000  0.969  0.031  0.000
  0.001  0.859  0.000  0.000  0.140
  0.000  0.000  0.031  0.969  0.000
    occupations:
  0.937  0.001 -0.000 -0.109 -0.000
  0.001  0.652  0.000  0.000 -0.000
 -0.000  0.000  0.861 -0.000 -0.007
 -0.109  0.000 -0.000  0.710  0.001
 -0.000 -0.000 -0.007  0.001  0.898
atom   10   Tr[ns(na)] =   8.09968
    eigenvalues:
  0.578  0.606  0.939  0.944  0.982
    eigenvectors:
  0.991  0.000  0.000  0.000  0.009
  0.000  0.000  0.999  0.001  0.000
  0.000  0.000  0.001  0.999  0.000
  0.009  0.000  0.000  0.000  0.991
  0.000  1.000  0.000  0.000  0.000
    occupations:
  0.582  0.000  0.001  0.037 -0.000
  0.000  0.939 -0.000  0.000 -0.000
  0.001 -0.000  0.944  0.000  0.000
  0.037  0.000  0.000  0.979 -0.000
 -0.000 -0.000  0.000 -0.000  0.606
atom   16   Tr[ns(na)] =   8.14396
    eigenvalues:
  0.603  0.630  0.893  0.965  0.980
    eigenvectors:
  0.001  0.184  0.003  0.001  0.811
  0.995  0.004  0.000  0.000  0.000
  0.000  0.000  0.988  0.009  0.003
  0.003  0.812  0.000  0.000  0.185
  0.000  0.000  0.009  0.990  0.001
    occupations:
  0.915  0.004  0.004 -0.136  0.001
  0.004  0.604  0.000 -0.000 -0.005
  0.004  0.000  0.894 -0.004 -0.007
 -0.136 -0.000 -0.004  0.695 -0.000
  0.001 -0.005 -0.007 -0.000  0.964
atom   17   Tr[ns(na)] =   8.12783
    eigenvalues:
  0.619  0.667  0.874  0.921  0.984
    eigenvectors:
  0.000  0.989  0.000  0.000  0.010
  0.000  0.000  0.075  0.924  0.000
  0.000  0.000  0.925  0.075  0.000
  0.000  0.010  0.000  0.000  0.990
  1.000  0.000  0.000  0.000  0.000
    occupations:
  0.670 -0.003 -0.001  0.032  0.001
 -0.003  0.917  0.012  0.000 -0.002
 -0.001  0.012  0.877 -0.000  0.000
  0.032  0.000 -0.000  0.980  0.000
  0.001 -0.002  0.000  0.000  0.619
atom   22   Tr[ns(na)] =   8.11600
    eigenvalues:
  0.652  0.666  0.859  0.900  0.981
    eigenvectors:
  0.000  0.140  0.000  0.000  0.860
  1.000  0.000  0.000  0.000  0.000
  0.000  0.000  0.971  0.029  0.000
  0.000  0.860  0.000  0.000  0.140
  0.000  0.000  0.029  0.971  0.000
    occupations:
  0.937 -0.000 -0.000 -0.109 -0.000
 -0.000  0.652  0.000  0.000 -0.000
 -0.000  0.000  0.860 -0.000  0.007
 -0.109  0.000 -0.000  0.710  0.000
 -0.000 -0.000  0.007  0.000  0.898
atom   23   Tr[ns(na)] =   8.08972
    eigenvalues:
  0.652  0.717  0.818  0.872  0.986
    eigenvectors:
  0.000  0.991  0.000  0.000  0.009
  0.000  0.000  0.000  1.000  0.000
  0.000  0.000  1.000  0.000  0.000
  0.000  0.009  0.000  0.000  0.991
  1.000  0.000  0.000  0.000  0.000
    occupations:
  0.720  0.000 -0.000  0.026 -0.000
  0.000  0.872 -0.000  0.000 -0.000
 -0.000 -0.000  0.818  0.000  0.000
  0.026  0.000  0.000  0.983  0.000
 -0.000 -0.000  0.000  0.000  0.652
N of occupied +U levels =  64.9665261
 --- exit write_ns ---

     Threshold (ethr) on eigenvalues was too large:
     Diagonalizing with lowered threshold

     Davidson diagonalization with overlap
     ethr =  3.96E-09,  avg # of iterations =  2.0

[...]

     total energy              =   -2104.77676963 Ry
     Harris-Foulkes estimate   =   -2104.77676963 Ry
     estimated scf accuracy    <       0.00000007 Ry

     iteration # 14     ecut=    40.00 Ry     beta=0.70
     Davidson diagonalization with overlap
     ethr =  1.40E-11,  avg # of iterations =  1.0

     negative rho (up, down):  0.313E+01 0.000E+00

     End of self-consistent calculation
 --- enter write_ns ---
 LDA+U parameters:
U( 2)     =  3.50000000
alpha( 2) =  0.00000000
atom    3   Tr[ns(na)] =   8.14372
    eigenvalues:
  0.603  0.630  0.893  0.965  0.980
    eigenvectors:
  0.002  0.184  0.003  0.001  0.811
  0.995  0.005  0.000  0.000  0.000
  0.000  0.000  0.985  0.012  0.003
  0.003  0.811  0.000  0.000  0.185
  0.000  0.000  0.012  0.987  0.001
    occupations:
  0.915 -0.004  0.003 -0.136 -0.001
 -0.004  0.604 -0.001  0.000 -0.005
  0.003 -0.001  0.894 -0.004  0.008
 -0.136  0.000 -0.004  0.695 -0.000
 -0.001 -0.005  0.008 -0.000  0.964
atom    4   Tr[ns(na)] =   8.12916
    eigenvalues:
  0.619  0.667  0.868  0.926  0.983
    eigenvectors:
  0.000  0.989  0.000  0.000  0.011
  0.000  0.000  0.043  0.957  0.000
  0.000  0.000  0.957  0.043  0.000
  0.000  0.011  0.000  0.000  0.989
  1.000  0.000  0.000  0.000  0.000
    occupations:
  0.671 -0.003 -0.001  0.032  0.001
 -0.003  0.924  0.012  0.000 -0.002
 -0.001  0.012  0.871 -0.000  0.000
  0.032  0.000 -0.000  0.980  0.000
  0.001 -0.002  0.000  0.000  0.619
atom    9   Tr[ns(na)] =   8.11631
    eigenvalues:
  0.652  0.666  0.859  0.900  0.981
    eigenvectors:
  0.000  0.139  0.000  0.000  0.860
  0.999  0.001  0.000  0.000  0.000
  0.000  0.000  0.969  0.031  0.000
  0.001  0.859  0.000  0.000  0.140
  0.000  0.000  0.031  0.969  0.000
    occupations:
  0.937  0.001 -0.000 -0.109 -0.000
  0.001  0.652  0.000  0.000 -0.000
 -0.000  0.000  0.861 -0.000 -0.007
 -0.109  0.000 -0.000  0.710  0.001
 -0.000 -0.000 -0.007  0.001  0.898
atom   10   Tr[ns(na)] =   8.09998
    eigenvalues:
  0.578  0.606  0.939  0.944  0.982
    eigenvectors:
  0.991  0.000  0.000  0.000  0.009
  0.000  0.000  0.999  0.001  0.000
  0.000  0.000  0.001  0.999  0.000
  0.009  0.000  0.000  0.000  0.991
  0.000  1.000  0.000  0.000  0.000
    occupations:
  0.582  0.000  0.001  0.037 -0.000
  0.000  0.939 -0.000  0.000 -0.000
  0.001 -0.000  0.944  0.000  0.000
  0.037  0.000  0.000  0.979 -0.000
 -0.000 -0.000  0.000 -0.000  0.606
atom   16   Tr[ns(na)] =   8.14364
    eigenvalues:
  0.603  0.630  0.893  0.965  0.980
    eigenvectors:
  0.001  0.184  0.003  0.001  0.811
  0.995  0.004  0.000  0.000  0.000
  0.000  0.000  0.988  0.009  0.003
  0.003  0.812  0.000  0.000  0.185
  0.000  0.000  0.009  0.990  0.001
    occupations:
  0.915  0.004  0.004 -0.136  0.001
  0.004  0.604  0.000 -0.000 -0.005
  0.004  0.000  0.894 -0.004 -0.007
 -0.136 -0.000 -0.004  0.695 -0.000
  0.001 -0.005 -0.007 -0.000  0.964
atom   17   Tr[ns(na)] =   8.12773
    eigenvalues:
  0.619  0.667  0.874  0.921  0.984
    eigenvectors:
  0.000  0.989  0.000  0.000  0.010
  0.000  0.000  0.075  0.925  0.000
  0.000  0.000  0.925  0.075  0.000
  0.000  0.010  0.000  0.000  0.990
  1.000  0.000  0.000  0.000  0.000
    occupations:
  0.670 -0.003 -0.001  0.032  0.001
 -0.003  0.917  0.012  0.000 -0.002
 -0.001  0.012  0.877 -0.000  0.000
  0.032  0.000 -0.000  0.980  0.000
  0.001 -0.002  0.000  0.000  0.619
atom   22   Tr[ns(na)] =   8.11626
    eigenvalues:
  0.652  0.666  0.859  0.900  0.981
    eigenvectors:
  0.000  0.140  0.000  0.000  0.860
  1.000  0.000  0.000  0.000  0.000
  0.000  0.000  0.971  0.029  0.000
  0.000  0.860  0.000  0.000  0.140
  0.000  0.000  0.029  0.971  0.000
    occupations:
  0.937 -0.000 -0.000 -0.109 -0.000
 -0.000  0.652  0.000  0.000 -0.000
 -0.000  0.000  0.861 -0.000  0.007
 -0.109  0.000 -0.000  0.710  0.000
 -0.000 -0.000  0.007  0.000  0.898
atom   23   Tr[ns(na)] =   8.08967
    eigenvalues:
  0.652  0.717  0.818  0.872  0.986
    eigenvectors:
  0.000  0.991  0.000  0.000  0.009
  0.000  0.000  0.000  1.000  0.000
  0.000  0.000  1.000  0.000  0.000
  0.000  0.009  0.000  0.000  0.991
  1.000  0.000  0.000  0.000  0.000
    occupations:
  0.720  0.000 -0.000  0.026 -0.000
  0.000  0.872 -0.000  0.000 -0.000
 -0.000 -0.000  0.818  0.000  0.000
  0.026  0.000  0.000  0.983  0.000
 -0.000 -0.000  0.000  0.000  0.652
N of occupied +U levels =  64.9664676
 --- exit write_ns ---

[...]

          k = 0.2500-0.4953 0.0000 ( 31088 PWs)   bands (ev):

[...]

          k =-0.2500 0.2476 0.0000 ( 31099 PWs)   bands (ev):

   -52.1406 -51.8392 -51.7223 -50.9906 -50.9858 -50.9146 -50.8704 -50.8561
   -50.8449 -50.8376 -50.7939 -50.7556 -50.7398 -50.6986 -50.6725 -50.5908
   -50.5866 -50.5723 -50.5039 -50.4976 -50.4867 -50.4642 -50.4529 -50.3815
   -21.6861 -21.4218 -21.3050 -21.2672 -20.9359 -20.8345 -20.7617 -20.6905
   -20.5174 -20.5066 -20.4354 -20.3582 -20.2200 -20.1563 -20.0353 -19.8515
   -19.2027 -19.0751 -18.9546 -10.4755 -10.3807 -10.1476  -9.8644  -9.5690
    -9.4759  -9.4594  -9.3017  -9.1609  -9.0476  -9.0119  -8.9702  -8.8744
    -8.6849  -8.5330  -8.5161  -8.3168  -8.2115  -7.9681  -7.8643  -7.6623
    -7.5757  -7.5055  -7.3671  -7.2877  -7.1164  -6.9486  -6.8409  -6.7674
    -6.6234  -6.5751  -6.4916  -6.3723  -6.3293  -6.2543  -6.1588  -6.0795
    -5.9116  -5.8353  -5.7113  -5.5532  -5.4651  -5.3553  -5.1709  -5.1024
    -5.0076  -4.8352  -4.7238  -4.6021  -4.5282  -4.4448  -4.2979  -4.0102
    -3.8818  -3.7860  -3.7185  -3.6199  -3.4885  -3.4031  -3.3073  -3.2319
    -3.1773  -3.0646  -3.0101  -2.9731  -2.8878  -2.7879  -2.7081  -2.5865
    -2.4902  -2.0814  -1.9735  -1.8185  -1.7007  -1.4883  -1.2860  -1.1867
    -1.1295  -0.9627  -0.8801  -0.6459  -0.1799   0.4797   0.7627   1.1275
     1.4140   1.5623   1.9001   2.0786   2.3781   2.5290   2.5826   2.7538
     2.8876   3.1056   3.1394   3.5782   3.6834   4.5491   4.8442   5.3202
     5.4074   5.5325   5.5765   6.1750   6.4431   6.5230   6.6759   6.7675
     6.8608   6.9543   7.1691   7.3040   7.3313   7.3855   7.5476   7.8199
     7.9054   7.9828   8.0330   8.0560   8.1620   8.2885   8.4088   8.4772
     8.5466   8.7519   8.8399   8.9252   9.0149   9.0458   9.0666   9.0683
     9.0990   9.1025   9.1501   9.1821   9.2876   9.2904   9.3021   9.4360
     9.5142   9.6159   9.6869   9.7576   9.8466   9.9434  10.0269  10.1533
    10.2031  10.3087  10.4076  10.4483  10.4999  10.5487  10.6636  10.8548
    10.9088  10.9990  11.0571  11.1023  11.1597  11.3143  11.4345  11.5553
    11.6148  11.6680  11.7641  11.8023  11.8461  12.0370  12.1229  12.1898
    12.2440  12.2731  12.3928  12.5160  12.5724  12.6427  12.6917  12.7300
    12.8068  12.8786  12.9283  12.9935  13.0689  13.0989  13.1799  13.2441
    13.2951  13.4329  13.4476  13.5543  13.6601  13.8406  13.9017  13.9135
    14.0221  14.0718  14.1882  14.2417  14.2963  14.4197  14.4448  14.5925
    14.6863  14.7737  14.8156  14.9412  15.0567  15.1191  15.2153  15.3326
    15.3901  15.4523  15.5616  15.5891  15.6665  15.7548  15.8036  15.8484
    15.9471  16.0132  16.0268  16.1263  16.1544  16.2227  16.3188  16.3483
    16.4014  16.4198  16.5230  16.5582  16.6204  16.7000  16.7384  16.7790
    16.8287  16.9824  17.1544  17.1816  17.2314  17.3121  17.3490  17.4638
    17.4959  17.5407  17.5779  17.6726  17.7313  17.7778  17.8665  17.9182
    17.9727  18.0007  18.0564  18.1833  18.2059  18.2555  18.3601  18.4925
    18.5286  18.5928  18.6282  18.7180  18.7822  18.8933  18.9797  19.0209
    19.0626  19.1203  19.1739  19.2529  19.2700  19.3448  19.3896  19.5311
    19.6100  19.6423  19.6757  19.7533  19.8794  19.9322  19.9937  20.0646
    20.1939  20.2741  20.3243  20.3852  20.4659  20.5222  20.6014  20.7011
    20.7332  20.7848  20.8310  20.8677  20.8740  20.9561  21.0640  21.1605
    21.2522  21.3008  21.3631  21.4081  21.4732  21.5380  21.5560  21.6701
    21.7564  21.8171  21.8576  21.8864  21.9375

     the Fermi energy is    -1.3172 ev

!    total energy              =   -2104.77676962 Ry
     Harris-Foulkes estimate   =   -2104.77676963 Ry
     estimated scf accuracy    <          7.8E-09 Ry

     The total energy is the sum of the following terms:

     one-electron contribution =  -22721.67588289 Ry
     hartree contribution      =   11402.77859022 Ry
     xc contribution           =    -576.33668000 Ry
     ewald contribution        =    9789.11226649 Ry
     Hubbard energy            =       1.34502468 Ry
     smearing contrib. (-TS)   =      -0.00008812 Ry

     convergence has been achieved in  14 iterations

     Forces acting on atoms (Ry/au):

     negative rho (up, down):  0.313E+01 0.000E+00
     atom    1 type  1   force =    -0.00753961   -0.01301033   -0.00035933
     atom    2 type  1   force =     0.00001657    0.00329388    0.00019304
     atom    3 type  2   force =     0.03572587    0.00776010   -0.00041642
     atom    4 type  2   force =     0.00956718    0.00834388   -0.00001132
     atom    5 type  1   force =    -0.00348221   -0.01622063    0.00006635
     atom    6 type  1   force =     0.00633246    0.01394400    0.00019673
     atom    7 type  1   force =    -0.00035779   -0.00212062   -0.00030978
     atom    8 type  1   force =    -0.00352819   -0.00075667    0.00006352
     atom    9 type  2   force =     0.00665834    0.00065236   -0.00012353
     atom   10 type  2   force =     0.00000078   -0.00094691   -0.00078540
     atom   11 type  1   force =     0.00731064    0.00774312   -0.00005347
     atom   12 type  1   force =     0.00678184   -0.00827899   -0.00007121
     atom   13 type  1   force =    -0.00090122   -0.00001569    0.00030408
     atom   14 type  1   force =    -0.00795761   -0.01359346   -0.00031705
     atom   15 type  1   force =     0.00010407    0.00385826   -0.00025288
     atom   16 type  2   force =    -0.03578956    0.00659150   -0.00044478
     atom   17 type  2   force =     0.00948889    0.00853804   -0.00020418
     atom   18 type  1   force =    -0.00454664   -0.01558871    0.00008372
     atom   19 type  1   force =     0.00435711    0.01460877    0.00019050
     atom   20 type  1   force =    -0.00022671   -0.00521353    0.00060291
     atom   21 type  1   force =    -0.00332792   -0.00049903   -0.00014535
     atom   22 type  2   force =    -0.00413562    0.00050993   -0.00011192
     atom   23 type  2   force =    -0.00006769    0.00033755    0.00033806
     atom   24 type  1   force =    -0.00726550    0.00773356   -0.00006338
     atom   25 type  1   force =    -0.00658304   -0.00827841   -0.00007156
     atom   26 type  1   force =    -0.00082333   -0.00013618   -0.00011322
     atom   27 type  3   force =    -0.00000111   -0.00000679    0.00064937
     atom   28 type  3   force =     0.00001793    0.00026112    0.00066038
     atom   29 type  3   force =     0.00016542    0.00011228    0.00008682
     atom   30 type  3   force =     0.00001342    0.00040762    0.00010379
     atom   31 type  1   force =    -0.00000674   -0.00003003    0.00031552

     Total force =     0.001857     Total SCF correction =     0.000256
     SCF correction compared to forces is large: reduce conv_thr to get better values

     bfgs converged in   8 scf cycles and   7 bfgs steps
     (criteria: energy < 0.10E-03, force < 0.10E-02)

     End of BFGS Geometry Optimization

     Final energy   =   -2104.7767696225 Ry
Begin final coordinates

ATOMIC_POSITIONS (crystal)
O0       0.000000000   0.000000000   0.378357276    0   0   1
O0       0.000000000   0.500000000   0.403578920    0   0   1
Ir1      0.250000000   0.500000000   0.453467096    0   0   1
Ir1      0.000000000   0.000000000   0.452877387    0   0   1
O0       0.250000000   0.810000000   0.453036465    0   0   1
O0       0.250000000   0.190000000   0.452599680    0   0   1
O0       0.000000000   0.500000000   0.499364306    0   0   1
O0       0.000000000   0.000000000   0.528174793    0   0   1
Ir1      0.250000000   0.000000000   0.574920835    0   0   1
Ir1      0.000000000   0.500000000   0.572069037    0   0   1
O0       0.250000000   0.690000000   0.574426295    0   0   1
O0       0.250000000   0.310000000   0.574450193    0   0   1
O0       0.000000000   0.000000000   0.619295002    0   0   1
O0       0.500000000   0.000000000   0.378234428    0   0   1
O0       0.500000000   0.500000000   0.403014194    0   0   1
Ir1      0.750000000   0.500000000   0.453472256    0   0   1
Ir1      0.500000000   0.000000000   0.452835657    0   0   1
O0       0.750000000   0.810000000   0.453053383    0   0   1
O0       0.750000000   0.190000000   0.452605362    0   0   1
O0       0.500000000   0.500000000   0.501264995    0   0   1
O0       0.500000000   0.000000000   0.528187092    0   0   1
Ir1      0.750000000   0.000000000   0.574925012    0   0   1
Ir1      0.500000000   0.500000000   0.578028383    0   0   1
O0       0.750000000   0.690000000   0.574426854    0   0   1
O0       0.750000000   0.310000000   0.574452639    0   0   1
O0       0.500000000   0.000000000   0.619295209    0   0   1
H2      -0.000151708   0.632956341   0.384470209
H2       0.499902150   0.635687417   0.385061872
H2       0.143343379   0.034138261   0.366646072
H2       0.642860183   0.035732928   0.366507163
O0       0.500006129   0.499454139   0.644961934
End final coordinates

     General routines

     Parallel routines
     Hubbard U routines

   This run was terminated on:  11:42:50  29Apr2014

   JOB DONE.