     Program PWSCF v.5.0.2 (svn rev. 9656) starts on 23Jan2014 at 18:13:11

     Current dimensions of program PWSCF are:
     Max number of different atomic species (ntypx) = 10
     Max number of k-points (npk) =  40000
     Max angular momentum in pseudopotentials (lmaxx) =  3
     Reading input from TiO2-v-0.9.in

     Subspace diagonalization in iterative solution of the eigenvalue problem:
     a serial algorithm will be used

     bravais-lattice index     =            0
     lattice parameter (alat)  =       8.3602  a.u.
     unit-cell volume          =     376.5571 (a.u.)^3
     number of atoms/cell      =            6
     number of atomic types    =            2
     number of electrons       =        48.00
     number of Kohn-Sham states=           69
     kinetic-energy cutoff     =      40.0000  Ry
     charge density cutoff     =     500.0000  Ry
     convergence threshold     =      1.0E-06
     mixing beta               =       0.7000
     number of iterations used =            8  plain     mixing
     Exchange-correlation      = SLA  PW   PBE  PBE ( 1 4 3 4 0)
     EXX-fraction              =        0.00
     nstep                     =           50

     celldm(1)=   8.360170  celldm(2)=   0.000000  celldm(3)=   0.000000
     celldm(4)=   0.000000  celldm(5)=   0.000000  celldm(6)=   0.000000

     crystal axes: (cart. coord. in units of alat)
               a(1) = (   1.000000   0.000000   0.000000 )
               a(2) = (   0.000000   1.000000   0.000000 )
               a(3) = (   0.000000   0.000000   0.644444 )

     reciprocal axes: (cart. coord. in units 2 pi/alat)
               b(1) = (  1.000000  0.000000  0.000000 )
               b(2) = (  0.000000  1.000000  0.000000 )
               b(3) = (  0.000000  0.000000  1.551724 )

     PseudoPot. # 1 for Ti read from file:
     /home/camp/zhonxu/pseudo/ti_pbe_v1.uspp.F.UPF
     MD5 check sum: bcc8f6961b3b91f0cac3ca967d22d0fb
     Pseudo is Ultrasoft + core correction, Zval = 12.0
     Generated by new atomic code, or converted to UPF format
     Using radial grid of  851 points,  6 beta functions with:
                l(1) =   0
                l(2) =   0
                l(3) =   1
                l(4) =   1
                l(5) =   2
                l(6) =   2
     Q(r) pseudized with  6 coefficients,  rinner =    1.000   1.000   1.000
                                                       1.000   1.000

     PseudoPot. # 2 for O  read from file:
     /home/camp/zhonxu/pseudo/o_pbe_v1.01.uspp.F.UPF
     MD5 check sum: 2bcb18d16ea4b960afae9ec6d52f22d2
     Pseudo is Ultrasoft + core correction, Zval =  6.0
     Generated by new atomic code, or converted to UPF format
     Using radial grid of  737 points,  5 beta functions with:
                l(1) =   0
                l(2) =   0
                l(3) =   1
                l(4) =   1
                l(5) =   2
     Q(r) pseudized with  8 coefficients,  rinner =    0.900   0.900   0.900
                                                       0.900   0.900

     atomic species   valence    mass     pseudopotential
        Ti0           12.00    47.88000     Ti( 1.00)
        O1             6.00    15.99940     O ( 1.00)

     Starting magnetic structure
     atomic species   magnetization
        Ti0          0.600
        O1           0.000

     16 Sym. Ops., with inversion, found ( 8 have fractional translation)

   Cartesian axes

     site n.     atom                  positions (alat units)
         1           Ti0 tau(   1) = (   0.0000000   0.0000000   0.0000000  )
         2           Ti0 tau(   2) = (   0.5000000   0.5000000   0.3222222  )
         3           O1  tau(   3) = (   0.3050000   0.3050000   0.0000000  )
         4           O1  tau(   4) = (  -0.3050000  -0.3050000   0.0000000  )
         5           O1  tau(   5) = (   0.8050000   0.1950000   0.3222222  )
         6           O1  tau(   6) = (   0.1950000   0.8050000   0.3222222  )

     number of k points=    36  Methfessel-Paxton smearing, width (Ry)=  0.0100
                       cart. coord. in units 2pi/alat
        k(    1) = (   0.0000000   0.0000000   0.0000000), wk =   0.0080000
        k(    2) = (   0.0000000   0.0000000   0.3103448), wk =   0.0160000
        k(    3) = (   0.0000000   0.0000000   0.6206897), wk =   0.0160000
        k(    4) = (   0.0000000   0.2000000   0.0000000), wk =   0.0320000
        k(    5) = (   0.0000000   0.2000000   0.3103448), wk =   0.0640000
        k(    6) = (   0.0000000   0.2000000   0.6206897), wk =   0.0640000
        k(    7) = (   0.0000000   0.4000000   0.0000000), wk =   0.0320000
        k(    8) = (   0.0000000   0.4000000   0.3103448), wk =   0.0640000
        k(    9) = (   0.0000000   0.4000000   0.6206897), wk =   0.0640000
        k(   10) = (   0.2000000   0.2000000   0.0000000), wk =   0.0320000
        k(   11) = (   0.2000000   0.2000000   0.3103448), wk =   0.0640000
        k(   12) = (   0.2000000   0.2000000   0.6206897), wk =   0.0640000
        k(   13) = (   0.2000000   0.4000000   0.0000000), wk =   0.0640000
        k(   14) = (   0.2000000   0.4000000   0.3103448), wk =   0.1280000
        k(   15) = (   0.2000000   0.4000000   0.6206897), wk =   0.1280000
        k(   16) = (   0.4000000   0.4000000   0.0000000), wk =   0.0320000
        k(   17) = (   0.4000000   0.4000000   0.3103448), wk =   0.0640000
        k(   18) = (   0.4000000   0.4000000   0.6206897), wk =   0.0640000
        k(   19) = (   0.0000000   0.0000000   0.0000000), wk =   0.0080000
        k(   20) = (   0.0000000   0.0000000   0.3103448), wk =   0.0160000
        k(   21) = (   0.0000000   0.0000000   0.6206897), wk =   0.0160000
        k(   22) = (   0.0000000   0.2000000   0.0000000), wk =   0.0320000
        k(   23) = (   0.0000000   0.2000000   0.3103448), wk =   0.0640000
        k(   24) = (   0.0000000   0.2000000   0.6206897), wk =   0.0640000
        k(   25) = (   0.0000000   0.4000000   0.0000000), wk =   0.0320000
        k(   26) = (   0.0000000   0.4000000   0.3103448), wk =   0.0640000
        k(   27) = (   0.0000000   0.4000000   0.6206897), wk =   0.0640000
        k(   28) = (   0.2000000   0.2000000   0.0000000), wk =   0.0320000
        k(   29) = (   0.2000000   0.2000000   0.3103448), wk =   0.0640000
        k(   30) = (   0.2000000   0.2000000   0.6206897), wk =   0.0640000
        k(   31) = (   0.2000000   0.4000000   0.0000000), wk =   0.0640000
        k(   32) = (   0.2000000   0.4000000   0.3103448), wk =   0.1280000
        k(   33) = (   0.2000000   0.4000000   0.6206897), wk =   0.1280000
        k(   34) = (   0.4000000   0.4000000   0.0000000), wk =   0.0320000
        k(   35) = (   0.4000000   0.4000000   0.3103448), wk =   0.0640000
        k(   36) = (   0.4000000   0.4000000   0.6206897), wk =   0.0640000

     Largest allocated arrays     est. size (Mb)     dimensions
     Largest temporary arrays     est. size (Mb)     dimensions

     Check: negative/imaginary core charge=   -0.000015    0.000000

     Initial potential from superposition of free atoms
     Check: negative starting charge=(component1):   -0.020447
     Check: negative starting charge=(component2):   -0.004989

     starting charge   45.99991, renormalised to   48.00000

     negative rho (up, down):  0.213E-01 0.521E-02
     Starting wfc are   36 randomized atomic wfcs

     Self-consistent Calculation

     iteration #  1     ecut=    40.00 Ry     beta=0.70
     Davidson diagonalization with overlap
     ethr =  1.00E-02,  avg # of iterations =  5.2

     negative rho (up, down):  0.163E-01 0.126E-01

     total energy              =    -365.60473741 Ry
     Harris-Foulkes estimate   =    -365.13460000 Ry
     estimated scf accuracy    <       2.55434046 Ry

     total magnetization       =    -0.00 Bohr mag/cell
     absolute magnetization    =     1.72 Bohr mag/cell

[...]

     End of self-consistent calculation

 ------ SPIN UP ------------

          k = 0.0000 0.0000 0.0000 (  1623 PWs)   bands (ev):

   -45.5818 -45.5509 -22.0537 -22.0537 -21.7836 -21.7836 -21.7137 -21.6533
    -7.8451  -6.5195  -5.4215  -5.4215   4.6134   4.9101   5.1897   6.6222
     6.6222   8.1517   8.1517   8.8323  10.2190  10.4469  10.4469  10.8861
    13.0636  13.4701  13.6853  13.8057  13.8057  16.2374  16.2636  18.6341
    18.6341  19.6919  19.8355  23.3506  23.3506  26.3328  27.4974  28.7580
    30.9005  31.3064  31.9365  31.9365  33.9683  35.3459  36.2721  36.2721
    37.3744  37.9440  37.9440  38.3471  38.7592  38.7592  39.6436  41.6101
    45.0000  45.3359  45.3359  45.3442  45.7290  46.1604  47.1696  47.1696
    49.1865  49.9576  50.3625  50.3625  53.0666

[...]

 ------ SPIN DOWN ----------

[...]

     the Fermi energy is    11.6348 ev

!    total energy              =    -366.42949214 Ry
     Harris-Foulkes estimate   =    -366.42949259 Ry
     estimated scf accuracy    <       0.00000050 Ry

     The total energy is the sum of the following terms:

     one-electron contribution =    -110.15391308 Ry
     hartree contribution      =      81.95133964 Ry
     xc contribution           =     -63.84215703 Ry
     ewald contribution        =    -274.38476167 Ry
     smearing contrib. (-TS)   =       0.00000000 Ry

[...]

     convergence has been achieved in  10 iterations

     Forces acting on atoms (Ry/au):

     negative rho (up, down):  0.129E-01 0.129E-01
     atom    1 type  1   force =     0.00000000    0.00000000    0.00000000
     atom    2 type  1   force =     0.00000000    0.00000000   -0.00000000
     atom    3 type  2   force =    -0.02113904   -0.02113904    0.00000000
     atom    4 type  2   force =     0.02113904    0.02113904    0.00000000
     atom    5 type  2   force =    -0.02113904    0.02113904   -0.00000000
     atom    6 type  2   force =     0.02113904   -0.02113904   -0.00000000

     Total force =     0.059790     Total SCF correction =     0.000256

     entering subroutine stress ...

     negative rho (up, down):  0.129E-01 0.129E-01
          total   stress  (Ry/bohr**3)                   (kbar)     P=  402.13
   0.00254232   0.00000000   0.00000000        373.99      0.00      0.00
   0.00000000   0.00254232   0.00000000          0.00    373.99      0.00
   0.00000000   0.00000000   0.00311634          0.00      0.00    458.43

     Volume is kept fixed: isostatic pressure set to zero

     BFGS Geometry Optimization

     number of scf cycles    =   1
     number of bfgs steps    =   0

     enthalpy new            =    -366.4294921426 Ry

     new trust radius        =       0.0371295503 bohr
     new conv_thr            =       0.0000010000 Ry

     new unit-cell volume =    376.55707 a.u.^3 (    55.80000 Ang^3 )

CELL_PARAMETERS (alat=  8.36016997)
   0.995239217   0.000000000   0.000000000
   0.000000000   0.995239217   0.000000000
   0.000000000   0.000000000   0.650624664

ATOMIC_POSITIONS (crystal)
Ti0      0.000000000   0.000000000   0.000000000    0   0   0
Ti0      0.500000000   0.500000000   0.500000000    0   0   0
O1       0.302471459   0.302471459   0.000000000    1   1   0
O1      -0.302471459  -0.302471459   0.000000000    1   1   0
[...]
        k(   30) = (   0.2009567   0.2009567   0.6147938), wk =   0.0640000
        k(   31) = (   0.2009567   0.4019134   0.0000000), wk =   0.0640000
        k(   32) = (   0.2009567   0.4019134   0.3073969), wk =   0.1280000
        k(   33) = (   0.2009567   0.4019134   0.6147938), wk =   0.1280000
        k(   34) = (   0.4019134   0.4019134   0.0000000), wk =   0.0320000
        k(   35) = (   0.4019134   0.4019134   0.3073969), wk =   0.0640000
        k(   36) = (   0.4019134   0.4019134   0.6147938), wk =   0.0640000

     Check: negative/imaginary core charge=   -0.000015    0.000000
     Check: negative starting charge=(component1):   -0.025454

[...]

     enthalpy old            =    -366.4294921426 Ry
     enthalpy new            =    -366.4328466942 Ry

     CASE: enthalpy_new < enthalpy_old

[...]

     Threshold (ethr) on eigenvalues was too large:
     Diagonalizing with lowered threshold

     Davidson diagonalization with overlap
     ethr =  4.17E-10,  avg # of iterations =  1.9

[...]

     Total force =     0.000387     Total SCF correction =     0.000004

[...]

     number of scf cycles    =   4
     number of bfgs steps    =   3

     enthalpy old            =    -366.4329861744 Ry
     enthalpy new            =    -366.4329878636 Ry

     CASE: enthalpy_new < enthalpy_old

     new trust radius        =       0.0008476041 bohr
     new conv_thr            =       0.0000000100 Ry

     new unit-cell volume =    376.55707 a.u.^3 (    55.80000 Ang^3 )

[...]

ATOMIC_POSITIONS (crystal)
Ti0      0.000000000   0.000000000   0.000000000    0   0   0
Ti0      0.500000000   0.500000000   0.500000000    0   0   0
O1       0.301715933   0.301715933   0.000000000    1   1   0
O1      -0.301715933  -0.301715933   0.000000000    1   1   0
O1       0.801715933   0.198284067   0.500000000    1   1   0
O1       0.198284067   0.801715933   0.500000000    1   1   0

     Check: negative starting charge=(component1):   -0.025457
     NEW-OLD atomic charge density approx. for the potential
     NEW k-points:
        k(    1) = (   0.0000000   0.0000000   0.0000000), wk =   0.0080000
        k(    2) = (   0.0000000   0.0000000   0.3069122), wk =   0.0160000
        k(    3) = (   0.0000000   0.0000000   0.6138244), wk =   0.0160000
        k(    4) = (   0.0000000   0.2011153   0.0000000), wk =   0.0320000
        k(    5) = (   0.0000000   0.2011153   0.3069122), wk =   0.0640000
        k(    6) = (   0.0000000   0.2011153   0.6138244), wk =   0.0640000
        k(    7) = (   0.0000000   0.4022307   0.0000000), wk =   0.0320000
        k(    8) = (   0.0000000   0.4022307   0.3069122), wk =   0.0640000
        k(    9) = (   0.0000000   0.4022307   0.6138244), wk =   0.0640000
        k(   10) = (   0.2011153   0.2011153   0.0000000), wk =   0.0320000
        k(   11) = (   0.2011153   0.2011153   0.3069122), wk =   0.0640000
        k(   12) = (   0.2011153   0.2011153   0.6138244), wk =   0.0640000
        k(   13) = (   0.2011153   0.4022307   0.0000000), wk =   0.0640000
        k(   14) = (   0.2011153   0.4022307   0.3069122), wk =   0.1280000
        k(   15) = (   0.2011153   0.4022307   0.6138244), wk =   0.1280000
        k(   16) = (   0.4022307   0.4022307   0.0000000), wk =   0.0320000
        k(   17) = (   0.4022307   0.4022307   0.3069122), wk =   0.0640000
        k(   18) = (   0.4022307   0.4022307   0.6138244), wk =   0.0640000
        k(   19) = (   0.0000000   0.0000000   0.0000000), wk =   0.0080000
        k(   20) = (   0.0000000   0.0000000   0.3069122), wk =   0.0160000
        k(   21) = (   0.0000000   0.0000000   0.6138244), wk =   0.0160000
        k(   22) = (   0.0000000   0.2011153   0.0000000), wk =   0.0320000
        k(   23) = (   0.0000000   0.2011153   0.3069122), wk =   0.0640000
        k(   24) = (   0.0000000   0.2011153   0.6138244), wk =   0.0640000
        k(   25) = (   0.0000000   0.4022307   0.0000000), wk =   0.0320000
        k(   26) = (   0.0000000   0.4022307   0.3069122), wk =   0.0640000
        k(   27) = (   0.0000000   0.4022307   0.6138244), wk =   0.0640000
        k(   28) = (   0.2011153   0.2011153   0.0000000), wk =   0.0320000
        k(   29) = (   0.2011153   0.2011153   0.3069122), wk =   0.0640000
        k(   30) = (   0.2011153   0.2011153   0.6138244), wk =   0.0640000
        k(   31) = (   0.2011153   0.4022307   0.0000000), wk =   0.0640000
        k(   32) = (   0.2011153   0.4022307   0.3069122), wk =   0.1280000
        k(   33) = (   0.2011153   0.4022307   0.6138244), wk =   0.1280000
        k(   34) = (   0.4022307   0.4022307   0.0000000), wk =   0.0320000
        k(   35) = (   0.4022307   0.4022307   0.3069122), wk =   0.0640000
        k(   36) = (   0.4022307   0.4022307   0.6138244), wk =   0.0640000

     Check: negative/imaginary core charge=   -0.000015    0.000000
     Check: negative starting charge=(component1):   -0.025456

[...]

     Threshold (ethr) on eigenvalues was too large:
     Diagonalizing with lowered threshold

     Davidson diagonalization with overlap
     ethr =  7.92E-11,  avg # of iterations =  2.3

[...]

     Total force =     0.000127     Total SCF correction =     0.000027
     SCF correction compared to forces is large: reduce conv_thr to get better values

[...]

     Volume is kept fixed: isostatic pressure set to zero

     bfgs converged in   5 scf cycles and   4 bfgs steps
     (criteria: energy < 0.10E-03, force < 0.10E-02, cell < 0.50E+00)

     End of BFGS Geometry Optimization

     Final enthalpy =    -366.4329885523 Ry
Begin final coordinates
     new unit-cell volume =    376.55707 a.u.^3 (    55.80000 Ang^3 )

CELL_PARAMETERS (alat=  8.36016997)
   0.994454273   0.000000000   0.000000000
   0.000000000   0.994454273   0.000000000
   0.000000000   0.000000000   0.651652173

ATOMIC_POSITIONS (crystal)
Ti0      0.000000000   0.000000000   0.000000000    0   0   0
Ti0      0.500000000   0.500000000   0.500000000    0   0   0
O1       0.301715933   0.301715933   0.000000000    1   1   0
O1      -0.301715933  -0.301715933   0.000000000    1   1   0
O1       0.801715933   0.198284067   0.500000000    1   1   0
O1       0.198284067   0.801715933   0.500000000    1   1   0
End final coordinates

     A final scf calculation at the relaxed structure.
     The G-vectors are recalculated for the final unit cell
     Results may differ from those at the preceding step.

     bravais-lattice index     =            0
     lattice parameter (alat)  =       8.3602  a.u.
     unit-cell volume          =     376.5571 (a.u.)^3
     number of atoms/cell      =            6
     number of atomic types    =            2
     number of electrons       =        48.00
     number of Kohn-Sham states=           69
     kinetic-energy cutoff     =      40.0000  Ry
     charge density cutoff     =     500.0000  Ry
     convergence threshold     =      1.0E-08
     mixing beta               =       0.7000
     number of iterations used =            8  plain     mixing
     Exchange-correlation      = SLA  PW   PBE  PBE ( 1 4 3 4 0)
     EXX-fraction              =        0.00

     celldm(1)=   8.360170  celldm(2)=   0.000000  celldm(3)=   0.000000
     celldm(4)=   0.000000  celldm(5)=   0.000000  celldm(6)=   0.000000

     crystal axes: (cart. coord. in units of alat)
               a(1) = (   0.994454   0.000000   0.000000 )
               a(2) = (   0.000000   0.994454   0.000000 )
               a(3) = (   0.000000   0.000000   0.651652 )

     reciprocal axes: (cart. coord. in units 2 pi/alat)
               b(1) = (  1.005577  0.000000  0.000000 )
               b(2) = (  0.000000  1.005577  0.000000 )
               b(3) = (  0.000000  0.000000  1.534561 )

     PseudoPot. # 1 for Ti read from file:
     /home/camp/zhonxu/pseudo/ti_pbe_v1.uspp.F.UPF
     MD5 check sum: bcc8f6961b3b91f0cac3ca967d22d0fb
     Pseudo is Ultrasoft + core correction, Zval = 12.0
     Generated by new atomic code, or converted to UPF format
     Using radial grid of  851 points,  6 beta functions with:
                l(1) =   0
                l(2) =   0
                l(3) =   1
                l(4) =   1
                l(5) =   2
                l(6) =   2
     Q(r) pseudized with  6 coefficients,  rinner =    1.000   1.000   1.000
                                                       1.000   1.000

     PseudoPot. # 2 for O  read from file:
     /home/camp/zhonxu/pseudo/o_pbe_v1.01.uspp.F.UPF
     MD5 check sum: 2bcb18d16ea4b960afae9ec6d52f22d2
     Pseudo is Ultrasoft + core correction, Zval =  6.0
     Generated by new atomic code, or converted to UPF format
     Using radial grid of  737 points,  5 beta functions with:
                l(1) =   0
                l(2) =   0
                l(3) =   1
                l(4) =   1
                l(5) =   2
     Q(r) pseudized with  8 coefficients,  rinner =    0.900   0.900   0.900
                                                       0.900   0.900

     atomic species   valence    mass     pseudopotential
        Ti0           12.00    47.88000     Ti( 1.00)
        O1             6.00    15.99940     O ( 1.00)

     Starting magnetic structure
     atomic species   magnetization
        Ti0          0.600
        O1           0.000

     16 Sym. Ops., with inversion, found ( 8 have fractional translation)

   Cartesian axes

     site n.     atom                  positions (alat units)
         1           Ti0 tau(   1) = (   0.0000000   0.0000000   0.0000000  )
         2           Ti0 tau(   2) = (   0.4972271   0.4972271   0.3258261  )
         3           O1  tau(   3) = (   0.3000427   0.3000427   0.0000000  )
         4           O1  tau(   4) = (  -0.3000427  -0.3000427   0.0000000  )
         5           O1  tau(   5) = (   0.7972698   0.1971844   0.3258261  )
         6           O1  tau(   6) = (   0.1971844   0.7972698   0.3258261  )

     number of k points=    36  Methfessel-Paxton smearing, width (Ry)=  0.0100
                       cart. coord. in units 2pi/alat
        k(    1) = (   0.0000000   0.0000000   0.0000000), wk =   0.0080000
        k(    2) = (   0.0000000   0.0000000   0.3069122), wk =   0.0160000
        k(    3) = (   0.0000000   0.0000000   0.6138244), wk =   0.0160000
        k(    4) = (   0.0000000   0.2011153   0.0000000), wk =   0.0320000
        k(    5) = (   0.0000000   0.2011153   0.3069122), wk =   0.0640000
        k(    6) = (   0.0000000   0.2011153   0.6138244), wk =   0.0640000
        k(    7) = (   0.0000000   0.4022307   0.0000000), wk =   0.0320000
        k(    8) = (   0.0000000   0.4022307   0.3069122), wk =   0.0640000
        k(    9) = (   0.0000000   0.4022307   0.6138244), wk =   0.0640000
        k(   10) = (   0.2011153   0.2011153   0.0000000), wk =   0.0320000
        k(   11) = (   0.2011153   0.2011153   0.3069122), wk =   0.0640000
        k(   12) = (   0.2011153   0.2011153   0.6138244), wk =   0.0640000
        k(   13) = (   0.2011153   0.4022307   0.0000000), wk =   0.0640000
        k(   14) = (   0.2011153   0.4022307   0.3069122), wk =   0.1280000
        k(   15) = (   0.2011153   0.4022307   0.6138244), wk =   0.1280000
        k(   16) = (   0.4022307   0.4022307   0.0000000), wk =   0.0320000
        k(   17) = (   0.4022307   0.4022307   0.3069122), wk =   0.0640000
        k(   18) = (   0.4022307   0.4022307   0.6138244), wk =   0.0640000
        k(   19) = (   0.0000000   0.0000000   0.0000000), wk =   0.0080000
        k(   20) = (   0.0000000   0.0000000   0.3069122), wk =   0.0160000
        k(   21) = (   0.0000000   0.0000000   0.6138244), wk =   0.0160000
        k(   22) = (   0.0000000   0.2011153   0.0000000), wk =   0.0320000
        k(   23) = (   0.0000000   0.2011153   0.3069122), wk =   0.0640000
        k(   24) = (   0.0000000   0.2011153   0.6138244), wk =   0.0640000
        k(   25) = (   0.0000000   0.4022307   0.0000000), wk =   0.0320000
        k(   26) = (   0.0000000   0.4022307   0.3069122), wk =   0.0640000
        k(   27) = (   0.0000000   0.4022307   0.6138244), wk =   0.0640000
        k(   28) = (   0.2011153   0.2011153   0.0000000), wk =   0.0320000
        k(   29) = (   0.2011153   0.2011153   0.3069122), wk =   0.0640000
        k(   30) = (   0.2011153   0.2011153   0.6138244), wk =   0.0640000
        k(   31) = (   0.2011153   0.4022307   0.0000000), wk =   0.0640000
        k(   32) = (   0.2011153   0.4022307   0.3069122), wk =   0.1280000
        k(   33) = (   0.2011153   0.4022307   0.6138244), wk =   0.1280000
        k(   34) = (   0.4022307   0.4022307   0.0000000), wk =   0.0320000
        k(   35) = (   0.4022307   0.4022307   0.3069122), wk =   0.0640000
        k(   36) = (   0.4022307   0.4022307   0.6138244), wk =   0.0640000

     Largest allocated arrays     est. size (Mb)     dimensions
     Largest temporary arrays     est. size (Mb)     dimensions

     Check: negative/imaginary core charge=   -0.000015    0.000000

     Initial potential from superposition of free atoms
     Check: negative starting charge=(component1):   -0.020462
     Check: negative starting charge=(component2):   -0.004994

     starting charge   45.99991, renormalised to   48.00000

     negative rho (up, down):  0.214E-01 0.521E-02
     Starting wfc are   36 randomized atomic wfcs

     Self-consistent Calculation

[...]

     total energy              =    -366.43301900 Ry
     Harris-Foulkes estimate   =    -366.43301917 Ry
     estimated scf accuracy    <       0.00000053 Ry

[...]

     iteration # 11     ecut=    40.00 Ry     beta=0.70
     Davidson diagonalization with overlap
     ethr =  1.11E-09,  avg # of iterations =  1.0

     negative rho (up, down):  0.129E-01 0.129E-01

     End of self-consistent calculation

 ------ SPIN UP ------------

[...]

 ------ SPIN DOWN ----------

[...]

          k = 0.4022 0.4022 0.6138 (  1588 PWs)   bands (ev):

   -45.5334 -45.5324 -22.2859 -22.2779 -21.9179 -21.9030 -21.7967 -21.7931
    -6.3837  -6.1667  -6.0231  -5.7967   5.4444   5.5925   6.0426   6.1820
     6.9547   7.2743   8.2904   8.3384   9.0574   9.2774  10.0527  10.1821
    13.6543  14.1567  14.4126  14.4903  14.5632  14.9683  17.2406  17.7794
    18.0652  18.5690  23.1294  23.4233  25.7041  26.5983  26.7655  27.5713
    29.7007  29.9277  30.2722  30.8899  31.5345  32.1190  35.6984  36.4400
    37.7552  38.1583  38.6073  39.1815  41.7464  41.7962  43.3396  44.1529
    45.6377  45.9383  46.1215  46.7845  46.9075  47.7704  47.9672  48.4789
    49.4871  50.3194  51.1611  52.1802  52.5935

     the Fermi energy is    11.9669 ev

!    total energy              =    -366.43301907 Ry
     Harris-Foulkes estimate   =    -366.43301907 Ry
     estimated scf accuracy    <          5.8E-09 Ry

     The total energy is the sum of the following terms:

     one-electron contribution =    -108.54076808 Ry
     hartree contribution      =      81.14286644 Ry
     xc contribution           =     -63.81504802 Ry
     ewald contribution        =    -275.22006940 Ry
     smearing contrib. (-TS)   =       0.00000000 Ry

     total magnetization       =    -0.00 Bohr mag/cell
     absolute magnetization    =     0.00 Bohr mag/cell

     convergence has been achieved in  11 iterations

     Forces acting on atoms (Ry/au):

     negative rho (up, down):  0.129E-01 0.129E-01
     atom    1 type  1   force =     0.00000000    0.00000000    0.00000000
     atom    2 type  1   force =     0.00000000    0.00000000    0.00000000
     atom    3 type  2   force =    -0.00006491   -0.00006491    0.00000000
     atom    4 type  2   force =     0.00006491    0.00006491   -0.00000000
     atom    5 type  2   force =    -0.00006491    0.00006491   -0.00000000
     atom    6 type  2   force =     0.00006491   -0.00006491    0.00000000

     Total force =     0.000184     Total SCF correction =     0.000023
     SCF correction compared to forces is large: reduce conv_thr to get better values

     entering subroutine stress ...

     negative rho (up, down):  0.129E-01 0.129E-01
          total   stress  (Ry/bohr**3)                   (kbar)     P=  380.00
   0.00258415   0.00000000   0.00000000        380.14      0.00      0.00
   0.00000000   0.00258415   0.00000000          0.00    380.14      0.00
   0.00000000   0.00000000   0.00258128          0.00      0.00    379.72

     General routines

     Parallel routines

   This run was terminated on:  18:25:55  23Jan2014

   JOB DONE.
Running PBS batch system epilogue script
Job id: 251197.audhumbla.fysik.dtu.dk
Username: zhonxu
Groupname: campgst
Jobname: TiO2/coarse-EOS/TiO2-v-0.9
Sessionid: 23818
Queuename: verylong
Accounting:
This job has allocated the following 4 nodes:
q095 q095 q095 q095
Finished epilogue job 251197.audhumbla.fysik.dtu.dk for zhonxu