     Program PWSCF v.5.0.2 (svn rev. 9656) starts on 28Apr2014 at  4:29:17

     Current dimensions of program PWSCF are:
     Max number of different atomic species (ntypx) = 10
     Max number of k-points (npk) =  40000
     Max angular momentum in pseudopotentials (lmaxx) =  3
     Reading input from pwscf.in
Warning: card &CELL ignored
Warning: card / ignored

     Subspace diagonalization in iterative solution of the eigenvalue problem:
     a serial algorithm will be used

     bravais-lattice index     =            0
     lattice parameter (alat)  =      12.2076  a.u.
     unit-cell volume          =    7496.5096 (a.u.)^3
     number of atoms/cell      =           32
     number of atomic types    =            3
     number of electrons       =       247.00
     number of Kohn-Sham states=          370
     kinetic-energy cutoff     =      40.0000  Ry
     charge density cutoff     =     500.0000  Ry
     convergence threshold     =      1.0E-06
     mixing beta               =       0.7000
     number of iterations used =            8  plain     mixing
     Exchange-correlation      = SLA  PW   PBE  PBE ( 1 4 3 4 0)
     EXX-fraction              =        0.00
     nstep                     =           50

     celldm(1)=  12.207631  celldm(2)=   0.000000  celldm(3)=   0.000000
     celldm(4)=   0.000000  celldm(5)=   0.000000  celldm(6)=   0.000000

     crystal axes: (cart. coord. in units of alat)
               a(1) = (   1.000000   0.000000   0.000000 )
               a(2) = (   0.000000   1.004836   0.000000 )
               a(3) = (   0.000000   0.000000   4.100811 )

     reciprocal axes: (cart. coord. in units 2 pi/alat)
               b(1) = (  1.000000  0.000000  0.000000 )
               b(2) = (  0.000000  0.995187  0.000000 )
               b(3) = (  0.000000  0.000000  0.243854 )

     PseudoPot. # 1 for O  read from file:
     /home/camp/zhonxu/pseudo/o_pbe_v1.01.uspp.F.UPF
     MD5 check sum: 2bcb18d16ea4b960afae9ec6d52f22d2
     Pseudo is Ultrasoft + core correction, Zval =  6.0
     Generated by new atomic code, or converted to UPF format
     Using radial grid of  737 points,  5 beta functions with:
                l(1) =   0
                l(2) =   0
                l(3) =   1
                l(4) =   1
                l(5) =   2
     Q(r) pseudized with  8 coefficients,  rinner =    0.900   0.900   0.900
                                                       0.900   0.900

     PseudoPot. # 2 for Pt read from file:
     /home/camp/zhonxu/pseudo/pt_pbe_v1.uspp.F.UPF
     MD5 check sum: 4c71d6ad5ef119f1eb26a4d0b7884226
     Pseudo is Ultrasoft + core correction, Zval = 16.0
     Generated by new atomic code, or converted to UPF format
     Using radial grid of  985 points,  6 beta functions with:
                l(1) =   0
                l(2) =   0
                l(3) =   1
                l(4) =   1
                l(5) =   2
                l(6) =   2
     Q(r) pseudized with  8 coefficients,  rinner =    1.300   1.300   1.300
                                                       1.300   1.300

     PseudoPot. # 3 for H  read from file:
     /home/camp/zhonxu/pseudo/h_pbe_v1.uspp.F.UPF
     MD5 check sum: 3408e3ff4ec8b0a4e358431e7e038a48
     Pseudo is Ultrasoft, Zval =  1.0
     Generated by new atomic code, or converted to UPF format
     Using radial grid of  615 points,  2 beta functions with:
                l(1) =   0
                l(2) =   0
     Q(r) pseudized with  8 coefficients,  rinner =    0.700

     atomic species   valence    mass     pseudopotential
        O0             6.00    15.99940     O ( 1.00)
        Pt1           16.00   195.08000     Pt( 1.00)
        H2             1.00     1.00794     H ( 1.00)

     Simplified LDA+U calculation (l_max = 2) with parameters (eV):
     atomic species    L          U    alpha       J0     beta
        Pt1            2     3.5000   0.0000   0.0000   0.0000

     No symmetry found

   Cartesian axes

     site n.     atom                  positions (alat units)
         1           O0  tau(   1) = (   0.0000000   0.0000000   1.5486303  )
         2           O0  tau(   2) = (   0.0000000   0.5024180   1.6456145  )
         3           Pt1 tau(   3) = (   0.2500000   0.5024180   1.8492198  )
         4           Pt1 tau(   4) = (   0.0000000   0.0000000   1.8561502  )
         5           O0  tau(   5) = (   0.2500000   0.8139171   1.8185047  )
         6           O0  tau(   6) = (   0.2500000   0.1909188   1.8850199  )
         7           O0  tau(   7) = (   0.0000000   0.5024180   2.0364218  )
         8           O0  tau(   8) = (   0.0000000   0.0000000   2.1712565  )
         9           Pt1 tau(   9) = (   0.2500000   0.0000000   2.3611651  )
        10           Pt1 tau(  10) = (   0.0000000   0.5024180   2.3568182  )
        11           O0  tau(  11) = (   0.2500000   0.6933368   2.3352889  )
        12           O0  tau(  12) = (   0.2500000   0.3114991   2.3978263  )
        13           O0  tau(  13) = (   0.0000000   0.0000000   2.5469728  )
        14           O0  tau(  14) = (   0.5000000   0.0000000   1.5487944  )
        15           O0  tau(  15) = (   0.5000000   0.5024180   1.6432360  )
        16           Pt1 tau(  16) = (   0.7500000   0.5024180   1.8492608  )
        17           Pt1 tau(  17) = (   0.5000000   0.0000000   1.8561092  )
        18           O0  tau(  18) = (   0.7500000   0.8139171   1.8183407  )
        19           O0  tau(  19) = (   0.7500000   0.1909188   1.8850199  )
        20           O0  tau(  20) = (   0.5000000   0.5024180   2.0398255  )
        21           O0  tau(  21) = (   0.5000000   0.0000000   2.1711335  )
        22           Pt1 tau(  22) = (   0.7500000   0.0000000   2.3611651  )
        23           Pt1 tau(  23) = (   0.5000000   0.5024180   2.3633795  )
        24           O0  tau(  24) = (   0.7500000   0.6933368   2.3343868  )
        25           O0  tau(  25) = (   0.7500000   0.3114991   2.3965141  )
        26           O0  tau(  26) = (   0.5000000   0.0000000   2.5473419  )
        27           H2  tau(  27) = (   0.0000800   0.6431151   1.5815188  )
        28           H2  tau(  28) = (   0.4999900   0.6432457   1.5795915  )
        29           H2  tau(  29) = (   0.1433600   0.0342348   1.5075812  )
        30           H2  tau(  30) = (   0.6432100   0.0348377   1.5077042  )
        31           O0  tau(  31) = (   0.5002800   0.5276996   2.6647891  )
        32           H2  tau(  32) = (   0.4897800   0.3840985   2.7162543  )

     number of k points=    10  Methfessel-Paxton smearing, width (Ry)=  0.0100
                       cart. coord. in units 2pi/alat
        k(    1) = (   0.0000000   0.0000000   0.0000000), wk =   0.1250000
        k(    2) = (   0.0000000   0.2487968   0.0000000), wk =   0.2500000
        k(    3) = (   0.0000000  -0.4975937   0.0000000), wk =   0.1250000
        k(    4) = (   0.2500000   0.0000000   0.0000000), wk =   0.2500000
        k(    5) = (   0.2500000   0.2487968   0.0000000), wk =   0.2500000
        k(    6) = (   0.2500000  -0.4975937   0.0000000), wk =   0.2500000
        k(    7) = (  -0.5000000   0.0000000   0.0000000), wk =   0.1250000
        k(    8) = (  -0.5000000   0.2487968   0.0000000), wk =   0.2500000
        k(    9) = (  -0.5000000  -0.4975937   0.0000000), wk =   0.1250000
        k(   10) = (  -0.2500000   0.2487968   0.0000000), wk =   0.2500000

     Largest allocated arrays     est. size (Mb)     dimensions
     Largest temporary arrays     est. size (Mb)     dimensions

     Check: negative/imaginary core charge=   -0.000003    0.000000

     Initial potential from superposition of free atoms
     Check: negative starting charge=   -1.535574

     starting charge  242.99984, renormalised to  247.00000

     negative rho (up, down):  0.156E+01 0.000E+00
     Number of +U iterations with fixed ns =  0
     Starting occupations:
 --- enter write_ns ---
 LDA+U parameters:
U( 2)     =  3.50000000
alpha( 2) =  0.00000000
atom    3   Tr[ns(na)] =   8.00000
    eigenvalues:
  0.800  0.800  0.800  0.800  0.800
    eigenvectors:
  1.000  0.000  0.000  0.000  0.000
  0.000  1.000  0.000  0.000  0.000
  0.000  0.000  1.000  0.000  0.000
  0.000  0.000  0.000  1.000  0.000
  0.000  0.000  0.000  0.000  1.000
    occupations:
  0.800  0.000  0.000  0.000  0.000
  0.000  0.800  0.000  0.000  0.000
  0.000  0.000  0.800  0.000  0.000
  0.000  0.000  0.000  0.800  0.000
  0.000  0.000  0.000  0.000  0.800
atom    4   Tr[ns(na)] =   8.00000
    eigenvalues:
  0.800  0.800  0.800  0.800  0.800
    eigenvectors:
  1.000  0.000  0.000  0.000  0.000
  0.000  1.000  0.000  0.000  0.000
  0.000  0.000  1.000  0.000  0.000
  0.000  0.000  0.000  1.000  0.000
  0.000  0.000  0.000  0.000  1.000
    occupations:
  0.800  0.000  0.000  0.000  0.000
  0.000  0.800  0.000  0.000  0.000
  0.000  0.000  0.800  0.000  0.000
  0.000  0.000  0.000  0.800  0.000
  0.000  0.000  0.000  0.000  0.800
atom    9   Tr[ns(na)] =   8.00000
    eigenvalues:
  0.800  0.800  0.800  0.800  0.800
    eigenvectors:
  1.000  0.000  0.000  0.000  0.000
  0.000  1.000  0.000  0.000  0.000
  0.000  0.000  1.000  0.000  0.000
  0.000  0.000  0.000  1.000  0.000
  0.000  0.000  0.000  0.000  1.000
    occupations:
  0.800  0.000  0.000  0.000  0.000
  0.000  0.800  0.000  0.000  0.000
  0.000  0.000  0.800  0.000  0.000
  0.000  0.000  0.000  0.800  0.000
  0.000  0.000  0.000  0.000  0.800
atom   10   Tr[ns(na)] =   8.00000
    eigenvalues:
  0.800  0.800  0.800  0.800  0.800
    eigenvectors:
  1.000  0.000  0.000  0.000  0.000
  0.000  1.000  0.000  0.000  0.000
  0.000  0.000  1.000  0.000  0.000
  0.000  0.000  0.000  1.000  0.000
  0.000  0.000  0.000  0.000  1.000
    occupations:
  0.800  0.000  0.000  0.000  0.000
  0.000  0.800  0.000  0.000  0.000
  0.000  0.000  0.800  0.000  0.000
  0.000  0.000  0.000  0.800  0.000
  0.000  0.000  0.000  0.000  0.800
atom   16   Tr[ns(na)] =   8.00000
    eigenvalues:
  0.800  0.800  0.800  0.800  0.800
    eigenvectors:
  1.000  0.000  0.000  0.000  0.000
  0.000  1.000  0.000  0.000  0.000
  0.000  0.000  1.000  0.000  0.000
  0.000  0.000  0.000  1.000  0.000
  0.000  0.000  0.000  0.000  1.000
    occupations:
  0.800  0.000  0.000  0.000  0.000
  0.000  0.800  0.000  0.000  0.000
  0.000  0.000  0.800  0.000  0.000
  0.000  0.000  0.000  0.800  0.000
  0.000  0.000  0.000  0.000  0.800
atom   17   Tr[ns(na)] =   8.00000
    eigenvalues:
  0.800  0.800  0.800  0.800  0.800
    eigenvectors:
  1.000  0.000  0.000  0.000  0.000
  0.000  1.000  0.000  0.000  0.000
  0.000  0.000  1.000  0.000  0.000
  0.000  0.000  0.000  1.000  0.000
  0.000  0.000  0.000  0.000  1.000
    occupations:
  0.800  0.000  0.000  0.000  0.000
  0.000  0.800  0.000  0.000  0.000
  0.000  0.000  0.800  0.000  0.000
  0.000  0.000  0.000  0.800  0.000
  0.000  0.000  0.000  0.000  0.800
atom   22   Tr[ns(na)] =   8.00000
    eigenvalues:
  0.800  0.800  0.800  0.800  0.800
    eigenvectors:
  1.000  0.000  0.000  0.000  0.000
  0.000  1.000  0.000  0.000  0.000
  0.000  0.000  1.000  0.000  0.000
  0.000  0.000  0.000  1.000  0.000
  0.000  0.000  0.000  0.000  1.000
[...]
 -0.090  0.000 -0.022  0.762  0.001
  0.000 -0.003  0.001  0.001  0.957
atom   10   Tr[ns(na)] =   8.74709
    eigenvalues:
  0.669  0.749  0.983  0.984  0.988
    eigenvectors:
  0.000  0.983  0.000  0.009  0.008
  0.009  0.000  0.989  0.001  0.000
  0.000  0.000  0.001  0.342  0.657
  0.000  0.017  0.001  0.647  0.335
  0.991  0.000  0.009  0.000  0.000
    occupations:
  0.753 -0.001 -0.005  0.031 -0.000
 -0.001  0.980 -0.000  0.000 -0.030
 -0.005 -0.000  0.987 -0.001  0.000
  0.031  0.000 -0.001  0.982  0.000
 -0.000 -0.030  0.000  0.000  0.672
atom   16   Tr[ns(na)] =   8.71495
    eigenvalues:
  0.690  0.705  0.985  0.987  0.990
    eigenvectors:
  0.008  0.163  0.819  0.000  0.010
  0.950  0.050  0.000  0.000  0.000
  0.000  0.004  0.019  0.000  0.976
  0.042  0.782  0.162  0.000  0.014
  0.000  0.000  0.000  0.999  0.000
    occupations:
  0.937 -0.001  0.007 -0.106 -0.000
 -0.001  0.691 -0.001 -0.003 -0.002
  0.007 -0.001  0.989  0.018 -0.000
 -0.106 -0.003  0.018  0.754 -0.000
 -0.000 -0.002 -0.000 -0.000  0.987
atom   17   Tr[ns(na)] =   8.70779
    eigenvalues:
  0.690  0.712  0.981  0.985  0.986
    eigenvectors:
  0.000  0.986  0.007  0.002  0.005
  0.010  0.000  0.054  0.912  0.024
  0.000  0.005  0.885  0.034  0.077
  0.000  0.009  0.053  0.043  0.895
  0.990  0.000  0.001  0.009  0.000
    occupations:
  0.716 -0.005 -0.019  0.026 -0.001
 -0.005  0.982  0.001  0.000  0.030
 -0.019  0.001  0.980  0.003  0.000
  0.026  0.000  0.003  0.983  0.000
 -0.001  0.030  0.000  0.000  0.693
atom   22   Tr[ns(na)] =   8.68997
    eigenvalues:
  0.713  0.724  0.957  0.964  0.986
    eigenvectors:
  0.001  0.136  0.000  0.012  0.851
  0.996  0.004  0.000  0.000  0.000
  0.000  0.009  0.015  0.970  0.006
  0.003  0.851  0.000  0.003  0.142
  0.000  0.000  0.985  0.015  0.000
    occupations:
  0.950  0.001 -0.007 -0.090 -0.000
  0.001  0.713  0.000  0.000 -0.003
 -0.007  0.000  0.962 -0.021 -0.001
 -0.090  0.000 -0.021  0.762 -0.001
 -0.000 -0.003 -0.001 -0.001  0.957
atom   23   Tr[ns(na)] =   8.69539
    eigenvalues:
  0.689  0.716  0.971  0.985  0.987
    eigenvectors:
  0.000  0.975  0.000  0.000  0.024
  0.014  0.000  0.984  0.001  0.001
  0.000  0.017  0.002  0.461  0.521
  0.000  0.008  0.000  0.537  0.454
  0.986  0.000  0.014  0.000  0.000
    occupations:
  0.722 -0.001  0.035  0.024  0.000
 -0.001  0.967  0.001 -0.000 -0.033
  0.035  0.001  0.981 -0.002  0.000
  0.024 -0.000 -0.002  0.984 -0.000
  0.000 -0.033  0.000 -0.000  0.693
N of occupied +U levels =  69.6700303
 --- exit write_ns ---

     Threshold (ethr) on eigenvalues was too large:
     Diagonalizing with lowered threshold

     Davidson diagonalization with overlap
     ethr =  1.86E-08,  avg # of iterations =  2.0

[...]

     total energy              =   -2281.20064414 Ry
     Harris-Foulkes estimate   =   -2281.20064415 Ry
     estimated scf accuracy    <       0.00000005 Ry

     iteration # 12     ecut=    40.00 Ry     beta=0.70
     Davidson diagonalization with overlap
     ethr =  2.18E-11,  avg # of iterations =  1.0

     negative rho (up, down):  0.158E+01 0.000E+00

     End of self-consistent calculation
 --- enter write_ns ---
 LDA+U parameters:
U( 2)     =  3.50000000
alpha( 2) =  0.00000000
atom    3   Tr[ns(na)] =   8.71481
    eigenvalues:
  0.690  0.705  0.985  0.987  0.990
    eigenvectors:
  0.008  0.163  0.814  0.003  0.011
  0.950  0.050  0.000  0.000  0.000
  0.000  0.004  0.022  0.000  0.974
  0.042  0.782  0.161  0.001  0.015
  0.000  0.000  0.004  0.996  0.000
    occupations:
  0.937  0.001  0.007 -0.106  0.000
  0.001  0.691  0.001  0.003 -0.002
  0.007  0.001  0.989  0.018 -0.000
 -0.106  0.003  0.018  0.754  0.001
  0.000 -0.002 -0.000  0.001  0.987
atom    4   Tr[ns(na)] =   8.71042
    eigenvalues:
  0.690  0.712  0.982  0.985  0.986
    eigenvectors:
  0.000  0.985  0.008  0.003  0.004
  0.010  0.000  0.058  0.899  0.033
  0.000  0.005  0.869  0.031  0.095
  0.000  0.009  0.065  0.058  0.868
  0.990  0.000  0.001  0.009  0.000
    occupations:
  0.716 -0.005 -0.019  0.026 -0.001
 -0.005  0.982  0.000  0.000  0.029
 -0.019  0.000  0.981  0.003  0.000
  0.026  0.000  0.003  0.983  0.000
 -0.001  0.029  0.000  0.000  0.693
atom    9   Tr[ns(na)] =   8.69011
    eigenvalues:
  0.713  0.724  0.957  0.965  0.986
    eigenvectors:
  0.000  0.137  0.000  0.012  0.851
  1.000  0.000  0.000  0.000  0.000
  0.000  0.009  0.008  0.977  0.006
  0.000  0.854  0.000  0.003  0.142
  0.000  0.000  0.992  0.008  0.000
    occupations:
  0.950  0.000 -0.007 -0.090  0.000
  0.000  0.713 -0.000  0.000 -0.003
 -0.007 -0.000  0.963 -0.022  0.001
 -0.090  0.000 -0.022  0.762  0.001
  0.000 -0.003  0.001  0.001  0.957
atom   10   Tr[ns(na)] =   8.74514
    eigenvalues:
  0.669  0.749  0.983  0.984  0.988
    eigenvectors:
  0.000  0.983  0.000  0.009  0.008
  0.009  0.000  0.989  0.001  0.000
  0.000  0.000  0.001  0.341  0.658
  0.000  0.017  0.001  0.648  0.334
  0.991  0.000  0.009  0.000  0.000
    occupations:
  0.753 -0.001 -0.005  0.031 -0.000
 -0.001  0.980 -0.000  0.000 -0.030
 -0.005 -0.000  0.987 -0.001  0.000
  0.031  0.000 -0.001  0.982  0.000
 -0.000 -0.030  0.000  0.000  0.672
atom   16   Tr[ns(na)] =   8.71503
    eigenvalues:
  0.690  0.705  0.985  0.987  0.990
    eigenvectors:
  0.008  0.164  0.818  0.000  0.010
  0.951  0.049  0.000  0.000  0.000
  0.000  0.004  0.019  0.000  0.976
  0.041  0.783  0.162  0.000  0.014
  0.000  0.000  0.000  0.999  0.000
    occupations:
  0.937 -0.001  0.007 -0.106 -0.000
 -0.001  0.691 -0.001 -0.003 -0.002
  0.007 -0.001  0.989  0.018 -0.000
 -0.106 -0.003  0.018  0.754 -0.000
 -0.000 -0.002 -0.000 -0.000  0.987
atom   17   Tr[ns(na)] =   8.70822
    eigenvalues:
  0.690  0.712  0.981  0.985  0.986
    eigenvectors:
  0.000  0.986  0.007  0.002  0.005
  0.010  0.000  0.054  0.912  0.023
  0.000  0.005  0.885  0.034  0.076
  0.000  0.009  0.053  0.042  0.896
  0.990  0.000  0.001  0.009  0.000
    occupations:
  0.716 -0.005 -0.019  0.026 -0.001
 -0.005  0.982  0.001  0.000  0.030
 -0.019  0.001  0.980  0.003  0.000
  0.026  0.000  0.003  0.983  0.000
 -0.001  0.030  0.000  0.000  0.693
atom   22   Tr[ns(na)] =   8.68981
    eigenvalues:
  0.713  0.724  0.957  0.964  0.986
    eigenvectors:
  0.001  0.136  0.000  0.012  0.851
  0.996  0.004  0.000  0.000  0.000
  0.000  0.009  0.014  0.971  0.006
  0.003  0.851  0.000  0.003  0.142
  0.000  0.000  0.985  0.014  0.000
    occupations:
  0.950  0.001 -0.007 -0.090 -0.000
  0.001  0.713  0.000  0.000 -0.003
 -0.007  0.000  0.962 -0.021 -0.001
 -0.090  0.000 -0.021  0.762 -0.001
 -0.000 -0.003 -0.001 -0.001  0.957
atom   23   Tr[ns(na)] =   8.69485
    eigenvalues:
  0.689  0.715  0.971  0.985  0.987
    eigenvectors:
  0.000  0.975  0.000  0.000  0.024
  0.014  0.000  0.984  0.001  0.001
  0.000  0.017  0.002  0.460  0.521
  0.000  0.008  0.000  0.538  0.454
  0.986  0.000  0.014  0.000  0.000
    occupations:
  0.722 -0.001  0.035  0.024  0.000
 -0.001  0.967  0.001 -0.000 -0.034
  0.035  0.001  0.981 -0.002  0.000
  0.024 -0.000 -0.002  0.984 -0.000
  0.000 -0.034  0.000 -0.000  0.693
N of occupied +U levels =  69.6683814
 --- exit write_ns ---

[...]

          k = 0.2500-0.4976 0.0000 ( 32026 PWs)   bands (ev):

[...]

          k =-0.2500 0.2488 0.0000 ( 32025 PWs)   bands (ev):

   -55.4400 -55.4052 -55.4011 -55.3647 -55.2960 -55.2569 -55.2551 -55.2491
   -55.2435 -55.2396 -55.1855 -55.0842 -55.0801 -55.0776 -55.0733 -54.9795
   -54.9766 -54.9740 -54.9707 -54.9681 -54.8617 -54.7380 -54.5090 -54.2409
   -22.0173 -21.7972 -21.1160 -20.9393 -20.6685 -20.5867 -20.5052 -20.4627
   -20.3596 -20.2245 -20.1903 -20.1146 -20.0363 -19.9433 -19.8814 -19.8600
   -19.7060 -19.1425 -18.9497 -10.5792 -10.3517 -10.1847 -10.1649  -9.7432
    -9.6582  -9.5220  -9.3330  -9.3142  -9.2618  -9.1757  -9.0464  -8.9783
    -8.8839  -8.8457  -8.7242  -8.6956  -8.5547  -8.2863  -8.0883  -7.9430
    -7.8914  -7.7898  -7.6519  -7.6186  -7.3975  -7.3519  -7.2861  -7.0954
    -7.0384  -6.9819  -6.8904  -6.7941  -6.6948  -6.6656  -6.5952  -6.5678
    -6.4386  -6.3672  -6.2889  -6.2320  -5.9742  -5.8707  -5.6584  -5.6077
    -5.4228  -5.3048  -5.2338  -5.1563  -5.0917  -5.0280  -4.8489  -4.7692
    -4.6178  -4.5147  -4.3838  -4.2797  -4.2433  -4.1156  -3.9015  -3.8378
    -3.7724  -3.6924  -3.6653  -3.5426  -3.4881  -3.3858  -3.3337  -3.0694
    -3.0287  -2.7567  -2.6107  -2.5132  -2.3705  -2.3438  -2.2942  -2.2334
    -2.1580  -1.9653  -1.7769  -1.7002  -1.5783  -1.0108  -0.7619  -0.5690
    -0.2119  -0.0679   0.3241   0.5612   0.7977   0.8887   1.0365   1.1016
     1.3442   1.4814   1.5351   1.8923   3.2557   3.9416   4.6362   5.0552
     5.1173   5.2158   5.2892   5.5516   6.0314   6.1995   6.2849   6.3389
     6.4816   6.6018   6.6796   6.7798   6.8781   6.9561   7.1443   7.2298
     7.3972   7.5094   7.5450   7.6853   7.7468   7.8539   7.9610   8.0591
     8.2292   8.3257   8.3667   8.4531   8.5183   8.6121   8.6903   8.7869
     8.9197   8.9821   9.0564   9.1953   9.3464   9.4369   9.5931   9.6456
     9.7547   9.8149   9.9310  10.0812  10.1361  10.1950  10.2512  10.3749
    10.5185  10.5590  10.6155  10.7078  10.7521  10.9563  11.0004  11.0964
    11.1892  11.2072  11.3701  11.4320  11.5008  11.6474  11.7402  11.7999
    11.8779  11.9222  12.0178  12.0350  12.0978  12.2355  12.2967  12.3527
    12.3971  12.4569  12.5262  12.5748  12.6525  12.7272  12.7942  12.9303
    12.9829  13.0306  13.1138  13.2127  13.2490  13.4668  13.5361  13.5786
    13.6170  13.6769  13.7369  13.8285  13.9417  13.9877  14.0673  14.0863
    14.1791  14.2920  14.3695  14.4946  14.5603  14.6439  14.7251  14.8454
    14.9034  14.9992  15.0799  15.1828  15.2412  15.2991  15.3270  15.4043
    15.4606  15.5123  15.5764  15.6288  15.7019  15.7333  15.7741  15.8478
    15.8927  15.9883  16.0139  16.0594  16.1283  16.2353  16.3192  16.3861
    16.4721  16.5267  16.6327  16.7232  16.7875  16.8189  16.8846  16.9107
    16.9417  16.9493  16.9744  16.9844  17.0280  17.0688  17.1019  17.1364
    17.1535  17.1614  17.2178  17.2417  17.3144  17.3394  17.3917  17.4844
    17.5264  17.5518  17.6230  17.6443  17.7551  17.8024  17.9119  17.9498
    18.0099  18.0550  18.1411  18.1806  18.2463  18.3445  18.4719  18.5020
    18.5853  18.6078  18.6372  18.7236  18.7979  18.8597  18.8947  18.9739
    19.0203  19.1289  19.1817  19.2369  19.2923  19.3583  19.4492  19.5421
    19.6571  19.6899  19.8220  19.8750  19.9417  19.9986  20.0454  20.0751
    20.1238  20.1604  20.2704  20.3457  20.3599  20.4128  20.5126  20.5624
    20.6568  20.6874  20.7338  20.8121  20.9041  20.9642  20.9927  21.0316
    21.0886  21.2095  21.2647  21.3063  21.3407  21.3672  21.4664  21.5080
    21.5787  21.6326  21.7031  21.7590  21.7984  21.9045  22.0002  22.0772
    22.1415  22.1867

     the Fermi energy is    -1.6874 ev

!    total energy              =   -2281.20064414 Ry
     Harris-Foulkes estimate   =   -2281.20064414 Ry
     estimated scf accuracy    <          8.6E-09 Ry

     The total energy is the sum of the following terms:

     one-electron contribution =  -23727.59754018 Ry
     hartree contribution      =   11907.64291299 Ry
     xc contribution           =    -573.03161471 Ry
     ewald contribution        =   10110.81775162 Ry
     Hubbard energy            =       0.96774910 Ry
     smearing contrib. (-TS)   =       0.00009705 Ry

     convergence has been achieved in  12 iterations

     Forces acting on atoms (Ry/au):

     negative rho (up, down):  0.158E+01 0.000E+00
     atom    1 type  1   force =    -0.00852417   -0.00406428    0.00000111
     atom    2 type  1   force =     0.00038545    0.00292768   -0.00081803
     atom    3 type  2   force =     0.01381024    0.00797863   -0.00021017
     atom    4 type  2   force =     0.01084439    0.00414718   -0.00026048
     atom    5 type  1   force =     0.00130580   -0.00363802   -0.00053387
     atom    6 type  1   force =    -0.00003389   -0.00296536   -0.00002817
     atom    7 type  1   force =     0.00022410   -0.00101563   -0.00035263
     atom    8 type  1   force =    -0.00427048   -0.00077345   -0.00008584
     atom    9 type  2   force =     0.00316006    0.00295431   -0.00037309
     atom   10 type  2   force =    -0.00040890   -0.02343634    0.00097437
     atom   11 type  1   force =     0.00338401    0.00196495    0.00052181
     atom   12 type  1   force =    -0.01274296    0.00729043   -0.00008536
     atom   13 type  1   force =    -0.00108106   -0.00650741   -0.00010377
     atom   14 type  1   force =    -0.00826964   -0.00381681    0.00005497
     atom   15 type  1   force =     0.00012084    0.00214431    0.00055041
     atom   16 type  2   force =    -0.01501712    0.00797277   -0.00024391
     atom   17 type  2   force =     0.01054907    0.00541235   -0.00013995
     atom   18 type  1   force =     0.00100224   -0.00372140   -0.00034928
     atom   19 type  1   force =     0.00002670   -0.00287623   -0.00011153
     atom   20 type  1   force =     0.00037116   -0.00194244    0.00029207
     atom   21 type  1   force =    -0.00395265    0.00159437    0.00014502
     atom   22 type  2   force =     0.00077539    0.00323236   -0.00044974
     atom   23 type  2   force =    -0.00061367    0.00033026    0.00001792
     atom   24 type  1   force =    -0.00328619    0.00248644    0.00034057
     atom   25 type  1   force =     0.01285571    0.00752877   -0.00001873
     atom   26 type  1   force =    -0.00120189   -0.00466857    0.00023309
     atom   27 type  3   force =    -0.00002559    0.00035364   -0.00017779
     atom   28 type  3   force =     0.00003356   -0.00025963   -0.00008352
     atom   29 type  3   force =     0.00012437    0.00000221    0.00057506
     atom   30 type  3   force =     0.00009741   -0.00005106    0.00047477
     atom   31 type  1   force =     0.00011489    0.00065926    0.00025496
     atom   32 type  3   force =     0.00024279    0.00075672   -0.00001025

     Total force =     0.002353     Total SCF correction =     0.000308
     SCF correction compared to forces is large: reduce conv_thr to get better values

     bfgs converged in  16 scf cycles and  15 bfgs steps
     (criteria: energy < 0.10E-03, force < 0.10E-02)

     End of BFGS Geometry Optimization

     Final energy   =   -2281.2006441356 Ry
Begin final coordinates

ATOMIC_POSITIONS (crystal)
O0       0.000000000   0.000000000   0.377525959    0   0   1
O0       0.000000000   0.500000000   0.401662206    0   0   1
Pt1      0.250000000   0.500000000   0.451149299    0   0   1
Pt1      0.000000000   0.000000000   0.452583675    0   0   1
O0       0.250000000   0.810000000   0.442890609    0   0   1
O0       0.250000000   0.190000000   0.460562748    0   0   1
O0       0.000000000   0.500000000   0.496791440    0   0   1
O0       0.000000000   0.000000000   0.529575392    0   0   1
Pt1      0.250000000   0.000000000   0.575720101    0   0   1
Pt1      0.000000000   0.500000000   0.574311667    0   0   1
O0       0.250000000   0.690000000   0.567044135    0   0   1
O0       0.250000000   0.310000000   0.585609320    0   0   1
O0       0.000000000   0.000000000   0.621115413    0   0   1
O0       0.500000000   0.000000000   0.377576504    0   0   1
O0       0.500000000   0.500000000   0.401100852    0   0   1
Pt1      0.750000000   0.500000000   0.451149383    0   0   1
Pt1      0.500000000   0.000000000   0.452612518    0   0   1
O0       0.750000000   0.810000000   0.442869863    0   0   1
O0       0.750000000   0.190000000   0.460568898    0   0   1
O0       0.500000000   0.500000000   0.497350930    0   0   1
O0       0.500000000   0.000000000   0.529538475    0   0   1
Pt1      0.750000000   0.000000000   0.575726429    0   0   1
Pt1      0.500000000   0.500000000   0.576073913    0   0   1
O0       0.750000000   0.690000000   0.567171904    0   0   1
O0       0.750000000   0.310000000   0.585504965    0   0   1
O0       0.500000000   0.000000000   0.621118230    0   0   1
H2       0.000082668   0.640484775   0.386289640
H2       0.499989171   0.641163925   0.386056807
H2       0.143381978   0.033972104   0.367515787
H2       0.643393290   0.034066618   0.367577021
O0       0.499256675   0.530750020   0.649582365
H2       0.492726375   0.388430372   0.662693553
End final coordinates

     General routines

     Parallel routines
     Hubbard U routines

   This run was terminated on:  18: 9:17  28Apr2014

   JOB DONE.
Running PBS batch system epilogue script
Job id: 340491.audhumbla.fysik.dtu.dk
Username: zhonxu
Groupname: campgst
Jobname: PtO2/Eads-2-layers/OH-U-3.5
Sessionid: 18384
Queuename: verylong
Accounting:
This job has allocated the following 16 nodes:
b012 b012 b012 b012 b012 b012 b012 b012 b006 b006 b006 b006 b006 b006 b006 b006
Finished epilogue job 340491.audhumbla.fysik.dtu.dk for zhonxu