     Program PWSCF v.5.0.2 (svn rev. 9656) starts on  1Jun2014 at  3:18:40

     Current dimensions of program PWSCF are:
     Max number of different atomic species (ntypx) = 10
     Max number of k-points (npk) =  40000
     Max angular momentum in pseudopotentials (lmaxx) =  3
     Reading input from pwscf.in
Warning: card &CELL ignored
Warning: card / ignored

     Subspace diagonalization in iterative solution of the eigenvalue problem:
     a serial algorithm will be used

     bravais-lattice index     =            0
     lattice parameter (alat)  =      11.7541  a.u.
     unit-cell volume          =    7139.8207 (a.u.)^3
     number of atoms/cell      =           33
     number of atomic types    =            3
     number of electrons       =       245.00
     number of Kohn-Sham states=          367
     kinetic-energy cutoff     =      40.0000  Ry
     charge density cutoff     =     500.0000  Ry
     convergence threshold     =      1.0E-06
     mixing beta               =       0.7000
     number of iterations used =            8  plain     mixing
     Exchange-correlation      = SLA  PW   PBE  PBE ( 1 4 3 4 0)
     EXX-fraction              =        0.00
     nstep                     =           50

     celldm(1)=  11.754097  celldm(2)=   0.000000  celldm(3)=   0.000000
     celldm(4)=   0.000000  celldm(5)=   0.000000  celldm(6)=   0.000000

     crystal axes: (cart. coord. in units of alat)
               a(1) = (   1.000000   0.000000   0.000000 )
               a(2) = (   0.000000   1.034513   0.000000 )
               a(3) = (   0.000000   0.000000   4.249947 )

     reciprocal axes: (cart. coord. in units 2 pi/alat)
               b(1) = (  1.000000  0.000000  0.000000 )
               b(2) = (  0.000000  0.966638  0.000000 )
               b(3) = (  0.000000  0.000000  0.235297 )

     PseudoPot. # 1 for O  read from file:
     /home/camp/zhonxu/pseudo/o_pbe_v1.01.uspp.F.UPF
     MD5 check sum: 2bcb18d16ea4b960afae9ec6d52f22d2
     Pseudo is Ultrasoft + core correction, Zval =  6.0
     Generated by new atomic code, or converted to UPF format
     Using radial grid of  737 points,  5 beta functions with:
                l(1) =   0
                l(2) =   0
                l(3) =   1
                l(4) =   1
                l(5) =   2
     Q(r) pseudized with  8 coefficients,  rinner =    0.900   0.900   0.900
                                                       0.900   0.900

     PseudoPot. # 2 for Rh read from file:
     /home/camp/zhonxu/pseudo/rh_pbe_v1.uspp.F.UPF
     MD5 check sum: 37b626987ad0dd8ec6bf4cc9ef289918
     Pseudo is Ultrasoft + core correction, Zval = 15.0
     Generated by new atomic code, or converted to UPF format
     Using radial grid of  969 points,  7 beta functions with:
                l(1) =   0
                l(2) =   0
                l(3) =   1
                l(4) =   1
                l(5) =   2
                l(6) =   2
                l(7) =   2
     Q(r) pseudized with  6 coefficients,  rinner =    1.050   1.050   1.050
                                                       1.050   1.050

     PseudoPot. # 3 for H  read from file:
     /home/camp/zhonxu/pseudo/h_pbe_v1.uspp.F.UPF
     MD5 check sum: 3408e3ff4ec8b0a4e358431e7e038a48
     Pseudo is Ultrasoft, Zval =  1.0
     Generated by new atomic code, or converted to UPF format
     Using radial grid of  615 points,  2 beta functions with:
                l(1) =   0
                l(2) =   0
     Q(r) pseudized with  8 coefficients,  rinner =    0.700

     atomic species   valence    mass     pseudopotential
        O0             6.00    15.99940     O ( 1.00)
        Rh1           15.00   102.90550     Rh( 1.00)
        H2             1.00     1.00794     H ( 1.00)

     Simplified LDA+U calculation (l_max = 2) with parameters (eV):
     atomic species    L          U    alpha       J0     beta
        Rh1            2     4.0000   0.0000   0.0000   0.0000

     No symmetry found

   Cartesian axes

     site n.     atom                  positions (alat units)
         1           O0  tau(   1) = (   0.0000000   0.0000000   1.6055876  )
         2           O0  tau(   2) = (   0.0000000   0.5172566   1.7058013  )
         3           Rh1 tau(   3) = (   0.2500000   0.5172566   1.9245886  )
         4           Rh1 tau(   4) = (   0.0000000   0.0000000   1.9225486  )
         5           O0  tau(   5) = (   0.2500000   0.8379556   1.9216561  )
         6           O0  tau(   6) = (   0.2500000   0.1965575   1.9210611  )
         7           O0  tau(   7) = (   0.0000000   0.5172566   2.1183012  )
         8           O0  tau(   8) = (   0.0000000   0.0000000   2.2433346  )
         9           Rh1 tau(   9) = (   0.2500000   0.0000000   2.4442296  )
        10           Rh1 tau(  10) = (   0.0000000   0.5172566   2.4248924  )
        11           O0  tau(  11) = (   0.2500000   0.7138141   2.4423597  )
        12           O0  tau(  12) = (   0.2500000   0.3206991   2.4526445  )
        13           O0  tau(  13) = (   0.0000000   0.0000000   2.6373472  )
        14           O0  tau(  14) = (   0.5000000   0.0000000   1.6058426  )
        15           O0  tau(  15) = (   0.5000000   0.5172566   1.7065663  )
        16           Rh1 tau(  16) = (   0.7500000   0.5172566   1.9245461  )
        17           Rh1 tau(  17) = (   0.5000000   0.0000000   1.9225486  )
        18           O0  tau(  18) = (   0.7500000   0.8379556   1.9215286  )
        19           O0  tau(  19) = (   0.7500000   0.1965575   1.9212311  )
        20           O0  tau(  20) = (   0.5000000   0.5172566   2.1254411  )
        21           O0  tau(  21) = (   0.5000000   0.0000000   2.2428246  )
        22           Rh1 tau(  22) = (   0.7500000   0.0000000   2.4442296  )
        23           Rh1 tau(  23) = (   0.5000000   0.5172566   2.4566820  )
        24           O0  tau(  24) = (   0.7500000   0.7138141   2.4423172  )
        25           O0  tau(  25) = (   0.7500000   0.3206991   2.4526445  )
        26           O0  tau(  26) = (   0.5000000   0.0000000   2.6350523  )
        27           H2  tau(  27) = (   0.0000500   0.6607849   1.6355072  )
        28           H2  tau(  28) = (   0.4999200   0.6608884   1.6361872  )
        29           H2  tau(  29) = (   0.1477700   0.0372011   1.5603681  )
        30           H2  tau(  30) = (   0.6484400   0.0346148   1.5604531  )
        31           O0  tau(  31) = (   0.4997300   0.5556577   2.7651007  )
        32           O0  tau(  32) = (   0.5003300   0.3573415   2.8834192  )
        33           H2  tau(  33) = (   0.4999300   0.4160398   3.0312324  )

     number of k points=    10  Methfessel-Paxton smearing, width (Ry)=  0.0100
                       cart. coord. in units 2pi/alat
        k(    1) = (   0.0000000   0.0000000   0.0000000), wk =   0.1250000
        k(    2) = (   0.0000000   0.2416596   0.0000000), wk =   0.2500000
        k(    3) = (   0.0000000  -0.4833191   0.0000000), wk =   0.1250000
        k(    4) = (   0.2500000   0.0000000   0.0000000), wk =   0.2500000
        k(    5) = (   0.2500000   0.2416596   0.0000000), wk =   0.2500000
        k(    6) = (   0.2500000  -0.4833191   0.0000000), wk =   0.2500000
        k(    7) = (  -0.5000000   0.0000000   0.0000000), wk =   0.1250000
        k(    8) = (  -0.5000000   0.2416596   0.0000000), wk =   0.2500000
        k(    9) = (  -0.5000000  -0.4833191   0.0000000), wk =   0.1250000
        k(   10) = (  -0.2500000   0.2416596   0.0000000), wk =   0.2500000

     Largest allocated arrays     est. size (Mb)     dimensions
     Largest temporary arrays     est. size (Mb)     dimensions

     Check: negative/imaginary core charge=   -0.000003    0.000000

     Initial potential from superposition of free atoms
     Check: negative starting charge=   -0.646062

     starting charge  240.99914, renormalised to  245.00000

     negative rho (up, down):  0.657E+00 0.000E+00
     Number of +U iterations with fixed ns =  0
     Starting occupations:
 --- enter write_ns ---
 LDA+U parameters:
U( 2)     =  4.00000000
alpha( 2) =  0.00000000
atom    3   Tr[ns(na)] =   7.00000
    eigenvalues:
  0.700  0.700  0.700  0.700  0.700
    eigenvectors:
  1.000  0.000  0.000  0.000  0.000
  0.000  1.000  0.000  0.000  0.000
  0.000  0.000  1.000  0.000  0.000
  0.000  0.000  0.000  1.000  0.000
  0.000  0.000  0.000  0.000  1.000
    occupations:
  0.700  0.000  0.000  0.000  0.000
  0.000  0.700  0.000  0.000  0.000
  0.000  0.000  0.700  0.000  0.000
  0.000  0.000  0.000  0.700  0.000
  0.000  0.000  0.000  0.000  0.700
atom    4   Tr[ns(na)] =   7.00000
    eigenvalues:
  0.700  0.700  0.700  0.700  0.700
    eigenvectors:
  1.000  0.000  0.000  0.000  0.000
  0.000  1.000  0.000  0.000  0.000
  0.000  0.000  1.000  0.000  0.000
  0.000  0.000  0.000  1.000  0.000
  0.000  0.000  0.000  0.000  1.000
    occupations:
  0.700  0.000  0.000  0.000  0.000
  0.000  0.700  0.000  0.000  0.000
  0.000  0.000  0.700  0.000  0.000
  0.000  0.000  0.000  0.700  0.000
  0.000  0.000  0.000  0.000  0.700
atom    9   Tr[ns(na)] =   7.00000
    eigenvalues:
  0.700  0.700  0.700  0.700  0.700
    eigenvectors:
  1.000  0.000  0.000  0.000  0.000
  0.000  1.000  0.000  0.000  0.000
  0.000  0.000  1.000  0.000  0.000
  0.000  0.000  0.000  1.000  0.000
  0.000  0.000  0.000  0.000  1.000
    occupations:
  0.700  0.000  0.000  0.000  0.000
  0.000  0.700  0.000  0.000  0.000
  0.000  0.000  0.700  0.000  0.000
  0.000  0.000  0.000  0.700  0.000
  0.000  0.000  0.000  0.000  0.700
atom   10   Tr[ns(na)] =   7.00000
    eigenvalues:
  0.700  0.700  0.700  0.700  0.700
    eigenvectors:
  1.000  0.000  0.000  0.000  0.000
  0.000  1.000  0.000  0.000  0.000
  0.000  0.000  1.000  0.000  0.000
  0.000  0.000  0.000  1.000  0.000
  0.000  0.000  0.000  0.000  1.000
    occupations:
  0.700  0.000  0.000  0.000  0.000
  0.000  0.700  0.000  0.000  0.000
  0.000  0.000  0.700  0.000  0.000
  0.000  0.000  0.000  0.700  0.000
  0.000  0.000  0.000  0.000  0.700
atom   16   Tr[ns(na)] =   7.00000
    eigenvalues:
  0.700  0.700  0.700  0.700  0.700
    eigenvectors:
  1.000  0.000  0.000  0.000  0.000
  0.000  1.000  0.000  0.000  0.000
  0.000  0.000  1.000  0.000  0.000
  0.000  0.000  0.000  1.000  0.000
  0.000  0.000  0.000  0.000  1.000
    occupations:
  0.700  0.000  0.000  0.000  0.000
  0.000  0.700  0.000  0.000  0.000
  0.000  0.000  0.700  0.000  0.000
  0.000  0.000  0.000  0.700  0.000
  0.000  0.000  0.000  0.000  0.700
atom   17   Tr[ns(na)] =   7.00000
    eigenvalues:
  0.700  0.700  0.700  0.700  0.700
    eigenvectors:
  1.000  0.000  0.000  0.000  0.000
  0.000  1.000  0.000  0.000  0.000
  0.000  0.000  1.000  0.000  0.000
  0.000  0.000  0.000  1.000  0.000
  0.000  0.000  0.000  0.000  1.000
    occupations:
  0.700  0.000  0.000  0.000  0.000
  0.000  0.700  0.000  0.000  0.000
  0.000  0.000  0.700  0.000  0.000
  0.000  0.000  0.000  0.700  0.000
  0.000  0.000  0.000  0.000  0.700
atom   22   Tr[ns(na)] =   7.00000
    eigenvalues:
  0.700  0.700  0.700  0.700  0.700
    eigenvectors:
  1.000  0.000  0.000  0.000  0.000
  0.000  1.000  0.000  0.000  0.000
[...]
 -0.001 -0.000 -0.005  0.001  0.898
atom   10   Tr[ns(na)] =   8.04080
    eigenvalues:
  0.594  0.594  0.924  0.931  0.978
    eigenvectors:
  0.015  0.976  0.000  0.000  0.008
  0.001  0.000  0.001  0.998  0.000
  0.000  0.001  0.999  0.001  0.000
  0.000  0.008  0.000  0.000  0.991
  0.984  0.015  0.000  0.001  0.000
    occupations:
  0.598  0.000  0.008  0.035 -0.000
  0.000  0.931 -0.000  0.000 -0.009
  0.008 -0.000  0.923  0.000 -0.000
  0.035  0.000  0.000  0.975  0.000
 -0.000 -0.009 -0.000  0.000  0.594
atom   16   Tr[ns(na)] =   8.04808
    eigenvalues:
  0.584  0.605  0.899  0.960  0.975
    eigenvectors:
  0.017  0.184  0.003  0.000  0.796
  0.927  0.073  0.000  0.000  0.000
  0.000  0.000  0.989  0.008  0.003
  0.057  0.742  0.000  0.000  0.201
  0.000  0.000  0.008  0.991  0.000
    occupations:
  0.900  0.006  0.002 -0.149  0.001
  0.006  0.586 -0.000  0.003 -0.006
  0.002 -0.000  0.900 -0.005 -0.005
 -0.149  0.003 -0.005  0.678 -0.000
  0.001 -0.006 -0.005 -0.000  0.960
atom   17   Tr[ns(na)] =   8.04883
    eigenvalues:
  0.600  0.649  0.874  0.923  0.978
    eigenvectors:
  0.001  0.991  0.000  0.000  0.008
  0.000  0.000  0.053  0.947  0.000
  0.000  0.000  0.947  0.053  0.000
  0.000  0.008  0.000  0.000  0.992
  0.999  0.001  0.000  0.000  0.000
    occupations:
  0.652 -0.004 -0.001  0.029  0.001
 -0.004  0.921  0.011  0.001 -0.001
 -0.001  0.011  0.877 -0.001  0.001
  0.029  0.001 -0.001  0.976  0.000
  0.001 -0.001  0.001  0.000  0.600
atom   22   Tr[ns(na)] =   8.04606
    eigenvalues:
  0.637  0.646  0.861  0.899  0.979
    eigenvectors:
  0.000  0.151  0.001  0.000  0.848
  0.999  0.001  0.000  0.000  0.000
  0.000  0.000  0.984  0.015  0.000
  0.001  0.847  0.000  0.000  0.152
  0.000  0.000  0.015  0.985  0.000
    occupations:
  0.929  0.002  0.000 -0.119  0.000
  0.002  0.637  0.001 -0.001 -0.000
  0.000  0.001  0.862 -0.005  0.005
 -0.119 -0.001 -0.005  0.697  0.001
  0.000 -0.000  0.005  0.001  0.898
atom   23   Tr[ns(na)] =   8.05910
    eigenvalues:
  0.599  0.634  0.867  0.953  0.976
    eigenvectors:
  0.000  0.994  0.000  0.003  0.003
  0.001  0.000  0.999  0.000  0.000
  0.000  0.003  0.000  0.996  0.001
  0.000  0.003  0.000  0.001  0.996
  0.999  0.000  0.001  0.000  0.000
    occupations:
  0.636 -0.000  0.017  0.019 -0.000
 -0.000  0.867 -0.001 -0.000 -0.009
  0.017 -0.001  0.952 -0.002  0.000
  0.019 -0.000 -0.002  0.975  0.000
 -0.000 -0.009  0.000  0.000  0.600
N of occupied +U levels =  64.3882264
 --- exit write_ns ---

     Threshold (ethr) on eigenvalues was too large:
     Diagonalizing with lowered threshold

     Davidson diagonalization with overlap
     ethr =  3.19E-08,  avg # of iterations =  1.7

[...]

     total energy              =   -2012.05211316 Ry
     Harris-Foulkes estimate   =   -2012.05211317 Ry
     estimated scf accuracy    <       0.00000002 Ry

     iteration # 17     ecut=    40.00 Ry     beta=0.70
     Davidson diagonalization with overlap
     ethr =  6.43E-12,  avg # of iterations =  1.0

     negative rho (up, down):  0.691E+00 0.000E+00

     End of self-consistent calculation
 --- enter write_ns ---
 LDA+U parameters:
U( 2)     =  4.00000000
alpha( 2) =  0.00000000
atom    3   Tr[ns(na)] =   8.04743
    eigenvalues:
  0.584  0.605  0.899  0.960  0.975
    eigenvectors:
  0.017  0.184  0.003  0.000  0.796
  0.922  0.077  0.000  0.000  0.000
  0.000  0.000  0.984  0.013  0.003
  0.060  0.739  0.000  0.000  0.201
  0.000  0.000  0.013  0.986  0.000
    occupations:
  0.900 -0.006  0.002 -0.149 -0.001
 -0.006  0.586 -0.001 -0.003 -0.006
  0.002 -0.001  0.900 -0.005  0.007
 -0.149 -0.003 -0.005  0.678 -0.000
 -0.001 -0.006  0.007 -0.000  0.959
atom    4   Tr[ns(na)] =   8.05003
    eigenvalues:
  0.599  0.649  0.877  0.922  0.978
    eigenvectors:
  0.001  0.992  0.000  0.000  0.007
  0.000  0.000  0.084  0.916  0.000
  0.000  0.000  0.916  0.084  0.000
  0.000  0.007  0.000  0.000  0.993
  0.999  0.001  0.000  0.000  0.000
    occupations:
  0.651 -0.004 -0.002  0.028  0.001
 -0.004  0.919  0.013  0.001 -0.001
 -0.002  0.013  0.881 -0.001  0.001
  0.028  0.001 -0.001  0.976  0.000
  0.001 -0.001  0.001  0.000  0.599
atom    9   Tr[ns(na)] =   8.04610
    eigenvalues:
  0.637  0.646  0.861  0.899  0.979
    eigenvectors:
  0.002  0.149  0.000  0.000  0.848
  0.983  0.017  0.000  0.000  0.000
  0.000  0.000  0.982  0.017  0.000
  0.015  0.834  0.000  0.000  0.152
  0.000  0.000  0.017  0.983  0.000
    occupations:
  0.929 -0.001  0.000 -0.119 -0.001
 -0.001  0.637  0.000  0.002 -0.000
  0.000  0.000  0.862 -0.005 -0.005
 -0.119  0.002 -0.005  0.697  0.001
 -0.001 -0.000 -0.005  0.001  0.898
atom   10   Tr[ns(na)] =   8.04136
    eigenvalues:
  0.594  0.595  0.924  0.931  0.978
    eigenvectors:
  0.009  0.982  0.000  0.000  0.008
  0.001  0.000  0.001  0.998  0.000
  0.000  0.001  0.999  0.001  0.000
  0.000  0.008  0.000  0.000  0.991
  0.990  0.009  0.000  0.001  0.000
    occupations:
  0.598  0.000  0.007  0.035 -0.000
  0.000  0.931 -0.000  0.000 -0.009
  0.007 -0.000  0.923  0.000 -0.000
  0.035  0.000  0.000  0.975  0.000
 -0.000 -0.009 -0.000  0.000  0.594
atom   16   Tr[ns(na)] =   8.04738
    eigenvalues:
  0.584  0.605  0.899  0.960  0.975
    eigenvectors:
  0.017  0.184  0.003  0.000  0.796
  0.926  0.073  0.000  0.000  0.000
  0.000  0.000  0.989  0.008  0.003
  0.057  0.742  0.000  0.000  0.201
  0.000  0.000  0.008  0.991  0.000
    occupations:
  0.900  0.006  0.002 -0.149  0.001
  0.006  0.586 -0.000  0.003 -0.006
  0.002 -0.000  0.900 -0.005 -0.005
 -0.149  0.003 -0.005  0.678 -0.000
  0.001 -0.006 -0.005 -0.000  0.959
atom   17   Tr[ns(na)] =   8.04873
    eigenvalues:
  0.600  0.649  0.874  0.923  0.978
    eigenvectors:
  0.001  0.991  0.000  0.000  0.008
  0.000  0.000  0.053  0.947  0.000
  0.000  0.000  0.947  0.053  0.000
  0.000  0.008  0.000  0.000  0.992
  0.999  0.001  0.000  0.000  0.000
    occupations:
  0.652 -0.004 -0.001  0.029  0.001
 -0.004  0.921  0.011  0.001 -0.001
 -0.001  0.011  0.877 -0.001  0.001
  0.029  0.001 -0.001  0.976  0.000
  0.001 -0.001  0.001  0.000  0.600
atom   22   Tr[ns(na)] =   8.04617
    eigenvalues:
  0.637  0.646  0.861  0.899  0.979
    eigenvectors:
  0.000  0.151  0.001  0.000  0.848
  0.999  0.001  0.000  0.000  0.000
  0.000  0.000  0.984  0.016  0.000
  0.001  0.847  0.000  0.000  0.152
  0.000  0.000  0.016  0.984  0.000
    occupations:
  0.929  0.002  0.000 -0.119  0.000
  0.002  0.637  0.001 -0.001 -0.000
  0.000  0.001  0.862 -0.005  0.005
 -0.119 -0.001 -0.005  0.697  0.001
  0.000 -0.000  0.005  0.001  0.899
atom   23   Tr[ns(na)] =   8.05973
    eigenvalues:
  0.599  0.634  0.868  0.953  0.976
    eigenvectors:
  0.000  0.994  0.000  0.003  0.003
  0.001  0.000  0.999  0.000  0.000
  0.000  0.003  0.000  0.996  0.001
  0.000  0.003  0.000  0.001  0.996
  0.999  0.000  0.001  0.000  0.000
    occupations:
  0.636 -0.000  0.017  0.019 -0.000
 -0.000  0.867 -0.001 -0.000 -0.009
  0.017 -0.001  0.952 -0.002  0.000
  0.019 -0.000 -0.002  0.975  0.000
 -0.000 -0.009  0.000  0.000  0.600
N of occupied +U levels =  64.3869270
 --- exit write_ns ---

[...]

          k = 0.2500-0.4833 0.0000 ( 30510 PWs)   bands (ev):

[...]

          k =-0.2500 0.2417 0.0000 ( 30481 PWs)   bands (ev):

   -48.3885 -48.2730 -48.2666 -48.2622 -48.2464 -48.2176 -48.2092 -48.1869
   -48.1768 -48.1750 -48.1551 -48.0799 -48.0731 -48.0520 -47.9290 -47.9244
   -47.9132 -47.8944 -47.8927 -47.8595 -47.8465 -47.8272 -47.8235 -47.8027
   -24.3150 -20.7369 -20.4443 -20.3251 -20.2441 -19.9907 -19.8256 -19.7931
   -19.7363 -19.6190 -19.4908 -19.4842 -19.4562 -19.2984 -19.2288 -19.2234
   -19.0925 -18.4855 -18.3254 -17.5859  -9.3873  -9.2887  -9.2269  -9.0777
    -8.8529  -8.6038  -8.5294  -8.3964  -8.2927  -8.1408  -8.0865  -8.0583
    -8.0059  -7.9127  -7.8953  -7.7138  -7.5917  -7.4592  -7.4015  -7.2005
    -6.9366  -6.8692  -6.8103  -6.6889  -6.5621  -6.5086  -6.4262  -6.3289
    -6.1782  -6.0472  -5.9204  -5.8732  -5.8260  -5.7250  -5.6700  -5.6303
    -5.5742  -5.4881  -5.4020  -5.2991  -5.2297  -5.1895  -5.0623  -4.8852
    -4.7981  -4.5913  -4.4607  -4.3836  -4.2714  -4.1857  -4.0528  -4.0232
    -3.9107  -3.8043  -3.6549  -3.5784  -3.4957  -3.4108  -3.3694  -3.2043
    -3.1006  -2.9848  -2.9174  -2.8631  -2.7993  -2.7733  -2.6745  -2.6708
    -2.5756  -2.5032  -2.4337  -2.3258  -2.0668  -1.8540  -1.6838  -1.6506
    -1.5416  -1.4995  -1.3459  -1.2324  -1.0981  -1.0223  -0.9432  -0.2309
     0.3251   0.3909   0.6037   0.9817   1.2033   1.5062   1.6647   1.8954
     2.0139   2.1872   2.2367   2.3714   2.4449   2.5350   2.8250   3.3103
     3.8861   4.1692   4.4764   5.0089   5.2379   5.5347   5.8943   5.9866
     6.0042   6.2300   6.3480   6.5113   6.6187   6.9011   6.9363   7.2313
     7.4109   7.5198   7.7011   7.8330   7.8777   8.1922   8.2292   8.3099
     8.4020   8.4916   8.6859   8.8000   8.8923   9.0114   9.1344   9.2045
     9.3199   9.3896   9.4877   9.6292   9.7918   9.8532   9.9311   9.9827
    10.0788  10.1865  10.3091  10.3465  10.4637  10.5345  10.6184  10.7009
    10.7771  10.9042  11.0119  11.1247  11.1744  11.2749  11.3071  11.3858
    11.4964  11.5682  11.6800  11.7328  11.7734  11.8107  11.8910  11.9574
    12.0015  12.1554  12.2451  12.3291  12.3923  12.4863  12.5455  12.5719
    12.6399  12.7281  12.8064  12.9283  12.9584  13.0239  13.0841  13.1757
    13.2824  13.3984  13.4398  13.5798  13.6417  13.6870  13.7961  13.8651
    13.9452  14.0041  14.0773  14.1422  14.2446  14.3409  14.4066  14.4253
    14.5179  14.5395  14.6235  14.7177  14.7808  14.8237  14.9922  15.0177
    15.0958  15.1817  15.2665  15.3192  15.4495  15.5102  15.5592  15.6204
    15.6974  15.7622  15.8068  15.8455  15.9415  15.9858  16.0398  16.0686
    16.1387  16.1839  16.3358  16.3847  16.4392  16.4793  16.5347  16.6153
    16.6256  16.7186  16.7782  16.8678  16.9340  17.0505  17.0839  17.1727
    17.2293  17.2536  17.2920  17.4028  17.4517  17.5073  17.5658  17.6098
    17.7152  17.7286  17.7793  17.8838  17.9520  17.9851  18.0862  18.1190
    18.2062  18.2418  18.3518  18.4036  18.5221  18.6191  18.6532  18.6990
    18.8612  18.9207  18.9805  19.0130  19.0562  19.1766  19.2449  19.3061
    19.3625  19.4404  19.4862  19.5768  19.6289  19.6880  19.7691  19.9045
    19.9473  20.0103  20.1143  20.1918  20.2371  20.3324  20.3708  20.4861
    20.5969  20.6756  20.7214  20.7346  20.7762  20.8612  20.9365  20.9972
    21.0885  21.1223  21.1561  21.2101  21.2689  21.3606  21.4229  21.4630
    21.5281  21.5849  21.6719  21.6928  21.7593  21.8190  21.8374  21.9430
    22.0529  22.0845  22.1219  22.2010  22.2891  22.3484  22.4206  22.4506
    22.5332  22.6073  22.6592  22.7134  22.8066  22.8645  22.9218

     the Fermi energy is    -1.4030 ev

!    total energy              =   -2012.05211316 Ry
     Harris-Foulkes estimate   =   -2012.05211317 Ry
     estimated scf accuracy    <          3.8E-09 Ry

     The total energy is the sum of the following terms:

     one-electron contribution =  -23736.58529788 Ry
     hartree contribution      =   11925.02014345 Ry
     xc contribution           =    -380.00540183 Ry
     ewald contribution        =   10177.96594963 Ry
     Hubbard energy            =       1.55341737 Ry
     smearing contrib. (-TS)   =      -0.00092390 Ry

     convergence has been achieved in  17 iterations

     Forces acting on atoms (Ry/au):

     negative rho (up, down):  0.691E+00 0.000E+00
     atom    1 type  1   force =    -0.00711384   -0.01247472    0.00001588
     atom    2 type  1   force =     0.00016837    0.00425573   -0.00031348
     atom    3 type  2   force =     0.03100650    0.00480290   -0.00017337
     atom    4 type  2   force =     0.00802902    0.00815847    0.00003843
     atom    5 type  1   force =    -0.00343761   -0.03177928    0.00006114
     atom    6 type  1   force =     0.00235362    0.02997189    0.00018778
     atom    7 type  1   force =    -0.00028349   -0.00437284    0.00013898
     atom    8 type  1   force =    -0.00278697    0.00112718   -0.00025613
     atom    9 type  2   force =     0.00461983    0.00078451   -0.00008950
     atom   10 type  2   force =    -0.00017701    0.00046872   -0.00039261
     atom   11 type  1   force =    -0.01059252    0.02005944    0.00013482
     atom   12 type  1   force =    -0.00415631   -0.01433365    0.00020912
     atom   13 type  1   force =    -0.00067686   -0.00281570   -0.00005491
     atom   14 type  1   force =    -0.00579671   -0.01222205    0.00041389
     atom   15 type  1   force =     0.00008748    0.00415936   -0.00022555
     atom   16 type  2   force =    -0.03107371    0.00491550   -0.00015573
     atom   17 type  2   force =     0.00771816    0.00888937   -0.00015366
     atom   18 type  1   force =    -0.00113616   -0.03251422    0.00005715
     atom   19 type  1   force =     0.00457837    0.02940536    0.00019317
     atom   20 type  1   force =    -0.00015776   -0.00593083    0.00040704
     atom   21 type  1   force =    -0.00294716    0.00125148   -0.00036195
     atom   22 type  2   force =    -0.00205472    0.00076802   -0.00011403
     atom   23 type  2   force =    -0.00047648    0.00209258   -0.00019572
     atom   24 type  1   force =     0.01015675    0.01984429    0.00013433
     atom   25 type  1   force =     0.00526031   -0.01447712    0.00026866
     atom   26 type  1   force =    -0.00092780   -0.01043019    0.00035416
     atom   27 type  3   force =     0.00000511    0.00022616    0.00025323
     atom   28 type  3   force =     0.00000721    0.00017847    0.00033263
     atom   29 type  3   force =    -0.00004910    0.00004782    0.00015665
     atom   30 type  3   force =    -0.00026661    0.00000980    0.00003417
     atom   31 type  1   force =    -0.00018277   -0.00019202    0.00013330
     atom   32 type  1   force =     0.00032278    0.00018583   -0.00046977
     atom   33 type  3   force =    -0.00001993   -0.00006027   -0.00056814

     Total force =     0.001578     Total SCF correction =     0.000145

     entering subroutine stress ...

     negative rho (up, down):  0.691E+00 0.000E+00
          total   stress  (Ry/bohr**3)                   (kbar)     P=  -17.04
  -0.00011743   0.00000524   0.00000411        -17.27      0.77      0.61
   0.00000524  -0.00014405   0.00000426          0.77    -21.19      0.63
   0.00000411   0.00000426  -0.00008608          0.61      0.63    -12.66

     bfgs converged in   9 scf cycles and   8 bfgs steps
     (criteria: energy < 0.10E-03, force < 0.10E-02)

     End of BFGS Geometry Optimization

     Final energy   =   -2012.0521131627 Ry
Begin final coordinates

ATOMIC_POSITIONS (crystal)
O0       0.000000000   0.000000000   0.378038316    0   0   1
O0       0.000000000   0.500000000   0.401818107    0   0   1
Rh1      0.250000000   0.500000000   0.453003972    0   0   1
Rh1      0.000000000   0.000000000   0.452421539    0   0   1
O0       0.250000000   0.810000000   0.452343742    0   0   1
O0       0.250000000   0.190000000   0.452063181    0   0   1
O0       0.000000000   0.500000000   0.499143318    0   0   1
O0       0.000000000   0.000000000   0.527787632    0   0   1
Rh1      0.250000000   0.000000000   0.574851415    0   0   1
Rh1      0.000000000   0.500000000   0.570731076    0   0   1
O0       0.250000000   0.690000000   0.574262465    0   0   1
O0       0.250000000   0.310000000   0.576619904    0   0   1
O0       0.000000000   0.000000000   0.620392460    0   0   1
O0       0.500000000   0.000000000   0.377934116    0   0   1
O0       0.500000000   0.500000000   0.401950989    0   0   1
Rh1      0.750000000   0.500000000   0.452994936    0   0   1
Rh1      0.500000000   0.000000000   0.452238835    0   0   1
O0       0.750000000   0.810000000   0.452308479    0   0   1
O0       0.750000000   0.190000000   0.452096842    0   0   1
O0       0.500000000   0.500000000   0.500356907    0   0   1
O0       0.500000000   0.000000000   0.527638214    0   0   1
Rh1      0.750000000   0.000000000   0.574848560    0   0   1
Rh1      0.500000000   0.500000000   0.577722194    0   0   1
O0       0.750000000   0.690000000   0.574262718    0   0   1
O0       0.750000000   0.310000000   0.576618442    0   0   1
O0       0.500000000   0.000000000   0.619936003    0   0   1
H2      -0.000086737   0.637804805   0.384983850
H2       0.499801028   0.638102888   0.385203638
H2       0.147736210   0.036129928   0.367370959
H2       0.648570785   0.033709524   0.367352629
O0       0.499368495   0.536183583   0.650501536
O0       0.500775882   0.346239586   0.678118535
H2       0.499925093   0.402095531   0.713014491
End final coordinates

     General routines

     Parallel routines
     Hubbard U routines

   This run was terminated on:  16:37: 3   1Jun2014

   JOB DONE.