     Program PWSCF v.5.0.2 (svn rev. 9656) starts on 28May2014 at  1:12: 5

     Current dimensions of program PWSCF are:
     Max number of different atomic species (ntypx) = 10
     Max number of k-points (npk) =  40000
     Max angular momentum in pseudopotentials (lmaxx) =  3
     Reading input from pwscf.in
Warning: card &CELL ignored
Warning: card / ignored

     Subspace diagonalization in iterative solution of the eigenvalue problem:
     a serial algorithm will be used

     bravais-lattice index     =            0
     lattice parameter (alat)  =      10.3179  a.u.
     unit-cell volume          =    6964.3238 (a.u.)^3
     number of atoms/cell      =           33
     number of atomic types    =            3
     number of electrons       =       237.00
     number of Kohn-Sham states=          355
     kinetic-energy cutoff     =      40.0000  Ry
     charge density cutoff     =     500.0000  Ry
     convergence threshold     =      1.0E-06
     mixing beta               =       0.7000
     number of iterations used =            8  plain     mixing
     Exchange-correlation      = SLA  PW   PBE  PBE ( 1 4 3 4 0)
     EXX-fraction              =        0.00
     nstep                     =           50

     celldm(1)=  10.317905  celldm(2)=   0.000000  celldm(3)=   0.000000
     celldm(4)=   0.000000  celldm(5)=   0.000000  celldm(6)=   0.000000

     crystal axes: (cart. coord. in units of alat)
               a(1) = (   1.000000   0.000000   0.000000 )
               a(2) = (   0.000000   1.282117   0.000000 )
               a(3) = (   0.000000   0.000000   4.945120 )

     reciprocal axes: (cart. coord. in units 2 pi/alat)
               b(1) = (  1.000000  0.000000  0.000000 )
               b(2) = (  0.000000  0.779960  0.000000 )
               b(3) = (  0.000000  0.000000  0.202220 )

     PseudoPot. # 1 for O  read from file:
     /home/camp/zhonxu/pseudo/o_pbe_v1.01.uspp.F.UPF
     MD5 check sum: 2bcb18d16ea4b960afae9ec6d52f22d2
     Pseudo is Ultrasoft + core correction, Zval =  6.0
     Generated by new atomic code, or converted to UPF format
     Using radial grid of  737 points,  5 beta functions with:
                l(1) =   0
                l(2) =   0
                l(3) =   1
                l(4) =   1
                l(5) =   2
     Q(r) pseudized with  8 coefficients,  rinner =    0.900   0.900   0.900
                                                       0.900   0.900

     PseudoPot. # 2 for Mo read from file:
     /home/camp/zhonxu/pseudo/mo_pbe_v1.uspp.F.UPF
     MD5 check sum: 30c4dcd161f5d35cd49bb5239c51a633
     Pseudo is Ultrasoft + core correction, Zval = 14.0
     Generated by new atomic code, or converted to UPF format
     Using radial grid of  889 points,  6 beta functions with:
                l(1) =   0
                l(2) =   0
                l(3) =   1
                l(4) =   1
                l(5) =   2
                l(6) =   2
     Q(r) pseudized with  6 coefficients,  rinner =    1.000   1.000   1.000
                                                       1.000   1.000

     PseudoPot. # 3 for H  read from file:
     /home/camp/zhonxu/pseudo/h_pbe_v1.uspp.F.UPF
     MD5 check sum: 3408e3ff4ec8b0a4e358431e7e038a48
     Pseudo is Ultrasoft, Zval =  1.0
     Generated by new atomic code, or converted to UPF format
     Using radial grid of  615 points,  2 beta functions with:
                l(1) =   0
                l(2) =   0
     Q(r) pseudized with  8 coefficients,  rinner =    0.700

     atomic species   valence    mass     pseudopotential
        O0             6.00    15.99940     O ( 1.00)
        Mo1           14.00    95.94000     Mo( 1.00)
        H2             1.00     1.00794     H ( 1.00)

     Simplified LDA+U calculation (l_max = 2) with parameters (eV):
     atomic species    L          U    alpha       J0     beta
        Mo1            2     0.0000   0.0000   0.0000   0.0000

     No symmetry found

   Cartesian axes

     site n.     atom                  positions (alat units)
         1           O0  tau(   1) = (   0.0000000   0.0000000   1.8345407  )
         2           O0  tau(   2) = (   0.0000000   0.6410583   1.8924976  )
         3           Mo1 tau(   3) = (   0.2500000   0.6410583   2.1781772  )
         4           Mo1 tau(   4) = (   0.0000000   0.0000000   2.1929631  )
         5           O0  tau(   5) = (   0.2500000   1.0000510   2.1897982  )
         6           O0  tau(   6) = (   0.2500000   0.2820657   2.1891553  )
         7           O0  tau(   7) = (   0.0000000   0.6410583   2.4607413  )
         8           O0  tau(   8) = (   0.0000000   0.0000000   2.5556382  )
         9           Mo1 tau(   9) = (   0.2500000   0.0000000   2.8453728  )
        10           Mo1 tau(  10) = (   0.0000000   0.6410583   2.7952787  )
        11           O0  tau(  11) = (   0.2500000   0.9231240   2.8196582  )
        12           O0  tau(  12) = (   0.2500000   0.3589927   2.8248011  )
        13           O0  tau(  13) = (   0.0000000   0.0000000   3.0952003  )
        14           O0  tau(  14) = (   0.5000000   0.0000000   1.8353814  )
        15           O0  tau(  15) = (   0.5000000   0.6410583   1.8936349  )
        16           Mo1 tau(  16) = (   0.7500000   0.6410583   2.1781277  )
        17           Mo1 tau(  17) = (   0.5000000   0.0000000   2.1954851  )
        18           O0  tau(  18) = (   0.7500000   1.0000510   2.1899960  )
        19           O0  tau(  19) = (   0.7500000   0.2820657   2.1890564  )
        20           O0  tau(  20) = (   0.5000000   0.6410583   2.4612853  )
        21           O0  tau(  21) = (   0.5000000   0.0000000   2.5539074  )
        22           Mo1 tau(  22) = (   0.7500000   0.0000000   2.8439387  )
        23           Mo1 tau(  23) = (   0.5000000   0.6410583   2.8209934  )
        24           O0  tau(  24) = (   0.7500000   0.9231240   2.8195098  )
        25           O0  tau(  25) = (   0.7500000   0.3589927   2.8246033  )
        26           O0  tau(  26) = (   0.5000000   0.0000000   3.0932717  )
        27           H2  tau(  27) = (  -0.0005800   0.7846554   1.7836060  )
        28           H2  tau(  28) = (   0.4995100   0.7915788   1.7940402  )
        29           H2  tau(  29) = (   0.1672700   0.0232576   1.7642706  )
        30           H2  tau(  30) = (   0.6659000   0.0248346   1.7633310  )
        31           O0  tau(  31) = (   0.5002100   0.6666879   3.1760530  )
        32           O0  tau(  32) = (   0.4999400   0.4570233   3.3393409  )
        33           H2  tau(  33) = (   0.5000100   0.5446560   3.4973869  )

     number of k points=    10  Methfessel-Paxton smearing, width (Ry)=  0.0100
                       cart. coord. in units 2pi/alat
        k(    1) = (   0.0000000   0.0000000   0.0000000), wk =   0.1250000
        k(    2) = (   0.0000000   0.1949901   0.0000000), wk =   0.2500000
        k(    3) = (   0.0000000  -0.3899801   0.0000000), wk =   0.1250000
        k(    4) = (   0.2500000   0.0000000   0.0000000), wk =   0.2500000
        k(    5) = (   0.2500000   0.1949901   0.0000000), wk =   0.2500000
        k(    6) = (   0.2500000  -0.3899801   0.0000000), wk =   0.2500000
        k(    7) = (  -0.5000000   0.0000000   0.0000000), wk =   0.1250000
        k(    8) = (  -0.5000000   0.1949901   0.0000000), wk =   0.2500000
        k(    9) = (  -0.5000000  -0.3899801   0.0000000), wk =   0.1250000
        k(   10) = (  -0.2500000   0.1949901   0.0000000), wk =   0.2500000

     Largest allocated arrays     est. size (Mb)     dimensions
     Largest temporary arrays     est. size (Mb)     dimensions

     Check: negative/imaginary core charge=   -0.000003    0.000000

     Initial potential from superposition of free atoms
     Check: negative starting charge=   -0.002157

     starting charge  236.99142, renormalised to  237.00000

     negative rho (up, down):  0.216E-02 0.000E+00
     Number of +U iterations with fixed ns =  0
     Starting occupations:
 --- enter write_ns ---
 LDA+U parameters:
U( 2)     =  0.00000000
alpha( 2) =  0.00000000
atom    3   Tr[ns(na)] =   5.00000
    eigenvalues:
  0.500  0.500  0.500  0.500  0.500
    eigenvectors:
  1.000  0.000  0.000  0.000  0.000
  0.000  1.000  0.000  0.000  0.000
  0.000  0.000  1.000  0.000  0.000
  0.000  0.000  0.000  1.000  0.000
  0.000  0.000  0.000  0.000  1.000
    occupations:
  0.500  0.000  0.000  0.000  0.000
  0.000  0.500  0.000  0.000  0.000
  0.000  0.000  0.500  0.000  0.000
  0.000  0.000  0.000  0.500  0.000
  0.000  0.000  0.000  0.000  0.500
atom    4   Tr[ns(na)] =   5.00000
    eigenvalues:
  0.500  0.500  0.500  0.500  0.500
    eigenvectors:
  1.000  0.000  0.000  0.000  0.000
  0.000  1.000  0.000  0.000  0.000
  0.000  0.000  1.000  0.000  0.000
  0.000  0.000  0.000  1.000  0.000
  0.000  0.000  0.000  0.000  1.000
    occupations:
  0.500  0.000  0.000  0.000  0.000
  0.000  0.500  0.000  0.000  0.000
  0.000  0.000  0.500  0.000  0.000
  0.000  0.000  0.000  0.500  0.000
  0.000  0.000  0.000  0.000  0.500
atom    9   Tr[ns(na)] =   5.00000
    eigenvalues:
  0.500  0.500  0.500  0.500  0.500
    eigenvectors:
  1.000  0.000  0.000  0.000  0.000
  0.000  1.000  0.000  0.000  0.000
  0.000  0.000  1.000  0.000  0.000
  0.000  0.000  0.000  1.000  0.000
  0.000  0.000  0.000  0.000  1.000
    occupations:
  0.500  0.000  0.000  0.000  0.000
  0.000  0.500  0.000  0.000  0.000
  0.000  0.000  0.500  0.000  0.000
  0.000  0.000  0.000  0.500  0.000
  0.000  0.000  0.000  0.000  0.500
atom   10   Tr[ns(na)] =   5.00000
    eigenvalues:
  0.500  0.500  0.500  0.500  0.500
    eigenvectors:
  1.000  0.000  0.000  0.000  0.000
  0.000  1.000  0.000  0.000  0.000
  0.000  0.000  1.000  0.000  0.000
  0.000  0.000  0.000  1.000  0.000
  0.000  0.000  0.000  0.000  1.000
    occupations:
  0.500  0.000  0.000  0.000  0.000
  0.000  0.500  0.000  0.000  0.000
  0.000  0.000  0.500  0.000  0.000
  0.000  0.000  0.000  0.500  0.000
  0.000  0.000  0.000  0.000  0.500
atom   16   Tr[ns(na)] =   5.00000
    eigenvalues:
  0.500  0.500  0.500  0.500  0.500
    eigenvectors:
  1.000  0.000  0.000  0.000  0.000
  0.000  1.000  0.000  0.000  0.000
  0.000  0.000  1.000  0.000  0.000
  0.000  0.000  0.000  1.000  0.000
  0.000  0.000  0.000  0.000  1.000
    occupations:
  0.500  0.000  0.000  0.000  0.000
  0.000  0.500  0.000  0.000  0.000
  0.000  0.000  0.500  0.000  0.000
  0.000  0.000  0.000  0.500  0.000
  0.000  0.000  0.000  0.000  0.500
atom   17   Tr[ns(na)] =   5.00000
    eigenvalues:
  0.500  0.500  0.500  0.500  0.500
    eigenvectors:
  1.000  0.000  0.000  0.000  0.000
  0.000  1.000  0.000  0.000  0.000
  0.000  0.000  1.000  0.000  0.000
  0.000  0.000  0.000  1.000  0.000
  0.000  0.000  0.000  0.000  1.000
    occupations:
  0.500  0.000  0.000  0.000  0.000
  0.000  0.500  0.000  0.000  0.000
  0.000  0.000  0.500  0.000  0.000
  0.000  0.000  0.000  0.500  0.000
  0.000  0.000  0.000  0.000  0.500
atom   22   Tr[ns(na)] =   5.00000
    eigenvalues:
  0.500  0.500  0.500  0.500  0.500
    eigenvectors:
  1.000  0.000  0.000  0.000  0.000
  0.000  1.000  0.000  0.000  0.000
  0.000  0.000  1.000  0.000  0.000
[...]
  0.001  0.000  0.012  0.987  0.000
  0.999  0.000  0.000  0.001  0.000
  0.000  0.000  0.002  0.000  0.998
  0.000  1.000  0.000  0.000  0.000
    occupations:
  0.577  0.004  0.000 -0.006  0.000
  0.004  0.612  0.005 -0.001 -0.000
  0.000  0.005  0.480  0.000  0.000
 -0.006 -0.001  0.000  0.709  0.000
  0.000 -0.000  0.000  0.000  0.524
atom    9   Tr[ns(na)] =   5.80754
    eigenvalues:
  0.519  0.542  0.583  0.589  0.670
    eigenvectors:
  0.000  0.000  0.225  0.006  0.769
  0.000  0.000  0.023  0.977  0.000
  0.209  0.791  0.000  0.000  0.000
  0.000  0.000  0.751  0.017  0.231
  0.791  0.209  0.000  0.000  0.000
    occupations:
  0.650 -0.000 -0.001 -0.036 -0.001
 -0.000  0.589 -0.000 -0.001  0.000
 -0.001 -0.000  0.537  0.000  0.009
 -0.036 -0.001  0.000  0.603  0.000
 -0.001  0.000  0.009  0.000  0.524
atom   10   Tr[ns(na)] =   5.74902
    eigenvalues:
  0.500  0.520  0.521  0.617  0.717
    eigenvectors:
  0.990  0.003  0.005  0.000  0.001
  0.000  0.000  0.000  1.000  0.000
  0.008  0.373  0.619  0.000  0.000
  0.001  0.000  0.000  0.000  0.999
  0.000  0.624  0.376  0.000  0.000
    occupations:
  0.500  0.000 -0.002 -0.007 -0.000
  0.000  0.617 -0.000  0.000  0.000
 -0.002 -0.000  0.520 -0.001 -0.000
 -0.007  0.000 -0.001  0.716  0.000
 -0.000  0.000 -0.000  0.000  0.521
atom   16   Tr[ns(na)] =   5.81491
    eigenvalues:
  0.514  0.518  0.562  0.592  0.721
    eigenvectors:
  0.001  0.014  0.350  0.000  0.634
  0.996  0.001  0.002  0.001  0.000
  0.002  0.965  0.005  0.019  0.009
  0.001  0.000  0.642  0.001  0.356
  0.000  0.019  0.001  0.980  0.000
    occupations:
  0.662  0.003  0.017 -0.076  0.000
  0.003  0.514  0.001  0.001 -0.002
  0.017  0.001  0.521 -0.009 -0.010
 -0.076  0.001 -0.009  0.619 -0.000
  0.000 -0.002 -0.010 -0.000  0.591
atom   17   Tr[ns(na)] =   5.80809
    eigenvalues:
  0.485  0.524  0.577  0.611  0.707
    eigenvectors:
  0.000  0.000  0.988  0.010  0.002
  0.001  0.000  0.010  0.988  0.000
  0.999  0.000  0.000  0.001  0.000
  0.000  0.000  0.002  0.000  0.998
  0.000  1.000  0.000  0.000  0.000
    occupations:
  0.578  0.003  0.000 -0.006  0.000
  0.003  0.610  0.004 -0.001 -0.001
  0.000  0.004  0.486  0.000  0.000
 -0.006 -0.001  0.000  0.707  0.000
  0.000 -0.001  0.000  0.000  0.524
atom   22   Tr[ns(na)] =   5.80747
    eigenvalues:
  0.519  0.541  0.583  0.588  0.673
    eigenvectors:
  0.000  0.000  0.219  0.013  0.767
  0.000  0.000  0.052  0.948  0.000
  0.222  0.778  0.000  0.000  0.000
  0.000  0.000  0.729  0.038  0.233
  0.778  0.222  0.000  0.000  0.000
    occupations:
  0.652  0.000 -0.001 -0.038 -0.001
  0.000  0.588 -0.000  0.001 -0.000
 -0.001 -0.000  0.536  0.000 -0.009
 -0.038  0.001  0.000  0.604  0.000
 -0.001 -0.000 -0.009  0.000  0.524
atom   23   Tr[ns(na)] =   5.82425
    eigenvalues:
  0.527  0.533  0.553  0.574  0.725
    eigenvectors:
  0.000  0.002  0.000  0.988  0.010
  0.020  0.000  0.980  0.000  0.000
  0.000  0.997  0.000  0.002  0.000
  0.000  0.000  0.000  0.009  0.990
  0.980  0.000  0.020  0.000  0.000
    occupations:
  0.576  0.000  0.002 -0.015  0.000
  0.000  0.552  0.000 -0.000 -0.004
  0.002  0.000  0.533  0.002  0.000
 -0.015 -0.000  0.002  0.723  0.000
  0.000 -0.004  0.000  0.000  0.528
N of occupied +U levels =  46.4269497
 --- exit write_ns ---

          k = 0.0000 0.0000 0.0000 ( 29769 PWs)   bands (ev):

   -62.1443 -62.0625 -62.0211 -61.9660 -61.9301 -61.8986 -61.8489 -61.8135
   -36.8674 -36.5649 -36.4753 -36.4747 -36.4687 -36.4342 -36.3485 -36.3174
   -36.2618 -36.2016 -36.1048 -36.0929 -36.0842 -36.0800 -36.0787 -36.0526
   -35.9165 -35.8863 -35.8714 -35.8571 -35.7654 -35.5210 -35.4357 -35.4208
   -22.7724 -20.4620 -20.0930 -19.6930 -19.5337 -19.4086 -19.2264 -18.7578
   -18.7463 -18.7263 -18.7049 -18.6874 -18.5425 -18.4810 -18.3668 -18.3612
   -18.2911 -17.6887 -17.4584 -16.5371  -8.5319  -8.2555  -8.0992  -8.0576
    -7.9591  -7.8740  -7.2453  -7.0934  -6.9844  -6.9322  -6.6846  -6.6583
    -6.5574  -6.5107  -6.4670  -6.2499  -6.1383  -6.0289  -5.9558  -5.8746
    -5.8228  -5.7874  -5.6547  -5.5442  -5.3772  -5.0708  -4.9180  -4.8615
    -4.8105  -4.7715  -4.7379  -4.4947  -4.4615  -4.2397  -4.1885  -4.1603
    -4.0247  -3.9774  -3.8323  -3.7864  -3.7349  -3.5391  -3.5063  -3.4202
    -3.3234  -3.1117  -3.0249  -2.9780  -2.8028  -2.7788  -2.7573  -2.7495
    -2.6504  -2.5557  -2.4849  -2.4172  -2.1553  -2.0976  -2.0484  -2.0203
    -1.6881  -1.2184  -0.1662  -0.0859   0.2941   0.4527   0.5791   0.6619
     0.8361   0.9751   1.1004   1.1054   1.1454   1.5282   1.6167   1.6835
     1.8306   2.2869   2.4354   3.0065   3.2734   3.3936   3.4266   3.4376
     3.5018   3.6966   3.9833   4.1161   4.3257   4.4235   4.4566   4.6543
     4.7939   4.8455   4.9138   4.9265   5.1484   5.1906   5.2941   5.3311
     5.5197   5.5313   5.6121   6.1045   6.2625   6.5233   6.6400   6.7152
     7.0863   7.2174   7.3775   7.5431   7.6091   7.6588   7.8805   7.9254
     8.1162   8.2246   8.2539   8.5997   8.8254   8.8713   9.1051   9.1419
     9.1567   9.2579   9.3147   9.3816   9.4895   9.5066   9.7415   9.8570
     9.9672   9.9909  10.0434  10.0929  10.1548  10.2491  10.3652  10.3756
    10.6596  10.6902  10.7555  10.8084  10.9812  11.1388  11.2149  11.2775
    11.3041  11.5510  11.6771  11.7410  11.8421  11.8782  11.9411  12.0858
    12.1032  12.1374  12.1914  12.3929  12.4754  12.4918  12.5269  12.5591
    12.6438  12.6705  12.6967  12.7470  12.7527  12.8245  12.9321  13.0304
    13.1331  13.2142  13.2806  13.3465  13.5037  13.5677  13.5911  13.6959
    13.7401  13.7560  13.8246  13.9067  13.9210  14.0166  14.0441  14.2256
    14.2561  14.3609  14.4046  14.5073  14.5703  14.6072  14.8050  14.9416
    15.0111  15.1400  15.1722  15.1879  15.3237  15.4698  15.4867  15.5485
    15.6925  15.8228  15.8715  16.0092  16.0297  16.0783  16.1110  16.1254
    16.2011  16.2708  16.3568  16.3641  16.3879  16.5176  16.5318  16.6835
    16.7013  16.7577  16.7722  16.8057  16.8763  16.9207  16.9342  16.9974
    17.1127  17.1455  17.3685  17.4716  17.7034  17.7797  17.8079  17.8685
    17.9833  17.9990  18.1284  18.1583  18.2856  18.3489  18.3661  18.4923
    18.6676  18.7371  18.8224  18.9069  18.9793  19.1069  19.2014  19.2927
    19.3267  19.4062  19.4434  19.5167  19.5916  19.6441  19.7623  19.7848
    19.8446  19.8751  19.8970  20.0007  20.0276  20.0785  20.2945  20.3513
    20.3811  20.4241  20.5594  20.5760  20.6067  20.7050  20.8329  20.9571
    21.0924  21.1751  21.2315  21.2778  21.2878  21.3580  21.3835  21.5232
    21.5945  21.6500  21.6766  21.6852  21.7333  21.7690  21.8024  21.8149
    21.8567  21.9873  22.0343  22.0513  22.1302  22.2149  22.2499  22.2790
    22.3150  22.4041  22.4230

[...]

          k = 0.2500-0.3900 0.0000 ( 29726 PWs)   bands (ev):

[...]

          k =-0.5000 0.0000 0.0000 ( 29752 PWs)   bands (ev):

[...]

          k =-0.2500 0.1950 0.0000 ( 29746 PWs)   bands (ev):

   -62.1268 -62.0519 -62.0390 -61.9492 -61.9135 -61.9093 -61.8659 -61.8307
   -36.7167 -36.4560 -36.4474 -36.4146 -36.3575 -36.3512 -36.3303 -36.2989
   -36.2207 -36.1828 -36.1181 -36.0979 -36.0732 -36.0685 -36.0649 -36.0284
   -35.9441 -35.9407 -35.9138 -35.8943 -35.8873 -35.6741 -35.5940 -35.5830
   -22.7720 -20.3646 -20.0981 -19.5338 -19.3857 -19.2670 -19.0879 -19.0114
   -18.9690 -18.8020 -18.7447 -18.6341 -18.5082 -18.4925 -18.3614 -18.3373
   -18.2754 -17.7560 -17.6030 -16.5359  -8.3577  -8.2444  -8.0966  -7.7257
    -7.3869  -7.2802  -7.2766  -7.2041  -7.0294  -6.9072  -6.8568  -6.8175
    -6.7064  -6.5366  -6.4742  -6.2846  -6.0133  -5.9606  -5.8719  -5.8023
    -5.6892  -5.6248  -5.5350  -5.4000  -5.2610  -5.2014  -5.0423  -4.9808
    -4.9021  -4.7589  -4.6547  -4.6036  -4.3837  -4.2920  -4.1670  -4.1504
    -4.0805  -4.0070  -3.9552  -3.9076  -3.7939  -3.7486  -3.6692  -3.6169
    -3.4730  -3.3732  -3.2445  -3.1157  -3.0171  -2.9911  -2.9113  -2.8283
    -2.7187  -2.6882  -2.5088  -2.4097  -2.3331  -2.1506  -1.3259  -1.1280
    -1.0130  -0.9445  -0.2758  -0.0516   0.0964   0.1270   0.5185   0.6197
     0.9561   1.0883   1.1372   1.2816   1.4083   1.5307   1.6986   1.7403
     1.8603   2.0567   2.1545   2.3451   2.3626   2.4615   2.5944   2.8052
     3.6877   3.7397   4.0227   4.0577   4.1920   4.2670   4.3345   4.4458
     4.6952   4.7723   4.9180   4.9633   5.1701   5.2215   5.3472   5.5657
     5.9077   6.0512   6.1566   6.2624   6.3293   6.4294   6.5252   6.5862
     6.7358   6.9411   7.0076   7.2740   7.3326   7.4459   7.7405   7.7926
     8.0867   8.2409   8.4510   8.4984   8.6500   8.7341   8.8780   8.9548
     9.0125   9.1972   9.2575   9.3501   9.5137   9.6104   9.6770   9.7766
     9.8188   9.9076   9.9743  10.0897  10.2103  10.4162  10.5335  10.6041
    10.6996  10.7926  10.8729  10.9366  11.0047  11.1132  11.2772  11.3661
    11.4886  11.6423  11.7177  11.8332  11.8992  11.9402  12.0177  12.1607
    12.2007  12.2624  12.3583  12.3677  12.4650  12.5401  12.6163  12.8114
    12.8862  12.9731  13.0115  13.1484  13.1929  13.2204  13.3594  13.4414
    13.5218  13.5555  13.6433  13.6856  13.7421  13.8248  13.8862  13.9592
    14.0318  14.0818  14.1253  14.1972  14.2322  14.2816  14.3663  14.3913
    14.4503  14.5249  14.6197  14.7390  14.7874  14.8765  14.9165  15.0721
    15.1347  15.2256  15.2738  15.4026  15.4773  15.4911  15.6334  15.6781
    15.7826  15.8725  15.9050  16.0020  16.0513  16.1464  16.2291  16.2709
    16.3234  16.4229  16.4933  16.5582  16.5855  16.6172  16.7136  16.7594
    16.8380  16.9217  16.9646  17.0908  17.1091  17.1795  17.2643  17.3030
    17.3342  17.3749  17.4905  17.5807  17.6691  17.7518  17.7963  17.8900
    18.0476  18.0809  18.1276  18.1907  18.2306  18.3372  18.3872  18.4768
    18.5714  18.6103  18.6761  18.7688  18.8897  18.9342  19.0072  19.0560
    19.1763  19.2248  19.3572  19.3995  19.4218  19.5336  19.5935  19.6902
    19.8227  19.8786  19.9867  20.0356  20.0933  20.1391  20.1700  20.2383
    20.2661  20.3330  20.4412  20.4636  20.4826  20.5347  20.6053  20.6735
    20.7511  20.8183  20.8727  20.9229  20.9845  21.0981  21.1381  21.2316
    21.2949  21.3488  21.4013  21.4561  21.5123  21.5452  21.6037  21.6306
    21.6706  21.7409  21.8190  21.8627  21.9027  21.9474  21.9855  22.0772
    22.1455  22.2208  22.2795

     the Fermi energy is     0.4770 ev

!    total energy              =   -1765.71298546 Ry
     Harris-Foulkes estimate   =   -1765.71298625 Ry
     estimated scf accuracy    <       0.00000081 Ry

     The total energy is the sum of the following terms:

     one-electron contribution =  -22644.12678068 Ry
     hartree contribution      =   11351.20451834 Ry
     xc contribution           =    -301.52409994 Ry
     ewald contribution        =    9828.73344598 Ry
     Hubbard energy            =       0.00000000 Ry
     smearing contrib. (-TS)   =      -0.00006916 Ry

     convergence has been achieved in  28 iterations

     Forces acting on atoms (Ry/au):

     negative rho (up, down):  0.334E-02 0.000E+00
     atom    1 type  1   force =    -0.00084594   -0.00540143    0.00062861
     atom    2 type  1   force =    -0.00005250    0.00895567   -0.00036934
     atom    3 type  2   force =    -0.01457600   -0.00814064   -0.00029495
     atom    4 type  2   force =     0.00055696    0.00601463    0.00017037
     atom    5 type  1   force =     0.00033145    0.00187919    0.00003515
     atom    6 type  1   force =    -0.00174119   -0.00500404    0.00000800
     atom    7 type  1   force =     0.00036461   -0.00131950   -0.00024804
     atom    8 type  1   force =     0.00262702    0.00213869   -0.00017752
     atom    9 type  2   force =    -0.00701308   -0.00368781   -0.00031611
     atom   10 type  2   force =    -0.00061177    0.00280736   -0.00023145
     atom   11 type  1   force =    -0.01439149   -0.02763864    0.00015495
     atom   12 type  1   force =    -0.01188410    0.03373622    0.00065861
     atom   13 type  1   force =     0.00009663   -0.00168381   -0.00032245
     atom   14 type  1   force =    -0.00313140   -0.00620327    0.00054234
     atom   15 type  1   force =    -0.00006811    0.01065383    0.00007693
     atom   16 type  2   force =     0.01382069   -0.00805397   -0.00017594
     atom   17 type  2   force =    -0.00095430    0.00458730    0.00022479
     atom   18 type  1   force =     0.00234975    0.00155501    0.00005201
     atom   19 type  1   force =     0.00208403   -0.00520940    0.00002392
     atom   20 type  1   force =     0.00021262    0.00107105   -0.00014702
     atom   21 type  1   force =     0.00337223    0.00196822   -0.00007363
     atom   22 type  2   force =     0.00310060   -0.00370934   -0.00027953
     atom   23 type  2   force =     0.00076273    0.00143312    0.00046103
     atom   24 type  1   force =     0.01444085   -0.02724618    0.00017180
     atom   25 type  1   force =     0.01179847    0.03370496    0.00063646
     atom   26 type  1   force =    -0.00015403   -0.00662888   -0.00056995
     atom   27 type  3   force =     0.00001554   -0.00027363   -0.00021787
     atom   28 type  3   force =     0.00001314   -0.00040323   -0.00024463
     atom   29 type  3   force =    -0.00029169   -0.00004042   -0.00028138
     atom   30 type  3   force =    -0.00031387   -0.00005320   -0.00023507
     atom   31 type  1   force =     0.00013956    0.00010512    0.00026182
     atom   32 type  1   force =    -0.00007700    0.00015857    0.00051510
     atom   33 type  3   force =     0.00001959   -0.00007153   -0.00043700

     Total force =     0.002044     Total SCF correction =     0.003934
     SCF correction compared to forces is large: reduce conv_thr to get better values

     entering subroutine stress ...

     negative rho (up, down):  0.334E-02 0.000E+00
          total   stress  (Ry/bohr**3)                   (kbar)     P=   -3.12
   0.00002336  -0.00000047   0.00000202          3.44     -0.07      0.30
  -0.00000047  -0.00005086  -0.00000186         -0.07     -7.48     -0.27
   0.00000202  -0.00000186  -0.00003608          0.30     -0.27     -5.31

     BFGS Geometry Optimization

     bfgs converged in   1 scf cycles and   0 bfgs steps
     (criteria: energy < 0.10E-03, force < 0.10E-02)

     End of BFGS Geometry Optimization

     Final energy   =   -1765.7129854607 Ry
Begin final coordinates

ATOMIC_POSITIONS (crystal)
O0       0.000000000   0.000000000   0.370980000    0   0   1
O0       0.000000000   0.500000000   0.382700000    0   0   1
Mo1      0.250000000   0.500000000   0.440470000    0   0   1
Mo1      0.000000000   0.000000000   0.443460000    0   0   1
O0       0.250000000   0.780000000   0.442820000    0   0   1
O0       0.250000000   0.220000000   0.442690000    0   0   1
O0       0.000000000   0.500000000   0.497610000    0   0   1
O0       0.000000000   0.000000000   0.516800000    0   0   1
Mo1      0.250000000   0.000000000   0.575390000    0   0   1
Mo1      0.000000000   0.500000000   0.565260000    0   0   1
O0       0.250000000   0.720000000   0.570190000    0   0   1
O0       0.250000000   0.280000000   0.571230000    0   0   1
O0       0.000000000   0.000000000   0.625910000    0   0   1
O0       0.500000000   0.000000000   0.371150000    0   0   1
O0       0.500000000   0.500000000   0.382930000    0   0   1
Mo1      0.750000000   0.500000000   0.440460000    0   0   1
Mo1      0.500000000   0.000000000   0.443970000    0   0   1
O0       0.750000000   0.780000000   0.442860000    0   0   1
O0       0.750000000   0.220000000   0.442670000    0   0   1
O0       0.500000000   0.500000000   0.497720000    0   0   1
O0       0.500000000   0.000000000   0.516450000    0   0   1
Mo1      0.750000000   0.000000000   0.575100000    0   0   1
Mo1      0.500000000   0.500000000   0.570460000    0   0   1
O0       0.750000000   0.720000000   0.570160000    0   0   1
O0       0.750000000   0.280000000   0.571190000    0   0   1
O0       0.500000000   0.000000000   0.625520000    0   0   1
H2      -0.000580000   0.612000000   0.360680000
H2       0.499510000   0.617400000   0.362790000
H2       0.167270000   0.018140000   0.356770000
H2       0.665900000   0.019370000   0.356580000
O0       0.500210000   0.519990000   0.642260000
O0       0.499940000   0.356460000   0.675280000
H2       0.500010000   0.424810000   0.707240000
End final coordinates

     General routines

     Parallel routines
     Hubbard U routines

   This run was terminated on:   2:54:42  28May2014

   JOB DONE.
Running PBS batch system epilogue script
Job id: 373256.audhumbla.fysik.dtu.dk
Username: zhonxu
Groupname: campgst
Jobname: MoO2/Eads-2-layers/OOH-U-0.0
Sessionid: 7394
Queuename: verylong
Accounting:
This job has allocated the following 16 nodes:
b087 b087 b087 b087 b087 b087 b087 b087 b066 b066 b066 b066 b066 b066 b066 b066
Finished epilogue job 373256.audhumbla.fysik.dtu.dk for zhonxu