     Program PWSCF v.5.0.2 (svn rev. 9656) starts on 24Jan2014 at 15:41:45

     Current dimensions of program PWSCF are:
     Max number of different atomic species (ntypx) = 10
     Max number of k-points (npk) =  40000
     Max angular momentum in pseudopotentials (lmaxx) =  3
     Reading input from MnO2-v-1.00.in

     Subspace diagonalization in iterative solution of the eigenvalue problem:
     a serial algorithm will be used

     bravais-lattice index     =            0
     lattice parameter (alat)  =       8.4195  a.u.
     unit-cell volume          =     384.6281 (a.u.)^3
     number of atoms/cell      =            6
     number of atomic types    =            2
     number of electrons       =        54.00
     number of Kohn-Sham states=           78
     kinetic-energy cutoff     =      40.0000  Ry
     charge density cutoff     =     500.0000  Ry
     convergence threshold     =      1.0E-06
     mixing beta               =       0.3000
     number of iterations used =            8  plain     mixing
     Exchange-correlation      = SLA  PW   PBE  PBE ( 1 4 3 4 0)
     EXX-fraction              =        0.00
     nstep                     =           50

     celldm(1)=   8.419478  celldm(2)=   0.000000  celldm(3)=   0.000000
     celldm(4)=   0.000000  celldm(5)=   0.000000  celldm(6)=   0.000000

     crystal axes: (cart. coord. in units of alat)
               a(1) = (   1.000000   0.000000   0.000000 )
               a(2) = (   0.000000   1.000000   0.000000 )
               a(3) = (   0.000000   0.000000   0.644444 )

     reciprocal axes: (cart. coord. in units 2 pi/alat)
               b(1) = (  1.000000  0.000000  0.000000 )
               b(2) = (  0.000000  1.000000  0.000000 )
               b(3) = (  0.000000  0.000000  1.551724 )

     PseudoPot. # 1 for Mn read from file:
     /home/camp/zhonxu/pseudo/mn_pbe_v1.uspp.F.UPF
     MD5 check sum: 5fd7c7b5c956fd19902447332617373a
     Pseudo is Ultrasoft + core correction, Zval = 15.0
     Generated by new atomic code, or converted to UPF format
     Using radial grid of  859 points,  6 beta functions with:
                l(1) =   0
                l(2) =   0
                l(3) =   1
                l(4) =   1
                l(5) =   2
                l(6) =   2
     Q(r) pseudized with  6 coefficients,  rinner =    1.150   1.150   1.150
                                                       1.150   1.150

     PseudoPot. # 2 for O  read from file:
     /home/camp/zhonxu/pseudo/o_pbe_v1.01.uspp.F.UPF
     MD5 check sum: 2bcb18d16ea4b960afae9ec6d52f22d2
     Pseudo is Ultrasoft + core correction, Zval =  6.0
     Generated by new atomic code, or converted to UPF format
     Using radial grid of  737 points,  5 beta functions with:
                l(1) =   0
                l(2) =   0
                l(3) =   1
                l(4) =   1
                l(5) =   2
     Q(r) pseudized with  8 coefficients,  rinner =    0.900   0.900   0.900
                                                       0.900   0.900

     atomic species   valence    mass     pseudopotential
        Mn0           15.00    54.93800     Mn( 1.00)
        O1             6.00    15.99940     O ( 1.00)

     Starting magnetic structure
     atomic species   magnetization
        Mn0          0.600
        O1           0.000

     16 Sym. Ops., with inversion, found ( 8 have fractional translation)

   Cartesian axes

     site n.     atom                  positions (alat units)
         1           Mn0 tau(   1) = (   0.0000000   0.0000000   0.0000000  )
         2           Mn0 tau(   2) = (   0.5000000   0.5000000   0.3222222  )
         3           O1  tau(   3) = (   0.3050000   0.3050000   0.0000000  )
         4           O1  tau(   4) = (  -0.3050000  -0.3050000   0.0000000  )
         5           O1  tau(   5) = (   0.8050000   0.1950000   0.3222222  )
         6           O1  tau(   6) = (   0.1950000   0.8050000   0.3222222  )

     number of k points=    36  Methfessel-Paxton smearing, width (Ry)=  0.0100
                       cart. coord. in units 2pi/alat
        k(    1) = (   0.0000000   0.0000000   0.0000000), wk =   0.0080000
        k(    2) = (   0.0000000   0.0000000   0.3103448), wk =   0.0160000
        k(    3) = (   0.0000000   0.0000000   0.6206897), wk =   0.0160000
        k(    4) = (   0.0000000   0.2000000   0.0000000), wk =   0.0320000
        k(    5) = (   0.0000000   0.2000000   0.3103448), wk =   0.0640000
        k(    6) = (   0.0000000   0.2000000   0.6206897), wk =   0.0640000
        k(    7) = (   0.0000000   0.4000000   0.0000000), wk =   0.0320000
        k(    8) = (   0.0000000   0.4000000   0.3103448), wk =   0.0640000
        k(    9) = (   0.0000000   0.4000000   0.6206897), wk =   0.0640000
        k(   10) = (   0.2000000   0.2000000   0.0000000), wk =   0.0320000
        k(   11) = (   0.2000000   0.2000000   0.3103448), wk =   0.0640000
        k(   12) = (   0.2000000   0.2000000   0.6206897), wk =   0.0640000
        k(   13) = (   0.2000000   0.4000000   0.0000000), wk =   0.0640000
        k(   14) = (   0.2000000   0.4000000   0.3103448), wk =   0.1280000
        k(   15) = (   0.2000000   0.4000000   0.6206897), wk =   0.1280000
        k(   16) = (   0.4000000   0.4000000   0.0000000), wk =   0.0320000
        k(   17) = (   0.4000000   0.4000000   0.3103448), wk =   0.0640000
        k(   18) = (   0.4000000   0.4000000   0.6206897), wk =   0.0640000
        k(   19) = (   0.0000000   0.0000000   0.0000000), wk =   0.0080000
        k(   20) = (   0.0000000   0.0000000   0.3103448), wk =   0.0160000
        k(   21) = (   0.0000000   0.0000000   0.6206897), wk =   0.0160000
        k(   22) = (   0.0000000   0.2000000   0.0000000), wk =   0.0320000
        k(   23) = (   0.0000000   0.2000000   0.3103448), wk =   0.0640000
        k(   24) = (   0.0000000   0.2000000   0.6206897), wk =   0.0640000
        k(   25) = (   0.0000000   0.4000000   0.0000000), wk =   0.0320000
        k(   26) = (   0.0000000   0.4000000   0.3103448), wk =   0.0640000
        k(   27) = (   0.0000000   0.4000000   0.6206897), wk =   0.0640000
        k(   28) = (   0.2000000   0.2000000   0.0000000), wk =   0.0320000
        k(   29) = (   0.2000000   0.2000000   0.3103448), wk =   0.0640000
        k(   30) = (   0.2000000   0.2000000   0.6206897), wk =   0.0640000
        k(   31) = (   0.2000000   0.4000000   0.0000000), wk =   0.0640000
        k(   32) = (   0.2000000   0.4000000   0.3103448), wk =   0.1280000
        k(   33) = (   0.2000000   0.4000000   0.6206897), wk =   0.1280000
        k(   34) = (   0.4000000   0.4000000   0.0000000), wk =   0.0320000
        k(   35) = (   0.4000000   0.4000000   0.3103448), wk =   0.0640000
        k(   36) = (   0.4000000   0.4000000   0.6206897), wk =   0.0640000

     Largest allocated arrays     est. size (Mb)     dimensions
     Largest temporary arrays     est. size (Mb)     dimensions

     Check: negative/imaginary core charge=   -0.000062    0.000000

     Initial potential from superposition of free atoms

     starting charge   51.99998, renormalised to   54.00000
     Starting wfc are   42 randomized atomic wfcs

     Self-consistent Calculation

     iteration #  1     ecut=    40.00 Ry     beta=0.30
     Davidson diagonalization with overlap
     ethr =  1.00E-02,  avg # of iterations =  5.0

     total energy              =    -553.81861063 Ry
     Harris-Foulkes estimate   =    -554.31618364 Ry
     estimated scf accuracy    <       4.00306338 Ry

     total magnetization       =     6.00 Bohr mag/cell
     absolute magnetization    =     7.33 Bohr mag/cell

[...]

     End of self-consistent calculation

 ------ SPIN UP ------------

          k = 0.0000 0.0000 0.0000 (  1647 PWs)   bands (ev):

   -71.7494 -71.7472 -40.4536 -40.4451 -40.4056 -40.4056 -40.3241 -40.3241
    -9.5190  -7.7408  -7.3695  -7.3695   2.4268   3.0790   3.7640   4.5518
     4.5518   6.2935   6.2935   6.9671   7.5267   7.6550   7.8211   7.8211
     7.9599   8.7050   9.1231   9.1231   9.7141   9.9850  10.1829  12.9685
    12.9685  13.6229  17.7965  21.2800  21.2800  23.8346  24.8735  25.1726
    27.4495  28.5296  28.5296  29.0241  30.3780  33.4578  34.2242  34.6649
    34.6649  35.5276  35.5276  35.7710  36.6947  36.6947  37.1160  38.0442
    39.2959  40.1932  43.3075  43.3075  43.5263  43.6737  43.6737  45.5864
    46.7908  48.1395  48.1395  49.1465  50.4067  50.4067  50.4111  50.7483
    52.0878  53.0573  53.8548  53.8548  55.6062  55.6063

[...]

 ------ SPIN DOWN ----------

[...]

     the Fermi energy is    10.2987 ev

!    total energy              =    -554.97011134 Ry
     Harris-Foulkes estimate   =    -554.97010961 Ry
     estimated scf accuracy    <       0.00000001 Ry

     The total energy is the sum of the following terms:

     one-electron contribution =    -277.09548772 Ry
     hartree contribution      =     165.38912507 Ry
     xc contribution           =     -80.97125671 Ry
     ewald contribution        =    -362.29278578 Ry
     smearing contrib. (-TS)   =       0.00029381 Ry

[...]

     convergence has been achieved in  14 iterations

     Forces acting on atoms (Ry/au):

     atom    1 type  1   force =     0.00000000    0.00000000    0.00000000
     atom    2 type  1   force =     0.00000000    0.00000000    0.00000000
     atom    3 type  2   force =     0.00102257    0.00102257    0.00000000
     atom    4 type  2   force =    -0.00102257   -0.00102257    0.00000000
     atom    5 type  2   force =     0.00102257   -0.00102257   -0.00000000
     atom    6 type  2   force =    -0.00102257    0.00102257   -0.00000000

     Total force =     0.002892     Total SCF correction =     0.000213

     entering subroutine stress ...

          total   stress  (Ry/bohr**3)                   (kbar)     P=  -20.65
  -0.00016181   0.00000000   0.00000000        -23.80      0.00      0.00
   0.00000000  -0.00016181   0.00000000          0.00    -23.80      0.00
   0.00000000   0.00000000  -0.00009751          0.00      0.00    -14.34

     Volume is kept fixed: isostatic pressure set to zero

     BFGS Geometry Optimization

     number of scf cycles    =   1
     number of bfgs steps    =   0

     enthalpy new            =    -554.9701113398 Ry

     new trust radius        =       0.0042037197 bohr
     new conv_thr            =       0.0000010000 Ry

     new unit-cell volume =    384.62808 a.u.^3 (    56.99600 Ang^3 )

CELL_PARAMETERS (alat=  8.41947801)
   0.999464425   0.000000000   0.000000000
   0.000000000   0.999464425   0.000000000
   0.000000000   0.000000000   0.645135297

ATOMIC_POSITIONS (crystal)
Mn0      0.000000000   0.000000000   0.000000000    0   0   0
Mn0      0.500000000   0.500000000   0.500000000    0   0   0
O1       0.305121453   0.305121453   0.000000000    1   1   0
O1      -0.305121453  -0.305121453   0.000000000    1   1   0
O1       0.805121453   0.194878547   0.500000000    1   1   0
O1       0.194878547   0.805121453   0.500000000    1   1   0

     NEW-OLD atomic charge density approx. for the potential
     NEW k-points:
        k(    1) = (   0.0000000   0.0000000   0.0000000), wk =   0.0080000
[...]
        k(   21) = (   0.0000000   0.0000000   0.6200250), wk =   0.0160000
        k(   22) = (   0.0000000   0.2001072   0.0000000), wk =   0.0320000
        k(   23) = (   0.0000000   0.2001072   0.3100125), wk =   0.0640000
        k(   24) = (   0.0000000   0.2001072   0.6200250), wk =   0.0640000
        k(   25) = (   0.0000000   0.4002143   0.0000000), wk =   0.0320000
        k(   26) = (   0.0000000   0.4002143   0.3100125), wk =   0.0640000
        k(   27) = (   0.0000000   0.4002143   0.6200250), wk =   0.0640000
        k(   28) = (   0.2001072   0.2001072   0.0000000), wk =   0.0320000
        k(   29) = (   0.2001072   0.2001072   0.3100125), wk =   0.0640000
        k(   30) = (   0.2001072   0.2001072   0.6200250), wk =   0.0640000
        k(   31) = (   0.2001072   0.4002143   0.0000000), wk =   0.0640000
        k(   32) = (   0.2001072   0.4002143   0.3100125), wk =   0.1280000
        k(   33) = (   0.2001072   0.4002143   0.6200250), wk =   0.1280000
        k(   34) = (   0.4002143   0.4002143   0.0000000), wk =   0.0320000
        k(   35) = (   0.4002143   0.4002143   0.3100125), wk =   0.0640000
        k(   36) = (   0.4002143   0.4002143   0.6200250), wk =   0.0640000

[...]

     Threshold (ethr) on eigenvalues was too large:
     Diagonalizing with lowered threshold

     Davidson diagonalization with overlap
     ethr =  1.77E-09,  avg # of iterations =  2.0

[...]

     Total force =     0.001471     Total SCF correction =     0.001175
     SCF correction compared to forces is large: reduce conv_thr to get better values

[...]

     number of scf cycles    =   2
     number of bfgs steps    =   1

     enthalpy old            =    -554.9701113398 Ry
     enthalpy new            =    -554.9701392973 Ry

     CASE: enthalpy_new < enthalpy_old

     new trust radius        =       0.0062797463 bohr
     new conv_thr            =       0.0000000100 Ry

     new unit-cell volume =    384.62808 a.u.^3 (    56.99600 Ang^3 )

[...]

ATOMIC_POSITIONS (crystal)
Mn0      0.000000000   0.000000000   0.000000000    0   0   0
Mn0      0.500000000   0.500000000   0.500000000    0   0   0
O1       0.305272464   0.305272464   0.000000000    1   1   0
O1      -0.305272464  -0.305272464   0.000000000    1   1   0
O1       0.805272464   0.194727536   0.500000000    1   1   0
O1       0.194727536   0.805272464   0.500000000    1   1   0

     NEW-OLD atomic charge density approx. for the potential
     NEW k-points:
        k(    1) = (   0.0000000   0.0000000   0.0000000), wk =   0.0080000
        k(    2) = (   0.0000000   0.0000000   0.3095164), wk =   0.0160000
        k(    3) = (   0.0000000   0.0000000   0.6190327), wk =   0.0160000
        k(    4) = (   0.0000000   0.2002675   0.0000000), wk =   0.0320000
        k(    5) = (   0.0000000   0.2002675   0.3095164), wk =   0.0640000
        k(    6) = (   0.0000000   0.2002675   0.6190327), wk =   0.0640000
        k(    7) = (   0.0000000   0.4005350   0.0000000), wk =   0.0320000
        k(    8) = (   0.0000000   0.4005350   0.3095164), wk =   0.0640000
        k(    9) = (   0.0000000   0.4005350   0.6190327), wk =   0.0640000
        k(   10) = (   0.2002675   0.2002675   0.0000000), wk =   0.0320000
        k(   11) = (   0.2002675   0.2002675   0.3095164), wk =   0.0640000
        k(   12) = (   0.2002675   0.2002675   0.6190327), wk =   0.0640000
        k(   13) = (   0.2002675   0.4005350   0.0000000), wk =   0.0640000
        k(   14) = (   0.2002675   0.4005350   0.3095164), wk =   0.1280000
        k(   15) = (   0.2002675   0.4005350   0.6190327), wk =   0.1280000
        k(   16) = (   0.4005350   0.4005350   0.0000000), wk =   0.0320000
        k(   17) = (   0.4005350   0.4005350   0.3095164), wk =   0.0640000
        k(   18) = (   0.4005350   0.4005350   0.6190327), wk =   0.0640000
        k(   19) = (   0.0000000   0.0000000   0.0000000), wk =   0.0080000
        k(   20) = (   0.0000000   0.0000000   0.3095164), wk =   0.0160000
        k(   21) = (   0.0000000   0.0000000   0.6190327), wk =   0.0160000
        k(   22) = (   0.0000000   0.2002675   0.0000000), wk =   0.0320000
        k(   23) = (   0.0000000   0.2002675   0.3095164), wk =   0.0640000
        k(   24) = (   0.0000000   0.2002675   0.6190327), wk =   0.0640000
        k(   25) = (   0.0000000   0.4005350   0.0000000), wk =   0.0320000
        k(   26) = (   0.0000000   0.4005350   0.3095164), wk =   0.0640000
        k(   27) = (   0.0000000   0.4005350   0.6190327), wk =   0.0640000
        k(   28) = (   0.2002675   0.2002675   0.0000000), wk =   0.0320000
        k(   29) = (   0.2002675   0.2002675   0.3095164), wk =   0.0640000
        k(   30) = (   0.2002675   0.2002675   0.6190327), wk =   0.0640000
        k(   31) = (   0.2002675   0.4005350   0.0000000), wk =   0.0640000
        k(   32) = (   0.2002675   0.4005350   0.3095164), wk =   0.1280000
        k(   33) = (   0.2002675   0.4005350   0.6190327), wk =   0.1280000
        k(   34) = (   0.4005350   0.4005350   0.0000000), wk =   0.0320000
        k(   35) = (   0.4005350   0.4005350   0.3095164), wk =   0.0640000
        k(   36) = (   0.4005350   0.4005350   0.6190327), wk =   0.0640000

[...]

     Threshold (ethr) on eigenvalues was too large:
     Diagonalizing with lowered threshold

     Davidson diagonalization with overlap
     ethr =  6.95E-09,  avg # of iterations =  1.9

[...]

     Total force =     0.001054     Total SCF correction =     0.000011

[...]

     Volume is kept fixed: isostatic pressure set to zero

     bfgs converged in   3 scf cycles and   2 bfgs steps
     (criteria: energy < 0.10E-03, force < 0.10E-02, cell < 0.50E+00)

     End of BFGS Geometry Optimization

     Final enthalpy =    -554.9701551390 Ry
Begin final coordinates
     new unit-cell volume =    384.62808 a.u.^3 (    56.99600 Ang^3 )

CELL_PARAMETERS (alat=  8.41947801)
   0.998664343   0.000000000   0.000000000
   0.000000000   0.998664343   0.000000000
   0.000000000   0.000000000   0.646169413

ATOMIC_POSITIONS (crystal)
Mn0      0.000000000   0.000000000   0.000000000    0   0   0
Mn0      0.500000000   0.500000000   0.500000000    0   0   0
O1       0.305272464   0.305272464   0.000000000    1   1   0
O1      -0.305272464  -0.305272464   0.000000000    1   1   0
O1       0.805272464   0.194727536   0.500000000    1   1   0
O1       0.194727536   0.805272464   0.500000000    1   1   0
End final coordinates

     A final scf calculation at the relaxed structure.
     The G-vectors are recalculated for the final unit cell
     Results may differ from those at the preceding step.

     bravais-lattice index     =            0
     lattice parameter (alat)  =       8.4195  a.u.
     unit-cell volume          =     384.6281 (a.u.)^3
     number of atoms/cell      =            6
     number of atomic types    =            2
     number of electrons       =        54.00
     number of Kohn-Sham states=           78
     kinetic-energy cutoff     =      40.0000  Ry
     charge density cutoff     =     500.0000  Ry
     convergence threshold     =      1.0E-08
     mixing beta               =       0.3000
     number of iterations used =            8  plain     mixing
     Exchange-correlation      = SLA  PW   PBE  PBE ( 1 4 3 4 0)
     EXX-fraction              =        0.00

     celldm(1)=   8.419478  celldm(2)=   0.000000  celldm(3)=   0.000000
     celldm(4)=   0.000000  celldm(5)=   0.000000  celldm(6)=   0.000000

     crystal axes: (cart. coord. in units of alat)
               a(1) = (   0.998664   0.000000   0.000000 )
               a(2) = (   0.000000   0.998664   0.000000 )
               a(3) = (   0.000000   0.000000   0.646169 )

     reciprocal axes: (cart. coord. in units 2 pi/alat)
               b(1) = (  1.001337  0.000000  0.000000 )
               b(2) = (  0.000000  1.001337  0.000000 )
               b(3) = (  0.000000  0.000000  1.547582 )

     PseudoPot. # 1 for Mn read from file:
     /home/camp/zhonxu/pseudo/mn_pbe_v1.uspp.F.UPF
     MD5 check sum: 5fd7c7b5c956fd19902447332617373a
     Pseudo is Ultrasoft + core correction, Zval = 15.0
     Generated by new atomic code, or converted to UPF format
     Using radial grid of  859 points,  6 beta functions with:
                l(1) =   0
                l(2) =   0
                l(3) =   1
                l(4) =   1
                l(5) =   2
                l(6) =   2
     Q(r) pseudized with  6 coefficients,  rinner =    1.150   1.150   1.150
                                                       1.150   1.150

     PseudoPot. # 2 for O  read from file:
     /home/camp/zhonxu/pseudo/o_pbe_v1.01.uspp.F.UPF
     MD5 check sum: 2bcb18d16ea4b960afae9ec6d52f22d2
     Pseudo is Ultrasoft + core correction, Zval =  6.0
     Generated by new atomic code, or converted to UPF format
     Using radial grid of  737 points,  5 beta functions with:
                l(1) =   0
                l(2) =   0
                l(3) =   1
                l(4) =   1
                l(5) =   2
     Q(r) pseudized with  8 coefficients,  rinner =    0.900   0.900   0.900
                                                       0.900   0.900

     atomic species   valence    mass     pseudopotential
        Mn0           15.00    54.93800     Mn( 1.00)
        O1             6.00    15.99940     O ( 1.00)

     Starting magnetic structure
     atomic species   magnetization
        Mn0          0.600
        O1           0.000

     16 Sym. Ops., with inversion, found ( 8 have fractional translation)

   Cartesian axes

     site n.     atom                  positions (alat units)
         1           Mn0 tau(   1) = (   0.0000000   0.0000000   0.0000000  )
         2           Mn0 tau(   2) = (   0.4993322   0.4993322   0.3230847  )
         3           O1  tau(   3) = (   0.3048647   0.3048647   0.0000000  )
         4           O1  tau(   4) = (  -0.3048647  -0.3048647   0.0000000  )
         5           O1  tau(   5) = (   0.8041969   0.1944674   0.3230847  )
         6           O1  tau(   6) = (   0.1944674   0.8041969   0.3230847  )

     number of k points=    36  Methfessel-Paxton smearing, width (Ry)=  0.0100
                       cart. coord. in units 2pi/alat
        k(    1) = (   0.0000000   0.0000000   0.0000000), wk =   0.0080000
        k(    2) = (   0.0000000   0.0000000   0.3095164), wk =   0.0160000
        k(    3) = (   0.0000000   0.0000000   0.6190327), wk =   0.0160000
        k(    4) = (   0.0000000   0.2002675   0.0000000), wk =   0.0320000
        k(    5) = (   0.0000000   0.2002675   0.3095164), wk =   0.0640000
        k(    6) = (   0.0000000   0.2002675   0.6190327), wk =   0.0640000
        k(    7) = (   0.0000000   0.4005350   0.0000000), wk =   0.0320000
        k(    8) = (   0.0000000   0.4005350   0.3095164), wk =   0.0640000
        k(    9) = (   0.0000000   0.4005350   0.6190327), wk =   0.0640000
        k(   10) = (   0.2002675   0.2002675   0.0000000), wk =   0.0320000
        k(   11) = (   0.2002675   0.2002675   0.3095164), wk =   0.0640000
        k(   12) = (   0.2002675   0.2002675   0.6190327), wk =   0.0640000
        k(   13) = (   0.2002675   0.4005350   0.0000000), wk =   0.0640000
        k(   14) = (   0.2002675   0.4005350   0.3095164), wk =   0.1280000
        k(   15) = (   0.2002675   0.4005350   0.6190327), wk =   0.1280000
        k(   16) = (   0.4005350   0.4005350   0.0000000), wk =   0.0320000
        k(   17) = (   0.4005350   0.4005350   0.3095164), wk =   0.0640000
        k(   18) = (   0.4005350   0.4005350   0.6190327), wk =   0.0640000
        k(   19) = (   0.0000000   0.0000000   0.0000000), wk =   0.0080000
        k(   20) = (   0.0000000   0.0000000   0.3095164), wk =   0.0160000
        k(   21) = (   0.0000000   0.0000000   0.6190327), wk =   0.0160000
        k(   22) = (   0.0000000   0.2002675   0.0000000), wk =   0.0320000
        k(   23) = (   0.0000000   0.2002675   0.3095164), wk =   0.0640000
        k(   24) = (   0.0000000   0.2002675   0.6190327), wk =   0.0640000
        k(   25) = (   0.0000000   0.4005350   0.0000000), wk =   0.0320000
        k(   26) = (   0.0000000   0.4005350   0.3095164), wk =   0.0640000
        k(   27) = (   0.0000000   0.4005350   0.6190327), wk =   0.0640000
        k(   28) = (   0.2002675   0.2002675   0.0000000), wk =   0.0320000
        k(   29) = (   0.2002675   0.2002675   0.3095164), wk =   0.0640000
        k(   30) = (   0.2002675   0.2002675   0.6190327), wk =   0.0640000
        k(   31) = (   0.2002675   0.4005350   0.0000000), wk =   0.0640000
        k(   32) = (   0.2002675   0.4005350   0.3095164), wk =   0.1280000
        k(   33) = (   0.2002675   0.4005350   0.6190327), wk =   0.1280000
        k(   34) = (   0.4005350   0.4005350   0.0000000), wk =   0.0320000
        k(   35) = (   0.4005350   0.4005350   0.3095164), wk =   0.0640000
        k(   36) = (   0.4005350   0.4005350   0.6190327), wk =   0.0640000

     Largest allocated arrays     est. size (Mb)     dimensions
     Largest temporary arrays     est. size (Mb)     dimensions

     Check: negative/imaginary core charge=   -0.000062    0.000000

     Initial potential from superposition of free atoms

     starting charge   51.99998, renormalised to   54.00000
     Starting wfc are   42 randomized atomic wfcs

     Self-consistent Calculation

[...]

     total energy              =    -554.97017262 Ry
     Harris-Foulkes estimate   =    -554.97017055 Ry
     estimated scf accuracy    <       0.00000264 Ry

[...]

     iteration # 14     ecut=    40.00 Ry     beta=0.30
     Davidson diagonalization with overlap
     ethr =  4.89E-09,  avg # of iterations =  1.0

     End of self-consistent calculation

 ------ SPIN UP ------------

[...]

 ------ SPIN DOWN ----------

[...]

          k = 0.4005 0.4005 0.6190 (  1628 PWs)   bands (ev):

   -68.3897 -68.3896 -37.3316 -37.3313 -37.1480 -37.1479 -37.0575 -37.0575
    -7.7165  -7.6294  -7.4534  -7.4514   3.9853   4.1408   4.4601   4.4680
     5.5911   5.7588   6.4814   6.5398   8.1749   8.3447   8.5941   8.9383
    11.2015  11.5157  11.5582  11.6420  11.8975  12.2588  13.0897  13.6625
    13.8211  14.3873  22.1672  22.5460  23.8404  24.2881  25.5358  25.7690
    26.6325  26.8081  28.1597  28.3305  29.6178  30.0120  32.6507  34.3776
    34.7077  35.2191  35.6683  36.4520  40.2238  40.3663  40.5991  41.4144
    43.2993  43.7220  44.4027  45.2921  45.7203  45.9643  46.6169  47.2504
    47.3630  48.4580  50.0582  50.6292  50.6705  51.4278  52.1866  52.8535
    53.2388  53.3218  53.4624  54.2709  55.5666  56.2780

     the Fermi energy is    10.3003 ev

!    total energy              =    -554.97017477 Ry
     Harris-Foulkes estimate   =    -554.97017308 Ry
     estimated scf accuracy    <          9.4E-09 Ry

     The total energy is the sum of the following terms:

     one-electron contribution =    -276.86735535 Ry
     hartree contribution      =     165.28004704 Ry
     xc contribution           =     -80.97053558 Ry
     ewald contribution        =    -362.41262406 Ry
     smearing contrib. (-TS)   =       0.00029318 Ry

     total magnetization       =     6.00 Bohr mag/cell
     absolute magnetization    =     6.25 Bohr mag/cell

     convergence has been achieved in  14 iterations

     Forces acting on atoms (Ry/au):

     atom    1 type  1   force =     0.00000000    0.00000000    0.00000000
     atom    2 type  1   force =     0.00000000    0.00000000    0.00000000
     atom    3 type  2   force =     0.00032962    0.00032962    0.00000000
     atom    4 type  2   force =    -0.00032962   -0.00032962   -0.00000000
     atom    5 type  2   force =     0.00032962   -0.00032962    0.00000000
     atom    6 type  2   force =    -0.00032962    0.00032962   -0.00000000

     Total force =     0.000932     Total SCF correction =     0.000219
     SCF correction compared to forces is large: reduce conv_thr to get better values

     entering subroutine stress ...

          total   stress  (Ry/bohr**3)                   (kbar)     P=  -20.94
  -0.00014170   0.00000000   0.00000000        -20.85      0.00      0.00
   0.00000000  -0.00014170   0.00000000          0.00    -20.85      0.00
   0.00000000   0.00000000  -0.00014362          0.00      0.00    -21.13

     General routines

     Parallel routines

   This run was terminated on:  15:54:27  24Jan2014

   JOB DONE.
Running PBS batch system epilogue script
Job id: 251940.audhumbla.fysik.dtu.dk
Username: zhonxu
Groupname: campgst
Jobname: MnO2/fine-EOS/ferro/MnO2-v-1.00
Sessionid: 21160
Queuename: verylong
Accounting:
This job has allocated the following 4 nodes:
q043 q043 q043 q043
Finished epilogue job 251940.audhumbla.fysik.dtu.dk for zhonxu