     Program PWSCF v.5.0.2 (svn rev. 9656) starts on 23Jan2014 at 18:27:11

     Current dimensions of program PWSCF are:
     Max number of different atomic species (ntypx) = 10
     Max number of k-points (npk) =  40000
     Max angular momentum in pseudopotentials (lmaxx) =  3
     Reading input from SnO2-v-1.1.in

     Subspace diagonalization in iterative solution of the eigenvalue problem:
     a serial algorithm will be used

     bravais-lattice index     =            0
     lattice parameter (alat)  =       8.9385  a.u.
     unit-cell volume          =     460.2364 (a.u.)^3
     number of atoms/cell      =            6
     number of atomic types    =            2
     number of electrons       =        52.00
     number of Kohn-Sham states=           75
     kinetic-energy cutoff     =      40.0000  Ry
     charge density cutoff     =     500.0000  Ry
     convergence threshold     =      1.0E-06
     mixing beta               =       0.7000
     number of iterations used =            8  plain     mixing
     Exchange-correlation      = SLA  PW   PBE  PBE ( 1 4 3 4 0)
     EXX-fraction              =        0.00
     nstep                     =           50

     celldm(1)=   8.938511  celldm(2)=   0.000000  celldm(3)=   0.000000
     celldm(4)=   0.000000  celldm(5)=   0.000000  celldm(6)=   0.000000

     crystal axes: (cart. coord. in units of alat)
               a(1) = (   1.000000   0.000000   0.000000 )
               a(2) = (   0.000000   1.000000   0.000000 )
               a(3) = (   0.000000   0.000000   0.644444 )

     reciprocal axes: (cart. coord. in units 2 pi/alat)
               b(1) = (  1.000000  0.000000  0.000000 )
               b(2) = (  0.000000  1.000000  0.000000 )
               b(3) = (  0.000000  0.000000  1.551724 )

     PseudoPot. # 1 for Sn read from file:
     /home/camp/zhonxu/pseudo/sn_pbe_v1.uspp.F.UPF
     MD5 check sum: 4cf58ce39ec5d5d420df3dd08604eb00
     Pseudo is Ultrasoft + core correction, Zval = 14.0
     Generated by new atomic code, or converted to UPF format
     Using radial grid of  891 points,  6 beta functions with:
                l(1) =   0
                l(2) =   0
                l(3) =   1
                l(4) =   1
                l(5) =   2
                l(6) =   2
     Q(r) pseudized with  6 coefficients,  rinner =    1.200   1.200   1.200
                                                       1.200   1.200

     PseudoPot. # 2 for O  read from file:
     /home/camp/zhonxu/pseudo/o_pbe_v1.01.uspp.F.UPF
     MD5 check sum: 2bcb18d16ea4b960afae9ec6d52f22d2
     Pseudo is Ultrasoft + core correction, Zval =  6.0
     Generated by new atomic code, or converted to UPF format
     Using radial grid of  737 points,  5 beta functions with:
                l(1) =   0
                l(2) =   0
                l(3) =   1
                l(4) =   1
                l(5) =   2
     Q(r) pseudized with  8 coefficients,  rinner =    0.900   0.900   0.900
                                                       0.900   0.900

     atomic species   valence    mass     pseudopotential
        Sn0           14.00   118.71000     Sn( 1.00)
        O1             6.00    15.99940     O ( 1.00)

     Starting magnetic structure
     atomic species   magnetization
        Sn0          0.600
        O1           0.000

      8 Sym. Ops., with inversion, found
          (note:  8 additional sym.ops. were found but ignored
           their fractional translations are incommensurate with FFT grid)

   Cartesian axes

     site n.     atom                  positions (alat units)
         1           Sn0 tau(   1) = (   0.0000000   0.0000000   0.0000000  )
         2           Sn0 tau(   2) = (   0.5000000   0.5000000   0.3222222  )
         3           O1  tau(   3) = (   0.3050000   0.3050000   0.0000000  )
         4           O1  tau(   4) = (  -0.3050000  -0.3050000   0.0000000  )
         5           O1  tau(   5) = (   0.8050000   0.1950000   0.3222222  )
         6           O1  tau(   6) = (   0.1950000   0.8050000   0.3222222  )

     number of k points=    54  Methfessel-Paxton smearing, width (Ry)=  0.0100
                       cart. coord. in units 2pi/alat
        k(    1) = (   0.0000000   0.0000000   0.0000000), wk =   0.0080000
        k(    2) = (   0.0000000   0.0000000   0.3103448), wk =   0.0160000
        k(    3) = (   0.0000000   0.0000000   0.6206897), wk =   0.0160000
        k(    4) = (   0.0000000   0.2000000   0.0000000), wk =   0.0320000
        k(    5) = (   0.0000000   0.2000000   0.3103448), wk =   0.0640000
        k(    6) = (   0.0000000   0.2000000   0.6206897), wk =   0.0640000
        k(    7) = (   0.0000000   0.4000000   0.0000000), wk =   0.0320000
        k(    8) = (   0.0000000   0.4000000   0.3103448), wk =   0.0640000
        k(    9) = (   0.0000000   0.4000000   0.6206897), wk =   0.0640000
        k(   10) = (   0.2000000   0.2000000   0.0000000), wk =   0.0160000
        k(   11) = (   0.2000000   0.2000000   0.3103448), wk =   0.0320000
        k(   12) = (   0.2000000   0.2000000   0.6206897), wk =   0.0320000
        k(   13) = (   0.2000000   0.4000000   0.0000000), wk =   0.0320000
        k(   14) = (   0.2000000   0.4000000   0.3103448), wk =   0.0640000
        k(   15) = (   0.2000000   0.4000000   0.6206897), wk =   0.0640000
        k(   16) = (   0.4000000   0.4000000   0.0000000), wk =   0.0160000
        k(   17) = (   0.4000000   0.4000000   0.3103448), wk =   0.0320000
        k(   18) = (   0.4000000   0.4000000   0.6206897), wk =   0.0320000
        k(   19) = (  -0.2000000   0.2000000   0.0000000), wk =   0.0160000
        k(   20) = (  -0.2000000   0.2000000  -0.3103448), wk =   0.0320000
        k(   21) = (  -0.2000000   0.2000000  -0.6206897), wk =   0.0320000
        k(   22) = (  -0.2000000   0.4000000   0.0000000), wk =   0.0320000
        k(   23) = (  -0.2000000   0.4000000  -0.3103448), wk =   0.0640000
        k(   24) = (  -0.2000000   0.4000000  -0.6206897), wk =   0.0640000
        k(   25) = (  -0.4000000   0.4000000   0.0000000), wk =   0.0160000
        k(   26) = (  -0.4000000   0.4000000  -0.3103448), wk =   0.0320000
        k(   27) = (  -0.4000000   0.4000000  -0.6206897), wk =   0.0320000
        k(   28) = (   0.0000000   0.0000000   0.0000000), wk =   0.0080000
        k(   29) = (   0.0000000   0.0000000   0.3103448), wk =   0.0160000
        k(   30) = (   0.0000000   0.0000000   0.6206897), wk =   0.0160000
        k(   31) = (   0.0000000   0.2000000   0.0000000), wk =   0.0320000
        k(   32) = (   0.0000000   0.2000000   0.3103448), wk =   0.0640000
        k(   33) = (   0.0000000   0.2000000   0.6206897), wk =   0.0640000
        k(   34) = (   0.0000000   0.4000000   0.0000000), wk =   0.0320000
        k(   35) = (   0.0000000   0.4000000   0.3103448), wk =   0.0640000
        k(   36) = (   0.0000000   0.4000000   0.6206897), wk =   0.0640000
        k(   37) = (   0.2000000   0.2000000   0.0000000), wk =   0.0160000
        k(   38) = (   0.2000000   0.2000000   0.3103448), wk =   0.0320000
        k(   39) = (   0.2000000   0.2000000   0.6206897), wk =   0.0320000
        k(   40) = (   0.2000000   0.4000000   0.0000000), wk =   0.0320000
        k(   41) = (   0.2000000   0.4000000   0.3103448), wk =   0.0640000
        k(   42) = (   0.2000000   0.4000000   0.6206897), wk =   0.0640000
        k(   43) = (   0.4000000   0.4000000   0.0000000), wk =   0.0160000
        k(   44) = (   0.4000000   0.4000000   0.3103448), wk =   0.0320000
        k(   45) = (   0.4000000   0.4000000   0.6206897), wk =   0.0320000
        k(   46) = (  -0.2000000   0.2000000   0.0000000), wk =   0.0160000
        k(   47) = (  -0.2000000   0.2000000  -0.3103448), wk =   0.0320000
        k(   48) = (  -0.2000000   0.2000000  -0.6206897), wk =   0.0320000
        k(   49) = (  -0.2000000   0.4000000   0.0000000), wk =   0.0320000
        k(   50) = (  -0.2000000   0.4000000  -0.3103448), wk =   0.0640000
        k(   51) = (  -0.2000000   0.4000000  -0.6206897), wk =   0.0640000
        k(   52) = (  -0.4000000   0.4000000   0.0000000), wk =   0.0160000
        k(   53) = (  -0.4000000   0.4000000  -0.3103448), wk =   0.0320000
        k(   54) = (  -0.4000000   0.4000000  -0.6206897), wk =   0.0320000

     Largest allocated arrays     est. size (Mb)     dimensions
     Largest temporary arrays     est. size (Mb)     dimensions

     Check: negative/imaginary core charge=   -0.000004    0.000000

     Initial potential from superposition of free atoms

     starting charge   49.99990, renormalised to   52.00000
     Starting wfc are   34 randomized atomic wfcs

     Self-consistent Calculation

     iteration #  1     ecut=    40.00 Ry     beta=0.70
     Davidson diagonalization with overlap
     ethr =  1.00E-02,  avg # of iterations =  5.1

     total energy              =    -454.57181098 Ry
     Harris-Foulkes estimate   =    -454.80862835 Ry
     estimated scf accuracy    <       3.54908968 Ry

     total magnetization       =    -0.00 Bohr mag/cell
     absolute magnetization    =     0.83 Bohr mag/cell

[...]

     End of self-consistent calculation

 ------ SPIN UP ------------

          k = 0.0000 0.0000 0.0000 (  1955 PWs)   bands (ev):

   -10.9684 -10.1824  -9.6913  -9.6500  -9.6497  -9.5134  -9.4986  -9.3902
    -9.3733  -9.3731  -8.9141  -7.0580  -7.0559  -4.9288   1.9082   5.8599
     5.8606   6.4866   6.9617   8.3363   8.3786   9.2288   9.2309   9.4367
     9.4374  10.3082  12.2522  17.2595  17.2599  17.4344  20.8314  21.9025
    22.8396  22.8397  23.1686  23.2612  26.7965  28.0461  29.8187  30.2036
    30.6499  30.6500  31.1138  31.1138  31.2203  31.2229  31.5908  31.5908
    32.9793  33.3222  33.6592  34.2540  36.8671  36.8674  39.0765  39.1177
    39.1183  39.6173  41.5823  41.6031  41.6032  43.0718  44.1005  44.2362
    45.0869  45.0871  45.5406  46.0318  46.0890  46.0894  47.6767  48.0499
    48.6054  48.6056  49.3928

[...]

          k =-0.2000 0.2000 0.0000 (  1967 PWs)   bands (ev):

[...]

 ------ SPIN DOWN ----------

[...]

     the Fermi energy is    11.2349 ev

!    total energy              =    -455.46261246 Ry
     Harris-Foulkes estimate   =    -455.46261253 Ry
     estimated scf accuracy    <       0.00000039 Ry

     The total energy is the sum of the following terms:

     one-electron contribution =    -124.43141926 Ry
     hartree contribution      =     105.19716051 Ry
     xc contribution           =    -125.03806934 Ry
     ewald contribution        =    -311.19028437 Ry
     smearing contrib. (-TS)   =       0.00000000 Ry

[...]

     convergence has been achieved in   7 iterations

     Forces acting on atoms (Ry/au):

     atom    1 type  1   force =     0.00000000    0.00000000    0.00000000
     atom    2 type  1   force =     0.00000000    0.00000000    0.00000000
     atom    3 type  2   force =    -0.01235814   -0.01235814    0.00000000
     atom    4 type  2   force =     0.01235814    0.01235814   -0.00000000
     atom    5 type  2   force =    -0.01236775    0.01236775    0.00000000
     atom    6 type  2   force =     0.01236775   -0.01236775    0.00000000

[...]
     NEW k-points:
        k(    1) = (   0.0000000   0.0000000   0.0000000), wk =   0.0080000
        k(    2) = (   0.0000000   0.0000000   0.2971509), wk =   0.0160000
        k(    3) = (   0.0000000   0.0000000   0.5943019), wk =   0.0160000
        k(    4) = (   0.0000021   0.2043919   0.0000000), wk =   0.0320000
        k(    5) = (   0.0000021   0.2043919   0.2971509), wk =   0.0640000
        k(    6) = (   0.0000021   0.2043919   0.5943019), wk =   0.0640000
        k(    7) = (   0.0000041   0.4087838   0.0000000), wk =   0.0320000
        k(    8) = (   0.0000041   0.4087838   0.2971509), wk =   0.0640000
        k(    9) = (   0.0000041   0.4087838   0.5943019), wk =   0.0640000
        k(   10) = (   0.2043940   0.2043940   0.0000000), wk =   0.0160000
        k(   11) = (   0.2043940   0.2043940   0.2971509), wk =   0.0320000
        k(   12) = (   0.2043940   0.2043940   0.5943019), wk =   0.0320000
        k(   13) = (   0.2043960   0.4087859   0.0000000), wk =   0.0320000
        k(   14) = (   0.2043960   0.4087859   0.2971509), wk =   0.0640000
        k(   15) = (   0.2043960   0.4087859   0.5943019), wk =   0.0640000
        k(   16) = (   0.4087879   0.4087879   0.0000000), wk =   0.0160000
        k(   17) = (   0.4087879   0.4087879   0.2971509), wk =   0.0320000
        k(   18) = (   0.4087879   0.4087879   0.5943019), wk =   0.0320000
        k(   19) = (  -0.2043899   0.2043899   0.0000000), wk =   0.0160000
        k(   20) = (  -0.2043899   0.2043899  -0.2971509), wk =   0.0320000
        k(   21) = (  -0.2043899   0.2043899  -0.5943019), wk =   0.0320000
        k(   22) = (  -0.2043878   0.4087818   0.0000000), wk =   0.0320000
        k(   23) = (  -0.2043878   0.4087818  -0.2971509), wk =   0.0640000
        k(   24) = (  -0.2043878   0.4087818  -0.5943019), wk =   0.0640000
        k(   25) = (  -0.4087797   0.4087797   0.0000000), wk =   0.0160000
        k(   26) = (  -0.4087797   0.4087797  -0.2971509), wk =   0.0320000
        k(   27) = (  -0.4087797   0.4087797  -0.5943019), wk =   0.0320000
        k(   28) = (   0.0000000   0.0000000   0.0000000), wk =   0.0080000
        k(   29) = (   0.0000000   0.0000000   0.2971509), wk =   0.0160000
        k(   30) = (   0.0000000   0.0000000   0.5943019), wk =   0.0160000
        k(   31) = (   0.0000021   0.2043919   0.0000000), wk =   0.0320000
        k(   32) = (   0.0000021   0.2043919   0.2971509), wk =   0.0640000
        k(   33) = (   0.0000021   0.2043919   0.5943019), wk =   0.0640000
        k(   34) = (   0.0000041   0.4087838   0.0000000), wk =   0.0320000
        k(   35) = (   0.0000041   0.4087838   0.2971509), wk =   0.0640000
        k(   36) = (   0.0000041   0.4087838   0.5943019), wk =   0.0640000
        k(   37) = (   0.2043940   0.2043940   0.0000000), wk =   0.0160000
        k(   38) = (   0.2043940   0.2043940   0.2971509), wk =   0.0320000
        k(   39) = (   0.2043940   0.2043940   0.5943019), wk =   0.0320000
        k(   40) = (   0.2043960   0.4087859   0.0000000), wk =   0.0320000
        k(   41) = (   0.2043960   0.4087859   0.2971509), wk =   0.0640000
        k(   42) = (   0.2043960   0.4087859   0.5943019), wk =   0.0640000
        k(   43) = (   0.4087879   0.4087879   0.0000000), wk =   0.0160000
        k(   44) = (   0.4087879   0.4087879   0.2971509), wk =   0.0320000
        k(   45) = (   0.4087879   0.4087879   0.5943019), wk =   0.0320000
        k(   46) = (  -0.2043899   0.2043899   0.0000000), wk =   0.0160000
        k(   47) = (  -0.2043899   0.2043899  -0.2971509), wk =   0.0320000
        k(   48) = (  -0.2043899   0.2043899  -0.5943019), wk =   0.0320000
        k(   49) = (  -0.2043878   0.4087818   0.0000000), wk =   0.0320000
        k(   50) = (  -0.2043878   0.4087818  -0.2971509), wk =   0.0640000
        k(   51) = (  -0.2043878   0.4087818  -0.5943019), wk =   0.0640000
        k(   52) = (  -0.4087797   0.4087797   0.0000000), wk =   0.0160000
        k(   53) = (  -0.4087797   0.4087797  -0.2971509), wk =   0.0320000
        k(   54) = (  -0.4087797   0.4087797  -0.5943019), wk =   0.0320000

[...]

     Volume is kept fixed: isostatic pressure set to zero

     bfgs converged in   6 scf cycles and   5 bfgs steps
     (criteria: energy < 0.10E-03, force < 0.10E-02, cell < 0.50E+00)

     End of BFGS Geometry Optimization

     Final enthalpy =    -455.4743431119 Ry
Begin final coordinates
     new unit-cell volume =    460.23642 a.u.^3 (    68.20000 Ang^3 )

CELL_PARAMETERS (alat=  8.93851073)
   0.978512309  -0.000009852   0.000000000
  -0.000009852   0.978512309   0.000000000
   0.000000000   0.000000000   0.673058631

ATOMIC_POSITIONS (crystal)
Sn0      0.000000000   0.000000000   0.000000000    0   0   0
Sn0      0.500000000   0.500000000   0.500000000    0   0   0
O1       0.305404041   0.305404041   0.000000000    1   1   0
O1      -0.305404041  -0.305404041   0.000000000    1   1   0
O1       0.805404519   0.194595481   0.500000000    1   1   0
O1       0.194595481   0.805404519   0.500000000    1   1   0
End final coordinates

     A final scf calculation at the relaxed structure.
     The G-vectors are recalculated for the final unit cell
     Results may differ from those at the preceding step.

     bravais-lattice index     =            0
     lattice parameter (alat)  =       8.9385  a.u.
     unit-cell volume          =     460.2364 (a.u.)^3
     number of atoms/cell      =            6
     number of atomic types    =            2
     number of electrons       =        52.00
     number of Kohn-Sham states=           75
     kinetic-energy cutoff     =      40.0000  Ry
     charge density cutoff     =     500.0000  Ry
     convergence threshold     =      1.0E-08
     mixing beta               =       0.7000
     number of iterations used =            8  plain     mixing
     Exchange-correlation      = SLA  PW   PBE  PBE ( 1 4 3 4 0)
     EXX-fraction              =        0.00

     celldm(1)=   8.938511  celldm(2)=   0.000000  celldm(3)=   0.000000
     celldm(4)=   0.000000  celldm(5)=   0.000000  celldm(6)=   0.000000

     crystal axes: (cart. coord. in units of alat)
               a(1) = (   0.978512  -0.000010   0.000000 )
               a(2) = (  -0.000010   0.978512   0.000000 )
               a(3) = (   0.000000   0.000000   0.673059 )

     reciprocal axes: (cart. coord. in units 2 pi/alat)
               b(1) = (  1.021960  0.000010 -0.000000 )
               b(2) = (  0.000010  1.021960 -0.000000 )
               b(3) = ( -0.000000 -0.000000  1.485755 )

     PseudoPot. # 1 for Sn read from file:
     /home/camp/zhonxu/pseudo/sn_pbe_v1.uspp.F.UPF
     MD5 check sum: 4cf58ce39ec5d5d420df3dd08604eb00
     Pseudo is Ultrasoft + core correction, Zval = 14.0
     Generated by new atomic code, or converted to UPF format
     Using radial grid of  891 points,  6 beta functions with:
                l(1) =   0
                l(2) =   0
                l(3) =   1
                l(4) =   1
                l(5) =   2
                l(6) =   2
     Q(r) pseudized with  6 coefficients,  rinner =    1.200   1.200   1.200
                                                       1.200   1.200

     PseudoPot. # 2 for O  read from file:
     /home/camp/zhonxu/pseudo/o_pbe_v1.01.uspp.F.UPF
     MD5 check sum: 2bcb18d16ea4b960afae9ec6d52f22d2
     Pseudo is Ultrasoft + core correction, Zval =  6.0
     Generated by new atomic code, or converted to UPF format
     Using radial grid of  737 points,  5 beta functions with:
                l(1) =   0
                l(2) =   0
                l(3) =   1
                l(4) =   1
                l(5) =   2
     Q(r) pseudized with  8 coefficients,  rinner =    0.900   0.900   0.900
                                                       0.900   0.900

     atomic species   valence    mass     pseudopotential
        Sn0           14.00   118.71000     Sn( 1.00)
        O1             6.00    15.99940     O ( 1.00)

     Starting magnetic structure
     atomic species   magnetization
        Sn0          0.600
        O1           0.000

      8 Sym. Ops., with inversion, found
          (note:  8 additional sym.ops. were found but ignored
           their fractional translations are incommensurate with FFT grid)

   Cartesian axes

     site n.     atom                  positions (alat units)
         1           Sn0 tau(   1) = (   0.0000000   0.0000000   0.0000000  )
         2           Sn0 tau(   2) = (   0.4892512   0.4892512   0.3365293  )
         3           O1  tau(   3) = (   0.2988386   0.2988386   0.0000000  )
         4           O1  tau(   4) = (  -0.2988386  -0.2988386   0.0000000  )
         5           O1  tau(   5) = (   0.7880963   0.1904061   0.3365293  )
         6           O1  tau(   6) = (   0.1904061   0.7880963   0.3365293  )

     number of k points=    54  Methfessel-Paxton smearing, width (Ry)=  0.0100
                       cart. coord. in units 2pi/alat
        k(    1) = (   0.0000000   0.0000000   0.0000000), wk =   0.0080000
        k(    2) = (   0.0000000   0.0000000   0.2971509), wk =   0.0160000
        k(    3) = (   0.0000000   0.0000000   0.5943019), wk =   0.0160000
        k(    4) = (   0.0000021   0.2043919   0.0000000), wk =   0.0320000
        k(    5) = (   0.0000021   0.2043919   0.2971509), wk =   0.0640000
        k(    6) = (   0.0000021   0.2043919   0.5943019), wk =   0.0640000
        k(    7) = (   0.0000041   0.4087838   0.0000000), wk =   0.0320000
        k(    8) = (   0.0000041   0.4087838   0.2971509), wk =   0.0640000
        k(    9) = (   0.0000041   0.4087838   0.5943019), wk =   0.0640000
        k(   10) = (   0.2043940   0.2043940   0.0000000), wk =   0.0160000
        k(   11) = (   0.2043940   0.2043940   0.2971509), wk =   0.0320000
        k(   12) = (   0.2043940   0.2043940   0.5943019), wk =   0.0320000
        k(   13) = (   0.2043960   0.4087859   0.0000000), wk =   0.0320000
        k(   14) = (   0.2043960   0.4087859   0.2971509), wk =   0.0640000
        k(   15) = (   0.2043960   0.4087859   0.5943019), wk =   0.0640000
        k(   16) = (   0.4087879   0.4087879   0.0000000), wk =   0.0160000
        k(   17) = (   0.4087879   0.4087879   0.2971509), wk =   0.0320000
        k(   18) = (   0.4087879   0.4087879   0.5943019), wk =   0.0320000
        k(   19) = (  -0.2043899   0.2043899   0.0000000), wk =   0.0160000
        k(   20) = (  -0.2043899   0.2043899  -0.2971509), wk =   0.0320000
        k(   21) = (  -0.2043899   0.2043899  -0.5943019), wk =   0.0320000
        k(   22) = (  -0.2043878   0.4087818   0.0000000), wk =   0.0320000
        k(   23) = (  -0.2043878   0.4087818  -0.2971509), wk =   0.0640000
        k(   24) = (  -0.2043878   0.4087818  -0.5943019), wk =   0.0640000
        k(   25) = (  -0.4087797   0.4087797   0.0000000), wk =   0.0160000
        k(   26) = (  -0.4087797   0.4087797  -0.2971509), wk =   0.0320000
        k(   27) = (  -0.4087797   0.4087797  -0.5943019), wk =   0.0320000
        k(   28) = (   0.0000000   0.0000000   0.0000000), wk =   0.0080000
        k(   29) = (   0.0000000   0.0000000   0.2971509), wk =   0.0160000
        k(   30) = (   0.0000000   0.0000000   0.5943019), wk =   0.0160000
        k(   31) = (   0.0000021   0.2043919   0.0000000), wk =   0.0320000
        k(   32) = (   0.0000021   0.2043919   0.2971509), wk =   0.0640000
        k(   33) = (   0.0000021   0.2043919   0.5943019), wk =   0.0640000
        k(   34) = (   0.0000041   0.4087838   0.0000000), wk =   0.0320000
        k(   35) = (   0.0000041   0.4087838   0.2971509), wk =   0.0640000
        k(   36) = (   0.0000041   0.4087838   0.5943019), wk =   0.0640000
        k(   37) = (   0.2043940   0.2043940   0.0000000), wk =   0.0160000
        k(   38) = (   0.2043940   0.2043940   0.2971509), wk =   0.0320000
        k(   39) = (   0.2043940   0.2043940   0.5943019), wk =   0.0320000
        k(   40) = (   0.2043960   0.4087859   0.0000000), wk =   0.0320000
        k(   41) = (   0.2043960   0.4087859   0.2971509), wk =   0.0640000
        k(   42) = (   0.2043960   0.4087859   0.5943019), wk =   0.0640000
        k(   43) = (   0.4087879   0.4087879   0.0000000), wk =   0.0160000
        k(   44) = (   0.4087879   0.4087879   0.2971509), wk =   0.0320000
        k(   45) = (   0.4087879   0.4087879   0.5943019), wk =   0.0320000
        k(   46) = (  -0.2043899   0.2043899   0.0000000), wk =   0.0160000
        k(   47) = (  -0.2043899   0.2043899  -0.2971509), wk =   0.0320000
        k(   48) = (  -0.2043899   0.2043899  -0.5943019), wk =   0.0320000
        k(   49) = (  -0.2043878   0.4087818   0.0000000), wk =   0.0320000
        k(   50) = (  -0.2043878   0.4087818  -0.2971509), wk =   0.0640000
        k(   51) = (  -0.2043878   0.4087818  -0.5943019), wk =   0.0640000
        k(   52) = (  -0.4087797   0.4087797   0.0000000), wk =   0.0160000
        k(   53) = (  -0.4087797   0.4087797  -0.2971509), wk =   0.0320000
        k(   54) = (  -0.4087797   0.4087797  -0.5943019), wk =   0.0320000

     Largest allocated arrays     est. size (Mb)     dimensions
     Largest temporary arrays     est. size (Mb)     dimensions

     Check: negative/imaginary core charge=   -0.000004    0.000000

     Initial potential from superposition of free atoms

     starting charge   49.99990, renormalised to   52.00000
     Starting wfc are   34 randomized atomic wfcs

     Self-consistent Calculation

[...]

     total energy              =    -455.47431569 Ry
     Harris-Foulkes estimate   =    -455.47431583 Ry
     estimated scf accuracy    <       0.00000041 Ry

[...]

     iteration #  9     ecut=    40.00 Ry     beta=0.70
     Davidson diagonalization with overlap
     ethr =  7.90E-10,  avg # of iterations =  1.0

     End of self-consistent calculation

 ------ SPIN UP ------------

[...]

 ------ SPIN DOWN ----------

[...]

          k = 0.4088 0.4088 0.5943 (  1984 PWs)   bands (ev):

[...]

          k =-0.4088 0.4088-0.5943 (  1984 PWs)   bands (ev):

   -10.5933 -10.4616 -10.1570  -9.9609  -9.4555  -9.4504  -9.3997  -9.3955
    -9.3937  -9.3868  -6.9815  -6.7020  -5.4933  -5.2981   2.3608   2.5094
     5.3903   5.4009   6.5080   7.5621   7.9532   8.8907   9.2407   9.3119
     9.4391   9.5009  15.9206  16.0563  19.5031  19.8541  21.1994  21.5239
    22.0107  22.3051  23.6150  23.9097  25.4829  25.7532  26.0784  28.0537
    29.0158  29.3175  29.8809  31.0021  31.2093  31.2100  33.1360  33.7265
    35.7390  35.8610  36.4547  37.1480  37.5503  37.9384  39.2342  39.8030
    39.9205  41.5851  41.9229  42.2302  44.0026  44.2714  44.7117  45.0920
    45.1793  45.7867  46.3533  46.8096  47.2847  47.8607  47.8705  48.4259
    49.2334  49.9084  50.2429

     the Fermi energy is    11.2720 ev

!    total energy              =    -455.47431577 Ry
     Harris-Foulkes estimate   =    -455.47431577 Ry
     estimated scf accuracy    <          9.2E-10 Ry

     The total energy is the sum of the following terms:

     one-electron contribution =    -120.62489491 Ry
     hartree contribution      =     103.37163772 Ry
     xc contribution           =    -124.98172496 Ry
     ewald contribution        =    -313.23933363 Ry
     smearing contrib. (-TS)   =       0.00000000 Ry

     total magnetization       =     0.00 Bohr mag/cell
     absolute magnetization    =     0.00 Bohr mag/cell

     convergence has been achieved in   9 iterations

     Forces acting on atoms (Ry/au):

     atom    1 type  1   force =     0.00000000    0.00000000    0.00000000
     atom    2 type  1   force =     0.00000000    0.00000000    0.00000000
     atom    3 type  2   force =     0.00006374    0.00006374   -0.00000000
     atom    4 type  2   force =    -0.00006374   -0.00006374   -0.00000000
     atom    5 type  2   force =     0.00005214   -0.00005214   -0.00000000
     atom    6 type  2   force =    -0.00005214    0.00005214   -0.00000000

     Total force =     0.000165     Total SCF correction =     0.000011

     entering subroutine stress ...

          total   stress  (Ry/bohr**3)                   (kbar)     P=  224.23
   0.00152529   0.00000036   0.00000000        224.38      0.05      0.00
   0.00000036   0.00152529   0.00000000          0.05    224.38      0.00
   0.00000000   0.00000000   0.00152223          0.00      0.00    223.93

     General routines

     Parallel routines

   This run was terminated on:  19: 3:54  23Jan2014

   JOB DONE.
Running PBS batch system epilogue script
Job id: 251204.audhumbla.fysik.dtu.dk
Username: zhonxu
Groupname: campgst
Jobname: SnO2/coarse-EOS/SnO2-v-1.1
Sessionid: 32065
Queuename: verylong
Accounting:
This job has allocated the following 4 nodes:
q096 q096 q096 q096
Finished epilogue job 251204.audhumbla.fysik.dtu.dk for zhonxu