     Program PWSCF v.5.0.2 (svn rev. 9656) starts on 25May2014 at  3:49:50

     Current dimensions of program PWSCF are:
     Max number of different atomic species (ntypx) = 10
     Max number of k-points (npk) =  40000
     Max angular momentum in pseudopotentials (lmaxx) =  3
     Reading input from pwscf.in
Warning: card &CELL ignored
Warning: card / ignored

     Subspace diagonalization in iterative solution of the eigenvalue problem:
     a serial algorithm will be used

     bravais-lattice index     =            0
     lattice parameter (alat)  =      10.9604  a.u.
     unit-cell volume          =    6350.6732 (a.u.)^3
     number of atoms/cell      =           31
     number of atomic types    =            3
     number of electrons       =       230.00 (up: 122.00, down: 108.00)
     number of Kohn-Sham states=          333
     kinetic-energy cutoff     =      40.0000  Ry
     charge density cutoff     =     500.0000  Ry
     convergence threshold     =      1.0E-06
     mixing beta               =       0.7000
     number of iterations used =            8  plain     mixing
     Exchange-correlation      = SLA  PW   PBE  PBE ( 1 4 3 4 0)
     EXX-fraction              =        0.00
     nstep                     =           50

     celldm(1)=  10.960412  celldm(2)=   0.000000  celldm(3)=   0.000000
     celldm(4)=   0.000000  celldm(5)=   0.000000  celldm(6)=   0.000000

     crystal axes: (cart. coord. in units of alat)
               a(1) = (   1.000000   0.000000   0.000000 )
               a(2) = (   0.000000   1.067975   0.000000 )
               a(3) = (   0.000000   0.000000   4.516251 )

     reciprocal axes: (cart. coord. in units 2 pi/alat)
               b(1) = (  1.000000  0.000000  0.000000 )
               b(2) = (  0.000000  0.936351  0.000000 )
               b(3) = (  0.000000  0.000000  0.221423 )

     PseudoPot. # 1 for O  read from file:
     /home/camp/zhonxu/pseudo/o_pbe_v1.01.uspp.F.UPF
     MD5 check sum: 2bcb18d16ea4b960afae9ec6d52f22d2
     Pseudo is Ultrasoft + core correction, Zval =  6.0
     Generated by new atomic code, or converted to UPF format
     Using radial grid of  737 points,  5 beta functions with:
                l(1) =   0
                l(2) =   0
                l(3) =   1
                l(4) =   1
                l(5) =   2
     Q(r) pseudized with  8 coefficients,  rinner =    0.900   0.900   0.900
                                                       0.900   0.900

     PseudoPot. # 2 for Cr read from file:
     /home/camp/zhonxu/pseudo/cr_pbe_v1.uspp.F.UPF
     MD5 check sum: 68b6f918d1762dccfb11451fe85b0e0e
     Pseudo is Ultrasoft + core correction, Zval = 14.0
     Generated by new atomic code, or converted to UPF format
     Using radial grid of  857 points,  6 beta functions with:
                l(1) =   0
                l(2) =   0
                l(3) =   1
                l(4) =   1
                l(5) =   2
                l(6) =   2
     Q(r) pseudized with  6 coefficients,  rinner =    1.000   1.000   1.000
                                                       1.000   1.000

     PseudoPot. # 3 for H  read from file:
     /home/camp/zhonxu/pseudo/h_pbe_v1.uspp.F.UPF
     MD5 check sum: 3408e3ff4ec8b0a4e358431e7e038a48
     Pseudo is Ultrasoft, Zval =  1.0
     Generated by new atomic code, or converted to UPF format
     Using radial grid of  615 points,  2 beta functions with:
                l(1) =   0
                l(2) =   0
     Q(r) pseudized with  8 coefficients,  rinner =    0.700

     atomic species   valence    mass     pseudopotential
        O0             6.00    15.99940     O ( 1.00)
        Cr1           14.00    51.99600     Cr( 1.00)
        H2             1.00     1.00794     H ( 1.00)

     Starting magnetic structure
     atomic species   magnetization
        O0           0.000
        Cr1          0.600
        H2           0.000

     Simplified LDA+U calculation (l_max = 2) with parameters (eV):
     atomic species    L          U    alpha       J0     beta
        Cr1            2     8.0000   0.0000   0.0000   0.0000

     No symmetry found

   Cartesian axes

     site n.     atom                  positions (alat units)
         1           O0  tau(   1) = (   0.0000000   0.0000000   1.6789614  )
         2           O0  tau(   2) = (   0.0000000   0.5339875   1.7763770  )
         3           Cr1 tau(   3) = (   0.2500000   0.5339875   2.0168673  )
         4           Cr1 tau(   4) = (   0.0000000   0.0000000   2.0256740  )
         5           O0  tau(   5) = (   0.2500000   0.8543801   2.0208868  )
         6           O0  tau(   6) = (   0.2500000   0.2135950   2.0212481  )
         7           O0  tau(   7) = (   0.0000000   0.5339875   2.2410992  )
         8           O0  tau(   8) = (   0.0000000   0.0000000   2.3740125  )
         9           Cr1 tau(   9) = (   0.2500000   0.0000000   2.6082252  )
        10           Cr1 tau(  10) = (   0.0000000   0.5339875   2.5598110  )
        11           O0  tau(  11) = (   0.2500000   0.7475825   2.6117028  )
        12           O0  tau(  12) = (   0.2500000   0.3203925   2.6111608  )
        13           O0  tau(  13) = (   0.0000000   0.0000000   2.8331797  )
        14           O0  tau(  14) = (   0.5000000   0.0000000   1.6788260  )
        15           O0  tau(  15) = (   0.5000000   0.5339875   1.7761512  )
        16           Cr1 tau(  16) = (   0.7500000   0.5339875   2.0169577  )
        17           Cr1 tau(  17) = (   0.5000000   0.0000000   2.0242740  )
        18           O0  tau(  18) = (   0.7500000   0.8543801   2.0208868  )
        19           O0  tau(  19) = (   0.7500000   0.2135950   2.0211578  )
        20           O0  tau(  20) = (   0.5000000   0.5339875   2.2611062  )
        21           O0  tau(  21) = (   0.5000000   0.0000000   2.3731544  )
        22           Cr1 tau(  22) = (   0.7500000   0.0000000   2.6102124  )
        23           Cr1 tau(  23) = (   0.5000000   0.5339875   2.6607041  )
        24           O0  tau(  24) = (   0.7500000   0.7475825   2.6121092  )
        25           O0  tau(  25) = (   0.7500000   0.3203925   2.6118382  )
        26           O0  tau(  26) = (   0.5000000   0.0000000   2.8321861  )
        27           H2  tau(  27) = (  -0.0005100   0.6802894   1.6890327  )
        28           H2  tau(  28) = (   0.4993400   0.6814642   1.6905682  )
        29           H2  tau(  29) = (   0.1580600   0.0303839   1.6205212  )
        30           H2  tau(  30) = (   0.6584700   0.0298713   1.6211083  )
        31           O0  tau(  31) = (   0.4992600   0.5327166   2.9610348  )

     number of k points=    20  Methfessel-Paxton smearing, width (Ry)=  0.0100
                       cart. coord. in units 2pi/alat
        k(    1) = (   0.0000000   0.0000000   0.0000000), wk =   0.0625000
        k(    2) = (   0.0000000   0.2340879   0.0000000), wk =   0.1250000
        k(    3) = (   0.0000000  -0.4681757   0.0000000), wk =   0.0625000
        k(    4) = (   0.2500000   0.0000000   0.0000000), wk =   0.1250000
        k(    5) = (   0.2500000   0.2340879   0.0000000), wk =   0.1250000
        k(    6) = (   0.2500000  -0.4681757   0.0000000), wk =   0.1250000
        k(    7) = (  -0.5000000   0.0000000   0.0000000), wk =   0.0625000
        k(    8) = (  -0.5000000   0.2340879   0.0000000), wk =   0.1250000
        k(    9) = (  -0.5000000  -0.4681757   0.0000000), wk =   0.0625000
        k(   10) = (  -0.2500000   0.2340879   0.0000000), wk =   0.1250000
        k(   11) = (   0.0000000   0.0000000   0.0000000), wk =   0.0625000
        k(   12) = (   0.0000000   0.2340879   0.0000000), wk =   0.1250000
        k(   13) = (   0.0000000  -0.4681757   0.0000000), wk =   0.0625000
        k(   14) = (   0.2500000   0.0000000   0.0000000), wk =   0.1250000
        k(   15) = (   0.2500000   0.2340879   0.0000000), wk =   0.1250000
        k(   16) = (   0.2500000  -0.4681757   0.0000000), wk =   0.1250000
        k(   17) = (  -0.5000000   0.0000000   0.0000000), wk =   0.0625000
        k(   18) = (  -0.5000000   0.2340879   0.0000000), wk =   0.1250000
        k(   19) = (  -0.5000000  -0.4681757   0.0000000), wk =   0.0625000
        k(   20) = (  -0.2500000   0.2340879   0.0000000), wk =   0.1250000

     Largest allocated arrays     est. size (Mb)     dimensions
     Largest temporary arrays     est. size (Mb)     dimensions

     Check: negative/imaginary core charge=   -0.000012    0.000000

     Initial potential from superposition of free atoms
     Check: negative starting charge=(component1):   -0.001451
     Check: negative starting charge=(component2):   -0.000467

     starting charge  221.99984, renormalised to  230.00000

     negative rho (up, down):  0.150E-02 0.483E-03
     Number of +U iterations with fixed ns =  0
     Starting occupations:
 --- enter write_ns ---
 LDA+U parameters:
U( 2)     =  8.00000000
alpha( 2) =  0.00000000
atom    3   Tr[ns(na)] (up, down, total) =   5.00000  0.00000  5.00000
   spin  1
    eigenvalues:
  1.000  1.000  1.000  1.000  1.000
    eigenvectors:
  1.000  0.000  0.000  0.000  0.000
  0.000  1.000  0.000  0.000  0.000
  0.000  0.000  1.000  0.000  0.000
  0.000  0.000  0.000  1.000  0.000
  0.000  0.000  0.000  0.000  1.000
    occupations:
  1.000  0.000  0.000  0.000  0.000
  0.000  1.000  0.000  0.000  0.000
  0.000  0.000  1.000  0.000  0.000
  0.000  0.000  0.000  1.000  0.000
  0.000  0.000  0.000  0.000  1.000
   spin  2
    eigenvalues:
  0.000  0.000  0.000  0.000  0.000
    eigenvectors:
  1.000  0.000  0.000  0.000  0.000
  0.000  1.000  0.000  0.000  0.000
  0.000  0.000  1.000  0.000  0.000
  0.000  0.000  0.000  1.000  0.000
  0.000  0.000  0.000  0.000  1.000
    occupations:
  0.000  0.000  0.000  0.000  0.000
  0.000  0.000  0.000  0.000  0.000
  0.000  0.000  0.000  0.000  0.000
  0.000  0.000  0.000  0.000  0.000
  0.000  0.000  0.000  0.000  0.000
atomic mag. moment =     5.000000
atom    4   Tr[ns(na)] (up, down, total) =   5.00000  0.00000  5.00000
   spin  1
    eigenvalues:
  1.000  1.000  1.000  1.000  1.000
    eigenvectors:
  1.000  0.000  0.000  0.000  0.000
  0.000  1.000  0.000  0.000  0.000
  0.000  0.000  1.000  0.000  0.000
  0.000  0.000  0.000  1.000  0.000
  0.000  0.000  0.000  0.000  1.000
    occupations:
  1.000  0.000  0.000  0.000  0.000
  0.000  1.000  0.000  0.000  0.000
  0.000  0.000  1.000  0.000  0.000
  0.000  0.000  0.000  1.000  0.000
  0.000  0.000  0.000  0.000  1.000
   spin  2
    eigenvalues:
  0.000  0.000  0.000  0.000  0.000
    eigenvectors:
  1.000  0.000  0.000  0.000  0.000
  0.000  1.000  0.000  0.000  0.000
  0.000  0.000  1.000  0.000  0.000
  0.000  0.000  0.000  1.000  0.000
  0.000  0.000  0.000  0.000  1.000
    occupations:
  0.000  0.000  0.000  0.000  0.000
  0.000  0.000  0.000  0.000  0.000
  0.000  0.000  0.000  0.000  0.000
  0.000  0.000  0.000  0.000  0.000
  0.000  0.000  0.000  0.000  0.000
atomic mag. moment =     5.000000
atom    9   Tr[ns(na)] (up, down, total) =   5.00000  0.00000  5.00000
   spin  1
    eigenvalues:
  1.000  1.000  1.000  1.000  1.000
    eigenvectors:
  1.000  0.000  0.000  0.000  0.000
[...]
  0.000  0.001  0.026  0.973  0.000
  0.000  0.000  0.974  0.026  0.000
  0.000  0.001  0.000  0.000  0.998
  1.000  0.000  0.000  0.000  0.000
    occupations:
  0.494 -0.016 -0.001  0.019  0.000
 -0.016  0.935  0.002  0.002  0.000
 -0.001  0.002  0.925 -0.000  0.001
  0.019  0.002 -0.000  0.991  0.000
  0.000  0.000  0.001  0.000  0.465
   spin  2
    eigenvalues:
  0.057  0.061  0.062  0.250  0.285
    eigenvectors:
  0.000  0.010  0.000  0.989  0.000
  0.034  0.120  0.845  0.001  0.000
  0.962  0.016  0.023  0.000  0.000
  0.004  0.854  0.133  0.010  0.000
  0.000  0.000  0.000  0.000  1.000
    occupations:
  0.248  0.005  0.001 -0.019  0.000
  0.005  0.062 -0.001 -0.000 -0.000
  0.001 -0.001  0.057  0.000  0.000
 -0.019 -0.000  0.000  0.063 -0.000
  0.000 -0.000  0.000 -0.000  0.285
atomic mag. moment =     3.095586
atom    9   Tr[ns(na)] (up, down, total) =   3.81620  0.75513  4.57133
   spin  1
    eigenvalues:
  0.509  0.515  0.863  0.936  0.993
    eigenvectors:
  0.004  0.224  0.000  0.000  0.772
  0.982  0.018  0.000  0.000  0.000
  0.000  0.000  0.883  0.117  0.000
  0.014  0.758  0.000  0.000  0.228
  0.000  0.000  0.117  0.883  0.000
    occupations:
  0.884  0.001  0.000 -0.201 -0.000
  0.001  0.509  0.001 -0.001  0.000
  0.000  0.001  0.872  0.001 -0.023
 -0.201 -0.001  0.001  0.624  0.000
 -0.000  0.000 -0.023  0.000  0.927
   spin  2
    eigenvalues:
  0.060  0.068  0.069  0.257  0.301
    eigenvectors:
  0.798  0.000  0.000  0.000  0.202
  0.000  0.000  0.000  0.999  0.001
  0.000  0.358  0.642  0.000  0.000
  0.202  0.000  0.000  0.001  0.797
  0.000  0.642  0.358  0.000  0.000
    occupations:
  0.109 -0.000 -0.000  0.097 -0.000
 -0.000  0.257 -0.000 -0.002  0.000
 -0.000 -0.000  0.069 -0.000  0.001
  0.097 -0.002 -0.000  0.252 -0.000
 -0.000  0.000  0.001 -0.000  0.068
atomic mag. moment =     3.061075
atom   10   Tr[ns(na)] (up, down, total) =   3.82612  0.65625  4.48237
   spin  1
    eigenvalues:
  0.475  0.490  0.919  0.952  0.990
    eigenvectors:
  0.000  0.994  0.000  0.000  0.006
  0.000  0.000  0.000  1.000  0.000
  0.000  0.000  1.000  0.000  0.000
  0.000  0.006  0.000  0.000  0.994
  1.000  0.000  0.000  0.000  0.000
    occupations:
  0.493 -0.000 -0.005  0.038 -0.000
 -0.000  0.952 -0.000 -0.000  0.001
 -0.005 -0.000  0.919  0.000 -0.000
  0.038 -0.000  0.000  0.987  0.000
 -0.000  0.001 -0.000  0.000  0.475
   spin  2
    eigenvalues:
  0.055  0.070  0.076  0.187  0.268
    eigenvectors:
  0.015  0.000  0.000  0.985  0.000
  0.000  0.000  1.000  0.000  0.000
  0.000  1.000  0.000  0.000  0.000
  0.985  0.000  0.000  0.015  0.000
  0.000  0.000  0.000  0.000  1.000
    occupations:
  0.185 -0.000  0.000 -0.016  0.000
 -0.000  0.076  0.000 -0.000 -0.000
  0.000  0.000  0.070 -0.000  0.000
 -0.016 -0.000 -0.000  0.057 -0.000
  0.000 -0.000  0.000 -0.000  0.268
atomic mag. moment =     3.169864
atom   16   Tr[ns(na)] (up, down, total) =   3.79892  0.71717  4.51609
   spin  1
    eigenvalues:
  0.445  0.495  0.894  0.971  0.994
    eigenvectors:
  0.004  0.253  0.001  0.000  0.742
  0.984  0.015  0.000  0.000  0.000
  0.000  0.000  0.997  0.002  0.000
  0.011  0.731  0.000  0.000  0.258
  0.000  0.000  0.002  0.997  0.000
    occupations:
  0.865  0.005 -0.001 -0.219  0.000
  0.005  0.446 -0.000  0.004 -0.008
 -0.001 -0.000  0.894 -0.006 -0.004
 -0.219  0.004 -0.006  0.623 -0.000
  0.000 -0.008 -0.004 -0.000  0.971
   spin  2
    eigenvalues:
  0.051  0.063  0.067  0.241  0.296
    eigenvectors:
  0.731  0.009  0.029  0.003  0.227
  0.000  0.001  0.000  0.989  0.009
  0.045  0.149  0.806  0.000  0.000
  0.223  0.002  0.006  0.006  0.763
  0.001  0.839  0.159  0.001  0.000
    occupations:
  0.108 -0.000 -0.001  0.103  0.000
 -0.000  0.241  0.000 -0.006  0.007
 -0.001  0.000  0.066  0.005 -0.002
  0.103 -0.006  0.005  0.239 -0.000
  0.000  0.007 -0.002 -0.000  0.064
atomic mag. moment =     3.081747
atom   17   Tr[ns(na)] (up, down, total) =   3.81057  0.71618  4.52675
   spin  1
    eigenvalues:
  0.465  0.495  0.919  0.940  0.992
    eigenvectors:
  0.000  0.997  0.000  0.001  0.002
  0.000  0.001  0.016  0.983  0.000
  0.000  0.000  0.984  0.016  0.000
  0.000  0.002  0.000  0.000  0.998
  1.000  0.000  0.000  0.000  0.000
    occupations:
  0.496 -0.016 -0.000  0.020  0.000
 -0.016  0.939  0.003  0.001  0.000
 -0.000  0.003  0.920 -0.000  0.002
  0.020  0.001 -0.000  0.991 -0.000
  0.000  0.000  0.002 -0.000  0.465
   spin  2
    eigenvalues:
  0.057  0.061  0.062  0.250  0.286
    eigenvectors:
  0.000  0.010  0.000  0.989  0.000
  0.042  0.184  0.774  0.001  0.000
  0.953  0.023  0.023  0.000  0.000
  0.005  0.783  0.203  0.010  0.000
  0.000  0.000  0.000  0.000  1.000
    occupations:
  0.248  0.005  0.001 -0.019  0.000
  0.005  0.062 -0.001 -0.000 -0.000
  0.001 -0.001  0.057  0.000  0.000
 -0.019 -0.000  0.000  0.063 -0.000
  0.000 -0.000  0.000 -0.000  0.286
atomic mag. moment =     3.094394
atom   22   Tr[ns(na)] (up, down, total) =   3.81609  0.75512  4.57121
   spin  1
    eigenvalues:
  0.508  0.516  0.864  0.936  0.993
    eigenvectors:
  0.026  0.202  0.000  0.000  0.772
  0.885  0.115  0.000  0.000  0.000
  0.000  0.000  0.886  0.114  0.000
  0.089  0.683  0.000  0.000  0.228
  0.000  0.000  0.114  0.886  0.000
    occupations:
  0.884  0.000  0.000 -0.201 -0.000
  0.000  0.509  0.000  0.002 -0.000
  0.000  0.000  0.872  0.000  0.023
 -0.201  0.002  0.000  0.624  0.001
 -0.000 -0.000  0.023  0.001  0.927
   spin  2
    eigenvalues:
  0.060  0.068  0.069  0.257  0.301
    eigenvectors:
  0.798  0.000  0.000  0.000  0.202
  0.000  0.000  0.000  0.999  0.001
  0.000  0.357  0.643  0.000  0.000
  0.202  0.000  0.000  0.001  0.797
  0.000  0.643  0.357  0.000  0.000
    occupations:
  0.109  0.000 -0.000  0.097 -0.000
  0.000  0.257 -0.000  0.002  0.000
 -0.000 -0.000  0.069 -0.000 -0.001
  0.097  0.002 -0.000  0.252 -0.000
 -0.000  0.000 -0.001 -0.000  0.068
atomic mag. moment =     3.060978
atom   23   Tr[ns(na)] (up, down, total) =   3.78418  0.80879  4.59298
   spin  1
    eigenvalues:
  0.506  0.615  0.831  0.840  0.992
    eigenvectors:
  0.000  0.998  0.000  0.000  0.002
  0.000  0.000  1.000  0.000  0.000
  0.000  0.000  0.000  0.999  0.000
  0.000  0.002  0.000  0.000  0.998
  1.000  0.000  0.000  0.000  0.000
    occupations:
  0.615 -0.000 -0.001  0.016 -0.000
 -0.000  0.831 -0.000 -0.000  0.000
 -0.001 -0.000  0.840  0.001  0.000
  0.016 -0.000  0.001  0.992  0.000
 -0.000  0.000  0.000  0.000  0.506
   spin  2
    eigenvalues:
  0.058  0.090  0.100  0.280  0.281
    eigenvectors:
  0.006  0.000  0.000  0.003  0.991
  0.000  0.000  1.000  0.000  0.000
  0.000  1.000  0.000  0.000  0.000
  0.994  0.000  0.000  0.000  0.006
  0.000  0.000  0.000  0.997  0.003
    occupations:
  0.280  0.000  0.001 -0.018  0.000
  0.000  0.100 -0.000  0.000 -0.000
  0.001 -0.000  0.090 -0.000  0.000
 -0.018  0.000 -0.000  0.059 -0.000
  0.000 -0.000  0.000 -0.000  0.280
atomic mag. moment =     2.975395
N of occupied +U levels =  36.3016157
 --- exit write_ns ---

 ------ SPIN UP ------------

[...]

 ------ SPIN DOWN ----------

[...]

          k = 0.2500-0.4682 0.0000 ( 27150 PWs)   bands (ev):

[...]

          k =-0.2500 0.2341 0.0000 ( 27132 PWs)   bands (ev):

   -72.7807 -72.2985 -71.9429 -71.9321 -71.9159 -71.9036 -71.8796 -71.8687
   -44.3731 -44.1238 -43.9893 -43.7906 -43.6843 -43.5738 -43.4860 -43.4781
   -43.4515 -43.4472 -43.4122 -43.3363 -43.3126 -43.3076 -43.2889 -43.2733
   -43.2684 -43.2615 -43.2506 -43.2196 -43.1757 -43.1421 -43.1236 -43.0516
   -21.3943 -21.1168 -20.7692 -20.7205 -20.6612 -20.4896 -20.4227 -20.4133
   -20.3875 -20.2125 -20.1703 -20.1144 -20.0745 -19.9827 -19.8780 -19.8320
   -19.8062 -19.7023 -19.6591  -8.5154  -8.4390  -8.1226  -7.9268  -7.8215
    -7.6111  -7.4927  -7.4155  -7.1858  -7.1292  -6.9783  -6.9231  -6.8703
    -6.8175  -6.7305  -6.6773  -6.6211  -6.3599  -6.2637  -6.1756  -6.1222
    -6.0933  -5.9557  -5.9197  -5.8896  -5.8265  -5.7649  -5.7218  -5.6155
    -5.5436  -5.5043  -5.4242  -5.3842  -5.3326  -5.2954  -5.2426  -5.1527
    -5.0134  -4.9734  -4.8481  -4.7435  -4.7011  -4.6610  -4.5856  -4.5257
    -4.3914  -4.3300  -4.2909  -4.2650  -4.1909  -4.1750  -4.1276  -4.0729
    -3.9521  -3.8524  -3.7779  -3.6508   2.3867   2.6808   2.8008   2.9195
     2.9387   3.0071   3.0442   3.1151   3.1999   3.2420   3.2899   3.3283
     3.3808   3.4369   3.5131   3.5509   3.6215   3.7026   3.7529   3.7674
     3.8061   3.8614   3.8838   3.9552   4.0162   4.0680   4.1286   4.1420
     4.2095   4.2686   4.3002   4.3380   4.3852   4.4124   4.4596   4.4905
     4.5158   4.5807   4.6314   4.6708   4.7433   4.7676   4.8082   5.0572
     5.5007   5.6981   5.7591   6.1900   6.3690   6.5507   6.5989   6.7218
     6.7408   6.9807   7.0631   7.3682   7.5160   7.7502   7.8560   8.0059
     8.2699   8.3656   8.4681   8.5241   8.6366   8.7136   8.8209   8.9900
     9.1231   9.2554   9.3340   9.4246   9.5456   9.7541   9.9742  10.0110
    10.0745  10.1809  10.2236  10.3242  10.4179  10.6221  10.6958  10.7728
    10.8418  10.9695  10.9817  11.1444  11.2816  11.3499  11.4491  11.5154
    11.5953  11.6494  11.7684  11.8390  11.9004  11.9501  12.1303  12.2133
    12.2699  12.3436  12.4132  12.5246  12.5435  12.6422  12.7911  12.8671
    12.9028  12.9865  13.0159  13.0946  13.1292  13.2065  13.2561  13.3424
    13.3800  13.4284  13.4978  13.6349  13.6847  13.8037  13.8583  13.9750
    14.0259  14.0872  14.1331  14.1936  14.2911  14.3729  14.4548  14.5242
    14.5798  14.7132  14.7478  14.8475  14.8885  14.9717  15.0939  15.1398
    15.1656  15.2669  15.4566  15.4908  15.6152  15.8080  15.8833  16.0004
    16.0639  16.1180  16.2197  16.2508  16.3048  16.3470  16.4128  16.4352
    16.4914  16.6119  16.7258  16.7838  16.8518  16.9241  16.9942  17.0724
    17.1425  17.2008  17.2896  17.3613  17.4295  17.5566  17.6179  17.6752
    17.7221  17.7723  17.8328  17.9150  17.9575  18.0029  18.0945  18.2116
    18.2623  18.3040  18.4168  18.4791  18.5574  18.6770  18.7179  18.7894
    18.8646  18.9533  18.9719  19.0818  19.1166  19.2135  19.2981  19.3385
    19.4820  19.5512  19.6450  19.6923  19.7697  19.8473  19.8875  19.9093
    19.9517  20.0107  20.0608  20.1721  20.2897  20.3600  20.4311  20.5180
    20.5638  20.6064  20.7198  20.8639  20.9591  20.9997  21.0488  21.1039
    21.1312  21.1584  21.2611  21.3292  21.4348

     the spin up/dw Fermi energies are    -2.5812   -2.3787 ev

!    total energy              =   -2022.08651045 Ry
     Harris-Foulkes estimate   =   -2022.08651046 Ry
     estimated scf accuracy    <          9.9E-09 Ry

     The total energy is the sum of the following terms:

     one-electron contribution =  -23157.35146131 Ry
     hartree contribution      =   11598.32043017 Ry
     xc contribution           =    -322.67767068 Ry
     ewald contribution        =    9856.71966141 Ry
     Hubbard energy            =       2.90252073 Ry
     smearing contrib. (-TS)   =       0.00000924 Ry

     total magnetization       =    14.00 Bohr mag/cell
     absolute magnetization    =    34.75 Bohr mag/cell

     convergence has been achieved in  21 iterations

     Forces acting on atoms (Ry/au):

     negative rho (up, down):  0.586E-02 0.168E-02
     atom    1 type  1   force =    -0.00318552   -0.00933124   -0.00035094
     atom    2 type  1   force =     0.00002292    0.00349605    0.00044361
     atom    3 type  2   force =     0.02404537    0.00263414   -0.00046274
     atom    4 type  2   force =     0.00353281    0.00456172    0.00025277
     atom    5 type  1   force =     0.00220053    0.00753187    0.00014068
     atom    6 type  1   force =     0.00078665   -0.00680110    0.00022798
     atom    7 type  1   force =    -0.00007405   -0.00250197   -0.00061038
     atom    8 type  1   force =    -0.00107738   -0.00020216    0.00051762
     atom    9 type  2   force =     0.00878250   -0.00013131   -0.00012899
     atom   10 type  2   force =    -0.00007712    0.00062465   -0.00046565
     atom   11 type  1   force =    -0.00838022   -0.05272111    0.00000319
     atom   12 type  1   force =    -0.00722084    0.05254239    0.00003498
     atom   13 type  1   force =    -0.00026636    0.00016886    0.00061106
     atom   14 type  1   force =    -0.00211790   -0.00941995   -0.00040593
     atom   15 type  1   force =    -0.00007430    0.00328608   -0.00026344
     atom   16 type  2   force =    -0.02436704    0.00268496   -0.00046841
     atom   17 type  2   force =     0.00288112    0.00556304    0.00035556
     atom   18 type  1   force =    -0.00022008    0.00759450    0.00012981
     atom   19 type  1   force =    -0.00157332   -0.00663943    0.00023593
     atom   20 type  1   force =    -0.00011077   -0.00261299    0.00018376
     atom   21 type  1   force =    -0.00089665   -0.00029500    0.00018654
     atom   22 type  2   force =    -0.00780317    0.00006056   -0.00000360
     atom   23 type  2   force =    -0.00012746    0.00019175    0.00096737
     atom   24 type  1   force =     0.00772421   -0.05275154    0.00007989
     atom   25 type  1   force =     0.00785854    0.05267322    0.00007706
     atom   26 type  1   force =    -0.00020271    0.00022553    0.00075995
     atom   27 type  3   force =     0.00003211   -0.00046746   -0.00010428
     atom   28 type  3   force =     0.00000054   -0.00008067   -0.00043641
     atom   29 type  3   force =    -0.00013240    0.00012309   -0.00069695
     atom   30 type  3   force =    -0.00007063    0.00002243   -0.00079520
     atom   31 type  1   force =     0.00011060   -0.00002893   -0.00001488

     Total force =     0.002400     Total SCF correction =     0.000424
     SCF correction compared to forces is large: reduce conv_thr to get better values

     entering subroutine stress ...

     negative rho (up, down):  0.586E-02 0.168E-02
          total   stress  (Ry/bohr**3)                   (kbar)     P=   37.21
   0.00034334   0.00000059   0.00000235         50.51      0.09      0.35
   0.00000059   0.00044219   0.00000683          0.09     65.05      1.00
   0.00000235   0.00000683  -0.00002677          0.35      1.00     -3.94

     bfgs converged in  11 scf cycles and  10 bfgs steps
     (criteria: energy < 0.10E-03, force < 0.10E-02)

     End of BFGS Geometry Optimization

     Final energy   =   -2022.0865104499 Ry
Begin final coordinates

ATOMIC_POSITIONS (crystal)
O0       0.000000000   0.000000000   0.372239379    0   0   1
O0       0.000000000   0.500000000   0.392798550    0   0   1
Cr1      0.250000000   0.500000000   0.446103694    0   0   1
Cr1      0.000000000   0.000000000   0.448778554    0   0   1
O0       0.250000000   0.800000000   0.447230454    0   0   1
O0       0.250000000   0.200000000   0.447224094    0   0   1
O0       0.000000000   0.500000000   0.495949777    0   0   1
O0       0.000000000   0.000000000   0.525540445    0   0   1
Cr1      0.250000000   0.000000000   0.577426347    0   0   1
Cr1      0.000000000   0.500000000   0.566672941    0   0   1
O0       0.250000000   0.700000000   0.578799358    0   0   1
O0       0.250000000   0.300000000   0.578620626    0   0   1
O0       0.000000000   0.000000000   0.627026076    0   0   1
O0       0.500000000   0.000000000   0.372013780    0   0   1
O0       0.500000000   0.500000000   0.393085306    0   0   1
Cr1      0.750000000   0.500000000   0.446085322    0   0   1
Cr1      0.500000000   0.000000000   0.448206745    0   0   1
O0       0.750000000   0.800000000   0.447275023    0   0   1
O0       0.750000000   0.200000000   0.447207205    0   0   1
O0       0.500000000   0.500000000   0.499704739    0   0   1
O0       0.500000000   0.000000000   0.525219068    0   0   1
Cr1      0.750000000   0.000000000   0.577414521    0   0   1
Cr1      0.500000000   0.500000000   0.590350457    0   0   1
O0       0.750000000   0.700000000   0.578760095    0   0   1
O0       0.750000000   0.300000000   0.578663111    0   0   1
O0       0.500000000   0.000000000   0.626767470    0   0   1
H2      -0.000686012   0.636971357   0.373451962
H2       0.499151946   0.637391898   0.373934362
H2       0.158943567   0.028319381   0.359849051
H2       0.659582352   0.027029536   0.359811418
O0       0.499755985   0.498647448   0.656610069
End final coordinates

     General routines

     Parallel routines
     Hubbard U routines

   This run was terminated on:   2:15: 4  26May2014

   JOB DONE.
Running PBS batch system epilogue script
Job id: 366654.audhumbla.fysik.dtu.dk
Username: zhonxu
Groupname: campgst
Jobname: CrO2/Eads-2-layers/O-U-8.0
Sessionid: 23932
Queuename: verylong
Accounting:
This job has allocated the following 16 nodes:
a085 a085 a085 a085 a085 a085 a085 a085 a080 a080 a080 a080 a080 a080 a080 a080
Finished epilogue job 366654.audhumbla.fysik.dtu.dk for zhonxu