     Program PWSCF v.5.0.2 (svn rev. 9656) starts on 28May2014 at  4:10: 6

     Current dimensions of program PWSCF are:
     Max number of different atomic species (ntypx) = 10
     Max number of k-points (npk) =  40000
     Max angular momentum in pseudopotentials (lmaxx) =  3
     Reading input from pwscf.in
Warning: card &CELL ignored
Warning: card / ignored

     Subspace diagonalization in iterative solution of the eigenvalue problem:
     a serial algorithm will be used

     bravais-lattice index     =            0
     lattice parameter (alat)  =      10.3179  a.u.
     unit-cell volume          =    6964.3238 (a.u.)^3
     number of atoms/cell      =           33
     number of atomic types    =            3
     number of electrons       =       237.00
     number of Kohn-Sham states=          355
     kinetic-energy cutoff     =      40.0000  Ry
     charge density cutoff     =     500.0000  Ry
     convergence threshold     =      1.0E-06
     mixing beta               =       0.7000
     number of iterations used =            8  plain     mixing
     Exchange-correlation      = SLA  PW   PBE  PBE ( 1 4 3 4 0)
     EXX-fraction              =        0.00
     nstep                     =           50

     celldm(1)=  10.317905  celldm(2)=   0.000000  celldm(3)=   0.000000
     celldm(4)=   0.000000  celldm(5)=   0.000000  celldm(6)=   0.000000

     crystal axes: (cart. coord. in units of alat)
               a(1) = (   1.000000   0.000000   0.000000 )
               a(2) = (   0.000000   1.282117   0.000000 )
               a(3) = (   0.000000   0.000000   4.945120 )

     reciprocal axes: (cart. coord. in units 2 pi/alat)
               b(1) = (  1.000000  0.000000  0.000000 )
               b(2) = (  0.000000  0.779960  0.000000 )
               b(3) = (  0.000000  0.000000  0.202220 )

     PseudoPot. # 1 for O  read from file:
     /home/camp/zhonxu/pseudo/o_pbe_v1.01.uspp.F.UPF
     MD5 check sum: 2bcb18d16ea4b960afae9ec6d52f22d2
     Pseudo is Ultrasoft + core correction, Zval =  6.0
     Generated by new atomic code, or converted to UPF format
     Using radial grid of  737 points,  5 beta functions with:
                l(1) =   0
                l(2) =   0
                l(3) =   1
                l(4) =   1
                l(5) =   2
     Q(r) pseudized with  8 coefficients,  rinner =    0.900   0.900   0.900
                                                       0.900   0.900

     PseudoPot. # 2 for Mo read from file:
     /home/camp/zhonxu/pseudo/mo_pbe_v1.uspp.F.UPF
     MD5 check sum: 30c4dcd161f5d35cd49bb5239c51a633
     Pseudo is Ultrasoft + core correction, Zval = 14.0
     Generated by new atomic code, or converted to UPF format
     Using radial grid of  889 points,  6 beta functions with:
                l(1) =   0
                l(2) =   0
                l(3) =   1
                l(4) =   1
                l(5) =   2
                l(6) =   2
     Q(r) pseudized with  6 coefficients,  rinner =    1.000   1.000   1.000
                                                       1.000   1.000

     PseudoPot. # 3 for H  read from file:
     /home/camp/zhonxu/pseudo/h_pbe_v1.uspp.F.UPF
     MD5 check sum: 3408e3ff4ec8b0a4e358431e7e038a48
     Pseudo is Ultrasoft, Zval =  1.0
     Generated by new atomic code, or converted to UPF format
     Using radial grid of  615 points,  2 beta functions with:
                l(1) =   0
                l(2) =   0
     Q(r) pseudized with  8 coefficients,  rinner =    0.700

     atomic species   valence    mass     pseudopotential
        O0             6.00    15.99940     O ( 1.00)
        Mo1           14.00    95.94000     Mo( 1.00)
        H2             1.00     1.00794     H ( 1.00)

     Simplified LDA+U calculation (l_max = 2) with parameters (eV):
     atomic species    L          U    alpha       J0     beta
        Mo1            2     6.5000   0.0000   0.0000   0.0000

     No symmetry found

   Cartesian axes

     site n.     atom                  positions (alat units)
         1           O0  tau(   1) = (   0.0000000   0.0000000   1.8345407  )
         2           O0  tau(   2) = (   0.0000000   0.6410583   1.8924976  )
         3           Mo1 tau(   3) = (   0.2500000   0.6410583   2.1781772  )
         4           Mo1 tau(   4) = (   0.0000000   0.0000000   2.1929631  )
         5           O0  tau(   5) = (   0.2500000   1.0000510   2.1897982  )
         6           O0  tau(   6) = (   0.2500000   0.2820657   2.1891553  )
         7           O0  tau(   7) = (   0.0000000   0.6410583   2.4607413  )
         8           O0  tau(   8) = (   0.0000000   0.0000000   2.5556382  )
         9           Mo1 tau(   9) = (   0.2500000   0.0000000   2.8453728  )
        10           Mo1 tau(  10) = (   0.0000000   0.6410583   2.7952787  )
        11           O0  tau(  11) = (   0.2500000   0.9231240   2.8196582  )
        12           O0  tau(  12) = (   0.2500000   0.3589927   2.8248011  )
        13           O0  tau(  13) = (   0.0000000   0.0000000   3.0952003  )
        14           O0  tau(  14) = (   0.5000000   0.0000000   1.8353814  )
        15           O0  tau(  15) = (   0.5000000   0.6410583   1.8936349  )
        16           Mo1 tau(  16) = (   0.7500000   0.6410583   2.1781277  )
        17           Mo1 tau(  17) = (   0.5000000   0.0000000   2.1954851  )
        18           O0  tau(  18) = (   0.7500000   1.0000510   2.1899960  )
        19           O0  tau(  19) = (   0.7500000   0.2820657   2.1890564  )
        20           O0  tau(  20) = (   0.5000000   0.6410583   2.4612853  )
        21           O0  tau(  21) = (   0.5000000   0.0000000   2.5539074  )
        22           Mo1 tau(  22) = (   0.7500000   0.0000000   2.8439387  )
        23           Mo1 tau(  23) = (   0.5000000   0.6410583   2.8209934  )
        24           O0  tau(  24) = (   0.7500000   0.9231240   2.8195098  )
        25           O0  tau(  25) = (   0.7500000   0.3589927   2.8246033  )
        26           O0  tau(  26) = (   0.5000000   0.0000000   3.0932717  )
        27           H2  tau(  27) = (  -0.0005800   0.7846554   1.7836060  )
        28           H2  tau(  28) = (   0.4995100   0.7915788   1.7940402  )
        29           H2  tau(  29) = (   0.1672700   0.0232576   1.7642706  )
        30           H2  tau(  30) = (   0.6659000   0.0248346   1.7633310  )
        31           O0  tau(  31) = (   0.5002100   0.6666879   3.1760530  )
        32           O0  tau(  32) = (   0.4999400   0.4570233   3.3393409  )
        33           H2  tau(  33) = (   0.5000100   0.5446560   3.4973869  )

     number of k points=    10  Methfessel-Paxton smearing, width (Ry)=  0.0100
                       cart. coord. in units 2pi/alat
        k(    1) = (   0.0000000   0.0000000   0.0000000), wk =   0.1250000
        k(    2) = (   0.0000000   0.1949901   0.0000000), wk =   0.2500000
        k(    3) = (   0.0000000  -0.3899801   0.0000000), wk =   0.1250000
        k(    4) = (   0.2500000   0.0000000   0.0000000), wk =   0.2500000
        k(    5) = (   0.2500000   0.1949901   0.0000000), wk =   0.2500000
        k(    6) = (   0.2500000  -0.3899801   0.0000000), wk =   0.2500000
        k(    7) = (  -0.5000000   0.0000000   0.0000000), wk =   0.1250000
        k(    8) = (  -0.5000000   0.1949901   0.0000000), wk =   0.2500000
        k(    9) = (  -0.5000000  -0.3899801   0.0000000), wk =   0.1250000
        k(   10) = (  -0.2500000   0.1949901   0.0000000), wk =   0.2500000

     Largest allocated arrays     est. size (Mb)     dimensions
     Largest temporary arrays     est. size (Mb)     dimensions

     Check: negative/imaginary core charge=   -0.000003    0.000000

     Initial potential from superposition of free atoms
     Check: negative starting charge=   -0.002157

     starting charge  236.99142, renormalised to  237.00000

     negative rho (up, down):  0.216E-02 0.000E+00
     Number of +U iterations with fixed ns =  0
     Starting occupations:
 --- enter write_ns ---
 LDA+U parameters:
U( 2)     =  6.50000000
alpha( 2) =  0.00000000
atom    3   Tr[ns(na)] =   5.00000
    eigenvalues:
  0.500  0.500  0.500  0.500  0.500
    eigenvectors:
  1.000  0.000  0.000  0.000  0.000
  0.000  1.000  0.000  0.000  0.000
  0.000  0.000  1.000  0.000  0.000
  0.000  0.000  0.000  1.000  0.000
  0.000  0.000  0.000  0.000  1.000
    occupations:
  0.500  0.000  0.000  0.000  0.000
  0.000  0.500  0.000  0.000  0.000
  0.000  0.000  0.500  0.000  0.000
  0.000  0.000  0.000  0.500  0.000
  0.000  0.000  0.000  0.000  0.500
atom    4   Tr[ns(na)] =   5.00000
    eigenvalues:
  0.500  0.500  0.500  0.500  0.500
    eigenvectors:
  1.000  0.000  0.000  0.000  0.000
  0.000  1.000  0.000  0.000  0.000
  0.000  0.000  1.000  0.000  0.000
  0.000  0.000  0.000  1.000  0.000
  0.000  0.000  0.000  0.000  1.000
    occupations:
  0.500  0.000  0.000  0.000  0.000
  0.000  0.500  0.000  0.000  0.000
  0.000  0.000  0.500  0.000  0.000
  0.000  0.000  0.000  0.500  0.000
  0.000  0.000  0.000  0.000  0.500
atom    9   Tr[ns(na)] =   5.00000
    eigenvalues:
  0.500  0.500  0.500  0.500  0.500
    eigenvectors:
  1.000  0.000  0.000  0.000  0.000
  0.000  1.000  0.000  0.000  0.000
  0.000  0.000  1.000  0.000  0.000
  0.000  0.000  0.000  1.000  0.000
  0.000  0.000  0.000  0.000  1.000
    occupations:
  0.500  0.000  0.000  0.000  0.000
  0.000  0.500  0.000  0.000  0.000
  0.000  0.000  0.500  0.000  0.000
  0.000  0.000  0.000  0.500  0.000
  0.000  0.000  0.000  0.000  0.500
atom   10   Tr[ns(na)] =   5.00000
    eigenvalues:
  0.500  0.500  0.500  0.500  0.500
    eigenvectors:
  1.000  0.000  0.000  0.000  0.000
  0.000  1.000  0.000  0.000  0.000
  0.000  0.000  1.000  0.000  0.000
  0.000  0.000  0.000  1.000  0.000
  0.000  0.000  0.000  0.000  1.000
    occupations:
  0.500  0.000  0.000  0.000  0.000
  0.000  0.500  0.000  0.000  0.000
  0.000  0.000  0.500  0.000  0.000
  0.000  0.000  0.000  0.500  0.000
  0.000  0.000  0.000  0.000  0.500
atom   16   Tr[ns(na)] =   5.00000
    eigenvalues:
  0.500  0.500  0.500  0.500  0.500
    eigenvectors:
  1.000  0.000  0.000  0.000  0.000
  0.000  1.000  0.000  0.000  0.000
  0.000  0.000  1.000  0.000  0.000
  0.000  0.000  0.000  1.000  0.000
  0.000  0.000  0.000  0.000  1.000
    occupations:
  0.500  0.000  0.000  0.000  0.000
  0.000  0.500  0.000  0.000  0.000
  0.000  0.000  0.500  0.000  0.000
  0.000  0.000  0.000  0.500  0.000
  0.000  0.000  0.000  0.000  0.500
atom   17   Tr[ns(na)] =   5.00000
    eigenvalues:
  0.500  0.500  0.500  0.500  0.500
    eigenvectors:
  1.000  0.000  0.000  0.000  0.000
  0.000  1.000  0.000  0.000  0.000
  0.000  0.000  1.000  0.000  0.000
  0.000  0.000  0.000  1.000  0.000
  0.000  0.000  0.000  0.000  1.000
    occupations:
  0.500  0.000  0.000  0.000  0.000
  0.000  0.500  0.000  0.000  0.000
  0.000  0.000  0.500  0.000  0.000
  0.000  0.000  0.000  0.500  0.000
  0.000  0.000  0.000  0.000  0.500
atom   22   Tr[ns(na)] =   5.00000
    eigenvalues:
  0.500  0.500  0.500  0.500  0.500
    eigenvectors:
  1.000  0.000  0.000  0.000  0.000
  0.000  1.000  0.000  0.000  0.000
  0.000  0.000  1.000  0.000  0.000
[...]
  0.668 -0.002 -0.000 -0.021 -0.002
 -0.002  0.632 -0.001 -0.001  0.000
 -0.000 -0.001  0.511  0.001  0.011
 -0.021 -0.001  0.001  0.622  0.000
 -0.002  0.000  0.011  0.000  0.500
atom   10   Tr[ns(na)] =   5.66549
    eigenvalues:
  0.265  0.426  0.506  0.722  0.914
    eigenvectors:
  0.000  0.982  0.000  0.018  0.000
  0.000  0.000  0.000  0.001  0.999
  0.999  0.000  0.001  0.000  0.000
  0.000  0.018  0.000  0.981  0.001
  0.001  0.000  0.999  0.000  0.000
    occupations:
  0.431  0.000 -0.003  0.039 -0.000
  0.000  0.914 -0.000  0.006 -0.002
 -0.003 -0.000  0.265 -0.006 -0.006
  0.039  0.006 -0.006  0.717 -0.000
 -0.000 -0.002 -0.006 -0.000  0.506
atom   16   Tr[ns(na)] =   5.82208
    eigenvalues:
  0.370  0.510  0.577  0.678  0.776
    eigenvectors:
  0.010  0.017  0.272  0.003  0.698
  0.000  0.961  0.034  0.003  0.002
  0.930  0.001  0.000  0.055  0.014
  0.001  0.019  0.693  0.002  0.285
  0.058  0.003  0.001  0.936  0.002
    occupations:
  0.713 -0.015  0.038 -0.089 -0.004
 -0.015  0.513 -0.003 -0.005 -0.009
  0.038 -0.003  0.393 -0.018  0.072
 -0.089 -0.005 -0.018  0.632  0.001
 -0.004 -0.009  0.072  0.001  0.659
atom   17   Tr[ns(na)] =   5.81198
    eigenvalues:
  0.370  0.519  0.591  0.638  0.789
    eigenvectors:
  0.000  0.000  0.986  0.014  0.000
  0.000  0.000  0.013  0.976  0.010
  1.000  0.000  0.000  0.000  0.000
  0.000  0.000  0.001  0.010  0.990
  0.000  0.999  0.000  0.000  0.000
    occupations:
  0.591 -0.005  0.002  0.003  0.000
 -0.005  0.638  0.001  0.015 -0.002
  0.002  0.001  0.370 -0.001 -0.002
  0.003  0.015 -0.001  0.787 -0.000
  0.000 -0.002 -0.002 -0.000  0.519
atom   22   Tr[ns(na)] =   5.80102
    eigenvalues:
  0.409  0.458  0.590  0.607  0.837
    eigenvectors:
  0.000  0.000  0.006  0.251  0.743
  0.000  0.000  0.981  0.018  0.000
  0.153  0.847  0.000  0.000  0.000
  0.000  0.000  0.013  0.731  0.256
  0.847  0.153  0.000  0.000  0.000
    occupations:
  0.778  0.003  0.000 -0.100 -0.003
  0.003  0.590 -0.000  0.001  0.000
  0.000 -0.000  0.450  0.001 -0.018
 -0.100  0.001  0.001  0.666  0.002
 -0.003  0.000 -0.018  0.002  0.416
atom   23   Tr[ns(na)] =   5.85115
    eigenvalues:
  0.475  0.486  0.527  0.606  0.832
    eigenvectors:
  0.003  0.000  0.000  0.986  0.011
  0.000  0.987  0.013  0.000  0.000
  0.981  0.000  0.015  0.004  0.000
  0.001  0.000  0.000  0.010  0.989
  0.015  0.013  0.972  0.000  0.000
    occupations:
  0.608 -0.001  0.007 -0.023 -0.000
 -0.001  0.486 -0.001 -0.001 -0.005
  0.007 -0.001  0.477  0.007  0.006
 -0.023 -0.001  0.007  0.829 -0.000
 -0.000 -0.005  0.006 -0.000  0.525
N of occupied +U levels =  46.4365579
 --- exit write_ns ---

     Threshold (ethr) on eigenvalues was too large:
     Diagonalizing with lowered threshold

     Davidson diagonalization with overlap
     ethr =  4.76E-09,  avg # of iterations =  2.8

[...]

     total energy              =   -1761.27322381 Ry
     Harris-Foulkes estimate   =   -1761.27322380 Ry
     estimated scf accuracy    <       0.00000001 Ry

     iteration # 16     ecut=    40.00 Ry     beta=0.70
     Davidson diagonalization with overlap
     ethr =  4.40E-12,  avg # of iterations =  1.0

     negative rho (up, down):  0.347E-02 0.000E+00

     End of self-consistent calculation
 --- enter write_ns ---
 LDA+U parameters:
U( 2)     =  6.50000000
alpha( 2) =  0.00000000
atom    3   Tr[ns(na)] =   5.80956
    eigenvalues:
  0.406  0.514  0.581  0.610  0.794
    eigenvectors:
  0.010  0.019  0.300  0.001  0.671
  0.000  0.959  0.034  0.005  0.001
  0.828  0.001  0.000  0.160  0.011
  0.001  0.019  0.649  0.014  0.317
  0.162  0.002  0.016  0.820  0.000
    occupations:
  0.721  0.015  0.034 -0.099  0.006
  0.015  0.517  0.004  0.005 -0.005
  0.034  0.004  0.443 -0.015 -0.074
 -0.099  0.005 -0.015  0.647 -0.004
  0.006 -0.005 -0.074 -0.004  0.576
atom    4   Tr[ns(na)] =   5.80873
    eigenvalues:
  0.342  0.519  0.584  0.678  0.781
    eigenvectors:
  0.000  0.000  0.989  0.010  0.001
  0.000  0.000  0.010  0.983  0.006
  1.000  0.000  0.000  0.000  0.000
  0.000  0.000  0.000  0.007  0.993
  0.000  1.000  0.000  0.000  0.000
    occupations:
  0.585  0.010  0.002  0.004  0.000
  0.010  0.678  0.004  0.008 -0.001
  0.002  0.004  0.342  0.001  0.001
  0.004  0.008  0.001  0.780 -0.000
  0.000 -0.001  0.001 -0.000  0.519
atom    9   Tr[ns(na)] =   5.86683
    eigenvalues:
  0.493  0.518  0.614  0.632  0.676
    eigenvectors:
  0.000  0.000  0.126  0.000  0.873
  0.000  0.000  0.007  0.992  0.001
  0.288  0.712  0.000  0.000  0.000
  0.000  0.000  0.866  0.008  0.126
  0.711  0.288  0.000  0.000  0.000
    occupations:
  0.668 -0.002 -0.000 -0.020 -0.002
 -0.002  0.632 -0.001 -0.001  0.000
 -0.000 -0.001  0.511  0.001  0.011
 -0.020 -0.001  0.001  0.622  0.000
 -0.002  0.000  0.011  0.000  0.500
atom   10   Tr[ns(na)] =   5.66557
    eigenvalues:
  0.265  0.426  0.506  0.722  0.914
    eigenvectors:
  0.000  0.982  0.000  0.018  0.000
  0.000  0.000  0.000  0.001  0.999
  0.999  0.000  0.001  0.000  0.000
  0.000  0.018  0.000  0.981  0.001
  0.001  0.000  0.999  0.000  0.000
    occupations:
  0.431  0.000 -0.003  0.039 -0.000
  0.000  0.914 -0.000  0.006 -0.003
 -0.003 -0.000  0.265 -0.006 -0.006
  0.039  0.006 -0.006  0.717 -0.000
 -0.000 -0.003 -0.006 -0.000  0.506
atom   16   Tr[ns(na)] =   5.82202
    eigenvalues:
  0.370  0.510  0.577  0.678  0.776
    eigenvectors:
  0.010  0.017  0.272  0.003  0.698
  0.000  0.961  0.034  0.003  0.002
  0.930  0.001  0.000  0.055  0.014
  0.001  0.019  0.693  0.002  0.285
  0.058  0.003  0.001  0.937  0.002
    occupations:
  0.713 -0.015  0.038 -0.089 -0.004
 -0.015  0.513 -0.003 -0.005 -0.009
  0.038 -0.003  0.393 -0.018  0.072
 -0.089 -0.005 -0.018  0.632  0.001
 -0.004 -0.009  0.072  0.001  0.660
atom   17   Tr[ns(na)] =   5.81215
    eigenvalues:
  0.370  0.519  0.591  0.638  0.789
    eigenvectors:
  0.000  0.000  0.986  0.014  0.000
  0.000  0.000  0.013  0.976  0.010
  1.000  0.000  0.000  0.000  0.000
  0.000  0.000  0.001  0.010  0.990
  0.000  0.999  0.000  0.000  0.000
    occupations:
  0.591 -0.005  0.002  0.003  0.000
 -0.005  0.639  0.001  0.015 -0.002
  0.002  0.001  0.370 -0.001 -0.002
  0.003  0.015 -0.001  0.787 -0.000
  0.000 -0.002 -0.002 -0.000  0.519
atom   22   Tr[ns(na)] =   5.80088
    eigenvalues:
  0.408  0.458  0.590  0.607  0.837
    eigenvectors:
  0.000  0.000  0.006  0.251  0.743
  0.000  0.000  0.982  0.018  0.000
  0.153  0.847  0.000  0.000  0.000
  0.000  0.000  0.013  0.731  0.257
  0.847  0.153  0.000  0.000  0.000
    occupations:
  0.778  0.003  0.000 -0.101 -0.003
  0.003  0.590 -0.000  0.001  0.000
  0.000 -0.000  0.450  0.001 -0.018
 -0.101  0.001  0.001  0.666  0.002
 -0.003  0.000 -0.018  0.002  0.416
atom   23   Tr[ns(na)] =   5.85038
    eigenvalues:
  0.475  0.486  0.527  0.606  0.832
    eigenvectors:
  0.003  0.000  0.000  0.986  0.011
  0.000  0.987  0.013  0.000  0.000
  0.981  0.000  0.015  0.004  0.000
  0.001  0.000  0.000  0.010  0.989
  0.015  0.013  0.972  0.000  0.000
    occupations:
  0.608 -0.001  0.007 -0.023 -0.000
 -0.001  0.486 -0.001 -0.001 -0.005
  0.007 -0.001  0.476  0.007  0.006
 -0.023 -0.001  0.007  0.829 -0.000
 -0.000 -0.005  0.006 -0.000  0.525
N of occupied +U levels =  46.4361123
 --- exit write_ns ---

[...]

          k = 0.2500-0.3900 0.0000 ( 29726 PWs)   bands (ev):

[...]

          k =-0.2500 0.1950 0.0000 ( 29746 PWs)   bands (ev):

   -62.3005 -61.9651 -61.9343 -61.6501 -61.6165 -61.4818 -61.4668 -61.2195
   -36.8166 -36.6178 -36.5414 -36.4979 -36.2008 -36.0633 -36.0370 -35.9738
   -35.9484 -35.8997 -35.8759 -35.8723 -35.8136 -35.7819 -35.7716 -35.7042
   -35.6705 -35.6689 -35.6360 -35.6211 -35.4895 -35.0897 -35.0557 -34.8198
   -23.0220 -20.0602 -19.7975 -19.3970 -19.2967 -19.1382 -19.0310 -18.9859
   -18.8924 -18.8640 -18.7309 -18.6477 -18.5854 -18.4680 -18.3401 -18.2548
   -18.1209 -18.0406 -17.8220 -16.6493  -8.4157  -8.2345  -8.0186  -7.9522
    -7.7005  -7.5228  -7.4080  -7.3533  -7.2912  -7.1669  -7.0433  -6.9590
    -6.8066  -6.5790  -6.4786  -6.3163  -6.1402  -6.0031  -5.9511  -5.8648
    -5.7875  -5.6704  -5.6085  -5.4439  -5.3109  -5.1021  -4.9812  -4.8898
    -4.7365  -4.6220  -4.5026  -4.4440  -4.3511  -4.2078  -4.1764  -4.0880
    -4.0266  -4.0036  -3.9753  -3.9280  -3.8382  -3.7856  -3.5574  -3.4736
    -3.3497  -3.3094  -3.2501  -3.1638  -3.1172  -3.0391  -2.9642  -2.7951
    -2.7322  -2.6433  -2.5654  -2.3910  -2.3193  -2.0781  -1.7675  -1.6429
    -1.5681  -1.3458  -0.6289  -0.5822  -0.2884  -0.1075   0.7068   0.9024
     0.9917   1.1102   1.1840   1.3140   1.4980   1.6742   1.7547   1.8253
     1.8583   1.9908   2.0660   2.2785   2.4248   2.6643   2.7885   3.1379
     3.6243   3.8458   4.0267   4.1516   4.2250   4.3837   4.4400   4.6154
     4.7488   4.7867   4.8341   4.9649   5.0282   5.1573   5.2834   5.5522
     5.9143   6.0580   6.1655   6.2140   6.3330   6.4889   6.5295   6.6128
     6.6921   6.9301   6.9928   7.2550   7.3397   7.4325   7.7268   7.7725
     8.0827   8.2339   8.4279   8.4953   8.5999   8.7376   8.8366   8.9596
     9.0354   9.1614   9.2341   9.4032   9.4897   9.5962   9.6927   9.7864
     9.8092   9.9815   9.9954  10.1175  10.2724  10.4381  10.5235  10.6295
    10.6945  10.8262  10.9493  10.9625  11.0569  11.1617  11.3320  11.3904
    11.4977  11.6841  11.7849  11.8657  11.9055  11.9718  12.0157  12.1684
    12.1984  12.2543  12.3584  12.3676  12.4418  12.5800  12.6297  12.8333
    12.9373  12.9860  13.0609  13.1560  13.2071  13.2896  13.3964  13.4426
    13.5372  13.5515  13.6175  13.7149  13.7617  13.8810  13.8956  13.9615
    14.0363  14.1052  14.1497  14.1966  14.2798  14.2998  14.3658  14.4139
    14.5057  14.5571  14.6304  14.7597  14.7828  14.8798  14.9059  15.0883
    15.1611  15.2440  15.3137  15.4429  15.4688  15.5250  15.6559  15.6978
    15.7956  15.8761  15.9115  16.0128  16.0990  16.1578  16.2676  16.3094
    16.3538  16.4404  16.5175  16.5605  16.6149  16.6331  16.7439  16.7789
    16.8795  16.8959  16.9854  17.0757  17.1055  17.1824  17.2593  17.3238
    17.3318  17.4114  17.5299  17.5936  17.7029  17.7603  17.8242  17.8987
    18.0402  18.0997  18.1486  18.2112  18.2473  18.3743  18.4229  18.5048
    18.5649  18.6415  18.6971  18.7879  18.9130  18.9653  19.0274  19.0855
    19.2074  19.3072  19.3693  19.4303  19.4723  19.5456  19.6193  19.7085
    19.8098  19.8814  19.9681  20.0505  20.1236  20.1682  20.1839  20.2572
    20.3174  20.3388  20.4445  20.4602  20.5067  20.5535  20.6050  20.6465
    20.7465  20.8223  20.8916  20.9571  21.0105  21.1144  21.1575  21.2244
    21.2732  21.4029  21.4206  21.4715  21.5328  21.5622  21.5982  21.6282
    21.6492  21.7374  21.8084  21.8670  21.9067  21.9539  22.0173  22.0757
    22.1548  22.1976  22.2876

     the Fermi energy is     0.2700 ev

!    total energy              =   -1761.27322380 Ry
     Harris-Foulkes estimate   =   -1761.27322381 Ry
     estimated scf accuracy    <          8.9E-09 Ry

     The total energy is the sum of the following terms:

     one-electron contribution =  -22570.38390098 Ry
     hartree contribution      =   11315.98985150 Ry
     xc contribution           =    -301.67240568 Ry
     ewald contribution        =    9790.55343658 Ry
     Hubbard energy            =       4.23989146 Ry
     smearing contrib. (-TS)   =      -0.00009668 Ry

     convergence has been achieved in  16 iterations

     Forces acting on atoms (Ry/au):

     negative rho (up, down):  0.347E-02 0.000E+00
     atom    1 type  1   force =    -0.00831374   -0.00642199    0.00021765
     atom    2 type  1   force =     0.00016680    0.01028866    0.00020282
     atom    3 type  2   force =     0.01789855   -0.01004400   -0.00002113
     atom    4 type  2   force =     0.01514575    0.00439979   -0.00007784
     atom    5 type  1   force =     0.00412845   -0.02867917   -0.00069405
     atom    6 type  1   force =     0.00220529    0.02821675   -0.00075301
     atom    7 type  1   force =    -0.00064276    0.00239403   -0.00081309
     atom    8 type  1   force =     0.01151588    0.00104486    0.00045494
     atom    9 type  2   force =    -0.00309720   -0.00210319    0.00010023
     atom   10 type  2   force =     0.00145816    0.00134622   -0.00014644
     atom   11 type  1   force =    -0.00570103    0.01329507    0.00036379
     atom   12 type  1   force =    -0.00208723   -0.00763018    0.00034371
     atom   13 type  1   force =     0.01352031   -0.00181419   -0.00002985
     atom   14 type  1   force =     0.00651052   -0.00402251    0.00053991
     atom   15 type  1   force =    -0.00043571    0.00630282    0.00052780
     atom   16 type  2   force =    -0.01879727   -0.00770018    0.00022218
     atom   17 type  2   force =    -0.01894604    0.00433945    0.00026938
     atom   18 type  1   force =     0.00041760   -0.01313031   -0.00063244
     atom   19 type  1   force =    -0.00263244    0.01059251   -0.00069289
     atom   20 type  1   force =    -0.00131815   -0.00023013   -0.00017263
     atom   21 type  1   force =     0.00228819    0.00202674    0.00063798
     atom   22 type  2   force =    -0.00218692   -0.00215042    0.00014224
     atom   23 type  2   force =     0.00036867    0.00119158    0.00027235
     atom   24 type  1   force =     0.00451027    0.01673831    0.00021243
     atom   25 type  1   force =     0.00147952   -0.01201811    0.00011413
     atom   26 type  1   force =    -0.01707466   -0.00634789    0.00000299
     atom   27 type  3   force =     0.00005699   -0.00013876   -0.00004777
     atom   28 type  3   force =    -0.00009536    0.00007207    0.00047749
     atom   29 type  3   force =    -0.00024623   -0.00021815   -0.00027913
     atom   30 type  3   force =    -0.00055350   -0.00010699   -0.00049720
     atom   31 type  1   force =     0.00051026    0.00054672    0.00066316
     atom   32 type  1   force =    -0.00018826   -0.00050322   -0.00011651
     atom   33 type  3   force =     0.00013528    0.00046381   -0.00079119

     Total force =     0.002763     Total SCF correction =     0.000204

     entering subroutine stress ...

     negative rho (up, down):  0.347E-02 0.000E+00
          total   stress  (Ry/bohr**3)                   (kbar)     P=   -4.92
  -0.00001561  -0.00000167  -0.00000095         -2.30     -0.25     -0.14
  -0.00000167  -0.00004898  -0.00000105         -0.25     -7.20     -0.15
  -0.00000095  -0.00000105  -0.00003570         -0.14     -0.15     -5.25

     bfgs converged in  24 scf cycles and  23 bfgs steps
     (criteria: energy < 0.10E-03, force < 0.10E-02)

     End of BFGS Geometry Optimization

     Final energy   =   -1761.2732238023 Ry
Begin final coordinates

ATOMIC_POSITIONS (crystal)
O0       0.000000000   0.000000000   0.369955597    0   0   1
O0       0.000000000   0.500000000   0.383051275    0   0   1
Mo1      0.250000000   0.500000000   0.441388352    0   0   1
Mo1      0.000000000   0.000000000   0.442160679    0   0   1
O0       0.250000000   0.780000000   0.442464392    0   0   1
O0       0.250000000   0.220000000   0.442066155    0   0   1
O0       0.000000000   0.500000000   0.496363111    0   0   1
O0       0.000000000   0.000000000   0.516387569    0   0   1
Mo1      0.250000000   0.000000000   0.578770996    0   0   1
Mo1      0.000000000   0.500000000   0.568236134    0   0   1
O0       0.250000000   0.720000000   0.572448002    0   0   1
O0       0.250000000   0.280000000   0.573256596    0   0   1
O0       0.000000000   0.000000000   0.624936002    0   0   1
O0       0.500000000   0.000000000   0.370038917    0   0   1
O0       0.500000000   0.500000000   0.383196858    0   0   1
Mo1      0.750000000   0.500000000   0.441361185    0   0   1
Mo1      0.500000000   0.000000000   0.441589204    0   0   1
O0       0.750000000   0.780000000   0.442327278    0   0   1
O0       0.750000000   0.220000000   0.442503553    0   0   1
O0       0.500000000   0.500000000   0.500821195    0   0   1
O0       0.500000000   0.000000000   0.515578949    0   0   1
Mo1      0.750000000   0.000000000   0.569831962    0   0   1
Mo1      0.500000000   0.500000000   0.570702409    0   0   1
O0       0.750000000   0.720000000   0.571313779    0   0   1
O0       0.750000000   0.280000000   0.572077356    0   0   1
O0       0.500000000   0.000000000   0.624565931    0   0   1
H2       0.000173660   0.619168294   0.363638106
H2       0.498525425   0.605996031   0.359409015
H2       0.165869716   0.021570400   0.355487522
H2       0.665541658   0.019548962   0.355031357
O0       0.501848523   0.514685964   0.642414769
O0       0.499084864   0.355770813   0.676411086
H2       0.500449036   0.426870594   0.707964706
End final coordinates

     General routines

     Parallel routines
     Hubbard U routines

   This run was terminated on:  14:49:31  29May2014

   JOB DONE.