     Program PWSCF v.5.0.2 (svn rev. 9656) starts on 31May2014 at  7:24:35

     Current dimensions of program PWSCF are:
     Max number of different atomic species (ntypx) = 10
     Max number of k-points (npk) =  40000
     Max angular momentum in pseudopotentials (lmaxx) =  3
     Reading input from pwscf.in
Warning: card &CELL ignored
Warning: card / ignored

     Subspace diagonalization in iterative solution of the eigenvalue problem:
     a serial algorithm will be used

     bravais-lattice index     =            0
     lattice parameter (alat)  =      12.2076  a.u.
     unit-cell volume          =    7496.5096 (a.u.)^3
     number of atoms/cell      =           33
     number of atomic types    =            3
     number of electrons       =       253.00
     number of Kohn-Sham states=          379
     kinetic-energy cutoff     =      40.0000  Ry
     charge density cutoff     =     500.0000  Ry
     convergence threshold     =      1.0E-06
     mixing beta               =       0.7000
     number of iterations used =            8  plain     mixing
     Exchange-correlation      = SLA  PW   PBE  PBE ( 1 4 3 4 0)
     EXX-fraction              =        0.00
     nstep                     =           50

     celldm(1)=  12.207631  celldm(2)=   0.000000  celldm(3)=   0.000000
     celldm(4)=   0.000000  celldm(5)=   0.000000  celldm(6)=   0.000000

     crystal axes: (cart. coord. in units of alat)
               a(1) = (   1.000000   0.000000   0.000000 )
               a(2) = (   0.000000   1.004836   0.000000 )
               a(3) = (   0.000000   0.000000   4.100811 )

     reciprocal axes: (cart. coord. in units 2 pi/alat)
               b(1) = (  1.000000  0.000000  0.000000 )
               b(2) = (  0.000000  0.995187  0.000000 )
               b(3) = (  0.000000  0.000000  0.243854 )

     PseudoPot. # 1 for O  read from file:
     /home/camp/zhonxu/pseudo/o_pbe_v1.01.uspp.F.UPF
     MD5 check sum: 2bcb18d16ea4b960afae9ec6d52f22d2
     Pseudo is Ultrasoft + core correction, Zval =  6.0
     Generated by new atomic code, or converted to UPF format
     Using radial grid of  737 points,  5 beta functions with:
                l(1) =   0
                l(2) =   0
                l(3) =   1
                l(4) =   1
                l(5) =   2
     Q(r) pseudized with  8 coefficients,  rinner =    0.900   0.900   0.900
                                                       0.900   0.900

     PseudoPot. # 2 for Pt read from file:
     /home/camp/zhonxu/pseudo/pt_pbe_v1.uspp.F.UPF
     MD5 check sum: 4c71d6ad5ef119f1eb26a4d0b7884226
     Pseudo is Ultrasoft + core correction, Zval = 16.0
     Generated by new atomic code, or converted to UPF format
     Using radial grid of  985 points,  6 beta functions with:
                l(1) =   0
                l(2) =   0
                l(3) =   1
                l(4) =   1
                l(5) =   2
                l(6) =   2
     Q(r) pseudized with  8 coefficients,  rinner =    1.300   1.300   1.300
                                                       1.300   1.300

     PseudoPot. # 3 for H  read from file:
     /home/camp/zhonxu/pseudo/h_pbe_v1.uspp.F.UPF
     MD5 check sum: 3408e3ff4ec8b0a4e358431e7e038a48
     Pseudo is Ultrasoft, Zval =  1.0
     Generated by new atomic code, or converted to UPF format
     Using radial grid of  615 points,  2 beta functions with:
                l(1) =   0
                l(2) =   0
     Q(r) pseudized with  8 coefficients,  rinner =    0.700

     atomic species   valence    mass     pseudopotential
        O0             6.00    15.99940     O ( 1.00)
        Pt1           16.00   195.08000     Pt( 1.00)
        H2             1.00     1.00794     H ( 1.00)

     Simplified LDA+U calculation (l_max = 2) with parameters (eV):
     atomic species    L          U    alpha       J0     beta
        Pt1            2     5.5000   0.0000   0.0000   0.0000

     No symmetry found

   Cartesian axes

     site n.     atom                  positions (alat units)
         1           O0  tau(   1) = (   0.0000000   0.0000000   1.5494095  )
         2           O0  tau(   2) = (   0.0000000   0.5024180   1.6475009  )
         3           Pt1 tau(   3) = (   0.2500000   0.5024180   1.8504910  )
         4           Pt1 tau(   4) = (   0.0000000   0.0000000   1.8570523  )
         5           O0  tau(   5) = (   0.2500000   0.8139171   1.8187098  )
         6           O0  tau(   6) = (   0.2500000   0.1909188   1.8864142  )
         7           O0  tau(   7) = (   0.0000000   0.5024180   2.0369959  )
         8           O0  tau(   8) = (   0.0000000   0.0000000   2.1720357  )
         9           Pt1 tau(   9) = (   0.2500000   0.0000000   2.3614521  )
        10           Pt1 tau(  10) = (   0.0000000   0.5024180   2.3598528  )
        11           O0  tau(  11) = (   0.2500000   0.6933368   2.3268823  )
        12           O0  tau(  12) = (   0.2500000   0.3114991   2.4033624  )
        13           O0  tau(  13) = (   0.0000000   0.0000000   2.5482851  )
        14           O0  tau(  14) = (   0.5000000   0.0000000   1.5485073  )
        15           O0  tau(  15) = (   0.5000000   0.5024180   1.6434821  )
        16           Pt1 tau(  16) = (   0.7500000   0.5024180   1.8504910  )
        17           Pt1 tau(  17) = (   0.5000000   0.0000000   1.8561092  )
        18           O0  tau(  18) = (   0.7500000   0.8139171   1.8187918  )
        19           O0  tau(  19) = (   0.7500000   0.1909188   1.8863321  )
        20           O0  tau(  20) = (   0.5000000   0.5024180   2.0428191  )
        21           O0  tau(  21) = (   0.5000000   0.0000000   2.1708874  )
        22           Pt1 tau(  22) = (   0.7500000   0.0000000   2.3614521  )
        23           Pt1 tau(  23) = (   0.5000000   0.5024180   2.3628874  )
        24           O0  tau(  24) = (   0.7500000   0.6933368   2.3268003  )
        25           O0  tau(  25) = (   0.7500000   0.3114991   2.4034034  )
        26           O0  tau(  26) = (   0.5000000   0.0000000   2.5460296  )
        27           H2  tau(  27) = (   0.0000200   0.6429744   1.5830361  )
        28           H2  tau(  28) = (   0.5000600   0.6435874   1.5806577  )
        29           H2  tau(  29) = (   0.1433700   0.0339333   1.5082373  )
        30           H2  tau(  30) = (   0.6430800   0.0354607   1.5076632  )
        31           O0  tau(  31) = (   0.5001100   0.5589199   2.6603192  )
        32           O0  tau(  32) = (   0.4999400   0.3687346   2.7792838  )
        33           H2  tau(  33) = (   0.4999900   0.4305019   2.9192445  )

     number of k points=    10  Methfessel-Paxton smearing, width (Ry)=  0.0100
                       cart. coord. in units 2pi/alat
        k(    1) = (   0.0000000   0.0000000   0.0000000), wk =   0.1250000
        k(    2) = (   0.0000000   0.2487968   0.0000000), wk =   0.2500000
        k(    3) = (   0.0000000  -0.4975937   0.0000000), wk =   0.1250000
        k(    4) = (   0.2500000   0.0000000   0.0000000), wk =   0.2500000
        k(    5) = (   0.2500000   0.2487968   0.0000000), wk =   0.2500000
        k(    6) = (   0.2500000  -0.4975937   0.0000000), wk =   0.2500000
        k(    7) = (  -0.5000000   0.0000000   0.0000000), wk =   0.1250000
        k(    8) = (  -0.5000000   0.2487968   0.0000000), wk =   0.2500000
        k(    9) = (  -0.5000000  -0.4975937   0.0000000), wk =   0.1250000
        k(   10) = (  -0.2500000   0.2487968   0.0000000), wk =   0.2500000

     Largest allocated arrays     est. size (Mb)     dimensions
     Largest temporary arrays     est. size (Mb)     dimensions

     Check: negative/imaginary core charge=   -0.000003    0.000000

     Initial potential from superposition of free atoms
     Check: negative starting charge=   -1.535323

     starting charge  248.99983, renormalised to  253.00000

     negative rho (up, down):  0.156E+01 0.000E+00
     Number of +U iterations with fixed ns =  0
     Starting occupations:
 --- enter write_ns ---
 LDA+U parameters:
U( 2)     =  5.50000000
alpha( 2) =  0.00000000
atom    3   Tr[ns(na)] =   8.00000
    eigenvalues:
  0.800  0.800  0.800  0.800  0.800
    eigenvectors:
  1.000  0.000  0.000  0.000  0.000
  0.000  1.000  0.000  0.000  0.000
  0.000  0.000  1.000  0.000  0.000
  0.000  0.000  0.000  1.000  0.000
  0.000  0.000  0.000  0.000  1.000
    occupations:
  0.800  0.000  0.000  0.000  0.000
  0.000  0.800  0.000  0.000  0.000
  0.000  0.000  0.800  0.000  0.000
  0.000  0.000  0.000  0.800  0.000
  0.000  0.000  0.000  0.000  0.800
atom    4   Tr[ns(na)] =   8.00000
    eigenvalues:
  0.800  0.800  0.800  0.800  0.800
    eigenvectors:
  1.000  0.000  0.000  0.000  0.000
  0.000  1.000  0.000  0.000  0.000
  0.000  0.000  1.000  0.000  0.000
  0.000  0.000  0.000  1.000  0.000
  0.000  0.000  0.000  0.000  1.000
    occupations:
  0.800  0.000  0.000  0.000  0.000
  0.000  0.800  0.000  0.000  0.000
  0.000  0.000  0.800  0.000  0.000
  0.000  0.000  0.000  0.800  0.000
  0.000  0.000  0.000  0.000  0.800
atom    9   Tr[ns(na)] =   8.00000
    eigenvalues:
  0.800  0.800  0.800  0.800  0.800
    eigenvectors:
  1.000  0.000  0.000  0.000  0.000
  0.000  1.000  0.000  0.000  0.000
  0.000  0.000  1.000  0.000  0.000
  0.000  0.000  0.000  1.000  0.000
  0.000  0.000  0.000  0.000  1.000
    occupations:
  0.800  0.000  0.000  0.000  0.000
  0.000  0.800  0.000  0.000  0.000
  0.000  0.000  0.800  0.000  0.000
  0.000  0.000  0.000  0.800  0.000
  0.000  0.000  0.000  0.000  0.800
atom   10   Tr[ns(na)] =   8.00000
    eigenvalues:
  0.800  0.800  0.800  0.800  0.800
    eigenvectors:
  1.000  0.000  0.000  0.000  0.000
  0.000  1.000  0.000  0.000  0.000
  0.000  0.000  1.000  0.000  0.000
  0.000  0.000  0.000  1.000  0.000
  0.000  0.000  0.000  0.000  1.000
    occupations:
  0.800  0.000  0.000  0.000  0.000
  0.000  0.800  0.000  0.000  0.000
  0.000  0.000  0.800  0.000  0.000
  0.000  0.000  0.000  0.800  0.000
  0.000  0.000  0.000  0.000  0.800
atom   16   Tr[ns(na)] =   8.00000
    eigenvalues:
  0.800  0.800  0.800  0.800  0.800
    eigenvectors:
  1.000  0.000  0.000  0.000  0.000
  0.000  1.000  0.000  0.000  0.000
  0.000  0.000  1.000  0.000  0.000
  0.000  0.000  0.000  1.000  0.000
  0.000  0.000  0.000  0.000  1.000
    occupations:
  0.800  0.000  0.000  0.000  0.000
  0.000  0.800  0.000  0.000  0.000
  0.000  0.000  0.800  0.000  0.000
  0.000  0.000  0.000  0.800  0.000
  0.000  0.000  0.000  0.000  0.800
atom   17   Tr[ns(na)] =   8.00000
    eigenvalues:
  0.800  0.800  0.800  0.800  0.800
    eigenvectors:
  1.000  0.000  0.000  0.000  0.000
  0.000  1.000  0.000  0.000  0.000
  0.000  0.000  1.000  0.000  0.000
  0.000  0.000  0.000  1.000  0.000
  0.000  0.000  0.000  0.000  1.000
    occupations:
  0.800  0.000  0.000  0.000  0.000
  0.000  0.800  0.000  0.000  0.000
  0.000  0.000  0.800  0.000  0.000
  0.000  0.000  0.000  0.800  0.000
  0.000  0.000  0.000  0.000  0.800
atom   22   Tr[ns(na)] =   8.00000
    eigenvalues:
  0.800  0.800  0.800  0.800  0.800
    eigenvectors:
  1.000  0.000  0.000  0.000  0.000
  0.000  1.000  0.000  0.000  0.000
  0.000  0.000  1.000  0.000  0.000
[...]
  0.000 -0.039  0.000 -0.000  0.670
atom   16   Tr[ns(na)] =   8.76282
    eigenvalues:
  0.698  0.716  0.987  0.989  0.992
    eigenvectors:
  0.048  0.123  0.819  0.003  0.007
  0.748  0.251  0.000  0.000  0.000
  0.001  0.004  0.015  0.000  0.980
  0.203  0.621  0.162  0.000  0.014
  0.000  0.000  0.003  0.997  0.000
    occupations:
  0.940 -0.007  0.008 -0.104 -0.000
 -0.007  0.703 -0.001 -0.005 -0.002
  0.008 -0.001  0.990  0.019  0.000
 -0.104 -0.005  0.019  0.760 -0.001
 -0.000 -0.002  0.000 -0.001  0.989
atom   17   Tr[ns(na)] =   8.75630
    eigenvalues:
  0.697  0.720  0.985  0.987  0.988
    eigenvectors:
  0.000  0.985  0.009  0.003  0.002
  0.012  0.000  0.078  0.857  0.052
  0.000  0.005  0.773  0.024  0.198
  0.000  0.009  0.139  0.105  0.747
  0.988  0.000  0.001  0.011  0.001
    occupations:
  0.724 -0.004 -0.019  0.026 -0.001
 -0.004  0.983  0.000  0.000  0.032
 -0.019  0.000  0.984  0.003  0.000
  0.026  0.000  0.003  0.985  0.000
 -0.001  0.032  0.000  0.000  0.701
atom   22   Tr[ns(na)] =   8.74615
    eigenvalues:
  0.720  0.729  0.963  0.973  0.988
    eigenvectors:
  0.001  0.134  0.001  0.016  0.849
  0.998  0.002  0.000  0.000  0.000
  0.000  0.013  0.035  0.944  0.009
  0.002  0.852  0.000  0.004  0.142
  0.000  0.000  0.965  0.035  0.000
    occupations:
  0.953  0.002 -0.009 -0.088  0.000
  0.002  0.720  0.000 -0.000 -0.003
 -0.009  0.000  0.970 -0.026 -0.002
 -0.088 -0.000 -0.026  0.767 -0.000
  0.000 -0.003 -0.002 -0.000  0.963
atom   23   Tr[ns(na)] =   8.75182
    eigenvalues:
  0.711  0.716  0.973  0.987  0.989
    eigenvectors:
  0.000  0.957  0.000  0.033  0.009
  0.021  0.000  0.979  0.000  0.000
  0.000  0.034  0.000  0.966  0.000
  0.000  0.009  0.000  0.000  0.991
  0.979  0.000  0.021  0.000  0.000
    occupations:
  0.728  0.000  0.049  0.025 -0.000
  0.000  0.968  0.000 -0.000 -0.038
  0.049  0.000  0.978 -0.005 -0.000
  0.025 -0.000 -0.005  0.986 -0.000
 -0.000 -0.038 -0.000 -0.000  0.717
N of occupied +U levels =  70.1091459
 --- exit write_ns ---

     Threshold (ethr) on eigenvalues was too large:
     Diagonalizing with lowered threshold

     Davidson diagonalization with overlap
     ethr =  1.35E-08,  avg # of iterations =  2.0

[...]

     total energy              =   -2312.68082776 Ry
     Harris-Foulkes estimate   =   -2312.68082776 Ry
     estimated scf accuracy    <       0.00000001 Ry

     iteration # 16     ecut=    40.00 Ry     beta=0.70
     Davidson diagonalization with overlap
     ethr =  5.05E-12,  avg # of iterations =  1.0

     negative rho (up, down):  0.157E+01 0.000E+00

     End of self-consistent calculation
 --- enter write_ns ---
 LDA+U parameters:
U( 2)     =  5.50000000
alpha( 2) =  0.00000000
atom    3   Tr[ns(na)] =   8.76285
    eigenvalues:
  0.698  0.716  0.987  0.989  0.992
    eigenvectors:
  0.048  0.123  0.817  0.005  0.007
  0.748  0.252  0.000  0.000  0.000
  0.001  0.004  0.015  0.000  0.979
  0.203  0.621  0.162  0.001  0.014
  0.000  0.000  0.006  0.994  0.000
    occupations:
  0.940  0.007  0.008 -0.104  0.001
  0.007  0.703  0.002  0.005 -0.002
  0.008  0.002  0.990  0.019 -0.000
 -0.104  0.005  0.019  0.760  0.001
  0.001 -0.002 -0.000  0.001  0.989
atom    4   Tr[ns(na)] =   8.75742
    eigenvalues:
  0.698  0.720  0.985  0.987  0.988
    eigenvectors:
  0.000  0.985  0.010  0.003  0.003
  0.012  0.000  0.052  0.873  0.063
  0.000  0.005  0.808  0.011  0.175
  0.000  0.009  0.130  0.102  0.759
  0.988  0.000  0.001  0.011  0.001
    occupations:
  0.724 -0.004 -0.019  0.026 -0.001
 -0.004  0.984  0.000  0.000  0.032
 -0.019  0.000  0.984  0.003  0.000
  0.026  0.000  0.003  0.985  0.000
 -0.001  0.032  0.000  0.000  0.701
atom    9   Tr[ns(na)] =   8.74554
    eigenvalues:
  0.720  0.729  0.963  0.973  0.988
    eigenvectors:
  0.000  0.134  0.000  0.016  0.849
  0.998  0.002  0.000  0.000  0.000
  0.000  0.013  0.030  0.949  0.009
  0.002  0.851  0.000  0.005  0.142
  0.000  0.000  0.969  0.031  0.000
    occupations:
  0.953 -0.001 -0.009 -0.088 -0.000
 -0.001  0.720  0.000  0.001 -0.003
 -0.009  0.000  0.970 -0.026  0.002
 -0.088  0.001 -0.026  0.767  0.000
 -0.000 -0.003  0.002  0.000  0.963
atom   10   Tr[ns(na)] =   8.82756
    eigenvalues:
  0.666  0.787  0.985  0.986  0.990
    eigenvectors:
  0.000  0.978  0.000  0.015  0.007
  0.015  0.000  0.985  0.000  0.000
  0.000  0.001  0.000  0.178  0.821
  0.000  0.021  0.000  0.808  0.171
  0.985  0.000  0.015  0.000  0.000
    occupations:
  0.791 -0.000 -0.006  0.029  0.000
 -0.000  0.980 -0.000  0.000 -0.039
 -0.006 -0.000  0.989 -0.001  0.000
  0.029  0.000 -0.001  0.983 -0.000
  0.000 -0.039  0.000 -0.000  0.671
atom   16   Tr[ns(na)] =   8.76285
    eigenvalues:
  0.698  0.716  0.987  0.989  0.992
    eigenvectors:
  0.049  0.123  0.819  0.003  0.007
  0.746  0.253  0.000  0.000  0.000
  0.001  0.004  0.015  0.000  0.980
  0.204  0.620  0.162  0.000  0.014
  0.000  0.000  0.003  0.997  0.000
    occupations:
  0.940 -0.007  0.008 -0.104 -0.000
 -0.007  0.703 -0.001 -0.005 -0.002
  0.008 -0.001  0.990  0.019  0.000
 -0.104 -0.005  0.019  0.760 -0.001
 -0.000 -0.002  0.000 -0.001  0.989
atom   17   Tr[ns(na)] =   8.75608
    eigenvalues:
  0.697  0.720  0.985  0.987  0.988
    eigenvectors:
  0.000  0.985  0.009  0.003  0.002
  0.012  0.000  0.076  0.860  0.052
  0.000  0.005  0.780  0.024  0.191
  0.000  0.009  0.134  0.103  0.754
  0.988  0.000  0.001  0.011  0.001
    occupations:
  0.724 -0.004 -0.019  0.026 -0.001
 -0.004  0.983  0.000  0.000  0.032
 -0.019  0.000  0.984  0.003  0.000
  0.026  0.000  0.003  0.985  0.000
 -0.001  0.032  0.000  0.000  0.701
atom   22   Tr[ns(na)] =   8.74551
    eigenvalues:
  0.720  0.729  0.963  0.973  0.988
    eigenvectors:
  0.001  0.134  0.001  0.016  0.849
  0.998  0.002  0.000  0.000  0.000
  0.000  0.013  0.034  0.944  0.009
  0.002  0.852  0.000  0.005  0.142
  0.000  0.000  0.965  0.035  0.000
    occupations:
  0.953  0.002 -0.009 -0.088  0.000
  0.002  0.720  0.000 -0.000 -0.003
 -0.009  0.000  0.970 -0.026 -0.002
 -0.088 -0.000 -0.026  0.767 -0.000
  0.000 -0.003 -0.002 -0.000  0.963
atom   23   Tr[ns(na)] =   8.75173
    eigenvalues:
  0.711  0.716  0.973  0.987  0.989
    eigenvectors:
  0.000  0.957  0.000  0.034  0.009
  0.021  0.000  0.979  0.000  0.000
  0.000  0.034  0.000  0.966  0.000
  0.000  0.009  0.000  0.000  0.991
  0.979  0.000  0.021  0.000  0.000
    occupations:
  0.728  0.000  0.049  0.025 -0.000
  0.000  0.968  0.000 -0.000 -0.038
  0.049  0.000  0.978 -0.005 -0.000
  0.025 -0.000 -0.005  0.986 -0.000
 -0.000 -0.038 -0.000 -0.000  0.717
N of occupied +U levels =  70.1095384
 --- exit write_ns ---

[...]

          k = 0.2500-0.4976 0.0000 ( 32026 PWs)   bands (ev):

[...]

          k =-0.2500 0.2488 0.0000 ( 32025 PWs)   bands (ev):

   -54.6118 -54.5987 -54.5599 -54.5508 -54.5097 -54.5028 -54.4727 -54.4333
   -54.4170 -54.4128 -54.3862 -54.3827 -54.3465 -54.2598 -54.2555 -54.2412
   -54.2367 -54.1416 -54.1373 -54.1121 -54.1071 -53.7364 -53.5084 -53.1201
   -23.9059 -21.4879 -21.2232 -20.5816 -20.4446 -20.1773 -20.1171 -20.0352
   -19.8913 -19.8606 -19.7319 -19.6797 -19.5982 -19.5383 -19.4035 -19.3477
   -19.3062 -18.6837 -18.4469 -17.4896 -10.3792 -10.2024 -10.0792 -10.0090
    -9.6060  -9.5793  -9.5330  -9.3648  -9.2434  -9.0668  -8.9676  -8.8924
    -8.8228  -8.6951  -8.5441  -8.5096  -8.4197  -8.3475  -8.2517  -7.9098
    -7.8326  -7.6854  -7.6351  -7.4909  -7.4494  -7.3358  -7.2468  -7.1454
    -7.0910  -6.9009  -6.8629  -6.8011  -6.6925  -6.6173  -6.5479  -6.4298
    -6.3749  -6.3434  -6.2837  -6.1459  -6.0831  -5.9395  -5.7491  -5.6686
    -5.4758  -5.2886  -5.1257  -4.9895  -4.9277  -4.8817  -4.7823  -4.6867
    -4.6405  -4.4856  -4.4397  -4.2361  -4.1767  -3.9808  -3.8063  -3.7614
    -3.6521  -3.5337  -3.4453  -3.3433  -3.2190  -3.1913  -3.0997  -2.9938
    -2.8702  -2.8284  -2.5342  -2.5122  -2.2766  -2.1360  -2.0488  -1.9364
    -1.8759  -1.8297  -1.7833  -1.6596  -1.3854  -1.2852  -1.2146  -1.0860
    -0.4838  -0.2727  -0.1492   0.3155   0.4721   0.8173   1.0196   1.2984
     1.3825   1.5257   1.5842   1.8711   2.0086   2.0674   2.3401   3.3929
     3.7962   4.0504   4.5587   4.8781   5.0933   5.5453   5.7451   5.7906
     5.9767   6.1448   6.2749   6.4503   6.5187   6.7496   6.8674   6.9686
     7.0133   7.1504   7.2982   7.4670   7.6104   7.6677   7.7853   7.8841
     7.9623   8.0810   8.2019   8.2584   8.4304   8.4936   8.6140   8.6990
     8.8124   8.8318   8.9742   9.0103   9.1528   9.2242   9.3507   9.4276
     9.5283   9.5956   9.6957   9.7524   9.8773   9.9858  10.0132  10.1314
    10.1996  10.2969  10.3954  10.4733  10.5681  10.6489  10.7211  10.7964
    10.9460  11.0161  11.0847  11.2007  11.3191  11.3526  11.4527  11.5461
    11.6259  11.7342  11.8028  11.8695  11.9520  12.0463  12.0934  12.1578
    12.2213  12.3021  12.3822  12.4352  12.5830  12.6510  12.7326  12.8059
    12.8803  12.9184  12.9948  13.0721  13.2278  13.2996  13.3479  13.4595
    13.5499  13.6423  13.6691  13.7191  13.8169  13.8460  13.9624  14.0343
    14.1144  14.1624  14.2705  14.4143  14.4311  14.4996  14.6112  14.7240
    14.7729  14.8466  14.9458  14.9812  15.0548  15.1525  15.1938  15.2994
    15.3218  15.3401  15.3831  15.4250  15.5149  15.5731  15.6455  15.6584
    15.7754  15.8547  15.8824  15.9360  15.9847  16.0765  16.1333  16.1707
    16.2354  16.2808  16.3432  16.4299  16.5270  16.6044  16.7448  16.7787
    16.8271  16.9308  16.9866  17.0412  17.0687  17.1501  17.2034  17.2479
    17.3296  17.3492  17.4026  17.4569  17.4838  17.5994  17.6026  17.6883
    17.7212  17.7630  17.8272  17.8493  17.8672  17.8839  17.8972  17.9553
    17.9721  18.0027  18.0419  18.0993  18.1389  18.2788  18.3625  18.3917
    18.4029  18.4976  18.5567  18.6095  18.6940  18.7441  18.8598  18.8774
    18.9550  19.0164  19.0482  19.1187  19.1295  19.2205  19.3112  19.3835
    19.4528  19.5603  19.6183  19.6470  19.7106  19.8463  19.9786  20.0293
    20.0980  20.1642  20.2001  20.2424  20.2851  20.3300  20.3655  20.4302
    20.5389  20.5932  20.6339  20.7040  20.7401  20.8216  20.8262  20.8595
    20.9453  20.9863  21.0491  21.1128  21.1629  21.2320  21.3203  21.3447
    21.4055  21.5006  21.5173  21.5775  21.6180  21.6860  21.7740  21.8785
    21.9438  21.9926  22.0719  22.1446  22.1852  22.2608  22.3138  22.3371
    22.4528  22.4900  22.5256

     the Fermi energy is    -1.2008 ev

!    total energy              =   -2312.68082776 Ry
     Harris-Foulkes estimate   =   -2312.68082776 Ry
     estimated scf accuracy    <          2.5E-09 Ry

     The total energy is the sum of the following terms:

     one-electron contribution =  -24130.57695012 Ry
     hartree contribution      =   12117.06343133 Ry
     xc contribution           =    -580.05263747 Ry
     ewald contribution        =   10279.41836364 Ry
     Hubbard energy            =       1.46695734 Ry
     smearing contrib. (-TS)   =       0.00000752 Ry

     convergence has been achieved in  16 iterations

     Forces acting on atoms (Ry/au):

     negative rho (up, down):  0.157E+01 0.000E+00
     atom    1 type  1   force =    -0.00697508   -0.00327413    0.00020649
     atom    2 type  1   force =     0.00011769    0.00471013    0.00077071
     atom    3 type  2   force =     0.00730669    0.00560784   -0.00005072
     atom    4 type  2   force =     0.00941993    0.00386789    0.00042625
     atom    5 type  1   force =     0.00111519   -0.00357702    0.00039765
     atom    6 type  1   force =     0.00009394   -0.00299039    0.00016583
     atom    7 type  1   force =     0.00011570   -0.00069381   -0.00025173
     atom    8 type  1   force =    -0.00394465    0.00006811    0.00051496
     atom    9 type  2   force =     0.00636110    0.00390667   -0.00001817
     atom   10 type  2   force =    -0.00006829   -0.02369953    0.00041944
     atom   11 type  1   force =    -0.00041172    0.00244493   -0.00030505
     atom   12 type  1   force =    -0.01260529    0.01073008   -0.00020021
     atom   13 type  1   force =    -0.00109345   -0.00767298   -0.00031170
     atom   14 type  1   force =    -0.00736605   -0.00306897    0.00001868
     atom   15 type  1   force =     0.00013215    0.00106206   -0.00009087
     atom   16 type  2   force =    -0.00817868    0.00570609   -0.00001134
     atom   17 type  2   force =     0.00941334    0.00540130    0.00029256
     atom   18 type  1   force =     0.00132423   -0.00360116    0.00039765
     atom   19 type  1   force =     0.00003887   -0.00294099    0.00018022
     atom   20 type  1   force =    -0.00001697   -0.00381397   -0.00034023
     atom   21 type  1   force =    -0.00384346    0.00236512    0.00038538
     atom   22 type  2   force =    -0.00288079    0.00383956   -0.00001233
     atom   23 type  2   force =     0.00011829    0.00809728   -0.00068552
     atom   24 type  1   force =     0.00048741    0.00250839   -0.00030942
     atom   25 type  1   force =     0.01266696    0.01076324   -0.00018923
     atom   26 type  1   force =    -0.00101893   -0.01628521   -0.00036228
     atom   27 type  3   force =     0.00000409   -0.00039494    0.00012894
     atom   28 type  3   force =    -0.00000533    0.00007064    0.00011230
     atom   29 type  3   force =    -0.00020442   -0.00011203   -0.00058187
     atom   30 type  3   force =    -0.00008590   -0.00015536   -0.00042188
     atom   31 type  1   force =     0.00002650   -0.00011784    0.00073565
     atom   32 type  1   force =    -0.00006242    0.00083291   -0.00039118
     atom   33 type  3   force =     0.00001936    0.00041607   -0.00061898

     Total force =     0.002404     Total SCF correction =     0.000179

     entering subroutine stress ...

     negative rho (up, down):  0.157E+01 0.000E+00
          total   stress  (Ry/bohr**3)                   (kbar)     P=  -21.01
  -0.00022750   0.00000007   0.00000365        -33.47      0.01      0.54
   0.00000007  -0.00014768  -0.00000717          0.01    -21.73     -1.06
   0.00000365  -0.00000717  -0.00005334          0.54     -1.06     -7.85

     bfgs converged in   9 scf cycles and   8 bfgs steps
     (criteria: energy < 0.10E-03, force < 0.10E-02)

     End of BFGS Geometry Optimization

     Final energy   =   -2312.6808277600 Ry
Begin final coordinates

ATOMIC_POSITIONS (crystal)
O0       0.000000000   0.000000000   0.377556570    0   0   1
O0       0.000000000   0.500000000   0.401707766    0   0   1
Pt1      0.250000000   0.500000000   0.451266737    0   0   1
Pt1      0.000000000   0.000000000   0.452668581    0   0   1
O0       0.250000000   0.810000000   0.442441768    0   0   1
O0       0.250000000   0.190000000   0.460998253    0   0   1
O0       0.000000000   0.500000000   0.496626348    0   0   1
O0       0.000000000   0.000000000   0.529712611    0   0   1
Pt1      0.250000000   0.000000000   0.575740812    0   0   1
Pt1      0.000000000   0.500000000   0.575364636    0   0   1
O0       0.250000000   0.690000000   0.565998213    0   0   1
O0       0.250000000   0.310000000   0.586895181    0   0   1
O0       0.000000000   0.000000000   0.621426488    0   0   1
O0       0.500000000   0.000000000   0.377440211    0   0   1
O0       0.500000000   0.500000000   0.401162286    0   0   1
Pt1      0.750000000   0.500000000   0.451269223    0   0   1
Pt1      0.500000000   0.000000000   0.452533903    0   0   1
O0       0.750000000   0.810000000   0.442452814    0   0   1
O0       0.750000000   0.190000000   0.460982378    0   0   1
O0       0.500000000   0.500000000   0.498137748    0   0   1
O0       0.500000000   0.000000000   0.529502353    0   0   1
Pt1      0.750000000   0.000000000   0.575737714    0   0   1
Pt1      0.500000000   0.500000000   0.575985507    0   0   1
O0       0.750000000   0.690000000   0.565973430    0   0   1
O0       0.750000000   0.310000000   0.586879752    0   0   1
O0       0.500000000   0.000000000   0.620969142    0   0   1
H2       0.000029769   0.641338890   0.386716617
H2       0.500066600   0.641285624   0.386279261
H2       0.144007458   0.033951994   0.368065543
H2       0.643600711   0.035224139   0.367884093
O0       0.500216061   0.556709489   0.648972059
O0       0.499809665   0.368351660   0.677511213
H2       0.500019808   0.428160152   0.711870790
End final coordinates

     General routines

     Parallel routines
     Hubbard U routines

   This run was terminated on:  18:52:43  31May2014

   JOB DONE.
Running PBS batch system epilogue script
Job id: 373318.audhumbla.fysik.dtu.dk
Username: zhonxu
Groupname: campgst
Jobname: PtO2/Eads-2-layers/OOH-U-5.5
Sessionid: 549
Queuename: verylong
Accounting:
This job has allocated the following 16 nodes:
a077 a077 a077 a077 a077 a077 a077 a077 a049 a049 a049 a049 a049 a049 a049 a049
Finished epilogue job 373318.audhumbla.fysik.dtu.dk for zhonxu